# vtk DataFile Version 3.0
Some data
ASCII
DATASET UNSTRUCTURED_GRID
POINTS 861 float
0.0 0.0 0.0
0.4 0.0 0.0
0.8 0.0 0.0
1.2000000000000002 0.0 0.0
1.6 0.0 0.0
2.0 0.0 0.0
2.4000000000000004 0.0 0.0
2.8000000000000003 0.0 0.0
3.2 0.0 0.0
3.6 0.0 0.0
4.0 0.0 0.0
4.4 0.0 0.0
4.800000000000001 0.0 0.0
5.2 0.0 0.0
5.6000000000000005 0.0 0.0
6.0 0.0 0.0
6.4 0.0 0.0
6.800000000000001 0.0 0.0
7.2 0.0 0.0
7.6000000000000005 0.0 0.0
8.0 0.0 0.0
8.4 0.0 0.0
8.8 0.0 0.0
9.200000000000001 0.0 0.0
9.600000000000001 0.0 0.0
10.0 0.0 0.0
10.4 0.0 0.0
10.8 0.0 0.0
11.200000000000001 0.0 0.0
11.600000000000001 0.0 0.0
12.0 0.0 0.0
12.4 0.0 0.0
12.8 0.0 0.0
13.200000000000001 0.0 0.0
13.600000000000001 0.0 0.0
14.0 0.0 0.0
14.4 0.0 0.0
14.8 0.0 0.0
15.200000000000001 0.0 0.0
15.600000000000001 0.0 0.0
16.0 0.0 0.0
0.0 0.1 0.0
0.4 0.1 0.0
0.8 0.1 0.0
1.2000000000000002 0.1 0.0
1.6 0.1 0.0
2.0 0.1 0.0
2.4000000000000004 0.1 0.0
2.8000000000000003 0.1 0.0
3.2 0.1 0.0
3.6 0.1 0.0
4.0 0.1 0.0
4.4 0.1 0.0
4.800000000000001 0.1 0.0
5.2 0.1 0.0
5.6000000000000005 0.1 0.0
6.0 0.1 0.0
6.4 0.1 0.0
6.800000000000001 0.1 0.0
7.2 0.1 0.0
7.6000000000000005 0.1 0.0
8.0 0.1 0.0
8.4 0.1 0.0
8.8 0.1 0.0
9.200000000000001 0.1 0.0
9.600000000000001 0.1 0.0
10.0 0.1 0.0
10.4 0.1 0.0
10.8 0.1 0.0
11.200000000000001 0.1 0.0
11.600000000000001 0.1 0.0
12.0 0.1 0.0
12.4 0.1 0.0
12.8 0.1 0.0
13.200000000000001 0.1 0.0
13.600000000000001 0.1 0.0
14.0 0.1 0.0
14.4 0.1 0.0
14.8 0.1 0.0
15.200000000000001 0.1 0.0
15.600000000000001 0.1 0.0
16.0 0.1 0.0
0.0 0.2 0.0
0.4 0.2 0.0
0.8 0.2 0.0
1.2000000000000002 0.2 0.0
1.6 0.2 0.0
2.0 0.2 0.0
2.4000000000000004 0.2 0.0
2.8000000000000003 0.2 0.0
3.2 0.2 0.0
3.6 0.2 0.0
4.0 0.2 0.0
4.4 0.2 0.0
4.800000000000001 0.2 0.0
5.2 0.2 0.0
5.6000000000000005 0.2 0.0
6.0 0.2 0.0
6.4 0.2 0.0
6.800000000000001 0.2 0.0
7.2 0.2 0.0
7.6000000000000005 0.2 0.0
8.0 0.2 0.0
8.4 0.2 0.0
8.8 0.2 0.0
9.200000000000001 0.2 0.0
9.600000000000001 0.2 0.0
10.0 0.2 0.0
10.4 0.2 0.0
10.8 0.2 0.0
11.200000000000001 0.2 0.0
11.600000000000001 0.2 0.0
12.0 0.2 0.0
12.4 0.2 0.0
12.8 0.2 0.0
13.200000000000001 0.2 0.0
13.600000000000001 0.2 0.0
14.0 0.2 0.0
14.4 0.2 0.0
14.8 0.2 0.0
15.200000000000001 0.2 0.0
15.600000000000001 0.2 0.0
16.0 0.2 0.0
0.0 0.30000000000000004 0.0
0.4 0.30000000000000004 0.0
0.8 0.30000000000000004 0.0
1.2000000000000002 0.30000000000000004 0.0
1.6 0.30000000000000004 0.0
2.0 0.30000000000000004 0.0
2.4000000000000004 0.30000000000000004 0.0
2.8000000000000003 0.30000000000000004 0.0
3.2 0.30000000000000004 0.0
3.6 0.30000000000000004 0.0
4.0 0.30000000000000004 0.0
4.4 0.30000000000000004 0.0
4.800000000000001 0.30000000000000004 0.0
5.2 0.30000000000000004 0.0
5.6000000000000005 0.30000000000000004 0.0
6.0 0.30000000000000004 0.0
6.4 0.30000000000000004 0.0
6.800000000000001 0.30000000000000004 0.0
7.2 0.30000000000000004 0.0
7.6000000000000005 0.30000000000000004 0.0
8.0 0.30000000000000004 0.0
8.4 0.30000000000000004 0.0
8.8 0.30000000000000004 0.0
9.200000000000001 0.30000000000000004 0.0
9.600000000000001 0.30000000000000004 0.0
10.0 0.30000000000000004 0.0
10.4 0.30000000000000004 0.0
10.8 0.30000000000000004 0.0
11.200000000000001 0.30000000000000004 0.0
11.600000000000001 0.30000000000000004 0.0
12.0 0.30000000000000004 0.0
12.4 0.30000000000000004 0.0
12.8 0.30000000000000004 0.0
13.200000000000001 0.30000000000000004 0.0
13.600000000000001 0.30000000000000004 0.0
14.0 0.30000000000000004 0.0
14.4 0.30000000000000004 0.0
14.8 0.30000000000000004 0.0
15.200000000000001 0.30000000000000004 0.0
15.600000000000001 0.30000000000000004 0.0
16.0 0.30000000000000004 0.0
0.0 0.4 0.0
0.4 0.4 0.0
0.8 0.4 0.0
1.2000000000000002 0.4 0.0
1.6 0.4 0.0
2.0 0.4 0.0
2.4000000000000004 0.4 0.0
2.8000000000000003 0.4 0.0
3.2 0.4 0.0
3.6 0.4 0.0
4.0 0.4 0.0
4.4 0.4 0.0
4.800000000000001 0.4 0.0
5.2 0.4 0.0
5.6000000000000005 0.4 0.0
6.0 0.4 0.0
6.4 0.4 0.0
6.800000000000001 0.4 0.0
7.2 0.4 0.0
7.6000000000000005 0.4 0.0
8.0 0.4 0.0
8.4 0.4 0.0
8.8 0.4 0.0
9.200000000000001 0.4 0.0
9.600000000000001 0.4 0.0
10.0 0.4 0.0
10.4 0.4 0.0
10.8 0.4 0.0
11.200000000000001 0.4 0.0
11.600000000000001 0.4 0.0
12.0 0.4 0.0
12.4 0.4 0.0
12.8 0.4 0.0
13.200000000000001 0.4 0.0
13.600000000000001 0.4 0.0
14.0 0.4 0.0
14.4 0.4 0.0
14.8 0.4 0.0
15.200000000000001 0.4 0.0
15.600000000000001 0.4 0.0
16.0 0.4 0.0
0.0 0.5 0.0
0.4 0.5 0.0
0.8 0.5 0.0
1.2000000000000002 0.5 0.0
1.6 0.5 0.0
2.0 0.5 0.0
2.4000000000000004 0.5 0.0
2.8000000000000003 0.5 0.0
3.2 0.5 0.0
3.6 0.5 0.0
4.0 0.5 0.0
4.4 0.5 0.0
4.800000000000001 0.5 0.0
5.2 0.5 0.0
5.6000000000000005 0.5 0.0
6.0 0.5 0.0
6.4 0.5 0.0
6.800000000000001 0.5 0.0
7.2 0.5 0.0
7.6000000000000005 0.5 0.0
8.0 0.5 0.0
8.4 0.5 0.0
8.8 0.5 0.0
9.200000000000001 0.5 0.0
9.600000000000001 0.5 0.0
10.0 0.5 0.0
10.4 0.5 0.0
10.8 0.5 0.0
11.200000000000001 0.5 0.0
11.600000000000001 0.5 0.0
12.0 0.5 0.0
12.4 0.5 0.0
12.8 0.5 0.0
13.200000000000001 0.5 0.0
13.600000000000001 0.5 0.0
14.0 0.5 0.0
14.4 0.5 0.0
14.8 0.5 0.0
15.200000000000001 0.5 0.0
15.600000000000001 0.5 0.0
16.0 0.5 0.0
0.0 0.6000000000000001 0.0
0.4 0.6000000000000001 0.0
0.8 0.6000000000000001 0.0
1.2000000000000002 0.6000000000000001 0.0
1.6 0.6000000000000001 0.0
2.0 0.6000000000000001 0.0
2.4000000000000004 0.6000000000000001 0.0
2.8000000000000003 0.6000000000000001 0.0
3.2 0.6000000000000001 0.0
3.6 0.6000000000000001 0.0
4.0 0.6000000000000001 0.0
4.4 0.6000000000000001 0.0
4.800000000000001 0.6000000000000001 0.0
5.2 0.6000000000000001 0.0
5.6000000000000005 0.6000000000000001 0.0
6.0 0.6000000000000001 0.0
6.4 0.6000000000000001 0.0
6.800000000000001 0.6000000000000001 0.0
7.2 0.6000000000000001 0.0
7.6000000000000005 0.6000000000000001 0.0
8.0 0.6000000000000001 0.0
8.4 0.6000000000000001 0.0
8.8 0.6000000000000001 0.0
9.200000000000001 0.6000000000000001 0.0
9.600000000000001 0.6000000000000001 0.0
10.0 0.6000000000000001 0.0
10.4 0.6000000000000001 0.0
10.8 0.6000000000000001 0.0
11.200000000000001 0.6000000000000001 0.0
11.600000000000001 0.6000000000000001 0.0
12.0 0.6000000000000001 0.0
12.4 0.6000000000000001 0.0
12.8 0.6000000000000001 0.0
13.200000000000001 0.6000000000000001 0.0
13.600000000000001 0.6000000000000001 0.0
14.0 0.6000000000000001 0.0
14.4 0.6000000000000001 0.0
14.8 0.6000000000000001 0.0
15.200000000000001 0.6000000000000001 0.0
15.600000000000001 0.6000000000000001 0.0
16.0 0.6000000000000001 0.0
0.0 0.7000000000000001 0.0
0.4 0.7000000000000001 0.0
0.8 0.7000000000000001 0.0
1.2000000000000002 0.7000000000000001 0.0
1.6 0.7000000000000001 0.0
2.0 0.7000000000000001 0.0
2.4000000000000004 0.7000000000000001 0.0
2.8000000000000003 0.7000000000000001 0.0
3.2 0.7000000000000001 0.0
3.6 0.7000000000000001 0.0
4.0 0.7000000000000001 0.0
4.4 0.7000000000000001 0.0
4.800000000000001 0.7000000000000001 0.0
5.2 0.7000000000000001 0.0
5.6000000000000005 0.7000000000000001 0.0
6.0 0.7000000000000001 0.0
6.4 0.7000000000000001 0.0
6.800000000000001 0.7000000000000001 0.0
7.2 0.7000000000000001 0.0
7.6000000000000005 0.7000000000000001 0.0
8.0 0.7000000000000001 0.0
8.4 0.7000000000000001 0.0
8.8 0.7000000000000001 0.0
9.200000000000001 0.7000000000000001 0.0
9.600000000000001 0.7000000000000001 0.0
10.0 0.7000000000000001 0.0
10.4 0.7000000000000001 0.0
10.8 0.7000000000000001 0.0
11.200000000000001 0.7000000000000001 0.0
11.600000000000001 0.7000000000000001 0.0
12.0 0.7000000000000001 0.0
12.4 0.7000000000000001 0.0
12.8 0.7000000000000001 0.0
13.200000000000001 0.7000000000000001 0.0
13.600000000000001 0.7000000000000001 0.0
14.0 0.7000000000000001 0.0
14.4 0.7000000000000001 0.0
14.8 0.7000000000000001 0.0
15.200000000000001 0.7000000000000001 0.0
15.600000000000001 0.7000000000000001 0.0
16.0 0.7000000000000001 0.0
0.0 0.8 0.0
0.4 0.8 0.0
0.8 0.8 0.0
1.2000000000000002 0.8 0.0
1.6 0.8 0.0
2.0 0.8 0.0
2.4000000000000004 0.8 0.0
2.8000000000000003 0.8 0.0
3.2 0.8 0.0
3.6 0.8 0.0
4.0 0.8 0.0
4.4 0.8 0.0
4.800000000000001 0.8 0.0
5.2 0.8 0.0
5.6000000000000005 0.8 0.0
6.0 0.8 0.0
6.4 0.8 0.0
6.800000000000001 0.8 0.0
7.2 0.8 0.0
7.6000000000000005 0.8 0.0
8.0 0.8 0.0
8.4 0.8 0.0
8.8 0.8 0.0
9.200000000000001 0.8 0.0
9.600000000000001 0.8 0.0
10.0 0.8 0.0
10.4 0.8 0.0
10.8 0.8 0.0
11.200000000000001 0.8 0.0
11.600000000000001 0.8 0.0
12.0 0.8 0.0
12.4 0.8 0.0
12.8 0.8 0.0
13.200000000000001 0.8 0.0
13.600000000000001 0.8 0.0
14.0 0.8 0.0
14.4 0.8 0.0
14.8 0.8 0.0
15.200000000000001 0.8 0.0
15.600000000000001 0.8 0.0
16.0 0.8 0.0
0.0 0.9 0.0
0.4 0.9 0.0
0.8 0.9 0.0
1.2000000000000002 0.9 0.0
1.6 0.9 0.0
2.0 0.9 0.0
2.4000000000000004 0.9 0.0
2.8000000000000003 0.9 0.0
3.2 0.9 0.0
3.6 0.9 0.0
4.0 0.9 0.0
4.4 0.9 0.0
4.800000000000001 0.9 0.0
5.2 0.9 0.0
5.6000000000000005 0.9 0.0
6.0 0.9 0.0
6.4 0.9 0.0
6.800000000000001 0.9 0.0
7.2 0.9 0.0
7.6000000000000005 0.9 0.0
8.0 0.9 0.0
8.4 0.9 0.0
8.8 0.9 0.0
9.200000000000001 0.9 0.0
9.600000000000001 0.9 0.0
10.0 0.9 0.0
10.4 0.9 0.0
10.8 0.9 0.0
11.200000000000001 0.9 0.0
11.600000000000001 0.9 0.0
12.0 0.9 0.0
12.4 0.9 0.0
12.8 0.9 0.0
13.200000000000001 0.9 0.0
13.600000000000001 0.9 0.0
14.0 0.9 0.0
14.4 0.9 0.0
14.8 0.9 0.0
15.200000000000001 0.9 0.0
15.600000000000001 0.9 0.0
16.0 0.9 0.0
0.0 1.0 0.0
0.4 1.0 0.0
0.8 1.0 0.0
1.2000000000000002 1.0 0.0
1.6 1.0 0.0
2.0 1.0 0.0
2.4000000000000004 1.0 0.0
2.8000000000000003 1.0 0.0
3.2 1.0 0.0
3.6 1.0 0.0
4.0 1.0 0.0
4.4 1.0 0.0
4.800000000000001 1.0 0.0
5.2 1.0 0.0
5.6000000000000005 1.0 0.0
6.0 1.0 0.0
6.4 1.0 0.0
6.800000000000001 1.0 0.0
7.2 1.0 0.0
7.6000000000000005 1.0 0.0
8.0 1.0 0.0
8.4 1.0 0.0
8.8 1.0 0.0
9.200000000000001 1.0 0.0
9.600000000000001 1.0 0.0
10.0 1.0 0.0
10.4 1.0 0.0
10.8 1.0 0.0
11.200000000000001 1.0 0.0
11.600000000000001 1.0 0.0
12.0 1.0 0.0
12.4 1.0 0.0
12.8 1.0 0.0
13.200000000000001 1.0 0.0
13.600000000000001 1.0 0.0
14.0 1.0 0.0
14.4 1.0 0.0
14.8 1.0 0.0
15.200000000000001 1.0 0.0
15.600000000000001 1.0 0.0
16.0 1.0 0.0
0.0 1.1 0.0
0.4 1.1 0.0
0.8 1.1 0.0
1.2000000000000002 1.1 0.0
1.6 1.1 0.0
2.0 1.1 0.0
2.4000000000000004 1.1 0.0
2.8000000000000003 1.1 0.0
3.2 1.1 0.0
3.6 1.1 0.0
4.0 1.1 0.0
4.4 1.1 0.0
4.800000000000001 1.1 0.0
5.2 1.1 0.0
5.6000000000000005 1.1 0.0
6.0 1.1 0.0
6.4 1.1 0.0
6.800000000000001 1.1 0.0
7.2 1.1 0.0
7.6000000000000005 1.1 0.0
8.0 1.1 0.0
8.4 1.1 0.0
8.8 1.1 0.0
9.200000000000001 1.1 0.0
9.600000000000001 1.1 0.0
10.0 1.1 0.0
10.4 1.1 0.0
10.8 1.1 0.0
11.200000000000001 1.1 0.0
11.600000000000001 1.1 0.0
12.0 1.1 0.0
12.4 1.1 0.0
12.8 1.1 0.0
13.200000000000001 1.1 0.0
13.600000000000001 1.1 0.0
14.0 1.1 0.0
14.4 1.1 0.0
14.8 1.1 0.0
15.200000000000001 1.1 0.0
15.600000000000001 1.1 0.0
16.0 1.1 0.0
0.0 1.2000000000000002 0.0
0.4 1.2000000000000002 0.0
0.8 1.2000000000000002 0.0
1.2000000000000002 1.2000000000000002 0.0
1.6 1.2000000000000002 0.0
2.0 1.2000000000000002 0.0
2.4000000000000004 1.2000000000000002 0.0
2.8000000000000003 1.2000000000000002 0.0
3.2 1.2000000000000002 0.0
3.6 1.2000000000000002 0.0
4.0 1.2000000000000002 0.0
4.4 1.2000000000000002 0.0
4.800000000000001 1.2000000000000002 0.0
5.2 1.2000000000000002 0.0
5.6000000000000005 1.2000000000000002 0.0
6.0 1.2000000000000002 0.0
6.4 1.2000000000000002 0.0
6.800000000000001 1.2000000000000002 0.0
7.2 1.2000000000000002 0.0
7.6000000000000005 1.2000000000000002 0.0
8.0 1.2000000000000002 0.0
8.4 1.2000000000000002 0.0
8.8 1.2000000000000002 0.0
9.200000000000001 1.2000000000000002 0.0
9.600000000000001 1.2000000000000002 0.0
10.0 1.2000000000000002 0.0
10.4 1.2000000000000002 0.0
10.8 1.2000000000000002 0.0
11.200000000000001 1.2000000000000002 0.0
11.600000000000001 1.2000000000000002 0.0
12.0 1.2000000000000002 0.0
12.4 1.2000000000000002 0.0
12.8 1.2000000000000002 0.0
13.200000000000001 1.2000000000000002 0.0
13.600000000000001 1.2000000000000002 0.0
14.0 1.2000000000000002 0.0
14.4 1.2000000000000002 0.0
14.8 1.2000000000000002 0.0
15.200000000000001 1.2000000000000002 0.0
15.600000000000001 1.2000000000000002 0.0
16.0 1.2000000000000002 0.0
0.0 1.3 0.0
0.4 1.3 0.0
0.8 1.3 0.0
1.2000000000000002 1.3 0.0
1.6 1.3 0.0
2.0 1.3 0.0
2.4000000000000004 1.3 0.0
2.8000000000000003 1.3 0.0
3.2 1.3 0.0
3.6 1.3 0.0
4.0 1.3 0.0
4.4 1.3 0.0
4.800000000000001 1.3 0.0
5.2 1.3 0.0
5.6000000000000005 1.3 0.0
6.0 1.3 0.0
6.4 1.3 0.0
6.800000000000001 1.3 0.0
7.2 1.3 0.0
7.6000000000000005 1.3 0.0
8.0 1.3 0.0
8.4 1.3 0.0
8.8 1.3 0.0
9.200000000000001 1.3 0.0
9.600000000000001 1.3 0.0
10.0 1.3 0.0
10.4 1.3 0.0
10.8 1.3 0.0
11.200000000000001 1.3 0.0
11.600000000000001 1.3 0.0
12.0 1.3 0.0
12.4 1.3 0.0
12.8 1.3 0.0
13.200000000000001 1.3 0.0
13.600000000000001 1.3 0.0
14.0 1.3 0.0
14.4 1.3 0.0
14.8 1.3 0.0
15.200000000000001 1.3 0.0
15.600000000000001 1.3 0.0
16.0 1.3 0.0
0.0 1.4000000000000001 0.0
0.4 1.4000000000000001 0.0
0.8 1.4000000000000001 0.0
1.2000000000000002 1.4000000000000001 0.0
1.6 1.4000000000000001 0.0
2.0 1.4000000000000001 0.0
2.4000000000000004 1.4000000000000001 0.0
2.8000000000000003 1.4000000000000001 0.0
3.2 1.4000000000000001 0.0
3.6 1.4000000000000001 0.0
4.0 1.4000000000000001 0.0
4.4 1.4000000000000001 0.0
4.800000000000001 1.4000000000000001 0.0
5.2 1.4000000000000001 0.0
5.6000000000000005 1.4000000000000001 0.0
6.0 1.4000000000000001 0.0
6.4 1.4000000000000001 0.0
6.800000000000001 1.4000000000000001 0.0
7.2 1.4000000000000001 0.0
7.6000000000000005 1.4000000000000001 0.0
8.0 1.4000000000000001 0.0
8.4 1.4000000000000001 0.0
8.8 1.4000000000000001 0.0
9.200000000000001 1.4000000000000001 0.0
9.600000000000001 1.4000000000000001 0.0
10.0 1.4000000000000001 0.0
10.4 1.4000000000000001 0.0
10.8 1.4000000000000001 0.0
11.200000000000001 1.4000000000000001 0.0
11.600000000000001 1.4000000000000001 0.0
12.0 1.4000000000000001 0.0
12.4 1.4000000000000001 0.0
12.8 1.4000000000000001 0.0
13.200000000000001 1.4000000000000001 0.0
13.600000000000001 1.4000000000000001 0.0
14.0 1.4000000000000001 0.0
14.4 1.4000000000000001 0.0
14.8 1.4000000000000001 0.0
15.200000000000001 1.4000000000000001 0.0
15.600000000000001 1.4000000000000001 0.0
16.0 1.4000000000000001 0.0
0.0 1.5 0.0
0.4 1.5 0.0
0.8 1.5 0.0
1.2000000000000002 1.5 0.0
1.6 1.5 0.0
2.0 1.5 0.0
2.4000000000000004 1.5 0.0
2.8000000000000003 1.5 0.0
3.2 1.5 0.0
3.6 1.5 0.0
4.0 1.5 0.0
4.4 1.5 0.0
4.800000000000001 1.5 0.0
5.2 1.5 0.0
5.6000000000000005 1.5 0.0
6.0 1.5 0.0
6.4 1.5 0.0
6.800000000000001 1.5 0.0
7.2 1.5 0.0
7.6000000000000005 1.5 0.0
8.0 1.5 0.0
8.4 1.5 0.0
8.8 1.5 0.0
9.200000000000001 1.5 0.0
9.600000000000001 1.5 0.0
10.0 1.5 0.0
10.4 1.5 0.0
10.8 1.5 0.0
11.200000000000001 1.5 0.0
11.600000000000001 1.5 0.0
12.0 1.5 0.0
12.4 1.5 0.0
12.8 1.5 0.0
13.200000000000001 1.5 0.0
13.600000000000001 1.5 0.0
14.0 1.5 0.0
14.4 1.5 0.0
14.8 1.5 0.0
15.200000000000001 1.5 0.0
15.600000000000001 1.5 0.0
16.0 1.5 0.0
0.0 1.6 0.0
0.4 1.6 0.0
0.8 1.6 0.0
1.2000000000000002 1.6 0.0
1.6 1.6 0.0
2.0 1.6 0.0
2.4000000000000004 1.6 0.0
2.8000000000000003 1.6 0.0
3.2 1.6 0.0
3.6 1.6 0.0
4.0 1.6 0.0
4.4 1.6 0.0
4.800000000000001 1.6 0.0
5.2 1.6 0.0
5.6000000000000005 1.6 0.0
6.0 1.6 0.0
6.4 1.6 0.0
6.800000000000001 1.6 0.0
7.2 1.6 0.0
7.6000000000000005 1.6 0.0
8.0 1.6 0.0
8.4 1.6 0.0
8.8 1.6 0.0
9.200000000000001 1.6 0.0
9.600000000000001 1.6 0.0
10.0 1.6 0.0
10.4 1.6 0.0
10.8 1.6 0.0
11.200000000000001 1.6 0.0
11.600000000000001 1.6 0.0
12.0 1.6 0.0
12.4 1.6 0.0
12.8 1.6 0.0
13.200000000000001 1.6 0.0
13.600000000000001 1.6 0.0
14.0 1.6 0.0
14.4 1.6 0.0
14.8 1.6 0.0
15.200000000000001 1.6 0.0
15.600000000000001 1.6 0.0
16.0 1.6 0.0
0.0 1.7000000000000002 0.0
0.4 1.7000000000000002 0.0
0.8 1.7000000000000002 0.0
1.2000000000000002 1.7000000000000002 0.0
1.6 1.7000000000000002 0.0
2.0 1.7000000000000002 0.0
2.4000000000000004 1.7000000000000002 0.0
2.8000000000000003 1.7000000000000002 0.0
3.2 1.7000000000000002 0.0
3.6 1.7000000000000002 0.0
4.0 1.7000000000000002 0.0
4.4 1.7000000000000002 0.0
4.800000000000001 1.7000000000000002 0.0
5.2 1.7000000000000002 0.0
5.6000000000000005 1.7000000000000002 0.0
6.0 1.7000000000000002 0.0
6.4 1.7000000000000002 0.0
6.800000000000001 1.7000000000000002 0.0
7.2 1.7000000000000002 0.0
7.6000000000000005 1.7000000000000002 0.0
8.0 1.7000000000000002 0.0
8.4 1.7000000000000002 0.0
8.8 1.7000000000000002 0.0
9.200000000000001 1.7000000000000002 0.0
9.600000000000001 1.7000000000000002 0.0
10.0 1.7000000000000002 0.0
10.4 1.7000000000000002 0.0
10.8 1.7000000000000002 0.0
11.200000000000001 1.7000000000000002 0.0
11.600000000000001 1.7000000000000002 0.0
12.0 1.7000000000000002 0.0
12.4 1.7000000000000002 0.0
12.8 1.7000000000000002 0.0
13.200000000000001 1.7000000000000002 0.0
13.600000000000001 1.7000000000000002 0.0
14.0 1.7000000000000002 0.0
14.4 1.7000000000000002 0.0
14.8 1.7000000000000002 0.0
15.200000000000001 1.7000000000000002 0.0
15.600000000000001 1.7000000000000002 0.0
16.0 1.7000000000000002 0.0
0.0 1.8 0.0
0.4 1.8 0.0
0.8 1.8 0.0
1.2000000000000002 1.8 0.0
1.6 1.8 0.0
2.0 1.8 0.0
2.4000000000000004 1.8 0.0
2.8000000000000003 1.8 0.0
3.2 1.8 0.0
3.6 1.8 0.0
4.0 1.8 0.0
4.4 1.8 0.0
4.800000000000001 1.8 0.0
5.2 1.8 0.0
5.6000000000000005 1.8 0.0
6.0 1.8 0.0
6.4 1.8 0.0
6.800000000000001 1.8 0.0
7.2 1.8 0.0
7.6000000000000005 1.8 0.0
8.0 1.8 0.0
8.4 1.8 0.0
8.8 1.8 0.0
9.200000000000001 1.8 0.0
9.600000000000001 1.8 0.0
10.0 1.8 0.0
10.4 1.8 0.0
10.8 1.8 0.0
11.200000000000001 1.8 0.0
11.600000000000001 1.8 0.0
12.0 1.8 0.0
12.4 1.8 0.0
12.8 1.8 0.0
13.200000000000001 1.8 0.0
13.600000000000001 1.8 0.0
14.0 1.8 0.0
14.4 1.8 0.0
14.8 1.8 0.0
15.200000000000001 1.8 0.0
15.600000000000001 1.8 0.0
16.0 1.8 0.0
0.0 1.9000000000000001 0.0
0.4 1.9000000000000001 0.0
0.8 1.9000000000000001 0.0
1.2000000000000002 1.9000000000000001 0.0
1.6 1.9000000000000001 0.0
2.0 1.9000000000000001 0.0
2.4000000000000004 1.9000000000000001 0.0
2.8000000000000003 1.9000000000000001 0.0
3.2 1.9000000000000001 0.0
3.6 1.9000000000000001 0.0
4.0 1.9000000000000001 0.0
4.4 1.9000000000000001 0.0
4.800000000000001 1.9000000000000001 0.0
5.2 1.9000000000000001 0.0
5.6000000000000005 1.9000000000000001 0.0
6.0 1.9000000000000001 0.0
6.4 1.9000000000000001 0.0
6.800000000000001 1.9000000000000001 0.0
7.2 1.9000000000000001 0.0
7.6000000000000005 1.9000000000000001 0.0
8.0 1.9000000000000001 0.0
8.4 1.9000000000000001 0.0
8.8 1.9000000000000001 0.0
9.200000000000001 1.9000000000000001 0.0
9.600000000000001 1.9000000000000001 0.0
10.0 1.9000000000000001 0.0
10.4 1.9000000000000001 0.0
10.8 1.9000000000000001 0.0
11.200000000000001 1.9000000000000001 0.0
11.600000000000001 1.9000000000000001 0.0
12.0 1.9000000000000001 0.0
12.4 1.9000000000000001 0.0
12.8 1.9000000000000001 0.0
13.200000000000001 1.9000000000000001 0.0
13.600000000000001 1.9000000000000001 0.0
14.0 1.9000000000000001 0.0
14.4 1.9000000000000001 0.0
14.8 1.9000000000000001 0.0
15.200000000000001 1.9000000000000001 0.0
15.600000000000001 1.9000000000000001 0.0
16.0 1.9000000000000001 0.0
0.0 2.0 0.0
0.4 2.0 0.0
0.8 2.0 0.0
1.2000000000000002 2.0 0.0
1.6 2.0 0.0
2.0 2.0 0.0
2.4000000000000004 2.0 0.0
2.8000000000000003 2.0 0.0
3.2 2.0 0.0
3.6 2.0 0.0
4.0 2.0 0.0
4.4 2.0 0.0
4.800000000000001 2.0 0.0
5.2 2.0 0.0
5.6000000000000005 2.0 0.0
6.0 2.0 0.0
6.4 2.0 0.0
6.800000000000001 2.0 0.0
7.2 2.0 0.0
7.6000000000000005 2.0 0.0
8.0 2.0 0.0
8.4 2.0 0.0
8.8 2.0 0.0
9.200000000000001 2.0 0.0
9.600000000000001 2.0 0.0
10.0 2.0 0.0
10.4 2.0 0.0
10.8 2.0 0.0
11.200000000000001 2.0 0.0
11.600000000000001 2.0 0.0
12.0 2.0 0.0
12.4 2.0 0.0
12.8 2.0 0.0
13.200000000000001 2.0 0.0
13.600000000000001 2.0 0.0
14.0 2.0 0.0
14.4 2.0 0.0
14.8 2.0 0.0
15.200000000000001 2.0 0.0
15.600000000000001 2.0 0.0
16.0 2.0 0.0
CELLS 800 4000
4 0 1 42 41
4 1 2 43 42
4 2 3 44 43
4 3 4 45 44
4 4 5 46 45
4 5 6 47 46
4 6 7 48 47
4 7 8 49 48
4 8 9 50 49
4 9 10 51 50
4 10 11 52 51
4 11 12 53 52
4 12 13 54 53
4 13 14 55 54
4 14 15 56 55
4 15 16 57 56
4 16 17 58 57
4 17 18 59 58
4 18 19 60 59
4 19 20 61 60
4 20 21 62 61
4 21 22 63 62
4 22 23 64 63
4 23 24 65 64
4 24 25 66 65
4 25 26 67 66
4 26 27 68 67
4 27 28 69 68
4 28 29 70 69
4 29 30 71 70
4 30 31 72 71
4 31 32 73 72
4 32 33 74 73
4 33 34 75 74
4 34 35 76 75
4 35 36 77 76
4 36 37 78 77
4 37 38 79 78
4 38 39 80 79
4 39 40 81 80
4 41 42 83 82
4 42 43 84 83
4 43 44 85 84
4 44 45 86 85
4 45 46 87 86
4 46 47 88 87
4 47 48 89 88
4 48 49 90 89
4 49 50 91 90
4 50 51 92 91
4 51 52 93 92
4 52 53 94 93
4 53 54 95 94
4 54 55 96 95
4 55 56 97 96
4 56 57 98 97
4 57 58 99 98
4 58 59 100 99
4 59 60 101 100
4 60 61 102 101
4 61 62 103 102
4 62 63 104 103
4 63 64 105 104
4 64 65 106 105
4 65 66 107 106
4 66 67 108 107
4 67 68 109 108
4 68 69 110 109
4 69 70 111 110
4 70 71 112 111
4 71 72 113 112
4 72 73 114 113
4 73 74 115 114
4 74 75 116 115
4 75 76 117 116
4 76 77 118 117
4 77 78 119 118
4 78 79 120 119
4 79 80 121 120
4 80 81 122 121
4 82 83 124 123
4 83 84 125 124
4 84 85 126 125
4 85 86 127 126
4 86 87 128 127
4 87 88 129 128
4 88 89 130 129
4 89 90 131 130
4 90 91 132 131
4 91 92 133 132
4 92 93 134 133
4 93 94 135 134
4 94 95 136 135
4 95 96 137 136
4 96 97 138 137
4 97 98 139 138
4 98 99 140 139
4 99 100 141 140
4 100 101 142 141
4 101 102 143 142
4 102 103 144 143
4 103 104 145 144
4 104 105 146 145
4 105 106 147 146
4 106 107 148 147
4 107 108 149 148
4 108 109 150 149
4 109 110 151 150
4 110 111 152 151
4 111 112 153 152
4 112 113 154 153
4 113 114 155 154
4 114 115 156 155
4 115 116 157 156
4 116 117 158 157
4 117 118 159 158
4 118 119 160 159
4 119 120 161 160
4 120 121 162 161
4 121 122 163 162
4 123 124 165 164
4 124 125 166 165
4 125 126 167 166
4 126 127 168 167
4 127 128 169 168
4 128 129 170 169
4 129 130 171 170
4 130 131 172 171
4 131 132 173 172
4 132 133 174 173
4 133 134 175 174
4 134 135 176 175
4 135 136 177 176
4 136 137 178 177
4 137 138 179 178
4 138 139 180 179
4 139 140 181 180
4 140 141 182 181
4 141 142 183 182
4 142 143 184 183
4 143 144 185 184
4 144 145 186 185
4 145 146 187 186
4 146 147 188 187
4 147 148 189 188
4 148 149 190 189
4 149 150 191 190
4 150 151 192 191
4 151 152 193 192
4 152 153 194 193
4 153 154 195 194
4 154 155 196 195
4 155 156 197 196
4 156 157 198 197
4 157 158 199 198
4 158 159 200 199
4 159 160 201 200
4 160 161 202 201
4 161 162 203 202
4 162 163 204 203
4 164 165 206 205
4 165 166 207 206
4 166 167 208 207
4 167 168 209 208
4 168 169 210 209
4 169 170 211 210
4 170 171 212 211
4 171 172 213 212
4 172 173 214 213
4 173 174 215 214
4 174 175 216 215
4 175 176 217 216
4 176 177 218 217
4 177 178 219 218
4 178 179 220 219
4 179 180 221 220
4 180 181 222 221
4 181 182 223 222
4 182 183 224 223
4 183 184 225 224
4 184 185 226 225
4 185 186 227 226
4 186 187 228 227
4 187 188 229 228
4 188 189 230 229
4 189 190 231 230
4 190 191 232 231
4 191 192 233 232
4 192 193 234 233
4 193 194 235 234
4 194 195 236 235
4 195 196 237 236
4 196 197 238 237
4 197 198 239 238
4 198 199 240 239
4 199 200 241 240
4 200 201 242 241
4 201 202 243 242
4 202 203 244 243
4 203 204 245 244
4 205 206 247 246
4 206 207 248 247
4 207 208 249 248
4 208 209 250 249
4 209 210 251 250
4 210 211 252 251
4 211 212 253 252
4 212 213 254 253
4 213 214 255 254
4 214 215 256 255
4 215 216 257 256
4 216 217 258 257
4 217 218 259 258
4 218 219 260 259
4 219 220 261 260
4 220 221 262 261
4 221 222 263 262
4 222 223 264 263
4 223 224 265 264
4 224 225 266 265
4 225 226 267 266
4 226 227 268 267
4 227 228 269 268
4 228 229 270 269
4 229 230 271 270
4 230 231 272 271
4 231 232 273 272
4 232 233 274 273
4 233 234 275 274
4 234 235 276 275
4 235 236 277 276
4 236 237 278 277
4 237 238 279 278
4 238 239 280 279
4 239 240 281 280
4 240 241 282 281
4 241 242 283 282
4 242 243 284 283
4 243 244 285 284
4 244 245 286 285
4 246 247 288 287
4 247 248 289 288
4 248 249 290 289
4 249 250 291 290
4 250 251 292 291
4 251 252 293 292
4 252 253 294 293
4 253 254 295 294
4 254 255 296 295
4 255 256 297 296
4 256 257 298 297
4 257 258 299 298
4 258 259 300 299
4 259 260 301 300
4 260 261 302 301
4 261 262 303 302
4 262 263 304 303
4 263 264 305 304
4 264 265 306 305
4 265 266 307 306
4 266 267 308 307
4 267 268 309 308
4 268 269 310 309
4 269 270 311 310
4 270 271 312 311
4 271 272 313 312
4 272 273 314 313
4 273 274 315 314
4 274 275 316 315
4 275 276 317 316
4 276 277 318 317
4 277 278 319 318
4 278 279 320 319
4 279 280 321 320
4 280 281 322 321
4 281 282 323 322
4 282 283 324 323
4 283 284 325 324
4 284 285 326 325
4 285 286 327 326
4 287 288 329 328
4 288 289 330 329
4 289 290 331 330
4 290 291 332 331
4 291 292 333 332
4 292 293 334 333
4 293 294 335 334
4 294 295 336 335
4 295 296 337 336
4 296 297 338 337
4 297 298 339 338
4 298 299 340 339
4 299 300 341 340
4 300 301 342 341
4 301 302 343 342
4 302 303 344 343
4 303 304 345 344
4 304 305 346 345
4 305 306 347 346
4 306 307 348 347
4 307 308 349 348
4 308 309 350 349
4 309 310 351 350
4 310 311 352 351
4 311 312 353 352
4 312 313 354 353
4 313 314 355 354
4 314 315 356 355
4 315 316 357 356
4 316 317 358 357
4 317 318 359 358
4 318 319 360 359
4 319 320 361 360
4 320 321 362 361
4 321 322 363 362
4 322 323 364 363
4 323 324 365 364
4 324 325 366 365
4 325 326 367 366
4 326 327 368 367
4 328 329 370 369
4 329 330 371 370
4 330 331 372 371
4 331 332 373 372
4 332 333 374 373
4 333 334 375 374
4 334 335 376 375
4 335 336 377 376
4 336 337 378 377
4 337 338 379 378
4 338 339 380 379
4 339 340 381 380
4 340 341 382 381
4 341 342 383 382
4 342 343 384 383
4 343 344 385 384
4 344 345 386 385
4 345 346 387 386
4 346 347 388 387
4 347 348 389 388
4 348 349 390 389
4 349 350 391 390
4 350 351 392 391
4 351 352 393 392
4 352 353 394 393
4 353 354 395 394
4 354 355 396 395
4 355 356 397 396
4 356 357 398 397
4 357 358 399 398
4 358 359 400 399
4 359 360 401 400
4 360 361 402 401
4 361 362 403 402
4 362 363 404 403
4 363 364 405 404
4 364 365 406 405
4 365 366 407 406
4 366 367 408 407
4 367 368 409 408
4 369 370 411 410
4 370 371 412 411
4 371 372 413 412
4 372 373 414 413
4 373 374 415 414
4 374 375 416 415
4 375 376 417 416
4 376 377 418 417
4 377 378 419 418
4 378 379 420 419
4 379 380 421 420
4 380 381 422 421
4 381 382 423 422
4 382 383 424 423
4 383 384 425 424
4 384 385 426 425
4 385 386 427 426
4 386 387 428 427
4 387 388 429 428
4 388 389 430 429
4 389 390 431 430
4 390 391 432 431
4 391 392 433 432
4 392 393 434 433
4 393 394 435 434
4 394 395 436 435
4 395 396 437 436
4 396 397 438 437
4 397 398 439 438
4 398 399 440 439
4 399 400 441 440
4 400 401 442 441
4 401 402 443 442
4 402 403 444 443
4 403 404 445 444
4 404 405 446 445
4 405 406 447 446
4 406 407 448 447
4 407 408 449 448
4 408 409 450 449
4 410 411 452 451
4 411 412 453 452
4 412 413 454 453
4 413 414 455 454
4 414 415 456 455
4 415 416 457 456
4 416 417 458 457
4 417 418 459 458
4 418 419 460 459
4 419 420 461 460
4 420 421 462 461
4 421 422 463 462
4 422 423 464 463
4 423 424 465 464
4 424 425 466 465
4 425 426 467 466
4 426 427 468 467
4 427 428 469 468
4 428 429 470 469
4 429 430 471 470
4 430 431 472 471
4 431 432 473 472
4 432 433 474 473
4 433 434 475 474
4 434 435 476 475
4 435 436 477 476
4 436 437 478 477
4 437 438 479 478
4 438 439 480 479
4 439 440 481 480
4 440 441 482 481
4 441 442 483 482
4 442 443 484 483
4 443 444 485 484
4 444 445 486 485
4 445 446 487 486
4 446 447 488 487
4 447 448 489 488
4 448 449 490 489
4 449 450 491 490
4 451 452 493 492
4 452 453 494 493
4 453 454 495 494
4 454 455 496 495
4 455 456 497 496
4 456 457 498 497
4 457 458 499 498
4 458 459 500 499
4 459 460 501 500
4 460 461 502 501
4 461 462 503 502
4 462 463 504 503
4 463 464 505 504
4 464 465 506 505
4 465 466 507 506
4 466 467 508 507
4 467 468 509 508
4 468 469 510 509
4 469 470 511 510
4 470 471 512 511
4 471 472 513 512
4 472 473 514 513
4 473 474 515 514
4 474 475 516 515
4 475 476 517 516
4 476 477 518 517
4 477 478 519 518
4 478 479 520 519
4 479 480 521 520
4 480 481 522 521
4 481 482 523 522
4 482 483 524 523
4 483 484 525 524
4 484 485 526 525
4 485 486 527 526
4 486 487 528 527
4 487 488 529 528
4 488 489 530 529
4 489 490 531 530
4 490 491 532 531
4 492 493 534 533
4 493 494 535 534
4 494 495 536 535
4 495 496 537 536
4 496 497 538 537
4 497 498 539 538
4 498 499 540 539
4 499 500 541 540
4 500 501 542 541
4 501 502 543 542
4 502 503 544 543
4 503 504 545 544
4 504 505 546 545
4 505 506 547 546
4 506 507 548 547
4 507 508 549 548
4 508 509 550 549
4 509 510 551 550
4 510 511 552 551
4 511 512 553 552
4 512 513 554 553
4 513 514 555 554
4 514 515 556 555
4 515 516 557 556
4 516 517 558 557
4 517 518 559 558
4 518 519 560 559
4 519 520 561 560
4 520 521 562 561
4 521 522 563 562
4 522 523 564 563
4 523 524 565 564
4 524 525 566 565
4 525 526 567 566
4 526 527 568 567
4 527 528 569 568
4 528 529 570 569
4 529 530 571 570
4 530 531 572 571
4 531 532 573 572
4 533 534 575 574
4 534 535 576 575
4 535 536 577 576
4 536 537 578 577
4 537 538 579 578
4 538 539 580 579
4 539 540 581 580
4 540 541 582 581
4 541 542 583 582
4 542 543 584 583
4 543 544 585 584
4 544 545 586 585
4 545 546 587 586
4 546 547 588 587
4 547 548 589 588
4 548 549 590 589
4 549 550 591 590
4 550 551 592 591
4 551 552 593 592
4 552 553 594 593
4 553 554 595 594
4 554 555 596 595
4 555 556 597 596
4 556 557 598 597
4 557 558 599 598
4 558 559 600 599
4 559 560 601 600
4 560 561 602 601
4 561 562 603 602
4 562 563 604 603
4 563 564 605 604
4 564 565 606 605
4 565 566 607 606
4 566 567 608 607
4 567 568 609 608
4 568 569 610 609
4 569 570 611 610
4 570 571 612 611
4 571 572 613 612
4 572 573 614 613
4 574 575 616 615
4 575 576 617 616
4 576 577 618 617
4 577 578 619 618
4 578 579 620 619
4 579 580 621 620
4 580 581 622 621
4 581 582 623 622
4 582 583 624 623
4 583 584 625 624
4 584 585 626 625
4 585 586 627 626
4 586 587 628 627
4 587 588 629 628
4 588 589 630 629
4 589 590 631 630
4 590 591 632 631
4 591 592 633 632
4 592 593 634 633
4 593 594 635 634
4 594 595 636 635
4 595 596 637 636
4 596 597 638 637
4 597 598 639 638
4 598 599 640 639
4 599 600 641 640
4 600 601 642 641
4 601 602 643 642
4 602 603 644 643
4 603 604 645 644
4 604 605 646 645
4 605 606 647 646
4 606 607 648 647
4 607 608 649 648
4 608 609 650 649
4 609 610 651 650
4 610 611 652 651
4 611 612 653 652
4 612 613 654 653
4 613 614 655 654
4 615 616 657 656
4 616 617 658 657
4 617 618 659 658
4 618 619 660 659
4 619 620 661 660
4 620 621 662 661
4 621 622 663 662
4 622 623 664 663
4 623 624 665 664
4 624 625 666 665
4 625 626 667 666
4 626 627 668 667
4 627 628 669 668
4 628 629 670 669
4 629 630 671 670
4 630 631 672 671
4 631 632 673 672
4 632 633 674 673
4 633 634 675 674
4 634 635 676 675
4 635 636 677 676
4 636 637 678 677
4 637 638 679 678
4 638 639 680 679
4 639 640 681 680
4 640 641 682 681
4 641 642 683 682
4 642 643 684 683
4 643 644 685 684
4 644 645 686 685
4 645 646 687 686
4 646 647 688 687
4 647 648 689 688
4 648 649 690 689
4 649 650 691 690
4 650 651 692 691
4 651 652 693 692
4 652 653 694 693
4 653 654 695 694
4 654 655 696 695
4 656 657 698 697
4 657 658 699 698
4 658 659 700 699
4 659 660 701 700
4 660 661 702 701
4 661 662 703 702
4 662 663 704 703
4 663 664 705 704
4 664 665 706 705
4 665 666 707 706
4 666 667 708 707
4 667 668 709 708
4 668 669 710 709
4 669 670 711 710
4 670 671 712 711
4 671 672 713 712
4 672 673 714 713
4 673 674 715 714
4 674 675 716 715
4 675 676 717 716
4 676 677 718 717
4 677 678 719 718
4 678 679 720 719
4 679 680 721 720
4 680 681 722 721
4 681 682 723 722
4 682 683 724 723
4 683 684 725 724
4 684 685 726 725
4 685 686 727 726
4 686 687 728 727
4 687 688 729 728
4 688 689 730 729
4 689 690 731 730
4 690 691 732 731
4 691 692 733 732
4 692 693 734 733
4 693 694 735 734
4 694 695 736 735
4 695 696 737 736
4 697 698 739 738
4 698 699 740 739
4 699 700 741 740
4 700 701 742 741
4 701 702 743 742
4 702 703 744 743
4 703 704 745 744
4 704 705 746 745
4 705 706 747 746
4 706 707 748 747
4 707 708 749 748
4 708 709 750 749
4 709 710 751 750
4 710 711 752 751
4 711 712 753 752
4 712 713 754 753
4 713 714 755 754
4 714 715 756 755
4 715 716 757 756
4 716 717 758 757
4 717 718 759 758
4 718 719 760 759
4 719 720 761 760
4 720 721 762 761
4 721 722 763 762
4 722 723 764 763
4 723 724 765 764
4 724 725 766 765
4 725 726 767 766
4 726 727 768 767
4 727 728 769 768
4 728 729 770 769
4 729 730 771 770
4 730 731 772 771
4 731 732 773 772
4 732 733 774 773
4 733 734 775 774
4 734 735 776 775
4 735 736 777 776
4 736 737 778 777
4 738 739 780 779
4 739 740 781 780
4 740 741 782 781
4 741 742 783 782
4 742 743 784 783
4 743 744 785 784
4 744 745 786 785
4 745 746 787 786
4 746 747 788 787
4 747 748 789 788
4 748 749 790 789
4 749 750 791 790
4 750 751 792 791
4 751 752 793 792
4 752 753 794 793
4 753 754 795 794
4 754 755 796 795
4 755 756 797 796
4 756 757 798 797
4 757 758 799 798
4 758 759 800 799
4 759 760 801 800
4 760 761 802 801
4 761 762 803 802
4 762 763 804 803
4 763 764 805 804
4 764 765 806 805
4 765 766 807 806
4 766 767 808 807
4 767 768 809 808
4 768 769 810 809
4 769 770 811 810
4 770 771 812 811
4 771 772 813 812
4 772 773 814 813
4 773 774 815 814
4 774 775 816 815
4 775 776 817 816
4 776 777 818 817
4 777 778 819 818
4 779 780 821 820
4 780 781 822 821
4 781 782 823 822
4 782 783 824 823
4 783 784 825 824
4 784 785 826 825
4 785 786 827 826
4 786 787 828 827
4 787 788 829 828
4 788 789 830 829
4 789 790 831 830
4 790 791 832 831
4 791 792 833 832
4 792 793 834 833
4 793 794 835 834
4 794 795 836 835
4 795 796 837 836
4 796 797 838 837
4 797 798 839 838
4 798 799 840 839
4 799 800 841 840
4 800 801 842 841
4 801 802 843 842
4 802 803 844 843
4 803 804 845 844
4 804 805 846 845
4 805 806 847 846
4 806 807 848 847
4 807 808 849 848
4 808 809 850 849
4 809 810 851 850
4 810 811 852 851
4 811 812 853 852
4 812 813 854 853
4 813 814 855 854
4 814 815 856 855
4 815 816 857 856
4 816 817 858 857
4 817 818 859 858
4 818 819 860 859
CELL_TYPES 800
9
9
9
9
9
9
9
9
9
9
9
9
9
9
9
9
9
9
9
9
9
9
9
9
9
9
9
9
9
9
9
9
9
9
9
9
9
9
9
9
9
9
9
9
9
9
9
9
9
9
9
9
9
9
9
9
9
9
9
9
9
9
9
9
9
9
9
9
9
9
9
9
9
9
9
9
9
9
9
9
9
9
9
9
9
9
9
9
9
9
9
9
9
9
9
9
9
9
9
9
9
9
9
9
9
9
9
9
9
9
9
9
9
9
9
9
9
9
9
9
9
9
9
9
9
9
9
9
9
9
9
9
9
9
9
9
9
9
9
9
9
9
9
9
9
9
9
9
9
9
9
9
9
9
9
9
9
9
9
9
9
9
9
9
9
9
9
9
9
9
9
9
9
9
9
9
9
9
9
9
9
9
9
9
9
9
9
9
9
9
9
9
9
9
9
9
9
9
9
9
9
9
9
9
9
9
9
9
9
9
9
9
9
9
9
9
9
9
9
9
9
9
9
9
9
9
9
9
9
9
9
9
9
9
9
9
9
9
9
9
9
9
9
9
9
9
9
9
9
9
9
9
9
9
9
9
9
9
9
9
9
9
9
9
9
9
9
9
9
9
9
9
9
9
9
9
9
9
9
9
9
9
9
9
9
9
9
9
9
9
9
9
9
9
9
9
9
9
9
9
9
9
9
9
9
9
9
9
9
9
9
9
9
9
9
9
9
9
9
9
9
9
9
9
9
9
9
9
9
9
9
9
9
9
9
9
9
9
9
9
9
9
9
9
9
9
9
9
9
9
9
9
9
9
9
9
9
9
9
9
9
9
9
9
9
9
9
9
9
9
9
9
9
9
9
9
9
9
9
9
9
9
9
9
9
9
9
9
9
9
9
9
9
9
9
9
9
9
9
9
9
9
9
9
9
9
9
9
9
9
9
9
9
9
9
9
9
9
9
9
9
9
9
9
9
9
9
9
9
9
9
9
9
9
9
9
9
9
9
9
9
9
9
9
9
9
9
9
9
9
9
9
9
9
9
9
9
9
9
9
9
9
9
9
9
9
9
9
9
9
9
9
9
9
9
9
9
9
9
9
9
9
9
9
9
9
9
9
9
9
9
9
9
9
9
9
9
9
9
9
9
9
9
9
9
9
9
9
9
9
9
9
9
9
9
9
9
9
9
9
9
9
9
9
9
9
9
9
9
9
9
9
9
9
9
9
9
9
9
9
9
9
9
9
9
9
9
9
9
9
9
9
9
9
9
9
9
9
9
9
9
9
9
9
9
9
9
9
9
9
9
9
9
9
9
9
9
9
9
9
9
9
9
9
9
9
9
9
9
9
9
9
9
9
9
9
9
9
9
9
9
9
9
9
9
9
9
9
9
9
9
9
9
9
9
9
9
9
9
9
9
9
9
9
9
9
9
9
9
9
9
9
9
9
9
9
9
9
9
9
9
9
9
9
9
9
9
9
9
9
9
9
9
9
9
9
9
9
9
9
9
9
9
9
9
9
9
9
9
9
9
9
9
9
9
9
9
9
9
9
9
9
9
9
9
9
9
9
9
9
9
9
9
9
9
9
9
9
9
9
9
9
9
9
9
9
9
9
9
9
9
9
9
9
9
9
9
9
9
9
9
9
9
9
9
9
9
9
9
9
9
9
9
9
9
9
9
9
9
9
9
9
9
9
9
9
9
9
9
9
9
9
9
9
9
9
9
9
9
9
9
9
9
9
9
9
9
9
9
9
9
9
9
9
9
9
9
9
9
9
9
9
9
9
9
9
9
9
9
9
9
9
9
9
9
9
9
9
9
9
POINT_DATA 861
SCALARS Disp float 2
LOOKUP_TABLE default
0.0 0.0
0.0053035374087951 -0.2034454804228171
0.006510570561624676 -0.39838835798362016
0.007271016114172933 -0.5924136173259839
0.008222841314179214 -0.7861079628258721
0.00968126643516406 -0.9791331595798969
0.012142475577646528 -1.1710474676457345
0.016190322487665103 -1.361301635285133
0.02250495115086354 -1.5492137912095922
0.0318251123393628 -1.7339053424852162
0.04489594368982243 -1.9141968660613058
0.06244396348560917 -2.08853421364219
0.08516752936258966 -2.2549933858588096
0.11372896155451549 -2.411363707708988
0.1487550425283487 -2.555216427837186
0.19077126450118365 -2.6839558715360585
0.24007733680461113 -2.7948790479045034
0.2965910585306444 -2.885274914376894
0.3597079227649918 -2.9526059265941282
0.42823340805658267 -2.9947475286226295
0.5002429236177336 -3.0102372892788143
0.5722524391788814 -2.994747528622537
0.6407779244704583 -2.952605926593941
0.7038947887047818 -2.885274914376623
0.7604085104307853 -2.794879047904164
0.8097145827341805 -2.683955871535671
0.8517308047069824 -2.55521642783676
0.8867568856807823 -2.411363707708537
0.9153183178726737 -2.2549933858583477
0.9380418837496228 -2.088534213641732
0.9555899035453821 -1.9141968660608628
0.9686607348958183 -1.7339053424847988
0.9779808960842988 -1.5492137912092059
0.9842955247474836 -1.3613016352847842
0.9883433716574929 -1.171047467645426
0.9908045807999695 -0.9791331595796354
0.9922630059209515 -0.7861079628256575
0.9932148311209572 -0.592413617325819
0.9939752766735052 -0.39838835798350375
0.9951823098263335 -0.20344548042275182
1.0004858472351252 0.0
0.05075095395924412 -0.002238628759830363
0.05441615267676775 -0.2036627180968409
0.055056745928803885 -0.3984494619896369
0.0557344199930899 -0.5924992691232305
0.05657587422224846 -0.7862350644799525
0.057824460103622334 -0.9793990709372388
0.05994796940925406 -1.171584739606622
0.06349885942272332 -1.3622665218800085
0.06911658277976288 -1.550780202951307
0.07747582845736982 -1.7362497415259983
0.08924102504689158 -1.9174907913858714
0.10504542435336546 -2.092942991121969
0.12550102794750131 -2.26067741838661
0.1512118222422294 -2.4184781857842927
0.18275224923627678 -2.5639046549586744
0.22061346026913847 -2.694325946264619
0.26508776024303005 -2.80696861474312
0.31612867692832175 -2.899014238657229
0.3732226295457509 -2.967788371996398
0.4352574463209508 -3.0110084672596806
0.5002429236177224 -3.026938724347224
0.5652284009144904 -3.0110084672595865
0.6272632176896775 -2.967788371996206
0.6843571703070859 -2.8990142386569513
0.7353980869923515 -2.806968614742773
0.7798723869662145 -2.694325946264224
0.8177335979990462 -2.563904654958241
0.8492740249930636 -2.418478185783834
0.8749848192877612 -2.2606774183861402
0.8954404228818686 -2.092942991121504
0.9112448221883175 -1.9174907913854227
0.9230100187778183 -1.7362497415255764
0.9313692644554081 -1.5507802029509168
0.9369869878124353 -1.3622665218796572
0.9405378778258959 -1.1715847396063122
0.9426613871315227 -0.9793990709369765
0.9439099730128945 -0.7862350644797377
0.9447514272420525 -0.5924992691230655
0.9454291013063384 -0.3984494619895204
0.9460696945583745 -0.2036627180967753
0.9497348932758929 -0.0022386287598279
0.10058531890368505 -0.004004856739021804
0.10325337485391879 -0.2037687754870464
0.1036231605879117 -0.398484333973474
0.10417700229409736 -0.592575121759063
0.10491639700936192 -0.7863383715175575
0.10597670236868534 -0.9796097339301559
0.10776871682372127 -1.1720286270192064
0.11082458902962743 -1.3630915701156825
0.11573389896493043 -1.5521483879325342
0.12311020187344919 -1.7383206963015037
0.13354068985280165 -1.920415365669977
0.1475741867616128 -2.096864273503076
0.16573906725903875 -2.265736712541092
0.18856694272302285 -2.424817028262124
0.21658414131417808 -2.571655029644822
0.2502452447163527 -2.7035902325606402
0.289842484972205 -2.817788840564345
0.33538189075944885 -2.911337774016002
0.3864410378469305 -2.9814346364447095
0.4419818424204942 -3.025616070895525
0.5002429236177116 -3.0419483961763794
0.5585040048149252 -3.025616070895429
0.6140448093884775 -2.9814346364445137
0.6651039564759407 -2.911337774015719
0.710643362263162 -2.8177888405639915
0.7502406025189888 -2.7035902325602383
0.7839017059211366 -2.571655029644382
0.8119189045122651 -2.424817028261659
0.8347467799762226 -2.2657367125406154
0.8529116604736233 -2.0968642735026037
0.8669451573824116 -1.9204153656695229
0.8773756453617457 -1.738320696301077
0.8847519482702492 -1.5521483879321412
0.8896612582055409 -1.3630915701153288
0.8927171304114395 -1.172028627018895
0.8945091448664715 -0.979609733929893
0.8955694502257933 -0.7863383715173424
0.8963088449410574 -0.5925751217588981
0.8968626866472431 -0.3984843339733577
0.897232472381236 -0.2037687754869804
0.8999005283314646 -0.004004856739016745
0.14993897372755613 -0.00541990405909597
0.15194184728855098 -0.20384064046298456
0.15216821401840738 -0.39850388831683947
0.15260188735833563 -0.5926373589982756
0.15323900703728055 -0.7864247882892182
0.15413436446503995 -0.979772155759614
0.15561373193361222 -1.1723821544872297
0.1581791115841596 -1.3637780510626127
0.16237602256351308 -1.553316176428492
0.16875612517762426 -1.740113986596178
0.17783358097200347 -1.922965499888357
0.1900765566184866 -2.1002940556045986
0.20593422023877983 -2.270167673339919
0.22586429775717903 -2.430374324585859
0.25033081477818064 -2.578459723947005
0.2797586923726542 -2.7117397408200548
0.31444345041335664 -2.8273313732382412
0.3544439090863536 -2.922240078170849
0.39943455982426496 -2.9935399855343343
0.4485349780768998 -3.038603593357245
0.5002429236177011 -3.0553409849813438
0.5519508691584986 -3.038603593357147
0.6010512874111231 -2.993539985534135
0.6460419381490184 -2.922240078170561
0.6860423968219956 -2.8273313732378824
0.7207271548626757 -2.7117397408196466
0.7501550324571258 -2.578459723946559
0.7746215494781039 -2.430374324585388
0.79455162699648 -2.270167673339437
0.810409290616751 -2.100294055604121
0.8226522662632144 -1.922965499887898
0.8317297220575772 -1.7401139865957478
0.8381098246716749 -1.553316176428096
0.8423067356510184 -1.363778051062257
0.8448721153015596 -1.1723821544869173
0.8463514827701286 -0.9797721557593506
0.8472468401978869 -0.7864247882890032
0.8478839598768314 -0.5926373589981107
0.8483176332167598 -0.39850388831672323
0.8485439999466162 -0.20384064046291828
0.8505468735076065 -0.005419904059088548
0.19901680440243696 -0.006559785804741271
0.20052665745064802 -0.2038976052215301
0.20067459750447741 -0.3985151314379965
0.201006236839 -0.5926857777458883
0.20154071057996717 -0.7864970705081241
0.2022890953614365 -0.9798970560656287
0.20348900045987567 -1.1726522698762134
0.20557360996825996 -1.3643284520383643
0.20906229091746448 -1.5542840931478863
0.21444189949231562 -1.7416279058028836
0.22215721617538328 -1.9251390086098141
0.2326006773271869 -2.1032300941583255
0.24614189317041701 -2.273968619754043
0.2631649694726037 -2.435148300194533
0.28407482561085806 -2.5843146985749614
0.3092517984328715 -2.7187684447757854
0.33899322886215283 -2.8355885022115155
0.3734127636412961 -2.931711659559173
0.4123033807341051 -3.004104051041469
0.45498906854172066 -3.0499954729995715
0.5002429236176907 -3.06715848456551
0.5454967786936574 -3.0499954729994716
0.5881824665012634 -3.0041040510412667
0.6270730835940583 -2.9317116595588812
0.6614926183731846 -2.835588502211152
0.6912340488024468 -2.718768444775372
0.71641102162444 -2.5843146985745107
0.737320877762674 -2.435148300194056
0.7543439540648411 -2.273968619753556
0.7678851699080522 -2.1032300941578437
0.778328631059839 -1.9251390086093512
0.7860439477428923 -1.7416279058024502
0.791423556317732 -1.5542840931474877
0.794912237266928 -1.364328452038007
0.7969968467753071 -1.1726522698759
0.7981967518737438 -0.9798970560653653
0.7989451366552124 -0.7864970705079091
0.7994796103961793 -0.5926857777457231
0.799811249730702 -0.3985151314378803
0.7999591897845314 -0.20389760522146352
0.8014690428327386 -0.0065597858047317555
0.24791193881534915 -0.00747249886216161
0.2490386056876852 -0.20394610309320704
0.24914054724588786 -0.39852285629253753
0.24938740929886313 -0.5927215017621429
0.24981919430604643 -0.7865569484051709
0.25043484791382187 -0.979993112355838
0.25138640897281667 -1.1728511169931204
0.25302598923072006 -1.3647475940599563
0.2558123564407479 -1.5550547962693906
0.26019623856719026 -1.7428635980058225
0.2665498205368507 -1.926936011332387
0.2751928889819235 -2.1056728871419454
0.28641948828545444 -2.2771403126206025
0.3005390421725187 -2.439139623568117
0.31789073857201544 -2.589220637535883
0.33881787780196043 -2.7246745323641433
0.36360253399503845 -2.842553506866619
0.39240036263624883 -2.939742714739588
0.4251463113711125 -3.013123018257187
0.46140447735229806 -3.059803156508624
0.5002429236176803 -3.077425513000879
0.5390813698830594 -3.0598031565085226
0.5753395358642364 -3.013123018256982
0.6080854845990883 -2.939742714739292
0.6368833132402841 -2.8425535068662517
0.6616679694333459 -2.7246745323637254
0.682595108663274 -2.589220637535427
0.6999468050627539 -2.4391396235676357
0.7140663589498017 -2.277140312620111
0.7252929582533171 -2.1056728871414596
0.7339360266983758 -1.9269360113319205
0.7402896086680242 -1.7428635980053861
0.744673490794457 -1.5550547962689898
0.747459858004478 -1.3647475940595974
0.7490994382623772 -1.1728511169928066
0.7500509993213704 -0.9799931123555743
0.7506666529291454 -0.7865569484049556
0.7510984379363285 -0.5927215017619778
0.7513452999893038 -0.3985228562924213
0.7514472415475064 -0.20394610309314026
0.7525739084198393 -0.007472498862150318
0.2966739767625386 -0.008194876669266243
0.2974991306532241 -0.2039883746735497
0.2975707012294738 -0.3985295057271132
0.2977450320656951 -0.5927459471569677
0.29807500485769806 -0.7866048380725356
0.29856565865006446 -0.9800668836586749
0.2992962741872523 -1.172992706190687
0.30053223025980225 -1.365048822917829
0.3026508340070033 -1.5556335398011971
0.30604895053271886 -1.743824820957405
0.3110509316005773 -1.9283596057154941
0.3179022563191792 -2.1076254434095194
0.32682440792930134 -2.2796864731851274
0.3380539926033269 -2.4423525417642193
0.3518647208623645 -2.5931808883942558
0.3685495058949262 -2.7294602919815065
0.3883761090422306 -2.848224034107337
0.4115294237706114 -2.9463238551815287
0.43807307564117703 -3.020586405201191
0.46784283717562114 -3.0680245589003756
0.5002429236176696 -3.086152039509392
0.5326430100597154 -3.068024558900273
0.5624127715941521 -3.020586405200983
0.5889564234647082 -2.9463238551812294
0.6121097381930773 -2.848224034106966
0.6319363413403684 -2.7294602919810846
0.6486211263729162 -2.593180888393796
0.6624318546319403 -2.442352541763735
0.6736614393059533 -2.2796864731846327
0.682583590916063 -2.10762544340903
0.6894349156346535 -1.9283596057150247
0.6944368967025023 -1.743824820956966
0.6978350132282103 -1.5556335398007948
0.6999536169754061 -1.3650488229174693
0.7011895730479529 -1.1729927061903729
0.7019201885851398 -0.980066883658411
0.702410842377506 -0.7866048380723202
0.7027408151695088 -0.5927459471568026
0.70291514600573 -0.39852950572699697
0.7029867165819796 -0.20398837467348277
0.7038118704726628 -0.008194876669253509
0.34533646873714574 -0.008756323072987224
0.3459242613691024 -0.20402623232504555
0.3459718094021445 -0.39853560730317256
0.34608065594522514 -0.5927604849814261
0.3463106735174138 -0.7866400752911097
0.3466762639625462 -0.9801230800434622
0.34721355567063256 -1.1730889111679597
0.34808588383902334 -1.36524973530304
0.3495866088707617 -1.556034006733892
0.35203477941865163 -1.744518952194731
0.35570259552276673 -1.9294158306693507
0.3607785944577074 -2.1090937761104627
0.3674167673320111 -2.2816140541724477
0.37578152906950696 -2.444794923701592
0.38607725638969687 -2.596203420356682
0.39854464247396393 -2.733131546046233
0.4134268673803891 -2.852602060661041
0.43092210878287907 -2.951448595751807
0.4512014930072691 -3.026477376427038
0.4743745849140675 -3.074642627950693
0.5002429236176587 -3.0933328802310394
0.5261112623212478 -3.074642627950589
0.5492843542280406 -3.0264773764268282
0.5695637384524229 -2.951448595751506
0.5870589798549039 -2.8526020606606677
0.6019412047613184 -2.7331315460458083
0.6144085908455748 -2.59620342035622
0.624704318165755 -2.4447949237011044
0.6330690799032417 -2.2816140541719503
0.6397072527775364 -2.109093776109971
0.6447832517124683 -1.929415830668879
0.6484510678165765 -1.74451895219429
0.650899238364461 -1.5560340067334886
0.6523999633961957 -1.3652497353026793
0.6532722915645843 -1.1730889111676452
0.6538095832726701 -0.9801230800431983
0.6541751737178024 -0.7866400752908943
0.654405191289991 -0.5927604849812611
0.6545140378330715 -0.39853560730305626
0.6545615858661135 -0.20402623232497857
0.6551493784980684 -0.008756323072973355
0.393919262409954 -0.00918492668640154
0.3943290598516287 -0.20406120219636753
0.3943499863507889 -0.3985403959746208
0.39439719473248486 -0.5927661924437695
0.3945302550015857 -0.7866620826481553
0.39476644478237044 -0.9801630280471338
0.39512432514986 -1.1731520447467925
0.3956800006374641 -1.3653698918314146
0.3966193156474845 -1.5562778932722001
0.39817520144382723 -1.7449623370831273
0.40054936747756537 -1.9301157278842864
0.4038791854171568 -2.110088140457631
0.4082604964838607 -2.2829340820314714
0.4137945658453118 -2.446479233660734
0.42061532501164967 -2.59830078341266
0.4289006005095527 -2.735699118305865
0.438862525719628 -2.855695704574168
0.4507141623294539 -2.955115479606997
0.4646733210015301 -3.0307748292303605
0.4810870651126652 -3.0796238871459956
0.5002429236176471 -3.098946134620538
0.5193987821226282 -3.0796238871458903
0.5358125262337594 -3.0307748292301495
0.54977168490583 -2.955115479606694
0.5616233215156494 -2.8556957045737925
0.5715852467257174 -2.7356991183054378
0.5798705222236135 -2.5983007834121956
0.5866912813899453 -2.4464792336602446
0.5922253507513908 -2.2829340820309723
0.596606661818089 -2.110088140457137
0.5999364797576745 -1.9301157278838135
0.6023106457914081 -1.744962337082685
0.6038665315877476 -1.556277893271796
0.6048058465977657 -1.3653698918310535
0.6053615220853686 -1.1731520447464778
0.605719402452858 -0.9801630280468698
0.6059555922336427 -0.7866620826479399
0.6060886525027434 -0.5927661924436043
0.6061358608844393 -0.39854039597450447
0.6061567873835992 -0.20406120219630056
0.6065665848252729 -0.009184926686386808
0.4424357083265351 -0.009509540237130349
0.4427207003280816 -0.20409532662095933
0.44271092330377837 -0.39854225288600686
0.44269855720728374 -0.592763857456187
0.4427376261206489 -0.7866709269077877
0.4428423007441595 -0.980185448860694
0.4430185496629074 -1.1731893588170506
0.4432943061695161 -1.365431871031095
0.4437392827829873 -1.5563956534960437
0.44447841599815824 -1.7451842259846577
0.4456247161340264 -1.9304829394262297
0.4472585807093875 -2.1106281346136733
0.449421876408414 -2.2836651029015282
0.45216427576220614 -2.4474253970570876
0.4555562806990515 -2.5994936885024247
0.4597042472143091 -2.737181399613769
0.4647735000017009 -2.8575194149644556
0.47099322491039386 -2.957336192283219
0.47863883703961463 -3.0334644733248948
0.4881149199290564 -3.0829164824059316
0.5002429236176353 -3.102945774265251
0.5123709273062141 -3.0829164824058264
0.521847010195654 -3.0334644733246834
0.5294926223248714 -2.9573361922829147
0.5357123472335604 -2.8575194149640786
0.540781600020949 -2.7371813996133403
0.5449295665362034 -2.5994936885019593
0.5483215714730465 -2.4474253970565973
0.5510639708268363 -2.283665102901028
0.55322726652586 -2.110628134613178
0.5548611311012185 -1.930482939425756
0.5560074312370848 -1.745184225984215
0.5567465644522546 -1.5563956534956391
0.5571915410657249 -1.3654318710307336
0.557467297572333 -1.1731893588167357
0.5576435464910809 -0.9801854488604301
0.5577482211145914 -0.7866709269075723
0.5577872900279567 -0.5927638574560219
0.557774923931462 -0.39854225288589046
0.5577651469071586 -0.2040953266208924
0.5580501389087046 -0.009509540237115033
0.49090199429800463 -0.009754542752432888
0.49109917989356544 -0.20413058251944827
0.4910595023623803 -0.3985398127412224
0.4909892493704576 -0.5927539978836412
0.4909370811808766 -0.7866668447450674
0.4909108043402577 -0.9801896939854184
0.4909009522098971 -1.1732011273605458
0.49089817372919126 -1.3654517238063881
0.4908975739840761 -1.5564290748251066
0.4908977438856765 -1.7452415450704737
0.4908979875976397 -1.9305767523623245
0.4908977307061156 -2.1107674009957043
0.4908930291425455 -2.2838575766726383
0.4908805167390228 -2.4476816451480703
0.4908650810246676 -2.599828974581303
0.49088718202348125 -2.7376214370716334
0.49106532017551086 -2.858109699134525
0.49164862740159704 -2.9581459940241244
0.493012390142586 -3.0345788392350403
0.4955781256472338 -3.084478258348738
0.5002429236176232 -3.105259526619084
0.5049077215880132 -3.0844782583486325
0.5074734570926605 -3.0345788392348285
0.5088372198336484 -2.9581459940238197
0.5094205270597343 -2.8581096991341477
0.5095986652117647 -2.737621437071205
0.5096207662105791 -2.599828974580837
0.5096053304962248 -2.4476816451475796
0.5095928180927035 -2.283857576672138
0.5095881165291343 -2.1107674009952095
0.509587859637611 -1.93057675236185
0.509588103349575 -1.745241545070031
0.5095882732511758 -1.556429074824702
0.5095876735060609 -1.3654517238060266
0.5095848950253552 -1.1732011273602312
0.5095750428949947 -0.9801896939851544
0.5095487660543758 -0.786666844744852
0.509496597864795 -0.5927539978834762
0.5094263448728723 -0.39853981274110595
0.5093866673416871 -0.2041305825193814
0.5095838529372476 -0.00975454275241717
0.5393291659248222 -0.009942529601517274
0.5394662102198091 -0.20416569504597482
0.5393995921613528 -0.39853307733298454
0.539273978045121 -0.5927368079868689
0.5391333218431679 -0.7866502802232042
0.5389782658286482 -0.9801757298168337
0.5387832268739758 -1.1731867611958782
0.5385016990169317 -1.365431322893456
0.5380556600218205 -1.5563956442556568
0.5373170291662177 -1.7451842711760073
0.5361716590653112 -1.9304830760771323
0.534536502503445 -2.11062701310343
0.5323631827458865 -2.283661251840505
0.5295957185494414 -2.447418261776259
0.5261749500016674 -2.5994916962399235
0.5220744628826182 -2.7372173891146567
0.5173549823819688 -2.857672272635955
0.512233730248224 -2.9577478719806845
0.5071042005291245 -3.0343045544976808
0.5025511312727076 -3.0844230474542176
0.5002429236176111 -3.105997929497159
0.4979347159625142 -3.084423047454112
0.49338164670609735 -3.034304554497469
0.48825211698700033 -2.9577478719803802
0.4831308648532601 -2.8576722726355785
0.47841138435261577 -2.7372173891142286
0.4743108972335708 -2.5994916962394576
0.47089012868580105 -2.44741826177577
0.46812266448936085 -2.283661251840005
0.46594934473180705 -2.1106270131029357
0.4643141881699451 -1.9304830760766583
0.4631688180690422 -1.7451842711755647
0.4624301872134416 -1.556395644255252
0.4619841482183316 -1.3654313228930945
0.4617026203612882 -1.1731867611955633
0.4615075814066163 -0.9801757298165695
0.4613525253920967 -0.7866502802229888
0.4612118691901438 -0.5927368079867039
0.461086255073912 -0.398533077332868
0.4610196370154558 -0.20416569504590798
0.46115668131044246 -0.009942529601501346
0.5877315552444705 -0.010087102157683358
0.587826191382569 -0.2041986514681582
0.587735337941126 -0.39852242049051906
0.5875575766010234 -0.5927125573965887
0.5873319339065487 -0.7866218438955891
0.5870510989378899 -0.9801439097509165
0.5866758900709181 -1.1731468688094895
0.5861150144860623 -1.3653687456810897
0.5851751585496848 -1.556277907773869
0.5836205657110992 -1.7449626109054872
0.5812470321814236 -1.9301157696160445
0.5779151858393612 -2.1100856904040337
0.573524873726323 -2.2829260013514134
0.5679692610707365 -2.4464647519930085
0.5611243133529084 -2.5982970980373006
0.5528851325473414 -2.7357724827656638
0.5432474150447671 -2.856000707350607
0.5323899390580639 -2.955921323461592
0.520749557520373 -3.0324504323302275
0.509341702841538 -3.08285357215508
0.5002429236175993 -3.105326926749802
0.49114414439366033 -3.0828535721549737
0.4797362897148268 -3.0324504323300165
0.46809590817714103 -2.9559213234612884
0.45723843219044547 -2.856000707350232
0.44760071468788004 -2.7357724827652374
0.43936153388232124 -2.5982970980368356
0.4325165861645007 -2.446464751992521
0.4269609735089224 -2.282926001350915
0.4225706613958925 -2.110085690403541
0.4192388150538377 -1.9301157696155717
0.41686528152416824 -1.7449626109050456
0.41531068868558696 -1.556277907773465
0.414370832749212 -1.3653687456807282
0.41380995716435764 -1.1731468688091748
0.4134347482973866 -0.9801439097506525
0.413153913328728 -0.7866218438953737
0.41292827063425364 -0.5927125573964235
0.41275050929415114 -0.3985224204904026
0.4126596558527082 -0.20419865146809135
0.4127542919908065 -0.010087102157667248
0.6361246451468245 -0.010195024952578452
0.6361845222417544 -0.20422787228159422
0.6360715574716573 -0.3985081132074357
0.6358450824752231 -0.5926816602411848
0.6355380625924691 -0.7865822223214921
0.6351366639771534 -0.9800953787664616
0.6345841928109569 -1.173080852514981
0.633707419638925 -1.3652480505869098
0.6322081055485689 -1.5560343390673474
0.6297614628216671 -1.744519479637966
0.6260934837446906 -1.9294155697758304
0.6210149994694677 -2.109090059577904
0.6143708908930912 -2.2816027471830327
0.605994310415636 -2.444775070661815
0.595686924051672 -2.596199151071071
0.5832588006631757 -2.733236941007036
0.5686222813615631 -2.8530359769120985
0.5519235988284523 -2.9525993084387228
0.5337663774223225 -3.0289691376292907
0.5155550678948423 -3.079631607533826
0.5002429236175877 -3.1032761029029365
0.4849307793403337 -3.0796316075337202
0.46671946981285645 -3.02896913762908
0.44856224840673375 -2.952599308438421
0.4318635658736336 -2.853035976911727
0.41722704657203347 -2.733236941006612
0.4047989231835488 -2.596199151070609
0.39449153681959603 -2.444775070661329
0.38611495634215254 -2.281602747182537
0.3794708477657872 -2.1090900595774134
0.37439236349057486 -1.9294155697753599
0.3707243844136075 -1.7445194796375258
0.36827774168671223 -1.5560343390669442
0.36677842759636026 -1.3652480505865487
0.3659016544243306 -1.1730808525146665
0.36534918325813504 -0.9800953787661975
0.3649477846428198 -0.7865822223212767
0.3646407647600661 -0.5926816602410196
0.3644142897636321 -0.39850811320731927
0.3643013249935352 -0.2042278722815274
0.36436120208846495 -0.010195024952562208
0.6845179481644202 -0.01027192646412366
0.6845474880038585 -0.2042519448325256
0.6844132118438279 -0.3984902736489588
0.6841409566009138 -0.5926446002430215
0.6837563045546238 -0.7865323225146951
0.6832413992509305 -0.9800312452973947
0.6824975967259841 -1.1729815855928363
0.6812608452894927 -1.365047198306034
0.6791446970507032 -1.5556344372637785
0.67574764033133 -1.7438254384141285
0.6707444593894951 -1.9283588147833561
0.6638906638712901 -2.1076207540233822
0.6549673752265047 -2.2796739045465433
0.6437414068938576 -2.442331477432377
0.6299406349220331 -2.5931786489253774
0.6132849633014796 -2.7295868095042417
0.5935929060282917 -2.848746609908265
0.5710090012367749 -2.9477598023454163
0.5463320915456613 -3.023850275477411
0.5214836813823467 -3.074818123396487
0.5002429236175763 -3.099913118464923
0.479002165852807 -3.074818123396381
0.45415375568949756 -3.0238502754772023
0.4294768459983933 -2.947759802345117
0.40689294120688957 -2.848746609907896
0.3872008839337171 -2.7295868095038216
0.3705452123131786 -2.5931786489249182
0.3567444403413689 -2.4423314774318947
0.34551847200873664 -2.2796739045460512
0.33659518336396616 -2.107620754022895
0.32974138784577467 -1.9283588147828885
0.32473820690395144 -1.7438254384136909
0.32134115018458664 -1.5556344372633766
0.31922500194580294 -1.365047198305674
0.3179882505093151 -1.172981585592522
0.31724444798437007 -0.9800312452971307
0.3167295426806774 -0.7865323225144798
0.31634489063438775 -0.5926446002428564
0.3160726353914739 -0.3984902736488423
0.3159383592314435 -0.2042519448324588
0.3159678990708816 -0.010271926464107317
0.7329179370850274 -0.010323025117969349
0.7329208634825628 -0.2042698638710316
0.7327655237403018 -0.39846887435216144
0.7324501176966365 -0.5926018315659597
0.7319929735727768 -0.786473507098568
0.731365811467007 -0.9799506352042479
0.7304064316530918 -1.172837707096501
0.7287680102605802 -1.3647466396981016
0.7259842663281303 -1.555056227205853
0.7216004266184315 -1.7428640562435915
0.7152448517897575 -1.9269345437953878
0.7065998776856104 -2.10566771682752
0.6953780817001081 -2.2771290585983945
0.681280254950047 -2.4391230835312863
0.6639655826132268 -2.589224656141446
0.6430640620381015 -2.7248098323009713
0.6183146431004386 -2.8431219639722793
0.5898631887367132 -2.94139697476024
0.5587249315648386 -3.0171082971916774
0.5273544822944386 -3.068451866612685
0.5002429236175651 -3.095255572214088
0.47313136494069336 -3.068451866612581
0.4417609156703005 -3.0171082971914704
0.4106226584984375 -2.941396974759944
0.3821712041347276 -2.8431219639719143
0.3574217851970828 -2.724809832300555
0.3365202646219759 -2.5892246561409906
0.3192055922851742 -2.439123083530808
0.3051077655351312 -2.2771290585979065
0.29388596954964685 -2.1056677168270364
0.28524099544551623 -1.9269345437949237
0.2788854206168563 -1.7428640562431565
0.27450158090716814 -1.555056227205453
0.2717178369747256 -1.3647466396977428
0.2700794155822186 -1.1728377070961873
0.2691200357683058 -0.9799506352039842
0.26849287366253655 -0.7864735070983526
0.26803572953867727 -0.5926018315657945
0.2677203234950122 -0.398468874352045
0.26756498375275134 -0.20426986387096482
0.2675679101502868 -0.010323025117952937
0.7813292029300046 -0.010353374505936265
0.7813095705465853 -0.20428110939792926
0.7811337894614127 -0.39844380909297367
0.7807775301441686 -0.5925539342215371
0.7802515039043934 -0.7864065113775609
0.7795054748181632 -0.9798492889486576
0.7783048096293719 -1.172637713456131
0.7762226605675432 -1.364328342774748
0.7727352299494158 -1.5542857922414686
0.767354528678893 -1.7416279653348603
0.7596367880890348 -1.925136848865867
0.7491929404613042 -2.103225156938332
0.7356630036622499 -2.273961377709898
0.7186778544540858 -2.4351421387611403
0.6978317935833741 -2.5843308365379745
0.6726981258554413 -2.718906177584456
0.6429438986295086 -2.836168650883748
0.6087060333741622 -2.9335228080215567
0.5711953332984667 -3.008759970245806
0.5333266261557725 -3.060536816685307
0.500242923617554 -3.0892790570198927
0.46715922107933816 -3.060536816685204
0.4292905139366526 -3.008759970245601
0.3917798138609712 -2.933522808021264
0.35754194860564276 -2.836168650883388
0.32778772137973095 -2.7189061775840444
0.30265405365182 -2.584330836537524
0.2818079927811299 -2.4351421387606664
0.26482284357298735 -2.273961377709415
0.25129290677395394 -2.1032251569378526
0.24084905914624286 -1.9251368488654068
0.233131318556401 -1.7416279653344287
0.22775061728589083 -1.5542857922410707
0.22426318666777267 -1.3643283427743904
0.2221810376059498 -1.1726377134558177
0.22098037241716145 -0.9798492889483941
0.22023434333093234 -0.7864065113773456
0.21970831709115732 -0.5925539342213719
0.21935205777391364 -0.3984438090928573
0.21917627668874115 -0.20428110939786248
0.21915664430532186 -0.010353374505919801
0.8297547206184723 -0.010368027047987118
0.8297176516119692 -0.20428564285264245
0.8295233221300624 -0.39841506373323493
0.8291283764336379 -0.592501417677506
0.8285349692166547 -0.7863315530756916
0.8276575104031578 -0.9797219016275536
0.8261840303699483 -1.1723677534216426
0.8236198941727321 -1.3637783622853819
0.8194220967890903 -1.553317754411898
0.8130397710638871 -1.7401134682824848
0.8039600409306454 -1.922962821000837
0.7917191738316846 -2.100290299764008
0.7758791489079465 -2.270166802563348
0.7559982224005111 -2.430383012340382
0.7316164689983499 -2.5784950196795315
0.7022736751128746 -2.711885321929035
0.6676198191017191 -2.8279113074082054
0.6277602299818887 -2.9241663620638487
0.5839840578785473 -2.9988151400491536
0.5395474807389886 -3.051043936980425
0.5002429236175431 -3.081923795330194
0.4609383664961006 -3.051043936980324
0.416501789356552 -2.998815140048952
0.37272561725322734 -2.92416636206356
0.33286602813341776 -2.82791130740785
0.29821217212228596 -2.711885321928629
0.2688693782368355 -2.578495019679087
0.2444876248346995 -2.4303830123399135
0.2246066983272887 -2.270166802562871
0.20876667340357483 -2.1002902997635338
0.19652580630463592 -1.9229628210003815
0.1874460761714131 -1.7401134682820567
0.18106375044622447 -1.5533177544115029
0.17686595306259367 -1.3637783622850264
0.1743018168653846 -1.1723677534213304
0.17282833683217871 -0.9797219016272903
0.17195087801868322 -0.7863315530754764
0.17135747080170036 -0.5925014176773409
0.1709625251052763 -0.3984150637331186
0.17076819562336965 -0.2042856428525757
0.1707311266168665 -0.010368027047970615
0.8781956680877213 -0.01037211591513731
0.87814819353923 -0.2042839802109093
0.8779397857679605 -0.39838280608678156
0.8775079605287783 -0.5924448382851502
0.8768446820506476 -0.7862469394351094
0.8758169485473599 -0.9795607905186381
0.8740344415306815 -1.1720147735063935
0.8709771830313509 -1.3630915500455258
0.8660644199766118 -1.5521494144274401
0.8586850420001684 -1.738319513546608
0.8482529763973296 -1.9204125319328924
0.8342247785983944 -2.0968627952913503
0.8160831646815716 -2.2657440018992308
0.7933108150372017 -2.4248431424019246
0.7653916409078805 -2.5717161496138172
0.7318697975351017 -2.7037614620077286
0.6924482794496035 -2.81839332549373
0.6472260864345311 -2.913376918057976
0.5973456064880491 -2.9872797361123946
0.5462078364906169 -3.039911133400429
0.5002429236175319 -3.0730863167532814
0.45427801074445057 -3.0399111334003295
0.4031402407470303 -2.9872797361121965
0.35325976080056753 -2.9133769180576925
0.308037567785519 -2.8183933254933806
0.2686160497000475 -2.703761462007329
0.23509420632729672 -2.571716149613379
0.2071750321980037 -2.4248431424014623
0.18440268255366216 -2.2657440018987596
0.1662610686368665 -2.0968627952908827
0.15223287083795592 -1.9204125319324425
0.14180080523513786 -1.7383195135461842
0.13442142725871112 -1.5521494144270485
0.12950866420398455 -1.3630915500451726
0.1264514057046621 -1.1720147735060826
0.12466889868798851 -0.9795607905183753
0.12364116518470254 -0.7862469394348943
0.12297788670657234 -0.592444838284985
0.12254606146739049 -0.39838280608666526
0.12233765369612112 -0.20428398021084254
0.12229017914762992 -0.010372115915120786
0.9266507765627555 -0.010370852107330186
0.9266032455797332 -0.2042773825310926
0.9263897152512353 -0.3983476356175187
0.9259220102631175 -0.5923842115914827
0.9251799725878641 -0.786150004771477
0.9239746576541051 -0.9793544518612337
0.9218612129480485 -1.1715710769058278
0.9183050712705007 -1.3622652896368828
0.9126817474888221 -1.5507802974321925
0.9043188480541686 -1.7362478953604734
0.8925531151064484 -1.91748829480179
0.8767573787624002 -2.09294489583479
0.8563297022371957 -2.260694117591254
0.83067799443821 -2.418522956257579
0.7992450127368221 -2.563997160036397
0.7615786828161751 -2.6945475172562197
0.7174792340087145 -2.807659352905366
0.6671817705186804 -2.9012412870138498
0.6116450837961357 -2.974183655745712
0.5536237653317378 -3.0270307173279325
0.5002429236175204 -3.062592560035233
0.4468620819033074 -3.0270307173278344
0.3888407634389233 -2.974183655745518
0.3333040767164004 -2.9012412870135718
0.28300661322639364 -2.807659352905023
0.23890716441896287 -2.694547517255826
0.2012408344983472 -2.563997160035966
0.1698078527969907 -2.418522956257124
0.1441561449980368 -2.2606941175907904
0.12372846847286227 -2.0929448958343286
0.1079327321288413 -1.9174882948013459
0.09616699918114388 -1.7362478953600542
0.08780409974650907 -1.5507802974318043
0.0821807759648443 -1.3622652896365322
0.07862463428730602 -1.1715710769055185
0.07651118958125475 -0.9793544518609716
0.07530587464749827 -0.786150004771262
0.0745638369722455 -0.5923842115913175
0.07409613198412811 -0.39834763561740233
0.07388260165563046 -0.2042773825310259
0.0738350706726081 -0.010370852107313642
0.9751149898788994 -0.010369349442503627
0.9750837489111663 -0.20426837600552314
0.9748816360227182 -0.3983107804041318
0.9743763547912304 -0.5923184263616036
0.9735363453385548 -0.786034493203645
0.9721268910403214 -0.9790948158587824
0.9696716052694823 -1.17103278953874
0.9656152272305429 -1.3612985796498591
0.9592934418842188 -1.549212648298864
0.9499692150476055 -1.7339028865979502
0.936899010259232 -1.91419522475205
0.9193625890871665 -2.0885404811935286
0.8966707953418072 -2.2550204330040877
0.8681720556178918 -2.4114280573391844
0.8332651568846838 -2.555345870124451
0.7915025558488562 -2.684254003412976
0.7427749985022021 -2.7957353688199733
0.6875357438611216 -2.8878472493257523
0.6269602182337072 -2.959697219454774
0.5629429853599445 -3.0122860509089007
0.5002429236175087 -3.049999999999997
0.43754286187507774 -3.0122860509088056
0.3735256290013303 -2.9596972194545845
0.31295010337394097 -2.8878472493254805
0.2577108487328919 -2.795735368819638
0.20898329138627095 -2.6842540034125904
0.16722069035047754 -2.5553458701240284
0.13231379161730453 -2.4114280573387368
0.10381505189342456 -2.255020433003632
0.08112325814809769 -2.0885404811930752
0.06358683697606238 -1.9141952247516119
0.050516632187713705 -1.733902886597536
0.041192405351120634 -1.54921264829848
0.034870620004811614 -1.3612985796495114
0.030814241965882942 -1.1710327895384327
0.02835895619505001 -0.9790948158585213
0.026949501896819727 -0.7860344932034301
0.026109492444144924 -0.5923184263614385
0.025604211212657643 -0.39831078040401546
0.0254020983242096 -0.2042683760054565
0.02537085735647652 -0.01036934944248708
SCALARS Stress float 6
LOOKUP_TABLE default
-1149.7891499310997 -1943.8266022921543 -1470.1062859346675 -19.943278754023023 0.0 0.0
1288.3560598599877 751.0289195795648 943.5332514568969 -23.071991114544407 0.0 0.0
572.1577634934233 131.4336663547229 220.56273092940992 -38.7982933116684 0.0 0.0
469.98953906190616 21.682536983558148 150.23815806804015 -2.4828864155256207 0.0 0.0
584.7062497020379 63.56098928582509 222.6309412292806 1.405947451144097 0.0 0.0
687.3062033227883 104.55505959369057 328.3533650410003 1.5745694407933772 0.0 0.0
800.4567872168957 144.4501058753114 436.89333528455995 0.7492656163833908 0.0 0.0
913.4856366023967 200.0377205324945 538.5909017490638 -0.44777681475485154 0.0 0.0
1033.2305408965153 268.2498095832515 638.2045982574022 -1.8663836806044625 0.0 0.0
1167.2257672190428 355.12526482549004 750.0241008952892 -3.3944979614461315 0.0 0.0
1320.4233819894425 465.0101480158902 881.7218135710708 -4.894924629879268 0.0 0.0
1492.9790689280933 598.4343857455581 1034.440191910422 -6.163083348079329 0.0 0.0
1680.486963304114 749.3018822692663 1203.1723084891385 -6.963877218583706 0.0 0.0
1876.745799339467 911.2517440809097 1381.8078086542268 -7.602812361688024 0.0 0.0
2073.1227481911906 1075.5252477413037 1561.6557382919318 -8.035719293122884 0.0 0.0
2260.0644388352553 1232.7275243794093 1733.2683166469462 -8.228840931384738 0.0 0.0
2428.0755411493947 1373.9560415024557 1887.5054926793423 -8.035606593641134 0.0 0.0
2567.353819439904 1490.1541858491305 2014.9868182750427 -7.334407408233265 0.0 0.0
2673.956896162979 1578.1830240189415 2112.1015221819844 -6.20082992017394 0.0 0.0
2735.670347303356 1626.837595997998 2167.174404406113 -6.844175020271672 0.0 0.0
2728.233929940669 1617.4347301402643 2159.0504493096855 7.676170810100302e-11 0.0 0.0
2735.670347302137 1626.8375959967677 2167.1744044051347 6.844175020208093 0.0 0.0
2673.9568961627906 1578.1830240188478 2112.101522181658 6.20082992016496 0.0 0.0
2567.3538194400153 1490.1541858493079 2014.986818275084 7.334407408317544 0.0 0.0
2428.0755411492155 1373.9560415024175 1887.5054926788227 8.03560659360882 0.0 0.0
2260.064438833226 1232.7275243774716 1733.26831664529 8.228840931413925 0.0 0.0
2073.1227481906462 1075.5252477409301 1561.6557382913184 8.035719293012766 0.0 0.0
1876.7457993380306 911.2517440796282 1381.8078086532596 7.602812361702009 0.0 0.0
1680.4869633042465 749.3018822696084 1203.1723084889782 6.963877218714606 0.0 0.0
1492.9790689284055 598.4343857461215 1034.4401919103018 6.163083348157686 0.0 0.0
1320.4233819878896 465.01014801456256 881.7218135698718 4.89492462969001 0.0 0.0
1167.2257672170012 355.1252648236884 750.0241008937785 3.3944979616148743 0.0 0.0
1033.2305408962022 268.2498095832043 638.2045982570736 1.866383680547095 0.0 0.0
913.4856366011205 200.03772053146272 538.5909017480946 0.4477768147769865 0.0 0.0
800.4567872158108 144.45010587442258 436.8933352836879 -0.7492656164432976 0.0 0.0
687.3062033221677 104.55505959335613 328.35336504042533 -1.5745694409034865 0.0 0.0
584.7062497017145 63.56098928579605 222.63094122901123 -1.405947451001932 0.0 0.0
469.9895390617476 21.682536983684194 150.23815806802304 2.4828864154269716 0.0 0.0
572.1577634932013 131.4336663547525 220.562730929291 38.798293311603466 0.0 0.0
1288.3560598595639 751.028919579137 943.5332514563548 23.071991114598973 0.0 0.0
-1149.7891499283849 -1943.8266022894625 -1470.1062859319893 19.943278753485036 0.0 0.0
-1464.770461361621 -2229.2028344236883 -1736.670154864678 -20.34570330001881 0.0 0.0
876.401191741508 416.7802355604544 589.7008930996165 -32.24742931155748 0.0 0.0
397.9860020925534 52.460722275411115 133.5303736988638 -32.572462239829456 0.0 0.0
415.8751741239525 3.2778215146465213 126.54110506647426 -16.15188416710881 0.0 0.0
520.6748206904128 27.832428151775076 181.74609102680137 -15.618798617977381 0.0 0.0
615.0852254447259 38.82367043844003 262.2147203475193 -20.253178635322925 0.0 0.0
694.6909891102194 53.362748615944554 345.547403032677 -22.38664562785475 0.0 0.0
771.8156821918449 71.31968142693376 412.4109165756396 -23.014726689921464 0.0 0.0
843.7202863517408 90.98377843245518 464.40977451458747 -23.404146888427984 0.0 0.0
913.4198377382575 113.7386598054537 512.2333786931187 -23.891887972089656 0.0 0.0
983.0658612958665 140.7133843860343 560.9691676384342 -24.107333691977125 0.0 0.0
1053.6320938047704 171.80532786087224 611.9147389993386 -23.98518686775209 0.0 0.0
1124.1631376954176 206.82791186203787 664.690925275073 -23.517146717512762 0.0 0.0
1192.14241922641 240.8928348893831 715.6766685278674 -22.91443405196883 0.0 0.0
1251.5936722996425 268.6708283448667 759.2547470838956 -22.220657014432454 0.0 0.0
1297.6988490382341 285.43681619311707 790.6561525347643 -21.239606827853017 0.0 0.0
1327.2286617803265 288.41493703428154 806.8851635714944 -19.726291649995346 0.0 0.0
1340.2961551733829 278.4311935045768 808.416867753237 -17.573295342082528 0.0 0.0
1335.0794022673738 254.62442874268626 794.0024129303322 -15.084906941944789 0.0 0.0
1285.4677670265294 192.21043830443267 738.6499074130354 -14.057974115301402 0.0 0.0
1198.3958175143675 103.68918889057949 651.9943706459753 2.0055068716828828e-11 0.0 0.0
1285.4677670257306 192.21043830365647 738.6499074124256 14.057974115271914 0.0 0.0
1335.079402267888 254.62442874325163 794.0024129307168 15.084906942004908 0.0 0.0
1340.2961551736403 278.43119350491224 808.416867753505 17.57329534209865 0.0 0.0
1327.228661780431 288.4149370344936 806.8851635714998 19.726291649999503 0.0 0.0
1297.6988490380147 285.4368161930444 790.6561525345596 21.239606827942026 0.0 0.0
1251.5936722995277 268.6708283448793 759.2547470837992 22.22065701437916 0.0 0.0
1192.1424192254833 240.89283488861997 715.6766685272902 22.914434051917922 0.0 0.0
1124.163137695986 206.82791186281185 664.6909252754681 23.51714671764732 0.0 0.0
1053.6320938059152 171.80532786225825 611.9147390000218 23.98518686782436 0.0 0.0
983.0658612946514 140.71338438500305 560.9691676376178 24.107333691700457 0.0 0.0
913.4198377378846 113.73865980536831 512.23337869284 23.891887972132544 0.0 0.0
843.7202863511789 90.98377843212461 464.40977451418456 23.40414688842904 0.0 0.0
771.8156821912776 71.31968142664292 412.4109165751972 23.01472668985889 0.0 0.0
694.6909891094742 53.3627486154394 345.5474030320672 22.386645627773937 0.0 0.0
615.0852254444358 38.82367043845094 262.2147203471891 20.253178635275823 0.0 0.0
520.6748206901872 27.83242815190891 181.74609102666244 15.618798618041684 0.0 0.0
415.8751741237137 3.277821514587391 126.54110506639265 16.1518841670895 0.0 0.0
397.9860020924095 52.460722275273206 133.53037369878243 32.57246223971476 0.0 0.0
876.4011917409895 416.78023556007975 589.7008930990223 32.24742931155997 0.0 0.0
-1464.770461359641 -2229.2028344216587 -1736.670154862588 20.345703299504677 0.0 0.0
-1214.431940706736 -1944.4412448485293 -1459.245124816594 -58.75425212926082 0.0 0.0
682.0431901012631 326.0498097365292 445.75213744465225 -99.79506177958673 0.0 0.0
279.42871985333187 59.9558226433925 101.81678960844945 -34.663683662830636 0.0 0.0
356.33252799030225 0.026776251377441662 106.68877155169216 -37.12886694970809 0.0 0.0
475.4027364973673 19.00304977913543 156.0972371766386 -37.903942659028665 0.0 0.0
582.4982420781049 34.3520646348196 233.13752132406572 -39.34604358399096 0.0 0.0
665.8029990318638 49.790888307290075 320.79807422988216 -41.9689864394652 0.0 0.0
744.1360579909042 64.24581760874622 391.03400614519904 -43.15103125261871 0.0 0.0
814.1101230791398 81.0856753247562 443.37853602235845 -44.10192731995435 0.0 0.0
880.336648355086 99.9905915387102 488.3043895754562 -44.92941262454997 0.0 0.0
946.1808360239149 123.48103670495858 533.5574261602042 -45.069042135314746 0.0 0.0
1012.9476573979568 152.0223348623854 581.3546800618329 -44.42362733373972 0.0 0.0
1080.475662219878 183.49176359220712 630.8676667949356 -43.43026479187724 0.0 0.0
1144.4613746916812 214.83849589074356 678.5244099640265 -42.24829750849335 0.0 0.0
1201.2256149058796 240.38767486071774 719.652985238512 -40.87224303825233 0.0 0.0
1245.965985748261 256.1498160848148 749.8625958446653 -39.02998525410911 0.0 0.0
1276.345668113891 260.1412020250997 767.020668991888 -36.34057936599048 0.0 0.0
1289.875206147197 250.57812647579948 769.0434300313722 -32.7470280103538 0.0 0.0
1277.9446048984978 219.96492518448673 748.0264132285897 -28.722488279379384 0.0 0.0
1248.3099731182701 177.64330123583184 712.4100884740274 -24.787667093817216 0.0 0.0
1142.4354796482369 70.78385888385014 607.4805726877028 4.18349799247153e-11 0.0 0.0
1248.3099731180039 177.64330123558142 712.4100884738167 24.78766709379661 0.0 0.0
1277.9446048993047 219.96492518536817 748.0264132292428 28.72248827949133 0.0 0.0
1289.8752061468927 250.5781264755934 769.0434300312082 32.74702801050439 0.0 0.0
1276.3456681141358 260.14120202543035 767.0206689920237 36.340579366038085 0.0 0.0
1245.9659857485397 256.1498160852009 749.8625958448494 39.02998525404585 0.0 0.0
1201.2256149050847 240.38767486006174 719.6529852379086 40.872243038146365 0.0 0.0
1144.4613746906484 214.83849588987027 678.5244099632971 42.2482975084836 0.0 0.0
1080.4756622197845 183.49176359233255 630.8676667949184 43.43026479200984 0.0 0.0
1012.9476573984964 152.02233486313588 581.3546800622273 44.423627333856 0.0 0.0
946.1808360229124 123.48103670415725 533.5574261595707 45.06904213517772 0.0 0.0
880.336648355614 99.99059153949578 488.3043895757811 44.929412624529135 0.0 0.0
814.1101230782316 81.08567532408426 443.378536021745 44.10192731992428 0.0 0.0
744.1360579906383 64.24581760876309 391.0340061449575 43.15103125255319 0.0 0.0
665.8029990314814 49.7908883072135 320.798074229482 41.96898643949039 0.0 0.0
582.4982420777148 34.352064634718104 233.13752132369788 39.34604358390176 0.0 0.0
475.4027364969789 19.003049779063335 156.0972371764517 37.90394265899059 0.0 0.0
356.33252799026127 0.02677625153373553 106.68877155173166 37.12886694963737 0.0 0.0
279.42871985315605 59.95582264297934 101.81678960827313 34.66368366275845 0.0 0.0
682.0431901007072 326.0498097362306 445.75213744407154 99.79506177946213 0.0 0.0
-1214.431940704838 -1944.4412448465234 -1459.2451248145205 58.75425212894051 0.0 0.0
-987.4089850019514 -1686.8152847153376 -1209.5064433377975 -72.21877452835793 0.0 0.0
517.4259835567925 230.53162673027413 323.24323528568317 -144.78287511013016 0.0 0.0
204.36110164532107 53.73996166943282 77.43031899442616 -56.82412202194373 0.0 0.0
296.5796274472753 5.433985267152315 90.592057018244 -58.096710847504525 0.0 0.0
420.47463301442133 9.74809717158629 130.82798508779558 -62.2953922536957 0.0 0.0
536.6311838632064 28.579771823463233 200.68676583927302 -60.031728712280405 0.0 0.0
634.3755046320455 43.982423899497256 290.5018783998166 -62.9434059115714 0.0 0.0
711.4806740400154 57.36154778476799 365.38461515880033 -63.5899811038009 0.0 0.0
780.4677439605687 71.34884230206276 419.5538712728072 -64.56428356886897 0.0 0.0
843.6087495075884 86.80542561789876 462.5360767302479 -65.34567856993174 0.0 0.0
905.3592495897266 106.59593618766596 504.2071151692117 -65.17397644509195 0.0 0.0
968.5077622444512 131.43387585164652 548.406265513017 -64.09218093369667 0.0 0.0
1032.2041500369191 160.52194487582014 594.8440843924245 -62.55477419839252 0.0 0.0
1092.8795402516466 187.91956953279805 638.8926463193822 -60.95618126174943 0.0 0.0
1146.4879838822415 211.07627883076256 677.2600466102879 -58.98567899211594 0.0 0.0
1190.6942990995653 226.92182378561415 707.2506112376296 -56.33787382832713 0.0 0.0
1222.0501407386016 231.73940354015565 725.3167838567933 -52.77143565476051 0.0 0.0
1235.5648027188117 221.91240342924164 727.2523177421926 -48.19528769557295 0.0 0.0
1227.8864362708407 195.2052646360556 710.2899262843451 -42.49655631705024 0.0 0.0
1208.9441755024015 162.89953079050332 684.8784044877503 -34.39385165797658 0.0 0.0
1059.600470161113 12.744745698135247 537.3657373135093 2.8634872251132037e-11 0.0 0.0
1208.9441755029277 162.89953079109318 684.8784044881684 34.393851658118216 0.0 0.0
1227.8864362713216 195.20526463656975 710.2899262846656 42.4965563170974 0.0 0.0
1235.5648027185805 221.91240342911777 727.252317742113 48.1952876956457 0.0 0.0
1222.050140738501 231.73940354013433 725.3167838567169 52.77143565481158 0.0 0.0
1190.6942990994341 226.92182378562507 707.2506112375966 56.33787382838278 0.0 0.0
1146.4879838809668 211.07627882959673 677.2600466093329 58.985678992103956 0.0 0.0
1092.8795402514781 187.91956953283082 638.8926463193271 60.9561812618083 0.0 0.0
1032.204150035907 160.52194487496837 594.8440843917216 62.55477419841809 0.0 0.0
968.5077622439059 131.43387585131393 548.4062655126592 64.09218093371577 0.0 0.0
905.3592495888058 106.5959361869523 504.2071151686074 65.17397644506266 0.0 0.0
843.6087495074712 86.80542561798782 462.53607673011345 65.34567856987807 0.0 0.0
780.4677439600857 71.34884230180248 419.553871272488 64.56428356870738 0.0 0.0
711.4806740394149 57.36154778439011 365.3846151583103 63.58998110368761 0.0 0.0
634.3755046318416 43.98242389964886 290.5018783995306 62.9434059115611 0.0 0.0
536.6311838625431 28.57977182304687 200.68676583878474 60.03172871213498 0.0 0.0
420.47463301381794 9.748097171194681 130.82798508749153 62.29539225359074 0.0 0.0
296.57962744739956 5.433985267631691 90.5920570184231 58.096710847440534 0.0 0.0
204.36110164527128 53.73996166923792 77.43031899435273 56.82412202184079 0.0 0.0
517.4259835562538 230.53162673003467 323.24323528517954 144.78287511000042 0.0 0.0
-987.408985000279 -1686.8152847135436 -1209.506443335933 72.21877452816673 0.0 0.0
-790.9477607091145 -1462.7855541281447 -990.4373825629993 -71.65078515876931 0.0 0.0
396.0006000996327 147.83345346272978 228.63005965669757 -175.55156584628554 0.0 0.0
150.45384663881262 43.63629064953087 58.22704118650305 -86.42688600346077 0.0 0.0
242.93432363066555 11.652787593429533 76.37665128912175 -80.75370481594803 0.0 0.0
356.8055748471421 5.957801562560542 108.62291023193002 -86.67612227535602 0.0 0.0
483.1193210816767 16.628321271530375 165.54204202961023 -85.77805774444784 0.0 0.0
590.6712221436569 36.693033423719946 253.0511089704379 -84.09286606094109 0.0 0.0
672.9752901640722 51.46322025286757 335.0105322170942 -84.39754991829496 0.0 0.0
741.922802878283 62.128429975645496 392.0801174346388 -84.78086915776434 0.0 0.0
802.2621499780875 73.97183453914053 434.06577757047285 -85.10139160361985 0.0 0.0
860.4910250206519 89.8401793864657 472.6263323121436 -84.47294568866162 0.0 0.0
919.4783482089522 110.86345982981346 513.0024704890807 -82.89874469836053 0.0 0.0
979.461100750793 135.9869789590703 555.6363094681956 -81.01044301045086 0.0 0.0
1036.458104068311 161.45047007665625 596.9267454865033 -78.971506689118 0.0 0.0
1087.446051018397 181.88177297997254 632.6563039744643 -76.48851394833304 0.0 0.0
1130.139887571254 195.90451299623476 660.9787712702516 -73.24358624683546 0.0 0.0
1162.6268062449547 202.25625708502892 680.3861209926175 -69.04217392317608 0.0 0.0
1180.0815676094248 196.06842528903115 686.103505223985 -63.751965198784696 0.0 0.0
1178.3859063850653 174.5343849948025 674.6884642539238 -56.28677718821256 0.0 0.0
1164.3239952137683 145.6198000673929 653.3626285115611 -44.30583552894306 0.0 0.0
961.0810634290681 -58.24746708370394 453.1651997777299 6.259526230678603e-11 0.0 0.0
1164.3239952142583 145.61980006795218 653.3626285120141 44.3058355292289 0.0 0.0
1178.385906384602 174.53438499437132 674.6884642535374 56.28677718827211 0.0 0.0
1180.0815676095906 196.06842528927925 686.1035052241681 63.75196519884909 0.0 0.0
1162.6268062437962 202.25625708393926 680.3861209917621 69.04217392311388 0.0 0.0
1130.1398875711748 195.904512996286 660.978771270243 73.24358624690265 0.0 0.0
1087.4460510178915 181.88177297964367 632.6563039740563 76.48851394837776 0.0 0.0
1036.4581040682567 161.45047007676334 596.9267454865163 78.97150668923732 0.0 0.0
979.4611007502789 135.9869789587604 555.6363094678269 81.01044301045414 0.0 0.0
919.4783482083554 110.86345982943176 513.0024704886065 82.89874469843329 0.0 0.0
860.4910250203448 89.84017938636464 472.6263323118679 84.47294568859226 0.0 0.0
802.2621499776318 73.97183453887277 434.06577757017203 85.10139160350336 0.0 0.0
741.9228028777936 62.12842997535617 392.0801174342715 84.78086915765029 0.0 0.0
672.9752901636631 51.4632202527671 335.0105322166975 84.39754991825758 0.0 0.0
590.6712221431742 36.69303342342975 253.05110896995123 84.09286606075487 0.0 0.0
483.11932108107305 16.6283212711927 165.54204202921557 85.77805774433864 0.0 0.0
356.80557484674165 5.9578015624234535 108.62291023178925 86.67612227528953 0.0 0.0
242.93432363060114 11.65278759339425 76.37665128908878 80.7537048158851 0.0 0.0
150.453846638828 43.6362906495449 58.227041186511855 86.42688600326235 0.0 0.0
396.00060009916626 147.83345346255734 228.63005965629296 175.5515658461908 0.0 0.0
-790.9477607075911 -1462.7855541264848 -990.4373825612968 71.65078515860243 0.0 0.0
-618.6575225595458 -1264.4855379485919 -796.2505103842348 -69.43803810747556 0.0 0.0
300.511294497785 83.9345732412372 156.5107712987735 -192.92885504486193 0.0 0.0
109.09297157904838 30.9582085704091 42.015354044837245 -114.51767009136101 0.0 0.0
193.67258946124488 16.888420085295433 63.169875353883725 -103.73627864001683 0.0 0.0
291.77164486612617 4.852736209393293 88.60584224551933 -110.08451719398941 0.0 0.0
414.4013481603226 8.080283778863675 132.45855217657532 -111.58723717265582 0.0 0.0
529.4202877048226 28.772940804286712 210.1793083688953 -106.8479081795054 0.0 0.0
627.0733285910767 42.49426428184225 295.7223759215563 -106.43218406468675 0.0 0.0
695.2934847133332 53.60627181278508 358.889445491021 -104.5892642286909 0.0 0.0
755.4977188194496 61.2968851255924 401.83256981572083 -104.24028337570779 0.0 0.0
810.2669942782852 73.21760313728188 437.92914759190455 -102.9588830712868 0.0 0.0
865.1732390605438 90.33639162936976 474.6595842029987 -100.83171207901523 0.0 0.0
921.0509392700309 112.04023802187137 513.6209891191343 -98.55978613180159 0.0 0.0
974.3051107362467 133.51716650828615 551.1052276406527 -96.29136302389753 0.0 0.0
1022.4072502495991 151.9478943222993 584.4425755933283 -93.44180676994809 0.0 0.0
1063.5452258375094 165.10418061452597 611.6047186336277 -89.58540708289101 0.0 0.0
1097.0999890963503 171.5547478464389 631.5685449352243 -84.99318256701486 0.0 0.0
1120.420626628294 170.9840305947755 642.967146934488 -79.2758151996944 0.0 0.0
1126.4602166902134 156.3596228808849 638.8664586556758 -70.45139114739092 0.0 0.0
1115.3124428513247 128.0417968594287 619.313662383832 -55.19437823853556 0.0 0.0
847.5880174140281 -139.84899165484936 356.4314462624355 4.208189352539193e-12 0.0 0.0
1115.3124428511392 128.04179685930785 619.3136623837918 55.19437823869223 0.0 0.0
1126.4602166904124 156.35962288117497 638.866458655845 70.45139114753498 0.0 0.0
1120.4206266289991 170.984030595613 642.9671469350203 79.27581519987902 0.0 0.0
1097.0999890958558 171.5547478460665 631.5685449347477 84.99318256705985 0.0 0.0
1063.5452258379264 165.104180615072 611.6047186339559 89.58540708294748 0.0 0.0
1022.4072502499506 151.94789432282548 584.4425755934509 93.44180676999699 0.0 0.0
974.3051107356699 133.51716650784766 551.1052276402377 96.29136302393826 0.0 0.0
921.0509392698641 112.04023802187857 513.6209891190118 98.55978613179647 0.0 0.0
865.1732390604276 90.33639162948631 474.65958420290576 100.83171207907583 0.0 0.0
810.2669942784488 73.21760313770656 437.92914759196515 102.95888307131716 0.0 0.0
755.4977188193149 61.29688512573057 401.8325698156367 104.24028337569774 0.0 0.0
695.2934847127158 53.606271812406575 358.88944549053974 104.58926422867567 0.0 0.0
627.0733285907763 42.4942642818488 295.7223759212358 106.43218406466814 0.0 0.0
529.420287704263 28.772940803945524 210.17930836839994 106.84790817932183 0.0 0.0
414.4013481599973 8.08028377893654 132.45855217643836 111.5872371725287 0.0 0.0
291.7716448658443 4.852736209378372 88.60584224544363 110.0845171938991 0.0 0.0
193.67258946109607 16.888420085126064 63.169875353788434 103.7362786399062 0.0 0.0
109.0929715791253 30.958208570573284 42.015354044909564 114.5176700911889 0.0 0.0
300.5112944972032 83.93457324086273 156.510771298324 192.92885504474782 0.0 0.0
-618.6575225583838 -1264.4855379471805 -796.2505103827956 69.43803810742536 0.0 0.0
-470.5280723795586 -1082.7996575801978 -624.790433747429 -68.00276956334905 0.0 0.0
225.2247719296067 33.21535587831691 101.68958443037288 -203.19867363207288 0.0 0.0
75.39983681523398 18.300896745368707 28.110122646255085 -137.7496233336865 0.0 0.0
147.22370824068682 20.26140735640125 50.24660383508935 -125.22008096065207 0.0 0.0
228.60064170654235 6.152322734089616 70.32143594300949 -130.71570618359996 0.0 0.0
336.54329950257704 0.42492235496161385 101.40589005334847 -138.7105131662353 0.0 0.0
455.70309936045953 15.834026058004271 163.08469356973802 -133.59449668322975 0.0 0.0
560.1586624028074 34.63603792200705 246.45207930988445 -128.09211247947633 0.0 0.0
642.03500158699 41.69939597485339 316.18961175729913 -126.32659254738599 0.0 0.0
699.5874367808995 48.96546444549379 363.12262248607465 -122.57660357614495 0.0 0.0
753.2487251614498 56.78103791896748 398.73801104753267 -120.56349827513097 0.0 0.0
804.1917000367738 69.75807957592232 432.2505045477825 -117.8941549702898 0.0 0.0
855.6245192388561 87.55489055714906 467.3018881830169 -115.25828474536569 0.0 0.0
904.7806244021169 105.88416309625549 501.2804619787196 -112.75102885455193 0.0 0.0
949.502072161612 121.58034825859184 531.6563348321197 -109.7209338552771 0.0 0.0
988.6046558139661 131.99408300068833 556.4846683779011 -105.70155871023863 0.0 0.0
1022.812129965912 140.464321961104 577.7877343224573 -100.38690354826491 0.0 0.0
1053.6678878480302 146.22555374592116 596.0081521995719 -94.49566673419517 0.0 0.0
1069.62733207589 139.5606503752162 600.7999710529989 -85.31812798924597 0.0 0.0
1061.968906870155 112.01442658039457 583.493046684744 -67.78256652248172 0.0 0.0
717.085987612114 -231.77332746081697 246.37731700605016 8.79225581229548e-11 0.0 0.0
1061.9689068701407 112.0144265804972 583.4930466847843 67.7825665227344 0.0 0.0
1069.627332076263 139.56065037567777 600.7999710534139 85.31812798952976 0.0 0.0
1053.6678878481764 146.22555374618975 596.0081521996641 94.49566673435197 0.0 0.0
1022.8121299650977 140.464321960382 577.7877343218114 100.3869035483985 0.0 0.0
988.6046558138482 131.99408300060315 556.4846683779391 105.70155871017897 0.0 0.0
949.5020721611088 121.58034825818307 531.6563348317557 109.72093385526009 0.0 0.0
904.7806244016708 105.88416309597307 501.2804619784359 112.75102885459242 0.0 0.0
855.6245192386226 87.55489055714776 467.3018881828252 115.25828474544915 0.0 0.0
804.1917000355327 69.75807957475506 432.2505045470251 117.89415497024024 0.0 0.0
753.2487251613151 56.78103791906892 398.7380110473809 120.56349827507925 0.0 0.0
699.5874367811145 48.96546444603176 363.12262248619766 122.57660357622277 0.0 0.0
642.0350015864418 41.699395974545794 316.1896117568394 126.32659254732434 0.0 0.0
560.1586624024366 34.63603792207778 246.45207930955632 128.09211247947934 0.0 0.0
455.70309936022176 15.83402605821825 163.0846935695499 133.59449668322176 0.0 0.0
336.5432995023006 0.42492235511295284 101.40589005331108 138.71051316607114 0.0 0.0
228.60064170636963 6.152322733955211 70.3214359429197 130.71570618346612 0.0 0.0
147.22370824067758 20.261407356445673 50.246603835099506 125.2200809605123 0.0 0.0
75.39983681521336 18.30089674543616 28.110122646269243 137.74962333347557 0.0 0.0
225.22477192911902 33.215355878005724 101.68958443002529 203.19867363194246 0.0 0.0
-470.52807237852863 -1082.799657578894 -624.7904337461885 68.0027695633357 0.0 0.0
-340.1144765796901 -925.7920138723338 -474.4777624403753 -75.77378095140247 0.0 0.0
160.95479068739985 -5.043932592388877 59.10825048456305 -204.85189226858864 0.0 0.0
46.34941790334178 7.897626012352629 16.273947392007273 -155.4893892446093 0.0 0.0
102.35706430557592 21.624258099571882 37.19553263385312 -143.8172147493176 0.0 0.0
167.66718072571115 8.649128879203092 52.82726217115317 -148.65607326219924 0.0 0.0
250.91917714491356 -1.2612436290368079 74.28244109866316 -161.07187663238463 0.0 0.0
362.47450859863903 3.679367135196344 116.51215680092739 -161.94759828413945 0.0 0.0
473.13086308231607 21.060614351665567 186.29448868281912 -151.91819881045802 0.0 0.0
565.6726557869817 31.89714051747162 259.60626345583 -146.3218784203155 0.0 0.0
632.7165655632414 33.5882891193272 312.3964885151527 -142.02330146532574 0.0 0.0
684.6156871315484 39.557120660721424 350.4061696356833 -137.2204437687504 0.0 0.0
732.5541948203906 49.30376917214201 382.75679650699146 -133.84149792500952 0.0 0.0
780.0120646218559 63.18802306853441 414.6119288237901 -130.87332091271514 0.0 0.0
824.1665738463472 77.48780963511564 444.42153628583605 -128.18992262472372 0.0 0.0
865.3632282468635 90.17000826030804 471.6750952670408 -125.24324683173069 0.0 0.0
901.987164736007 99.5517922386971 494.9021013126406 -121.22397963509535 0.0 0.0
935.6667335226222 106.00774266495124 515.0657998069056 -115.58057791240608 0.0 0.0
972.8937318744071 117.86474204008866 539.3214792149693 -109.12770539145379 0.0 0.0
1003.4500340890424 125.06611150395089 558.2213634750864 -100.60422269304637 0.0 0.0
1003.8046613021465 101.54547588586703 547.2233802561262 -82.95580571067256 0.0 0.0
563.8198982406193 -333.97929963683924 120.34500301834515 8.995115763354988e-11 0.0 0.0
1003.80466130267 101.54547588657888 547.2233802564759 82.95580571100652 0.0 0.0
1003.4500340893384 125.06611150439366 558.2213634753377 100.60422269336019 0.0 0.0
972.8937318739698 117.86474203969864 539.3214792146011 109.12770539153932 0.0 0.0
935.6667335217855 106.00774266422606 515.0657998061901 115.58057791244282 0.0 0.0
901.9871647357542 99.55179223858146 494.9021013124993 121.22397963511673 0.0 0.0
865.3632282465344 90.17000826015948 471.6750952668275 125.24324683175834 0.0 0.0
824.1665738464786 77.48780963540166 444.4215362858895 128.18992262475967 0.0 0.0
780.012064621932 63.18802306883911 414.6119288238375 130.87332091282246 0.0 0.0
732.5541948194798 49.303769171406884 382.7567965063739 133.84149792498562 0.0 0.0
684.6156871314474 39.557120660796826 350.40616963556045 137.22044376873973 0.0 0.0
632.7165655632728 33.58828911963646 312.3964885151574 142.02330146531784 0.0 0.0
565.6726557864524 31.89714051724347 259.60626345540004 146.3218784202684 0.0 0.0
473.1308630820838 21.060614351964006 186.29448868264507 151.9181988105454 0.0 0.0
362.474508598481 3.6793671355580795 116.5121568008927 161.9475982841663 0.0 0.0
250.9191771445511 -1.2612436290785878 74.28244109857961 161.07187663215768 0.0 0.0
167.66718072568176 8.649128879263944 52.82726217116128 148.6560732620786 0.0 0.0
102.35706430564031 21.62425809982347 37.19553263394821 143.8172147490552 0.0 0.0
46.349417903325644 7.897626012415392 16.27394739202103 155.48938924442052 0.0 0.0
160.9547906869873 -5.0439325926291865 59.10825048429764 204.85189226840356 0.0 0.0
-340.1144765789345 -925.7920138712535 -474.4777624394027 75.77378095141168 0.0 0.0
-242.43004638503905 -773.814595728425 -354.55146615098215 -83.84489067853075 0.0 0.0
105.7117868462152 -35.98030913307221 26.73524552419878 -200.18517194580738 0.0 0.0
19.09616838131924 0.8797424776404636 5.994432590233324 -168.1624504001688 0.0 0.0
58.72346507387846 21.45931625698189 24.05393851481162 -158.6894808425565 0.0 0.0
106.61870269025202 11.60966769862352 35.423869094384656 -162.85668876420715 0.0 0.0
164.82220368157883 1.0059467117328091 49.54364919879914 -176.9153622695034 0.0 0.0
249.34571304759675 -3.4846403227430485 73.99221398164272 -189.73944824252308 0.0 0.0
357.2526501781274 2.5841942640405615 119.19289643550232 -182.60421689373317 0.0 0.0
458.7064210477809 14.530502305415425 182.14667524421887 -167.68373415028134 0.0 0.0
536.0301619566994 18.08945150018407 238.97830552714294 -158.8899544036711 0.0 0.0
593.0492398521413 21.625448421562503 282.5434028594437 -152.1665663785315 0.0 0.0
640.0886314893818 27.41985089127351 316.0508885268492 -148.14347250155978 0.0 0.0
684.0948995572481 38.39491165801239 347.001133680356 -144.99125187535037 0.0 0.0
723.2895616116002 48.720457737018194 373.574421780208 -142.20034657588127 0.0 0.0
759.7990150394214 58.248798224535065 397.55348752959515 -139.56661103797583 0.0 0.0
794.2820366408782 66.21143020835846 419.3730567971119 -136.18820120557865 0.0 0.0
827.658111592838 72.58818474556209 439.8440825645563 -130.6814672118221 0.0 0.0
865.312141130497 83.38603909042573 464.0575424398567 -123.15678806341167 0.0 0.0
912.8313936877081 104.56096416860541 497.92963700787345 -115.56792916783878 0.0 0.0
937.1322210153368 100.20041191375022 509.0328640482719 -102.11612525122749 0.0 0.0
379.1153674193287 -442.79845050723577 -23.72887121220772 3.732480990947806e-11 0.0 0.0
937.1322210152331 100.20041191372795 509.03286404827963 102.11612525142806 0.0 0.0
912.8313936876488 104.56096416864096 497.9296370079106 115.56792916811571 0.0 0.0
865.3121411296763 83.38603908962183 464.0575424393027 123.15678806356361 0.0 0.0
827.658111592923 72.58818474574392 439.84408256451474 130.6814672119486 0.0 0.0
794.2820366411987 66.21143020882445 419.3730567973434 136.18820120558593 0.0 0.0
759.7990150390768 58.248798224384096 397.55348752938687 139.5666110380655 0.0 0.0
723.2895616115326 48.72045773718466 373.5744217801628 142.20034657608505 0.0 0.0
684.0948995571292 38.39491165819704 347.0011336802889 144.9912518755525 0.0 0.0
640.0886314897356 27.419850891897994 316.05088852704444 148.14347250168157 0.0 0.0
593.0492398515107 21.625448420926407 282.54340285895273 152.16656637836823 0.0 0.0
536.0301619563375 18.089451500047943 238.9783055268835 158.8899544036527 0.0 0.0
458.70642104732843 14.530502305321185 182.1466752438962 167.68373415025144 0.0 0.0
357.2526501777756 2.5841942642033633 119.19289643534512 182.6042168938567 0.0 0.0
249.3457130473379 -3.4846403224651152 73.99221398165137 189.73944824231646 0.0 0.0
164.82220368130533 1.0059467113502152 49.54364919860987 176.91536226923603 0.0 0.0
106.61870269023908 11.60966769874462 35.423869094416155 162.85668876401726 0.0 0.0
58.723465073978424 21.459316257313827 24.053938514941247 158.68948084232014 0.0 0.0
19.09616838131128 0.8797424777806602 5.9944325902728774 168.1624503999916 0.0 0.0
105.71178684589125 -35.98030913329162 26.735245524000906 200.18517194553414 0.0 0.0
-242.4300463843538 -773.8145957273292 -354.55146615019527 83.84489067863537 0.0 0.0
-165.8699336691283 -641.9507842446263 -259.9794452314686 -99.47415002371515 0.0 0.0
55.92161113200641 -58.72458797304836 1.361529916184244 -189.50291728658263 0.0 0.0
-7.115546779193357 -2.408621216448764 -2.8571990070785294 -176.01072768441733 0.0 0.0
16.020650804938985 20.26861706270745 10.886392996901344 -169.29519964960204 0.0 0.0
45.67101737429422 14.28903757099678 17.97441332154208 -172.87652290283674 0.0 0.0
79.64471411312657 4.225228628322488 25.042425459027008 -188.33967432187725 0.0 0.0
124.21891828305363 -1.2454845958220933 36.82342277739084 -204.4321980261255 0.0 0.0
193.4898901055493 -4.633854354126446 57.02222686517485 -209.91041310612553 0.0 0.0
286.14137992498445 -10.713302478580054 86.68668318862638 -200.1925391703919 0.0 0.0
376.4236440978256 -17.504161201534515 121.45639313648377 -182.41599458296648 0.0 0.0
440.8558121727243 -14.01251153566664 158.1984487863252 -168.1071406200442 0.0 0.0
486.3960923590418 -2.797577380811944 191.4753113299602 -159.73622744113936 0.0 0.0
526.3614648864394 8.897508125473394 222.0638320834278 -157.0091686391357 0.0 0.0
561.3062405424114 17.899773417532522 248.76794934621452 -155.65194181117877 0.0 0.0
592.9647415688589 25.890548700383434 273.1489456889008 -154.91362525040543 0.0 0.0
624.6601728647194 33.313447044904265 296.99152982513 -154.18387688984754 0.0 0.0
659.1358473938601 39.68521978397745 321.80359198308327 -150.3257957288227 0.0 0.0
697.2877906200375 44.845726441309516 347.41608881734044 -142.00215005278733 0.0 0.0
748.8451212458414 60.49922134910821 381.6900323703916 -132.32840030410011 0.0 0.0
825.9173865250768 98.92659746868625 441.7821204145046 -127.21775358188361 0.0 0.0
129.8832314030635 -554.8496014313523 -198.50901561244314 6.045297595846932e-11 0.0 0.0
825.9173865241532 98.92659746776343 441.78212041398405 127.21775358199346 0.0 0.0
748.8451212449434 60.49922134821511 381.6900323698551 132.32840030434122 0.0 0.0
697.2877906194593 44.845726440882 347.41608881702274 142.00215005307078 0.0 0.0
659.1358473936413 39.68521978373799 321.8035919828403 150.32579572899988 0.0 0.0
624.6601728645677 33.31344704455883 296.9915298249821 154.18387688971015 0.0 0.0
592.9647415685835 25.89054870015837 273.14894568872387 154.91362525036715 0.0 0.0
561.3062405424129 17.89977341793751 248.76794934623953 155.65194181131096 0.0 0.0
526.361464886467 8.89750812569573 222.06383208345585 157.00916863914864 0.0 0.0
486.3960923584942 -2.7975773815723706 191.47531132954356 159.736227441175 0.0 0.0
440.85581217283664 -14.012511535326347 158.19844878634544 168.10714061990984 0.0 0.0
376.4236440974718 -17.50416120153696 121.45639313635284 182.41599458293928 0.0 0.0
286.14137992450526 -10.713302478934231 86.686683188349 200.1925391704054 0.0 0.0
193.48989010514111 -4.633854354225935 57.02222686502448 209.9104131061318 0.0 0.0
124.21891828276671 -1.2454845961545962 36.82342277720483 204.43219802602587 0.0 0.0
79.64471411297758 4.2252286281100275 25.042425458921716 188.33967432150783 0.0 0.0
45.67101737423487 14.2890375708727 17.974413321488722 172.87652290255096 0.0 0.0
16.02065080501077 20.26861706285937 10.886392996968242 169.29519964952232 0.0 0.0
-7.115546779175833 -2.408621216274957 -2.857199007021361 176.01072768427403 0.0 0.0
55.921611131647325 -58.72458797324236 1.3615299159994088 189.50291728629833 0.0 0.0
-165.86993366877508 -641.9507842437932 -259.9794452309853 99.47415002388249 0.0 0.0
-121.40318218994302 -519.4261775307244 -195.16205679569669 -109.82822429321493 0.0 0.0
13.14760342749381 -73.05902365700504 -17.567102074492958 -174.10109549794785 0.0 0.0
-31.70665006348281 -3.5025530958647355 -10.558491227201218 -179.7768352509284 0.0 0.0
-25.601630389992646 18.76294643366082 -2.0508811883067164 -175.57877111028418 0.0 0.0
-14.49552603863305 16.485838859803046 0.59825476269269 -178.41722618447332 0.0 0.0
-6.4922142687546405 7.809354273922629 0.3998627839316491 -192.50622318256777 0.0 0.0
-2.6109157573516804 1.5369133307914447 -0.32607655872596375 -209.7291186899589 0.0 0.0
-0.7064211813454229 0.1386241857773074 -0.17325004418580114 -214.5284096943105 0.0 0.0
-0.12536982376300188 -0.06243610941127109 -0.05774529584451216 -206.90772285654606 0.0 0.0
0.09961296354856586 0.005703386125103904 0.04021375276499484 -197.6023764132348 0.0 0.0
-0.06829599621590887 -0.14984143504128866 -0.13172705097097293 -196.06925530667496 0.0 0.0
-0.6184923519636811 0.18096243979488946 0.14227108589611248 -192.57319921173192 0.0 0.0
-2.008059627366066 0.700456942004422 0.1765258113926862 -184.0513471606194 0.0 0.0
-1.6285090320854323 1.4093199155976706 0.5898175121687927 -176.04337611127468 0.0 0.0
3.548890670213467 4.074068270627997 1.5235000988708691 -170.35275247658936 0.0 0.0
21.211811293974193 9.64701632470043 4.316889436908397 -165.40323159995648 0.0 0.0
62.29456821317814 20.22967269696497 11.234941663352231 -160.20318747549868 0.0 0.0
145.386898205449 27.08861068121807 15.243976870646435 -151.72292922443665 0.0 0.0
352.1326103875628 -25.30726019741934 28.908121367053482 -145.11282815002252 0.0 0.0
544.0932683871706 4.738959929158327 203.83857286867598 -182.17114062645027 0.0 0.0
-481.21685522277863 -769.112277136505 -549.0614844237705 6.687628228974063e-11 0.0 0.0
544.0932683868623 4.738959928803723 203.83857286842309 182.17114062642958 0.0 0.0
352.1326103874978 -25.3072601973098 28.908121367149164 145.1128281506801 0.0 0.0
145.38689820543095 27.08861068134884 15.243976870677344 151.72292922488816 0.0 0.0
62.29456821287332 20.22967269639137 11.234941663045248 160.20318747576454 0.0 0.0
21.21181129457304 9.647016325412224 4.316889437359222 165.4032315997465 0.0 0.0
3.5488906710554886 4.074068271483213 1.5235000994706809 170.3527524765621 0.0 0.0
-1.6285090318998527 1.4093199157352956 0.5898175122439113 176.0433761114598 0.0 0.0
-2.0080596271224636 0.7004569418806241 0.17652581140009715 184.05134716081653 0.0 0.0
-0.6184923516947549 0.1809624390850324 0.14227108577272674 192.5731992115438 0.0 0.0
-0.0682959955025666 -0.14984143441576947 -0.1317270505782382 196.06925530671845 0.0 0.0
0.09961296401969122 0.005703386435582658 0.04021375299361907 197.60237641308578 0.0 0.0
-0.12536982368392913 -0.062436109625973124 -0.057745295882808634 206.9077228565428 0.0 0.0
-0.7064211813311729 0.13862418553968459 -0.17325004424967005 214.52840969431963 0.0 0.0
-2.6109157573617185 1.5369133307107985 -0.3260765587530825 209.72911868970863 0.0 0.0
-6.492214268669509 7.809354274045434 0.3998627839941764 192.5062231822657 0.0 0.0
-14.495526038499314 16.48583885998616 0.5982547627869512 178.4172261841619 0.0 0.0
-25.60163038996545 18.762946433594713 -2.050881188319954 175.57877111008327 0.0 0.0
-31.70665006343579 -3.502553095775827 -10.558491227159598 179.77683525079016 0.0 0.0
13.147603427382219 -73.05902365710855 -17.56710207455785 174.1010954977324 0.0 0.0
-121.40318218978496 -519.4261775299636 -195.16205679543182 109.82822429307828 0.0 0.0
-99.42354084502584 -408.4291419102479 -152.2404616370376 -108.67515589851347 0.0 0.0
-15.598057189784242 -81.4336345352051 -29.124282218030388 -161.76945778896774 0.0 0.0
-54.663943951713314 -4.307146703765776 -17.693391766342074 -179.5691837115727 0.0 0.0
-65.72049022164391 17.39705092481964 -14.494291937395456 -177.32671161596622 0.0 0.0
-73.5491721542313 17.9218221749899 -16.690661620341807 -178.7757920500131 0.0 0.0
-91.48292716546105 11.174586031607387 -24.040428356280273 -190.2822893023994 0.0 0.0
-129.39584042343304 4.527126334253062 -37.33916559288534 -205.98090117659808 0.0 0.0
-194.6934954649539 4.797984860835639 -57.38845874622635 -210.1237533456483 0.0 0.0
-286.1909666113247 10.492510841144565 -86.80257283216406 -200.20205847548206 0.0 0.0
-376.2846227051316 17.51159636323284 -121.39215900978763 -182.3882106850042 0.0 0.0
-441.3630502855431 14.157917430855168 -158.1671656782341 -168.18407707454654 0.0 0.0
-486.7571028545197 2.778681848371562 -192.0427994584926 -159.64206863219428 0.0 0.0
-527.4872525205886 -8.439255657507125 -223.12516001152318 -156.48578406098596 0.0 0.0
-561.7988292677903 -15.097554720306505 -248.5161934942479 -154.88566883511422 0.0 0.0
-587.3623169443688 -17.75563074128766 -265.97548407268715 -154.6847521493095 0.0 0.0
-602.182081331337 -15.43613834465745 -272.4757777129221 -156.97350841374808 0.0 0.0
-604.144825298328 -8.12658173411215 -265.7070296683835 -161.852034022516 0.0 0.0
-598.6662629813222 -1.1400891844112806 -245.2558995321143 -171.99815719647822 0.0 0.0
-581.7813897010271 42.86596134718942 -191.6916693131027 -185.1014897772011 0.0 0.0
-325.30072838816795 118.94877645900402 -20.230633621470545 -136.48701632629567 0.0 0.0
-1024.0567869455242 -1006.3857366500645 -1023.3173720692604 -1.4640022527601104e-10 0.0 0.0
-325.3007283878743 118.9487764593078 -20.230633621245545 136.48701632686317 0.0 0.0
-581.7813897009063 42.86596134716902 -191.6916693131197 185.10148977748537 0.0 0.0
-598.6662629803469 -1.14008918345381 -245.25589953139138 171.99815719654356 0.0 0.0
-604.144825298174 -8.126581734218078 -265.7070296682832 161.8520340227202 0.0 0.0
-602.1820813307422 -15.436138344029246 -272.4757777125784 156.97350841375118 0.0 0.0
-587.3623169431532 -17.75563073989055 -265.9754840717877 154.68475214928594 0.0 0.0
-561.7988292685885 -15.097554721603757 -248.51619349479444 154.88566883516964 0.0 0.0
-527.4872525204291 -8.439255657550312 -223.12516001139463 156.48578406100518 0.0 0.0
-486.7571028542901 2.7786818484673077 -192.04279945825516 159.6420686322043 0.0 0.0
-441.36305028525805 14.157917430715363 -158.16716567804295 168.18407707465454 0.0 0.0
-376.2846227047383 17.511596363058516 -121.39215900963433 182.38821068495676 0.0 0.0
-286.1909666107244 10.492510841098756 -86.80257283195975 200.20205847555638 0.0 0.0
-194.6934954644451 4.79798486092143 -57.388458746033464 210.1237533456061 0.0 0.0
-129.39584042305788 4.527126334301233 -37.33916559276556 205.98090117633967 0.0 0.0
-91.48292716515891 11.174586031888888 -24.040428356109775 190.2822893021782 0.0 0.0
-73.54917215410761 17.921822174937713 -16.690661620322846 178.77579204975092 0.0 0.0
-65.72049022149795 17.397050924935513 -14.494291937320506 177.32671161571028 0.0 0.0
-54.6639439516203 -4.307146703587087 -17.693391766263925 179.56918371143152 0.0 0.0
-15.598057189918302 -81.43363453529047 -29.124282218100078 161.76945778878363 0.0 0.0
-99.42354084511715 -408.4291419098845 -152.24046163695525 108.67515589838159 0.0 0.0
-81.9729941998385 -312.598701977045 -118.37150885306502 -100.1136281673271 0.0 0.0
-34.599312628270575 -83.15638678290344 -35.3232042277592 -150.21639693779545 0.0 0.0
-76.01551028523866 -5.122203450550743 -24.336210858136603 -175.65462751843071 0.0 0.0
-103.87113062825497 15.994224646891382 -26.38125141956145 -174.27384583310626 0.0 0.0
-131.58016373466575 18.89525632258627 -33.718877766063144 -175.23275739766564 0.0 0.0
-175.49531382637676 14.386188241175507 -48.04064575364916 -183.51925509020938 0.0 0.0
-251.60846160986253 5.776637713585882 -74.44925625278036 -189.07778081082915 0.0 0.0
-357.50256992901836 -2.7780093412762064 -119.49585513484334 -182.93580575712093 0.0 0.0
-458.7511458900651 -14.770773817540235 -182.24559387057462 -167.75315904416402 0.0 0.0
-535.9805974421797 -18.14492680784697 -238.97461080906066 -158.85259941492637 0.0 0.0
-593.0019108706587 -21.567318231181808 -282.52743747987955 -152.11090388246487 0.0 0.0
-640.3669830603013 -27.36570775654922 -316.2325298067931 -147.8447576353321 0.0 0.0
-684.7208891532805 -37.96596821711127 -347.25447933905156 -144.09973008355644 0.0 0.0
-723.0427366570555 -46.634055419420335 -372.69565519697903 -140.89121623550892 0.0 0.0
-753.8143429567021 -51.04283775536959 -391.3602242789299 -139.30573439901505 0.0 0.0
-773.2187264278957 -48.46581237389023 -400.25663473514123 -140.28118272942436 0.0 0.0
-780.0808142061638 -39.56882303378762 -399.1069839177334 -144.28669217551916 0.0 0.0
-773.889136715498 -26.75773523467754 -389.105225890919 -151.38830611844674 0.0 0.0
-731.4265386301295 13.541233976166353 -348.7201597000849 -159.86401021529903 0.0 0.0
-646.666784446554 83.62685451743464 -275.00645832549964 -166.5384984622234 0.0 0.0
-1777.9337205740287 -1294.731293977724 -1496.24252981545 3.7054803669889225e-11 0.0 0.0
-646.6667844462793 83.62685451758341 -275.0064583253409 166.53849846246615 0.0 0.0
-731.4265386298731 13.54123397611275 -348.72015969996784 159.8640102155725 0.0 0.0
-773.8891367154097 -26.75773523467643 -389.10522589094484 151.3883061187976 0.0 0.0
-780.0808142066998 -39.5688230344612 -399.10698391817834 144.28669217562108 0.0 0.0
-773.2187264271786 -48.46581237351828 -400.25663473469683 140.28118272949985 0.0 0.0
-753.8143429564807 -51.04283775513427 -391.3602242787026 139.30573439912857 0.0 0.0
-723.0427366568638 -46.634055419491006 -372.6956551968561 140.89121623537773 0.0 0.0
-684.7208891534295 -37.96596821759351 -347.25447933917985 144.09973008378444 0.0 0.0
-640.3669830598559 -27.36570775645645 -316.2325298064526 147.84475763526999 0.0 0.0
-593.0019108705471 -21.567318231370898 -282.5274374798177 152.11090388253925 0.0 0.0
-535.9805974421837 -18.14492680831436 -238.97461080897466 158.85259941487098 0.0 0.0
-458.75114588990584 -14.770773818076718 -182.2455938704642 167.75315904431991 0.0 0.0
-357.5025699284919 -2.778009341306793 -119.49585513457858 182.93580575724397 0.0 0.0
-251.6084616095304 5.776637713194486 -74.44925625278812 189.07778081068085 0.0 0.0
-175.4953138259357 14.38618824156207 -48.040645753414395 183.51925508993256 0.0 0.0
-131.5801637346314 18.89525632225824 -33.71887776615729 175.2327573974646 0.0 0.0
-103.87113062795424 15.994224647257859 -26.381251419362403 174.2738458328807 0.0 0.0
-76.01551028515559 -5.122203450537266 -24.33621085810809 175.65462751835744 0.0 0.0
-34.59931262826831 -83.1563867829064 -35.32320422775945 150.21639693768853 0.0 0.0
-81.97299419969113 -312.5987019766362 -118.3715088528982 100.11362816725422 0.0 0.0
-66.32751674351697 -231.52971205523434 -89.35716863962539 -88.47336329159603 0.0 0.0
-48.6111619389804 -79.39838777232501 -38.403658186883376 -137.29106490239883 0.0 0.0
-95.70095344079111 -5.674097046414516 -30.407699693969597 -167.57164899356692 0.0 0.0
-140.46853053938304 14.644868861596244 -37.717753897352836 -167.59862423527312 0.0 0.0
-187.0819052764532 18.5861693019829 -50.46237308406628 -165.36342317036858 0.0 0.0
-255.69096832601826 13.858968287757323 -72.67547960244873 -166.0541825346353 0.0 0.0
-363.1696213511511 -0.6887903203745083 -116.2112580880452 -164.71259213005223 0.0 0.0
-473.3312556407787 -21.38801246505524 -186.46683324747556 -152.52160143372907 0.0 0.0
-565.6882459841034 -32.159189507574986 -259.69930006746426 -146.34485503861632 0.0 0.0
-632.6867777191908 -33.60525077321474 -312.41537053441067 -142.01002388682286 0.0 0.0
-684.464851118902 -39.401446356526755 -350.2862159282437 -137.16417958333446 0.0 0.0
-732.5496893960121 -49.06360307023698 -382.66628815520437 -133.5115750131 0.0 0.0
-780.3095648120135 -62.766046110729064 -414.6130355459556 -129.84083943290025 0.0 0.0
-824.1850856692433 -76.18026704961363 -443.9275215898896 -126.5047424383701 0.0 0.0
-861.2183062299952 -85.03535986094042 -467.31714938938023 -124.57656828263241 0.0 0.0
-885.7138501978541 -85.47259553343972 -480.03208203334304 -125.5986778637755 0.0 0.0
-894.7098501118844 -75.1008468538383 -479.4468438811332 -130.27915497295885 0.0 0.0
-877.9836926350338 -46.285309937940866 -456.868169011644 -136.9440578140593 0.0 0.0
-828.8629987615989 6.038249056200073 -407.1149517600404 -142.70362800972464 0.0 0.0
-699.1407098045082 123.84214746286565 -288.2381691350272 -146.90903444198196 0.0 0.0
-2222.89179907825 -1534.4253466018972 -1848.342488690254 6.504663474515837e-11 0.0 0.0
-699.1407098041138 123.84214746308784 -288.23816913473615 146.90903444215692 0.0 0.0
-828.8629987612247 6.038249056429734 -407.11495175980883 142.70362801002398 0.0 0.0
-877.9836926355731 -46.28530993873734 -456.86816901193293 136.94405781432093 0.0 0.0
-894.7098501121325 -75.10084685433324 -479.4468438813618 130.27915497305494 0.0 0.0
-885.7138501970549 -85.47259553279218 -480.0320820327979 125.59867786388781 0.0 0.0
-861.218306230117 -85.03535986136899 -467.31714938943935 124.57656828283527 0.0 0.0
-824.1850856685321 -76.18026704902185 -443.9275215894704 126.50474243841134 0.0 0.0
-780.3095648130057 -62.76604611216206 -414.6130355467007 129.84083943314656 0.0 0.0
-732.5496893958259 -49.06360307032139 -382.6662881550681 133.51157501320472 0.0 0.0
-684.4648511189935 -39.401446356897765 -350.28621592831126 137.16417958329626 0.0 0.0
-632.6867777192186 -33.60525077365368 -312.4153705343656 142.01002388689352 0.0 0.0
-565.6882459836933 -32.15918950761757 -259.69930006709166 146.344855038618 0.0 0.0
-473.3312556405836 -21.38801246550393 -186.4668332473177 152.52160143385683 0.0 0.0
-363.16962135061794 -0.6887903202775023 -116.21125808775642 164.71259213001113 0.0 0.0
-255.69096832540825 13.858968287986935 -72.67547960222156 166.0541825344564 0.0 0.0
-187.08190527620445 18.58616930198545 -50.462373083998976 165.3634231702325 0.0 0.0
-140.4685305392233 14.6448688616044 -37.717753897308114 167.5986242351196 0.0 0.0
-95.70095344072121 -5.674097046514989 -30.407699693978326 167.57164899346583 0.0 0.0
-48.611161938962226 -79.39838777230622 -38.4036581868721 137.29106490238442 0.0 0.0
-66.32751674349919 -231.5297120549695 -89.35716863954059 88.47336329145023 0.0 0.0
-53.96366502671058 -163.78680741902392 -65.32514173372034 -75.66047923003212 0.0 0.0
-59.473764356627285 -71.63330673920518 -39.332102867772456 -122.4023683476726 0.0 0.0
-114.173194917442 -5.814745005208876 -35.997048732036234 -155.4549288561796 0.0 0.0
-175.01654660921994 12.711958502242544 -48.690779582753606 -155.95114229312168 0.0 0.0
-241.19262315127324 17.556302645000436 -66.7989659230943 -151.9307417362585 0.0 0.0
-336.92590551155195 11.084915998441659 -98.99249785228004 -146.3645394787601 0.0 0.0
-453.0792099641695 -14.395876318647742 -162.50759341597876 -134.3970633774973 0.0 0.0
-560.2605771409712 -35.195937740374376 -246.57856014888185 -128.4149021063464 0.0 0.0
-642.1409494181789 -41.96776968304419 -316.36472601433434 -126.33052765809278 0.0 0.0
-699.5398244440472 -48.930354467199564 -363.1198734073743 -122.57004210821127 0.0 0.0
-753.0230187218871 -56.50393796172342 -398.51837973466195 -120.52200849984523 0.0 0.0
-803.8010997395852 -69.20848540621085 -431.81114076268307 -117.56507029424077 0.0 0.0
-855.3634332503976 -86.84829037722582 -466.85242567106366 -114.22693407855672 0.0 0.0
-905.1262967237558 -105.36497398546456 -501.25359326312855 -110.9663427906479 0.0 0.0
-948.604754895013 -119.92067606127577 -530.5144902170645 -108.75945540412766 0.0 0.0
-978.727529139874 -123.33624047078371 -547.4950238166276 -109.55704930390937 0.0 0.0
-984.8875985327943 -108.93835374157032 -543.6179886177006 -113.6673982576454 0.0 0.0
-957.4259582586346 -65.99264585345864 -508.7562513256464 -119.61883500254655 0.0 0.0
-883.161421336292 14.478971028766779 -432.5413646776692 -124.03853499075288 0.0 0.0
-728.9305914557486 158.9358911561896 -286.38295190184425 -126.27437585136227 0.0 0.0
-2571.8477492656684 -1777.0411584269405 -2150.7315761477284 7.167955118347891e-11 0.0 0.0
-728.9305914556019 158.93589115634728 -286.3829519017706 126.27437585143873 0.0 0.0
-883.1614213357519 14.47897102911925 -432.5413646772156 124.03853499095386 0.0 0.0
-957.4259582579436 -65.99264585290224 -508.75625132516427 119.61883500268266 0.0 0.0
-984.8875985325391 -108.93835374136725 -543.6179886176544 113.66739825765636 0.0 0.0
-978.7275291396279 -123.33624047073734 -547.4950238164764 109.55704930393824 0.0 0.0
-948.6047548946792 -119.9206760610904 -530.5144902168389 108.75945540422623 0.0 0.0
-905.1262967240461 -105.3649739859621 -501.25359326329516 110.96634279069592 0.0 0.0
-855.3634332510336 -86.84829037809284 -466.8524256715366 114.22693407858128 0.0 0.0
-803.8010997395676 -69.20848540650341 -431.81114076266044 117.56507029424236 0.0 0.0
-753.0230187218077 -56.50393796192291 -398.51837973464666 120.5220084998953 0.0 0.0
-699.5398244439712 -48.93035446750404 -363.11987340727376 122.57004210824987 0.0 0.0
-642.1409494175464 -41.96776968269971 -316.3647260138382 126.33052765808534 0.0 0.0
-560.2605771407162 -35.195937740595035 -246.5785601485699 128.4149021063386 0.0 0.0
-453.0792099636552 -14.395876318552677 -162.50759341561383 134.3970633774389 0.0 0.0
-336.9259055112432 11.08491599812245 -98.99249785226407 146.36453947874185 0.0 0.0
-241.19262315084916 17.55630264518752 -66.79896592292717 151.9307417360327 0.0 0.0
-175.01654660906416 12.711958502334554 -48.69077958268026 155.9511422930059 0.0 0.0
-114.17319491736514 -5.814745005125253 -35.997048731988215 155.45492885602278 0.0 0.0
-59.4737643566705 -71.63330673926804 -39.332102867804274 122.40236834759637 0.0 0.0
-53.96366502668279 -163.78680741883076 -65.32514173365405 75.66047922986776 0.0 0.0
-45.01956424310974 -108.79744161255186 -46.14510175669848 -62.37100421032693 0.0 0.0
-68.11866336173632 -61.24268584035487 -38.808404760627354 -105.53067916192143 0.0 0.0
-131.61498887500463 -5.349688782681051 -41.09004858359292 -139.3860342912049 0.0 0.0
-207.76670091040972 10.690175586573888 -59.10227566857472 -140.31808947417346 0.0 0.0
-292.7492848740413 13.361629618790214 -83.77589542772668 -131.99517017818476 0.0 0.0
-410.3328697986267 2.4228692520143653 -128.7878274136907 -120.61979821227148 0.0 0.0
-527.8380357395552 -27.072364487277802 -209.03501202639603 -108.40902267974437 0.0 0.0
-627.4550371009907 -43.215890131786146 -296.0435726533479 -106.54531716215928 0.0 0.0
-695.3685699626599 -53.73914692560122 -359.0195036799323 -104.58955129493404 0.0 0.0
-755.4321653995873 -61.22100091381843 -401.79822199910836 -104.24669249121037 0.0 0.0
-809.9511511887052 -72.85467343846133 -437.6224646636919 -102.9061300400175 0.0 0.0
-864.4016211083883 -89.46405411804245 -473.872918178325 -100.50287048424251 0.0 0.0
-920.0541700125218 -110.84444459042881 -512.5485035104056 -97.63850457475554 0.0 0.0
-974.6721491387017 -133.5132410865312 -551.279860983214 -94.73207754008878 0.0 0.0
-1024.873448424896 -153.9873458306435 -586.7288072033848 -92.40426997882443 0.0 0.0
-1059.9411938883727 -161.87037313708717 -608.4458290015688 -92.22009263012424 0.0 0.0
-1063.6620449749994 -141.52870318960623 -600.4575039113631 -95.52879476332512 0.0 0.0
-1020.3643405670286 -81.4593407265177 -549.2602188073598 -100.69535886287507 0.0 0.0
-920.5039702582709 25.279728102500243 -446.95420525478085 -104.60435783556102 0.0 0.0
-750.4470251096545 185.91670861806205 -283.4578726036199 -108.82028600195473 0.0 0.0
-2873.3245677305745 -2008.943275030904 -2422.02689075239 6.413358732970664e-11 0.0 0.0
-750.4470251102625 185.91670861737572 -283.45787260401664 108.82028600211747 0.0 0.0
-920.503970256776 25.279728103888473 -446.9542052537889 104.60435783567912 0.0 0.0
-1020.3643405666578 -81.45934072620848 -549.2602188072043 100.6953588629695 0.0 0.0
-1063.6620449748539 -141.52870318952444 -600.4575039113404 95.52879476327954 0.0 0.0
-1059.9411938886121 -161.87037313746896 -608.4458290016969 92.22009263015045 0.0 0.0
-1024.8734484239578 -153.98734582984582 -586.7288072027479 92.4042699788015 0.0 0.0
-974.6721491387333 -133.5132410867585 -551.2798609830907 94.73207754014969 0.0 0.0
-920.0541700124907 -110.84444459064464 -512.5485035104876 97.63850457483548 0.0 0.0
-864.4016211075275 -89.4640541173405 -473.87291817779436 100.50287048412824 0.0 0.0
-809.95115118818 -72.85467343818509 -437.6224646633948 102.9061300400088 0.0 0.0
-755.4321653991128 -61.2210009136492 -401.7982219988013 104.24669249123465 0.0 0.0
-695.3685699623177 -53.73914692558512 -359.01950367963644 104.58955129498194 0.0 0.0
-627.4550371003648 -43.215890131457535 -296.0435726527849 106.54531716210194 0.0 0.0
-527.8380357388069 -27.072364486877465 -209.0350120257877 108.4090226796476 0.0 0.0
-410.3328697982734 2.4228692517908956 -128.78782741355732 120.61979821222467 0.0 0.0
-292.7492848736232 13.36162961883273 -83.77589542761814 131.99517017802157 0.0 0.0
-207.76670091016268 10.69017558679491 -59.10227566843324 140.31808947401066 0.0 0.0
-131.61498887490265 -5.349688782739511 -41.09004858357946 139.38603429101877 0.0 0.0
-68.11866336161307 -61.24268584030216 -38.808404760574554 105.53067916185712 0.0 0.0
-45.01956424296158 -108.79744161236239 -46.1451017565972 62.37100421019266 0.0 0.0
-39.17675615784377 -66.24270870256233 -31.625839458121813 -48.87842790451444 0.0 0.0
-74.86740670549689 -49.42557167692519 -37.28789351472662 -86.85404513575341 0.0 0.0
-148.00581017341585 -4.30053949924428 -45.692354521480055 -119.38544649021148 0.0 0.0
-239.0226474362083 7.944165935246445 -69.31527050215857 -120.19954083868677 0.0 0.0
-347.29719800937676 8.679468606166733 -101.531792159069 -109.63042656272786 0.0 0.0
-470.2067728049617 -12.490517095990008 -162.1526902521267 -90.71339251553005 0.0 0.0
-589.513945942544 -35.48608345376388 -251.874690094415 -85.06656359300908 0.0 0.0
-673.2178779226317 -51.86248150477718 -335.2134087463398 -84.34971704656337 0.0 0.0
-742.0067720683431 -62.203516042252396 -392.1901574082807 -84.77942374414101 0.0 0.0
-802.1814539564026 -73.86853751749186 -434.00626849765536 -85.12224731896417 0.0 0.0
-860.0773479849298 -89.38442424000486 -472.22387739102544 -84.4045751123558 0.0 0.0
-918.398878106583 -109.73755647094873 -511.9361733838223 -82.5742833894832 0.0 0.0
-977.8557987377544 -134.38231017552937 -554.0505579812445 -80.27523902115726 0.0 0.0
-1036.270596187937 -161.3196472615473 -596.7380785864664 -77.87194052891452 0.0 0.0
-1091.2212845474648 -185.6254090326876 -636.3925257877916 -75.59376815770517 0.0 0.0
-1132.3197028006573 -198.01849029519025 -663.3202232280935 -74.38059688821374 0.0 0.0
-1136.1503232364792 -177.07560678553187 -655.1904605929142 -75.98673881911374 0.0 0.0
-1077.854042501771 -100.25539043454296 -588.2121579859911 -80.49068703092026 0.0 0.0
-952.5502517253622 32.99368241699871 -459.68008587748284 -85.82173984767314 0.0 0.0
-762.5656418309821 212.836158923215 -275.7024870118321 -94.020500915717 0.0 0.0
-3137.995028520526 -2222.5175653557208 -2664.6733691585505 2.0961010704922955e-11 0.0 0.0
-762.5656418313837 212.836158922712 -275.70248701208357 94.02050091586149 0.0 0.0
-952.5502517242654 32.99368241811945 -459.68008587679685 85.82173984767695 0.0 0.0
-1077.8540425014826 -100.25539043436217 -588.2121579858211 80.49068703096177 0.0 0.0
-1136.1503232361742 -177.07560678529478 -655.1904605927214 75.98673881910288 0.0 0.0
-1132.3197028009213 -198.01849029566569 -663.3202232282782 74.3805968883021 0.0 0.0
-1091.2212845463769 -185.62540903166808 -636.3925257870221 75.59376815765876 0.0 0.0
-1036.2705961874894 -161.31964726129675 -596.7380785861045 77.8719405289246 0.0 0.0
-977.8557987383938 -134.3823101764155 -554.0505579817248 80.27523902125675 0.0 0.0
-918.3988781052734 -109.73755646983564 -511.936173382957 82.57428338944273 0.0 0.0
-860.0773479845 -89.38442423978185 -472.22387739077124 84.40457511229216 0.0 0.0
-802.1814539559218 -73.86853751727438 -434.00626849731776 85.1222473189178 0.0 0.0
-742.0067720678919 -62.20351604207427 -392.19015740792577 84.77942374409804 0.0 0.0
-673.2178779220592 -51.86248150454141 -335.2134087458518 84.34971704651798 0.0 0.0
-589.5139459418336 -35.48608345348756 -251.87469009383446 85.06656359313122 0.0 0.0
-470.2067728043005 -12.490517095682197 -162.1526902517009 90.71339251546787 0.0 0.0
-347.29719800895697 8.679468606093293 -101.53179215898231 109.63042656261501 0.0 0.0
-239.02264743605986 7.944165935226742 -69.31527050211831 120.19954083860301 0.0 0.0
-148.00581017330308 -4.300539499331556 -45.69235452147238 119.38544649013436 0.0 0.0
-74.86740670542652 -49.425571676910245 -37.28789351470104 86.85404513576249 0.0 0.0
-39.17675615780822 -66.24270870245736 -31.625839458079675 48.87842790443315 0.0 0.0
-35.76264430075524 -35.92180272344705 -21.505334107260687 -35.51644023500629 0.0 0.0
-79.5307295494935 -37.23933791686624 -35.03102023990792 -66.5908379489554 0.0 0.0
-163.1197199045016 -2.872180846867494 -49.79757022541073 -95.36438448773505 0.0 0.0
-269.8476173631175 4.44397929236867 -79.57709184154155 -95.76590926865448 0.0 0.0
-399.1762831392462 0.2537622860540818 -121.43889206783064 -81.79759314949816 0.0 0.0
-528.9503024050398 -23.101462827467238 -196.03893891049754 -65.61031313665251 0.0 0.0
-633.1375017630914 -43.393891105740664 -289.62887680290305 -63.24291793237651 0.0 0.0
-711.5149807074102 -57.34820058357364 -365.36348369051285 -63.47348486639418 0.0 0.0
-780.5708485987909 -71.40453373014057 -419.65702562855773 -64.56618658950099 0.0 0.0
-843.515656345014 -86.68284827273493 -462.4569362794065 -65.3752096271508 0.0 0.0
-904.8355504740363 -106.04555639584625 -503.69983081978523 -65.09140274593138 0.0 0.0
-967.2591714676806 -130.19818000565675 -547.1960452607912 -63.79519703798547 0.0 0.0
-1030.3211481705303 -158.783203939489 -593.0507657048778 -62.041040307728835 0.0 0.0
-1091.7210991776324 -187.08203075981265 -637.880915520018 -60.34442668155321 0.0 0.0
-1148.4277125804588 -213.3522002955687 -679.3448315038272 -58.42108458112867 0.0 0.0
-1194.385765670009 -230.65952218740108 -711.0719557173506 -56.31810167921669 0.0 0.0
-1206.2211529631581 -216.19841655776278 -710.1701623011734 -55.746904361167864 0.0 0.0
-1141.0208417654844 -130.97561679648436 -635.6293969675789 -59.30683888005322 0.0 0.0
-986.8558828458356 32.08973499476333 -477.6167954337484 -67.22224938759517 0.0 0.0
-762.4153834970447 246.77588472075524 -258.36120215662754 -80.49882001427366 0.0 0.0
-3366.094914571797 -2408.2993225997525 -2874.4514981051875 1.566746732351021e-12 0.0 0.0
-762.4153834969977 246.77588472075678 -258.361202156507 80.49882001428858 0.0 0.0
-986.8558828458966 32.089734994628714 -477.616795433802 67.22224938768701 0.0 0.0
-1141.0208417654067 -130.9756167964768 -635.6293969675315 59.30683888011395 0.0 0.0
-1206.2211529625754 -216.1984165573044 -710.1701623007608 55.746904361231266 0.0 0.0
-1194.3857656699502 -230.6595221874507 -711.071955717273 56.31810167922071 0.0 0.0
-1148.4277125799242 -213.35220029517205 -679.3448315033933 58.4210845810717 0.0 0.0
-1091.7210991768404 -187.08203075916353 -637.8809155194672 60.3444266815056 0.0 0.0
-1030.3211481704357 -158.7832039396309 -593.0507657048512 62.04104030772027 0.0 0.0
-967.2591714674351 -130.19818000560824 -547.196045260596 63.79519703797867 0.0 0.0
-904.8355504741753 -106.04555639623065 -503.6998308198937 65.09140274587656 0.0 0.0
-843.5156563442617 -86.68284827222574 -462.4569362789093 65.37520962704613 0.0 0.0
-780.570848598259 -71.40453372989788 -419.6570256282025 64.56618658953815 0.0 0.0
-711.5149807069158 -57.348200583403 -365.36348369008476 63.47348486640775 0.0 0.0
-633.1375017628777 -43.393891105945244 -289.6288768025972 63.24291793242828 0.0 0.0
-528.9503024044791 -23.10146282730192 -196.03893891008605 65.61031313670149 0.0 0.0
-399.1762831388459 0.2537622860765123 -121.43889206768424 81.79759314934802 0.0 0.0
-269.8476173628051 4.443979292455545 -79.577091841439 95.76590926870819 0.0 0.0
-163.1197199043201 -2.8721808468176686 -49.797570225341325 95.36438448765804 0.0 0.0
-79.53072954950652 -37.2393379169301 -35.03102023993098 66.59083794891876 0.0 0.0
-35.76264430077001 -35.92180272339821 -21.505334107250466 35.516440235005504 0.0 0.0
-33.58386495169509 -17.497545795865847 -15.32442322426828 -23.029309077996317 0.0 0.0
-81.34867210226443 -25.786440186823583 -32.1405336867264 -45.03022121043028 0.0 0.0
-176.56219637339157 -1.5726822740400106 -53.440463594229485 -66.85438361052547 0.0 0.0
-301.3425855311979 0.16269129764922363 -90.24471402867783 -66.4785713202314 0.0 0.0
-447.0022867690259 -11.677901321727282 -144.33153975913535 -51.73207563007909 0.0 0.0
-576.3051680627237 -31.97405694600037 -229.49668417065487 -42.50153069816035 0.0 0.0
-664.4948614644319 -48.844959895831295 -319.8223366082738 -41.96936598880536 0.0 0.0
-743.9625017180721 -63.86828873010311 -390.7510595974119 -43.0306385363648 0.0 0.0
-814.2593934299218 -81.17059184878077 -443.5157099473229 -44.112408350918315 0.0 0.0
-880.2087209723932 -99.82799295612311 -488.1832180940238 -44.95518793454164 0.0 0.0
-945.5501469165778 -122.8479305700937 -532.9510510036894 -44.98711086165736 0.0 0.0
-1011.6687946083977 -150.81634531839785 -580.1373593774756 -44.19122370372985 0.0 0.0
-1078.582115283963 -181.82576169653908 -629.1069185311854 -43.128571027998774 0.0 0.0
-1142.3203898131549 -213.12863753251708 -676.6131242031944 -41.99999829265318 0.0 0.0
-1199.1693586409742 -238.9068525087169 -717.9106198277514 -40.64341166375535 0.0 0.0
-1243.3688895743444 -254.09822571347792 -747.6221140968365 -38.56033799690888 0.0 0.0
-1265.587527165016 -249.97027197453053 -756.8753816206258 -36.18568442820589 0.0 0.0
-1227.3625494512148 -190.4674409076415 -708.6529856146125 -37.224812756322706 0.0 0.0
-1043.0107653599107 4.867484575308737 -519.5521755575718 -47.109722987436264 0.0 0.0
-738.4288196057569 301.30015478682384 -218.99899802290878 -67.10042586441443 0.0 0.0
-3543.639243482487 -2548.6478748264835 -3035.7657356423915 -1.3585577107733116e-11 0.0 0.0
-738.4288196049002 301.3001547876505 -218.99899802224866 67.10042586438556 0.0 0.0
-1043.0107653595005 4.8674845756574285 -519.55217555726 47.10972298747855 0.0 0.0
-1227.3625494510782 -190.46744090761666 -708.652985614501 37.22481275642368 0.0 0.0
-1265.587527164821 -249.9702719744077 -756.8753816204432 36.185684428229 0.0 0.0
-1243.3688895727796 -254.0982257120504 -747.6221140956653 38.560337996822675 0.0 0.0
-1199.1693586404283 -238.90685250834437 -717.9106198273097 40.643411663880585 0.0 0.0
-1142.3203898126417 -213.12863753216777 -676.6131242028171 41.9999982926722 0.0 0.0
-1078.5821152831122 -181.8257616958726 -629.1069185306263 43.12857102801474 0.0 0.0
-1011.6687946081524 -150.8163453183742 -580.137359377245 44.191223703641086 0.0 0.0
-945.5501469169762 -122.84793057075076 -532.9510510039408 44.987110861635124 0.0 0.0
-880.2087209719868 -99.82799295597644 -488.1832180937395 44.955187934437824 0.0 0.0
-814.2593934290992 -81.1705918482497 -443.51570994674813 44.1124083509508 0.0 0.0
-743.9625017176694 -63.86828872999581 -390.75105959705695 43.03063853636837 0.0 0.0
-664.4948614641878 -48.844959895943006 -319.8223366079405 41.969365988701966 0.0 0.0
-576.305168062073 -31.974056945661026 -229.49668417010892 42.50153069812882 0.0 0.0
-447.00228676858467 -11.677901321779995 -144.33153975896843 51.732075630047206 0.0 0.0
-301.34258553079997 0.16269129791291626 -90.24471402848883 66.47857132029442 0.0 0.0
-176.56219637321527 -1.5726822739083433 -53.44046359413708 66.85438361043856 0.0 0.0
-81.34867210223334 -25.786440186899423 -32.14053368673982 45.03022121042358 0.0 0.0
-33.58386495160367 -17.49754579579187 -15.324423224218659 23.029309078007138 0.0 0.0
-30.395965899460624 -9.986762711116457 -12.114818583173124 -13.055161808833027 0.0 0.0
-78.85474596193227 -16.64741268019201 -28.650647592637288 -22.55404061950811 0.0 0.0
-187.70860694778654 -1.2974440218793788 -56.70181529089977 -32.63731166909925 0.0 0.0
-334.7692060387101 -3.819882350369997 -101.47026735154816 -31.837722798394687 0.0 0.0
-495.97067834574676 -21.14346152609378 -168.8656621000021 -23.1149657753517 0.0 0.0
-610.4873640663735 -38.739908737702336 -260.06085244168685 -21.420424633442686 0.0 0.0
-692.8389737602391 -51.66857703077689 -344.02401982823454 -22.358345515979682 0.0 0.0
-771.5766088459936 -71.004544488398 -412.15876951540343 -22.958571058082455 0.0 0.0
-843.9062558074179 -91.03283614422834 -464.5350968156845 -23.416501367885992 0.0 0.0
-913.2428380005001 -113.52575634589489 -512.0592729924604 -23.902627776048664 0.0 0.0
-982.3476444735604 -140.01895987578592 -560.2837508989625 -24.050553756190364 0.0 0.0
-1052.397263691597 -170.69114575534724 -610.7593892818784 -23.85141227903002 0.0 0.0
-1122.3581842572198 -205.29131967189943 -663.0434608315879 -23.387337473708683 0.0 0.0
-1189.0708315163888 -238.27452947394664 -712.8729198925439 -22.85997506480872 0.0 0.0
-1245.1707952707895 -262.941955750954 -753.2582893349023 -22.15007930211297 0.0 0.0
-1284.1682255092712 -272.9871657452884 -777.8098269319106 -20.775089181088507 0.0 0.0
-1303.1428274576306 -266.1243403401276 -783.9113337453057 -18.361918550499755 0.0 0.0
-1303.4873193460212 -244.99346164855777 -773.6912713086458 -16.56937897149536 0.0 0.0
-1208.5620195685483 -136.2491172585761 -672.6504609610289 -23.3101484856913 0.0 0.0
-722.1275460411835 346.7796225327745 -188.2959593053761 -49.504234001122626 0.0 0.0
-3521.32544547792 -2490.74411259511 -2998.1907014840176 2.750688565811288e-11 0.0 0.0
-722.1275460415224 346.77962253241833 -188.29595930563423 49.50423400111896 0.0 0.0
-1208.5620195677052 -136.24911725776997 -672.6504609604797 23.310148485639647 0.0 0.0
-1303.4873193446324 -244.99346164726666 -773.6912713076534 16.5693789715121 0.0 0.0
-1303.1428274580958 -266.124340340731 -783.9113337456978 18.36191855062438 0.0 0.0
-1284.1682255070236 -272.9871657431231 -777.8098269303111 20.77508918113157 0.0 0.0
-1245.170795271209 -262.9419557515416 -753.2582893351397 22.15007930212473 0.0 0.0
-1189.0708315148859 -238.27452947261992 -712.8729198914492 22.859975064815842 0.0 0.0
-1122.3581842577014 -205.29131967259974 -663.0434608319498 23.38733747381675 0.0 0.0
-1052.3972636910978 -170.6911457550505 -610.7593892814926 23.851412278953433 0.0 0.0
-982.3476444732445 -140.01895987573226 -560.2837508987482 24.0505537561143 0.0 0.0
-913.2428379999112 -113.5257563455783 -512.0592729920605 23.90262777605392 0.0 0.0
-843.9062558066963 -91.03283614377347 -464.53509681520245 23.416501367906108 0.0 0.0
-771.5766088453579 -71.00454448805175 -412.1587695149328 22.958571058014233 0.0 0.0
-692.8389737597978 -51.668577030644386 -344.0240198277958 22.358345515944354 0.0 0.0
-610.4873640658985 -38.73990873755885 -260.06085244123034 21.420424633308794 0.0 0.0
-495.9706783452633 -21.143461526016814 -168.86566209971636 23.11496577545148 0.0 0.0
-334.76920603837056 -3.819882350470062 -101.47026735149817 31.837722798362748 0.0 0.0
-187.70860694748166 -1.297444021648885 -56.701815290739155 32.63731166909009 0.0 0.0
-78.85474596189748 -16.6474126803141 -28.650647592663482 22.554040619481547 0.0 0.0
-30.39596589945646 -9.986762711086977 -12.114818583163032 13.055161808819799 0.0 0.0
-19.29373040514406 -4.9661815438243115 -7.2779735846905105 -8.11024970060513 0.0 0.0
-68.14040286553225 -9.408468108403632 -23.264661292180755 -9.36579905402064 0.0 0.0
-195.54008260901713 -2.802423564672342 -59.50275185210684 -11.027325405342543 0.0 0.0
-375.7594424371429 -17.55649747048324 -118.56458829898658 -8.9411814615393 0.0 0.0
-559.933082688291 -58.78908098884163 -209.63484148117462 -1.300049717715762 0.0 0.0
-690.486988451526 -100.94202739499812 -325.8535150673446 0.9380034087384246 0.0 0.0
-799.1784184711219 -143.29636253744593 -435.8782646637484 0.8090421128887826 0.0 0.0
-913.8413034458017 -200.13874413932228 -538.8221330870738 -0.43188450349480334 0.0 0.0
-1033.5560205822183 -268.4690897923781 -638.4868373187546 -1.8833555251082856 0.0 0.0
-1166.9324472072772 -354.79700606330414 -749.746499729988 -3.411872914305233 0.0 0.0
-1319.2714120783876 -463.8977561373929 -880.6218083579473 -4.883320599015539 0.0 0.0
-1491.1345827609584 -596.734561926033 -1032.6919723967696 -6.1188300546522605 0.0 0.0
-1677.9044118791476 -746.996436011715 -1200.7596345710836 -6.9527601959316385 0.0 0.0
-1871.23082308028 -906.1868345250244 -1376.611786124684 -7.681728267810858 0.0 0.0
-2056.5520923239974 -1059.7144350619474 -1545.7212685290795 -8.128787261130942 0.0 0.0
-2213.407002254442 -1187.4931043891534 -1687.8796661888775 -8.045787453845904 0.0 0.0
-2316.2870947187153 -1264.9376107132202 -1778.1123599391674 -6.975347013992771 0.0 0.0
-2344.9214860407615 -1272.7901834581726 -1796.3375578241955 -4.968302755094907 0.0 0.0
-2360.8597490450766 -1273.752897491473 -1803.679962010262 -9.455830534393767 0.0 0.0
-2375.010388898635 -1286.0492772943628 -1813.917373771635 -38.497257695405324 0.0 0.0
-5675.115595137053 -4616.628615518208 -5120.532791206229 -2.8691715669992846e-11 0.0 0.0
-2375.0103889001025 -1286.0492772959067 -1813.9173737726499 38.49725769546296 0.0 0.0
-2360.85974904439 -1273.7528974908369 -1803.6799620097545 9.455830534474643 0.0 0.0
-2344.921486037746 -1272.7901834552113 -1796.3375578218224 4.968302755048288 0.0 0.0
-2316.2870947180654 -1264.9376107127025 -1778.1123599386092 6.975347014061192 0.0 0.0
-2213.4070022526193 -1187.4931043874224 -1687.8796661873462 8.045787453837924 0.0 0.0
-2056.5520923246795 -1059.7144350628191 -1545.7212685292748 8.128787261060431 0.0 0.0
-1871.2308230764143 -906.1868345212995 -1376.6117861217028 7.681728267747758 0.0 0.0
-1677.9044118798213 -746.9964360126061 -1200.7596345714896 6.9527601959898675 0.0 0.0
-1491.1345827610355 -596.7345619263729 -1032.6919723965634 6.118830054563205 0.0 0.0
-1319.271412076842 -463.8977561360957 -880.6218083568124 4.883320598988167 0.0 0.0
-1166.9324472060757 -354.79700606234553 -749.746499729056 3.4118729142950635 0.0 0.0
-1033.5560205817685 -268.4690897922135 -638.4868373183633 1.883355525015869 0.0 0.0
-913.8413034445673 -200.13874413837954 -538.822133086149 0.43188450336991124 0.0 0.0
-799.1784184705459 -143.2963625371639 -435.87826466318745 -0.8090421128671075 0.0 0.0
-690.486988451217 -100.942027395085 -325.8535150669397 -0.9380034087357529 0.0 0.0
-559.9330826877203 -58.789080988573865 -209.63484148073664 1.3000497178246135 0.0 0.0
-375.7594424369371 -17.556497470700744 -118.56458829897862 8.941181461515011 0.0 0.0
-195.54008260880133 -2.8024235645640303 -59.50275185200959 11.02732540535213 0.0 0.0
-68.14040286550009 -9.40846810852095 -23.264661292206313 9.365799053908818 0.0 0.0
-19.29373040506775 -4.966181543767207 -7.277973584650487 8.110249700596698 0.0 0.0
SCALARS Strain float 6
LOOKUP_TABLE default
0.013258843521987768 -0.022386287598303613 0.0 -0.0011041614646014584 0.0 0.0
0.008138213202030852 -0.002172376740237951 0.0 -0.006859294799798831 0.0 0.0
0.0024593483817222915 -0.0006110400601671783 0.0 -0.0007484174571663371 0.0 0.0
0.0021403384406931724 -0.0008565179724661638 0.0 -1.546726364517559e-05 0.0 0.0
0.0030128129012389135 -0.0012710165408046257 0.0 0.00013090126330118527 0.0 0.0
0.004899542829334145 -0.0026591135734191874 0.0 0.00025755565975498266 0.0 0.0
0.008136320065626309 -0.005372719608872766 0.0 0.00034434368453026385 0.0 0.0
0.012953094466521271 -0.009648865948753362 0.0 0.00037746489576015257 0.0 0.0
0.01954348731462213 -0.01566411741714777 0.0 0.0003616822888897673 0.0 0.0
0.02798874067369865 -0.023443990407819033 0.0 0.0002783176154284111 0.0 0.0
0.03827356393280798 -0.03293925324565512 0.0 0.0001647246244747074 0.0 0.0
0.05033948209095905 -0.044087774797790885 0.0 1.8958930683501095e-05 0.0 0.0
0.06410624758613297 -0.05684032527800792 0.0 -0.0002018817343808788 0.0 0.0
0.07948439145719892 -0.07114478075304957 0.0 -0.0004501955958312188 0.0 0.0
0.09630287868333537 -0.08688227121488644 0.0 -0.0007681377045581056 0.0 0.0
0.11415286784532816 -0.103700747285605 0.0 -0.001156317404598206 0.0 0.0
0.1322747425368258 -0.12089566838616342 0.0 -0.0015445691668544035 0.0 0.0
0.1495382324504758 -0.13739324280334758 0.0 -0.0017824143852574995 0.0 0.0
0.1645529369074229 -0.15182445402269493 0.0 -0.001693699999577667 0.0 0.0
0.1756687510659276 -0.16260938637051295 0.0 -0.001798820712176432 0.0 0.0
0.1800237889028737 -0.16701435068409248 0.0 4.133846043252731e-15 0.0 0.0
0.17566875106590576 -0.16260938637049763 0.0 0.0017988207121824818 0.0 0.0
0.16455293690737582 -0.15182445402264924 0.0 0.0016936999995834333 0.0 0.0
0.14953823245040893 -0.13739324280328014 0.0 0.0017824143852625315 0.0 0.0
0.13227474253674842 -0.12089566838608767 0.0 0.0015445691668524 0.0 0.0
0.11415286784524645 -0.10370074728553469 0.0 0.0011563174045959683 0.0 0.0
0.09630287868325212 -0.08688227121480613 0.0 0.0007681377045553424 0.0 0.0
0.07948439145711442 -0.0711447807529727 0.0 0.0004501955958288173 0.0 0.0
0.06410624758605095 -0.05684032527792521 0.0 0.00020188173438134838 0.0 0.0
0.050339482090885554 -0.04408777479771587 0.0 -1.8958930684120825e-05 0.0 0.0
0.03827356393274449 -0.032939253245599806 0.0 -0.00016472462447913875 0.0 0.0
0.027988740673645936 -0.023443990407777025 0.0 -0.00027831761542775816 0.0 0.0
0.01954348731458162 -0.015664117417108638 0.0 -0.0003616822888908759 0.0 0.0
0.012953094466492517 -0.009648865948731164 0.0 -0.0003774648957593298 0.0 0.0
0.008136320065607312 -0.0053727196088594635 0.0 -0.0003443436845309419 0.0 0.0
0.004899542829323397 -0.0026591135734114956 0.0 -0.00025755565975577694 0.0 0.0
0.0030128129012347753 -0.0012710165408017307 0.0 -0.00013090126329863024 0.0 0.0
0.0021403384406921315 -0.0008565179724652216 0.0 1.5467263643987426e-05 0.0 0.0
0.0024593483817203707 -0.0006110400601658801 0.0 0.0007484174571642318 0.0 0.0
0.008138213202025051 -0.002172376740234935 0.0 0.006859294799790508 0.0 0.0
0.013258843521979301 -0.022386287598278994 0.0 0.0011041614645578009 0.0 0.0
0.009162996793809058 -0.020024283695109047 0.0 -0.0006336288241010702 0.0 0.0
0.005382239961949706 -0.0016164753211465434 0.0 -0.005514354311639725 0.0 0.0
0.0016478341454027037 -0.0004798799492690466 0.0 -0.00048273865155179426 0.0 0.0
0.0018989103668057249 -0.0008075221653955778 0.0 -0.00020207221327232504 0.0 0.0
0.00261255013816554 -0.0011520434584275608 0.0 -0.00015697379159687155 0.0 0.0
0.004215118983757 -0.0023828717512956303 0.0 -0.0002099142407299889 0.0 0.0
0.007092999148876235 -0.004905796867358551 0.0 -0.00045310744808798556 0.0 0.0
0.01146076671313604 -0.00894967415274721 0.0 -0.0008229964710446733 0.0 0.0
0.01747121129330814 -0.014672983614710557 0.0 -0.0013342854871529336 0.0 0.0
0.025155552833910872 -0.0220767690814372 0.0 -0.0019627878727740975 0.0 0.0
0.03446199486999454 -0.031092498043353907 0.0 -0.0026428311800673664 0.0 0.0
0.045325003625762174 -0.04165029930443219 0.0 -0.0033321673709051807 0.0 0.0
0.057707997361079955 -0.05371663341141481 0.0 -0.004061303845659634 0.0 0.0
0.07156402661096939 -0.06726660276568208 0.0 -0.004844139872544104 0.0 0.0
0.08675204753363645 -0.08219300903817958 0.0 -0.005664206671261208 0.0 0.0
0.10291938875844164 -0.09817180512290946 0.0 -0.0064600486547112266 0.0 0.0
0.11939402082397903 -0.11454896329920666 0.0 -0.007034624652791849 0.0 0.0
0.13516858662840095 -0.13031429819553864 0.0 -0.0070705354225749206 0.0 0.0
0.14891096174078622 -0.14414354925290548 0.0 -0.006327210343370732 0.0 0.0
0.15877536758996452 -0.15434271136447641 0.0 -0.005195768618975329 0.0 0.0
0.16246369324192472 -0.15855553448782292 0.0 6.657868700798986e-15 0.0 0.0
0.15877536758994376 -0.15434271136446004 0.0 0.0051957686189918134 0.0 0.0
0.14891096174074428 -0.1441435492528605 0.0 0.006327210343389359 0.0 0.0
0.13516858662834252 -0.13031429819547835 0.0 0.007070535422585012 0.0 0.0
0.11939402082391076 -0.11454896329913788 0.0 0.007034624652792739 0.0 0.0
0.10291938875836837 -0.0981718051228369 0.0 0.006460048654707842 0.0 0.0
0.08675204753356133 -0.08219300903810502 0.0 0.005664206671258453 0.0 0.0
0.0715640266108939 -0.06726660276561103 0.0 0.004844139872540624 0.0 0.0
0.05770799736100651 -0.05371663341133803 0.0 0.004061303845657413 0.0 0.0
0.045325003625695456 -0.041650299304359054 0.0 0.003332167370901005 0.0 0.0
0.03446199486993708 -0.031092498043302566 0.0 0.0026428311800572243 0.0 0.0
0.025155552833863296 -0.022076769081391105 0.0 0.001962787872769758 0.0 0.0
0.017471211293271168 -0.014672983614676192 0.0 0.0013342854871499499 0.0 0.0
0.011460766713109713 -0.008949674152723493 0.0 0.0008229964710413877 0.0 0.0
0.007092999148859346 -0.004905796867345382 0.0 0.00045310744808545737 0.0 0.0
0.00421511898374828 -0.002382871751288127 0.0 0.00020991424072911333 0.0 0.0
0.0026125501381623396 -0.001152043458424822 0.0 0.00015697379159805268 0.0 0.0
0.001898910366804932 -0.0008075221653955441 0.0 0.00020207221327212676 0.0 0.0
0.0016478341454025157 -0.00047987994926958503 0.0 0.0004827386515500329 0.0 0.0
0.0053822399619431254 -0.0016164753211429421 0.0 0.005514354311628722 0.0 0.0
0.009162996793795898 -0.02002428369508369 0.0 0.0006336288240672259 0.0 0.0
0.006670139875584345 -0.015906376496328072 0.0 -0.0034696980285015416 0.0 0.0
0.003797302105283294 -0.0008896118307184041 0.0 -0.005470873484149178 0.0 0.0
0.0011545343002231933 -0.0002721316360128453 0.0 -0.0004505923920033242 0.0 0.0
0.0016165455268127708 -0.0006904493752260269 0.0 -0.00048021010387575003 0.0 0.0
0.0022496250932349774 -0.0009486190463286947 0.0 -0.00047760113870592405 0.0 0.0
0.0035653997679492002 -0.0018654241118752192 0.0 -0.000563297569973098 0.0 0.0
0.006059858326177616 -0.003987074403039544 0.0 -0.0010234826101173623 0.0 0.0
0.009956477676511446 -0.007557645913021745 0.0 -0.0017484403344786286 0.0 0.0
0.01535701605477719 -0.01267986738592468 0.0 -0.0027392088135251864 0.0 0.0
0.022258488609839047 -0.019321225350900546 0.0 -0.003932238570531138 0.0 0.0
0.030579981110204546 -0.027373542512426362 0.0 -0.005216691876405465 0.0 0.0
0.040247971757796375 -0.03675532241315198 0.0 -0.006496022263287678 0.0 0.0
0.05124094495176257 -0.04745127476654855 0.0 -0.007774981992418347 0.0 0.0
0.06355634256892424 -0.05948069400783128 0.0 -0.009135518804914373 0.0 0.0
0.07709787749166246 -0.07277534494165232 0.0 -0.01057367766362619 0.0 0.0
0.09157292957253364 -0.08706897277717805 0.0 -0.011941103131826017 0.0 0.0
0.10642080755387003 -0.10181379247560834 0.0 -0.012905975967568817 0.0 0.0
0.12074819109340677 -0.116129197568098 0.0 -0.012981084060295639 0.0 0.0
0.13324993957630663 -0.12875806768968337 0.0 -0.01178821970683342 0.0 0.0
0.1422523572134765 -0.13797563048782013 0.0 -0.00925454088484292 0.0 0.0
0.145652702993039 -0.14201130317059948 0.0 1.2980935770734447e-14 0.0 0.0
0.14225235721345722 -0.13797563048780245 0.0 0.009254540884872701 0.0 0.0
0.13324993957626913 -0.12875806768964143 0.0 0.011788219706865173 0.0 0.0
0.12074819109335569 -0.11612919756804815 0.0 0.012981084060316811 0.0 0.0
0.10642080755381023 -0.101813792475547 0.0 0.01290597596757112 0.0 0.0
0.09157292957246814 -0.08706897277711097 0.0 0.011941103131818176 0.0 0.0
0.07709787749159534 -0.07277534494158927 0.0 0.010573677663621078 0.0 0.0
0.06355634256885768 -0.05948069400777002 0.0 0.009135518804910104 0.0 0.0
0.05124094495169784 -0.04745127476648376 0.0 0.00777498199241302 0.0 0.0
0.0402479717577364 -0.03675532241308863 0.0 0.006496022263279161 0.0 0.0
0.03057998111015303 -0.02737354251237975 0.0 0.0052166918763934065 0.0 0.0
0.022258488609796893 -0.019321225350855106 0.0 0.003932238570521325 0.0 0.0
0.015357016054743964 -0.012679867385895851 0.0 0.002739208813518934 0.0 0.0
0.009956477676487819 -0.007557645912999093 0.0 0.0017484403344727403 0.0 0.0
0.00605985832616318 -0.003987074403026827 0.0 0.0010234826101148617 0.0 0.0
0.003565399767942261 -0.0018654241118699981 0.0 0.0005632975699712483 0.0 0.0
0.0022496250932326056 -0.000948619046327617 0.0 0.0004776011387056261 0.0 0.0
0.0016165455268123828 -0.0006904493752253295 0.0 0.0004802101038748574 0.0 0.0
0.00115453430022321 -0.0002721316360143925 0.0 0.0004505923920023787 0.0 0.0
0.0037973021052768235 -0.000889611830714803 0.0 0.005470873484134886 0.0 0.0
0.006670139875571412 -0.01590637649630318 0.0 0.003469698028479494 0.0 0.0
0.005007183902487152 -0.012774645328597345 0.0 -0.0038944135159619565 0.0 0.0
0.0027865503635640713 -0.0006441486724185701 0.0 -0.004988567338533344 0.0 0.0
0.0008250500872308169 -0.00015398732261245668 0.0 -0.0007387135862852683 0.0 0.0
0.001338491273591458 -0.0005532799341261145 0.0 -0.0007549522409601385 0.0 0.0
0.0019155963833803911 -0.0007934949528327846 0.0 -0.0007969280986466464 0.0 0.0
0.002968406120414579 -0.0014366106773626927 0.0 -0.0008847427837581378 0.0 0.0
0.00505593389889955 -0.0031182142850368316 0.0 -0.0014059509479764068 0.0 0.0
0.008452863287376065 -0.006184409613408896 0.0 -0.002422422733415391 0.0 0.0
0.013221266991830802 -0.010678526076759915 0.0 -0.0037779596542863335 0.0 0.0
0.019321948010613 -0.016536047506901526 0.0 -0.005403166230499011 0.0 0.0
0.0266505393010779 -0.023618214699184667 0.0 -0.0071424546476168155 0.0 0.0
0.03512579908347043 -0.03182910327625219 0.0 -0.008870263986582352 0.0 0.0
0.044734676423365545 -0.04115953606475527 0.0 -0.010586206669685223 0.0 0.0
0.05549574317425105 -0.051656359662043363 0.0 -0.012374929510953389 0.0 0.0
0.06736799326934405 -0.06329834465069739 0.0 -0.01425334880934551 0.0 0.0
0.08014079454397 -0.07589106107572437 0.0 -0.01605679303145105 0.0 0.0
0.09335652089212412 -0.088998308235853 0.0 -0.017371702238752663 0.0 0.0
0.10623888676363531 -0.1018694277158548 0.0 -0.017606400960879346 0.0 0.0
0.11761383623818264 -0.11334707298380017 0.0 -0.01614267954712177 0.0 0.0
0.12601045474179529 -0.12189701052023416 0.0 -0.012215118702629433 0.0 0.0
0.12926986385199857 -0.12605044194565307 0.0 1.8025945319743997e-14 0.0 0.0
0.1260104547417775 -0.1218970105202131 0.0 0.012215118702672494 0.0 0.0
0.11761383623815005 -0.1133470729837649 0.0 0.016142679547161608 0.0 0.0
0.10623888676359079 -0.1018694277158112 0.0 0.017606400960905096 0.0 0.0
0.09335652089207175 -0.08899830823580103 0.0 0.017371702238755726 0.0 0.0
0.08014079454391293 -0.07589106107566758 0.0 0.016056793031444857 0.0 0.0
0.06736799326928526 -0.06329834465064549 0.0 0.014253348809340212 0.0 0.0
0.05549574317419277 -0.05165635966198553 0.0 0.012374929510948032 0.0 0.0
0.04473467642330891 -0.041159536064703676 0.0 0.010586206669676213 0.0 0.0
0.03512579908341795 -0.03182910327620222 0.0 0.008870263986569206 0.0 0.0
0.026650539301032772 -0.02361821469914402 0.0 0.007142454647604034 0.0 0.0
0.0193219480105757 -0.01653604750686453 0.0 0.005403166230485107 0.0 0.0
0.013221266991801497 -0.010678526076732739 0.0 0.0037779596542756805 0.0 0.0
0.008452863287355734 -0.0061844096133914965 0.0 0.0024224227334075127 0.0 0.0
0.0050559338988877415 -0.003118214285025696 0.0 0.0014059509479725971 0.0 0.0
0.0029684061204090944 -0.0014366106773603454 0.0 0.0008847427837556138 0.0 0.0
0.0019155963833784322 -0.0007934949528334237 0.0 0.0007969280986455192 0.0 0.0
0.0013384912735910463 -0.0005532799341241375 0.0 0.000754952240959273 0.0 0.0
0.0008250500872309701 -0.0001539873226132464 0.0 0.0007387135862839303 0.0 0.0
0.00278655036355836 -0.0006441486724154254 0.0 0.004988567338520745 0.0 0.0
0.005007183902475549 -0.01277464532857506 0.0 0.003894413515946378 0.0 0.0
0.0037746326205276752 -0.010262974015328191 0.0 -0.0034797231030069854 0.0 0.0
0.002072241377550611 -0.0005273131511124899 0.0 -0.0044603900458978244 0.0 0.0
0.0005994742354400122 -9.483987849031904e-05 0.0 -0.0011235495180449903 0.0 0.0
0.0010826413443621936 -0.0004207138193357594 0.0 -0.0010498141350218353 0.0 0.0
0.0016035731530455984 -0.000660800579762333 0.0 -0.0011131615558459468 0.0 0.0
0.0024353623498856183 -0.0011047829811199827 0.0 -0.0011915819662015469 0.0 0.0
0.004105643258529333 -0.0023448125294537017 0.0 -0.0016758597698970413 0.0 0.0
0.006966613071986014 -0.004847714986717951 0.0 -0.0028053908567887043 0.0 0.0
0.01108536190506956 -0.008693099204492422 0.0 -0.004442647819475105 0.0 0.0
0.0163686565723985 -0.013748057048223093 0.0 -0.006368077379579774 0.0 0.0
0.02269847229358913 -0.019852557220150613 0.0 -0.00842153762006618 0.0 0.0
0.029980846243792228 -0.026894157686736524 0.0 -0.010455352113100747 0.0 0.0
0.038205365181771075 -0.03486319640341492 0.0 -0.012471417311885856 0.0 0.0
0.047416165550551365 -0.04382649491128843 0.0 -0.014558876449449611 0.0 0.0
0.05760853620033489 -0.053804567944389224 0.0 -0.01672556175739169 0.0 0.0
0.06864800406411857 -0.06467395772044303 0.0 -0.018796327399160363 0.0 0.0
0.0802012065105307 -0.07611066814188551 0.0 -0.02038360057082516 0.0 0.0
0.09163768983994033 -0.08751318284369553 0.0 -0.020862168287965444 0.0 0.0
0.10197038112553063 -0.09791516361426296 0.0 -0.01929600906626007 0.0 0.0
0.10992442860448212 -0.1059978157568966 0.0 -0.014470545528059304 0.0 0.0
0.1131346376899211 -0.11042264009767493 0.0 2.119485142948463e-14 0.0 0.0
0.10992442860446562 -0.10599781575687707 0.0 0.014470545528109148 0.0 0.0
0.10197038112550103 -0.09791516361423595 0.0 0.019296009066304222 0.0 0.0
0.09163768983990155 -0.08751318284365547 0.0 0.020862168287992748 0.0 0.0
0.08020120651048576 -0.07611066814184676 0.0 0.020383600570828383 0.0 0.0
0.06864800406406935 -0.06467395772039385 0.0 0.01879632739915343 0.0 0.0
0.057608536200283875 -0.05380456794434068 0.0 0.016725561757384735 0.0 0.0
0.04741616555050144 -0.04382649491123835 0.0 0.014558876449444019 0.0 0.0
0.03820536518172285 -0.034863196403369094 0.0 0.012471417311874705 0.0 0.0
0.029980846243747278 -0.02689415768669447 0.0 0.01045535211308675 0.0 0.0
0.022698472293550122 -0.019852557220112976 0.0 0.008421537620048882 0.0 0.0
0.01636865657236621 -0.013748057048192854 0.0 0.006368077379563322 0.0 0.0
0.011085361905044503 -0.008693099204469654 0.0 0.0044426478194633376 0.0 0.0
0.006966613071968924 -0.0048477149867026705 0.0 0.002805390856781105 0.0 0.0
0.0041056432585197975 -0.0023448125294466887 0.0 0.0016758597698909613 0.0 0.0
0.0024353623498815716 -0.0011047829811186075 0.0 0.0011915819661995287 0.0 0.0
0.00160357315304446 -0.000660800579762551 0.0 0.0011131615558456398 0.0 0.0
0.0010826413443619076 -0.0004207138193357391 0.0 0.00104981413502092 0.0 0.0
0.000599474235440055 -9.483987849028531e-05 0.0 0.0011235495180424103 0.0 0.0
0.00207224137754596 -0.0005273131511099249 0.0 0.004460390045887722 0.0 0.0
0.0037746326205181082 -0.010262974015308863 0.0 0.003479723102995511 0.0 0.0
0.002816667180840172 -0.008175454322624919 0.0 -0.0028981487771054114 0.0 0.0
0.0015357605381733548 -0.0004538472600977634 0.0 -0.00395058077508974 0.0 0.0
0.0004360045139723724 -7.187144558378291e-05 0.0 -0.0014887297111876932 0.0 0.0
0.00084830882519825 -0.0003008470553974018 0.0 -0.0013486390073165298 0.0 0.0
0.0013092982686984378 -0.00053883782205636 0.0 -0.0014180418534649791 0.0 0.0
0.0019590183334627655 -0.0008491379652312423 0.0 -0.0014848942917973097 0.0 0.0
0.003238926646122703 -0.001702181572366694 0.0 -0.0019067334932647696 0.0 0.0
0.005532434334914034 -0.0036018543973250806 0.0 -0.002961497637626584 0.0 0.0
0.008962811670587757 -0.006747233266553476 0.0 -0.004702289484638507 0.0 0.0
0.013421830120128469 -0.010984575772606944 0.0 -0.006816263626729469 0.0 0.0
0.01874581301841649 -0.016102985528401538 0.0 -0.009043034294184259 0.0 0.0
0.02483708468575459 -0.021976746255968755 0.0 -0.011247481650308156 0.0 0.0
0.03168269148824393 -0.028589267155421885 0.0 -0.01342084673829354 0.0 0.0
0.03933906285820129 -0.036021207848430915 0.0 -0.015655290490484804 0.0 0.0
0.047848544536802234 -0.04433094909647178 0.0 -0.017969159737501954 0.0 0.0
0.05713974427877877 -0.05345923602860744 0.0 -0.02017754935314745 0.0 0.0
0.06697810604286039 -0.06317765947910432 0.0 -0.021920827068917088 0.0 0.0
0.07692972172009248 -0.0730609781117774 0.0 -0.022628588591632928 0.0 0.0
0.08625514339506155 -0.08241177079860805 0.0 -0.021227077675935728 0.0 0.0
0.09387076530820991 -0.09014542950402067 0.0 -0.016109275260113513 0.0 0.0
0.09709611566345176 -0.09496777471940851 0.0 2.0033454062318157e-14 0.0 0.0
0.09387076530819492 -0.09014542950400654 0.0 0.016109275260161735 0.0 0.0
0.08625514339503614 -0.08241177079858131 0.0 0.021227077675982555 0.0 0.0
0.07692972172005982 -0.07306097811174052 0.0 0.02262858859166272 0.0 0.0
0.06697810604282202 -0.06317765947906866 0.0 0.02192082706892201 0.0 0.0
0.05713974427873733 -0.05345923602856341 0.0 0.02017754935313951 0.0 0.0
0.04784854453675989 -0.04433094909642744 0.0 0.017969159737492357 0.0 0.0
0.039339062858159815 -0.03602120784839233 0.0 0.015655290490477713 0.0 0.0
0.03168269148820423 -0.0285892671553827 0.0 0.013420846738281516 0.0 0.0
0.02483708468571768 -0.02197674625593204 0.0 0.011247481650293425 0.0 0.0
0.018745813018383902 -0.016102985528367666 0.0 0.009043034294165368 0.0 0.0
0.013421830120101555 -0.010984575772580182 0.0 0.006816263626713294 0.0 0.0
0.008962811670567313 -0.0067472332665359895 0.0 0.004702289484627442 0.0 0.0
0.005532434334900307 -0.003601854397312583 0.0 0.002961497637618908 0.0 0.0
0.003238926646115594 -0.001702181572362378 0.0 0.0019067334932591695 0.0 0.0
0.0019590183334601404 -0.0008491379652293955 0.0 0.0014848942917951211 0.0 0.0
0.001309298268697461 -0.0005388378220561282 0.0 0.001418041853464114 0.0 0.0
0.0008483088251979065 -0.00030084705539788526 0.0 0.0013486390073150908 0.0 0.0
0.0004360045139724021 -7.187144558318584e-05 0.0 0.0014887297111854552 0.0 0.0
0.0015357605381692686 -0.0004538472600964881 0.0 0.003950580775081122 0.0 0.0
0.0028166671808319585 -0.008175454322608681 0.0 0.002898148777098067 0.0 0.0
0.002062884726713719 -0.0064191210541280925 0.0 -0.002361095401725571 0.0 0.0
0.0011209055836690182 -0.0004006461591924245 0.0 -0.003490007915222684 0.0 0.0
0.00030737676558876805 -6.375505317505234e-05 0.0 -0.001790654822989483 0.0 0.0
0.0006303795352803215 -0.0001949160964159666 0.0 -0.0016279321999682125 0.0 0.0
0.0010257832304616872 -0.00041563442969440436 0.0 -0.0016937745702977568 0.0 0.0
0.0015265866619427744 -0.000649838438121 0.0 -0.0017777549040675607 0.0 0.0
0.002458214512172291 -0.0011889708741958868 0.0 -0.0020916905848625223 0.0 0.0
0.00419319977468877 -0.002510706215419371 0.0 -0.003001568971621575 0.0 0.0
0.00689590034114568 -0.004896052322507393 0.0 -0.004598735399400826 0.0 0.0
0.010500121991967423 -0.008276770944542485 0.0 -0.00671487813556437 0.0 0.0
0.014816632233075423 -0.012399096684819528 0.0 -0.008986903135563353 0.0 0.0
0.019716845410905105 -0.017104444842584155 0.0 -0.01123005695812173 0.0 0.0
0.025189670355184695 -0.022368707759226638 0.0 -0.013422477710591938 0.0 0.0
0.03130039116632892 -0.02827650066737475 0.0 -0.01565558452646975 0.0 0.0
0.03811939161449913 -0.03491391410399445 0.0 -0.017952098683201377 0.0 0.0
0.04563923522483269 -0.042285068410447615 0.0 -0.020170108781333705 0.0 0.0
0.05372489734460648 -0.05024276897210756 0.0 -0.021957787073274056 0.0 0.0
0.06212120824868306 -0.05852940506109593 0.0 -0.022844233134165972 0.0 0.0
0.07039176675626217 -0.06677179084925398 0.0 -0.021849971467775713 0.0 0.0
0.07771230997061587 -0.07419735721034527 0.0 -0.017106505076404016 0.0 0.0
0.08100021610511784 -0.07953683615080316 0.0 2.0196518069059977e-14 0.0 0.0
0.07771230997060306 -0.07419735721033219 0.0 0.01710650507645298 0.0 0.0
0.0703917667562411 -0.06677179084923038 0.0 0.02184997146782576 0.0 0.0
0.06212120824865641 -0.058529405061068365 0.0 0.02284423313419455 0.0 0.0
0.053724897344575036 -0.05024276897208042 0.0 0.021957787073279274 0.0 0.0
0.04563923522479868 -0.042285068410413934 0.0 0.020170108781323547 0.0 0.0
0.038119391614464954 -0.03491391410396283 0.0 0.017952098683190865 0.0 0.0
0.031300391166296196 -0.028276500667344023 0.0 0.015655584526461996 0.0 0.0
0.02518967035515325 -0.022368707759196072 0.0 0.013422477710581478 0.0 0.0
0.01971684541087518 -0.01710444484256056 0.0 0.011230056958106924 0.0 0.0
0.014816632233049111 -0.012399096684793583 0.0 0.00898690313554324 0.0 0.0
0.010500121991946007 -0.00827677094451933 0.0 0.006714878135548934 0.0 0.0
0.006895900341129734 -0.004896052322494074 0.0 0.004598735399389918 0.0 0.0
0.004193199774678177 -0.0025107062154100337 0.0 0.003001568971614864 0.0 0.0
0.002458214512167145 -0.0011889708741911642 0.0 0.002091690584859173 0.0 0.0
0.00152658666194129 -0.0006498384381198412 0.0 0.0017777549040658624 0.0 0.0
0.0010257832304612132 -0.0004156344296947239 0.0 0.0016937745702961349 0.0 0.0
0.0006303795352801848 -0.00019491609641573914 0.0 0.0016279321999663685 0.0 0.0
0.0003073767655885495 -6.375505317471186e-05 0.0 0.0017906548229868493 0.0 0.0
0.0011209055836659623 -0.0004006461591916617 0.0 0.0034900079152157676 0.0 0.0
0.002062884726707948 -0.006419121054115167 0.0 0.002361095401720676 0.0 0.0
0.0014694815798916372 -0.004950250085676436 0.0 -0.001948344893068513 0.0 0.0
0.0007941758312484106 -0.00036413761408926235 0.0 -0.0030744592957084034 0.0 0.0
0.0001954932201533653 -5.445123753796185e-05 0.0 -0.002021390213900009 0.0 0.0
0.0004235801440865545 -0.00010122643400855251 0.0 -0.0018697716509724093 0.0 0.0
0.0007445100216513467 -0.000286222878099212 0.0 -0.001926993108107347 0.0 0.0
0.001128602691523489 -0.00048072194229440877 0.0 -0.002057114184532097 0.0 0.0
0.0017620248455963512 -0.0007966927805268254 0.0 -0.0022680642614334753 0.0 0.0
0.0029663165001614002 -0.0016053445679277986 0.0 -0.002942517569106363 0.0 0.0
0.004936119474535413 -0.0032217673550148426 0.0 -0.004244112912208088 0.0 0.0
0.007644983315006345 -0.005687580628610899 0.0 -0.006096025363781462 0.0 0.0
0.010929768798819737 -0.008780610843963824 0.0 -0.008226350509724051 0.0 0.0
0.014642714761555507 -0.012313485240556473 0.0 -0.010363133888982365 0.0 0.0
0.018753668264749487 -0.016238044231721115 0.0 -0.012445991716114806 0.0 0.0
0.02332561132210724 -0.020633459482572628 0.0 -0.014533841520369867 0.0 0.0
0.02845389175557128 -0.025599475092022855 0.0 -0.016667757184375565 0.0 0.0
0.034187013738365316 -0.031194131621790577 0.0 -0.018742827307316683 0.0 0.0
0.0404718328861439 -0.03735835233415493 0.0 -0.020464228744980387 0.0 0.0
0.04721828203360001 -0.04395812212734107 0.0 -0.021420451913283237 0.0 0.0
0.05431559516398559 -0.050942120145849465 0.0 -0.020991313446842425 0.0 0.0
0.06130178826298707 -0.05799664122809882 0.0 -0.01734824006978212 0.0 0.0
0.0646708467589755 -0.06397047555573127 0.0 1.7459991785706563e-14 0.0 0.0
0.06130178826297733 -0.057996641228085816 0.0 0.01734824006982774 0.0 0.0
0.054315595163968874 -0.050942120145830806 0.0 0.020991313446890317 0.0 0.0
0.04721828203357923 -0.04395812212732272 0.0 0.02142045191330853 0.0 0.0
0.040471832886119455 -0.03735835233413502 0.0 0.020464228744982396 0.0 0.0
0.034187013738338545 -0.031194131621764903 0.0 0.018742827307306226 0.0 0.0
0.028453891755545645 -0.025599475091998596 0.0 0.01666775718436585 0.0 0.0
0.02332561132208385 -0.020633459482548345 0.0 0.01453384152036256 0.0 0.0
0.018753668264726756 -0.01623804423169753 0.0 0.012445991716104712 0.0 0.0
0.014642714761533265 -0.012313485240538739 0.0 0.010363133888969322 0.0 0.0
0.010929768798800137 -0.008780610843944521 0.0 0.008226350509706456 0.0 0.0
0.00764498331499084 -0.0056875806285947034 0.0 0.0060960253637668115 0.0 0.0
0.0049361194745240556 -0.0032217673550058636 0.0 0.0042441129121995064 0.0 0.0
0.0029663165001541396 -0.0016053445679207522 0.0 0.0029425175691016187 0.0 0.0
0.0017620248455930548 -0.0007966927805231913 0.0 0.0022680642614311603 0.0 0.0
0.001128602691522703 -0.0004807219422945986 0.0 0.0020571141845310554 0.0 0.0
0.0007445100216510631 -0.0002862228780988491 0.0 0.0019269931081057237 0.0 0.0
0.0004235801440863582 -0.00010122643400753424 0.0 0.0018697716509690683 0.0 0.0
0.0001954932201531672 -5.4451237537643036e-05 0.0 0.0020213902138975577 0.0 0.0
0.0007941758312461026 -0.00036413761408879083 0.0 0.0030744592957022655 0.0 0.0
0.0014694815798873668 -0.00495025008566655 0.0 0.0019483448930651794 0.0 0.0
0.0010244936041867143 -0.003766085820715607 0.0 -0.0016944908279679068 0.0 0.0
0.0005384049260436195 -0.00034547147956893597 0.0 -0.0027121418153783707 0.0 0.0
8.516860107023867e-05 -3.322791417185261e-05 0.0 -0.0021856683010831293 0.0 0.0
0.00022533581349597917 -1.6862373804635173e-05 0.0 -0.002062602031625203 0.0 0.0
0.00046156256235698064 -0.00015425808339046012 0.0 -0.0021112814880300266 0.0 0.0
0.0007425876853429157 -0.00031184408615869414 0.0 -0.0022822687152299404 0.0 0.0
0.0011419448188670542 -0.0005022382454540613 0.0 -0.0024836097689772707 0.0 0.0
0.0018687381220306026 -0.0009106786402752615 0.0 -0.0028651990042956686 0.0 0.0
0.003119001007953939 -0.0018082338107591077 0.0 -0.0037271870035131237 0.0 0.0
0.004912564787601076 -0.0033263689496330234 0.0 -0.005079110367574949 0.0 0.0
0.007129979966661904 -0.005335543784395607 0.0 -0.006796651161831018 0.0 0.0
0.009638911257869193 -0.007671792516054177 0.0 -0.008623011425579842 0.0 0.0
0.012394225535193737 -0.0102552436454025 0.0 -0.01046332112186326 0.0 0.0
0.01544353565973617 -0.013152366777478514 0.0 -0.012294643262990504 0.0 0.0
0.018882543330301177 -0.01645134072871409 0.0 -0.014129734259641352 0.0 0.0
0.02280900088497293 -0.02024926783768023 0.0 -0.015945627750159914 0.0 0.0
0.027266952274876376 -0.024586771517070442 0.0 -0.017537288519855684 0.0 0.0
0.03226349410237752 -0.029437982657056 0.0 -0.018493325182666463 0.0 0.0
0.037966128479014136 -0.034935484489285726 0.0 -0.018448789262020857 0.0 0.0
0.04446200327014641 -0.04136927227619169 0.0 -0.016512456662777446 0.0 0.0
0.04788964626245394 -0.04806447017105419 0.0 1.468009741545373e-14 0.0 0.0
0.04446200327014025 -0.04136927227618576 0.0 0.016512456662815804 0.0 0.0
0.037966128479002006 -0.03493548448927356 0.0 0.018448789262062667 0.0 0.0
0.03226349410236258 -0.029437982657045343 0.0 0.018493325182688647 0.0 0.0
0.027266952274859434 -0.02458677151705308 0.0 0.017537288519853016 0.0 0.0
0.02280900088495499 -0.020249267837660234 0.0 0.015945627750148635 0.0 0.0
0.018882543330284732 -0.016451340728699033 0.0 0.014129734259634468 0.0 0.0
0.015443535659721619 -0.013152366777463863 0.0 0.012294643262987277 0.0 0.0
0.012394225535179557 -0.010255243645388332 0.0 0.01046332112185754 0.0 0.0
0.009638911257854654 -0.007671792516037296 0.0 0.008623011425567515 0.0 0.0
0.007129979966649109 -0.005335543784386325 0.0 0.00679665116181662 0.0 0.0
0.004912564787591394 -0.0033263689496248567 0.0 0.005079110367563838 0.0 0.0
0.003119001007946823 -0.0018082338107537302 0.0 0.003727187003506778 0.0 0.0
0.001868738122026176 -0.0009106786402715273 0.0 0.002865199004292731 0.0 0.0
0.0011419448188653926 -0.0005022382454523444 0.0 0.0024836097689746317 0.0 0.0
0.0007425876853426006 -0.00031184408616007 0.0 0.0022822687152275756 0.0 0.0
0.0004615625623566587 -0.00015425808338985893 0.0 0.00211128148802747 0.0 0.0
0.000225335813495786 -1.6862373803319046e-05 0.0 0.002062602031622217 0.0 0.0
8.516860106992828e-05 -3.3227914171198626e-05 0.0 0.0021856683010809106 0.0 0.0
0.0005384049260422872 -0.0003454714795690858 0.0 0.0027121418153732784 0.0 0.0
0.0010244936041845655 -0.003766085820708323 0.0 0.0016944908279670505 0.0 0.0
0.0007124800038662976 -0.002848080330156744 0.0 -0.0015508065193190835 0.0 0.0
0.0003440187215540915 -0.0003469016154038069 0.0 -0.002440290601412037 0.0 0.0
-2.7678900997301193e-05 2.9161669918599184e-06 0.0 -0.0022880834860777833 0.0 0.0
3.337852108819182e-05 6.097280064090375e-05 0.0 -0.0022005693373621615 0.0 0.0
0.000179679421094695 -2.3810484561028805e-05 0.0 -0.00224285835917904 0.0 0.0
0.0003511544278231719 -0.00013332969142221965 0.0 -0.002426242097142182 0.0 0.0
0.0005650067816958285 -0.00024541306876658356 0.0 -0.002674892412815185 0.0 0.0
0.0009009164000999413 -0.00040915987486674586 0.0 -0.002917002890105321 0.0 0.0
0.0014801372858026956 -0.0007559077645326336 0.0 -0.003299152008995338 0.0 0.0
0.002356791688798864 -0.0013960399367333152 0.0 -0.00399639520348624 0.0 0.0
0.003475205889036594 -0.0023051223901898272 0.0 -0.005061785185898034 0.0 0.0
0.004746450342984561 -0.003396302690368183 0.0 -0.00638497789932871 0.0 0.0
0.0061321188160232765 -0.004617473205832591 0.0 -0.00783391476084341 0.0 0.0
0.007668005363296855 -0.006012057436684535 0.0 -0.00935597753256589 0.0 0.0
0.009424964315128691 -0.007640955843212399 0.0 -0.010946223130762739 0.0 0.0
0.011521524128311722 -0.009611593828842213 0.0 -0.01259925050789591 0.0 0.0
0.014111222120105956 -0.012069972801784113 0.0 -0.014179518557398196 0.0 0.0
0.01733167129739221 -0.015152572085634839 0.0 -0.015258997589833102 0.0 0.0
0.02140211877332824 -0.01902005002339758 0.0 -0.015280016948111232 0.0 0.0
0.027005108222525904 -0.02427185601370934 0.0 -0.014396323502602264 0.0 0.0
0.030320009221447196 -0.031566959992728676 0.0 1.2540316007836338e-14 0.0 0.0
0.027005108222523277 -0.024271856013711488 0.0 0.014396323502634114 0.0 0.0
0.021402118773321457 -0.01902005002339544 0.0 0.015280016948144595 0.0 0.0
0.01733167129738302 -0.0151525720856283 0.0 0.015258997589848212 0.0 0.0
0.014111222120097078 -0.012069972801776642 0.0 0.014179518557393994 0.0 0.0
0.011521524128303772 -0.009611593828835552 0.0 0.012599250507884754 0.0 0.0
0.0094249643151219 -0.007640955843206969 0.0 0.010946223130756534 0.0 0.0
0.00766800536329125 -0.006012057436678075 0.0 0.00935597753256168 0.0 0.0
0.006132118816017007 -0.004617473205825767 0.0 0.007833914760836707 0.0 0.0
0.004746450342977849 -0.003396302690364918 0.0 0.006384977899317354 0.0 0.0
0.0034752058890312474 -0.002305122390183534 0.0 0.005061785185886795 0.0 0.0
0.0023567916887951555 -0.0013960399367305804 0.0 0.003996395203481323 0.0 0.0
0.0014801372858000332 -0.0007559077645321927 0.0 0.0032991520089917436 0.0 0.0
0.000900916400098222 -0.00040915987486634243 0.0 0.0029170028901044837 0.0 0.0
0.0005650067816951979 -0.00024541306876756395 0.0 0.002674892412813629 0.0 0.0
0.00035115442782297486 -0.0001333296914229562 0.0 0.002426242097138114 0.0 0.0
0.00017967942109467093 -2.3810484561478335e-05 0.0 0.0022428583591757004 0.0 0.0
3.337852108822465e-05 6.0972800641452115e-05 0.0 0.002200569337360954 0.0 0.0
-2.767890099756253e-05 2.9161669926182034e-06 0.0 0.0022880834860760225 0.0 0.0
0.0003440187215530959 -0.00034690161540428704 0.0 0.0024402906014087578 0.0 0.0
0.0007124800038646265 -0.0028480803301517343 0.0 0.0015508065193193758 0.0 0.0
0.0004929639889018831 -0.0021649468219346116 0.0 -0.0014728114261028588 0.0 0.0
0.0001968850804694944 -0.0003518421250775029 0.0 -0.0022540380273493566 0.0 0.0
-0.0001374131538847838 4.58777651116862e-05 0.0 -0.002335924917369347 0.0 0.0
-0.00015302647687960607 0.00013524734659032896 0.0 -0.002281685815619732 0.0 0.0
-9.805628774985745e-05 0.00010323342291758278 0.0 -0.0023161415146268206 0.0 0.0
-4.516121372436187e-05 4.859521930256118e-05 0.0 -0.002488027846905291 0.0 0.0
-1.5788263833041154e-05 1.298810586246877e-05 0.0 -0.0027541512208700885 0.0 0.0
-4.222782276326197e-06 2.74068819681833e-06 0.0 -0.0029979700936235655 0.0 0.0
-5.373043935049207e-07 4.620193546734324e-08 0.0 -0.003155390385941653 0.0 0.0
5.170169545358743e-07 -2.2595674965853482e-07 0.0 -0.003491531081224608 0.0 0.0
-1.6474451209800255e-08 -6.832545132460296e-07 0.0 -0.0041726052501145664 0.0 0.0
-6.198068867790713e-06 5.6075512152453525e-06 0.0 -0.005211421417604698 0.0 0.0
-2.1517458865986635e-05 1.9255305118049293e-05 0.0 -0.0064362735030959305 0.0 0.0
-3.493514734740635e-05 3.567640413876873e-05 0.0 -0.007807033449654489 0.0 0.0
8.331605573040591e-06 9.961312506384168e-06 0.0 -0.009331393391375049 0.0 0.0
0.00025029893855411 -0.00017994750444294235 0.0 -0.01099982734998276 0.0 0.0
0.0009518067226447611 -0.00076428835749777 0.0 -0.012748284289275248 0.0 0.0
0.002433837458843952 -0.0020583984873293296 0.0 -0.014383898436492949 0.0 0.0
0.004911872807046001 -0.004200405863931608 0.0 -0.015588512958217565 0.0 0.0
0.00903816684379661 -0.007532825241426592 0.0 -0.01616980251179926 0.0 0.0
0.011661994925974306 -0.015260776159540423 0.0 1.0685896612017132e-14 0.0 0.0
0.009038166843796524 -0.007532825241428337 0.0 0.016169802511819733 0.0 0.0
0.004911872807043874 -0.0042004058639292016 0.0 0.015588512958232291 0.0 0.0
0.0024338374588422024 -0.0020583984873272865 0.0 0.014383898436495166 0.0 0.0
0.0009518067226453053 -0.000764288357500685 0.0 0.012748284289267196 0.0 0.0
0.00025029893855595326 -0.00017994750444126265 0.0 0.010999827349972135 0.0 0.0
8.331605575268085e-06 9.961312508750928e-06 0.0 0.009331393391368768 0.0 0.0
-3.4935147344486266e-05 3.567640413664521e-05 0.0 0.007807033449647855 0.0 0.0
-2.1517458863268757e-05 1.9255305115585064e-05 0.0 0.006436273503086332 0.0 0.0
-6.198068865545493e-06 5.607551211871017e-06 0.0 0.005211421417595961 0.0 0.0
-1.6474448933246743e-08 -6.832545120599801e-07 0.0 0.00417260525010691 0.0 0.0
5.170169559797877e-07 -2.2595674908171216e-07 0.0 0.003491531081221505 0.0 0.0
-5.373043926583756e-07 4.620193427297935e-08 0.0 0.003155390385939748 0.0 0.0
-4.222782275809371e-06 2.740688195726979e-06 0.0 0.0029979700936215194 0.0 0.0
-1.578826383295458e-05 1.2988105862146579e-05 0.0 0.0027541512208672818 0.0 0.0
-4.5161213724235294e-05 4.859521930297551e-05 0.0 0.002488027846901988 0.0 0.0
-9.805628774964183e-05 0.00010323342291818942 0.0 0.0023161415146236808 0.0 0.0
-0.0001530264768794219 0.0001352473465900405 0.0 0.002281685815618242 0.0 0.0
-0.0001374131538847218 4.5877765111979356e-05 0.0 0.002335924917367163 0.0 0.0
0.00019688508046920177 -0.00035184212507777013 0.0 0.0022540380273466925 0.0 0.0
0.0004929639889012697 -0.002164946821931631 0.0 0.001472811426101529 0.0 0.0
0.0003426107374676928 -0.0016627970262523156 0.0 -0.001410108878814311 0.0 0.0
8.803279566349664e-05 -0.00034034474354953614 0.0 -0.002103127219316566 0.0 0.0
-0.00024029021836004038 8.696125351639799e-05 0.0 -0.0023347132823891784 0.0 0.0
-0.00033283789773121906 0.00020720243526277954 0.0 -0.0023048674599462104 0.0 0.0
-0.00036964027059117676 0.0002250042473920103 0.0 -0.0023243886590952217 0.0 0.0
-0.00043761871149007613 0.0002289211725098083 0.0 -0.002469128227681687 0.0 0.0
-0.0005957085146456709 0.0002712927552815402 0.0 -0.0026948020406726923 0.0 0.0
-0.0009094585651942446 0.0004148906264935553 0.0 -0.002926900040368321 0.0 0.0
-0.0014808373133925455 0.0007558352561878569 0.0 -0.003303262525145934 0.0 0.0
-0.002355001195636753 0.0013946708249333798 0.0 -0.003995180649731428 0.0 0.0
-0.003475658328465958 0.0023049137314001124 0.0 -0.005058204490359362 0.0 0.0
-0.004760595399280889 0.003408552958351606 0.0 -0.006385444037987633 0.0 0.0
-0.006175979942504352 0.004657876606125114 0.0 -0.007829837922149478 0.0 0.0
-0.007735290930273657 0.006084465775308969 0.0 -0.009344333840705443 0.0 0.0
-0.009401569583529045 0.007659382720012356 0.0 -0.01095274753179374 0.0 0.0
-0.011024959524623498 0.009244771529845666 0.0 -0.01273596787573786 0.0 0.0
-0.012300915792992695 0.010544958919591048 0.0 -0.014752629236252443 0.0 0.0
-0.012813477316055203 0.0111233528126595 0.0 -0.017083794044821663 0.0 0.0
-0.012103248719395606 0.010642034524061731 0.0 -0.019658132452980148 0.0 0.0
-0.008576596139391773 0.00812343096829051 0.0 -0.020798832777826237 0.0 0.0
-0.00577051913774175 -0.00033700065358794977 0.0 1.2097094159724264e-14 0.0 0.0
-0.00857659613939225 0.008123430968292635 0.0 0.02079883277784832 0.0 0.0
-0.012103248719392293 0.010642034524058581 0.0 0.01965813245299598 0.0 0.0
-0.012813477316046464 0.01112335281265607 0.0 0.01708379404482636 0.0 0.0
-0.012300915792980724 0.010544958919579371 0.0 0.01475262923624563 0.0 0.0
-0.011024959524611714 0.009244771529837008 0.0 0.01273596787572831 0.0 0.0
-0.00940156958351844 0.007659382720008778 0.0 0.010952747531784279 0.0 0.0
-0.007735290930262394 0.006084465775292421 0.0 0.009344333840695619 0.0 0.0
-0.00617597994249242 0.00465787660611367 0.0 0.007829837922138391 0.0 0.0
-0.004760595399269713 0.003408552958341554 0.0 0.006385444037974853 0.0 0.0
-0.0034756583284560995 0.002304913731390926 0.0 0.005058204490347693 0.0 0.0
-0.002355001195629336 0.0013946708249267074 0.0 0.00399518064972308 0.0 0.0
-0.001480837313388171 0.000755835256185 0.0 0.0033032625251433936 0.0 0.0
-0.0009094585651917625 0.0004148906264926482 0.0 0.0029269000403653366 0.0 0.0
-0.0005957085146441921 0.00027129275528114754 0.0 0.002694802040669478 0.0 0.0
-0.00043761871148936685 0.00022892117251060718 0.0 0.0024691282276797424 0.0 0.0
-0.000369640270590595 0.00022500424739160937 0.0 0.0023243886590925762 0.0 0.0
-0.0003328378977308785 0.00020720243526311263 0.0 0.0023048674599438577 0.0 0.0
-0.00024029021835998384 8.696125351704119e-05 0.0 0.002334713282388163 0.0 0.0
8.803279566306287e-05 -0.00034034474354968067 0.0 0.0021031272193142896 0.0 0.0
0.00034261073746655367 -0.0016627970262504679 0.0 0.0014101088788125635 0.0 0.0
0.00023659034524597245 -0.0012624767553058697 0.0 -0.0013014771661752525 0.0 0.0
4.728370819261835e-06 -0.00031088617809712837 0.0 -0.0019525878063182066 0.0 0.0
-0.00033576847693210217 0.00012482062774425018 0.0 -0.0022825558590153345 0.0 0.0
-0.0005042550432216507 0.0002757387284198004 0.0 -0.002268757105827304 0.0 0.0
-0.0006330970789167797 0.0003402895085604944 0.0 -0.002265486696403287 0.0 0.0
-0.0008200547945380427 0.00040175525186034194 0.0 -0.002364290399848859 0.0 0.0
-0.0011701055647843242 0.0005295434044862101 0.0 -0.002526215227810431 0.0 0.0
-0.0018759144015415789 0.0009163615327313023 0.0 -0.002885195595507681 0.0 0.0
-0.003118060968703875 0.001806525941547515 0.0 -0.0037301038967549223 0.0 0.0
-0.0049101579603266264 0.003323957690208449 0.0 -0.005075159025471961 0.0 0.0
-0.007131724839672553 0.005337531506509116 0.0 -0.006794725976285121 0.0 0.0
-0.009652698068875797 0.00768476762762851 0.0 -0.008620304839097457 0.0 0.0
-0.012432405960780785 0.010292523287361896 0.0 -0.010435286250194898 0.0 0.0
-0.015500700466768293 0.013215955572221392 0.0 -0.012220911526386892 0.0 0.0
-0.018855160654244005 0.016462725844261988 0.0 -0.01407479321579711 0.0 0.0
-0.02234612288517654 0.019902240538102665 0.0 -0.016207822738845454 0.0 0.0
-0.02561899186159704 0.023181478619281676 0.0 -0.018849555971938357 0.0 0.0
-0.02812232190549282 0.025742817709810635 0.0 -0.02211281332338428 0.0 0.0
-0.028810295270657364 0.026677084341949268 0.0 -0.025354426400869125 0.0 0.0
-0.025633292378467263 0.023957199601958017 0.0 -0.026075934913794674 0.0 0.0
-0.022746948059847182 0.013609132971112759 0.0 1.4360908295873998e-14 0.0 0.0
-0.025633292378465577 0.023957199601957493 0.0 0.02607593491382875 0.0 0.0
-0.028810295270649128 0.026677084341941656 0.0 0.025354426400902408 0.0 0.0
-0.0281223219054767 0.025742817709794627 0.0 0.022112813323398168 0.0 0.0
-0.02561899186157621 0.02318147861925753 0.0 0.018849555971931775 0.0 0.0
-0.022346122885155223 0.019902240538084443 0.0 0.0162078227388347 0.0 0.0
-0.01885516065422416 0.016462725844243523 0.0 0.014074793215785638 0.0 0.0
-0.015500700466748583 0.013215955572202157 0.0 0.012220911526374929 0.0 0.0
-0.01243240596076034 0.01029252328733993 0.0 0.010435286250183955 0.0 0.0
-0.009652698068855957 0.0076847676276104275 0.0 0.008620304839081048 0.0 0.0
-0.007131724839655337 0.005337531506491867 0.0 0.0067947259762688 0.0 0.0
-0.004910157960313425 0.0033239576901944795 0.0 0.005075159025459369 0.0 0.0
-0.0031180609686953017 0.0018065259415384082 0.0 0.00373010389674983 0.0 0.0
-0.0018759144015366293 0.0009163615327278745 0.0 0.002885195595504715 0.0 0.0
-0.0011701055647818238 0.0005295434044835752 0.0 0.0025262152278078148 0.0 0.0
-0.0008200547945371236 0.0004017552518615472 0.0 0.0023642903998463433 0.0 0.0
-0.0006330970789161581 0.0003402895085590968 0.0 0.002265486696401562 0.0 0.0
-0.0005042550432210177 0.0002757387284208999 0.0 0.0022687571058245875 0.0 0.0
-0.0003357684769317532 0.00012482062774415127 0.0 0.0022825558590143778 0.0 0.0
4.7283708192773055e-06 -0.0003108861780971458 0.0 0.0019525878063168106 0.0 0.0
0.0002365903452458458 -0.0012624767553042972 0.0 0.0013014771661743047 0.0 0.0
0.0001496927373247047 -0.0009241215322014582 0.0 -0.0011501537227907482 0.0 0.0
-6.635959395904576e-05 -0.0002664668218373319 0.0 -0.0017848772121234276 0.0 0.0
-0.00042429970816424594 0.00016073420780189542 0.0 -0.0021778654359785716 0.0 0.0
-0.0006668685989852665 0.00033978576783498705 0.0 -0.0021757363931174498 0.0 0.0
-0.0008855231225870712 0.00044760690446999773 0.0 -0.002145294916220487 0.0 0.0
-0.0011923372268902706 0.0005633222676088511 0.0 -0.0021717861766568686 0.0 0.0
-0.001786555422785623 0.0008264160832664811 0.0 -0.00233230650023041 0.0 0.0
-0.0029701090779851447 0.001607736875278524 0.0 -0.002962704173305536 0.0 0.0
-0.0049324460215723 0.003217352550454012 0.0 -0.004241593808728002 0.0 0.0
-0.007643277254847763 0.00568586245679413 0.0 -0.006091165284449569 0.0 0.0
-0.01093307919024926 0.008784774163441906 0.0 -0.008226088884564465 0.0 0.0
-0.014653241064499431 0.012324681903256519 0.0 -0.01035658159935723 0.0 0.0
-0.018775861317289613 0.016260484024352227 0.0 -0.012393756353979794 0.0 0.0
-0.02335495855177389 0.02066637280315638 0.0 -0.014384775744442226 0.0 0.0
-0.02841938719057531 0.0255922455596147 0.0 -0.01649573008590138 0.0 0.0
-0.033830803362636025 0.030928366307106707 0.0 -0.019046878530593555 0.0 0.0
-0.03916900229340415 0.036270487211710466 0.0 -0.02247550437198382 0.0 0.0
-0.04356987992405075 0.04080760558088148 0.0 -0.0268211400029342 0.0 0.0
-0.045460663667012534 0.043000784264081625 0.0 -0.03087770374243761 0.0 0.0
-0.04190431725591842 0.04017724379296508 0.0 -0.03217381388801345 0.0 0.0
-0.03828036069313571 0.02706904142439491 0.0 1.686931844213646e-14 0.0 0.0
-0.041904317255913974 0.040177243792962475 0.0 0.03217381388805309 0.0 0.0
-0.04546066366699991 0.04300078426407064 0.0 0.030877703742477475 0.0 0.0
-0.04356987992402852 0.04080760558085604 0.0 0.026821140002952604 0.0 0.0
-0.03916900229337534 0.036270487211679706 0.0 0.022475504371981515 0.0 0.0
-0.03383080336260599 0.03092836630708068 0.0 0.01904687853058206 0.0 0.0
-0.028419387190546777 0.025592245559584944 0.0 0.016495730085890146 0.0 0.0
-0.023354958551745398 0.02066637280313133 0.0 0.014384775744430676 0.0 0.0
-0.018775861317261104 0.016260484024317356 0.0 0.012393756353967219 0.0 0.0
-0.014653241064472106 0.012324681903229679 0.0 0.010356581599339922 0.0 0.0
-0.010933079190224617 0.008784774163416205 0.0 0.008226088884544082 0.0 0.0
-0.007643277254828206 0.005685862456773729 0.0 0.006091165284434906 0.0 0.0
-0.004932446021559034 0.0032173525504422236 0.0 0.004241593808718942 0.0 0.0
-0.0029701090779770552 0.001607736875270246 0.0 0.002962704173300466 0.0 0.0
-0.0017865554227814973 0.0008264160832641932 0.0 0.002332306500227441 0.0 0.0
-0.001192337226888497 0.0005633222676092115 0.0 0.00217178617665585 0.0 0.0
-0.0008855231225861509 0.00044760690446971464 0.0 0.002145294916219517 0.0 0.0
-0.0006668685989846854 0.00033978576783483136 0.0 0.002175736393116219 0.0 0.0
-0.0004242997081637106 0.00016073420780128141 0.0 0.0021778654359771482 0.0 0.0
-6.635959395899834e-05 -0.0002664668218372829 0.0 0.00178487721212322 0.0 0.0
0.00014969273732426898 -0.0009241215322002877 0.0 0.001150153722788853 0.0 0.0
7.384959859556342e-05 -0.0006400008269544732 0.0 -0.0009835862299904176 0.0 0.0
-0.00013092040074033705 -0.00020995794718687303 0.0 -0.0015912277770006357 0.0 0.0
-0.0005081642536806155 0.00019619427637124133 0.0 -0.0020209879198970493 0.0 0.0
-0.0008211341115049558 0.0003991433761254935 0.0 -0.002027384975102688 0.0 0.0
-0.0011244466874791338 0.0005435761146203997 0.0 -0.0019587514164280022 0.0 0.0
-0.0015733847857996067 0.000723717811068826 0.0 -0.0019158413984079487 0.0 0.0
-0.002475692451797192 0.0012157270923995995 0.0 -0.002158747050123757 0.0 0.0
-0.004191124594101102 0.002507054444040646 0.0 -0.003013111480401037 0.0 0.0
-0.0068915061977033055 0.004890559307472189 0.0 -0.004591996237309983 0.0 0.0
-0.01050029707650991 0.00827711697187267 0.0 -0.006710652915649362 0.0 0.0
-0.014821220575049629 0.012405129902213078 0.0 -0.008987304286232145 0.0 0.0
-0.019721355203737835 0.017111713751920877 0.0 -0.011219471123269861 0.0 0.0
-0.025186571221790587 0.02236844292319322 0.0 -0.013352450226158075 0.0 0.0
-0.03128342538058951 0.028259935652644785 0.0 -0.015451207801487465 0.0 0.0
-0.038070554490472586 0.03487247464812584 0.0 -0.017675872282055635 0.0 0.0
-0.045434661117176874 0.04213554353032235 0.0 -0.02043364435398053 0.0 0.0
-0.052844952580880976 0.049570064699096736 0.0 -0.024254432357090606 0.0 0.0
-0.059076018103288025 0.05601166839241259 0.0 -0.029181632420127487 0.0 0.0
-0.0619066498180352 0.059304202188064814 0.0 -0.034030130601257175 0.0 0.0
-0.05761145991010652 0.0558987046057037 0.0 -0.03608148173640826 0.0 0.0
-0.053101894411924776 0.04010265344424404 0.0 1.8735013540549517e-14 0.0 0.0
-0.05761145991009836 0.05589870460569632 0.0 0.03608148173644864 0.0 0.0
-0.061906649818017134 0.059304202188049424 0.0 0.034030130601300126 0.0 0.0
-0.059076018103259964 0.05601166839238786 0.0 0.029181632420150948 0.0 0.0
-0.0528449525808453 0.049570064699062166 0.0 0.02425443235708938 0.0 0.0
-0.04543466111713879 0.04213554353028508 0.0 0.020433644353969105 0.0 0.0
-0.03807055449043527 0.034872474648090054 0.0 0.01767587228204312 0.0 0.0
-0.03128342538055246 0.028259935652605844 0.0 0.015451207801474135 0.0 0.0
-0.02518657122175341 0.02236844292315208 0.0 0.013352450226142568 0.0 0.0
-0.019721355203702468 0.017111713751885006 0.0 0.011219471123250394 0.0 0.0
-0.014821220575018435 0.01240512990218169 0.0 0.008987304286211788 0.0 0.0
-0.010500297076485057 0.008277116971847567 0.0 0.00671065291563298 0.0 0.0
-0.0068915061976855835 0.00489055930745742 0.0 0.0045919962372992645 0.0 0.0
-0.004191124594089386 0.0025070544440296224 0.0 0.0030131114803933295 0.0 0.0
-0.0024756924517911273 0.0012157270923954836 0.0 0.002158747050119747 0.0 0.0
-0.001573384785797172 0.0007237178110664022 0.0 0.0019158413984072839 0.0 0.0
-0.0011244466874779483 0.0005435761146207708 0.0 0.0019587514164258442 0.0 0.0
-0.0008211341115044472 0.0003991433761256275 0.0 0.0020273849751012577 0.0 0.0
-0.0005081642536804287 0.00019619427637147154 0.0 0.002020987919895004 0.0 0.0
-0.00013092040074041131 -0.00020995794718707436 0.0 0.0015912277769996469 0.0 0.0
7.384959859531325e-05 -0.0006400008269536486 0.0 0.0009835862299882804 0.0 0.0
7.315993838326778e-06 -0.00040724020906304705 0.0 -0.0008108230547342503 0.0 0.0
-0.00019051668090720822 -0.000145822827018229 0.0 -0.0013718988291049786 0.0 0.0
-0.000588432232408013 0.0002323227799254559 0.0 -0.0018120715307367225 0.0 0.0
-0.0009656877094062091 0.0004533301074213878 0.0 -0.0018229232167342804 0.0 0.0
-0.0013553827870368342 0.0006290556856708788 0.0 -0.001710007799012718 0.0 0.0
-0.0019831773996063316 0.0009097817436857247 0.0 -0.0016348721612529436 0.0 0.0
-0.003247251508033538 0.0017193606835270796 0.0 -0.0019589411003776945 0.0 0.0
-0.005527706656201865 0.0035942776564296163 0.0 -0.0029640737464374173 0.0 0.0
-0.00895947955268594 0.006743225111549548 0.0 -0.004694106188298748 0.0 0.0
-0.013424268172966089 0.010987365396341065 0.0 -0.006813453999102215 0.0 0.0
-0.018750686166026476 0.01610982958744476 0.0 -0.009042932232212145 0.0 0.0
-0.02483346261206189 0.021977985425252387 0.0 -0.011231760553687615 0.0 0.0
-0.03164952841945417 0.028562634183227444 0.0 -0.013341066200981723 0.0 0.0
-0.03926562385860138 0.03594669335618452 0.0 -0.015437259127673787 0.0 0.0
-0.04777024113993181 0.04423906193701391 0.0 -0.017652642655401993 0.0 0.0
-0.057063674390985294 0.05340315959893125 0.0 -0.02030582201873353 0.0 0.0
-0.06650109162673541 0.06288979512258346 0.0 -0.0239789650680022 0.0 0.0
-0.07448713941950001 0.07118497161929811 0.0 -0.028997755837311255 0.0 0.0
-0.07813588305284316 0.07545152615802202 0.0 -0.034502406051527976 0.0 0.0
-0.07310250993409204 0.07140653355590162 0.0 -0.03846936991088543 0.0 0.0
-0.06777889669218179 0.05317030722515403 0.0 1.8702053794505957e-14 0.0 0.0
-0.0731025099340807 0.07140653355588691 0.0 0.03846936991092748 0.0 0.0
-0.07813588305281986 0.07545152615800649 0.0 0.03450240605157175 0.0 0.0
-0.0744871394194662 0.07118497161926601 0.0 0.028997755837334195 0.0 0.0
-0.06650109162669342 0.0628897951225419 0.0 0.02397896506800183 0.0 0.0
-0.05706367439093961 0.053403159598884115 0.0 0.020305822018723822 0.0 0.0
-0.047770241139885705 0.04423906193697264 0.0 0.01765264265539026 0.0 0.0
-0.03926562385855598 0.03594669335613879 0.0 0.015437259127660821 0.0 0.0
-0.0316495284194092 0.028562634183181917 0.0 0.01334106620096866 0.0 0.0
-0.024833462612018718 0.021977985425213373 0.0 0.011231760553667845 0.0 0.0
-0.01875068616598831 0.016109829587408774 0.0 0.009042932232191325 0.0 0.0
-0.013424268172935119 0.010987365396311996 0.0 0.006813453999086018 0.0 0.0
-0.008959479552663258 0.00674322511152818 0.0 0.0046941061882876875 0.0 0.0
-0.005527706656186833 0.003594277656417617 0.0 0.0029640737464294398 0.0 0.0
-0.0032472515080247265 0.001719360683521783 0.0 0.0019589411003723273 0.0 0.0
-0.001983177399602569 0.000909781743682489 0.0 0.0016348721612511634 0.0 0.0
-0.0013553827870356882 0.0006290556856708708 0.0 0.0017100077990117872 0.0 0.0
-0.0009656877094054855 0.0004533301074218834 0.0 0.0018229232167321263 0.0 0.0
-0.0005884322324074253 0.00023232277992498194 0.0 0.00181207153073427 0.0 0.0
-0.00019051668090675034 -0.0001458228270182293 0.0 0.001371898829104143 0.0 0.0
7.315993838631451e-06 -0.0004072402090624739 0.0 0.0008108230547325046 0.0 0.0
-4.908095854819264e-05 -0.00022500965008886325 0.0 -0.0006354195627586879 0.0 0.0
-0.0002442668357400068 -7.889490805429072e-05 0.0 -0.0011291025867647946 0.0 0.0
-0.0006650505030208921 0.0002690530946326114 0.0 -0.0015520390807075627 0.0 0.0
-0.0011028569462741406 0.0005020694422678991 0.0 -0.0015620841707274984 0.0 0.0
-0.0015900691575067925 0.0007097701143822343 0.0 -0.0014092151895125674 0.0 0.0
-0.0024333678437768514 0.0011436678834706947 0.0 -0.0013305079174586432 0.0 0.0
-0.004103517813274995 0.0023497683742935488 0.0 -0.0017108236983299763 0.0 0.0
-0.006961974599945096 0.004841387063597595 0.0 -0.0028006789209141392 0.0 0.0
-0.011085164860812792 0.008692363969775043 0.0 -0.004435375895341026 0.0 0.0
-0.016373052325476117 0.013752939805533024 0.0 -0.006367098553220464 0.0 0.0
-0.02270198527198585 0.01985861397275391 0.0 -0.008420543799899958 0.0 0.0
-0.029967230533481097 0.02688708531755837 0.0 -0.010434180324668856 0.0 0.0
-0.03814385750902306 0.03481128017523398 0.0 -0.01239089123931883 0.0 0.0
-0.04728901259859493 0.04370035595452303 0.0 -0.014371986282775511 0.0 0.0
-0.057474660748305886 0.05364818230957002 0.0 -0.016450616603530258 0.0 0.0
-0.06860986869233207 0.06462255185968412 0.0 -0.018749202558352007 0.0 0.0
-0.079990115601599 0.07605328282036906 0.0 -0.02174490803997372 0.0 0.0
-0.0896857066638024 0.08615306348195782 0.0 -0.026253942976695165 0.0 0.0
-0.09422425902298719 0.09146578571261539 0.0 -0.032471879261143914 0.0 0.0
-0.08869051210114112 0.08703964816130191 0.0 -0.03968386624485942 0.0 0.0
-0.082709256345543 0.06665888441947347 0.0 1.7862447632133183e-14 0.0 0.0
-0.08869051210112665 0.08703964816128508 0.0 0.03968386624490029 0.0 0.0
-0.09422425902295874 0.09146578571259271 0.0 0.032471879261182196 0.0 0.0
-0.08968570666376238 0.08615306348191902 0.0 0.026253942976715898 0.0 0.0
-0.07999011560155042 0.07605328282032207 0.0 0.021744908039976057 0.0 0.0
-0.06860986869227853 0.06462255185962874 0.0 0.018749202558346476 0.0 0.0
-0.05747466074825127 0.053648182309521106 0.0 0.016450616603520596 0.0 0.0
-0.047289012598540826 0.04370035595447104 0.0 0.014371986282763913 0.0 0.0
-0.03814385750896996 0.034811280175176935 0.0 0.012390891239306383 0.0 0.0
-0.029967230533430637 0.026887085317514502 0.0 0.010434180324652273 0.0 0.0
-0.022701985271941175 0.019858613972711082 0.0 0.008420543799880019 0.0 0.0
-0.01637305232544001 0.013752939805498967 0.0 0.006367098553204571 0.0 0.0
-0.011085164860785464 0.00869236396974968 0.0 0.004435375895329524 0.0 0.0
-0.006961974599926332 0.004841387063581426 0.0 0.0028006789209061196 0.0 0.0
-0.004103517813264054 0.0023497683742857395 0.0 0.0017108236983277227 0.0 0.0
-0.0024333678437718506 0.0011436678834684825 0.0 0.0013305079174568215 0.0 0.0
-0.001590069157505175 0.000709770114381483 0.0 0.0014092151895117777 0.0 0.0
-0.001102856946273381 0.000502069442267478 0.0 0.0015620841707263233 0.0 0.0
-0.0006650505030202082 0.00026905309463199403 0.0 0.0015520390807065583 0.0 0.0
-0.00024426683573971575 -7.88949080543599e-05 0.0 0.0011291025867649124 0.0 0.0
-4.9080958548235616e-05 -0.00022500965008845496 0.0 0.0006354195627576308 0.0 0.0
-9.267251625771461e-05 -9.370704600521139e-05 0.0 -0.0004617137230550817 0.0 0.0
-0.0002892481105123062 -1.4354064900229115e-05 0.0 -0.00086568089333642 0.0 0.0
-0.0007365939729140909 0.0003050150309605311 0.0 -0.0012397369983405556 0.0 0.0
-0.0012354411417595955 0.0005454796819350147 0.0 -0.001243459755021741 0.0 0.0
-0.0018385825380999713 0.0007978597122579262 0.0 -0.001059714206289742 0.0 0.0
-0.002938673558382874 0.0014424921500968645 0.0 -0.0009878817864550388 0.0 0.0
-0.0050470202880320315 0.0031146997486885576 0.0 -0.0014224163157367147 0.0 0.0
-0.008452416976072477 0.006183963646109486 0.0 -0.002414888918781422 0.0 0.0
-0.013225153886056143 0.01068188907014115 0.0 -0.0037729323603983046 0.0 0.0
-0.019327569823056022 0.016542258941261722 0.0 -0.005403766629797263 0.0 0.0
-0.0266507465402532 0.023621584664873848 0.0 -0.007140097810429778 0.0 0.0
-0.035101115028373694 0.03181180823490544 0.0 -0.008845786267688595 0.0 0.0
-0.04465118928896695 0.04108687905333717 0.0 -0.010515085623859654 0.0 0.0
-0.05532834988699585 0.05149498179608085 0.0 -0.012245468479650886 0.0 0.0
-0.06715568410954564 0.06307343462078598 0.0 -0.014078650363285523 0.0 0.0
-0.07999581237078848 0.07572357788363908 0.0 -0.015912001262541418 0.0 0.0
-0.0931418064137321 0.08887662695008793 0.0 -0.017829396068042166 0.0 0.0
-0.10454470152896449 0.10072944981790534 0.0 -0.021029525499340916 0.0 0.0
-0.11026593655362515 0.10740117066705551 0.0 -0.027845602697808555 0.0 0.0
-0.10467641782625549 0.10312841642438987 0.0 -0.039479767427079496 0.0 0.0
-0.09826139280361015 0.08096370133305665 0.0 1.4977602491583752e-14 0.0 0.0
-0.10467641782623865 0.10312841642437319 0.0 0.03947976742711367 0.0 0.0
-0.11026593655359157 0.10740117066702141 0.0 0.02784560269784371 0.0 0.0
-0.10454470152891783 0.10072944981785892 0.0 0.021029525499359387 0.0 0.0
-0.0931418064136767 0.0888766269500354 0.0 0.017829396068045088 0.0 0.0
-0.07999581237072789 0.07572357788357853 0.0 0.015912001262537553 0.0 0.0
-0.06715568410948301 0.06307343462072605 0.0 0.014078650363278114 0.0 0.0
-0.05532834988693359 0.05149498179602262 0.0 0.012245468479640321 0.0 0.0
-0.04465118928890593 0.04108687905327613 0.0 0.010515085623849178 0.0 0.0
-0.03510111502831602 0.031811808234848755 0.0 0.008845786267675055 0.0 0.0
-0.026650746540202257 0.023621584664821664 0.0 0.0071400978104125025 0.0 0.0
-0.019327569823014316 0.016542258941223516 0.0 0.005403766629782617 0.0 0.0
-0.013225153886024254 0.010681889070111538 0.0 0.003772932360389427 0.0 0.0
-0.008452416976049835 0.006183963646089029 0.0 0.002414888918774531 0.0 0.0
-0.00504702028801869 0.0031146997486758495 0.0 0.0014224163157333315 0.0 0.0
-0.0029386735583767374 0.001442492150093003 0.0 0.0009878817864546867 0.0 0.0
-0.0018385825380979816 0.0007978597122570744 0.0 0.0010597142062880923 0.0 0.0
-0.0012354411417586557 0.0005454796819350785 0.0 0.0012434597550226546 0.0 0.0
-0.0007365939729133621 0.0003050150309604038 0.0 0.0012397369983395544 0.0 0.0
-0.000289248110512241 -1.4354064900494254e-05 0.0 0.000865680893335944 0.0 0.0
-9.267251625787706e-05 -9.370704600496036e-05 0.0 0.0004617137230550714 0.0 0.0
-0.00011868637122827426 -1.4125296715384199e-05 0.0 -0.0002993810180139521 0.0 0.0
-0.00031985289970099716 4.130160774936829e-05 0.0 -0.0005853928757355936 0.0 0.0
-0.0008002912630645538 0.0003371405785812315 0.0 -0.0008691069869368311 0.0 0.0
-0.0013688796466411856 0.0005860304301167323 0.0 -0.0008619975380109216 0.0 0.0
-0.002113764976773052 0.0009077415210732747 0.0 -0.0006699234358135847 0.0 0.0
-0.0035128006499574975 0.0018372488315987379 0.0 -0.0006240563343681435 0.0 0.0
-0.006049706895011172 0.003983382579074101 0.0 -0.0010275365181095098 0.0 0.0
-0.00996252694258711 0.00756536324249594 0.0 -0.0017424156624651092 0.0 0.0
-0.015365176288978145 0.012687284898526087 0.0 -0.0027367008776940324 0.0 0.0
-0.022264304474102808 0.01932786461005773 0.0 -0.003933511930407481 0.0 0.0
-0.030575329252217467 0.027372630995236735 0.0 -0.005213731301913289 0.0 0.0
-0.04021226464469748 0.036727019646088925 0.0 -0.00647331280434461 0.0 0.0
-0.051142454451490856 0.04736342486046746 0.0 -0.007722667241972155 0.0 0.0
-0.06336440471711392 0.059300280414016165 0.0 -0.009066324454738723 0.0 0.0
-0.07680127187762509 0.07248929821567027 0.0 -0.010505180814894495 0.0 0.0
-0.09117920182284621 0.08668902336407686 0.0 -0.011821431333389512 0.0 0.0
-0.10580463887571331 0.10125977251419303 0.0 -0.012722245527831322 0.0 0.0
-0.11887834120194313 0.11462537524999616 0.0 -0.01400031058937164 0.0 0.0
-0.12627281242989283 0.12315742151720838 0.0 -0.019862639590124947 0.0 0.0
-0.12137835358814672 0.12006609826246287 0.0 -0.036876802837362804 0.0 0.0
-0.11491228218270802 0.09665617647480523 0.0 1.0658141036401503e-14 0.0 0.0
-0.12137835358812682 0.12006609826244788 0.0 0.036876802837389575 0.0 0.0
-0.12627281242985386 0.12315742151717174 0.0 0.019862639590152237 0.0 0.0
-0.11887834120188917 0.11462537524994282 0.0 0.014000310589385459 0.0 0.0
-0.10580463887565002 0.10125977251413079 0.0 0.012722245527833471 0.0 0.0
-0.09117920182277786 0.08668902336401688 0.0 0.011821431333386671 0.0 0.0
-0.0768012718775547 0.07248929821560256 0.0 0.010505180814892115 0.0 0.0
-0.0633644047170433 0.059300280413948095 0.0 0.009066324454731284 0.0 0.0
-0.05114245445142163 0.04736342486040237 0.0 0.0077226672419654484 0.0 0.0
-0.04021226464463284 0.03672701964602526 0.0 0.006473312804333657 0.0 0.0
-0.030575329252160832 0.02737263099517751 0.0 0.00521373130190037 0.0 0.0
-0.022264304474055998 0.0193278646100126 0.0 0.003933511930395946 0.0 0.0
-0.015365176288941636 0.012687284898493446 0.0 0.002736700877687559 0.0 0.0
-0.009962526942561226 0.007565363242471779 0.0 0.0017424156624596962 0.0 0.0
-0.006049706894995049 0.003983382579058909 0.0 0.0010275365181048601 0.0 0.0
-0.003512800649949459 0.0018372488315937722 0.0 0.0006240563343670229 0.0 0.0
-0.0021137649767702057 0.0009077415210715391 0.0 0.0006699234358134771 0.0 0.0
-0.0013688796466400587 0.0005860304301173067 0.0 0.0008619975380117514 0.0 0.0
-0.0008002912630640081 0.0003371405785814867 0.0 0.0008691069869357012 0.0 0.0
-0.0003198528997007079 4.130160774896264e-05 0.0 0.0005853928757355067 0.0 0.0
-0.00011868637122800254 -1.412529671522587e-05 0.0 0.0002993810180140928 0.0 0.0
-0.00011882745755586874 1.383236316836832e-05 0.0 -0.0001697171035148294 0.0 0.0
-0.0003263266394004174 7.802102693089427e-05 0.0 -0.00029320252805360546 0.0 0.0
-0.000851544145769764 0.0003601284132486326 0.0 -0.00042428505169829023 0.0 0.0
-0.0015121783292140645 0.0006320596177328081 0.0 -0.00041099013018670063 0.0 0.0
-0.002434190761265493 0.0010622311573218082 0.0 -0.000254483897651454 0.0 0.0
-0.004148449549769608 0.0023298732992780816 0.0 -0.00022662770313055272 0.0 0.0
-0.007086982979505815 0.004909919838267312 0.0 -0.0004527285255572361 0.0 0.0
-0.011474331824032926 0.008964851978333334 0.0 -0.0008213046619946162 0.0 0.0
-0.01748277902041495 0.014683830642880296 0.0 -0.0013331476164526678 0.0 0.0
-0.025160790477967113 0.022083134743289386 0.0 -0.0019641314748104623 0.0 0.0
-0.034451836614710275 0.03108653590421368 0.0 -0.002641081283383378 0.0 0.0
-0.04527926608656589 0.04161157048910823 0.0 -0.0033182260429691986 0.0 0.0
-0.05759923040523794 0.05361784447571648 0.0 -0.004034422227308407 0.0 0.0
-0.0713558618754671 0.06707542531370128 0.0 -0.004822600152977497 0.0 0.0
-0.08637413952754369 0.08185139744683048 0.0 -0.005663121364284314 0.0 0.0
-0.10220722341013452 0.09753729297376158 0.0 -0.006413949517437878 0.0 0.0
-0.11799614037186826 0.11328978336878215 0.0 -0.006733616934043801 0.0 0.0
-0.1322926877657234 0.12764834366111702 0.0 -0.006607091417479104 0.0 0.0
-0.14194750648367804 0.13791258328810158 0.0 -0.009163729164313548 0.0 0.0
-0.13925270022326924 0.13812541245764173 0.0 -0.02683538601526355 0.0 0.0
-0.13345210428553833 0.11543158376642418 0.0 6.142655828433874e-15 0.0 0.0
-0.13925270022324632 0.13812541245761673 0.0 0.026835386015279027 0.0 0.0
-0.14194750648363383 0.13791258328806177 0.0 0.009163729164328453 0.0 0.0
-0.13229268776566214 0.127648343661063 0.0 0.006607091417485684 0.0 0.0
-0.11799614037179704 0.11328978336870799 0.0 0.006733616934046456 0.0 0.0
-0.10220722341005815 0.09753729297369719 0.0 0.0064139495174382315 0.0 0.0
-0.0863741395274651 0.08185139744674937 0.0 0.0056631213642808105 0.0 0.0
-0.07135586187538807 0.06707542531363005 0.0 0.004822600152974399 0.0 0.0
-0.05759923040516065 0.05361784447563612 0.0 0.0040344222273066 0.0 0.0
-0.045279266086494435 0.04161157048903916 0.0 0.0033182260429619513 0.0 0.0
-0.03445183661464803 0.03108653590415257 0.0 0.002641081283375663 0.0 0.0
-0.025160790477915248 0.02208313474324015 0.0 0.0019641314748051935 0.0 0.0
-0.017482779020374456 0.014683830642843097 0.0 0.0013331476164493289 0.0 0.0
-0.011474331824003777 0.008964851978307093 0.0 0.0008213046619909242 0.0 0.0
-0.007086982979486928 0.004909919838250448 0.0 0.0004527285255550925 0.0 0.0
-0.004148449549759683 0.0023298732992703074 0.0 0.00022662770312854296 0.0 0.0
-0.002434190761261538 0.0010622311573195446 0.0 0.00025448389765322986 0.0 0.0
-0.0015121783292127208 0.0006320596177320428 0.0 0.000410990130186363 0.0 0.0
-0.0008515441457688266 0.00036012841324908695 0.0 0.00042428505169817113 0.0 0.0
-0.0003263266394000212 7.802102693027098e-05 0.0 0.00029320252805326014 0.0 0.0
-0.00011882745755590733 1.3832363168494356e-05 0.0 0.00016971710351465735 0.0 0.0
-7.810241933294806e-05 1.5026648265630285e-05 0.0 -0.00010543324610786669 0.0 0.0
-0.0002916923202267847 9.006525569455132e-05 0.0 -0.0001217553877022683 0.0 0.0
-0.0008842426499199171 0.00036855213386832427 0.0 -0.00014335523026945304 0.0 0.0
-0.001681613355204124 0.0006578522987908984 0.0 -0.00011119571826057155 0.0 0.0
-0.0028118296886364 0.0011551156783197853 0.0 9.32406354359091e-05 0.0 0.0
-0.004830925086340662 0.002596360024512924 0.0 0.0002744634432956351 0.0 0.0
-0.008139579762222895 0.005382873670878265 0.0 0.00034921847549415446 0.0 0.0
-0.012972704231579374 0.009667099870234971 0.0 0.0003767361502687405 0.0 0.0
-0.019557515228671923 0.015676491333285213 0.0 0.0003615602688540507 0.0 0.0
-0.0279930395312336 0.02345008762523247 0.0 0.00027544936788720083 0.0 0.0
-0.038258282450548686 0.03293070049740119 0.0 0.00016195828336312314 0.0 0.0
-0.050285268646780984 0.04404414641261344 0.0 2.0592932615956516e-05 0.0 0.0
-0.06398816683659334 0.05673684587166939 0.0 -0.0001985391359535871 0.0 0.0
-0.07925704807140398 0.07094898918394406 0.0 -0.00046618460363439737 0.0 0.0
-0.09583687471129451 0.08651289911946428 0.0 -0.0008309911136227879 0.0 0.0
-0.11311269797810206 0.10293513843243711 0.0 -0.0012481430425913178 0.0 0.0
-0.12995851498466787 0.11923984085392554 0.0 -0.001533912456093519 0.0 0.0
-0.1447684753356184 0.13394037688097202 0.0 -0.0014125798690874467 0.0 0.0
-0.15574094812647127 0.1448643629093778 0.0 -0.002397157603218989 0.0 0.0
-0.1583966182702483 0.147446664190319 0.0 -0.01968627539946244 0.0 0.0
-0.15675015435608347 0.12592560035236036 0.0 1.1796119636642288e-15 0.0 0.0
-0.15839661827022272 0.14744666419028532 0.0 0.01968627539946817 0.0 0.0
-0.15574094812642097 0.14486436290933102 0.0 0.002397157603226386 0.0 0.0
-0.14476847533554804 0.13394037688091867 0.0 0.001412579869087811 0.0 0.0
-0.12995851498458755 0.11923984085384857 0.0 0.0015339124560941903 0.0 0.0
-0.11311269797801791 0.10293513843236307 0.0 0.0012481430425917393 0.0 0.0
-0.09583687471120789 0.08651289911937422 0.0 0.0008309911136185223 0.0 0.0
-0.07925704807131631 0.07094898918387745 0.0 0.0004661846036323643 0.0 0.0
-0.06398816683650865 0.05673684587158084 0.0 0.00019853913595379614 0.0 0.0
-0.05028526864670279 0.04404414641253475 0.0 -2.059293262095252e-05 0.0 0.0
-0.03825828245048004 0.03293070049734055 0.0 -0.0001619582833658111 0.0 0.0
-0.027993039531177155 0.023450087625182227 0.0 -0.00027544936788895377 0.0 0.0
-0.019557515228627583 0.0156764913332429 0.0 -0.0003615602688559708 0.0 0.0
-0.012972704231547085 0.009667099870208877 0.0 -0.000376736150270369 0.0 0.0
-0.008139579762202018 0.00538287367086022 0.0 -0.00034921847549349884 0.0 0.0
-0.004830925086329042 0.002596360024502558 0.0 -0.0002744634432947753 0.0 0.0
-0.0028118296886313595 0.0011551156783172975 0.0 -9.324063543358842e-05 0.0 0.0
-0.001681613355202602 0.0006578522987893685 0.0 0.00011119571826031236 0.0 0.0
-0.000884242649919146 0.00036855213386839615 0.0 0.00014335523026957772 0.0 0.0
-0.00029169232022640965 9.006525569395487e-05 0.0 0.0001217553877008146 0.0 0.0
-7.810241933271222e-05 1.5026648265741328e-05 0.0 0.0001054332461077571 0.0 0.0
SCALARS Statev float 8
LOOKUP_TABLE default
0.0 0.017366302075616423 0.013886889939303034 -0.016596997740641488 0.002710107801338457 -0.0008448988407991592 0.0 0.0
0.0 0.005794778063266528 0.004238276159285603 -0.002579687371160447 -0.0016585887881251553 -0.006559358915309754 0.0 0.0
0.0 8.009784740555422e-05 0.00012655416018137312 -7.912765030654274e-05 -4.7426509874830504e-05 -0.00024403964411464764 0.0 0.0
0.0 0.00013238367698320796 4.827178796103965e-05 -3.458911168903518e-05 -1.3682676272004597e-05 1.6810259756657403e-05 0.0 0.0
0.0 0.0008284836268058831 0.0005185695485013815 -0.00037781570083677326 -0.00014075384766460813 0.00011262394643631191 0.0 0.0
0.0 0.002109996039606633 0.0021123744496722397 -0.0016583995188419573 -0.0004539749308302834 0.00023708625702466881 0.0 0.0
0.0 0.00543974154540581 0.005006051291281633 -0.004238944954497138 -0.0007671063367844903 0.0003346032315172798 0.0 0.0
0.0 0.01047503889288434 0.009493609216931626 -0.008470939743888645 -0.0010226694730429827 0.0003832859943519654 0.0 0.0
0.0 0.01757178725289096 0.015737016221900522 -0.014498213756333148 -0.001238802465567361 0.00038594527673762517 0.0 0.0
0.0 0.026843084513496627 0.023810335886184607 -0.022343741929774993 -0.0014665939564096474 0.0003224460889272109 0.0 0.0
0.0 0.03825118038379462 0.03369154496524122 -0.03196108619239381 -0.0017304587728473547 0.00022835864466313788 0.0 0.0
0.0 0.051398183364239736 0.045323898612802574 -0.043288817835260895 -0.0020350807775416356 9.907901420853178e-05 0.0 0.0
0.0 0.06655704152336818 0.05863252405575001 -0.05626134578166437 -0.0023711782740856203 -0.00011135133053928983 0.0 0.0
0.0 0.08357822440915745 0.07354025178960429 -0.0708132090614636 -0.002727042728140568 -0.00035135903512927317 0.0 0.0
0.0 0.10228973157168578 0.08989303642142929 -0.08680772972386824 -0.0030853066975609178 -0.0006636733537475069 0.0 0.0
0.0 0.12228780166148223 0.10730153941269142 -0.10387438577427871 -0.0034271536384127338 -0.0010493424724902036 0.0 0.0
0.0 0.1426848626752455 0.12502655713235156 -0.12129207704293263 -0.003734480089418936 -0.0014401062811370698 0.0 0.0
0.0 0.16218984364505268 0.14195917485946255 -0.1379705027760209 -0.003988672083441663 -0.0016870670889504694 0.0 0.0
0.0 0.17919847999238042 0.1567185792459094 -0.15253628151527213 -0.004182297730637045 -0.0016130892106154073 0.0 0.0
0.0 0.1916166361939402 0.16768141733001696 -0.16338930722293868 -0.004292110107078538 -0.0017098464369128983 0.0 0.0
0.0 0.19672412353423527 0.1720473470223453 -0.16777059776591827 -0.004276749256427029 3.133777959352102e-15 0.0 0.0
0.0 0.19161663619391864 0.16768141732999794 -0.1633893072229206 -0.004292110107077318 0.0017098464369197756 0.0 0.0
0.0 0.17919847999232738 0.15671857924586263 -0.15253628151522677 -0.004182297730635831 0.0016130892106212902 0.0 0.0
0.0 0.16218984364497524 0.14195917485939546 -0.13797050277595402 -0.003988672083441435 0.0016870670889544024 0.0 0.0
0.0 0.142684862675157 0.12502655713227429 -0.1212920770428577 -0.003734480089416665 0.0014401062811354864 0.0 0.0
0.0 0.12228780166139507 0.10730153941261447 -0.10387438577420424 -0.0034271536384104066 0.0010493424724875864 0.0 0.0
0.0 0.10228973157159169 0.08989303642134726 -0.08680772972378785 -0.003085306697559226 0.0006636733537461761 0.0 0.0
0.0 0.08357822440906461 0.07354025178952361 -0.07081320906138389 -0.0027270427281398104 0.0003513590351266905 0.0 0.0
0.0 0.06655704152327346 0.058632524055667594 -0.05626134578158342 -0.00237117827408411 0.00011135133053805958 0.0 0.0
0.0 0.051398183364155 0.045323898612728175 -0.04328881783518841 -0.0020350807775397187 -9.907901421016968e-05 0.0 0.0
0.0 0.03825118038372677 0.03369154496518169 -0.03196108619233599 -0.0017304587728456805 -0.0002283586446651096 0.0 0.0
0.0 0.02684308451344259 0.023810335886137124 -0.022343741929729287 -0.0014665939564078574 -0.00032244608892875227 0.0 0.0
0.0 0.017571787252846232 0.01573701622186102 -0.014498213756294747 -0.0012388024655662583 -0.0003859452767379879 0.0 0.0
0.0 0.010475038892856472 0.009493609216906252 -0.008470939743864658 -0.001022669473041598 -0.00038328599435143065 0.0 0.0
0.0 0.005439741545388784 0.005006051291265424 -0.004238944954482329 -0.0007671063367830897 -0.00033460323151717874 0.0 0.0
0.0 0.002109996039597809 0.0021123744496632305 -0.0016583995188343874 -0.0004539749308288409 -0.00023708625702403166 0.0 0.0
0.0 0.0008284836268016322 0.0005185695484984147 -0.00037781570083462264 -0.00014075384766379113 -0.00011262394643560524 0.0 0.0
0.0 0.00013238367698226205 4.827178796095406e-05 -3.4589111688986324e-05 -1.3682676271967181e-05 -1.6810259756563244e-05 0.0 0.0
0.0 8.009784740437656e-05 0.00012655416018042873 -7.912765030590398e-05 -4.742650987452428e-05 0.0002440396441133868 0.0 0.0
0.0 0.005794778063256633 0.004238276159280467 -0.002579687371156743 -0.0016585887881237224 0.006559358915300724 0.0 0.0
0.0 0.017366302075595797 0.013886889939289049 -0.016596997740622236 0.0027101078013331763 0.0008448988407624953 0.0 0.0
0.0 0.014109232092205888 0.010538039616684616 -0.013680430447330055 0.003142390830645427 -0.0003691346812008258 0.0 0.0
0.0 0.0035034672525812013 0.0025099556962322727 -0.0015012233716871289 -0.0010087323245451388 -0.005095137730589479 0.0 0.0
0.0 -6.2900740873798e-05 -6.310922109865111e-05 5.509100304102349e-05 8.01821805762767e-06 -5.9296642434011306e-05 0.0 0.0
0.0 2.2731277311257528e-05 1.4262886057643508e-05 -1.0286854183170442e-05 -3.9760318744731e-06 7.902280900089503e-06 0.0 0.0
0.0 0.0004308364567300023 0.00032354381348134037 -0.00023757423161061502 -8.5969581870725e-05 4.607059043683447e-05 0.0 0.0
0.0 0.0018529390245068922 0.0015912504427123082 -0.0012610401847994628 -0.00033021025791284716 5.33770815292091e-05 0.0 0.0
0.0 0.004588158574722803 0.004217909430798068 -0.0036122530222239277 -0.0006056564085741386 -0.0001620810549258738 0.0 0.0
0.0 0.009257992832420112 0.008327284199180674 -0.00752993266173065 -0.0007973515374500302 -0.0005238050240756945 0.0 0.0
0.0 0.015878336754999063 0.014085700190969996 -0.013165707415573345 -0.0009199927753966433 -0.0010300315776033703 0.0 0.0
0.0 0.02445188685215095 0.021527411702967438 -0.020506982555817403 -0.0010204291471500252 -0.0016521933291369323 0.0 0.0
0.0 0.034944912802546774 0.03059918939155191 -0.029480012421882622 -0.0011191769696693196 -0.0023294358420716645 0.0 0.0
0.0 0.04737807407013459 0.04123242325702863 -0.04001100569453039 -0.0012214175624982297 -0.003020359941624403 0.0 0.0
0.0 0.06112367914217743 0.053394459928308526 -0.052067491876269266 -0.0013269680520391824 -0.0037555809383319682 0.0 0.0
0.0 0.07686951777714295 0.06703816876996326 -0.06560933830849758 -0.0014288304614656468 -0.00454625222986851 0.0 0.0
0.0 0.09417001707835003 0.08203596753528142 -0.0805200905508286 -0.0015158769844527146 -0.005375338130073588 0.0 0.0
0.0 0.11266436606149648 0.09804503396634229 -0.09646645670151553 -0.0015785772648267955 -0.006183933765949136 0.0 0.0
0.0 0.1316124457921156 0.11440082766598604 -0.11278986724635034 -0.0016109604196355603 -0.006778182861341907 0.0 0.0
0.0 0.14984434117066686 0.13009737794442078 -0.1284833846286716 -0.0016139933157492468 -0.006842082583127849 0.0 0.0
0.0 0.16577177039074953 0.14380850499195885 -0.14222304867382235 -0.001585456318136572 -0.0061311065531254524 0.0 0.0
0.0 0.1773860493104172 0.15374431927340812 -0.15226758704433926 -0.0014767322290687326 -0.005013014955476413 0.0 0.0
0.0 0.18228163772760778 0.15760523949365776 -0.15629839515003535 -0.0013068443436224549 6.398093860271459e-15 0.0 0.0
0.0 0.17738604931039637 0.15374431927338925 -0.15226758704432114 -0.001476732229068049 0.00501301495549328 0.0 0.0
0.0 0.16577177039069957 0.14380850499191586 -0.14222304867377886 -0.0015854563181368752 0.006131106553143294 0.0 0.0
0.0 0.1498443411705984 0.1300973779443619 -0.12848338462861217 -0.0016139933157496948 0.00684208258313773 0.0 0.0
0.0 0.13161244579203632 0.1144008276659176 -0.11278986724628247 -0.0016109604196351134 0.006778182861342744 0.0 0.0
0.0 0.1126643660614129 0.0980450339662697 -0.09646645670144326 -0.0015785772648262116 0.006183933765944595 0.0 0.0
0.0 0.09417001707826407 0.08203596753520671 -0.08052009055075443 -0.0015158769844523861 0.005375338130071523 0.0 0.0
0.0 0.07686951777705874 0.06703816876989033 -0.06560933830842493 -0.001428830461465297 0.00454625222986569 0.0 0.0
0.0 0.061123679142091096 0.053394459928234016 -0.052067491876194916 -0.0013269680520391432 0.0037555809383279957 0.0 0.0
0.0 0.04737807407005498 0.041232423256959305 -0.04001100569446144 -0.0012214175624978487 0.0030203599416192863 0.0 0.0
0.0 0.034944912802484344 0.030599189391497767 -0.02948001242182917 -0.001119176969668608 0.002329435842065117 0.0 0.0
0.0 0.02445188685209852 0.021527411702921197 -0.020506982555771852 -0.0010204291471493212 0.001652193329132036 0.0 0.0
0.0 0.015878336754959498 0.014085700190934735 -0.013165707415538774 -0.0009199927753959672 0.0010300315776003719 0.0 0.0
0.0 0.009257992832392918 0.00832728419915609 -0.0075299326617069935 -0.0007973515374491058 0.0005238050240732222 0.0 0.0
0.0 0.004588158574706876 0.004217909430783236 -0.0036122530222102663 -0.0006056564085729659 0.00016208105492439615 0.0 0.0
0.0 0.0018529390244980456 0.0015912504427045607 -0.0012610401847929437 -0.00033021025791161594 -5.3377081529472336e-05 0.0 0.0
0.0 0.0004308364567269122 0.00032354381347926065 -0.0002375742316090924 -8.596958187016849e-05 -4.6070590436489276e-05 0.0 0.0
0.0 2.273127731075501e-05 1.4262886057833543e-05 -1.028685418332171e-05 -3.976031874511654e-06 -7.902280900036717e-06 0.0 0.0
0.0 -6.290074087362736e-05 -6.310922109844909e-05 5.509100304083685e-05 8.018218057612074e-06 5.9296642433740946e-05 0.0 0.0
0.0 0.003503467252571152 0.0025099556962268313 -0.0015012233716833242 -0.001008732324543508 0.005095137730578443 0.0 0.0
0.0 0.014109232092183854 0.010538039616667737 -0.01368043044730874 0.0031423908306409914 0.00036913468117366654 0.0 0.0
0.0 0.010448969638072354 0.00763677002462034 -0.010194685870370418 0.0025579158457500724 -0.0027058927508211506 0.0 0.0
0.0 0.0024363533904034978 0.0015447890755487484 -0.0008281678880821769 -0.0007166211874665725 -0.004173537681014549 0.0 0.0
0.0 8.584632957321453e-08 4.961933429646372e-08 -4.248503713582565e-08 -7.134297160638211e-09 3.549561347409598e-08 0.0 0.0
0.0 -3.5808321839684145e-06 -5.043791434136737e-06 3.9486928300776945e-06 1.095098604058917e-06 2.4651664704551322e-06 0.0 0.0
0.0 0.00016962780548672072 0.00013526184118180189 -9.638433471336299e-05 -3.8877506468439325e-05 1.5150115861448581e-05 0.0 0.0
0.0 0.0012950644304579417 0.0010541429364970037 -0.0008137307899460613 -0.00024041214655094175 -5.179900338121564e-05 0.0 0.0
0.0 0.0035055223135547616 0.0032867267748240545 -0.002756127234683375 -0.0005305995401406802 -0.00047788578640431466 0.0 0.0
0.0 0.007683420567207217 0.006918717122187844 -0.00617611990486132 -0.0007425972173265203 -0.0011874769281945855 0.0 0.0
0.0 0.013589577316244 0.01207316175640216 -0.011199062773896214 -0.0008740989825059484 -0.00216588375836578 0.0 0.0
0.0 0.0213378000449485 0.018739247839734862 -0.01776821675169828 -0.0009710310880365877 -0.0033481562064119883 0.0 0.0
0.0 0.03074768745206764 0.026834634624382715 -0.02577134030267498 -0.0010632943217077113 -0.0046307943286463754 0.0 0.0
0.0 0.04161406984023741 0.03628329899319291 -0.03512398058127423 -0.0011593184119186514 -0.005918515107949062 0.0 0.0
0.0 0.054257929210544245 0.047060105786243894 -0.04580171859098737 -0.0012583871952565515 -0.007210388550123947 0.0 0.0
0.0 0.0679870023323607 0.05917408005424801 -0.05782040781030143 -0.0013536722439464956 -0.00858629093730396 0.0 0.0
0.0 0.0834328791396509 0.07253181040728188 -0.07109596541573932 -0.0014358449915426639 -0.010042338504128908 0.0 0.0
0.0 0.09998901342710247 0.08685211826168658 -0.08535597898521274 -0.001496139276473712 -0.011433713323522597 0.0 0.0
0.0 0.11702934738478592 0.10157982201982602 -0.10004944898007517 -0.0015303730397509539 -0.012433548435810945 0.0 0.0
0.0 0.13351577564461475 0.11582824739743153 -0.11429371024620916 -0.001534537151222367 -0.012555372696161037 0.0 0.0
0.0 0.14799393279210155 0.1283122035594337 -0.12681893578841516 -0.001493267771018473 -0.011414827359201494 0.0 0.0
0.0 0.1585149835312143 0.13734588743245 -0.13592276690161081 -0.0014231205308389847 -0.008932301212623301 0.0 0.0
0.0 0.1631334141024081 0.14095792224215514 -0.13974034838651483 -0.001217573855640384 1.2437533641884713e-14 0.0 0.0
0.0 0.1585149835311943 0.1373458874324313 -0.13592276690159263 -0.0014231205308387054 0.008932301212653346 0.0 0.0
0.0 0.1479939327920564 0.12831220355939454 -0.1268189357883755 -0.0014932677710192048 0.011414827359231786 0.0 0.0
0.0 0.13351577564455705 0.11582824739738144 -0.11429371024615897 -0.0015345371512223134 0.012555372696180251 0.0 0.0
0.0 0.11702934738471542 0.10157982201976573 -0.10004944898001493 -0.0015303730397507689 0.012433548435812623 0.0 0.0
0.0 0.09998901342702624 0.08685211826162051 -0.08535597898514688 -0.0014961392764736364 0.011433713323515577 0.0 0.0
0.0 0.08343287913957603 0.07253181040721687 -0.07109596541567509 -0.001435844991541825 0.010042338504125175 0.0 0.0
0.0 0.06798700233228751 0.0591740800541842 -0.05782040781023846 -0.0013536722439457085 0.008586290937299816 0.0 0.0
0.0 0.05425792921046994 0.047060105786179814 -0.045801718590923364 -0.0012583871952564166 0.0072103885501168885 0.0 0.0
0.0 0.0416140698401666 0.036283298993131964 -0.035123980581213216 -0.0011593184119186896 0.005918515107939034 0.0 0.0
0.0 0.030747687452012052 0.026834634624334063 -0.02577134030262682 -0.0010632943217072492 0.004630794328636096 0.0 0.0
0.0 0.021337800044899425 0.018739247839691733 -0.01776821675165549 -0.0009710310880362413 0.0033481562064024465 0.0 0.0
0.0 0.013589577316209436 0.012073161756371551 -0.011199062773866307 -0.0008740989825052515 0.002165883758359919 0.0 0.0
0.0 0.007683420567181563 0.006918717122165208 -0.006176119904839514 -0.000742597217325686 0.001187476928189549 0.0 0.0
0.0 0.003505522313540638 0.003286726774810816 -0.002756127234671451 -0.0005305995401393676 0.0004778857864014864 0.0 0.0
0.0 0.0012950644304511292 0.0010541429364913102 -0.0008137307899414699 -0.00024041214654984004 5.179900338052532e-05 0.0 0.0
0.0 0.00016962780548504083 0.00013526184118098301 -9.638433471278786e-05 -3.8877506468195176e-05 -1.5150115861251656e-05 0.0 0.0
0.0 -3.58083218415422e-06 -5.043791434025156e-06 3.9486928299911295e-06 1.0950986040340509e-06 -2.465166470428286e-06 0.0 0.0
0.0 8.584632956117071e-08 4.961933430812774e-08 -4.2485037145499734e-08 -7.134297162627732e-09 -3.549561348130653e-08 0.0 0.0
0.0 0.0024363533903952713 0.0015447890755437405 -0.0008281678880787875 -0.0007166211874649515 0.004173537681001877 0.0 0.0
0.0 0.010448969638050368 0.007636770024604042 -0.010194685870349602 0.00255791584574556 0.002705892750803268 0.0 0.0
0.0 0.007872655750062579 0.0055997462354172075 -0.007635942047530276 0.002036195812113054 -0.0029555694470933033 0.0 0.0
0.0 0.0017328274167018945 0.0010300827388040452 -0.0005358029778062271 -0.0004942797609978161 -0.0031063899621016516 0.0 0.0
0.0 0.0 0.0 0.0 0.0 0.0 0.0 0.0
0.0 -7.623975002737015e-07 -3.6780021682411196e-07 3.076662364028695e-07 6.013398042123862e-08 3.05000057420387e-07 0.0 0.0
0.0 4.6753688023860355e-05 2.4087341697357985e-05 -1.5281511537390793e-05 -8.805830159966895e-06 1.2912000651397777e-05 0.0 0.0
0.0 0.0007279268026043031 0.0006291500075926514 -0.00047353261192628973 -0.00015561739566636088 -0.00010433031049849253 0.0 0.0
0.0 0.0027201839085024106 0.0023857828291882935 -0.0019508103299865247 -0.00043497249920176916 -0.0005876866711259782 0.0 0.0
0.0 0.006152571955917016 0.00552957916159134 -0.004855919418534514 -0.0006736597430568269 -0.0015957529790659789 0.0 0.0
0.0 0.01137332846019079 0.010055282342390266 -0.009235237865420166 -0.0008200444769700899 -0.0029386239678910364 0.0 0.0
0.0 0.01822431165821837 0.015927916516597272 -0.015010857395634262 -0.0009170591209630089 -0.004553672409089897 0.0 0.0
0.0 0.026470205220634604 0.023039947630164575 -0.02203684483298459 -0.0010031027971799695 -0.00629519295383062 0.0 0.0
0.0 0.03613819962583234 0.03130302048429516 -0.03021090161387421 -0.001092118870420939 -0.008037065634444295 0.0 0.0
0.0 0.04690622865281273 0.04070670471708331 -0.03952157343749035 -0.0011851312795930137 -0.009772994605106116 0.0 0.0
0.0 0.05938268297464068 0.05127156379677108 -0.04999829922985081 -0.0012732645669202435 -0.011582499154550644 0.0 0.0
0.0 0.07282635065083216 0.06296805783809442 -0.06161810399911244 -0.0013499538389819341 -0.013486534982448 0.0 0.0
0.0 0.0872518469114287 0.07558858170100705 -0.07417875282914667 -0.0014098288718603798 -0.015324400671682805 0.0 0.0
0.0 0.10248038073602497 0.08868185446952657 -0.08723595486666069 -0.001445899602865832 -0.01668567357524078 0.0 0.0
0.0 0.11729315323194545 0.10148480983179843 -0.1000347640523095 -0.001450045779488884 -0.0169798622208369 0.0 0.0
0.0 0.13039538980343712 0.11283264684320904 -0.11141583476314766 -0.0014168120800613817 -0.015590224315000114 0.0 0.0
0.0 0.14006806999539315 0.12123740076720065 -0.11987077430420147 -0.0013666264629993952 -0.011767998631075739 0.0 0.0
0.0 0.14467285626463108 0.12479702722571051 -0.1237187163629318 -0.0010783108627786743 1.7648209282850047e-14 0.0 0.0
0.0 0.1400680699953729 0.12123740076718174 -0.11987077430418187 -0.0013666264629998096 0.011767998631116952 0.0 0.0
0.0 0.1303953898033992 0.11283264684317532 -0.11141583476311374 -0.0014168120800614912 0.015590224315039338 0.0 0.0
0.0 0.11729315323189564 0.10148480983175476 -0.10003476405226575 -0.001450045779489018 0.016979862220861702 0.0 0.0
0.0 0.10248038073596442 0.08868185446947452 -0.08723595486660889 -0.001445899602865633 0.016685673575243178 0.0 0.0
0.0 0.08725184691136331 0.07558858170095059 -0.07417875282909016 -0.0014098288718603941 0.01532440067167588 0.0 0.0
0.0 0.07282635065076862 0.06296805783803881 -0.06161810399905803 -0.001349953838980819 0.013486534982442865 0.0 0.0
0.0 0.05938268297457447 0.05127156379671362 -0.049998299229793465 -0.0012732645669201734 0.011582499154544523 0.0 0.0
0.0 0.04690622865275011 0.040706704717029404 -0.03952157343743709 -0.0011851312795922958 0.009772994605096778 0.0 0.0
0.0 0.03613819962577402 0.031303020484244375 -0.03021090161382395 -0.0010921188704204666 0.008037065634430903 0.0 0.0
0.0 0.026470205220585765 0.023039947630122085 -0.022036844832942666 -0.0010031027971793998 0.006295192953818216 0.0 0.0
0.0 0.018224311658176062 0.01592791651656049 -0.015010857395598093 -0.0009170591209623793 0.004553672409076691 0.0 0.0
0.0 0.011373328460158856 0.010055282342362509 -0.009235237865392886 -0.0008200444769696084 0.002938623967882485 0.0 0.0
0.0 0.006152571955896678 0.005529579161572711 -0.00485591941851686 -0.0006736597430558443 0.0015957529790595736 0.0 0.0
0.0 0.002720183908489294 0.0023857828291773005 -0.0019508103299768825 -0.00043497249920041776 0.000587686671122303 0.0 0.0
0.0 0.0007279268025995601 0.0006291500075891261 -0.00047353261192358773 -0.0001556173956655386 0.00010433031049785926 0.0 0.0
0.0 4.6753688022993475e-05 2.4087341697371845e-05 -1.52815115374331e-05 -8.805830159938755e-06 -1.2912000651160869e-05 0.0 0.0
0.0 -7.623975001768741e-07 -3.678002168692447e-07 3.076662364379695e-07 6.013398043128732e-08 -3.0500005745404586e-07 0.0 0.0
0.0 0.0 0.0 0.0 0.0 0.0 0.0 0.0
0.0 0.001732827416694754 0.0010300827387999124 -0.0005358029778034489 -0.000494279760996465 0.003106389962090739 0.0 0.0
0.0 0.007872655750044016 0.005599746235402733 -0.007635942047511662 0.002036195812108933 0.0029555694470802096 0.0 0.0
0.0 0.005721458224683214 0.0040495370190365325 -0.005621123959595638 0.0015715869405591078 -0.002548262895942984 0.0 0.0
0.0 0.0013816967784900974 0.0006569336467315877 -0.0003295344287916433 -0.0003273992179399439 -0.0021782196898961115 0.0 0.0
0.0 0.0 0.0 0.0 0.0 0.0 0.0 0.0
0.0 -1.8283265296340208e-07 1.3884532692600747e-08 -1.1294923226280552e-08 -2.589609466318623e-09 -1.5972414510869567e-08 0.0 0.0
0.0 -1.865407782070893e-05 -8.583653498376212e-06 7.553140043472443e-06 1.030513454903761e-06 1.3628033733681517e-05 0.0 0.0
0.0 0.0003775275408691945 0.00029302128942894514 -0.0002149325428107043 -7.808874661824062e-05 -7.64672155237246e-05 0.0 0.0
0.0 0.0019562542107637152 0.001586903361402286 -0.0012626941999011596 -0.0003242091615011242 -0.0005826525111048074 0.0 0.0
0.0 0.004697454384840625 0.004181447249870593 -0.0035930523544105393 -0.0005883948954600608 -0.0017082227078508698 0.0 0.0
0.0 0.009195821338601964 0.008057060711793568 -0.007302736973901267 -0.0007543237378923012 -0.0033404965204241674 0.0 0.0
0.0 0.015109923072510294 0.01311940224067248 -0.012263424329595957 -0.0008559779110765231 -0.005261759288732715 0.0 0.0
0.0 0.022284700082644826 0.019239716936033786 -0.01830208208108375 -0.0009376348549500414 -0.007323389326113579 0.0 0.0
0.0 0.030589206820216725 0.026319253398225807 -0.025299753757838543 -0.001019499640387256 -0.009377668432022061 0.0 0.0
0.0 0.04005686840381979 0.034345494610658014 -0.03324048518288178 -0.0011050094277761835 -0.011418281552749992 0.0 0.0
0.0 0.050354293649050114 0.04337144085355455 -0.042183669987339495 -0.0011877708662150661 -0.013532246862491075 0.0 0.0
0.0 0.06211482724875196 0.05339311306067456 -0.0521338232767998 -0.0012592897838747679 -0.015731211076063362 0.0 0.0
0.0 0.07485227991973792 0.06428262955266201 -0.06296680229716195 -0.0013158272555000255 -0.0178441607779515 0.0 0.0
0.0 0.08794363998189597 0.07571203604642238 -0.0743574300364543 -0.0013546060099681135 -0.019486052309823875 0.0 0.0
0.0 0.101040464815944 0.08706053989766276 -0.08569424736089058 -0.001366292536772243 -0.020033392740381236 0.0 0.0
0.0 0.11288601914361289 0.09735228586747842 -0.0960082239832785 -0.001344061884199817 -0.018564280962813304 0.0 0.0
0.0 0.12197232640435067 0.10530128227128174 -0.10399938482164556 -0.0013018974496360634 -0.013894569666183045 0.0 0.0
0.0 0.12672608935418375 0.10892160897181681 -0.1080100333674462 -0.0009115756043706036 2.0379097714906536e-14 0.0 0.0
0.0 0.12197232640433264 0.10530128227126428 -0.10399938482162743 -0.0013018974496367556 0.013894569666229173 0.0 0.0
0.0 0.11288601914358225 0.09735228586744987 -0.09600822398325064 -0.001344061884199228 0.018564280962856675 0.0 0.0
0.0 0.10104046481589998 0.08706053989762375 -0.08569424736085124 -0.001366292536772536 0.020033392740407708 0.0 0.0
0.0 0.08794363998184732 0.07571203604638031 -0.07435743003641311 -0.0013546060099672078 0.019486052309827903 0.0 0.0
0.0 0.07485227991968146 0.06428262955261327 -0.06296680229711318 -0.0013158272555000236 0.017844160777943697 0.0 0.0
0.0 0.062114827248695 0.05339311306062496 -0.05213382327675098 -0.0012592897838739796 0.015731211076055827 0.0 0.0
0.0 0.05035429364899288 0.04337144085350508 -0.04218366998729001 -0.0011877708662150525 0.013532246862483934 0.0 0.0
0.0 0.04005686840376608 0.03434549461061135 -0.03324048518283574 -0.0011050094277755764 0.0114182815527388 0.0 0.0
0.0 0.030589206820166966 0.02631925339818255 -0.025299753757796188 -0.0010194996403863523 0.00937766843200712 0.0 0.0
0.0 0.022284700082600542 0.019239716935995747 -0.01830208208104648 -0.0009376348549492755 0.00732338932609718 0.0 0.0
0.0 0.015109923072474205 0.013119402240641617 -0.012263424329565512 -0.0008559779110761033 0.005261759288717778 0.0 0.0
0.0 0.009195821338574843 0.00805706071176998 -0.007302736973878337 -0.0007543237378916336 0.003340496520413883 0.0 0.0
0.0 0.004697454384822811 0.004181447249854807 -0.003593052354395965 -0.0005883948954588425 0.0017082227078437564 0.0 0.0
0.0 0.001956254210753257 0.0015869033613939985 -0.0012626941998941496 -0.0003242091614998505 0.0005826525111011481 0.0 0.0
0.0 0.00037752754086589873 0.00029302128942681826 -0.00021493254280913833 -7.808874661767926e-05 7.646721552312633e-05 0.0 0.0
0.0 -1.865407782078061e-05 -8.583653497929592e-06 7.553140043128106e-06 1.0305134548014293e-06 -1.3628033733124103e-05 0.0 0.0
0.0 -1.8283265294065242e-07 1.3884532626278459e-08 -1.1294923175516377e-08 -2.5896094507659373e-09 1.5972414413786833e-08 0.0 0.0
0.0 0.0 0.0 0.0 0.0 0.0 0.0 0.0
0.0 0.0013816967784834849 0.0006569336467284034 -0.00032953442878952286 -0.00032739921793887926 0.0021782196898872406 0.0 0.0
0.0 0.0057214582246677085 0.004049537019024391 -0.005621123959579771 0.0015715869405553704 0.0025482628959336796 0.0 0.0
0.0 0.004127938266186065 0.0028188507211386604 -0.00397538868229763 0.0011565379611589678 -0.001995454281708229 0.0 0.0
0.0 0.0008103283345701825 0.00039387208249444614 -0.00018798702760911175 -0.0002058850548853342 -0.0014425056595065344 0.0 0.0
0.0 0.0 0.0 0.0 0.0 0.0 0.0 0.0
0.0 -4.272143764984289e-07 3.33210507942547e-08 -2.5458601186089914e-08 -7.862449608164822e-09 -6.738499631084139e-08 0.0 0.0
0.0 -1.15506536660849e-05 -9.372087949824316e-06 7.464727564141814e-06 1.9073603856825124e-06 1.3056870056883546e-05 0.0 0.0
0.0 0.00010500908451220614 9.781984659431122e-05 -6.924953362021415e-05 -2.8570312974097162e-05 -3.426020855278365e-05 0.0 0.0
0.0 0.001075005948393268 0.0009502535813583629 -0.0007366468822775511 -0.0002136066990808127 -0.0005177106869311997 0.0 0.0
0.0 0.0036098983865657545 0.0029043926522637487 -0.0024301321619653424 -0.0004742604902984035 -0.001577879244785656 0.0 0.0
0.0 0.006950801612379869 0.006105087822976801 -0.0054339902303108725 -0.0006710975926659272 -0.003342629049665525 0.0 0.0
0.0 0.012077333855199036 0.01033903570844319 -0.009555064765282156 -0.0007839709431610415 -0.005461139942845268 0.0 0.0
0.0 0.018114236807333668 0.015461198173118846 -0.014596779331282667 -0.000864418841836173 -0.007704568814257531 0.0 0.0
0.0 0.02505563162438338 0.021358712454200422 -0.02041867897922029 -0.0009400334749801233 -0.009936669393280955 0.0 0.0
0.0 0.032880217340996006 0.02801592863260529 -0.02699746045294749 -0.001018468179657818 -0.012139569518580116 0.0 0.0
0.0 0.04173639636988003 0.035494470895743466 -0.034400678173406994 -0.0010937927223364648 -0.014403502771174135 0.0 0.0
0.0 0.051450252861170276 0.04384109399042768 -0.042680413829318885 -0.0011606801611087957 -0.01675441624949263 0.0 0.0
0.0 0.06198217245929147 0.05298708149846345 -0.05177203201497336 -0.001215049483490084 -0.019012939061069864 0.0 0.0
0.0 0.07355616741700474 0.06269729103655115 -0.06144243041728915 -0.0012548606192619382 -0.020815915695545896 0.0 0.0
0.0 0.08484861349325538 0.07254854535324491 -0.07127081660440712 -0.0012777287488378363 -0.0215980029940369 0.0 0.0
0.0 0.0952911318595834 0.08181568143391532 -0.08054557889999364 -0.001270102533921732 -0.020311209591019643 0.0 0.0
0.0 0.10397309147095636 0.08941523628281818 -0.08818369933046508 -0.0012315369523530305 -0.015391748343012547 0.0 0.0
0.0 0.10903034231783824 0.09318304925829304 -0.0924625005656196 -0.0007205486926734103 1.998011131543187e-14 0.0 0.0
0.0 0.10397309147094329 0.08941523628280386 -0.0881836993304507 -0.0012315369523532883 0.015391748343058736 0.0 0.0
0.0 0.09529113185955665 0.0818156814338896 -0.08054557889996779 -0.0012701025339218438 0.020311209591064597 0.0 0.0
0.0 0.08484861349321733 0.0725485453532108 -0.07127081660437254 -0.0012777287488381843 0.021598002994064294 0.0 0.0
0.0 0.07355616741696182 0.06269729103651397 -0.06144243041725309 -0.0012548606192608544 0.020815915695550233 0.0 0.0
0.0 0.061982172459242285 0.05298708149842124 -0.05177203201493094 -0.0012150494834902823 0.019012939061061194 0.0 0.0
0.0 0.051450252861120586 0.04384109399038455 -0.04268041382927648 -0.0011606801611080898 0.016754416249482398 0.0 0.0
0.0 0.04173639636983456 0.03549447089570359 -0.034400678173367706 -0.001093792722335911 0.014403502771166513 0.0 0.0
0.0 0.03288021734095017 0.02801592863256625 -0.02699746045290878 -0.0010184681796574456 0.01213956951856816 0.0 0.0
0.0 0.025055631624340883 0.021358712454164125 -0.02041867897918447 -0.0009400334749796583 0.009936669393265438 0.0 0.0
0.0 0.018114236807294428 0.015461198173086168 -0.014596779331250576 -0.0008644188418355931 0.007704568814238246 0.0 0.0
0.0 0.012077333855168348 0.01033903570841703 -0.009555064765256405 -0.0007839709431606155 0.00546113994282922 0.0 0.0
0.0 0.006950801612358714 0.0061050878229581525 -0.00543399023029314 -0.0006710975926650159 0.0033426290496546577 0.0 0.0
0.0 0.003609898386549878 0.002904392652251052 -0.0024301321619538095 -0.00047426049029724183 0.0015778792447782215 0.0 0.0
0.0 0.0010750059483861602 0.0009502535813527987 -0.0007366468822731115 -0.00021360669907968723 0.0005177106869279858 0.0 0.0
0.0 0.00010500908451020286 9.781984659321614e-05 -6.92495336194249e-05 -2.8570312973791156e-05 3.426020855224794e-05 0.0 0.0
0.0 -1.1550653666742231e-05 -9.372087949527287e-06 7.464727563911467e-06 1.9073603856157937e-06 -1.3056870056574704e-05 0.0 0.0
0.0 -4.2721437633147805e-07 3.332105079801532e-08 -2.5458601188893865e-08 -7.862449609118337e-09 6.73849963102543e-08 0.0 0.0
0.0 0.0 0.0 0.0 0.0 0.0 0.0 0.0
0.0 0.000810328334564818 0.00039387208249203217 -0.00018798702760751076 -0.0002058850548845211 0.0014425056594993997 0.0 0.0
0.0 0.004127938266173582 0.0028188507211289147 -0.003975388682284549 0.0011565379611556314 0.0019954542817015373 0.0 0.0
0.0 0.00269003067424096 0.0018541399516200721 -0.0026481005254175845 0.0007939605737975113 -0.001477059397402033 0.0 0.0
0.0 0.0004800240537309303 0.00019713913448401928 -7.635140404403952e-05 -0.0001207877304399791 -0.0008484251580057359 0.0 0.0
0.0 4.5030000765742004e-07 -5.889399966331698e-09 5.402290337682763e-09 4.871096286490315e-10 9.028034844085993e-08 0.0 0.0
0.0 -3.9933846218285653e-07 2.3010864123224606e-08 -1.7665084308602554e-08 -5.345779814626124e-09 -7.114747973550936e-08 0.0 0.0
0.0 -3.015979828176676e-06 -2.5093400553758696e-06 1.987073109475407e-06 5.222669459005062e-07 5.529610089042503e-06 0.0 0.0
0.0 -7.365356342792334e-06 -3.3836169576458487e-06 4.960734438080236e-06 -1.5771174804343536e-06 2.5481767093498804e-05 0.0 0.0
0.0 0.0005634936820456166 0.000448077094811606 -0.00033995931509061167 -0.00010811777972099428 -0.0003549621279805349 0.0 0.0
0.0 0.002141939718521136 0.0018140386385225695 -0.0014739702924603687 -0.00034006834606220093 -0.0013363715093883824 0.0 0.0
0.0 0.005344224304513746 0.00422255884480896 -0.0036672123823652263 -0.0005553464624437306 -0.0029564896962848077 0.0 0.0
0.0 0.008971654086968003 0.007620316938460276 -0.006927533177869493 -0.0006927837605907836 -0.005121382289074485 0.0 0.0
0.0 0.0140122166843336 0.01173366718071793 -0.01095502177010089 -0.0007786454106170382 -0.007419577657986648 0.0 0.0
0.0 0.019630700047475094 0.016448899786906796 -0.015598571933586932 -0.0008503278533198691 -0.009697432943507963 0.0 0.0
0.0 0.02589567903233211 0.021743832927100658 -0.02082209260087957 -0.0009217403262210765 -0.011924120008902181 0.0 0.0
0.0 0.0329236166327943 0.02768723498193079 -0.026696829853284774 -0.0009904051286460395 -0.014189821151360575 0.0 0.0
0.0 0.04073948647409938 0.03435173627832713 -0.033300078234796804 -0.0010516580435302933 -0.016525726543082774 0.0 0.0
0.0 0.04965475225429119 0.04172893007283074 -0.04062740483916326 -0.0011015252336675251 -0.018795988518100604 0.0 0.0
0.0 0.05859446629089279 0.04968821477920225 -0.04854419078548052 -0.0011440239937217627 -0.020652757327146613 0.0 0.0
0.0 0.06838335269706576 0.05796621936836114 -0.05678601876975414 -0.001180200598606933 -0.021615789466621436 0.0 0.0
0.0 0.07791337040868922 0.06615417102802505 -0.06496395314643673 -0.001190217881588336 -0.020740835803915513 0.0 0.0
0.0 0.08608492563703293 0.0734457266461628 -0.0722892364129149 -0.0011564902332478948 -0.016225331711611758 0.0 0.0
0.0 0.09163306429577103 0.07743669215137512 -0.07693277455657184 -0.0005039175948033061 1.9052901617522267e-14 0.0 0.0
0.0 0.08608492563702266 0.0734457266461503 -0.0722892364129023 -0.0011564902332479661 0.01622533171165743 0.0 0.0
0.0 0.07791337040866753 0.06615417102800342 -0.06496395314641426 -0.001190217881589158 0.020740835803961875 0.0 0.0
0.0 0.0683833526970367 0.05796621936833431 -0.05678601876972756 -0.0011802005986067707 0.02161578946664798 0.0 0.0
0.0 0.05859446629085861 0.049688214779172846 -0.04854419078545197 -0.0011440239937208383 0.020652757327150096 0.0 0.0
0.0 0.049654752254251644 0.04172893007279726 -0.040627404839129286 -0.0011015252336680186 0.018795988518091215 0.0 0.0
0.0 0.040739486474061795 0.03435173627829433 -0.03330007823476446 -0.001051658043529842 0.016525726543072484 0.0 0.0
0.0 0.03292361663275813 0.027687234981899456 -0.02669682985325373 -0.0009904051286457134 0.01418982115135229 0.0 0.0
0.0 0.02589567903229604 0.0217438329270701 -0.020822092600849634 -0.0009217403262204708 0.011924120008890638 0.0 0.0
0.0 0.01963070004744306 0.016448899786880185 -0.015598571933560502 -0.0008503278533196942 0.009697432943493803 0.0 0.0
0.0 0.014012216684302099 0.011733667180692211 -0.010955021770075884 -0.0007786454106163284 0.007419577657967208 0.0 0.0
0.0 0.008971654086942013 0.007620316938438781 -0.0069275331778485185 -0.0006927837605902696 0.005121382289058037 0.0 0.0
0.0 0.005344224304495234 0.004222558844794601 -0.003667212382351881 -0.0005553464624427155 0.0029564896962747038 0.0 0.0
0.0 0.0021419397185097246 0.0018140386385134448 -0.0014739702924524336 -0.00034006834606100994 0.001336371509381633 0.0 0.0
0.0 0.0005634936820398588 0.00044807709480768786 -0.0003399593150875981 -0.00010811777972008977 0.0003549621279772904 0.0 0.0
0.0 -7.3653563434131526e-06 -3.38361695757633e-06 4.960734438011443e-06 -1.5771174804352424e-06 -2.548176709306282e-05 0.0 0.0
0.0 -3.015979829019999e-06 -2.5093400553227945e-06 1.987073109434006e-06 5.222669458887903e-07 -5.5296100889244845e-06 0.0 0.0
0.0 -3.9933846203843063e-07 2.3010864114477826e-08 -1.766508430182229e-08 -5.345779812654833e-09 7.114747970917023e-08 0.0 0.0
0.0 4.503000071303827e-07 -5.889399959299267e-09 5.402290331223529e-09 4.871096280759266e-10 -9.028034833325816e-08 0.0 0.0
0.0 0.0004800240537270766 0.00019713913448241342 -7.635140404297378e-05 -0.00012078773043943945 0.0008484251580005153 0.0 0.0
0.0 0.00269003067423179 0.0018541399516129686 -0.002648100525407774 0.0007939605737948085 0.001477059397397312 0.0 0.0
0.0 0.0020191179247518592 0.0010696492983210233 -0.0015431783748448644 0.0004735290765238406 -0.0009632857407002813 0.0 0.0
0.0 0.0001445506317824943 7.049835464967264e-05 -8.823389369373739e-06 -6.167496528029888e-05 -0.0004113846962167518 0.0 0.0
0.0 -1.4021357222342677e-07 3.4907431961550847e-09 -4.319656701415351e-09 8.289135052607486e-10 -2.8153720087959586e-08 0.0 0.0
0.0 -7.398519191745401e-07 2.4508658812307933e-08 -1.8829097268388878e-08 -5.679561543919343e-09 -1.4785923128019126e-07 0.0 0.0
0.0 -1.94064734814729e-06 -1.6112954016744789e-06 1.2731418500690371e-06 3.3815355160544714e-07 5.535844301244456e-06 0.0 0.0
0.0 -2.6409153506923323e-05 -1.6461397996639664e-05 1.338670321614028e-05 3.0746947804993637e-06 3.6820211688903037e-05 0.0 0.0
0.0 0.00018293290848340834 0.00012993958850734152 -9.660961810345749e-05 -3.332997040388403e-05 -0.00016274548373966226 0.0 0.0
0.0 0.0011282749498527046 0.000911694839301547 -0.0007215096120384237 -0.0001901852272631233 -0.0009675809845704086 0.0 0.0
0.0 0.0031819557416582238 0.0025450113015604557 -0.0021433346787379827 -0.0004016766228224706 -0.002341928492743986 0.0 0.0
0.0 0.006458113032073462 0.005000377653641858 -0.004437852493089944 -0.0005625251605519109 -0.0042497224447322285 0.0 0.0
0.0 0.010002561713490003 0.008091635298606603 -0.007425863662116582 -0.0006657716364900119 -0.0064424847407302975 0.0 0.0
0.0 0.014229406746417705 0.011628034635972248 -0.010887037599426112 -0.0007409970365461581 -0.008623194415957243 0.0 0.0
0.0 0.019009674398083563 0.015570307869478701 -0.014762048356895315 -0.0008082595125833659 -0.01074463854424951 0.0 0.0
0.0 0.02429430132799382 0.019987642471756932 -0.019118016365549925 -0.0008696261062069863 -0.012867372526248462 0.0 0.0
0.0 0.03032753377078099 0.024969843269627992 -0.02404476764805354 -0.0009250756215744479 -0.015039594975563068 0.0 0.0
0.0 0.03694371491784152 0.030568758755012276 -0.0295965566839111 -0.0009722020711011478 -0.017166915572060445 0.0 0.0
0.0 0.04438189416875231 0.03672510953223858 -0.03571229224748539 -0.0010128172847531682 -0.018961681232119117 0.0 0.0
0.0 0.05201740444325534 0.043339592706110576 -0.04227912302090745 -0.0010604696852031022 -0.020001791743194348 0.0 0.0
0.0 0.05985654532285731 0.050323276206008946 -0.049224943607023036 -0.0010983325989859425 -0.019683458551832823 0.0 0.0
0.0 0.0678013531662006 0.05725591824068934 -0.056177826545190754 -0.0010780916954986103 -0.01626981459554338 0.0 0.0
0.0 0.07409104924674649 0.061531295822844646 -0.061274331705658616 -0.0002569641171860557 1.6291655524636184e-14 0.0 0.0
0.0 0.06780135316619315 0.05725591824067857 -0.05617782654517999 -0.0010780916954985069 0.01626981459558466 0.0 0.0
0.0 0.05985654532284175 0.05032327620599179 -0.04922494360700577 -0.0010983325989860915 0.01968345855187663 0.0 0.0
0.0 0.05201740444323479 0.043339592706090835 -0.04227912302088837 -0.001060469685202504 0.02000179174321852 0.0 0.0
0.0 0.044381894168726205 0.03672510953221617 -0.03571229224746418 -0.0010128172847519335 0.018961681232120636 0.0 0.0
0.0 0.03694371491781048 0.030568758754986405 -0.02959655668388543 -0.0009722020711009933 0.017166915572049708 0.0 0.0
0.0 0.030327533770752254 0.02496984326960345 -0.024044767648029344 -0.0009250756215740969 0.015039594975552994 0.0 0.0
0.0 0.024294301327966207 0.019987642471733392 -0.019118016365526798 -0.0008696261062066273 0.012867372526240687 0.0 0.0
0.0 0.01900967439805607 0.015570307869456115 -0.014762048356873074 -0.0008082595125830311 0.010744638544238017 0.0 0.0
0.0 0.014229406746394046 0.01162803463595254 -0.01088703759940699 -0.0007409970365455395 0.00862319441594451 0.0 0.0
0.0 0.010002561713465558 0.008091635298587432 -0.007425863662097993 -0.0006657716364894361 0.00644248474071284 0.0 0.0
0.0 0.006458113032053693 0.005000377653626669 -0.004437852493075243 -0.0005625251605514233 0.00424972244471768 0.0 0.0
0.0 0.003181955741645766 0.002545011301550758 -0.0021433346787293026 -0.0004016766228214569 0.0023419284927360183 0.0 0.0
0.0 0.001128274949844818 0.000911694839295634 -0.0007215096120334797 -0.0001901852272621539 0.0009675809845645281 0.0 0.0
0.0 0.000182932908480306 0.00012993958850532648 -9.660961810192143e-05 -3.332997040340504e-05 0.00016274548373699778 0.0 0.0
0.0 -2.6409153506864234e-05 -1.6461397995801165e-05 1.3386703215490427e-05 3.0746947803107722e-06 -3.682021168699437e-05 0.0 0.0
0.0 -1.9406473486001427e-06 -1.6112954017077054e-06 1.2731418500955982e-06 3.381535516120983e-07 -5.535844301298218e-06 0.0 0.0
0.0 -7.398519195415277e-07 2.4508658814311785e-08 -1.882909726890552e-08 -5.679561545406168e-09 1.4785923135050773e-07 0.0 0.0
0.0 -1.4021357223894204e-07 3.490743193610669e-09 -4.319656700004212e-09 8.2891350639379e-10 2.8153720091089247e-08 0.0 0.0
0.0 0.0001445506317797982 7.049835464866864e-05 -8.823389368717478e-06 -6.167496527995112e-05 0.00041138469621301946 0.0 0.0
0.0 0.002019117924743516 0.0010696492983160552 -0.0015431783748377878 0.000473529076521732 0.0009632857406968275 0.0 0.0
0.0 0.0009492763758982382 0.0005440947432927991 -0.0007924851108775141 0.0002483903675847155 -0.000604507249147007 0.0 0.0
0.0 1.0858500131198383e-05 -4.021603600766868e-06 3.310061465204627e-05 -2.907901105127952e-05 -0.0001097345800828748 0.0 0.0
0.0 2.025024268009409e-06 -9.782345468447384e-10 9.274897273922973e-09 -8.296662727077319e-09 4.4355411906472834e-07 0.0 0.0
0.0 1.7511861102621881e-06 -1.1629715722904351e-08 7.150293490461872e-09 4.479422232442335e-09 3.6121932803134345e-07 0.0 0.0
0.0 -3.1899108780954712e-06 -9.806459047671872e-07 7.574357933772643e-07 2.2321011138992214e-07 5.85546590466713e-06 0.0 0.0
0.0 -1.8742600169273747e-05 -5.698939199180514e-06 4.674959603208799e-06 1.0239795959717154e-06 1.7630994273602357e-05 0.0 0.0
0.0 3.0471795564635908e-05 9.77614117420061e-07 1.918467035130757e-07 -1.1694608209331986e-06 -1.6996941824470343e-05 0.0 0.0
0.0 0.000479116328457515 0.0002651405071892787 -0.00020893129167501935 -5.6209215514259525e-05 -0.0004913441846771367 0.0 0.0
0.0 0.0015835806045051033 0.0011204846690394863 -0.0009196066778481856 -0.0002008779911913001 -0.001547298459559466 0.0 0.0
0.0 0.0035995329325410577 0.0026180156133585684 -0.0022543035059081813 -0.00036371210745038965 -0.0030135409603272247 0.0 0.0
0.0 0.0060193914794312055 0.004620987044322708 -0.004130282062436042 -0.0004907049818866636 -0.004818485798910109 0.0 0.0
0.0 0.008999325206292059 0.006953674209549468 -0.006374682490486199 -0.0005789917190632633 -0.006697146283059565 0.0 0.0
0.0 0.012252149457374649 0.009551845105415051 -0.008900574153836155 -0.00065127095157889 -0.008578434847483704 0.0 0.0
0.0 0.015854145290302244 0.012460530170954009 -0.011750673091075893 -0.0007098570798781121 -0.010446038757504047 0.0 0.0
0.0 0.019969871904088474 0.015767251683735266 -0.01500655596598324 -0.0007606957177520413 -0.012315368316147664 0.0 0.0
0.0 0.02469214546951477 0.019565967432276746 -0.018759842348565033 -0.0008061250837117041 -0.014175181134487385 0.0 0.0
0.0 0.02998387837404222 0.02389731011787737 -0.023048459149562165 -0.000848850968315181 -0.015838429446101997 0.0 0.0
0.0 0.03561061354955706 0.02875809876902045 -0.0278608583271526 -0.0008972404418678997 -0.016892286937842112 0.0 0.0
0.0 0.04197588489198669 0.034305707412340326 -0.033342147764085374 -0.0009635596482548961 -0.01694640618283895 0.0 0.0
0.0 0.04947297402723282 0.04069019207901277 -0.039701026708165034 -0.0009891653708477294 -0.015184947034511488 0.0 0.0
0.0 0.05648677964709195 0.04529427844277812 -0.04531739817420734 2.3119731429177743e-05 1.4193507480442236e-14 0.0 0.0
0.0 0.04947297402723218 0.04069019207900709 -0.039701026708159136 -0.0009891653708479558 0.015184947034547234 0.0 0.0
0.0 0.04197588489197753 0.0343057074123286 -0.033342147764073425 -0.0009635596482551192 0.016946406182877162 0.0 0.0
0.0 0.035610613549543244 0.028758098769007583 -0.027860858327139984 -0.0008972404418675659 0.016892286937862315 0.0 0.0
0.0 0.029983878374020247 0.023897310117860206 -0.023048459149545644 -0.0008488509683145735 0.01583842944609768 0.0 0.0
0.0 0.02469214546949169 0.019565967432258254 -0.01875984234854655 -0.0008061250837116826 0.014175181134476016 0.0 0.0
0.0 0.019969871904070055 0.01576725168372 -0.015006555965968258 -0.0007606957177517435 0.012315368316139618 0.0 0.0
0.0 0.015854145290285296 0.012460530170939978 -0.011750673091062239 -0.0007098570798777379 0.010446038757498173 0.0 0.0
0.0 0.012252149457358086 0.00955184510540164 -0.00890057415382319 -0.0006512709515784555 0.008578434847475357 0.0 0.0
0.0 0.008999325206271757 0.0069536742095343915 -0.006374682490471619 -0.0005789917190627717 0.006697146283045653 0.0 0.0
0.0 0.006019391479416397 0.004620987044311375 -0.004130282062425263 -0.0004907049818861085 0.004818485798897832 0.0 0.0
0.0 0.00359953293252865 0.002618015613350104 -0.002254303505900265 -0.00036371210744983964 0.0030135409603163532 0.0 0.0
0.0 0.0015835806044974367 0.0011204846690340067 -0.000919606677843499 -0.00020087799119050643 0.001547298459553511 0.0 0.0
0.0 0.0004791163284529661 0.00026514050718662026 -0.00020893129167286282 -5.6209215513757336e-05 0.0004913441846725936 0.0 0.0
0.0 3.047179556304024e-05 9.776141174827466e-07 1.918467034650517e-07 -1.169460820947764e-06 1.6996941824517526e-05 0.0 0.0
0.0 -1.8742600169876932e-05 -5.698939198985576e-06 4.6749596030516845e-06 1.0239795959338575e-06 -1.763099427249349e-05 0.0 0.0
0.0 -3.1899108787243906e-06 -9.806459047955836e-07 7.574357934007947e-07 2.2321011139480042e-07 -5.855465904753319e-06 0.0 0.0
0.0 1.751186109882542e-06 -1.162971572337093e-08 7.150293491276846e-09 4.479422232094953e-09 -3.6121932794506737e-07 0.0 0.0
0.0 2.025024267636722e-06 -9.782345478302604e-10 9.274897274301504e-09 -8.29666272647085e-09 -4.4355411898067233e-07 0.0 0.0
0.0 1.0858500129123828e-05 -4.0216036011052155e-06 3.3100614652210414e-05 -2.9079011051105093e-05 0.00010973458008133441 0.0 0.0
0.0 0.0009492763758930213 0.0005440947432900484 -0.0007924851108735008 0.0002483903675834518 0.0006045072491447907 0.0 0.0
0.0 0.0003957066663510235 0.0001889343279977969 -0.00027710047728450837 8.816614928671154e-05 -0.00025764256901078693 0.0 0.0
0.0 -3.922766248915487e-05 -2.1633921191236584e-05 3.264603603372078e-05 -1.1012114842484193e-05 2.324732331353714e-05 0.0 0.0
0.0 3.867771414248983e-07 1.0256337463417673e-10 1.5439469589420339e-10 -2.5695807052728173e-10 5.5973819643025506e-08 0.0 0.0
0.0 3.0144588144233106e-07 7.782152910117189e-09 -9.718969873036712e-09 1.9368169629173846e-09 2.682580826643919e-07 0.0 0.0
0.0 -2.4964847489343408e-06 -2.804894379678281e-07 2.1247362774174662e-07 6.801581022608984e-08 4.536438557838233e-06 0.0 0.0
0.0 -1.0023344391123868e-05 -3.1676616114368402e-06 2.574874794398252e-06 5.927868170385614e-07 2.2173669042222423e-05 0.0 0.0
0.0 2.2446192445451063e-05 -2.7209024470866643e-06 2.3778658031936223e-06 3.430366438930728e-07 -1.7273838475554215e-05 0.0 0.0
0.0 0.00012841062020182536 1.2049508338767316e-05 -1.0222427640027427e-05 -1.8270806987399709e-06 -0.00018816751972568866 0.0 0.0
0.0 0.0004785897921755716 0.00016339045724284257 -0.00014309915746931707 -2.0291299773525325e-05 -0.0006966489997802428 0.0 0.0
0.0 0.0012710912032398124 0.0006306018162121607 -0.0005616990748741789 -6.890274133798243e-05 -0.0016249872739076757 0.0 0.0
0.0 0.0026797977592199805 0.001487205734048961 -0.00133647844107292 -0.00015072729297603964 -0.002876392357837459 0.0 0.0
0.0 0.004158260160667822 0.002597486482113074 -0.00236550769793062 -0.00023197878418245607 -0.004308406942593896 0.0 0.0
0.0 0.005957239704720153 0.0038467535019044304 -0.0035393228010051577 -0.0003074307008992698 -0.005792795568534644 0.0 0.0
0.0 0.008006180552552778 0.0052614757447304195 -0.004886445018939258 -0.0003750307257911572 -0.007332502289020565 0.0 0.0
0.0 0.010323899936780567 0.006908699848868322 -0.006471238055827677 -0.0004374617930406405 -0.00893234600250747 0.0 0.0
0.0 0.013051738321593304 0.008893680729293174 -0.008395683510031962 -0.0004979972192612141 -0.01059486010832789 0.0 0.0
0.0 0.01636539570000096 0.011357776100787247 -0.010796989741638584 -0.0005607863591486604 -0.012225283212923497 0.0 0.0
0.0 0.020337527230215383 0.014433625067180001 -0.01380974489868532 -0.000623880168494682 -0.013412969639146873 0.0 0.0
0.0 0.02489884294073722 0.018321177047678286 -0.01762674339971877 -0.0006944336479595336 -0.013559747744157934 0.0 0.0
0.0 0.030844310990445805 0.023686584366725303 -0.0228649397406434 -0.0008216446260818786 -0.012742492706037781 0.0 0.0
0.0 0.03976063306846366 0.028540555138866178 -0.02889565066188599 0.000355095523019783 1.1754486273218845e-14 0.0 0.0
0.0 0.030844310990452595 0.02368658436672513 -0.0228649397406431 -0.0008216446260820447 0.012742492706068198 0.0 0.0
0.0 0.02489884294073568 0.018321177047673845 -0.017626743399714317 -0.0006944336479595377 0.01355974774418816 0.0 0.0
0.0 0.02033752723020583 0.014433625067172579 -0.013809744898677982 -0.0006238801684946019 0.013412969639158286 0.0 0.0
0.0 0.01636539569998662 0.011357776100778738 -0.010796989741630611 -0.0005607863591481323 0.012225283212916997 0.0 0.0
0.0 0.013051738321581624 0.008893680729285243 -0.00839568351002402 -0.0004979972192612211 0.010594860108318517 0.0 0.0
0.0 0.010323899936772634 0.006908699848862304 -0.006471238055821799 -0.0004374617930405062 0.00893234600250176 0.0 0.0
0.0 0.008006180552544475 0.00526147574472545 -0.004886445018934784 -0.0003750307257906719 0.0073325022890146346 0.0 0.0
0.0 0.005957239704710532 0.003846753501898401 -0.0035393228009993625 -0.0003074307008990356 0.005792795568527775 0.0 0.0
0.0 0.004158260160657369 0.002597486482107335 -0.0023655076979249992 -0.00023197878418233507 0.004308406942582078 0.0 0.0
0.0 0.0026797977592108377 0.0014872057340435927 -0.0013364784410681292 -0.00015072729297546197 0.002876392357827968 0.0 0.0
0.0 0.0012710912032350336 0.0006306018162100207 -0.0005616990748721587 -6.890274133786216e-05 0.0016249872739031125 0.0 0.0
0.0 0.0004785897921728879 0.00016339045724162872 -0.0001430991574682399 -2.029129977338847e-05 0.0006966489997764739 0.0 0.0
0.0 0.0001284106202008807 1.2049508338713723e-05 -1.0222427639964272e-05 -1.8270806987495434e-06 0.00018816751972477032 0.0 0.0
0.0 2.2446192444367894e-05 -2.7209024470603318e-06 2.3778658031663584e-06 3.430366438939819e-07 1.727383847529267e-05 0.0 0.0
0.0 -1.002334439214793e-05 -3.167661611365414e-06 2.574874794342594e-06 5.927868170228199e-07 -2.2173669041487765e-05 0.0 0.0
0.0 -2.4964847491783e-06 -2.804894379612902e-07 2.1247362774353248e-07 6.801581021775439e-08 -4.536438557461954e-06 0.0 0.0
0.0 3.0144588082073594e-07 7.782152912210639e-09 -9.718969876195244e-09 1.9368169639854224e-09 -2.682580828356519e-07 0.0 0.0
0.0 3.8677714118271277e-07 1.0256337214555061e-10 1.5439469722815237e-10 -2.56958069377687e-10 -5.597381953901786e-08 0.0 0.0
0.0 -3.922766248949737e-05 -2.163392119100521e-05 3.26460360333948e-05 -1.1012114842389574e-05 -2.32473233131202e-05 0.0 0.0
0.0 0.0003957066663475442 0.00018893432799633442 -0.0002771004772824089 8.816614928607418e-05 0.00025764256900890297 0.0 0.0
0.0 4.722629627999575e-05 2.809754836196656e-05 -4.2663792759448834e-05 1.456624439748225e-05 -4.504451029106464e-05 0.0 0.0
0.0 -7.91480879867383e-06 -4.79212526522155e-06 6.823745237023566e-06 -2.031619971802008e-06 9.27621412396647e-06 0.0 0.0
0.0 3.986365007149463e-06 2.8529948031368566e-08 -7.181345016145102e-09 -2.134860301522886e-08 1.1739408927221079e-06 0.0 0.0
0.0 7.259540916530288e-07 4.977293838835224e-08 -4.6152945424195703e-08 -3.6199929641530753e-09 8.382088139627942e-07 0.0 0.0
0.0 -1.8167568129148633e-06 4.7482877051432985e-08 -4.167829534297339e-08 -5.8045817084596245e-09 3.2824257713321874e-06 0.0 0.0
0.0 -5.238880219973246e-06 -3.8631679380726517e-07 4.0992070571353375e-07 -2.36039119062678e-08 1.4553054468091126e-05 0.0 0.0
0.0 3.0164633844835476e-05 -9.174298881845494e-07 8.980507343950744e-07 1.937915378946388e-08 -2.767267790062197e-05 0.0 0.0
0.0 0.00012292518828473003 -7.426151572118112e-07 7.280604296350326e-07 1.4554727576798808e-08 -0.0002091007675975285 0.0 0.0
0.0 0.0003170088253889631 -9.072738257371304e-08 8.370980311254953e-08 7.01757946116669e-09 -0.00046558998880655365 0.0 0.0
0.0 0.0005172219700767434 8.782784512809545e-08 -4.4733605813678066e-08 -4.3094239314453804e-08 -0.0009227001878525566 0.0 0.0
0.0 0.0009182697272158102 -9.734719914893011e-08 -2.3408190882013799e-07 3.3142910796919684e-07 -0.001623704931127791 0.0 0.0
0.0 0.0013157212191701737 -2.6207568194356787e-06 3.9884071171697455e-06 -1.367650297733816e-06 -0.002707969827852182 0.0 0.0
0.0 0.002069382487949973 -1.016168659906066e-05 1.3005719684067103e-05 -2.8440330850058063e-06 -0.004043605990007876 0.0 0.0
0.0 0.0030418700596190834 -2.3793896045329116e-05 2.7071767280905355e-05 -3.2778712355756296e-06 -0.005518469560207914 0.0 0.0
0.0 0.004177836797302123 -1.0164952237781688e-06 -2.800442693129618e-06 3.8169379169079225e-06 -0.007116807609179387 0.0 0.0
0.0 0.005441752955012239 0.00016518574072665188 -0.0001898895349701197 2.4703794243469682e-05 -0.008849585339183329 0.0 0.0
0.0 0.006894434826667793 0.0006875308031193449 -0.0007551424561677997 6.761165304845361e-05 -0.010665642852093767 0.0 0.0
0.0 0.008482646154809205 0.0017704018491445043 -0.001952895228121276 0.0001824933789767687 -0.012411500356575272 0.0 0.0
0.0 0.010769638637219992 0.0031566110468626393 -0.0035023084653125845 0.00034569741844994766 -0.01370204619226727 0.0 0.0
0.0 0.015799890039984867 0.006630566801057505 -0.006434622279188614 -0.00019594452186888692 -0.013801577683655405 0.0 0.0
0.0 0.027745282080971607 0.012090818559747786 -0.012960632283327717 0.0008698137235799276 9.814198065338786e-15 0.0 0.0
0.0 0.015799890039992034 0.006630566801058054 -0.0064346222791894295 -0.00019594452186861606 0.013801577683676146 0.0 0.0
0.0 0.01076963863721701 0.0031566110468611444 -0.0035023084653106815 0.0003456974184495366 0.013702046192273453 0.0 0.0
0.0 0.008482646154799673 0.0017704018491430861 -0.0019528952281198698 0.0001824933789767833 0.01241150035657162 0.0 0.0
0.0 0.006894434826656897 0.0006875308031200934 -0.000755142456168763 6.761165304867091e-05 0.010665642852082255 0.0 0.0
0.0 0.00544175295500796 0.00016518574072724472 -0.00018988953497042527 2.4703794243181827e-05 0.008849585339175427 0.0 0.0
0.0 0.00417783679729759 -1.016495223578784e-06 -2.8004426928763485e-06 3.816937916454563e-06 0.007116807609173459 0.0 0.0
0.0 0.003041870059612339 -2.3793896043017542e-05 2.707176727848509e-05 -3.277871235466342e-06 0.0055184695601988775 0.0 0.0
0.0 0.0020693824879419705 -1.0161686597735169e-05 1.3005719682598253e-05 -2.8440330848633556e-06 0.004043605989995716 0.0 0.0
0.0 0.0013157212191658735 -2.620756819785361e-06 3.988407117563338e-06 -1.3676502977783158e-06 0.0027079698278458923 0.0 0.0
0.0 0.0009182697272115555 -9.734719891165246e-08 -2.3408190910212542e-07 3.3142910801376433e-07 0.0016237049311195707 0.0 0.0
0.0 0.0005172219700767108 8.782784502487262e-08 -4.473360573956607e-08 -4.3094239285157475e-08 0.0009227001878513892 0.0 0.0
0.0 0.0003170088253876159 -9.072738250194182e-08 8.370980305269458e-08 7.017579449180326e-09 0.0004655899888046912 0.0 0.0
0.0 0.0001229251882834927 -7.426151572183796e-07 7.280604296572715e-07 1.45547275611115e-08 0.00020910076759536405 0.0 0.0
0.0 3.016463384397519e-05 -9.174298882093805e-07 8.980507344203712e-07 1.937915378902533e-08 2.767267790107069e-05 0.0 0.0
0.0 -5.238880220355485e-06 -3.863167938283459e-07 4.0992070573533246e-07 -2.3603911906993495e-08 -1.4553054467465014e-05 0.0 0.0
0.0 -1.8167568129310526e-06 4.748287701441868e-08 -4.16782953099167e-08 -5.804581704498852e-09 -3.282425770423698e-06 0.0 0.0
0.0 7.259540917787863e-07 4.9772938317457233e-08 -4.6152945361137806e-08 -3.619992956320524e-09 -8.382088128405428e-07 0.0 0.0
0.0 3.98636500637412e-06 2.8529948054060377e-08 -7.1813450346201456e-09 -2.1348603019430275e-08 -1.1739408931092053e-06 0.0 0.0
0.0 -7.914808799464252e-06 -4.792125265208877e-06 6.823745237009078e-06 -2.0316199718002165e-06 -9.276214123829259e-06 0.0 0.0
0.0 4.72262962793747e-05 2.8097548362101104e-05 -4.266379275963745e-05 1.4566244397536472e-05 4.5044510291511294e-05 0.0 0.0
0.0 -9.90145518492435e-07 -1.2759636281062276e-06 1.8526795758287012e-06 -5.767159477224866e-07 2.6681478663644665e-06 0.0 0.0
0.0 -7.422639937799881e-08 1.8620648256461217e-07 -2.6007998523255833e-07 7.387350266794826e-08 -1.2426805998595116e-07 0.0 0.0
0.0 1.498699968412701e-07 2.869369336445913e-08 -3.90165418561718e-08 1.032284849171235e-08 -3.138941387336989e-07 0.0 0.0
0.0 1.0638040523557578e-06 1.1869185813686449e-07 -1.0499259987773814e-07 -1.369925825912802e-08 3.7979106135027367e-07 0.0 0.0
0.0 -1.1562620953963232e-06 -4.7668988048098314e-08 3.538585520119533e-08 1.2283132846904311e-08 -3.033624450512341e-07 0.0 0.0
0.0 -5.076422897698407e-06 4.971608502198231e-07 -2.3679093084069198e-07 -2.603699193790924e-07 4.541533249504609e-06 0.0 0.0
0.0 4.190357281158574e-05 2.0526285835458175e-06 -1.4453854142026632e-06 -6.072431693432007e-07 -1.705032537691699e-05 0.0 0.0
0.0 0.0001383034895707219 -1.4876798697561086e-05 1.2777770872606596e-05 2.099027824954445e-06 -0.0001952912468748929 0.0 0.0
0.0 0.0004802118123736549 -0.00016434757332245122 0.00014388239281690098 2.0465180505550104e-05 -0.0007006357649646681 0.0 0.0
0.0 0.0012687785350807084 -0.0006293989260809259 0.0005605976705448368 6.880125553609017e-05 -0.0016241339108263718 0.0 0.0
0.0 0.0026880706156396047 -0.00148485694940931 0.0013348288203001704 0.00015002812910913874 -0.0028718114883902555 0.0 0.0
0.0 0.004183086606774444 -0.002610706061423472 0.00237645969564023 0.00023424636578324087 -0.0043100971457691074 0.0 0.0
0.0 0.006002311582395784 -0.0038858903034049534 0.003574154265614481 0.0003117360377904727 -0.005795522729356661 0.0 0.0
0.0 0.008071329383890812 -0.005321717406256541 0.004944481014767444 0.0003772363914890944 -0.007330820145848956 0.0 0.0
0.0 0.010279023951097482 -0.006890354671028162 0.00646815417219321 0.0004222004988349514 -0.008941845753852715 0.0 0.0
0.0 0.012543197516177409 -0.008445916992053182 0.008009965433002569 0.0004359515590506185 -0.010695312266359135 0.0 0.0
0.0 0.014538655597272118 -0.009690942083604798 0.009280814045811546 0.00041012803779325757 -0.012648552793959733 0.0 0.0
0.0 0.01606680247051293 -0.01018973998422338 0.009863170014811403 0.00032656996941197184 -0.014847818001267445 0.0 0.0
0.0 0.016238661649865406 -0.009417580332839341 0.00926749512880459 0.00015008520403475713 -0.01725181308587653 0.0 0.0
0.0 0.01330993210830339 -0.006802015283194632 0.007010390042981032 -0.00020837475978639373 -0.019024501565584388 0.0 0.0
0.0 0.026611913762773234 -0.003694789866093116 0.001623866791140194 0.00207092307495292 1.3997483727656856e-14 0.0 0.0
0.0 0.013309932108309837 -0.006802015283195788 0.0070103900429824145 -0.00020837475978662234 0.019024501565599098 0.0 0.0
0.0 0.016238661649863224 -0.009417580332836689 0.009267495128801694 0.00015008520403499316 0.017251813085888662 0.0 0.0
0.0 0.016066802470504793 -0.010189739984216994 0.009863170014805734 0.0003265699694112562 0.01484781800127129 0.0 0.0
0.0 0.014538655597256343 -0.009690942083593605 0.009280814045800778 0.00041012803779282784 0.012648552793950267 0.0 0.0
0.0 0.012543197516163526 -0.008445916992042916 0.008009965432992172 0.0004359515590507349 0.010695312266349549 0.0 0.0
0.0 0.01027902395108744 -0.006890354671020189 0.006468154172185819 0.00042220049883437297 0.008941845753843563 0.0 0.0
0.0 0.008071329383874597 -0.005321717406244049 0.004944481014755364 0.0003772363914886837 0.007330820145838414 0.0 0.0
0.0 0.006002311582380155 -0.003885890303393689 0.0035741542656036853 0.00031173603779000383 0.0057955227293453255 0.0 0.0
0.0 0.00418308660675939 -0.0026107060614129424 0.002376459695630399 0.00023424636578254192 0.004310097145756197 0.0 0.0
0.0 0.002688070615625396 -0.0014848569494008 0.0013348288202923984 0.00015002812910840078 0.0028718114883771835 0.0 0.0
0.0 0.0012687785350711355 -0.0006293989260755075 0.0005605976705398562 6.880125553565203e-05 0.0016241339108186417 0.0 0.0
0.0 0.0004802118123703299 -0.00016434757332084058 0.00014388239281548008 2.046518050536042e-05 0.0007006357649611608 0.0 0.0
0.0 0.00013830348956861063 -1.4876798697204976e-05 1.27777708723231e-05 2.0990278248818908e-06 0.00019529124687245734 0.0 0.0
0.0 4.190357281042019e-05 2.052628583400781e-06 -1.4453854140937178e-06 -6.072431693070663e-07 1.70503253770616e-05 0.0 0.0
0.0 -5.076422898627754e-06 4.971608500964939e-07 -2.3679093074034124e-07 -2.603699193561522e-07 -4.541533248575408e-06 0.0 0.0
0.0 -1.1562620954555734e-06 -4.7668988134573985e-08 3.538585527517882e-08 1.2283132859390293e-08 3.033624458147884e-07 0.0 0.0
0.0 1.0638040524961629e-06 1.1869185803382359e-07 -1.0499259979267865e-07 -1.3699258241143976e-08 -3.7979106037571366e-07 0.0 0.0
0.0 1.4986999655412148e-07 2.8693693341144184e-08 -3.901654184971035e-08 1.0322848508561535e-08 3.138941395541544e-07 0.0 0.0
0.0 -7.422639932287664e-08 1.862064825685946e-07 -2.6007998525588594e-07 7.387350268729487e-08 1.242680601022608e-07 0.0 0.0
0.0 -9.901455194047413e-07 -1.2759636281201086e-06 1.8526795758460046e-06 -5.767159477259161e-07 -2.668147866397314e-06 0.0 0.0
0.0 0.0 0.0 0.0 0.0 0.0 0.0 0.0
0.0 1.232771093483972e-06 5.5474446208104574e-09 1.1980533344162103e-08 -1.752797796497842e-08 2.2535387313380753e-07 0.0 0.0
0.0 8.153349924586982e-08 1.2145303105998407e-07 -9.593671805896729e-08 -2.5516313001025534e-08 9.542987242648458e-07 0.0 0.0
0.0 1.4176125525798292e-06 -4.799302393807984e-07 3.890321136189174e-07 9.089812576186934e-08 -3.1971099969228586e-06 0.0 0.0
0.0 1.618666277635032e-06 2.568307591333913e-06 -2.135335303530306e-06 -4.3297228780354874e-07 1.2539149766366424e-05 0.0 0.0
0.0 6.8264322138188024e-06 6.9400883251306325e-06 -5.4796287155744985e-06 -1.4604596095561258e-06 2.1459916323862815e-05 0.0 0.0
0.0 3.885550678973264e-05 -1.5072184543803037e-05 1.1573639124316255e-05 3.498545419486824e-06 -6.820407726965086e-05 0.0 0.0
0.0 0.0004947330527501811 -0.000271812348610666 0.00021475394184189086 5.705840676877483e-05 -0.0005070301206651089 0.0 0.0
0.0 0.0015830149503831899 -0.001119829790785721 0.0009188847009942566 0.00020094508979146507 -0.0015493128291807893 0.0 0.0
0.0 0.003595434056735673 -0.0026159342795410885 0.002252249511870823 0.00036368476767026337 -0.003010075233077916 0.0 0.0
0.0 0.006020692562860285 -0.0046228574188858515 0.004132074075139218 0.0004907833437466372 -0.004817284225813078 0.0 0.0
0.0 0.009014362699783686 -0.006966260509919305 0.006386696897110614 0.0005795636128086896 -0.00669832298983814 0.0 0.0
0.0 0.012289189728969682 -0.009586632186348629 0.008934390075708952 0.000652242110639671 -0.008561989759108664 0.0 0.0
0.0 0.015901114968275506 -0.012514481349407615 0.011805518261537438 0.0007089630878701816 -0.010389325715325274 0.0 0.0
0.0 0.01992430738028942 -0.01574969353251194 0.015000178182185384 0.0007495153503265419 -0.012263818668609913 0.0 0.0
0.0 0.024217338695681875 -0.0191531129237006 0.01838435655822756 0.0007687563654730268 -0.014384167363362938 0.0 0.0
0.0 0.028362433054406055 -0.022376601500993513 0.021610541037264768 0.0007660604637287398 -0.016973828973656603 0.0 0.0
0.0 0.03160666882848718 -0.024876670663603724 0.024132114842074393 0.000744555821529332 -0.02014476534384447 0.0 0.0
0.0 0.03332287943759333 -0.025655930966092592 0.024989158124573117 0.0006667728415194796 -0.023276194268070236 0.0 0.0
0.0 0.030905494601818406 -0.022687027861946596 0.02215655546521276 0.000530472396733819 -0.02391093443378576 0.0 0.0
0.0 0.03274250988458413 -0.018043740192666795 0.015171525065417158 0.0028722151272496227 1.3875185722600492e-14 0.0 0.0
0.0 0.030905494601825893 -0.02268702786194582 0.022156555465212148 0.0005304723967336608 0.02391093443381668 0.0 0.0
0.0 0.033322879437591005 -0.02565593096608554 0.024989158124566334 0.0006667728415191982 0.023276194268099966 0.0 0.0
0.0 0.031606668828469305 -0.024876670663588084 0.024132114842058475 0.0007445558215295942 0.0201447653438538 0.0 0.0
0.0 0.028362433054378675 -0.022376601500971666 0.021610541037242522 0.0007660604637291502 0.0169738289736487 0.0 0.0
0.0 0.02421733869565887 -0.019153112923681652 0.018384356558209223 0.000768756365472439 0.014384167363351207 0.0 0.0
0.0 0.019924307380265238 -0.015749693532492507 0.01500017818216642 0.0007495153503260913 0.012263818668596967 0.0 0.0
0.0 0.01590111496825377 -0.012514481349388786 0.011805518261519028 0.0007089630878697486 0.010389325715315013 0.0 0.0
0.0 0.012289189728944192 -0.00958663218632835 0.008934390075688982 0.0006522421106393649 0.008561989759094751 0.0 0.0
0.0 0.009014362699760135 -0.006966260509901038 0.006386696897093246 0.0005795636128077942 0.00669832298982254 0.0 0.0
0.0 0.006020692562838718 -0.0046228574188693855 0.004132074075123175 0.0004907833437462119 0.00481728422579579 0.0 0.0
0.0 0.00359543405671887 -0.0026159342795284406 0.0022522495118593136 0.00036368476766912626 0.003010075233066046 0.0 0.0
0.0 0.0015830149503735021 -0.001119829790778584 0.0009188847009882368 0.00020094508979034704 0.001549312829173672 0.0 0.0
0.0 0.000494733052745641 -0.00027181234860799834 0.00021475394183980288 5.705840676819512e-05 0.000507030120660544 0.0 0.0
0.0 3.8855506787788045e-05 -1.5072184543561694e-05 1.1573639124125042e-05 3.498545419436644e-06 6.82040772689637e-05 0.0 0.0
0.0 6.826432213374676e-06 6.940088324776663e-06 -5.479628715288252e-06 -1.4604596094885116e-06 -2.1459916322780314e-05 0.0 0.0
0.0 1.6186662767422833e-06 2.5683075911507513e-06 -2.1353353033773925e-06 -4.329722877733508e-07 -1.253914976547765e-05 0.0 0.0
0.0 1.4176125517781955e-06 -4.799302394030795e-07 3.8903211363567295e-07 9.089812576741274e-08 3.197109997139504e-06 0.0 0.0
0.0 8.153349838940159e-08 1.2145303105674435e-07 -9.593671805790405e-08 -2.551631299883565e-08 -9.542987242691777e-07 0.0 0.0
0.0 1.232771093159238e-06 5.547444620029635e-09 1.1980533344858344e-08 -1.7527977964890593e-08 -2.2535387314072985e-07 0.0 0.0
0.0 0.0 0.0 0.0 0.0 0.0 0.0 0.0
0.0 0.0 0.0 0.0 0.0 0.0 0.0 0.0
0.0 -4.597287996738521e-07 -6.853202956288844e-09 2.886835497529438e-09 3.966367458759904e-09 -9.336839224249032e-08 0.0 0.0
0.0 1.472975566193229e-06 8.236392913337536e-08 -5.8286668172981986e-08 -2.4077260960388152e-08 5.660009377981323e-07 0.0 0.0
0.0 1.0647665809177058e-06 8.647261580140295e-07 -7.180031280980085e-07 -1.46723029916021e-07 3.045721941101171e-06 0.0 0.0
0.0 1.039599131982472e-06 2.072098122070001e-06 -1.6403595806959952e-06 -4.3173854137404475e-07 4.42958499430449e-06 0.0 0.0
0.0 -7.884990031846974e-06 -2.1071522322162342e-06 1.477754277363935e-06 6.293979548523458e-07 -1.3081803706610091e-05 0.0 0.0
0.0 0.0002521239974354134 -0.00014605738864249736 0.00011078871570955947 3.526867293293784e-05 -0.00019104280253973054 0.0 0.0
0.0 0.0011433984619261062 -0.0009152350683500466 0.000724979804271419 0.0001902552640786272 -0.0009799233546670587 0.0 0.0
0.0 0.00317794816161207 -0.0025417925260143416 0.0021400671789145345 0.0004017253470998042 -0.002339110693225991 0.0 0.0
0.0 0.006455835479563108 -0.004998874298213246 0.004436235488279801 0.0005626388099334454 -0.004245034973920872 0.0 0.0
0.0 0.01000211617824584 -0.008095286428081903 0.007429654794653819 0.000665631633428075 -0.0064429545499811195 0.0 0.0
0.0 0.014241688826508612 -0.01163808745435753 0.010897175952280881 0.0007409115020766484 -0.00862093112418693 0.0 0.0
0.0 0.019027924864503207 -0.015590382115714573 0.014781930354368922 0.000808451761345664 -0.010705825441352092 0.0 0.0
0.0 0.024303209264058066 -0.02001419480638692 0.019145105227515738 0.0008690895788711626 -0.012740214092743417 0.0 0.0
0.0 0.030254488229797614 -0.024941824423300812 0.02402461917549035 0.0009172052478104982 -0.014876234698227159 0.0 0.0
0.0 0.036566920638950944 -0.030250491127996923 0.029307110386427113 0.0009433807415697745 -0.017414095718364477 0.0 0.0
0.0 0.04318255439817525 -0.03552727457894718 0.03458475640499011 0.0009425181739570816 -0.02078187535733535 0.0 0.0
0.0 0.04874436275223784 -0.03993469167929996 0.03903675433810116 0.0008979373411987576 -0.025040867251351417 0.0 0.0
0.0 0.051675523049638586 -0.041917963727260296 0.041116626093018166 0.0008013376342421037 -0.029022556578311185 0.0 0.0
0.0 0.048505366780771754 -0.038655207739404125 0.03807696473724144 0.0005782430021626726 -0.03026399644026769 0.0 0.0
0.0 0.045788404882923794 -0.032240053450682676 0.028634316725751646 0.0036057367249310492 1.6017569215431848e-14 0.0 0.0
0.0 0.048505366780776375 -0.038655207739400885 0.038076964737238754 0.0005782430021621424 0.030263996440305044 0.0 0.0
0.0 0.051675523049631786 -0.041917963727248854 0.04111662609300696 0.000801337634241852 0.029022556578347156 0.0 0.0
0.0 0.04874436275221303 -0.03993469167927666 0.03903675433807848 0.0008979373411981989 0.025040867251366426 0.0 0.0
0.0 0.04318255439814111 -0.0355272745789182 0.03458475640496112 0.000942518173957111 0.020781875357331805 0.0 0.0
0.0 0.036566920638917776 -0.0302504911279691 0.029307110386399857 0.0009433807415692193 0.01741409571835151 0.0 0.0
0.0 0.030254488229763545 -0.0249418244232724 0.024024619175462454 0.0009172052478099671 0.014876234698213284 0.0 0.0
0.0 0.024303209264026796 -0.020014194806360474 0.01914510522748944 0.0008690895788710219 0.012740214092731326 0.0 0.0
0.0 0.019027924864466455 -0.015590382115684368 0.014781930354338606 0.000808451761345752 0.010705825441336313 0.0 0.0
0.0 0.014241688826475633 -0.011638087454331066 0.010897175952254945 0.0007409115020761193 0.008620931124168263 0.0 0.0
0.0 0.01000211617821514 -0.008095286428057461 0.007429654794629739 0.0006656316334277204 0.006442954549961229 0.0 0.0
0.0 0.006455835479539102 -0.004998874298194139 0.004436235488261621 0.00056263880993252 0.00424503497390529 0.0 0.0
0.0 0.0031779481615969896 -0.002541792526002632 0.002140067178904135 0.0004017253470984925 0.0023391106932169076 0.0 0.0
0.0 0.0011433984619172053 -0.0009152350683433697 0.0007249798042659137 0.00019025526407745724 0.0009799233546603277 0.0 0.0
0.0 0.0002521239974317801 -0.00014605738864045836 0.00011078871570801934 3.526867293243901e-05 0.0001910428025372968 0.0 0.0
0.0 -7.884990032124403e-06 -2.1071522328080223e-06 1.4777542778321596e-06 6.293979549758849e-07 1.30818037079165e-05 0.0 0.0
0.0 1.0395991316030528e-06 2.0720981218512036e-06 -1.640359580517668e-06 -4.3173854133353566e-07 -4.4295849935053754e-06 0.0 0.0
0.0 1.0647665802102305e-06 8.64726157875454e-07 -7.18003127987694e-07 -1.467230298877569e-07 -3.045721940335944e-06 0.0 0.0
0.0 1.4729755655964576e-06 8.236392915564779e-08 -5.828666819296181e-08 -2.4077260962691837e-08 -5.66000937906487e-07 0.0 0.0
0.0 -4.59728799576089e-07 -6.853202954632321e-09 2.8868354967489913e-09 3.9663674578853385e-09 9.336839222251318e-08 0.0 0.0
0.0 0.0 0.0 0.0 0.0 0.0 0.0 0.0
0.0 0.0 0.0 0.0 0.0 0.0 0.0 0.0
0.0 1.5308091780677812e-08 3.0663233307284843e-10 -2.1432744662428963e-10 -9.23048864485231e-11 3.0115191088803258e-09 0.0 0.0
0.0 -3.8987873335745257e-07 -1.5969699273266845e-08 1.2635923068375027e-08 3.3337762048900677e-09 -7.384476671439359e-08 0.0 0.0
0.0 -1.7299642685963632e-06 -1.9610079622320708e-08 2.259432632042945e-08 -2.984246698098476e-09 -2.0125292105809007e-08 0.0 0.0
0.0 -2.5552971766868343e-06 7.652433360091414e-06 -6.192782216153883e-06 -1.459651143937525e-06 1.6348226143358197e-05 0.0 0.0
0.0 6.377955742490329e-05 -2.0616631022604585e-05 1.4415626030869793e-05 6.201004991734729e-06 -1.310238518406682e-05 0.0 0.0
0.0 0.0005849761557465558 -0.0004756516065782836 0.00036432626892261534 0.00011132533765566814 -0.00041158522621629283 0.0 0.0
0.0 0.002148310409572456 -0.0018124834552301302 0.0014727754268077384 0.00033970802842239143 -0.001343717753018534 0.0 0.0
0.0 0.005338197988030735 -0.004218300194158477 0.003662639642738642 0.000555660551419837 -0.0029496993777547763 0.0 0.0
0.0 0.008970360025003975 -0.007620673296101535 0.006927779197431538 0.000692894098670002 -0.005117242368242614 0.0 0.0
0.0 0.014018998167237963 -0.01173863895798477 0.010960337494336874 0.0007783014636478939 -0.007420518175734158 0.0 0.0
0.0 0.019636733473973822 -0.01645387914429325 0.015604337818198527 0.0008495413260947212 -0.009691125209444729 0.0 0.0
0.0 0.0258869911615652 -0.02174030512961103 0.02081936058669716 0.0009209445429138837 -0.011867500083136836 0.0 0.0
0.0 0.03287905931987079 -0.027667721747843627 0.026677190687591782 0.0009905310602518124 -0.014008645345209039 0.0 0.0
0.0 0.04063662522761499 -0.034303183465415034 0.0332533991607641 0.0010497843046508894 -0.016261999361801973 0.0 0.0
0.0 0.04941997909873716 -0.04154727036790862 0.04046289090324151 0.001084379464667152 -0.019009402713029706 0.0 0.0
0.0 0.05784770311681612 -0.048899349101755904 0.047821998087078835 0.001077351014676957 -0.02277675617974121 0.0 0.0
0.0 0.06575050748503804 -0.05515101165776351 0.05414235830730346 0.0010086533504600924 -0.027626587565094392 0.0 0.0
0.0 0.070002031431041 -0.058117936301827114 0.057258253153900054 0.0008596831479270582 -0.032417629646377386 0.0 0.0
0.0 0.06600192343754177 -0.05415797754394626 0.053581054834886364 0.0005769227090598828 -0.03443991485034053 0.0 0.0
0.0 0.0600561619810261 -0.046134314767458426 0.04190399024825864 0.00423032451919973 1.779913022526003e-14 0.0 0.0
0.0 0.06600192343754009 -0.054157977543938494 0.05358105483487852 0.0005769227090599706 0.03443991485037993 0.0 0.0
0.0 0.07000203143102837 -0.058117936301810516 0.05725825315388437 0.0008596831479261291 0.032417629646417714 0.0 0.0
0.0 0.06575050748501032 -0.055151011657737344 0.05414235830727771 0.0010086533504595544 0.027626587565116073 0.0 0.0
0.0 0.05784770311677561 -0.04889934910172113 0.047821998087043724 0.0010773510146774121 0.02277675617973985 0.0 0.0
0.0 0.04941997909869357 -0.04154727036787148 0.04046289090320462 0.0010843794646668344 0.01900940271301791 0.0 0.0
0.0 0.0406366252275725 -0.034303183465378764 0.03325339916072823 0.00104978430465054 0.01626199936178818 0.0 0.0
0.0 0.032879059319827084 -0.027667721747806108 0.026677190687554638 0.0009905310602514642 0.01400864534519509 0.0 0.0
0.0 0.02588699116151954 -0.021740305129572684 0.020819360586658685 0.0009209445429139933 0.011867500083121013 0.0 0.0
0.0 0.0196367334739322 -0.016453879144258384 0.015604337818164182 0.0008495413260941949 0.00969112520942524 0.0 0.0
0.0 0.014018998167201218 -0.011738638957954243 0.010960337494306624 0.000778301463647637 0.007420518175713148 0.0 0.0
0.0 0.008970360024975343 -0.007620673296077372 0.006927779197408219 0.0006928940986691565 0.0051172423682257304 0.0 0.0
0.0 0.005338197988010412 -0.004218300194142658 0.0036626396427238417 0.0005556605514188223 0.002949699377744154 0.0 0.0
0.0 0.0021483104095590716 -0.0018124834552195519 0.001472775426798668 0.00033970802842088287 0.001343717753010928 0.0 0.0
0.0 0.0005849761557404794 -0.00047565160657410106 0.0003643262689193434 0.00011132533765475749 0.0004115852262130411 0.0 0.0
0.0 6.377955742324575e-05 -2.0616631022168295e-05 1.4415626030529127e-05 6.201004991639149e-06 1.31023851836398e-05 0.0 0.0
0.0 -2.5552971773518665e-06 7.652433359687718e-06 -6.192782215831138e-06 -1.4596511438565613e-06 -1.6348226142580766e-05 0.0 0.0
0.0 -1.7299642692466054e-06 -1.9610079644973963e-08 2.2594326338144666e-08 -2.984246693154274e-09 2.0125292180516178e-08 0.0 0.0
0.0 -3.8987873333234397e-07 -1.596969927340737e-08 1.2635923067850714e-08 3.333776205556918e-09 7.384476670689387e-08 0.0 0.0
0.0 1.5308091766584117e-08 3.0663233278746693e-10 -2.1432744642515877e-10 -9.23048863622756e-11 -3.0115191060776662e-09 0.0 0.0
0.0 0.0 0.0 0.0 0.0 0.0 0.0 0.0
0.0 0.0 0.0 0.0 0.0 0.0 0.0 0.0
0.0 0.0 0.0 0.0 0.0 0.0 0.0 0.0
0.0 -3.008317283811859e-07 -1.6894082401111415e-08 1.3667650964936457e-08 3.226431436173586e-09 -5.3084951058647605e-08 0.0 0.0
0.0 4.450916172989384e-08 5.276450228384877e-07 -4.242353799583454e-07 -1.0340964288011732e-07 1.2119464299756155e-06 0.0 0.0
0.0 -1.3846774652973227e-05 2.7422386199670255e-06 -2.54023287572408e-06 -2.0200574424295564e-07 5.929413303684178e-06 0.0 0.0
0.0 0.000199144883006254 -0.00012106048785571199 8.898635160717703e-05 3.2074136248535015e-05 -6.681478449341439e-05 0.0 0.0
0.0 0.0011161689585776945 -0.0009622223941062734 0.000749412934314542 0.0002128094597917307 -0.0005496238055410175 0.0 0.0
0.0 0.0036089342991209804 -0.0028993206648746115 0.002425109192457038 0.00047421147241757423 -0.0015789846233293463 0.0 0.0
0.0 0.006946820008002526 -0.0061017746787809385 0.005430338735713665 0.0006714359430672705 -0.0033344420214646044 0.0 0.0
0.0 0.012079282999645412 -0.010341636180337541 0.009557624819812115 0.000784011360525433 -0.005458246996716479 0.0 0.0
0.0 0.018120670118493405 -0.015466646117236183 0.014602742530858463 0.00086390358637771 -0.007705152541691916 0.0 0.0
0.0 0.02505305482937951 -0.02135645996496451 0.020417893886912532 0.000938566078051979 -0.00992522323739246 0.0 0.0
0.0 0.03283985281355422 -0.027984346991542813 0.026967952395895195 0.0010163945956476019 -0.012071765641509899 0.0 0.0
0.0 0.04163161613221114 -0.03541945276601248 0.034325331546434294 0.0010941212195782215 -0.014205742119652628 0.0 0.0
0.0 0.05131128583731862 -0.04375694812735836 0.04259159528272471 0.001165352844633614 -0.016451387145677277 0.0 0.0
0.0 0.06187106009466245 -0.052919442724751416 0.05170993093028178 0.0012095117944696545 -0.01910696081454192 0.0 0.0
0.0 0.0731923128546776 -0.062295760712511875 0.06110125931520194 0.0011945013973099065 -0.02273709073607896 0.0 0.0
0.0 0.08277304100744738 -0.07033139705596568 0.06923783148386911 0.0010935655720964795 -0.027688716172093883 0.0 0.0
0.0 0.08760733014607852 -0.07416587491728024 0.07327394025423994 0.000891934663040249 -0.03314254939966568 0.0 0.0
0.0 0.08313199981029293 -0.06949658655452211 0.06892609266624139 0.0005704938882807112 -0.03705470619286002 0.0 0.0
0.0 0.07543534193553458 -0.060058729102203855 0.05527199641258411 0.004786732689619731 1.787545805820301e-14 0.0 0.0
0.0 0.08313199981028482 -0.06949658655450931 0.0689260926662286 0.0005704938882807526 0.03705470619289996 0.0 0.0
0.0 0.08760733014606159 -0.07416587491726082 0.0732739402542212 0.000891934663039614 0.03314254939970791 0.0 0.0
0.0 0.08277304100741138 -0.07033139705593303 0.06923783148383625 0.001093565572096721 0.027688716172115577 0.0 0.0
0.0 0.07319231285462971 -0.06229576071247045 0.06110125931516022 0.0011945013973101342 0.022737090736079196 0.0 0.0
0.0 0.061871060094608805 -0.05291944272470529 0.051709930930235994 0.0012095117944693637 0.019106960814531865 0.0 0.0
0.0 0.05131128583726808 -0.043756948127314794 0.04259159528268181 0.0011653528446330349 0.01645138714566584 0.0 0.0
0.0 0.041631616132159 -0.03541945276596708 0.034325331546389844 0.0010941212195772151 0.014205742119638876 0.0 0.0
0.0 0.03283985281350239 -0.02798434699149844 0.026967952395850675 0.0010163945956477359 0.0120717656414958 0.0 0.0
0.0 0.02505305482933134 -0.021356459964923778 0.0204178938868721 0.0009385660780516698 0.009925223237374178 0.0 0.0
0.0 0.018120670118450064 -0.015466646117199775 0.014602742530822336 0.0008639035863774267 0.007705152541671213 0.0 0.0
0.0 0.012079282999610735 -0.010341636180308231 0.009557624819783367 0.0007840113605248642 0.005458246996699965 0.0 0.0
0.0 0.006946820007978623 -0.006101774678759502 0.005430338735693173 0.0006714359430663281 0.003334442021452922 0.0 0.0
0.0 0.003608934299104388 -0.002899320664861371 0.0024251091924451804 0.00047421147241619144 0.0015789846233221147 0.0 0.0
0.0 0.0011161689585693667 -0.00096222239409969 0.0007494129343092788 0.00021280945979041213 0.0005496238055369084 0.0 0.0
0.0 0.00019914488300282212 -0.00012106048785385135 8.898635160578842e-05 3.2074136248062804e-05 6.681478449224241e-05 0.0 0.0
0.0 -1.384677465294631e-05 2.742238619249989e-06 -2.540232875154921e-06 -2.0200574409510021e-07 -5.929413302492679e-06 0.0 0.0
0.0 4.4509160928119666e-08 5.276450228703553e-07 -4.2423537998504115e-07 -1.0340964288530958e-07 -1.211946430011744e-06 0.0 0.0
0.0 -3.0083172820327663e-07 -1.6894082390560128e-08 1.3667650956397697e-08 3.226431434162971e-09 5.3084951026648725e-08 0.0 0.0
0.0 0.0 0.0 0.0 0.0 0.0 0.0 0.0
0.0 0.0 0.0 0.0 0.0 0.0 0.0 0.0
0.0 0.0 0.0 0.0 0.0 0.0 0.0 0.0
0.0 0.0 0.0 0.0 0.0 0.0 0.0 0.0
0.0 -1.680433764396781e-07 -1.0793184899027673e-08 8.54508648894806e-09 2.2480984100807976e-09 -2.827633481288059e-08 0.0 0.0
0.0 -1.4994781138431892e-06 1.9963405653329188e-07 -1.5826431588346746e-07 -4.13697406498533e-08 5.098601754299803e-07 0.0 0.0
0.0 7.55350586866262e-06 7.138347210737904e-06 -6.870713901267809e-06 -2.6763330947002727e-07 1.5980355802894925e-05 0.0 0.0
0.0 0.00035544347038989126 -0.0003442987907742189 0.0002575812743650125 8.671751640920638e-05 -0.00015123381475675224 0.0 0.0
0.0 0.0019856862497168695 -0.0015869892438845434 0.00126511583750693 0.0003218734063776132 -0.0006049583716208583 0.0 0.0
0.0 0.004692552533085031 -0.0041764990457086116 0.003588052541118024 0.0005884465045905855 -0.0017041325993088152 0.0 0.0
0.0 0.009195350582197611 -0.008056721510646875 0.007302086155771369 0.0007546353548755103 -0.0033332433866671927 0.0 0.0
0.0 0.015114948487617108 -0.013123957264716822 0.012268000909439396 0.0008559563552774357 -0.005260509338073931 0.0 0.0
0.0 0.02229003652097367 -0.01924401098450774 0.01830708425589 0.0009369267286177261 -0.00732328432343933 0.0 0.0
0.0 0.030575968685573156 -0.026307746737730335 0.02529027052267751 0.0010174762150528135 -0.009360714640605575 0.0 0.0
0.0 0.039986782382980104 -0.03428722781756945 0.033185332191033125 0.0011018956265362973 -0.011347313132043785 0.0 0.0
0.0 0.05019661310924765 -0.04324474620642726 0.04205744117866917 0.0011873050277581055 -0.013359651055899615 0.0 0.0
0.0 0.06192428290551279 -0.05325158122779927 0.05198488863923057 0.0012666925885687298 -0.015467897617480084 0.0 0.0
0.0 0.07476642646471565 -0.06424027824861371 0.06291918442211693 0.0013210938264966968 -0.017782254798805224 0.0 0.0
0.0 0.08779288127801799 -0.07555776308648424 0.07425164967855263 0.0013061134079315531 -0.020757080435325235 0.0 0.0
0.0 0.09933145032196188 -0.08532913777392434 0.08415524113339891 0.0011738966405254853 -0.0252075640452932 0.0 0.0
0.0 0.1053822607381543 -0.0901015373695511 0.08918247179412614 0.0009190655754248689 -0.03135619664312416 0.0 0.0
0.0 0.1003560586694732 -0.08497198338411915 0.08441806517342161 0.0005539182106975096 -0.0384615997329551 0.0 0.0
0.0 0.09115274586851403 -0.07435006760471177 0.06906746964973345 0.005282597954978386 1.7590096046404824e-14 0.0 0.0
0.0 0.10035605866946112 -0.08497198338410379 0.08441806517340633 0.0005539182106974109 0.038461599732994095 0.0 0.0
0.0 0.10538226073812854 -0.09010153736952546 0.08918247179410052 0.0009190655754247651 0.031356196643162394 0.0 0.0
0.0 0.09933145032191787 -0.08532913777388526 0.08415524113335991 0.0011738966405253392 0.025207564045313394 0.0 0.0
0.0 0.08779288127796327 -0.07555776308643658 0.0742516496785052 0.001306113407931404 0.020757080435327716 0.0 0.0
0.0 0.07476642646465347 -0.06424027824855982 0.06291918442206328 0.0013210938264965114 0.017782254798798545 0.0 0.0
0.0 0.06192428290545286 -0.05325158122774742 0.05198488863917935 0.0012666925885680429 0.015467897617471032 0.0 0.0
0.0 0.050196613109186626 -0.043244746206374474 0.04205744117861713 0.0011873050277573431 0.013359651055887892 0.0 0.0
0.0 0.03998678238291744 -0.03428722781751519 0.03318533219097885 0.001101895626536409 0.011347313132030048 0.0 0.0
0.0 0.03057596868551876 -0.026307746737683477 0.02529027052263133 0.001017476215052122 0.009360714640589515 0.0 0.0
0.0 0.02229003652092315 -0.019244010984464505 0.01830708425584708 0.0009369267286174342 0.007323284323420222 0.0 0.0
0.0 0.015114948487577256 -0.01312395726468229 0.012268000909405483 0.0008559563552767945 0.00526050933805864 0.0 0.0
0.0 0.009195350582168227 -0.008056721510621005 0.007302086155746326 0.0007546353548746795 0.0033332433866562487 0.0 0.0
0.0 0.0046925525330655995 -0.004176499045691625 0.0035880525411022654 0.0005884465045893583 0.001704132599301386 0.0 0.0
0.0 0.0019856862497057595 -0.001586989243875868 0.0012651158374996755 0.00032187340637619065 0.0006049583716170168 0.0 0.0
0.0 0.0003554434703858167 -0.00034429879077142316 0.000257581274362892 8.671751640853077e-05 0.00015123381475573908 0.0 0.0
0.0 7.553505868104841e-06 7.138347210276204e-06 -6.870713900892275e-06 -2.6763330938378365e-07 -1.5980355802217322e-05 0.0 0.0
0.0 -1.4994781141067973e-06 1.9963405658106237e-07 -1.5826431592292943e-07 -4.136974065813187e-08 -5.098601755155851e-07 0.0 0.0
0.0 -1.6804337643450485e-07 -1.0793184898566844e-08 8.545086488621468e-09 2.248098409945835e-09 2.8276334812116163e-08 0.0 0.0
0.0 0.0 0.0 0.0 0.0 0.0 0.0 0.0
0.0 0.0 0.0 0.0 0.0 0.0 0.0 0.0
0.0 0.0 0.0 0.0 0.0 0.0 0.0 0.0
0.0 0.0 0.0 0.0 0.0 0.0 0.0 0.0
0.0 0.0 0.0 0.0 0.0 0.0 0.0 0.0
0.0 -2.2456999502622494e-06 1.0972762322324566e-06 -8.772783338170778e-07 -2.1999789841537078e-07 1.4970654707674895e-06 0.0 0.0
0.0 5.119622907273503e-05 -2.447881707640537e-05 1.5668138017040572e-05 8.810679059365083e-06 3.654504653733829e-06 0.0 0.0
0.0 0.0007453763345510456 -0.0006226326489646225 0.0004705156022608947 0.00015211704670372764 -0.00013494771567855576 0.0 0.0
0.0 0.0027212617061040476 -0.00238086693107954 0.00194751963636827 0.00043334729471126754 -0.0006002583826158199 0.0 0.0
0.0 0.006153345776268528 -0.005528909598946552 0.00485538695243047 0.0006735226465160887 -0.0015897336155182972 0.0 0.0
0.0 0.011377563266926145 -0.010058891982100238 0.009238569927450833 0.0008203220546493923 -0.002933571934734793 0.0 0.0
0.0 0.018231268447787784 -0.015933701218159166 0.015016714293688766 0.0009169869244704091 -0.004553888904644301 0.0 0.0
0.0 0.02647228429119378 -0.023041186868706466 0.02203900937491235 0.0010021774937941028 -0.006293909574732669 0.0 0.0
0.0 0.036112884863605754 -0.03128091050893496 0.03019111630984101 0.0010897941990939493 -0.008016448706194784 0.0 0.0
0.0 0.04681305503987106 -0.04062733450258085 0.0394457372022215 0.001181597300359361 -0.009708552099859179 0.0 0.0
0.0 0.05918812986047007 -0.05110718881052743 0.04983598892783345 0.001271199882693922 -0.011460990932790693 0.0 0.0
0.0 0.07256656665463523 -0.06275259109434245 0.06139853680613738 0.0013540542882050943 -0.013319176263730846 0.0 0.0
0.0 0.087053801485797 -0.07543648075929556 0.07401868891249502 0.0014177918468006381 -0.0151798659407116 0.0 0.0
0.0 0.10224835894854888 -0.08850025351720472 0.08708303205998025 0.0014172214572244855 -0.01710468631134699 0.0 0.0
0.0 0.11566285624395403 -0.09998950484078313 0.09871935254378819 0.0012701522969949417 -0.020258536593900225 0.0 0.0
0.0 0.12303035489968273 -0.10599994773005444 0.1050440129746623 0.0009559347553921343 -0.026971713455769816 0.0 0.0
0.0 0.11817879804823117 -0.10088171888492409 0.10036337212230557 0.0005183467626187039 -0.038433282766893936 0.0 0.0
0.0 0.10823993454151858 -0.08935504446180856 0.08364437832703993 0.005710666134768615 1.495678580987203e-14 0.0 0.0
0.0 0.11817879804821627 -0.10088171888490728 0.10036337212228912 0.0005183467626181734 0.03843328276692792 0.0 0.0
0.0 0.12303035489964632 -0.10599994773002082 0.10504401297462872 0.0009559347553921076 0.026971713455803778 0.0 0.0
0.0 0.11566285624390091 -0.0999895048407368 0.09871935254374191 0.0012701522969948338 0.0202585365939179 0.0 0.0
0.0 0.10224835894848697 -0.08850025351715093 0.08708303205992693 0.0014172214572239846 0.01710468631134908 0.0 0.0
0.0 0.0870538014857275 -0.07543648075923524 0.07401868891243495 0.0014177918468002645 0.015179865940707676 0.0 0.0
0.0 0.07256656665456468 -0.06275259109428125 0.061398536806076945 0.0013540542882043219 0.013319176263724182 0.0 0.0
0.0 0.05918812986040073 -0.051107188810467344 0.04983598892777398 0.0012711998826933294 0.011460990932780748 0.0 0.0
0.0 0.04681305503980115 -0.040627334502520464 0.03944573720216136 0.001181597300359156 0.009708552099848812 0.0 0.0
0.0 0.036112884863540536 -0.03128091050887814 0.030191116309784747 0.001089794199093416 0.008016448706181333 0.0 0.0
0.0 0.026472284291134907 -0.023041186868655573 0.02203900937486171 0.0010021774937938608 0.0062939095747161075 0.0 0.0
0.0 0.018231268447742307 -0.01593370121811971 0.015016714293649883 0.0009169869244698158 0.004553888904631017 0.0 0.0
0.0 0.011377563266891953 -0.010058891982070111 0.009238569927421336 0.0008203220546487774 0.00293357193472543 0.0 0.0
0.0 0.006153345776245287 -0.005528909598925488 0.004855386952410544 0.0006735226465149458 0.0015897336155112295 0.0 0.0
0.0 0.0027212617060894916 -0.002380866931067116 0.001947519636357363 0.0004333472947097521 0.0006002583826117635 0.0 0.0
0.0 0.0007453763345453943 -0.0006226326489604254 0.00047051560225766536 0.00015211704670275915 0.00013494771567756737 0.0 0.0
0.0 5.119622907163031e-05 -2.447881707616409e-05 1.5668138016896814e-05 8.810679059267213e-06 -3.654504653431985e-06 0.0 0.0
0.0 -2.245699950387731e-06 1.0972762318946933e-06 -8.772783335654607e-07 -2.1999789832922703e-07 -1.4970654705517976e-06 0.0 0.0
0.0 0.0 0.0 0.0 0.0 0.0 0.0 0.0
0.0 0.0 0.0 0.0 0.0 0.0 0.0 0.0
0.0 0.0 0.0 0.0 0.0 0.0 0.0 0.0
0.0 0.0 0.0 0.0 0.0 0.0 0.0 0.0
0.0 0.0 0.0 0.0 0.0 0.0 0.0 0.0
0.0 0.0 0.0 0.0 0.0 0.0 0.0 0.0
0.0 -2.350156097432633e-06 2.7102469182612627e-06 -2.1639757113272627e-06 -5.462712069340162e-07 2.223889152086593e-06 0.0 0.0
0.0 0.00011357682330366293 -0.00011276770454921689 7.913028788966971e-05 3.363741665954713e-05 2.593547377443447e-06 0.0 0.0
0.0 0.0012571620172713513 -0.0010234809213188608 0.0007884163379786719 0.000235064583340188 -7.153643529205881e-05 0.0 0.0
0.0 0.003499288496479457 -0.0032802335324451704 0.0027511315814441988 0.0005291019510009745 -0.00048193476025504023 0.0 0.0
0.0 0.007699281862963107 -0.0069246434564880196 0.006182634344173229 0.000742009112314797 -0.0011830173614923662 0.0 0.0
0.0 0.013597535068898752 -0.012080908774522689 0.011206475202704121 0.0008744335718185606 -0.0021632395691320947 0.0 0.0
0.0 0.02134551627671639 -0.01874527768581606 0.017774416666238718 0.0009708610195773449 -0.0033490944872584393 0.0 0.0
0.0 0.030744736428136653 -0.02683127698999525 0.025769118851206797 0.0010621581387884398 -0.004628898860711743 0.0 0.0
0.0 0.04157662247233815 -0.036250351228699296 0.035093392141702096 0.001156959086997185 -0.005898826896196123 0.0 0.0
0.0 0.05414925006457111 -0.04696594289541262 0.045711020118227426 0.0012549227771851738 -0.007161995818608171 0.0 0.0
0.0 0.06777171338408819 -0.05898741541065173 0.05763752333065422 0.0013498920799974638 -0.008520324476934233 0.0 0.0
0.0 0.08309833585973886 -0.07224065129292494 0.07080821251051074 0.0014324387824142214 -0.009976816463265679 0.0 0.0
0.0 0.09953952619291223 -0.08646493788468998 0.08497302798713745 0.001491909897552449 -0.011320146939429699 0.0 0.0
0.0 0.11632081033886334 -0.100986969720281 0.09947592951088721 0.0015110402093938093 -0.012251831630264644 0.0 0.0
0.0 0.13146896569206476 -0.11409020909447042 0.11267368915193562 0.0014165199425347779 -0.013516388023539444 0.0 0.0
0.0 0.14068474892599037 -0.12182978563956662 0.12078923968295563 0.0010405459566109564 -0.019250213191288272 0.0 0.0
0.0 0.13684286551781014 -0.11756275775497206 0.11712345576208576 0.0004393019928861448 -0.036004497301125406 0.0 0.0
0.0 0.12680572321039413 -0.10557070638099893 0.09953030838025032 0.006040398000748501 1.0835082830951137e-14 0.0 0.0
0.0 0.13684286551779276 -0.11756275775495421 0.11712345576206887 0.00043930199288536856 0.03600449730115255 0.0 0.0
0.0 0.14068474892594815 -0.12182978563952875 0.12078923968291828 0.0010405459566105355 0.01925021319131501 0.0 0.0
0.0 0.13146896569200314 -0.11409020909441697 0.11267368915188249 0.0014165199425344637 0.01351638802355195 0.0 0.0
0.0 0.11632081033879099 -0.1009869697202182 0.09947592951082491 0.0015110402093933722 0.012251831630266493 0.0 0.0
0.0 0.09953952619283848 -0.08646493788462555 0.08497302798707448 0.0014919098975510814 0.011320146939427978 0.0 0.0
0.0 0.08309833585965952 -0.07224065129285603 0.07080821251044267 0.0014324387824133891 0.00997681646326167 0.0 0.0
0.0 0.06777171338400828 -0.058987415410582555 0.057637523330585735 0.0013498920799968725 0.008520324476926544 0.0 0.0
0.0 0.05414925006449421 -0.04696594289534581 0.045711020118161125 0.0012549227771846553 0.007161995818601256 0.0 0.0
0.0 0.041576622472264416 -0.036250351228635506 0.035093392141639035 0.0011569590869964363 0.005898826896186324 0.0 0.0
0.0 0.030744736428071236 -0.02683127698993798 0.025769118851149887 0.0010621581387881137 0.004628898860699113 0.0 0.0
0.0 0.021345516276664884 -0.018745277685770643 0.017774416666193886 0.0009708610195767528 0.0033490944872482543 0.0 0.0
0.0 0.013597535068860613 -0.012080908774488634 0.011206475202670926 0.000874433571817717 0.0021632395691251988 0.0 0.0
0.0 0.00769928186293586 -0.006924643456463459 0.0061826343441496664 0.0007420091123137874 0.0011830173614869072 0.0 0.0
0.0 0.0034992884964629677 -0.003280233532429933 0.0027511315814304307 0.0005291019509995061 0.0004819347602517343 0.0 0.0
0.0 0.0012571620172640396 -0.0010234809213127483 0.0007884163379738047 0.00023506458333894328 7.153643529134813e-05 0.0 0.0
0.0 0.00011357682330180149 -0.00011276770454840535 7.913028788910979e-05 3.3637416659295434e-05 -2.5935473771366553e-06 0.0 0.0
0.0 -2.350156097605777e-06 2.710246918077865e-06 -2.1639757111913715e-06 -5.462712068865133e-07 -2.2238891520761055e-06 0.0 0.0
0.0 0.0 0.0 0.0 0.0 0.0 0.0 0.0
0.0 0.0 0.0 0.0 0.0 0.0 0.0 0.0
0.0 0.0 0.0 0.0 0.0 0.0 0.0 0.0
0.0 0.0 0.0 0.0 0.0 0.0 0.0 0.0
0.0 0.0 0.0 0.0 0.0 0.0 0.0 0.0
0.0 0.0 0.0 0.0 0.0 0.0 0.0 0.0
0.0 -4.940369300337498e-06 3.7324764266085547e-06 -3.200180600729261e-06 -5.322958258792875e-07 2.9002661924301714e-06 0.0 0.0
0.0 0.0003153907893110293 -0.00023935105497590372 0.00017069395428365392 6.865710069224991e-05 4.601065742811799e-05 0.0 0.0
0.0 0.001751145964628753 -0.0015442138712068244 0.0012177505182045035 0.00032646335300232077 5.1837817104202136e-05 0.0 0.0
0.0 0.004579137235086021 -0.004216327005993137 0.0036129682330384868 0.0006033587729546492 -0.00016207003384950027 0.0 0.0
0.0 0.009262268443875288 -0.008341193750808662 0.007544271633233227 0.0007969221175754295 -0.0005228432382395446 0.0 0.0
0.0 0.015896948174283613 -0.014096599640817732 0.013176332794666781 0.0009202668461509526 -0.0010287330986701497 0.0 0.0
0.0 0.024459240933700954 -0.02153295383197214 0.020512810358529424 0.0010201434734427085 -0.0016533973137218298 0.0 0.0
0.0 0.03493602806907465 -0.030590552458504592 0.02947268361053382 0.0011178688479707931 -0.002328424084552903 0.0 0.0
0.0 0.04732956043209146 -0.04118945557066374 0.03997029123842475 0.0012191643322389766 -0.003008157683341808 0.0 0.0
0.0 0.06100400332092389 -0.053289941654707074 0.05196619860644277 0.0013237430482642611 -0.003730386840150193 0.0 0.0
0.0 0.07664047426992035 -0.06683722889193487 0.0654138823339576 0.0014233465579772172 -0.004525420477134983 0.0 0.0
0.0 0.09375896589897059 -0.08167258591881853 0.0801684635986767 0.0015041223201418966 -0.005375170333356846 0.0 0.0
0.0 0.11188918804780841 -0.097362577771604 0.09580926172382623 0.0015533160477777135 -0.006143873358083729 0.0 0.0
0.0 0.1300531347325565 -0.11305547974570825 0.11148982382867838 0.0015656559170298915 -0.006494911992887308 0.0 0.0
0.0 0.1465372860099982 -0.12730327826842908 0.12575754308337783 0.0015457351850513626 -0.006391689490849663 0.0 0.0
0.0 0.15790281091748742 -0.13711804575316472 0.13577201015360008 0.0013460355995644584 -0.00886069723399956 0.0 0.0
0.0 0.15671685997147544 -0.13540433699822227 0.135025879086958 0.00037845791126426767 -0.026191830973248953 0.0 0.0
0.0 0.14803170283416023 -0.12407887927926742 0.11810603010895684 0.005972849170310542 5.7783638984787444e-15 0.0 0.0
0.0 0.1567168599714492 -0.13540433699819854 0.13502587908693392 0.0003784579112645153 0.02619183097326448 0.0 0.0
0.0 0.15790281091743927 -0.13711804575312264 0.13577201015355836 0.0013460355995641867 0.008860697234015138 0.0 0.0
0.0 0.14653728600993166 -0.1273032782683714 0.12575754308332093 0.0015457351850504193 0.006391689490856027 0.0 0.0
0.0 0.1300531347324729 -0.11305547974563618 0.11148982382860595 0.0015656559170302477 0.006494911992888338 0.0 0.0
0.0 0.1118891880477274 -0.09736257777153318 0.09580926172375681 0.0015533160477763362 0.0061438733580835205 0.0 0.0
0.0 0.09375896589887875 -0.08167258591873905 0.08016846359859754 0.0015041223201415735 0.005375170333353189 0.0 0.0
0.0 0.07664047426983406 -0.06683722889185971 0.06541388233388366 0.0014233465579759873 0.004525420477131792 0.0 0.0
0.0 0.06100400332083353 -0.05328994165462896 0.051966198606364644 0.001323743048264299 0.003730386840146983 0.0 0.0
0.0 0.04732956043201109 -0.04118945557059376 0.03997029123835552 0.0012191643322382413 0.003008157683335556 0.0 0.0
0.0 0.03493602806900421 -0.030590552458443537 0.02947268361047324 0.0011178688479702762 0.0023284240845461773 0.0 0.0
0.0 0.02445924093364417 -0.021532953831922153 0.020512810358480085 0.001020143473442068 0.0016533973137164925 0.0 0.0
0.0 0.015896948174240626 -0.014096599640779433 0.013176332794629115 0.0009202668461503078 0.0010287330986665493 0.0 0.0
0.0 0.009262268443845215 -0.008341193750781468 0.0075442716332069166 0.0007969221175745502 0.000522843238236739 0.0 0.0
0.0 0.004579137235067146 -0.004216327005975599 0.00361296823302228 0.0006033587729533161 0.0001620700338478159 0.0 0.0
0.0 0.0017511459646190816 -0.0015442138711983737 0.0012177505181974085 0.0003264633530009657 -5.183781710447132e-05 0.0 0.0
0.0 0.00031539078930782757 -0.00023935105497382045 0.00017069395428215902 6.865710069166158e-05 -4.601065742763934e-05 0.0 0.0
0.0 -4.9403693003952995e-06 3.7324764261795897e-06 -3.200180600409684e-06 -5.322958257698445e-07 -2.900266192352691e-06 0.0 0.0
0.0 0.0 0.0 0.0 0.0 0.0 0.0 0.0
0.0 0.0 0.0 0.0 0.0 0.0 0.0 0.0
0.0 0.0 0.0 0.0 0.0 0.0 0.0 0.0
0.0 0.0 0.0 0.0 0.0 0.0 0.0 0.0
0.0 0.0 0.0 0.0 0.0 0.0 0.0 0.0
0.0 0.0 0.0 0.0 0.0 0.0 0.0 0.0
0.0 8.329250047482714e-06 -6.9977716726141115e-06 4.148740039120534e-06 2.8490316334936805e-06 5.039640739439357e-06 0.0 0.0
0.0 0.0005779420191730655 -0.00041480015889996946 0.0002947091970097953 0.0001200909618901742 0.00011014128176621411 0.0 0.0
0.0 0.002283291656159616 -0.002018683457776546 0.0015765594062096084 0.0004421240515669373 0.00026226939898203543 0.0 0.0
0.0 0.005427877589219904 -0.005012449610669077 0.004246770458863189 0.0007656791518058906 0.0003387009280266004 0.0 0.0
0.0 0.010502306479524048 -0.009511939030189959 0.008488798436132268 0.0010231405940576825 0.0003823506488141729 0.0 0.0
0.0 0.017588344725689483 -0.01575016901642753 0.014510772495395643 0.0012393965210318793 0.0003860438906804586 0.0 0.0
0.0 0.026849805572233147 -0.02381519255388715 0.022349054235143093 0.0014661383187440685 0.0003198037157731682 0.0 0.0
0.0 0.038237823659725244 -0.03367870473689976 0.03195034944743365 0.0017283552894660661 0.0002254414511503244 0.0 0.0
0.0 0.051341911991826555 -0.04527373553446039 0.04324207938950702 0.002031656144953361 0.00010013772332643535 0.0 0.0
0.0 0.06642975489443385 -0.05852027888307178 0.05615383198205262 0.002366446901019125 -0.00010815325340647695 0.0 0.0
0.0 0.08333557276822606 -0.07332509188697715 0.07060815944276175 0.0027169324442154626 -0.000366322136152856 0.0 0.0
0.0 0.10180804737871821 -0.08946226780506107 0.0864080612534944 0.0030542065515664816 -0.0007253168792280863 0.0 0.0
0.0 0.12123929140423542 -0.1063587221226969 0.10302067395171789 0.0033380481709789946 -0.0011435478056913227 0.0 0.0
0.0 0.1403672340195422 -0.12294165446705288 0.11942292972550482 0.0035187247415479333 -0.0014432329449116134 0.0 0.0
0.0 0.15736890616638435 -0.13764755951733812 0.13409243923246544 0.003555120284872577 -0.0013479919332712136 0.0 0.0
0.0 0.16979962193757753 -0.14855279867049848 0.14498631783025215 0.0035664808402464864 -0.0022742318062718703 0.0 0.0
0.0 0.17224074493077451 -0.15117151630235412 0.14759351893278544 0.00357799736956868 -0.019185811049422172 0.0 0.0
0.0 0.16802016244180765 -0.14298031849048487 0.13281527085043648 0.010165047640048256 1.5543122344752192e-15 0.0 0.0
0.0 0.17224074493074087 -0.15117151630232503 0.1475935189327557 0.0035779973695692358 0.019185811049427147 0.0 0.0
0.0 0.16979962193752138 -0.1485527986704499 0.144986317830204 0.003566480840245933 0.002274231806278214 0.0 0.0
0.0 0.15736890616631272 -0.13764755951727486 0.13409243923240538 0.0035551202848696783 0.0013479919332721798 0.0 0.0
0.0 0.14036723401945186 -0.12294165446697417 0.11942292972542708 0.003518724741546895 0.0014432329449113965 0.0 0.0
0.0 0.12123929140414419 -0.10635872212261699 0.10302067395164025 0.0033380481709766683 0.0011435478056918483 0.0 0.0
0.0 0.10180804737861684 -0.08946226780497264 0.08640806125340739 0.003054206551565128 0.0007253168792247366 0.0 0.0
0.0 0.08333557276813731 -0.07332509188689873 0.07060815944268677 0.002716932444211944 0.0003663221361516443 0.0 0.0
0.0 0.06642975489433459 -0.05852027888298568 0.05615383198196689 0.002366446901018806 0.00010815325340592704 0.0 0.0
0.0 0.05134191199173674 -0.04527373553438202 0.04324207938943022 0.0020316561449517058 -0.00010013772333027429 0.0 0.0
0.0 0.03823782365965157 -0.033678704736835194 0.03195034944737055 0.0017283552894646567 -0.00022544145115265674 0.0 0.0
0.0 0.02684980557217212 -0.02381519255383388 0.02234905423509126 0.0014661383187426493 -0.00031980371577479015 0.0 0.0
0.0 0.01758834472564073 -0.015750169016384607 0.014510772495353767 0.0012393965210308444 -0.00038604389068117766 0.0 0.0
0.0 0.010502306479492166 -0.00951193903016104 0.008488798436104701 0.0010231405940563248 -0.000382350648814178 0.0 0.0
0.0 0.005427877589199243 -0.005012449610649816 0.0042467704588454395 0.0007656791518043731 -0.00033870092802622666 0.0 0.0
0.0 0.002283291656148539 -0.002018683457765994 0.0015765594062007492 0.00044212405156524574 -0.0002622693989812104 0.0 0.0
0.0 0.0005779420191687176 -0.0004148001588967218 0.00029470919700748106 0.00012009096188924157 -0.00011014128176530842 0.0 0.0
0.0 8.329250047084337e-06 -6.997771672434866e-06 4.148740038998612e-06 2.849031633436232e-06 -5.039640739382723e-06 0.0 0.0
0.0 0.0 0.0 0.0 0.0 0.0 0.0 0.0
0.0 0.0 0.0 0.0 0.0 0.0 0.0 0.0
0.0 0.0 0.0 0.0 0.0 0.0 0.0 0.0
SCALARS Wm float 4
LOOKUP_TABLE default
12.06090678834628 1.9899669091120042 4.975339558443321 5.095600320790951
5.894294312965401 2.8539535143655512 1.3525234053302084 1.6878173932696448
0.6577834291833307 0.6242264734216406 0.002828843003477385 0.03072811275821288
0.5079922285718114 0.48691113126515584 0.005714562786312839 0.015366534520342992
0.9901673846919011 0.7398745445653983 0.08876187519707433 0.16153096492942834
2.0918452866208788 1.0458531944912277 0.37642082243612174 0.6695712696935278
4.281052857340139 1.477002967618167 1.1819706006823494 1.6220792890396258
7.822265373169704 2.000634389784615 2.68311501273519 3.1385159706498946
13.041799837455631 2.6525991262551853 5.120953802523652 5.2682469086767965
20.19161231336991 3.4682018461288684 8.69177168081629 8.031638786424768
29.41496062520494 4.479496571865473 13.519725370775422 11.415738682564049
40.67313936408698 5.702141177384493 19.572412488729185 15.39858569797332
54.1203923944746 7.124928775295668 27.03849227653477 19.956971342644177
69.74224623522977 8.736728440383414 35.936987084933705 25.068530709912665
87.3532405193018 10.420101932729319 46.259567510659515 30.673571075912914
106.43337456494008 11.964679705058185 57.832370493958095 36.63632436592377
125.95800100014362 13.110472207244825 70.1180584589826 42.72947033391621
144.494377334872 13.650849347105511 82.2861061194234 48.55742186834298
160.4533471425482 13.611308582007023 93.20047850631447 53.64156005422686
171.65231072376605 12.884040554028772 101.33682881610014 57.43144135363706
175.33643864741097 11.573422667376935 104.72560505575879 59.03741092427522
171.65231072373442 12.884040554017307 101.3368288160859 57.43144135363124
160.45334714250214 13.611308582011924 93.20047850627968 53.641560054210444
144.49437733480676 13.650849347112851 82.28610611937427 48.557421868319636
125.9580010000679 13.11047220724995 70.11805845892829 42.729470333889594
106.43337456484711 11.96467970504331 57.83237049390651 36.63632436589736
87.35324051921823 10.420101932727292 46.259567510606395 30.673571075884553
69.74224623513935 8.736728440370877 35.9369870848838 25.068530709884623
54.12039239439692 7.124928775294471 27.0384922764867 19.956971342615788
40.67313936402174 5.70214117738512 19.572412488688798 15.39858569794785
29.414960625147526 4.4794965718584665 13.519725370745391 11.415738682543655
20.1916123133209 3.4682018461178448 8.69177168079445 8.031638786408621
13.041799837422008 2.6525991262514137 5.120953802507348 5.268246908663252
7.822265373147702 2.000634389780122 2.6831150127262546 3.1385159706413273
4.281052857326287 1.4770029676143648 1.1819706006776822 1.6220792890342401
2.0918452866138124 1.0458531944890253 0.37642082243440494 0.6695712696903822
0.9901673846894329 0.7398745445644341 0.08876187519648973 0.16153096492850905
0.5079922285713024 0.48691113126470537 0.005714562786285038 0.015366534520312117
0.6577834291824504 0.6242264734211084 0.0028288430033851838 0.030728112757956356
5.894294312960145 2.8539535143660957 1.35252340532741 1.6878173932666378
12.060906788319258 1.9899669090986642 4.97533955843583 5.095600320784773
14.303423854753905 6.289242457422657 3.8419658740912497 4.172215523239992
2.3063084843626465 0.5049911310063984 0.7487092269825196 1.0526081263737281
0.25765585076951814 0.2937445277786893 -0.011016403592417965 -0.025072273416753214
0.3986425316876142 0.39354538918270454 0.0008063907738534796 0.0042907517310559785
0.7512794479740925 0.6076610331789039 0.04311246743092309 0.10050594736426613
1.675108128445808 0.8820198602627026 0.2893594446284128 0.5037288235546934
3.5138301291589835 1.1873962337908175 0.9538697005097186 1.3725641948584473
6.62115166570926 1.5545682983702647 2.2958887909713197 2.7706945763676787
11.229017411415946 1.9700195868084729 4.507902332287744 4.751095492319732
17.49201605529641 2.4394853417495166 7.732678889217869 7.319851824329014
25.501595644494937 2.9643895746987807 12.081553504345237 10.455652565450922
35.35068304028043 3.559844063596744 17.660543937885 14.130295038798687
46.88351156462102 4.238117004258301 24.31065092241619 18.334743637946517
60.39974013334015 4.977087217364639 32.370146488866396 23.052506427109112
75.68400869982395 5.726324646163687 41.71174641432981 28.245937639330467
92.34651740637509 6.369992498350732 52.1851136419698 33.79141126605455
109.59539537552102 6.764979227175111 63.3852360110644 39.445180137281504
126.23025958423281 6.80811218609694 74.54300596122032 44.87914143691557
140.63614584966248 6.433267447919205 84.5668778339536 49.63600056778967
150.8135044099032 5.687332971106593 92.03102523405826 53.095146204738334
154.61627317024252 4.853936601500784 95.21456174627792 54.54777482246387
150.81350440988433 5.687332971107469 92.03102523404479 53.09514620473211
140.6361458496222 6.43326744792592 84.56687783392171 49.63600056777471
126.23025958416858 6.808112186095744 74.54300596117773 44.879141436895125
109.59539537544794 6.764979227173573 63.38523601101666 39.445180137257644
92.34651740630909 6.369992498358144 52.18511364192133 33.79141126602961
75.68400869974666 5.7263246461599815 41.7117464142821 28.245937639304532
60.39974013326421 4.977087217358216 32.37014648882204 23.05250642708396
46.88351156454888 4.238117004255121 24.310650922373256 18.334743637920493
35.35068304022135 3.5598440635988298 17.66054393784784 14.130295038774678
25.501595644444116 2.9643895746936972 12.081553504318252 10.455652565432173
17.492016055258173 2.439485341747942 7.732678889197105 7.319851824313126
11.229017411385737 1.9700195868045307 4.507902332273636 4.751095492307565
6.621151665690532 1.5545682983683538 2.295888790962885 2.770694576359295
3.513830129147389 1.1873962337882993 0.9538697005056165 1.3725641948534728
1.6751081284403038 0.8820198602614464 0.2893594446266375 0.5037288235522202
0.751279447972363 0.6076610331781775 0.043112467430560915 0.10050594736362464
0.3986425316872785 0.39354538918230336 0.0008063907738610464 0.0042907517311140606
0.2576558507694638 0.2937445277784784 -0.011016403592354092 -0.02507227341666046
2.3063084843560775 0.5049911310054063 0.748709226979828 1.0526081263708438
14.30342385472842 6.289242457411417 3.8419658740836655 4.172215523233328
10.728464658266764 4.973077836594916 2.6437855050659667 3.1116013166058814
1.4224917603330693 0.19474344173188113 0.4965591916310873 0.7311891269701016
0.16216225844683455 0.16214310701657855 1.9511054644867006e-06 1.7200324791515624e-05
0.2980024168762585 0.3001142067969278 -0.0004467144055665282 -0.0016650755151028118
0.5728288603329278 0.5184642950653036 0.01323642183293241 0.04112814343469183
1.3027779868875604 0.7911229746035097 0.17996233577800408 0.3316926765060471
2.8382798531021423 1.0856807932058885 0.6872136246446329 1.065385435251621
5.54781283115196 1.4322174517222117 1.8160328069157747 2.2995625725139726
9.597100174857337 1.8101690435766886 3.7100981872657526 4.076832944014896
15.127191559298485 2.2224243587129306 6.519003852517593 6.385763348067962
22.15883962835293 2.6769944854491836 10.290201916754786 9.191643226148965
30.684427408936298 3.1880767042413987 15.030040117855556 12.466310586839334
40.89843056675747 3.778919920680681 20.923715747579063 16.19579489849773
52.597059965221646 4.440334225705666 27.76380940281178 20.392916336704182
65.99334959809711 5.116795145513079 35.85584829538983 25.02070615719417
80.67046649781138 5.729145480149799 44.95371124306408 29.987609774597523
95.97573296116649 6.160304187220369 54.71005987447945 35.10536889946669
110.82658999342495 6.276809098225362 64.51248486536225 40.037296029837286
123.70434887232045 5.972189888184019 73.37961361330645 44.35254537083003
132.84270750232136 5.400897044312686 79.96891258357115 47.47289787443752
136.1388666938728 4.396439927193894 82.88732626620627 48.85510050047269
132.84270750230465 5.400897044314693 79.96891258355852 47.47289787443137
123.70434887228353 5.972189888188796 73.37961361327834 44.35254537081641
110.82658999337278 6.276809098225449 64.51248486532747 40.03729602981982
95.97573296110886 6.1603041872251785 54.71005987443819 35.10536889944553
80.67046649774494 5.729145480149028 44.953711243021196 29.987609774574725
65.99334959802894 5.11679514550743 35.855848295349624 25.020706157171837
52.59705996515848 4.440334225702002 27.763809402774353 20.39291633668212
40.89843056669479 3.778919920676202 20.92371574754318 16.19579489847541
30.684427408880314 3.1880767042386413 15.030040117823596 12.466310586818095
22.1588396283083 2.6769944854448555 10.290201916731442 9.191643226131994
15.127191559263887 2.2224243587121113 6.519003852498798 6.385763348052977
9.597100174831851 1.810169043573584 3.710098187253946 4.07683294400432
5.547812831134814 1.432217451720406 1.8160328069082103 2.2995625725061997
2.838279853092496 1.085680793204105 0.687213624641286 1.065385435247104
1.3027779868833 0.7911229746022647 0.17996233577680842 0.33169267650422685
0.5728288603316313 0.518464295064391 0.013236421832799272 0.04112814343444106
0.2980024168761105 0.30011420679673606 -0.00044671440555719386 -0.0016650755150682578
0.16216225844679166 0.16214310701653145 1.9511054647584318e-06 1.7200324795480995e-05
1.4224917603277882 0.19474344173136698 0.49655919162891526 0.731189126967505
10.728464658242801 4.973077836584773 2.643785505058884 3.1116013165991485
8.070997236239466 3.86735596771445 1.854711906783189 2.3489293617418276
0.9468888613668571 0.09581166312635414 0.3243622502437988 0.526714947996703
0.11407404193443531 0.11407404193443531 0.0 0.0
0.22435922405294975 0.22449928550600742 -9.912683201576976e-06 -0.0001301487698560482
0.4373547186684237 0.43011144628570447 0.0008863825118067685 0.006356889870912593
0.9707919146004935 0.6830574426216909 0.089959381638061 0.1977750903407418
2.2391986641746913 0.9875735449494144 0.47764616063122284 0.7739789585940541
4.518147012230278 1.30465444435531 1.372540359447244 1.8409522084277226
8.02293112784484 1.6481290499755021 2.965519474939727 3.4092826029296073
12.813456272985837 2.0096384707727704 5.349234741975796 5.454583060237268
18.864316569733518 2.398334911340028 8.53401120930965 7.931970449083844
26.2347929837416 2.8386442014854505 12.58982834232527 10.806320439930888
34.876685263093435 3.34631971319479 17.458058639712068 14.072306910186583
45.08141316454736 3.922212622363339 23.42285584665524 17.73634469552878
56.57645740149512 4.538085841604463 30.238617269530607 21.799754290360056
69.23093018936734 5.1229344755062005 37.920372734676626 26.187622979184525
82.66635907009528 5.5809519571325 46.35298416554883 30.732422947413923
95.81492262928226 5.776380619338392 54.86507799610996 35.173464013833936
107.32463793788426 5.599088360396741 62.61694855783236 39.108601019655175
115.6298309243092 5.143772685389215 68.47053553734298 42.01552270157705
118.63169445209179 3.941543947225107 71.31073353942227 43.379416965444406
115.62983092429884 5.1437726853970185 68.47053553733068 42.015522701571086
107.32463793785034 5.599088360397048 62.616948557809515 39.108601019643785
95.8149226292395 5.776380619339724 54.86507799608075 35.17346401381906
82.66635907003668 5.580951957126425 46.352984165514584 30.732422947395694
69.2309301893127 5.122934475506719 37.92037273464111 26.18762297916492
56.57645740143606 4.538085841597589 30.238617269497553 21.799754290340896
45.08141316449616 3.9222126223648592 23.42285584662253 17.736344695508777
34.876685263040585 3.3463197131898252 17.45805863968294 14.072306910167821
26.23479298369316 2.8386442014802435 12.589828342299777 10.806320439913137
18.86431656969423 2.3983349113353856 8.534011209289906 7.931970449068942
12.813456272954891 2.0096384707702146 5.349234741960232 5.45458306022444
8.022931127822734 1.6481290499735 2.965519474929327 3.409282602919906
4.518147012215897 1.3046544443530281 1.372540359441616 1.840952208421252
2.239198664166799 0.9875735449480746 0.4776461606283236 0.773978958590401
0.9707919145973172 0.6830574426203156 0.08995938163737467 0.19777509033962706
0.43735471866745 0.4301114462847273 0.0008863825117917521 0.006356889870931015
0.2243592240527491 0.22449928550582282 -9.912683202643033e-06 -0.0001301487698710752
0.1140740419343632 0.1140740419343632 0.0 0.0
0.9468888613627302 0.09581166312610086 0.32436225024205334 0.5267149479945765
8.070997236219895 3.867355967706489 1.8547119067775908 2.3489293617358182
5.981895899123796 2.985144800880328 1.2555374080520207 1.7412136901914472
0.6929227713210285 0.10851071481167868 0.22787501990705902 0.35653703660229114
0.10386179955680655 0.10386179955680655 0.0 0.0
0.17946782382637572 0.17946271156751095 2.659272832322387e-07 4.846331581559703e-06
0.3368588971136019 0.3424647387677432 -0.002004657033706984 -0.0036011846204341306
0.7135885583720523 0.5880538833163574 0.034274552859770664 0.0912601221959237
1.694092392901583 0.8689047749890271 0.30783829966447096 0.5173493182480859
3.548138263348802 1.1732880250873776 0.9745168712259817 1.4003333670354445
6.503207881114786 1.482903964006711 2.2682398180186625 2.7520640990894143
10.5587647305423 1.7989323599577278 4.229653537231644 4.530178833352932
15.68823576032946 2.1324040360633294 6.878125146488721 6.677706577777403
21.877511169752232 2.5042026523688965 10.219161834607899 9.15414668277544
29.202950975337494 2.9396447620866426 14.309273994983885 11.954032218266969
37.607852624473004 3.4405936533106964 19.068378835974727 15.098880135187587
47.35360185820126 3.9822294279252537 24.783143087551366 18.588229342724638
58.20000927640499 4.535926954164742 31.283332867251993 22.380749454988287
69.66443258839239 5.022657116999358 38.28013135811646 26.361644113276565
81.14373741157434 5.311872564340394 45.53599108865983 30.295873758574096
91.42041187653824 5.27225374075268 52.30052574385485 33.84763239193075
99.09783020069682 4.91531114764803 57.61112210472043 36.571396948328335
101.92408462892233 3.496450753036071 60.43029293534968 37.99734094053661
99.09783020067803 4.915311147645222 57.61112210470987 36.57139694832295
91.42041187650813 5.272253740749628 52.30052574383703 33.84763239192145
81.14373741154141 5.311872564345618 45.53599108863498 30.295873758560813
69.6644325883451 5.0226571169931296 38.280131358089896 26.361644113262063
58.20000927635735 4.535926954163594 31.28333286722241 22.38074945497133
47.353601858157035 3.982229427926468 24.783143087522983 18.5882293427076
37.60785262442438 3.440593653306422 19.068378835947556 15.09888013517039
29.20295097529815 2.939644762087701 14.3092739949598 11.95403221825065
21.877511169713024 2.5042026523657097 10.219161834587041 9.154146682760278
15.688235760298422 2.1324040360629106 6.878125146471598 6.677706577763914
10.558764730515762 1.7989323599547187 4.229653537219029 4.530178833342018
6.503207881095694 1.4829039640043118 2.2682398180103327 2.7520640990810477
3.5481382633373557 1.1732880250860014 0.9745168712213398 1.4003333670300149
1.6940923928950877 0.8689047749873846 0.30783829966240667 0.5173493182452958
0.7135885583698414 0.5880538833151735 0.03427455285941275 0.09126012219525485
0.3368588971131496 0.3424647387670916 -0.0020046570336778318 -0.0036011846202641286
0.17946782382615667 0.17946271156732044 2.6592728125843175e-07 4.846331554984457e-06
0.10386179955659806 0.10386179955659806 0.0 0.0
0.6929227713179391 0.1085107148116605 0.22787501990565848 0.3565370366006205
5.981895899107683 2.985144800873584 1.2555374080476776 1.741213690186421
4.349490768112375 2.285923754139961 0.8256760146905047 1.2378909992819094
0.4903399322660397 0.14266187387414364 0.11923909351889254 0.22843896487300322
0.11683144453718114 0.11683144453718114 0.0 0.0
0.15785460160384798 0.1578388682059064 1.0483405564362888e-06 1.468505738514532e-05
0.2713563774007678 0.2760239119872581 -0.0009125653103704054 -0.0037549692761200014
0.517626895957202 0.48292287179114435 0.0049837490568377905 0.029720275109219874
1.1969541998480615 0.7323434335405664 0.14921146721204265 0.3153992990954524
2.692280687719299 1.0332692051475207 0.6733255891399315 0.9856858934318469
5.030184450768416 1.3116433408275514 1.6091579906062679 2.1093831193345993
8.395473946768258 1.5904858756865496 3.188948852332752 3.6160392187489534
12.610127587580385 1.874058320137485 5.3046073959498505 5.431461871493043
17.661136371280268 2.1872520391457155 7.961943118125405 7.511941214009148
23.58771466221829 2.5543800367339666 11.184087106865253 9.849247518619064
30.51829648062555 2.982629626330916 15.065262632055566 12.470404222239072
38.4310512052083 3.4673200644923647 19.570976479973965 15.392754660741968
47.28667452630417 3.9704708519862613 24.72649174344205 18.589711930875865
57.038549473578946 4.464066265899145 30.603459537004387 21.97102367067542
66.85176540682286 4.861513510956853 36.5918902953406 25.398361600525394
75.89686495358205 4.975703225008682 42.32467045308353 28.59649127548985
83.08773266992853 4.717272532213411 47.195463976441914 31.174996161273203
85.84321636744926 3.0697557963524806 50.0831110947854 32.690349476311376
83.08773266991801 4.7172725322144595 47.195463976434425 31.17499616126908
75.8968649535666 4.975703225016232 42.32467045306862 28.596491275481778
66.85176540679554 4.8615135109614 36.59189029531999 25.398361600514118
57.038549473545665 4.464066265900998 30.603459536982054 21.971023670662632
47.28667452626853 3.9704708519899303 24.72649174341752 18.589711930861103
38.43105120516847 3.467320064491181 19.570976479950257 15.392754660727043
30.51829648058895 2.9826296263287095 15.065262632034974 12.470404222225266
23.587714662180748 2.554380036729771 11.184087106845725 9.849247518605258
17.661136371249363 2.1872520391446333 7.961943118108484 7.511941213996254
12.610127587552165 1.874058320135555 5.304607395935462 5.431461871481153
8.395473946747966 1.5904858756857805 3.1889488523226306 3.6160392187395525
5.030184450753597 1.3116433408255253 1.609157990600111 2.1093831193279615
2.692280687709503 1.033269205145931 0.6733255891361718 0.9856858934273995
1.1969541998434983 0.7323434335391081 0.1492114672108338 0.31539929909355624
0.5176268959558059 0.4829228717902469 0.004983749056688306 0.02972027510887078
0.2713563774003804 0.27602391198673903 -0.0009125653103454646 -0.003754969276013163
0.1578546016036157 0.1578388682056729 1.0483405564584324e-06 1.4685057386358939e-05
0.11683144453693743 0.11683144453693743 0.0 0.0
0.49033993226350714 0.1426618738739528 0.11923909351787944 0.2284389648716751
4.349490768100487 2.285923754135336 0.8256760146872998 1.2378909992778533
3.0480363130280947 1.7239643834455665 0.4920577616421153 0.832014167940414
0.3687947297220661 0.18613292064576564 0.05727864119287769 0.12538316788342252
0.1400189302780805 0.14003468811003478 -8.23290305344124e-07 -1.4934541648948963e-05
0.15331199217436764 0.1532977061582505 9.176681420014073e-07 1.3368347975063384e-05
0.23061644619352803 0.2321378069283784 -0.00027566260786225676 -0.001245698126988108
0.3854816937710091 0.39344598366775013 -0.0042636247726841785 -0.0037006651240567724
0.8242200732133058 0.6094142268128557 0.059919878172129876 0.15488596822831993
1.8531913273620624 0.8619007610209215 0.3573127089214769 0.6339778574196644
3.7443607781288133 1.1404701308662806 1.1115208125112306 1.4923698347513001
6.299433626140097 1.3780102513572816 2.206850255043783 2.7145731197390317
9.658774080007444 1.6216297241115323 3.8399850191282265 4.197159336767687
13.627802274697009 1.88374280053591 5.8624644295479404 5.881595044613155
18.2430195171264 2.1900217082433886 8.292525084090684 7.760472724792327
23.61283907696765 2.552430154439377 11.199064726920293 9.861344195607966
29.809257354302456 2.97053654960709 14.623765473262528 12.214955331432844
36.94988952812818 3.434179151368863 18.704557782983358 14.811152593775962
44.56468984312243 3.9143883058353692 23.047091837618133 17.60320969966895
52.80808041631717 4.389307196097371 27.9471712299487 20.471601990271097
60.865340668356765 4.683508342740777 32.88777690737048 23.294055418245488
67.5875389553303 4.555946099949224 37.26294082814996 25.76865202723112
70.39270723730347 2.6739978535202664 40.29093516048643 27.427774223296783
67.58753895532335 4.555946099950928 37.26294082814437 25.768652027228043
60.8653406683334 4.683508342735433 32.887776907358955 23.29405541823903
52.80808041628919 4.389307196093085 27.94717122993378 20.471601990262307
44.564689843085105 3.9143883058251063 23.047091837601293 17.603209699658724
36.94988952809092 3.434179151362159 18.70455778296462 14.81115259376414
29.809257354269686 2.970536549602688 14.623765473245571 12.214955331421429
23.612839076938673 2.5524301544367782 11.19906472690487 9.861344195597026
18.243019517101544 2.1900217082438798 8.29252508407622 7.760472724781445
13.627802274668767 1.883742800529346 5.862464429535925 5.881595044603499
9.658774079985522 1.6216297241100504 3.839985019117397 4.197159336758074
6.299433626124017 1.3780102513570764 2.2068502550357674 2.7145731197311727
3.7443607781170476 1.1404701308645568 1.1115208125063791 1.492369834746113
1.8531913273552567 0.8619007610197706 0.3573127089190698 0.6339778574164167
0.8242200732101428 0.6094142268118816 0.059919878171333776 0.15488596822692735
0.3854816937702489 0.39344598366689276 -0.004263624772649539 -0.003700665123994139
0.23061644619317803 0.23213780692800046 -0.0002756626078593993 -0.0012456981269631131
0.1533119921741093 0.15329770615799757 9.176681415783688e-07 1.336834797013782e-05
0.14001893027771037 0.14003468810964584 -8.232903041218908e-07 -1.4934541631370911e-05
0.36879472972040167 0.186132920645669 0.05727864119223598 0.1253831678824966
3.0480363130191863 1.7239643834418144 0.4920577616399946 0.8320141679373775
2.1125248202265916 1.3195729286668316 0.29906670238594935 0.49388518917381063
0.273262148107798 0.20861483641391376 0.01111182590422349 0.05353548578966087
0.1646685389919745 0.1646635202727977 3.3784553698126277e-07 4.680873639828587e-06
0.1601080219520178 0.16008106772791617 1.9856943216208e-06 2.4968529779967134e-05
0.20713172343583297 0.20841598688630697 -0.00020151238520114184 -0.0010827510652728087
0.30639770974443226 0.3182046378485607 -0.0035308398800545874 -0.008276088224073988
0.5475088450678139 0.48722090581264116 0.009978220242057807 0.05030971901311513
1.1907086077925713 0.6922995990840365 0.1565346273153034 0.34187438139323134
2.4567539238028293 0.9305678989415289 0.5870474607847777 0.9391385640765224
4.424594416498411 1.1608851384263035 1.4217098824161065 1.8419993956560012
6.850925982645567 1.3658124813893187 2.5073384570357717 2.9777750442204765
9.771343691752964 1.584517040167173 3.917536952267065 4.269289699318721
13.16104955847883 1.838519571427116 5.628799034907255 5.693730952144464
17.07293466655185 2.137451052978801 7.654965982781 7.280517630792051
21.660676919936396 2.497367348802377 10.098985421641988 9.06432414949203
26.904571765315744 2.9119732655479336 12.930868136275537 11.061730363492282
32.857659855218614 3.3632649011489493 16.26008468619166 13.234310267878003
39.25772226748195 3.8794965246995767 19.82653228256339 15.551693460218992
45.97636160684962 4.35518661186653 23.662422187241845 17.958752807741245
52.38496387759943 4.426364592795145 27.650261947113446 20.308337337690833
55.39255431785255 2.3187474460884325 30.90296752576364 22.170839346000488
52.38496387759852 4.426364592800118 27.65026194710962 20.308337337688773
45.976361606843994 4.3551866118734015 23.662422187234085 17.95875280773652
39.2577222674642 3.879496524697884 19.82653228255355 15.55169346021279
32.85765985520181 3.3632649011520535 16.26008468617964 13.234310267870125
26.904571765296737 2.9119732655517994 12.930868136261967 11.061730363482967
21.66067691991535 2.4973673488020145 10.098985421629981 9.064324149483356
17.072934666533694 2.1374510529798387 7.654965982770106 7.280517630783747
13.161049558458629 1.838519571425432 5.628799034897027 5.6937309521361685
9.771343691738606 1.5845170401682536 3.9175369522588994 4.26928969931145
6.850925982628924 1.3658124813878543 2.507338457028046 2.9777750442130237
4.4245944164862605 1.1608851384254397 1.4217098824105703 1.841999395650251
2.4567539237950706 0.9305678989402262 0.5870474607818834 0.9391385640729607
1.190708607788036 0.6922995990831458 0.15653462731388618 0.3418743813910029
0.5475088450660324 0.4872209058119735 0.009978220241745939 0.05030971901231279
0.30639770974403807 0.3182046378476637 -0.003530839879974773 -0.008276088223650988
0.2071317234355548 0.2084159868860419 -0.00020151238519991322 -0.0010827510652871382
0.16010802195154278 0.16008106772742925 1.985694321836739e-06 2.4968529791673438e-05
0.16466853899157868 0.16466352027240141 3.37845536975015e-07 4.6808736402937e-06
0.273262148106492 0.20861483641359324 0.011111825903878025 0.05353548578902053
2.11252482022027 1.3195729286642435 0.29906670238435845 0.4938851891716689
1.3655360478956498 0.9780335147611859 0.1245202239755478 0.2629823091589158
0.2189283068763357 0.21696956382797916 -0.004034578555114594 0.0059933216034711604
0.18598096418866886 0.1860581058545754 -6.744805868337088e-06 -7.039686003817468e-05
0.17336516114782133 0.17342800403260641 -4.153057242887411e-06 -5.8689827542243214e-05
0.1967707106177142 0.19803044764656277 -0.00020070549910598608 -0.0010590315297425955
0.2613253394821357 0.26671281053131024 -0.0018455640554531588 -0.0035419069937213574
0.3838193573318086 0.3847510766140947 -0.003837791123375507 0.002906071841089361
0.7015814568882269 0.5344540263861888 0.043382050980890756 0.12374537952114774
1.4136998888056265 0.7101314505678555 0.23744521537511293 0.46612322286265767
2.6211661698056816 0.8999721982122372 0.680311169717554 1.0408828018758913
4.213155646360625 1.0783959044159002 1.3288953291814396 1.8058644127632872
6.154784613861887 1.2641876789566504 2.199745319357013 2.6908516155482216
8.387946783612763 1.4743017231937976 3.2455336699231343 3.668111390495834
10.954710473325056 1.7160345559896135 4.486042298314605 4.7526336190208385
13.976366762609885 2.012820438909446 5.987855182592744 5.975691141107693
17.55392278352312 2.379520005668276 7.805398850343429 7.369003927511414
21.692743221703626 2.8058049263548543 9.948063393489354 8.93887490185941
26.292273867272524 3.275405455853235 12.356320749581155 10.660547661838132
31.655401275679363 3.8924365191720693 15.179214616695418 12.583750139811874
37.71278339111858 4.321011571093339 18.623028057037512 14.768743762987704
41.03392593046857 2.0471228692535166 22.010082401481856 16.976720659733196
37.71278339111114 4.321011571086541 18.623028057037125 14.768743762987466
31.65540127566359 3.892436519163307 15.179214616691192 12.583750139809101
26.29227386725635 3.2754054558471175 12.35632074957514 10.660547661834093
21.692743221685102 2.8058049263521583 9.948063393480139 8.938874901852799
17.553922783503403 2.3795200056646575 7.805398850334247 7.3690039275045
13.976366762592656 2.012820438904624 5.987855182585824 5.975691141102203
10.954710473310783 1.7160345559864472 4.486042298308565 4.752633619015774
8.38794678360152 1.4743017231932978 3.2455336699175654 3.668111390490652
6.154784613849315 1.2641876789562976 2.199745319350777 2.690851615542242
4.21315564634963 1.078395904413681 1.3288953291772676 1.8058644127586803
2.621166169797769 0.8999721982107718 0.6803111697145813 1.0408828018724148
1.4136998888011414 0.710131450566967 0.23744521537365282 0.46612322286052205
0.7015814568858242 0.5344540263856026 0.04338205098027533 0.12374537951994607
0.3838193573307434 0.38475107661304925 -0.003837791123402994 0.0029060718410971274
0.26132533948163933 0.2667128105305818 -0.001845564055417421 -0.0035419069935249126
0.19677071061723983 0.1980304476461065 -0.00020070549910666767 -0.0010590315297600156
0.17336516114735534 0.1734280040321255 -4.153057241293014e-06 -5.868982752885634e-05
0.1859809641882914 0.1860581058541833 -6.7448058671665525e-06 -7.03968600247362e-05
0.21892830687553783 0.2169695638275338 -0.004034578555234632 0.0059933216032385
1.3655360478914351 0.978033514759055 0.12452022397471892 0.2629823091576612
0.8729906014968875 0.7390526055689017 0.03758822036672425 0.09634977556126152
0.18966215810868417 0.20510906508099172 -0.004968693389522558 -0.010478213582785145
0.2015649408921478 0.20157377708259006 -2.6978365705699637e-07 -8.56640678519656e-06
0.18910786460463078 0.18915875987242062 -4.975773986589569e-06 -4.591949380323191e-05
0.19789572001240477 0.19886270863826402 -0.00017574810362744588 -0.0007912405222318669
0.2382939785456483 0.24378632346356185 -0.0015447275084586245 -0.003947617409454936
0.3083056736357385 0.3066247494459709 -0.0010470116495652924 0.00272793583933284
0.41552193160427503 0.37630634443331756 0.007355095395528777 0.031860491775428754
0.6559319688695795 0.4702193986228373 0.05018544854644296 0.1355271217002994
1.1504332430788686 0.5950316564003032 0.18455258201613597 0.3708490046624301
1.9454451674394773 0.7218847877022823 0.4698859992372977 0.7536743804998971
2.9181495963189827 0.8443771422290173 0.8353419021393808 1.2384305519505852
4.091218920322419 0.9938310619170354 1.3174026290034826 1.7799852294019003
5.472449265474961 1.1745051842023653 1.9101199920736933 2.3878240891989053
7.112177407148583 1.3996060294963055 2.6288195299723522 3.083751847679926
9.131767791376266 1.7003811209249449 3.5254592398378577 3.9059274306134597
11.657965488659066 2.091529252087173 4.672882717981766 4.893553518590124
14.701530727390187 2.524016964316806 6.126145330882875 6.0513684321905075
18.309625974837985 3.0270373536055146 7.877563643844207 7.405024977388262
23.499063697348916 3.974095144560209 10.30648499906377 9.218483553724933
28.024857214896965 1.9584797649629635 14.170062472175918 11.896314977758076
23.499063697353265 3.974095144559735 10.306484999066603 9.218483553726927
18.309625974835647 3.027037353604209 7.877563643843587 7.405024977387843
14.701530727386562 2.5240169643196806 6.1261453308792415 6.051368432187641
11.657965488646978 2.0915292520844786 4.672882717976584 4.893553518585915
9.131767791366975 1.7003811209231807 3.525459239833898 3.9059274306098963
7.112177407144624 1.3996060294973274 2.628819529969852 3.083751847677446
5.472449265471548 1.1745051842037293 1.9101199920712473 2.3878240891965703
4.091218920316265 0.9938310619165172 1.3174026290007628 1.7799852293989844
2.9181495963102946 0.8443771422262542 0.8353419021366059 1.2384305519474346
1.9454451674359226 0.721884787703391 0.46988599923530167 0.7536743804972303
1.1504332430764077 0.5950316563997491 0.18455258201535113 0.3708490046613073
0.6559319688677332 0.470219398622196 0.05018544854603394 0.13552712169950298
0.4155219316035984 0.3763063444328649 0.007355095395458536 0.031860491775275196
0.30830567363517786 0.306624749445494 -0.001047011649603582 0.002727935839287326
0.23829397854492523 0.24378632346268406 -0.0015447275084302134 -0.003947617409328545
0.19789572001181824 0.19886270863760405 -0.00017574810361766763 -0.0007912405221681281
0.18910786460445403 0.18915875987227918 -4.975773991165808e-06 -4.591949383400685e-05
0.2015649408918231 0.20157377708224647 -2.6978365545480147e-07 -8.56640676793496e-06
0.189662158108265 0.20510906508040158 -0.004968693389479081 -0.010478213582657474
0.872990601494505 0.7390526055676268 0.037588220366347874 0.09634977556053012
0.5539047491106093 0.5357879001043425 0.002916106863461716 0.015200742142805127
0.17866788136864606 0.18188732975488936 -0.0005172074854517325 -0.002702240900791548
0.21112051562832196 0.21133028717467092 -1.8052836876875296e-05 -0.00019171870947196952
0.20469020505704813 0.20485244707354458 -1.8659897136692086e-05 -0.00014358211935982184
0.20793306602089653 0.20867637361881394 -0.00017397931156629893 -0.0005693282863510698
0.23572104052906734 0.23946095333174874 -0.0012332838650201876 -0.002506628937661122
0.28740878887919824 0.2825028754213426 4.4336899438683964e-05 0.0048615765584171435
0.3390485621732742 0.29247748033069143 0.010362359825742679 0.03620872201684008
0.379067831981907 0.26381110073738284 0.03484688133520147 0.08040984990932291
0.45234602965608683 0.22580863664123552 0.0736504731842309 0.15288691983062036
0.6373869909343453 0.23835371674045544 0.15261077139376586 0.24642250280012376
0.9265138554333017 0.2834254086946507 0.2513621703521652 0.39172627638648594
1.3347625452051375 0.30049282199504257 0.41580078095536743 0.6184689422547273
1.8556676116330597 0.3041877133425027 0.64481099053848 0.9066689077520771
2.5076147506252022 0.3210444560693531 0.9407028707595113 1.245867423796337
3.293948860492268 0.3705672666165857 1.2917905717895024 1.6315910220861785
4.267636896863891 0.47338253631293653 1.731876636112077 2.0623777244388783
5.4363016693271495 0.6294868264690876 2.267989859483709 2.538824983374353
7.168077480134505 0.9419948566685854 3.025781802944094 3.200300820521824
11.448828797330725 2.2907457189202614 4.44900098799763 4.709082090412836
19.101339685064428 1.9846901828886758 8.83548234782531 8.281167154350447
11.448828797337708 2.2907457189228264 4.449000988000129 4.709082090414755
7.168077480137276 0.9419948566728168 3.0257818029432673 3.2003008205211922
5.436301669319132 0.629486826466404 2.2679898594808905 2.538824983371837
4.267636896856321 0.4733825363117136 1.7318766361088334 2.0623777244357724
3.293948860492728 0.3705672666198754 1.2917905717881455 1.631591022084706
2.507614750623901 0.32104445607033405 0.9407028707583194 1.245867423795247
1.8556676116273587 0.30418771334038097 0.6448109905368651 0.9066689077501147
1.3347625452006402 0.3004928219946426 0.41580078095354395 0.6184689422524533
0.9265138554325489 0.2834254086951839 0.2513621703514224 0.39172627638594304
0.637386990930809 0.2383537167389917 0.15261077139281576 0.2464225027990015
0.45234602965592485 0.22580863664124506 0.07365047318418455 0.15288691983049543
0.3790678319817231 0.2638111007377035 0.034846881335018356 0.08040984990900123
0.3390485621728193 0.2924774803307909 0.010362359825564873 0.036208722016463406
0.2874087888786992 0.2825028754207881 4.4336899418633176e-05 0.004861576558492446
0.23572104052840143 0.2394609533309565 -0.0012332838649992445 -0.0025066289375558866
0.20793306602036937 0.20867637361811003 -0.00017397931154630405 -0.0005693282861942934
0.20469020505677718 0.20485244707305358 -1.865989711092992e-05 -0.00014358211916547706
0.21112051562792106 0.2113302871743469 -1.8052836884422363e-05 -0.00019171870954142833
0.17866788136833717 0.18188732975454694 -0.0005172074854418165 -0.0027022409007679943
0.5539047491091373 0.535787900102823 0.0029161068634207866 0.015200742142893795
0.3626695112319627 0.3635271253540468 -0.00012715220268359466 -0.000730461919400556
0.1694812096380386 0.16941053237072115 1.2810944006548137e-05 5.786632331088599e-05
0.21479565906029627 0.2147430144343457 9.080941443093104e-07 5.1736531806252194e-05
0.21810586346844552 0.21819541126526185 -2.080024447292468e-05 -6.874755234341382e-05
0.22372383151094355 0.22377249776527397 -9.857852250830151e-05 4.991226817797859e-05
0.25395491891970423 0.2558160208693426 -0.0010504346097541706 -0.0008106673398842801
0.3172141995789293 0.314678504480152 -0.00024656319991658935 0.002782258298694043
0.41940152393905983 0.37781311676550045 0.00824845395232429 0.033339953221234946
0.6569134860953206 0.4700239256754781 0.05061197747117932 0.13627758294866327
1.1492756382318492 0.5945601611100292 0.18422914161737552 0.37048633550444415
1.9466734435346875 0.7236221924901776 0.4700469395730437 0.7530043114714661
2.930004925730751 0.8463373885615164 0.8413312827684272 1.2423362544008072
4.119878978312416 0.998286418850721 1.3290666377289704 1.7925259217327256
5.511090657136535 1.177924244934089 1.9284636760969298 2.4047027361055178
7.070202658235579 1.3830592111677045 2.617125012462161 3.070018434605711
8.730838369956112 1.6176776444583898 3.363843252330986 3.7493174731667374
10.279731220005134 1.866882205331403 4.059901758203858 4.352947256469874
11.531260145478655 2.1526547888507044 4.623853635264843 4.754751721363108
11.9737325614263 2.3459408905949575 4.796148494681996 4.831643176149347
9.579248099163484 1.4174753626696945 4.163031439631254 3.9987412968625318
19.342027358179916 3.3324342704267824 8.100787619355046 7.908805468398095
9.57924809917202 1.417475362672714 4.163031439634331 3.998741296864967
11.973732561417242 2.345940890587532 4.796148494681031 4.831643176148681
11.531260145475532 2.1526547888531233 4.623853635261794 4.754751721360611
10.279731219994607 1.8668822053313767 4.059901758198199 4.3529472564650336
8.730838369939725 1.6176776444509002 3.363843252326305 3.749317473162521
7.070202658226037 1.3830592111648161 2.6171250124588203 3.070018434602402
5.511090657126177 1.1779242449334713 1.9284636760919984 2.4047027361007065
4.119878978302282 0.9982864188497713 1.3290666377245213 1.792525921727992
2.93000492572021 0.8463373885593742 0.8413312827645623 1.242336254396273
1.9466734435270834 0.7236221924895465 0.4700469395699407 0.7530043114675964
1.149275638226376 0.5945601611084343 0.18422914161582532 0.37048633550211596
0.656913486093146 0.47002392567458723 0.05061197747072996 0.13627758294782877
0.41940152393780084 0.3778131167648778 0.008248453952126499 0.03333995322079668
0.31721419957798014 0.3146785044791726 -0.0002465631999216192 0.0027822582987290867
0.2539549189192864 0.25581602086873656 -0.001050434609727611 -0.0008106673397224569
0.22372383151037142 0.2237724977645532 -9.857852249337234e-05 4.991226831159496e-05
0.21810586346804506 0.21819541126466985 -2.080024445229409e-05 -6.874755217254355e-05
0.2147956590601032 0.21474301443400245 9.080941538069268e-07 5.1736531946994226e-05
0.16948120963770164 0.1694105323703651 1.2810944005122655e-05 5.78663233314906e-05
0.3626695112312609 0.36352712535335624 -0.00012715220268488307 -0.0007304619194104449
0.2349066309835485 0.2349066309835485 0.0 0.0
0.15586183909935367 0.15590075529265643 -2.1378163074023543e-06 -3.677837699537325e-05
0.21189960240711395 0.21208855607473875 -1.97243732816284e-05 -0.00016922929434320572
0.22773324058994282 0.22708287607267788 7.956636492047957e-05 0.000570798152344575
0.24356986333871594 0.24642367806942603 -0.0005573948326859462 -0.0022964198980241005
0.2911092913518962 0.29685468007779436 -0.0015182973246134115 -0.004227091401284767
0.3978722578014404 0.38646814467467655 -0.0013852008089370346 0.012789313935700895
0.7079959958418107 0.5352069731445521 0.04556580158207168 0.12722322111518694
1.41355927975935 0.7099390038222079 0.23743366679174285 0.46618660914539883
2.619195487188436 0.8998019265933719 0.6793702135929449 1.0400233470021185
4.214434924636524 1.0786982230726587 1.3292676478747434 1.8064690536891197
6.165384591030299 1.2657321078007235 2.204307892281871 2.6953445909477027
8.41352880824951 1.4768156442962408 3.2577363412738958 3.678976822679372
10.983334524788393 1.7146346494566322 4.5026562563631245 4.766043618968636
13.918702501418613 1.9871922469226995 5.971228107813175 5.960282146682736
17.13166930680516 2.2866008771231017 7.620484555549034 7.224583874133028
20.356880596945672 2.610436571032249 9.289035146069669 8.457408879843747
23.153020305107347 2.980629481160007 10.6770501972629 9.495340626684431
24.552609228314175 3.119235771749482 11.431298939038456 10.002074517526234
22.71419109466984 3.0589806258367354 10.484697826536244 9.170512642296867
27.79927184000882 6.877854468057686 11.08874986328628 9.832667508664851
22.714191094668024 3.0589806258294723 10.484697826539472 9.17051264229908
24.55260922831829 3.119235771755225 11.431298939037509 10.00207451752555
23.15302030508117 2.9806294811468534 10.677050197255191 9.49534062667912
20.356880596920874 2.6104365710269417 9.289035146058362 8.457408879835565
17.131669306790958 2.2866008771248447 7.620484555540001 7.224583874126111
13.918702501395403 1.987192246915932 5.971228107804026 5.9602821466754445
10.983334524777677 1.714634649460284 4.502656256355411 4.76604361896198
8.413528808231481 1.4768156442944074 3.2577363412653693 3.678976822671703
6.1653845910163465 1.2657321078009893 2.2043078922746644 2.695344590940692
4.214434924622362 1.0786982230711275 1.3292676478686691 1.8064690536825627
2.6191954871795735 0.8998019265932514 0.679370213588939 1.0400233469973845
1.4135592797540304 0.7099390038214546 0.2374336667898789 0.466186609142696
0.7079959958391848 0.5352069731437479 0.045565801581453055 0.12722322111398415
0.3978722578002184 0.3864681446736749 -0.001385200809005587 0.01278931393554918
0.29110929135129415 0.2968546800769225 -0.0015182973245597934 -0.004227091401068649
0.24356986333833702 0.24642367806885374 -0.000557394832653175 -0.0022964198978635037
0.22773324058940164 0.2270828760721065 7.95663649146645e-05 0.0005707981523805265
0.2118996024069099 0.21208855607453694 -1.972437328159281e-05 -0.0001692292943454371
0.15586183909918735 0.15590075529249145 -2.1378163066051883e-06 -3.677837699746501e-05
0.23490663098303546 0.23490663098303546 0.0 0.0
0.14504336427909342 0.14504336427909342 0.0 0.0
0.1369788156066289 0.13696246247966676 9.89853957466213e-07 1.5363273004669434e-05
0.20222399445991968 0.20233244871762437 -9.825643754770762e-06 -9.862861394991001e-05
0.23354580595726157 0.23424062048418992 -0.00010576310249059123 -0.000589051424437834
0.2672780643466711 0.2686085812900648 -0.0003566578000566617 -0.0009738591433371012
0.3416931608201024 0.3414002507677457 -0.0019067484378351013 0.0021996584901920343
0.5700990576082513 0.49663339095742937 0.0157360650150771 0.057729601635744976
1.196246588172642 0.6931403772129014 0.1589320563882804 0.3441741545714602
2.4546249164844003 0.9305174829800543 0.5860756208906321 0.9380318126137132
4.423413237890357 1.1610591881945826 1.4213065336013733 1.8410475160944029
6.852609029063131 1.3659765051937818 2.5068680562334 2.9797644676359516
9.77981726213028 1.5851683804964765 3.9217773380409406 4.272871543592864
13.174076675398524 1.83916782790231 5.635697274429235 5.699211573066981
17.07495039380645 2.13318238217244 7.658688070676545 7.283079940957466
21.579345328339745 2.4686238269681344 10.068747239279785 9.041974262091824
26.542340933231532 2.8283822918897887 12.766413196749845 10.947545444591904
31.791375422973747 3.203441199967042 15.71445948900778 12.873474733998918
36.33688928732866 3.4732966074887006 18.29012782929972 14.573464850540232
38.68653355982006 3.501741768063132 19.713458545143713 15.471333246613217
35.9027113333119 3.075017978366026 18.28494617226202 14.542747182683849
40.327940929829644 9.707516361556795 16.91641582643388 13.704008741838972
35.90271133331967 3.075017978370129 18.28494617226429 14.54274718268525
38.68653355980766 3.5017417680560228 19.713458545140394 15.471333246611247
36.336889287318336 3.473296607497518 18.290127829288057 14.573464850532757
31.79137542295473 3.2034411999737897 15.714459488992226 12.873474733988713
26.542340933198318 2.8283822918811152 12.766413196735295 10.947545444581905
21.579345328317416 2.468623826970207 10.068747239265598 9.041974262081613
17.074950393778337 2.1331823821660763 7.658688070664162 7.283079940948097
13.174076675373525 1.8391678279020236 5.635697274415559 5.699211573055948
9.779817262105848 1.5851683804933134 3.9217773380295466 4.272871543582991
6.8526090290439 1.365976505193425 2.506868056223715 2.979764467626761
4.423413237875575 1.1610591881935348 1.421306533594636 1.8410475160874034
2.454624916475672 0.9305174829790647 0.5860756208871448 0.9380318126094623
1.196246588167506 0.6931403772118809 0.15893205638668526 0.34417415456893957
0.5700990576061504 0.4966333909564452 0.015736065014740865 0.05772960163496428
0.3416931608194402 0.3414002507667475 -0.0019067484377914279 0.002199658490484102
0.2672780643463147 0.268608581289533 -0.0003566578000337946 -0.0009738591431845757
0.23354580595695068 0.23424062048372413 -0.0001057631024723336 -0.0005890514243010906
0.20222399445964598 0.2023324487173758 -9.825643758904686e-06 -9.862861397086943e-05
0.1369788156065844 0.1369624624796258 9.898539572355688e-07 1.5363273001379168e-05
0.14504336427870526 0.14504336427870526 0.0 0.0
0.08483223689842169 0.08483223689842169 0.0 0.0
0.114083222207803 0.11408375190347649 -2.2971052855553653e-08 -5.067246206468004e-07
0.1868054237125395 0.18679163825292044 8.405459901971835e-07 1.2944913628836993e-05
0.23597825611592457 0.235989785211739 -8.850678216051245e-06 -2.678417598443725e-06
0.2926843456522491 0.2974256898043591 -0.0010131391992410847 -0.0037282049528689102
0.4244162158259674 0.4179283380754316 -0.0002467120052639326 0.0067345897557997345
0.8402674309977413 0.6064623618578355 0.06580408110744981 0.1680009880324559
1.854906774699133 0.862314642487434 0.3582912173396482 0.6343009148720509
3.741420551814382 1.1408733980767918 1.1098861437001977 1.4906610100373912
6.299297830623804 1.3783687427829965 2.206411755898034 2.714517331942774
9.66274393215542 1.621564584513407 3.842386578341446 4.198792769300571
13.630792470601868 1.8826156661136113 5.864781888378699 5.883394916109559
18.23349935459722 2.1864907434994434 8.289216593231977 7.757792017865808
23.572603468861928 2.544468762817325 11.18034467544949 9.847790030595096
29.71366297701851 2.951933530392773 14.577706573674742 12.184022872951001
36.72546548191713 3.3901901727376735 18.59400864807018 14.741266661109272
43.81677491416938 3.7571527413913683 22.680419293690058 17.379202879087952
50.19302510458653 3.897937519348699 26.612153739885834 19.682933845351982
53.33064418259747 3.6273910985080193 28.788803447511526 20.91444963657792
49.7031710208262 3.1552534683388784 26.79707090686415 19.750846645623174
54.20786922975664 12.432752368338251 23.76509616671265 18.010020694705727
49.703171020814 3.1552534683279836 26.797070906863325 19.75084664562269
53.330644182591016 3.627391098511873 28.788803447505 20.914449636574155
50.19302510456207 3.8979375193465655 26.612153739871722 19.682933845343765
43.81677491413172 3.757152741385855 22.680419293670177 17.379202879075685
36.72546548188262 3.3901901727368022 18.594008648049623 14.74126666109621
29.713662976982828 2.9519335303891103 14.577706573655613 12.184022872938097
23.572603468828884 2.5444687628161042 11.18034467543085 9.84779003058193
18.23349935456826 2.186490743502501 8.289216593213679 7.7577920178520685
13.630792470573994 1.8826156661140039 5.864781888363104 5.883394916096886
9.662743932131193 1.6215645845130644 3.842386578328811 4.198792769289316
6.29929783060577 1.3783687427825286 2.2064117558891994 2.714517331934044
3.741420551801307 1.140873398074722 1.109886143694867 1.4906610100317172
1.8549067746916355 0.8623146424865084 0.35829121733683245 0.6343009148682957
0.8402674309940913 0.6064623618565076 0.06580408110659167 0.16800098803099142
0.4244162158248797 0.41792833807455565 -0.00024671200531480465 0.006734589755638828
0.29268434565165197 0.29742568980353884 -0.0010131391992014309 -0.003728204952685439
0.23597825611561377 0.2359897852114151 -8.85067821687053e-06 -2.6784175844455443e-06
0.18680542371219325 0.1867916382525755 8.405459898997047e-07 1.294491362786854e-05
0.11408322220769339 0.1140837519033664 -2.297105282889122e-08 -5.067246201801207e-07
0.08483223689814696 0.08483223689814696 0.0 0.0
0.04669657374901387 0.04669657374901387 0.0 0.0
0.08993066791739186 0.08993066791739186 0.0 0.0
0.1672843132141652 0.16727365461987082 6.366593226293898e-07 1.002193497175889e-05
0.235671074145606 0.235988924822895 -4.7502157611025e-05 -0.0002703485196780382
0.32228249853529195 0.32484826491198854 -0.0011787871164113306 -0.001386979260285424
0.5504452947735732 0.4999868464664989 0.011166261442602193 0.03929218686447202
1.20978628547266 0.7329533292945685 0.15500988106572616 0.3218230751123653
2.6910352650743787 1.03409680820962 0.6725462971772194 0.9843921596875392
5.028277459673589 1.3123814106070784 1.607998812719613 2.1078972363468984
8.397226362375502 1.5908529557142823 3.1896100370712284 3.6167633695899903
12.613974188788951 1.8735520514073174 5.306989168156478 5.433432969225157
17.65564925317969 2.183474941520446 7.960987392477925 7.511186919181316
23.54827877935835 2.544151561437474 11.16705705207562 9.837070165845262
30.427207231301022 2.970185217133814 15.01815899922137 12.438863014945825
38.32578548499943 3.4693839278099725 19.505175660710318 15.351225896479143
47.19962686301355 3.971969727883546 24.670797675245044 18.556859459884965
56.59499691466128 4.318761944818275 30.413696386546544 21.862538583296466
64.50063066492112 4.250573981495399 35.47544402952914 24.77461265389658
68.06950378852261 3.6576813255191225 38.11250284407712 26.299319618926365
63.94437691721048 3.3211312935622264 35.72900164034294 24.8942439833053
69.33905854867714 15.198860333369307 31.596759416070256 22.543438799237546
63.94437691720597 3.3211312935645116 35.72900164033863 24.894243983302847
68.06950378850352 3.6576813255143747 38.11250284406791 26.299319618921235
64.50063066488677 4.250573981491256 35.47544402950979 24.774612653885743
56.59499691462524 4.318761944821497 30.413696386521575 21.862538583282173
47.19962686296631 3.971969727879183 24.67079767521829 18.55685945986887
38.32578548495895 3.469383927808856 19.505175660686227 15.351225896463845
30.42720723126121 2.970185217133343 15.018158999197782 12.438863014930085
23.548278779319315 2.5441515614361903 11.16705705205354 9.837070165829587
17.65564925314228 2.1834749415167756 7.960987392458767 7.511186919166729
12.613974188758084 1.8735520514055017 5.30698916814057 5.433432969212011
8.397226362350853 1.5908529557115434 3.189610037059773 3.6167633695795374
5.028277459657066 1.3123814106051248 1.607998812712637 2.107897236339304
2.691035265064131 1.0340968082078776 0.6725462971732994 0.9843921596829526
1.2097862854672978 0.7329533292929129 0.1550098810642826 0.32182307511010266
0.5504452947716547 0.49998684646548436 0.011166261442317235 0.039292186863853024
0.32228249853478 0.32484826491111696 -0.0011787871163583495 -0.001386979259978396
0.2356710741451444 0.23598892482245065 -4.7502157615355914e-05 -0.00027034851969090664
0.16728431321374013 0.1672736546194523 6.366593221431451e-07 1.0021934965748754e-05
0.08993066791726283 0.08993066791726283 0.0 0.0
0.04669657374883182 0.04669657374883182 0.0 0.0
0.024116509435655794 0.024116509435655794 0.0 0.0
0.06712653971109497 0.06712653971109497 0.0 0.0
0.14601016853334986 0.1460041943903062 3.662909033654852e-07 5.6078521402870744e-06
0.23471573851935623 0.23485247206247434 -2.5997026163043037e-05 -0.00011073651695500687
0.3662037606309044 0.3712747407220903 -0.0016984762440457502 -0.0033725038471401395
0.7225692427055079 0.5735458849287325 0.037960365559559436 0.11106299221721566
1.699485582941562 0.8692465953046805 0.31112876745908874 0.5191102201777922
3.546379175707046 1.1743443976219543 0.9730331781467586 1.3990015999383343
6.5033597896383135 1.4836919518285723 2.268149368996624 2.751518468813116
10.562293528251693 1.799227864635049 4.231417978904474 4.531647684712173
15.6905935027584 2.131070327887211 6.88020918999524 6.679313984875945
21.861121373534715 2.49728764294486 10.21367826046873 9.150155470121122
29.133469132558872 2.922492787343197 14.27802347919901 11.932952866016663
37.468005349558105 3.4225433673827688 18.99393292259855 15.05152905957679
47.216480976113644 3.9968844477379615 24.688366656632933 18.531229871742752
58.174607162264614 4.579751990657454 31.2388927016503 22.35596246995685
69.40744677431233 4.892369217263658 38.197794808607476 26.31728274844119
78.91812554249955 4.562158311388947 44.57326722323774 29.7827000078729
83.26958933133645 3.679757185617766 47.99422721161902 31.5956049340997
78.79986736007922 3.5133216059398733 45.18814335082765 30.098402403311656
85.37750923098369 17.981150653248907 40.0470702484185 27.34928832931631
78.79986736006482 3.5133216059358228 45.188143350820894 30.098402403308093
83.26958933130632 3.6797571856101756 47.99422721160421 31.595604934091913
78.91812554246216 4.562158311389382 44.57326722321299 29.782700007859752
69.407446774264 4.892369217261633 38.197794808577655 26.317282748424724
58.17460716221604 4.579751990660181 31.23889270161771 22.355962469938152
47.21648097605902 3.9968844477312166 24.688366656603037 18.531229871724758
37.46800534950757 3.422543367379475 18.993932922569677 15.051529059558424
29.133469132509273 2.922492787340735 14.278023479170919 11.932952865997617
21.861121373491667 2.497287642941083 10.213678260445974 9.150155470104608
15.690593502720212 2.1310703278839696 6.880209189975686 6.679313984860553
10.562293528223593 1.799227864633044 4.231417978890498 4.531647684700051
6.50335978961825 1.4836919518266805 2.268149368987603 2.7515184688039684
3.5463791756937497 1.1743443976195798 0.9730331781416626 1.39900159993251
1.6994855829345188 0.8692465953026971 0.3111287674569214 0.5191102201748987
0.7225692427027375 0.5735458849273762 0.03796036555905222 0.11106299221630951
0.3662037606301959 0.371274740721155 -0.001698476244004338 -0.0033725038469547613
0.2347157385190073 0.23485247206215137 -2.5997026167955124e-05 -0.00011073651697618971
0.1460101685331285 0.14600419439008502 3.662909033509835e-07 5.607852140109466e-06
0.06712653971106404 0.06712653971106404 0.0 0.0
0.024116509435573086 0.024116509435573086 0.0 0.0
0.011828103805661445 0.011828103805661445 0.0 0.0
0.04767415995235768 0.04767415995235768 0.0 0.0
0.12557672635683906 0.12557672635683906 0.0 0.0
0.23652189809274182 0.23703304549835713 -7.545820832017927e-05 -0.0004356891972952014
0.43103209671805753 0.42322920925808877 0.0009546106822677573 0.006848276777701209
0.9669673380826799 0.6790091690829838 0.09072639140401426 0.19723177759568222
2.2382019355260465 0.9871771744095695 0.4774244220217624 0.7736003390947144
4.5189740665520945 1.3054076829006527 1.3728298222763349 1.8407365613751066
8.026037977016523 1.6488672389699426 2.966864229142519 3.4103065089040596
12.817967803413516 2.0096383460227383 5.351772346610418 5.456557110780358
18.86315183279433 2.395748735089518 8.534856082257452 7.932547015447364
26.206216835306684 2.828716500538956 12.578813110971888 10.798687223795842
34.78375064845109 3.3246509580473704 17.41476808827002 14.0443316021337
44.90257762547987 3.8975483928797043 23.326990017716128 17.678039214884034
56.36831771783144 4.542170190745503 30.104107987000702 21.722039540085234
69.11147556945326 5.1697942156799614 37.81342316242445 26.12825819134888
82.35353152551961 5.467816799785174 46.222572732178975 30.663141993555488
93.5087662026036 4.913855570387305 53.91133594473684 34.68357468747947
98.84487398936534 3.7244128604460167 58.21829656499241 36.9021645639269
94.51903765565874 3.6771019492340984 55.405782959019525 35.436152747405146
102.81923334700423 20.727850299009493 49.638935816183555 32.45244723181121
94.51903765564697 3.677101949235486 55.40578295901078 35.43615274740075
98.84487398932805 3.724412860441221 58.218296564970856 36.90216456391597
93.50876620255436 4.913855570384887 53.91133594470583 34.68357468746365
82.35353152546689 5.467816799786031 46.22257273214403 30.663141993536826
69.11147556939345 5.169794215678647 37.81342316238666 26.12825819132812
56.36831771777237 4.5421701907442715 30.104107986964046 21.72203954006405
44.90257762542052 3.8975483928754087 23.326990017681908 17.6780392148632
34.78375064839885 3.3246509580486086 17.414768088237544 14.044331602112694
26.206216835252295 2.8287165005330204 12.578813110943349 10.798687223775934
18.86315183275111 2.3957487350879503 8.53485608223368 7.932547015429479
12.817967803379508 2.0096383460191993 5.351772346593695 5.456557110766612
8.026037976992239 1.6488672389673393 2.966864229131325 3.4103065088935707
4.518974066536137 1.3054076828984518 1.3728298222699953 1.8407365613676883
2.2382019355171927 0.9871771744080846 0.47742442201852425 0.7736003390905838
0.9669673380792206 0.6790091690816847 0.09072639140319277 0.1972317775943434
0.4310320967170256 0.4232292092571454 0.0009546106822266713 0.006848276777653277
0.23652189809258886 0.2370330454980891 -7.545820831544043e-05 -0.0004356891971847537
0.12557672635660405 0.12557672635660405 0.0 0.0
0.047674159952309905 0.047674159952309905 0.0 0.0
0.01182810380565633 0.01182810380565633 0.0 0.0
0.005740511900606544 0.005740511900606544 0.0 0.0
0.03276471781840488 0.03276471781840488 0.0 0.0
0.10885400811556446 0.10885400811556446 0.0 0.0
0.2464635029361091 0.2475781797428943 -0.00017253517240005186 -0.0009421416343850845
0.5254265065016512 0.4822008168980013 0.009258877595017997 0.033966812008632094
1.2808667171663028 0.7845989799376876 0.17379430162495535 0.3224734356036595
2.8355726270682133 1.0855117494556699 0.685286105333345 1.0647747722791978
5.554638268055724 1.4326099894717184 1.820647982145654 2.301380296438355
9.602899556780624 1.81061682759024 3.712908565338859 4.079374163851527
15.131690137066219 2.2219135294939325 6.521902088444538 6.387874519127754
22.152403702457217 2.6728086127211417 10.288940686001263 9.190654403734808
30.643977740209603 3.1758389617084974 15.01312129814045 12.455017480360645
40.78998167071479 3.7555869429440283 20.87126123850093 16.163133489269825
52.39198627076749 4.409696248191177 27.653972927143922 20.3283170954324
65.6845506790874 5.0877568603749275 35.67642626283143 24.920367555881022
80.25024959436121 5.695435000826346 44.70208092113588 29.852733672398976
95.1941911763626 6.004372902844661 54.30074140734992 34.889076866168
108.12944927984519 5.42865623858459 63.26916473471135 39.43162830654924
114.82866644093392 3.8011955925202736 68.87264982722743 42.15482102118618
111.289309923965 3.7387330598773016 66.5536427214187 40.996934142668984
121.81655431369379 23.304581962097213 60.48062286239582 38.03134948920073
111.28930992394223 3.738733059870338 66.55364272140814 40.99693414266374
114.8286664409031 3.8011955925281296 68.87264982720151 42.15482102117347
108.12944927979112 5.428656238586157 63.26916473467429 39.43162830653066
95.19419117629326 6.004372902839443 54.300741407307584 34.88907686614625
80.25024959430151 5.695435000830189 44.70208092109452 29.852733672376825
65.684550679016 5.0877568603699315 35.67642626278878 24.92036755585728
52.39198627069626 4.409696248184731 27.653972927103162 20.32831709540838
40.789981670648075 3.755586942937504 20.87126123846386 16.16313348924671
30.64397774015402 3.1758389617083598 15.013121298107166 12.455017480338496
22.15240370240869 2.6728086127200847 10.288940685973778 9.190654403714825
15.13169013702883 2.221913529492024 6.521902088424792 6.387874519112011
9.60289955675265 1.8106168275870653 3.7129085653258183 4.079374163839767
5.554638268036907 1.4326099894694342 1.8206479821375567 2.301380296429917
2.8355726270578097 1.0855117494543727 0.6852861053295265 1.0647747722739098
1.2808667171614403 0.7845989799360518 0.17379430162367784 0.3224734356017108
0.525426506500266 0.48220081689701005 0.009258877594864353 0.03396681200839161
0.24646350293580857 0.24757817974253202 -0.00017253517239289158 -0.000942141634330543
0.10885400811535866 0.10885400811535866 0.0 0.0
0.03276471781836367 0.03276471781836367 0.0 0.0
0.005740511900600308 0.005740511900600308 0.0 0.0
0.0027241728899765217 0.0027241728899765217 0.0 0.0
0.02253281002183405 0.02253281002183405 0.0 0.0
0.09965866958523788 0.09965866958523788 0.0 0.0
0.27318103254352005 0.2749060498750595 -0.0004433756855731269 -0.001281641645966332
0.6712984682309578 0.567642233665259 0.030245006178918423 0.07341122838678046
1.639120831752862 0.8756527652288558 0.2747702730831667 0.4886977934408394
3.51118717184914 1.186763521453236 0.9518742158562642 1.3725494345396398
6.627281127124275 1.5540595510990238 2.29755715450415 2.7756644215211024
11.239025417510867 1.970199792527543 4.513997236301131 4.754828388682194
17.495619775110644 2.4382839886977106 7.735522689869417 7.321813096543519
25.48899178891366 2.9584664071535585 12.077664434605147 10.45286094715495
35.2995577597503 3.54606174837655 17.63785209771727 14.115643913656477
46.764752753974705 4.214787922346117 24.25113353931838 18.29883129231023
60.17355216296248 4.940163505329638 32.249602935360784 22.98378572227206
75.2595534585821 5.6526822193471045 41.48458281660598 28.122288422629016
91.48770933615178 6.191285777881866 51.73688756326864 33.559535995001255
107.7989556705636 6.368535733076653 62.44659784107962 38.98382209640735
122.38750123777841 5.9980367190967385 72.4939117123836 43.89555280629804
131.09138096789547 4.235558810045415 79.57452635573175 47.28129580211829
129.2327650459908 3.5087724997013154 78.83308864464045 46.890903901649
142.51997965804188 24.74521677282391 73.42587173192865 44.348891153289316
129.23276504595205 3.508772499687013 78.83308864462388 46.89090390164113
131.09138096784392 4.235558810038891 79.57452635570144 47.281295802103635
122.38750123771803 5.998036719097321 72.49391171234251 43.89555280627823
107.7989556704938 6.368535733082045 62.44659784102943 38.98382209638225
91.48770933606541 6.191285777866714 51.73688756322178 33.559535994976954
75.25955345849975 5.6526822193431805 41.484582816555125 28.122288422601457
60.17355216289021 4.940163505328645 32.24960293531543 22.983785722246164
46.764752753897255 4.214787922340687 24.251133539273418 18.29883129228312
35.299557759682585 3.546061748370618 17.637852097679776 14.115643913632193
25.48899178886016 2.958466407151641 12.077664434574704 10.452860947133827
17.495619775067443 2.438283988694232 7.7355226898469205 7.321813096526288
11.239025417477633 1.9701997925228567 4.513997236285802 4.754828388668971
6.627281127103266 1.5540595510966448 2.297557154494832 2.775664421511793
3.5111871718363763 1.186763521451244 0.9518742158514027 1.3725494345337292
1.6391208317467143 0.8756527652273195 0.27477027308124546 0.48869779343814984
0.6712984682289139 0.5676422336642154 0.030245006178557056 0.07341122838614154
0.2731810325430189 0.27490604987440753 -0.0004433756855559156 -0.0012816416458328143
0.09965866958504863 0.09965866958504863 0.0 0.0
0.02253281002177933 0.02253281002177933 0.0 0.0
0.002724172889975807 0.002724172889975807 0.0 0.0
0.0008077720518259595 0.0008077720518259595 0.0 0.0
0.016356729744007842 0.016356729744007842 0.0 0.0
0.10368762526141925 0.10368762526141925 0.0 0.0
0.3323887913656466 0.3303280283862118 6.0706875623081635e-05 0.00200005610381173
0.8823075822089409 0.6911023173321762 0.06284768184572334 0.12835758303104117
2.086555284595251 1.0647073141249146 0.3839815366655344 0.6378664338048017
4.280045444459234 1.4759531808061028 1.179202837151075 1.6248894265020568
7.837229541340886 2.000941710504693 2.6914179916644496 3.1448698391717453
13.052143743066065 2.6525386658720875 5.126870361345063 5.272734715848918
20.19283303969511 3.465044478495532 8.694400628790843 8.033387932408731
29.3938707109832 4.468547352505999 13.513732870527267 11.411590487949939
40.60798654815912 5.680746383204939 19.545565203188264 15.381674961765924
53.982602697996214 7.090037196270046 26.97378645560061 19.91877904612555
69.45953620241625 8.65730516401918 35.80650795477827 24.99572308361876
86.69524490291894 10.178070107125361 45.98632662871119 30.530848167082404
104.82568406229564 11.287956392293514 57.21299733110874 36.32473033889338
122.29822911580527 11.561279896683056 68.69778314378883 42.03916607533341
137.22062213954962 10.860376333056184 79.24155120765398 47.1186945988395
147.7544894999176 9.785706779973406 87.13313297789215 50.83564974205207
143.89220328042612 3.5570071315109164 88.69324402012629 51.641952128788816
203.30773769713366 67.12351321436479 85.97521720075582 50.209007282013054
143.89220328041665 3.5570071315331475 88.69324402010471 51.64195212877881
147.75448949986554 9.785706779973708 87.13313297785615 50.8356497420356
137.22062213946035 10.86037633303384 79.24155120760895 47.11869459881767
122.29822911572134 11.561279896681578 68.69778314373357 42.03916607530623
104.82568406219715 11.287956392276243 57.212997331054964 36.32473033886586
86.69524490283949 10.178070107133726 45.986326628653906 30.530848167051893
69.45953620231677 8.657305163993982 35.806507954730534 24.99572308359226
53.98260269791466 7.090037196268746 26.97378645555024 19.918779046095736
40.607986548089876 5.680746383205344 19.545565203145514 15.38167496173901
29.39387071091957 4.4685473524971355 13.513732870494692 11.411590487927748
20.19283303964333 3.4650444784866234 8.694400628766221 8.033387932390486
13.05214374302955 2.6525386658680463 5.1268703613273106 5.272734715834195
7.837229541315915 2.0009417104997236 2.691417991654242 3.1448698391619487
4.280045444444536 1.4759531808034179 1.1792028371454903 1.624889426495629
2.086555284588103 1.0647073141235384 0.38398153666324863 0.6378664338013151
0.8823075822059923 0.6911023173308266 0.06284768184512876 0.12835758303003691
0.33238879136508237 0.3303280283857135 6.070687561204359e-05 0.002000056103756743
0.10368762526126035 0.10368762526126035 0.0 0.0
0.016356729743952324 0.016356729743952324 0.0 0.0
0.0008077720518205833 0.0008077720518205833 0.0 0.0
CELL_DATA 800
SCALARS Stress float 6
LOOKUP_TABLE default
161.3536272667515 -513.4436684063667 -182.11596454656478 -108.55298907122634 0.0 0.0
399.65929862617827 -57.06394366946356 116.31694798298251 56.91435840298374 0.0 0.0
400.0471499451394 9.28472572250903 122.6033766953898 -3.5768382830127994 0.0 0.0
459.8573622608471 -11.37349562237379 140.43214827203178 -14.360528985508559 0.0 0.0
535.187074922688 -16.507739772031442 190.67001276747555 -11.499155704515292 0.0 0.0
606.8994395254435 -10.842240546539639 261.43353551981323 -9.955458952414354 0.0 0.0
676.4154073852252 -3.7957918595689506 321.19457224743536 -10.210066801606523 0.0 0.0
746.202207669158 11.035026102531006 372.2369374016606 -11.544040087622175 0.0 0.0
817.7938923452832 33.10870667803145 421.6997360511104 -13.053157516832046 0.0 0.0
891.3930020249989 61.663706232274706 473.64984086289707 -14.124133540740122 0.0 0.0
965.8573701623695 94.76115720779009 527.8864006814423 -14.611615260799228 0.0 0.0
1040.0322799650062 131.33523614744203 583.5883843853098 -14.54750266979645 0.0 0.0
1113.8815471174241 169.93706733134212 640.0464319450984 -14.319164395002385 0.0 0.0
1188.2083558138079 211.13567887384252 697.9604532543162 -14.035585530354485 0.0 0.0
1263.7185095618029 255.78053711673152 758.141956759163 -13.585421971740956 0.0 0.0
1339.8394418394382 303.59846676298696 820.1908467801404 -12.776934291726235 0.0 0.0
1414.2691754387772 352.9849294182998 882.1671048423302 -11.437775603820379 0.0 0.0
1484.024687204971 401.8101182178764 941.501520427191 -9.682994309077888 0.0 0.0
1546.7324957948697 448.71911014805266 996.2770874993037 -8.547407252647211 0.0 0.0
1625.9863202623574 519.2941159078063 1070.6558363807708 -12.261511027093228 0.0 0.0
1625.9863202619063 519.2941159073678 1070.6558363803847 12.261511027140866 0.0 0.0
1546.732495794531 448.7191101477491 996.2770874990148 8.5474072525891 0.0 0.0
1484.0246872050334 401.8101182180101 941.5015204271767 9.682994309150246 0.0 0.0
1414.2691754393393 352.9849294189647 882.167104842604 11.43777560377621 0.0 0.0
1339.8394418389682 303.5984667626301 820.1908467796936 12.77693429178433 0.0 0.0
1263.7185095610082 255.7805371160755 758.141956758546 13.585421971697539 0.0 0.0
1188.208355813058 211.1356788732407 697.96045325383 14.035585530374586 0.0 0.0
1113.88154711759 169.9370673316969 640.0464319453031 14.319164395030409 0.0 0.0
1040.032279965691 131.33523614835389 583.5883843856791 14.547502669834554 0.0 0.0
965.8573701622848 94.76115720793939 527.8864006812704 14.611615260797794 0.0 0.0
891.3930020236244 61.66370623110987 473.64984086193897 14.124133540639512 0.0 0.0
817.7938923443994 33.1087066774184 421.6997360505287 13.05315751691722 0.0 0.0
746.2022076687799 11.035026102403592 372.2369374013977 11.544040087625918 0.0 0.0
676.4154073842258 -3.79579186033223 321.1945722467462 10.210066801612163 0.0 0.0
606.8994395247722 -10.842240546976235 261.43353551929425 9.955458952284705 0.0 0.0
535.1870749225175 -16.507739771919283 190.67001276730215 11.499155704487197 0.0 0.0
459.8573622607924 -11.373495622115852 140.4321482720714 14.36052898548936 0.0 0.0
400.0471499451081 9.284725722766662 122.60337669546082 3.5768382829885828 0.0 0.0
399.6592986262416 -57.06394366924799 116.3169479830186 -56.91435840294659 0.0 0.0
161.35362726724955 -513.4436684058709 -182.11596454606322 108.55298907089443 0.0 0.0
62.021684547657344 -542.5859870237734 -241.86495366788324 -154.4272907567232 0.0 0.0
258.66743169389764 -43.934900300429916 64.43089976816013 10.772684897182529 0.0 0.0
350.5744051786122 28.568900588429685 113.74250160378463 -10.058652897390395 0.0 0.0
423.3041422005001 -8.990296153293222 125.8175606234044 -34.212409543685396 0.0 0.0
506.40398812839385 -17.24318364441141 168.97114464603936 -32.63960437983065 0.0 0.0
582.7981399749902 -11.962170380002757 239.99036706797418 -29.431391130689246 0.0 0.0
656.1635409741242 -4.875005163728559 305.5987306530536 -30.04502810168984 0.0 0.0
726.9572738057384 9.462833182355844 359.89265847225374 -32.065344594422434 0.0 0.0
797.4012000994084 30.181170606254113 409.2861037910558 -34.38292709208106 0.0 0.0
868.1894015002974 56.29756794027951 458.99323707842643 -35.763020753881 0.0 0.0
938.4980167479852 85.96159134444794 509.58386342858404 -35.94762047470523 0.0 0.0
1007.9190809244078 117.82800160964669 560.6141357191484 -35.32057141774175 0.0 0.0
1076.6827432229788 152.2021842322629 612.4420909562685 -34.41849744034602 0.0 0.0
1145.8716164612047 188.99232662342263 665.6091377192452 -33.451050754843166 0.0 0.0
1215.8047839651365 228.51913562893702 720.4701468822801 -32.201278737937294 0.0 0.0
1285.9692532369393 270.71225557463924 776.7508416624909 -30.25440268867129 0.0 0.0
1355.0393299977627 314.8405378172347 833.4187275245895 -27.38142073676316 0.0 0.0
1421.4931814948745 360.3049742402105 889.3896421225375 -24.050039479732067 0.0 0.0
1489.0238732036673 412.1491729825809 948.9200864025105 -21.497100764688486 0.0 0.0
1538.8526385215978 452.97402171395703 994.0837360088029 -19.25204411833574 0.0 0.0
1538.8526385217494 452.9740217141278 994.0837360089197 19.25204411838928 0.0 0.0
1489.0238732035612 412.14917298250896 948.9200864024276 21.497100764730824 0.0 0.0
1421.4931814948407 360.30497424025106 889.3896421224911 24.050039479813734 0.0 0.0
1355.0393299973023 314.8405378168702 833.4187275241982 27.381420736844177 0.0 0.0
1285.969253237261 270.7122555750825 776.7508416626154 30.254402688688753 0.0 0.0
1215.804783964653 228.51913562858914 720.470146881907 32.20127873791232 0.0 0.0
1145.8716164607833 188.9923266231409 665.609137718892 33.45105075475948 0.0 0.0
1076.6827432220252 152.20218423148617 612.4420909555073 34.41849744039396 0.0 0.0
1007.9190809249415 117.8280016104112 560.6141357194389 35.320571417824574 0.0 0.0
938.4980167481248 85.96159134480624 509.58386342864446 35.94762047459878 0.0 0.0
868.1894015002363 56.29756794043635 458.99323707834185 35.76302075372628 0.0 0.0
797.4012000991331 30.18117060624182 409.2861037908697 34.38292709217433 0.0 0.0
726.9572738052879 9.462833182175814 359.8926584719046 32.065344594359814 0.0 0.0
656.1635409737912 -4.875005163778383 305.59873065277225 30.045028101657675 0.0 0.0
582.7981399748334 -11.962170379847976 239.99036706776835 29.431391130700796 0.0 0.0
506.40398812826896 -17.24318364420655 168.97114464594054 32.63960437983138 0.0 0.0
423.3041422003495 -8.99029615316038 125.8175606233961 34.212409543660165 0.0 0.0
350.57440517839046 28.56890058800665 113.74250160359156 10.058652897447828 0.0 0.0
258.6674316940067 -43.93490030014203 64.43089976828182 -10.7726848973319 0.0 0.0
62.02168454799468 -542.5859870234486 -241.86495366754335 154.42729075643308 0.0 0.0
12.45018804760997 -548.2972669445304 -262.10271661603616 -168.82766044495702 0.0 0.0
147.88631804332869 -37.08093985357769 33.2416134569253 -42.759892285697376 0.0 0.0
285.1493428778391 32.32600125732167 95.24260324054822 -33.12543154706014 0.0 0.0
376.3601136459893 -0.6956387422568433 113.02199429366915 -53.52070022867036 0.0 0.0
468.26556537133615 -15.870785144787181 147.79795890389798 -55.9452027815198 0.0 0.0
555.4032596681582 -14.936007625511534 214.27320650914686 -50.868540083236596 0.0 0.0
631.731582686229 -5.095708693128749 286.6254989066959 -50.19710431367056 0.0 0.0
703.3307897802055 7.94765286115085 344.43602179921237 -52.52810153313973 0.0 0.0
773.087100368149 27.346881035739493 394.6224936587818 -55.2697010367229 0.0 0.0
841.0272317213553 50.731296817545186 442.14504740723146 -56.687237914443905 0.0 0.0
907.2812238162285 76.67547934550878 489.04784413893515 -56.51596724241286 0.0 0.0
971.8906772437583 104.57237036890065 535.7697750863576 -55.32485157501098 0.0 0.0
1035.9231285399874 134.23663874992184 582.9180402940575 -53.92632696720571 0.0 0.0
1099.8076669449938 166.38904769215378 631.1489781656121 -52.34410418445217 0.0 0.0
1163.9694122593476 200.62520902647728 680.5120976256818 -50.32603682954823 0.0 0.0
1228.2014601423648 237.00373123021015 730.9414106966776 -47.43185140191239 0.0 0.0
1292.0936012768975 275.8532593214989 782.376355193368 -43.447482828635245 0.0 0.0
1356.589284990546 319.15565646284836 836.2455882381757 -38.85997240950847 0.0 0.0
1416.894296975069 363.30662553964174 888.3844654975709 -33.476981206949695 0.0 0.0
1459.177567976713 395.61357904354423 925.572397530459 -25.3365841549393 0.0 0.0
1459.1775679761715 395.6135790430168 925.5723975300242 25.336584154962452 0.0 0.0
1416.8942969749348 363.30662553954744 888.3844654973973 33.476981207008784 0.0 0.0
1356.5892849907757 319.15565646315133 836.245588238309 38.85997240958412 0.0 0.0
1292.093601276996 275.8532593217193 782.3763551933707 43.44748282880245 0.0 0.0
1228.2014601424114 237.0037312303591 730.9414106966951 47.431851401869366 0.0 0.0
1163.9694122586795 200.62520902593195 680.5120976251841 50.32603682950311 0.0 0.0
1099.8076669439372 166.38904769123965 631.1489781648063 52.3441041844508 0.0 0.0
1035.9231285390445 134.2366387491681 582.918040293404 53.926326967303254 0.0 0.0
971.8906772429194 104.57237036826481 535.769775085882 55.32485157507506 0.0 0.0
907.2812238158283 76.67547934532783 489.0478441387378 56.51596724241179 0.0 0.0
841.0272317211287 50.73129681757648 442.14504740705337 56.68723791449038 0.0 0.0
773.0871003679233 27.34688103573299 394.6224936586364 55.269701036586895 0.0 0.0
703.3307897797746 7.947652860959792 344.43602179891946 52.528101533016695 0.0 0.0
631.7315826856943 -5.095708693389888 286.62549890626684 50.19710431368512 0.0 0.0
555.403259667876 -14.936007625468875 214.2732065088905 50.868540083198624 0.0 0.0
468.26556537083803 -15.870785145048805 147.79795890360646 55.94520278147243 0.0 0.0
376.3601136458291 -0.6956387420999413 113.02199429367597 53.520700228551405 0.0 0.0
285.1493428779851 32.326001257616035 95.24260324068032 33.12543154694485 0.0 0.0
147.88631804350166 -37.08093985321687 33.24161345708543 42.75989228555859 0.0 0.0
12.450188047716097 -548.2972669443717 -262.1027166158183 168.82766044478177 0.0 0.0
-5.996773644994988 -534.6135178660584 -256.05183821237176 -171.06518931757043 0.0 0.0
86.61792929661972 -37.831744260334915 14.635855510885442 -88.07687285124531 0.0 0.0
223.13684115008587 30.067581625298715 75.96132683261536 -63.57549253749317 0.0 0.0
324.6784891467707 6.476538519265142 99.33844348319188 -74.48655921924203 0.0 0.0
420.4434303648625 -13.289531388411639 127.22866948998947 -81.22042722192457 0.0 0.0
516.9154560464241 -15.979650223569335 186.07031106290017 -74.34416629580505 0.0 0.0
600.3538206237283 -6.721720214284666 261.32021208431576 -71.15849924904673 0.0 0.0
675.0970983186763 7.050901266585285 325.55271789845676 -73.05990905264002 0.0 0.0
743.9822767700834 24.3708741127233 376.87652696856014 -75.68656952046788 0.0 0.0
809.3042737231756 44.93550724933733 422.6731970249755 -76.90305413562255 0.0 0.0
871.7131309070869 67.26189632327517 466.1797837382821 -76.32313865884946 0.0 0.0
931.9803021897662 91.0562109248757 508.8007319606498 -74.65214091068962 0.0 0.0
990.8688101862081 116.31478687916183 551.2324838067752 -72.761188310004 0.0 0.0
1049.7267299561786 143.57875879309384 594.5521442094173 -70.6953305819249 0.0 0.0
1108.2134861258403 172.27450762661985 638.3470573349301 -68.02264094438819 0.0 0.0
1166.200808644318 202.82159388612033 682.7630686981001 -64.35236015453194 0.0 0.0
1225.126652800522 236.47533562213783 729.118015169578 -59.61483921685593 0.0 0.0
1284.6804020143982 274.2380812909991 777.7566722464613 -53.715353637890324 0.0 0.0
1339.938754070998 312.2096451889828 824.3050147414747 -45.29870864018684 0.0 0.0
1379.5515069524304 340.14252784199806 857.9832844569377 -31.77757166841212 0.0 0.0
1379.551506951952 340.14252784154814 857.98328445664 31.77757166857542 0.0 0.0
1339.9387540717807 312.2096451898607 824.3050147420547 45.29870864041634 0.0 0.0
1284.6804020143402 274.2380812909988 777.7566722463515 53.715353637891425 0.0 0.0
1225.126652799582 236.4753356212816 729.1180151689455 59.61483921691139 0.0 0.0
1166.2008086435167 202.82159388542192 682.7630686975683 64.35236015456236 0.0 0.0
1108.213486124928 172.2745076258503 638.3470573342951 68.02264094446846 0.0 0.0
1049.7267299558778 143.5787587929615 594.5521442092097 70.6953305820168 0.0 0.0
990.868810185856 116.31478687899212 551.2324838064983 72.76118831005527 0.0 0.0
931.9803021882202 91.05621092351663 508.80073195950024 74.65214091069542 0.0 0.0
871.7131309061406 67.26189632251055 466.1797837375539 76.32313865876942 0.0 0.0
809.3042737222133 44.93550724855314 422.67319702428017 76.9030541355216 0.0 0.0
743.9822767697914 24.370874112642028 376.8765269683076 75.6865695203388 0.0 0.0
675.0970983182252 7.050901266354657 325.5527178981032 73.05990905249226 0.0 0.0
600.3538206232922 -6.721720214457612 261.32021208392456 71.15849924892692 0.0 0.0
516.9154560461322 -15.979650223574133 186.07031106264154 74.3441662956499 0.0 0.0
420.44343036433065 -13.289531388697288 127.22866948972455 81.2204272218184 0.0 0.0
324.6784891465905 6.476538519193431 99.33844348311766 74.48655921921397 0.0 0.0
223.13684115013442 30.06758162540494 75.9613268326618 63.575492537371474 0.0 0.0
86.61792929683003 -37.83174425995808 14.635855511061585 88.07687285103181 0.0 0.0
-5.996773644858763 -534.6135178657426 -256.0518382120818 171.06518931744267 0.0 0.0
-9.808796619646614 -509.7168988989944 -235.67667688266687 -168.90211299159117 0.0 0.0
51.6585850773235 -39.64382201959929 3.6044289173172603 -123.33533673137575 0.0 0.0
169.6213107181394 24.948835587269294 58.37104389162259 -94.30797811563836 0.0 0.0
270.0313942882343 10.666898255930718 84.208641796653 -96.93672540650397 0.0 0.0
363.0722032399529 -8.39419157540789 108.01051347366835 -105.87699354472386 0.0 0.0
467.13168932940306 -16.148459621206097 156.42460089786337 -100.98691498140363 0.0 0.0
561.3649154420691 -8.902909138872626 230.18375137950346 -94.09653743035719 0.0 0.0
640.516399454128 5.69782571307714 301.07801661242763 -93.68137097631751 0.0 0.0
709.3856832920326 21.493541838197835 355.31415207036565 -95.68398297430116 0.0 0.0
772.3470156751242 38.93192449799292 400.0454040018407 -96.46212140976763 0.0 0.0
831.2824340242055 57.695350728233194 440.6139478129452 -95.40781889328149 0.0 0.0
887.0945714037753 77.40084128055301 479.17442859285916 -93.25237626385406 0.0 0.0
941.2194205709144 98.25305323207918 517.1307941207078 -91.02276425440574 0.0 0.0
994.4534906217924 120.61696217668214 555.2440470323213 -88.47574605273118 0.0 0.0
1047.3598839235515 144.00691444004622 593.6368609122967 -85.23985690289129 0.0 0.0
1099.966646943659 168.65340680314407 632.4534765742875 -81.07037470300405 0.0 0.0
1152.4482986869643 195.85993169112558 672.3943185483785 -75.73608780001234 0.0 0.0
1206.1009524771803 226.93936670506756 714.7573327822269 -68.69865829322372 0.0 0.0
1257.5021070044043 259.23817529656696 756.5415237741583 -57.564492261363924 0.0 0.0
1297.211656317692 284.68979586525904 789.0070251090418 -39.12022440403058 0.0 0.0
1297.2116563174018 284.68979586499034 789.0070251088155 39.120224404170735 0.0 0.0
1257.5021070038647 259.23817529609187 756.5415237737527 57.56449226150335 0.0 0.0
1206.100952476893 226.93936670484408 714.7573327820143 68.6986582932854 0.0 0.0
1152.448298686338 195.8599316905818 672.3943185478818 75.73608779998801 0.0 0.0
1099.9666469433182 168.6534068028817 632.4534765739642 81.07037470296717 0.0 0.0
1047.3598839233189 144.00691443992338 593.636860912042 85.23985690284796 0.0 0.0
994.4534906215479 120.61696217662455 555.2440470321299 88.47574605285985 0.0 0.0
941.2194205707311 98.2530532320419 517.1307941205716 91.02276425436455 0.0 0.0
887.0945714037367 77.40084128072252 479.17442859282323 93.25237626389381 0.0 0.0
831.2824340243108 57.69535072858437 440.61394781295127 95.40781889331647 0.0 0.0
772.3470156749352 38.931924498054286 400.0454040017133 96.46212140974771 0.0 0.0
709.3856832916549 21.493541838051456 355.31415207009104 95.68398297426089 0.0 0.0
640.5163994538998 5.697825713124772 301.07801661218423 93.68137097625575 0.0 0.0
561.3649154416565 -8.902909138979503 230.18375137914168 94.09653743029952 0.0 0.0
467.1316893287745 -16.148459621676448 156.42460089742167 100.98691498122798 0.0 0.0
363.07220323956733 -8.394191575452568 108.01051347354345 105.87699354464436 0.0 0.0
270.0313942880468 10.66689825585167 84.20864179657956 96.93672540643654 0.0 0.0
169.6213107180796 24.94883558715828 58.37104389157135 94.30797811547396 0.0 0.0
51.65858507748469 -39.64382201928011 3.604428917461376 123.33533673122201 0.0 0.0
-9.808796619619272 -509.71689889872687 -235.67667688241497 168.90211299150872 0.0 0.0
-7.03080813649089 -477.3365136523332 -207.36816994085214 -165.47433038169518 0.0 0.0
30.169844333981235 -40.82942376708684 -3.1978738299316802 -149.53542849951128 0.0 0.0
123.80828228697993 18.89055021029081 42.80964974918122 -121.53652863349708 0.0 0.0
214.6424329637884 12.48444817177539 68.13408788208557 -119.30459055597821 0.0 0.0
300.54943034852806 -2.962540065509108 89.7028093014259 -128.58613971529613 0.0 0.0
401.4055660693493 -14.714610675413951 126.26816621151265 -129.38150252858694 0.0 0.0
506.8403885790524 -9.926258708330941 193.25093806391487 -120.03583385413114 0.0 0.0
595.124581544337 2.9069859556166744 267.6443065696366 -115.50399805445856 0.0 0.0
667.6021086394851 18.261935380173707 327.968905106271 -115.53249008796149 0.0 0.0
729.0156509789236 32.89667265599542 373.2712380903552 -115.38134537375126 0.0 0.0
784.443182329366 47.868329739716245 411.3075885253383 -113.79322903881565 0.0 0.0
836.1972993867821 63.66328135828401 446.31666004105296 -111.19294895442387 0.0 0.0
885.3917856394751 80.25537867147453 479.86753480131034 -108.59385445504915 0.0 0.0
933.2205697362729 97.53161067554603 512.840594984174 -105.79518971301408 0.0 0.0
980.7497371716984 115.6963813346435 545.9803562196973 -102.15071808636571 0.0 0.0
1027.3281277103001 134.88933319734343 579.1024816282912 -97.39325348827305 0.0 0.0
1073.2915171536597 154.79828013185215 612.2056020635447 -91.6866507858224 0.0 0.0
1119.9921416062423 177.6653606897277 647.0244112351932 -83.97349405005195 0.0 0.0
1167.59011343661 203.99133928098632 683.8999051619635 -70.74564337438754 0.0 0.0
1209.5515539811395 227.99936893956206 716.7097685622017 -47.945476730791555 0.0 0.0
1209.5515539812343 227.99936893968925 716.7097685623205 47.94547673091926 0.0 0.0
1167.5901134368758 203.99133928135586 683.8999051622401 70.74564337463322 0.0 0.0
1119.9921416075415 177.6653606911721 647.0244112360787 83.97349405028616 0.0 0.0
1073.2915171538798 154.79828013223656 612.2056020636644 91.68665078603223 0.0 0.0
1027.3281277106976 134.88933319795615 579.1024816285241 97.39325348849428 0.0 0.0
980.7497371723339 115.6963813354784 545.980356220035 102.1507180865116 0.0 0.0
933.2205697359046 97.53161067536624 512.8405949838759 105.79518971311813 0.0 0.0
885.3917856388256 80.255378670993 479.8675348008225 108.59385445508943 0.0 0.0
836.1972993863945 63.66328135812461 446.3166600407367 111.19294895450173 0.0 0.0
784.4431823289226 47.8683297394752 411.30758852499844 113.7932290387871 0.0 0.0
729.015650979076 32.896672656450704 373.27123809040023 115.38134537381869 0.0 0.0
667.6021086392293 18.26193538022305 327.96890510606715 115.53249008799946 0.0 0.0
595.1245815437131 2.906985955251855 267.64430656914 115.50399805440462 0.0 0.0
506.8403885785292 -9.926258708532249 193.25093806350142 120.03583385405973 0.0 0.0
401.4055660693325 -14.714610674984094 126.26816621155079 129.38150252845466 0.0 0.0
300.5494303484104 -2.962540065295368 89.70280930145466 128.58613971516962 0.0 0.0
214.64243296370455 12.48444817179409 68.13408788206745 119.3045905558273 0.0 0.0
123.80828228704398 18.890550210440267 42.80964974924527 121.53652863334123 0.0 0.0
30.16984433400419 -40.82942376695499 -3.197873829885241 149.5354284993597 0.0 0.0
-7.030808136509478 -477.3365136521215 -207.36816994063042 165.47433038161938 0.0 0.0
-1.410833973297649 -438.9839448681429 -174.77378254933967 -162.03588873060116 0.0 0.0
14.727386248267802 -41.995759996248445 -8.18056433264684 -167.84511368929955 0.0 0.0
83.392733120292 13.059082856392237 28.93554479300527 -143.69143262546243 0.0 0.0
159.7523022774238 13.755000504185087 52.04906725679548 -139.76073211864613 0.0 0.0
234.57773318989578 1.0696424810195848 70.92126436221534 -148.9085601126671 0.0 0.0
324.1320351554015 -10.54492977614112 97.85151776708665 -156.55232644369858 0.0 0.0
433.73154849589116 -10.452613465359521 151.60530934832326 -149.37137230621235 0.0 0.0
533.869801468821 0.375158592777459 224.3872320114204 -139.8384568157841 0.0 0.0
613.3141887265044 13.817859787636133 290.3019474370012 -135.95012321934774 0.0 0.0
676.4282733593724 26.636873980376663 339.66760718655047 -133.90722777382027 0.0 0.0
728.8764335121011 37.80934839518251 376.49736455760956 -131.52061109164015 0.0 0.0
776.808832518751 49.89928458108301 408.7104650077467 -128.4789910507215 0.0 0.0
821.1970751332804 62.2113854836671 438.15073485225605 -125.57214660438646 0.0 0.0
863.3929075699385 74.70198717551699 466.15509277434677 -122.57061051755602 0.0 0.0
904.7825555480879 87.31575540699892 493.5435691833857 -118.75732900275587 0.0 0.0
946.676553510043 101.3497349351918 521.7896990602304 -113.57562053536877 0.0 0.0
985.8818657283209 114.36976751929859 548.1781385906828 -107.24980683524807 0.0 0.0
1023.8287533810724 127.46164419895261 573.8276714548774 -99.3913789074193 0.0 0.0
1066.8241190434435 145.59143193842795 604.2671593835324 -85.32516290700312 0.0 0.0
1113.2042685557674 168.61551105920148 638.6715064966942 -59.12014607195554 0.0 0.0
1113.2042685558765 168.615511059388 638.6715064968158 59.12014607222753 0.0 0.0
1066.824119043122 145.59143193826887 604.2671593834289 85.32516290740688 0.0 0.0
1023.82875338016 127.46164419813636 573.8276714542455 99.3913789075591 0.0 0.0
985.8818657273647 114.36976751842494 548.1781385899625 107.24980683532374 0.0 0.0
946.676553508929 101.34973493410271 521.7896990594579 113.57562053526476 0.0 0.0
904.78255554633 87.31575540515547 493.5435691822373 118.75732900249287 0.0 0.0
863.3929075692942 74.70198717490351 466.15509277396643 122.57061051745649 0.0 0.0
821.1970751332431 62.211385483750604 438.15073485222973 125.57214660436465 0.0 0.0
776.8088325176157 49.899284580066265 408.71046500703096 128.4789910506566 0.0 0.0
728.8764335111358 37.809348394267644 376.4973645569262 131.5206110914695 0.0 0.0
676.428273359463 26.636873980735487 339.6676071865665 133.90722777383263 0.0 0.0
613.3141887262412 13.817859787632415 290.30194743677646 135.95012321931165 0.0 0.0
533.8698014684352 0.3751585927822134 224.38723201109346 139.83845681581843 0.0 0.0
433.73154849574325 -10.45261346481515 151.6053093482804 149.3713723063368 0.0 0.0
324.1320351552978 -10.544929775833007 97.85151776712503 156.55232644360535 0.0 0.0
234.57773318973273 1.0696424809535063 70.92126436215304 148.90856011250713 0.0 0.0
159.75230227732555 13.755000504122478 52.04906725674821 139.7607321184522 0.0 0.0
83.3927331202349 13.059082856294559 28.935544792958826 143.6914326252916 0.0 0.0
14.727386248278428 -41.9957599960723 -8.180564332590748 167.84511368916276 0.0 0.0
-1.4108339733118385 -438.983944867893 -174.77378254912244 162.03588873051535 0.0 0.0
3.280082136134226 -396.15351916843986 -142.56647878877868 -159.30070742974516 0.0 0.0
0.10811434663333852 -43.646989654407534 -13.060898991556243 -178.53712427110568 0.0 0.0
46.46411324962996 8.377730271665746 16.45214998514117 -160.76098090525923 0.0 0.0
106.20493572795709 15.055263576574813 36.37640302861243 -156.840213550996 0.0 0.0
166.28993035281277 3.7782634496042147 51.15604560295944 -166.78232699347834 0.0 0.0
235.80703100292706 -4.883706808369718 70.85526677971461 -178.17603739174046 0.0 0.0
334.6804214386795 -8.37391902547525 107.97051456516262 -180.12271666506766 0.0 0.0
446.600511792459 -1.7322634393254965 170.04911103911786 -168.6324254528551 0.0 0.0
538.314949493826 8.73339436696077 237.3083045239464 -158.62394820833725 0.0 0.0
606.3542532485129 19.456927489043828 292.2223970907749 -152.64581300119758 0.0 0.0
659.0469791657549 27.4361068224549 331.49855533374534 -148.9499599085948 0.0 0.0
703.1204447226826 35.83744241432395 362.23906051204705 -145.1986040009332 0.0 0.0
742.8539002260596 44.39197263960366 388.6790185615397 -141.93476561400627 0.0 0.0
779.391664970362 52.111391467641404 412.11845984047096 -138.81298086586818 0.0 0.0
814.6758889171141 59.305927288677545 434.09338362369795 -135.1289865626438 0.0 0.0
850.6618524570389 67.39807194864622 456.49346650939617 -129.7551863105011 0.0 0.0
886.2458400076766 75.53258752675023 478.70090937039834 -122.57214010626123 0.0 0.0
915.0414350474795 78.31679234336113 494.8894366188914 -114.48924725375475 0.0 0.0
948.045771867276 83.22321716187273 513.7235256159636 -101.31705112891265 0.0 0.0
1000.0365416550154 104.17988320768949 549.6228684934381 -73.8694857284358 0.0 0.0
1000.0365416558003 104.17988320853777 549.6228684939414 73.86948572865248 0.0 0.0
948.0457718679896 83.22321716281084 513.7235256164074 101.31705112930246 0.0 0.0
915.0414350476632 78.3167923437442 494.8894366189441 114.48924725400991 0.0 0.0
886.2458400076035 75.53258752680094 478.7009093702209 122.57214010637753 0.0 0.0
850.6618524571637 67.39807194892632 456.4934665093981 129.75518631057975 0.0 0.0
814.6758889178271 59.30592728967463 434.093383624147 135.12898656279228 0.0 0.0
779.3916649712074 52.11139146887592 412.11845984102166 138.81298086615385 0.0 0.0
742.8539002260219 44.39197263985238 388.67901856149825 141.93476561423165 0.0 0.0
703.1204447232731 35.83744241536819 362.23906051242494 145.19860400124594 0.0 0.0
659.0469791655759 27.43610682258769 331.4985553336095 148.94995990867722 0.0 0.0
606.3542532479843 19.456927488647246 292.22239709036063 152.6458130010978 0.0 0.0
538.3149494936222 8.733394367029184 237.30830452373638 158.62394820828442 0.0 0.0
446.6005117920162 -1.7322634392657505 170.04911103884172 168.63242545294383 0.0 0.0
334.68042143825267 -8.373919025327142 107.97051456500417 180.12271666503614 0.0 0.0
235.8070310028122 -4.883706808251935 70.8552667797117 178.17603739156314 0.0 0.0
166.28993035277244 3.778263449757781 51.15604560299889 166.782326993345 0.0 0.0
106.20493572806987 15.055263577016515 36.37640302877958 156.84021355077215 0.0 0.0
46.46411324967837 8.377730271846465 16.45214998521042 160.76098090495526 0.0 0.0
0.10811434659721919 -43.64698965428007 -13.060898991529617 178.5371242708191 0.0 0.0
3.280082136162086 -396.1535191681751 -142.5664787885769 159.30070742960623 0.0 0.0
2.4129014890290534 -349.6276366302792 -115.38680114706207 -155.23602540540577 0.0 0.0
-17.005287355994355 -46.83059211604251 -19.149038687040893 -184.24613021434698 0.0 0.0
12.001731937426271 5.668971588483127 5.300915215915839 -172.91699451771146 0.0 0.0
54.17538752866131 16.062052963274724 21.070118424080377 -170.02460681710488 0.0 0.0
96.37896401244456 7.303418671486439 31.195187019241015 -179.89552999193623 0.0 0.0
142.41145312908623 -1.07614981071064 43.158291034692 -194.90556766492995 0.0 0.0
209.55103352132602 -3.328086106075215 65.18887412153829 -204.42896818158 0.0 0.0
311.1861876006405 -1.1105830454103245 105.75810131662101 -200.821087997578 0.0 0.0
418.46384165300765 4.518707461716724 162.28151964615645 -186.89989106666934 0.0 0.0
498.96197866249446 10.930937434306095 217.64733122283445 -173.93646330460882 0.0 0.0
555.4370872307628 17.10269987048858 261.7475397798214 -166.62417184952741 0.0 0.0
597.680924880784 21.33126426977894 293.82947418289103 -161.75934509117184 0.0 0.0
633.4526590929206 26.462019812559234 319.91760209503184 -157.89737921547686 0.0 0.0
664.4229228056046 30.04913179679096 340.83429459223987 -154.47522442260092 0.0 0.0
692.821270290232 31.85804392656391 358.1309498389403 -150.90817273284034 0.0 0.0
721.8773368349916 33.20068059811982 374.4289855064095 -146.06831349074557 0.0 0.0
754.829062064584 35.996415093063206 392.71780564529246 -138.28013265573207 0.0 0.0
784.2223106231271 35.169909887130245 407.6976034113342 -128.5610026783397 0.0 0.0
799.9457804946069 18.090825458844733 407.5068832328873 -117.62115723469165 0.0 0.0
854.1035719965308 28.99114880819161 438.7318885493536 -94.16017701330358 0.0 0.0
854.103571996016 28.99114880770992 438.7318885490583 94.16017701344913 0.0 0.0
799.9457804930084 18.090825457213498 407.5068832319366 117.62115723487292 0.0 0.0
784.2223106219324 35.169909885995054 407.697603410586 128.56100267857664 0.0 0.0
754.82906206394 35.99641509246382 392.7178056448132 138.2801326558458 0.0 0.0
721.8773368350782 33.20068059829339 374.4289855064319 146.06831349073224 0.0 0.0
692.8212702893283 31.85804392564407 358.13094983833685 150.90817273284551 0.0 0.0
664.4229228046694 30.049131795862976 340.834294591589 154.4752244226774 0.0 0.0
633.4526590928466 26.46201981268149 319.91760209498545 157.89737921557798 0.0 0.0
597.6809248806245 21.33126426984738 293.82947418274745 161.75934509120447 0.0 0.0
555.4370872303869 17.102699870178398 261.74753977950206 166.62417184935288 0.0 0.0
498.9619786618561 10.93093743362698 217.64733122231996 173.9364633044525 0.0 0.0
418.4638416526262 4.51870746159252 162.2815196458781 186.89989106665865 0.0 0.0
311.1861876002736 -1.1105830451393857 105.75810131652266 200.82108799765842 0.0 0.0
209.55103352107932 -3.328086105769521 65.18887412154174 204.42896818149956 0.0 0.0
142.41145312892965 -1.0761498110366006 43.1582910345431 194.90556766467537 0.0 0.0
96.37896401220559 7.303418671099379 31.19518701905521 179.89552999161924 0.0 0.0
54.175387528695026 16.062052963363463 21.07011842411752 170.02460681688757 0.0 0.0
12.001731937403308 5.66897158852201 5.3009152159207344 172.9169945175975 0.0 0.0
-17.005287356083922 -46.83059211600038 -19.149038687055896 184.24613021424366 0.0 0.0
2.4129014889957503 -349.6276366299415 -115.38680114691194 155.23602540533295 0.0 0.0
-4.574727511760614 -300.41538240091586 -94.29492637393523 -147.55923965178175 0.0 0.0
-35.57562556312167 -51.30993573030726 -26.062920147973287 -187.33766841309418 0.0 0.0
-20.708725657767403 4.641383975444013 -4.820295253164282 -180.64630101299548 0.0 0.0
3.6388317349811925 16.874240900062592 6.154217895327854 -178.67074875699313 0.0 0.0
26.22588818083423 11.130343742278345 11.234977374050958 -187.79525401245695 0.0 0.0
45.87165171180289 3.1390716789651574 14.95309880219863 -204.0299910742566 0.0 0.0
69.94158238451605 -0.24297821403824216 21.85936504860818 -218.53407296758527 0.0 0.0
109.06650384187364 0.24181604483113972 35.24196194609553 -223.97950782894256 0.0 0.0
172.58054418826444 3.8185897382080523 58.814276858195626 -215.32801444586684 0.0 0.0
245.2329920018476 5.231966264162395 88.29489185159923 -201.12199404781052 0.0 0.0
308.24653575096966 8.505286231485414 121.55468510089167 -187.45422521152398 0.0 0.0
359.0639667470667 8.498698961739791 152.208286098121 -179.87112563943015 0.0 0.0
396.35165873496 9.501734359004601 178.52129559180852 -173.87143988393643 0.0 0.0
423.7759578456961 8.601304894829056 199.143076663407 -169.06839035861034 0.0 0.0
447.2472694824127 5.253279834369124 215.4828051205277 -165.09256301015776 0.0 0.0
474.17895200359453 -0.6334422988915662 230.26975759809687 -161.09273446429003 0.0 0.0
510.23926790421416 -6.092163908037065 247.53320280221774 -154.6318005028908 0.0 0.0
557.0580683444017 -7.631641328809621 271.01373923807495 -143.60366194820395 0.0 0.0
587.6482773764549 -29.77313463738821 277.90672118782766 -129.62035020072042 0.0 0.0
615.4098775472972 -75.781327613645 267.05174532367346 -118.88651448783276 0.0 0.0
615.4098775472166 -75.78132761359424 267.05174532369745 118.88651448812224 0.0 0.0
587.6482773761645 -29.77313463759384 277.90672118765985 129.62035020112364 0.0 0.0
557.0580683439409 -7.631641329358928 271.01373923775276 143.60366194845724 0.0 0.0
510.2392679041656 -6.092163907939181 247.53320280225176 154.63180050308324 0.0 0.0
474.17895200348556 -0.6334422991060364 230.26975759797705 161.09273446414457 0.0 0.0
447.24726948247445 5.253279834236636 215.48280512047342 165.09256301009827 0.0 0.0
423.7759578458951 8.60130489504678 199.14307666350334 169.06839035865244 0.0 0.0
396.3516587356602 9.501734360158068 178.52129559231452 173.87143988408624 0.0 0.0
359.0639667465789 8.498698961281974 152.2082860977897 179.87112563947852 0.0 0.0
308.246535750888 8.505286231369382 121.55468510074228 187.45422521149447 0.0 0.0
245.23299200208578 5.231966264809937 88.29489185183765 201.1219940478179 0.0 0.0
172.58054418797724 3.818589737964029 58.814276858019 215.3280144458852 0.0 0.0
109.06650384154945 0.24181604430986958 35.2419619458308 223.97950782894637 0.0 0.0
69.94158238411747 -0.2429782147169588 21.859365048283795 218.53407296747633 0.0 0.0
45.871651711697226 3.1390716787191044 14.95309880209239 204.02999107397983 0.0 0.0
26.225888180826338 11.130343742275265 11.234977374048048 187.7952540121662 0.0 0.0
3.6388317350472494 16.874240900038895 6.154217895341007 178.67074875675107 0.0 0.0
-20.70872565770837 4.641383975599027 -4.820295253100772 180.6463010128222 0.0 0.0
-35.57562556315378 -51.309935730338466 -26.062920147993246 187.3376684128973 0.0 0.0
-4.574727511852771 -300.415382400654 -94.29492637386642 147.5592396516409 0.0 0.0
-16.396056624103682 -251.8799336157782 -80.5787671950479 -136.59687531037596 0.0 0.0
-52.14315954065325 -53.5324486642449 -31.70193104275632 -187.32726995785072 0.0 0.0
-52.095476058265476 3.94181298367677 -14.450016996474597 -184.3830514211175 0.0 0.0
-45.35804625838181 17.574346645558553 -8.345498507054195 -182.57077431189137 0.0 0.0
-43.18389155155289 14.743499077675125 -8.570915867380997 -190.01618046605915 0.0 0.0
-51.445302287769366 7.6278269367532126 -13.413619662804892 -204.9883954552747 0.0 0.0
-71.73879551702963 2.659229927109033 -21.694201503886863 -218.7093124828875 0.0 0.0
-109.47352892464252 0.15661086092297438 -35.25358862258107 -224.11832804548726 0.0 0.0
-172.35652385021535 -3.712525163498018 -58.70788744764542 -215.38424878760455 0.0 0.0
-244.97637057703983 -5.163761360988783 -88.18841200508294 -201.10314597787672 0.0 0.0
-308.3270279619944 -7.527442420284018 -121.1184943216152 -187.3777287996233 0.0 0.0
-360.2240504021827 -7.084550565861143 -152.17291371753007 -179.44808236130672 0.0 0.0
-400.0715028267741 -8.440920017381757 -179.70244227551711 -173.2922846087764 0.0 0.0
-430.1090365703386 -12.334389471568727 -203.5299548130443 -169.0346995359383 0.0 0.0
-451.2695205302735 -20.025510433486517 -224.38054829485944 -167.18534352661277 0.0 0.0
-461.8957470292685 -31.122824973628894 -241.63425701860646 -167.54217158481646 0.0 0.0
-452.3489728538125 -43.68413637957258 -251.31110302847287 -168.5872542868049 0.0 0.0
-393.3817540147781 -40.624213029384634 -238.58144227727684 -168.99812797942573 0.0 0.0
-211.61867736854708 -34.359886402869165 -172.36595138508542 -171.38410080530033 0.0 0.0
5.517584245339663 -174.08426737761854 -66.544328695963 -149.29318320611563 0.0 0.0
5.517584245632975 -174.0842673770515 -66.54432869570144 149.2931832064939 0.0 0.0
-211.61867736843902 -34.359886402493345 -172.36595138497222 171.3841008057718 0.0 0.0
-393.38175401465105 -40.624213029231754 -238.5814422771123 168.99812797968286 0.0 0.0
-452.34897285359926 -43.68413637938349 -251.31110302827702 168.58725428698023 0.0 0.0
-461.8957470286267 -31.12282497322994 -241.63425701820492 167.54217158484033 0.0 0.0
-451.2695205290431 -20.02551043199783 -224.38054829395605 167.18534352657258 0.0 0.0
-430.1090365699956 -12.33438947123166 -203.52995481271844 169.03469953591366 0.0 0.0
-400.07150282640345 -8.440920017599467 -179.70244227535835 173.29228460886623 0.0 0.0
-360.22405040171134 -7.084550566130744 -152.172913717357 179.44808236123149 0.0 0.0
-308.32702796129774 -7.527442420154557 -121.11849432122735 187.3777287996259 0.0 0.0
-244.97637057635112 -5.163761361072499 -88.18841200482746 201.1031459777959 0.0 0.0
-172.35652384935747 -3.7125251627862497 -58.70788744714736 215.38424878762243 0.0 0.0
-109.47352892403171 0.15661086149992087 -35.253588622214515 224.11832804544113 0.0 0.0
-71.73879551676845 2.659229927292939 -21.69420150374212 218.70931248266157 0.0 0.0
-51.44530228755685 7.627826936949884 -13.413619662679793 204.98839545509878 0.0 0.0
-43.18389155132744 14.743499078058752 -8.570915867199037 190.01618046583647 0.0 0.0
-45.35804625826454 17.574346645549117 -8.345498507023262 182.57077431163282 0.0 0.0
-52.09547605825507 3.941812983625999 -14.450016996489735 184.38305142091596 0.0 0.0
-52.14315954059765 -53.5324486641915 -31.70193104272655 187.32726995765677 0.0 0.0
-16.396056624256957 -251.8799336156111 -80.57876719505309 136.5968753101496 0.0 0.0
-24.45118791324169 -205.56586992925304 -69.00511735274841 -123.58007935572205 0.0 0.0
-65.85958451950124 -52.732095307419065 -35.57695690488202 -183.4803009422733 0.0 0.0
-81.91441002487124 3.1983041714594513 -23.624972491424575 -184.11198808130183 0.0 0.0
-92.80707215836354 18.031257445771033 -22.443700816564107 -181.85196370398518 0.0 0.0
-111.1422194555284 17.58825132548599 -28.236912526182678 -186.2408283007199 0.0 0.0
-146.8884603434713 11.341721934958088 -41.577019354354334 -197.21890529480788 0.0 0.0
-210.99195324220628 5.659535125569133 -64.99573618306103 -205.4171775869342 0.0 0.0
-311.09938361557215 1.410024479354302 -105.7107376590307 -201.13576069652197 0.0 0.0
-418.1587100359509 -4.462090992386933 -162.152127069605 -187.00985398569026 0.0 0.0
-498.71551789701294 -10.722254902971308 -217.46016729313408 -173.9003525022612 0.0 0.0
-555.1005784830706 -16.383170829688268 -261.3201644326456 -166.4204788396117 0.0 0.0
-597.5759202113111 -20.021863397725525 -293.23916429467664 -161.13678071727497 0.0 0.0
-634.5127050242609 -25.544837243864393 -319.9648093953326 -156.79646235165959 0.0 0.0
-668.5270372816067 -33.16022530241047 -344.1154387319881 -153.94125389095794 0.0 0.0
-700.9940246052442 -44.518288848048655 -368.01876039171873 -153.499416721294 0.0 0.0
-730.703480665321 -59.62126498636832 -391.74492051067784 -155.79394991638804 0.0 0.0
-753.0661608466303 -75.94641165445748 -412.4079916784991 -161.19317639768354 0.0 0.0
-763.2873438354603 -90.16132415073108 -426.06915114465323 -169.69240517538574 0.0 0.0
-799.5146983191582 -144.74262926573192 -472.3264654701977 -178.68361991413553 0.0 0.0
-792.8075717522509 -225.06973175278262 -510.2943796552927 -196.48136215797632 0.0 0.0
-792.8075717519584 -225.0697317524886 -510.2943796551733 196.4813621581838 0.0 0.0
-799.5146983193272 -144.7426292659754 -472.32646547033914 178.68361991440958 0.0 0.0
-763.287343834598 -90.16132415012731 -426.06915114420866 169.69240517570535 0.0 0.0
-753.0661608453678 -75.94641165312478 -412.40799167762884 161.19317639767553 0.0 0.0
-730.7034806650336 -59.62126498612912 -391.74492051045735 155.7939499163134 0.0 0.0
-700.994024605013 -44.518288848131135 -368.0187603916137 153.49941672144294 0.0 0.0
-668.5270372819105 -33.16022530274249 -344.1154387321202 153.9412538908426 0.0 0.0
-634.5127050245075 -25.544837244461277 -319.96480939554385 156.79646235178546 0.0 0.0
-597.5759202114502 -20.021863398094155 -293.2391642946803 161.1367807172094 0.0 0.0
-555.1005784827784 -16.38317082992841 -261.32016443244885 166.42047883976497 0.0 0.0
-498.7155178971026 -10.722254903601165 -217.460167293129 173.9003525022445 0.0 0.0
-418.15871003574773 -4.462090992884992 -162.15212706951857 187.00985398581503 0.0 0.0
-311.099383615127 1.4100244790895555 -105.71073765889201 201.13576069659504 0.0 0.0
-210.99195324188028 5.659535125196275 -64.99573618304885 205.41717758675586 0.0 0.0
-146.88846034327673 11.341721934871853 -41.577019354316946 197.21890529465236 0.0 0.0
-111.14221945542042 17.58825132552313 -28.236912526140454 186.24082830048513 0.0 0.0
-92.80707215806642 18.031257446004368 -22.443700816407613 181.85196370374166 0.0 0.0
-81.91441002467143 3.1983041717804284 -23.624972491272313 184.1119880811414 0.0 0.0
-65.85958451944103 -52.73209530740624 -35.576956904864865 183.48030094211532 0.0 0.0
-24.451187913299133 -205.56586992908817 -69.00511735271618 123.58007935557899 0.0 0.0
-27.121666768062365 -162.33083337438023 -56.83575004273277 -109.49169166662783 0.0 0.0
-77.19934921501601 -49.47152946802481 -37.99932941109006 -175.57806535277385 0.0 0.0
-109.96439756382972 2.5509127350231653 -32.22312928885144 -179.70148616479423 0.0 0.0
-138.50145875498424 18.04174852205346 -36.157576783158454 -176.3217864087726 0.0 0.0
-177.25401117582373 19.058232976092036 -47.818815404660484 -176.95343519846458 0.0 0.0
-238.51633193451028 14.274553618406761 -69.19004500495731 -181.9021742075582 0.0 0.0
-334.50119330565497 10.36043366399808 -107.61124169165893 -181.2976134551439 0.0 0.0
-445.99720626759006 1.98002123735235 -169.80457992448726 -169.12584577855435 0.0 0.0
-538.1241952416702 -8.69718581041814 -237.20091227011983 -158.65240321102064 0.0 0.0
-606.2056801936208 -19.30502139804176 -292.10690822795743 -152.6094961757664 0.0 0.0
-658.7929382902928 -26.918741511093927 -331.1682901427928 -148.76549764460896 0.0 0.0
-702.8875097300192 -34.77834472878608 -361.6345901488482 -144.50676728536297 0.0 0.0
-743.3798294753485 -43.46958496876192 -388.43254477136077 -140.51706221769172 0.0 0.0
-782.4522474660923 -54.20802366004841 -414.4777864372544 -137.6136559450332 0.0 0.0
-821.935447101954 -69.12431652411088 -442.28354552144515 -137.09833563643122 0.0 0.0
-860.5417831178321 -88.45641766929634 -471.71930899075153 -139.94215187429666 0.0 0.0
-895.3061928157931 -110.03068235502755 -500.39854626703743 -146.13912609552938 0.0 0.0
-934.5331530553524 -143.48019112678494 -537.2141861897182 -153.00343610610147 0.0 0.0
-977.3837775819206 -192.68314808985124 -583.7623977981141 -159.5002383180508 0.0 0.0
-1063.9418213025401 -321.093949938498 -689.8202467063372 -169.54028527410307 0.0 0.0
-1063.9418213028907 -321.0939499390863 -689.8202467066225 169.54028527440147 0.0 0.0
-977.3837775818536 -192.68314809005668 -583.7623977981074 159.50023831838962 0.0 0.0
-934.5331530556302 -143.4801911272475 -537.2141861899395 153.0034361063484 0.0 0.0
-895.3061928170284 -110.03068235658324 -500.39854626785007 146.13912609575965 0.0 0.0
-860.5417831171601 -88.45641766888447 -471.7193089902994 139.94215187445263 0.0 0.0
-821.9354471017963 -69.12431652424709 -442.2835455213625 137.0983356366812 0.0 0.0
-782.4522474656404 -54.208023659802976 -414.4777864370084 137.61365594508345 0.0 0.0
-743.3798294746673 -43.46958496831919 -388.4325447708923 140.51706221785585 0.0 0.0
-702.8875097299239 -34.77834472909673 -361.6345901488339 144.50676728550133 0.0 0.0
-658.7929382899451 -26.918741510983256 -331.16829014253466 148.76549764455936 0.0 0.0
-606.2056801936043 -19.30502139826566 -292.10690822787575 152.60949617565583 0.0 0.0
-538.1241952412718 -8.697185810446651 -237.20091226980338 158.65240321107393 0.0 0.0
-445.99720626714384 1.9800212371236554 -169.80457992423976 169.1258457787355 0.0 0.0
-334.5011933052809 10.360433663541842 -107.61124169159059 181.29761345516698 0.0 0.0
-238.51633193416 14.274553618335602 -69.19004500486864 181.9021742073098 0.0 0.0
-177.2540111754922 19.05823297636588 -47.81881540448177 176.95343519830442 0.0 0.0
-138.5014587547625 18.041748522140495 -36.15757678307166 176.32178640858157 0.0 0.0
-109.96439756371991 2.55091273500193 -32.223129288829014 179.70148616461773 0.0 0.0
-77.19934921499976 -49.471529468152745 -37.99932941112409 175.57806535269344 0.0 0.0
-27.121666768065236 -162.33083337422323 -56.835750042686534 109.49169166656591 0.0 0.0
-28.16202928570457 -123.02994933847633 -45.35759358725426 -94.97986332864079 0.0 0.0
-86.80239155284528 -44.05007018612297 -39.255600727080065 -163.47184498107876 0.0 0.0
-136.18268109721677 1.9818654374934175 -40.25669233234454 -170.96977439547015 0.0 0.0
-182.35870253534355 17.096354420065097 -49.63309513609425 -166.109968519966 0.0 0.0
-240.26435201441882 19.46051009501547 -66.802917801684 -162.4205869493886 0.0 0.0
-323.4015479423872 18.044711625083156 -96.313242618505 -160.79826956831823 0.0 0.0
-432.2472442094945 12.331492817152348 -150.73912138354092 -150.99694558509398 0.0 0.0
-533.4355746556807 -0.22830924193826263 -224.11486070609322 -140.09879868111523 0.0 0.0
-613.2879631297792 -13.864325794689144 -290.30229648136503 -135.9216675469524 0.0 0.0
-676.3404712294911 -26.54106254506783 -339.602937202694 -133.8811808375724 0.0 0.0
-728.7466960332994 -37.48509293349227 -376.2917144347989 -131.35498693177803 0.0 0.0
-776.7059402849711 -49.21725871503354 -408.3295866974083 -127.779407681847 0.0 0.0
-821.3889276018509 -61.33057218805146 -437.78384170570234 -123.99569273789595 0.0 0.0
-864.8880912317435 -75.3535560066959 -467.1188748007779 -120.92952929740204 0.0 0.0
-909.1122000573826 -93.22176913159004 -498.4537902480911 -120.21279016422653 0.0 0.0
-955.3881240590055 -117.35471915677641 -533.8712494647915 -123.08997653730347 0.0 0.0
-1004.6424019551139 -149.82181754662886 -574.9701155408671 -128.7795593141076 0.0 0.0
-1058.2365136614956 -193.3579872225646 -623.8168219281639 -134.5635760120897 0.0 0.0
-1126.5659625655169 -262.4480814493362 -692.4450396853799 -137.36208683944207 0.0 0.0
-1218.6344010618714 -386.00040071700437 -799.7575361050069 -142.82478168818713 0.0 0.0
-1218.6344010615305 -386.0004007167275 -799.7575361048379 142.8247816883071 0.0 0.0
-1126.5659625650128 -262.44808144887566 -692.4450396850566 137.36208683957872 0.0 0.0
-1058.236513661097 -193.35798722241356 -623.8168219277893 134.56357601240921 0.0 0.0
-1004.6424019540071 -149.8218175456959 -574.9701155400319 128.77955931422102 0.0 0.0
-955.38812405876 -117.35471915668036 -533.871249464622 123.08997653735415 0.0 0.0
-909.1122000571233 -93.2217691315291 -498.45379024792055 120.21279016436242 0.0 0.0
-864.8880912315943 -75.3535560067118 -467.11887480064365 120.92952929741315 0.0 0.0
-821.3889276027394 -61.33057218916106 -437.78384170629806 123.99569273792713 0.0 0.0
-776.705940285892 -49.217258716282444 -408.32958669799245 127.77940768196076 0.0 0.0
-728.7466960338245 -37.48509293450182 -376.2917144351222 131.35498693201083 0.0 0.0
-676.3404712295514 -26.54106254551973 -339.60293720269453 133.88118083764437 0.0 0.0
-613.2879631295809 -13.864325794893524 -290.30229648117137 135.92166754699878 0.0 0.0
-533.4355746553668 -0.22830924203885417 -224.11486070577212 140.09879868112571 0.0 0.0
-432.2472442091852 12.331492816877715 -150.7391213833533 150.996945585108 0.0 0.0
-323.4015479418372 18.04471162523899 -96.31324261827405 160.7982695682703 0.0 0.0
-240.2643520140409 19.46051009514132 -66.8029178015355 162.42058694930276 0.0 0.0
-182.35870253526747 17.09635441979645 -49.63309513615843 166.1099685198783 0.0 0.0
-136.1826810971432 1.9818654374210047 -40.25669233234574 170.96977439535794 0.0 0.0
-86.80239155273608 -44.05007018603993 -39.255600727022525 163.47184498100242 0.0 0.0
-28.16202928571991 -123.02994933837692 -45.35759358722904 94.97986332855538 0.0 0.0
-28.89176199064035 -88.22580167915415 -35.135269100938345 -80.13456963632409 0.0 0.0
-95.4590488723332 -37.08656128440704 -39.763683047022056 -147.55671123554222 0.0 0.0
-160.75552827018205 1.6250654083974991 -47.737906602520724 -157.8349028087069 0.0 0.0
-224.6676396959253 15.316610031225702 -62.81134370661279 -151.52661798024693 0.0 0.0
-300.1779018004121 19.954845424137172 -85.00530135312194 -143.9243287795931 0.0 0.0
-398.94088714094926 20.342415185352532 -124.66901612763138 -134.2473772339723 0.0 0.0
-505.2367025500396 11.482965391987651 -192.13652030012213 -121.08840313422579 0.0 0.0
-595.0191782675288 -2.9541541506235234 -267.53760996186844 -115.53173263950947 0.0 0.0
-667.6709755115064 -18.356019946222304 -328.052701556274 -115.49786591620625 0.0 0.0
-729.0003835504791 -32.8395234605851 -373.249553293749 -115.36596887400735 0.0 0.0
-784.4643000997364 -47.74152613213546 -411.25472816149204 -113.62793769927994 0.0 0.0
-836.3120415125763 -63.41267300610929 -446.24531938294956 -110.53521112371381 0.0 0.0
-885.3010282117818 -79.51343790029422 -479.45783748046506 -107.08805775711528 0.0 0.0
-932.692988992454 -96.46410324382437 -512.0288881089921 -104.06469976986367 0.0 0.0
-981.5108529355552 -117.2869342916863 -547.0223670670098 -102.95606855752018 0.0 0.0
-1035.4787504050187 -147.31009584387812 -589.075937393131 -105.11508547704622 0.0 0.0
-1097.4096709256858 -189.67461991425694 -641.3313782821664 -110.15875237284331 0.0 0.0
-1168.3467899772406 -248.05072072755993 -706.067101388983 -114.75651402701394 0.0 0.0
-1249.7605981956958 -329.15376572050786 -787.2851083176324 -116.63201922462763 0.0 0.0
-1333.4099869942424 -441.8852238546381 -885.3949785863343 -123.45618735641793 0.0 0.0
-1333.4099869947536 -441.88522385523254 -885.3949785867275 123.45618735656726 0.0 0.0
-1249.7605981956956 -329.15376572059404 -787.2851083175974 116.6320192247554 0.0 0.0
-1168.3467899763095 -248.0507207267709 -706.0671013883582 114.75651402719285 0.0 0.0
-1097.4096709253167 -189.67461991396323 -641.3313782819992 110.15875237285906 0.0 0.0
-1035.478750404366 -147.31009584328962 -589.0759373927533 105.11508547695865 0.0 0.0
-981.5108529352055 -117.28693429150849 -547.0223670667865 102.9560685575957 0.0 0.0
-932.6929889925223 -96.46410324407893 -512.0288881090287 104.06469976992759 0.0 0.0
-885.3010282119983 -79.5134379007551 -479.45783748059887 107.08805775721669 0.0 0.0
-836.3120415120119 -63.412673005743144 -446.2453193826173 110.53521112366573 0.0 0.0
-784.4643000993588 -47.74152613198456 -411.25472816129275 113.62793769926388 0.0 0.0
-729.0003835496777 -32.83952346001562 -373.2495532932182 115.3659688739517 0.0 0.0
-667.67097551099 -18.35601994603077 -328.0527015559293 115.4978659162543 0.0 0.0
-595.019178267157 -2.9541541506217364 -267.537609961542 115.53173263953045 0.0 0.0
-505.23670254940964 11.482965392266333 -192.1365202996152 121.08840313414343 0.0 0.0
-398.9408871406517 20.342415185081936 -124.66901612751263 134.24737723389688 0.0 0.0
-300.17790180031295 19.954845423690095 -85.0053013532249 143.92432877944083 0.0 0.0
-224.66763969556104 15.316610031602039 -62.811343706395775 151.5266179800572 0.0 0.0
-160.75552827000467 1.6250654086048915 -47.73790660240587 157.8349028085448 0.0 0.0
-95.45904887226433 -37.086561284438524 -39.76368304701085 147.55671123533085 0.0 0.0
-28.89176199061126 -88.2258016791005 -35.135269100913526 80.13456963619171 0.0 0.0
-29.619273055888748 -58.402671820198954 -26.406583462826312 -64.87327010157094 0.0 0.0
-103.46197137284453 -29.154325873955194 -39.78488917403992 -128.25183035013282 0.0 0.0
-183.95607938281316 1.3510573454332615 -54.779319505393474 -140.4322230221706 0.0 0.0
-264.35512952291754 12.671650772242726 -75.56533494699212 -132.52332770405476 0.0 0.0
-355.50146183012623 20.926135957161005 -102.81422763375755 -121.45169483168829 0.0 0.0
-462.5460100346778 20.214030449686362 -154.34640720590275 -105.64957730631812 0.0 0.0
-560.292689957483 9.911468331257574 -229.2489030268156 -94.532895615239 0.0 0.0
-640.6314778070117 -5.864810669974013 -301.1580862883783 -93.560734939689 0.0 0.0
-709.4947749570347 -21.599798300631363 -355.4288565921078 -95.66920085544075 0.0 0.0
-772.3826963426042 -38.91700472188049 -400.05783988810424 -96.44461405164282 0.0 0.0
-831.436269156196 -57.739226173589984 -440.7010403211543 -95.23100225175352 0.0 0.0
-887.3723694289868 -77.50313861009288 -479.3555380979393 -92.67881369673559 0.0 0.0
-940.8887029483075 -97.69504742176194 -516.7120769152548 -89.81775612234595 0.0 0.0
-992.2693334076348 -118.26143748873812 -553.016549768195 -86.96313684839771 0.0 0.0
-1044.9938514564901 -141.96145832390292 -591.3515796636852 -85.23874946520003 0.0 0.0
-1106.1270723067596 -176.88780543111932 -639.3444618928568 -86.29683118692076 0.0 0.0
-1179.8687035842438 -229.67548525791472 -702.5810050412157 -90.22943699668505 0.0 0.0
-1265.6976463325227 -301.9925920174925 -781.6738299947147 -94.62729922442117 0.0 0.0
-1354.6845081930946 -390.7560229491313 -870.5900439169645 -98.29688657354279 0.0 0.0
-1433.1884227422731 -496.8968039237333 -963.040228831684 -108.87366395083633 0.0 0.0
-1433.1884227422956 -496.89680392380154 -963.040228831681 108.87366395095825 0.0 0.0
-1354.684508192479 -390.75602294859704 -870.5900439166593 98.2968865736787 0.0 0.0
-1265.6976463312717 -301.9925920162609 -781.673829993884 94.62729922438396 0.0 0.0
-1179.8687035842754 -229.67548525805756 -702.5810050412019 90.22943699673957 0.0 0.0
-1106.1270723064092 -176.88780543084107 -639.3444618924611 86.29683118682709 0.0 0.0
-1044.9938514558971 -141.9614583234817 -591.3515796631908 85.23874946530182 0.0 0.0
-992.2693334067766 -118.26143748801191 -553.0165497675437 86.96313684835819 0.0 0.0
-940.8887029476521 -97.69504742128638 -516.7120769147598 89.81775612237338 0.0 0.0
-887.3723694284319 -77.50313860976796 -479.3555380975898 92.67881369675432 0.0 0.0
-831.4362691555991 -57.739226173216714 -440.7010403207735 95.23100225172288 0.0 0.0
-772.3826963422363 -38.91700472175856 -400.0578398878286 96.44461405158575 0.0 0.0
-709.4947749567198 -21.59979830061721 -355.42885659185197 95.66920085544065 0.0 0.0
-640.6314778066036 -5.864810669852968 -301.1580862880075 93.5607349396117 0.0 0.0
-560.292689956755 9.911468331666189 -229.24890302623834 94.53289561520369 0.0 0.0
-462.54601003388996 20.21403045010878 -154.34640720539556 105.64957730626335 0.0 0.0
-355.5014618297434 20.926135957109476 -102.81422763365524 121.45169483163127 0.0 0.0
-264.35512952276645 12.67165077209097 -75.56533494700182 132.52332770392348 0.0 0.0
-183.95607938267125 1.3510573453800485 -54.77931950536771 140.43222302201633 0.0 0.0
-103.46197137274845 -29.15432587402992 -39.78488917403351 128.2518303500154 0.0 0.0
-29.619273055822493 -58.402671820108424 -26.40658346277927 64.87327010153463 0.0 0.0
-30.151042818501573 -34.00538842116316 -19.24692937189942 -49.13035396562797 0.0 0.0
-110.5880340985425 -20.78838271746369 -39.41292504480185 -105.92938841373314 0.0 0.0
-205.9275120404175 1.044147334231635 -61.465009411855746 -118.74646541909719 0.0 0.0
-302.90529521555413 9.919773547485322 -87.97327405491923 -109.95127424103254 0.0 0.0
-408.6241726680668 21.35511172371988 -121.5468189518325 -95.3911161821296 0.0 0.0
-513.3557924622914 19.071046690716376 -183.6876289976397 -77.78689815602887 0.0 0.0
-600.0759604946192 6.970097106157681 -260.97111387863487 -71.0245050088764 0.0 0.0
-675.2876588421154 -7.213713862059208 -325.72033106072206 -72.91181336192803 0.0 0.0
-744.1043657017331 -24.464655150082493 -376.985646611786 -75.68623031796274 0.0 0.0
-809.3966382866581 -44.976460550610454 -422.73380958694645 -76.87849346669034 0.0 0.0
-871.9443219512455 -67.42692791748905 -466.3628559286657 -76.13696436858952 0.0 0.0
-932.2607315188064 -91.31875075182332 -509.06579228916786 -74.19708582244841 0.0 0.0
-990.3533340334425 -115.89670041848643 -550.7933695259375 -71.9633641003757 0.0 0.0
-1047.0146533230468 -141.03370977386592 -591.977359445322 -69.61546277672846 0.0 0.0
-1103.894937744321 -168.12150319499506 -634.0907827801182 -67.36079670742694 0.0 0.0
-1168.5101915688713 -205.86569259871482 -685.1783116028156 -66.69562654071244 0.0 0.0
-1252.1401059210702 -266.9245543174882 -757.3707411206369 -69.37727030000924 0.0 0.0
-1350.8980666887633 -351.27878246853504 -848.9278768404661 -74.57156616648626 0.0 0.0
-1449.4453787109258 -449.6154933318061 -947.4670505302797 -81.64438875032238 0.0 0.0
-1527.9741869711868 -554.7826585171897 -1039.551955349333 -96.98295694278202 0.0 0.0
-1527.9741869718068 -554.782658517818 -1039.5519553498202 96.98295694276501 0.0 0.0
-1449.4453787112168 -449.6154933321817 -947.4670505304819 81.64438875045701 0.0 0.0
-1350.8980666882126 -351.27878246805005 -848.9278768400642 74.5715661665487 0.0 0.0
-1252.1401059203383 -266.9245543168453 -757.3707411200566 69.37727030004038 0.0 0.0
-1168.5101915683863 -205.86569259834658 -685.1783116025036 66.69562654072544 0.0 0.0
-1103.8949377442818 -168.12150319511457 -634.0907827801218 67.36079670746076 0.0 0.0
-1047.0146533220768 -141.03370977300872 -591.9773594446374 69.61546277663683 0.0 0.0
-990.3533340334328 -115.89670041865688 -550.7933695258907 71.96336410032545 0.0 0.0
-932.2607315188636 -91.3187507521332 -509.0657922891871 74.19708582254563 0.0 0.0
-871.9443219504191 -67.42692791688131 -466.3628559280781 76.13696436852224 0.0 0.0
-809.396638285859 -44.976460550022 -422.73380958643656 76.87849346658216 0.0 0.0
-744.1043657010714 -24.464655149674066 -376.9856466113556 75.68623031793396 0.0 0.0
-675.2876588413804 -7.213713861598372 -325.7203310601965 72.91181336186598 0.0 0.0
-600.0759604942209 6.970097106173807 -260.97111387827516 71.02450500898206 0.0 0.0
-513.355792462002 19.07104669048566 -183.68762899742396 77.78689815615616 0.0 0.0
-408.6241726676127 21.35511172378365 -121.5468189516425 95.39111618204902 0.0 0.0
-302.9052952153572 9.919773547422249 -87.97327405489007 109.95127424095062 0.0 0.0
-205.92751204020348 1.0441473342257601 -61.46500941179331 118.74646541907157 0.0 0.0
-110.58803409846615 -20.788382717491984 -39.412925044787436 105.92938841372033 0.0 0.0
-30.15104281854114 -34.005388421184314 -19.24692937191763 49.1303539656237 0.0 0.0
-29.851903363729512 -15.459854647143366 -13.593527403261863 -33.031010998804035 0.0 0.0
-115.96717855751271 -12.425177418633929 -38.51770679284399 -80.79081690663361 0.0 0.0
-226.9880809392089 0.3425134537916552 -67.99367024562517 -92.7110779312871 0.0 0.0
-340.8960201786432 8.361744855105016 -99.91170177729606 -83.86142296643773 0.0 0.0
-455.9792870025589 21.04671482301616 -141.50075206628293 -67.00888018846045 0.0 0.0
-553.3174459450618 16.11226499257793 -212.55916481583282 -52.624050589028336 0.0 0.0
-631.9683567860009 4.889553760579126 -286.81249455370585 -49.90001488867311 0.0 0.0
-703.53804795655 -8.069591146065306 -344.6120741012938 -52.391048508490954 0.0 0.0
-773.2021189112614 -27.416121440640026 -394.7097723407136 -55.275740253057236 0.0 0.0
-841.171549455211 -50.83303142770279 -442.2582446131624 -56.65615747827942 0.0 0.0
-907.5175963346488 -76.89850063354993 -489.26561271118726 -56.34307214383097 0.0 0.0
-972.0180170663712 -104.79830569341974 -535.9451106545062 -55.0093358156623 0.0 0.0
-1035.2930440959099 -133.88302192441083 -582.445022421675 -53.49297064986231 0.0 0.0
-1097.5576683871423 -164.53943494644307 -629.132593413324 -51.74318146120368 0.0 0.0
-1159.9564695027627 -196.9434644985966 -676.6733848549716 -49.45105467071405 0.0 0.0
-1226.8518004307448 -236.028430638283 -729.6239898851059 -47.19834270271009 0.0 0.0
-1310.3688661004162 -296.0415602566925 -801.1386070872578 -47.88944494341783 0.0 0.0
-1423.3808171676355 -393.59449389405506 -906.3123634986149 -53.97600678646002 0.0 0.0
-1537.269499989441 -506.364167899279 -1019.8145008422457 -65.50064122536847 0.0 0.0
-1626.1668829088928 -620.1080451428114 -1121.4384262588176 -86.45656477325998 0.0 0.0
-1626.1668829085781 -620.1080451425033 -1121.4384262585515 86.45656477326 0.0 0.0
-1537.2694999893374 -506.36416789923084 -1019.814500842087 65.500641225453 0.0 0.0
-1423.3808171673331 -393.5944938938377 -906.3123634982849 53.97600678652198 0.0 0.0
-1310.3688661001177 -296.0415602565014 -801.1386070869661 47.889444943521475 0.0 0.0
-1226.851800430469 -236.0284306381235 -729.6239898847596 47.198342702677735 0.0 0.0
-1159.9564695018944 -196.94346449786227 -676.6733848541787 49.45105467073648 0.0 0.0
-1097.5576683862091 -164.53943494568293 -629.13259341263 51.74318146125554 0.0 0.0
-1035.293044094903 -133.88302192355752 -582.445022420994 53.49297064977903 0.0 0.0
-972.0180170659096 -104.79830569318136 -535.9451106541455 55.00933581564353 0.0 0.0
-907.5175963351952 -76.89850063434355 -489.26561271149257 56.34307214381079 0.0 0.0
-841.1715494554464 -50.83303142820049 -442.2582446132949 56.6561574781989 0.0 0.0
-773.2021189107336 -27.416121440389546 -394.7097723403506 55.27574025307605 0.0 0.0
-703.5380479562051 -8.069591146037354 -344.61207410102617 52.391048508520214 0.0 0.0
-631.9683567857061 4.88955376052591 -286.81249455340657 49.900014888646574 0.0 0.0
-553.317445944709 16.11226499258076 -212.55916481550094 52.62405058902616 0.0 0.0
-455.9792870023182 21.046714822771055 -141.50075206619894 67.00888018849493 0.0 0.0
-340.8960201782496 8.361744855241922 -99.91170177715688 83.86142296641054 0.0 0.0
-226.98808093895406 0.34251345391309007 -67.99367024551228 92.71107793121236 0.0 0.0
-115.9671785574308 -12.425177418617118 -38.51770679281437 80.79081690653112 0.0 0.0
-29.851903363695016 -15.459854647109141 -13.593527403241247 33.031010998810444 0.0 0.0
-27.437541784120583 -3.119949090068431 -9.167247262256703 -17.091601671664474 0.0 0.0
-117.90138987581469 -4.6301021669833204 -36.7594476128394 -52.80316030642496 0.0 0.0
-247.45892480460208 -0.7822173005070834 -74.47234263153274 -61.797240565119296 0.0 0.0
-380.6113612060253 8.26877041861368 -112.07661182804031 -54.409152019719315 0.0 0.0
-495.57764861114606 20.456733105802755 -162.35105505709308 -39.11371553948082 0.0 0.0
-582.2745027468912 11.694502550656338 -239.3016815881278 -29.97748705244702 0.0 0.0
-656.730216486726 4.408328078358288 -306.16069911887814 -29.796148796460173 0.0 0.0
-727.0745802587119 -9.533282804734071 -360.00289997062157 -31.95940460553319 0.0 0.0
-797.5059133756359 -30.22639967730248 -409.35311542713123 -34.387577014020636 0.0 0.0
-868.3744386017008 -56.45664473575562 -459.15471766868035 -35.73111253463777 0.0 0.0
-938.6714540963973 -86.17463509908482 -509.77128101215925 -35.82139742633271 0.0 0.0
-1007.8285122460845 -117.9077860501396 -560.6108166282011 -35.14600807102101 0.0 0.0
-1076.0198136199335 -151.8825363279919 -611.9574213443362 -34.23573605524683 0.0 0.0
-1144.5131996397936 -188.13809033380244 -664.5067998070324 -33.17003886395117 0.0 0.0
-1213.985618932345 -227.32842904203412 -718.9584380958555 -31.48216753914231 0.0 0.0
-1284.6908881577117 -270.2863954331874 -775.8336748264362 -28.73973935141365 0.0 0.0
-1361.6588169743009 -323.40522305036444 -840.7121944415043 -26.811749551424292 0.0 0.0
-1463.773558724408 -408.63986357326235 -934.0372188226628 -31.656388989557808 0.0 0.0
-1624.4789813225448 -565.6886094924217 -1093.0215998816343 -47.90403772145896 0.0 0.0
-1737.4778718688285 -700.6856716051058 -1217.5010972271762 -76.3445655991989 0.0 0.0
-1737.477871868255 -700.6856716045431 -1217.5010972267341 76.34456559918465 0.0 0.0
-1624.4789813209713 -565.6886094908773 -1093.0215998804786 47.90403772145593 0.0 0.0
-1463.773558723198 -408.63986357210945 -934.0372188217368 31.656388989552152 0.0 0.0
-1361.6588169740248 -323.4052230501973 -840.7121944412 26.811749551521878 0.0 0.0
-1284.6908881564955 -270.2863954320847 -775.8336748255219 28.739739351482605 0.0 0.0
-1213.9856189304048 -227.3284290402165 -718.9584380944711 31.482167539115885 0.0 0.0
-1144.5131996390592 -188.13809033323957 -664.5067998065085 33.17003886403184 0.0 0.0
-1076.019813619503 -151.8825363277631 -611.9574213439482 34.23573605532813 0.0 0.0
-1007.8285122454545 -117.90778604972294 -560.6108166276725 35.146008071025264 0.0 0.0
-938.6714540957466 -86.17463509866062 -509.77128101161856 35.82139742622291 0.0 0.0
-868.374438601575 -56.456644735889604 -459.15471766854813 35.7311125346057 0.0 0.0
-797.5059133747492 -30.226399676675356 -409.35311542653545 34.38757701399897 0.0 0.0
-727.0745802580885 -9.533282804407072 -360.0028999701829 31.9594046055046 0.0 0.0
-656.7302164863715 4.408328078399364 -306.160699118563 29.796148796383893 0.0 0.0
-582.2745027464754 11.694502550739209 -239.30168158774478 29.977487052402353 0.0 0.0
-495.5776486106705 20.456733105967288 -162.35105505677723 39.11371553944129 0.0 0.0
-380.6113612055888 8.268770418580578 -112.0766118279458 54.409152019739274 0.0 0.0
-247.45892480429796 -0.782217300254743 -74.47234263136579 61.79724056501681 0.0 0.0
-117.90138987567298 -4.630102166940884 -36.75944761278416 52.80316030644204 0.0 0.0
-27.437541784105505 -3.119949090111532 -9.16724726226511 17.091601671709313 0.0 0.0
-20.446796660389186 2.785648020293217 -5.298344592028789 -2.5663842761929176 0.0 0.0
-113.42123322828313 1.7884153816013502 -33.48984535400453 -21.43856474698391 0.0 0.0
-268.23164509843104 -2.1647234312689445 -81.11891055890999 -24.919301254879333 0.0 0.0
-420.7107410853473 10.252927679073288 -125.07964727183528 -22.039257913573724 0.0 0.0
-529.4410191917267 17.98150228785585 -184.90232738305343 -13.39945913298431 0.0 0.0
-607.7988814329879 9.309698712301696 -262.15894149158515 -9.881873440212212 0.0 0.0
-676.9483081485464 3.3512041286404184 -321.7343335062627 -10.114924317521403 0.0 0.0
-746.3754238999393 -11.063470535063459 -372.3565096861096 -11.485356149012357 0.0 0.0
-817.8990406692506 -33.14785138809901 -421.76228785485887 -13.044277986723152 0.0 0.0
-891.585778693624 -61.84911379364348 -473.82916191351956 -14.103987817959366 0.0 0.0
-965.9451472857777 -94.92812153921017 -528.0134512420107 -14.561836092765766 0.0 0.0
-1039.7505173729116 -131.25840590590371 -583.4119247530177 -14.497860023581081 0.0 0.0
-1113.2761615745171 -169.68362789587917 -639.6111484393316 -14.264470451298958 0.0 0.0
-1187.827620684502 -211.29609550041684 -697.8294795847407 -13.85586686485237 0.0 0.0
-1264.4254424149992 -257.38505734201374 -759.2619600649855 -12.992470892490312 0.0 0.0
-1342.1881110731135 -307.62387627579403 -823.322037382842 -11.284620582516142 0.0 0.0
-1417.9983525009643 -359.9926881896461 -887.4033575315926 -8.609461672452673 0.0 0.0
-1494.6866134418328 -419.1544935856099 -955.106664108408 -8.643631541396555 0.0 0.0
-1607.7607498764519 -524.6465046537451 -1063.9305568952682 -24.09142792073536 0.0 0.0
-1937.0748180217597 -868.9746321114915 -1401.4490746062697 -62.572504607504875 0.0 0.0
-1937.0748180223427 -868.9746321120863 -1401.4490746067122 62.57250460747285 0.0 0.0
-1607.760749877003 -524.6465046543572 -1063.9305568957072 24.09142792085082 0.0 0.0
-1494.6866134408936 -419.15449358473995 -955.1066641076966 8.643631541386513 0.0 0.0
-1417.9983524995346 -359.9926881883084 -887.4033575305572 8.609461672432921 0.0 0.0
-1342.188111072061 -307.62387627486424 -823.3220373820627 11.284620582661523 0.0 0.0
-1264.4254424149512 -257.3850573421078 -759.261960064852 12.992470892363244 0.0 0.0
-1187.8276206838284 -211.2960954999032 -697.8294795841742 13.855866864870269 0.0 0.0
-1113.276161573173 -169.68362789472135 -639.6111484383882 14.264470451264184 0.0 0.0
-1039.750517373642 -131.25840590687224 -583.4119247534861 14.49786002356627 0.0 0.0
-965.9451472854641 -94.92812153913356 -528.0134512417901 14.561836092696359 0.0 0.0
-891.5857786925399 -61.849113792807664 -473.8291619127902 14.10398781796811 0.0 0.0
-817.8990406688129 -33.14785138794061 -421.76228785458136 13.044277986696175 0.0 0.0
-746.3754238996162 -11.063470535023662 -372.35650968589056 11.485356148926922 0.0 0.0
-676.9483081480166 3.3512041288671597 -321.73433350587754 10.114924317511235 0.0 0.0
-607.7988814327842 9.309698712181117 -262.15894149134823 9.881873440161723 0.0 0.0
-529.4410191915349 17.98150228765616 -184.90232738287082 13.399459133075354 0.0 0.0
-420.71074108508077 10.252927678863411 -125.07964727181162 22.039257913520466 0.0 0.0
-268.23164509823357 -2.1647234313429244 -81.11891055887295 24.919301254862248 0.0 0.0
-113.42123322809654 1.788415381681311 -33.48984535392457 21.438564746964694 0.0 0.0
-20.446796660418908 2.7856480202038445 -5.2983445920645185 2.566384276143811 0.0 0.0
SCALARS Strain float 6
LOOKUP_TABLE default
0.011210920157898405 -0.012279332169270768 0.0 -0.006769116063700703 0.0 0.0
0.002309533006082146 -0.0013917084002027513 0.0 0.0011319263587603323 0.0 0.0
0.0017976495210428479 -0.0007337790163167712 0.0 -4.593686446555112e-05 0.0 0.0
0.0022415992864560502 -0.0010637672566350398 0.0 -0.00020549213583190284 0.0 0.0
0.0033837637529484012 -0.0019650650571121364 0.0 -0.0002553711315011198 0.0 0.0
0.005730898060142741 -0.004015916591145308 0.0 -0.00038153341869640034 0.0 0.0
0.009498421154359797 -0.007510792778813613 0.0 -0.0005997835576526667 0.0 0.0
0.014915440025297502 -0.012656491682950799 0.0 -0.0009314534249091622 0.0 0.0
0.02209925858263274 -0.019554053912483882 0.0 -0.0013896235783622812 0.0 0.0
0.031045034924976754 -0.0281916218267364 0.0 -0.0019367294195730134 0.0 0.0
0.04169052387782576 -0.03851351402172254 0.0 -0.0025042230220991835 0.0 0.0
0.05397396183889544 -0.05046405003789989 0.0 -0.0030672020882366313 0.0 0.0
0.06784028310831741 -0.06399255301552964 0.0 -0.0036320651966983697 0.0 0.0
0.08320813495985084 -0.07901352598396683 0.0 -0.004198649650015263 0.0 0.0
0.09984679125712095 -0.09529150925024554 0.0 -0.004753906376607275 0.0 0.0
0.11722546534664877 -0.11229820783588362 0.0 -0.005194210026812585 0.0 0.0
0.13444329801415594 -0.12914445559475718 0.0 -0.005311653802642591 0.0 0.0
0.15026352106472068 -0.14460884841302057 0.0 -0.004869806053321213 0.0 0.0
0.16320037758348827 -0.15721692019660383 0.0 -0.004008396389093782 0.0 0.0
0.17124374107240375 -0.1648118685273019 0.0 -0.004154830857875824 0.0 0.0
0.17124374107239457 -0.16481186852729524 0.0 0.00415483085788293 0.0 0.0
0.16320037758345493 -0.1572169201965723 0.0 0.004008396389111657 0.0 0.0
0.1502635210646651 -0.14460884841296462 0.0 0.004869806053331205 0.0 0.0
0.13444329801408622 -0.12914445559468435 0.0 0.005311653802647753 0.0 0.0
0.11722546534657291 -0.11229820783581035 0.0 0.0051942100268047575 0.0 0.0
0.09984679125704177 -0.09529150925017049 0.0 0.004753906376606776 0.0 0.0
0.08320813495977161 -0.07901352598389133 0.0 0.004198649650013597 0.0 0.0
0.06784028310823664 -0.06399255301544748 0.0 0.003632065196698453 0.0 0.0
0.05397396183882075 -0.050464050037821284 0.0 0.0030672020882311912 0.0 0.0
0.04169052387776026 -0.03851351402165726 0.0 0.002504223022096075 0.0 0.0
0.031045034924921333 -0.028191621826687996 0.0 0.0019367294195648532 0.0 0.0
0.022099258582587933 -0.019554053912443248 0.0 0.0013896235783616984 0.0 0.0
0.014915440025264876 -0.012656491682919713 0.0 0.0009314534249064699 0.0 0.0
0.009498421154337355 -0.0075107927787960715 0.0 0.0005997835576516675 0.0 0.0
0.005730898060129275 -0.004015916591135094 0.0 0.0003815334186937358 0.0 0.0
0.003383763752942387 -0.0019650650571065853 0.0 0.0002553711315001761 0.0 0.0
0.0022415992864547596 -0.0010637672566332634 0.0 0.00020549213583151427 0.0 0.0
0.0017976495210422772 -0.0007337790163156055 0.0 4.593686446524581e-05 0.0 0.0
0.0023095330060805275 -0.0013917084002005031 0.0 -0.0011319263587580841 0.0 0.0
0.01121092015788755 -0.012279332169256925 0.0 0.006769116063668923 0.0 0.0
0.007916568334696707 -0.00936142684698471 0.0 -0.008127074498333997 0.0 0.0
0.0012629737325362995 -0.0007046468702130437 0.0 0.00014030620726479537 0.0 0.0
0.0015393947130895973 -0.000553623098347944 0.0 -0.00013075884840163532 0.0 0.0
0.001976061180528895 -0.0008957983671876724 0.0 -0.0004582809534160459 0.0 0.0
0.002886114050871618 -0.0015698501526115738 0.0 -0.0005803858264735173 0.0 0.0
0.004894404700834576 -0.003272752027508652 0.0 -0.0008907538003903037 0.0 0.0
0.008258452774219268 -0.0063446782412923675 0.0 -0.0014485216054718475 0.0 0.0
0.013158791615428208 -0.010966166084507512 0.0 -0.0022478946498292462 0.0 0.0
0.019669435732657115 -0.01719569878366367 0.0 -0.0032938606733411147 0.0 0.0
0.027744605711092808 -0.024977645298054796 0.0 -0.004499457925486228 0.0 0.0
0.037297370269106275 -0.03422928332606423 0.0 -0.005734248390707908 0.0 0.0
0.04827560511445226 -0.04490288267794584 0.0 -0.00692457427939816 0.0 0.0
0.06067333719839024 -0.05699068316156719 0.0 -0.00813555493673937 0.0 0.0
0.0744470319815034 -0.07044608581989564 0.0 -0.00939552540287572 0.0 0.0
0.08940289304379549 -0.08507330491084275 0.0 -0.010627235151626668 0.0 0.0
0.1050894252871798 -0.10042256058623167 0.0 -0.011619049720810792 0.0 0.0
0.12072540309066924 -0.11571880589999006 0.0 -0.011953503905696383 0.0 0.0
0.1351913746311385 -0.12984899903542324 0.0 -0.011230634048311983 0.0 0.0
0.14696952668595428 -0.14126934042077677 0.0 -0.009537890139007965 0.0 0.0
0.15405819811748675 -0.14808637732499808 0.0 -0.006706247462834769 0.0 0.0
0.15405819811747698 -0.14808637732498742 0.0 0.006706247462854864 0.0 0.0
0.14696952668592395 -0.141269340420747 0.0 0.009537890139043603 0.0 0.0
0.1351913746310896 -0.1298489990353744 0.0 0.011230634048335353 0.0 0.0
0.1207254030906087 -0.11571880589993189 0.0 0.01195350390570915 0.0 0.0
0.10508942528711235 -0.10042256058616239 0.0 0.01161904972080241 0.0 0.0
0.08940289304372423 -0.08507330491077392 0.0 0.010627235151623005 0.0 0.0
0.07444703198143246 -0.07044608581982681 0.0 0.009395525402871141 0.0 0.0
0.06067333719831908 -0.05699068316150102 0.0 0.008135554936737899 0.0 0.0
0.04827560511438528 -0.04490288267787568 0.0 0.006924574279390083 0.0 0.0
0.03729737026904656 -0.03422928332600339 0.0 0.005734248390697583 0.0 0.0
0.027744605711043535 -0.024977645298005502 0.0 0.0044994579254726275 0.0 0.0
0.019669435732616647 -0.017195698783624147 0.0 0.003293860673336868 0.0 0.0
0.013158791615398485 -0.010966166084479756 0.0 0.0022478946498230012 0.0 0.0
0.008258452774199065 -0.006344678241273494 0.0 0.001448521605467823 0.0 0.0
0.004894404700823501 -0.0032727520274979938 0.0 0.0008907538003881665 0.0 0.0
0.002886114050867028 -0.0015698501526070219 0.0 0.0005803858264724904 0.0 0.0
0.001976061180527844 -0.0008957983671866732 0.0 0.0004582809534156296 0.0 0.0
0.0015393947130894203 -0.0005536230983494428 0.0 0.00013075884840238472 0.0 0.0
0.00126297373253631 -0.0007046468702120168 0.0 -0.00014030620726679377 0.0 0.0
0.00791656833468371 -0.009361426846969705 0.0 0.008127074498306408 0.0 0.0
0.00583866188903575 -0.007434561480061663 0.0 -0.007520182647375334 0.0 0.0
0.0007451905798116221 -0.0004570965965182694 0.0 -0.0005558785997140658 0.0 0.0
0.0012343938076423908 -0.0004089579128909726 0.0 -0.00043063061011178183 0.0 0.0
0.0017206429927618325 -0.000743270054367029 0.0 -0.00070087335101221 0.0 0.0
0.0024445784838535364 -0.001244193005592642 0.0 -0.0008720517323766996 0.0 0.0
0.0040892274045102525 -0.0025797464874066645 0.0 -0.0012727287396046005 0.0 0.0
0.007026564820566912 -0.005200042074767319 0.0 -0.0020758612677088395 0.0 0.0
0.011382776143320589 -0.009271347214439452 0.0 -0.003260448212839717 0.0 0.0
0.017195506903287396 -0.01480539395316205 0.0 -0.004772413657030877 0.0 0.0
0.024384929717164633 -0.021717122565272362 0.0 -0.0064886562089310484 0.0 0.0
0.0328455906941178 -0.029899581599516445 0.0 -0.00824552455629654 0.0 0.0
0.042528180147149 -0.039303714501750964 0.0 -0.009944956783597247 0.0 0.0
0.05344744122797912 -0.04994128561281119 0.0 -0.011646168639229265 0.0 0.0
0.06560464451519615 -0.06180995312959059 0.0 -0.013434108439011272 0.0 0.0
0.07886122624581032 -0.07477101280798726 0.0 -0.015218419134565064 0.0 0.0
0.09285249787069334 -0.0884602046665548 0.0 -0.016665735040098384 0.0 0.0
0.10692483057530082 -0.10222418414371726 0.0 -0.0172571291400474 0.0 0.0
0.1200622472817413 -0.11503826622235813 0.0 -0.01646826071904528 0.0 0.0
0.13080152853274796 -0.12546435775672338 0.0 -0.01382301467345709 0.0 0.0
0.13746128342252384 -0.13190055633342235 0.0 -0.008571467849216585 0.0 0.0
0.13746128342251376 -0.13190055633341524 0.0 0.008571467849248005 0.0 0.0
0.13080152853272092 -0.12546435775669718 0.0 0.013823014673503553 0.0 0.0
0.12006224728169826 -0.11503826622231372 0.0 0.016468260719078698 0.0 0.0
0.10692483057524813 -0.10222418414366397 0.0 0.01725712914006472 0.0 0.0
0.09285249787063382 -0.08846020466649485 0.0 0.016665735040088836 0.0 0.0
0.07886122624574735 -0.07477101280792775 0.0 0.015218419134559902 0.0 0.0
0.06560464451513326 -0.0618099531295333 0.0 0.013434108439007164 0.0 0.0
0.05344744122791714 -0.049941285612753905 0.0 0.011646168639225851 0.0 0.0
0.04252818014708959 -0.03930371450169545 0.0 0.00994495678358498 0.0 0.0
0.03284559069406473 -0.02989958159946493 0.0 0.008245524556284578 0.0 0.0
0.02438492971712103 -0.021717122565229507 0.0 0.006488656208916865 0.0 0.0
0.017195506903251556 -0.014805393953126966 0.0 0.00477241365701947 0.0 0.0
0.011382776143293888 -0.009271347214414583 0.0 0.0032604482128301138 0.0 0.0
0.007026564820549586 -0.005200042074752442 0.0 0.002075861267704149 0.0 0.0
0.004089227404501267 -0.002579746487398671 0.0 0.0012727287396008813 0.0 0.0
0.0024445784838501017 -0.0012441930055913097 0.0 0.0008720517323751731 0.0 0.0
0.0017206429927609512 -0.0007432700543661408 0.0 0.0007008733510107668 0.0 0.0
0.001234393807642481 -0.0004089579128899179 0.0 0.00043063061011028303 0.0 0.0
0.0007451905798117053 -0.0004570965965169649 0.0 0.0005558785997122617 0.0 0.0
0.005838661889023489 -0.007434561480048438 0.0 0.007520182647353352 0.0 0.0
0.004390908261507405 -0.005984232520954258 0.0 -0.006384990590957457 0.0 0.0
0.00046788347960727283 -0.0003410393985129323 0.0 -0.001144999347066189 0.0 0.0
0.0009566408430635581 -0.00029830934384755814 0.0 -0.0008264814029874112 0.0 0.0
0.0014644917748900949 -0.0006035048325916392 0.0 -0.0009681374497179374 0.0 0.0
0.0020546777615358947 -0.0009859126246030137 0.0 -0.0011520190894591942 0.0 0.0
0.0033490907087642963 -0.0019750784749927863 0.0 -0.0015565185594500486 0.0 0.0
0.005812486448664583 -0.004102581823677065 0.0 -0.0024912638700986256 0.0 0.0
0.009606989910697486 -0.007591588475730049 0.0 -0.003963374403992581 0.0 0.0
0.014699638986202877 -0.012409179630500144 0.0 -0.005816815185139962 0.0 0.0
0.020990965596808603 -0.018437139640813616 0.0 -0.007906222533530682 0.0 0.0
0.028358045997858405 -0.025547736375921115 0.0 -0.010035772020539846 0.0 0.0
0.03674859932940425 -0.03368492483925367 0.0 -0.012106210962110286 0.0 0.0
0.04619144227573237 -0.042874610113988076 0.0 -0.014191191372727896 0.0 0.0
0.05672046644907004 -0.05314475118315265 0.0 -0.016341334436457966 0.0 0.0
0.0682560630206089 -0.0644183929184341 0.0 -0.018481619377868186 0.0 0.0
0.08053273558747967 -0.07642916464502258 0.0 -0.02030018977232817 0.0 0.0
0.09302499181517516 -0.08864355180799066 0.0 -0.02119666283163696 0.0 0.0
0.10485158478840048 -0.10017823447729679 0.0 -0.020426996233313732 0.0 0.0
0.1147326325753128 -0.10977972574730988 0.0 -0.017079230352960106 0.0 0.0
0.12120225077096465 -0.11604689613246189 0.0 -0.010105051663493958 0.0 0.0
0.121202250770955 -0.11604689613245478 0.0 0.010105051663536924 0.0 0.0
0.11473263257528801 -0.10977972574728057 0.0 0.01707923035301695 0.0 0.0
0.10485158478836293 -0.10017823447725949 0.0 0.02042699623334998 0.0 0.0
0.09302499181512941 -0.0886435518079498 0.0 0.02119666283165389 0.0 0.0
0.0805327355874281 -0.07642916464497507 0.0 0.020300189772321175 0.0 0.0
0.06825606302055409 -0.06441839291838392 0.0 0.0184816193778623 0.0 0.0
0.05672046644901502 -0.053144751183098915 0.0 0.01634133443645347 0.0 0.0
0.046191442275679256 -0.04287461011393656 0.0 0.014191191372720624 0.0 0.0
0.03674859932935262 -0.03368492483921015 0.0 0.012106210962096187 0.0 0.0
0.028358045997812664 -0.02554773637588026 0.0 0.010035772020524192 0.0 0.0
0.02099096559677019 -0.018437139640780087 0.0 0.00790622253351192 0.0 0.0
0.01469963898617166 -0.012409179630470168 0.0 0.0058168151851267225 0.0 0.0
0.009606989910674324 -0.007591588475708955 0.0 0.003963374403980757 0.0 0.0
0.0058124864486503725 -0.004102581823664853 0.0 0.0024912638700913536 0.0 0.0
0.003349090708757191 -0.001975078474986791 0.0 0.0015565185594443864 0.0 0.0
0.0020546777615335077 -0.0009859126246027916 0.0 0.0011520190894573623 0.0 0.0
0.0014644917748894426 -0.0006035048325916392 0.0 0.0009681374497176043 0.0 0.0
0.000956640843063572 -0.00029830934384716956 0.0 0.0008264814029858292 0.0 0.0
0.0004678834796074949 -0.0003410393985116278 0.0 0.0011449993470634134 0.0 0.0
0.004390908261496823 -0.005984232520942191 0.0 0.006384990590940304 0.0 0.0
0.003295649900683914 -0.004806054645486529 0.0 -0.005228866310045821 0.0 0.0
0.0003123520150400405 -0.00028111363108995757 0.0 -0.0016033593775078847 0.0 0.0
0.0007231267343723591 -0.00021724435397829645 0.0 -0.0012260037155032988 0.0 0.0
0.0012078234351880907 -0.0004780095665064543 0.0 -0.0012601433268678297 0.0 0.0
0.0017050479865559354 -0.0007796709362795085 0.0 -0.0014240054928914558 0.0 0.0
0.002689332696792446 -0.001474517035580325 0.0 -0.0018007177332016178 0.0 0.0
0.004655237207859611 -0.0030899456924942115 0.0 -0.002716885159228133 0.0 0.0
0.007843810199040444 -0.005949225715481177 0.0 -0.004316330219977904 0.0 0.0
0.012204363376616859 -0.010031976622215666 0.0 -0.006418744998496095 0.0 0.0
0.0175861233159101 -0.01516347462756018 0.0 -0.008744677985158988 0.0 0.0
0.023858161996095514 -0.02119897853096475 0.0 -0.011110871616566875 0.0 0.0
0.0309597689334513 -0.028072429250896924 0.0 -0.013408404994097844 0.0 0.0
0.038928287736563705 -0.0358150812007163 0.0 -0.015715400160243698 0.0 0.0
0.047826940672188956 -0.04448631167252737 0.0 -0.018109337129881498 0.0 0.0
0.05763014006494814 -0.05406013274639632 0.0 -0.020474589635123996 0.0 0.0
0.06815760827794916 -0.06435546121730695 0.0 -0.02249686741288459 0.0 0.0
0.07902170427544193 -0.07498029917758897 0.0 -0.023655935886590762 0.0 0.0
0.08954570728459085 -0.0852501119806619 0.0 -0.023063220590068267 0.0 0.0
0.0986798172360013 -0.09413325362385105 0.0 -0.019422753024000483 0.0 0.0
0.10511537667669074 -0.10037355972210671 0.0 -0.01140466601990775 0.0 0.0
0.10511537667668211 -0.1003735597220996 0.0 0.01140466601995127 0.0 0.0
0.09867981723597849 -0.09413325362383107 0.0 0.01942275302405716 0.0 0.0
0.08954570728455877 -0.08525011198063126 0.0 0.0230632205901089 0.0 0.0
0.07902170427540262 -0.074980299177553 0.0 0.023655935886608637 0.0 0.0
0.0681576082779051 -0.06435546121726476 0.0 0.022496867412877264 0.0 0.0
0.05763014006490158 -0.05406013274635102 0.0 0.020474589635114837 0.0 0.0
0.04782694067214224 -0.04448631167248163 0.0 0.01810933712987628 0.0 0.0
0.038928287736519046 -0.03581508120067234 0.0 0.01571540016023476 0.0 0.0
0.03095976893340799 -0.028072429250853403 0.0 0.013408404994081913 0.0 0.0
0.02385816199605692 -0.021198978530925228 0.0 0.011110871616549556 0.0 0.0
0.017586123315877167 -0.015163474627527762 0.0 0.008744677985137395 0.0 0.0
0.012204363376590616 -0.010031976622191019 0.0 0.006418744998482773 0.0 0.0
0.007843810199021167 -0.005949225715462747 0.0 0.004316330219966191 0.0 0.0
0.004655237207848079 -0.0030899456924844415 0.0 0.0027168851592211385 0.0 0.0
0.0026893326967873665 -0.0014745170355783266 0.0 0.0018007177331964552 0.0 0.0
0.00170504798655427 -0.0007796709362789533 0.0 0.0014240054928903179 0.0 0.0
0.0012078234351875217 -0.00047800956650656534 0.0 0.0012601433268671636 0.0 0.0
0.0007231267343723036 -0.00021724435397868502 0.0 0.0012260037155011616 0.0 0.0
0.00031235201504015153 -0.0002811136310888196 0.0 0.0016033593775058863 0.0 0.0
0.0032956499006749906 -0.004806054645476515 0.0 0.00522886631003272 0.0 0.0
0.0024397759537769376 -0.003823246937236291 0.0 -0.0042210632305197116 0.0 0.0
0.00021689016806543393 -0.0002446050745915085 0.0 -0.001943960570493647 0.0 0.0
0.0005264911114956916 -0.0001554741470027876 0.0 -0.0015799748722354623 0.0 0.0
0.0009521972489828501 -0.00036167531094755123 0.0 -0.0015507553558276044 0.0 0.0
0.0013828842501772687 -0.0006083048510083788 0.0 -0.0016896554815375164 0.0 0.0
0.0021027207452282565 -0.00107680250201736 0.0 -0.0020264042082266953 0.0 0.0
0.003594420413066707 -0.0022140902771974336 0.0 -0.002860211024883874 0.0 0.0
0.006131213696536103 -0.0043998619483969215 0.0 -0.004391305889315189 0.0 0.0
0.009727498315197355 -0.007699832416945496 0.0 -0.006544155956879627 0.0 0.0
0.01419445379689857 -0.01192408667344802 0.0 -0.008989882459541798 0.0 0.0
0.019367991454593392 -0.016880753253404546 0.0 -0.011450999874568824 0.0 0.0
0.025185938642066308 -0.022493584160494073 0.0 -0.013839134162318967 0.0 0.0
0.03168642320136231 -0.02879539380313778 0.0 -0.016232374034983732 0.0 0.0
0.038953030823167895 -0.03586584527237591 0.0 -0.018692037141467166 0.0 0.0
0.04701490532813349 -0.04373005237868144 0.0 -0.021138571102815695 0.0 0.0
0.05576407417547795 -0.052281434290406104 0.0 -0.02327738008459318 0.0 0.0
0.06493892921198889 -0.06125833841329076 0.0 -0.024598105276176396 0.0 0.0
0.07411200075678662 -0.0702226369297243 0.0 -0.024274439899441447 0.0 0.0
0.08253490939453709 -0.07842394667877794 0.0 -0.020822244471338625 0.0 0.0
0.08904816588428872 -0.08473964450132287 0.0 -0.012495497260027078 0.0 0.0
0.08904816588428094 -0.08473964450131444 0.0 0.012495497260070598 0.0 0.0
0.0825349093945171 -0.07842394667875618 0.0 0.02082224447139691 0.0 0.0
0.07411200075676011 -0.07022263692969055 0.0 0.024274439899483635 0.0 0.0
0.06493892921195615 -0.06125833841325656 0.0 0.024598105276195548 0.0 0.0
0.055764074175440964 -0.05228143429036658 0.0 0.02327738008458835 0.0 0.0
0.047014905328094964 -0.04373005237863925 0.0 0.02113857110280659 0.0 0.0
0.038953030823129786 -0.03586584527233949 0.0 0.01869203714145984 0.0 0.0
0.0316864232013262 -0.02879539380310492 0.0 0.016232374034975683 0.0 0.0
0.02518593864203128 -0.022493584160460767 0.0 0.013839134162304645 0.0 0.0
0.019367991454561584 -0.01688075325337479 0.0 0.011450999874551115 0.0 0.0
0.014194453796871453 -0.011924086673419598 0.0 0.008989882459520926 0.0 0.0
0.009727498315176109 -0.007699832416925068 0.0 0.006544155956866471 0.0 0.0
0.006131213696520921 -0.004399861948384709 0.0 0.004391305889304309 0.0 0.0
0.0035944204130575474 -0.00221409027719055 0.0 0.002860211024876602 0.0 0.0
0.0021027207452251617 -0.0010768025020133631 0.0 0.002026404208222088 0.0 0.0
0.0013828842501762972 -0.0006083048510071576 0.0 0.0016896554815358233 0.0 0.0
0.0009521972489824615 -0.0003616753109473292 0.0 0.001550755355825717 0.0 0.0
0.0005264911114956916 -0.0001554741470022325 0.0 0.0015799748722334361 0.0 0.0
0.00021689016806528127 -0.0002446050745909534 0.0 0.0019439605704916763 0.0 0.0
0.0024397759537700126 -0.003823246937228535 0.0 0.004221063230509664 0.0 0.0
0.0017661831533026806 -0.0029965202760842413 0.0 -0.0033911456179996635 0.0 0.0
0.00014889826161475217 -0.00021979613777600715 0.0 -0.0021819380968679802 0.0 0.0
0.0003539717241273638 -0.0001031970025879847 0.0 -0.0018679886241310117 0.0 0.0
0.0006999879552395116 -0.0002488752151627027 0.0 -0.0018166388353355323 0.0 0.0
0.0010703052968735471 -0.0004571680168072856 0.0 -0.0019499430621277014 0.0 0.0
0.0015848840565927252 -0.000762006810300031 0.0 -0.0022251330913262146 0.0 0.0
0.002635355301175882 -0.0014855868124181715 0.0 -0.002916500764771013 0.0 0.0
0.004524160973674279 -0.0030068965895282407 0.0 -0.004264093177877681 0.0 0.0
0.00730785884200684 -0.005472990850104553 0.0 -0.006237264522852781 0.0 0.0
0.010837246464966935 -0.008751780955914334 0.0 -0.008602115000275079 0.0 0.0
0.01490915456692822 -0.012622788273998431 0.0 -0.011039718615332872 0.0 0.0
0.019450405605532364 -0.016979568441317205 0.0 -0.013383147090800684 0.0 0.0
0.02449293301440178 -0.02184981462346336 0.0 -0.015709193290846857 0.0 0.0
0.030133069474034366 -0.027324569498994755 0.0 -0.018095694138845986 0.0 0.0
0.03644021389603608 -0.033468930135759134 0.0 -0.020471051064151813 0.0 0.0
0.04338603506716193 -0.040246403092150995 0.0 -0.02256334633981738 0.0 0.0
0.05081069516358845 -0.04751383561991185 0.0 -0.023965728454065527 0.0 0.0
0.058528795118694646 -0.05507855898062486 0.0 -0.024008651476818244 0.0 0.0
0.06617856680155315 -0.06254520138082231 0.0 -0.021203431005858087 0.0 0.0
0.07283553143204982 -0.06899454885982648 0.0 -0.013363427419526674 0.0 0.0
0.07283553143204355 -0.06899454885981937 0.0 0.013363427419569307 0.0 0.0
0.06617856680153683 -0.06254520138080721 0.0 0.021203431005917928 0.0 0.0
0.058528795118673094 -0.05507855898060798 0.0 0.024008651476860488 0.0 0.0
0.05081069516356246 -0.047513835619890976 0.0 0.023965728454082402 0.0 0.0
0.04338603506713201 -0.040246403092127014 0.0 0.022563346339808388 0.0 0.0
0.03644021389600527 -0.03346893013573782 0.0 0.0204710510641386 0.0 0.0
0.03013306947400532 -0.027324569498968998 0.0 0.018095694138836937 0.0 0.0
0.024492933014374718 -0.02184981462343627 0.0 0.015709193290837753 0.0 0.0
0.019450405605505316 -0.01697956844129589 0.0 0.01338314709078503 0.0 0.0
0.014909154566903116 -0.012622788273978447 0.0 0.011039718615313832 0.0 0.0
0.010837246464946104 -0.008751780955892574 0.0 0.008602115000254262 0.0 0.0
0.007307858841990755 -0.005472990850089454 0.0 0.006237264522839625 0.0 0.0
0.004524160973663094 -0.0030068965895184707 0.0 0.004264093177869133 0.0 0.0
0.002635355301169262 -0.001485586812410844 0.0 0.00291650076476635 0.0 0.0
0.0015848840565909905 -0.0007620068102978106 0.0 0.0022251330913234946 0.0 0.0
0.0010703052968730753 -0.0004571680168073966 0.0 0.001949943062126036 0.0 0.0
0.0006999879552392063 -0.00024887521516281375 0.0 0.0018166388353330898 0.0 0.0
0.0003539717241272944 -0.00010319700258831777 0.0 0.0018679886241287913 0.0 0.0
0.00014889826161446074 -0.00021979613777523 0.0 0.0021819380968662594 0.0 0.0
0.0017661831532976568 -0.002996520276078312 0.0 0.0033911456179920862 0.0 0.0
0.0012469875920392004 -0.002317867423681369 0.0 -0.002744770175857475 0.0 0.0
8.559316525282024e-05 -0.00019879271385148112 0.0 -0.0023208337896220843 0.0 0.0
0.00019506865597078427 -5.248066895791048e-05 0.0 -0.002089764004732042 0.0 0.0
0.0004538473016117983 -0.0001385740969455096 0.0 -0.0020387492854287426 0.0 0.0
0.0007522252823965458 -0.00030977680358579285 0.0 -0.0021811261691831174 0.0 0.0
0.0011189650944699037 -0.0005154079125213595 0.0 -0.002438808284936256 0.0 0.0
0.001785004569993573 -0.0009164505360368391 0.0 -0.0029489076362873012 0.0 0.0
0.0030500500521984247 -0.0018202153334139215 0.0 -0.003981223213729235 0.0 0.0
0.005005070430290887 -0.003436357133521417 0.0 -0.005596092580215928 0.0 0.0
0.007552477672316496 -0.005716410516659831 0.0 -0.007626866694852352 0.0 0.0
0.0105072710931651 -0.00847130781052119 0.0 -0.009826132946829547 0.0 0.0
0.013774354926259585 -0.011571961030961475 0.0 -0.01198617398828572 0.0 0.0
0.017373538873683647 -0.015021689090829238 0.0 -0.014123696809736463 0.0 0.0
0.02139560810815974 -0.018908365075602784 0.0 -0.016282031019982435 0.0 0.0
0.02594082697771269 -0.023324676578053705 0.0 -0.018437942440737598 0.0 0.0
0.03105518764562555 -0.02830608086379538 0.0 -0.02037579422975111 0.0 0.0
0.036683597515394725 -0.033802638841585075 0.0 -0.02169432822542372 0.0 0.0
0.04279817862058277 -0.039821683292563304 0.0 -0.02204075516906434 0.0 0.0
0.049483545022416905 -0.046393559993126665 0.0 -0.020346345834819868 0.0 0.0
0.05628024651071656 -0.05297256792400429 0.0 -0.013953223700680195 0.0 0.0
0.05628024651071287 -0.052972567923996294 0.0 0.013953223700716055 0.0 0.0
0.04948354502240465 -0.046393559993110234 0.0 0.020346345834873047 0.0 0.0
0.04279817862056626 -0.03982168329254554 0.0 0.022040755169101867 0.0 0.0
0.03668359751537567 -0.033802638841566424 0.0 0.021694328225437154 0.0 0.0
0.031055187645603277 -0.028306080863772287 0.0 0.02037579422974145 0.0 0.0
0.025940826977690346 -0.02332467657802706 0.0 0.018437942440726274 0.0 0.0
0.02139560810814012 -0.018908365075577915 0.0 0.016282031019977716 0.0 0.0
0.01737353887366533 -0.015021689090810586 0.0 0.014123696809732023 0.0 0.0
0.013774354926240961 -0.011571961030938827 0.0 0.011986173988276061 0.0 0.0
0.010507271093146975 -0.008471307810503426 0.0 0.009826132946814892 0.0 0.0
0.007552477672302271 -0.005716410516648285 0.0 0.007626866694835421 0.0 0.0
0.005005070430279979 -0.003436357133511203 0.0 0.005596092580203993 0.0 0.0
0.003050050052190889 -0.0018202153334077043 0.0 0.003981223213723073 0.0 0.0
0.001785004569989368 -0.0009164505360335085 0.0 0.002948907636282694 0.0 0.0
0.0011189650944690155 -0.0005154079125204714 0.0 0.0024388082849333137 0.0 0.0
0.000752225282396185 -0.0003097768035851267 0.0 0.0021811261691819517 0.0 0.0
0.00045384730161146525 -0.00013857409694373324 0.0 0.0020387492854259393 0.0 0.0
0.00019506865597065937 -5.2480668957188836e-05 0.0 0.0020897640047282118 0.0 0.0
8.559316525241778e-05 -0.00019879271385084274 0.0 0.0023208337896185594 0.0 0.0
0.0012469875920359252 -0.002317867423677105 0.0 0.0027447701758511744 0.0 0.0
0.0008684868040264582 -0.0017936898766030829 0.0 -0.002287145402073948 0.0 0.0
1.3936843571218938e-05 -0.00017990667988937448 0.0 -0.002394762906914427 0.0 0.0
4.355285650171903e-05 2.3903809819314503e-06 0.0 -0.002247754160219162 0.0 0.0
0.00021516147808244013 -3.254636025040725e-05 0.0 -0.002210031600672957 0.0 0.0
0.0004260805053692279 -0.00015632536596288382 0.0 -0.002353198785595062 0.0 0.0
0.0006676616077968406 -0.00029867441909070536 0.0 -0.002640755945836515 0.0 0.0
0.0010392899927660487 -0.0004964663496924704 0.0 -0.003032798897836697 0.0 0.0
0.0017303645293645087 -0.0008986971176208058 0.0 -0.0036683665443935642 0.0 0.0
0.002868773764392138 -0.001698245626870376 0.0 -0.00472536192525741 0.0 0.0
0.004400582712007828 -0.0029455022173685563 0.0 -0.006172314249454414 0.0 0.0
0.00620460314369066 -0.004536028489928512 0.0 -0.007873289957526175 0.0 0.0
0.008180758457163068 -0.006355075130496157 0.0 -0.009649761243198551 0.0 0.0
0.010345585894053988 -0.008385921332052959 0.0 -0.01147635802378949 0.0 0.0
0.012765955128979059 -0.010695342430589783 0.0 -0.013308973475099184 0.0 0.0
0.015541552516450785 -0.013375931988339307 0.0 -0.015134545544895572 0.0 0.0
0.01878897249683388 -0.016529958490954844 0.0 -0.01684514708959156 0.0 0.0
0.02258920189814846 -0.02022211533254259 0.0 -0.01809550612442512 0.0 0.0
0.027005963501621266 -0.024551783853778097 0.0 -0.018511645236177432 0.0 0.0
0.032362283750721116 -0.029911196772348436 0.0 -0.017909479473461 0.0 0.0
0.039104827741951176 -0.036461174523243045 0.0 -0.014050150085430202 0.0 0.0
0.03910482774194993 -0.03646117452324438 0.0 0.014050150085460733 0.0 0.0
0.03236228375071365 -0.029911196772349324 0.0 0.017909479473506962 0.0 0.0
0.027005963501609803 -0.02455178385377277 0.0 0.01851164523621107 0.0 0.0
0.022589201898135708 -0.020222115332533264 0.0 0.018095506124434224 0.0 0.0
0.018788972496820683 -0.016529958490941077 0.0 0.016845147089579626 0.0 0.0
0.015541552516437934 -0.013375931988331313 0.0 0.015134545544886358 0.0 0.0
0.012765955128968692 -0.010695342430584454 0.0 0.013308973475096408 0.0 0.0
0.010345585894044218 -0.008385921332043189 0.0 0.01147635802378677 0.0 0.0
0.008180758457152382 -0.006355075130485943 0.0 0.00964976124318806 0.0 0.0
0.00620460314368021 -0.004536028489920074 0.0 0.007873289957509355 0.0 0.0
0.004400582712000167 -0.0029455022173645595 0.0 0.006172314249440702 0.0 0.0
0.002868773764386351 -0.0016982456268661572 0.0 0.004725361925249583 0.0 0.0
0.0017303645293605674 -0.0008986971176172531 0.0 0.003668366544390067 0.0 0.0
0.0010392899927639532 -0.0004964663496902499 0.0 0.0030327988978339215 0.0 0.0
0.0006676616077966879 -0.0002986744190918156 0.0 0.002640755945832629 0.0 0.0
0.0004260805053689365 -0.0001563253659642161 0.0 0.0023531987855912873 0.0 0.0
0.00021516147808242625 -3.254636025007418e-05 0.0 0.002210031600670237 0.0 0.0
4.355285650153862e-05 2.390380982153495e-06 0.0 0.002247754160217774 0.0 0.0
1.3936843570733215e-05 -0.00017990667988901365 0.0 0.0023947629069132337 0.0 0.0
0.0008684868040245708 -0.0017936898766002865 0.0 0.002287145402071422 0.0 0.0
0.0006027219963841424 -0.001401292068957366 0.0 -0.0019784550037881266 0.0 0.0
-6.181819436049119e-05 -0.0001640787685223133 0.0 -0.002434902488098606 0.0 0.0
-0.00010327386052158549 6.149858665061014e-05 0.0 -0.0023483810318693232 0.0 0.0
-1.6374095269861e-05 6.970867633060429e-05 0.0 -0.0023241592742754835 0.0 0.0
9.79972286146713e-05 -8.148100203442254e-07 0.0 -0.0024569207099419677 0.0 0.0
0.00020799598548412734 -8.006834109819394e-05 0.0 -0.0027646484489144973 0.0 0.0
0.00034122253237861555 -0.00015810659394044357 0.0 -0.003185035291534022 0.0 0.0
0.0005554710854449585 -0.0002663705217793577 0.0 -0.003615623050764183 0.0 0.0
0.0009241288959642158 -0.0004537020743948794 0.0 -0.004113207974440702 0.0 0.0
0.0014331798097891868 -0.0007556601095539683 0.0 -0.004829404161120876 0.0 0.0
0.0020420096047962244 -0.0011653965906295305 0.0 -0.005857697474321633 0.0 0.0
0.0026982426693205885 -0.0016587007657067332 0.0 -0.007107416301687541 0.0 0.0
0.0034123586878367362 -0.002243609310465189 0.0 -0.00854348473399813 0.0 0.0
0.004220711528112736 -0.002957670849304872 0.0 -0.010144319586048889 0.0 0.0
0.005212584392589009 -0.0038766176837143895 0.0 -0.011891541328152622 0.0 0.0
0.006559238674276796 -0.005151608139671193 0.0 -0.013659071852062388 0.0 0.0
0.008503790168473913 -0.007000429554877119 0.0 -0.015080226935387242 0.0 0.0
0.011261718587762287 -0.009620838255254949 0.0 -0.015556629844866943 0.0 0.0
0.015052272992611998 -0.013380709264758206 0.0 -0.015005491137673799 0.0 0.0
0.02099100207371052 -0.019377641483195873 0.0 -0.013697171571255606 0.0 0.0
0.020991002073710963 -0.019377641483196317 0.0 0.013697171571280031 0.0 0.0
0.01505227299260889 -0.01338070926475643 0.0 0.015005491137710436 0.0 0.0
0.011261718587756514 -0.00962083825525184 0.0 0.015556629844888925 0.0 0.0
0.00850379016846875 -0.00700042955487179 0.0 0.01508022693538924 0.0 0.0
0.0065592386742736875 -0.005151608139668973 0.0 0.013659071852049398 0.0 0.0
0.005212584392586095 -0.003876617683711725 0.0 0.011891541328142408 0.0 0.0
0.0042207115281110985 -0.0029576708493022075 0.0 0.01014431958604356 0.0 0.0
0.0034123586878356815 -0.0022436093104594157 0.0 0.008543484733992579 0.0 0.0
0.002698242669318035 -0.0016587007657067332 0.0 0.007107416301679104 0.0 0.0
0.0020420096047941982 -0.0011653965906281982 0.0 0.005857697474312529 0.0 0.0
0.0014331798097881043 -0.0007556601095506377 0.0 0.0048294041611134375 0.0 0.0
0.0009241288959630223 -0.00045370207439510146 0.0 0.004113207974437705 0.0 0.0
0.0005554710854442924 -0.00026637052178091203 0.0 0.0036156230507616294 0.0 0.0
0.0003412225323780327 -0.00015810659394266402 0.0 0.0031850352915311353 0.0 0.0
0.0002079959854840996 -8.006834109908212e-05 0.0 0.002764648448910223 0.0 0.0
9.799722861464355e-05 -8.148100203442254e-07 0.0 0.002456920709938304 0.0 0.0
-1.6374095269527933e-05 6.970867633038225e-05 0.0 0.002324159274273152 0.0 0.0
-0.000103273860521641 6.149858665122077e-05 0.0 0.002348381031867519 0.0 0.0
-6.181819436057445e-05 -0.00016407876852239656 0.0 0.002434902488096191 0.0 0.0
0.0006027219963829766 -0.0014012920689557232 0.0 0.001978455003786045 0.0 0.0
0.00041778736318481835 -0.0011154968780546781 0.0 -0.001777996749035532 0.0 0.0
-0.00013286948705179547 -0.00014188559144351354 0.0 -0.002435165009899154 0.0 0.0
-0.0002448338851930576 0.00011962652505093097 0.0 -0.002398302377199707 0.0 0.0
-0.0002410304894177595 0.00016877209317800457 0.0 -0.0023780521874287586 0.0 0.0
-0.00022666606892327024 0.0001526434522407527 0.0 -0.002491862789067878 0.0 0.0
-0.00025611385629120687 0.00014165166626356474 0.0 -0.002779400180369207 0.0 0.0
-0.00035538292218748047 0.00017383538799986553 0.0 -0.003189947920180236 0.0 0.0
-0.0005582984252830714 0.00026915741191047005 0.0 -0.0036190338487262497 0.0 0.0
-0.0009230761925030084 0.00045352231958029066 0.0 -0.004114514865719454 0.0 0.0
-0.001431407986179245 0.0007547508982930218 0.0 -0.004827731500157473 0.0 0.0
-0.002044266816737944 0.0011703208873301563 0.0 -0.005856015749592491 0.0 0.0
-0.002722526651410734 0.0016835636220395855 0.0 -0.007110891014159959 0.0 0.0
-0.003474970749959616 0.0022985410197202683 0.0 -0.008549570945185936 0.0 0.0
-0.004295255327661451 0.0030033085659515457 0.0 -0.010150600934029752 0.0 0.0
-0.005097982650294541 0.0037066314917773013 0.0 -0.011911945025646076 0.0 0.0
-0.005676677935774838 0.0042073722777318245 0.0 -0.013794216652263658 0.0 0.0
-0.005672431134573053 0.004177742710049337 0.0 -0.015766042527485702 0.0 0.0
-0.004707208722638134 0.003362033903995254 0.0 -0.017852343494062284 0.0 0.0
-0.002484167189711478 0.0016474781593984744 0.0 -0.01969831002773126 0.0 0.0
0.002945737894116285 -0.0034159599177727706 0.0 -0.018080159764301884 0.0 0.0
0.0029457378941163126 -0.00341595991777055 0.0 0.01808015976431787 0.0 0.0
-0.002484167189712061 0.0016474781594002508 0.0 0.0196983100277478 0.0 0.0
-0.004707208722636358 0.003362033903994366 0.0 0.01785234349406639 0.0 0.0
-0.005672431134567862 0.00417774271004534 0.0 0.01576604252748126 0.0 0.0
-0.00567667793576751 0.004207372277727384 0.0 0.013794216652251667 0.0 0.0
-0.005097982650288185 0.0037066314917781895 0.0 0.011911945025637971 0.0 0.0
-0.004295255327654998 0.003003308565947105 0.0 0.010150600934021814 0.0 0.0
-0.003474970749951886 0.002298541019713163 0.0 0.00854957094517822 0.0 0.0
-0.002722526651403767 0.0016835636220333683 0.0 0.007110891014147691 0.0 0.0
-0.0020442668167315187 0.0011703208873261595 0.0 0.0058560157495828324 0.0 0.0
-0.0014314079861735274 0.000754750898289025 0.0 0.004827731500146704 0.0 0.0
-0.000923076192499761 0.00045352231958117883 0.0 0.0041145148657161235 0.0 0.0
-0.000558298425281073 0.00026915741191158027 0.0 0.003619033848723474 0.0 0.0
-0.0003553829221865229 0.00017383538800008758 0.0 0.003189947920175462 0.0 0.0
-0.00025611385629058236 0.00014165166626400882 0.0 0.002779400180366265 0.0 0.0
-0.00022666606892302044 0.00015264345224208498 0.0 0.0024918627890654077 0.0 0.0
-0.0002410304894172599 0.00016877209317778252 0.0 0.0023780521874260108 0.0 0.0
-0.0002448338851930021 0.00011962652505076443 0.0 0.0023983023771981804 0.0 0.0
-0.0001328694870516567 -0.00014188559144337476 0.0 0.002435165009897128 0.0 0.0
0.0004177873631839163 -0.0011154968780537587 0.0 0.0017779967490328397 0.0 0.0
0.0002896005413567937 -0.0008876448917472801 0.0 -0.0016065410316243867 0.0 0.0
-0.00019683937487410819 -0.00011149789858949655 0.0 -0.0023853044240479127 0.0 0.0
-0.00037921932041806716 0.00017453716372839434 0.0 -0.002395612771564637 0.0 0.0
-0.00045787362053484326 0.00026343458947653 0.0 -0.0023673953227535682 0.0 0.0
-0.0005448637289731106 0.0003012819676606604 0.0 -0.002452168448083075 0.0 0.0
-0.0007128097770549291 0.0003585622615291939 0.0 -0.0026900065161005182 0.0 0.0
-0.001053004302375038 0.0005123479937756414 0.0 -0.003053154881107578 0.0 0.0
-0.0017323686643607727 0.0009015684707702754 0.0 -0.0036777843337504335 0.0 0.0
-0.0028665296177355915 0.0016969837615397054 0.0 -0.004726487201231366 0.0 0.0
-0.004398629538227783 0.0029448336580415457 0.0 -0.006170406209633661 0.0 0.0
-0.0062087536299106905 0.004543145802419879 0.0 -0.007872040007714798 0.0 0.0
-0.008204539838245956 0.0063828659424385314 0.0 -0.009641315523804761 0.0 0.0
-0.010403846065039218 0.0084438013617123 0.0 -0.011443533213029045 0.0 0.0
-0.012832145332002748 0.01074053992937074 0.0 -0.013267696272266205 0.0 0.0
-0.015424584905770311 0.013197522758080282 0.0 -0.015201181924049956 0.0 0.0
-0.017946497504029685 0.015582358171704946 0.0 -0.017338373495193182 0.0 0.0
-0.01997341015056009 0.01749056902220092 0.0 -0.01975206195645196 0.0 0.0
-0.020962389070988047 0.018403353432726366 0.0 -0.0223494102265972 0.0 0.0
-0.019951154919064962 0.017117987332954776 0.0 -0.023472398176340947 0.0 0.0
-0.014258733598794038 0.01120239023247338 0.0 -0.021107437952987307 0.0 0.0
-0.014258733598794843 0.0112023902324756 0.0 0.021107437953015062 0.0 0.0
-0.019951154919062963 0.017117987332951667 0.0 0.02347239817637803 0.0 0.0
-0.02096238907097847 0.018403353432720593 0.0 0.022349410226621902 0.0 0.0
-0.019973410150544726 0.01749056902219248 0.0 0.019752061956452405 0.0 0.0
-0.0179464975040122 0.01558235817168896 0.0 0.017338373495178916 0.0 0.0
-0.015424584905754699 0.013197522758065183 0.0 0.015201181924039575 0.0 0.0
-0.012832145331987857 0.010740539929354309 0.0 0.013267696272252938 0.0 0.0
-0.01040384606502312 0.008443801361694092 0.0 0.011443533213020496 0.0 0.0
-0.008204539838229663 0.006382865942421212 0.0 0.009641315523788552 0.0 0.0
-0.00620875362989598 0.004543145802405668 0.0 0.007872040007700365 0.0 0.0
-0.0043986295382154456 0.002944833658027779 0.0 0.00617040620961723 0.0 0.0
-0.002866529617727348 0.0016969837615310457 0.0 0.004726487201222929 0.0 0.0
-0.0017323686643561376 0.0009015684707662786 0.0 0.0036777843337465477 0.0 0.0
-0.0010530043023722208 0.0005123479937727549 0.0 0.0030531548811027487 0.0 0.0
-0.0007128097770537495 0.0003585622615283057 0.0 0.002690006516097798 0.0 0.0
-0.0005448637289727359 0.0003012819676606604 0.0 0.0024521684480802997 0.0 0.0
-0.00045787362053402447 0.0002634345894770851 0.0 0.0023673953227509315 0.0 0.0
-0.00037921932041788675 0.00017453716372956007 0.0 0.002395612771563388 0.0 0.0
-0.00019683937487387226 -0.00011149789858955206 0.0 0.0023853044240464416 0.0 0.0
0.00028960054135621083 -0.000887644891746418 0.0 0.001606541031622527 0.0 0.0
0.00019314154128535765 -0.0006857180416557085 0.0 -0.001423391991666162 0.0 0.0
-0.000254772764425093 -7.456765176316882e-05 0.0 -0.002282260486668991 0.0 0.0
-0.0005052954206711535 0.00022602219243583743 0.0 -0.002335977901117836 0.0 0.0
-0.0006658282215356859 0.0003525936475035074 0.0 -0.002294137923533862 0.0 0.0
-0.0008527919799681816 0.0004407627927593971 0.0 -0.002335559249451169 0.0 0.0
-0.0011596000414601515 0.0005727363948180297 0.0 -0.0025162021123538714 0.0 0.0
-0.0017970609461098463 0.0009335569434432145 0.0 -0.0029828042149037115 0.0 0.0
-0.00304896253341691 0.00182131900350746 0.0 -0.00399255245778779 0.0 0.0
-0.005001544456859214 0.0034334998702147956 0.0 -0.005593084080535771 0.0 0.0
-0.007551890758315083 0.005716655538675841 0.0 -0.007624817691352537 0.0 0.0
-0.010512913271606694 0.008479153331718337 0.0 -0.009824187270709994 0.0 0.0
-0.01379302586176856 0.011594424972553252 0.0 -0.011962094206261598 0.0 0.0
-0.017415241416301824 0.015064677497870882 0.0 -0.014033510092133605 0.0 0.0
-0.021440417602240275 0.01893814148711348 0.0 -0.016132232848619976 0.0 0.0
-0.02583413024257894 0.023167443624283912 0.0 -0.018460074257420578 0.0 0.0
-0.03034279600523357 0.027501360985677792 0.0 -0.021291403449354873 0.0 0.0
-0.0344451981497676 0.03143372730689187 0.0 -0.024812304111089256 0.0 0.0
-0.03724700367977596 0.03401654861903225 0.0 -0.028371274212314446 0.0 0.0
-0.0370239552578939 0.03351629661095412 0.0 -0.03018108738546532 0.0 0.0
-0.030513654376491783 0.026363942340597024 0.0 -0.02658048718832795 0.0 0.0
-0.030513654376491117 0.026363942340593916 0.0 0.026580487188364144 0.0 0.0
-0.0370239552578884 0.03351629661094835 0.0 0.03018108738551145 0.0 0.0
-0.037247003679760596 0.03401654861901493 0.0 0.0283712742123457 0.0 0.0
-0.034445198149744574 0.03143372730686167 0.0 0.024812304111092753 0.0 0.0
-0.030342796005206937 0.027501360985654255 0.0 0.021291403449344937 0.0 0.0
-0.025834130242554307 0.023167443624259487 0.0 0.01846007425741153 0.0 0.0
-0.021440417602216627 0.01893814148709172 0.0 0.016132232848606598 0.0 0.0
-0.01741524141627733 0.015064677497849566 0.0 0.014033510092126222 0.0 0.0
-0.013793025861744093 0.011594424972528383 0.0 0.011962094206246388 0.0 0.0
-0.010512913271583949 0.00847915333169702 0.0 0.009824187270689733 0.0 0.0
-0.007551890758296015 0.005716655538656523 0.0 0.0076248176913315535 0.0 0.0
-0.005001544456845627 0.003433499870202583 0.0 0.00559308408052539 0.0 0.0
-0.003048962533408653 0.0018213190035001325 0.0 0.003992552457782628 0.0 0.0
-0.0017970609461049891 0.0009335569434383295 0.0 0.0029828042148993816 0.0 0.0
-0.0011596000414583058 0.0005727363948169195 0.0 0.0025162021123500966 0.0 0.0
-0.0008527919799672795 0.00044076279276006325 0.0 0.002335559249449365 0.0 0.0
-0.0006658282215350059 0.00035259364750361843 0.0 0.0022941379235321135 0.0 0.0
-0.0005052954206707094 0.0002260221924356154 0.0 0.0023359779011161153 0.0 0.0
-0.0002547727644247738 -7.456765176377944e-05 0.0 0.0022822604866680196 0.0 0.0
0.00019314154128503846 -0.0006857180416549886 0.0 0.001423391991665357 0.0 0.0
0.00011177116796007303 -0.0005048703123829434 0.0 -0.0012347382232723303 0.0 0.0
-0.00030905116265952937 -3.1164962272567376e-05 0.0 -0.0021251115064693793 0.0 0.0
-0.0006234127991853466 0.00027449778320121077 0.0 -0.00222219954545802 0.0 0.0
-0.0008645899113048916 0.00043479902480214605 0.0 -0.002164775000748298 0.0 0.0
-0.001145379898761345 0.0005701663793191702 0.0 -0.002150212854926753 0.0 0.0
-0.0016203421139285579 0.0008170019560569397 0.0 -0.002329071610928768 0.0 0.0
-0.0026419057606542062 0.00150059601510244 0.0 -0.0029568656534332827 0.0 0.0
-0.004519327911431975 0.00300377042222455 0.0 -0.0042668235342163685 0.0 0.0
-0.007304624307843649 0.005469715137031983 0.0 -0.0062313320922237625 0.0 0.0
-0.010838950023514066 0.008753981081559559 0.0 -0.00860106736152827 0.0 0.0
-0.01491534974178485 0.012630302734981669 0.0 -0.01103733606948909 0.0 0.0
-0.019459246526452423 0.016990740955057593 0.0 -0.013346553984181608 0.0 0.0
-0.024503186012627742 0.021862179329636522 0.0 -0.015569466397593712 0.0 0.0
-0.030135197919735623 0.027320476875657196 0.0 -0.017835028134905673 0.0 0.0
-0.036354743761312314 0.03335316824243817 0.0 -0.02040807060021088 0.0 0.0
-0.04291072071850063 0.03969749253313948 0.0 -0.02371460886119392 0.0 0.0
-0.04910323415578452 0.04564436548569928 0.0 -0.027940519579461864 0.0 0.0
-0.053542663871554236 0.04979184122592972 0.0 -0.03231979524489581 0.0 0.0
-0.05382464961349348 0.04966173144609298 0.0 -0.03456625922529688 0.0 0.0
-0.04569112755253149 0.04088234287676373 0.0 -0.031281295609468684 0.0 0.0
-0.04569112755252905 0.040882342876762845 0.0 0.031281295609506876 0.0 0.0
-0.053824649613483336 0.04966173144608543 0.0 0.03456625922534545 0.0 0.0
-0.0535426638715337 0.04979184122591107 0.0 0.03231979524493378 0.0 0.0
-0.04910323415575478 0.0456443654856753 0.0 0.027940519579470913 0.0 0.0
-0.042910720718465856 0.03969749253310573 0.0 0.023714608861184983 0.0 0.0
-0.03635474376127891 0.03335316824240575 0.0 0.020408070600199724 0.0 0.0
-0.03013519791970312 0.02732047687562522 0.0 0.01783502813489085 0.0 0.0
-0.024503186012594727 0.02186217932959833 0.0 0.015569466397580278 0.0 0.0
-0.01945924652641974 0.0169907409550194 0.0 0.013346553984163678 0.0 0.0
-0.014915349741754819 0.012630302734947918 0.0 0.01103733606946894 0.0 0.0
-0.010838950023488225 0.008753981081532691 0.0 0.008601067361507453 0.0 0.0
-0.007304624307825067 0.005469715137013775 0.0 0.006231332092210273 0.0 0.0
-0.004519327911419582 0.0030037704222132255 0.0 0.004266823534206654 0.0 0.0
-0.0026419057606468788 0.0015005960150955566 0.0 0.0029568656534263438 0.0 0.0
-0.0016203421139257962 0.0008170019560560515 0.0 0.002329071610926936 0.0 0.0
-0.0011453798987599295 0.0005701663793190592 0.0 0.0021502128549258093 0.0 0.0
-0.0008645899113041838 0.0004347990248009248 0.0 0.002164775000747715 0.0 0.0
-0.0006234127991849026 0.0002744977832007667 0.0 0.0022221995454567156 0.0 0.0
-0.0003090511626591963 -3.116496227240084e-05 0.0 0.002125111506468408 0.0 0.0
0.00011177116795980935 -0.0005048703123824612 0.0 0.00123473822327122 0.0 0.0
4.0582796216936945e-05 -0.0003450884617584027 0.0 -0.0010417494052722132 0.0 0.0
-0.0003620198778645223 1.7401291456997647e-05 0.0 -0.001918237246062049 0.0 0.0
-0.0007345766082241523 0.00032083986929554165 0.0 -0.0020517397988423225 0.0 0.0
-0.001052245212687014 0.0005079204659443892 0.0 -0.001970096685973588 0.0 0.0
-0.0014275842618288737 0.0006971275463700799 0.0 -0.0019146574393272553 0.0 0.0
-0.0021289779235770523 0.0011224429474105957 0.0 -0.002130529518696911 0.0 0.0
-0.0035939660362536985 0.00222218552133735 0.0 -0.0028881821525207907 0.0 0.0
-0.006124865214049202 0.00439384332928916 0.0 -0.0043873618392956115 0.0 0.0
-0.009726120536340033 0.0076979611423120264 0.0 -0.006536759912466328 0.0 0.0
-0.014198444713136 0.011928265792526371 0.0 -0.00898893646445964 0.0 0.0
-0.019373462027940158 0.016886540919153425 0.0 -0.011445859267283587 0.0 0.0
-0.025181355787859627 0.02248941572005636 0.0 -0.013793513927925827 0.0 0.0
-0.03165474385338515 0.028766199246200053 0.0 -0.01606672462444314 0.0 0.0
-0.038894305385805794 0.03581193342511524 0.0 -0.01836695139203426 0.0 0.0
-0.0469464902445986 0.0436548499360101 0.0 -0.020971438783909613 0.0 0.0
-0.055551845263563576 0.0520081156962795 0.0 -0.024335736050320023 0.0 0.0
-0.0637941989440528 0.05993736760580859 0.0 -0.028730631170964416 0.0 0.0
-0.06976895857873516 0.0655240293545476 0.0 -0.033517106858711565 0.0 0.0
-0.07027357429214326 0.06554117534767556 0.0 -0.036571067018758896 0.0 0.0
-0.06044039555205527 0.05511901517318485 0.0 -0.03551937127689597 0.0 0.0
-0.06044039555205119 0.05511901517317774 0.0 0.03551937127693644 0.0 0.0
-0.07027357429212781 0.06554117534766002 0.0 0.03657106701880741 0.0 0.0
-0.06976895857870916 0.06552402935452628 0.0 0.033517106858750645 0.0 0.0
-0.063794198944017 0.059937367605774394 0.0 0.028730631170973464 0.0 0.0
-0.05555184526352171 0.052008115696240864 0.0 0.02433573605031103 0.0 0.0
-0.04694649024455666 0.043654849935969686 0.0 0.020971438783899232 0.0 0.0
-0.03889430538576431 0.03581193342507305 0.0 0.01836695139201977 0.0 0.0
-0.03165474385334413 0.02876619924615742 0.0 0.016066724624431317 0.0 0.0
-0.02518135578781848 0.022489415720017725 0.0 0.013793513927907952 0.0 0.0
-0.01937346202790273 0.016886540919117454 0.0 0.011445859267260994 0.0 0.0
-0.014198444713103983 0.011928265792498172 0.0 0.008988936464437436 0.0 0.0
-0.009726120536316163 0.007697961142290266 0.0 0.006536759912453172 0.0 0.0
-0.0061248652140327015 0.004393843329274061 0.0 0.0043873618392857305 0.0 0.0
-0.00359396603624354 0.0022221855213300223 0.0 0.0028881821525127416 0.0 0.0
-0.00212897792357232 0.0011224429474061548 0.0 0.0021305295186923034 0.0 0.0
-0.0014275842618274442 0.0006971275463677484 0.0 0.001914657439325007 0.0 0.0
-0.0010522452126862092 0.0005079204659454994 0.0 0.001970096685971423 0.0 0.0
-0.0007345766082237637 0.00032083986929615227 0.0 0.0020517397988402686 0.0 0.0
-0.0003620198778641476 1.740129145672009e-05 0.0 0.0019182372460593011 0.0 0.0
4.05827962169647e-05 -0.00034508846175821534 0.0 0.0010417494052704923 0.0 0.0
-2.0882482354905862e-05 -0.0002079745743229222 0.0 -0.0008433525113204221 0.0 0.0
-0.00041390103429223 6.909866145055066e-05 0.0 -0.0016672737945517269 0.0 0.0
-0.0008395817011366824 0.00036481301805113553 0.0 -0.0018254620847376057 0.0 0.0
-0.0012289629545436664 0.0005744653271483324 0.0 -0.0017256019650475352 0.0 0.0
-0.0017164889899999314 0.0008417098829864855 0.0 -0.001658913682107327 0.0 0.0
-0.0027000562533832095 0.001506699479801421 0.0 -0.0019041638624764379 0.0 0.0
-0.004650713067925305 0.0030914528186192225 0.0 -0.002734310984057353 0.0 0.0
-0.007838968188221745 0.005943659438691018 0.0 -0.004305726576848357 0.0 0.0
-0.012205676225277018 0.010032629365577472 0.0 -0.0064121742551777605 0.0 0.0
-0.017591644273165175 0.015168929191260005 0.0 -0.008744022054810452 0.0 0.0
-0.023861027164847115 0.02120127409354522 0.0 -0.011101856005890753 0.0 0.0
-0.030939665980695807 0.02805120388842175 0.0 -0.01335702948887274 0.0 0.0
-0.038853719947781445 0.0357431282932108 0.0 -0.015555875149264708 0.0 0.0
-0.04770091650941494 0.044373821868085805 0.0 -0.017793785612811974 0.0 0.0
-0.05754398537882277 0.05398737159993461 0.0 -0.020199272570074367 0.0 0.0
-0.06812955770449455 0.06428483902523308 0.0 -0.023151659481201126 0.0 0.0
-0.07836164952383978 0.07413739913607298 0.0 -0.027175959074616673 0.0 0.0
-0.0858111965594626 0.08111246842277309 0.0 -0.03211937396422282 0.0 0.0
-0.08654894551636771 0.08131688436624929 0.0 -0.03668779185082616 0.0 0.0
-0.07524407651886536 0.06945782560786995 0.0 -0.0395717131133726 0.0 0.0
-0.07524407651885932 0.06945782560786373 0.0 0.03957171311341329 0.0 0.0
-0.08654894551634795 0.08131688436623241 0.0 0.036687791850876006 0.0 0.0
-0.08581119655943065 0.08111246842274777 0.0 0.0321193739642584 0.0 0.0
-0.07836164952379791 0.07413739913603079 0.0 0.02717595907462672 0.0 0.0
-0.0681295577044459 0.06428483902518645 0.0 0.023151659481195408 0.0 0.0
-0.05754398537877223 0.05398737159988709 0.0 0.020199272570067428 0.0 0.0
-0.04770091650936474 0.044373821868040064 0.0 0.01779378561279943 0.0 0.0
-0.03885371994773203 0.03574312829316462 0.0 0.015555875149252274 0.0 0.0
-0.030939665980647152 0.028051203888375564 0.0 0.01335702948885753 0.0 0.0
-0.023861027164802207 0.02120127409350303 0.0 0.011101856005868493 0.0 0.0
-0.017591644273127247 0.01516892919122359 0.0 0.008744022054788747 0.0 0.0
-0.012205676225247875 0.010032629365549495 0.0 0.006412174255163883 0.0 0.0
-0.007838968188200852 0.005943659438671922 0.0 0.0043057265768365605 0.0 0.0
-0.004650713067912329 0.0030914528186096746 0.0 0.0027343109840500257 0.0 0.0
-0.002700056253376444 0.0015066994797980904 0.0 0.0019041638624721635 0.0 0.0
-0.0017164889899979538 0.0008417098829853753 0.0 0.0016589136821063832 0.0 0.0
-0.00122896295454291 0.0005744653271475553 0.0 0.0017256019650462862 0.0 0.0
-0.0008395817011359538 0.00036481301805063593 0.0 0.0018254620847356628 0.0 0.0
-0.00041390103429164715 6.90986614500233e-05 0.0 0.0016672737945502003 0.0 0.0
-2.0882482354780962e-05 -0.00020797457432263945 0.0 0.0008433525113199503 0.0 0.0
-7.0876737402914e-05 -9.592998382021434e-05 0.0 -0.0006386946015531636 0.0 0.0
-0.00046263820884931417 0.00012105952512769802 0.0 -0.0013770820493785307 0.0 0.0
-0.0009390062670856514 0.000406309518849568 0.0 -0.0015437040504482635 0.0 0.0
-0.0013992918209481398 0.0006373742295021634 0.0 -0.0014318326841095408 0.0 0.0
-0.0020293598746586317 0.0010117281148662727 0.0 -0.0013639031674199664 0.0 0.0
-0.0033426815275011124 0.0019867367779626832 0.0 -0.0016365637490975415 0.0 0.0
-0.00580785657380592 0.004099702619271728 0.0 -0.002494275999119777 0.0 0.0
-0.00960653500221162 0.007590091594681825 0.0 -0.003950549767229916 0.0 0.0
-0.014703783744657362 0.012412674409730151 0.0 -0.005811812581630882 0.0 0.0
-0.020996838403874812 0.01844262458702639 0.0 -0.007905319178675152 0.0 0.0
-0.02835589340836417 0.02554442519676936 0.0 -0.010022302484589796 0.0 0.0
-0.03671245215349059 0.03364716160437098 0.0 -0.012054011383248908 0.0 0.0
-0.046082594644499375 0.04276850783654362 0.0 -0.014063647574737326 0.0 0.0
-0.056534767841091293 0.052974716396006816 0.0 -0.016100664587975655 0.0 0.0
-0.0680955770167602 0.06428336256932132 0.0 -0.018155930757937422 0.0 0.0
-0.08051010404636028 0.07639099565481944 0.0 -0.020353224824859795 0.0 0.0
-0.09262181796897076 0.08806894716625235 0.0 -0.023360929342129966 0.0 0.0
-0.10160859022379606 0.09650638077180052 0.0 -0.028142819322907076 0.0 0.0
-0.10288160535281615 0.09718854950767009 0.0 -0.034959158396982604 0.0 0.0
-0.09048532457458044 0.08424070697290498 0.0 -0.043423350439418695 0.0 0.0
-0.09048532457457274 0.08424070697289388 0.0 0.04342335043945511 0.0 0.0
-0.10288160535279253 0.09718854950764477 0.0 0.03495915839702746 0.0 0.0
-0.10160859022375773 0.09650638077176499 0.0 0.02814281932293955 0.0 0.0
-0.09262181796892244 0.08806894716620794 0.0 0.023360929342138514 0.0 0.0
-0.08051010404630467 0.07639099565476615 0.0 0.02035322482485674 0.0 0.0
-0.06809557701670173 0.0642833625692627 0.0 0.01815593075793137 0.0 0.0
-0.05653476784103258 0.05297471639595308 0.0 0.016100664587964664 0.0 0.0
-0.046082594644441845 0.04276850783648589 0.0 0.014063647574724503 0.0 0.0
-0.03671245215343403 0.03364716160431369 0.0 0.012054011383236168 0.0 0.0
-0.028355893408312613 0.025544425196721843 0.0 0.010022302484569867 0.0 0.0
-0.020996838403830848 0.0184426245869862 0.0 0.007905319178655446 0.0 0.0
-0.014703783744623493 0.012412674409699287 0.0 0.005811812581618697 0.0 0.0
-0.009606535002186195 0.007590091594659842 0.0 0.003950549767219647 0.0 0.0
-0.005807856573789939 0.004099702619257295 0.0 0.002494275999114448 0.0 0.0
-0.0033426815274927926 0.0019867367779549117 0.0 0.0016365637490952656 0.0 0.0
-0.002029359874655773 0.0010117281148648294 0.0 0.0013639031674181068 0.0 0.0
-0.0013992918209473695 0.0006373742295017193 0.0 0.001431832684108847 0.0 0.0
-0.0009390062670846661 0.0004063095188491239 0.0 0.0015437040504479305 0.0 0.0
-0.0004626382088489117 0.00012105952512742046 0.0 0.0013770820493783642 0.0 0.0
-7.087673740305278e-05 -9.592998382023342e-05 0.0 0.0006386946015531081 0.0 0.0
-0.00010567944374303972 -1.2131127085229787e-05 0.0 -0.0004294031429844525 0.0 0.0
-0.0005034215664703467 0.0001696014409323654 0.0 -0.0010502806197862369 0.0 0.0
-0.0010334636695082944 0.0004441851940462094 0.0 -0.0012052440131067321 0.0 0.0
-0.0015708571188924603 0.0007059651646907916 0.0 -0.0010938110395142808 0.0 0.0
-0.002381490395980651 0.0012286237474889994 0.0 -0.0010344946532633292 0.0 0.0
-0.004069983812359845 0.002570455120823212 0.0 -0.0013255469526284869 0.0 0.0
-0.00702674337068343 0.005198960775525174 0.0 -0.0020707316568288614 0.0 0.0
-0.01138820054797618 0.00927576112156836 0.0 -0.0032485104048360913 0.0 0.0
-0.017202129627058138 0.014811473601672898 0.0 -0.004769295618178626 0.0 0.0
-0.02438974467010066 0.021721219019108506 0.0 -0.006486931865969547 0.0 0.0
-0.03283633112236997 0.029888967703011193 0.0 -0.008229476485066556 0.0 0.0
-0.042477048550701196 0.03925152568387258 0.0 -0.00989903405735082 0.0 0.0
-0.05331659518975662 0.0498133530128726 0.0 -0.011561145798082095 0.0 0.0
-0.0653761594143531 0.06159370002085929 0.0 -0.013292445457696145 0.0 0.0
-0.07858079657281752 0.0745136499351049 0.0 -0.01493804664548104 0.0 0.0
-0.09259421762081713 0.08820920917890884 0.0 -0.016199397355907363 0.0 0.0
-0.10635222766862831 0.10153712960173955 0.0 -0.01757672502222629 0.0 0.0
-0.11707081506227929 0.1116242397131586 0.0 -0.021552469738933766 0.0 0.0
-0.11946793392123858 0.11334103758377667 0.0 -0.030965720968482602 0.0 0.0
-0.10658683749316358 0.09985141078454252 0.0 -0.046767023370191896 0.0 0.0
-0.10658683749315462 0.09985141078453541 0.0 0.04676702337022104 0.0 0.0
-0.11946793392121091 0.11334103758374958 0.0 0.03096572096852168 0.0 0.0
-0.11707081506223449 0.11162423971311553 0.0 0.021552469738962576 0.0 0.0
-0.1063522276685725 0.10153712960168537 0.0 0.017576725022234174 0.0 0.0
-0.09259421762075425 0.08820920917884756 0.0 0.016199397355904865 0.0 0.0
-0.07858079657275147 0.07451364993504361 0.0 0.014938046645479236 0.0 0.0
-0.06537615941428618 0.061593700020797115 0.0 0.013292445457689955 0.0 0.0
-0.05331659518969064 0.049813353012811756 0.0 0.011561145798071465 0.0 0.0
-0.04247704855063688 0.039251525683810407 0.0 0.009899034057342215 0.0 0.0
-0.03283633112231197 0.02988896770294991 0.0 0.008229476485049958 0.0 0.0
-0.024389744670051096 0.021721219019057214 0.0 0.006486931865952061 0.0 0.0
-0.017202129627019204 0.01481147360163626 0.0 0.004769295618168551 0.0 0.0
-0.011388200547946696 0.00927576112154016 0.0 0.003248510404827959 0.0 0.0
-0.007026743370664362 0.005198960775507189 0.0 0.0020707316568224776 0.0 0.0
-0.004069983812349368 0.002570455120814108 0.0 0.0013255469526247121 0.0 0.0
-0.0023814903959768277 0.0012286237474853356 0.0 0.0010344946532625243 0.0 0.0
-0.001570857118891343 0.0007059651646910137 0.0 0.0010938110395143086 0.0 0.0
-0.0010334636695073715 0.0004441851940462649 0.0 0.0012052440131057607 0.0 0.0
-0.0005034215664700067 0.00016960144093228213 0.0 0.0010502806197849046 0.0 0.0
-0.00010567944374294952 -1.2131127085141316e-05 0.0 0.00042940314298453575 0.0 0.0
-0.00011875691439211522 3.930743811922377e-05 0.0 -0.00022219082173163818 0.0 0.0
-0.0005274226247093394 0.00020884074539806452 0.0 -0.0006864410839835244 0.0 0.0
-0.0011244127841249507 0.0004789858146516668 0.0 -0.0008033641273465508 0.0 0.0
-0.0017566451917302717 0.0007878067864993676 0.0 -0.0007131665546632748 0.0 0.0
-0.0027913105463082677 0.0015163666051833946 0.0 -0.00068287449679863 0.0 0.0
-0.004869939653418753 0.0032501762898500264 0.0 -0.0009158574198759872 0.0 0.0
-0.008266750221098157 0.0063497850460436656 0.0 -0.001440438305151781 0.0 0.0
-0.013170108545521891 0.010976887019453763 0.0 -0.002240011464729408 0.0 0.0
-0.019677846763871104 0.017203675906910965 0.0 -0.0032914534782584326 0.0 0.0
-0.027747248188198764 0.024979276586186483 0.0 -0.00449704846890614 0.0 0.0
-0.03727991767872901 0.03421068293831375 0.0 -0.00571988612369867 0.0 0.0
-0.0482116130525343 0.044838918822685425 0.0 -0.006892346857281351 0.0 0.0
-0.06053007180419448 0.05685035226160995 0.0 -0.008091389178111696 0.0 0.0
-0.07419019478838657 0.07019587860882526 0.0 -0.009331257588639397 0.0 0.0
-0.08898521661678224 0.08466467164464175 0.0 -0.010433301467093314 0.0 0.0
-0.10440120861619845 0.09973958669936378 0.0 -0.010980424718012527 0.0 0.0
-0.11939957063138304 0.11434801816245077 0.0 -0.01077371512460934 0.0 0.0
-0.13177145833628334 0.12615855705404266 0.0 -0.012280676521671974 0.0 0.0
-0.13644886057728742 0.12988248219589416 0.0 -0.023271042841781164 0.0 0.0
-0.12418219323412855 0.11687086395272628 0.0 -0.04884163836964417 0.0 0.0
-0.12418219323411779 0.11687086395271873 0.0 0.04884163836966454 0.0 0.0
-0.13644886057725528 0.12988248219587062 0.0 0.023271042841810585 0.0 0.0
-0.13177145833623238 0.12615855705399825 0.0 0.01228067652169218 0.0 0.0
-0.11939957063131901 0.11434801816238815 0.0 0.010773715124613559 0.0 0.0
-0.10440120861612803 0.09973958669929983 0.0 0.010980424718011417 0.0 0.0
-0.08898521661670798 0.0846646716445778 0.0 0.010433301467091954 0.0 0.0
-0.07419019478831182 0.0701958786087542 0.0 0.00933125758863576 0.0 0.0
-0.06053007180411954 0.05685035226153712 0.0 0.008091389178105701 0.0 0.0
-0.04821161305246275 0.044838918822617035 0.0 0.006892346857275328 0.0 0.0
-0.03727991767866454 0.03421068293825247 0.0 0.005719886123686513 0.0 0.0
-0.027747248188144315 0.024979276586132304 0.0 0.004497048468894399 0.0 0.0
-0.01967784676382692 0.017203675906870997 0.0 0.0032914534782518823 0.0 0.0
-0.01317010854548915 0.010976887019423787 0.0 0.002240011464723607 0.0 0.0
-0.008266750221075866 0.006349785046022793 0.0 0.0014404383051466463 0.0 0.0
-0.004869939653406107 0.003250176289839146 0.0 0.0009158574198728231 0.0 0.0
-0.0027913105463030254 0.001516366605180064 0.0 0.0006828744967971312 0.0 0.0
-0.0017566451917287208 0.0007878067864988125 0.0 0.0007131665546637744 0.0 0.0
-0.001124412784124059 0.0004789858146522219 0.0 0.0008033641273452186 0.0 0.0
-0.0005274226247087774 0.00020884074539798125 0.0 0.0006864410839837465 0.0 0.0
-0.00011875691439196256 3.9307438118998256e-05 0.0 0.00022219082173222104 0.0 0.0
-9.846493844434256e-05 5.254595198009304e-05 0.0 -3.336299559050793e-05 0.0 0.0
-0.0005195540211828109 0.00022930869478143823 0.0 -0.00027870134171079086 0.0 0.0
-0.0012162327745068868 0.0005132022163296668 0.0 -0.0003239509163134313 0.0 0.0
-0.0019775589099113033 0.0009064839885550846 0.0 -0.0002987386335253639 0.0 0.0
-0.0032684615399905526 0.0018757378514167034 0.0 -0.0002879314965807678 0.0 0.0
-0.005710913096119707 0.0039896168476951654 0.0 -0.0003801198674375783 0.0 0.0
-0.009515649645609026 0.007524986770556685 0.0 -0.0005972621453351201 0.0 0.0
-0.014931386410003245 0.012671795601761016 0.0 -0.0009270937781971633 0.0 0.0
-0.022108907839083647 0.019563289479259227 0.0 -0.001386988340039752 0.0 0.0
-0.03104492217011709 0.028190394061315516 0.0 -0.0019346112631675738 0.0 0.0
-0.04166519689514189 0.038487423455007885 0.0 -0.002496794455347895 0.0 0.0
-0.053899337838205 0.050390496142141306 0.0 -0.0030549498118899177 0.0 0.0
-0.06768805940362627 0.0638429175278068 0.0 -0.0036198073303091993 0.0 0.0
-0.0829248505432448 0.07873094415170545 0.0 -0.00416899406738791 0.0 0.0
-0.09928616369559348 0.09472401877594949 0.0 -0.004603027232719992 0.0 0.0
-0.11603375769264326 0.11108748964317972 0.0 -0.004643313689335016 0.0 0.0
-0.13192089766389303 0.1265901088674486 0.0 -0.003868579088183166 0.0 0.0
-0.14514026543744887 0.13940236989517718 0.0 -0.0026448846760409594 0.0 0.0
-0.15254818917270055 0.14615551354984957 0.0 -0.008623093966542705 0.0 0.0
-0.14510112932081706 0.13668613227133797 0.0 -0.04499863960702222 0.0 0.0
-0.1451011293208048 0.13668613227132242 0.0 0.04499863960702982 0.0 0.0
-0.15254818917266427 0.14615551354981005 0.0 0.00862309396655836 0.0 0.0
-0.14514026543739056 0.1394023698951239 0.0 0.002644884676050563 0.0 0.0
-0.13192089766381965 0.12659010886738287 0.0 0.0038685790881817783 0.0 0.0
-0.11603375769256488 0.11108748964310688 0.0 0.00464331368933682 0.0 0.0
-0.09928616369551123 0.09472401877586734 0.0 0.004603027232718104 0.0 0.0
-0.08292485054316182 0.07873094415162596 0.0 0.004168994067385967 0.0 0.0
-0.06768805940354257 0.06384291752772997 0.0 0.0036198073303062017 0.0 0.0
-0.05389933783812673 0.050390496142058705 0.0 0.003054949811887364 0.0 0.0
-0.0416651968950705 0.03848742345493772 0.0 0.002496794455340595 0.0 0.0
-0.0310449221700576 0.028190394061261337 0.0 0.001934611263161995 0.0 0.0
-0.02210890783903483 0.019563289479212154 0.0 0.001386988340037254 0.0 0.0
-0.014931386409967221 0.012671795601726155 0.0 0.000927093778193222 0.0 0.0
-0.00951564964558365 0.007524986770533593 0.0 0.0005972621453333993 0.0 0.0
-0.005710913096105303 0.003989616847681399 0.0 0.00038011986743580195 0.0 0.0
-0.0032684615399834298 0.001875737851409931 0.0 0.0002879314965813784 0.0 0.0
-0.0019775589099094775 0.0009064839885534193 0.0 0.00029873863352458674 0.0 0.0
-0.0012162327745058443 0.0005132022163289451 0.0 0.00032395091631320927 0.0 0.0
-0.0005195540211821179 0.00022930869478143823 0.0 0.00027870134171054106 0.0 0.0
-9.846493844430353e-05 5.254595197974436e-05 0.0 3.336299558986955e-05 0.0 0.0
SCALARS Statev float 8
LOOKUP_TABLE default
0.0 0.012151462343732369 0.009360812572135252 -0.009743257333158655 0.0003824447610234013 -0.005357927205774761 0.0 0.0
0.0 0.0005878920401420977 0.000400116019421533 -0.00033242431194169237 -6.769170747984066e-05 0.0003920396995215437 0.0 0.0
0.0 3.342380937738801e-05 -4.754075056001044e-06 3.773145031477424e-06 9.809300245235895e-07 5.62033213615258e-07 0.0 0.0
0.0 0.00021295064332927684 0.00013590045412630145 -0.00010646551272385261 -2.943494140244888e-05 -1.880525902029158e-05 0.0 0.0
0.0 0.0012348550966858865 0.000969071787828127 -0.0007937407267167339 -0.00017533106111139297 -0.00010588210734242099 0.0 0.0
0.0 0.003370969991602135 0.0030722878049754343 -0.0026592059258447247 -0.0004130818791307103 -0.0002521124523150137 0.0 0.0
0.0 0.007358640898084093 0.006592442288015471 -0.005995398850066778 -0.0005970434379486926 -0.00046705268923178186 0.0 0.0
0.0 0.013282243855745817 0.011759336932207999 -0.011034008095857226 -0.0007253288363507696 -0.0007813809037700739 0.0 0.0
0.0 0.021276072100993196 0.018692501785000037 -0.017860357003279446 -0.0008321447817205802 -0.0012199325306434647 0.0 0.0
0.0 0.03133561376169744 0.027391040235494518 -0.026452376093565932 -0.0009386641419285749 -0.0017531156835433918 0.0 0.0
0.0 0.04341358662811148 0.037795208363847754 -0.03674670415149577 -0.0010485042123519724 -0.0023142720237087936 0.0 0.0
0.0 0.0571560453220467 0.04984618586986954 -0.048685295222111624 -0.0011608906477578772 -0.0028780845535292775 0.0 0.0
0.0 0.0728045580037715 0.06348585062164495 -0.06221134638359257 -0.0012745042380523436 -0.003445916059563339 0.0 0.0
0.0 0.09026028745822619 0.07863073737897404 -0.07723995116473385 -0.0013907862142401052 -0.004016187038120653 0.0 0.0
0.0 0.10919197608570015 0.09504908245012578 -0.09353762123634775 -0.001511461213778014 -0.0045772958909746425 0.0 0.0
0.0 0.12902386765909463 0.11221195210776626 -0.1105761547367692 -0.0016357973709970643 -0.005028109881020143 0.0 0.0
0.0 0.14868951757328563 0.129224680188353 -0.12746472582142704 -0.0017599543669260362 -0.005162962719792926 0.0 0.0
0.0 0.16675091059733643 0.14485836508666344 -0.1429796096926617 -0.0018787553940016845 -0.004743927127303201 0.0 0.0
0.0 0.18150348677549305 0.15763420940098496 -0.1556460013724028 -0.0019882080285821358 -0.0038972800948093686 0.0 0.0
0.0 0.19042304565979074 0.16549873439952484 -0.16336337587187624 -0.0021353585276486075 -0.003995431214523612 0.0 0.0
0.0 0.19042304565978174 0.16549873439951668 -0.16336337587186864 -0.0021353585276480134 0.003995431214530098 0.0 0.0
0.0 0.1815034867754558 0.1576342094009524 -0.15564600137237072 -0.0019882080285816544 0.0038972800948279987 0.0 0.0
0.0 0.1667509105972721 0.1448583650866077 -0.14297960969260637 -0.0018787553940013187 0.004743927127312251 0.0 0.0
0.0 0.14868951757320364 0.12922468018828187 -0.12746472582135626 -0.0017599543669255637 0.005162962719798663 0.0 0.0
0.0 0.1290238676590088 0.11221195210769155 -0.1105761547366955 -0.0016357973709960711 0.005028109881011562 0.0 0.0
0.0 0.10919197608561157 0.09504908245004866 -0.09353762123627155 -0.001511461213777105 0.0045772958909747075 0.0 0.0
0.0 0.09026028745813724 0.07863073737889693 -0.0772399511646572 -0.0013907862142397017 0.004016187038118728 0.0 0.0
0.0 0.07280455800367795 0.0634858506215642 -0.062211346383511626 -0.0012745042380525851 0.003445916059563058 0.0 0.0
0.0 0.057156045321958865 0.04984618586979334 -0.048685295222036 -0.0011608906477573282 0.002878084553523342 0.0 0.0
0.0 0.04341358662803706 0.037795208363782654 -0.03674670415143162 -0.0010485042123510155 0.0023142720237057037 0.0 0.0
0.0 0.03133561376163806 0.027391040235442782 -0.0264523760935152 -0.0009386641419275938 0.0017531156835365396 0.0 0.0
0.0 0.021276072100945374 0.018692501784957856 -0.01786035700323795 -0.0008321447817199168 0.0012199325306417744 0.0 0.0
0.0 0.013282243855710718 0.011759336932176678 -0.011034008095826463 -0.0007253288363502133 0.0007813809037673329 0.0 0.0
0.0 0.007358640898062586 0.006592442287995848 -0.005995398850047952 -0.0005970434379478912 0.0004670526892307093 0.0 0.0
0.0 0.003370969991589916 0.0030722878049638906 -0.0026592059258341125 -0.0004130818791297776 0.00025211245231403467 0.0 0.0
0.0 0.0012348550966794884 0.0009690717878228735 -0.0007937407267122594 -0.0001753310611106137 0.00010588210734184251 0.0 0.0
0.0 0.0002129506433276139 0.00013590045412573083 -0.00010646551272338849 -2.943494140234232e-05 1.8805259020152566e-05 0.0 0.0
0.0 3.342380937687491e-05 -4.754075055922566e-06 3.7731450314146314e-06 9.80930024507978e-07 -5.620332136057866e-07 0.0 0.0
0.0 0.0005878920401394004 0.00040011601941997534 -0.000332424311940373 -6.769170747960257e-05 -0.0003920396995197786 0.0 0.0
0.0 0.0121514623437147 0.0093608125721234 -0.00974325733314579 0.0003824447610223839 0.005357927205747295 0.0 0.0
0.0 0.008903443453635692 0.006429783500920936 -0.006918261815546182 0.0004884783146252421 -0.006119519718496595 0.0 0.0
0.0 5.464574577692436e-07 3.8057326840665863e-07 -3.2487151780751846e-07 -5.5701750599140554e-08 2.6130360142247365e-07 0.0 0.0
0.0 9.430826945183483e-08 -1.020951514236367e-08 7.758883502814768e-09 2.450631639548195e-09 3.6392644398315674e-09 0.0 0.0
0.0 6.980543199944684e-05 3.47813662315611e-05 -2.7164332185349556e-05 -7.617034046211778e-06 -1.3519629348135713e-05 0.0 0.0
0.0 0.0007974992508812951 0.0005816860517320903 -0.00047057153522786694 -0.00011111451650422319 -0.00015607096953571881 0.0 0.0
0.0 0.0025449168782607084 0.002322456295991582 -0.0019787584150441915 -0.00034369788094738986 -0.0005081457156913435 0.0 0.0
0.0 0.00606105108048712 0.005428720657582635 -0.004877659808032958 -0.0005510608495496749 -0.0010579362401498796 0.0 0.0
0.0 0.0113960037844203 0.01007803848388143 -0.009383205352002301 -0.0006948331318791275 -0.0018310451701017546 0.0 0.0
0.0 0.018618841238596487 0.016341630643756037 -0.015536573680859245 -0.000805056962896785 -0.002846882621144061 0.0 0.0
0.0 0.02767641131904354 0.024176594911119377 -0.023268359179888107 -0.000908235731231267 -0.004034538655685775 0.0 0.0
0.0 0.0384689826479568 0.0334981983675259 -0.032486968462521616 -0.0010112299050042705 -0.00526692932453674 0.0 0.0
0.0 0.05097848516542392 0.04425367291582341 -0.04313922286102874 -0.0011144500547946605 -0.006465406850967518 0.0 0.0
0.0 0.06490280354102454 0.05643688989505814 -0.05521800683145963 -0.0012188830635984802 -0.007688114470014871 0.0 0.0
0.0 0.08048555775135091 0.06999957609571139 -0.06867382632174208 -0.0013257497739692856 -0.008960661743062759 0.0 0.0
0.0 0.09749990229900289 0.08474735304773665 -0.08331148819271632 -0.0014358648550202907 -0.010208618528033484 0.0 0.0
0.0 0.1153517105642534 0.10023077366685079 -0.09868204172175572 -0.001548731945095087 -0.011225742485858066 0.0 0.0
0.0 0.13315380804671723 0.11567259533869316 -0.11401032150279272 -0.0016622738359004514 -0.011597545436118463 0.0 0.0
0.0 0.14962838313342364 0.12995845064820824 -0.12818419967119818 -0.0017742509770100599 -0.010917983535075467 0.0 0.0
0.0 0.16299525976687282 0.14156601120901358 -0.1396731703462804 -0.0018928408627331803 -0.009258427829067014 0.0 0.0
0.0 0.1709905353344775 0.1485345215614629 -0.14655184287177225 -0.001982678689690682 -0.006455970889296404 0.0 0.0
0.0 0.17099053533446595 0.1485345215614528 -0.14655184287176204 -0.0019826786896907827 0.006455970889315803 0.0 0.0
0.0 0.16299525976683887 0.14156601120898354 -0.13967317034625057 -0.001892840862733033 0.009258427829102103 0.0 0.0
0.0 0.14962838313336796 0.1299584506481595 -0.12818419967114966 -0.0017742509770098172 0.010917983535097774 0.0 0.0
0.0 0.13315380804664928 0.11567259533863379 -0.11401032150273399 -0.0016622738358997324 0.011597545436130176 0.0 0.0
0.0 0.11535171056417456 0.1002307736667826 -0.09868204172168799 -0.0015487319450945623 0.011225742485849457 0.0 0.0
0.0 0.09749990229892233 0.08474735304766672 -0.08331148819264703 -0.0014358648550196723 0.010208618528030143 0.0 0.0
0.0 0.08048555775127059 0.06999957609564159 -0.068673826321673 -0.0013257497739685743 0.008960661743059269 0.0 0.0
0.0 0.06490280354094585 0.05643688989498944 -0.05521800683139215 -0.00121888306359727 0.007688114470012777 0.0 0.0
0.0 0.05097848516534554 0.04425367291575534 -0.04313922286096116 -0.0011144500547941656 0.0064654068509583645 0.0 0.0
0.0 0.038468982647887895 0.03349819836746611 -0.03248696846246227 -0.001011229905003826 0.005266929324527799 0.0 0.0
0.0 0.02767641131898746 0.02417659491107052 -0.023268359179839816 -0.0009082357312307003 0.004034538655674186 0.0 0.0
0.0 0.018618841238551932 0.01634163064371665 -0.015536573680820353 -0.0008050569628962865 0.0028468826211386017 0.0 0.0
0.0 0.011396003784388513 0.010078038483853167 -0.009383205351974847 -0.000694833131878328 0.0018310451700963236 0.0 0.0
0.0 0.006061051080466137 0.0054287206575636 -0.004877659808014756 -0.0005510608495488419 0.0010579362401462733 0.0 0.0
0.0 0.0025449168782491335 0.002322456295981215 -0.0019787584150348513 -0.0003436978809463638 0.0005081457156890562 0.0 0.0
0.0 0.0007974992508761312 0.0005816860517282842 -0.00047057153522467494 -0.00011111451650360924 0.00015607096953468245 0.0 0.0
0.0 6.980543199861848e-05 3.4781366231450105e-05 -2.7164332185252995e-05 -7.617034046196957e-06 1.3519629348047401e-05 0.0 0.0
0.0 9.430826938068039e-08 -1.0209515134588993e-08 7.758883496907494e-09 2.4506316376819497e-09 -3.6392644370560787e-09 0.0 0.0
0.0 5.464574577505017e-07 3.805732684859453e-07 -3.2487151787381943e-07 -5.570175061212428e-08 -2.613036014790693e-07 0.0 0.0
0.0 0.00890344345361506 0.006429783500907249 -0.006918261815531786 0.0004884783146245363 0.006119519718472777 0.0 0.0
0.0 0.0066789478742470725 0.00456081097345685 -0.005067553938191651 0.0005067429647348003 -0.005325423061590893 0.0 0.0
0.0 0.0 0.0 0.0 0.0 0.0 0.0 0.0
0.0 0.0 0.0 0.0 0.0 0.0 0.0 0.0
0.0 1.1368898813481073e-05 7.331957859004247e-06 -5.718698746257086e-06 -1.6132591127471822e-06 -5.10424803949546e-06 0.0 0.0
0.0 0.0004119607780349902 0.0003011414176355216 -0.00024074379345585492 -6.03976241796665e-05 -0.00014476409621694234 0.0 0.0
0.0 0.0019520631254607225 0.0016112169044949145 -0.0013505517500131494 -0.0002606651544817644 -0.0006114377185225246 0.0 0.0
0.0 0.0048136652064651765 0.0042902015924561184 -0.003797027908912288 -0.0004931736835438294 -0.0014232989116311225 0.0 0.0
0.0 0.009532293647990216 0.008394697706410105 -0.00773943526137608 -0.0006552624450340274 -0.0025775828929089 0.0 0.0
0.0 0.015987311246733457 0.013963025463488432 -0.013190563967300352 -0.0007724614961880764 -0.00405390754355348 0.0 0.0
0.0 0.024056352962638698 0.02091910807489502 -0.020046020630667207 -0.000873087444227807 -0.005751722116043278 0.0 0.0
0.0 0.033639171590363594 0.029157769560263322 -0.028188465394311243 -0.0009693041659520706 -0.007510816982145173 0.0 0.0
0.0 0.04458612545064498 0.03862923997911309 -0.03756508567510029 -0.0010641543040128 -0.009225733713122105 0.0 0.0
0.0 0.05707923883972122 0.04934355760384515 -0.04818420705330974 -0.001159350550535424 -0.010945126388655592 0.0 0.0
0.0 0.07078476584010827 0.061301913219257834 -0.06004546340038545 -0.0012564498188723395 -0.012753635084613394 0.0 0.0
0.0 0.08581702134493961 0.07436308514449183 -0.0730074165882921 -0.001355668556199672 -0.014564180655780936 0.0 0.0
0.0 0.10174240220350045 0.08816340828287186 -0.08670650901644729 -0.0014568992664245252 -0.016049120971873523 0.0 0.0
0.0 0.11772499611161634 0.10205170699068863 -0.10049174550561935 -0.001559961485069245 -0.01669231186327514 0.0 0.0
0.0 0.13258049946977446 0.1150124027238401 -0.11334479219482929 -0.001667610529010787 -0.01596308107772167 0.0 0.0
0.0 0.14466070959063737 0.12559459368442843 -0.12382297274071263 -0.0017716209437157891 -0.013387813917766745 0.0 0.0
0.0 0.15207145084439416 0.13214717454750127 -0.13030149928037932 -0.0018456752671219105 -0.008242092255202373 0.0 0.0
0.0 0.15207145084438486 0.13214717454749247 -0.13030149928037102 -0.001845675267121339 0.008242092255233492 0.0 0.0
0.0 0.14466070959060823 0.12559459368440168 -0.1238229727406864 -0.0017716209437152628 0.013387813917812439 0.0 0.0
0.0 0.1325804994697255 0.11501240272379656 -0.11334479219478585 -0.0016676105290106542 0.015963081077754106 0.0 0.0
0.0 0.1177249961115563 0.10205170699063579 -0.10049174550556701 -0.0015599614850687815 0.016692311863290288 0.0 0.0
0.0 0.10174240220343146 0.08816340828281233 -0.08670650901638799 -0.0014568992664243203 0.016049120971864533 0.0 0.0
0.0 0.08581702134486924 0.07436308514443063 -0.07300741658823161 -0.001355668556199004 0.01456418065577636 0.0 0.0
0.0 0.07078476584003945 0.06130191321919764 -0.06004546340032639 -0.0012564498188712666 0.012753635084609303 0.0 0.0
0.0 0.05707923883965313 0.04934355760378578 -0.04818420705325108 -0.0011593505505347018 0.01094512638865091 0.0 0.0
0.0 0.04458612545057887 0.03862923997905621 -0.037565085675043575 -0.0010641543040126335 0.009225733713109004 0.0 0.0
0.0 0.033639171590304134 0.029157769560211686 -0.02818846539425972 -0.0009693041659519555 0.007510816982133225 0.0 0.0
0.0 0.02405635296258973 0.02091910807485233 -0.020046020630625116 -0.0008730874442272095 0.00575172211602849 0.0 0.0
0.0 0.01598731124669342 0.013963025463453495 -0.01319056396726579 -0.0007724614961876975 0.004053907543543841 0.0 0.0
0.0 0.009532293647961505 0.008394697706384834 -0.00773943526135134 -0.0006552624450334959 0.0025775828929008966 0.0 0.0
0.0 0.004813665206447729 0.004290201592440429 -0.003797027908897551 -0.0004931736835428778 0.0014232989116262423 0.0 0.0
0.0 0.0019520631254511427 0.0016112169044870189 -0.001350551750006177 -0.0002606651544808419 0.0006114377185192991 0.0 0.0
0.0 0.00041196077803222383 0.00030114141763374757 -0.0002407437934543991 -6.039762417934834e-05 0.00014476409621603145 0.0 0.0
0.0 1.1368898813074153e-05 7.331957859169694e-06 -5.718698746383551e-06 -1.6132591127861637e-06 5.1042480395984945e-06 0.0 0.0
0.0 0.0 0.0 0.0 0.0 0.0 0.0 0.0
0.0 0.0 0.0 0.0 0.0 0.0 0.0 0.0
0.0 0.00667894787422928 0.004560810973444624 -0.0050675539381787316 0.000506742964734108 0.005325423061571188 0.0 0.0
0.0 0.004949448669162319 0.0032348940956147343 -0.0037042378494100154 0.0004693437537952788 -0.004161143129829041 0.0 0.0
0.0 0.0 0.0 0.0 0.0 0.0 0.0 0.0
0.0 0.0 0.0 0.0 0.0 0.0 0.0 0.0
0.0 1.7764958665315978e-06 -1.7819784007305854e-07 1.3787375697884427e-07 4.03240830942293e-08 1.8782013220909485e-07 0.0 0.0
0.0 0.0001778325457616468 0.00012336931686394873 -9.795681787867754e-05 -2.5412498985271074e-05 -9.615353557417499e-05 0.0 0.0
0.0 0.0012920727180353656 0.0010196494197911717 -0.0008407015732109532 -0.00017894784658021873 -0.000590044397604583 0.0 0.0
0.0 0.003679538754393195 0.003192615083350988 -0.0027764621735435757 -0.0004161529098074136 -0.001566203379861018 0.0 0.0
0.0 0.0077160660770250675 0.006730409847851668 -0.0061258682577372756 -0.0006045415901143918 -0.003013595586308261 0.0 0.0
0.0 0.013377008978804103 0.011581598703974386 -0.010849745795455796 -0.0007318529085185908 -0.00483288978137388 0.0 0.0
0.0 0.020446672108617184 0.017645857284604195 -0.016813850970938075 -0.0008320063136661084 -0.00690648282976759 0.0 0.0
0.0 0.028798872046170227 0.024799642863415305 -0.023877206485569437 -0.0009224363778458672 -0.009043571217974803 0.0 0.0
0.0 0.03834861170310007 0.03298848323278371 -0.031979034342652424 -0.0010094488901312864 -0.011135733130271322 0.0 0.0
0.0 0.049103559215345406 0.042238419130830235 -0.04114303210739441 -0.0010953870234358216 -0.013245295924697843 0.0 0.0
0.0 0.06114098187685263 0.052579029153792915 -0.051396226665869724 -0.0011828024879231777 -0.015422295138892941 0.0 0.0
0.0 0.07432661676667233 0.06393092793742201 -0.06265992464137604 -0.0012710032960459607 -0.01759732504559114 0.0 0.0
0.0 0.08812560553922638 0.07603010853813441 -0.07466982679843956 -0.0013602817396948445 -0.019463609090319252 0.0 0.0
0.0 0.10229675149552483 0.08834774857736012 -0.0868945614841462 -0.0014531870932139015 -0.020421669921817834 0.0 0.0
0.0 0.11561317662104936 0.10000617490863468 -0.09845576927236051 -0.0015504056362742112 -0.019728696636021156 0.0 0.0
0.0 0.12660658102530845 0.1097377107948535 -0.10809440832003608 -0.0016433024748174025 -0.016490347140637674 0.0 0.0
0.0 0.13366480523401814 0.1161016819546509 -0.11439130658455782 -0.0017103753700930455 -0.0096919432318046 0.0 0.0
0.0 0.1336648052340095 0.11610168195464252 -0.11439130658454964 -0.00171037537009295 0.009691943231845444 0.0 0.0
0.0 0.12660658102527994 0.10973771079482698 -0.1080944083200091 -0.001643302474817811 0.016490347140691537 0.0 0.0
0.0 0.11561317662100853 0.10000617490859726 -0.09845576927232345 -0.0015504056362737495 0.01972869663605739 0.0 0.0
0.0 0.1022967514954764 0.08834774857731684 -0.08689456148410342 -0.0014531870932134323 0.020421669921834043 0.0 0.0
0.0 0.0881256055391692 0.076030108538085 -0.07466982679839054 -0.0013602817396944345 0.019463609090311862 0.0 0.0
0.0 0.07432661676661198 0.06393092793736967 -0.06265992464132433 -0.0012710032960453084 0.01759732504558421 0.0 0.0
0.0 0.06114098187679057 0.05257902915373888 -0.051396226665816086 -0.00118280248792279 0.015422295138887251 0.0 0.0
0.0 0.04910355921528571 0.04223841913077821 -0.04114303210734299 -0.0010953870234352194 0.013245295924689905 0.0 0.0
0.0 0.03834861170304562 0.03298848323273605 -0.031979034342606155 -0.0010094488901298963 0.011135733130257145 0.0 0.0
0.0 0.02879887204612078 0.024799642863372058 -0.02387720648552727 -0.0009224363778447935 0.00904357121796019 0.0 0.0
0.0 0.02044667210857559 0.01764585728456837 -0.016813850970903113 -0.0008320063136652513 0.006906482829750139 0.0 0.0
0.0 0.01337700897876933 0.011581598703944127 -0.010849745795426231 -0.0007318529085178878 0.0048328897813623185 0.0 0.0
0.0 0.007716066077000065 0.006730409847829884 -0.006125868257716236 -0.0006045415901136465 0.003013595586298358 0.0 0.0
0.0 0.003679538754378306 0.0031926150833381114 -0.0027764621735317393 -0.0004161529098063709 0.0015662033798553038 0.0 0.0
0.0 0.0012920727180271924 0.0010196494197851303 -0.0008407015732057599 -0.00017894784657937046 0.0005900443976009377 0.0 0.0
0.0 0.00017783254575997142 0.00012336931686339513 -9.795681787822247e-05 -2.541249898517274e-05 9.61535355737233e-05 0.0 0.0
0.0 1.7764958662467406e-06 -1.7819784004332652e-07 1.3787375695581053e-07 4.032408308752122e-08 -1.8782013217738892e-07 0.0 0.0
0.0 0.0 0.0 0.0 0.0 0.0 0.0 0.0
0.0 0.0 0.0 0.0 0.0 0.0 0.0 0.0
0.0 0.004949448669146669 0.0032348940956043806 -0.0037042378493988893 0.00046934375379450744 0.004161143129813549 0.0 0.0
0.0 0.0035435144338617276 0.0022266035201096556 -0.002625698361245028 0.00039909484113537306 -0.0030331388411551355 0.0 0.0
0.0 0.0 0.0 0.0 0.0 0.0 0.0 0.0
0.0 0.0 0.0 0.0 0.0 0.0 0.0 0.0
0.0 3.1962937086992216e-07 -2.0226174205583067e-08 1.599634122306193e-08 4.229832982520974e-09 3.4103416721793645e-08 0.0 0.0
0.0 6.553481560930388e-05 3.9111453203561524e-05 -3.107590333203716e-05 -8.035549871524389e-06 -4.760457681004566e-05 0.0 0.0
0.0 0.0007501212280103232 0.0005640884620604166 -0.00045844030213339497 -0.00010564815992702169 -0.0004878878384433705 0.0 0.0
0.0 0.0027222031944175384 0.0021803338940102114 -0.0018581081465674897 -0.0003222257474427224 -0.0014936301726334897 0.0 0.0
0.0 0.006010852904611726 0.005101391965258061 -0.00456532321994673 -0.0005360687453113309 -0.003098472397285776 0.0 0.0
0.0 0.010806265922773926 0.00922264650101954 -0.008542394578363057 -0.0006802519226564828 -0.00517485321983018 0.0 0.0
0.0 0.016876193278868846 0.014382854230284228 -0.013599545620534698 -0.0007833086097495281 -0.0074906704068320095 0.0 0.0
0.0 0.024011725999889027 0.02044921377378625 -0.01957961071185019 -0.0008696030619360678 -0.009870569970954216 0.0 0.0
0.0 0.03210553133082647 0.027359158981242544 -0.026410029957304737 -0.0009491290239378034 -0.01219612410266774 0.0 0.0
0.0 0.04126870725235609 0.035145266404738314 -0.034118821144839266 -0.0010264452598990495 -0.014532104224936422 0.0 0.0
0.0 0.05137189934490878 0.0438684647328935 -0.0427648501769296 -0.0011036145559638949 -0.016959152431195994 0.0 0.0
0.0 0.06260203025853842 0.05349980630835889 -0.05231867220134277 -0.0011811341070160873 -0.01936647149538641 0.0 0.0
0.0 0.07471761491853475 0.06385943536829701 -0.06260009806604575 -0.0012593373022512326 -0.021442952541745542 0.0 0.0
0.0 0.08688680547736151 0.07456184415736636 -0.07322233491019159 -0.0013395092471747577 -0.022671366745190602 0.0 0.0
0.0 0.09861703913711631 0.0849277475714359 -0.08350352138629813 -0.001424226185137763 -0.02217013803225636 0.0 0.0
0.0 0.1086606841464218 0.09391597624958536 -0.09240837905416605 -0.001507597195419335 -0.018674414624602752 0.0 0.0
0.0 0.11553980498437962 0.10023986362656373 -0.09866768067929291 -0.0015721829472707832 -0.010896103102655354 0.0 0.0
0.0 0.11553980498437194 0.1002398636265558 -0.09866768067928523 -0.0015721829472704898 0.010896103102697051 0.0 0.0
0.0 0.1086606841464006 0.09391597624956394 -0.0924083790541451 -0.0015075971954188296 0.018674414624657618 0.0 0.0
0.0 0.09861703913708343 0.08492774757140459 -0.08350352138626711 -0.001424226185137465 0.022170138032296192 0.0 0.0
0.0 0.08688680547732021 0.07456184415732862 -0.07322233491015458 -0.0013395092471740293 0.022671366745208792 0.0 0.0
0.0 0.07471761491848508 0.06385943536825378 -0.06260009806600325 -0.0012593373022505212 0.02144295254173869 0.0 0.0
0.0 0.06260203025848564 0.05349980630831293 -0.05231867220129759 -0.0011811341070153468 0.01936647149537781 0.0 0.0
0.0 0.05137189934485611 0.04386846473284764 -0.04276485017688423 -0.0011036145559633903 0.016959152431189103 0.0 0.0
0.0 0.04126870725230576 0.035145266404694314 -0.03411882114479559 -0.0010264452598986987 0.014532104224928021 0.0 0.0
0.0 0.032105531330776524 0.027359158981199623 -0.026410029957262174 -0.0009491290239374272 0.012196124102651293 0.0 0.0
0.0 0.024011725999844035 0.020449213773747667 -0.01957961071181226 -0.0008696030619354138 0.009870569970936442 0.0 0.0
0.0 0.016876193278830238 0.014382854230252142 -0.013599545620503063 -0.0007833086097490824 0.007490670406810674 0.0 0.0
0.0 0.010806265922744753 0.009222646500994554 -0.008542394578338658 -0.0006802519226558957 0.005174853219817381 0.0 0.0
0.0 0.006010852904589802 0.0051013919652396315 -0.0045653232199292446 -0.0005360687453103843 0.0030984723972748668 0.0 0.0
0.0 0.002722203194404924 0.0021803338940000385 -0.0018581081465583469 -0.00032222574744169283 0.0014936301726272447 0.0 0.0
0.0 0.0007501212280053973 0.0005640884620571117 -0.0004584403021306502 -0.00010564815992646145 0.0004878878384404914 0.0 0.0
0.0 6.553481560845351e-05 3.911145320356958e-05 -3.107590333202436e-05 -8.035549871545146e-06 4.7604576809941025e-05 0.0 0.0
0.0 3.1962937072333226e-07 -2.022617406566984e-08 1.599634111583864e-08 4.2298329498330875e-09 -3.410341651155122e-08 0.0 0.0
0.0 0.0 0.0 0.0 0.0 0.0 0.0 0.0
0.0 0.0 0.0 0.0 0.0 0.0 0.0 0.0
0.0 0.003543514433848826 0.0022266035201013745 -0.0026256983612359323 0.00039909484113455584 0.003033138841143107 0.0 0.0
0.0 0.0023792486242554915 0.001447872969069614 -0.0017581628360906396 0.0003102898670210247 -0.0020698969355576738 0.0 0.0
0.0 0.0 0.0 0.0 0.0 0.0 0.0 0.0
0.0 0.0 0.0 0.0 0.0 0.0 0.0 0.0
0.0 1.2459832782016668e-06 -8.711175530045244e-08 6.722946238267231e-08 1.9882292917777628e-08 2.0432140011233723e-07 0.0 0.0
0.0 2.737502994715924e-05 1.0247502288503528e-05 -8.113791205902361e-06 -2.133711082601162e-06 -1.803566523866686e-05 0.0 0.0
0.0 0.0003639773990766978 0.0002630232481856578 -0.00021171885021899735 -5.1304397966660306e-05 -0.0003444446753550652 0.0 0.0
0.0 0.0017322154380632314 0.0013352054892048204 -0.001114321993691328 -0.00022088349551349236 -0.0012997451847801692 0.0 0.0
0.0 0.004407405455936441 0.0035614177276022977 -0.003120243546004045 -0.0004411741815982527 -0.0028897539146072277 0.0 0.0
0.0 0.008341959824784763 0.006908834032729597 -0.00629778557322773 -0.000611048459501867 -0.005042233585736127 0.0 0.0
0.0 0.013361086701377463 0.011158627408123479 -0.01043513970312408 -0.0007234877049993974 -0.007489924969683032 0.0 0.0
0.0 0.01925553837095841 0.016134539420344145 -0.015326468745821071 -0.0008080706745230683 -0.00997168789706422 0.0 0.0
0.0 0.025928071320396935 0.021769922057231404 -0.020888129628143744 -0.0008817924290876658 -0.012393625825911456 0.0 0.0
0.0 0.03340056094421721 0.02809964864337411 -0.027148781715833976 -0.0009508669275401275 -0.014820653927068094 0.0 0.0
0.0 0.04177020295995744 0.035202486282976106 -0.03418441157867297 -0.0010180747043031417 -0.017316699675197982 0.0 0.0
0.0 0.05108711097046956 0.043103671748606506 -0.04201843914526756 -0.0010852326033389745 -0.01981061176769294 0.0 0.0
0.0 0.06094774231520375 0.0516984212591649 -0.05054623504238494 -0.0011521862167799904 -0.02201126778924563 0.0 0.0
0.0 0.07144491937416875 0.06072297744951369 -0.059504084135124216 -0.0012188933143894565 -0.023406178815960705 0.0 0.0
0.0 0.08171685060496953 0.0697490747066428 -0.06846043890391079 -0.0012886358027320117 -0.02318278447679077 0.0 0.0
0.0 0.09069582005613583 0.07802879569401847 -0.07666666834728501 -0.0013621273467334235 -0.019902551107471588 0.0 0.0
0.0 0.0975103554346965 0.08441747182063566 -0.08299024936220567 -0.001427222458429956 -0.011872206062526787 0.0 0.0
0.0 0.09751035543468892 0.08441747182062778 -0.08299024936219755 -0.0014272224584302175 0.011872206062568648 0.0 0.0
0.0 0.09069582005611633 0.07802879569399812 -0.0766666683472643 -0.0013621273467338524 0.01990255110752668 0.0 0.0
0.0 0.08171685060493926 0.06974907470661328 -0.06846043890388098 -0.001288635802732324 0.023182784476829914 0.0 0.0
0.0 0.0714449193741328 0.0607229774494806 -0.05950408413509142 -0.0012188933143891475 0.023406178815977126 0.0 0.0
0.0 0.06094774231516004 0.0516984212591272 -0.05054623504234752 -0.0011521862167796397 0.022011267789237926 0.0 0.0
0.0 0.05108711097042329 0.043103671748566566 -0.042018439145228084 -0.0010852326033384567 0.01981061176768194 0.0 0.0
0.0 0.0417702029599151 0.03520248628293913 -0.03418441157863665 -0.001018074704302474 0.0173166996751893 0.0 0.0
0.0 0.03340056094417787 0.028099648643339793 -0.02714878171580041 -0.0009508669275393853 0.014820653927059519 0.0 0.0
0.0 0.02592807132035725 0.021769922057197598 -0.020888129628110694 -0.0008817924290869048 0.01239362582589612 0.0 0.0
0.0 0.01925553837092228 0.016134539420313683 -0.015326468745791286 -0.0008080706745223954 0.009971687897046883 0.0 0.0
0.0 0.013361086701344423 0.011158627408096351 -0.010435139703097637 -0.0007234877049987116 0.007489924969661283 0.0 0.0
0.0 0.008341959824760686 0.006908834032709396 -0.006297785573208237 -0.0006110484595011574 0.005042233585722478 0.0 0.0
0.0 0.004407405455919989 0.0035614177275889425 -0.003120243545991689 -0.00044117418159725255 0.002889753914597049 0.0 0.0
0.0 0.0017322154380534785 0.0013352054891973548 -0.001114321993684843 -0.00022088349551251183 0.0012997451847738257 0.0 0.0
0.0 0.0003639773990727547 0.0002630232481833491 -0.00021171885021711772 -5.130439796623138e-05 0.00034444467535217724 0.0 0.0
0.0 2.737502994622275e-05 1.0247502288484062e-05 -8.1137912058832e-06 -2.133711082600854e-06 1.8035665238618436e-05 0.0 0.0
0.0 1.245983277765114e-06 -8.711175526903953e-08 6.722946235833695e-08 1.9882292910690027e-08 -2.0432140003799813e-07 0.0 0.0
0.0 0.0 0.0 0.0 0.0 0.0 0.0 0.0
0.0 0.0 0.0 0.0 0.0 0.0 0.0 0.0
0.0 0.0023792486242454076 0.0014478729690634322 -0.0017581628360836374 0.00031028986702020574 0.002069896935548612 0.0 0.0
0.0 0.0014761649300339891 0.000852600732042945 -0.0010658774765274829 0.00021327674448453764 -0.0012846790645018487 0.0 0.0
0.0 2.413150468070681e-07 -3.1561199297649185e-09 2.895078666521106e-09 2.6104126324386403e-10 4.838109291425756e-08 0.0 0.0
0.0 0.0 0.0 0.0 0.0 0.0 0.0 0.0
0.0 1.343535810957597e-06 -6.745450613659108e-08 5.1836617700734505e-08 1.5617888435866596e-08 2.5068220686766373e-07 0.0 0.0
0.0 1.4144208113382685e-05 5.4029911889204745e-06 -4.267732884216862e-06 -1.1352583047036132e-06 -1.41317806630293e-05 0.0 0.0
0.0 0.00018381916037927572 9.518376280213586e-05 -7.63068320355932e-05 -1.8876930766542694e-05 -0.00018995284755813304 0.0 0.0
0.0 0.0009734883172540692 0.0006784266025208715 -0.0005553184583250523 -0.00012310814419581897 -0.0009746729247902521 0.0 0.0
0.0 0.002898382478857825 0.0021919555522364707 -0.0018713868322717657 -0.00032056871996470425 -0.0024461932392724887 0.0 0.0
0.0 0.005967463327474387 0.004697467609211274 -0.0041866559447974756 -0.0005108116644137954 -0.00446991292100126 0.0 0.0
0.0 0.009924234962603709 0.008004561819920463 -0.007360821504997334 -0.0006437403149231291 -0.006861321039215415 0.0 0.0
0.0 0.014574901608766223 0.0118862324687969 -0.011153774318869776 -0.0007324581499271223 -0.00932995067114155 0.0 0.0
0.0 0.019808503058288705 0.016254276067321854 -0.015450785917932874 -0.0008034901493889829 -0.011712920207141304 0.0 0.0
0.0 0.025664372163115866 0.021137490819239265 -0.02027184983590339 -0.0008656409833358591 -0.014076755384989833 0.0 0.0
0.0 0.032177574681929104 0.02662739055610947 -0.025703757434355913 -0.0009236331217535509 -0.016502276202117756 0.0 0.0
0.0 0.039485432313796844 0.032787590105181216 -0.03180801972569692 -0.0009795703794842987 -0.018927205787115986 0.0 0.0
0.0 0.04746912158117633 0.03958736145060485 -0.03855045238797154 -0.0010369090626333002 -0.021086863272857588 0.0 0.0
0.0 0.05584636346966736 0.046875107694111816 -0.04578459445102983 -0.0010905132430819849 -0.022571480965207304 0.0 0.0
0.0 0.06443464338607639 0.054461585325270026 -0.05331938256436569 -0.0011422027609043499 -0.022716563551021793 0.0 0.0
0.0 0.07274719702263471 0.061969234093318865 -0.06076652162287399 -0.0012027124704448546 -0.020094203888067045 0.0 0.0
0.0 0.07963668918232365 0.06848044061560483 -0.06720981275254378 -0.0012706278630610177 -0.012594865520591253 0.0 0.0
0.0 0.07963668918231812 0.06848044061559846 -0.06720981275253728 -0.0012706278630611827 0.012594865520630348 0.0 0.0
0.0 0.07274719702262224 0.061969234093303766 -0.060766521622858734 -0.0012027124704450582 0.020094203888121637 0.0 0.0
0.0 0.06443464338605955 0.05446158532525087 -0.053319382564347054 -0.001142202760903783 0.02271656355106222 0.0 0.0
0.0 0.05584636346964327 0.04687510769408822 -0.045784594451007105 -0.0010905132430811281 0.022571480965223194 0.0 0.0
0.0 0.04746912158114496 0.0395873614505777 -0.038550452387944946 -0.0010369090626327418 0.021086863272849945 0.0 0.0
0.0 0.039485432313765834 0.0327875901051547 -0.031808019725670746 -0.0009795703794839587 0.018927205787106195 0.0 0.0
0.0 0.032177574681897414 0.026627390556082153 -0.025703757434328626 -0.0009236331217535355 0.016502276202110002 0.0 0.0
0.0 0.025664372163084773 0.021137490819212474 -0.020271849835876814 -0.0008656409833356582 0.014076755384981012 0.0 0.0
0.0 0.01980850305825988 0.016254276067297884 -0.01545078591790925 -0.000803490149388632 0.011712920207126495 0.0 0.0
0.0 0.014574901608738509 0.011886232468774226 -0.011153774318847693 -0.0007324581499265258 0.009329950671124729 0.0 0.0
0.0 0.009924234962577083 0.008004561819899742 -0.007360821504977208 -0.000643740314922535 0.006861321039194438 0.0 0.0
0.0 0.005967463327455146 0.004697467609196163 -0.00418665594478309 -0.000510811664413072 0.004469912920988573 0.0 0.0
0.0 0.00289838247884513 0.0021919555522267316 -0.0018713868322630888 -0.0003205687199636413 0.0024461932392634933 0.0 0.0
0.0 0.0009734883172467068 0.0006784266025157434 -0.0005553184583207328 -0.00012310814419501002 0.0009746729247839714 0.0 0.0
0.0 0.0001838191603771787 9.518376280143953e-05 -7.630683203501136e-05 -1.8876930766428012e-05 0.00018995284755662494 0.0 0.0
0.0 1.4144208112994354e-05 5.402991189071472e-06 -4.267732884335548e-06 -1.1352583047359265e-06 1.413178066344341e-05 0.0 0.0
0.0 1.343535810551308e-06 -6.74545061154224e-08 5.1836617684484416e-08 1.561788843093987e-08 -2.5068220678900275e-07 0.0 0.0
0.0 0.0 0.0 0.0 0.0 0.0 0.0 0.0
0.0 2.413150465246296e-07 -3.1561199259962506e-09 2.8950786630596134e-09 2.610412629367381e-10 -4.838109285659394e-08 0.0 0.0
0.0 0.0014761649300263785 0.0008526007320386931 -0.0010658774765224986 0.00021327674448380515 0.0012846790644953864 0.0 0.0
0.0 0.0007941236134270464 0.00042250718442270153 -0.0005460294228181364 0.00012352223839543497 -0.0006738609792707879 0.0 0.0
0.0 7.427369157546076e-07 -9.239449292111002e-09 1.3057453172163895e-08 -3.81800388005423e-09 1.488259022895083e-07 0.0 0.0
0.0 6.305102464673167e-07 -7.0898921551877894e-09 5.074535917472657e-09 2.0153562377156586e-09 1.2874703632778445e-07 0.0 0.0
0.0 8.694762653476193e-07 -2.987712020632065e-08 2.159330647060148e-08 8.283813735721381e-09 1.7349073420562356e-07 0.0 0.0
0.0 1.1511596772876398e-05 3.1770942113273354e-06 -2.499156900155604e-06 -6.779373111717434e-07 -1.295591826789922e-05 0.0 0.0
0.0 0.00010306175629201653 3.888727941228552e-05 -3.099593180554841e-05 -7.891347606737105e-06 -0.0001225197988436299 0.0 0.0
0.0 0.0004820985019526498 0.0002609973561097065 -0.00021060453690369978 -5.03928192060068e-05 -0.0006073123196414218 0.0 0.0
0.0 0.0016217299427795844 0.0010695227646358185 -0.0008865795819699288 -0.0001829431826658892 -0.0017890016828421183 0.0 0.0
0.0 0.003756827367893969 0.002682558231158117 -0.0023165892243295623 -0.0003659690068285519 -0.003533981253507543 0.0 0.0
0.0 0.006553457389964815 0.004988225392943659 -0.004465830178596118 -0.0005223952143475397 -0.005642471125836784 0.0 0.0
0.0 0.010039992134002966 0.007750438190570625 -0.007122670042884214 -0.0006277681476864122 -0.007889783468017815 0.0 0.0
0.0 0.013805082248084943 0.01085586745703573 -0.010153108985181 -0.0007027584718547259 -0.010098592136273588 0.0 0.0
0.0 0.0180066918188864 0.014308875859355065 -0.013546349575845858 -0.0007625262835092037 -0.012278544856754382 0.0 0.0
0.0 0.022737103183900376 0.0181949945602701 -0.01738165684572474 -0.0008133377145453496 -0.014477462268726149 0.0 0.0
0.0 0.028115961641972435 0.022607546499495684 -0.021748052305685876 -0.0008594941938098026 -0.01668126561542323 0.0 0.0
0.0 0.034034367224310726 0.02758771569102742 -0.02668233824508896 -0.0009053774459384533 -0.018688976807714596 0.0 0.0
0.0 0.04048206826573762 0.033083718560702066 -0.03213288165515171 -0.0009508369055503513 -0.020100890404042327 0.0 0.0
0.0 0.04721997185263079 0.039082780788788754 -0.03809837094678055 -0.0009844098420081961 -0.020552394954765532 0.0 0.0
0.0 0.05431952394802672 0.04563873627724728 -0.04461702213271117 -0.0010217141445360953 -0.019029224170144004 0.0 0.0
0.0 0.06118175723248178 0.05226076792999317 -0.051168978224820055 -0.0010917897051731331 -0.01299292038621053 0.0 0.0
0.0 0.061181757232477575 0.05226076792998758 -0.05116897822481437 -0.0010917897051731997 0.012992920386243573 0.0 0.0
0.0 0.05431952394801658 0.04563873627723353 -0.04461702213269769 -0.0010217141445358372 0.019029224170192115 0.0 0.0
0.0 0.047219971852616865 0.039082780788771976 -0.038098370946764354 -0.0009844098420076098 0.02055239495479974 0.0 0.0
0.0 0.040482068265718596 0.033083718560683185 -0.03213288165513369 -0.0009508369055494983 0.020100890404054245 0.0 0.0
0.0 0.03403436722428385 0.027587715691004943 -0.026682338245067078 -0.0009053774459378558 0.018688976807703914 0.0 0.0
0.0 0.028115961641943618 0.022607546499471942 -0.02174805230566247 -0.0008594941938094825 0.016681265615409974 0.0 0.0
0.0 0.022737103183875267 0.01819499456024893 -0.01738165684570395 -0.000813337714544984 0.014477462268717716 0.0 0.0
0.0 0.018006691818865557 0.014308875859337246 -0.013546349575828568 -0.0007625262835086797 0.01227854485674701 0.0 0.0
0.0 0.013805082248061025 0.010855867457016288 -0.010153108985162121 -0.000702758471854163 0.010098592136259864 0.0 0.0
0.0 0.010039992133981008 0.007750438190553391 -0.007122670042867586 -0.0006277681476858021 0.007889783468002088 0.0 0.0
0.0 0.00655345738994722 0.004988225392930861 -0.004465830178584004 -0.0005223952143468558 0.00564247112582115 0.0 0.0
0.0 0.00375682736788029 0.0026825582311480163 -0.0023165892243203114 -0.000365969006827705 0.0035339812534962954 0.0 0.0
0.0 0.0016217299427716016 0.0010695227646301722 -0.0008865795819650887 -0.00018294318266508312 0.0017890016828348032 0.0 0.0
0.0 0.0004820985019485202 0.0002609973561076202 -0.00021060453690198764 -5.0392819205632605e-05 0.0006073123196372241 0.0 0.0
0.0 0.00010306175629064809 3.8887279412143984e-05 -3.099593180542585e-05 -7.891347606718132e-06 0.00012251979884299265 0.0 0.0
0.0 1.151159677265936e-05 3.1770942114577615e-06 -2.4991569002586268e-06 -6.779373111991272e-07 1.2955918268466468e-05 0.0 0.0
0.0 8.694762648168817e-07 -2.987712019000699e-08 2.1593306458356525e-08 8.283813731647456e-09 -1.7349073409897767e-07 0.0 0.0
0.0 6.305102458760242e-07 -7.089892147158693e-09 5.074535912009278e-09 2.015356235150372e-09 -1.2874703620679312e-07 0.0 0.0
0.0 7.427369147566011e-07 -9.239449282830247e-09 1.3057453159012042e-08 -3.818003876181852e-09 -1.4882590208868319e-07 0.0 0.0
0.0 0.0007941236134213717 0.00042250718441998707 -0.000546029422814852 0.00012352223839486498 0.0006738609792662936 0.0 0.0
0.0 0.00030267870180095255 0.000158900639915301 -0.00021501254293873628 5.61119030234353e-05 -0.00026907707180367287 0.0 0.0
0.0 2.0717276247831737e-06 -6.165853434397743e-09 1.47916262852059e-08 -8.625772850807937e-09 4.367858720835785e-07 0.0 0.0
0.0 8.129603515550081e-07 -9.729788138728575e-10 -5.062304710215263e-10 1.479209284894036e-09 1.6676851108718092e-07 0.0 0.0
0.0 1.3942118126280809e-06 -1.7202479833820512e-08 1.1633862331670308e-08 5.568617502153395e-09 2.882879494068393e-07 0.0 0.0
0.0 1.2099968171827401e-05 1.933593843096253e-06 -1.4812327727876536e-06 -4.5236107030860346e-07 -1.4556895699891008e-05 0.0 0.0
0.0 8.437538581679997e-05 1.872755398738147e-05 -1.4939053791484842e-05 -3.788500195896627e-06 -0.00010698356619242567 0.0 0.0
0.0 0.00026596893720225005 8.432600718261334e-05 -6.771605769779793e-05 -1.6609949484815342e-05 -0.0003752223114761573 0.0 0.0
0.0 0.0007288940341225009 0.00033140486876812215 -0.000267727769017862 -6.36770997502599e-05 -0.0010576924004250504 0.0 0.0
0.0 0.0018325316750101447 0.001026654896788909 -0.0008497211222302135 -0.00017693377455869571 -0.002295663341390708 0.0 0.0
0.0 0.0035137500798161805 0.0022486402216810664 -0.0019252429397120935 -0.00032339728196897167 -0.003911140226494499 0.0 0.0
0.0 0.005599630294895932 0.00384569306701231 -0.0033957650487650786 -0.0004499280182472299 -0.0057071757234823176 0.0 0.0
0.0 0.008034515184361405 0.0056650949404381526 -0.00512446585324954 -0.0005406290871886108 -0.007546889757013318 0.0 0.0
0.0 0.010688395661679862 0.007697892031450771 -0.007088176039333827 -0.0006097159921169396 -0.00942369209398829 0.0 0.0
0.0 0.013670042700383885 0.010000165654534583 -0.009337702263476971 -0.0006624633910576063 -0.011300795557605372 0.0 0.0
0.0 0.01706225188753405 0.01266242965564788 -0.011958793877778368 -0.0007036357778695079 -0.013172739299368649 0.0 0.0
0.0 0.020941411181408028 0.015791030311815717 -0.015051502410433341 -0.0007395279013823805 -0.014946259014211868 0.0 0.0
0.0 0.025352182705726232 0.019458127918933074 -0.018680777106443093 -0.0007773508124899916 -0.016297864399900604 0.0 0.0
0.0 0.030266028110197046 0.023749153218453327 -0.022939753532162058 -0.0008093996862912851 -0.01684035220135902 0.0 0.0
0.0 0.03606846656351375 0.02900095141128568 -0.02819047190405142 -0.000810479507234259 -0.01638040442941001 0.0 0.0
0.0 0.04274951057178533 0.03553589443800484 -0.03466687707646518 -0.0008690173615396841 -0.012826067784257255 0.0 0.0
0.0 0.04274951057178836 0.035535894438005 -0.03466687707646531 -0.0008690173615397026 0.012826067784285895 0.0 0.0
0.0 0.036068466563515984 0.02900095141128233 -0.02819047190404797 -0.0008104795072343498 0.016380404429453613 0.0 0.0
0.0 0.030266028110193056 0.023749153218445014 -0.022939753532153967 -0.0008093996862910387 0.016840352201389575 0.0 0.0
0.0 0.025352182705715324 0.019458127918921923 -0.018680777106432456 -0.0007773508124894607 0.01629786439990823 0.0 0.0
0.0 0.020941411181390146 0.01579103031180238 -0.015051502410420277 -0.0007395279013821024 0.014946259014200106 0.0 0.0
0.0 0.017062251887519968 0.012662429655637264 -0.011958793877768036 -0.0007036357778692257 0.013172739299359366 0.0 0.0
0.0 0.0136700427003741 0.010000165654526523 -0.009337702263469382 -0.0006624633910571469 0.011300795557601603 0.0 0.0
0.0 0.010688395661668751 0.007697892031441485 -0.007088176039324849 -0.000609715992116635 0.009423692093984255 0.0 0.0
0.0 0.008034515184347606 0.005665094940428151 -0.005124465853240123 -0.0005406290871880294 0.007546889757002401 0.0 0.0
0.0 0.005599630294881527 0.003845693067002796 -0.003395765048756133 -0.00044992801824666253 0.0057071757234677676 0.0 0.0
0.0 0.0035137500798056525 0.0022486402216748075 -0.0019252429397064305 -0.0003233972819683753 0.00391114022648282 0.0 0.0
0.0 0.0018325316750030817 0.0010266548967844257 -0.0008497211222263633 -0.00017693377455806254 0.0022956633413830202 0.0 0.0
0.0 0.0007288940341186566 0.00033140486876627386 -0.00026772776901636176 -6.367709974991195e-05 0.0010576924004205071 0.0 0.0
0.0 0.0002659689372004498 8.432600718221483e-05 -6.77160576974708e-05 -1.660994948474402e-05 0.00037522231147442745 0.0 0.0
0.0 8.437538581526849e-05 1.8727553987299355e-05 -1.4939053791423447e-05 -3.7885001958758966e-06 0.00010698356619184906 0.0 0.0
0.0 1.2099968171452218e-05 1.9335938431404336e-06 -1.4812327728218017e-06 -4.523610703186339e-07 1.4556895700237037e-05 0.0 0.0
0.0 1.3942118121365584e-06 -1.7202479827439693e-08 1.1633862327329383e-08 5.568617500112952e-09 -2.8828794930130727e-07 0.0 0.0
0.0 8.12960351106587e-07 -9.729788137991681e-10 -5.062304704954294e-10 1.479209284295063e-09 -1.667685109932312e-07 0.0 0.0
0.0 2.0717276240791394e-06 -6.165853431574411e-09 1.4791626278552993e-08 -8.625772846978897e-09 -4.3678587193397695e-07 0.0 0.0
0.0 0.00030267870179819087 0.00015890063991431193 -0.00021501254293745313 5.611190302314102e-05 0.000269077071802094 0.0 0.0
0.0 7.001889702666751e-05 3.353017078066881e-05 -4.751963778133021e-05 1.398946700066141e-05 -6.0184888314963314e-05 0.0 0.0
0.0 2.3409661729961703e-06 6.496376963596438e-10 1.3091562580591183e-08 -1.3741200276949575e-08 4.872012716183131e-07 0.0 0.0
0.0 9.140071443047152e-07 1.4008506711045199e-09 -1.864593007438057e-09 4.6374233633347197e-10 2.088129961835532e-08 0.0 0.0
0.0 1.98919348806079e-06 -2.5565751681304703e-08 2.70462757548976e-08 -1.4805240735923043e-09 -1.4395404345725512e-06 0.0 0.0
0.0 1.5181607622683287e-05 4.15769384994102e-07 -2.752303994081733e-07 -1.4053898558593518e-07 -1.558240778002717e-05 0.0 0.0
0.0 7.969972871396718e-05 5.775982646858544e-06 -4.526573722017448e-06 -1.2494089248410821e-06 -0.00011225856494916144 0.0 0.0
0.0 0.00021952276998309735 2.393920070789018e-05 -1.919028172056602e-05 -4.748918987324185e-06 -0.00034409234295541336 0.0 0.0
0.0 0.00046644779062371134 6.336423322198019e-05 -5.111690332155967e-05 -1.2247329900420453e-05 -0.0007038894489879295 0.0 0.0
0.0 0.0008160762321680582 0.00015517547491749904 -0.00012570279151622962 -2.947268340126937e-05 -0.0013139437866444331 0.0 0.0
0.0 0.0014396976281859505 0.00034730513695359127 -0.00028152811509461013 -6.577702185898124e-05 -0.0022148182384993395 0.0 0.0
0.0 0.002198588206047383 0.0006958668830399415 -0.0005632211905091656 -0.00013264569253077578 -0.0034207925465718205 0.0 0.0
0.0 0.003214836364382031 0.0011439833131750466 -0.0009342858812476508 -0.0002096974319273954 -0.00476909166837495 0.0 0.0
0.0 0.004428341449565996 0.0017126349390881558 -0.001428808550770059 -0.0002838263883180958 -0.006283156015506957 0.0 0.0
0.0 0.005878548783392361 0.0024134483112216096 -0.0020662988220153627 -0.0003471494892062475 -0.007946430511386953 0.0 0.0
0.0 0.007559545722112984 0.003307452172609291 -0.0029087889709818243 -0.00039866320162746586 -0.009745338009020572 0.0 0.0
0.0 0.009587532239697539 0.004532798387207632 -0.0040917678637741985 -0.00044103052343343014 -0.011564866304026618 0.0 0.0
0.0 0.012000975777347581 0.006314755387294113 -0.005833310029277286 -0.00048144535801682327 -0.01307001352884966 0.0 0.0
0.0 0.014879268851771012 0.008871501392904175 -0.008340572337237185 -0.0005309290556669867 -0.013689782239540293 0.0 0.0
0.0 0.018681561034904055 0.01248623198555538 -0.011933511093724841 -0.0005527208918305384 -0.013320426585064432 0.0 0.0
0.0 0.024479528761188474 0.01820085831253908 -0.017675042410821195 -0.0005258159017178894 -0.01215164688291378 0.0 0.0
0.0 0.024479528761192044 0.018200858312540036 -0.017675042410821976 -0.0005258159017180535 0.012151646882934441 0.0 0.0
0.0 0.018681561034907035 0.012486231985553166 -0.011933511093722723 -0.0005527208918304432 0.013320426585095827 0.0 0.0
0.0 0.014879268851769496 0.0088715013928994 -0.008340572337232503 -0.000530929055666891 0.013689782239558981 0.0 0.0
0.0 0.012000975777341024 0.006314755387289391 -0.0058333100292724685 -0.0004814453580169191 0.013070013528849157 0.0 0.0
0.0 0.009587532239689424 0.0045327983872045655 -0.004091767863771249 -0.0004410305234333158 0.011564866304015518 0.0 0.0
0.0 0.00755954572210504 0.0033074521726057875 -0.0029087889709784867 -0.0003986632016273006 0.009745338009011131 0.0 0.0
0.0 0.005878548783387003 0.002413448311219448 -0.002066298822013344 -0.00034714948920610384 0.007946430511381077 0.0 0.0
0.0 0.004428341449560206 0.0017126349390860895 -0.001428808550768244 -0.00028382638831784537 0.006283156015499457 0.0 0.0
0.0 0.003214836364376052 0.001143983313173748 -0.0009342858812465901 -0.00020969743192715732 0.004769091668365883 0.0 0.0
0.0 0.0021985882060415267 0.0006958668830379256 -0.0005632211905075997 -0.00013264569253032538 0.003420792546563101 0.0 0.0
0.0 0.0014396976281808118 0.00034730513695264677 -0.0002815281150938023 -6.577702185884476e-05 0.0022148182384918048 0.0 0.0
0.0 0.00081607623216604 0.00015517547491711054 -0.00012570279151592726 -2.9472683401183142e-05 0.0013139437866411972 0.0 0.0
0.0 0.00046644779062213963 6.336423322175605e-05 -5.1116903321391e-05 -1.2247329900365028e-05 0.0007038894489853263 0.0 0.0
0.0 0.00021952276998130264 2.3939200707795557e-05 -1.919028172047734e-05 -4.748918987318193e-06 0.00034409234295394297 0.0 0.0
0.0 7.969972871283172e-05 5.775982646830677e-06 -4.52657372199322e-06 -1.2494089248374577e-06 0.00011225856494848511 0.0 0.0
0.0 1.5181607622185666e-05 4.157693849968196e-07 -2.752303994089836e-07 -1.405389855878394e-07 1.5582407780143217e-05 0.0 0.0
0.0 1.989193487949756e-06 -2.556575169433158e-08 2.7046275770157026e-08 -1.4805240758255281e-09 1.4395404353879072e-06 0.0 0.0
0.0 9.140071440619839e-07 1.4008506482255884e-09 -1.864592988078988e-09 4.637423398531876e-10 -2.0881299169484754e-08 0.0 0.0
0.0 2.340966172321822e-06 6.496376968874008e-10 1.3091562575233056e-08 -1.3741200272117913e-08 -4.87201271473837e-07 0.0 0.0
0.0 7.001889702541649e-05 3.353017078045992e-05 -4.751963778103199e-05 1.3989467000572012e-05 6.0184888314713276e-05 0.0 0.0
0.0 4.270068314851417e-06 1.0795950890976482e-06 -1.5594457045142968e-06 4.798506154166416e-07 -2.2373700006444824e-06 0.0 0.0
0.0 2.0855947942816465e-06 -5.258909031035959e-09 9.016002596645083e-09 -3.757093565604268e-09 8.949955290562446e-08 0.0 0.0
0.0 2.6445020787190276e-06 -1.1881092092694203e-07 9.922055043701211e-08 1.959037048993073e-08 -1.3227087251795471e-06 0.0 0.0
0.0 4.259175344869315e-06 -3.969859180939057e-07 3.4504280205781563e-07 5.1943116036090235e-08 -4.6321213741707905e-06 0.0 0.0
0.0 1.979112007700219e-05 -1.4877363500645764e-06 1.2937457239762427e-06 1.939906260883432e-07 -2.1652443009109003e-05 0.0 0.0
0.0 8.675828711134305e-05 -7.566033941437564e-06 6.224148653937302e-06 1.3418852875002538e-06 -0.00011455103945063546 0.0 0.0
0.0 0.00022103769305686593 -2.524140196749911e-05 2.0389742832945648e-05 4.851659134553445e-06 -0.0003467268579026987 0.0 0.0
0.0 0.00046673911602423566 -6.35762473023459e-05 5.1283681285019824e-05 1.229256601732602e-05 -0.0007054955841349152 0.0 0.0
0.0 0.0008160503981241071 -0.00015492419216864685 0.00012548832845098965 2.9435863717657077e-05 -0.0013145196314805951 0.0 0.0
0.0 0.0014382281695327894 -0.0003465543933431534 0.00028082253122478163 6.57318621183718e-05 -0.0022133906024450756 0.0 0.0
0.0 0.0022075279518238185 -0.0006956005820408207 0.0005637898160061619 0.00013181076603465837 -0.003420105275197389 0.0 0.0
0.0 0.003227180822268362 -0.0011602925958249073 0.0009503909286893222 0.0002099016671355847 -0.0047780659434629716 0.0 0.0
0.0 0.0044646121435678796 -0.001756828279265094 0.0014710847021537404 0.00028574357711135196 -0.006296771245271842 0.0 0.0
0.0 0.005920906492235001 -0.002468506661236678 0.0021145220262343153 0.00035398463500236065 -0.007953149840062556 0.0 0.0
0.0 0.007473768380002756 -0.0032082441357356925 0.0027932839407070345 0.0004149601950286573 -0.00973853555980011 0.0 0.0
0.0 0.009017645429380357 -0.0037763348236168484 0.003307691396528157 0.00046864342708868644 -0.011616168421661044 0.0 0.0
0.0 0.010253656670221227 -0.0038531791294160586 0.003340673278123772 0.000512505851292287 -0.013574408221757239 0.0 0.0
0.0 0.011033920437196311 -0.003159108435524236 0.0026172101747040945 0.0005418982608201405 -0.015655367830329753 0.0 0.0
0.0 0.011314136663975578 -0.0017361625595506743 0.0012433006482823715 0.0004928619112683026 -0.017470316717262353 0.0 0.0
0.0 0.010966144550957159 0.002557207078779214 -0.0026370786975606127 7.98716187813967e-05 -0.01613934838262238 0.0 0.0
0.0 0.010966144550960955 0.002557207078779018 -0.002637078697560395 7.987161878137946e-05 0.01613934838263345 0.0 0.0
0.0 0.01131413666397935 -0.001736162559551064 0.0012433006482826007 0.0004928619112684626 0.01747031671727277 0.0 0.0
0.0 0.011033920437192181 -0.0031591084355226187 0.00261721017470288 0.0005418982608197374 0.015655367830330516 0.0 0.0
0.0 0.0102536566702125 -0.0038531791294113566 0.003340673278119443 0.000512505851291911 0.013574408221750517 0.0 0.0
0.0 0.00901764542937019 -0.003776334823611529 0.003307691396523286 0.0004686434270882397 0.011616168421648743 0.0 0.0
0.0 0.0074737683799955545 -0.0032082441357319004 0.00279328394070368 0.00041496019502821886 0.009738535559792528 0.0 0.0
0.0 0.005920906492225567 -0.002468506661230945 0.002114522026229192 0.00035398463500175127 0.007953149840054937 0.0 0.0
0.0 0.0044646121435578945 -0.0017568282792593056 0.0014710847021485176 0.0002857435771107874 0.006296771245262959 0.0 0.0
0.0 0.003227180822258261 -0.0011602925958204416 0.0009503909286854195 0.00020990166713502186 0.004778065943451681 0.0 0.0
0.0 0.002207527951816253 -0.0006956005820371025 0.0005637898160031446 0.00013181076603395833 0.0034201052751876957 0.0 0.0
0.0 0.0014382281695253306 -0.00034655439334062163 0.0002808225312226197 6.573186211800182e-05 0.002213390602435357 0.0 0.0
0.0 0.0008160503981216101 -0.0001549241921678741 0.00012548832845035287 2.9435863717521284e-05 0.001314519631477032 0.0 0.0
0.0 0.0004667391160225723 -6.357624730198621e-05 5.128368128471131e-05 1.2292566017274897e-05 0.0007054955841327391 0.0 0.0
0.0 0.00022103769305495082 -2.524140196735437e-05 2.038974283285701e-05 4.851659134497353e-06 0.0003467268579008615 0.0 0.0
0.0 8.675828710984036e-05 -7.566033941392957e-06 6.224148653904448e-06 1.3418852874885181e-06 0.00011455103944998083 0.0 0.0
0.0 1.9791120076543876e-05 -1.4877363500936646e-06 1.2937457240015054e-06 1.9399062609215554e-07 2.165244300953366e-05 0.0 0.0
0.0 4.25917534468102e-06 -3.969859181484209e-07 3.450428021052482e-07 5.194311604317305e-08 4.632121374784328e-06 0.0 0.0
0.0 2.644502078333075e-06 -1.1881092102229644e-07 9.922055051723129e-08 1.959037050506586e-08 1.3227087262728265e-06 0.0 0.0
0.0 2.085594793686632e-06 -5.258909045513441e-09 9.016002596483338e-09 -3.757093550965001e-09 -8.949955241020505e-08 0.0 0.0
0.0 4.270068314216395e-06 1.079595089204838e-06 -1.5594457046683353e-06 4.798506154635001e-07 2.2373700008946086e-06 0.0 0.0
0.0 0.0 0.0 0.0 0.0 0.0 0.0 0.0
0.0 9.136317282471146e-07 -5.030595053535042e-09 7.765811023893784e-09 -2.735215970360281e-09 -6.051179835988708e-08 0.0 0.0
0.0 3.4227409604009123e-06 -2.8727277365855933e-07 2.3656909665335437e-07 5.0703677005200784e-08 -2.15692650771299e-06 0.0 0.0
0.0 7.215952145446099e-06 -4.5692479921511194e-07 4.0214278528335435e-07 5.4782013931771144e-08 -3.3197946017607243e-06 0.0 0.0
0.0 2.5738633276005342e-05 -5.125623496513599e-06 4.27201306066383e-06 8.53610435849775e-07 -3.1037680173716626e-05 0.0 0.0
0.0 9.626756374802381e-05 -2.372042146666692e-05 1.9155432307665017e-05 4.564989159001879e-06 -0.00012616074726801559 0.0 0.0
0.0 0.000276807008229699 -8.704883775024438e-05 7.006878400989485e-05 1.6980053740349498e-05 -0.0003827315724774338 0.0 0.0
0.0 0.0007334342640844504 -0.00033332281605242636 0.0002693031664615996 6.401964959082666e-05 -0.0010630194446956478 0.0 0.0
0.0 0.0018302159267390243 -0.0010256573946488244 0.0008488279608433062 0.0001768294338055183 -0.0022953590994173934 0.0 0.0
0.0 0.0035112120756370037 -0.002247325582036876 0.0019241814047711817 0.0003231441772656941 -0.003909701627104265 0.0 0.0
0.0 0.005603860780883686 -0.0038498057403888375 0.003400430542194746 0.00044937519819408973 -0.005708573782799846 0.0 0.0
0.0 0.008054982445822994 -0.005686551778728004 0.0051467526326681775 0.0005397991460598286 -0.0075465373744801854 0.0 0.0
0.0 0.010734071537199416 -0.0077495470098767096 0.0071398092763022315 0.0006097377335744753 -0.00940517920245747 0.0 0.0
0.0 0.013715697082701076 -0.010055423641646313 0.009387377341862402 0.0006680462997839149 -0.011266459971683752 0.0 0.0
0.0 0.016946478082649593 -0.012538420356603741 0.011816595024825082 0.0007218253317786544 -0.013205689506673134 0.0 0.0
0.0 0.020199941019314212 -0.01497002937894865 0.01419679189487279 0.0007732374840758555 -0.015313052146280138 0.0 0.0
0.0 0.02310357390204289 -0.016940610951326374 0.016122089851685513 0.0008185210996408641 -0.017656550663282075 0.0 0.0
0.0 0.025051932674848232 -0.01792029806475382 0.017070125311009852 0.0008501727537439792 -0.020143408959317183 0.0 0.0
0.0 0.024485090340833116 -0.016879185069573064 0.0159339387335994 0.0009452463359736535 -0.021149511117457186 0.0 0.0
0.0 0.019048978440761612 -0.011397741907144897 0.010373085964125978 0.0010246559430189136 -0.018553180244933614 0.0 0.0
0.0 0.01904897844077024 -0.011397741907146541 0.010373085964127346 0.0010246559430191963 0.018553180244958674 0.0 0.0
0.0 0.024485090340838782 -0.0168791850695708 0.015933938733597046 0.0009452463359737422 0.021149511117490704 0.0 0.0
0.0 0.025051932674845283 -0.017920298064746983 0.01707012531100302 0.0008501727537439552 0.020143408959337732 0.0 0.0
0.0 0.023103573902029512 -0.016940610951314015 0.016122089851673613 0.0008185210996404055 0.017656550663282623 0.0 0.0
0.0 0.02019994101929303 -0.014970029378931911 0.01419679189485637 0.0007732374840755429 0.015313052146266841 0.0 0.0
0.0 0.016946478082630945 -0.01253842035658925 0.011816595024810899 0.0007218253317783523 0.013205689506660817 0.0 0.0
0.0 0.013715697082681 -0.010055423641630597 0.009387377341846977 0.0006680462997836216 0.011266459971671985 0.0 0.0
0.0 0.010734071537179776 -0.0077495470098605905 0.007139809276286321 0.0006097377335742662 0.009405179202447284 0.0 0.0
0.0 0.008054982445801278 -0.005686551778711572 0.005146752632652487 0.0005397991460590848 0.00754653737446483 0.0 0.0
0.0 0.005603860780864922 -0.0038498057403756544 0.00340043054218247 0.0004493751981931843 0.00570857378278342 0.0 0.0
0.0 0.003511212075619727 -0.0022473255820250277 0.0019241814047604375 0.0003231441772645894 0.003909701627088051 0.0 0.0
0.0 0.0018302159267292533 -0.0010256573946422144 0.0008488279608375713 0.0001768294338046438 0.0022953590994073333 0.0 0.0
0.0 0.0007334342640803705 -0.0003333228160502062 0.00026930316645980236 6.401964959040391e-05 0.001063019444690812 0.0 0.0
0.0 0.0002768070082271322 -8.704883774959796e-05 7.00687840093798e-05 1.6980053740218154e-05 0.00038273157247492253 0.0 0.0
0.0 9.626756374637194e-05 -2.3720421466533443e-05 1.9155432307555963e-05 4.564989158977456e-06 0.00012616074726731728 0.0 0.0
0.0 2.5738633275390613e-05 -5.125623496559834e-06 4.272013060703456e-06 8.536104358563632e-07 3.1037680173992746e-05 0.0 0.0
0.0 7.2159521451276745e-06 -4.56924799297228e-07 4.0214278535222755e-07 5.4782013945003764e-08 3.3197946022894414e-06 0.0 0.0
0.0 3.4227409598353425e-06 -2.87272773767418e-07 2.3656909674233444e-07 5.070367702508353e-08 2.1569265085494983e-06 0.0 0.0
0.0 9.136317278564954e-07 -5.0305950737854805e-09 7.765811020358621e-09 -2.7352159465727926e-09 6.051179894252957e-08 0.0 0.0
0.0 0.0 0.0 0.0 0.0 0.0 0.0 0.0
0.0 0.0 0.0 0.0 0.0 0.0 0.0 0.0
0.0 1.2508586812791678e-06 1.7693331314728913e-08 -8.022362203851962e-09 -9.670969110877117e-09 2.5436291706895875e-07 0.0 0.0
0.0 3.4217118353589845e-06 1.8242317252777214e-08 -1.366151830012741e-08 -4.5807989526535055e-09 1.4141902448899128e-07 0.0 0.0
0.0 9.3717775460382e-06 -4.946701524221935e-07 3.963515860260841e-07 9.831856639611763e-08 -1.9547002198183682e-06 0.0 0.0
0.0 3.303269485904142e-05 -9.662797731915512e-06 7.862388008210643e-06 1.8004097237048821e-06 -3.516459187112945e-05 0.0 0.0
0.0 0.00012619402798861988 -4.939161886742601e-05 3.9804061316794605e-05 9.587557550631372e-06 -0.00015147384765561454 0.0 0.0
0.0 0.0005034758658229423 -0.0002704311916230627 0.0002185861226272533 5.184506899580942e-05 -0.0006259352399868403 0.0 0.0
0.0 0.001625381551451028 -0.0010707133401096618 0.0008877162180325824 0.00018299712207707968 -0.0017939164626665839 0.0 0.0
0.0 0.003751723623725397 -0.0026797706277716694 0.0023139981379992013 0.00036577248977246677 -0.0035306028387925023 0.0 0.0
0.0 0.006551957659952101 -0.004987980251785978 0.004465711763033683 0.0005222684887522936 -0.005640894241067574 0.0 0.0
0.0 0.010045883079049826 -0.0077560791276360605 0.007128805196624179 0.0006272739310118839 -0.007890235801330078 0.0 0.0
0.0 0.01381990188416001 -0.010873207715434914 0.010171533546378881 0.0007016741690560333 -0.010083506231551877 0.0 0.0
0.0 0.018028386284178567 -0.014346195463535267 0.013584306861344627 0.0007618886021906386 -0.012206788283303613 0.0 0.0
0.0 0.022743127903938662 -0.018231185080055765 0.0174137865545587 0.0008173985254970607 -0.014343255321334545 0.0 0.0
0.0 0.02798850841211762 -0.022491564800137503 0.02161673671796937 0.0008748280821681289 -0.01667779589414697 0.0 0.0
0.0 0.03343463416081633 -0.026880350679634478 0.025945251435861398 0.0009350992437730652 -0.01947215547498902 0.0 0.0
0.0 0.0386551422369421 -0.030884311028621728 0.02989032361004276 0.0009939874185789562 -0.022912495471847375 0.0 0.0
0.0 0.04228620113951427 -0.033595379480473954 0.03252632856579857 0.001069050914675385 -0.026382229542935128 0.0 0.0
0.0 0.04250401404447299 -0.03330170468881624 0.03213799308833333 0.0011637116004829125 -0.02810758428733066 0.0 0.0
0.0 0.03471025340928808 -0.02671031656494633 0.025338768988276198 0.0013715475766701293 -0.02437646347976461 0.0 0.0
0.0 0.03471025340929411 -0.026710316564945227 0.025338768988275077 0.001371547576670147 0.024376463479796925 0.0 0.0
0.0 0.04250401404447631 -0.03330170468881138 0.03213799308832869 0.001163711600482672 0.028107584287372388 0.0 0.0
0.0 0.042286201139502384 -0.03359537948045822 0.03252632856578282 0.0010690509146753817 0.026382229542963168 0.0 0.0
0.0 0.038655142236913735 -0.03088431102859608 0.02989032361001727 0.000993987418578833 0.022912495471847878 0.0 0.0
0.0 0.03343463416078726 -0.02688035067960991 0.025945251435837487 0.0009350992437724305 0.019472155474977052 0.0 0.0
0.0 0.027988508412089056 -0.022491564800113738 0.021616736717945985 0.0008748280821677472 0.016677795894134675 0.0 0.0
0.0 0.02274312790391163 -0.01823118508003364 0.01741378655453676 0.0008173985254968769 0.014343255321320513 0.0 0.0
0.0 0.01802838628415252 -0.014346195463512809 0.013584306861322823 0.000761888602189982 0.012206788283294096 0.0 0.0
0.0 0.01381990188413093 -0.01087320771541137 0.01017153354635573 0.0007016741690556391 0.01008350623153487 0.0 0.0
0.0 0.010045883079022367 -0.0077560791276145 0.0071288051966032166 0.000627273931011281 0.007890235801310461 0.0 0.0
0.0 0.006551957659927237 -0.0049879802517672055 0.004465711763015632 0.0005222684887515741 0.0056408942410480275 0.0 0.0
0.0 0.003751723623710103 -0.002679770627759644 0.002313998137988204 0.00036577248977143954 0.003530602838781429 0.0 0.0
0.0 0.0016253815514424743 -0.0010707133401036074 0.0008877162180274389 0.00018299712207616852 0.001793916462659066 0.0 0.0
0.0 0.000503475865818085 -0.00027043119162065783 0.0002185861226253132 5.18450689953445e-05 0.0006259352399822107 0.0 0.0
0.0 0.00012619402798705914 -4.939161886730521e-05 3.9804061316698545e-05 9.587557550606614e-06 0.00015147384765506905 0.0 0.0
0.0 3.30326948580659e-05 -9.662797731992478e-06 7.86238800827299e-06 1.8004097237194498e-06 3.516459187140744e-05 0.0 0.0
0.0 9.371777545454464e-06 -4.94670152590166e-07 3.9635158616476777e-07 9.831856642538628e-08 1.9547002205525798e-06 0.0 0.0
0.0 3.4217118347882422e-06 1.8242317149509995e-08 -1.3661518217619465e-08 -4.580798931884066e-09 -1.4141902391548947e-07 0.0 0.0
0.0 1.2508586809248778e-06 1.7693331309732382e-08 -8.022362201433076e-09 -9.67096910830339e-09 -2.543629169952669e-07 0.0 0.0
0.0 0.0 0.0 0.0 0.0 0.0 0.0 0.0
0.0 0.0 0.0 0.0 0.0 0.0 0.0 0.0
0.0 1.142611525848342e-07 2.288734892542505e-09 -1.5997618405167106e-09 -6.88973052025528e-10 2.247828464461184e-08 0.0 0.0
0.0 2.097264954190379e-06 8.83659584605301e-08 -7.060413059826229e-08 -1.7761827862272653e-08 4.0752168309173775e-07 0.0 0.0
0.0 9.248061739980684e-06 -1.601509702217445e-06 1.3295561946638823e-06 2.7195350755355854e-07 -5.345409988739946e-06 0.0 0.0
0.0 4.167834932366001e-05 -1.5071750249253689e-05 1.2262924119938686e-05 2.8088261293150322e-06 -3.8745224584701e-05 0.0 0.0
0.0 0.00021657828803237672 -0.00012073717070675478 9.720621209018574e-05 2.3530958616569046e-05 -0.00023869410654063077 0.0 0.0
0.0 0.0010014116751575236 -0.0006882809824563165 0.0005644590026271253 0.00012382197982919145 -0.000993905360827061 0.0 0.0
0.0 0.0028962212323071453 -0.0021886647930756185 0.0018685863153915802 0.00032007847768403773 -0.002445539151361871 0.0 0.0
0.0 0.005962039910217907 -0.004694434425608835 0.0041836513765887125 0.0005107830490201227 -0.004464350414113381 0.0 0.0
0.0 0.009923224388523269 -0.008006463666988253 0.00736277128163662 0.0006436923853516319 -0.006860612010639828 0.0 0.0
0.0 0.014581530590627903 -0.01189228147267079 0.011160170583946982 0.0007321108887238072 -0.009329721239375975 0.0 0.0
0.0 0.019811363649292688 -0.01626203709314623 0.01545927395815919 0.0008027631349870344 -0.011685421684317597 0.0 0.0
0.0 0.025648859433916024 -0.02114491299545912 0.02028007303661545 0.0008648399588436585 -0.013957522392001065 0.0 0.0
0.0 0.03212905799260645 -0.026624466109788116 0.025699234206641892 0.0009252319031462309 -0.016262944254039447 0.0 0.0
0.0 0.039369975936288326 -0.03269669610009492 0.03170792810263791 0.000988767997456997 -0.018845304328075935 0.0 0.0
0.0 0.047113604635411845 -0.039110619051137954 0.03805037706863767 0.0010602419825002849 -0.022114439166208973 0.0 0.0
0.0 0.05452453774004457 -0.0451672100456402 0.04402405579718845 0.0011431542484517218 -0.026266385308378465 0.0 0.0
0.0 0.06003169067664489 -0.04947724351697285 0.048235551158658053 0.0012416923583147294 -0.030570468756738644 0.0 0.0
0.0 0.06057281881726474 -0.04962415948236797 0.048245455349963315 0.0013787041324046204 -0.032780552096384134 0.0 0.0
0.0 0.05091445843047756 -0.041376592452455146 0.03978475697459844 0.0015918354778567212 -0.02942457344752225 0.0 0.0
0.0 0.05091445843048284 -0.041376592452453745 0.03978475697459693 0.0015918354778568025 0.02942457344755888 0.0 0.0
0.0 0.06057281881726298 -0.04962415948235917 0.04824545534995471 0.0013787041324044508 0.03278055209643093 0.0 0.0
0.0 0.06003169067662932 -0.04947724351695351 0.048235551158639804 0.0012416923583136808 0.03057046875677246 0.0 0.0
0.0 0.05452453774001619 -0.04516721004561333 0.04402405579716272 0.0011431542484506053 0.02626638530838604 0.0 0.0
0.0 0.047113604635372563 -0.03911061905110401 0.038050377068604056 0.0010602419824999494 0.02211443916619938 0.0 0.0
0.0 0.03936997593625011 -0.03269669610006247 0.03170792810260583 0.0009887679974566244 0.018845304328063014 0.0 0.0
0.0 0.032129057992568585 -0.026624466109756183 0.02569923420661042 0.0009252319031457591 0.01626294425402448 0.0 0.0
0.0 0.025648859433874877 -0.021144912995424217 0.020280073036580578 0.0008648399588436397 0.013957522391987224 0.0 0.0
0.0 0.019811363649251484 -0.016262037093111692 0.015459273958124988 0.0008027631349867006 0.011685421684298189 0.0 0.0
0.0 0.014581530590590263 -0.011892281472640131 0.011160170583917007 0.0007321108887231214 0.009329721239352797 0.0 0.0
0.0 0.009923224388491504 -0.008006463666962789 0.007362771281611922 0.0006436923853508663 0.006860612010618075 0.0 0.0
0.0 0.005962039910195749 -0.004694434425591259 0.004183651376572115 0.0005107830490191454 0.004464350414099289 0.0 0.0
0.0 0.002896221232292967 -0.0021886647930644642 0.0018685863153817114 0.0003200784776827521 0.0024455391513520195 0.0 0.0
0.0 0.001001411675149189 -0.0006882809824506656 0.0005644590026223602 0.0001238219798283053 0.0009939053608199397 0.0 0.0
0.0 0.00021657828803018834 -0.00012073717070616266 9.720621208968975e-05 2.353095861647295e-05 0.00023869410653942197 0.0 0.0
0.0 4.1678349322746805e-05 -1.5071750249316288e-05 1.2262924119988078e-05 2.808826129328158e-06 3.8745224584873264e-05 0.0 0.0
0.0 9.2480617393283e-06 -1.6015097023894408e-06 1.3295561948037384e-06 2.719535075856943e-07 5.345409989297275e-06 0.0 0.0
0.0 2.097264953409312e-06 8.83659584261996e-08 -7.060413057169412e-08 -1.7761827854507373e-08 -4.0752168293768845e-07 0.0 0.0
0.0 1.1426115247963744e-07 2.288734890412389e-09 -1.5997618390303778e-09 -6.889730513817681e-10 -2.247828462369251e-08 0.0 0.0
0.0 0.0 0.0 0.0 0.0 0.0 0.0 0.0
0.0 0.0 0.0 0.0 0.0 0.0 0.0 0.0
0.0 0.0 0.0 0.0 0.0 0.0 0.0 0.0
0.0 6.301117771691601e-07 3.177133557320747e-08 -2.5610055499987776e-08 -6.161280073216576e-09 1.139376708674144e-07 0.0 0.0
0.0 9.230714750807199e-06 -1.4911472046830394e-07 1.1894068445365912e-07 3.017403601465588e-08 -2.506522303782912e-07 0.0 0.0
0.0 6.514743357474504e-05 -2.4270436720290512e-05 1.957851451909307e-05 4.6919222011974394e-06 -4.364116519254506e-05 0.0 0.0
0.0 0.00042078307238906494 -0.00029076338928572397 0.0002353160165809621 5.544737270476182e-05 -0.00038531361465527105 0.0 0.0
0.0 0.0017493864559202281 -0.0013387628558657024 0.0011187108601021691 0.0002200519957635328 -0.0013140329117758553 0.0 0.0
0.0 0.004401579108091408 -0.0035555069688802962 0.0031147789176981817 0.00044072805118211387 -0.002885449314981988 0.0 0.0
0.0 0.008338583737098495 -0.006907378741036245 0.006296155726441468 0.0006112230145947767 -0.0050352876555556465 0.0 0.0
0.0 0.013365234497398041 -0.011162576410515105 0.010439088504562955 0.0007234879059521488 -0.007489178869097545 0.0 0.0
0.0 0.01926053095035046 -0.016139634908881918 0.01533167000742226 0.0008079649014596526 -0.009968696077192949 0.0 0.0
0.0 0.02591531851311813 -0.021764282568880335 0.02088264304374362 0.0008816395251367197 -0.012356556183317546 0.0 0.0
0.0 0.0333404142835734 -0.028066695625397382 0.027116628137163153 0.0009500674882342113 -0.014674579873600642 0.0 0.0
0.0 0.04165992436083981 -0.03514357992787275 0.03412717112568219 0.0010164088021905433 -0.017014110295026034 0.0 0.0
0.0 0.05098707744402182 -0.043035399931958866 0.04194848477746468 0.001086915154494187 -0.01963300989266185 0.0 0.0
0.0 0.060826313086508564 -0.051479030561393996 0.05030783414380166 0.00117119641759231 -0.022969239939118424 0.0 0.0
0.0 0.07060721000973083 -0.05955365958671901 0.058277629131568094 0.0012760304551509179 -0.027298567390117455 0.0 0.0
0.0 0.07778700941415023 -0.06535840136202377 0.06395266212113607 0.0014057392408877143 -0.032025272176360385 0.0 0.0
0.0 0.0785075370298448 -0.06569942961222199 0.06413137561650811 0.0015680539957138573 -0.035054850768838734 0.0 0.0
0.0 0.06721310579991696 -0.055764265920745515 0.05400023384408718 0.0017640320766583507 -0.033914440841262536 0.0 0.0
0.0 0.06721310579991735 -0.05576426592074036 0.05400023384408168 0.001764032076658658 0.03391444084130107 0.0 0.0
0.0 0.0785075370298344 -0.06569942961220662 0.06413137561649306 0.0015680539957135527 0.03505485076888559 0.0 0.0
0.0 0.07778700941412883 -0.0653584013620003 0.06395266212111314 0.001405739240887171 0.03202527217639714 0.0 0.0
0.0 0.07060721000969267 -0.05955365958668436 0.05827762913153324 0.0012760304551510762 0.027298567390126295 0.0 0.0
0.0 0.06082631308646232 -0.051479030561353945 0.05030783414376163 0.0011711964175922832 0.02296923993911057 0.0 0.0
0.0 0.0509870774439745 -0.04303539993191808 0.041948484777424244 0.0010869151544938614 0.019633009892650488 0.0 0.0
0.0 0.04165992436079145 -0.03514357992783136 0.03412717112564112 0.001016408802190242 0.017014110295010713 0.0 0.0
0.0 0.033340414283525584 -0.028066695625356172 0.0271166281371223 0.0009500674882338645 0.0146745798735875 0.0 0.0
0.0 0.025915318513071946 -0.02176428256884096 0.020882643043704498 0.0008816395251364543 0.012356556183300298 0.0 0.0
0.0 0.019260530950307102 -0.016139634908845853 0.0153316700073864 0.0008079649014594489 0.009968696077170564 0.0 0.0
0.0 0.013365234497362486 -0.011162576410485445 0.010439088504533907 0.0007234879059515512 0.007489178869076064 0.0 0.0
0.0 0.00833858373707205 -0.006907378741014152 0.006296155726420041 0.0006112230145941153 0.005035287655541866 0.0 0.0
0.0 0.00440157910807301 -0.003555506968865162 0.0031147789176841213 0.000440728051181042 0.002885449314971835 0.0 0.0
0.0 0.0017493864559094466 -0.0013387628558575147 0.0011187108600951535 0.00022005199576236113 0.001314032911768877 0.0 0.0
0.0 0.00042078307238402747 -0.0002907633892827072 0.0002353160165784986 5.5447372704208614e-05 0.0003853136146516438 0.0 0.0
0.0 6.514743357341601e-05 -2.4270436720181553e-05 1.9578514518991236e-05 4.691922201190214e-06 4.3641165192276536e-05 0.0 0.0
0.0 9.230714750162273e-06 -1.491147205944274e-07 1.1894068455404449e-07 3.017403604039364e-08 2.5065223067924845e-07 0.0 0.0
0.0 6.301117768796378e-07 3.177133555832444e-08 -2.5610055487985994e-08 -6.161280070339225e-09 -1.1393767081387647e-07 0.0 0.0
0.0 0.0 0.0 0.0 0.0 0.0 0.0 0.0
0.0 0.0 0.0 0.0 0.0 0.0 0.0 0.0
0.0 0.0 0.0 0.0 0.0 0.0 0.0 0.0
0.0 0.0 0.0 0.0 0.0 0.0 0.0 0.0
0.0 9.159772724021529e-07 5.630253744311479e-08 -4.536700834069255e-08 -1.0935529102421052e-08 1.5681455061216043e-07 0.0 0.0
0.0 6.31652225636991e-06 -1.5278331912028305e-06 1.2263765822543936e-06 3.014566089484784e-07 -2.7987048948232078e-06 0.0 0.0
0.0 0.0001062852633703709 -6.181381836419477e-05 4.9605669004854766e-05 1.2208149359340023e-05 -8.004164929537925e-05 0.0 0.0
0.0 0.0007842554673046373 -0.000588524768344145 0.00048029070169211855 0.00010823406665202669 -0.0005307193574943022 0.0 0.0
0.0 0.002728373856747302 -0.0021782557701812266 0.001857583087486487 0.0003206726826947399 -0.001505383341059246 0.0 0.0
0.0 0.0060047248684216995 -0.005096345144624215 0.004560299145897803 0.0005360459987264127 -0.0030894370226324 0.0 0.0
0.0 0.010806483267478094 -0.009223745332830954 0.008543242909756915 0.0006805024230740406 -0.00516847464405703 0.0 0.0
0.0 0.01688210017880417 -0.014388193058367131 0.013604853410523345 0.0007833396478437944 -0.007490242072139096 0.0 0.0
0.0 0.024013087640421697 -0.02045150621880825 0.019581764260197143 0.0008697419586110927 -0.009863852976617958 0.0 0.0
0.0 0.03207531849973232 -0.027338092148612922 0.026388627720181825 0.0009494644284310774 -0.012152204910815178 0.0 0.0
0.0 0.041166385455027536 -0.03507088711954543 0.03404520236052427 0.00102568475902117 -0.01438824431967421 0.0 0.0
0.0 0.051200501664511414 -0.04374648682326217 0.04264720023076575 0.0010992865924964162 -0.016663264833782804 0.0 0.0
0.0 0.06248261436601634 -0.0534189856785217 0.05224266074487386 0.0011763249336478369 -0.019091168827026765 0.0 0.0
0.0 0.07473085031112961 -0.06382327074394673 0.06255107075108925 0.0012721999928574663 -0.022029800675771156 0.0 0.0
0.0 0.08639742217327628 -0.07386069074136727 0.07246210199942436 0.001398588741942841 -0.02600297639365977 0.0 0.0
0.0 0.09503843796427683 -0.0811082079608183 0.0795513741683697 0.0015568337924485509 -0.030889219074305342 0.0 0.0
0.0 0.09615396345403855 -0.08166754207570139 0.07993275265282986 0.001734789422871484 -0.0354099323253701 0.0 0.0
0.0 0.08388221391164448 -0.07026803995428711 0.06834796665012768 0.0019200733041594101 -0.038156355482011725 0.0 0.0
0.0 0.08388221391164348 -0.07026803995428108 0.06834796665012177 0.0019200733041592594 0.03815635548205083 0.0 0.0
0.0 0.09615396345402376 -0.08166754207568344 0.07993275265281169 0.0017347894228716828 0.035409932325418184 0.0 0.0
0.0 0.09503843796424807 -0.0811082079607895 0.07955137416834134 0.0015568337924481215 0.03088921907434141 0.0 0.0
0.0 0.08639742217322963 -0.07386069074132542 0.07246210199938287 0.0013985887419425106 0.026002976393669105 0.0 0.0
0.0 0.074730850311075 -0.0638232707438988 0.06255107075104234 0.0012721999928564307 0.022029800675766653 0.0 0.0
0.0 0.06248261436596028 -0.05341898567847275 0.052242660744825864 0.0011763249336468862 0.019091168827018504 0.0 0.0
0.0 0.05120050166445618 -0.043746486823214185 0.04264720023071864 0.0010992865924955356 0.01666326483377077 0.0 0.0
0.0 0.04116638545497292 -0.03507088711949784 0.03404520236047743 0.0010256847590203915 0.01438824431966142 0.0 0.0
0.0 0.03207531849967813 -0.027338092148566032 0.026388627720135373 0.0009494644284306494 0.012152204910799724 0.0 0.0
0.0 0.024013087640370984 -0.020451506218765195 0.019581764260154556 0.0008697419586106441 0.009863852976596097 0.0 0.0
0.0 0.016882100178760805 -0.014388193058330445 0.013604853410487285 0.000783339647843151 0.007490242072118132 0.0 0.0
0.0 0.01080648326744562 -0.00922374533280298 0.008543242909729723 0.0006805024230732547 0.005168474644043154 0.0 0.0
0.0 0.006004724868398794 -0.005096345144604625 0.004560299145879271 0.0005360459987253526 0.0030894370226216086 0.0 0.0
0.0 0.002728373856733916 -0.0021782557701704123 0.0018575830874768536 0.0003206726826935585 0.0015053833410523776 0.0 0.0
0.0 0.0007842554672985467 -0.0005885247683399246 0.0004802907016886183 0.0001082340666513061 0.0005307193574907399 0.0 0.0
0.0 0.00010628526336905301 -6.181381836405552e-05 4.960566900473003e-05 1.2208149359325486e-05 8.00416492951766e-05 0.0 0.0
0.0 6.316522256128416e-06 -1.5278331914438883e-06 1.2263765824479608e-06 3.0145660899590527e-07 2.7987048952808643e-06 0.0 0.0
0.0 9.159772720464821e-07 5.630253742091469e-08 -4.5367008322703315e-08 -1.0935529098212496e-08 -1.5681455054918204e-07 0.0 0.0
0.0 0.0 0.0 0.0 0.0 0.0 0.0 0.0
0.0 0.0 0.0 0.0 0.0 0.0 0.0 0.0
0.0 0.0 0.0 0.0 0.0 0.0 0.0 0.0
0.0 0.0 0.0 0.0 0.0 0.0 0.0 0.0
0.0 0.0 0.0 0.0 0.0 0.0 0.0 0.0
0.0 5.505238310181485e-06 -1.8455956315195892e-06 1.4575078590267146e-06 3.8808777249289344e-07 -2.4661189761176493e-06 0.0 0.0
0.0 0.00020053942659633778 -0.00013652657216046656 0.00010969606881782438 2.6830503342642244e-05 -0.00012381865705228163 0.0 0.0
0.0 0.0013123307481898382 -0.0010228274386500406 0.0008458164123192047 0.00017701102633083617 -0.0006253340730691663 0.0 0.0
0.0 0.0036775171530327544 -0.003188478296491539 0.0027732815221810586 0.0004151967743104823 -0.001570957434004384 0.0 0.0
0.0 0.007715101407026187 -0.006729497775385214 0.006124648179137865 0.0006048495962473488 -0.0030026961935248515 0.0 0.0
0.0 0.013381301082998362 -0.0115854373687915 0.010853362667010284 0.0007320747017812072 -0.004827891587497367 0.0 0.0
0.0 0.02045298569891259 -0.017651420617647857 0.016819311217969035 0.0008321093996788297 -0.006905898763608177 0.0 0.0
0.0 0.02879416940659336 -0.024796856474377175 0.02387409906953694 0.0009227574048402264 -0.009032521947798132 0.0 0.0
0.0 0.038301379501663596 -0.03295172531045804 0.03194176557241813 0.0010099597380398948 -0.01108944926755708 0.0 0.0
0.0 0.048969713593306596 -0.04213086307924879 0.04103627128329698 0.0010945917959517939 -0.013128123841432443 0.0 0.0
0.0 0.060917126490720924 -0.052399211178304844 0.05122139692572359 0.0011778142525812412 -0.015195663571878184 0.0 0.0
0.0 0.07412806180852617 -0.06377942075700126 0.06251699150450964 0.0012624292524916175 -0.017280240400740873 0.0 0.0
0.0 0.08809135789697882 -0.07600411909481822 0.07463979136305549 0.0013643277317626989 -0.019486181679830534 0.0 0.0
0.0 0.10190222886233756 -0.0878975603825226 0.08638930366727723 0.001508256715245348 -0.022459024828229847 0.0 0.0
0.0 0.11223874681637018 -0.09665440987931576 0.09496303576884935 0.0016913741104663837 -0.027173388962742757 0.0 0.0
0.0 0.11402883560416165 -0.09773000227505466 0.0958412583304673 0.0018887439445873014 -0.03389778134322842 0.0 0.0
0.0 0.1009970915047465 -0.08523695556052428 0.08316333105201014 0.0020736245085141002 -0.042162571999162526 0.0 0.0
0.0 0.100997091504741 -0.08523695556051517 0.08316333105200052 0.0020736245085146636 0.042162571999199164 0.0 0.0
0.0 0.1140288356041382 -0.09773000227503044 0.09584125833044313 0.001888743944587312 0.03389778134327152 0.0 0.0
0.0 0.11223874681633048 -0.09665440987927884 0.09496303576881283 0.0016913741104659268 0.027173388962774415 0.0 0.0
0.0 0.10190222886228517 -0.0878975603824761 0.08638930366723158 0.001508256715244508 0.02245902482823799 0.0 0.0
0.0 0.0880913578969165 -0.07600411909476401 0.07463979136300154 0.0013643277317624187 0.01948618167982731 0.0 0.0
0.0 0.0741280618084591 -0.06377942075694318 0.06251699150445167 0.001262429252491515 0.017280240400734382 0.0 0.0
0.0 0.06091712649065604 -0.05239921117824866 0.05122139692566806 0.0011778142525805581 0.015195663571868384 0.0 0.0
0.0 0.04896971359324042 -0.042130863079191505 0.04103627128324019 0.0010945917959513196 0.013128123841420272 0.0 0.0
0.0 0.03830137950159875 -0.03295172531040169 0.03194176557236228 0.0010099597380394403 0.011089449267543076 0.0 0.0
0.0 0.02879416940653657 -0.024796856474327954 0.023874099069488505 0.0009227574048394399 0.009032521947779077 0.0 0.0
0.0 0.020452985698864314 -0.017651420617606238 0.016819311217927867 0.0008321093996783613 0.006905898763589878 0.0 0.0
0.0 0.013381301082961962 -0.01158543736875968 0.010853362666979017 0.0007320747017806599 0.004827891587485556 0.0 0.0
0.0 0.007715101406999778 -0.006729497775361985 0.006124648179115469 0.0006048495962465144 0.0030026961935153886 0.0 0.0
0.0 0.0036775171530159284 -0.0031884782964769864 0.0027732815221676818 0.0004151967743093052 0.001570957433997681 0.0 0.0
0.0 0.0013123307481807114 -0.0010228274386431904 0.0008458164123133446 0.0001770110263298457 0.0006253340730652355 0.0 0.0
0.0 0.00020053942659398828 -0.0001365265721594976 0.00010969606881702841 2.683050334246904e-05 0.00012381865705146964 0.0 0.0
0.0 5.505238309773115e-06 -1.8455956317851924e-06 1.4575078592372101e-06 3.880877725479944e-07 2.466118976488744e-06 0.0 0.0
0.0 0.0 0.0 0.0 0.0 0.0 0.0 0.0
0.0 0.0 0.0 0.0 0.0 0.0 0.0 0.0
0.0 0.0 0.0 0.0 0.0 0.0 0.0 0.0
0.0 0.0 0.0 0.0 0.0 0.0 0.0 0.0
0.0 0.0 0.0 0.0 0.0 0.0 0.0 0.0
0.0 0.0 0.0 0.0 0.0 0.0 0.0 0.0
0.0 7.974001666524796e-06 -3.701953382530913e-06 2.9448574813577518e-06 7.570959011731514e-07 -3.6125409505901984e-06 0.0 0.0
0.0 0.00038955563782439934 -0.00028227501683275656 0.00022717011477065593 5.51049020621006e-05 -0.00016337921081334338 0.0 0.0
0.0 0.0019411055782320107 -0.001598066932369419 0.0013410788797189805 0.00025698805265043863 -0.0006414342949711185 0.0 0.0
0.0 0.0048127416714704 -0.004289785997943116 0.0037963417297127186 0.0004934442682303967 -0.0014220314632761109 0.0 0.0
0.0 0.009538723368297693 -0.008399532806064468 0.007743883894211921 0.0006556489118525459 -0.002567426774225709 0.0 0.0
0.0 0.015994818586473242 -0.013969307873173862 0.013196686371998136 0.0007726215011757159 -0.004050710994888882 0.0 0.0
0.0 0.024061495243511758 -0.0209235238368859 0.02005023948514446 0.0008732843517414415 -0.005750401818751915 0.0 0.0
0.0 0.033626585156414285 -0.02914798931071383 0.028178285392610188 0.0009697039181036383 -0.007497016547196753 0.0 0.0
0.0 0.04452394874218919 -0.03857807358989123 0.03751357252075836 0.0010645010691328442 -0.00918391269174721 0.0 0.0
0.0 0.05692632521738153 -0.0492146220357962 0.04805616102271827 0.0011584610130778944 -0.010865737179633886 0.0 0.0
0.0 0.07052195605260436 -0.06107887911495703 0.059826361802890804 0.0012525173120662425 -0.012619784098700496 0.0 0.0
0.0 0.08548888072970588 -0.07409143949933407 0.07274342247606128 0.0013480170232728194 -0.014295182934761758 0.0 0.0
0.0 0.1014116049249262 -0.08790843724944848 0.08645463764662648 0.0014537996028219876 -0.015585818900772134 0.0 0.0
0.0 0.11700347045679806 -0.10144615358914216 0.09985007619324149 0.0015960773959006259 -0.01695416223796186 0.0 0.0
0.0 0.1291716926277208 -0.11190377126253011 0.11009767241162949 0.0018060988509005392 -0.020850781650709787 0.0 0.0
0.0 0.1322401546424472 -0.11407085442440366 0.11203723242202554 0.0020336220023781486 -0.030114212632552814 0.0 0.0
0.0 0.11921834159323222 -0.10106832278572156 0.09883054304650501 0.0022377797392165322 -0.04564308802813952 0.0 0.0
0.0 0.11921834159322679 -0.10106832278571332 0.09883054304649724 0.002237779739216136 0.04564308802816866 0.0 0.0
0.0 0.13224015464241867 -0.1140708544243762 0.11203723242199859 0.002033622002377583 0.030114212632590794 0.0 0.0
0.0 0.12917169262767197 -0.11190377126248602 0.11009767241158629 0.0018060988508996692 0.02085078165073779 0.0 0.0
0.0 0.11700347045673525 -0.10144615358908711 0.09985007619318725 0.0015960773958999023 0.016954162237968397 0.0 0.0
0.0 0.10141160492485489 -0.08790843724938623 0.08645463764656533 0.0014537996028209101 0.015585818900770054 0.0 0.0
0.0 0.08548888072963291 -0.07409143949927005 0.07274342247599881 0.0013480170232712584 0.014295182934759662 0.0 0.0
0.0 0.07052195605253034 -0.06107887911489261 0.05982636180282727 0.0012525173120653123 0.012619784098693633 0.0 0.0
0.0 0.05692632521730874 -0.04921462203573296 0.0480561610226557 0.0011584610130772794 0.010865737179624337 0.0 0.0
0.0 0.04452394874211686 -0.03857807358982832 0.03751357252069623 0.0010645010691320916 0.00918391269173885 0.0 0.0
0.0 0.03362658515634641 -0.029147989310654748 0.028178285392551593 0.0009697039181031544 0.007497016547180418 0.0 0.0
0.0 0.024061495243454488 -0.020923523836836107 0.020050239485095104 0.0008732843517410043 0.005750401818735476 0.0 0.0
0.0 0.015994818586430905 -0.013969307873136645 0.013196686371961582 0.0007726215011750683 0.004050710994878562 0.0 0.0
0.0 0.009538723368265885 -0.008399532806036265 0.0077438838941845 0.0006556489118517674 0.002567426774217196 0.0 0.0
0.0 0.004812741671450347 -0.004289785997925153 0.00379634172969589 0.0004934442682292628 0.001422031463270072 0.0 0.0
0.0 0.0019411055782209133 -0.001598066932360203 0.0013410788797108895 0.0002569880526493126 0.0006414342949673719 0.0 0.0
0.0 0.0003895556378206306 -0.00028227501683037885 0.00022717011476870483 5.51049020616742e-05 0.00016337921081209034 0.0 0.0
0.0 7.974001666199647e-06 -3.7019533829671795e-06 2.944857481694278e-06 7.57095901272908e-07 3.6125409509714166e-06 0.0 0.0
0.0 0.0 0.0 0.0 0.0 0.0 0.0 0.0
0.0 0.0 0.0 0.0 0.0 0.0 0.0 0.0
0.0 0.0 0.0 0.0 0.0 0.0 0.0 0.0
0.0 0.0 0.0 0.0 0.0 0.0 0.0 0.0
0.0 0.0 0.0 0.0 0.0 0.0 0.0 0.0
0.0 0.0 0.0 0.0 0.0 0.0 0.0 0.0
0.0 1.888132108002067e-05 -9.300147814284932e-06 7.430974855200815e-06 1.8691729590841507e-06 -5.84757840692376e-06 0.0 0.0
0.0 0.00070758487281522 -0.0005262637861794726 0.0004271898841520222 9.907390202745049e-05 -0.00017439619478537926 0.0 0.0
0.0 0.0025234269629778134 -0.0022999779082405044 0.0019593395005942163 0.00034063840764628683 -0.000526150088194176 0.0 0.0
0.0 0.006067540249625848 -0.005435727695225307 0.004883407032243468 0.0005523206629818393 -0.001053088370797799 0.0 0.0
0.0 0.011400933252834016 -0.010089039918391366 0.009393937213133433 0.0006951027052579392 -0.0018245392048574765 0.0 0.0
0.0 0.018628975818756815 -0.01634968646964957 0.015544519362093326 0.0008051671075562485 -0.0028444149770761643 0.0 0.0
0.0 0.027679092992002816 -0.024178793038796914 0.02327026607545969 0.0009085269633372171 -0.0040325440059558485 0.0 0.0
0.0 0.03844774622004305 -0.03348047928241389 0.03246889201114635 0.0010115872712675737 -0.005254207957156345 0.0 0.0
0.0 0.05090394414443263 -0.04419024839532139 0.043075798759624695 0.0011144496356966693 -0.006435448752358078 0.0 0.0
0.0 0.06473896997527097 -0.05629573267260331 0.05507779909080351 0.0012179335817997935 -0.0076463246093934865 0.0 0.0
0.0 0.08019271885117127 -0.06974659612539885 0.06842303906132402 0.001323557064074768 -0.008900047083408032 0.0 0.0
0.0 0.0970148870914188 -0.08433471882282735 0.08290189770430963 0.0014328211185177095 -0.010024033289084463 0.0 0.0
0.0 0.11452562384128478 -0.09954693428079932 0.09800023183205349 0.0015467024487458322 -0.01060680810644415 0.0 0.0
0.0 0.13152283291889016 -0.11433745267274933 0.11266148776057888 0.0016759649121705236 -0.010425162380440825 0.0 0.0
0.0 0.14551494288886482 -0.12646660616625519 0.12460504020558835 0.0018615659606668084 -0.011869143464807722 0.0 0.0
0.0 0.15099905164403304 -0.13081453098473578 0.12863467437155 0.002179856613185722 -0.022648290351402197 0.0 0.0
0.0 0.1390594683877763 -0.11837208402803281 0.1159418238571078 0.0024302601709249795 -0.04784915901685459 0.0 0.0
0.0 0.13905946838776817 -0.11837208402802343 0.11594182385709896 0.0024302601709244734 0.04784915901687514 0.0 0.0
0.0 0.15099905164400246 -0.13081453098470747 0.12863467437152282 0.0021798566131846202 0.022648290351431656 0.0 0.0
0.0 0.14551494288881045 -0.12646660616620714 0.12460504020554139 0.001861565960665723 0.011869143464828001 0.0 0.0
0.0 0.13152283291881753 -0.11433745267268597 0.11266148776051631 0.0016759649121696675 0.010425162380443774 0.0 0.0
0.0 0.11452562384120746 -0.09954693428073197 0.09800023183198724 0.0015467024487447402 0.010606808106442142 0.0 0.0
0.0 0.0970148870913394 -0.08433471882275798 0.08290189770424157 0.0014328211185164245 0.010024033289083448 0.0 0.0
0.0 0.0801927188510875 -0.06974659612532615 0.06842303906125205 0.0013235570640740945 0.008900047083403346 0.0 0.0
0.0 0.06473896997518622 -0.056295732672529596 0.05507779909073075 0.0012179335817988422 0.007646324609386437 0.0 0.0
0.0 0.050903944144352814 -0.04419024839525157 0.04307579875955596 0.001114449635695597 0.006435448752351999 0.0 0.0
0.0 0.03844774621997121 -0.03348047928235122 0.03246889201108472 0.0010115872712664824 0.005254207957145615 0.0 0.0
0.0 0.027679092991941153 -0.024178793038743096 0.023270266075406568 0.0009085269633365439 0.004032544005944525 0.0 0.0
0.0 0.018628975818709946 -0.01634968646960799 0.015544519362052447 0.0008051671075555407 0.0028444149770698954 0.0 0.0
0.0 0.011400933252799474 -0.010089039918360592 0.009393937213103415 0.0006951027052571713 0.0018245392048520472 0.0 0.0
0.0 0.006067540249602631 -0.005435727695204253 0.004883407032223394 0.0005523206629808567 0.0010530883707936557 0.0 0.0
0.0 0.0025234269629654934 -0.0022999779082292383 0.00195933950058412 0.00034063840764511974 0.0005261500881915925 0.0 0.0
0.0 0.0007075848728101924 -0.0005262637861758876 0.00042718988414905596 9.907390202683143e-05 0.0001743961947843944 0.0 0.0
0.0 1.8881321079629648e-05 -9.300147814824619e-06 7.430974855607834e-06 1.8691729592167397e-06 5.847578407163839e-06 0.0 0.0
0.0 0.0 0.0 0.0 0.0 0.0 0.0 0.0
0.0 0.0 0.0 0.0 0.0 0.0 0.0 0.0
0.0 0.0 0.0 0.0 0.0 0.0 0.0 0.0
0.0 0.0 0.0 0.0 0.0 0.0 0.0 0.0
0.0 0.0 0.0 0.0 0.0 0.0 0.0 0.0
0.0 0.0 0.0 0.0 0.0 0.0 0.0 0.0
0.0 6.455830150743711e-05 -4.624528387370975e-05 3.653376762394432e-05 9.711516249765576e-06 -1.2228280648905446e-05 0.0 0.0
0.0 0.0011655658353860723 -0.0008716376816747158 0.0007143153201152542 0.0001573223615594612 -0.00011373852785197174 0.0 0.0
0.0 0.0033475611645612017 -0.003051192553123693 0.002638131619746798 0.00041306093337689653 -0.0002516555127148196 0.0 0.0
0.0 0.007367965394101157 -0.006608482798932728 0.00601020678743127 0.000598276011501455 -0.00046576812920734185 0.0 0.0
0.0 0.013301730247070776 -0.011774639260835308 0.011049015054057261 0.0007256242067780439 -0.0007777841482600026 0.0 0.0
0.0 0.021287927980724618 -0.01870177784460183 0.017869536743413558 0.0008322411011882701 -0.0012174127262123509 0.0 0.0
0.0 0.03133529974797035 -0.027390510690209712 0.026451517219373017 0.0009389934708366966 -0.0017512594215341021 0.0 0.0
0.0 0.043384118801162636 -0.037769883517884836 0.03672112616491226 0.0010487573529725713 -0.00230749058614194 0.0 0.0
0.0 0.05707080041309865 -0.049772590747328815 0.04861204450848193 0.001160546238846866 -0.002866477631583364 0.0 0.0
0.0 0.07263130508424173 -0.06333562076025649 0.062062004702265416 0.0012736160579910633 -0.0034343692144423125 0.0 0.0
0.0 0.0899347497418796 -0.07834940080245004 0.07695893897880367 0.0013904618236463251 -0.00398886779814483 0.0 0.0
0.0 0.10853568498071833 -0.09448900700962899 0.09297541295893957 0.0015135940506894087 -0.004434125111117617 0.0 0.0
0.0 0.12760769627721913 -0.11101923600776566 0.10937734380187475 0.001641892205890849 -0.004496613621762307 0.0 0.0
0.0 0.14568900968671816 -0.12670199996997006 0.124931969743348 0.0017700302266220476 -0.003756656086441282 0.0 0.0
0.0 0.16066511836946465 -0.13972822410678074 0.13782345244677985 0.0019047716600008766 -0.0025325174660028042 0.0 0.0
0.0 0.1690704993832641 -0.1468922510156418 0.1447712091129607 0.002121041902681047 -0.008309905403573146 0.0 0.0
0.0 0.16198902523949182 -0.1388213907907849 0.13602321959295338 0.002798171197831473 -0.044185197047124654 0.0 0.0
0.0 0.16198902523947656 -0.13882139079077127 0.13602321959293925 0.002798171197831917 0.044185197047132675 0.0 0.0
0.0 0.16907049938322077 -0.14689225101560435 0.14477120911292277 0.002121041902681496 0.008309905403587298 0.0 0.0
0.0 0.16066511836940034 -0.13972822410672475 0.13782345244672473 0.0019047716600000331 0.002532517466012538 0.0 0.0
0.0 0.14568900968663806 -0.12670199996990028 0.12493196974327928 0.0017700302266210229 0.0037566560864401503 0.0 0.0
0.0 0.1276076962771322 -0.11101923600768995 0.10937734380180002 0.0016418922058899262 0.00449661362176222 0.0 0.0
0.0 0.10853568498062387 -0.0944890070095469 0.09297541295885818 0.001513594050688672 0.004434125111117382 0.0 0.0
0.0 0.08993474974178617 -0.0783494008023688 0.07695893897872347 0.001390461823645274 0.003988867798142654 0.0 0.0
0.0 0.07263130508414964 -0.06333562076017638 0.062062004702186244 0.0012736160579901001 0.0034343692144397676 0.0 0.0
0.0 0.057070800413006585 -0.04977259074724906 0.04861204450840237 0.0011605462388466594 0.002866477631581003 0.0 0.0
0.0 0.043384118801081825 -0.03776988351781456 0.03672112616484251 0.0010487573529720541 0.0023074905861355426 0.0 0.0
0.0 0.03133529974790544 -0.027390510690153292 0.026451517219317378 0.0009389934708359294 0.0017512594215284096 0.0 0.0
0.0 0.02128792798067081 -0.018701777844554547 0.017869536743366766 0.0008322411011877765 0.0012174127262102037 0.0 0.0
0.0 0.013301730247031763 -0.011774639260800511 0.01104901505402301 0.000725624206777493 0.0007777841482571721 0.0 0.0
0.0 0.007367965394074933 -0.006608482798909082 0.006010206787408415 0.0005982760115006639 0.0004657681292057533 0.0 0.0
0.0 0.0033475611645467276 -0.0030511925531101327 0.0026381316197342944 0.0004130609333758366 0.0002516555127136995 0.0 0.0
0.0 0.0011655658353782142 -0.000871637681668577 0.0007143153201100416 0.0001573223615585361 0.0001137385278513988 0.0 0.0
0.0 6.4558301506441e-05 -4.6245283873495784e-05 3.6533767623763664e-05 9.711516249732107e-06 1.222828064882072e-05 0.0 0.0
0.0 0.0 0.0 0.0 0.0 0.0 0.0 0.0
0.0 0.0 0.0 0.0 0.0 0.0 0.0 0.0
0.0 0.0 0.0 0.0 0.0 0.0 0.0 0.0