# vtk DataFile Version 3.0
Some data
ASCII
DATASET UNSTRUCTURED_GRID
POINTS 861 float
0.0 0.0 0.0
0.4 0.0 0.0
0.8 0.0 0.0
1.2000000000000002 0.0 0.0
1.6 0.0 0.0
2.0 0.0 0.0
2.4000000000000004 0.0 0.0
2.8000000000000003 0.0 0.0
3.2 0.0 0.0
3.6 0.0 0.0
4.0 0.0 0.0
4.4 0.0 0.0
4.800000000000001 0.0 0.0
5.2 0.0 0.0
5.6000000000000005 0.0 0.0
6.0 0.0 0.0
6.4 0.0 0.0
6.800000000000001 0.0 0.0
7.2 0.0 0.0
7.6000000000000005 0.0 0.0
8.0 0.0 0.0
8.4 0.0 0.0
8.8 0.0 0.0
9.200000000000001 0.0 0.0
9.600000000000001 0.0 0.0
10.0 0.0 0.0
10.4 0.0 0.0
10.8 0.0 0.0
11.200000000000001 0.0 0.0
11.600000000000001 0.0 0.0
12.0 0.0 0.0
12.4 0.0 0.0
12.8 0.0 0.0
13.200000000000001 0.0 0.0
13.600000000000001 0.0 0.0
14.0 0.0 0.0
14.4 0.0 0.0
14.8 0.0 0.0
15.200000000000001 0.0 0.0
15.600000000000001 0.0 0.0
16.0 0.0 0.0
0.0 0.1 0.0
0.4 0.1 0.0
0.8 0.1 0.0
1.2000000000000002 0.1 0.0
1.6 0.1 0.0
2.0 0.1 0.0
2.4000000000000004 0.1 0.0
2.8000000000000003 0.1 0.0
3.2 0.1 0.0
3.6 0.1 0.0
4.0 0.1 0.0
4.4 0.1 0.0
4.800000000000001 0.1 0.0
5.2 0.1 0.0
5.6000000000000005 0.1 0.0
6.0 0.1 0.0
6.4 0.1 0.0
6.800000000000001 0.1 0.0
7.2 0.1 0.0
7.6000000000000005 0.1 0.0
8.0 0.1 0.0
8.4 0.1 0.0
8.8 0.1 0.0
9.200000000000001 0.1 0.0
9.600000000000001 0.1 0.0
10.0 0.1 0.0
10.4 0.1 0.0
10.8 0.1 0.0
11.200000000000001 0.1 0.0
11.600000000000001 0.1 0.0
12.0 0.1 0.0
12.4 0.1 0.0
12.8 0.1 0.0
13.200000000000001 0.1 0.0
13.600000000000001 0.1 0.0
14.0 0.1 0.0
14.4 0.1 0.0
14.8 0.1 0.0
15.200000000000001 0.1 0.0
15.600000000000001 0.1 0.0
16.0 0.1 0.0
0.0 0.2 0.0
0.4 0.2 0.0
0.8 0.2 0.0
1.2000000000000002 0.2 0.0
1.6 0.2 0.0
2.0 0.2 0.0
2.4000000000000004 0.2 0.0
2.8000000000000003 0.2 0.0
3.2 0.2 0.0
3.6 0.2 0.0
4.0 0.2 0.0
4.4 0.2 0.0
4.800000000000001 0.2 0.0
5.2 0.2 0.0
5.6000000000000005 0.2 0.0
6.0 0.2 0.0
6.4 0.2 0.0
6.800000000000001 0.2 0.0
7.2 0.2 0.0
7.6000000000000005 0.2 0.0
8.0 0.2 0.0
8.4 0.2 0.0
8.8 0.2 0.0
9.200000000000001 0.2 0.0
9.600000000000001 0.2 0.0
10.0 0.2 0.0
10.4 0.2 0.0
10.8 0.2 0.0
11.200000000000001 0.2 0.0
11.600000000000001 0.2 0.0
12.0 0.2 0.0
12.4 0.2 0.0
12.8 0.2 0.0
13.200000000000001 0.2 0.0
13.600000000000001 0.2 0.0
14.0 0.2 0.0
14.4 0.2 0.0
14.8 0.2 0.0
15.200000000000001 0.2 0.0
15.600000000000001 0.2 0.0
16.0 0.2 0.0
0.0 0.30000000000000004 0.0
0.4 0.30000000000000004 0.0
0.8 0.30000000000000004 0.0
1.2000000000000002 0.30000000000000004 0.0
1.6 0.30000000000000004 0.0
2.0 0.30000000000000004 0.0
2.4000000000000004 0.30000000000000004 0.0
2.8000000000000003 0.30000000000000004 0.0
3.2 0.30000000000000004 0.0
3.6 0.30000000000000004 0.0
4.0 0.30000000000000004 0.0
4.4 0.30000000000000004 0.0
4.800000000000001 0.30000000000000004 0.0
5.2 0.30000000000000004 0.0
5.6000000000000005 0.30000000000000004 0.0
6.0 0.30000000000000004 0.0
6.4 0.30000000000000004 0.0
6.800000000000001 0.30000000000000004 0.0
7.2 0.30000000000000004 0.0
7.6000000000000005 0.30000000000000004 0.0
8.0 0.30000000000000004 0.0
8.4 0.30000000000000004 0.0
8.8 0.30000000000000004 0.0
9.200000000000001 0.30000000000000004 0.0
9.600000000000001 0.30000000000000004 0.0
10.0 0.30000000000000004 0.0
10.4 0.30000000000000004 0.0
10.8 0.30000000000000004 0.0
11.200000000000001 0.30000000000000004 0.0
11.600000000000001 0.30000000000000004 0.0
12.0 0.30000000000000004 0.0
12.4 0.30000000000000004 0.0
12.8 0.30000000000000004 0.0
13.200000000000001 0.30000000000000004 0.0
13.600000000000001 0.30000000000000004 0.0
14.0 0.30000000000000004 0.0
14.4 0.30000000000000004 0.0
14.8 0.30000000000000004 0.0
15.200000000000001 0.30000000000000004 0.0
15.600000000000001 0.30000000000000004 0.0
16.0 0.30000000000000004 0.0
0.0 0.4 0.0
0.4 0.4 0.0
0.8 0.4 0.0
1.2000000000000002 0.4 0.0
1.6 0.4 0.0
2.0 0.4 0.0
2.4000000000000004 0.4 0.0
2.8000000000000003 0.4 0.0
3.2 0.4 0.0
3.6 0.4 0.0
4.0 0.4 0.0
4.4 0.4 0.0
4.800000000000001 0.4 0.0
5.2 0.4 0.0
5.6000000000000005 0.4 0.0
6.0 0.4 0.0
6.4 0.4 0.0
6.800000000000001 0.4 0.0
7.2 0.4 0.0
7.6000000000000005 0.4 0.0
8.0 0.4 0.0
8.4 0.4 0.0
8.8 0.4 0.0
9.200000000000001 0.4 0.0
9.600000000000001 0.4 0.0
10.0 0.4 0.0
10.4 0.4 0.0
10.8 0.4 0.0
11.200000000000001 0.4 0.0
11.600000000000001 0.4 0.0
12.0 0.4 0.0
12.4 0.4 0.0
12.8 0.4 0.0
13.200000000000001 0.4 0.0
13.600000000000001 0.4 0.0
14.0 0.4 0.0
14.4 0.4 0.0
14.8 0.4 0.0
15.200000000000001 0.4 0.0
15.600000000000001 0.4 0.0
16.0 0.4 0.0
0.0 0.5 0.0
0.4 0.5 0.0
0.8 0.5 0.0
1.2000000000000002 0.5 0.0
1.6 0.5 0.0
2.0 0.5 0.0
2.4000000000000004 0.5 0.0
2.8000000000000003 0.5 0.0
3.2 0.5 0.0
3.6 0.5 0.0
4.0 0.5 0.0
4.4 0.5 0.0
4.800000000000001 0.5 0.0
5.2 0.5 0.0
5.6000000000000005 0.5 0.0
6.0 0.5 0.0
6.4 0.5 0.0
6.800000000000001 0.5 0.0
7.2 0.5 0.0
7.6000000000000005 0.5 0.0
8.0 0.5 0.0
8.4 0.5 0.0
8.8 0.5 0.0
9.200000000000001 0.5 0.0
9.600000000000001 0.5 0.0
10.0 0.5 0.0
10.4 0.5 0.0
10.8 0.5 0.0
11.200000000000001 0.5 0.0
11.600000000000001 0.5 0.0
12.0 0.5 0.0
12.4 0.5 0.0
12.8 0.5 0.0
13.200000000000001 0.5 0.0
13.600000000000001 0.5 0.0
14.0 0.5 0.0
14.4 0.5 0.0
14.8 0.5 0.0
15.200000000000001 0.5 0.0
15.600000000000001 0.5 0.0
16.0 0.5 0.0
0.0 0.6000000000000001 0.0
0.4 0.6000000000000001 0.0
0.8 0.6000000000000001 0.0
1.2000000000000002 0.6000000000000001 0.0
1.6 0.6000000000000001 0.0
2.0 0.6000000000000001 0.0
2.4000000000000004 0.6000000000000001 0.0
2.8000000000000003 0.6000000000000001 0.0
3.2 0.6000000000000001 0.0
3.6 0.6000000000000001 0.0
4.0 0.6000000000000001 0.0
4.4 0.6000000000000001 0.0
4.800000000000001 0.6000000000000001 0.0
5.2 0.6000000000000001 0.0
5.6000000000000005 0.6000000000000001 0.0
6.0 0.6000000000000001 0.0
6.4 0.6000000000000001 0.0
6.800000000000001 0.6000000000000001 0.0
7.2 0.6000000000000001 0.0
7.6000000000000005 0.6000000000000001 0.0
8.0 0.6000000000000001 0.0
8.4 0.6000000000000001 0.0
8.8 0.6000000000000001 0.0
9.200000000000001 0.6000000000000001 0.0
9.600000000000001 0.6000000000000001 0.0
10.0 0.6000000000000001 0.0
10.4 0.6000000000000001 0.0
10.8 0.6000000000000001 0.0
11.200000000000001 0.6000000000000001 0.0
11.600000000000001 0.6000000000000001 0.0
12.0 0.6000000000000001 0.0
12.4 0.6000000000000001 0.0
12.8 0.6000000000000001 0.0
13.200000000000001 0.6000000000000001 0.0
13.600000000000001 0.6000000000000001 0.0
14.0 0.6000000000000001 0.0
14.4 0.6000000000000001 0.0
14.8 0.6000000000000001 0.0
15.200000000000001 0.6000000000000001 0.0
15.600000000000001 0.6000000000000001 0.0
16.0 0.6000000000000001 0.0
0.0 0.7000000000000001 0.0
0.4 0.7000000000000001 0.0
0.8 0.7000000000000001 0.0
1.2000000000000002 0.7000000000000001 0.0
1.6 0.7000000000000001 0.0
2.0 0.7000000000000001 0.0
2.4000000000000004 0.7000000000000001 0.0
2.8000000000000003 0.7000000000000001 0.0
3.2 0.7000000000000001 0.0
3.6 0.7000000000000001 0.0
4.0 0.7000000000000001 0.0
4.4 0.7000000000000001 0.0
4.800000000000001 0.7000000000000001 0.0
5.2 0.7000000000000001 0.0
5.6000000000000005 0.7000000000000001 0.0
6.0 0.7000000000000001 0.0
6.4 0.7000000000000001 0.0
6.800000000000001 0.7000000000000001 0.0
7.2 0.7000000000000001 0.0
7.6000000000000005 0.7000000000000001 0.0
8.0 0.7000000000000001 0.0
8.4 0.7000000000000001 0.0
8.8 0.7000000000000001 0.0
9.200000000000001 0.7000000000000001 0.0
9.600000000000001 0.7000000000000001 0.0
10.0 0.7000000000000001 0.0
10.4 0.7000000000000001 0.0
10.8 0.7000000000000001 0.0
11.200000000000001 0.7000000000000001 0.0
11.600000000000001 0.7000000000000001 0.0
12.0 0.7000000000000001 0.0
12.4 0.7000000000000001 0.0
12.8 0.7000000000000001 0.0
13.200000000000001 0.7000000000000001 0.0
13.600000000000001 0.7000000000000001 0.0
14.0 0.7000000000000001 0.0
14.4 0.7000000000000001 0.0
14.8 0.7000000000000001 0.0
15.200000000000001 0.7000000000000001 0.0
15.600000000000001 0.7000000000000001 0.0
16.0 0.7000000000000001 0.0
0.0 0.8 0.0
0.4 0.8 0.0
0.8 0.8 0.0
1.2000000000000002 0.8 0.0
1.6 0.8 0.0
2.0 0.8 0.0
2.4000000000000004 0.8 0.0
2.8000000000000003 0.8 0.0
3.2 0.8 0.0
3.6 0.8 0.0
4.0 0.8 0.0
4.4 0.8 0.0
4.800000000000001 0.8 0.0
5.2 0.8 0.0
5.6000000000000005 0.8 0.0
6.0 0.8 0.0
6.4 0.8 0.0
6.800000000000001 0.8 0.0
7.2 0.8 0.0
7.6000000000000005 0.8 0.0
8.0 0.8 0.0
8.4 0.8 0.0
8.8 0.8 0.0
9.200000000000001 0.8 0.0
9.600000000000001 0.8 0.0
10.0 0.8 0.0
10.4 0.8 0.0
10.8 0.8 0.0
11.200000000000001 0.8 0.0
11.600000000000001 0.8 0.0
12.0 0.8 0.0
12.4 0.8 0.0
12.8 0.8 0.0
13.200000000000001 0.8 0.0
13.600000000000001 0.8 0.0
14.0 0.8 0.0
14.4 0.8 0.0
14.8 0.8 0.0
15.200000000000001 0.8 0.0
15.600000000000001 0.8 0.0
16.0 0.8 0.0
0.0 0.9 0.0
0.4 0.9 0.0
0.8 0.9 0.0
1.2000000000000002 0.9 0.0
1.6 0.9 0.0
2.0 0.9 0.0
2.4000000000000004 0.9 0.0
2.8000000000000003 0.9 0.0
3.2 0.9 0.0
3.6 0.9 0.0
4.0 0.9 0.0
4.4 0.9 0.0
4.800000000000001 0.9 0.0
5.2 0.9 0.0
5.6000000000000005 0.9 0.0
6.0 0.9 0.0
6.4 0.9 0.0
6.800000000000001 0.9 0.0
7.2 0.9 0.0
7.6000000000000005 0.9 0.0
8.0 0.9 0.0
8.4 0.9 0.0
8.8 0.9 0.0
9.200000000000001 0.9 0.0
9.600000000000001 0.9 0.0
10.0 0.9 0.0
10.4 0.9 0.0
10.8 0.9 0.0
11.200000000000001 0.9 0.0
11.600000000000001 0.9 0.0
12.0 0.9 0.0
12.4 0.9 0.0
12.8 0.9 0.0
13.200000000000001 0.9 0.0
13.600000000000001 0.9 0.0
14.0 0.9 0.0
14.4 0.9 0.0
14.8 0.9 0.0
15.200000000000001 0.9 0.0
15.600000000000001 0.9 0.0
16.0 0.9 0.0
0.0 1.0 0.0
0.4 1.0 0.0
0.8 1.0 0.0
1.2000000000000002 1.0 0.0
1.6 1.0 0.0
2.0 1.0 0.0
2.4000000000000004 1.0 0.0
2.8000000000000003 1.0 0.0
3.2 1.0 0.0
3.6 1.0 0.0
4.0 1.0 0.0
4.4 1.0 0.0
4.800000000000001 1.0 0.0
5.2 1.0 0.0
5.6000000000000005 1.0 0.0
6.0 1.0 0.0
6.4 1.0 0.0
6.800000000000001 1.0 0.0
7.2 1.0 0.0
7.6000000000000005 1.0 0.0
8.0 1.0 0.0
8.4 1.0 0.0
8.8 1.0 0.0
9.200000000000001 1.0 0.0
9.600000000000001 1.0 0.0
10.0 1.0 0.0
10.4 1.0 0.0
10.8 1.0 0.0
11.200000000000001 1.0 0.0
11.600000000000001 1.0 0.0
12.0 1.0 0.0
12.4 1.0 0.0
12.8 1.0 0.0
13.200000000000001 1.0 0.0
13.600000000000001 1.0 0.0
14.0 1.0 0.0
14.4 1.0 0.0
14.8 1.0 0.0
15.200000000000001 1.0 0.0
15.600000000000001 1.0 0.0
16.0 1.0 0.0
0.0 1.1 0.0
0.4 1.1 0.0
0.8 1.1 0.0
1.2000000000000002 1.1 0.0
1.6 1.1 0.0
2.0 1.1 0.0
2.4000000000000004 1.1 0.0
2.8000000000000003 1.1 0.0
3.2 1.1 0.0
3.6 1.1 0.0
4.0 1.1 0.0
4.4 1.1 0.0
4.800000000000001 1.1 0.0
5.2 1.1 0.0
5.6000000000000005 1.1 0.0
6.0 1.1 0.0
6.4 1.1 0.0
6.800000000000001 1.1 0.0
7.2 1.1 0.0
7.6000000000000005 1.1 0.0
8.0 1.1 0.0
8.4 1.1 0.0
8.8 1.1 0.0
9.200000000000001 1.1 0.0
9.600000000000001 1.1 0.0
10.0 1.1 0.0
10.4 1.1 0.0
10.8 1.1 0.0
11.200000000000001 1.1 0.0
11.600000000000001 1.1 0.0
12.0 1.1 0.0
12.4 1.1 0.0
12.8 1.1 0.0
13.200000000000001 1.1 0.0
13.600000000000001 1.1 0.0
14.0 1.1 0.0
14.4 1.1 0.0
14.8 1.1 0.0
15.200000000000001 1.1 0.0
15.600000000000001 1.1 0.0
16.0 1.1 0.0
0.0 1.2000000000000002 0.0
0.4 1.2000000000000002 0.0
0.8 1.2000000000000002 0.0
1.2000000000000002 1.2000000000000002 0.0
1.6 1.2000000000000002 0.0
2.0 1.2000000000000002 0.0
2.4000000000000004 1.2000000000000002 0.0
2.8000000000000003 1.2000000000000002 0.0
3.2 1.2000000000000002 0.0
3.6 1.2000000000000002 0.0
4.0 1.2000000000000002 0.0
4.4 1.2000000000000002 0.0
4.800000000000001 1.2000000000000002 0.0
5.2 1.2000000000000002 0.0
5.6000000000000005 1.2000000000000002 0.0
6.0 1.2000000000000002 0.0
6.4 1.2000000000000002 0.0
6.800000000000001 1.2000000000000002 0.0
7.2 1.2000000000000002 0.0
7.6000000000000005 1.2000000000000002 0.0
8.0 1.2000000000000002 0.0
8.4 1.2000000000000002 0.0
8.8 1.2000000000000002 0.0
9.200000000000001 1.2000000000000002 0.0
9.600000000000001 1.2000000000000002 0.0
10.0 1.2000000000000002 0.0
10.4 1.2000000000000002 0.0
10.8 1.2000000000000002 0.0
11.200000000000001 1.2000000000000002 0.0
11.600000000000001 1.2000000000000002 0.0
12.0 1.2000000000000002 0.0
12.4 1.2000000000000002 0.0
12.8 1.2000000000000002 0.0
13.200000000000001 1.2000000000000002 0.0
13.600000000000001 1.2000000000000002 0.0
14.0 1.2000000000000002 0.0
14.4 1.2000000000000002 0.0
14.8 1.2000000000000002 0.0
15.200000000000001 1.2000000000000002 0.0
15.600000000000001 1.2000000000000002 0.0
16.0 1.2000000000000002 0.0
0.0 1.3 0.0
0.4 1.3 0.0
0.8 1.3 0.0
1.2000000000000002 1.3 0.0
1.6 1.3 0.0
2.0 1.3 0.0
2.4000000000000004 1.3 0.0
2.8000000000000003 1.3 0.0
3.2 1.3 0.0
3.6 1.3 0.0
4.0 1.3 0.0
4.4 1.3 0.0
4.800000000000001 1.3 0.0
5.2 1.3 0.0
5.6000000000000005 1.3 0.0
6.0 1.3 0.0
6.4 1.3 0.0
6.800000000000001 1.3 0.0
7.2 1.3 0.0
7.6000000000000005 1.3 0.0
8.0 1.3 0.0
8.4 1.3 0.0
8.8 1.3 0.0
9.200000000000001 1.3 0.0
9.600000000000001 1.3 0.0
10.0 1.3 0.0
10.4 1.3 0.0
10.8 1.3 0.0
11.200000000000001 1.3 0.0
11.600000000000001 1.3 0.0
12.0 1.3 0.0
12.4 1.3 0.0
12.8 1.3 0.0
13.200000000000001 1.3 0.0
13.600000000000001 1.3 0.0
14.0 1.3 0.0
14.4 1.3 0.0
14.8 1.3 0.0
15.200000000000001 1.3 0.0
15.600000000000001 1.3 0.0
16.0 1.3 0.0
0.0 1.4000000000000001 0.0
0.4 1.4000000000000001 0.0
0.8 1.4000000000000001 0.0
1.2000000000000002 1.4000000000000001 0.0
1.6 1.4000000000000001 0.0
2.0 1.4000000000000001 0.0
2.4000000000000004 1.4000000000000001 0.0
2.8000000000000003 1.4000000000000001 0.0
3.2 1.4000000000000001 0.0
3.6 1.4000000000000001 0.0
4.0 1.4000000000000001 0.0
4.4 1.4000000000000001 0.0
4.800000000000001 1.4000000000000001 0.0
5.2 1.4000000000000001 0.0
5.6000000000000005 1.4000000000000001 0.0
6.0 1.4000000000000001 0.0
6.4 1.4000000000000001 0.0
6.800000000000001 1.4000000000000001 0.0
7.2 1.4000000000000001 0.0
7.6000000000000005 1.4000000000000001 0.0
8.0 1.4000000000000001 0.0
8.4 1.4000000000000001 0.0
8.8 1.4000000000000001 0.0
9.200000000000001 1.4000000000000001 0.0
9.600000000000001 1.4000000000000001 0.0
10.0 1.4000000000000001 0.0
10.4 1.4000000000000001 0.0
10.8 1.4000000000000001 0.0
11.200000000000001 1.4000000000000001 0.0
11.600000000000001 1.4000000000000001 0.0
12.0 1.4000000000000001 0.0
12.4 1.4000000000000001 0.0
12.8 1.4000000000000001 0.0
13.200000000000001 1.4000000000000001 0.0
13.600000000000001 1.4000000000000001 0.0
14.0 1.4000000000000001 0.0
14.4 1.4000000000000001 0.0
14.8 1.4000000000000001 0.0
15.200000000000001 1.4000000000000001 0.0
15.600000000000001 1.4000000000000001 0.0
16.0 1.4000000000000001 0.0
0.0 1.5 0.0
0.4 1.5 0.0
0.8 1.5 0.0
1.2000000000000002 1.5 0.0
1.6 1.5 0.0
2.0 1.5 0.0
2.4000000000000004 1.5 0.0
2.8000000000000003 1.5 0.0
3.2 1.5 0.0
3.6 1.5 0.0
4.0 1.5 0.0
4.4 1.5 0.0
4.800000000000001 1.5 0.0
5.2 1.5 0.0
5.6000000000000005 1.5 0.0
6.0 1.5 0.0
6.4 1.5 0.0
6.800000000000001 1.5 0.0
7.2 1.5 0.0
7.6000000000000005 1.5 0.0
8.0 1.5 0.0
8.4 1.5 0.0
8.8 1.5 0.0
9.200000000000001 1.5 0.0
9.600000000000001 1.5 0.0
10.0 1.5 0.0
10.4 1.5 0.0
10.8 1.5 0.0
11.200000000000001 1.5 0.0
11.600000000000001 1.5 0.0
12.0 1.5 0.0
12.4 1.5 0.0
12.8 1.5 0.0
13.200000000000001 1.5 0.0
13.600000000000001 1.5 0.0
14.0 1.5 0.0
14.4 1.5 0.0
14.8 1.5 0.0
15.200000000000001 1.5 0.0
15.600000000000001 1.5 0.0
16.0 1.5 0.0
0.0 1.6 0.0
0.4 1.6 0.0
0.8 1.6 0.0
1.2000000000000002 1.6 0.0
1.6 1.6 0.0
2.0 1.6 0.0
2.4000000000000004 1.6 0.0
2.8000000000000003 1.6 0.0
3.2 1.6 0.0
3.6 1.6 0.0
4.0 1.6 0.0
4.4 1.6 0.0
4.800000000000001 1.6 0.0
5.2 1.6 0.0
5.6000000000000005 1.6 0.0
6.0 1.6 0.0
6.4 1.6 0.0
6.800000000000001 1.6 0.0
7.2 1.6 0.0
7.6000000000000005 1.6 0.0
8.0 1.6 0.0
8.4 1.6 0.0
8.8 1.6 0.0
9.200000000000001 1.6 0.0
9.600000000000001 1.6 0.0
10.0 1.6 0.0
10.4 1.6 0.0
10.8 1.6 0.0
11.200000000000001 1.6 0.0
11.600000000000001 1.6 0.0
12.0 1.6 0.0
12.4 1.6 0.0
12.8 1.6 0.0
13.200000000000001 1.6 0.0
13.600000000000001 1.6 0.0
14.0 1.6 0.0
14.4 1.6 0.0
14.8 1.6 0.0
15.200000000000001 1.6 0.0
15.600000000000001 1.6 0.0
16.0 1.6 0.0
0.0 1.7000000000000002 0.0
0.4 1.7000000000000002 0.0
0.8 1.7000000000000002 0.0
1.2000000000000002 1.7000000000000002 0.0
1.6 1.7000000000000002 0.0
2.0 1.7000000000000002 0.0
2.4000000000000004 1.7000000000000002 0.0
2.8000000000000003 1.7000000000000002 0.0
3.2 1.7000000000000002 0.0
3.6 1.7000000000000002 0.0
4.0 1.7000000000000002 0.0
4.4 1.7000000000000002 0.0
4.800000000000001 1.7000000000000002 0.0
5.2 1.7000000000000002 0.0
5.6000000000000005 1.7000000000000002 0.0
6.0 1.7000000000000002 0.0
6.4 1.7000000000000002 0.0
6.800000000000001 1.7000000000000002 0.0
7.2 1.7000000000000002 0.0
7.6000000000000005 1.7000000000000002 0.0
8.0 1.7000000000000002 0.0
8.4 1.7000000000000002 0.0
8.8 1.7000000000000002 0.0
9.200000000000001 1.7000000000000002 0.0
9.600000000000001 1.7000000000000002 0.0
10.0 1.7000000000000002 0.0
10.4 1.7000000000000002 0.0
10.8 1.7000000000000002 0.0
11.200000000000001 1.7000000000000002 0.0
11.600000000000001 1.7000000000000002 0.0
12.0 1.7000000000000002 0.0
12.4 1.7000000000000002 0.0
12.8 1.7000000000000002 0.0
13.200000000000001 1.7000000000000002 0.0
13.600000000000001 1.7000000000000002 0.0
14.0 1.7000000000000002 0.0
14.4 1.7000000000000002 0.0
14.8 1.7000000000000002 0.0
15.200000000000001 1.7000000000000002 0.0
15.600000000000001 1.7000000000000002 0.0
16.0 1.7000000000000002 0.0
0.0 1.8 0.0
0.4 1.8 0.0
0.8 1.8 0.0
1.2000000000000002 1.8 0.0
1.6 1.8 0.0
2.0 1.8 0.0
2.4000000000000004 1.8 0.0
2.8000000000000003 1.8 0.0
3.2 1.8 0.0
3.6 1.8 0.0
4.0 1.8 0.0
4.4 1.8 0.0
4.800000000000001 1.8 0.0
5.2 1.8 0.0
5.6000000000000005 1.8 0.0
6.0 1.8 0.0
6.4 1.8 0.0
6.800000000000001 1.8 0.0
7.2 1.8 0.0
7.6000000000000005 1.8 0.0
8.0 1.8 0.0
8.4 1.8 0.0
8.8 1.8 0.0
9.200000000000001 1.8 0.0
9.600000000000001 1.8 0.0
10.0 1.8 0.0
10.4 1.8 0.0
10.8 1.8 0.0
11.200000000000001 1.8 0.0
11.600000000000001 1.8 0.0
12.0 1.8 0.0
12.4 1.8 0.0
12.8 1.8 0.0
13.200000000000001 1.8 0.0
13.600000000000001 1.8 0.0
14.0 1.8 0.0
14.4 1.8 0.0
14.8 1.8 0.0
15.200000000000001 1.8 0.0
15.600000000000001 1.8 0.0
16.0 1.8 0.0
0.0 1.9000000000000001 0.0
0.4 1.9000000000000001 0.0
0.8 1.9000000000000001 0.0
1.2000000000000002 1.9000000000000001 0.0
1.6 1.9000000000000001 0.0
2.0 1.9000000000000001 0.0
2.4000000000000004 1.9000000000000001 0.0
2.8000000000000003 1.9000000000000001 0.0
3.2 1.9000000000000001 0.0
3.6 1.9000000000000001 0.0
4.0 1.9000000000000001 0.0
4.4 1.9000000000000001 0.0
4.800000000000001 1.9000000000000001 0.0
5.2 1.9000000000000001 0.0
5.6000000000000005 1.9000000000000001 0.0
6.0 1.9000000000000001 0.0
6.4 1.9000000000000001 0.0
6.800000000000001 1.9000000000000001 0.0
7.2 1.9000000000000001 0.0
7.6000000000000005 1.9000000000000001 0.0
8.0 1.9000000000000001 0.0
8.4 1.9000000000000001 0.0
8.8 1.9000000000000001 0.0
9.200000000000001 1.9000000000000001 0.0
9.600000000000001 1.9000000000000001 0.0
10.0 1.9000000000000001 0.0
10.4 1.9000000000000001 0.0
10.8 1.9000000000000001 0.0
11.200000000000001 1.9000000000000001 0.0
11.600000000000001 1.9000000000000001 0.0
12.0 1.9000000000000001 0.0
12.4 1.9000000000000001 0.0
12.8 1.9000000000000001 0.0
13.200000000000001 1.9000000000000001 0.0
13.600000000000001 1.9000000000000001 0.0
14.0 1.9000000000000001 0.0
14.4 1.9000000000000001 0.0
14.8 1.9000000000000001 0.0
15.200000000000001 1.9000000000000001 0.0
15.600000000000001 1.9000000000000001 0.0
16.0 1.9000000000000001 0.0
0.0 2.0 0.0
0.4 2.0 0.0
0.8 2.0 0.0
1.2000000000000002 2.0 0.0
1.6 2.0 0.0
2.0 2.0 0.0
2.4000000000000004 2.0 0.0
2.8000000000000003 2.0 0.0
3.2 2.0 0.0
3.6 2.0 0.0
4.0 2.0 0.0
4.4 2.0 0.0
4.800000000000001 2.0 0.0
5.2 2.0 0.0
5.6000000000000005 2.0 0.0
6.0 2.0 0.0
6.4 2.0 0.0
6.800000000000001 2.0 0.0
7.2 2.0 0.0
7.6000000000000005 2.0 0.0
8.0 2.0 0.0
8.4 2.0 0.0
8.8 2.0 0.0
9.200000000000001 2.0 0.0
9.600000000000001 2.0 0.0
10.0 2.0 0.0
10.4 2.0 0.0
10.8 2.0 0.0
11.200000000000001 2.0 0.0
11.600000000000001 2.0 0.0
12.0 2.0 0.0
12.4 2.0 0.0
12.8 2.0 0.0
13.200000000000001 2.0 0.0
13.600000000000001 2.0 0.0
14.0 2.0 0.0
14.4 2.0 0.0
14.8 2.0 0.0
15.200000000000001 2.0 0.0
15.600000000000001 2.0 0.0
16.0 2.0 0.0
CELLS 800 4000
4 0 1 42 41
4 1 2 43 42
4 2 3 44 43
4 3 4 45 44
4 4 5 46 45
4 5 6 47 46
4 6 7 48 47
4 7 8 49 48
4 8 9 50 49
4 9 10 51 50
4 10 11 52 51
4 11 12 53 52
4 12 13 54 53
4 13 14 55 54
4 14 15 56 55
4 15 16 57 56
4 16 17 58 57
4 17 18 59 58
4 18 19 60 59
4 19 20 61 60
4 20 21 62 61
4 21 22 63 62
4 22 23 64 63
4 23 24 65 64
4 24 25 66 65
4 25 26 67 66
4 26 27 68 67
4 27 28 69 68
4 28 29 70 69
4 29 30 71 70
4 30 31 72 71
4 31 32 73 72
4 32 33 74 73
4 33 34 75 74
4 34 35 76 75
4 35 36 77 76
4 36 37 78 77
4 37 38 79 78
4 38 39 80 79
4 39 40 81 80
4 41 42 83 82
4 42 43 84 83
4 43 44 85 84
4 44 45 86 85
4 45 46 87 86
4 46 47 88 87
4 47 48 89 88
4 48 49 90 89
4 49 50 91 90
4 50 51 92 91
4 51 52 93 92
4 52 53 94 93
4 53 54 95 94
4 54 55 96 95
4 55 56 97 96
4 56 57 98 97
4 57 58 99 98
4 58 59 100 99
4 59 60 101 100
4 60 61 102 101
4 61 62 103 102
4 62 63 104 103
4 63 64 105 104
4 64 65 106 105
4 65 66 107 106
4 66 67 108 107
4 67 68 109 108
4 68 69 110 109
4 69 70 111 110
4 70 71 112 111
4 71 72 113 112
4 72 73 114 113
4 73 74 115 114
4 74 75 116 115
4 75 76 117 116
4 76 77 118 117
4 77 78 119 118
4 78 79 120 119
4 79 80 121 120
4 80 81 122 121
4 82 83 124 123
4 83 84 125 124
4 84 85 126 125
4 85 86 127 126
4 86 87 128 127
4 87 88 129 128
4 88 89 130 129
4 89 90 131 130
4 90 91 132 131
4 91 92 133 132
4 92 93 134 133
4 93 94 135 134
4 94 95 136 135
4 95 96 137 136
4 96 97 138 137
4 97 98 139 138
4 98 99 140 139
4 99 100 141 140
4 100 101 142 141
4 101 102 143 142
4 102 103 144 143
4 103 104 145 144
4 104 105 146 145
4 105 106 147 146
4 106 107 148 147
4 107 108 149 148
4 108 109 150 149
4 109 110 151 150
4 110 111 152 151
4 111 112 153 152
4 112 113 154 153
4 113 114 155 154
4 114 115 156 155
4 115 116 157 156
4 116 117 158 157
4 117 118 159 158
4 118 119 160 159
4 119 120 161 160
4 120 121 162 161
4 121 122 163 162
4 123 124 165 164
4 124 125 166 165
4 125 126 167 166
4 126 127 168 167
4 127 128 169 168
4 128 129 170 169
4 129 130 171 170
4 130 131 172 171
4 131 132 173 172
4 132 133 174 173
4 133 134 175 174
4 134 135 176 175
4 135 136 177 176
4 136 137 178 177
4 137 138 179 178
4 138 139 180 179
4 139 140 181 180
4 140 141 182 181
4 141 142 183 182
4 142 143 184 183
4 143 144 185 184
4 144 145 186 185
4 145 146 187 186
4 146 147 188 187
4 147 148 189 188
4 148 149 190 189
4 149 150 191 190
4 150 151 192 191
4 151 152 193 192
4 152 153 194 193
4 153 154 195 194
4 154 155 196 195
4 155 156 197 196
4 156 157 198 197
4 157 158 199 198
4 158 159 200 199
4 159 160 201 200
4 160 161 202 201
4 161 162 203 202
4 162 163 204 203
4 164 165 206 205
4 165 166 207 206
4 166 167 208 207
4 167 168 209 208
4 168 169 210 209
4 169 170 211 210
4 170 171 212 211
4 171 172 213 212
4 172 173 214 213
4 173 174 215 214
4 174 175 216 215
4 175 176 217 216
4 176 177 218 217
4 177 178 219 218
4 178 179 220 219
4 179 180 221 220
4 180 181 222 221
4 181 182 223 222
4 182 183 224 223
4 183 184 225 224
4 184 185 226 225
4 185 186 227 226
4 186 187 228 227
4 187 188 229 228
4 188 189 230 229
4 189 190 231 230
4 190 191 232 231
4 191 192 233 232
4 192 193 234 233
4 193 194 235 234
4 194 195 236 235
4 195 196 237 236
4 196 197 238 237
4 197 198 239 238
4 198 199 240 239
4 199 200 241 240
4 200 201 242 241
4 201 202 243 242
4 202 203 244 243
4 203 204 245 244
4 205 206 247 246
4 206 207 248 247
4 207 208 249 248
4 208 209 250 249
4 209 210 251 250
4 210 211 252 251
4 211 212 253 252
4 212 213 254 253
4 213 214 255 254
4 214 215 256 255
4 215 216 257 256
4 216 217 258 257
4 217 218 259 258
4 218 219 260 259
4 219 220 261 260
4 220 221 262 261
4 221 222 263 262
4 222 223 264 263
4 223 224 265 264
4 224 225 266 265
4 225 226 267 266
4 226 227 268 267
4 227 228 269 268
4 228 229 270 269
4 229 230 271 270
4 230 231 272 271
4 231 232 273 272
4 232 233 274 273
4 233 234 275 274
4 234 235 276 275
4 235 236 277 276
4 236 237 278 277
4 237 238 279 278
4 238 239 280 279
4 239 240 281 280
4 240 241 282 281
4 241 242 283 282
4 242 243 284 283
4 243 244 285 284
4 244 245 286 285
4 246 247 288 287
4 247 248 289 288
4 248 249 290 289
4 249 250 291 290
4 250 251 292 291
4 251 252 293 292
4 252 253 294 293
4 253 254 295 294
4 254 255 296 295
4 255 256 297 296
4 256 257 298 297
4 257 258 299 298
4 258 259 300 299
4 259 260 301 300
4 260 261 302 301
4 261 262 303 302
4 262 263 304 303
4 263 264 305 304
4 264 265 306 305
4 265 266 307 306
4 266 267 308 307
4 267 268 309 308
4 268 269 310 309
4 269 270 311 310
4 270 271 312 311
4 271 272 313 312
4 272 273 314 313
4 273 274 315 314
4 274 275 316 315
4 275 276 317 316
4 276 277 318 317
4 277 278 319 318
4 278 279 320 319
4 279 280 321 320
4 280 281 322 321
4 281 282 323 322
4 282 283 324 323
4 283 284 325 324
4 284 285 326 325
4 285 286 327 326
4 287 288 329 328
4 288 289 330 329
4 289 290 331 330
4 290 291 332 331
4 291 292 333 332
4 292 293 334 333
4 293 294 335 334
4 294 295 336 335
4 295 296 337 336
4 296 297 338 337
4 297 298 339 338
4 298 299 340 339
4 299 300 341 340
4 300 301 342 341
4 301 302 343 342
4 302 303 344 343
4 303 304 345 344
4 304 305 346 345
4 305 306 347 346
4 306 307 348 347
4 307 308 349 348
4 308 309 350 349
4 309 310 351 350
4 310 311 352 351
4 311 312 353 352
4 312 313 354 353
4 313 314 355 354
4 314 315 356 355
4 315 316 357 356
4 316 317 358 357
4 317 318 359 358
4 318 319 360 359
4 319 320 361 360
4 320 321 362 361
4 321 322 363 362
4 322 323 364 363
4 323 324 365 364
4 324 325 366 365
4 325 326 367 366
4 326 327 368 367
4 328 329 370 369
4 329 330 371 370
4 330 331 372 371
4 331 332 373 372
4 332 333 374 373
4 333 334 375 374
4 334 335 376 375
4 335 336 377 376
4 336 337 378 377
4 337 338 379 378
4 338 339 380 379
4 339 340 381 380
4 340 341 382 381
4 341 342 383 382
4 342 343 384 383
4 343 344 385 384
4 344 345 386 385
4 345 346 387 386
4 346 347 388 387
4 347 348 389 388
4 348 349 390 389
4 349 350 391 390
4 350 351 392 391
4 351 352 393 392
4 352 353 394 393
4 353 354 395 394
4 354 355 396 395
4 355 356 397 396
4 356 357 398 397
4 357 358 399 398
4 358 359 400 399
4 359 360 401 400
4 360 361 402 401
4 361 362 403 402
4 362 363 404 403
4 363 364 405 404
4 364 365 406 405
4 365 366 407 406
4 366 367 408 407
4 367 368 409 408
4 369 370 411 410
4 370 371 412 411
4 371 372 413 412
4 372 373 414 413
4 373 374 415 414
4 374 375 416 415
4 375 376 417 416
4 376 377 418 417
4 377 378 419 418
4 378 379 420 419
4 379 380 421 420
4 380 381 422 421
4 381 382 423 422
4 382 383 424 423
4 383 384 425 424
4 384 385 426 425
4 385 386 427 426
4 386 387 428 427
4 387 388 429 428
4 388 389 430 429
4 389 390 431 430
4 390 391 432 431
4 391 392 433 432
4 392 393 434 433
4 393 394 435 434
4 394 395 436 435
4 395 396 437 436
4 396 397 438 437
4 397 398 439 438
4 398 399 440 439
4 399 400 441 440
4 400 401 442 441
4 401 402 443 442
4 402 403 444 443
4 403 404 445 444
4 404 405 446 445
4 405 406 447 446
4 406 407 448 447
4 407 408 449 448
4 408 409 450 449
4 410 411 452 451
4 411 412 453 452
4 412 413 454 453
4 413 414 455 454
4 414 415 456 455
4 415 416 457 456
4 416 417 458 457
4 417 418 459 458
4 418 419 460 459
4 419 420 461 460
4 420 421 462 461
4 421 422 463 462
4 422 423 464 463
4 423 424 465 464
4 424 425 466 465
4 425 426 467 466
4 426 427 468 467
4 427 428 469 468
4 428 429 470 469
4 429 430 471 470
4 430 431 472 471
4 431 432 473 472
4 432 433 474 473
4 433 434 475 474
4 434 435 476 475
4 435 436 477 476
4 436 437 478 477
4 437 438 479 478
4 438 439 480 479
4 439 440 481 480
4 440 441 482 481
4 441 442 483 482
4 442 443 484 483
4 443 444 485 484
4 444 445 486 485
4 445 446 487 486
4 446 447 488 487
4 447 448 489 488
4 448 449 490 489
4 449 450 491 490
4 451 452 493 492
4 452 453 494 493
4 453 454 495 494
4 454 455 496 495
4 455 456 497 496
4 456 457 498 497
4 457 458 499 498
4 458 459 500 499
4 459 460 501 500
4 460 461 502 501
4 461 462 503 502
4 462 463 504 503
4 463 464 505 504
4 464 465 506 505
4 465 466 507 506
4 466 467 508 507
4 467 468 509 508
4 468 469 510 509
4 469 470 511 510
4 470 471 512 511
4 471 472 513 512
4 472 473 514 513
4 473 474 515 514
4 474 475 516 515
4 475 476 517 516
4 476 477 518 517
4 477 478 519 518
4 478 479 520 519
4 479 480 521 520
4 480 481 522 521
4 481 482 523 522
4 482 483 524 523
4 483 484 525 524
4 484 485 526 525
4 485 486 527 526
4 486 487 528 527
4 487 488 529 528
4 488 489 530 529
4 489 490 531 530
4 490 491 532 531
4 492 493 534 533
4 493 494 535 534
4 494 495 536 535
4 495 496 537 536
4 496 497 538 537
4 497 498 539 538
4 498 499 540 539
4 499 500 541 540
4 500 501 542 541
4 501 502 543 542
4 502 503 544 543
4 503 504 545 544
4 504 505 546 545
4 505 506 547 546
4 506 507 548 547
4 507 508 549 548
4 508 509 550 549
4 509 510 551 550
4 510 511 552 551
4 511 512 553 552
4 512 513 554 553
4 513 514 555 554
4 514 515 556 555
4 515 516 557 556
4 516 517 558 557
4 517 518 559 558
4 518 519 560 559
4 519 520 561 560
4 520 521 562 561
4 521 522 563 562
4 522 523 564 563
4 523 524 565 564
4 524 525 566 565
4 525 526 567 566
4 526 527 568 567
4 527 528 569 568
4 528 529 570 569
4 529 530 571 570
4 530 531 572 571
4 531 532 573 572
4 533 534 575 574
4 534 535 576 575
4 535 536 577 576
4 536 537 578 577
4 537 538 579 578
4 538 539 580 579
4 539 540 581 580
4 540 541 582 581
4 541 542 583 582
4 542 543 584 583
4 543 544 585 584
4 544 545 586 585
4 545 546 587 586
4 546 547 588 587
4 547 548 589 588
4 548 549 590 589
4 549 550 591 590
4 550 551 592 591
4 551 552 593 592
4 552 553 594 593
4 553 554 595 594
4 554 555 596 595
4 555 556 597 596
4 556 557 598 597
4 557 558 599 598
4 558 559 600 599
4 559 560 601 600
4 560 561 602 601
4 561 562 603 602
4 562 563 604 603
4 563 564 605 604
4 564 565 606 605
4 565 566 607 606
4 566 567 608 607
4 567 568 609 608
4 568 569 610 609
4 569 570 611 610
4 570 571 612 611
4 571 572 613 612
4 572 573 614 613
4 574 575 616 615
4 575 576 617 616
4 576 577 618 617
4 577 578 619 618
4 578 579 620 619
4 579 580 621 620
4 580 581 622 621
4 581 582 623 622
4 582 583 624 623
4 583 584 625 624
4 584 585 626 625
4 585 586 627 626
4 586 587 628 627
4 587 588 629 628
4 588 589 630 629
4 589 590 631 630
4 590 591 632 631
4 591 592 633 632
4 592 593 634 633
4 593 594 635 634
4 594 595 636 635
4 595 596 637 636
4 596 597 638 637
4 597 598 639 638
4 598 599 640 639
4 599 600 641 640
4 600 601 642 641
4 601 602 643 642
4 602 603 644 643
4 603 604 645 644
4 604 605 646 645
4 605 606 647 646
4 606 607 648 647
4 607 608 649 648
4 608 609 650 649
4 609 610 651 650
4 610 611 652 651
4 611 612 653 652
4 612 613 654 653
4 613 614 655 654
4 615 616 657 656
4 616 617 658 657
4 617 618 659 658
4 618 619 660 659
4 619 620 661 660
4 620 621 662 661
4 621 622 663 662
4 622 623 664 663
4 623 624 665 664
4 624 625 666 665
4 625 626 667 666
4 626 627 668 667
4 627 628 669 668
4 628 629 670 669
4 629 630 671 670
4 630 631 672 671
4 631 632 673 672
4 632 633 674 673
4 633 634 675 674
4 634 635 676 675
4 635 636 677 676
4 636 637 678 677
4 637 638 679 678
4 638 639 680 679
4 639 640 681 680
4 640 641 682 681
4 641 642 683 682
4 642 643 684 683
4 643 644 685 684
4 644 645 686 685
4 645 646 687 686
4 646 647 688 687
4 647 648 689 688
4 648 649 690 689
4 649 650 691 690
4 650 651 692 691
4 651 652 693 692
4 652 653 694 693
4 653 654 695 694
4 654 655 696 695
4 656 657 698 697
4 657 658 699 698
4 658 659 700 699
4 659 660 701 700
4 660 661 702 701
4 661 662 703 702
4 662 663 704 703
4 663 664 705 704
4 664 665 706 705
4 665 666 707 706
4 666 667 708 707
4 667 668 709 708
4 668 669 710 709
4 669 670 711 710
4 670 671 712 711
4 671 672 713 712
4 672 673 714 713
4 673 674 715 714
4 674 675 716 715
4 675 676 717 716
4 676 677 718 717
4 677 678 719 718
4 678 679 720 719
4 679 680 721 720
4 680 681 722 721
4 681 682 723 722
4 682 683 724 723
4 683 684 725 724
4 684 685 726 725
4 685 686 727 726
4 686 687 728 727
4 687 688 729 728
4 688 689 730 729
4 689 690 731 730
4 690 691 732 731
4 691 692 733 732
4 692 693 734 733
4 693 694 735 734
4 694 695 736 735
4 695 696 737 736
4 697 698 739 738
4 698 699 740 739
4 699 700 741 740
4 700 701 742 741
4 701 702 743 742
4 702 703 744 743
4 703 704 745 744
4 704 705 746 745
4 705 706 747 746
4 706 707 748 747
4 707 708 749 748
4 708 709 750 749
4 709 710 751 750
4 710 711 752 751
4 711 712 753 752
4 712 713 754 753
4 713 714 755 754
4 714 715 756 755
4 715 716 757 756
4 716 717 758 757
4 717 718 759 758
4 718 719 760 759
4 719 720 761 760
4 720 721 762 761
4 721 722 763 762
4 722 723 764 763
4 723 724 765 764
4 724 725 766 765
4 725 726 767 766
4 726 727 768 767
4 727 728 769 768
4 728 729 770 769
4 729 730 771 770
4 730 731 772 771
4 731 732 773 772
4 732 733 774 773
4 733 734 775 774
4 734 735 776 775
4 735 736 777 776
4 736 737 778 777
4 738 739 780 779
4 739 740 781 780
4 740 741 782 781
4 741 742 783 782
4 742 743 784 783
4 743 744 785 784
4 744 745 786 785
4 745 746 787 786
4 746 747 788 787
4 747 748 789 788
4 748 749 790 789
4 749 750 791 790
4 750 751 792 791
4 751 752 793 792
4 752 753 794 793
4 753 754 795 794
4 754 755 796 795
4 755 756 797 796
4 756 757 798 797
4 757 758 799 798
4 758 759 800 799
4 759 760 801 800
4 760 761 802 801
4 761 762 803 802
4 762 763 804 803
4 763 764 805 804
4 764 765 806 805
4 765 766 807 806
4 766 767 808 807
4 767 768 809 808
4 768 769 810 809
4 769 770 811 810
4 770 771 812 811
4 771 772 813 812
4 772 773 814 813
4 773 774 815 814
4 774 775 816 815
4 775 776 817 816
4 776 777 818 817
4 777 778 819 818
4 779 780 821 820
4 780 781 822 821
4 781 782 823 822
4 782 783 824 823
4 783 784 825 824
4 784 785 826 825
4 785 786 827 826
4 786 787 828 827
4 787 788 829 828
4 788 789 830 829
4 789 790 831 830
4 790 791 832 831
4 791 792 833 832
4 792 793 834 833
4 793 794 835 834
4 794 795 836 835
4 795 796 837 836
4 796 797 838 837
4 797 798 839 838
4 798 799 840 839
4 799 800 841 840
4 800 801 842 841
4 801 802 843 842
4 802 803 844 843
4 803 804 845 844
4 804 805 846 845
4 805 806 847 846
4 806 807 848 847
4 807 808 849 848
4 808 809 850 849
4 809 810 851 850
4 810 811 852 851
4 811 812 853 852
4 812 813 854 853
4 813 814 855 854
4 814 815 856 855
4 815 816 857 856
4 816 817 858 857
4 817 818 859 858
4 818 819 860 859
CELL_TYPES 800
9
9
9
9
9
9
9
9
9
9
9
9
9
9
9
9
9
9
9
9
9
9
9
9
9
9
9
9
9
9
9
9
9
9
9
9
9
9
9
9
9
9
9
9
9
9
9
9
9
9
9
9
9
9
9
9
9
9
9
9
9
9
9
9
9
9
9
9
9
9
9
9
9
9
9
9
9
9
9
9
9
9
9
9
9
9
9
9
9
9
9
9
9
9
9
9
9
9
9
9
9
9
9
9
9
9
9
9
9
9
9
9
9
9
9
9
9
9
9
9
9
9
9
9
9
9
9
9
9
9
9
9
9
9
9
9
9
9
9
9
9
9
9
9
9
9
9
9
9
9
9
9
9
9
9
9
9
9
9
9
9
9
9
9
9
9
9
9
9
9
9
9
9
9
9
9
9
9
9
9
9
9
9
9
9
9
9
9
9
9
9
9
9
9
9
9
9
9
9
9
9
9
9
9
9
9
9
9
9
9
9
9
9
9
9
9
9
9
9
9
9
9
9
9
9
9
9
9
9
9
9
9
9
9
9
9
9
9
9
9
9
9
9
9
9
9
9
9
9
9
9
9
9
9
9
9
9
9
9
9
9
9
9
9
9
9
9
9
9
9
9
9
9
9
9
9
9
9
9
9
9
9
9
9
9
9
9
9
9
9
9
9
9
9
9
9
9
9
9
9
9
9
9
9
9
9
9
9
9
9
9
9
9
9
9
9
9
9
9
9
9
9
9
9
9
9
9
9
9
9
9
9
9
9
9
9
9
9
9
9
9
9
9
9
9
9
9
9
9
9
9
9
9
9
9
9
9
9
9
9
9
9
9
9
9
9
9
9
9
9
9
9
9
9
9
9
9
9
9
9
9
9
9
9
9
9
9
9
9
9
9
9
9
9
9
9
9
9
9
9
9
9
9
9
9
9
9
9
9
9
9
9
9
9
9
9
9
9
9
9
9
9
9
9
9
9
9
9
9
9
9
9
9
9
9
9
9
9
9
9
9
9
9
9
9
9
9
9
9
9
9
9
9
9
9
9
9
9
9
9
9
9
9
9
9
9
9
9
9
9
9
9
9
9
9
9
9
9
9
9
9
9
9
9
9
9
9
9
9
9
9
9
9
9
9
9
9
9
9
9
9
9
9
9
9
9
9
9
9
9
9
9
9
9
9
9
9
9
9
9
9
9
9
9
9
9
9
9
9
9
9
9
9
9
9
9
9
9
9
9
9
9
9
9
9
9
9
9
9
9
9
9
9
9
9
9
9
9
9
9
9
9
9
9
9
9
9
9
9
9
9
9
9
9
9
9
9
9
9
9
9
9
9
9
9
9
9
9
9
9
9
9
9
9
9
9
9
9
9
9
9
9
9
9
9
9
9
9
9
9
9
9
9
9
9
9
9
9
9
9
9
9
9
9
9
9
9
9
9
9
9
9
9
9
9
9
9
9
9
9
9
9
9
9
9
9
9
9
9
9
9
9
9
9
9
9
9
9
9
9
9
9
9
9
9
9
9
9
9
9
9
9
9
9
9
9
9
9
9
9
9
9
9
9
9
9
9
9
9
9
9
9
9
9
9
9
9
9
9
9
9
9
9
9
9
9
9
9
9
9
9
9
9
9
9
9
9
9
9
9
9
9
9
9
9
9
9
9
9
9
9
9
9
9
9
9
9
9
9
9
9
9
9
9
9
9
9
9
9
9
9
9
9
9
9
9
9
9
9
9
9
9
9
9
9
9
9
9
9
9
9
9
9
9
9
9
9
9
9
9
9
9
9
9
9
9
9
9
9
9
9
9
9
9
9
9
9
9
9
9
POINT_DATA 861
SCALARS Disp float 2
LOOKUP_TABLE default
0.0 0.0
0.008225973509364999 -0.15033581865359227
0.014651800183581584 -0.2773641328425988
0.019806180540176778 -0.4022119973014365
0.025694855832988438 -0.524658642984602
0.032777031219829895 -0.6446496217764749
0.04127852980001662 -0.7616115425713555
0.05128998302143172 -0.8749248997241336
0.06284105917907754 -0.9839495236866818
0.07593863452183865 -1.0880531156992561
0.09058168074755084 -1.1866106991713044
0.10676782722580835 -1.2790030286851655
0.12449561502009018 -1.3646146669771957
0.14376665912456013 -1.442833127167429
0.1645902916198344 -1.5130468388806138
0.18699206783437863 -1.5746367382406732
0.2110223266625406 -1.6269522671343153
0.2367477264331581 -1.669263046201138
0.26418897107681705 -1.700696461547346
0.2931674938982225 -1.7202297342391262
0.323110435211017 -1.7268885612996727
0.3530533765238116 -1.7202297342391262
0.3820318993452171 -1.7006964615473457
0.4094731439888758 -1.6692630462011382
0.43519854375949346 -1.626952267134315
0.4592288025876552 -1.5746367382406734
0.48163057880219967 -1.5130468388806138
0.502454211297474 -1.4428331271674288
0.5217252554019438 -1.3646146669771952
0.5394530431962257 -1.2790030286851652
0.555639189674483 -1.1866106991713044
0.5702822359001952 -1.0880531156992557
0.5833798112429562 -0.9839495236866816
0.5949308874006023 -0.8749248997241335
0.6049423406220173 -0.7616115425713549
0.6134438392022039 -0.6446496217764751
0.6205260145890454 -0.5246586429846017
0.6264146898818571 -0.4022119973014367
0.6315690702384523 -0.2773641328425986
0.637994896912669 -0.15033581865359186
0.6462208704220339 0.0
0.03724021282701512 -0.005108488802808112
0.04236254464855073 -0.14993759427898248
0.045907960066013415 -0.2780854674379108
0.05068398273425425 -0.4027149104726995
0.0559211719732392 -0.5253212430886447
0.0623153689376893 -0.6454388686519988
0.06997728775478937 -0.7625536288927336
0.07899472306817716 -0.8760221738125135
0.08939391867052165 -0.9852040760288749
0.1011829422000578 -1.0894649945470603
0.1143620806242123 -1.1881797470996351
0.1289299643911831 -1.2807290451490094
0.14488584642747923 -1.3664976314797204
0.16223164274187973 -1.444873480628175
0.18097566716545505 -1.5152461045186938
0.2011386985401956 -1.5769984291397485
0.22275840077291004 -1.629482209233858
0.24587735869820634 -1.671966512873089
0.27048608094237203 -1.703567881303478
0.2963983771370698 -1.7232336328492823
0.323110435211017 -1.729944993330757
0.34982249328496423 -1.7232336328492823
0.37573478947966216 -1.703567881303478
0.4003435117238276 -1.671966512873089
0.423462469649124 -1.629482209233858
0.4450821718818383 -1.5769984291397485
0.46524520325657903 -1.5152461045186938
0.4839892276801544 -1.4448734806281742
0.5013350239945548 -1.3664976314797201
0.5172909060308508 -1.2807290451490092
0.5318587897978215 -1.1881797470996351
0.545037928221976 -1.0894649945470598
0.5568269517515123 -0.9852040760288747
0.5672261473538568 -0.8760221738125131
0.5762435826672446 -0.7625536288927328
0.5839055014843446 -0.6454388686519991
0.5902996984487947 -0.5253212430886446
0.5955368876877797 -0.40271491047269975
0.6003129103560205 -0.27808546743791057
0.6038583257734832 -0.1499375942789821
0.6089806575950187 -0.00510848880280812
0.07194474594748754 -0.00949654123986864
0.07561877271435345 -0.14964553751793938
0.07752689595500321 -0.27848291262792985
0.08135089421522487 -0.4032045112193565
0.08599488003630071 -0.5258948895673481
0.09165356667433194 -0.6461476959141063
0.09847011065681105 -0.7633959617502656
0.10648906306940162 -0.8770044417213546
0.11573568319463594 -0.9863267480710464
0.12621621011803205 -1.0907283841711963
0.13793170674612257 -1.1895837039804986
0.1508814863866505 -1.282273448959796
0.16506526598275337 -1.3681824704288712
0.1804847219431301 -1.4466990669315998
0.19714615026758364 -1.5172135093197823
0.21506451486390066 -1.5791101620135697
0.2342657969670116 -1.6317425406549342
0.2547762586951379 -1.6743794412165343
0.2765760991328189 -1.7061291220267496
0.29949847673609836 -1.7259142137395407
0.32311043521101707 -1.732674691401074
0.3467223936859356 -1.7259142137395405
0.3696447712892153 -1.7061291220267496
0.39144461172689604 -1.6743794412165338
0.41195507345502236 -1.6317425406549342
0.43115635555813325 -1.5791101620135697
0.4490747201544504 -1.5172135093197823
0.465736148478904 -1.446699066931599
0.4811556044392806 -1.368182470428871
0.4953393840353835 -1.2822734489597958
0.5082891636759113 -1.1895837039804984
0.5200046603040018 -1.090728384171196
0.530485187227398 -0.9863267480710461
0.5397318073526324 -0.8770044417213544
0.5477507597652229 -0.7633959617502648
0.554567303747702 -0.6461476959141066
0.5602259903857333 -0.5258948895673479
0.564869976206809 -0.4032045112193568
0.5686939744670307 -0.2784829126279296
0.5706020977076804 -0.14964553751793896
0.5742761244745465 -0.009496541239868662
0.10515103890500872 -0.013246978347927714
0.10806945207115463 -0.14955966421226144
0.10908123209098314 -0.27865891506137236
0.11192743962859428 -0.40360903716235774
0.11589841272091102 -0.5263940745695179
0.12082126180943246 -0.6467677807773937
0.12677878516473512 -0.7641389298656602
0.13379722632462887 -0.8778710106906922
0.14189000819661268 -0.9873175758736076
0.1510620130767897 -1.0918432965417646
0.1613139826151 -1.1908226109783253
0.17264572543428078 -1.2836362401208115
0.18505716594996374 -1.3696690893011387
0.1985493315814731 -1.44830956981135
0.21312583903812238 -1.5189483312152223
0.2287953676004784 -1.5809707475484458
0.24557366529506192 -1.6337322399518803
0.26347768403441457 -1.6765033071475963
0.28249332678586364 -1.7083886245912985
0.30249227947921853 -1.7282904721458676
0.32311043521101707 -1.735102594087797
0.34372859094281555 -1.7282904721458676
0.36372754363617044 -1.7083886245912985
0.38274318638761945 -1.676503307147596
0.4006472051269721 -1.6337322399518805
0.41742550282155555 -1.5809707475484458
0.4330950313839116 -1.518948331215222
0.44767153884056093 -1.4483095698113495
0.4611637044720702 -1.3696690893011383
0.4735751449877532 -1.283636240120811
0.4849068878069339 -1.1908226109783253
0.4951588573452442 -1.0918432965417642
0.5043308622254213 -0.9873175758736075
0.512423644097405 -0.8778710106906917
0.5194420852572988 -0.7641389298656595
0.5253996086126015 -0.6467677807773938
0.530322457701123 -0.5263940745695178
0.5342934307934396 -0.403609037162358
0.5371396383310507 -0.2786589150613721
0.5381514183508793 -0.14955966421226105
0.5410698315170251 -0.013246978347927735
0.13739999818302334 -0.01644132382353407
0.13986320268772387 -0.14966941808044662
0.14039766783940297 -0.278708275306683
0.14240353826127364 -0.40390798065683253
0.14565614399165058 -0.5268144139142071
0.1498347610183022 -0.6472987108545633
0.15492780445952833 -0.7647809919358394
0.16094246850224397 -0.8786217996733462
0.16788065562304785 -0.9881764225333463
0.17574387310740844 -1.0928097563401242
0.18453234720604872 -1.1918964803276157
0.19424603753864852 -1.284817410032612
0.20488490280832758 -1.370957404463756
0.2164490421911977 -1.4497047495895103
0.22893904827877085 -1.5204500701707557
0.24235726801361338 -1.5825794452482076
0.2567107405814836 -1.635450905118969
0.2720128381382753 -1.6783399297291435
0.28826746101419726 -1.7103538770068978
0.3053990234752276 -1.7303782521796307
0.323110435211017 -1.7372494859438967
0.3408218469468065 -1.7303782521796307
0.3579534094078369 -1.7103538770068978
0.3742080322837587 -1.678339929729143
0.3895101298405504 -1.635450905118969
0.4038636024084205 -1.5825794452482074
0.4172818221432631 -1.5204500701707555
0.4297718282308363 -1.44970474958951
0.4413359676137064 -1.3709574044637558
0.45197483288338547 -1.2848174100326115
0.4616885232159852 -1.1918964803276155
0.4704769973146255 -1.092809756340124
0.4783402147989861 -0.9881764225333461
0.48527840191978994 -0.8786217996733456
0.4912930659625057 -0.7647809919358386
0.4963861094037317 -0.6472987108545635
0.5005647264303834 -0.5268144139142069
0.5038173321607603 -0.4039079806568328
0.5058232025826309 -0.27870827530668274
0.50635766773431 -0.14966941808044623
0.5088208722390105 -0.016441323823534085
0.16900234990064392 -0.01915454097566301
0.17114286359396413 -0.14992976700511876
0.17142520158508687 -0.2786965392635586
0.17275158165117013 -0.4041064912840415
0.1752876425277325 -0.5271508431224262
0.1787134841492653 -0.6477402856052664
0.1829397403679358 -0.765321435345571
0.18794839393232105 -0.8792565468193063
0.1937311711894731 -0.988903230201883
0.20028533429541853 -1.0936277438441295
0.20761023320173738 -1.1928053153728286
0.2157058028247602 -1.2858169421296077
0.2245718821646497 -1.3720473537716873
0.23420751470620582 -1.4508844566839907
0.2446102063527751 -1.521718453043141
0.2557762326309485 -1.5839359130363446
0.26770524684646374 -1.6368985534774867
0.2804111285462115 -1.6798910459992653
0.293924633343661 -1.7120310013227686
0.3082343285592207 -1.73219067781066
0.323110435211017 -1.7391332414697385
0.3379865418628134 -1.7321906778106597
0.3522962370783731 -1.7120310013227686
0.3658097418758225 -1.6798910459992649
0.3785156235755702 -1.6368985534774865
0.39044463779108546 -1.5839359130363444
0.4016106640692588 -1.5217184530431407
0.4120133557158282 -1.4508844566839902
0.4216489882573842 -1.372047353771687
0.43051506759727376 -1.2858169421296073
0.43861063722029653 -1.1928053153728284
0.44593553612661535 -1.0936277438441293
0.4524896992325608 -0.9889032302018829
0.45827247648971287 -0.8792565468193059
0.4632811300540982 -0.7653214353455701
0.4675073862727686 -0.6477402856052666
0.4709332278943015 -0.5271508431224261
0.4734692887708638 -0.4041064912840418
0.47479566883694707 -0.27869653926355825
0.4750780068280697 -0.14992976700511834
0.47721852052138997 -0.01915454097566303
0.20015185931071475 -0.021451811757529755
0.2020279746485524 -0.15029072447280356
0.20217074679229485 -0.27866274772149086
0.20295560352707057 -0.40421924673258297
0.2048065026549304 -0.5274021426789326
0.20747815185391102 -0.6480921439971055
0.21083678137415737 -0.7657600972121607
0.21483842063533318 -0.8797750480721854
0.21946508603437015 -0.9894979415058657
0.22470990240170471 -1.0942972328340415
0.2305710801298788 -1.193549103984309
0.23704841627483342 -1.2866348186801442
0.2441415440153045 -1.3729389012019368
0.2518484546142116 -1.4518486364218866
0.2601637595243468 -1.522753426618816
0.2690781575936546 -1.5850401579954647
0.278584875022221 -1.638075466102566
0.288700520910544 -1.6811580012075769
0.29948836615356267 -1.7134244848701632
0.311011254833467 -1.733738460159727
0.32311043521101696 -1.7407697589654247
0.3352096155885671 -1.733738460159727
0.34673250426847135 -1.713424484870163
0.35752034951149003 -1.6811580012075769
0.3676359953998129 -1.638075466102566
0.3771427128283793 -1.5850401579954645
0.3860571108976872 -1.522753426618816
0.39437241580782234 -1.4518486364218863
0.4020793264067294 -1.3729389012019364
0.4091724541472006 -1.2866348186801435
0.4156497902921551 -1.1935491039843087
0.4215109680203292 -1.0942972328340412
0.4267557843876638 -0.9894979415058655
0.43138244978670076 -0.8797750480721851
0.4353840890478766 -0.7657600972121599
0.43874271856812297 -0.6480921439971058
0.4414143677671035 -0.5274021426789325
0.4432652668949634 -0.40421924673258325
0.44405012362973906 -0.2786627477214905
0.4441928957734815 -0.15029072447280314
0.4460690111113192 -0.021451811757529787
0.2309780755517343 -0.023387936538142938
0.232615088943564 -0.1507079965569485
0.2326672634284272 -0.2786268484057489
0.23301523028910695 -0.4042622212577577
0.23422497947907522 -0.5275706747458837
0.23614936200396394 -0.6483544006579561
0.23864126951096193 -0.7660970836871369
0.24163579838427277 -0.8801772361442481
0.24510590197372012 -0.9899605018035258
0.24904106069832724 -1.0948181922907523
0.25343832483083434 -1.1941278241303723
0.2582972845785315 -1.2872710224535662
0.2636173462290908 -1.3736320387834586
0.2693955695087008 -1.4525973251818005
0.2756240848743933 -1.523555141343357
0.2822887136387423 -1.5858924941247252
0.289376806619607 -1.6389820852738493
0.296907949487438 -1.68214154741692
0.30498043055930124 -1.7145369753461446
0.31374104629987565 -1.7350300719302756
0.32311043521101696 -1.7421737426746238
0.33247982412215843 -1.7350300719302756
0.3412404398627327 -1.7145369753461446
0.34931292093459604 -1.6821415474169197
0.35684406380242695 -1.6389820852738493
0.36393215678329166 -1.5858924941247252
0.37059678554764064 -1.5235551413433568
0.37682530091333305 -1.4525973251817998
0.38260352419294313 -1.3736320387834582
0.3879235858435025 -1.2872710224535657
0.39278254559119957 -1.1941278241303723
0.39717980972370664 -1.094818192290752
0.40111496844831385 -0.9899605018035256
0.4045850720377611 -0.8801772361442478
0.40757960091107204 -0.7660970836871362
0.41007150841807005 -0.6483544006579564
0.4119958909429588 -0.5275706747458835
0.41320564013292693 -0.40426222125775796
0.41355360699360677 -0.2786268484057486
0.41360578147847 -0.1507079965569481
0.4152427948702997 -0.023387936538142973
0.26157307654982787 -0.02500831462430721
0.2629821929597036 -0.1511459203239167
0.2629580543927093 -0.27859641386959255
0.2629428387455445 -0.40424915719699644
0.26355713097552197 -0.5276609682273496
0.2647475527330331 -0.6485279558405976
0.26637571409125893 -0.7663327043863252
0.2683637318478558 -0.8804631614955445
0.270677077368986 -0.9902908756674974
0.2733022760448151 -1.0951905859729663
0.2762353985801348 -1.1945414475620277
0.27947582051675596 -1.2877255381537547
0.2830227503547725 -1.3741267847031753
0.2868725320629412 -1.4531306393239316
0.29101541331216935 -1.524123926647137
0.29543325121076724 -1.5864935093316954
0.3001077541988586 -1.6396189706268436
0.3050597502338594 -1.682841742922054
0.3104216473390317 -1.715369095986905
0.316433702763877 -1.7360717777488242
0.32311043521101696 -1.7433594375980022
0.3297871676581571 -1.7360717777488246
0.33579922308300225 -1.7153690959869048
0.3411611201881747 -1.6828417429220537
0.3461131162231753 -1.6396189706268436
0.3507876192112668 -1.5864935093316952
0.35520545710986456 -1.5241239266471365
0.3593483383590927 -1.453130639323931
0.36319812006726143 -1.374126784703175
0.366745049905278 -1.2877255381537542
0.3699854718418991 -1.1945414475620277
0.3729185943772188 -1.095190585972966
0.3755437930530479 -0.9902908756674971
0.37785713857417813 -0.880463161495544
0.379845156330775 -0.7663327043863246
0.38147331768900083 -0.648527955840598
0.382663739446512 -0.5276609682273495
0.38327803167648944 -0.40424915719699667
0.38326281602932466 -0.27859641386959216
0.38323867746233037 -0.15114592032391627
0.3846477938722061 -0.02500831462430723
0.29200599026898366 -0.026350599510713377
0.2931932278968327 -0.15157737130356513
0.2930891770446964 -0.27857160964185895
0.2927597002277446 -0.40419048763619225
0.2928201028146914 -0.5276784061474464
0.29329347099056297 -0.648614440397774
0.29406276860814007 -0.7664674745009497
0.29504545101900803 -0.8806329598076438
0.2962020383307674 -0.9904890513304777
0.29751699749117627 -1.0954143748731602
0.2989857263219978 -1.194789941666931
0.3006074378249091 -1.287998353080277
0.302381209779823 -1.374423178667211
0.3043029512610239 -1.453448757982228
0.3063617648241208 -1.5244602577168012
0.3085367058629184 -1.586844039757296
0.31080398507317725 -1.6399868159570798
0.3131820909913891 -1.6832579540550234
0.3158326897367073 -1.7159192611567429
0.31909847818387227 -1.7368674942213458
0.32311043521101696 -1.74434140165254
0.3271223922381617 -1.7368674942213458
0.33038818068532666 -1.7159192611567426
0.33303877943064497 -1.6832579540550234
0.33541688534885666 -1.6399868159570796
0.3376841645591155 -1.5868440397572958
0.3398591055979131 -1.5244602577168007
0.34191791916100994 -1.4534487579822273
0.34383966064221083 -1.3744231786672105
0.3456134325971248 -1.2879983530802763
0.34723514410003603 -1.194789941666931
0.34870387293085764 -1.09541437487316
0.3500188320912665 -0.9904890513304774
0.3511754194030259 -0.8806329598076434
0.3521581018138939 -0.7664674745009489
0.352927399431471 -0.6486144403977744
0.35340076760734257 -0.5276784061474463
0.3534611701942893 -0.40419048763619253
0.35313169337733763 -0.27857160964185856
0.35302764252520125 -0.15157737130356472
0.3542148801530503 -0.026350599510713384
0.32233127510825615 -0.02744649710010515
0.32330172727631545 -0.15198262541102722
0.32310593290940764 -0.2785485629870478
0.3224927416650583 -0.404093409858425
0.3220342798020297 -0.5276283222088558
0.32180862181234654 -0.6486159761647406
0.32172527410877844 -0.7665020963018874
0.3217042389703577 -0.8806868260163588
0.32170419441504716 -0.9905550357471902
0.3217086555579479 -1.0954895195681742
0.32171272554956704 -1.194873270928524
0.3217155474482547 -1.2880894567518557
0.32171616076516285 -1.3745212754600007
0.32171035369754475 -1.4535519014076532
0.3216869002573567 -1.5245647127507274
0.32162349708502425 -1.5869451445331897
0.3214912898799543 -1.640086524346173
0.32130137022547894 -1.6833889740184933
0.3212349564204031 -1.7161834935591342
0.3217443944444891 -1.7374184298270627
0.323110435211017 -1.7451353979483912
0.3244764759775447 -1.7374184298270625
0.32498591400163096 -1.716183493559134
0.324919500196555 -1.683388974018493
0.3247295805420796 -1.6400865243461726
0.32459737333700966 -1.5869451445331897
0.32453397016467717 -1.524564712750727
0.32451051672448916 -1.4535519014076528
0.324504709656871 -1.3745212754600002
0.3245053229737792 -1.2880894567518548
0.3245081448724668 -1.194873270928524
0.32451221486408593 -1.095489519568174
0.32451667600698675 -0.99055503574719
0.3245166314516762 -0.8806868260163586
0.32449559631325553 -0.7665020963018867
0.3244122486096874 -0.648615976164741
0.3241865906200042 -0.5276283222088557
0.3237281287569756 -0.4040934098584253
0.3231149375126263 -0.27854856298704744
0.3229191431457185 -0.1519826254110268
0.3238895953137778 -0.027446497100105154
0.35259357692504517 -0.028323451728558185
0.3533534852357121 -0.1523480023064485
0.35305139135174696 -0.2785215347361107
0.35217221018519035 -0.4039624241671957
0.351222915990148 -0.5275154856021866
0.3503155341466197 -0.6485348924883249
0.3493863348375516 -0.7664374008613004
0.3483634434203684 -0.8806249907708089
0.3472069483169428 -0.99048884616157
0.34590066300915856 -1.0954159811687911
0.3444398052552087 -1.1947913983314917
0.3428235552904783 -1.2879988397467907
0.3410510165914432 -1.3744211374637334
0.3391181754240865 -1.4534403072675477
0.33701429638499375 -1.5244379200897493
0.33471742145604566 -1.5867980682269553
0.33219485199383636 -1.6399193320520329
0.3294445361736614 -1.683233288684425
0.3266515932130374 -1.7161552705952627
0.32438087992827286 -1.7377224205439774
0.32311043521101696 -1.745759499120132
0.321839990493761 -1.7377224205439772
0.31956927720899664 -1.7161552705952627
0.31677633424837265 -1.6832332886844246
0.31402601842819766 -1.6399193320520322
0.31150344896598825 -1.5867980682269551
0.3092065740370401 -1.5244379200897487
0.3071026949979474 -1.453440307267547
0.3051698538305906 -1.3744211374637332
0.3033973151315556 -1.28799883974679
0.30178106516682524 -1.1947913983314917
0.30032020741287535 -1.0954159811687911
0.29901392210509115 -0.9904888461615697
0.29785742700166556 -0.8806249907708086
0.2968345355844823 -0.7664374008612997
0.2959053362754142 -0.6485348924883252
0.2949979544318859 -0.5275154856021865
0.2940486602368436 -0.403962424167196
0.293169479070287 -0.27852153473611035
0.2928673851863218 -0.1523480023064481
0.29362729349698885 -0.028323451728558206
0.3828305819395728 -0.029006123773447773
0.38338839974746 -0.1526646113050526
0.38296590999711333 -0.2784842739078357
0.38183013705899677 -0.40380000170615865
0.3804116080274688 -0.5273438675016253
0.37883784433043227 -0.6483734705957418
0.3770693799639685 -0.7662742612920509
0.37504648221694026 -0.880447694061976
0.3727336986681718 -0.9902905011946177
0.370116415661281 -1.095193721246871
0.36719036544146916 -1.1945442867237226
0.3639548617458473 -1.287726492120086
0.3604091649065844 -1.3741228266174488
0.35654976249137366 -1.4531142079179624
0.3523671522277132 -1.5240804970477038
0.34784155639976533 -1.5864041724024915
0.342938970399804 -1.6394869572821555
0.3376392334325388 -1.6827895353449798
0.3321087526800634 -1.7158254701355502
0.32701870255508125 -1.7377728278522766
0.32311043521101696 -1.7462355111395222
0.3192021678669526 -1.7377728278522766
0.31411211774197045 -1.7158254701355502
0.30858163698949514 -1.6827895353449793
0.30328190002222993 -1.639486957282155
0.2983793140222686 -1.5864041724024909
0.29385371819432077 -1.5240804970477035
0.28967110793066014 -1.4531142079179618
0.28581170551544943 -1.3741228266174486
0.2822660086761866 -1.2877264921200855
0.27903050498056475 -1.1945442867237228
0.27610445476075296 -1.095193721246871
0.27348717175386206 -0.9902905011946173
0.27117438820509365 -0.8804476940619756
0.2691514904580654 -0.7662742612920502
0.26738302609160164 -0.6483734705957421
0.2658092623945651 -0.5273438675016251
0.26439073336303714 -0.40380000170615904
0.26325496042492064 -0.27848427390783537
0.262832470674574 -0.15266461130505216
0.26339028848246115 -0.0290061237734478
0.4130746113346683 -0.029517641001566283
0.41344165899125174 -0.15292730385762485
0.4128871344456281 -0.27843085264818906
0.41149942585663696 -0.4036072299600984
0.40962779467863025 -0.5271165808361428
0.4074002463205609 -0.6481337391313042
0.4047981851421799 -0.7660134950873849
0.40177684178762585 -0.8801551552323756
0.39830783766861905 -0.9899600125181668
0.3943792923658061 -1.0948227015304872
0.38998779716578935 -1.1941319002325907
0.3851328632277316 -1.287272401889573
0.3798139691759828 -1.3736263958045054
0.37402837542953477 -1.4525738113967863
0.36776843064197506 -1.5234929878355519
0.3610182165900278 -1.5857648147906949
0.35374659911298484 -1.638791722236262
0.3459135972542086 -1.6820572124134847
0.3376371793537107 -1.7151825631867927
0.3296714994562149 -1.7375567956249407
0.3231104352110169 -1.7465908372159902
0.31654937096581903 -1.7375567956249407
0.3085836910683231 -1.7151825631867927
0.30030727316782535 -1.6820572124134843
0.29247427130904907 -1.6387917222362614
0.285202653832006 -1.5857648147906946
0.27845243978005885 -1.5234929878355514
0.2721924949924991 -1.4525738113967857
0.2664069012460511 -1.373626395804505
0.2610880071943024 -1.2872724018895727
0.2562330732562445 -1.1941319002325907
0.2518415780562278 -1.0948227015304872
0.2479130327534149 -0.9899600125181666
0.24444402863440803 -0.8801551552323752
0.24142268527985405 -0.7660134950873841
0.23882062410147306 -0.6481337391313046
0.23659307574340369 -0.5271165808361428
0.234721444565397 -0.40360722996009873
0.2333337359764059 -0.2784308526481888
0.23277921143078226 -0.1529273038576244
0.23314625908736564 -0.029517641001566314
0.44335334708488033 -0.029880636143932077
0.4435444063403278 -0.15313385216176367
0.44285023861003064 -0.2783562018876167
0.4412134173444418 -0.4033843758566136
0.43890035615400885 -0.5268359049815473
0.43602835603394346 -0.647817318563579
0.4325968462295968 -0.765655770125352
0.42857806488026773 -0.879747542056926
0.42395274488893914 -0.9894973777089209
0.41871265417535636 -1.0943028840350855
0.41285548300926717 -1.1935542058217756
0.4063809550342684 -1.2866365543864224
0.3992887767994146 -1.3729318795051628
0.39157719250943385 -1.451819286163355
0.3832409229050235 -1.5226758165801322
0.37426903880328 -1.5848811623172767
0.3646387212002308 -1.6378365470965182
0.3542953596166171 -1.6810376906796332
0.3432741542457872 -1.7142133460165525
0.33235848804221585 -1.737052566914452
0.32311043521101696 -1.7468608900201963
0.31386238237981806 -1.737052566914452
0.30294671617624663 -1.7142133460165523
0.29192551080541673 -1.681037690679633
0.2815821492218031 -1.6378365470965175
0.27195183161875386 -1.5848811623172765
0.26297994751701037 -1.5226758165801315
0.2546436779126 -1.4518192861633543
0.2469320936226193 -1.3729318795051626
0.23983991538776553 -1.2866365543864222
0.23336538741276674 -1.1935542058217756
0.22750821624667755 -1.0943028840350855
0.22226812553309477 -0.9894973777089205
0.2176428055417661 -0.8797475420569257
0.21362402419243706 -0.7656557701253512
0.21019251438809047 -0.6478173185635795
0.20732051426802506 -0.5268359049815472
0.2050074530775921 -0.4033843758566139
0.2033706318120033 -0.27835620188761645
0.20267646408170614 -0.15313385216176326
0.20286752333715366 -0.029880636143932104
0.47368986445573164 -0.030118084911467537
0.4737239777461387 -0.15328435438624102
0.4728883311675442 -0.27825651121151534
0.4710058328809124 -0.4031313439701483
0.4682593233333188 -0.526503327215772
0.46474852028235225 -0.6474253024736072
0.46048970864267896 -0.7652015242805952
0.45547372537492214 -0.8792249429673806
0.4496917779448089 -0.9889025750498043
0.4431398430069433 -1.0936342321806896
0.43581679844875393 -1.1928111748754853
0.4277225334964964 -1.285818933253182
0.41885693626405646 -1.3720392852436136
0.40921931656942134 -1.4508507430063289
0.39880728903484525 -1.5216292777791731
0.38761528742156864 -1.583753960198372
0.37563374703863817 -1.6366246365205086
0.36280967607136333 -1.6797355051493714
0.3490655947600961 -1.7129047819052323
0.3351095653382978 -1.7362254482026163
0.32311043521101696 -1.7470920570629611
0.311111305083736 -1.7362254482026163
0.2971552756619377 -1.712904781905232
0.28341119435067047 -1.679735505149371
0.2705871233833957 -1.6366246365205082
0.25860558300046527 -1.583753960198372
0.24741358138718855 -1.5216292777791725
0.2370015538526125 -1.4508507430063282
0.22736393415797748 -1.3720392852436134
0.2184983369255376 -1.2858189332531815
0.21040407197327998 -1.1928111748754853
0.20308102741509057 -1.0936342321806891
0.19652909247722503 -0.988902575049804
0.1907471450471117 -0.8792249429673804
0.18573116177935495 -0.7652015242805944
0.1814723501396817 -0.6474253024736075
0.1779615470887151 -0.526503327215772
0.17521503754112155 -0.4031313439701487
0.17333253925448977 -0.27825651121151507
0.17249689267589519 -0.15328435438624063
0.17253100596630236 -0.030118084911467558
0.5041019867740346 -0.030253940470573167
0.5040037711303686 -0.1533808878751082
0.5030330747604481 -0.27812961869334213
0.5009110402656133 -0.40284801108783314
0.49773566471954633 -0.5261195478602012
0.4935875845514068 -0.6469581643059014
0.48850126138196354 -0.7646509049513258
0.48248739016749115 -0.8785873463736288
0.47554826085523305 -0.9881755612746548
0.4676841798849105 -1.0928167133358249
0.4588951150949077 -1.1919027848748887
0.4491809965467624 -1.2848195221455443
0.43854181576797485 -1.370948592420292
0.426977819234553 -1.449668200775791
0.4144899914593721 -1.520353570453068
0.40107837516859424 -1.582383374193456
0.38674755722088855 -1.6351585922112513
0.37147477272118345 -1.678159645365288
0.35506726486136647 -1.7112480595010227
0.33797545357434566 -1.7350219351513692
0.32311043521101696 -1.747344842551911
0.3082454168476882 -1.735021935151369
0.2911536055606673 -1.7112480595010227
0.27474609770085034 -1.6781596453652876
0.2594733132011453 -1.6351585922112506
0.24514249525343965 -1.5823833741934559
0.23173087896266178 -1.520353570453067
0.2192430511874808 -1.4496682007757906
0.20767905465405903 -1.3709485924202915
0.1970398738752715 -1.2848195221455438
0.18732575532712623 -1.1919027848748884
0.17853669053712337 -1.0928167133358246
0.1706726095668009 -0.9881755612746544
0.16373348025454273 -0.8785873463736286
0.15771960904007037 -0.7646509049513251
0.1526332858706272 -0.6469581643059017
0.1484852057024876 -0.5261195478602011
0.1453098301564207 -0.4028480110878335
0.14318779566158585 -0.2781296186933418
0.14221709929166523 -0.15338088787510779
0.14211888364799932 -0.030253940470573205
0.5346008100691861 -0.03031352279430195
0.5344027914444324 -0.15342749177333787
0.533315695287641 -0.2779754896954399
0.5309646008656657 -0.40253439452140416
0.5273610818964596 -0.5256844089887744
0.5225726271547443 -0.6464156855730919
0.5166560063378398 -0.7640037319315083
0.5096425697569029 -0.8778346302973364
0.5015454714811715 -0.987316273503557
0.4923689634941605 -1.091850302494872
0.48211380350985306 -1.1908290228901577
0.47077975235299097 -1.2836383023607916
0.45836679220747745 -1.3696597679237328
0.44487587602856227 -1.4482715393629622
0.43031113055741727 -1.518848796102397
0.414680127741531 -1.5807691966337647
0.3979956496411853 -1.6334387334475307
0.3802946689255985 -1.6763237646111988
0.3613411959644598 -1.7092470106473876
0.34104919982354465 -1.7333617295113553
0.32311043521101696 -1.747695595650629
0.3051716705984892 -1.733361729511355
0.28487967445757395 -1.7092470106473876
0.26592620149643525 -1.6763237646111984
0.24822522078084866 -1.6334387334475302
0.23154074268050281 -1.5807691966337643
0.21590973986461662 -1.5188487961023966
0.20134499439347156 -1.4482715393629615
0.18785407821455644 -1.3696597679237326
0.17544111806904292 -1.2836383023607911
0.16410706691218085 -1.1908290228901575
0.15385190692787346 -1.0918503024948718
0.14467539894086243 -0.9873162735035569
0.13657830066513105 -0.8778346302973361
0.12956486408419413 -0.7640037319315076
0.12364824326728967 -0.6464156855730924
0.11885978852557434 -0.5256844089887742
0.11525626955636835 -0.40253439452140455
0.11290517513439288 -0.27797548969543956
0.11181807897760156 -0.15342749177333745
0.11162006035284774 -0.030313522794301974
0.5651879918667138 -0.030323557264358928
0.5649349374492336 -0.15343068299416912
0.5637687615376605 -0.27779685005984195
0.5612040000432136 -0.40219055593108083
0.5571677130690214 -0.5251967290890796
0.5517306769554235 -0.6457969117583889
0.5449783085535174 -0.7632594836569231
0.5369626620449374 -0.87696656520847
0.5277066286404956 -0.9863246367934495
0.5172174731438233 -1.0907349857624866
0.5054962270304411 -1.1895898926817745
0.49254224945575287 -1.2822752478701018
0.4783552111952266 -1.3681727755199489
0.4629368628843308 -1.4466605425027041
0.4462927686475664 -1.5171146507807443
0.4284412026893705 -1.5789117799753876
0.40939939638610373 -1.631461231477058
0.3892517865549205 -1.6742419408591978
0.3679335499498051 -1.7069349514066394
0.34451537855284065 -1.7311288552226547
0.32311043521101696 -1.7482314517685669
0.30170549186919315 -1.7311288552226545
0.27828732047222865 -1.706934951406639
0.25696908386711326 -1.6742419408591973
0.23682147403593015 -1.6314612314770576
0.2177796677326633 -1.5789117799753871
0.19992810177446743 -1.5171146507807436
0.18328400753770305 -1.4466605425027033
0.1678656592268072 -1.3681727755199484
0.15367862096628107 -1.2822752478701014
0.14072464339159282 -1.1895898926817743
0.12900339727821067 -1.0907349857624862
0.11851424178153841 -0.9863246367934493
0.10925820837709663 -0.8769665652084698
0.10124256186851659 -0.7632594836569225
0.09449019346661033 -0.6457969117583893
0.08905315735301263 -0.5251967290890794
0.08501687037882036 -0.4021905559310811
0.08245210888437339 -0.2777968500598416
0.08128593297280028 -0.15343068299416868
0.08103287855532022 -0.03032355726435895
0.5958509191868006 -0.030311647677838068
0.5956082004415355 -0.15340095918877197
0.5944295168818167 -0.2775999540414525
0.5916691918093262 -0.40181604312741875
0.5871876846334797 -0.5246540878315321
0.5810884435176812 -0.6451001410283321
0.5734922207237728 -0.7624173047150484
0.5644708995314651 -0.8759828347787222
0.5540548823404149 -0.9852005748308903
0.5422529661973671 -1.089470770084484
0.5290657631264148 -1.1881854061396206
0.5144919137484865 -1.2807303694630496
0.49853063812489506 -1.3664874582074116
0.4811836349828017 -1.444835240736472
0.46245915893868494 -1.515149714197884
0.4423766351847813 -1.57681268158831
0.420991368664203 -1.6292207447950844
0.39832369032748854 -1.6719102684508105
0.37478434696670293 -1.704407000989925
0.3487738735340573 -1.7281696412759946
0.32311043521101696 -1.74902088296868
0.2974469968879765 -1.7281696412759944
0.2714365234553307 -1.7044070009899248
0.24789718009454514 -1.67191026845081
0.22522950175783085 -1.6292207447950837
0.2038442352372525 -1.5768126815883095
0.18376171148334883 -1.5151497141978834
0.16503723543923215 -1.444835240736471
0.14769023229713876 -1.3664874582074114
0.13172895667354745 -1.2807303694630492
0.11715510729561897 -1.1881854061396202
0.1039679042246668 -1.0894707700844837
0.09216598808161909 -0.9852005748308902
0.08174997089056889 -0.8759828347787221
0.07272864969826112 -0.7624173047150478
0.06513242690435274 -0.6451001410283325
0.05903318578855419 -0.5246540878315321
0.05455167861270775 -0.40181604312741903
0.051791353540217244 -0.2775999540414522
0.0506126699804984 -0.15340095918877153
0.05036995123523337 -0.030311647677838113
0.6265539160759193 -0.03030475554259543
0.6264241686637284 -0.1533562860751699
0.6253465308590119 -0.27739520413412155
0.6224015827854615 -0.4014085194716386
0.6174529334720287 -0.524052781896017
0.6106719164453633 -0.6443228786726408
0.6022213292974283 -0.7614760620838591
0.5921902974597557 -0.8748830675472278
0.580613307641711 -0.9839440289070559
0.5674986863990192 -1.088057685520513
0.552845788158983 -1.186615604958489
0.5366522338456471 -1.279003648595716
0.5189165246586573 -1.3646038162124532
0.4996399671835116 -1.4427949518766379
0.4788314371438466 -1.512954809572503
0.45651549488184634 -1.5744641801240444
0.4327528830938503 -1.626738632847027
0.4076570656109974 -1.6692475929675206
0.3813812779939774 -1.7018759924949851
0.3547880747721555 -1.724332565567973
0.32311043521101696 -1.75
0.2914327956498782 -1.724332565567973
0.26483959242805616 -1.7018759924949847
0.23856380481103628 -1.6692475929675201
0.21346798732818362 -1.6267386328470266
0.18970537554018757 -1.5744641801240442
0.1673894332781872 -1.5129548095725023
0.14658090323852227 -1.4427949518766372
0.12730434576337654 -1.364603816212453
0.10956863657638671 -1.2790036485957152
0.09337508226305098 -1.1866156049584888
0.07872218402301463 -1.0880576855205126
0.06560756278032295 -0.9839440289070558
0.05403057296227825 -0.8748830675472274
0.043999541124605586 -0.7614760620838585
0.03554895397667054 -0.6443228786726412
0.028767936950005103 -0.524052781896017
0.023819287636572335 -0.40140851947163886
0.020874339563022006 -0.27739520413412133
0.01979670175830561 -0.15335628607516946
0.019666954346114675 -0.030304755542595478
SCALARS Stress float 6
LOOKUP_TABLE default
-357.6972180906038 -11380.746726012694 -3521.5331832309894 -264.41679721765524 0.0 0.0
5390.383955562763 3185.3829581197906 2572.730074104766 -410.7272816454794 0.0 0.0
3064.8759100093753 -271.8325117805474 837.9130194686484 -175.6634219605252 0.0 0.0
3136.128530554499 238.7514114176402 1012.4639825916422 -26.162748979162636 0.0 0.0
3600.6515509878873 86.87241406588753 1106.2571895161327 -60.297630099250455 0.0 0.0
4333.8361902222205 122.74984960301765 1336.975811947571 -62.13440806521472 0.0 0.0
5143.297639333632 133.75102921320484 1583.1146005640517 -65.88599129582883 0.0 0.0
5990.534977514947 155.78073018812907 1843.8947123109226 -67.31353282332968 0.0 0.0
6847.658860106243 177.45304511524645 2107.533571566446 -67.82115803552415 0.0 0.0
7706.69512653916 199.83890521103612 2371.9602095250584 -67.95327489127283 0.0 0.0
8564.76916576207 222.15837141296043 2636.0782611525087 -67.95326659787132 0.0 0.0
9421.785806515602 244.46542511374292 2899.8753694888032 -67.96831566284398 0.0 0.0
10278.878616859254 266.8501709076051 3163.7186363300575 -68.10069453378408 0.0 0.0
11139.146785591618 289.626730646932 3428.6320548715667 -68.49066969820602 0.0 0.0
12009.39834878902 313.3341537009326 3696.819750746986 -69.28910656532636 0.0 0.0
12901.137678900632 338.52955672569976 3971.9001706879003 -70.42140453518644 0.0 0.0
13825.528836655296 364.91433759349525 4257.132952274639 -70.93414206819831 0.0 0.0
14773.236094861422 389.70190449940424 4548.881399808248 -67.99387429278714 0.0 0.0
15674.245101359711 406.7209640287959 4824.289819616551 -56.71241476428234 0.0 0.0
16363.302033445143 410.86876124375806 5032.25123840667 -33.176330918094806 0.0 0.0
16627.25046312956 408.5314488477062 5110.734573593179 -5.343281372915953e-12 0.0 0.0
16363.302033444834 410.86876124303586 5032.251238406363 33.17633091806357 0.0 0.0
15674.245101359285 406.7209640278897 4824.289819616153 56.712414764299496 0.0 0.0
14773.236094861571 389.7019044998143 4548.881399808416 67.99387429278292 0.0 0.0
13825.528836655154 364.9143375931591 4257.132952274497 70.93414206815291 0.0 0.0
12901.137678901017 338.5295567265982 3971.900170688285 70.42140453520685 0.0 0.0
12009.398348789047 313.33415370085703 3696.8197507469704 69.28910656529078 0.0 0.0
11139.146785592307 289.62673064855886 3428.63205487226 68.49066969833362 0.0 0.0
10278.878616858905 266.85017090690127 3163.7186363297424 68.1006945337381 0.0 0.0
9421.785806515416 244.46542511345035 2899.8753694886605 67.96831566273062 0.0 0.0
8564.769165761933 222.1583714127679 2636.07826115241 67.9532665978534 0.0 0.0
7706.6951265390835 199.83890521096896 2371.9602095250157 67.95327489124898 0.0 0.0
6847.6588601064595 177.45304511568713 2107.5335715666447 67.82115803561456 0.0 0.0
5990.534977515075 155.78073018831805 1843.8947123110179 67.3135328233168 0.0 0.0
5143.297639333781 133.75102921361042 1583.1146005642174 65.88599129584068 0.0 0.0
4333.836190222155 122.74984960287603 1336.9758119475086 62.13440806535711 0.0 0.0
3600.6515509877036 86.87241406548551 1106.2571895159565 60.297630099363985 0.0 0.0
3136.128530554518 238.75141141771698 1012.4639825916705 26.16274897911027 0.0 0.0
3064.875910009412 -271.8325117805486 837.9130194686593 175.6634219605688 0.0 0.0
5390.383955562793 3185.382958119811 2572.730074104782 410.7272816454597 0.0 0.0
-357.6972180906693 -11380.746726012763 -3521.533183231031 264.4167972176246 0.0 0.0
-2031.050450813707 -11306.20979745712 -4001.178074481249 -180.69491946140423 0.0 0.0
3315.269437539542 2179.3804574651544 1648.3949685014093 -327.47902068739097 0.0 0.0
2155.034094997688 -305.842294815342 554.7575400547037 -122.78202961831417 0.0 0.0
2797.2267469009284 108.13682788050916 871.6090724344314 -101.62701447514911 0.0 0.0
3201.1896361103218 13.425687183671025 964.3845969881982 -146.52513135099477 0.0 0.0
3866.1500393882043 10.686129373661505 1163.0508506285596 -165.98499866159943 0.0 0.0
4583.771575312312 3.573335672409949 1376.2034732954164 -174.70978205159938 0.0 0.0
5334.707329013161 1.0921550484710196 1600.7398452184896 -178.28143694823106 0.0 0.0
6095.713524557141 0.11416506881276273 1828.7483068877864 -179.2619877224425 0.0 0.0
6859.322692911174 -0.14573813716980077 2057.7530864322007 -179.36237365256147 0.0 0.0
7622.74507824732 -0.1475040416991189 2286.7792722616864 -179.22563535212015 0.0 0.0
8385.640256120314 -0.022609608322238017 2515.6852939535975 -179.15843622273738 0.0 0.0
9148.947453594817 0.31434640289630433 2744.778539999315 -179.40688735703574 0.0 0.0
9915.262884412687 1.1129239015062904 2974.912742494259 -180.40593891287415 0.0 0.0
10689.872371066822 2.615148953415191 3207.7462560060726 -182.83787697852432 0.0 0.0
11480.675479683987 4.439191406870503 3445.534401327258 -187.14582664192457 0.0 0.0
12292.660522050324 4.246245033637106 3689.072030125187 -191.75024187080209 0.0 0.0
13110.433701994249 -3.6548039761873987 3932.033669405419 -189.57144439430786 0.0 0.0
13868.038621115411 -26.511447438001422 4152.458152103223 -165.25074540249403 0.0 0.0
14430.611820939595 -62.13284642620081 4310.54369235402 -101.2673726706769 0.0 0.0
14641.117875886497 -83.61992286387988 4367.2493859067845 3.568345618987223e-11 0.0 0.0
14430.611820939599 -62.13284642624151 4310.543692354006 101.2673726706888 0.0 0.0
13868.03862111526 -26.511447438335885 4152.458152103077 165.2507454025241 0.0 0.0
13110.43370199458 -3.654803975360849 3932.0336694057664 189.5714443943196 0.0 0.0
12292.66052205027 4.246245033538152 3689.0720301251417 191.75024187073467 0.0 0.0
11480.675479684165 4.439191407280539 3445.534401327435 187.14582664192025 0.0 0.0
10689.872371066796 2.615148953261567 3207.7462560060176 182.8378769785618 0.0 0.0
9915.262884412834 1.1129239019143355 2974.9127424944254 180.40593891285317 0.0 0.0
9148.947453594568 0.31434640240800604 2744.778539999094 179.40688735691734 0.0 0.0
8385.640256120249 -0.022609608431992 2515.685293953545 179.1584362227755 0.0 0.0
7622.745078247435 -0.14750404145556217 2286.779272261795 179.2256353521734 0.0 0.0
6859.322692911034 -0.14573813758993737 2057.7530864320333 179.36237365256966 0.0 0.0
6095.713524557209 0.11416506894688894 1828.748306887847 179.26198772241474 0.0 0.0
5334.707329013094 1.092155048352577 1600.7398452184336 178.28143694824914 0.0 0.0
4583.771575312378 3.5733356726169028 1376.2034732954987 174.7097820516221 0.0 0.0
3866.15003938811 10.686129373465988 1163.0508506284727 165.98499866170067 0.0 0.0
3201.1896361102595 13.425687183466247 964.3845969881179 146.52513135110004 0.0 0.0
2797.2267469009166 108.136827880516 871.6090724344299 101.62701447508383 0.0 0.0
2155.0340949976394 -305.8422948153876 554.7575400546755 122.78202961831079 0.0 0.0
3315.269437539561 2179.38045746522 1648.3949685014343 327.47902068739995 0.0 0.0
-2031.0504508137633 -11306.209797457188 -4001.1780744812863 180.69491946144396 0.0 0.0
-2222.379798332331 -9895.843589526612 -3635.4670163576834 -832.181561939146 0.0 0.0
2096.6447525606923 1313.8698024392609 1023.1543664999858 -592.1867016967021 0.0 0.0
1598.2441838731145 54.79956950430854 495.91312601322704 -83.25823091713481 0.0 0.0
2333.9600140953653 17.711775647196895 705.5015369227685 -234.43743865943367 0.0 0.0
2848.3043001573355 41.76614965744791 867.0211349444353 -291.75208692907086 0.0 0.0
3431.71484802086 10.391939926658758 1032.6320363842556 -334.3750669177699 0.0 0.0
4078.118417806282 5.676054964866765 1225.1383418313446 -351.03424687168683 0.0 0.0
4743.892558972512 1.4079338686264746 1423.5901478523415 -357.7666629782681 0.0 0.0
5419.616884789504 0.16564872011210774 1625.9347600528847 -359.5754178343833 0.0 0.0
6097.718313651541 -0.21082679166456764 1829.2522460579637 -359.68003870428475 0.0 0.0
6776.0849680791 -0.20960564774382728 2032.7626087294068 -359.3708485624188 0.0 0.0
7454.2584132110305 -0.03757214268449616 2236.2662523205045 -359.20406499825447 0.0 0.0
8132.940146073986 0.427291813933369 2440.010231366375 -359.64806556401805 0.0 0.0
8814.092297870946 1.5459483461359405 2644.691473865126 -361.56572428247364 0.0 0.0
9501.530292646696 3.7034259380495156 2851.5701155754227 -366.3853453173793 0.0 0.0
10200.466634212913 6.443493017312406 3062.0730381690673 -375.22645134814474 0.0 0.0
10912.588375114936 6.460162936649679 3275.7145614154756 -385.4058763804947 0.0 0.0
11621.662685892223 -4.775634076580861 3485.0661155446933 -383.2000025944471 0.0 0.0
12269.54840542682 -39.1422084658686 3669.1218590882863 -337.09511048461786 0.0 0.0
12743.186585979134 -95.60058027833333 3794.2758017102396 -208.6500005508894 0.0 0.0
12917.125459825813 -131.78222825082315 3835.6029694724975 2.913225216616411e-11 0.0 0.0
12743.186585978978 -95.60058027864356 3794.2758017101014 208.65000055091153 0.0 0.0
12269.548405426862 -39.14220846581653 3669.1218590883145 337.09511048459643 0.0 0.0
11621.662685892416 -4.775634076091187 3485.0661155448975 383.20000259450705 0.0 0.0
10912.588375114741 6.460162936139241 3275.714561415264 385.4058763804268 0.0 0.0
10200.46663421289 6.44349301723836 3062.073038169039 375.2264513481028 0.0 0.0
9501.530292646878 3.7034259384229173 2851.5701155755905 366.3853453173832 0.0 0.0
8814.092297870602 1.5459483453074583 2644.691473864773 361.5657242824168 0.0 0.0
8132.940146074151 0.4272918142825475 2440.0102313665307 359.6480655639638 0.0 0.0
7454.258413211104 -0.03757214248001972 2236.2662523205872 359.20406499834235 0.0 0.0
6776.084968079015 -0.20960564788895653 2032.7626087293381 359.37084856248623 0.0 0.0
6097.7183136516 -0.21082679157823847 1829.2522460580067 359.68003870428674 0.0 0.0
5419.616884789446 0.16564871994037134 1625.9347600528163 359.5754178343876 0.0 0.0
4743.892558972523 1.4079338686414822 1423.5901478523497 357.76666297825955 0.0 0.0
4078.118417806312 5.676054964848083 1225.1383418313476 351.03424687168575 0.0 0.0
3431.7148480210008 10.391939926924485 1032.6320363843774 334.3750669177473 0.0 0.0
2848.304300157193 41.76614965719593 867.0211349443167 291.75208692913 0.0 0.0
2333.9600140953876 17.71177564724441 705.5015369227896 234.43743865939507 0.0 0.0
1598.2441838731609 54.799569504386795 495.91312601326433 83.25823091704086 0.0 0.0
2096.644752560709 1313.8698024392502 1023.154366499988 592.1867016967451 0.0 0.0
-2222.3797983322484 -9895.843589526583 -3635.4670163576507 832.1815619391684 0.0 0.0
-2042.2887825933865 -8506.895833930614 -3164.7553849572005 -1038.8810371657923 0.0 0.0
1308.8839207564492 534.7078753711937 553.077538838293 -810.9823865349193 0.0 0.0
1168.3442671653359 253.06767630910167 426.4235830423313 -246.75821274012966 0.0 0.0
1888.3957288357183 36.26911732958557 577.3994538495913 -338.9022426875501 0.0 0.0
2462.618418440293 44.94157838748668 752.2679990483341 -434.0084416958179 0.0 0.0
2997.6167221772225 19.841298013454004 905.2374060572031 -482.6998000251215 0.0 0.0
3567.8552586293727 7.069632188783796 1072.477467245447 -506.96679831049215 0.0 0.0
4152.41662496356 2.290694224231325 1246.4121957563377 -515.8677189017214 0.0 0.0
4743.144890265726 0.16708231179968758 1422.993591773257 -518.4996285985557 0.0 0.0
5336.122831840199 -0.31237858268212815 1600.7431359772552 -518.6906872319486 0.0 0.0
5929.455304665121 -0.31733878847543906 1778.7413897629938 -518.3059364752335 0.0 0.0
6522.824541839254 -0.06538626209171916 1956.8277466731492 -518.1032418097461 0.0 0.0
7116.6362794101005 0.6089165772048322 2135.173558796192 -518.729075792455 0.0 0.0
7712.140371258856 2.255040527923846 2314.3186235360345 -521.3423963281739 0.0 0.0
8311.707784680582 5.500203353829503 2495.1623964103223 -527.8447781103222 0.0 0.0
8918.431970332835 9.785971199991 2678.465382459847 -539.7015517122115 0.0 0.0
9532.492378323857 10.22809177097535 2862.8161410284506 -553.1524174291302 0.0 0.0
10139.988859822106 -6.475667339270029 3040.0539577448512 -549.0448910450309 0.0 0.0
10692.553286146554 -60.065053352900414 3189.7464698380945 -482.85744930367366 0.0 0.0
11093.812389182722 -151.0457234155985 3282.829999730136 -299.20985961363 0.0 0.0
11238.300275543585 -210.83234655026496 3308.2403786979967 -1.4651391211373266e-11 0.0 0.0
11093.812389182445 -151.0457234161832 3282.8299997298786 299.20985961364426 0.0 0.0
10692.553286146438 -60.065053353106286 3189.746469838001 482.8574493036879 0.0 0.0
10139.988859822151 -6.475667339137331 3040.0539577449053 549.0448910450185 0.0 0.0
9532.492378323737 10.228091770695464 2862.8161410283296 553.152417429068 0.0 0.0
8918.43197033295 9.785971200259695 2678.4653824599623 539.7015517122509 0.0 0.0
8311.707784680759 5.500203354220915 2495.1623964104942 527.8447781103184 0.0 0.0
7712.140371258693 2.2550405275832084 2314.3186235358835 521.3423963282289 0.0 0.0
7116.636279410188 0.6089165774157479 2135.173558796281 518.7290757924586 0.0 0.0
6522.824541839294 -0.06538626198736353 1956.8277466731913 518.1032418096727 0.0 0.0
5929.455304664987 -0.3173387887086463 1778.741389762883 518.305936475281 0.0 0.0
5336.122831840243 -0.3123785826499983 1600.7431359772775 518.690687231925 0.0 0.0
4743.144890265756 0.1670823117892013 1422.993591773264 518.4996285985293 0.0 0.0
4152.41662496372 2.290694224612718 1246.4121957565 515.8677189017144 0.0 0.0
3567.855258629334 7.069632188667416 1072.4774672454007 506.966798310597 0.0 0.0
2997.6167221772916 19.841298013584744 905.2374060572629 482.6998000250242 0.0 0.0
2462.618418440289 44.941578387488356 752.2679990483332 434.008441695807 0.0 0.0
1888.3957288356464 36.26911732953193 577.3994538495537 338.90224268759005 0.0 0.0
1168.3442671653893 253.06767630922883 426.4235830423855 246.7582127400462 0.0 0.0
1308.8839207564479 534.7078753711336 553.0775388382747 810.9823865348706 0.0 0.0
-2042.2887825934097 -8506.895833930597 -3164.755384957202 1038.8810371657673 0.0 0.0
-1750.2830993757748 -7241.94839174928 -2697.6694473375164 -1062.5908203157946 0.0 0.0
795.3102923254596 -65.85909763778845 218.83535840630134 -958.9716722991484 0.0 0.0
833.2143552217913 315.7465893958635 344.6882833852964 -467.5658269202995 0.0 0.0
1482.686711804236 88.78428123065106 471.4412979104661 -462.45870357889714 0.0 0.0
2064.295031937512 53.084076425632404 635.2137325089432 -560.9433625427746 0.0 0.0
2559.209872147748 28.11760688465474 776.1982437097206 -615.1623713750705 0.0 0.0
3055.9560879164524 10.238894919330544 919.8584948507352 -642.2373082673021 0.0 0.0
3559.7848365993646 3.054898527047915 1068.8519205379241 -652.957708340217 0.0 0.0
4066.4413604253227 0.28329922033044674 1220.0173978936964 -656.0869899361824 0.0 0.0
4574.445839068637 -0.4543133275862896 1372.197457722315 -656.4204730532816 0.0 0.0
5082.822032915537 -0.44373809455824365 1524.713488446294 -656.0241678786526 0.0 0.0
5591.32043799982 -0.0956461278873082 1677.3674375615801 -655.8283244444935 0.0 0.0
6100.089371214584 0.8465760717253801 1830.2807841858933 -656.5841055917782 0.0 0.0
6609.633452952795 3.1540373749181665 1983.8362470983136 -659.6089623143322 0.0 0.0
7120.967251052247 7.753186804152055 2138.61613135692 -667.0410000083193 0.0 0.0
7635.570205009892 13.963617643130386 2294.860146795907 -680.5168102243081 0.0 0.0
8153.520604103758 14.900560433199217 2450.526349361088 -695.5921418585277 0.0 0.0
8665.585423508028 -8.967622528465657 2596.985340293869 -689.3455616097164 0.0 0.0
9134.364258703059 -87.88425338022668 2713.9440015968503 -607.0284826248309 0.0 0.0
9475.882278857476 -224.8478857555143 2775.310317930589 -377.6358285567517 0.0 0.0
9595.769024892132 -316.8103980586827 2783.6875880500356 -3.2741809263825417e-11 0.0 0.0
9475.882278857642 -224.8478857551188 2775.3103179307573 377.6358285567294 0.0 0.0
9134.364258702899 -87.88425338053088 2713.9440015967107 607.028482624853 0.0 0.0
8665.585423508115 -8.967622528199918 2596.985340293974 689.345561609702 0.0 0.0
8153.520604103933 14.900560433624108 2450.5263493612665 695.5921418584832 0.0 0.0
7635.570205010037 13.963617643466765 2294.8601467960507 680.5168102242992 0.0 0.0
7120.967251052227 7.7531868040584015 2138.616131356885 667.0410000082534 0.0 0.0
6609.633452952727 3.1540373747276647 1983.8362470982363 659.6089623143379 0.0 0.0
6100.0893712144325 0.8465760713777044 1830.280784185743 656.5841055917754 0.0 0.0
5591.320437999763 -0.09564612795363558 1677.3674375615435 655.8283244444463 0.0 0.0
5082.822032915632 -0.4437380942995617 1524.7134884464 656.0241678786927 0.0 0.0
4574.445839068476 -0.45431332797317836 1372.1974577221508 656.420473053245 0.0 0.0
4066.441360425373 0.2832992204922782 1220.0173978937598 656.0869899361596 0.0 0.0
3559.7848365993486 3.054898526964294 1068.8519205378943 652.957708340242 0.0 0.0
3055.9560879165665 10.238894919567969 919.8584948508404 642.2373082673427 0.0 0.0
2559.2098721475954 28.117606884309737 776.1982437095717 615.1623713750473 0.0 0.0
2064.2950319375923 53.08407642579035 635.2137325090147 560.9433625427829 0.0 0.0
1482.6867118041737 88.78428123055386 471.4412979104184 462.4587035789268 0.0 0.0
833.2143552218224 315.7465893959493 344.68828338533154 467.56582692031213 0.0 0.0
795.3102923254518 -65.85909763774268 218.83535840631274 958.971672299066 0.0 0.0
-1750.2830993758512 -7241.948391749315 -2697.66944733755 1062.5908203157808 0.0 0.0
-1449.935745262759 -6127.431730382585 -2273.210242693603 -1013.750725783259 0.0 0.0
456.93678282776057 -486.92422753196973 -8.996233411262757 -1046.4336965943912 0.0 0.0
567.6614145551647 293.313776778735 258.2925574001699 -681.1931218610815 0.0 0.0
1120.2833504573825 138.0708032174719 377.5062461024563 -600.5810380461369 0.0 0.0
1667.3352072096461 68.71644624866684 520.8154960374939 -676.1884296255802 0.0 0.0
2117.4753447556213 35.58488122252326 645.9180677934437 -730.4835462220714 0.0 0.0
2543.0339021891086 13.931808277310408 767.089713139926 -757.7263034157518 0.0 0.0
2966.395911763969 4.006600822774912 891.1207537760234 -769.0371465341705 0.0 0.0
3389.440138050499 0.398550901477412 1016.9516066855932 -772.4495557244337 0.0 0.0
3812.678661482826 -0.5844131197374214 1143.6282745089268 -772.8815378616033 0.0 0.0
4236.1440300515815 -0.5796538166061378 1270.6693128704926 -772.525633669036 0.0 0.0
4659.742258173018 -0.11996356571516031 1397.8866883821904 -772.3580244345337 0.0 0.0
5083.366457305299 1.1166815036480102 1525.3449416426838 -773.1682429302923 0.0 0.0
5506.809006171741 4.14140662803301 1653.285123839932 -776.2932287882838 0.0 0.0
5929.843658484193 10.200635987038662 1782.0132883413694 -783.9049394279089 0.0 0.0
6352.727427343176 18.517526820854982 1911.3734862492095 -797.7444340558445 0.0 0.0
6776.420173253499 20.047125243435243 2038.9401895490805 -813.3264615356401 0.0 0.0
7198.021525922009 -11.915476180222576 2155.8318149225365 -805.9343034814584 0.0 0.0
7592.072390955857 -120.5490448268568 2241.457003838701 -713.078005185901 0.0 0.0
7883.5633322276835 -313.86624233799904 2270.909126966905 -447.4341071165523 0.0 0.0
7981.83734936609 -447.64445634623206 2260.257867905958 9.86233317235019e-12 0.0 0.0
7883.563332227874 -313.866242337557 2270.9091269670957 447.43410711655565 0.0 0.0
7592.072390955929 -120.54904482661182 2241.457003838795 713.0780051858211 0.0 0.0
7198.021525921761 -11.915476180715714 2155.8318149223137 805.93430348151 0.0 0.0
6776.420173253498 20.04712524343398 2038.9401895490803 813.3264615356676 0.0 0.0
6352.727427343096 18.51752682070017 1911.373486249139 797.7444340558899 0.0 0.0
5929.843658484159 10.200635986958968 1782.0132883413362 783.9049394279514 0.0 0.0
5506.809006171268 4.141406626906086 1653.2851238394524 776.2932287882929 0.0 0.0
5083.366457305385 1.1166815038631697 1525.3449416427748 773.1682429303017 0.0 0.0
4659.742258173205 -0.11996356527698282 1397.886688382378 772.3580244345492 0.0 0.0
4236.144030051524 -0.5796538166842424 1270.6693128704524 772.5256336690381 0.0 0.0
3812.678661482862 -0.5844131196363413 1143.6282745089675 772.8815378615826 0.0 0.0
3389.440138050696 0.3985509019391138 1016.9516066857908 772.4495557244289 0.0 0.0
2966.3959117637964 4.006600822366567 891.1207537758488 769.0371465342539 0.0 0.0
2543.0339021892123 13.931808277541482 767.0897131400262 757.726303415709 0.0 0.0
2117.4753447555254 35.58488122230063 645.9180677933477 730.483546222084 0.0 0.0
1667.3352072096397 68.71644624862347 520.815496037479 676.188429625528 0.0 0.0
1120.283350457453 138.0708032176033 377.50624610251685 600.5810380461648 0.0 0.0
567.6614145551409 293.31377677873525 258.2925574001629 681.1931218610881 0.0 0.0
456.9367828277622 -486.92422753193557 -8.996233411252035 1046.4336965943894 0.0 0.0
-1449.9357452627194 -6127.431730382601 -2273.2102426935967 1013.750725783246 0.0 0.0
-1179.573654809204 -5157.614602039015 -1901.156477054466 -939.8964255948284 0.0 0.0
230.4546994761694 -756.4310099274961 -157.79289313539803 -1088.6571697655486 0.0 0.0
352.3890597761496 227.6072429916623 173.99889083034356 -861.564892924826 0.0 0.0
797.1890073968382 170.52059249291815 290.31287996692686 -738.9231159321661 0.0 0.0
1279.800904153524 87.13266940921615 410.0800720688221 -781.110524918444 0.0 0.0
1675.1235770342146 43.05839819073688 515.4545925674854 -828.3118379263079 0.0 0.0
2029.524104382923 17.435229827985513 614.0878002632726 -853.5372599015009 0.0 0.0
2372.589457797479 5.077542416696424 713.3001000642528 -864.2525467209828 0.0 0.0
2712.1689011965295 0.5211756306801671 813.8070230481633 -867.6213100834797 0.0 0.0
3050.796986013863 -0.7006836014077393 915.0288907237367 -868.1016218085159 0.0 0.0
3389.3986548736816 -0.7069034541707584 1016.607525425853 -867.8095509341155 0.0 0.0
3728.0905437730503 -0.13737569987397968 1118.3859504219533 -867.6798271675168 0.0 0.0
4066.540780499619 1.3910907951251854 1220.3795613884236 -868.4578349978951 0.0 0.0
4403.898393729926 5.111951368358639 1322.7031035294856 -871.3755968172801 0.0 0.0
4738.82986795696 12.588294820720272 1425.4254488333038 -878.4622583755117 0.0 0.0
5070.617087718879 23.032500911853987 1528.0948765892201 -891.5495627476018 0.0 0.0
5401.642387590091 25.394214063196973 1628.1109804959865 -906.8850114941184 0.0 0.0
5736.4625436314545 -14.594533668663871 1716.5604029888375 -900.166827181789 0.0 0.0
6062.665825959057 -155.5322541231049 1772.1400715507855 -803.5836624604894 0.0 0.0
6311.622786864921 -415.23212388848447 1768.917198892931 -511.3849166001551 0.0 0.0
6389.543789763382 -602.8342053598838 1736.0128753210493 -2.184208369726548e-11 0.0 0.0
6311.622786864973 -415.23212388835617 1768.9171988929852 511.38491660017314 0.0 0.0
6062.665825959103 -155.53225412293625 1772.14007155085 803.5836624604419 0.0 0.0
5736.462543631391 -14.594533668800771 1716.5604029887772 900.1668271818714 0.0 0.0
5401.642387590033 25.394214063077122 1628.1109804959333 906.8850114941824 0.0 0.0
5070.617087718724 23.032500911443055 1528.0948765890498 891.5495627475481 0.0 0.0
4738.829867957058 12.588294820957803 1425.4254488334045 878.4622583755207 0.0 0.0
4403.898393729803 5.1119513681676665 1322.7031035293908 871.3755968172479 0.0 0.0
4066.5407804997226 1.3910907953311629 1220.3795613885156 868.4578349979339 0.0 0.0
3728.090543773162 -0.1373756996328268 1118.3859504220588 867.6798271676093 0.0 0.0
3389.3986548735684 -0.7069034543589829 1016.607525425763 867.8095509341485 0.0 0.0
3050.796986013882 -0.7006836013746387 915.0288907237525 868.1016218085183 0.0 0.0
2712.168901196694 0.5211756310338096 813.8070230483186 867.6213100834373 0.0 0.0
2372.5894577974377 5.077542416538861 713.3001000641929 864.252546720998 0.0 0.0
2029.5241043827702 17.435229827592334 614.0878002631089 853.5372599014396 0.0 0.0
1675.1235770342234 43.05839819079871 515.4545925675068 828.3118379263326 0.0 0.0
1279.8009041536034 87.13266940940557 410.0800720689029 781.1105249184525 0.0 0.0
797.1890073969035 170.52059249309409 290.31287996699933 738.9231159321745 0.0 0.0
352.38905977604185 227.60724299149635 173.99889083026147 861.564892924805 0.0 0.0
230.45469947616388 -756.4310099274979 -157.79289313540016 1088.65716976561 0.0 0.0
-1179.5736548091988 -5157.614602039052 -1901.1564770544762 939.8964255948576 0.0 0.0
-949.9926401785422 -4315.38461148032 -1579.6131754976586 -861.0818347267959 0.0 0.0
75.09446747560494 -907.5923173600495 -249.74935496533342 -1098.272944519339 0.0 0.0
172.93248276829024 147.008263931828 95.9822240100355 -1000.4802210722289 0.0 0.0
506.9753260372347 184.40649751763178 207.4145470664599 -864.892833292205 0.0 0.0
905.4334337978587 103.61922062002563 302.7157963253653 -874.0063574838532 0.0 0.0
1234.8215433317812 50.29511912886201 385.534998738193 -908.5389831504776 0.0 0.0
1516.0465659705715 20.495589630812606 460.962646680415 -929.5292901813469 0.0 0.0
1778.6089499519119 6.092381453035153 535.410399421484 -938.6705063748549 0.0 0.0
2034.6935701345833 0.6553084842207824 610.6046635856412 -941.6337315423812 0.0 0.0
2288.7847275338013 -0.7990056994766839 686.3957165502974 -942.0988225389119 0.0 0.0
2542.5694340770137 -0.8148334384193632 762.5263801915784 -941.8804194028951 0.0 0.0
2796.3709665609385 -0.14812818884483647 838.8668515116284 -941.7882389803831 0.0 0.0
3049.682331554152 1.640228646054549 915.3967680600624 -942.4497471502187 0.0 0.0
3301.1122929123194 5.9680133963583835 992.1240918926034 -944.8839197096133 0.0 0.0
3548.3657966556993 14.684211400779667 1068.9150024169437 -950.8224799648553 0.0 0.0
3789.8478933522097 27.13114524897171 1145.0937115803547 -962.1701405809899 0.0 0.0
4029.451761997062 30.749080111385585 1218.0602526325342 -976.6862101581074 0.0 0.0
4279.830144429589 -16.052701263132157 1279.1332329499373 -972.881997984001 0.0 0.0
4543.093475295973 -189.89523228222214 1305.9594729041255 -880.3269011038201 0.0 0.0
4755.299110232851 -526.0999297872323 1268.7597541336856 -571.8245775806749 0.0 0.0
4812.274094473546 -783.3975117942799 1208.66297480378 -6.323830348264892e-12 0.0 0.0
4755.299110232578 -526.0999297879291 1268.7597541333948 571.8245775806708 0.0 0.0
4543.09347529604 -189.89523228206917 1305.959472904191 880.3269011038155 0.0 0.0
4279.83014442971 -16.052701262838603 1279.1332329500617 972.8819979840534 0.0 0.0
4029.451761997164 30.74908011156051 1218.0602526326174 976.6862101581021 0.0 0.0
3789.8478933522224 27.131145248958788 1145.0937115803545 962.1701405809675 0.0 0.0
3548.365796656031 14.684211401657151 1068.9150024173066 950.8224799648458 0.0 0.0
3301.11229291256 5.968013396940869 992.1240918928502 944.883919709631 0.0 0.0
3049.6823315539978 1.6402286456257436 915.3967680598873 942.4497471502788 0.0 0.0
2796.3709665608426 -0.14812818904804104 838.8668515115385 941.788238980371 0.0 0.0
2542.569434076976 -0.8148334383947429 762.5263801915744 941.880419402858 0.0 0.0
2288.784727533781 -0.7990056995342449 686.3957165502741 942.0988225388949 0.0 0.0
2034.6935701346633 0.6553084844205692 610.6046635857252 941.6337315423506 0.0 0.0
1778.6089499519094 6.092381453054318 535.410399421489 938.6705063748412 0.0 0.0
1516.0465659704691 20.495589630452088 460.9626466802763 929.5292901813018 0.0 0.0
1234.8215433318187 50.295119128856236 385.5349987382025 908.538983150439 0.0 0.0
905.4334337978429 103.61922062005152 302.71579632536833 874.0063574838753 0.0 0.0
506.9753260372405 184.40649751767648 207.41454706647508 864.8928332922384 0.0 0.0
172.93248276834933 147.0082639318771 95.98222401006791 1000.4802210722056 0.0 0.0
75.09446747564232 -907.5923173599872 -249.74935496530347 1098.2729445193902 0.0 0.0
-949.9926401785501 -4315.384611480313 -1579.613175497659 861.0818347267831 0.0 0.0
-760.784900605064 -3581.7242679191404 -1302.7527505572614 -784.9569740597656 0.0 0.0
-35.46404130912017 -970.5557392606639 -301.80593417093525 -1084.1868684817914 0.0 0.0
18.62431094067027 68.68378588659651 26.192429048180024 -1097.6521546156557 0.0 0.0
242.997093195844 182.96976693602923 127.790058039562 -969.8725580006131 0.0 0.0
545.2029371955788 115.27224609188725 198.14255498623982 -951.7601251092699 0.0 0.0
798.5386986704588 56.47291501504172 256.50348410565016 -970.701943517224 0.0 0.0
1003.2963479810321 22.961276812944966 307.8772874381932 -985.5008909841049 0.0 0.0
1184.6566818913855 6.914772024089716 357.47143617464263 -992.2654559837524 0.0 0.0
1357.0776468889476 0.7810498182750045 407.3576090121666 -994.5076008877837 0.0 0.0
1526.6373792859197 -0.8725324025659127 457.72945406500605 -994.8869926090746 0.0 0.0
1695.6442723500543 -0.897000376066126 508.42418159219653 -994.7448284744489 0.0 0.0
1864.591101054545 -0.15395307637882638 559.33114439345 -994.6850149650875 0.0 0.0
2032.851068185994 1.837398725501414 610.4065400734487 -995.1583622353809 0.0 0.0
2198.627264261856 6.628387510462851 661.5766955316953 -996.8860514105235 0.0 0.0
2358.8287285312085 16.29322053053136 712.536584718522 -1001.1682893128803 0.0 0.0
2510.953779614302 30.468507119757355 762.4266860202177 -1009.9110656733208 0.0 0.0
2660.034853984444 35.91528551998439 808.7850418513285 -1023.0307476997509 0.0 0.0
2826.9409771138476 -15.27434838381707 843.4999886190093 -1024.3807061785396 0.0 0.0
3030.2999030260107 -220.29543782241814 843.0013395610777 -944.3267420332662 0.0 0.0
3210.2138274545046 -643.3394487505683 770.0623136111807 -630.8282764529404 0.0 0.0
3243.382044469443 -992.0219566739145 675.4080263386585 -2.7540636438061483e-11 0.0 0.0
3210.2138274545073 -643.3394487505535 770.0623136111863 630.8282764529113 0.0 0.0
3030.299903026065 -220.29543782221737 843.0013395611544 944.3267420333341 0.0 0.0
2826.9409771138066 -15.274348383815251 843.4999886189971 1024.3807061785576 0.0 0.0
2660.0348539846646 35.915285520569846 808.7850418515701 1023.0307476997291 0.0 0.0
2510.9537796144414 30.468507120053825 762.4266860203488 1009.9110656732788 0.0 0.0
2358.828728531544 16.293220531334697 712.5365847188638 1001.1682893129223 0.0 0.0
2198.6272642619347 6.628387510643083 661.5766955317733 996.8860514105368 0.0 0.0
2032.85106818601 1.8373987255124575 610.4065400734569 995.1583622353726 0.0 0.0
1864.5911010546658 -0.15395307610737063 559.3311443935677 994.6850149650601 0.0 0.0
1695.6442723501482 -0.8970003758259928 508.42418159229663 994.7448284744536 0.0 0.0
1526.6373792859229 -0.8725324025692522 457.7294540650061 994.8869926090811 0.0 0.0
1357.0776468890913 0.7810498185909331 407.35760901230464 994.5076008877691 0.0 0.0
1184.6566818914566 6.9147720242532635 357.471436174713 992.2654559837714 0.0 0.0
1003.2963479811233 22.961276813161675 307.8772874382855 985.5008909840363 0.0 0.0
798.5386986703742 56.472915014813175 256.5034841055562 970.7019435172652 0.0 0.0
545.202937195567 115.2722460918191 198.1425549862158 951.760125109261 0.0 0.0
242.9970931957985 182.96976693592188 127.79005803951607 969.8725580006643 0.0 0.0
18.62431094072763 68.68378588672684 26.192429048236328 1097.652154615658 0.0 0.0
-35.46404130906699 -970.5557392605804 -301.8059341708943 1084.1868684817757 0.0 0.0
-760.784900605015 -3581.724267919078 -1302.7527505572277 784.9569740597449 0.0 0.0
-607.5414865234807 -2939.6963247715344 -1064.1713433885043 -713.5335915375382 0.0 0.0
-118.18046227582276 -970.104909228689 -326.48561145135363 -1052.199313913297 0.0 0.0
-118.29245639806808 1.8866203840750355 -34.92175080419791 -1155.9232947917055 0.0 0.0
-0.6995936143792036 170.85109567225297 51.04545061736216 -1048.76777187811 0.0 0.0
198.4686327718418 120.93273107127985 95.82040915293649 -1011.0920630337346 0.0 0.0
367.4238780973254 60.74174540102448 128.44968704950497 -1013.9223111777703 0.0 0.0
491.8825582869263 24.66184853801012 154.9633220474809 -1021.1807057492163 0.0 0.0
590.909317722018 7.461662744099701 179.51129413983537 -1024.9565711077173 0.0 0.0
679.370401387732 0.8729415917533583 204.0730028938456 -1026.2448924299765 0.0 0.0
764.3563844286754 -0.9171486603004322 229.03177073051256 -1026.4781042233037 0.0 0.0
848.6154777969317 -0.9487144564604151 254.30002900214149 -1026.4106085950152 0.0 0.0
932.7577417099674 -0.15722948780694423 279.78015366664806 -1026.3778148351216 0.0 0.0
1016.0915851393413 1.9614960207711434 305.4159243480337 -1026.6118519605468 0.0 0.0
1096.5740531452725 7.03494176348325 331.0826984726268 -1027.4800491515327 0.0 0.0
1170.5215851046066 17.271774286059394 356.33800781719987 -1029.7436532998897 0.0 0.0
1234.4191983395287 32.73438006379445 380.14607352099705 -1035.1514176202963 0.0 0.0
1293.6082340067203 40.60823289348356 400.2649400700611 -1046.1318820523509 0.0 0.0
1376.6422830496078 -11.363303352251592 409.58369390920694 -1054.4197339600735 0.0 0.0
1521.2470904149604 -242.97934831584934 383.4803226297333 -995.7984462342562 0.0 0.0
1672.326604870399 -763.1260465265316 272.76016750316046 -690.3244012835532 0.0 0.0
1675.763181507572 -1233.420560001193 132.7027864519137 2.518163455533795e-11 0.0 0.0
1672.32660487082 -763.1260465255671 272.76016750357593 690.3244012834396 0.0 0.0
1521.2470904151037 -242.97934831555102 383.48032262986584 995.7984462343279 0.0 0.0
1376.6422830497836 -11.363303351756635 409.5836939094083 1054.4197339600441 0.0 0.0
1293.6082340068835 40.60823289395742 400.2649400702522 1046.1318820523888 0.0 0.0
1234.4191983395503 32.73438006379226 380.1460735210026 1035.1514176202293 0.0 0.0
1170.5215851045878 17.271774286049105 356.33800781719117 1029.7436532998915 0.0 0.0
1096.5740531453218 7.03494176359294 331.08269847267445 1027.480049151576 0.0 0.0
1016.0915851394942 1.9614960210627714 305.41592434816704 1026.6118519604872 0.0 0.0
932.7577417101536 -0.15722948732764763 279.7801536668478 1026.3778148350298 0.0 0.0
848.6154777970378 -0.9487144561818468 254.3000290022567 1026.4106085949265 0.0 0.0
764.3563844286188 -0.9171486604758723 229.03177073044293 1026.4781042232491 0.0 0.0
679.370401387704 0.8729415916836079 204.07300289381627 1026.2448924299692 0.0 0.0
590.9093177219556 7.461662743954179 179.51129413977296 1024.9565711077348 0.0 0.0
491.8825582869438 24.66184853810992 154.96332204751616 1021.1807057491982 0.0 0.0
367.42387809731997 60.741745401060804 128.44968704951424 1013.9223111778648 0.0 0.0
198.46863277181487 120.93273107125044 95.82040915291957 1011.0920630337039 0.0 0.0
-0.6995936143556705 170.85109567225652 51.04545061737028 1048.7677718780883 0.0 0.0
-118.29245639805278 1.8866203840642015 -34.92175080419656 1155.9232947916937 0.0 0.0
-118.1804622758629 -970.1049092287067 -326.48561145137086 1052.1993139132696 0.0 0.0
-607.5414865234966 -2939.696324771513 -1064.1713433885031 713.5335915375484 0.0 0.0
-484.9950125628316 -2375.8244755432106 -858.2458464318124 -646.3374997690505 0.0 0.0
-183.8926647374979 -925.6583979461456 -332.865318805093 -1005.8688972524238 0.0 0.0
-243.36540431832046 -49.27209003943837 -87.79124830732765 -1179.0314633841908 0.0 0.0
-229.07740979267584 152.44316393115975 -22.99027375845484 -1099.0114800024132 0.0 0.0
-136.2400204743184 120.6449860162176 -4.678510337430266 -1049.1647696624377 0.0 0.0
-58.099275931173246 62.515595424246634 1.3248958479220097 -1037.0693720004222 0.0 0.0
-17.77866433327148 25.428528086991335 2.294959126115959 -1036.2100898049894 0.0 0.0
-2.4966064471566085 7.687209143349917 1.5571808088579964 -1036.6317153712941 0.0 0.0
1.6047182704215004 0.9131967398238316 0.7553745030736074 -1036.8320776070889 0.0 0.0
1.9443458685961588 -0.9318689475703934 0.30374307630773245 -1036.882029750433 0.0 0.0
1.4790027606151597 -0.9668719603404909 0.15363924008239138 -1036.8866779652208 0.0 0.0
0.8753130292122222 -0.15966421118078244 0.2146946454094163 -1036.8783335768935 0.0 0.0
-0.5702794825187567 1.99867525230108 0.42851873093467674 -1036.8478278189434 0.0 0.0
-4.971873965434142 7.155696520477704 0.6551467665130843 -1036.7827536996374 0.0 0.0
-16.343498222234103 17.542486533049072 0.35969649324449904 -1036.8381617350828 0.0 0.0
-39.30837873698772 33.6717171793121 -1.6909984673027054 -1038.360502205471 0.0 0.0
-69.47505558920997 44.38311359008125 -7.527582599738594 -1046.1886348718178 0.0 0.0
-72.03604661914025 -3.7677885529299644 -22.741150551621047 -1062.229661910775 0.0 0.0
12.935397636129323 -253.8072894965858 -72.26156755813695 -1034.0232599278286 0.0 0.0
137.94402224612904 -880.3606087422868 -222.72497594884726 -752.1439818899154 0.0 0.0
101.3173615523748 -1514.9271391057446 -424.0829332660109 2.0179413695586845e-12 0.0 0.0
137.94402224631665 -880.3606087418907 -222.7249759486723 752.143981889861 0.0 0.0
12.935397636293004 -253.80728949626518 -72.2615675579917 1034.0232599278438 0.0 0.0
-72.03604661906931 -3.767788552602699 -22.741150551501647 1062.2296619108117 0.0 0.0
-69.47505558902864 44.38311359057852 -7.52758259953503 1046.1886348718679 0.0 0.0
-39.30837873694287 33.67171717945328 -1.690998467246878 1038.3605022054908 0.0 0.0
-16.343498222187975 17.54248653311933 0.359696493279408 1036.838161735055 0.0 0.0
-4.97187396533424 7.155696520711539 0.6551467666131785 1036.7827536997036 0.0 0.0
-0.5702794827110864 1.998675251818673 0.42851873073229996 1036.8478278189655 0.0 0.0
0.8753130292257509 -0.15966421119698992 0.2146946454086489 1036.8783335768894 0.0 0.0
1.479002760607031 -0.9668719603367926 0.15363924008106977 1036.8866779652164 0.0 0.0
1.9443458683851844 -0.931868948098284 0.30374307608606443 1036.8820297504703 0.0 0.0
1.6047182704201788 0.913196739760183 0.7553745030541066 1036.832077607065 0.0 0.0
-2.4966064471975713 7.687209143196954 1.557180808799803 1036.6317153712698 0.0 0.0
-17.778664333285256 25.42852808692115 2.294959126090765 1036.2100898050082 0.0 0.0
-58.099275931127615 62.51559542434178 1.3248958479642496 1037.069372000453 0.0 0.0
-136.24002047436971 120.64498601605337 -4.678510337494906 1049.1647696624482 0.0 0.0
-229.07740979264688 152.4431639311668 -22.990273758444033 1099.011480002427 0.0 0.0
-243.36540431828053 -49.272090039418124 -87.79124830730959 1179.0314633841394 0.0 0.0
-183.89266473750604 -925.6583979461949 -332.86531880511023 1005.868897252391 0.0 0.0
-484.9950125628488 -2375.8244755432083 -858.2458464318173 646.3374997690893 0.0 0.0
-388.3078716718921 -1880.2931244996191 -680.5802988514534 -581.9109452417281 0.0 0.0
-239.38123756695313 -852.0270073368317 -327.42247347113545 -947.24933874754 0.0 0.0
-360.45463476474396 -83.83321796276688 -133.28635581825324 -1170.626299031193 0.0 0.0
-446.07835115372325 131.25010474325694 -94.44847392313993 -1119.6508933001896 0.0 0.0
-460.734412655362 115.12998493924152 -103.68132831483608 -1063.7649441704507 0.0 0.0
-478.1731365475002 61.558292027914945 -124.98445335587559 -1038.9447294971712 0.0 0.0
-525.5103348904883 25.14942772432319 -150.10827214984954 -1030.1610443965053 0.0 0.0
-595.4866438301701 7.573805812133563 -176.37385140541096 -1027.1607994172382 0.0 0.0
-676.2042426730897 0.8954922306063846 -202.592625132745 -1026.247440911923 0.0 0.0
-760.597191177895 -0.9171244572900576 -228.4542946905555 -1026.1068996720446 0.0 0.0
-845.7665179396496 -0.9502606538959704 -254.0150335780637 -1026.1825971529872 0.0 0.0
-931.055051207828 -0.1613606609341076 -279.3649235606286 -1026.2001867183662 0.0 0.0
-1017.1285074094817 1.943653475164897 -304.55545618029515 -1025.9087456798961 0.0 0.0
-1105.9961331181607 6.98351403804752 -329.70378572403405 -1024.9180241058107 0.0 0.0
-1201.6677567310217 17.104700987185982 -355.36891672315073 -1022.7647190366988 0.0 0.0
-1309.8290946981888 33.11954260004215 -383.01286562944404 -1020.112952242258 0.0 0.0
-1428.624625407801 46.59720891020805 -414.6082249492779 -1023.5094594299056 0.0 0.0
-1519.6897780495062 7.4281978838494105 -453.6784740496969 -1046.5851649029116 0.0 0.0
-1497.5631074381356 -248.38042672197946 -523.7830602480346 -1057.110271241507 0.0 0.0
-1396.1962652262116 -987.8182073096137 -715.2043417607474 -817.9803925481424 0.0 0.0
-1489.7877084207414 -1847.3960411151252 -1001.1551248607597 9.094947017729282e-13 0.0 0.0
-1396.196265226422 -987.8182073101414 -715.2043417609689 817.9803925481451 0.0 0.0
-1497.5631074380506 -248.38042672194044 -523.7830602479974 1057.1102712414088 0.0 0.0
-1519.6897780495462 7.428197883696395 -453.67847404975475 1046.5851649029764 0.0 0.0
-1428.6246254078471 46.59720891017941 -414.6082249493004 1023.5094594298444 0.0 0.0
-1309.8290946980405 33.119542600505596 -383.01286562926026 1020.1129522422563 0.0 0.0
-1201.6677567311217 17.10470098690027 -355.3689167232664 1022.7647190367358 0.0 0.0
-1105.9961331179256 6.983514038637551 -329.7037857237863 1024.9180241057663 0.0 0.0
-1017.1285074097734 1.9436534745157061 -304.55545618057727 1025.9087456798995 0.0 0.0
-931.0550512078968 -0.16136066119632986 -279.36492356072796 1026.2001867184233 0.0 0.0
-845.7665179398465 -0.9502606543576277 -254.01503357826113 1026.1825971529931 0.0 0.0
-760.5971911781033 -0.9171244578126299 -228.45429469077476 1026.106899672136 0.0 0.0
-676.2042426728211 0.8954922312494524 -202.59262513247148 1026.2474409118645 0.0 0.0
-595.4866438302352 7.57380581205981 -176.37385140545257 1027.1607994172678 0.0 0.0
-525.5103348904627 25.14942772440076 -150.1082721498186 1030.1610443965214 0.0 0.0
-478.17313654748585 61.55829202794429 -124.98445335586253 1038.9447294971665 0.0 0.0
-460.7344126552947 115.12998493934766 -103.68132831478408 1063.7649441704784 0.0 0.0
-446.0783511537368 131.25010474314007 -94.44847392317904 1119.6508933002472 0.0 0.0
-360.45463476480455 -83.8332179628841 -133.28635581830662 1170.6262990312266 0.0 0.0
-239.38123756693216 -852.0270073368018 -327.4224734711202 947.2493387475197 0.0 0.0
-388.30787167181944 -1880.293124499602 -680.5802988514266 581.9109452417578 0.0 0.0
-313.5010560421377 -1446.6534998511206 -528.0463667679775 -518.5420600689652 0.0 0.0
-288.6693370832816 -760.3105413613487 -314.69396353338914 -877.4476069451143 0.0 0.0
-472.09873866264803 -102.67738478770785 -172.43283703510676 -1133.8863486136038 0.0 0.0
-654.7011203050324 109.73711008603955 -163.48920306569778 -1110.6472026926047 0.0 0.0
-776.8842263185375 105.4065030545056 -201.44331697920953 -1053.26482073599 0.0 0.0
-893.3536615507278 57.962009907477245 -250.61749549297517 -1018.4177975635208 0.0 0.0
-1031.3781493970187 23.811313901824537 -302.2700506485582 -1002.5790622808638 0.0 0.0
-1188.0645485278164 7.132268689408814 -354.2796839515224 -996.4083109170243 0.0 0.0
-1354.0606811912542 0.8241513609717082 -405.97095894908466 -994.468247902886 0.0 0.0
-1523.2681215033267 -0.8735484420040187 -457.24250098359914 -994.1603944725827 0.0 0.0
-1693.120202943452 -0.8997585131573551 -508.2059884369827 -994.3080029704058 0.0 0.0
-1863.036031614584 -0.16065396945001353 -558.9590056752099 -994.3565523762069 0.0 0.0
-2033.5959072393375 1.8013795656707785 -609.5383583020997 -993.8370634344183 0.0 0.0
-2206.5451107193503 6.531074264574183 -660.0042109364326 -992.0067700444391 0.0 0.0
-2385.4930572542985 16.032925129901624 -710.838039637319 -987.8295631350123 0.0 0.0
-2576.838055780715 31.084169786795627 -763.7261657981759 -981.0845863964385 0.0 0.0
-2782.9299510256083 46.447400957231025 -820.9447650205129 -978.6898524897972 0.0 0.0
-2966.27926860109 21.128962841440202 -883.545091727895 -1005.9873587697737 0.0 0.0
-3013.039771180777 -222.39351900028134 -970.6299870543173 -1061.629610058061 0.0 0.0
-2932.7270795616714 -1074.877628562849 -1202.2814124373565 -889.188739634992 0.0 0.0
-3110.182690730559 -2246.4937859811303 -1607.0029430135069 -2.737010618147906e-11 0.0 0.0
-2932.727079561993 -1074.8776285635536 -1202.281412437664 889.1887396350177 0.0 0.0
-3013.0397711808064 -222.39351900039395 -970.6299870543603 1061.629610058022 0.0 0.0
-2966.2792686009116 21.128962841823615 -883.5450917277265 1005.9873587697923 0.0 0.0
-2782.9299510259116 46.447400956563584 -820.9447650208043 978.6898524898537 0.0 0.0
-2576.838055780785 31.08416978660631 -763.7261657982536 981.0845863964165 0.0 0.0
-2385.493057254518 16.032925129483054 -710.8380396375106 987.829563135 0.0 0.0
-2206.5451107193126 6.531074264777287 -660.0042109363604 992.0067700444031 0.0 0.0
-2033.595907239303 1.801379565694269 -609.5383583020829 993.8370634344628 0.0 0.0
-1863.0360316147137 -0.16065396976363644 -558.9590056753434 994.3565523762678 0.0 0.0
-1693.1202029433664 -0.899758512967459 -508.2059884369003 994.3080029703474 0.0 0.0
-1523.268121503521 -0.8735484423745117 -457.2425009837689 994.1603944726181 0.0 0.0
-1354.0606811911387 0.8241513612657414 -405.97095894896194 994.4682479028762 0.0 0.0
-1188.0645485277455 7.132268689473458 -354.2796839514816 996.4083109169778 0.0 0.0
-1031.3781493969166 23.811313902095876 -302.2700506484462 1002.5790622808772 0.0 0.0
-893.3536615507531 57.96200990745624 -250.61749549298912 1018.4177975635625 0.0 0.0
-776.8842263185687 105.40650305444787 -201.4433169792363 1053.2648207359778 0.0 0.0
-654.7011203050223 109.7371100860411 -163.4892030656944 1110.6472026925903 0.0 0.0
-472.0987386626733 -102.67738478780292 -172.43283703514294 1133.8863486136222 0.0 0.0
-288.66933708326064 -760.3105413612863 -314.693963533364 877.4476069451482 0.0 0.0
-313.5010560421645 -1446.653499851153 -528.0463667679952 518.5420600689213 0.0 0.0
-257.4750602713022 -1071.3490593297847 -398.6472358803262 -454.64087796988065 0.0 0.0
-333.8090626833655 -658.7103199533778 -297.75581479102306 -797.0370456876303 0.0 0.0
-579.748447099817 -107.72513642857085 -206.24207505851635 -1071.4049664234835 0.0 0.0
-857.1090468482539 89.39925414756848 -230.31293781020557 -1072.3660621320519 0.0 0.0
-1086.476274595948 92.56788240180327 -298.17251765824346 -1016.4919870236251 0.0 0.0
-1304.4924215961316 52.087898615616155 -375.72135689415455 -974.5064843458691 0.0 0.0
-1535.6700831806588 21.516301382937442 -454.24613453931636 -953.0337537074915 0.0 0.0
-1780.3177045348893 6.404505803747494 -532.1739596193426 -944.2487286030848 0.0 0.0
-2031.988659825754 0.7119872141186683 -609.3830017834905 -941.4770591386439 0.0 0.0
-2286.0690854989807 -0.8019028119193372 -686.0612964932699 -941.051313280991 0.0 0.0
-2540.5785164979966 -0.8183730629728032 -762.4190668682904 -941.272123835886 0.0 0.0
-2795.074188686788 -0.15516475219696702 -838.5688060316957 -941.3579248297724 0.0 0.0
-3050.0023673051383 1.589218721868896 -914.5239445749808 -940.6694169127098 0.0 0.0
-3306.716763594414 5.826611874407387 -990.2670455160019 -938.1607652697763 0.0 0.0
-3568.0262627736074 14.45079680192627 -1066.0726397915046 -932.3000658334487 0.0 0.0
-3840.225946170804 27.826336492609204 -1143.7198829034587 -922.0004602549513 0.0 0.0
-4131.125630917435 43.15515338440682 -1226.3911432599084 -912.826386642551 0.0 0.0
-4410.75972744049 34.77843037869876 -1312.7943891185378 -939.0707898286182 0.0 0.0
-4536.018997979836 -172.44317605950317 -1412.5386522118015 -1042.1131681308134 0.0 0.0
-4473.272968507975 -1125.6214504328213 -1679.6683256822396 -966.2627000633953 0.0 0.0
-4776.896442348785 -2734.470871636981 -2253.4101941957297 -2.5295321393059567e-11 0.0 0.0
-4473.272968507978 -1125.621450432858 -1679.6683256822512 966.262700063368 0.0 0.0
-4536.018997979855 -172.4431760596225 -1412.5386522118436 1042.1131681309002 0.0 0.0
-4410.759727440268 34.77843037914086 -1312.7943891183384 939.0707898286198 0.0 0.0
-4131.125630917644 43.15515338403984 -1226.3911432600817 912.8263866425187 0.0 0.0
-3840.225946171089 27.826336491909696 -1143.7198829037543 922.0004602549261 0.0 0.0
-3568.0262627735156 14.450796802094441 -1066.0726397914266 932.3000658334224 0.0 0.0
-3306.716763594473 5.8266118742949145 -990.2670455160534 938.1607652698134 0.0 0.0
-3050.0023673050778 1.5892187219058034 -914.5239445749518 940.6694169127527 0.0 0.0
-2795.074188686918 -0.15516475243692973 -838.5688060318067 941.357924829802 0.0 0.0
-2540.578516497826 -0.8183730624670567 -762.4190668680882 941.2721238359077 0.0 0.0
-2286.069085498974 -0.8019028119519831 -686.0612964932778 941.0513132809713 0.0 0.0
-2031.988659825823 0.7119872139602919 -609.3830017835587 941.4770591387274 0.0 0.0
-1780.3177045349555 6.4045058035934055 -532.1739596194086 944.2487286030364 0.0 0.0
-1535.6700831805415 21.516301383213197 -454.2461345391985 953.0337537074654 0.0 0.0
-1304.492421596261 52.08789861537607 -375.7213568942655 974.5064843458669 0.0 0.0
-1086.4762745959474 92.56788240177534 -298.17251765825154 1016.4919870236163 0.0 0.0
-857.109046848187 89.39925414765818 -230.31293781015867 1072.366062132055 0.0 0.0
-579.7484470998097 -107.72513642859302 -206.24207505852087 1071.4049664234374 0.0 0.0
-333.8090626834008 -658.7103199534332 -297.7558147910502 797.0370456876113 0.0 0.0
-257.4750602713569 -1071.3490593298152 -398.64723588035173 454.6408779699163 0.0 0.0
-217.8123722379859 -753.1766319495315 -291.2967012562553 -388.98264917396125 0.0 0.0
-375.3060416991276 -553.2086647019979 -278.5544119203377 -706.3741080900267 0.0 0.0
-683.8858524576154 -101.50994042286698 -235.61873786414475 -985.1670006908729 0.0 0.0
-1054.7377554207337 70.921170698947 -295.14497541653606 -1005.1995189257773 0.0 0.0
-1391.172390819258 77.68833840788604 -394.0452157234116 -952.5796238664427 0.0 0.0
-1712.6600758903442 44.50464626357213 -500.44662888803157 -906.420124676809 0.0 0.0
-2038.8648266468128 18.476400436770685 -606.1165278630126 -881.1662972452167 0.0 0.0
-2372.4116444549604 5.463432590837225 -710.0844635592371 -870.5839648445713 0.0 0.0
-2710.030063174474 0.5777403566113684 -812.8356968453588 -867.2673916730457 0.0 0.0
-3049.0000461601703 -0.7040309942617746 -914.9112231463296 -866.7909181063117 0.0 0.0
-3388.1341203053644 -0.7109338612601839 -1016.6535162499877 -867.0831941805942 0.0 0.0
-3727.178838090129 -0.14407743297992326 -1118.196874656932 -867.2108277238216 0.0 0.0
-4066.394756881847 1.336929349134806 -1219.5173482598143 -866.4291754459645 0.0 0.0
-4406.642143040803 4.920829309348754 -1320.5163941194367 -863.4781264829677 0.0 0.0
-4749.6420801218355 12.472137506637601 -1421.150982784559 -856.3887098501077 0.0 0.0
-5100.24792431124 23.90978224345888 -1522.9014426203348 -843.5045375214102 0.0 0.0
-5471.669505653705 36.411657745760415 -1630.5773543723826 -827.6862172829599 0.0 0.0
-5850.551995757142 43.947237107376246 -1741.9814275949302 -845.4311203284401 0.0 0.0
-6068.49642510006 -97.72782882241067 -1849.8672761767414 -990.501404738173 0.0 0.0
-6017.781931514508 -1116.0302538092985 -2140.1436555971413 -1047.6231226261611 0.0 0.0
-6513.816240405285 -3342.426572229124 -2956.872843790322 2.2225776774575934e-11 0.0 0.0
-6017.781931514451 -1116.0302538091744 -2140.1436555970877 1047.6231226261314 0.0 0.0
-6068.496425100195 -97.72782882269067 -1849.8672761768655 990.5014047382222 0.0 0.0
-5850.5519957568185 43.94723710816103 -1741.9814275945964 845.4311203284012 0.0 0.0
-5471.669505653934 36.41165774521906 -1630.5773543726145 827.6862172829553 0.0 0.0
-5100.247924311338 23.90978224321789 -1522.9014426204362 843.5045375214696 0.0 0.0
-4749.642080121754 12.472137506859335 -1421.1509827844684 856.3887098500543 0.0 0.0
-4406.642143040875 4.920829309197229 -1320.5163941195037 863.4781264829307 0.0 0.0
-4066.3947568818194 1.3369293491630447 -1219.5173482597966 866.4291754459114 0.0 0.0
-3727.1788380899775 -0.1440774326421579 -1118.1968746567863 867.2108277238194 0.0 0.0
-3388.1341203053557 -0.7109338612012852 -1016.6535162499672 867.0831941806601 0.0 0.0
-3049.000046159843 -0.704030993490659 -914.9112231460003 866.7909181063096 0.0 0.0
-2710.030063174476 0.577740356642547 -812.8356968453503 867.2673916730525 0.0 0.0
-2372.411644455109 5.463432590456845 -710.0844635593958 870.5839648445566 0.0 0.0
-2038.8648266467671 18.476400436818054 -606.1165278629846 881.1662972452209 0.0 0.0
-1712.660075890406 44.50464626344438 -500.44662888808887 906.4201246768213 0.0 0.0
-1391.172390819216 77.6883384079586 -394.0452157233771 952.579623866428 0.0 0.0
-1054.7377554207203 70.92117069892375 -295.144975416539 1005.1995189258105 0.0 0.0
-683.8858524575834 -101.50994042284371 -235.61873786412815 985.1670006908727 0.0 0.0
-375.30604169914625 -553.2086647020965 -278.55441192037284 706.3741080899905 0.0 0.0
-217.81237223795475 -753.1766319495038 -291.2967012562376 388.9826491740182 0.0 0.0
-192.4070122112561 -492.68468286096686 -205.5275085216669 -320.9596339355403 0.0 0.0
-412.26738353107015 -448.1538383754217 -258.12636657194753 -605.8622249888786 0.0 0.0
-784.039217561995 -87.0242863457205 -261.31905117231474 -876.5043252151322 0.0 0.0
-1248.3979622217294 54.38413572969006 -358.2041479476118 -909.2619538048511 0.0 0.0
-1692.5434006619337 61.82988471198164 -489.2140547849854 -860.8388693566769 0.0 0.0
-2119.108256843581 35.93630495462695 -624.9515855666863 -813.584903362478 0.0 0.0
-2541.5953011392585 14.992314925102546 -757.9808958642466 -786.728835029464 0.0 0.0
-2964.575321419337 4.408030707441608 -888.0501872135687 -775.3605404149663 0.0 0.0
-3388.2393925316355 0.44293536130015454 -1016.3389371511007 -771.8485911666864 0.0 0.0
-3812.058080829795 -0.5845629266100154 -1143.7927931269214 -771.3939411023288 0.0 0.0
-4235.77476973486 -0.5837508897466215 -1270.9075561873822 -771.747377877857 0.0 0.0
-4659.358096266476 -0.1290293028824614 -1397.8461376708074 -771.9177228992506 0.0 0.0
-5082.840070724876 1.0763266900931256 -1524.5291232104344 -771.1205652794365 0.0 0.0
-5506.466632390108 3.915825199524953 -1650.7652421571756 -768.0274649117773 0.0 0.0
-5930.829351451953 10.134813184396322 -1776.2083614802675 -760.2829783316391 0.0 0.0
-6357.75656190408 20.06930184372891 -1901.3061780181058 -745.9628153921828 0.0 0.0
-6803.068309049622 27.20686234909725 -2032.7584340101573 -725.5962373430896 0.0 0.0
-7280.794335464212 42.34672913606818 -2171.5342818984436 -727.1627852363994 0.0 0.0
-7611.4104300527015 -3.476430978383547 -2284.466058309326 -895.9135183584499 0.0 0.0
-7563.3911387768785 -1009.9898692747968 -2572.0143024155027 -1126.86663742397 0.0 0.0
-8355.540969351037 -4112.762098638461 -3740.49092039685 -5.141487235960085e-11 0.0 0.0
-7563.391138776817 -1009.9898692746387 -2572.0143024154368 1126.8666374240163 0.0 0.0
-7611.410430053129 -3.476430979379824 -2284.466058309753 895.9135183584721 0.0 0.0
-7280.7943354637755 42.346729137123276 -2171.534281897996 727.1627852363856 0.0 0.0
-6803.068309049618 27.206862349082357 -2032.758434010161 725.5962373430485 0.0 0.0
-6357.756561904031 20.06930184390533 -1901.3061780180374 745.9628153921766 0.0 0.0
-5930.829351451743 10.13481318488491 -1776.2083614800567 760.2829783316587 0.0 0.0
-5506.466632390127 3.9158251993694826 -1650.765242157228 768.0274649117944 0.0 0.0
-5082.840070724614 1.0763266906121984 -1524.5291232102004 771.1205652794126 0.0 0.0
-4659.358096266318 -0.1290293024890019 -1397.8461376706423 771.917722899279 0.0 0.0
-4235.774769734833 -0.5837508895867618 -1270.907556187326 771.7473778779708 0.0 0.0
-3812.0580808295595 -0.5845629260691583 -1143.7927931266886 771.3939411023476 0.0 0.0
-3388.239392531707 0.4429353611731166 -1016.3389371511599 771.8485911666339 0.0 0.0
-2964.5753214193496 4.408030707453888 -888.050187213569 775.3605404149496 0.0 0.0
-2541.5953011393353 14.992314924912634 -757.980895864327 786.7288350295 0.0 0.0
-2119.108256843549 35.93630495470123 -624.9515855666543 813.5849033624811 0.0 0.0
-1692.5434006619253 61.829884711988925 -489.21405478498093 860.838869356627 0.0 0.0
-1248.3979622217373 54.38413572962321 -358.2041479476342 909.2619538049128 0.0 0.0
-784.0392175619681 -87.02428634564461 -261.3190511722838 876.5043252151393 0.0 0.0
-412.26738353105424 -448.1538383753829 -258.1263665719312 605.8622249888547 0.0 0.0
-192.40701221122754 -492.68468286099505 -205.5275085216667 320.95963393552216 0.0 0.0
-178.8593079488511 -291.42089333456573 -141.08406038502505 -250.97234185116116 0.0 0.0
-442.3092663590259 -346.8549461284233 -236.74926374623476 -496.1945605379698 0.0 0.0
-878.6950894414558 -67.76875693044029 -283.93915391156884 -745.9294934940514 0.0 0.0
-1438.388312566426 39.53627125641911 -419.655612393002 -784.1208872929088 0.0 0.0
-1992.1716959363043 46.122269870751666 -583.8148278196658 -740.6845159140053 0.0 0.0
-2525.260603696908 27.214577003831018 -749.4138080079231 -695.6663078419572 0.0 0.0
-3044.6082931907163 11.423203013712609 -909.9555270531009 -669.6145468350575 0.0 0.0
-3557.079406085697 3.353518319585934 -1066.117766329833 -658.5844995582695 0.0 0.0
-4066.675645341182 0.3275214991569939 -1219.9044371526074 -655.2493093025737 0.0 0.0
-4575.23385059943 -0.4522152927092691 -1372.7058197676422 -654.879004938998 0.0 0.0
-5083.483631879936 -0.446847368537739 -1525.1791437745428 -655.2681312810796 0.0 0.0
-5591.611758646436 -0.10735547447659499 -1677.515734236274 -655.4742422524245 0.0 0.0
-6099.424680139229 0.8150490401125126 -1829.5828893297357 -654.7360439002855 0.0 0.0
-6606.361848068379 2.9917830986091687 -1981.011019490931 -651.8019419435159 0.0 0.0
-7112.035016365386 7.4593630697622615 -2131.3726959886876 -644.2122430170888 0.0 0.0
-7614.417158370041 16.63832180553576 -2279.3336509693518 -629.3904306090164 0.0 0.0
-8124.729820006856 18.96532217039936 -2431.729349350938 -608.5250732349621 0.0 0.0
-8693.325002816515 23.454711070549102 -2600.9610875237895 -591.2976800798496 0.0 0.0
-9163.55667950613 92.29027784326277 -2721.3799204988604 -746.1427854448254 0.0 0.0
-9102.556887370973 -754.1521921030676 -2957.0127238422115 -1186.369722105827 0.0 0.0
-10353.496160510296 -5100.441857435856 -4636.181405383847 1.5575096767861396e-11 0.0 0.0
-9102.5568873709 -754.1521921028287 -2957.012723842119 1186.3697221058835 0.0 0.0
-9163.556679506271 92.29027784293541 -2721.379920499002 746.1427854448194 0.0 0.0
-8693.32500281645 23.45471107057251 -2600.961087523764 591.297680079935 0.0 0.0
-8124.729820006616 18.965322170955908 -2431.7293493506986 608.5250732349555 0.0 0.0
-7614.417158369782 16.63832180611598 -2279.3336509691 629.3904306090158 0.0 0.0
-7112.0350163655385 7.459363069401375 -2131.3726959888413 644.212243017073 0.0 0.0
-6606.361848068299 2.9917830988411014 -1981.0110194908384 651.8019419434589 0.0 0.0
-6099.424680139207 0.8150490401292316 -1829.582889329723 654.7360439002663 0.0 0.0
-5591.611758646444 -0.10735547451312488 -1677.515734236287 655.4742422523901 0.0 0.0
-5083.483631880038 -0.44684736869388786 -1525.1791437746194 655.2681312810732 0.0 0.0
-4575.233850599485 -0.4522152928275167 -1372.7058197676934 654.8790049389975 0.0 0.0
-4066.6756453413236 0.32752149883786985 -1219.9044371527455 655.2493093024893 0.0 0.0
-3557.0794060855965 3.3535183198085985 -1066.1177663297362 658.5844995583392 0.0 0.0
-3044.608293190764 11.423203013572625 -909.9555270531574 669.6145468350604 0.0 0.0
-2525.260603697037 27.214577003590477 -749.4138080080339 695.6663078420403 0.0 0.0
-1992.171695936194 46.12226987099564 -583.8148278195595 740.6845159140097 0.0 0.0
-1438.3883125664415 39.536271256357125 -419.6556123930254 784.1208872929294 0.0 0.0
-878.69508944147 -67.7687569304386 -283.9391539115726 745.9294934940275 0.0 0.0
-442.3092663589979 -346.85494612834486 -236.74926374620281 496.19456053795443 0.0 0.0
-178.85930794884618 -291.420893334587 -141.08406038503 250.97234185112777 0.0 0.0
-173.44530153761843 -150.83567185212218 -97.28429201692218 -181.1459218611282 0.0 0.0
-461.21850478589454 -252.38498453560402 -214.0810467964496 -378.58669477675113 0.0 0.0
-965.1014639117362 -47.93509607183091 -303.9109679950702 -592.707273001629 0.0 0.0
-1624.6553777519805 26.197318053969347 -479.5374179094033 -628.5654022050826 0.0 0.0
-2291.8264770668547 31.875214357648147 -677.985378812762 -591.6440051719225 0.0 0.0
-2932.716266355195 19.22330069673825 -874.047889697537 -552.5916660256571 0.0 0.0
-3548.71856981054 8.155002391765032 -1062.1690702256324 -529.880388272078 0.0 0.0
-4150.2100968641025 2.416733386570556 -1244.3380090432597 -520.3321213715251 0.0 0.0
-4745.3918300353025 0.24359064993252844 -1423.544471815611 -517.5193323543972 0.0 0.0
-5338.506967267755 -0.3188394462958115 -1601.647742014216 -517.2669568220916 0.0 0.0
-5931.239022635391 -0.31980847647208677 -1779.4676493335585 -517.6492426717688 0.0 0.0
-6523.932106313388 -0.06510551612497295 -1957.199163548854 -517.8589805397258 0.0 0.0
-7116.217858984775 0.5405882846747616 -2134.70318121003 -517.274547419556 0.0 0.0
-7706.621743912455 2.281091165912038 -2311.302195823963 -514.6974595724481 0.0 0.0
-8293.42317025661 4.92817134437032 -2486.5484996736727 -508.3219728870897 0.0 0.0
-8872.559413307705 12.41323832817961 -2658.043852493858 -494.0987751950622 0.0 0.0
-9438.93667794287 17.775197577180535 -2826.3484441097066 -475.6933958243897 0.0 0.0
-10075.419310768888 -12.867060559822335 -3026.4859113986136 -451.94441008737954 0.0 0.0
-10719.27820104696 145.70285271980393 -3172.0726044981484 -535.8485140771139 0.0 0.0
-10620.113756227433 -273.3675123236832 -3268.0443805653344 -1181.6235662751867 0.0 0.0
-12585.67380650287 -6368.156045265998 -5686.148955530661 9.663381206337363e-12 0.0 0.0
-10620.113756227329 -273.3675123234184 -3268.0443805652253 1181.6235662751615 0.0 0.0
-10719.278201046716 145.7028527204564 -3172.0726044978774 535.8485140771211 0.0 0.0
-10075.419310769015 -12.86706056021384 -3026.485911398769 451.94441008744707 0.0 0.0
-9438.936677942658 17.775197577639226 -2826.3484441095065 475.69339582439164 0.0 0.0
-8872.559413307445 12.413238328789003 -2658.0438524935958 494.09877519501003 0.0 0.0
-8293.423170256736 4.928171344034276 -2486.5484996738114 508.32197288706686 0.0 0.0
-7706.621743912157 2.281091166637971 -2311.3021958236573 514.697459572484 0.0 0.0
-7116.21785898481 0.54058828459174 -2134.7031812100654 517.2745474195586 0.0 0.0
-6523.932106313447 -0.06510551624813399 -1957.1991635489085 517.8589805397683 0.0 0.0
-5931.2390226354455 -0.3198084766406435 -1779.4676493336256 517.6492426717273 0.0 0.0
-5338.506967267633 -0.31883944601404357 -1601.647742014094 517.2669568220942 0.0 0.0
-4745.391830035397 0.24359064972371508 -1423.5444718157014 517.5193323543972 0.0 0.0
-4150.210096864084 2.416733386540771 -1244.338009043263 520.3321213715973 0.0 0.0
-3548.7185698105322 8.15500239170472 -1062.1690702256483 529.8803882720433 0.0 0.0
-2932.7162663552253 19.223300696655443 -874.0478896975712 552.5916660256458 0.0 0.0
-2291.826477066848 31.875214357689337 -677.9853788127475 591.6440051719402 0.0 0.0
-1624.6553777519775 26.19731805402291 -479.53741790938636 628.5654022051181 0.0 0.0
-965.101463911804 -47.935096071910856 -303.91096799511445 592.7072730016106 0.0 0.0
-461.2185047859056 -252.3849845356114 -214.08104679645513 378.5866947767589 0.0 0.0
-173.445301537605 -150.83567185208614 -97.28429201690732 181.14592186112606 0.0 0.0
-169.2432907286709 -70.47227134099646 -71.9146686209002 -116.7129797272183 0.0 0.0
-462.3183311818428 -168.97974131320285 -189.3894217485137 -254.9670006798819 0.0 0.0
-1038.9487497255268 -32.58720703902435 -321.4607870293654 -413.9025538662596 0.0 0.0
-1807.073199646586 14.937193542105062 -537.6408018313446 -440.5303129418928 0.0 0.0
-2593.721525366539 20.626112471787586 -771.9286238684257 -413.4562383872817 0.0 0.0
-3343.235436125396 12.838158979241916 -999.119183143846 -384.56626116304545 0.0 0.0
-4054.7585469175237 5.572948529705545 -1214.7556795163457 -367.7688371488874 0.0 0.0
-4744.24101768178 1.6939799102831898 -1422.764111331449 -360.75327291131447 0.0 0.0
-5424.420107490347 0.19212169822000646 -1627.2683957376375 -358.7285689464396 0.0 0.0
-6101.847228159863 -0.2066028508505795 -1830.6161493032137 -358.58125725948685 0.0 0.0
-6778.99830817546 -0.21163697965228678 -2033.7629835465343 -358.88688859311117 0.0 0.0
-7456.342118922903 -0.04453696473482438 -2236.9159967662918 -359.0612746338788 0.0 0.0
-8133.172567504707 0.4092472467600672 -2439.8289960773845 -358.6452848972772 0.0 0.0
-8807.76511133367 1.3958605164675575 -2641.9107752451614 -356.81148498439785 0.0 0.0
-9475.030697623368 4.197727955917763 -2841.249890900234 -351.83884111665697 0.0 0.0
-10133.433907922104 4.918485016783521 -3038.554626871597 -342.36066570315774 0.0 0.0
-10755.290822682484 25.742012747277116 -3218.864642980563 -321.85430689805867 0.0 0.0
-11408.604381222747 -39.406097020644445 -3434.4031434730177 -322.8494540405087 0.0 0.0
-12263.208659855864 63.03107705416738 -3660.053274840509 -299.45291870038983 0.0 0.0
-12089.266555153428 524.4772295062461 -3469.436797694155 -999.7889922958556 0.0 0.0
-15171.76224048773 -7958.543507517799 -6939.09172440166 2.086153472191654e-11 0.0 0.0
-12089.26655515337 524.4772295064171 -3469.436797694085 999.7889922958802 0.0 0.0
-12263.208659856093 63.03107705367164 -3660.053274840727 299.45291870036465 0.0 0.0
-11408.604381222702 -39.40609702055406 -3434.403143472976 322.8494540404753 0.0 0.0
-10755.290822682196 25.74201274792805 -3218.8646429802816 321.8543068979756 0.0 0.0
-10133.433907922108 4.918485016806379 -3038.554626871593 342.3606657031735 0.0 0.0
-9475.030697623257 4.19772795614004 -2841.2498909001347 351.8388411165801 0.0 0.0
-8807.765111333389 1.395860517143511 -2641.910775244874 356.8114849844213 0.0 0.0
-8133.172567504878 0.4092472463224297 -2439.828996077566 358.6452848972652 0.0 0.0
-7456.342118922911 -0.04453696473507396 -2236.915996766293 359.06127463389123 0.0 0.0
-6778.998308175338 -0.2116369793504873 -2033.7629835464065 358.88688859306205 0.0 0.0
-6101.847228159913 -0.2066028510900073 -1830.616149303301 358.58125725945433 0.0 0.0
-5424.4201074903285 0.1921216982210232 -1627.2683957376316 358.7285689464302 0.0 0.0
-4744.241017681903 1.69397991005218 -1422.7641113315556 360.75327291133175 0.0 0.0
-4054.7585469176374 5.57294852957846 -1214.7556795164178 367.7688371489726 0.0 0.0
-3343.235436125353 12.838158979303854 -999.119183143815 384.56626116307507 0.0 0.0
-2593.721525366544 20.626112471632357 -771.9286238684736 413.45623838726584 0.0 0.0
-1807.07319964653 14.937193542219031 -537.6408018312931 440.5303129418481 0.0 0.0
-1038.948749725572 -32.58720703912248 -321.4607870294084 413.90255386626933 0.0 0.0
-462.31833118179907 -168.97974131319387 -189.38942174849788 254.967000679855 0.0 0.0
-169.24329072857407 -70.47227134095327 -71.9146686208582 116.7129797272057 0.0 0.0
-152.52123906479167 -44.70501260635949 -59.16787550134534 -68.74290240822951 0.0 0.0
-435.43524552382763 -104.86024918140726 -162.0886484115705 -128.0174524649285 0.0 0.0
-1093.9091017701994 -27.44903732965768 -336.40744172995727 -202.30833204237123 0.0 0.0
-1985.980203127468 8.246351892984894 -593.320155370345 -217.6733481815219 0.0 0.0
-2900.859217536701 13.859448597129823 -866.0999306818713 -206.0784893157315 0.0 0.0
-3758.6466509120655 8.968013068611342 -1124.9035913530358 -192.14028113040996 0.0 0.0
-4563.545626285793 3.9986580357949997 -1367.8640904749998 -183.71257449477085 0.0 0.0
-5339.394074451942 1.2461233031839072 -1601.4443853446273 -180.07004390078046 0.0 0.0
-6103.761476055968 0.15484695799771941 -1831.0819887293912 -178.9633943172678 0.0 0.0
-6865.203442034661 -0.14186859361856818 -2059.6035931884835 -178.84406614864278 0.0 0.0
-7626.726656862495 -0.1490910890134245 -2288.062724385452 -178.97642926902657 0.0 0.0
-8388.78287105816 -0.02862123837693531 -2516.6434476889613 -179.04947194367386 0.0 0.0
-9150.501907203843 0.28963042489297663 -2745.0636830336853 -178.8093672788052 0.0 0.0
-9909.291672628833 1.0624986161675096 -2972.468752203799 -177.86911478356328 0.0 0.0
-10660.139619579086 2.622809456761381 -3197.2550430366973 -175.2660448766348 0.0 0.0
-11389.583351214136 6.222356450326423 -3415.008298429145 -170.5636372400909 0.0 0.0
-12100.93415580175 3.554186009219798 -3629.213990937757 -161.88846456868373 0.0 0.0
-12669.085441460486 58.686340117882665 -3783.1197304027814 -150.4942279358465 0.0 0.0
-13756.78897183479 -336.4711949021542 -4227.9780500210845 -237.3519854321703 0.0 0.0
-13469.32242469352 1695.8834165394976 -3532.0317024462083 -338.75933668223183 0.0 0.0
-18293.784389411765 -9783.652904729444 -8423.231188242364 2.4101609596982598e-11 0.0 0.0
-13469.322424693575 1695.883416539479 -3532.0317024462283 338.75933668220557 0.0 0.0
-13756.788971835114 -336.4711949028857 -4227.978050021401 237.3519854321459 0.0 0.0
-12669.085441460273 58.6863401182394 -3783.11973040261 150.49422793589497 0.0 0.0
-12100.934155801591 3.5541860095128293 -3629.213990937623 161.8884645686802 0.0 0.0
-11389.583351214384 6.22235644979488 -3415.0082984293767 170.56363724012854 0.0 0.0
-10660.139619578975 2.622809456961704 -3197.2550430366036 175.26604487661695 0.0 0.0
-9909.291672628842 1.0624986161090568 -2972.4687522038203 177.8691147835314 0.0 0.0
-9150.501907204132 0.289630424183021 -2745.0636830339854 178.80936727876679 0.0 0.0
-8388.78287105797 -0.028621237931105048 -2516.64344768877 179.04947194364036 0.0 0.0
-7626.726656862685 -0.14909108942227528 -2288.0627243856316 178.97642926904 0.0 0.0
-6865.203442034519 -0.1418685934535837 -2059.603593188392 178.8440661485879 0.0 0.0
-6103.761476055937 0.15484695786784775 -1831.081988729421 178.96339431725008 0.0 0.0
-5339.394074451775 1.2461233034898642 -1601.4443853444857 180.07004390078754 0.0 0.0
-4563.545626285821 3.9986580357536265 -1367.8640904750207 183.71257449479714 0.0 0.0
-3758.6466509120896 8.968013068562163 -1124.9035913530586 192.14028113045018 0.0 0.0
-2900.8592175367608 13.859448596904365 -866.0999306819571 206.07848931568975 0.0 0.0
-1985.9802031274721 8.246351892916064 -593.3201553703668 217.6733481814643 0.0 0.0
-1093.9091017702726 -27.449037329775724 -336.4074417300145 202.30833204238877 0.0 0.0
-435.4352455238882 -104.86024918145995 -162.0886484116045 128.01745246494173 0.0 0.0
-152.52123906483476 -44.70501260637371 -59.16787550136252 68.74290240818556 0.0 0.0
-79.37752523317377 -18.871389401852287 -29.474674390507815 -46.06595694220031 0.0 0.0
-354.7856630722064 -53.868331202229186 -122.59619828233073 -54.106039805967725 0.0 0.0
-1117.504969804084 -28.930905012897796 -343.9307624450946 -68.85784412554463 0.0 0.0
-2186.2795177960147 -41.32054986815268 -668.2800202992503 -76.77403392420665 0.0 0.0
-3253.66932347703 -72.87820343474925 -997.964258073534 -76.18927813557758 0.0 0.0
-4229.179456039053 -104.23656755247546 -1300.0248070774583 -72.6439198445958 0.0 0.0
-5133.726430322555 -131.50334664525803 -1579.5689330903438 -69.93464282135194 0.0 0.0
-6002.968174719064 -155.6298078590935 -1847.5793947734473 -68.53686508372883 0.0 0.0
-6859.816117938869 -178.28180035966523 -2111.4293754895602 -68.001496434182 0.0 0.0
-7714.356098259556 -200.47225316458886 -2374.448505427244 -67.86677290526984 0.0 0.0
-8569.708631079313 -222.61978445930967 -2637.6985246615873 -67.86180910164649 0.0 0.0
-9426.131907993979 -244.77990049513377 -2901.273542546734 -67.8510073729949 0.0 0.0
-10282.618209420238 -266.9638590732128 -3164.874620548035 -67.7125971945336 0.0 0.0
-11135.994229214431 -288.4176150832788 -3427.3235532893136 -67.33997638170143 0.0 0.0
-11980.461303005352 -310.5172059449696 -3687.2935526850965 -66.44255828002639 0.0 0.0
-12797.396308057841 -323.05673803473394 -3936.135913827773 -64.70631711570547 0.0 0.0
-13578.765295315607 -364.2797462179534 -4182.913512460069 -66.4709044516647 0.0 0.0
-14216.203081737993 -240.62443439329726 -4337.0482548393875 -45.22667114293375 0.0 0.0
-14872.054422756471 -811.0815769177917 -4704.940799902279 -222.0696521400099 0.0 0.0
-15182.98473501013 1926.1399663613263 -3977.0534305946417 -0.9997692527616664 0.0 0.0
-22451.238586905056 -11773.864957728854 -10267.531063390175 9.094947017729282e-13 0.0 0.0
-15182.984735010366 1926.1399663608909 -3977.053430594843 0.9997692527051072 0.0 0.0
-14872.05442275634 -811.0815769174322 -4704.9407999021305 222.06965214006925 0.0 0.0
-14216.203081737869 -240.62443439315135 -4337.048254839307 45.22667114298804 0.0 0.0
-13578.765295315672 -364.2797462181407 -4182.9135124601435 66.47090445172421 0.0 0.0
-12797.396308058158 -323.05673803541634 -3936.1359138280727 64.70631711587384 0.0 0.0
-11980.461303005133 -310.51720594451456 -3687.2935526848946 66.44255828014388 0.0 0.0
-11135.994229214786 -288.4176150840779 -3427.323553289659 67.33997638173372 0.0 0.0
-10282.618209420356 -266.9638590734155 -3164.874620548131 67.71259719461727 0.0 0.0
-9426.131907993553 -244.7799004941953 -2901.2735425463243 67.85100737287763 0.0 0.0
-8569.708631079799 -222.61978446048357 -2637.6985246620848 67.86180910174977 0.0 0.0
-7714.356098259016 -200.47225316334743 -2374.4485054267093 67.86677290526626 0.0 0.0
-6859.8161179389535 -178.28180035989524 -2111.4293754896544 68.00149643416313 0.0 0.0
-6002.968174718832 -155.62980785848507 -1847.5793947731954 68.53686508373636 0.0 0.0
-5133.726430322727 -131.50334664550968 -1579.5689330904709 69.93464282132686 0.0 0.0
-4229.17945603911 -104.2365675524708 -1300.024807077474 72.64391984457922 0.0 0.0
-3253.6693234771205 -72.87820343495574 -997.9642580736231 76.18927813546179 0.0 0.0
-2186.27951779605 -41.32054986829138 -668.2800202993028 76.77403392414858 0.0 0.0
-1117.5049698041328 -28.930905013037375 -343.93076244515106 68.85784412556274 0.0 0.0
-354.7856630722126 -53.868331202255256 -122.5961982823404 54.106039806061375 0.0 0.0
-79.37752523316513 -18.871389401823496 -29.474674390496595 46.065956942157804 0.0 0.0
SCALARS Strain float 6
LOOKUP_TABLE default
0.020564933773412508 -0.051084888028081074 0.0 -0.003437418363829517 0.0 0.0
0.018314750229476987 0.003982243746097655 0.0 -0.005339454661391233 0.0 0.0
0.01447525878851473 -0.007213345953119775 0.0 -0.0022836244854868275 0.0 0.0
0.013803819561758579 -0.005029131712631014 0.0 -0.00034011573672911423 0.0 0.0
0.016213563349566407 -0.006626001040426594 0.0 -0.0007838691912902557 0.0 0.0
0.019479592458785222 -0.0078924687552396 0.0 -0.0008077473048477917 0.0 0.0
0.023141189752002286 -0.009420863213780507 0.0 -0.0008565178868457748 0.0 0.0
0.02695316172382617 -0.010972740883798165 0.0 -0.0008750759267032852 0.0 0.0
0.03081081437550867 -0.0125455234219328 0.0 -0.0008816750544618147 0.0 0.0
0.03467577696059164 -0.014118788478041145 0.0 -0.0008833925735865471 0.0 0.0
0.038536490879962144 -0.015690479283307072 0.0 -0.0008833924657723272 0.0 0.0
0.042392417840674185 -0.017260164638437894 0.0 -0.000883588103616972 0.0 0.0
0.04624853987343977 -0.018829645025245943 0.0 -0.0008853090289391943 0.0 0.0
0.05011834574968037 -0.020403534607460125 0.0 -0.0008903787060766776 0.0 0.0
0.05403176088727324 -0.02199265638079935 0.0 -0.0009007583853492423 0.0 0.0
0.05804004380338279 -0.023616908990754297 0.0 -0.0009154782589574226 0.0 0.0
0.062194573248474286 -0.02529942099542743 0.0 -0.0009221438468865783 0.0 0.0
0.06645830551784564 -0.027034666719507473 0.0 -0.0008839203658062326 0.0 0.0
0.07052470933133055 -0.028714197561320418 0.0 -0.0007372613919356698 0.0 0.0
0.07365183016775008 -0.03003898610155893 0.0 -0.0004312923019352327 0.0 0.0
0.07485735328198649 -0.030564320310845577 0.0 -6.895525817007808e-17 0.0 0.0
0.07365183016775009 -0.030038986101561624 0.0 0.0004312923019348233 0.0 0.0
0.07052470933133036 -0.028714197561323707 0.0 0.0007372613919358942 0.0 0.0
0.06645830551784553 -0.02703466671950592 0.0 0.0008839203658061782 0.0 0.0
0.062194573248474314 -0.025299420995428687 0.0 0.0009221438468859861 0.0 0.0
0.058040043803382776 -0.023616908990750966 0.0 0.000915478258957689 0.0 0.0
0.05403176088727349 -0.021992656380799742 0.0 0.0009007583853487817 0.0 0.0
0.0501183457496803 -0.020403534607454057 0.0 0.0008903787060783363 0.0 0.0
0.04624853987343958 -0.018829645025248476 0.0 0.0008853090289385941 0.0 0.0
0.04239241784067392 -0.017260164638438866 0.0 0.000883588103615498 0.0 0.0
0.0385364908799619 -0.015690479283307676 0.0 0.0008833924657720949 0.0 0.0
0.034675776960591445 -0.014118788478041308 0.0 0.0008833925735862375 0.0 0.0
0.030810814375508817 -0.012545523421931222 0.0 0.0008816750544629888 0.0 0.0
0.026953161723826363 -0.010972740883797549 0.0 0.0008750759267031176 0.0 0.0
0.023141189752002175 -0.009420863213778947 0.0 0.0008565178868459298 0.0 0.0
0.0194795924587852 -0.007892468755240118 0.0 0.0008077473048496429 0.0 0.0
0.016213563349566355 -0.006626001040428063 0.0 0.0007838691912917315 0.0 0.0
0.013803819561758513 -0.005029131712630699 0.0 0.0003401157367284337 0.0 0.0
0.0144752587885149 -0.007213345953119852 0.0 0.0022836244854873952 0.0 0.0
0.018314750229477088 0.003982243746097692 0.0 0.005339454661390978 0.0 0.0
0.02056493377341235 -0.05108488802808129 0.0 0.00343741836382912 0.0 0.0
0.012805829553839024 -0.04748270619934318 0.0 -0.0023490339529982558 0.0 0.0
0.010834684048747864 0.0034514056782643477 0.0 -0.004257227268936079 0.0 0.0
0.0104017976071294 -0.0055938989266552976 0.0 -0.0015961663850380843 0.0 0.0
0.012516514884032236 -0.004962569589600496 0.0 -0.001321151188176939 0.0 0.0
0.01453923275429381 -0.006181232913729427 0.0 -0.001904826707562932 0.0 0.0
0.01757014472693769 -0.0074903706881568385 0.0 -0.0021578049826007943 0.0 0.0
0.020849192663109823 -0.008922095894549543 0.0 -0.002271227166670792 0.0 0.0
0.02427078864466537 -0.010397709986105126 0.0 -0.002317658680327004 0.0 0.0
0.02773527391485081 -0.011886121921823329 0.0 -0.002330405840391752 0.0 0.0
0.03121020244211333 -0.013376342359700916 0.0 -0.0023317108574832986 0.0 0.0
0.03468377773890662 -0.014865024045972005 0.0 -0.002329933259577563 0.0 0.0
0.03815470725408367 -0.01635210137315248 0.0 -0.0023290596708955857 0.0 0.0
0.04162709793837079 -0.017839017258376725 0.0 -0.0023322895356414648 0.0 0.0
0.04511227592246978 -0.019329698820852885 0.0 -0.0023452772058673637 0.0 0.0
0.0486338197478949 -0.020833352195842272 0.0 -0.0023768924007208144 0.0 0.0
0.052228417009318774 -0.022367118864482522 0.0 -0.00243289574634502 0.0 0.0
0.05592332519751337 -0.023951367603095075 0.0 -0.002492753144320426 0.0 0.0
0.059659600211827396 -0.025581975076980443 0.0 -0.0024644287771260023 0.0 0.0
0.06315127304857923 -0.027163302397017957 0.0 -0.002148259690232423 0.0 0.0
0.06578044283580628 -0.028422397502071442 0.0 -0.0013164758447187985 0.0 0.0
0.06678014518486812 -0.02893065050700932 0.0 4.629543276513104e-16 0.0 0.0
0.06578044283580636 -0.028422397502071615 0.0 0.0013164758447189542 0.0 0.0
0.0631512730485792 -0.027163302397019185 0.0 0.002148259690232815 0.0 0.0
0.0596596002118273 -0.025581975076977334 0.0 0.002464428777126154 0.0 0.0
0.055923325197513335 -0.023951367603095425 0.0 0.0024927531443195514 0.0 0.0
0.05222841700931878 -0.02236711886448101 0.0 0.002432895746344964 0.0 0.0
0.048633819747895074 -0.020833352195842914 0.0 0.0023768924007213036 0.0 0.0
0.04511227592246966 -0.01932969882085132 0.0 0.0023452772058670922 0.0 0.0
0.04162709793837061 -0.017839017258378463 0.0 0.002332289535639927 0.0 0.0
0.038154707254083584 -0.016352101373152857 0.0 0.0023290596708960805 0.0 0.0
0.034683777738906685 -0.01486502404597113 0.0 0.002329933259578254 0.0 0.0
0.03121020244211352 -0.01337634235970255 0.0 0.002331710857483406 0.0 0.0
0.027735273914850863 -0.011886121921822852 0.0 0.0023304058403913926 0.0 0.0
0.024270788644665288 -0.010397709986105527 0.0 0.002317658680327239 0.0 0.0
0.020849192663109722 -0.008922095894548732 0.0 0.002271227166671089 0.0 0.0
0.017570144726937638 -0.007490370688157546 0.0 0.0021578049826021083 0.0 0.0
0.014539232754293929 -0.006181232913730237 0.0 0.0019048267075643006 0.0 0.0
0.012516514884032168 -0.004962569589600441 0.0 0.0013211511881760897 0.0 0.0
0.010401797607129268 -0.005593898926655411 0.0 0.00159616638503804 0.0 0.0
0.01083468404874783 0.0034514056782646053 0.0 0.004257227268936204 0.0 0.0
0.012805829553838898 -0.047482706199343375 0.0 0.0023490339529987723 0.0 0.0
0.009185066917164787 -0.04069244772559805 0.0 -0.010818360305208902 0.0 0.0
0.00697768750939459 0.0018896503336052876 0.0 -0.0076984271220571256 0.0 0.0
0.007165151876089272 -0.00286723811730797 0.0 -0.001082357001922752 0.0 0.0
0.010584980101621878 -0.004470633448291215 0.0 -0.003047686702572638 0.0 0.0
0.012878340573883859 -0.0053641574043654175 0.0 -0.0037927771300779204 0.0 0.0
0.015594038275637934 -0.00664456062697438 0.0 -0.004346875869931011 0.0 0.0
0.018544370493837097 -0.007926504864632106 0.0 -0.004563445209331929 0.0 0.0
0.021581965672281114 -0.00924418439089415 0.0 -0.004650966618717485 0.0 0.0
0.024658933810788028 -0.010567499223663025 0.0 -0.004674480431846983 0.0 0.0
0.027745029439358276 -0.011891509973522585 0.0 -0.004675840503155702 0.0 0.0
0.030831595335773017 -0.013214319393451482 0.0 -0.004671821031311446 0.0 0.0
0.03391694904578844 -0.01453597485901073 0.0 -0.0046696528449773084 0.0 0.0
0.03700404444559946 -0.015857289107090878 0.0 -0.004675424852332234 0.0 0.0
0.04010110535603786 -0.017180445915873435 0.0 -0.004700354415672156 0.0 0.0
0.04322474115096328 -0.018511133482642935 0.0 -0.004763009489125931 0.0 0.0
0.046399558374284985 -0.019861592043486406 0.0 -0.004877943867525882 0.0 0.0
0.049639679789046494 -0.021250153590112373 0.0 -0.005010276392946431 0.0 0.0
0.052887877707258966 -0.02268397137253829 0.0 -0.004981600033727811 0.0 0.0
0.055902772551200484 -0.024103716439102005 0.0 -0.004382236436300031 0.0 0.0
0.05816792009774782 -0.025284196482925732 0.0 -0.002712450007161565 0.0 0.0
0.059029896187296566 -0.025788003785201588 0.0 3.8142232428040046e-16 0.0 0.0
0.058167920097747725 -0.02528419648292685 0.0 0.0027124500071618505 0.0 0.0
0.05590277255120056 -0.024103716439101856 0.0 0.004382236436299754 0.0 0.0
0.052887877707258876 -0.02268397137253643 0.0 0.004981600033728592 0.0 0.0
0.0496396797890466 -0.021250153590114312 0.0 0.005010276392945549 0.0 0.0
0.04639955837428505 -0.019861592043486708 0.0 0.004877943867525337 0.0 0.0
0.04322474115096338 -0.018511133482641592 0.0 0.004763009489125981 0.0 0.0
0.0401011053560379 -0.01718044591587653 0.0 0.004700354415671416 0.0 0.0
0.03700404444559954 -0.015857289107089608 0.0 0.004675424852331531 0.0 0.0
0.03391694904578837 -0.01453597485900994 0.0 0.004669652844978452 0.0 0.0
0.030831595335772913 -0.013214319393451978 0.0 0.00467182103131232 0.0 0.0
0.027745029439358356 -0.011891509973522306 0.0 0.004675840503155726 0.0 0.0
0.0246589338107881 -0.010567499223663694 0.0 0.004674480431847039 0.0 0.0
0.021581965672281135 -0.009244184390894106 0.0 0.004650966618717375 0.0 0.0
0.018544370493837264 -0.007926504864632249 0.0 0.0045634452093319166 0.0 0.0
0.015594038275638052 -0.006644560626973447 0.0 0.004346875869930715 0.0 0.0
0.012878340573883698 -0.005364157404366286 0.0 0.00379277713007869 0.0 0.0
0.010584980101621884 -0.004470633448291044 0.0 0.003047686702572136 0.0 0.0
0.007165151876089328 -0.002867238117307705 0.0 0.001082357001921531 0.0 0.0
0.006977687509394689 0.0018896503336052058 0.0 0.007698427122057689 0.0 0.0
0.00918506691716511 -0.040692447725598074 0.0 0.010818360305209187 0.0 0.0
0.007296032915364792 -0.034723912918327195 0.0 -0.013505453483155301 0.0 0.0
0.004912741482468016 -0.00011940281253614317 0.0 -0.01054277102495395 0.0 0.0
0.0048224844467995315 -0.0011268133937659924 0.0 -0.003207856765621686 0.0 0.0
0.008521475787409827 -0.0035173471873800374 0.0 -0.004405729154938151 0.0 0.0
0.011117277726047734 -0.0045976217342955095 0.0 -0.0056421097420456335 0.0 0.0
0.013600465554780132 -0.005755074702284371 0.0 -0.006275097400326581 0.0 0.0
0.016219955643995518 -0.006925150927868312 0.0 -0.006590568378036401 0.0 0.0
0.01888902878984695 -0.008086789759958692 0.0 -0.006706280345722378 0.0 0.0
0.02158098344020104 -0.009248372311499473 0.0 -0.006740495171781225 0.0 0.0
0.02427996802310914 -0.010406860844639593 0.0 -0.006742978934015333 0.0 0.0
0.026979640446863833 -0.011563881735584551 0.0 -0.006737977174178036 0.0 0.0
0.0296789791685797 -0.012719805364079071 0.0 -0.006735342143526699 0.0 0.0
0.03237950768399041 -0.013874670174423415 0.0 -0.006743477985301917 0.0 0.0
0.03508584136019835 -0.01502841328955272 0.0 -0.006777451152266261 0.0 0.0
0.037807545023756675 -0.016182804254867216 0.0 -0.006861982115434187 0.0 0.0
0.04055978282117441 -0.017346416173189067 0.0 -0.00701612017225875 0.0 0.0
0.04335289554242015 -0.018541822320173585 0.0 -0.007190981426578694 0.0 0.0
0.04614957686350216 -0.019802442563046783 0.0 -0.007137583583585402 0.0 0.0
0.04876824430600497 -0.021123774900741472 0.0 -0.006277146840947754 0.0 0.0
0.05077138553144179 -0.022320192200447276 0.0 -0.003889728174977188 0.0 0.0
0.05154538932949635 -0.022873972714113705 0.0 -1.8669961410200386e-16 0.0 0.0
0.05077138553144168 -0.022320192200449406 0.0 0.003889728174977376 0.0 0.0
0.04876824430600487 -0.021123774900742198 0.0 0.006277146840947942 0.0 0.0
0.04614957686350212 -0.019802442563046276 0.0 0.00713758358358524 0.0 0.0
0.04335289554242016 -0.018541822320174626 0.0 0.007190981426577885 0.0 0.0
0.0405597828211744 -0.01734641617318807 0.0 0.00701612017225926 0.0 0.0
0.03780754502375672 -0.01618280425486578 0.0 0.006861982115434139 0.0 0.0
0.035085841360198274 -0.015028413289553955 0.0 0.006777451152266977 0.0 0.0
0.032379507683990394 -0.013874670174422626 0.0 0.006743477985301963 0.0 0.0
0.029678979168579665 -0.012719805364078667 0.0 0.006735342143525749 0.0 0.0
0.02697964044686368 -0.011563881735585351 0.0 0.006737977174178653 0.0 0.0
0.02427996802310927 -0.010406860844639529 0.0 0.006742978934015025 0.0 0.0
0.021580983440201203 -0.00924837231149959 0.0 0.00674049517178088 0.0 0.0
0.018889028789846937 -0.008086789759957271 0.0 0.006706280345722288 0.0 0.0
0.016219955643995577 -0.006925150927868768 0.0 0.006590568378037762 0.0 0.0
0.01360046555478019 -0.0057550747022839105 0.0 0.006275097400325315 0.0 0.0
0.011117277726047715 -0.004597621734295493 0.0 0.005642109742045491 0.0 0.0
0.008521475787409605 -0.0035173471873801406 0.0 0.00440572915493867 0.0 0.0
0.004822484446799526 -0.0011268133937655184 0.0 0.0032078567656206 0.0 0.0
0.00491274148246813 -0.00011940281253641511 0.0 0.010542771024953317 0.0 0.0
0.007296032915364653 -0.03472391291832708 0.0 0.01350545348315498 0.0 0.0
0.0061580112617513234 -0.029537813138676462 0.0 -0.013813680664105328 0.0 0.0
0.003747087070474531 -0.0018505139642865862 0.0 -0.012466631739888935 0.0 0.0
0.0031754194669372177 -0.00018812101093131415 0.0 -0.0060783557499638945 0.0 0.0
0.0065730951903095036 -0.002487270608418798 0.0 -0.006011963146525663 0.0 0.0
0.009289028446285697 -0.003783842764541521 0.0 -0.007292263713056071 0.0 0.0
0.011589575584847174 -0.004862524139362928 0.0 -0.007997110827875915 0.0 0.0
0.013884634354927169 -0.005912527399554132 0.0 -0.008349085007474926 0.0 0.0
0.01619106395439937 -0.006927680643070697 0.0 -0.008488450208422822 0.0 0.0
0.018501755756455584 -0.00792827164137688 0.0 -0.00852913086917037 0.0 0.0
0.020814614478751093 -0.00892223651182436 0.0 -0.008533466149692663 0.0 0.0
0.02312770553905009 -0.00991352197251554 0.0 -0.008528314182422484 0.0 0.0
0.02544069450284857 -0.010903510043981542 0.0 -0.008525768217778416 0.0 0.0
0.0277537558156865 -0.011891322352742092 0.0 -0.008535593372693115 0.0 0.0
0.030067681838054125 -0.012874434363202075 0.0 -0.008574916510086319 0.0 0.0
0.03238528227801963 -0.01385060913959299 0.0 -0.008671533000108155 0.0 0.0
0.034714615378390906 -0.014825827439493046 0.0 -0.008846718532916003 0.0 0.0
0.03706946265582737 -0.01583156762803128 0.0 -0.009042697844160858 0.0 0.0
0.03944590054089204 -0.016938694258345176 0.0 -0.008961492300926315 0.0 0.0
0.04173273167119036 -0.018211883657351 0.0 -0.0078913702741228 0.0 0.0
0.04355371774602478 -0.019501028323959675 0.0 -0.004909265771237771 0.0 0.0
0.04427852933947365 -0.02015323690970667 0.0 -4.2522409204881484e-16 0.0 0.0
0.043553717746024755 -0.019501028323958194 0.0 0.004909265771237481 0.0 0.0
0.04173273167119024 -0.018211883657352074 0.0 0.00789137027412309 0.0 0.0
0.03944590054089191 -0.016938694258344135 0.0 0.00896149230092613 0.0 0.0
0.03706946265582733 -0.015831567628029685 0.0 0.009042697844160282 0.0 0.0
0.03471461537839092 -0.014825827439491797 0.0 0.008846718532915888 0.0 0.0
0.03238528227801971 -0.013850609139593377 0.0 0.008671533000107295 0.0 0.0
0.030067681838054194 -0.012874434363202809 0.0 0.008574916510086388 0.0 0.0
0.02775375581568648 -0.011891322352743379 0.0 0.00853559337269308 0.0 0.0
0.025440694502848447 -0.010903510043981731 0.0 0.008525768217777802 0.0 0.0
0.023127705539050015 -0.009913521972514548 0.0 0.008528314182423004 0.0 0.0
0.020814614478751117 -0.008922236511825807 0.0 0.00853346614969219 0.0 0.0
0.01850175575645549 -0.00792827164137624 0.0 0.008529130869170074 0.0 0.0
0.01619106395439946 -0.0069276806430710455 0.0 0.008488450208423143 0.0 0.0
0.01388463435492722 -0.0059125273995532706 0.0 0.008349085007475457 0.0 0.0
0.011589575584847158 -0.004862524139364203 0.0 0.007997110827875612 0.0 0.0
0.009289028446285753 -0.0037838427645409583 0.0 0.007292263713056177 0.0 0.0
0.006573095190309412 -0.0024872706084191204 0.0 0.006011963146526047 0.0 0.0
0.003175419466937191 -0.00018812101093098455 0.0 0.006078355749964059 0.0 0.0
0.003747087070474403 -0.0018505139642863591 0.0 0.012466631739887858 0.0 0.0
0.006158011261751047 -0.02953781313867649 0.0 0.013813680664105151 0.0 0.0
0.00535128423330049 -0.02505243966997838 0.0 -0.013178759435182368 0.0 0.0
0.003028564605553653 -0.0031065319617845965 0.0 -0.01360363805572708 0.0 0.0
0.0020108975715074666 0.00022763792596067336 0.0 -0.00885551058419406 0.0 0.0
0.004828051178307022 -0.001556330378752399 0.0 -0.007807553494599783 0.0 0.0
0.007452378122618992 -0.0029386438236273767 0.0 -0.008790449585132542 0.0 0.0
0.00956512230025416 -0.003967165712710982 0.0 -0.009496286100886925 0.0 0.0
0.011543637228819691 -0.004895526381607001 0.0 -0.009850441944404776 0.0 0.0
0.013489288526921652 -0.005766241994196115 0.0 -0.009997482904944215 0.0 0.0
0.015421175453871894 -0.006607594862596753 0.0 -0.010041844224417637 0.0 0.0
0.017348827515330355 -0.0074373824695863205 0.0 -0.01004745999220084 0.0 0.0
0.019275585661677083 -0.008263118283466145 0.0 -0.010042833237697469 0.0 0.0
0.021202061203640377 -0.009087043237661392 0.0 -0.010040654317648934 0.0 0.0
0.023127139851806998 -0.009907483690903735 0.0 -0.0100511871580938 0.0 0.0
0.02504790523515676 -0.010719434161877348 0.0 -0.010091811974247689 0.0 0.0
0.026960897405928354 -0.011516782240303154 0.0 -0.010190764212562813 0.0 0.0
0.028868800617110793 -0.012303563736284308 0.0 -0.010370677642725975 0.0 0.0
0.03079361989407873 -0.013122804917986695 0.0 -0.010573243999963322 0.0 0.0
0.03277423312149658 -0.014090357392167938 0.0 -0.01047714594525896 0.0 0.0
0.03477900001626154 -0.015353039316326127 0.0 -0.009270014067416718 0.0 0.0
0.03648225233419507 -0.016801039900481884 0.0 -0.00581664339251518 0.0 0.0
0.03719026662949088 -0.017601365107639242 0.0 1.2902005852577503e-16 0.0 0.0
0.03648225233419508 -0.016801039900480246 0.0 0.005816643392515223 0.0 0.0
0.03477900001626138 -0.015353039316325152 0.0 0.009270014067415679 0.0 0.0
0.03277423312149642 -0.014090357392169694 0.0 0.010477145945259633 0.0 0.0
0.030793619894078736 -0.013122804917986702 0.0 0.010573243999963679 0.0 0.0
0.02886880061711073 -0.012303563736284853 0.0 0.010370677642726566 0.0 0.0
0.026960897405928365 -0.01151678224030345 0.0 0.010190764212563368 0.0 0.0
0.025047905235156806 -0.010719434161881551 0.0 0.010091811974247808 0.0 0.0
0.023127139851806974 -0.009907483690902925 0.0 0.010051187158093926 0.0 0.0
0.021202061203640373 -0.009087043237659763 0.0 0.01004065431764914 0.0 0.0
0.019275585661676968 -0.008263118283466387 0.0 0.010042833237697496 0.0 0.0
0.017348827515330314 -0.0074373824695859285 0.0 0.010047459992200575 0.0 0.0
0.01542117545387189 -0.006607594862595037 0.0 0.010041844224417576 0.0 0.0
0.013489288526921661 -0.005766241994197637 0.0 0.009997482904945301 0.0 0.0
0.01154363722881971 -0.004895526381606151 0.0 0.00985044194440422 0.0 0.0
0.009565122300254155 -0.003967165712711807 0.0 0.009496286100887093 0.0 0.0
0.007452378122619044 -0.002938643823627561 0.0 0.008790449585131865 0.0 0.0
0.004828051178307086 -0.0015563303787519383 0.0 0.007807553494600142 0.0 0.0
0.0020108975715073577 0.00022763792596072058 0.0 0.008855510584194147 0.0 0.0
0.003028564605553594 -0.0031065319617844447 0.0 0.013603638055727058 0.0 0.0
0.0053512842333007 -0.025052439669978537 0.0 0.0131787594351822 0.0 0.0
0.004690288344594202 -0.021166977812399575 0.0 -0.01221865353273277 0.0 0.0
0.002523609351975188 -0.0038911477591486374 0.0 -0.014152543206952133 0.0 0.0
0.0011595360981477391 0.0003484542890485721 0.0 -0.01120034360802274 0.0 0.0
0.0032946948282944226 -0.0007786498685810567 0.0 -0.009606000507118162 0.0 0.0
0.005653185408550564 -0.002099158117287439 0.0 -0.010154436823939773 0.0 0.0
0.007537848399033742 -0.0030705752634488663 0.0 -0.010768053893042005 0.0 0.0
0.009200335976777729 -0.0038782417078293673 0.0 -0.01109598437871951 0.0 0.0
0.010785380825265974 -0.004603446624709117 0.0 -0.01123528310737277 0.0 0.0
0.012339352207964387 -0.0052863580082136395 0.0 -0.011279077031085237 0.0 0.0
0.013882492619385822 -0.005952242233113438 0.0 -0.01128532108351071 0.0 0.0
0.015423142341410886 -0.006612543787720158 0.0 -0.011281524162143505 0.0 0.0
0.016963079856782137 -0.007270401619791877 0.0 -0.011279837753177717 0.0 0.0
0.018500047924222777 -0.00792342505885644 0.0 -0.011289951854972636 0.0 0.0
0.02002776938630287 -0.008564342489047326 0.0 -0.011327882758624641 0.0 0.0
0.021537128724303765 -0.009183441501081798 0.0 -0.011420009358881647 0.0 0.0
0.023026394372342787 -0.00978290544190288 0.0 -0.011590144315718826 0.0 0.0
0.02452795414611168 -0.010417658981813129 0.0 -0.011789505149423542 0.0 0.0
0.026129363914177025 -0.011252507088273762 0.0 -0.011702168753363261 0.0 0.0
0.027888417403653765 -0.012529870116880292 0.0 -0.010446587611986361 0.0 0.0
0.029527586321817942 -0.014196970598079204 0.0 -0.006648003915802018 0.0 0.0
0.03024795094387516 -0.015202506024426066 0.0 -2.8471149049469346e-16 0.0 0.0
0.029527586321817928 -0.014196970598078718 0.0 0.006648003915802251 0.0 0.0
0.02788841740365365 -0.012529870116879612 0.0 0.010446587611985747 0.0 0.0
0.02612936391417699 -0.011252507088274256 0.0 0.011702168753364328 0.0 0.0
0.024527954146111648 -0.010417658981813564 0.0 0.011789505149424373 0.0 0.0
0.023026394372342888 -0.009782905441904449 0.0 0.011590144315718124 0.0 0.0
0.021537128724303748 -0.009183441501080905 0.0 0.011420009358881768 0.0 0.0
0.020027769386302675 -0.008564342489047954 0.0 0.011327882758624227 0.0 0.0
0.018500047924222846 -0.007923425058855703 0.0 0.011289951854973142 0.0 0.0
0.016963079856782175 -0.0072704016197909956 0.0 0.011279837753178925 0.0 0.0
0.01542314234141074 -0.0066125437877207925 0.0 0.011281524162143931 0.0 0.0
0.01388249261938585 -0.0059522422331133255 0.0 0.011285321083510736 0.0 0.0
0.012339352207964444 -0.005286358008212351 0.0 0.011279077031084685 0.0 0.0
0.010785380825266087 -0.004603446624709752 0.0 0.011235283107372976 0.0 0.0
0.0092003359767778 -0.0038782417078308574 0.0 0.011095984378718716 0.0 0.0
0.007537848399033662 -0.0030705752634486026 0.0 0.010768053893042327 0.0 0.0
0.005653185408550556 -0.002099158117286732 0.0 0.01015443682393989 0.0 0.0
0.0032946948282943775 -0.0007786498685803843 0.0 0.009606000507118267 0.0 0.0
0.0011595360981475728 0.00034845428904802694 0.0 0.011200343608022469 0.0 0.0
0.002523609351975167 -0.0038911477591486348 0.0 0.014152543206952934 0.0 0.0
0.0046902883445943 -0.021166977812399755 0.0 0.012218653532733149 0.0 0.0
0.00409253347957426 -0.017782514333887302 0.0 -0.011194063851448348 0.0 0.0
0.0021114848458660992 -0.004275979255565656 0.0 -0.014277548278751412 0.0 0.0
0.0005001766819286562 0.00033166925949165135 0.0 -0.013006242873938976 0.0 0.0
0.001947145063310036 -0.00014955232206738297 0.0 -0.011243606832798663 0.0 0.0
0.003917664643571209 -0.0012941277420847083 0.0 -0.01136208264729009 0.0 0.0
0.005520362539858324 -0.002179059217460651 0.0 -0.011811006780956205 0.0 0.0
0.0068580454753860145 -0.002863035870822417 0.0 -0.012083880772357511 0.0 0.0
0.008080790578447782 -0.003440567116794918 0.0 -0.012202716582873111 0.0 0.0
0.009256577892568127 -0.003964670808159235 0.0 -0.012241238510050956 0.0 0.0
0.010415528571392775 -0.004466765694623532 0.0 -0.012247284693005853 0.0 0.0
0.01157027985025533 -0.004961717888594984 0.0 -0.012244445452237638 0.0 0.0
0.012723776747820525 -0.005453597368053075 0.0 -0.012243247106744981 0.0 0.0
0.01387285616271159 -0.005939417506191051 0.0 -0.012251846712952845 0.0 0.0
0.01500842330662816 -0.006410014510225594 0.0 -0.012283490956224977 0.0 0.0
0.016116430162551917 -0.006852500141605068 0.0 -0.012360692239543121 0.0 0.0
0.017190902181517063 -0.007266756681153988 0.0 -0.012508211827552872 0.0 0.0
0.018274044810869434 -0.0077175226213874685 0.0 -0.012696920732055398 0.0 0.0
0.01950452992461774 -0.008418708572384952 0.0 -0.012647465973792014 0.0 0.0
0.021041371015547015 -0.00972305558371126 0.0 -0.011444249714349661 0.0 0.0
0.02266250581464458 -0.01166658794548597 0.0 -0.0074337195085487735 0.0 0.0
0.023423472277853487 -0.01294839316288739 0.0 -8.153200337090993e-17 0.0 0.0
0.0226625058146447 -0.011666587945488607 0.0 0.007433719508548722 0.0 0.0
0.021041371015547008 -0.009723055583710694 0.0 0.0114442497143496 0.0 0.0
0.019504529924617722 -0.008418708572383853 0.0 0.012647465973792696 0.0 0.0
0.018274044810869555 -0.007717522621386872 0.0 0.012696920732055328 0.0 0.0
0.017190902181517146 -0.007266756681154072 0.0 0.012508211827552579 0.0 0.0
0.01611643016255172 -0.006852500141601725 0.0 0.012360692239542994 0.0 0.0
0.015008423306628115 -0.006410014510223412 0.0 0.012283490956225204 0.0 0.0
0.013872856162711724 -0.0059394175061926995 0.0 0.012251846712953622 0.0 0.0
0.012723776747820478 -0.005453597368053812 0.0 0.012243247106744829 0.0 0.0
0.011570279850255114 -0.0049617178885948 0.0 0.01224444545223716 0.0 0.0
0.010415528571392794 -0.004466765694623754 0.0 0.012247284693005633 0.0 0.0
0.0092565778925681 -0.003964670808158481 0.0 0.012241238510050555 0.0 0.0
0.008080790578447737 -0.003440567116794827 0.0 0.012202716582872933 0.0 0.0
0.006858045475386254 -0.002863035870823858 0.0 0.012083880772356921 0.0 0.0
0.005520362539858508 -0.0021790592174607513 0.0 0.01181100678095571 0.0 0.0
0.003917664643571085 -0.0012941277420845596 0.0 0.01136208264729038 0.0 0.0
0.0019471450633099757 -0.0001495523220671914 0.0 0.011243606832799095 0.0 0.0
0.0005001766819288293 0.0003316692594917597 0.0 0.013006242873938676 0.0 0.0
0.002111484845866148 -0.004275979255565445 0.0 0.014277548278752068 0.0 0.0
0.0040925334795742065 -0.01778251433388725 0.0 0.011194063851448183 0.0 0.0
0.0035227910246892844 -0.014813314862852218 0.0 -0.010204440662776953 0.0 0.0
0.0017312223036017984 -0.004346873733083237 0.0 -0.014094429290263291 0.0 0.0
-4.91927676988134e-05 0.000276193819449707 0.0 -0.014269478010003528 0.0 0.0
0.0007488457285158336 0.00035866810782703715 0.0 -0.01260834325400797 0.0 0.0
0.002255892484360704 -0.0005386570078132919 0.0 -0.012372881626420506 0.0 0.0
0.003523228894671257 -0.0013001986990889556 0.0 -0.012619125265723913 0.0 0.0
0.0045202238935284555 -0.001851954069064114 0.0 -0.012811511582793369 0.0 0.0
0.00537670409715883 -0.002278618316978594 0.0 -0.012899450927788787 0.0 0.0
0.0061731802461990745 -0.002642747634760296 0.0 -0.012928598811541186 0.0 0.0
0.006947901513935939 -0.0029809129120392185 0.0 -0.012933530903917969 0.0 0.0
0.007716930589926079 -0.0033105876827937064 0.0 -0.012931682770167834 0.0 0.0
0.008484189718297121 -0.0036366531335538877 0.0 -0.012930905194546136 0.0 0.0
0.009245889432731545 -0.003955699418761658 0.0 -0.012937058709059954 0.0 0.0
0.009990828696746043 -0.004257164002138014 0.0 -0.012959518668336808 0.0 0.0
0.010700898934782464 -0.004525581867221941 0.0 -0.013015187761067446 0.0 0.0
0.01136542610836155 -0.004757728162852993 0.0 -0.013128843853753168 0.0 0.0
0.012033123778865253 -0.0050236534161537385 0.0 -0.013299399720096769 0.0 0.0
0.012892366425216451 -0.005582033190518372 0.0 -0.013316949180321013 0.0 0.0
0.01421744066252207 -0.006911429052992726 0.0 -0.012276247646432462 0.0 0.0
0.015860984839981603 -0.009187111455351369 0.0 -0.008200767593888224 0.0 0.0
0.0166918311178501 -0.010838294889581728 0.0 -3.5670251474773096e-16 0.0 0.0
0.015860984839981593 -0.00918711145535131 0.0 0.008200767593887846 0.0 0.0
0.014217440662521924 -0.0069114290529919175 0.0 0.012276247646433347 0.0 0.0
0.01289236642521626 -0.005582033190518282 0.0 0.013316949180321249 0.0 0.0
0.012033123778865113 -0.005023653416151503 0.0 0.013299399720096479 0.0 0.0
0.011365426108361604 -0.004757728162851917 0.0 0.013128843853752625 0.0 0.0
0.010700898934782422 -0.004525581867218939 0.0 0.013015187761067994 0.0 0.0
0.00999082869674605 -0.004257164002137348 0.0 0.012959518668336983 0.0 0.0
0.009245889432731599 -0.003955699418761638 0.0 0.012937058709059843 0.0 0.0
0.00848418971829714 -0.0036366531335528885 0.0 0.012930905194545782 0.0 0.0
0.007716930589926035 -0.0033105876827927965 0.0 0.012931682770167893 0.0 0.0
0.006947901513935962 -0.0029809129120392406 0.0 0.012933530903918052 0.0 0.0
0.006173180246199114 -0.0026427476347591393 0.0 0.012928598811541004 0.0 0.0
0.005376704097158834 -0.002278618316977989 0.0 0.012899450927789028 0.0 0.0
0.004520223893528448 -0.0018519540690633053 0.0 0.01281151158279247 0.0 0.0
0.0035232288946713177 -0.0013001986990898299 0.0 0.01261912526572445 0.0 0.0
0.002255892484360783 -0.0005386570078135789 0.0 0.012372881626420393 0.0 0.0
0.0007488457285158353 0.0003586681078266377 0.0 0.012608343254008635 0.0 0.0
-4.919276769880666e-05 0.0002761938194501885 0.0 0.014269478010003552 0.0 0.0
0.0017312223036018777 -0.004346873733082963 0.0 0.014094429290263085 0.0 0.0
0.0035227910246893846 -0.014813314862852025 0.0 0.010204440662776683 0.0 0.0
0.0029680940696226554 -0.012190912378989695 0.0 -0.009275936689987996 0.0 0.0
0.001353983469640951 -0.004183525435552682 0.0 -0.013678591080872857 0.0 0.0
-0.0005419095863601562 0.00023925441272377415 0.0 -0.015027002832292177 0.0 0.0
-0.00033634278750631894 0.0007787366928567907 0.0 -0.013633981034415432 0.0 0.0
0.0006672134535228846 0.0001632300924692318 0.0 -0.013144196819438543 0.0 0.0
0.0015533322418108332 -0.0004401016207151233 0.0 -0.013180990045311019 0.0 0.0
0.0021899750355563953 -0.0008469595778115605 0.0 -0.01327534917473981 0.0 0.0
0.002674087153284189 -0.0011183226040722821 0.0 -0.013324435424400325 0.0 0.0
0.003089433090210262 -0.0013208003984636 0.0 -0.013341183601589694 0.0 0.0
0.003479609989038061 -0.001494667976040285 0.0 -0.013344215354902954 0.0 0.0
0.003863050417166139 -0.001659116832480913 0.0 -0.013343337911735201 0.0 0.0
0.004244354322281575 -0.001819592990503958 0.0 -0.013342911592856577 0.0 0.0
0.004619391795143499 -0.0019724537841272075 0.0 -0.013345954075487106 0.0 0.0
0.004975693805372198 -0.0021063104186094333 0.0 -0.013357240638969932 0.0 0.0
0.0052921932523681435 -0.0022039305179524125 0.0 -0.013386667492898572 0.0 0.0
0.0055527753113204575 -0.002258176007471817 0.0 -0.013456968429063857 0.0 0.0
0.0058067314105882855 -0.0023377685966477547 0.0 -0.013599714466680566 0.0 0.0
0.006285880829412609 -0.0027361554821994814 0.0 -0.013707456541480954 0.0 0.0
0.007395483990603979 -0.004071987861146289 0.0 -0.012945379801045332 0.0 0.0
0.009097181842887053 -0.006733260391192999 0.0 -0.008974217216686191 0.0 0.0
0.010029892567861782 -0.008879801751945198 0.0 3.2439329000766293e-16 0.0 0.0
0.009097181842887088 -0.006733260391189431 0.0 0.008974217216684715 0.0 0.0
0.00739548399060405 -0.004071987861145211 0.0 0.012945379801046264 0.0 0.0
0.006285880829412443 -0.0027361554821975723 0.0 0.013707456541480572 0.0 0.0
0.0058067314105881025 -0.0023377685966459163 0.0 0.013599714466681057 0.0 0.0
0.005552775311320561 -0.002258176007471869 0.0 0.013456968429062983 0.0 0.0
0.00529219325236808 -0.0022039305179524234 0.0 0.013386667492898588 0.0 0.0
0.004975693805372207 -0.00210631041860903 0.0 0.013357240638970484 0.0 0.0
0.004619391795143626 -0.0019724537841261784 0.0 0.01334595407548634 0.0 0.0
0.00424435432228149 -0.0018195929905021413 0.0 0.013342911592855392 0.0 0.0
0.003863050417166076 -0.001659116832479851 0.0 0.013343337911734046 0.0 0.0
0.003479609989038145 -0.0014946679760409727 0.0 0.013344215354902237 0.0 0.0
0.00308943309021027 -0.0013208003984638626 0.0 0.0133411836015896 0.0 0.0
0.002674087153284188 -0.0011183226040728225 0.0 0.01332443542440055 0.0 0.0
0.002189975035556281 -0.0008469595778111407 0.0 0.013275349174739576 0.0 0.0
0.0015533322418107376 -0.00044010162071494747 0.0 0.013180990045312242 0.0 0.0
0.0006672134535228193 0.00016323009246915055 0.0 0.01314419681943815 0.0 0.0
-0.00033634278750621876 0.000778736692856761 0.0 0.013633981034415144 0.0 0.0
-0.0005419095863600651 0.000239254412723695 0.0 0.015027002832292014 0.0 0.0
0.0013539834696408024 -0.004183525435552684 0.0 0.0136785910808725 0.0 0.0
0.002968094069622542 -0.012190912378989569 0.0 0.009275936689988131 0.0 0.0
0.0024261304201483778 -0.009864261089224089 0.0 -0.008402387496997657 0.0 0.0
0.000968322251439369 -0.0038531550144168423 0.0 -0.013076295664281513 0.0 0.0
-0.0010112320140714534 0.0002503745287412804 0.0 -0.01532740902399448 0.0 0.0
-0.0013395663842224372 0.001140317344982495 0.0 -0.014287149240031376 0.0 0.0
-0.0008551498158897734 0.0008146027262987115 0.0 -0.01363914200561169 0.0 0.0
-0.0003862571165641195 0.00039773954724611 0.0 -0.01348190183600549 0.0 0.0
-0.0001304785524860183 0.0001503681982456899 0.0 -0.013470731167464865 0.0 0.0
-2.634961716409495e-05 3.984518417419743e-05 0.0 -0.013476212299826823 0.0 0.0
5.520734487761479e-06 1.0258445388763843e-06 0.0 -0.013478817008892155 0.0 0.0
1.0663918149874871e-05 -8.031478155207857e-06 0.0 -0.013479466386755628 0.0 0.0
8.614862883462974e-06 -7.283322802748634e-06 0.0 -0.013479526813547874 0.0 0.0
4.294019494718187e-06 -2.4333325678363833e-06 0.0 -0.013479418336499616 0.0 0.0
-6.49218838744733e-06 1.0206017388881612e-05 0.0 -0.013479021761646271 0.0 0.0
-3.657563475765709e-05 4.2253573400770215e-05 0.0 -0.013478175798095293 0.0 0.0
-0.00010857076565061105 0.00011168813525872973 0.0 -0.013478896102556082 0.0 0.0
-0.0002445129717529525 0.00022985765170299585 0.0 -0.013498686528671127 0.0 0.0
-0.00040265857443156337 0.0003374195252338292 0.0 -0.013600452253333638 0.0 0.0
-0.0003204168244388747 0.0001233268529914923 0.0 -0.013808985604840075 0.0 0.0
0.000553780273762731 -0.001180047192599918 0.0 -0.013442302379061771 0.0 0.0
0.0023443484882673463 -0.004274631613157356 0.0 -0.009777871764568902 0.0 0.0
0.0034151019163195084 -0.007090487337958269 0.0 2.7972416050126014e-17 0.0 0.0
0.0023443484882674282 -0.00427463161315592 0.0 0.009777871764568196 0.0 0.0
0.0005537802737628504 -0.0011800471925987781 0.0 0.013442302379061976 0.0 0.0
-0.00032041682443919 0.00012332685299284323 0.0 0.013808985604840555 0.0 0.0
-0.00040265857443170844 0.00033741952523573836 0.0 0.013600452253334287 0.0 0.0
-0.00024451297175302376 0.0002298576517035512 0.0 0.013498686528671384 0.0 0.0
-0.00010857076565053798 0.00011168813525895958 0.0 0.013478896102555718 0.0 0.0
-3.657563475765817e-05 4.22535734016395e-05 0.0 0.013478175798096147 0.0 0.0
-6.492188387382115e-06 1.0206017387061534e-05 0.0 0.013479021761646552 0.0 0.0
4.294019494811645e-06 -2.433332567936496e-06 0.0 0.013479418336499568 0.0 0.0
8.614862883418522e-06 -7.283322802716243e-06 0.0 0.013479526813547815 0.0 0.0
1.0663918149943989e-05 -8.03147815719837e-06 0.0 0.013479466386756112 0.0 0.0
5.520734487879494e-06 1.0258445385893282e-06 0.0 0.013478817008891846 0.0 0.0
-2.6349617163982843e-05 3.984518417358145e-05 0.0 0.013476212299826505 0.0 0.0
-0.00013047855248594415 0.0001503681982453976 0.0 0.013470731167465107 0.0 0.0
-0.00038625711656409717 0.000397739547246454 0.0 0.013481901836005892 0.0 0.0
-0.0008551498158896865 0.000814602726298064 0.0 0.013639142005611827 0.0 0.0
-0.001339566384222319 0.0011403173449824706 0.0 0.014287149240031553 0.0 0.0
-0.001011232014071311 0.0002503745287412946 0.0 0.01532740902399381 0.0 0.0
0.0009683222514394274 -0.0038531550144170505 0.0 0.013076295664281081 0.0 0.0
0.002426130420148295 -0.009864261089224044 0.0 0.00840238749699816 0.0 0.0
0.0018997707766671497 -0.007798133366713079 0.0 -0.007564842288142465 0.0 0.0
0.000572268033377185 -0.0034099294701270258 0.0 -0.012314241403718023 0.0 0.0
-0.0014765938131521905 0.000321445396060662 0.0 -0.015218141887405511 0.0 0.0
-0.002285594201998792 0.0014670407613315796 0.0 -0.014555461612902467 0.0 0.0
-0.002320845048213418 0.0014222735361515046 0.0 -0.013828944274215863 0.0 0.0
-0.0022957264407455604 0.0012125278449946386 0.0 -0.013506281483463226 0.0 0.0
-0.002440113407814153 0.001139175049182123 0.0 -0.013392093577154568 0.0 0.0
-0.0027242331507609345 0.00119565977191404 0.0 -0.013353090392424098 0.0 0.0
-0.0030784755140122405 0.001322672762861784 0.0 -0.013341216731854998 0.0 0.0
-0.0034589288271677076 0.0014789916065162262 0.0 -0.013339389695736576 0.0 0.0
-0.0038463846483503105 0.0016449210240070907 0.0 -0.013340373762988834 0.0 0.0
-0.004235985829706797 0.0018148231588480152 0.0 -0.013340602427338765 0.0 0.0
-0.0046317248329897165 0.0019922442127604913 0.0 -0.013336813693838651 0.0 0.0
-0.0050459002580618235 0.00218846744845353 0.0 -0.01332393431337554 0.0 0.0
-0.005500942460051162 0.00242107851511719 0.0 -0.013295941347477086 0.0 0.0
-0.006024305488946841 0.0027048606534916587 0.0 -0.01326146837914935 0.0 0.0
-0.006591106602980401 0.00299783532008666 0.0 -0.013305622972588773 0.0 0.0
-0.00692907347599876 0.002997193367568052 0.0 -0.01360560714373785 0.0 0.0
-0.006329570306735657 0.0017901171179193582 0.0 -0.013742433526139592 0.0 0.0
-0.004426447502525516 -0.0017719901260676305 0.0 -0.010633745103125852 0.0 0.0
-0.00317611179313988 -0.005500565955653373 0.0 1.235990476633475e-17 0.0 0.0
-0.004426447502525445 -0.0017719901260696209 0.0 0.010633745103125888 0.0 0.0
-0.006329570306735345 0.0017901171179193695 0.0 0.013742433526138312 0.0 0.0
-0.006929073475998644 0.0029971933675674357 0.0 0.013605607143738697 0.0 0.0
-0.006591106602980557 0.0029978353200866194 0.0 0.013305622972587972 0.0 0.0
-0.006024305488947068 0.0027048606534934793 0.0 0.013261468379149328 0.0 0.0
-0.005500942460051059 0.0024210785151160836 0.0 0.013295941347477566 0.0 0.0
-0.005045900258061905 0.002188467448455756 0.0 0.013323934313374957 0.0 0.0
-0.0046317248329897755 0.0019922442127581056 0.0 0.013336813693838694 0.0 0.0
-0.004235985829706599 0.0018148231588469557 0.0 0.013340602427339502 0.0 0.0
-0.0038463846483503053 0.0016449210240053738 0.0 0.013340373762988907 0.0 0.0
-0.0034589288271676365 0.0014789916065142549 0.0 0.01333938969573777 0.0 0.0
-0.003078475514012272 0.0013226727628641863 0.0 0.013341216731854242 0.0 0.0
-0.0027242331507610876 0.0011956597719138312 0.0 0.013353090392424478 0.0 0.0
-0.0024401134078141868 0.0011391750491824258 0.0 0.01339209357715478 0.0 0.0
-0.002295726440745553 0.001212527844994744 0.0 0.013506281483463162 0.0 0.0
-0.0023208450482133194 0.001422273536151857 0.0 0.013828944274216218 0.0 0.0
-0.0022855942019986263 0.0014670407613310745 0.0 0.01455546161290321 0.0 0.0
-0.001476593813152237 0.00032144539606024624 0.0 0.015218141887405941 0.0 0.0
0.0005722680333772226 -0.0034099294701269317 0.0 0.012314241403717757 0.0 0.0
0.0018997707766674472 -0.007798133366713146 0.0 0.007564842288142851 0.0 0.0
0.0013945445197179592 -0.0059709463650404315 0.0 -0.006741046780896549 0.0 0.0
0.000169160071925699 -0.0028965077558817383 0.0 -0.01140681889028649 0.0 0.0
-0.0019478283605790193 0.0004534104396080931 0.0 -0.014740522531976847 0.0 0.0
-0.0031928774620556748 0.001775971035486293 0.0 -0.01443841363500386 0.0 0.0
-0.0037403659107056323 0.0019945238302191493 0.0 -0.01369244266956787 0.0 0.0
-0.004177785079375393 0.0020057667851029414 0.0 -0.013239431368325774 0.0 0.0
-0.004739202641864995 0.0021195288695774884 0.0 -0.01303352780965123 0.0 0.0
-0.005419601619745913 0.0023491776921660537 0.0 -0.012953308041921319 0.0 0.0
-0.006162583194574103 0.002644168217015367 0.0 -0.01292808722273752 0.0 0.0
-0.0069291665333782275 0.002966398191520368 0.0 -0.012924085128143572 0.0 0.0
-0.007701942394292052 0.003297490494504865 0.0 -0.012926004038615279 0.0 0.0
-0.008476500668605927 0.0036321892860874403 0.0 -0.012926635180890692 0.0 0.0
-0.009256374068092047 0.003973708296140511 0.0 -0.012919881824647438 0.0 0.0
-0.010052515848588964 0.004332479353806547 0.0 -0.012896088010577705 0.0 0.0
-0.010885257614510367 0.004724661270986936 0.0 -0.012841784320755162 0.0 0.0
-0.011785227284886509 0.0051662671813023165 0.0 -0.012754099623153702 0.0 0.0
-0.012752903709033116 0.005638049078855336 0.0 -0.012722968082367364 0.0 0.0
-0.013537772149675768 0.005880381354700679 0.0 -0.013077835664007057 0.0 0.0
-0.01327566359682199 0.004863537042351236 0.0 -0.01380118493075479 0.0 0.0
-0.011247896836308054 0.0008281245951842976 0.0 -0.011559453615254893 0.0 0.0
-0.009770668360160845 -0.0041566904792895544 0.0 -3.5952144039619327e-16 0.0 0.0
-0.011247896836308138 0.00082812459518172 0.0 0.01155945361525523 0.0 0.0
-0.013275663596821901 0.004863537042350781 0.0 0.013801184930754294 0.0 0.0
-0.013537772149675706 0.005880381354702077 0.0 0.013077835664007303 0.0 0.0
-0.012752903709033196 0.005638049078852891 0.0 0.0127229680823681 0.0 0.0
-0.011785227284886455 0.005166267181301591 0.0 0.01275409962315342 0.0 0.0
-0.010885257614510554 0.004724661270985462 0.0 0.012841784320755001 0.0 0.0
-0.010052515848589188 0.004332479353807398 0.0 0.012896088010577244 0.0 0.0
-0.009256374068091936 0.003973708296140552 0.0 0.012919881824648023 0.0 0.0
-0.00847650066860591 0.0036321892860862676 0.0 0.012926635180891476 0.0 0.0
-0.007701942394292033 0.0032974904945055642 0.0 0.012926004038614517 0.0 0.0
-0.006929166533378392 0.002966398191519063 0.0 0.012924085128144037 0.0 0.0
-0.00616258319457415 0.0026441682170164813 0.0 0.012928087222737389 0.0 0.0
-0.005419601619745716 0.0023491776921662085 0.0 0.012953308041920714 0.0 0.0
-0.00473920264186506 0.0021195288695785245 0.0 0.013033527809651403 0.0 0.0
-0.004177785079375468 0.002005766785102895 0.0 0.013239431368326313 0.0 0.0
-0.003740365910705661 0.001994523830218947 0.0 0.013692442669567713 0.0 0.0
-0.003192877462055632 0.001775971035486281 0.0 0.014438413635003675 0.0 0.0
-0.0019478283605789482 0.0004534104396077098 0.0 0.014740522531977086 0.0 0.0
0.00016916007192567254 -0.002896507755881495 0.0 0.011406818890286928 0.0 0.0
0.0013945445197179004 -0.005970946365040527 0.0 0.006741046780895977 0.0 0.0
0.0009176191414586557 -0.004372561852421483 0.0 -0.005910331413608447 0.0 0.0
-0.0002343461113002265 -0.0023462042835553066 0.0 -0.010361481593939197 0.0 0.0
-0.002427791418268455 0.0006403601010946458 0.0 -0.013928264563505285 0.0 0.0
-0.004074174708747313 0.0020781292477255317 0.0 -0.013940758807716674 0.0 0.0
-0.005123974420095083 0.002539812600390304 0.0 -0.013214395831307128 0.0 0.0
-0.006037011920562851 0.0027807601608135103 0.0 -0.012668584296496298 0.0 0.0
-0.007029255666168728 0.003092455833494651 0.0 -0.012389438798197391 0.0 0.0
-0.008112934341951055 0.0035007600252500853 0.0 -0.012275233471840105 0.0 0.0
-0.009246936777274712 0.003965617428484461 0.0 -0.01223920176880237 0.0 0.0
-0.010400050628537121 0.004454186058928781 0.0 -0.012233667072652884 0.0 0.0
-0.011558036422593084 0.0049504045097345665 0.0 -0.012236537609866517 0.0 0.0
-0.012717284987258107 0.0054496886683167425 0.0 -0.01223765302278704 0.0 0.0
-0.013880609747746023 0.005954735561429524 0.0 -0.012228702419865232 0.0 0.0
-0.01505692316750968 0.0064746087730376605 0.0 -0.01219608994850709 0.0 0.0
-0.01626269854938367 0.007023402337857301 0.0 -0.012119900855834835 0.0 0.0
-0.017527289411237747 0.007615050426074443 0.0 -0.01198600598331437 0.0 0.0
-0.018880774169773924 0.008252050928188055 0.0 -0.011866743026353162 0.0 0.0
-0.020136774699092693 0.008759223326732039 0.0 -0.012207920267772036 0.0 0.0
-0.020302622247492227 0.008060620594989944 0.0 -0.013547471185700573 0.0 0.0
-0.018158430178367293 0.0036013046891212137 0.0 -0.012561415100824142 0.0 0.0
-0.016402660612994863 -0.0031268944033681296 0.0 -3.3089850304257595e-16 0.0 0.0
-0.01815843017836722 0.0036013046891210524 0.0 0.012561415100823783 0.0 0.0
-0.020302622247492078 0.008060620594989435 0.0 0.013547471185701702 0.0 0.0
-0.020136774699092554 0.008759223326733618 0.0 0.012207920267772059 0.0 0.0
-0.018880774169774163 0.008252050928186792 0.0 0.011866743026352745 0.0 0.0
-0.017527289411237688 0.007615050426071817 0.0 0.011986005983314042 0.0 0.0
-0.016262698549383586 0.007023402337857889 0.0 0.012119900855834495 0.0 0.0
-0.015056923167509728 0.006474608773037266 0.0 0.012196089948507573 0.0 0.0
-0.013880609747745822 0.005954735561429574 0.0 0.012228702419865789 0.0 0.0
-0.012717284987258225 0.005449688668315902 0.0 0.012237653022787428 0.0 0.0
-0.011558036422593301 0.00495040450973654 0.0 0.012236537609866803 0.0 0.0
-0.010400050628537024 0.004454186058928618 0.0 0.012233667072652632 0.0 0.0
-0.009246936777274723 0.003965617428483876 0.0 0.012239201768803458 0.0 0.0
-0.008112934341951056 0.0035007600252495137 0.0 0.01227523347183947 0.0 0.0
-0.007029255666168731 0.0030924558334956766 0.0 0.012389438798197051 0.0 0.0
-0.006037011920562972 0.0027807601608126698 0.0 0.012668584296496272 0.0 0.0
-0.005123974420095022 0.002539812600390176 0.0 0.013214395831307017 0.0 0.0
-0.004074174708747186 0.00207812924772581 0.0 0.013940758807716714 0.0 0.0
-0.002427791418268378 0.0006403601010945306 0.0 0.013928264563504683 0.0 0.0
-0.0002343461113002788 -0.00234620428355549 0.0 0.010361481593938947 0.0 0.0
0.0009176191414584665 -0.004372561852421515 0.0 0.0059103314136089114 0.0 0.0
0.0004776481386187509 -0.003002219549506297 0.0 -0.005056774439261498 0.0 0.0
-0.0006288855935621346 -0.0017852526430807922 0.0 -0.00918286340517035 0.0 0.0
-0.0029137362448575605 0.0008717071833683056 0.0 -0.01280717100898135 0.0 0.0
-0.0049373530700272845 0.00237942994975064 0.0 -0.013067593746035108 0.0 0.0
-0.006481326638123002 0.0030662681018534346 0.0 -0.012383535110263754 0.0 0.0
-0.007879387405515036 0.0035421832884854265 0.0 -0.011783461620798515 0.0 0.0
-0.009312863942094704 0.004059854033948592 0.0 -0.011455161864187819 0.0 0.0
-0.010805126675822205 0.004651061324975483 0.0 -0.011317591542979427 0.0 0.0
-0.012331763381139255 0.005287187341812809 0.0 -0.011274476091749594 0.0 0.0
-0.013871577349589964 0.005942346748988443 0.0 -0.011268281935382053 0.0 0.0
-0.015414623926359956 0.006603626785526729 0.0 -0.011272081524347721 0.0 0.0
-0.01695838276231577 0.007267343181955693 0.0 -0.011273740760409677 0.0 0.0
-0.018504703156043224 0.00793555280445817 0.0 -0.011263579280797539 0.0 0.0
-0.020059817367988887 0.008615341952287105 0.0 -0.011225215644278582 0.0 0.0
-0.021635192132692292 0.009318550281892782 0.0 -0.011133053228051401 0.0 0.0
-0.023252752130990893 0.010054272961614659 0.0 -0.01096555898777833 0.0 0.0
-0.02496709898332859 0.010835428578767934 0.0 -0.010759920824678483 0.0 0.0
-0.026705708693054397 0.011608536320564996 0.0 -0.010990604564269722 0.0 0.0
-0.027421089468001578 0.011388906407803151 0.0 -0.012876518261596246 0.0 0.0
-0.025204648793462882 0.0066567371116209835 0.0 -0.013619100594140095 0.0 0.0
-0.02312013207799725 -0.0025060992348522105 0.0 2.896988204881268e-16 0.0 0.0
-0.02520464879346287 0.006656737111621439 0.0 0.013619100594139701 0.0 0.0
-0.027421089468001647 0.01138890640780214 0.0 0.012876518261596885 0.0 0.0
-0.026705708693054435 0.011608536320567927 0.0 0.010990604564269216 0.0 0.0
-0.024967098983328582 0.010835428578765922 0.0 0.010759920824678422 0.0 0.0
-0.02325275213099087 0.010054272961613755 0.0 0.010965558987779105 0.0 0.0
-0.021635192132692355 0.009318550281893632 0.0 0.011133053228050705 0.0 0.0
-0.02005981736798892 0.008615341952286559 0.0 0.011225215644278102 0.0 0.0
-0.018504703156043148 0.00793555280445824 0.0 0.01126357928079685 0.0 0.0
-0.01695838276231575 0.007267343181956936 0.0 0.011273740760409654 0.0 0.0
-0.01541462392636003 0.006603626785526981 0.0 0.011272081524348585 0.0 0.0
-0.013871577349589978 0.005942346748991313 0.0 0.011268281935382023 0.0 0.0
-0.012331763381139322 0.005287187341812955 0.0 0.011274476091749683 0.0 0.0
-0.01080512667582214 0.004651061324974043 0.0 0.011317591542979238 0.0 0.0
-0.00931286394209459 0.0040598540339487205 0.0 0.01145516186418787 0.0 0.0
-0.007879387405515068 0.003542183288484965 0.0 0.011783461620798675 0.0 0.0
-0.006481326638122952 0.003066268101853683 0.0 0.012383535110263565 0.0 0.0
-0.004937353070027179 0.0023794299497505085 0.0 0.013067593746035534 0.0 0.0
-0.00291373624485746 0.0008717071833683491 0.0 0.012807171008981343 0.0 0.0
-0.0006288855935620275 -0.0017852526430812035 0.0 0.009182863405169875 0.0 0.0
0.0004776481386188387 -0.0030022195495062317 0.0 0.005056774439262237 0.0 0.0
8.528322601767034e-05 -0.0018665216332054502 0.0 -0.004172475241162024 0.0 0.0
-0.0010019166102342972 -0.0012351785667225818 0.0 -0.007876208924855422 0.0 0.0
-0.0033976810815329224 0.001132915971372862 0.0 -0.011394556227796719 0.0 0.0
-0.005786259792781765 0.0026818238439024625 0.0 -0.011820405399463062 0.0 0.0
-0.007821640748200165 0.003581785606730288 0.0 -0.0111909053016368 0.0 0.0
-0.00971201836329982 0.004295771288388537 0.0 -0.010576603743712212 0.0 0.0
-0.011593493634287574 0.005024325870130772 0.0 -0.010227474855383034 0.0 0.0
-0.013497413372337497 0.005800978416486568 0.0 -0.01007968702539456 0.0 0.0
-0.015417352959973481 0.006609082171330607 0.0 -0.010034031685166927 0.0 0.0
-0.017343724370068682 0.007430853496302025 0.0 -0.010028121234330271 0.0 0.0
-0.01927163688805861 0.008257104734434632 0.0 -0.010032715912412145 0.0 0.0
-0.02119982773087185 0.009085161204391517 0.0 -0.01003493039769026 0.0 0.0
-0.023129021158843865 0.009916435424353432 0.0 -0.010024567348632675 0.0 0.0
-0.02506205903651407 0.010755426937818556 0.0 -0.009984357043853106 0.0 0.0
-0.027005036434815968 0.011611230635320316 0.0 -0.009883678718311306 0.0 0.0
-0.028966927495258844 0.012488940619101925 0.0 -0.009697516600098379 0.0 0.0
-0.031007014187756532 0.01338977442633516 0.0 -0.009432751085460163 0.0 0.0
-0.033210190348177494 0.014390226571724323 0.0 -0.009453116208073192 0.0 0.0
-0.03462513841633195 0.014826432577651129 0.0 -0.011646875738659848 0.0 0.0
-0.03244394943634896 0.010153158815414592 0.0 -0.01464926628651161 0.0 0.0
-0.02999782531820222 -0.0024197626585704727 0.0 -6.687358999890591e-16 0.0 0.0
-0.032443949436348984 0.010153158815415191 0.0 0.014649266286512214 0.0 0.0
-0.03462513841633195 0.014826432577647423 0.0 0.011646875738660141 0.0 0.0
-0.03321019034817758 0.014390226571728282 0.0 0.009453116208073015 0.0 0.0
-0.031007014187756497 0.013389774426335085 0.0 0.009432751085459632 0.0 0.0
-0.028966927495258962 0.012488940619102632 0.0 0.009697516600098297 0.0 0.0
-0.02700503643481596 0.011611230635322125 0.0 0.009883678718311565 0.0 0.0
-0.025062059036513856 0.010755426937817884 0.0 0.009984357043853328 0.0 0.0
-0.023129021158843684 0.009916435424355285 0.0 0.010024567348632364 0.0 0.0
-0.021199827730871895 0.009085161204392999 0.0 0.010034930397690628 0.0 0.0
-0.019271636888058802 0.008257104734435305 0.0 0.01003271591241362 0.0 0.0
-0.017343724370068665 0.0074308534963040285 0.0 0.01002812123433052 0.0 0.0
-0.01541735295997355 0.006609082171330165 0.0 0.010034031685166242 0.0 0.0
-0.013497413372337579 0.00580097841648665 0.0 0.010079687025394345 0.0 0.0
-0.011593493634287558 0.00502432587013006 0.0 0.0102274748553835 0.0 0.0
-0.009712018363299817 0.004295771288388812 0.0 0.010576603743712254 0.0 0.0
-0.007821640748200138 0.0035817856067303037 0.0 0.011190905301636151 0.0 0.0
-0.005786259792781671 0.002681823843902174 0.0 0.011820405399463864 0.0 0.0
-0.003397681081532949 0.0011329159713731557 0.0 0.01139455622779681 0.0 0.0
-0.0010019166102343002 -0.0012351785667224367 0.0 0.007876208924855112 0.0 0.0
8.528322601785461e-05 -0.0018665216332056339 0.0 0.004172475241161789 0.0 0.0
-0.00024553910916486955 -0.0009771894141720142 0.0 -0.0032626404440650953 0.0 0.0
-0.0013361400169831423 -0.000715686935484226 0.0 -0.006450529286993608 0.0 0.0
-0.003865913580944267 0.0014051075803773359 0.0 -0.009697083415422667 0.0 0.0
-0.0066217625511272565 0.0029847472437212383 0.0 -0.010193571534807815 0.0 0.0
-0.009154319642758153 0.0040945911349877144 0.0 -0.009628898706882067 0.0 0.0
-0.0115430041719784 0.005048084502576402 0.0 -0.009043662001945445 0.0 0.0
-0.013875242979894505 0.0059889617454342925 0.0 -0.008704989108855745 0.0 0.0
-0.01619125065841311 0.006951563350221226 0.0 -0.008561598494257507 0.0 0.0
-0.018504012853225744 0.007931507731236473 0.0 -0.00851824102093346 0.0 0.0
-0.020816432200406628 0.008919648429087067 0.0 -0.008513427064206974 0.0 0.0
-0.02312897917268507 0.009910759926639031 0.0 -0.008518485706654038 0.0 0.0
-0.02544162415866606 0.010903154461951687 0.0 -0.008521165149281518 0.0 0.0
-0.02775397164026172 0.011897586599404014 0.0 -0.00851156857070371 0.0 0.0
-0.030064780385753415 0.012896018216832013 0.0 -0.008473425245265707 0.0 0.0
-0.032374305082448554 0.013902408383879926 0.0 -0.008374759159222155 0.0 0.0
-0.03467804279810449 0.01492381782303677 0.0 -0.008182075597917216 0.0 0.0
-0.037004503059263484 0.015929515364888694 0.0 -0.007910825952054504 0.0 0.0
-0.0396003654494027 0.017058702690863195 0.0 -0.007686869841038046 0.0 0.0
-0.041874148933547274 0.01828885628922381 0.0 -0.009699856210782733 0.0 0.0
-0.039946037062936944 0.014318593456304443 0.0 -0.015422806387375747 0.0 0.0
-0.03716254590832193 -0.003017692938338064 0.0 2.0166160408230382e-16 0.0 0.0
-0.03994603706293709 0.01431859345630539 0.0 0.01542280638737649 0.0 0.0
-0.041874148933547274 0.018288856289222596 0.0 0.009699856210782655 0.0 0.0
-0.03960036544940247 0.017058702690863188 0.0 0.007686869841039156 0.0 0.0
-0.03700450305926346 0.01592951536489075 0.0 0.007910825952054421 0.0 0.0
-0.034678042798104436 0.014923817823038903 0.0 0.008182075597917206 0.0 0.0
-0.03237430508244854 0.01390240838387858 0.0 0.00837475915922195 0.0 0.0
-0.030064780385753505 0.012896018216832917 0.0 0.008473425245264964 0.0 0.0
-0.027753971640261645 0.011897586599404044 0.0 0.008511568570703463 0.0 0.0
-0.02544162415866602 0.01090315446195153 0.0 0.00852116514928107 0.0 0.0
-0.023128979172685218 0.009910759926638518 0.0 0.008518485706653953 0.0 0.0
-0.02081643220040664 0.008919648429086635 0.0 0.00851342706420697 0.0 0.0
-0.018504012853225754 0.007931507731235294 0.0 0.00851824102093236 0.0 0.0
-0.016191250658413096 0.006951563350222045 0.0 0.008561598494258409 0.0 0.0
-0.01387524297989444 0.005988961745433746 0.0 0.008704989108855789 0.0 0.0
-0.011543004171978524 0.00504808450257556 0.0 0.009043662001946522 0.0 0.0
-0.009154319642758126 0.0040945911349886096 0.0 0.00962889870688212 0.0 0.0
-0.006621762551127207 0.0029847472437209872 0.0 0.01019357153480808 0.0 0.0
-0.003865913580944333 0.0014051075803773708 0.0 0.009697083415422357 0.0 0.0
-0.001336140016983168 -0.0007156869354839232 0.0 0.006450529286993408 0.0 0.0
-0.00024553910916480564 -0.000977189414172121 0.0 0.0032626404440646607 0.0 0.0
-0.000495046561884526 -0.0003480839689287997 0.0 -0.0023548969841946667 0.0 0.0
-0.0016063934769313926 -0.0002489755953045041 0.0 -0.004921627032097766 0.0 0.0
-0.004297738223458331 0.001663843167501056 0.0 -0.007705194549021176 0.0 0.0
-0.0074432667389767535 0.003287275783761923 0.0 -0.008171350228666071 0.0 0.0
-0.010489967138651603 0.004614093855607667 0.0 -0.0076913720672349885 0.0 0.0
-0.013381344448274782 0.0058062627375627925 0.0 -0.007183691658333541 0.0 0.0
-0.016162571747301905 0.006957106472013086 0.0 -0.006888445047537014 0.0 0.0
-0.018888168570835487 0.0081039058257939 0.0 -0.006764317577829826 0.0 0.0
-0.021592007828427993 0.009254622406026035 0.0 -0.006727751320607163 0.0 0.0
-0.024289584964148014 0.010408637866691483 0.0 -0.006724470438687192 0.0 0.0
-0.026986513926461904 0.01156446096557106 0.0 -0.006729440154732998 0.0 0.0
-0.02968376412796947 0.012721371377212739 0.0 -0.006732166747016437 0.0 0.0
-0.03237984540553585 0.013879084501715586 0.0 -0.006724569116454229 0.0 0.0
-0.035069577062575207 0.015038291365434189 0.0 -0.006691066974441824 0.0 0.0
-0.037744685358789117 0.01619459836161728 0.0 -0.006608185647532166 0.0 0.0
-0.04039435114529001 0.017357971090343243 0.0 -0.006423284077535807 0.0 0.0
-0.04298182351991556 0.018486803670964773 0.0 -0.006184014145717067 0.0 0.0
-0.0458180670959068 0.01958852253045215 0.0 -0.005875277331135934 0.0 0.0
-0.0490568363775673 0.021565540471916694 0.0 -0.006966030683002478 0.0 0.0
-0.04778845094180363 0.019465399643570736 0.0 -0.015361106361577427 0.0 0.0
-0.04484691153131937 -0.004433046083279693 0.0 1.205632815803881e-16 0.0 0.0
-0.047788450941803694 0.01946539964357175 0.0 0.015361106361577101 0.0 0.0
-0.04905683637756745 0.02156554047191918 0.0 0.006966030683002573 0.0 0.0
-0.045818067095906606 0.01958852253045061 0.0 0.005875277331136812 0.0 0.0
-0.042981823519915495 0.018486803670966456 0.0 0.006184014145717091 0.0 0.0
-0.040394351145290004 0.0173579710903455 0.0 0.006423284077535129 0.0 0.0
-0.037744685358789026 0.016194598361615995 0.0 0.006608185647531871 0.0 0.0
-0.03506957706257527 0.015038291365436916 0.0 0.0066910669744422915 0.0 0.0
-0.032379845405535845 0.013879084501715273 0.0 0.006724569116454261 0.0 0.0
-0.02968376412796951 0.012721371377212298 0.0 0.006732166747016986 0.0 0.0
-0.026986513926461838 0.011564460965570407 0.0 0.0067294401547324575 0.0 0.0
-0.024289584964148007 0.010408637866692523 0.0 0.006724470438687225 0.0 0.0
-0.021592007828428014 0.009254622406025268 0.0 0.006727751320607163 0.0 0.0
-0.01888816857083534 0.008103905825793727 0.0 0.006764317577830763 0.0 0.0
-0.01616257174730175 0.006957106472012796 0.0 0.006888445047536563 0.0 0.0
-0.013381344448274754 0.005806262737562473 0.0 0.007183691658333397 0.0 0.0
-0.010489967138651652 0.004614093855607841 0.0 0.0076913720672352245 0.0 0.0
-0.007443266738976842 0.0032872757837621603 0.0 0.008171350228666534 0.0 0.0
-0.004297738223458482 0.001663843167500824 0.0 0.00770519454902094 0.0 0.0
-0.001606393476931429 -0.0002489755953045156 0.0 0.004921627032097867 0.0 0.0
-0.0004950465618845347 -0.00034808396892866214 0.0 0.0023548969841946385 0.0 0.0
-0.0006326360437005095 9.375582319374379e-06 0.0 -0.0015172687364538382 0.0 0.0
-0.001774037911316639 0.00013266292282952062 0.0 -0.0033145710088384643 0.0 0.0
-0.004663671757525051 0.001877678269937217 0.0 -0.005380733200261375 0.0 0.0
-0.008251310585799075 0.003591756969927422 0.0 -0.005726894068244605 0.0 0.0
-0.011841653859737742 0.005151605786211387 0.0 -0.005374931099034662 0.0 0.0
-0.015236755644380082 0.006577722723800075 0.0 -0.00499936139511959 0.0 0.0
-0.018460018638107666 0.007932136082299335 0.0 -0.004780994882935536 0.0 0.0
-0.021589599891277147 0.009258977593071257 0.0 -0.004689792547847087 0.0 0.0
-0.024681486126392604 0.010578493363333077 0.0 -0.004663471396303717 0.0 0.0
-0.02776300201256822 0.011897662051940362 0.0 -0.004661556344373329 0.0 0.0
-0.030844029610088024 0.013218083752684733 0.0 -0.0046655295517104445 0.0 0.0
-0.03392626979401799 0.014539664488710129 0.0 -0.004667796570240425 0.0 0.0
-0.0370067332142776 0.015861548581606936 0.0 -0.004662388703664603 0.0 0.0
-0.04007805318457532 0.017181493132450584 0.0 -0.00463854930479717 0.0 0.0
-0.04311957524370035 0.018495409522564992 0.0 -0.004573904934516539 0.0 0.0
-0.04611671532682832 0.019782575227274477 0.0 -0.00445068865414105 0.0 0.0
-0.048986770168062514 0.02108994326223097 0.0 -0.004184105989674762 0.0 0.0
-0.051832308045373254 0.02206748080194043 0.0 -0.004197042902526613 0.0 0.0
-0.055920510002599816 0.024200048287315395 0.0 -0.0038928879431050687 0.0 0.0
-0.05602889342348527 0.02596044117680261 0.0 -0.012997256899846122 0.0 0.0
-0.053512358354559475 -0.006626436590254912 0.0 2.7668839441830073e-16 0.0 0.0
-0.05602889342348534 0.025960441176803267 0.0 0.012997256899846446 0.0 0.0
-0.055920510002599885 0.024200048287313595 0.0 0.0038928879431047404 0.0 0.0
-0.0518323080453732 0.022067480801940747 0.0 0.004197042902526178 0.0 0.0
-0.048986770168062466 0.021089943262233363 0.0 0.004184105989673683 0.0 0.0
-0.04611671532682839 0.019782575227274595 0.0 0.004450688654141255 0.0 0.0
-0.04311957524370029 0.01849540952256579 0.0 0.004573904934515542 0.0 0.0
-0.04007805318457536 0.01718149313245312 0.0 0.0046385493047974785 0.0 0.0
-0.03700673321427753 0.01586154858160528 0.0 0.004662388703664448 0.0 0.0
-0.03392626979401802 0.014539664488710136 0.0 0.004667796570240587 0.0 0.0
-0.03084402961008806 0.01321808375268587 0.0 0.004665529551709806 0.0 0.0
-0.027763002012567983 0.011897662051939374 0.0 0.004661556344372906 0.0 0.0
-0.024681486126392527 0.010578493363333049 0.0 0.004663471396303594 0.0 0.0
-0.02158959989127726 0.009258977593070452 0.0 0.004689792547847313 0.0 0.0
-0.01846001863810793 0.007932136082298978 0.0 0.004780994882936644 0.0 0.0
-0.015236755644380002 0.0065777227238002734 0.0 0.004999361395119977 0.0 0.0
-0.01184165385973746 0.005151605786210691 0.0 0.005374931099034457 0.0 0.0
-0.008251310585799037 0.0035917569699278297 0.0 0.005726894068244026 0.0 0.0
-0.004663671757525065 0.0018776782699368591 0.0 0.005380733200261501 0.0 0.0
-0.0017740379113164583 0.00013266292282947627 0.0 0.0033145710088381157 0.0 0.0
-0.0006326360437001532 9.375582319382e-06 0.0 0.001517268736453674 0.0 0.0
-0.0006067968631624012 9.400860881740808e-05 0.0 -0.0008936577313069835 0.0 0.0
-0.0017767528812296725 0.000371984594996061 0.0 -0.0016642268820440706 0.0 0.0
-0.004923760790261577 0.0020082296286019472 0.0 -0.002630008316550826 0.0 0.0
-0.009052290310421304 0.003910182297211646 0.0 -0.0028297535263597847 0.0 0.0
-0.013225935364556398 0.005719735965313509 0.0 -0.0026790203611045094 0.0 0.0
-0.01711932988713369 0.007370165428740709 0.0 -0.0024978236546953293 0.0 0.0
-0.020771929982770165 0.008917107865320167 0.0 -0.002388263468432021 0.0 0.0
-0.024296672979197544 0.010417488306210778 0.0 -0.0023409105707101465 0.0 0.0
-0.027772416667622757 0.011903039431968031 0.0 -0.0023265241261244823 0.0 0.0
-0.031236399017500152 0.013386501209866624 0.0 -0.0023249728599323565 0.0 0.0
-0.03470131556110078 0.014871438616426851 0.0 -0.0023266935804973454 0.0 0.0
-0.0381689062518998 0.016357996371928803 0.0 -0.002327643135267761 0.0 0.0
-0.04163534845710603 0.01784479653748076 0.0 -0.002324521774624468 0.0 0.0
-0.04508934898276272 0.01932795313032979 0.0 -0.002312298492186324 0.0 0.0
-0.04850874974752552 0.020799206041207483 0.0 -0.002278458583396252 0.0 0.0
-0.05183473784310247 0.02223799925671656 0.0 -0.0022173272841211817 0.0 0.0
-0.05506618107161593 0.02361299315015536 0.0 -0.002104550039392888 0.0 0.0
-0.05775877712187508 0.024971739458384316 0.0 -0.001956424963166007 0.0 0.0
-0.0619372709917891 0.025294794558273045 0.0 -0.003085575810618214 0.0 0.0
-0.06459238969460757 0.03398144827340709 0.0 -0.004403871376869015 0.0 0.0
-0.06415859580760112 -0.008842741157166023 0.0 3.139849491518021e-16 0.0 0.0
-0.06459238969460776 0.0339814482734071 0.0 0.004403871376868672 0.0 0.0
-0.06193727099178913 0.02529479455827035 0.0 0.003085575810617896 0.0 0.0
-0.057758777121874806 0.024971739458385524 0.0 0.001956424963166634 0.0 0.0
-0.0550661810716158 0.023612993150156397 0.0 0.0021045500393928407 0.0 0.0
-0.05183473784310256 0.02223799925671462 0.0 0.0022173272841216705 0.0 0.0
-0.04850874974752541 0.02079920604120818 0.0 0.0022784585833960204 0.0 0.0
-0.04508934898276266 0.01932795313032955 0.0 0.0023122984921859074 0.0 0.0
-0.04163534845710596 0.0178447965374781 0.0 0.002324521774623968 0.0 0.0
-0.0381689062518998 0.01635799637193046 0.0 0.002327643135267325 0.0 0.0
-0.034701315561100836 0.014871438616425363 0.0 0.00232669358049752 0.0 0.0
-0.03123639901749984 0.0133865012098671 0.0 0.002324972859931642 0.0 0.0
-0.02777241666762236 0.011903039431967381 0.0 0.0023265241261242503 0.0 0.0
-0.02429667297919738 0.010417488306211847 0.0 0.0023409105707102376 0.0 0.0
-0.020771929982770203 0.008917107865320033 0.0 0.0023882634684323626 0.0 0.0
-0.017119329887133706 0.007370165428740534 0.0 0.002497823654695853 0.0 0.0
-0.013225935364556227 0.005719735965312599 0.0 0.0026790203611039673 0.0 0.0
-0.009052290310421186 0.0039101822972113405 0.0 0.002829753526359036 0.0 0.0
-0.004923760790261679 0.002008229628601553 0.0 0.002630008316551054 0.0 0.0
-0.0017767528812298449 0.00037198459499593946 0.0 0.0016642268820442425 0.0 0.0
-0.0006067968631625691 9.400860881742738e-05 0.0 0.0008936577313064123 0.0 0.0
-0.0003243685304773288 6.8921352426261e-05 0.0 -0.000598857440248604 0.0 0.0
-0.0015092315211341926 0.0004467311360206598 0.0 -0.0007033785174775807 0.0 0.0
-0.005028232347833433 0.0020474990733092796 0.0 -0.0008951519736320804 0.0 0.0
-0.009866996733728971 0.004075236557802135 0.0 -0.0009980624410146862 0.0 0.0
-0.014662082925122728 0.006013059355152102 0.0 -0.0009904606157625083 0.0 0.0
-0.019039505218250364 0.0077726235569123905 0.0 -0.0009443709579797454 0.0 0.0
-0.023102023732009376 0.00941242631189306 0.0 -0.0009091503566775747 0.0 0.0
-0.02701002706964651 0.010997672314943304 0.0 -0.0008909792460884748 0.0 0.0
-0.030864513825920505 0.012565459238344321 0.0 -0.0008840194536443653 0.0 0.0
-0.03470939935341004 0.01413084563970726 0.0 -0.0008822680477685073 0.0 0.0
-0.03855806569171523 0.015698011811314805 0.0 -0.0008822035183214038 0.0 0.0
-0.0424115793754071 0.017267208673335404 0.0 -0.0008820630958489336 0.0 0.0
-0.04626533332766932 0.01883641994958635 0.0 -0.0008802637635289363 0.0 0.0
-0.05010635939351328 0.020402888598339226 0.0 -0.000875419692962117 0.0 0.0
-0.05390559037708167 0.02194904625381083 0.0 -0.0008637532576403432 0.0 0.0
-0.05759819256249546 0.023485014642654758 0.0 -0.0008411821225041728 0.0 0.0
-0.06107303658856101 0.02482111948057375 0.0 -0.0008641217578716403 0.0 0.0
-0.06421450637484095 0.02662675483289959 0.0 -0.0005879467248581412 0.0 0.0
-0.06608623854855226 0.025310084949399174 0.0 -0.0028869054778201285 0.0 0.0
-0.07283855347870069 0.0383707570802138 0.0 -1.2997000285903948e-05 0.0 0.0
-0.07919409890284676 -0.009791170313201425 0.0 1.3877787807814457e-17 0.0 0.0
-0.07283855347870091 0.03837075708021229 0.0 1.2997000285168425e-05 0.0 0.0
-0.06608623854855236 0.025310084949400548 0.0 0.0028869054778209013 0.0 0.0
-0.06421450637484068 0.02662675483290002 0.0 0.0005879467248588455 0.0 0.0
-0.06107303658856095 0.02482111948057303 0.0 0.0008641217578724139 0.0 0.0
-0.05759819256249556 0.023485014642652274 0.0 0.0008411821225063603 0.0 0.0
-0.05390559037708155 0.021949046253812478 0.0 0.0008637532576418706 0.0 0.0
-0.05010635939351332 0.020402888598336277 0.0 0.0008754196929625377 0.0 0.0
-0.046265333327669474 0.01883641994958566 0.0 0.000880263763530024 0.0 0.0
-0.04241157937540699 0.017267208673338842 0.0 0.0008820630958474088 0.0 0.0
-0.038558065691715146 0.015698011811310413 0.0 0.0008822035183227474 0.0 0.0
-0.034709399353410005 0.014130845639711854 0.0 0.0008822680477684613 0.0 0.0
-0.03086451382592045 0.012565459238343436 0.0 0.0008840194536441194 0.0 0.0
-0.02701002706964664 0.010997672314945618 0.0 0.0008909792460885732 0.0 0.0
-0.023102023732009667 0.009412426311892251 0.0 0.0009091503566772494 0.0 0.0
-0.019039505218250635 0.007772623556912523 0.0 0.0009443709579795294 0.0 0.0
-0.014662082925122739 0.006013059355151338 0.0 0.0009904606157610032 0.0 0.0
-0.009866996733728865 0.004075236557801575 0.0 0.0009980624410139316 0.0 0.0
-0.0050282323478333816 0.0020474990733087392 0.0 0.0008951519736323155 0.0 0.0
-0.0015092315211341703 0.0004467311360205534 0.0 0.0007033785174787984 0.0 0.0
-0.00032436853047734565 6.892135242637511e-05 0.0 0.0005988574402480513 0.0 0.0