# vtk DataFile Version 3.0
Some data
ASCII
DATASET UNSTRUCTURED_GRID
POINTS 861 float
0.0 0.0 0.0
0.4 0.0 0.0
0.8 0.0 0.0
1.2000000000000002 0.0 0.0
1.6 0.0 0.0
2.0 0.0 0.0
2.4000000000000004 0.0 0.0
2.8000000000000003 0.0 0.0
3.2 0.0 0.0
3.6 0.0 0.0
4.0 0.0 0.0
4.4 0.0 0.0
4.800000000000001 0.0 0.0
5.2 0.0 0.0
5.6000000000000005 0.0 0.0
6.0 0.0 0.0
6.4 0.0 0.0
6.800000000000001 0.0 0.0
7.2 0.0 0.0
7.6000000000000005 0.0 0.0
8.0 0.0 0.0
8.4 0.0 0.0
8.8 0.0 0.0
9.200000000000001 0.0 0.0
9.600000000000001 0.0 0.0
10.0 0.0 0.0
10.4 0.0 0.0
10.8 0.0 0.0
11.200000000000001 0.0 0.0
11.600000000000001 0.0 0.0
12.0 0.0 0.0
12.4 0.0 0.0
12.8 0.0 0.0
13.200000000000001 0.0 0.0
13.600000000000001 0.0 0.0
14.0 0.0 0.0
14.4 0.0 0.0
14.8 0.0 0.0
15.200000000000001 0.0 0.0
15.600000000000001 0.0 0.0
16.0 0.0 0.0
0.0 0.1 0.0
0.4 0.1 0.0
0.8 0.1 0.0
1.2000000000000002 0.1 0.0
1.6 0.1 0.0
2.0 0.1 0.0
2.4000000000000004 0.1 0.0
2.8000000000000003 0.1 0.0
3.2 0.1 0.0
3.6 0.1 0.0
4.0 0.1 0.0
4.4 0.1 0.0
4.800000000000001 0.1 0.0
5.2 0.1 0.0
5.6000000000000005 0.1 0.0
6.0 0.1 0.0
6.4 0.1 0.0
6.800000000000001 0.1 0.0
7.2 0.1 0.0
7.6000000000000005 0.1 0.0
8.0 0.1 0.0
8.4 0.1 0.0
8.8 0.1 0.0
9.200000000000001 0.1 0.0
9.600000000000001 0.1 0.0
10.0 0.1 0.0
10.4 0.1 0.0
10.8 0.1 0.0
11.200000000000001 0.1 0.0
11.600000000000001 0.1 0.0
12.0 0.1 0.0
12.4 0.1 0.0
12.8 0.1 0.0
13.200000000000001 0.1 0.0
13.600000000000001 0.1 0.0
14.0 0.1 0.0
14.4 0.1 0.0
14.8 0.1 0.0
15.200000000000001 0.1 0.0
15.600000000000001 0.1 0.0
16.0 0.1 0.0
0.0 0.2 0.0
0.4 0.2 0.0
0.8 0.2 0.0
1.2000000000000002 0.2 0.0
1.6 0.2 0.0
2.0 0.2 0.0
2.4000000000000004 0.2 0.0
2.8000000000000003 0.2 0.0
3.2 0.2 0.0
3.6 0.2 0.0
4.0 0.2 0.0
4.4 0.2 0.0
4.800000000000001 0.2 0.0
5.2 0.2 0.0
5.6000000000000005 0.2 0.0
6.0 0.2 0.0
6.4 0.2 0.0
6.800000000000001 0.2 0.0
7.2 0.2 0.0
7.6000000000000005 0.2 0.0
8.0 0.2 0.0
8.4 0.2 0.0
8.8 0.2 0.0
9.200000000000001 0.2 0.0
9.600000000000001 0.2 0.0
10.0 0.2 0.0
10.4 0.2 0.0
10.8 0.2 0.0
11.200000000000001 0.2 0.0
11.600000000000001 0.2 0.0
12.0 0.2 0.0
12.4 0.2 0.0
12.8 0.2 0.0
13.200000000000001 0.2 0.0
13.600000000000001 0.2 0.0
14.0 0.2 0.0
14.4 0.2 0.0
14.8 0.2 0.0
15.200000000000001 0.2 0.0
15.600000000000001 0.2 0.0
16.0 0.2 0.0
0.0 0.30000000000000004 0.0
0.4 0.30000000000000004 0.0
0.8 0.30000000000000004 0.0
1.2000000000000002 0.30000000000000004 0.0
1.6 0.30000000000000004 0.0
2.0 0.30000000000000004 0.0
2.4000000000000004 0.30000000000000004 0.0
2.8000000000000003 0.30000000000000004 0.0
3.2 0.30000000000000004 0.0
3.6 0.30000000000000004 0.0
4.0 0.30000000000000004 0.0
4.4 0.30000000000000004 0.0
4.800000000000001 0.30000000000000004 0.0
5.2 0.30000000000000004 0.0
5.6000000000000005 0.30000000000000004 0.0
6.0 0.30000000000000004 0.0
6.4 0.30000000000000004 0.0
6.800000000000001 0.30000000000000004 0.0
7.2 0.30000000000000004 0.0
7.6000000000000005 0.30000000000000004 0.0
8.0 0.30000000000000004 0.0
8.4 0.30000000000000004 0.0
8.8 0.30000000000000004 0.0
9.200000000000001 0.30000000000000004 0.0
9.600000000000001 0.30000000000000004 0.0
10.0 0.30000000000000004 0.0
10.4 0.30000000000000004 0.0
10.8 0.30000000000000004 0.0
11.200000000000001 0.30000000000000004 0.0
11.600000000000001 0.30000000000000004 0.0
12.0 0.30000000000000004 0.0
12.4 0.30000000000000004 0.0
12.8 0.30000000000000004 0.0
13.200000000000001 0.30000000000000004 0.0
13.600000000000001 0.30000000000000004 0.0
14.0 0.30000000000000004 0.0
14.4 0.30000000000000004 0.0
14.8 0.30000000000000004 0.0
15.200000000000001 0.30000000000000004 0.0
15.600000000000001 0.30000000000000004 0.0
16.0 0.30000000000000004 0.0
0.0 0.4 0.0
0.4 0.4 0.0
0.8 0.4 0.0
1.2000000000000002 0.4 0.0
1.6 0.4 0.0
2.0 0.4 0.0
2.4000000000000004 0.4 0.0
2.8000000000000003 0.4 0.0
3.2 0.4 0.0
3.6 0.4 0.0
4.0 0.4 0.0
4.4 0.4 0.0
4.800000000000001 0.4 0.0
5.2 0.4 0.0
5.6000000000000005 0.4 0.0
6.0 0.4 0.0
6.4 0.4 0.0
6.800000000000001 0.4 0.0
7.2 0.4 0.0
7.6000000000000005 0.4 0.0
8.0 0.4 0.0
8.4 0.4 0.0
8.8 0.4 0.0
9.200000000000001 0.4 0.0
9.600000000000001 0.4 0.0
10.0 0.4 0.0
10.4 0.4 0.0
10.8 0.4 0.0
11.200000000000001 0.4 0.0
11.600000000000001 0.4 0.0
12.0 0.4 0.0
12.4 0.4 0.0
12.8 0.4 0.0
13.200000000000001 0.4 0.0
13.600000000000001 0.4 0.0
14.0 0.4 0.0
14.4 0.4 0.0
14.8 0.4 0.0
15.200000000000001 0.4 0.0
15.600000000000001 0.4 0.0
16.0 0.4 0.0
0.0 0.5 0.0
0.4 0.5 0.0
0.8 0.5 0.0
1.2000000000000002 0.5 0.0
1.6 0.5 0.0
2.0 0.5 0.0
2.4000000000000004 0.5 0.0
2.8000000000000003 0.5 0.0
3.2 0.5 0.0
3.6 0.5 0.0
4.0 0.5 0.0
4.4 0.5 0.0
4.800000000000001 0.5 0.0
5.2 0.5 0.0
5.6000000000000005 0.5 0.0
6.0 0.5 0.0
6.4 0.5 0.0
6.800000000000001 0.5 0.0
7.2 0.5 0.0
7.6000000000000005 0.5 0.0
8.0 0.5 0.0
8.4 0.5 0.0
8.8 0.5 0.0
9.200000000000001 0.5 0.0
9.600000000000001 0.5 0.0
10.0 0.5 0.0
10.4 0.5 0.0
10.8 0.5 0.0
11.200000000000001 0.5 0.0
11.600000000000001 0.5 0.0
12.0 0.5 0.0
12.4 0.5 0.0
12.8 0.5 0.0
13.200000000000001 0.5 0.0
13.600000000000001 0.5 0.0
14.0 0.5 0.0
14.4 0.5 0.0
14.8 0.5 0.0
15.200000000000001 0.5 0.0
15.600000000000001 0.5 0.0
16.0 0.5 0.0
0.0 0.6000000000000001 0.0
0.4 0.6000000000000001 0.0
0.8 0.6000000000000001 0.0
1.2000000000000002 0.6000000000000001 0.0
1.6 0.6000000000000001 0.0
2.0 0.6000000000000001 0.0
2.4000000000000004 0.6000000000000001 0.0
2.8000000000000003 0.6000000000000001 0.0
3.2 0.6000000000000001 0.0
3.6 0.6000000000000001 0.0
4.0 0.6000000000000001 0.0
4.4 0.6000000000000001 0.0
4.800000000000001 0.6000000000000001 0.0
5.2 0.6000000000000001 0.0
5.6000000000000005 0.6000000000000001 0.0
6.0 0.6000000000000001 0.0
6.4 0.6000000000000001 0.0
6.800000000000001 0.6000000000000001 0.0
7.2 0.6000000000000001 0.0
7.6000000000000005 0.6000000000000001 0.0
8.0 0.6000000000000001 0.0
8.4 0.6000000000000001 0.0
8.8 0.6000000000000001 0.0
9.200000000000001 0.6000000000000001 0.0
9.600000000000001 0.6000000000000001 0.0
10.0 0.6000000000000001 0.0
10.4 0.6000000000000001 0.0
10.8 0.6000000000000001 0.0
11.200000000000001 0.6000000000000001 0.0
11.600000000000001 0.6000000000000001 0.0
12.0 0.6000000000000001 0.0
12.4 0.6000000000000001 0.0
12.8 0.6000000000000001 0.0
13.200000000000001 0.6000000000000001 0.0
13.600000000000001 0.6000000000000001 0.0
14.0 0.6000000000000001 0.0
14.4 0.6000000000000001 0.0
14.8 0.6000000000000001 0.0
15.200000000000001 0.6000000000000001 0.0
15.600000000000001 0.6000000000000001 0.0
16.0 0.6000000000000001 0.0
0.0 0.7000000000000001 0.0
0.4 0.7000000000000001 0.0
0.8 0.7000000000000001 0.0
1.2000000000000002 0.7000000000000001 0.0
1.6 0.7000000000000001 0.0
2.0 0.7000000000000001 0.0
2.4000000000000004 0.7000000000000001 0.0
2.8000000000000003 0.7000000000000001 0.0
3.2 0.7000000000000001 0.0
3.6 0.7000000000000001 0.0
4.0 0.7000000000000001 0.0
4.4 0.7000000000000001 0.0
4.800000000000001 0.7000000000000001 0.0
5.2 0.7000000000000001 0.0
5.6000000000000005 0.7000000000000001 0.0
6.0 0.7000000000000001 0.0
6.4 0.7000000000000001 0.0
6.800000000000001 0.7000000000000001 0.0
7.2 0.7000000000000001 0.0
7.6000000000000005 0.7000000000000001 0.0
8.0 0.7000000000000001 0.0
8.4 0.7000000000000001 0.0
8.8 0.7000000000000001 0.0
9.200000000000001 0.7000000000000001 0.0
9.600000000000001 0.7000000000000001 0.0
10.0 0.7000000000000001 0.0
10.4 0.7000000000000001 0.0
10.8 0.7000000000000001 0.0
11.200000000000001 0.7000000000000001 0.0
11.600000000000001 0.7000000000000001 0.0
12.0 0.7000000000000001 0.0
12.4 0.7000000000000001 0.0
12.8 0.7000000000000001 0.0
13.200000000000001 0.7000000000000001 0.0
13.600000000000001 0.7000000000000001 0.0
14.0 0.7000000000000001 0.0
14.4 0.7000000000000001 0.0
14.8 0.7000000000000001 0.0
15.200000000000001 0.7000000000000001 0.0
15.600000000000001 0.7000000000000001 0.0
16.0 0.7000000000000001 0.0
0.0 0.8 0.0
0.4 0.8 0.0
0.8 0.8 0.0
1.2000000000000002 0.8 0.0
1.6 0.8 0.0
2.0 0.8 0.0
2.4000000000000004 0.8 0.0
2.8000000000000003 0.8 0.0
3.2 0.8 0.0
3.6 0.8 0.0
4.0 0.8 0.0
4.4 0.8 0.0
4.800000000000001 0.8 0.0
5.2 0.8 0.0
5.6000000000000005 0.8 0.0
6.0 0.8 0.0
6.4 0.8 0.0
6.800000000000001 0.8 0.0
7.2 0.8 0.0
7.6000000000000005 0.8 0.0
8.0 0.8 0.0
8.4 0.8 0.0
8.8 0.8 0.0
9.200000000000001 0.8 0.0
9.600000000000001 0.8 0.0
10.0 0.8 0.0
10.4 0.8 0.0
10.8 0.8 0.0
11.200000000000001 0.8 0.0
11.600000000000001 0.8 0.0
12.0 0.8 0.0
12.4 0.8 0.0
12.8 0.8 0.0
13.200000000000001 0.8 0.0
13.600000000000001 0.8 0.0
14.0 0.8 0.0
14.4 0.8 0.0
14.8 0.8 0.0
15.200000000000001 0.8 0.0
15.600000000000001 0.8 0.0
16.0 0.8 0.0
0.0 0.9 0.0
0.4 0.9 0.0
0.8 0.9 0.0
1.2000000000000002 0.9 0.0
1.6 0.9 0.0
2.0 0.9 0.0
2.4000000000000004 0.9 0.0
2.8000000000000003 0.9 0.0
3.2 0.9 0.0
3.6 0.9 0.0
4.0 0.9 0.0
4.4 0.9 0.0
4.800000000000001 0.9 0.0
5.2 0.9 0.0
5.6000000000000005 0.9 0.0
6.0 0.9 0.0
6.4 0.9 0.0
6.800000000000001 0.9 0.0
7.2 0.9 0.0
7.6000000000000005 0.9 0.0
8.0 0.9 0.0
8.4 0.9 0.0
8.8 0.9 0.0
9.200000000000001 0.9 0.0
9.600000000000001 0.9 0.0
10.0 0.9 0.0
10.4 0.9 0.0
10.8 0.9 0.0
11.200000000000001 0.9 0.0
11.600000000000001 0.9 0.0
12.0 0.9 0.0
12.4 0.9 0.0
12.8 0.9 0.0
13.200000000000001 0.9 0.0
13.600000000000001 0.9 0.0
14.0 0.9 0.0
14.4 0.9 0.0
14.8 0.9 0.0
15.200000000000001 0.9 0.0
15.600000000000001 0.9 0.0
16.0 0.9 0.0
0.0 1.0 0.0
0.4 1.0 0.0
0.8 1.0 0.0
1.2000000000000002 1.0 0.0
1.6 1.0 0.0
2.0 1.0 0.0
2.4000000000000004 1.0 0.0
2.8000000000000003 1.0 0.0
3.2 1.0 0.0
3.6 1.0 0.0
4.0 1.0 0.0
4.4 1.0 0.0
4.800000000000001 1.0 0.0
5.2 1.0 0.0
5.6000000000000005 1.0 0.0
6.0 1.0 0.0
6.4 1.0 0.0
6.800000000000001 1.0 0.0
7.2 1.0 0.0
7.6000000000000005 1.0 0.0
8.0 1.0 0.0
8.4 1.0 0.0
8.8 1.0 0.0
9.200000000000001 1.0 0.0
9.600000000000001 1.0 0.0
10.0 1.0 0.0
10.4 1.0 0.0
10.8 1.0 0.0
11.200000000000001 1.0 0.0
11.600000000000001 1.0 0.0
12.0 1.0 0.0
12.4 1.0 0.0
12.8 1.0 0.0
13.200000000000001 1.0 0.0
13.600000000000001 1.0 0.0
14.0 1.0 0.0
14.4 1.0 0.0
14.8 1.0 0.0
15.200000000000001 1.0 0.0
15.600000000000001 1.0 0.0
16.0 1.0 0.0
0.0 1.1 0.0
0.4 1.1 0.0
0.8 1.1 0.0
1.2000000000000002 1.1 0.0
1.6 1.1 0.0
2.0 1.1 0.0
2.4000000000000004 1.1 0.0
2.8000000000000003 1.1 0.0
3.2 1.1 0.0
3.6 1.1 0.0
4.0 1.1 0.0
4.4 1.1 0.0
4.800000000000001 1.1 0.0
5.2 1.1 0.0
5.6000000000000005 1.1 0.0
6.0 1.1 0.0
6.4 1.1 0.0
6.800000000000001 1.1 0.0
7.2 1.1 0.0
7.6000000000000005 1.1 0.0
8.0 1.1 0.0
8.4 1.1 0.0
8.8 1.1 0.0
9.200000000000001 1.1 0.0
9.600000000000001 1.1 0.0
10.0 1.1 0.0
10.4 1.1 0.0
10.8 1.1 0.0
11.200000000000001 1.1 0.0
11.600000000000001 1.1 0.0
12.0 1.1 0.0
12.4 1.1 0.0
12.8 1.1 0.0
13.200000000000001 1.1 0.0
13.600000000000001 1.1 0.0
14.0 1.1 0.0
14.4 1.1 0.0
14.8 1.1 0.0
15.200000000000001 1.1 0.0
15.600000000000001 1.1 0.0
16.0 1.1 0.0
0.0 1.2000000000000002 0.0
0.4 1.2000000000000002 0.0
0.8 1.2000000000000002 0.0
1.2000000000000002 1.2000000000000002 0.0
1.6 1.2000000000000002 0.0
2.0 1.2000000000000002 0.0
2.4000000000000004 1.2000000000000002 0.0
2.8000000000000003 1.2000000000000002 0.0
3.2 1.2000000000000002 0.0
3.6 1.2000000000000002 0.0
4.0 1.2000000000000002 0.0
4.4 1.2000000000000002 0.0
4.800000000000001 1.2000000000000002 0.0
5.2 1.2000000000000002 0.0
5.6000000000000005 1.2000000000000002 0.0
6.0 1.2000000000000002 0.0
6.4 1.2000000000000002 0.0
6.800000000000001 1.2000000000000002 0.0
7.2 1.2000000000000002 0.0
7.6000000000000005 1.2000000000000002 0.0
8.0 1.2000000000000002 0.0
8.4 1.2000000000000002 0.0
8.8 1.2000000000000002 0.0
9.200000000000001 1.2000000000000002 0.0
9.600000000000001 1.2000000000000002 0.0
10.0 1.2000000000000002 0.0
10.4 1.2000000000000002 0.0
10.8 1.2000000000000002 0.0
11.200000000000001 1.2000000000000002 0.0
11.600000000000001 1.2000000000000002 0.0
12.0 1.2000000000000002 0.0
12.4 1.2000000000000002 0.0
12.8 1.2000000000000002 0.0
13.200000000000001 1.2000000000000002 0.0
13.600000000000001 1.2000000000000002 0.0
14.0 1.2000000000000002 0.0
14.4 1.2000000000000002 0.0
14.8 1.2000000000000002 0.0
15.200000000000001 1.2000000000000002 0.0
15.600000000000001 1.2000000000000002 0.0
16.0 1.2000000000000002 0.0
0.0 1.3 0.0
0.4 1.3 0.0
0.8 1.3 0.0
1.2000000000000002 1.3 0.0
1.6 1.3 0.0
2.0 1.3 0.0
2.4000000000000004 1.3 0.0
2.8000000000000003 1.3 0.0
3.2 1.3 0.0
3.6 1.3 0.0
4.0 1.3 0.0
4.4 1.3 0.0
4.800000000000001 1.3 0.0
5.2 1.3 0.0
5.6000000000000005 1.3 0.0
6.0 1.3 0.0
6.4 1.3 0.0
6.800000000000001 1.3 0.0
7.2 1.3 0.0
7.6000000000000005 1.3 0.0
8.0 1.3 0.0
8.4 1.3 0.0
8.8 1.3 0.0
9.200000000000001 1.3 0.0
9.600000000000001 1.3 0.0
10.0 1.3 0.0
10.4 1.3 0.0
10.8 1.3 0.0
11.200000000000001 1.3 0.0
11.600000000000001 1.3 0.0
12.0 1.3 0.0
12.4 1.3 0.0
12.8 1.3 0.0
13.200000000000001 1.3 0.0
13.600000000000001 1.3 0.0
14.0 1.3 0.0
14.4 1.3 0.0
14.8 1.3 0.0
15.200000000000001 1.3 0.0
15.600000000000001 1.3 0.0
16.0 1.3 0.0
0.0 1.4000000000000001 0.0
0.4 1.4000000000000001 0.0
0.8 1.4000000000000001 0.0
1.2000000000000002 1.4000000000000001 0.0
1.6 1.4000000000000001 0.0
2.0 1.4000000000000001 0.0
2.4000000000000004 1.4000000000000001 0.0
2.8000000000000003 1.4000000000000001 0.0
3.2 1.4000000000000001 0.0
3.6 1.4000000000000001 0.0
4.0 1.4000000000000001 0.0
4.4 1.4000000000000001 0.0
4.800000000000001 1.4000000000000001 0.0
5.2 1.4000000000000001 0.0
5.6000000000000005 1.4000000000000001 0.0
6.0 1.4000000000000001 0.0
6.4 1.4000000000000001 0.0
6.800000000000001 1.4000000000000001 0.0
7.2 1.4000000000000001 0.0
7.6000000000000005 1.4000000000000001 0.0
8.0 1.4000000000000001 0.0
8.4 1.4000000000000001 0.0
8.8 1.4000000000000001 0.0
9.200000000000001 1.4000000000000001 0.0
9.600000000000001 1.4000000000000001 0.0
10.0 1.4000000000000001 0.0
10.4 1.4000000000000001 0.0
10.8 1.4000000000000001 0.0
11.200000000000001 1.4000000000000001 0.0
11.600000000000001 1.4000000000000001 0.0
12.0 1.4000000000000001 0.0
12.4 1.4000000000000001 0.0
12.8 1.4000000000000001 0.0
13.200000000000001 1.4000000000000001 0.0
13.600000000000001 1.4000000000000001 0.0
14.0 1.4000000000000001 0.0
14.4 1.4000000000000001 0.0
14.8 1.4000000000000001 0.0
15.200000000000001 1.4000000000000001 0.0
15.600000000000001 1.4000000000000001 0.0
16.0 1.4000000000000001 0.0
0.0 1.5 0.0
0.4 1.5 0.0
0.8 1.5 0.0
1.2000000000000002 1.5 0.0
1.6 1.5 0.0
2.0 1.5 0.0
2.4000000000000004 1.5 0.0
2.8000000000000003 1.5 0.0
3.2 1.5 0.0
3.6 1.5 0.0
4.0 1.5 0.0
4.4 1.5 0.0
4.800000000000001 1.5 0.0
5.2 1.5 0.0
5.6000000000000005 1.5 0.0
6.0 1.5 0.0
6.4 1.5 0.0
6.800000000000001 1.5 0.0
7.2 1.5 0.0
7.6000000000000005 1.5 0.0
8.0 1.5 0.0
8.4 1.5 0.0
8.8 1.5 0.0
9.200000000000001 1.5 0.0
9.600000000000001 1.5 0.0
10.0 1.5 0.0
10.4 1.5 0.0
10.8 1.5 0.0
11.200000000000001 1.5 0.0
11.600000000000001 1.5 0.0
12.0 1.5 0.0
12.4 1.5 0.0
12.8 1.5 0.0
13.200000000000001 1.5 0.0
13.600000000000001 1.5 0.0
14.0 1.5 0.0
14.4 1.5 0.0
14.8 1.5 0.0
15.200000000000001 1.5 0.0
15.600000000000001 1.5 0.0
16.0 1.5 0.0
0.0 1.6 0.0
0.4 1.6 0.0
0.8 1.6 0.0
1.2000000000000002 1.6 0.0
1.6 1.6 0.0
2.0 1.6 0.0
2.4000000000000004 1.6 0.0
2.8000000000000003 1.6 0.0
3.2 1.6 0.0
3.6 1.6 0.0
4.0 1.6 0.0
4.4 1.6 0.0
4.800000000000001 1.6 0.0
5.2 1.6 0.0
5.6000000000000005 1.6 0.0
6.0 1.6 0.0
6.4 1.6 0.0
6.800000000000001 1.6 0.0
7.2 1.6 0.0
7.6000000000000005 1.6 0.0
8.0 1.6 0.0
8.4 1.6 0.0
8.8 1.6 0.0
9.200000000000001 1.6 0.0
9.600000000000001 1.6 0.0
10.0 1.6 0.0
10.4 1.6 0.0
10.8 1.6 0.0
11.200000000000001 1.6 0.0
11.600000000000001 1.6 0.0
12.0 1.6 0.0
12.4 1.6 0.0
12.8 1.6 0.0
13.200000000000001 1.6 0.0
13.600000000000001 1.6 0.0
14.0 1.6 0.0
14.4 1.6 0.0
14.8 1.6 0.0
15.200000000000001 1.6 0.0
15.600000000000001 1.6 0.0
16.0 1.6 0.0
0.0 1.7000000000000002 0.0
0.4 1.7000000000000002 0.0
0.8 1.7000000000000002 0.0
1.2000000000000002 1.7000000000000002 0.0
1.6 1.7000000000000002 0.0
2.0 1.7000000000000002 0.0
2.4000000000000004 1.7000000000000002 0.0
2.8000000000000003 1.7000000000000002 0.0
3.2 1.7000000000000002 0.0
3.6 1.7000000000000002 0.0
4.0 1.7000000000000002 0.0
4.4 1.7000000000000002 0.0
4.800000000000001 1.7000000000000002 0.0
5.2 1.7000000000000002 0.0
5.6000000000000005 1.7000000000000002 0.0
6.0 1.7000000000000002 0.0
6.4 1.7000000000000002 0.0
6.800000000000001 1.7000000000000002 0.0
7.2 1.7000000000000002 0.0
7.6000000000000005 1.7000000000000002 0.0
8.0 1.7000000000000002 0.0
8.4 1.7000000000000002 0.0
8.8 1.7000000000000002 0.0
9.200000000000001 1.7000000000000002 0.0
9.600000000000001 1.7000000000000002 0.0
10.0 1.7000000000000002 0.0
10.4 1.7000000000000002 0.0
10.8 1.7000000000000002 0.0
11.200000000000001 1.7000000000000002 0.0
11.600000000000001 1.7000000000000002 0.0
12.0 1.7000000000000002 0.0
12.4 1.7000000000000002 0.0
12.8 1.7000000000000002 0.0
13.200000000000001 1.7000000000000002 0.0
13.600000000000001 1.7000000000000002 0.0
14.0 1.7000000000000002 0.0
14.4 1.7000000000000002 0.0
14.8 1.7000000000000002 0.0
15.200000000000001 1.7000000000000002 0.0
15.600000000000001 1.7000000000000002 0.0
16.0 1.7000000000000002 0.0
0.0 1.8 0.0
0.4 1.8 0.0
0.8 1.8 0.0
1.2000000000000002 1.8 0.0
1.6 1.8 0.0
2.0 1.8 0.0
2.4000000000000004 1.8 0.0
2.8000000000000003 1.8 0.0
3.2 1.8 0.0
3.6 1.8 0.0
4.0 1.8 0.0
4.4 1.8 0.0
4.800000000000001 1.8 0.0
5.2 1.8 0.0
5.6000000000000005 1.8 0.0
6.0 1.8 0.0
6.4 1.8 0.0
6.800000000000001 1.8 0.0
7.2 1.8 0.0
7.6000000000000005 1.8 0.0
8.0 1.8 0.0
8.4 1.8 0.0
8.8 1.8 0.0
9.200000000000001 1.8 0.0
9.600000000000001 1.8 0.0
10.0 1.8 0.0
10.4 1.8 0.0
10.8 1.8 0.0
11.200000000000001 1.8 0.0
11.600000000000001 1.8 0.0
12.0 1.8 0.0
12.4 1.8 0.0
12.8 1.8 0.0
13.200000000000001 1.8 0.0
13.600000000000001 1.8 0.0
14.0 1.8 0.0
14.4 1.8 0.0
14.8 1.8 0.0
15.200000000000001 1.8 0.0
15.600000000000001 1.8 0.0
16.0 1.8 0.0
0.0 1.9000000000000001 0.0
0.4 1.9000000000000001 0.0
0.8 1.9000000000000001 0.0
1.2000000000000002 1.9000000000000001 0.0
1.6 1.9000000000000001 0.0
2.0 1.9000000000000001 0.0
2.4000000000000004 1.9000000000000001 0.0
2.8000000000000003 1.9000000000000001 0.0
3.2 1.9000000000000001 0.0
3.6 1.9000000000000001 0.0
4.0 1.9000000000000001 0.0
4.4 1.9000000000000001 0.0
4.800000000000001 1.9000000000000001 0.0
5.2 1.9000000000000001 0.0
5.6000000000000005 1.9000000000000001 0.0
6.0 1.9000000000000001 0.0
6.4 1.9000000000000001 0.0
6.800000000000001 1.9000000000000001 0.0
7.2 1.9000000000000001 0.0
7.6000000000000005 1.9000000000000001 0.0
8.0 1.9000000000000001 0.0
8.4 1.9000000000000001 0.0
8.8 1.9000000000000001 0.0
9.200000000000001 1.9000000000000001 0.0
9.600000000000001 1.9000000000000001 0.0
10.0 1.9000000000000001 0.0
10.4 1.9000000000000001 0.0
10.8 1.9000000000000001 0.0
11.200000000000001 1.9000000000000001 0.0
11.600000000000001 1.9000000000000001 0.0
12.0 1.9000000000000001 0.0
12.4 1.9000000000000001 0.0
12.8 1.9000000000000001 0.0
13.200000000000001 1.9000000000000001 0.0
13.600000000000001 1.9000000000000001 0.0
14.0 1.9000000000000001 0.0
14.4 1.9000000000000001 0.0
14.8 1.9000000000000001 0.0
15.200000000000001 1.9000000000000001 0.0
15.600000000000001 1.9000000000000001 0.0
16.0 1.9000000000000001 0.0
0.0 2.0 0.0
0.4 2.0 0.0
0.8 2.0 0.0
1.2000000000000002 2.0 0.0
1.6 2.0 0.0
2.0 2.0 0.0
2.4000000000000004 2.0 0.0
2.8000000000000003 2.0 0.0
3.2 2.0 0.0
3.6 2.0 0.0
4.0 2.0 0.0
4.4 2.0 0.0
4.800000000000001 2.0 0.0
5.2 2.0 0.0
5.6000000000000005 2.0 0.0
6.0 2.0 0.0
6.4 2.0 0.0
6.800000000000001 2.0 0.0
7.2 2.0 0.0
7.6000000000000005 2.0 0.0
8.0 2.0 0.0
8.4 2.0 0.0
8.8 2.0 0.0
9.200000000000001 2.0 0.0
9.600000000000001 2.0 0.0
10.0 2.0 0.0
10.4 2.0 0.0
10.8 2.0 0.0
11.200000000000001 2.0 0.0
11.600000000000001 2.0 0.0
12.0 2.0 0.0
12.4 2.0 0.0
12.8 2.0 0.0
13.200000000000001 2.0 0.0
13.600000000000001 2.0 0.0
14.0 2.0 0.0
14.4 2.0 0.0
14.8 2.0 0.0
15.200000000000001 2.0 0.0
15.600000000000001 2.0 0.0
16.0 2.0 0.0
CELLS 800 4000
4 0 1 42 41
4 1 2 43 42
4 2 3 44 43
4 3 4 45 44
4 4 5 46 45
4 5 6 47 46
4 6 7 48 47
4 7 8 49 48
4 8 9 50 49
4 9 10 51 50
4 10 11 52 51
4 11 12 53 52
4 12 13 54 53
4 13 14 55 54
4 14 15 56 55
4 15 16 57 56
4 16 17 58 57
4 17 18 59 58
4 18 19 60 59
4 19 20 61 60
4 20 21 62 61
4 21 22 63 62
4 22 23 64 63
4 23 24 65 64
4 24 25 66 65
4 25 26 67 66
4 26 27 68 67
4 27 28 69 68
4 28 29 70 69
4 29 30 71 70
4 30 31 72 71
4 31 32 73 72
4 32 33 74 73
4 33 34 75 74
4 34 35 76 75
4 35 36 77 76
4 36 37 78 77
4 37 38 79 78
4 38 39 80 79
4 39 40 81 80
4 41 42 83 82
4 42 43 84 83
4 43 44 85 84
4 44 45 86 85
4 45 46 87 86
4 46 47 88 87
4 47 48 89 88
4 48 49 90 89
4 49 50 91 90
4 50 51 92 91
4 51 52 93 92
4 52 53 94 93
4 53 54 95 94
4 54 55 96 95
4 55 56 97 96
4 56 57 98 97
4 57 58 99 98
4 58 59 100 99
4 59 60 101 100
4 60 61 102 101
4 61 62 103 102
4 62 63 104 103
4 63 64 105 104
4 64 65 106 105
4 65 66 107 106
4 66 67 108 107
4 67 68 109 108
4 68 69 110 109
4 69 70 111 110
4 70 71 112 111
4 71 72 113 112
4 72 73 114 113
4 73 74 115 114
4 74 75 116 115
4 75 76 117 116
4 76 77 118 117
4 77 78 119 118
4 78 79 120 119
4 79 80 121 120
4 80 81 122 121
4 82 83 124 123
4 83 84 125 124
4 84 85 126 125
4 85 86 127 126
4 86 87 128 127
4 87 88 129 128
4 88 89 130 129
4 89 90 131 130
4 90 91 132 131
4 91 92 133 132
4 92 93 134 133
4 93 94 135 134
4 94 95 136 135
4 95 96 137 136
4 96 97 138 137
4 97 98 139 138
4 98 99 140 139
4 99 100 141 140
4 100 101 142 141
4 101 102 143 142
4 102 103 144 143
4 103 104 145 144
4 104 105 146 145
4 105 106 147 146
4 106 107 148 147
4 107 108 149 148
4 108 109 150 149
4 109 110 151 150
4 110 111 152 151
4 111 112 153 152
4 112 113 154 153
4 113 114 155 154
4 114 115 156 155
4 115 116 157 156
4 116 117 158 157
4 117 118 159 158
4 118 119 160 159
4 119 120 161 160
4 120 121 162 161
4 121 122 163 162
4 123 124 165 164
4 124 125 166 165
4 125 126 167 166
4 126 127 168 167
4 127 128 169 168
4 128 129 170 169
4 129 130 171 170
4 130 131 172 171
4 131 132 173 172
4 132 133 174 173
4 133 134 175 174
4 134 135 176 175
4 135 136 177 176
4 136 137 178 177
4 137 138 179 178
4 138 139 180 179
4 139 140 181 180
4 140 141 182 181
4 141 142 183 182
4 142 143 184 183
4 143 144 185 184
4 144 145 186 185
4 145 146 187 186
4 146 147 188 187
4 147 148 189 188
4 148 149 190 189
4 149 150 191 190
4 150 151 192 191
4 151 152 193 192
4 152 153 194 193
4 153 154 195 194
4 154 155 196 195
4 155 156 197 196
4 156 157 198 197
4 157 158 199 198
4 158 159 200 199
4 159 160 201 200
4 160 161 202 201
4 161 162 203 202
4 162 163 204 203
4 164 165 206 205
4 165 166 207 206
4 166 167 208 207
4 167 168 209 208
4 168 169 210 209
4 169 170 211 210
4 170 171 212 211
4 171 172 213 212
4 172 173 214 213
4 173 174 215 214
4 174 175 216 215
4 175 176 217 216
4 176 177 218 217
4 177 178 219 218
4 178 179 220 219
4 179 180 221 220
4 180 181 222 221
4 181 182 223 222
4 182 183 224 223
4 183 184 225 224
4 184 185 226 225
4 185 186 227 226
4 186 187 228 227
4 187 188 229 228
4 188 189 230 229
4 189 190 231 230
4 190 191 232 231
4 191 192 233 232
4 192 193 234 233
4 193 194 235 234
4 194 195 236 235
4 195 196 237 236
4 196 197 238 237
4 197 198 239 238
4 198 199 240 239
4 199 200 241 240
4 200 201 242 241
4 201 202 243 242
4 202 203 244 243
4 203 204 245 244
4 205 206 247 246
4 206 207 248 247
4 207 208 249 248
4 208 209 250 249
4 209 210 251 250
4 210 211 252 251
4 211 212 253 252
4 212 213 254 253
4 213 214 255 254
4 214 215 256 255
4 215 216 257 256
4 216 217 258 257
4 217 218 259 258
4 218 219 260 259
4 219 220 261 260
4 220 221 262 261
4 221 222 263 262
4 222 223 264 263
4 223 224 265 264
4 224 225 266 265
4 225 226 267 266
4 226 227 268 267
4 227 228 269 268
4 228 229 270 269
4 229 230 271 270
4 230 231 272 271
4 231 232 273 272
4 232 233 274 273
4 233 234 275 274
4 234 235 276 275
4 235 236 277 276
4 236 237 278 277
4 237 238 279 278
4 238 239 280 279
4 239 240 281 280
4 240 241 282 281
4 241 242 283 282
4 242 243 284 283
4 243 244 285 284
4 244 245 286 285
4 246 247 288 287
4 247 248 289 288
4 248 249 290 289
4 249 250 291 290
4 250 251 292 291
4 251 252 293 292
4 252 253 294 293
4 253 254 295 294
4 254 255 296 295
4 255 256 297 296
4 256 257 298 297
4 257 258 299 298
4 258 259 300 299
4 259 260 301 300
4 260 261 302 301
4 261 262 303 302
4 262 263 304 303
4 263 264 305 304
4 264 265 306 305
4 265 266 307 306
4 266 267 308 307
4 267 268 309 308
4 268 269 310 309
4 269 270 311 310
4 270 271 312 311
4 271 272 313 312
4 272 273 314 313
4 273 274 315 314
4 274 275 316 315
4 275 276 317 316
4 276 277 318 317
4 277 278 319 318
4 278 279 320 319
4 279 280 321 320
4 280 281 322 321
4 281 282 323 322
4 282 283 324 323
4 283 284 325 324
4 284 285 326 325
4 285 286 327 326
4 287 288 329 328
4 288 289 330 329
4 289 290 331 330
4 290 291 332 331
4 291 292 333 332
4 292 293 334 333
4 293 294 335 334
4 294 295 336 335
4 295 296 337 336
4 296 297 338 337
4 297 298 339 338
4 298 299 340 339
4 299 300 341 340
4 300 301 342 341
4 301 302 343 342
4 302 303 344 343
4 303 304 345 344
4 304 305 346 345
4 305 306 347 346
4 306 307 348 347
4 307 308 349 348
4 308 309 350 349
4 309 310 351 350
4 310 311 352 351
4 311 312 353 352
4 312 313 354 353
4 313 314 355 354
4 314 315 356 355
4 315 316 357 356
4 316 317 358 357
4 317 318 359 358
4 318 319 360 359
4 319 320 361 360
4 320 321 362 361
4 321 322 363 362
4 322 323 364 363
4 323 324 365 364
4 324 325 366 365
4 325 326 367 366
4 326 327 368 367
4 328 329 370 369
4 329 330 371 370
4 330 331 372 371
4 331 332 373 372
4 332 333 374 373
4 333 334 375 374
4 334 335 376 375
4 335 336 377 376
4 336 337 378 377
4 337 338 379 378
4 338 339 380 379
4 339 340 381 380
4 340 341 382 381
4 341 342 383 382
4 342 343 384 383
4 343 344 385 384
4 344 345 386 385
4 345 346 387 386
4 346 347 388 387
4 347 348 389 388
4 348 349 390 389
4 349 350 391 390
4 350 351 392 391
4 351 352 393 392
4 352 353 394 393
4 353 354 395 394
4 354 355 396 395
4 355 356 397 396
4 356 357 398 397
4 357 358 399 398
4 358 359 400 399
4 359 360 401 400
4 360 361 402 401
4 361 362 403 402
4 362 363 404 403
4 363 364 405 404
4 364 365 406 405
4 365 366 407 406
4 366 367 408 407
4 367 368 409 408
4 369 370 411 410
4 370 371 412 411
4 371 372 413 412
4 372 373 414 413
4 373 374 415 414
4 374 375 416 415
4 375 376 417 416
4 376 377 418 417
4 377 378 419 418
4 378 379 420 419
4 379 380 421 420
4 380 381 422 421
4 381 382 423 422
4 382 383 424 423
4 383 384 425 424
4 384 385 426 425
4 385 386 427 426
4 386 387 428 427
4 387 388 429 428
4 388 389 430 429
4 389 390 431 430
4 390 391 432 431
4 391 392 433 432
4 392 393 434 433
4 393 394 435 434
4 394 395 436 435
4 395 396 437 436
4 396 397 438 437
4 397 398 439 438
4 398 399 440 439
4 399 400 441 440
4 400 401 442 441
4 401 402 443 442
4 402 403 444 443
4 403 404 445 444
4 404 405 446 445
4 405 406 447 446
4 406 407 448 447
4 407 408 449 448
4 408 409 450 449
4 410 411 452 451
4 411 412 453 452
4 412 413 454 453
4 413 414 455 454
4 414 415 456 455
4 415 416 457 456
4 416 417 458 457
4 417 418 459 458
4 418 419 460 459
4 419 420 461 460
4 420 421 462 461
4 421 422 463 462
4 422 423 464 463
4 423 424 465 464
4 424 425 466 465
4 425 426 467 466
4 426 427 468 467
4 427 428 469 468
4 428 429 470 469
4 429 430 471 470
4 430 431 472 471
4 431 432 473 472
4 432 433 474 473
4 433 434 475 474
4 434 435 476 475
4 435 436 477 476
4 436 437 478 477
4 437 438 479 478
4 438 439 480 479
4 439 440 481 480
4 440 441 482 481
4 441 442 483 482
4 442 443 484 483
4 443 444 485 484
4 444 445 486 485
4 445 446 487 486
4 446 447 488 487
4 447 448 489 488
4 448 449 490 489
4 449 450 491 490
4 451 452 493 492
4 452 453 494 493
4 453 454 495 494
4 454 455 496 495
4 455 456 497 496
4 456 457 498 497
4 457 458 499 498
4 458 459 500 499
4 459 460 501 500
4 460 461 502 501
4 461 462 503 502
4 462 463 504 503
4 463 464 505 504
4 464 465 506 505
4 465 466 507 506
4 466 467 508 507
4 467 468 509 508
4 468 469 510 509
4 469 470 511 510
4 470 471 512 511
4 471 472 513 512
4 472 473 514 513
4 473 474 515 514
4 474 475 516 515
4 475 476 517 516
4 476 477 518 517
4 477 478 519 518
4 478 479 520 519
4 479 480 521 520
4 480 481 522 521
4 481 482 523 522
4 482 483 524 523
4 483 484 525 524
4 484 485 526 525
4 485 486 527 526
4 486 487 528 527
4 487 488 529 528
4 488 489 530 529
4 489 490 531 530
4 490 491 532 531
4 492 493 534 533
4 493 494 535 534
4 494 495 536 535
4 495 496 537 536
4 496 497 538 537
4 497 498 539 538
4 498 499 540 539
4 499 500 541 540
4 500 501 542 541
4 501 502 543 542
4 502 503 544 543
4 503 504 545 544
4 504 505 546 545
4 505 506 547 546
4 506 507 548 547
4 507 508 549 548
4 508 509 550 549
4 509 510 551 550
4 510 511 552 551
4 511 512 553 552
4 512 513 554 553
4 513 514 555 554
4 514 515 556 555
4 515 516 557 556
4 516 517 558 557
4 517 518 559 558
4 518 519 560 559
4 519 520 561 560
4 520 521 562 561
4 521 522 563 562
4 522 523 564 563
4 523 524 565 564
4 524 525 566 565
4 525 526 567 566
4 526 527 568 567
4 527 528 569 568
4 528 529 570 569
4 529 530 571 570
4 530 531 572 571
4 531 532 573 572
4 533 534 575 574
4 534 535 576 575
4 535 536 577 576
4 536 537 578 577
4 537 538 579 578
4 538 539 580 579
4 539 540 581 580
4 540 541 582 581
4 541 542 583 582
4 542 543 584 583
4 543 544 585 584
4 544 545 586 585
4 545 546 587 586
4 546 547 588 587
4 547 548 589 588
4 548 549 590 589
4 549 550 591 590
4 550 551 592 591
4 551 552 593 592
4 552 553 594 593
4 553 554 595 594
4 554 555 596 595
4 555 556 597 596
4 556 557 598 597
4 557 558 599 598
4 558 559 600 599
4 559 560 601 600
4 560 561 602 601
4 561 562 603 602
4 562 563 604 603
4 563 564 605 604
4 564 565 606 605
4 565 566 607 606
4 566 567 608 607
4 567 568 609 608
4 568 569 610 609
4 569 570 611 610
4 570 571 612 611
4 571 572 613 612
4 572 573 614 613
4 574 575 616 615
4 575 576 617 616
4 576 577 618 617
4 577 578 619 618
4 578 579 620 619
4 579 580 621 620
4 580 581 622 621
4 581 582 623 622
4 582 583 624 623
4 583 584 625 624
4 584 585 626 625
4 585 586 627 626
4 586 587 628 627
4 587 588 629 628
4 588 589 630 629
4 589 590 631 630
4 590 591 632 631
4 591 592 633 632
4 592 593 634 633
4 593 594 635 634
4 594 595 636 635
4 595 596 637 636
4 596 597 638 637
4 597 598 639 638
4 598 599 640 639
4 599 600 641 640
4 600 601 642 641
4 601 602 643 642
4 602 603 644 643
4 603 604 645 644
4 604 605 646 645
4 605 606 647 646
4 606 607 648 647
4 607 608 649 648
4 608 609 650 649
4 609 610 651 650
4 610 611 652 651
4 611 612 653 652
4 612 613 654 653
4 613 614 655 654
4 615 616 657 656
4 616 617 658 657
4 617 618 659 658
4 618 619 660 659
4 619 620 661 660
4 620 621 662 661
4 621 622 663 662
4 622 623 664 663
4 623 624 665 664
4 624 625 666 665
4 625 626 667 666
4 626 627 668 667
4 627 628 669 668
4 628 629 670 669
4 629 630 671 670
4 630 631 672 671
4 631 632 673 672
4 632 633 674 673
4 633 634 675 674
4 634 635 676 675
4 635 636 677 676
4 636 637 678 677
4 637 638 679 678
4 638 639 680 679
4 639 640 681 680
4 640 641 682 681
4 641 642 683 682
4 642 643 684 683
4 643 644 685 684
4 644 645 686 685
4 645 646 687 686
4 646 647 688 687
4 647 648 689 688
4 648 649 690 689
4 649 650 691 690
4 650 651 692 691
4 651 652 693 692
4 652 653 694 693
4 653 654 695 694
4 654 655 696 695
4 656 657 698 697
4 657 658 699 698
4 658 659 700 699
4 659 660 701 700
4 660 661 702 701
4 661 662 703 702
4 662 663 704 703
4 663 664 705 704
4 664 665 706 705
4 665 666 707 706
4 666 667 708 707
4 667 668 709 708
4 668 669 710 709
4 669 670 711 710
4 670 671 712 711
4 671 672 713 712
4 672 673 714 713
4 673 674 715 714
4 674 675 716 715
4 675 676 717 716
4 676 677 718 717
4 677 678 719 718
4 678 679 720 719
4 679 680 721 720
4 680 681 722 721
4 681 682 723 722
4 682 683 724 723
4 683 684 725 724
4 684 685 726 725
4 685 686 727 726
4 686 687 728 727
4 687 688 729 728
4 688 689 730 729
4 689 690 731 730
4 690 691 732 731
4 691 692 733 732
4 692 693 734 733
4 693 694 735 734
4 694 695 736 735
4 695 696 737 736
4 697 698 739 738
4 698 699 740 739
4 699 700 741 740
4 700 701 742 741
4 701 702 743 742
4 702 703 744 743
4 703 704 745 744
4 704 705 746 745
4 705 706 747 746
4 706 707 748 747
4 707 708 749 748
4 708 709 750 749
4 709 710 751 750
4 710 711 752 751
4 711 712 753 752
4 712 713 754 753
4 713 714 755 754
4 714 715 756 755
4 715 716 757 756
4 716 717 758 757
4 717 718 759 758
4 718 719 760 759
4 719 720 761 760
4 720 721 762 761
4 721 722 763 762
4 722 723 764 763
4 723 724 765 764
4 724 725 766 765
4 725 726 767 766
4 726 727 768 767
4 727 728 769 768
4 728 729 770 769
4 729 730 771 770
4 730 731 772 771
4 731 732 773 772
4 732 733 774 773
4 733 734 775 774
4 734 735 776 775
4 735 736 777 776
4 736 737 778 777
4 738 739 780 779
4 739 740 781 780
4 740 741 782 781
4 741 742 783 782
4 742 743 784 783
4 743 744 785 784
4 744 745 786 785
4 745 746 787 786
4 746 747 788 787
4 747 748 789 788
4 748 749 790 789
4 749 750 791 790
4 750 751 792 791
4 751 752 793 792
4 752 753 794 793
4 753 754 795 794
4 754 755 796 795
4 755 756 797 796
4 756 757 798 797
4 757 758 799 798
4 758 759 800 799
4 759 760 801 800
4 760 761 802 801
4 761 762 803 802
4 762 763 804 803
4 763 764 805 804
4 764 765 806 805
4 765 766 807 806
4 766 767 808 807
4 767 768 809 808
4 768 769 810 809
4 769 770 811 810
4 770 771 812 811
4 771 772 813 812
4 772 773 814 813
4 773 774 815 814
4 774 775 816 815
4 775 776 817 816
4 776 777 818 817
4 777 778 819 818
4 779 780 821 820
4 780 781 822 821
4 781 782 823 822
4 782 783 824 823
4 783 784 825 824
4 784 785 826 825
4 785 786 827 826
4 786 787 828 827
4 787 788 829 828
4 788 789 830 829
4 789 790 831 830
4 790 791 832 831
4 791 792 833 832
4 792 793 834 833
4 793 794 835 834
4 794 795 836 835
4 795 796 837 836
4 796 797 838 837
4 797 798 839 838
4 798 799 840 839
4 799 800 841 840
4 800 801 842 841
4 801 802 843 842
4 802 803 844 843
4 803 804 845 844
4 804 805 846 845
4 805 806 847 846
4 806 807 848 847
4 807 808 849 848
4 808 809 850 849
4 809 810 851 850
4 810 811 852 851
4 811 812 853 852
4 812 813 854 853
4 813 814 855 854
4 814 815 856 855
4 815 816 857 856
4 816 817 858 857
4 817 818 859 858
4 818 819 860 859
CELL_TYPES 800
9
9
9
9
9
9
9
9
9
9
9
9
9
9
9
9
9
9
9
9
9
9
9
9
9
9
9
9
9
9
9
9
9
9
9
9
9
9
9
9
9
9
9
9
9
9
9
9
9
9
9
9
9
9
9
9
9
9
9
9
9
9
9
9
9
9
9
9
9
9
9
9
9
9
9
9
9
9
9
9
9
9
9
9
9
9
9
9
9
9
9
9
9
9
9
9
9
9
9
9
9
9
9
9
9
9
9
9
9
9
9
9
9
9
9
9
9
9
9
9
9
9
9
9
9
9
9
9
9
9
9
9
9
9
9
9
9
9
9
9
9
9
9
9
9
9
9
9
9
9
9
9
9
9
9
9
9
9
9
9
9
9
9
9
9
9
9
9
9
9
9
9
9
9
9
9
9
9
9
9
9
9
9
9
9
9
9
9
9
9
9
9
9
9
9
9
9
9
9
9
9
9
9
9
9
9
9
9
9
9
9
9
9
9
9
9
9
9
9
9
9
9
9
9
9
9
9
9
9
9
9
9
9
9
9
9
9
9
9
9
9
9
9
9
9
9
9
9
9
9
9
9
9
9
9
9
9
9
9
9
9
9
9
9
9
9
9
9
9
9
9
9
9
9
9
9
9
9
9
9
9
9
9
9
9
9
9
9
9
9
9
9
9
9
9
9
9
9
9
9
9
9
9
9
9
9
9
9
9
9
9
9
9
9
9
9
9
9
9
9
9
9
9
9
9
9
9
9
9
9
9
9
9
9
9
9
9
9
9
9
9
9
9
9
9
9
9
9
9
9
9
9
9
9
9
9
9
9
9
9
9
9
9
9
9
9
9
9
9
9
9
9
9
9
9
9
9
9
9
9
9
9
9
9
9
9
9
9
9
9
9
9
9
9
9
9
9
9
9
9
9
9
9
9
9
9
9
9
9
9
9
9
9
9
9
9
9
9
9
9
9
9
9
9
9
9
9
9
9
9
9
9
9
9
9
9
9
9
9
9
9
9
9
9
9
9
9
9
9
9
9
9
9
9
9
9
9
9
9
9
9
9
9
9
9
9
9
9
9
9
9
9
9
9
9
9
9
9
9
9
9
9
9
9
9
9
9
9
9
9
9
9
9
9
9
9
9
9
9
9
9
9
9
9
9
9
9
9
9
9
9
9
9
9
9
9
9
9
9
9
9
9
9
9
9
9
9
9
9
9
9
9
9
9
9
9
9
9
9
9
9
9
9
9
9
9
9
9
9
9
9
9
9
9
9
9
9
9
9
9
9
9
9
9
9
9
9
9
9
9
9
9
9
9
9
9
9
9
9
9
9
9
9
9
9
9
9
9
9
9
9
9
9
9
9
9
9
9
9
9
9
9
9
9
9
9
9
9
9
9
9
9
9
9
9
9
9
9
9
9
9
9
9
9
9
9
9
9
9
9
9
9
9
9
9
9
9
9
9
9
9
9
9
9
9
9
9
9
9
9
9
9
9
9
9
9
9
9
9
9
9
9
9
9
9
9
9
9
9
9
9
9
9
9
9
9
9
9
9
9
9
9
9
9
9
9
9
9
9
9
9
9
9
9
9
9
9
9
9
9
9
9
9
9
9
9
9
9
9
9
9
9
9
9
9
9
9
9
9
9
9
9
9
9
9
9
9
9
9
9
9
9
9
9
9
9
9
9
9
9
9
9
9
9
9
9
9
9
9
9
9
9
9
9
9
9
9
9
9
9
9
9
9
9
9
9
9
9
9
9
9
9
9
9
9
9
9
9
9
9
9
9
9
9
9
9
9
9
9
9
9
9
9
9
9
9
9
9
9
9
POINT_DATA 861
SCALARS Disp float 2
LOOKUP_TABLE default
0.0 0.0
0.005794385119786165 -0.24917803971273855
0.007118928642978458 -0.48916440202708966
0.007903682555866966 -0.7281049077414674
0.008916957275107527 -0.9666804832144762
0.010554854665382538 -1.2044825496564022
0.013433446337376103 -1.4409676343997297
0.018303869247852732 -1.6754515691516498
0.026050113820478345 -1.9070793073706958
0.03763602362804991 -2.1347380450354216
0.05402457783376278 -2.3569267889118177
0.07612503032243342 -2.5716765893885176
0.10476829064659829 -2.776575753665688
0.1406982328136304 -2.9688827977728294
0.1845690669991376 -3.1456094948848694
0.2368781261130909 -3.303585983056522
0.2978435792398558 -3.4395435666746508
0.36725678295439634 -3.5502489579627237
0.4443553910459042 -3.632725061839319
0.5277701293854817 -3.684497555911529
0.6153227660690276 -3.703882104788812
0.7028754027525684 -3.684497555911412
0.7862901410921276 -3.632725061839083
0.8633887491836049 -3.5502489579623817
0.9328019528981064 -3.4395435666742236
0.9937674060248298 -3.3035859830560343
1.046076465138741 -3.1456094948843343
1.0899472993242065 -2.9688827977722623
1.1258772414911966 -2.776575753665108
1.1545205018153208 -2.5716765893879425
1.1766209543039559 -2.356926788911263
1.19300950850964 -2.1347380450349007
1.204595418317189 -1.907079307370213
1.2123416628897974 -1.6754515691512148
1.2172120858002624 -1.440967634399346
1.2200906774722486 -1.2044825496560774
1.2217285748625208 -0.9666804832142099
1.2227418495817604 -0.7281049077412634
1.2235266034946488 -0.4891644020269467
1.2248511470178396 -0.2491780397126595
1.2306455321376222 0.0
0.06215429173931112 -0.002411795989943047
0.06620692008709317 -0.24944161116364405
0.0668981953614892 -0.48922643795634585
0.06759394319737157 -0.7281944022100613
0.06848274730027583 -0.9668253261441004
0.06987509726352513 -1.2048031091348619
0.07235020257616294 -1.4416331945641114
0.07661743744736753 -1.67666435284507
0.08350717743441785 -1.9090652988047305
0.0938997343132144 -2.1377274927613104
0.10865440556538412 -2.3611396338087602
0.12856721177087874 -2.5773159680066953
0.15437011823431704 -2.783827584813674
0.18673959064709023 -2.977915227871546
0.22627331701995687 -3.156565466191728
0.27343526777449473 -3.3165602552671656
0.3284457461554866 -3.454549092957665
0.3911500974589035 -3.567182581642204
0.4608973108177853 -3.651339939441316
0.5363909933673792 -3.704378002717294
0.6153227660690133 -3.724285418720891
0.6942545387706422 -3.704378002717175
0.7697482213202193 -3.6513399394410744
0.8394954346790743 -3.567182581641854
0.9021997859824573 -3.4545490929572282
0.9572102643634122 -3.316560255266668
1.004372215117912 -3.1565654661911835
1.0439059414907408 -2.9779152278709695
1.0762754139034765 -2.7838275848130842
1.1020783203668783 -2.5773159680061113
1.121991126572341 -2.361139633808198
1.1367457978244841 -2.1377274927607823
1.1471383547032603 -1.9090652988042438
1.1540280946902952 -1.6766643528446314
1.1582953295614893 -1.441633194563726
1.1607704348741208 -1.2048031091345361
1.1621627848373677 -0.9668253261438339
1.1630515889402713 -0.7281944022098572
1.1637473367761535 -0.48922643795620285
1.1644386120505494 -0.2494416111635646
1.1684912403983259 -0.0024117959899405557
0.12332861153574715 -0.004326715792455961
0.12630121229171135 -0.24957234422359073
0.12669729361126789 -0.4892593225200512
0.12726487765490585 -0.7282732178469187
0.12803899957246695 -0.9669409058795387
0.12921075061809847 -1.2050567301818138
0.131292004059617 -1.4421842598093717
0.13495888360227684 -1.6777044195355302
0.14097739361147568 -1.910804356290309
0.1501471298771108 -2.1403734339621976
0.16322851892910317 -2.364886148594776
0.18091422316222006 -2.5823398338988146
0.2038395618309687 -2.7902930984955403
0.23260113837986535 -2.9859752375921325
0.2677444691187256 -3.1663513337231293
0.3097008431909743 -3.3281626184856714
0.3587027256183199 -3.4679890868176297
0.41466604294033904 -3.582378995521377
0.47704267781258836 -3.6680743221312637
0.5446044977546813 -3.7222299314628415
0.6153227660689993 -3.742609102418211
0.6860410343833125 -3.7222299314627194
0.7536028543253902 -3.668074322131017
0.8159794891976156 -3.582378995521021
0.8719428065196059 -3.4679890868171843
0.9209446889469184 -3.3281626184851647
0.9629010630191331 -3.1663513337225755
0.9980443937579595 -2.9859752375915476
1.0268059703068229 -2.7902930984949417
1.0497313089755398 -2.5823398338982226
1.0674170132086278 -2.364886148594206
1.0804984022605968 -2.1403734339616642
1.0896681385262132 -1.910804356289818
1.0956866485353984 -1.6777044195350885
1.0993535280780489 -1.4421842598089845
1.1014347815195622 -1.2050567301814874
1.102606532565192 -0.9669409058792718
1.1033806544827527 -0.7282732178467145
1.1039482385263906 -0.4892593225199084
1.104344319845947 -0.24957234422351093
1.1073169206019058 -0.004326715792450714
0.1839859319759043 -0.005865826372810404
0.18623279647336155 -0.24966146162839417
0.18647431491548438 -0.4892774799397624
0.18691834358164275 -0.7283369827136345
0.18758070032802593 -0.9670351929158775
0.1885584624523542 -1.2052514099766918
0.1902687520034789 -1.4426247698913102
0.19334239081427318 -1.6785728817338648
0.19848475438708849 -1.9122932863484285
0.20641444149371307 -2.1426698702078526
0.21779772092753022 -2.3681589520141837
0.2332281389548804 -2.586741324463336
0.25324868022038277 -2.7959653257954327
0.2783748057549919 -2.99305344828431
0.3090881817916292 -3.174955937895916
0.34579453072505045 -3.3383814047534317
0.38874250153157913 -3.4798533866164694
0.4379176097535151 -3.595831162238445
0.4928820254045641 -3.6829212751885865
0.5525898701763751 -3.738097818656809
0.6153227660689858 -3.7589532946473
0.6780556619615921 -3.738097818656685
0.7377635067333895 -3.682921275188335
0.7927279223844174 -3.595831162238082
0.841903030606328 -3.4798533866160173
0.884851001412828 -3.338381404752917
0.9215573503462192 -3.174955937895355
0.9522707263828267 -2.993053448283717
0.9773968519174067 -2.795965325794827
0.9974173931828815 -2.586741324462737
1.0128478112102068 -2.368158952013608
1.024231090644003 -2.142669870207314
1.032160777750611 -1.9122932863479338
1.0373031413234144 -1.6785728817334207
1.0403767801342008 -1.4426247698909211
1.0420870696853215 -1.2052514099763645
1.0430648318096483 -0.9670351929156106
1.043727188556031 -0.7283369827134303
1.0441712172221898 -0.4892774799396196
1.0444127356643125 -0.249661461628314
1.0466596001617647 -0.00586582637280263
0.24434825529218523 -0.007109619619580075
0.24605280269409088 -0.24973086143144207
0.2462103547026913 -0.48928791077271866
0.246550258613618 -0.7283864520913963
0.24710421633252383 -0.9671121554459099
0.2479104042225603 -1.2053989255950697
0.24928715210913996 -1.4429627022379126
0.25178128792160626 -1.6792726347567146
0.2560534878376004 -1.9135322647458484
0.2627380295873803 -2.144614201488357
0.27241130818609766 -2.370954439784115
0.2855724780896892 -2.5905162722373487
0.30267175738413277 -2.8008401239905445
0.32414454393595904 -2.999145335692086
0.3504123483247271 -3.182372666935654
0.38184176985035856 -3.347208096845454
0.4186941933342641 -3.490131636103213
0.46102672991929927 -3.6075269016334333
0.5085443623341362 -3.695881755738321
0.5604406262626839 -3.752015055508237
0.6153227660689725 -3.7733730878499565
0.6702049058752572 -3.752015055508111
0.7221011698037925 -3.6958817557380654
0.7696188022186112 -3.607526901633065
0.8119513388036246 -3.4901316361027552
0.8488037622875053 -3.347208096844933
0.8802331838131106 -3.182372666935086
0.9065009882018531 -2.999145335691486
0.9279737747536545 -2.8008401239899325
0.9450730540480746 -2.590516272236744
0.958234223951645 -2.3709544397835347
0.9679075025503443 -2.144614201487814
0.9745920443001098 -1.9135322647453503
0.978864244216094 -1.6792726347562685
0.9813583800285536 -1.4429627022375224
0.9827351279151303 -1.2053989255947422
0.9835413158051658 -0.9671121554456429
0.9840952735240714 -0.7283864520911922
0.9844351774349982 -0.4892879107725759
0.9845927294435985 -0.24973086143136158
0.9862972768455001 -0.007109619619570083
0.30451573946062144 -0.0081088276400518
0.3057948772487284 -0.24978803850476541
0.3059036235809131 -0.4892953520704609
0.3061576308456911 -0.7284231059933269
0.3066055466050798 -0.9671748027564016
0.3072604833475558 -1.2055096838026798
0.30833985243286643 -1.4432113464862044
0.3102954287782722 -1.679809602137054
0.3137079497692099 -1.914524251458298
0.31915439209958185 -2.1462074593653084
0.3271187193791346 -2.373272261830864
0.3380086837367863 -2.5936641505898015
0.352185282925669 -2.804916706085403
0.370002590925174 -3.004249737517911
0.3918174245473261 -3.1886002286648933
0.41796363324645075 -3.354638641822472
0.44869672095914265 -3.498814164806358
0.4841343462664686 -3.617453951821956
0.5241543170887669 -3.7069526696728654
0.5682329698111324 -3.7639983391958354
0.6153227660689591 -3.785901120539475
0.6624125623267823 -3.763998339195707
0.7064912150491371 -3.7069526696726065
0.7465111858714202 -3.617453951821583
0.7819488111787275 -3.498814164805895
0.8126818988913983 -3.354638641821946
0.8388281075905007 -3.1886002286643196
0.8606429412126317 -3.0042497375173056
0.8784602492121161 -2.8049167060847857
0.8926368484009793 -2.5936641505891913
0.9035268127586136 -2.3732722618302793
0.9114911400381516 -2.1462074593647613
0.9169375823685113 -1.9145242514577971
0.9203501033594406 -1.6798096021366065
0.9223056797048413 -1.4432113464858136
0.9233850487901497 -1.2055096838023518
0.9240399855326253 -0.9671748027561345
0.9244879012920139 -0.728423105993123
0.9247419085567917 -0.48929535207031805
0.9248506548889763 -0.2497880385046847
0.92612979267708 -0.008108827640039958
0.36454099961653214 -0.008902265006624393
0.36548214986983024 -0.24983585894134402
0.36555926574478287 -0.48930219952454046
0.3657402334112506 -0.7284483903123266
0.3660836835390999 -0.9672246706339255
0.36660133485497354 -1.2055923169557725
0.36741770140421526 -1.4433865261986922
0.368882627389793 -1.6801982739070103
0.37147655977028565 -1.915275630228404
0.3757009188936171 -2.1474540363429955
0.3819703600000554 -2.3751158678321005
0.39060053583217974 -2.59618795797818
0.401865515160001 -2.808198252658379
0.41603955644292984 -3.0083698292553587
0.43341458022020735 -3.1936407718672
0.4542808193782684 -3.3606736376298403
0.4788864858980428 -3.50589599982215
0.5073947449181053 -3.625600151811743
0.5398478833169464 -3.7161224032985927
0.5760432467513134 -3.774047415650282
0.6153227660689455 -3.796551428975893
0.6546022853865747 -3.774047415650152
0.6907976488209328 -3.7161224032983307
0.7232507872197613 -3.6256001518113665
0.7517590462398084 -3.5058959998216825
0.7763647127595656 -3.3606736376293087
0.7972309519176087 -3.193640771866622
0.8146059756948695 -3.008369829254749
0.8287800169777821 -2.8081982526577574
0.8400449963055878 -2.5961879579775657
0.848675172137698 -2.375115867831512
0.8549446132441247 -2.147454036342446
0.8591689723674466 -1.915275630227901
0.8617629047479328 -1.6801982739065613
0.863227830733507 -1.4433865261983008
0.8640441972827472 -1.205592316955444
0.8645618485986204 -0.9672246706336585
0.8649052987264696 -0.7284483903121226
0.8650862663929372 -0.4893021995243977
0.8651633822678899 -0.24983585894126314
0.8661045325211854 -0.008902265006610994
0.4244592281824843 -0.009521119086501191
0.4251319074563648 -0.24987652692469148
0.4251847158913367 -0.48930896027046505
0.42529989113255323 -0.7284636107137917
0.42554041858725256 -0.9672616408426885
0.4259256298486658 -1.2056534504782057
0.42651516504954207 -1.4435031409234673
0.4275382337832998 -1.6804582115666447
0.42937204373654003 -1.9158015418333896
0.4324189037676464 -2.148362742656343
0.43701898333122363 -2.37649245535327
0.44341216549465334 -2.5980946448006437
0.45179133694367646 -2.810692281106642
0.46235011497646483 -3.011513343510113
0.4753106947198155 -3.19750148712816
0.49091907652340083 -3.3653180898119195
0.5094087340708808 -3.511377540967642
0.5309661999074774 -3.6319557946473697
0.5557726986976989 -3.723370575581898
0.5839579455404326 -3.782143407986196
0.6153227660689315 -3.8053191113261833
0.6466875865974288 -3.7821434079860645
0.6748728334401553 -3.7233705755816335
0.6996793322303674 -3.6319557946469896
0.7212367980669514 -3.511377540967171
0.7397264556144181 -3.3653180898113844
0.7553348374179898 -3.1975014871275778
0.768295417161328 -3.0115133435095
0.7788541951941046 -2.8106922811060167
0.7872333666431164 -2.598094644800026
0.7936265488065358 -2.376492455352679
0.7982266283701043 -2.1483627426557907
0.8012734884012037 -1.9158015418328849
0.8031072983544394 -1.6804582115661946
0.8041303670881947 -1.4435031409230756
0.8047199022890702 -1.2056534504778775
0.8051051135504831 -0.9672616408424215
0.8053456410051822 -0.7284636107135879
0.8054608162463986 -0.4893089602703222
0.8055136246813707 -0.24987652692461051
0.8061863039552493 -0.009521119086486557
0.4842919029841613 -0.009994741274744355
0.484760228907992 -0.24991199695085226
0.4847868173941546 -0.4893148186552929
0.4848397939567069 -0.7284698035051189
0.48497997683313193 -0.9672850366649693
0.48523008959046554 -1.205696374153761
0.48561716869654414 -1.4435767344340376
0.48625638770749835 -1.6806125383351478
0.4873981169958242 -1.9161259174156804
0.48933640038364246 -2.1489517072073707
0.4923189249944631 -2.3774149523078143
0.49651487098369007 -2.599396247349783
0.5020450044381551 -2.812411412197156
0.5090301892861832 -3.013693653896137
0.5176199879630122 -3.2001948475097346
0.528004496219541 -3.3685824286968535
0.5404020667421063 -3.5152667549521945
0.5550233705104323 -3.636516979823182
0.5721085677805264 -3.728669987062093
0.5920856150045763 -3.7882464079918683
0.6153227660689172 -3.812178052890477
0.6385599171332568 -3.788246407991736
0.6585369643573022 -3.7286699870618265
0.6756221616273892 -3.6365169798227996
0.6902434653957061 -3.5152667549517216
0.7026410359182627 -3.3685824286963153
0.7130255441747824 -3.2001948475091493
0.7216153428516037 -3.0136936538955217
0.7286005276996244 -2.812411412196529
0.7341306611540824 -2.5993962473491634
0.7383266071433022 -2.3774149523072214
0.7413091317541174 -2.1489517072068174
0.7432474151419316 -1.916125917415175
0.7443891444302544 -1.6806125383346975
0.7450283634412074 -1.4435767344336454
0.7454154425472855 -1.2056963741534326
0.745665555304619 -0.9672850366647022
0.745805738181044 -0.7284698035049149
0.7458587147435963 -0.4893148186551501
0.7458853032297587 -0.24991199695077126
0.7463536291535883 -0.009994741274728788
0.5440541273238415 -0.010352696325072429
0.5443764127373473 -0.24994476600807536
0.5443718736609847 -0.48931800284274224
0.5443640472390194 -0.7284677322152697
0.5444067902270109 -0.9672946793476734
0.5445183183990725 -1.2057207322540755
0.544708982756522 -1.4436186843247076
0.5450186606299776 -1.6806888588220792
0.5455500413604302 -1.9162832528081428
0.5464694731739677 -2.149252625358846
0.5479132275085757 -2.3779090484440277
0.5499757046982369 -2.600114574589187
0.5527088317812098 -2.8133764064545286
0.5561712761843551 -3.0149325251563592
0.5604448986732229 -3.2017423913480845
0.5656529727831202 -3.370484649087769
0.5719828571886453 -3.517578520704179
0.5796855909875096 -3.6392956612920466
0.5890544231301027 -3.731999491748881
0.6005929651653028 -3.792291940228461
0.6153227660689026 -3.8170718343832704
0.6300525669725016 -3.792291940228328
0.6415911090076999 -3.7319994917486135
0.6509599411502884 -3.639295661291663
0.6586626749491473 -3.5175785207037036
0.6649925593546682 -3.3704846490872296
0.6702006334645614 -3.201742391347498
0.6744742559534257 -3.014932525155743
0.6779367003565685 -2.8133764064538997
0.680669827439538 -2.600114574588566
0.6827323046291963 -2.377909048443433
0.684176058963802 -2.1492526253582924
0.6850954907773381 -1.9162832528076368
0.6856268715077892 -1.6806888588216287
0.6859365493812443 -1.4436186843243155
0.6861272137386938 -1.2057207322537469
0.6862387419107554 -0.9672946793474064
0.6862814848987467 -0.7284677322150658
0.6862736584767815 -0.4893180028425994
0.6862691194004189 -0.24994476600799445
0.6865914048139239 -0.01035269632505616
0.6037628878284121 -0.010620537712055844
0.6039823585466411 -0.2499776442288449
0.6039449425083966 -0.4893167178933859
0.6038771734984081 -0.7284578888663127
0.6038250139174127 -0.9672907154009722
0.6037983705410468 -1.2057256984710358
0.6037882036932403 -1.4436318920079014
0.6037847249610154 -1.6807121341398374
0.6037836443550102 -1.9163250565237082
0.6037836277631846 -2.1493287910113272
0.6037837825533612 -2.378034999190197
0.6037827665386415 -2.6003031619067083
0.6037750548307905 -2.8136380983589664
0.6037575322819273 -3.0152788558770682
0.603742528471372 -3.202191238255292
0.6037902159461895 -3.3710671021286287
0.6040539320435105 -3.5183479239826942
0.6048302794528216 -3.6403296531992035
0.6065394543967602 -3.733390524547693
0.6096492469648638 -3.79422033857857
0.615322766068887 -3.8199063985252355
0.6209962851729112 -3.7942203385784365
0.6241060777410141 -3.733390524547425
0.6258152526849513 -3.6403296531988185
0.6265916000942617 -3.5183479239822186
0.6268553161915837 -3.3710671021280882
0.626903003666402 -3.2021912382547053
0.6268879998558475 -3.015278855876452
0.6268704773069863 -2.8136380983583376
0.6268627655991366 -2.6003031619060875
0.6268617495844183 -2.3780349991896017
0.6268619043745958 -2.1493287910107726
0.6268618877827707 -1.9163250565232022
0.6268608071767657 -1.6807121341393862
0.6268573284445408 -1.443631892007509
0.6268471615967346 -1.2057256984707072
0.6268205182203689 -0.9672907154007053
0.6267683586393735 -0.7284578888661087
0.6267005896293851 -0.48931671789324294
0.6266631735911405 -0.249977644228764
0.626882644309369 -0.010620537712039116
0.6634292512883182 -0.010823044872706194
0.6635776963991723 -0.25001072422858067
0.6635101961184008 -0.48931047742964623
0.6633841772925324 -0.7284404402773653
0.6632398411025693 -0.9672735579880027
0.6630772065172982 -1.2057110834443316
0.6628667989975472 -1.4436161302161075
0.6625501578849449 -1.6806881864115581
0.6620168526000982 -1.916283121839277
0.661097713582234 -2.1492526439462925
0.6596546622456965 -2.377909037747676
0.6575888209514248 -2.6001125979485193
0.6548394972165634 -2.81337044070661
0.6513427792349368 -3.0149235063382624
0.6470428837136994 -3.2017446556495863
0.6419354195510398 -3.3705437431474965
0.6361259376562007 -3.517793201201061
0.6298955438344156 -3.6398316909287476
0.6236996314494861 -3.7330443089502507
0.6181970107555839 -3.794146615144797
0.6153227660688716 -3.820782509342925
0.6124485213821589 -3.7941466151446632
0.606945900688257 -3.7330443089499825
0.6007499883033306 -3.639831690928363
0.5945195944815508 -3.517793201200586
0.5887101125867183 -3.3705437431469565
0.583602648424064 -3.2017446556489997
0.579302752902832 -3.0149235063376465
0.5758060349212115 -2.8133704407059823
0.573056711186356 -2.6001125979478985
0.5709908698920901 -2.3779090377470813
0.569547818555557 -2.1492526439457387
0.5686286795376956 -1.9162831218387713
0.5680953742528504 -1.680688186411107
0.5677787331402488 -1.443616130215715
0.5675683256204983 -1.205711083444003
0.5674056910352276 -0.9672735579877358
0.5672613548452646 -0.7284404402771614
0.5671353360193963 -0.4893104774295034
0.5670678357386247 -0.2500107242284998
0.5672162808494788 -0.010823044872689253
0.7230655915540743 -0.010977922910349802
0.7231658898506713 -0.25004212247697716
0.7230715018818328 -0.4892996882391187
0.7228902711514252 -0.7284155710632729
0.7226571768275317 -0.9672438150793103
0.7223620802783878 -1.2056773295855099
0.7219561155159997 -1.443571534479532
0.7213104502040146 -1.6806110315311364
0.7201679968104396 -1.9161257214520817
0.7182310460352651 -2.1489519250931406
0.7152486583273376 -2.3774145705010983
0.711048490520913 -2.599391941978589
0.7055039558571122 -2.8123992612909836
0.6984901555466312 -3.0136759120487104
0.6898817052699983 -3.200200741055925
0.6795993061317888 -3.3687034976073096
0.6676945629286102 -3.5156955276492594
0.6544218053226922 -3.6375664485817785
0.6403060517146199 -3.730758028151854
0.6264895260333383 -3.7921831354742745
0.6153227660688566 -3.8198733547327204
0.6041560061043745 -3.79218313547414
0.5903394804230957 -3.730758028151587
0.5762237268150292 -3.637566448581395
0.562950969209121 -3.515695527648787
0.5510462260059537 -3.368703497606772
0.5407638268677544 -3.20020074105534
0.5321553765911311 -3.0136759120480967
0.5251415762806606 -2.812399261290358
0.5195970416168701 -2.5993919419779705
0.5153968738104552 -2.3774145705005054
0.5124144861025357 -2.1489519250925877
0.5104775353273665 -1.9161257214515763
0.5093350819337946 -1.6806110315306853
0.5086894166218112 -1.4435715344791398
0.508283451859424 -1.2056773295851817
0.5079883553102805 -0.9672438150790433
0.5077552609863872 -0.728415571063069
0.5075740302559798 -0.48929968823897574
0.5074796422871414 -0.2500421224768964
0.5075799405837381 -0.01097792291033264
0.7826892202319561 -0.011093504355504324
0.7827519901209038 -0.2500702210353529
0.7826336580518467 -0.4892847840857835
0.7824007647570144 -0.7283836726229417
0.7820826457020063 -0.967202264810979
0.7816606304364669 -1.205625492750394
0.7810538993202228 -1.4434947870938517
0.7800262058171045 -1.680456063043559
0.7781942381801947 -1.9158016949229617
0.7751488671048788 -2.1483631255923665
0.7705478222293393 -2.37649142768409
0.7641502908309569 -2.598088238991146
0.7557620637504354 -2.810675554194397
0.745188938985188 -3.011489768592629
0.7322260410110837 -3.1975127195260358
0.7167091918081229 -3.3654948454600295
0.6986139667293089 -3.5119928430878415
0.6781826942752255 -3.633465433092755
0.6561456575104334 -3.72648620351911
0.6340844703267984 -3.7882064141535343
0.6153227660688421 -3.817227987741419
0.5965610618108862 -3.7882064141534006
0.5744998746272556 -3.7264862035188435
0.5524628378624724 -3.6334654330923746
0.5320315654084025 -3.511992843087372
0.5139363403296039 -3.365494845459495
0.49841949112665784 -3.197512719525454
0.48545659315256773 -3.0114897685920186
0.47488346838733525 -2.8106755541937742
0.46649524130682796 -2.59808823899053
0.46009770990845905 -2.3764914276835003
0.45549666503293085 -2.1483631255918154
0.4524512939576232 -1.9158016949224574
0.45061932632071855 -1.680456063043109
0.44959163281760295 -1.4434947870934598
0.44898490170136013 -1.2056254927500658
0.44856288643582126 -0.9672022648107121
0.44824476738081354 -0.7283836726227376
0.44801187408598125 -0.48928478408564063
0.44789354201692433 -0.25007022103527216
0.44795631190587193 -0.011093504355486986
0.842311615015024 -0.011175933208382035
0.8423423158075567 -0.2500935469030983
0.8422014740695272 -0.4892660364752176
0.8419202518951124 -0.7283452766603189
0.8415213105582805 -0.9671499248102212
0.840977205247094 -1.2055557738746059
0.8401463167628964 -1.443374957807697
0.8386814184710915 -1.680196368148584
0.836090535446849 -1.9152763865362754
0.8318669417352222 -2.147454339090123
0.8255952759518315 -2.375113955496768
0.8169615637883565 -2.596180137249416
0.8056960276811148 -2.8081800485124826
0.7915299669486162 -3.008346032873558
0.7741783767381897 -3.193659908804884
0.7533831028195974 -3.360891249303647
0.729033751912152 -3.506650776535269
0.7013983162856076 -3.6275060066504228
0.6714483897248518 -3.720222581936818
0.641362136326855 -3.7822922893438644
0.6153227660688276 -3.8129331605667294
0.5892833958108018 -3.782292289343731
0.5591971424128118 -3.7202225819365538
0.5292472158520678 -3.6275060066500453
0.5016117802255398 -3.5066507765348036
0.4772624293181136 -3.360891249303117
0.4564671553995405 -3.1936599088043063
0.4391155651891328 -3.0083460328729514
0.4249495044566534 -2.808180048511864
0.41368396834943016 -2.5961801372488043
0.4050502561859722 -2.3751139554961815
0.3987785904025959 -2.147454339089574
0.39455499669098004 -1.9152763865357727
0.3919641136667449 -1.6801963681481347
0.3904992153749439 -1.4433749578073058
0.3896683268907482 -1.2055557738742775
0.3891242215795625 -0.9671499248099544
0.38872528024273084 -0.7283452766601148
0.3884440580683163 -0.4892660364750747
0.38830321633028686 -0.25009354690301755
0.3883339171228195 -0.011175933208364562
0.901940196542913 -0.01123082674434264
0.9019430011578939 -0.25011096004508027
0.9017801909593559 -0.4892435361413753
0.9014537109551103 -0.7283009430959708
0.9009792642849134 -0.9670881110698403
0.900310071238463 -1.2054656206409753
0.8992228912570744 -1.4431976560503208
0.8972696210469784 -1.679808669871829
0.8938601539001131 -1.9145255168328879
0.8884132198081103 -2.1462073675130617
0.8804458311461384 -2.37326937044309
0.8695541720190595 -2.593655979571393
0.8553874602813387 -2.80490111981643
0.8376043069085017 -3.004233313791404
0.8158447109065269 -3.1886310643178413
0.7897556734205311 -3.354879845365628
0.7591535302178296 -3.4996582916547303
0.7243380720900373 -3.619683999679429
0.6865575817326317 -3.7119894799243895
0.6485845631896732 -3.7744871685450727
0.6153227660688135 -3.8070068802565213
0.582060968947956 -3.774487168544941
0.5440879504050067 -3.7119894799241284
0.5063074600476158 -3.619683999679056
0.47149200191984325 -3.4996582916542702
0.44088985871716446 -3.354879845365103
0.414800821231192 -3.1886310643172684
0.3930412252292405 -3.0042333137908024
0.3752580718564267 -2.804901119815817
0.3610913601187289 -2.593655979570786
0.35019970099167025 -2.373269370442508
0.3422323123297162 -2.146207367512517
0.3367853782377266 -1.9145255168323876
0.3333759110908708 -1.6798086698713812
0.33142264088078033 -1.44319765604993
0.33033546089939453 -1.2054656206406473
0.329666267852945 -0.9670881110695735
0.3291918211827484 -0.7283009430957669
0.3288653411785031 -0.4892435361412324
0.32870253097996516 -0.2501109600449995
0.328705335594946 -0.011230826744325094
0.961580114427218 -0.011263584629430905
0.9615593228606257 -0.250121809415165
0.961375257820782 -0.48921723752285695
0.9610060618899924 -0.7282513629929077
0.960459324101309 -0.967017204024859
0.9596537230659985 -1.2053492687375813
0.9582769115754799 -1.4429483148962183
0.9557861097558368 -1.6792727562245113
0.9515153471918972 -1.9135337264833034
0.9448289940992395 -2.144613438363519
0.9351524741593318 -2.3709506984670625
0.9219928307720098 -2.590509145078432
0.904914311724476 -2.8008314206259493
0.8834992878750844 -2.9991441449100438
0.8573205455264515 -3.1824213290677754
0.8259634870541951 -3.3474627579978398
0.7891750320549067 -3.4910240955764205
0.7472767008049592 -3.61001526494806
0.7017679280723566 -3.701808137175861
0.6559305526404676 -3.7647949765343762
0.6153227660687993 -3.7994192303982297
0.5747149794971347 -3.7647949765342457
0.528877604065257 -3.7018081371756035
0.48336883133267194 -3.610015264947691
0.44147050008274746 -3.4910240955759657
0.4046820450834856 -3.3474627579973215
0.3733249866112567 -3.182421329067209
0.3471462442626512 -2.9991441449094483
0.32573122041328684 -2.8008314206253417
0.30865270136578 -2.59050914507783
0.29549305797848197 -2.370950698466485
0.28581653803859497 -2.144613438362978
0.2791301849459531 -1.913533726482806
0.27485942238202493 -1.6792727562240655
0.2723686205623889 -1.4429483148958282
0.2709918090718739 -1.2053492687372536
0.27018620803656485 -0.9670172040245921
0.2696394702478817 -0.7282513629927038
0.2692702743170923 -0.48921723752271407
0.2690862092772487 -0.25012180941508416
0.2690654177106565 -0.011263584629413325
1.0212347002663975 -0.011279574511071592
1.0211956313621955 -0.2501259542512557
1.020992184828881 -0.4891871374131462
1.0205825262901664 -0.7281971571485987
1.0199638863099811 -0.9669367911417094
1.0190037840815196 -1.205199469888239
1.0172996786437256 -1.442610874550577
1.0142277752920041 -1.6785735332470393
1.0090844554287 -1.9122945083611835
1.0011517212687526 -2.1426682657075093
0.9897659547950505 -2.368154781419529
0.974341521602515 -2.5867368863380253
0.954351654492422 -2.795967139030604
0.929300094395265 -2.993073868459693
0.8987063712449352 -3.1750314059651163
0.8621253501864526 -3.3386544198598176
0.8192837417642445 -3.4807778415768973
0.7704857509064251 -3.5985321374793324
0.7173566508891961 -3.6896881238938763
0.6635643449345383 -3.75318124142069
0.6153227660687852 -3.7901010066226752
0.5670811872030369 -3.7531812414205623
0.5132888812483923 -3.6896881238936223
0.4601597812311841 -3.5985321374789687
0.4113617903733912 -3.4807778415764496
0.36852018195121367 -3.338654419859306
0.3319391608927622 -3.1750314059645577
0.30134543774246414 -2.993073868459105
0.27629387764533847 -2.795967139030004
0.25630401053527624 -2.5867368863374303
0.24087957734276852 -2.3681547814189576
0.22949381086908982 -2.1426682657069733
0.22156107670916078 -1.9122945083606897
0.21641775684587003 -1.678573533246596
0.2133458534941571 -1.4426108745501884
0.21164174805636773 -1.2051994698879118
0.2106816458279081 -0.9669367911414425
0.2100630058477232 -0.7281971571483948
0.20965334730900886 -0.4891871374130033
0.2094499007756945 -0.250125954251175
0.2094108318714926 -0.011279574511053981
1.0809053557133892 -0.01128422978502165
1.080855266772707 -0.2501238411546317
1.080636886560042 -0.48915339388180634
1.080188482930217 -0.7281389085396153
1.079493259220137 -0.9668444368188609
1.0783542966585342 -1.2050064231462683
1.0762821630641735 -1.4421709982879736
1.0726140588701543 -1.677704787989663
1.066591751523837 -1.9108048561978086
1.0574181336319017 -2.1403709682080216
1.044335866973151 -2.364882243711753
1.0266612947229081 -2.582339805976595
1.0037748000791704 -2.790308088441246
0.9750980049611297 -2.9860214551063016
0.9400981135629684 -3.1664638477773766
0.8983460463678102 -3.3284765379166354
0.8496245291537312 -3.468971242173225
0.7942154005935623 -3.585286485436178
0.7336163864701807 -3.6756307583300853
0.6716968470695627 -3.7395735921584077
0.615322766068771 -3.77893488952321
0.558948685067985 -3.739573592158282
0.49702914566738254 -3.6756307583298358
0.43643013154402494 -3.5852864854358204
0.3810210029838861 -3.4689712421727843
0.332299485769842 -3.3284765379161314
0.29054741857471894 -3.166463847776826
0.25554752717659307 -2.986021455105721
0.22687073205858818 -2.7903080884406544
0.20398423741488486 -2.5823398059760074
0.1863096651646733 -2.3648822437111887
0.1732273985059485 -2.1403709682074905
0.164053780614034 -1.910804856197319
0.15803147326773215 -1.6777047879892224
0.15436336907372308 -1.4421709982875865
0.15229123547936788 -1.2050064231459419
0.15115227291776767 -0.9668444368185941
0.15045704920768785 -0.7281389085394114
0.15000864557786328 -0.48915339388166346
0.1497902653651986 -0.250123841154551
0.14974017642451654 -0.011284229785004051
1.1405909157270855 -0.011283056360148293
1.1405404769081198 -0.2501166991835961
1.1403162299081089 -0.48911660547476515
1.1398295911347507 -0.7280764516173558
1.1390453917755718 -0.9667362986952449
1.137696193612628 -1.2047571847261276
1.1352302913777699 -1.4416200445783438
1.1309576450106817 -1.6766634908710025
1.1240616811398456 -1.9090646567910412
1.1136648683103236 -2.137724288020796
1.0989113993440704 -2.361136848502441
1.0790148294751578 -2.577321965292476
1.0532572475701742 -2.7838575768797824
1.0209791957308303 -2.9779898314860276
0.9816090758284347 -3.1567249807893067
0.9347382779850465 -3.3169494113427316
0.8802666998898212 -3.4556613418027697
0.8185932909580946 -3.570371548712397
0.7509731761168018 -3.65965725021392
0.6806713121885611 -3.7238470908379755
0.6153227660687566 -3.765727690709399
0.5499742199489582 -3.723847090837853
0.4796723560207358 -3.6596572502136753
0.4120522411794704 -3.570371548712047
0.3503788322477778 -3.4556613418023376
0.29590725415259156 -3.3169494113422364
0.24903645630924306 -3.156724980788765
0.2096663364068867 -2.9779898314854565
0.1773882845675827 -2.7838575768791998
0.15163070266263737 -2.5773219652918966
0.1317341327937594 -2.3611368485018835
0.11698066382753494 -2.137724288020271
0.10658385099803588 -1.9090646567905565
0.09968788712721673 -1.676663490870565
0.09541524076014031 -1.4416200445779588
0.09294933852528901 -1.204757184725802
0.09160014036234781 -0.9667362986949783
0.09081594100316971 -0.7280764516171518
0.09032930222981202 -0.4891166054746223
0.0901050552298014 -0.25011669918351537
0.09005461641083566 -0.01128305636013068
1.2002863161731265 -0.011281450464519048
1.2002523029483565 -0.2501070801699069
1.2000392808997187 -0.489078036044828
1.1995111304606498 -0.7280080492517168
1.1986148285120846 -0.9666047426410015
1.197026045693313 -1.2044425348168548
1.1941522643647688 -1.440953361802
1.1892726836546283 -1.675448750065414
1.1815185434880033 -1.907077223126859
1.1699283223542722 -2.134734304016481
1.1535430816156744 -2.356925975112677
1.131463239906024 -2.5716900035796297
1.1028707858956286 -2.776622162776919
1.067039332521358 -2.968988099536729
1.0233556292812946 -3.1458262678633377
0.9714290111371622 -3.304088325723663
0.9112753717598551 -3.440885141637685
0.8435319543899872 -3.553892808878882
0.7696021924763135 -3.6419364729313264
0.691735908036961 -3.7058555553840806
0.6153227660687418 -3.7499999999999947
0.5389096241005291 -3.7058555553839607
0.4610433396611973 -3.6419364729310875
0.38711357774755517 -3.5538928088785404
0.31937016037772575 -3.4408851416372626
0.25921652100046205 -3.304088325723179
0.20728990285637378 -3.145826267862806
0.16360619961635334 -2.968988099536168
0.12777474624212687 -2.7766221627763468
0.09918229223177388 -2.5716900035790604
0.07710245052216139 -2.356925975112128
0.06071720978359479 -2.134734304015963
0.04912698864988867 -1.9070772231263793
0.04137284848328244 -1.6754487500649802
0.03649326777315484 -1.4409533618016173
0.033619486444618346 -1.2044425348165302
0.032030703625850275 -0.9666047426407353
0.031134401677285872 -0.7280080492515129
0.03060625123821767 -0.48907803604468525
0.0303932291895801 -0.2501070801698262
0.030359215964810296 -0.011281450464501451
SCALARS Stress float 6
LOOKUP_TABLE default
-1230.5826268978024 -2030.915705400058 -1554.5002176846906 -25.51439070535298 0.0 0.0
1343.4695416829413 788.0248113005398 999.978794350652 -21.2629551313558 0.0 0.0
606.6966010024986 156.51991578254055 244.91473448452513 -40.87618355482995 0.0 0.0
488.86339774961795 27.678895972751583 159.75325838944792 -1.5300991080482378 0.0 0.0
610.9733660823058 76.15154888112693 245.6430053626541 2.453361555421433 0.0 0.0
727.5134384864933 125.10243055331065 367.39240257943555 1.8020373177091673 0.0 0.0
852.9395973256443 175.95925712585085 486.4344376843534 0.6230838866414969 0.0 0.0
980.8817629630189 243.51970386658246 597.0972430078006 -0.7798723141265224 0.0 0.0
1117.551658547045 325.43412172609527 709.6535371761521 -2.3981652592600446 0.0 0.0
1270.485473167622 428.19093324677027 838.1249724469462 -4.148726682326206 0.0 0.0
1445.0574391732953 556.7607166082474 989.586543495185 -5.830315534652158 0.0 0.0
1641.4357227578103 711.6376621074846 1164.8540322670285 -7.165818845648859 0.0 0.0
1854.5226453243904 886.2896052858334 1358.2835664560362 -7.987696358245024 0.0 0.0
2077.1876912710964 1073.402187179004 1562.744848304608 -8.616510995951824 0.0 0.0
2300.1627022585435 1263.5401658294454 1768.8739097844586 -9.026641936079582 0.0 0.0
2512.8648272762816 1446.1917152462745 1966.1525547096528 -9.151207569913367 0.0 0.0
2704.322455656474 1610.826762160528 2143.8798929282375 -8.825497427344256 0.0 0.0
2863.4805621136998 1746.9667866954305 2291.3166325668594 -7.976685450865604 0.0 0.0
2987.739754719092 1852.6419058850342 2406.0718488407047 -6.866224337908693 0.0 0.0
3063.0848823337974 1914.711005890083 2474.5794724045218 -8.532331752319166 0.0 0.0
3054.268298768364 1904.609066253619 2465.3488290097494 5.612221798401151e-11 0.0 0.0
3063.084882331244 1914.7110058875353 2474.57947240266 8.532331752277171 0.0 0.0
2987.739754718223 1852.6419058842223 2406.0718488401717 6.866224337946148 0.0 0.0
2863.4805621128417 1746.9667866946525 2291.3166325659836 7.976685450949576 0.0 0.0
2704.322455655092 1610.8267621592695 2143.879892926982 8.825497427401444 0.0 0.0
2512.8648272759265 1446.1917152460674 1966.1525547090769 9.15120756990481 0.0 0.0
2300.1627022554226 1263.5401658264552 1768.873909781859 9.026641936071229 0.0 0.0
2077.187691268709 1073.4021871767534 1562.7448483027665 8.616510995809639 0.0 0.0
1854.5226453231455 886.2896052848157 1358.2835664547968 7.987696358192622 0.0 0.0
1641.43572275736 711.6376621072665 1164.8540322667402 7.165818845632236 0.0 0.0
1445.0574391727234 556.7607166079134 989.5865434945688 5.830315534750238 0.0 0.0
1270.4854731675698 428.1909332470391 838.1249724467176 4.148726682315438 0.0 0.0
1117.551658545306 325.4341217245741 709.6535371748905 2.3981652593757286 0.0 0.0
980.8817629627182 243.51970386659556 597.0972430074721 0.7798723142255337 0.0 0.0
852.9395973242752 175.95925712470998 486.4344376832908 -0.623083886583153 0.0 0.0
727.513438485671 125.10243055273807 367.392402578723 -1.8020373176292068 0.0 0.0
610.9733660816022 76.15154888057847 245.64300536212144 -2.453361555552622 0.0 0.0
488.86339774932856 27.678895972515168 159.75325838926307 1.5300991080699875 0.0 0.0
606.6966010021443 156.51991578233458 244.91473448428764 40.876183554707815 0.0 0.0
1343.4695416825175 788.0248113000587 999.9787943501067 21.262955131436456 0.0 0.0
-1230.582626895052 -2030.9157053973292 -1554.500217681967 25.514390704836654 0.0 0.0
-1567.2206134932087 -2338.749376448754 -1845.0340564703433 -27.084042173184464 0.0 0.0
916.509040467835 435.35772206299134 627.3117242000075 -29.364227706016123 0.0 0.0
423.3347835907961 61.96990218670014 144.28352574271094 -35.17572122409937 0.0 0.0
431.00029786750787 5.69389937520326 132.87550087093138 -15.787129287596755 0.0 0.0
542.4257178139817 33.94219302012597 198.2967178555851 -16.294153658327073 0.0 0.0
642.6879753153812 48.53238106685778 290.4878775176016 -21.71360890731039 0.0 0.0
728.3770795755204 66.358082427234 377.66392879413 -23.50395987461546 0.0 0.0
810.755918880749 86.69722440717523 443.5301834203998 -23.932799210655574 0.0 0.0
886.5876430466967 107.12714718345477 495.0984518911373 -24.486210276884666 0.0 0.0
957.8743546400519 128.47444779150578 542.1964624830597 -25.207066262083853 0.0 0.0
1027.2118653375965 152.4756200652884 589.0867182422924 -25.596497685276063 0.0 0.0
1096.5027503761787 180.1043560173178 637.6020359461136 -25.568435391658294 0.0 0.0
1165.243496059902 211.46542687356046 687.665800066369 -25.153869564698727 0.0 0.0
1230.8087417008483 241.91636045290838 735.6745906140125 -24.554537865554842 0.0 0.0
1287.599850045778 266.3279999095839 776.2732590248457 -23.802554068642625 0.0 0.0
1331.079687552533 280.1684516351146 804.9314976445481 -22.686807864059382 0.0 0.0
1358.3043337499023 280.8037578550818 818.8601037034183 -20.957028113507572 0.0 0.0
1369.5229389743058 269.03252688243333 818.5785514452998 -18.608875394079412 0.0 0.0
1360.5311559968181 241.47546345736242 800.4025934810486 -16.24883711801916 0.0 0.0
1294.2480278622593 162.3353424516179 728.3872834235035 -16.34094212841123 0.0 0.0
1181.5674663272932 49.09190885101929 616.5624283625516 -5.896261257021251e-11 0.0 0.0
1294.2480278613 162.33534245070922 728.3872834227163 16.340942128358062 0.0 0.0
1360.531155997167 241.47546345779142 800.4025934814379 16.248837118093984 0.0 0.0
1369.522938973582 269.03252688176974 818.578551444832 18.60887539408904 0.0 0.0
1358.304333749863 280.80375785517924 818.8601037034425 20.95702811360946 0.0 0.0
1331.079687553332 280.1684516360735 804.9314976450746 22.686807864144 0.0 0.0
1287.5998500445112 266.32799990845336 776.2732590239009 23.802554068659504 0.0 0.0
1230.808741699333 241.91636045156085 735.6745906129318 24.55453786553942 0.0 0.0
1165.2434960598885 211.46542687376487 687.6658000663682 25.15386956475617 0.0 0.0
1096.5027503761983 180.10435601756814 637.602035946196 25.568435391721074 0.0 0.0
1027.211865338465 152.47562006642084 589.0867182428518 25.596497685366096 0.0 0.0
957.8743546401423 128.4744477918572 542.1964624830694 25.207066261985098 0.0 0.0
886.5876430457666 107.12714718279564 495.0984518905322 24.486210276920353 0.0 0.0
810.7559188807674 86.69722440749078 443.5301834203388 23.9327992107345 0.0 0.0
728.3770795748658 66.35808242688344 377.6639287936035 23.503959874613813 0.0 0.0
642.6879753148194 48.53238106658406 290.4878775170857 21.71360890735056 0.0 0.0
542.4257178136494 33.94219302007981 198.29671785534345 16.294153658209595 0.0 0.0
431.00029786727646 5.693899375171045 132.87550087085717 15.787129287613649 0.0 0.0
423.33478359059615 61.969902186460516 144.2835257425796 35.175721224166296 0.0 0.0
916.5090404673022 435.35772206252267 627.3117241993742 29.364227705932215 0.0 0.0
-1567.2206134912064 -2338.749376446669 -1845.0340564682326 27.084042172743946 0.0 0.0
-1310.6082217867713 -2047.4125891600731 -1561.3042012662563 -65.38270601175775 0.0 0.0
728.0778609220544 344.5522316250308 483.17004277809156 -97.6725187275176 0.0 0.0
294.72992328370844 70.39675560594438 109.55921456552976 -38.156722022523425 0.0 0.0
369.72740241422514 1.1781793397907692 111.2093850625576 -37.299765782987535 0.0 0.0
497.300021058231 24.428035162562555 169.77561633176919 -38.69634380619117 0.0 0.0
609.3856455025992 43.29278669308151 259.69726769799786 -41.424626558641066 0.0 0.0
698.7721086284652 61.65716449723939 353.2155239888084 -43.707772424408084 0.0 0.0
781.4790802962092 78.3784484956753 422.18871913328746 -44.669903492391214 0.0 0.0
854.631508005206 95.44343810299294 472.61011641819425 -45.89383835790503 0.0 0.0
922.0901055541989 112.79725618327933 516.122345422836 -46.996923639168855 0.0 0.0
987.8357136145803 133.63199688623467 559.6700791337456 -47.25946282259768 0.0 0.0
1053.8437682570334 159.16891551237487 605.4979882939474 -46.71163107417075 0.0 0.0
1119.831338413192 187.46560580290372 652.6726124139379 -45.78531431879133 0.0 0.0
1181.799203915962 215.51214269917665 697.7046763240596 -44.585184502893064 0.0 0.0
1236.4516724724942 238.27640371176147 736.4081702902168 -43.097153488772626 0.0 0.0
1279.3910117585474 251.94779619222533 764.6977886286949 -41.05244276123028 0.0 0.0
1308.1020278981714 254.22286861823216 780.1907998253153 -38.09223915357195 0.0 0.0
1319.0981702325512 242.1848894398071 779.7355711444009 -34.334311410104185 0.0 0.0
1300.6943702248473 205.19441885372083 752.3061017082568 -30.617805075396653 0.0 0.0
1262.664169336669 154.53293343725443 708.3182086960475 -27.8418742986584 0.0 0.0
1129.7259222334137 21.65434895279138 576.7653056865099 5.6200377684945124e-11 0.0 0.0
1262.6641693366696 154.5329334372845 708.3182086960126 27.841874298722473 0.0 0.0
1300.6943702254446 205.19441885435324 752.3061017086973 30.61780507538421 0.0 0.0
1319.0981702313852 242.18488943875295 779.7355711436676 34.334311410136564 0.0 0.0
1308.1020278980473 254.2228686182105 780.1907998252116 38.09223915367194 0.0 0.0
1279.391011759697 251.94779619353778 764.6977886295065 41.05244276133995 0.0 0.0
1236.4516724714247 238.27640371082222 736.4081702894279 43.09715348870306 0.0 0.0
1181.7992039151025 215.51214269849714 697.7046763233819 44.58518450294232 0.0 0.0
1119.8313384132034 187.46560580311592 652.6726124140328 45.78531431880439 0.0 0.0
1053.8437682567826 159.1689155123703 605.4979882937763 46.71163107423087 0.0 0.0
987.8357136148444 133.6319968867241 559.6700791339327 47.25946282268481 0.0 0.0
922.0901055544568 112.7972561838169 516.1223454229299 46.996923639105276 0.0 0.0
854.631508004709 95.44343810272238 472.610116417851 45.89383835783125 0.0 0.0
781.4790802960509 78.37844849575816 422.1887191331195 44.66990349224739 0.0 0.0
698.7721086285095 61.65716449762999 353.215523988685 43.707772424242926 0.0 0.0
609.3856455023902 43.292786693250875 259.69726769771376 41.42462655870342 0.0 0.0
497.30002105807773 24.428035162720935 169.77561633168617 38.69634380618661 0.0 0.0
369.72740241411105 1.1781793398341678 111.20938506255028 37.299765782931864 0.0 0.0
294.72992328351876 70.39675560559739 109.55921456536922 38.156722022556586 0.0 0.0
728.077860921343 344.55223162468786 483.1700427774367 97.67251872740785 0.0 0.0
-1310.6082217847916 -2047.4125891580074 -1561.3042012641324 65.3827060114847 0.0 0.0
-1071.1443626167877 -1777.3004237844739 -1300.2341595874484 -78.98343400014778 0.0 0.0
555.4580852652683 248.62791024987484 354.86032209403794 -145.42226717963263 0.0 0.0
214.21974644033583 60.39280048821375 82.38376407856488 -59.93045380255292 0.0 0.0
307.4559012588367 6.796406123843291 94.15296426186804 -59.407716952514896 0.0 0.0
441.95670845357114 13.70269064571087 141.2909791672164 -63.49398468490226 0.0 0.0
563.4750484010927 36.626486344987796 224.44222927278847 -62.502239887578035 0.0 0.0
665.9693528837801 54.953563039754 322.92623892364514 -65.2536736905305 0.0 0.0
747.298930393005 70.230846661111 396.9336597408941 -65.65125790626048 0.0 0.0
818.5955548576524 83.97905899905436 447.6859219452074 -66.97420487289581 0.0 0.0
882.6131261704111 97.72709735668059 488.34504884944874 -68.06766034512012 0.0 0.0
944.4330229291958 115.1029631136696 528.2969538381878 -68.00463073042462 0.0 0.0
1007.2489174866723 137.52901486486746 570.9757793455785 -67.04220185040461 0.0 0.0
1069.8489986819086 163.78509712769448 615.4689167489354 -65.60236038636123 0.0 0.0
1128.785857352695 188.37899003978345 657.278384752445 -63.92790532209528 0.0 0.0
1180.8926621879823 209.31136006800043 693.7910527190423 -61.778133890759776 0.0 0.0
1224.0052211056777 223.71670289772172 722.5320140082198 -58.89971743078698 0.0 0.0
1254.0453320816603 227.19760877236314 739.3082379772127 -55.08374583220319 0.0 0.0
1264.5900015420227 214.48861981567867 738.3585191176685 -50.40280065074121 0.0 0.0
1252.0026853857069 183.01409258287546 716.5619686764936 -44.99266640590729 0.0 0.0
1228.9437188580084 146.6586653422636 687.0504175746378 -37.9144310477744 0.0 0.0
1042.5351323159518 -39.32916929425336 502.9503233755552 7.148059921746608e-12 0.0 0.0
1228.9437188573563 146.6586653416587 687.0504175741811 37.91443104777934 0.0 0.0
1252.002685385687 183.01409258292338 716.5619686765252 44.992666405977744 0.0 0.0
1264.5900015416773 214.48861981544073 738.3585191175895 50.40280065095612 0.0 0.0
1254.0453320809513 227.19760877178703 739.3082379766398 55.08374583228168 0.0 0.0
1224.0052211059779 223.7167028981571 722.5320140085257 58.89971743095899 0.0 0.0
1180.8926621876535 209.31136006782535 693.7910527187648 61.77813389068107 0.0 0.0
1128.785857352977 188.37899004028242 657.2783847525561 63.92790532222541 0.0 0.0
1069.8489986807467 163.78509712668378 615.468916748131 65.60236038631021 0.0 0.0
1007.2489174868663 137.5290148653167 570.9757793457416 67.04220185048318 0.0 0.0
944.4330229283257 115.10296311299325 528.2969538376567 68.00463073036542 0.0 0.0
882.6131261706377 97.72709735715264 488.34504884955277 68.06766034508112 0.0 0.0
818.5955548571819 83.97905899878609 447.6859219448632 66.97420487267338 0.0 0.0
747.298930392592 70.23084666097054 396.93365974055496 65.6512579062226 0.0 0.0
665.9693528834703 54.95356303972815 322.9262389232682 65.2536736903813 0.0 0.0
563.4750484004638 36.626486344671264 224.44222927229032 62.50223988751067 0.0 0.0
441.9567084531192 13.702690645706141 141.29097916704 63.493984684881156 0.0 0.0
307.45590125856563 6.796406123524825 94.15296426169088 59.40771695255105 0.0 0.0
214.21974644029606 60.39280048814577 82.38376407853254 59.93045380231119 0.0 0.0
555.4580852646013 248.62791024965415 354.8603220934838 145.42226717963342 0.0 0.0
-1071.1443626150694 -1777.300423782635 -1300.2341595855432 78.98343399999708 0.0 0.0
-863.0996215250143 -1542.819893234565 -1070.8994009618955 -77.77292524939025 0.0 0.0
428.07456885085134 164.49897747973603 254.79639430757882 -177.40351443892456 0.0 0.0
157.10220520709333 47.68981245300283 61.43760529802883 -90.22653829223833 0.0 0.0
251.1229679780969 12.994181021932178 79.23817041442487 -83.37519644275304 0.0 0.0
377.1697295282347 7.888685305578818 116.00798944458656 -89.13504584640252 0.0 0.0
508.852081891007 24.244231706311254 185.55398181858104 -87.90113311313071 0.0 0.0
621.4353787717582 46.8796589382047 284.5457869580281 -87.0096619179269 0.0 0.0
707.2931550798775 62.814870938122034 367.050796296406 -87.05016485597042 0.0 0.0
777.7664551432696 73.0855011872921 419.6988101043912 -87.68003611455731 0.0 0.0
838.5136637584271 83.02538692415635 458.12577348734817 -88.37729132002839 0.0 0.0
896.8317317574073 96.70978514939486 494.71425533582305 -87.86900165306531 0.0 0.0
955.9238708911473 115.86298988526951 533.928571831447 -86.46611342622103 0.0 0.0
1015.2165331384405 138.75918862061425 575.1147072355403 -84.69093426468521 0.0 0.0
1070.938323382397 161.6843062455295 614.5236242396079 -82.52466457369063 0.0 0.0
1120.8381500540956 180.37281511338114 648.8283088894796 -79.77746549356628 0.0 0.0
1162.991045635087 193.58763313588778 676.4817795887878 -76.28794392883259 0.0 0.0
1194.6139435281857 199.0104909745803 695.0301338623865 -71.92693849465826 0.0 0.0
1209.9108566484695 190.77350297285335 698.6973065201109 -66.57076735124305 0.0 0.0
1204.9615919362366 166.12799393833922 684.1094180427501 -59.2836436756986 0.0 0.0
1188.9833919531552 135.3495959011454 660.8679988519967 -48.25173466382378 0.0 0.0
936.8032005154088 -115.95203932309181 412.2588662289631 -2.3108626123757858e-11 0.0 0.0
1188.983391952974 135.34959590100414 660.8679988519286 48.25173466383764 0.0 0.0
1204.9615919364126 166.12799393859888 684.1094180428947 59.2836436757948 0.0 0.0
1209.9108566488687 190.77350297336795 698.6973065205393 66.57076735139796 0.0 0.0
1194.6139435279924 199.0104909745225 695.0301338621819 71.92693849475373 0.0 0.0
1162.9910456339064 193.58763313481103 676.4817795880634 76.28794392882979 0.0 0.0
1120.8381500537423 180.3728151131882 648.8283088893176 79.77746549362409 0.0 0.0
1070.938323382477 161.68430624574378 614.5236242396523 82.52466457371355 0.0 0.0
1015.2165331367314 138.75918861898253 575.1147072343689 84.69093426441938 0.0 0.0
955.92387089155 115.8629898859428 533.9285718317136 86.46611342630133 0.0 0.0
896.8317317570055 96.70978514922152 494.7142553355149 87.86900165303915 0.0 0.0
838.5136637583548 83.02538692441198 458.1257734873219 88.377291320162 0.0 0.0
777.766455143423 73.08550118771527 419.6988101044492 87.68003611454073 0.0 0.0
707.2931550791582 62.814870937655456 367.05079629586 87.05016485590252 0.0 0.0
621.435378771143 46.879658937826704 284.545786957445 87.00966191780682 0.0 0.0
508.85208189060563 24.244231706228003 185.55398181827184 87.90113311299675 0.0 0.0
377.16972952791076 7.888685305754315 116.00798944455472 89.13504584641201 0.0 0.0
251.1229679778341 12.994181021349512 79.23817041416633 83.37519644278694 0.0 0.0
157.10220520719872 47.68981245324501 61.43760529813312 90.22653829201555 0.0 0.0
428.07456885029404 164.49897747953148 254.79639430711575 177.40351443878578 0.0 0.0
-863.0996215234617 -1542.819893232862 -1070.899400960161 77.77292524926455 0.0 0.0
-680.1826517020928 -1335.548414264919 -866.9601665101455 -74.07079561129618 0.0 0.0
327.9172510207724 99.15705082549906 177.85949858126708 -196.07510904752013 0.0 0.0
113.83702677289342 33.085372109371924 44.0767196646796 -119.17531924953765 0.0 0.0
200.4808162207768 17.867930206517066 65.50759135144158 -107.6406223841872 0.0 0.0
308.6555090789526 5.639162036640786 93.70017251048408 -114.20889089259434 0.0 0.0
439.43147159103063 13.424720938967985 147.60654808041792 -114.27423834128301 0.0 0.0
560.2654628746573 38.039468285836534 238.97606108752674 -110.13104634978737 0.0 0.0
659.7760305070152 52.7842826939125 328.4026462748915 -109.52627726184782 0.0 0.0
729.1914077917484 62.674207059663374 386.5727545781059 -107.96544124788768 0.0 0.0
788.9985644147175 68.50807415855618 424.6372310322043 -107.93519433384135 0.0 0.0
843.7816045759569 78.42799202752498 458.1525566862472 -106.83164086309549 0.0 0.0
899.1941904086835 94.24660194145352 493.9470721556712 -104.94837135214104 0.0 0.0
954.7991889354266 114.20698248226107 531.8641517393784 -102.81722656806397 0.0 0.0
1007.1964889347837 133.71619576951835 567.941920649383 -100.37561026259672 0.0 0.0
1054.5791967767636 150.65960977322538 600.1503153841238 -97.16862022006478 0.0 0.0
1095.5241863843942 163.26302181561908 626.9210882186374 -93.04717056406041 0.0 0.0
1129.0442974143373 169.8044475330359 646.9375952206299 -88.396315273322 0.0 0.0
1151.5968513517787 168.57710099283656 657.6981828967428 -82.68306958247209 0.0 0.0
1155.8755517954633 152.24925711740588 651.8960058211067 -73.95264655307629 0.0 0.0
1144.1891395925688 123.41319787372097 631.7779200414645 -59.592186544156704 0.0 0.0
814.1274739883977 -204.8971545566975 307.1621880081375 5.333333774615312e-11 0.0 0.0
1144.189139592499 123.41319787371145 631.7779200415399 59.59218654422576 0.0 0.0
1155.875551795865 152.24925711793696 651.8960058213222 73.95264655335511 0.0 0.0
1151.5968513516643 168.57710099280612 657.6981828967353 82.68306958263494 0.0 0.0
1129.044297414473 169.80444753325213 646.937595220714 88.39631527331885 0.0 0.0
1095.5241863841354 163.2630218154986 626.9210882185208 93.04717056400108 0.0 0.0
1054.579196774891 150.65960977149535 600.1503153828296 97.16862022011432 0.0 0.0
1007.1964889342352 133.71619576912704 567.9419206490161 100.37561026264852 0.0 0.0
954.7991889345324 114.2069824815626 531.8641517388049 102.81722656804445 0.0 0.0
899.1941904087641 94.24660194169402 493.9470721557174 104.94837135210724 0.0 0.0
843.7816045758581 78.42799202761212 458.15255668608864 106.8316408630009 0.0 0.0
788.9985644141859 68.50807415825777 424.637231031884 107.93519433381535 0.0 0.0
729.1914077915048 62.67420705969068 386.5727545779282 107.96544124790123 0.0 0.0
659.7760305063491 52.7842826934734 328.40264627435414 109.52627726171748 0.0 0.0
560.265462874375 38.039468286010816 238.97606108721976 110.13104634978133 0.0 0.0
439.4314715908289 13.424720939205042 147.6065480803178 114.27423834124646 0.0 0.0
308.65550907873444 5.639162036718908 93.70017251047014 114.20889089254337 0.0 0.0
200.48081622058004 17.86793020617971 65.50759135128149 107.64062238401517 0.0 0.0
113.83702677295294 33.08537210959948 44.07671966476572 119.17531924932882 0.0 0.0
327.91725102024355 99.15705082522581 177.85949858084777 196.07510904738672 0.0 0.0
-680.1826517007771 -1335.5484142633813 -866.960166508623 74.0707956112432 0.0 0.0
-522.0912141720908 -1146.4015964750504 -685.7979888536402 -70.82351415827858 0.0 0.0
248.70045997919206 47.555569882929305 118.93925047946605 -207.6172870760947 0.0 0.0
79.0046839571265 18.90444456995775 29.37258485025383 -143.09702365472992 0.0 0.0
153.1151096093672 21.114314336666812 52.269896339773126 -130.1320234570336 0.0 0.0
240.7571621735505 6.452122222039554 73.88390221393425 -136.17415670573567 0.0 0.0
359.66133904356747 3.04685378988954 111.63628404924044 -143.02288607493597 0.0 0.0
485.08032530717594 24.131710679154068 187.10970511810615 -136.7101364851837 0.0 0.0
593.0857440604176 43.644678452934166 278.53248230435884 -131.75379685948957 0.0 0.0
673.7996101439749 49.412421949187106 344.9942200690371 -129.70882318759078 0.0 0.0
730.7025017952867 54.20505599910187 385.5093582246495 -126.60959928090145 0.0 0.0
783.8894112309275 60.3412387747968 417.54613058156167 -124.8017532378445 0.0 0.0
835.6182260553816 72.60320747284464 450.0150143327588 -122.45204545741744 0.0 0.0
887.0888505241171 89.11321547130598 484.24826262539557 -119.98055755746599 0.0 0.0
935.8982085874749 105.98838974207762 517.2640837939786 -117.3058633078836 0.0 0.0
980.2727299441469 120.5335081005138 546.8369383761922 -113.8779238605134 0.0 0.0
1019.295209726891 130.60888874457495 571.4169765557584 -109.4565181144329 0.0 0.0
1054.3655345526406 139.86802554635958 593.529499089617 -104.17532264585572 0.0 0.0
1086.26327413512 146.96701247863217 613.0360366668154 -98.47511676653933 0.0 0.0
1102.2138811023542 140.3886926077373 617.946299463215 -89.38621757911778 0.0 0.0
1094.9882340749573 113.17180217524938 600.9697078480812 -72.73004775602381 0.0 0.0
672.6869016794552 -305.4435911623593 187.1788697496521 1.3564616097028193e-10 0.0 0.0
1094.9882340752847 113.17180217570072 600.9697078483498 72.73004775632079 0.0 0.0
1102.2138811022487 140.3886926077178 617.9462994631019 89.38621757932093 0.0 0.0
1086.2632741358454 146.96701247958595 613.0360366672405 98.47511676680288 0.0 0.0
1054.3655345516677 139.86802554545727 593.529499088894 104.1753226458947 0.0 0.0
1019.2952097278489 130.60888874572254 571.4169765565726 109.45651811452277 0.0 0.0
980.2727299434544 120.53350810007974 546.8369383756323 113.8779238606659 0.0 0.0
935.898208587035 105.98838974181338 517.2640837936514 117.30586330802375 0.0 0.0
887.0888505239976 89.11321547140264 484.2482626252916 119.98055755750573 0.0 0.0
835.6182260549656 72.60320747258518 450.0150143324531 122.4520454574047 0.0 0.0
783.8894112306645 60.34123877475803 417.5461305813586 124.80175323781886 0.0 0.0
730.7025017953989 54.20505599952895 385.50935822473315 126.60959928087284 0.0 0.0
673.7996101434618 49.41242194891794 344.9942200685986 129.7088231876027 0.0 0.0
593.0857440604323 43.644678453430686 278.5324823042804 131.75379685954871 0.0 0.0
485.08032530697443 24.131710679349645 187.109705117899 136.71013648513147 0.0 0.0
359.6613390428598 3.0468537893376735 111.63628404884776 143.0228860747983 0.0 0.0
240.75716217332092 6.452122221890622 73.88390221382096 136.17415670556537 0.0 0.0
153.11510960931633 21.11431433670026 52.26989633976751 130.1320234567031 0.0 0.0
79.00468395708018 18.904444569911316 29.37258485022618 143.0970236545749 0.0 0.0
248.70045997869957 47.55556988266572 118.93925047911257 207.6172870760106 0.0 0.0
-522.0912141711041 -1146.4015964738044 -685.7979888523918 70.82351415827381 0.0 0.0
-382.7870788342376 -981.7490623204988 -525.8054367945438 -75.85553716281575 0.0 0.0
181.46631575930928 8.53052650602181 73.08795199673757 -210.90645072924772 0.0 0.0
49.248597942265754 7.245332584065915 16.94804021054388 -161.1973047451968 0.0 0.0
107.34899418966997 22.481598412016144 38.950610364827504 -149.4498309616895 0.0 0.0
176.31588711596083 8.547043684595941 55.30868916033709 -155.23895030586294 0.0 0.0
269.8292130307372 -1.1286817425284326 80.37301267136856 -168.22609701137563 0.0 0.0
389.4682920442975 9.32055118369192 133.56802755474214 -165.49929395978933 0.0 0.0
505.7809080675842 29.07821606309683 215.0289848991899 -155.64647444955273 0.0 0.0
597.4810029204212 37.89048319389053 289.3292859117011 -150.04145489893003 0.0 0.0
661.7604217334285 37.34773544000891 336.0519285654987 -145.89338252561953 0.0 0.0
712.6113345785564 41.51593448482898 368.9501210311677 -141.67389639846954 0.0 0.0
761.3684199512217 51.08065601540758 399.54850280905936 -138.7230266607644 0.0 0.0
808.8925806188037 64.06801907825414 430.35897949248965 -135.91326987091531 0.0 0.0
853.1266977905098 77.45539746286164 459.4549128873468 -133.10844392092125 0.0 0.0
894.4697323338552 89.58042902924464 486.36169913551925 -129.80102438168348 0.0 0.0
931.2487628122407 98.62156892489443 509.4265951439027 -125.27125046136425 0.0 0.0
965.9152237546735 106.12482014018872 530.5242460440409 -119.50721443847162 0.0 0.0
1006.1169367234846 121.28459498357715 558.0063314556029 -113.54099448415437 0.0 0.0
1039.5483735267787 131.37953136911165 579.9537069498426 -105.41959895417648 0.0 0.0
1041.5526895800829 109.30792796671645 570.4506355087034 -88.6507476395633 0.0 0.0
506.81177764711134 -417.18689205463414 49.840988569852655 7.483080821657495e-11 0.0 0.0
1041.5526895803248 109.30792796706919 570.4506355089422 88.65074763985201 0.0 0.0
1039.548373526722 131.3795313691828 579.9537069497928 105.41959895442858 0.0 0.0
1006.1169367245071 121.28459498474018 558.0063314563026 113.54099448437758 0.0 0.0
965.9152237530561 106.12482013849757 530.5242460428376 119.50721443829126 0.0 0.0
931.2487628130411 98.62156892604084 509.4265951445269 125.27125046152852 0.0 0.0
894.4697323343729 89.58042903004959 486.3616991358379 129.80102438192188 0.0 0.0
853.1266977898889 77.45539746247313 459.4549128869455 133.1084439210848 0.0 0.0
808.892580618412 64.06801907793026 430.35897949218764 135.91326987088777 0.0 0.0
761.3684199506771 51.08065601501329 399.54850280867896 138.72302666078792 0.0 0.0
712.611334578182 41.51593448470436 368.9501210309039 141.67389639845408 0.0 0.0
661.7604217336568 37.347735440412066 336.0519285656632 145.89338252558218 0.0 0.0
597.4810029197786 37.89048319349945 289.3292859111931 150.04145489889456 0.0 0.0
505.78090806716864 29.0782160629959 215.0289848988412 155.64647444957643 0.0 0.0
389.4682920441497 9.320551183955459 133.56802755463372 165.49929395973575 0.0 0.0
269.82921303017275 -1.1286817428231033 80.37301267113186 168.2260970111816 0.0 0.0
176.315887115813 8.547043684571404 55.30868916028381 155.238950305696 0.0 0.0
107.34899418970778 22.48159841234414 38.95061036493789 149.44983096150168 0.0 0.0
49.24859794221837 7.245332583948246 16.948040210494284 161.19730474516123 0.0 0.0
181.4663157589902 8.530526505809258 73.08795199649262 210.90645072903993 0.0 0.0
-382.7870788334459 -981.7490623193486 -525.8054367935089 75.85553716287133 0.0 0.0
-275.1590591340121 -823.481674770227 -394.8949577355198 -81.93376947835857 0.0 0.0
123.81968764137625 -23.142254133027755 38.04636427773353 -207.84784461601927 0.0 0.0
21.559945749355656 -0.6985585647043757 6.260337569240216 -174.00032866599062 0.0 0.0
62.63816699704775 22.304146318472696 25.478582350866827 -164.839819989032 0.0 0.0
112.59464047306075 11.577797737424522 37.16607042638031 -170.1639013493728 0.0 0.0
177.04457024155323 0.14576117330764038 52.85014354285943 -186.45978228364066 0.0 0.0
271.6144585393525 -2.2572152803855254 83.22057678579473 -196.0303284447489 0.0 0.0
388.0382058327798 8.523268914114475 139.91307371746473 -185.06680634523514 0.0 0.0
491.2754259276322 19.561161422710125 209.8938983562386 -170.6741678046184 0.0 0.0
565.5802238237346 20.430820409250835 264.7871986591114 -162.68246125762272 0.0 0.0
619.7118423922349 22.184304268033443 303.1652514743551 -156.79085206165706 0.0 0.0
666.7353866649684 28.403808457235563 333.83598582752734 -153.2618958382659 0.0 0.0
710.4152043621662 38.67598396901291 362.66938101001904 -150.18025225003709 0.0 0.0
749.7412009258809 48.5779766673103 388.0914098270353 -147.34293492121384 0.0 0.0
786.7796203166198 58.10030755372398 411.8013556664335 -144.46016476072842 0.0 0.0
822.0648846351658 66.38161342720188 433.9545492474861 -140.55692947839145 0.0 0.0
856.1679397084479 73.28497371959298 454.894177037831 -134.67343667444555 0.0 0.0
897.0234542886107 87.50676429228979 482.36631873964774 -127.60653922279863 0.0 0.0
951.6885303230879 116.14394771196352 523.7799133469941 -121.25995370399347 0.0 0.0
981.0818542158863 116.61759042589452 539.8438799402871 -108.98904839984166 0.0 0.0
307.4519369371244 -535.9414905366143 -106.87925869303142 7.51967377254914e-11 0.0 0.0
981.0818542156974 116.61759042586128 539.8438799403365 108.98904840006436 0.0 0.0
951.688530323025 116.14394771205805 523.7799133469391 121.25995370442207 0.0 0.0
897.023454287579 87.50676429114495 482.3663187390273 127.60653922280184 0.0 0.0
856.1679397087386 73.28497372012147 454.8941770379625 134.67343667445178 0.0 0.0
822.0648846343464 66.38161342638537 433.9545492470633 140.5569294784166 0.0 0.0
786.7796203166502 58.10030755394086 411.8013556664728 144.46016476083878 0.0 0.0
749.7412009246833 48.57797666616383 388.0914098262591 147.34293492122816 0.0 0.0
710.4152043622258 38.6759839693811 362.66938101001307 150.18025225017837 0.0 0.0
666.7353866646068 28.403808456907726 333.8359858272686 153.26189583818038 0.0 0.0
619.7118423926507 22.184304268677955 303.1652514745186 156.79085206156975 0.0 0.0
565.5802238226869 20.430820407937578 264.78719865831374 162.68246125724454 0.0 0.0
491.2754259272551 19.561161422931615 209.8938983560247 170.67416780475625 0.0 0.0
388.03820583184716 8.523268913141784 139.91307371677465 185.06680634518958 0.0 0.0
271.6144585392775 -2.257215279895379 83.22057678588452 196.03032844467944 0.0 0.0
177.0445702414163 0.1457611736869724 52.85014354295761 186.45978228332316 0.0 0.0
112.59464047299788 11.577797737479063 37.16607042638571 170.16390134908664 0.0 0.0
62.638166997095745 22.304146318529874 25.478582350896197 164.83981998883212 0.0 0.0
21.559945749245443 -0.6985585647515178 6.260337569192258 174.0003286657379 0.0 0.0
123.81968764096516 -23.14225413334399 38.04636427747054 207.84784461579932 0.0 0.0
-275.15905913330386 -823.4816747691095 -394.8949577346704 81.93376947846473 0.0 0.0
-188.92883282696948 -683.752718595038 -288.9527749745332 -96.00605623998823 0.0 0.0
71.90145084078354 -47.84650152475382 10.4183164169362 -198.77024187708 0.0 0.0
-5.260378119455562 -4.332169940322611 -2.8839836274971113 -181.6561017419251 0.0 0.0
18.632551579070753 21.068230958574873 11.908668244470908 -175.63359673154946 0.0 0.0
48.76354392574922 14.506470503421575 18.952620596311835 -180.70503269784595 0.0 0.0
85.38204762338515 3.60539586854002 26.572094265529643 -198.57188610489402 0.0 0.0
136.57294444240628 -2.142648830978087 40.38966404466444 -214.89429580744462 0.0 0.0
217.4122855068695 -5.889833072432485 65.14966328500506 -216.9400298898326 0.0 0.0
320.70317106797194 -12.57600251935945 100.78290137450074 -201.92540506151985 0.0 0.0
409.2455705032995 -16.014838238615372 141.05110043519988 -180.3335848718806 0.0 0.0
469.02853386846147 -7.824033326948545 180.07299617004438 -168.01754468843825 0.0 0.0
514.2474849906256 2.372131738595016 213.34666135427486 -163.62095301864372 0.0 0.0
552.481734196354 11.119280914911037 241.91575918645063 -162.29492621702275 0.0 0.0
586.2435363898492 19.167033168493717 266.6262856208366 -161.41507746916724 0.0 0.0
618.0935488905545 27.160984029630853 289.8289774149937 -160.474135228094 0.0 0.0
650.9878465871894 35.08193910423145 313.47070701051115 -158.7408332275661 0.0 0.0
686.7903901660775 42.21292129041811 338.4604900366138 -154.06855380174827 0.0 0.0
725.6623810849394 48.12865429068869 364.25423798326494 -145.9001386854963 0.0 0.0
785.8372613575934 72.93226600048283 406.9956197616286 -138.26195338909312 0.0 0.0
876.8202752723275 125.03851773270233 481.02907698832684 -136.0425307324223 0.0 0.0
41.41098263621171 -655.6467133780377 -294.3772266553168 1.0491163493497879e-10 0.0 0.0
876.8202752738464 125.03851773481898 481.02907698952663 136.04253073280728 0.0 0.0
785.8372613577312 72.9322660009646 406.99561976182156 138.26195338956404 0.0 0.0
725.6623810841913 48.12865428999276 364.25423798272186 145.9001386856355 0.0 0.0
686.7903901671958 42.212921291854656 338.4604900372566 154.06855380212488 0.0 0.0
650.9878465867693 35.081939104053006 313.47070701020203 158.74083322736672 0.0 0.0
618.0935488897642 27.160984028589613 289.828977414542 160.47413522814836 0.0 0.0
586.2435363895478 19.167033168355488 266.6262856205834 161.4150774689556 0.0 0.0
552.481734196435 11.119280915132034 241.9157591865198 162.29492621729935 0.0 0.0
514.247484990294 2.372131738221732 213.34666135409347 163.62095301855118 0.0 0.0
469.02853386921964 -7.824033325613435 180.07299617065803 168.01754468870607 0.0 0.0
409.245570503452 -16.014838238178662 141.05110043526284 180.3335848717413 0.0 0.0
320.70317106808943 -12.57600251839597 100.78290137478878 201.92540506176732 0.0 0.0
217.4122855064787 -5.889833072346758 65.1496632848941 216.94002988983107 0.0 0.0
136.57294444239227 -2.142648830621193 40.3896640447707 214.8942958072488 0.0 0.0
85.38204762345877 3.6053958687080816 26.572094265602182 198.57188610462933 0.0 0.0
48.76354392566405 14.506470503274311 18.952620596244333 180.7050326976579 0.0 0.0
18.632551578943893 21.068230958325245 11.90866824435838 175.63359673121823 0.0 0.0
-5.260378119441635 -4.332169940211858 -2.8839836274628317 181.6561017416629 0.0 0.0
71.90145084043033 -47.84650152500814 10.418316416731491 198.77024187693954 0.0 0.0
-188.928832826453 -683.7527185940925 -288.95277497391993 96.00605624006927 0.0 0.0
-133.58795630075656 -554.9562499820414 -212.98876501538274 -108.68087467618518 0.0 0.0
24.870633052063084 -64.85660474726681 -11.125404577830144 -183.4108020842825 0.0 0.0
-31.077061716839196 -5.027584097730681 -10.82247659066709 -185.54200256286134 0.0 0.0
-24.593629823248804 19.42435329882531 -1.5562480796313334 -181.9375676116573 0.0 0.0
-14.3024690173213 17.034849135794428 0.8191707071441008 -186.33633265388957 0.0 0.0
-6.680288210156114 7.533154010554471 0.2627684522183946 -202.99119700283524 0.0 0.0
-2.875608780474579 1.2268019335781244 -0.49440917278786145 -220.69889272311124 0.0 0.0
-0.9766548264053192 0.08418808354635932 -0.2760933475795291 -223.9797758258564 0.0 0.0
-0.2534041396845481 -0.019197471660316268 -0.08572486966186688 -215.8621903683178 0.0 0.0
0.028767166864696492 -0.0025835052566414163 0.013721692710774391 -210.1495736283067 0.0 0.0
-0.379276805638213 0.011527959486922867 -0.14377561525201799 -208.36052227091113 0.0 0.0
-0.8674389893820376 0.15640781334009546 0.1978062397365079 -197.24629806967457 0.0 0.0
-1.97150183771096 0.7445237606579198 0.3699374276862528 -187.57205844128583 0.0 0.0
-0.84240319722457 2.1809365297278944 0.8795372719009862 -180.31241329416002 0.0 0.0
6.865700987904063 5.79506671359357 2.105768708963666 -175.1780767129351 0.0 0.0
28.584841943506547 12.692138704846556 5.615102618352935 -170.79452545459333 0.0 0.0
74.582366482523 24.886546737576964 13.869536220161748 -165.53027243963763 0.0 0.0
160.47642597350472 33.969633933357656 18.931319123501396 -156.4239992576102 0.0 0.0
377.25976884193756 -10.929181364709763 33.481104123428594 -150.57028970346758 0.0 0.0
594.98376249157 24.201288512443924 233.6974532334361 -195.59869684501498 0.0 0.0
-616.0852866669119 -892.6644055542666 -676.0388268867933 2.8492763703980017e-11 0.0 0.0
594.9837624933366 24.201288514730578 233.6974532348088 195.59869684517335 0.0 0.0
377.259768842398 -10.929181363767128 33.48110412385374 150.5702897042798 0.0 0.0
160.4764259732641 33.96963393297419 18.931319123161018 156.423999257996 0.0 0.0
74.58236648287087 24.886546737825014 13.869536220393769 165.53027243981117 0.0 0.0
28.584841944775846 12.6921387065846 5.615102619374923 170.7945254545995 0.0 0.0
6.865700987571628 5.795066712989858 2.1057687086854457 175.1780767127636 0.0 0.0
-0.8424031960296503 2.1809365308985917 0.879537272752458 180.31241329419527 0.0 0.0
-1.971501838069372 0.744523759468251 0.36993742712804334 187.57205844154936 0.0 0.0
-0.8674389888676757 0.15640781365799228 0.1978062399619276 197.24629806958967 0.0 0.0
-0.37927680485959314 0.01152795997012035 -0.14377561489006752 208.3605222709295 0.0 0.0
0.028767167456194898 -0.002583504869084763 0.013721693003340363 210.1495736280314 0.0 0.0
-0.25340413938828377 -0.019197471459915683 -0.08572486951063674 215.86219036836465 0.0 0.0
-0.9766548261881631 0.0841880839575091 -0.2760933473857383 223.97977582589292 0.0 0.0
-2.8756087802600856 1.2268019338801952 -0.4944091726305171 220.6988927228443 0.0 0.0
-6.6802882099515255 7.5331540106609305 0.2627684523124696 202.9911970025497 0.0 0.0
-14.302469017258677 17.034849135797064 0.8191707071632806 186.3363326536478 0.0 0.0
-24.593629823260386 19.424353298735213 -1.5562480796633278 181.93756761147475 0.0 0.0
-31.07706171692929 -5.027584097931661 -10.822476590753627 185.5420025627949 0.0 0.0
24.870633051789373 -64.85660474735242 -11.125404577950526 183.4108020839703 0.0 0.0
-133.5879563006007 -554.956249981354 -212.98876501509054 108.680874676287 0.0 0.0
-106.13975647691463 -438.4217874775288 -163.3450632128834 -112.15482646096432 0.0 0.0
-9.9790568443939 -75.10143880182503 -25.52460588288256 -168.63204122760325 0.0 0.0
-55.31578028791984 -4.966812807868274 -18.092712885809323 -184.85061296536034 0.0 0.0
-66.55172063476064 17.959108733258052 -14.584765393920797 -183.54274625013358 0.0 0.0
-76.20383381783125 18.81680727743359 -17.21890382662682 -186.53147759048392 0.0 0.0
-97.61112016717863 11.243995083329796 -25.861976739494498 -200.31291435436563 0.0 0.0
-141.9768333160861 4.730137560064743 -41.26487854170046 -216.15094310918118 0.0 0.0
-218.78587794826643 5.966097449475102 -65.64019615341925 -217.24670347001376 0.0 0.0
-320.888663574022 12.396652747430032 -100.94799930148227 -201.95387380570628 0.0 0.0
-409.1984519971128 16.016541923678094 -141.02226596085268 -180.30034267482512 0.0 0.0
-469.5019352757415 7.755973664697862 -180.2402099003644 -168.03456559792423 0.0 0.0
-514.895766355509 -2.3742997364741285 -214.15825681743547 -163.50635461027107 0.0 0.0
-553.6695485764703 -10.118379270006955 -242.89547500195724 -161.69642004352266 0.0 0.0
-585.5674509806952 -14.982757410892319 -264.97366000403525 -160.5855979682552 0.0 0.0
-608.4433036878374 -16.246660815544743 -278.66683951467604 -160.66104787417524 0.0 0.0
-620.1259160732494 -12.503954973469007 -281.450111593292 -162.7298085983623 0.0 0.0
-618.8568231713368 -3.819779851269999 -271.2548862787666 -167.2830874598485 0.0 0.0
-612.0309792584659 3.267382377116661 -249.66623875218795 -176.86969007803802 0.0 0.0
-591.9640486234244 51.532496477720926 -189.91063252760574 -190.80151545509554 0.0 0.0
-322.4269272859857 157.19075159819818 22.703073542178885 -150.86299915902134 0.0 0.0
-1174.906133570341 -1149.25061572186 -1186.0396278132066 -1.354720780000207e-10 0.0 0.0
-322.4269272846203 157.1907516000192 22.70307354324072 150.86299915948405 0.0 0.0
-591.9640486231799 51.53249647778648 -189.91063252754927 190.80151545539343 0.0 0.0
-612.0309792581272 3.2673823773105113 -249.66623875180036 176.86969007814892 0.0 0.0
-618.8568231716462 -3.8197798519163086 -271.2548862791337 167.2830874599938 0.0 0.0
-620.1259160727457 -12.503954972895443 -281.45011159291016 162.7298085983284 0.0 0.0
-608.4433036874204 -16.246660815179503 -278.66683951434743 160.66104787413747 0.0 0.0
-585.5674509794957 -14.982757409668913 -264.97366000331033 160.58559796822502 0.0 0.0
-553.6695485768582 -10.118379270795835 -242.89547500215562 161.69642004353105 0.0 0.0
-514.895766354693 -2.374299735978628 -214.1582568169124 163.50635461038004 0.0 0.0
-469.5019352748364 7.755973665576042 -180.2402098997048 168.03456559792787 0.0 0.0
-409.1984519968147 16.016541923407154 -141.02226596066572 180.30034267483185 0.0 0.0
-320.8886635735953 12.39665274711712 -100.94799930138731 201.95387380585646 0.0 0.0
-218.78587794792014 5.96609744926265 -65.64019615335243 217.2467034700401 0.0 0.0
-141.97683331562456 4.730137560273569 -41.26487854150897 216.15094310900912 0.0 0.0
-97.61112016710653 11.243995082770926 -25.861976739646046 200.3129143540631 0.0 0.0
-76.2038338175159 18.816807277799168 -17.21890382642652 186.5314775902426 0.0 0.0
-66.55172063478648 17.95910873310009 -14.584765393979403 183.54274624994437 0.0 0.0
-55.31578028793566 -4.966812807960805 -18.092712885844445 184.8506129652431 0.0 0.0
-9.97905684442256 -75.10143880203336 -25.524605882950546 168.632041227539 0.0 0.0
-106.13975647664937 -438.4217874767823 -163.3450632126278 112.15482646074682 0.0 0.0
-88.53090221700703 -335.1403890377065 -127.1045449943824 -104.65930394357191 0.0 0.0
-32.33668653148055 -79.24205983995755 -33.46931571017748 -156.23295028552246 0.0 0.0
-77.98171638031134 -5.125657437609249 -24.920953553976947 -180.8999471429108 0.0 0.0
-106.61338447593532 16.603282979693397 -27.02392138270809 -180.2292185267908 0.0 0.0
-136.93804705964266 20.04485098924856 -34.99315701890509 -182.38573388347095 0.0 0.0
-187.1207114251753 14.533803029001767 -51.599676467328905 -192.00203861083241 0.0 0.0
-273.6756129968788 3.778072377488188 -84.0134502248562 -195.50020841756904 0.0 0.0
-388.28274166381914 -8.736313571002889 -140.24671574134751 -185.5824449279608 0.0 0.0
-491.2918712588314 -19.77391969460792 -209.9945237266008 -170.7765580627742 0.0 0.0
-565.5255286228628 -20.473801353250956 -264.79133714893453 -162.66368177658137 0.0 0.0
-619.7247016172369 -22.149665819779422 -303.1976700689225 -156.72917294076728 0.0 0.0
-667.1405338327476 -28.314460021553316 -334.08665660336396 -152.83914550516425 0.0 0.0
-711.0153944553381 -37.94216538739259 -362.7855185512634 -149.09906781196545 0.0 0.0
-748.3008260203886 -45.24103011607248 -386.0203967267638 -146.04745164064477 0.0 0.0
-776.9400979728491 -47.85675281261645 -402.14372461424284 -144.8470793973974 0.0 0.0
-793.3797039757283 -43.15427240272123 -408.1857683228907 -146.05922650207472 0.0 0.0
-797.66478342979 -32.620324704084766 -404.7576145024607 -149.9685929404394 0.0 0.0
-790.0174783306252 -18.744991749688012 -393.41244868324657 -156.5410153264127 0.0 0.0
-742.1383913387073 26.76385704239948 -347.03644369793074 -164.24513593617834 0.0 0.0
-633.7540728623575 119.14655307038889 -249.44353065362034 -171.82609996117156 0.0 0.0
-1958.693402822632 -1445.969574923734 -1667.4829740928822 9.494272035226459e-11 0.0 0.0
-633.7540728620525 119.14655307072564 -249.4435306534814 171.82609996151388 0.0 0.0
-742.1383913380967 26.76385704286801 -347.03644369753385 164.24513593626233 0.0 0.0
-790.0174783306319 -18.744991749754405 -393.41244868322974 156.5410153266657 0.0 0.0
-797.6647834299833 -32.62032470454207 -404.75761450262826 149.96859294048625 0.0 0.0
-793.3797039755801 -43.154272402809376 -408.18576832282315 146.05922650218102 0.0 0.0
-776.9400979734164 -47.85675281332025 -402.1437246145649 144.84707939754 0.0 0.0
-748.3008260201477 -45.24103011610557 -386.02039672664364 146.04745164065503 0.0 0.0
-711.0153944550954 -37.942165387390524 -362.7855185511313 149.09906781198694 0.0 0.0
-667.1405338328838 -28.314460022173165 -334.0866566034772 152.83914550535312 0.0 0.0
-619.7247016171517 -22.149665819795175 -303.1976700688633 156.7291729406944 0.0 0.0
-565.5255286220151 -20.473801352465657 -264.7913371482859 162.66368177631415 0.0 0.0
-491.29187125812194 -19.773919694380883 -209.9945237261049 170.77655806284378 0.0 0.0
-388.2827416637953 -8.736313571715904 -140.24671574137432 185.58244492813728 0.0 0.0
-273.67561299625135 3.7780723777199006 -84.01345022455868 195.50020841746993 0.0 0.0
-187.12071142496535 14.533803028507908 -51.599676467429326 192.0020386105341 0.0 0.0
-136.93804705939903 20.044850989416773 -34.99315701878674 182.38573388321524 0.0 0.0
-106.61338447577202 16.603282979887165 -27.02392138260604 180.22921852656188 0.0 0.0
-77.98171638022944 -5.125657437524171 -24.92095355392931 180.89994714281679 0.0 0.0
-32.336686531585464 -79.24205984010578 -33.46931571025266 156.23295028553042 0.0 0.0
-88.53090221693463 -335.1403890372295 -127.10454499421559 104.65930394334042 0.0 0.0
-71.98774668842789 -248.44562553923427 -96.13001166829864 -93.20572268256328 0.0 0.0
-48.36676215030805 -77.23958476666428 -37.681080954410064 -142.84574280773163 0.0 0.0
-98.82686478340156 -5.325309313664118 -31.234268581153795 -172.57286050839792 0.0 0.0
-145.06030322336608 15.303494874561954 -38.889902916059945 -173.08360513774346 0.0 0.0
-195.25852814355738 19.908592979581435 -52.50834245563941 -171.80035138943128 0.0 0.0
-272.9835237870656 12.91286560837808 -79.00655317658135 -172.3879664302311 0.0 0.0
-389.7237485220047 -6.984506513963799 -133.36545247811702 -168.18550155930282 0.0 0.0
-505.91531666544773 -29.503121504885648 -215.21131796585968 -156.27504066980683 0.0 0.0
-597.4573566725427 -38.12169006593379 -289.4203588868543 -150.09313138386867 0.0 0.0
-661.6853547379892 -37.321190939241795 -336.0384160629251 -145.90836600133326 0.0 0.0
-712.4473845229211 -41.31997338342414 -368.8053024694669 -141.60476888745728 0.0 0.0
-761.3903502347803 -50.75434380190626 -399.44253234551957 -138.24325710909812 0.0 0.0
-809.1633235590832 -63.405771026028646 -430.2438627663941 -134.6195315851908 0.0 0.0
-852.1900901463791 -75.12526317895919 -458.0009208896032 -131.38317962233117 0.0 0.0
-887.0208292361779 -81.73201604277887 -479.0085127837522 -129.88007184774094 0.0 0.0
-908.4502608564652 -79.63224807549742 -488.84315802134114 -131.350879392756 0.0 0.0
-914.4566486013489 -67.0815635991928 -485.64496088473663 -136.0127676724085 0.0 0.0
-895.0396909408241 -36.062921605112166 -460.4858208624329 -142.0684946848059 0.0 0.0
-840.067652461292 21.957514542439355 -404.6642922568532 -146.9108972469833 0.0 0.0
-688.0116914991195 162.7007704586245 -261.88090392757465 -149.13815893749782 0.0 0.0
-2403.4037712013333 -1681.6304344787118 -2016.6107017886352 5.2519766313707805e-11 0.0 0.0
-688.0116915001744 162.7007704570877 -261.88090392826047 149.13815893808484 0.0 0.0
-840.0676524610069 21.957514542726614 -404.66429225659465 146.91089724715687 0.0 0.0
-895.0396909414275 -36.0629216059383 -460.4858208628085 142.06849468504404 0.0 0.0
-914.4566486009008 -67.08156359887707 -485.6449608845325 136.01276767247137 0.0 0.0
-908.4502608567886 -79.6322480759188 -488.843158021557 131.3508793927744 0.0 0.0
-887.0208292364312 -81.7320160432775 -479.00851278384766 129.88007184776436 0.0 0.0
-852.1900901462955 -75.12526317918847 -458.000920889489 131.38317962245023 0.0 0.0
-809.1633235588445 -63.405771025975056 -430.24386276626603 134.61953158521575 0.0 0.0
-761.3903502348765 -50.754343802323355 -399.4425323455831 138.24325710916045 0.0 0.0
-712.4473845229044 -41.319973383651586 -368.80530246950195 141.60476888739686 0.0 0.0
-661.6853547369976 -37.32119093834214 -336.0384160622254 145.90836600107178 0.0 0.0
-597.4573566717713 -38.121690065460136 -289.4203588862769 150.09313138384624 0.0 0.0
-505.915316665142 -29.50312150511384 -215.2113179655424 156.2750406698492 0.0 0.0
-389.72374852177455 -6.984506514357751 -133.3654524780235 168.18550155932746 0.0 0.0
-272.98352378635064 12.912865608857302 -79.00655317622744 172.38796643003758 0.0 0.0
-195.2585281432446 19.90859297960771 -52.50834245555125 171.8003513892959 0.0 0.0
-145.06030322317775 15.303494874724485 -38.88990291595949 173.08360513755338 0.0 0.0
-98.82686478334207 -5.32530931364552 -31.234268581129342 172.5728605082468 0.0 0.0
-48.36676215025775 -77.23958476660911 -37.68108095437932 142.84574280765236 0.0 0.0
-71.98774668831463 -248.44562553887113 -96.13001166815572 93.20572268246306 0.0 0.0
-58.56046012513906 -176.00106405177755 -70.36845725307496 -79.93482169269383 0.0 0.0
-60.569506702579275 -70.72698491015251 -39.38912364117486 -127.50384764276382 0.0 0.0
-118.26612153631295 -5.3307530193774175 -37.073209701447624 -160.2033233063276 0.0 0.0
-181.25826090915615 13.336144464262906 -50.35626065710163 -160.8515732160426 0.0 0.0
-252.53279286519415 18.4978375833085 -69.98484688323744 -157.12099303680043 0.0 0.0
-357.75162114015893 7.440780384673868 -109.38000781276924 -149.8166761598407 0.0 0.0
-482.6977535668599 -22.930657768497237 -186.4107148386373 -137.67094031170998 0.0 0.0
-593.2726205107565 -44.34868238460307 -278.7590903094093 -132.0805751750924 0.0 0.0
-673.8411256194149 -49.61567359003561 -345.1459355243486 -129.74715286407948 0.0 0.0
-730.5897801209537 -54.10658687925013 -385.44561912269677 -126.63093891163645 0.0 0.0
-783.5574393207938 -59.94252446942167 -417.21815050227536 -124.73636929124183 0.0 0.0
-835.1018405883893 -71.85689399356013 -449.42288523253075 -121.96714664611024 0.0 0.0
-886.7732540739104 -88.21269264507522 -483.67613320165486 -118.66677018527776 0.0 0.0
-935.7509641892165 -104.91558726785834 -516.7282848087015 -115.42599287542633 0.0 0.0
-977.0641681725081 -116.96711819003312 -543.620773788937 -113.6206897122229 0.0 0.0
-1003.5046965555819 -117.21865876108137 -557.166924952716 -114.97796911093945 0.0 0.0
-1005.4971431580565 -99.2396501132396 -549.3762076939664 -119.22047404385606 0.0 0.0
-973.8762732076074 -52.80048413624101 -510.59107640465606 -124.55828170690752 0.0 0.0
-891.1451771380043 36.045332662936886 -425.7036429436522 -127.53514353924086 0.0 0.0
-719.1587444472208 199.11165092067893 -260.35367033445027 -127.17079397970576 0.0 0.0
-2754.123793637492 -1923.467398162486 -2318.85291849021 1.2112622016502428e-10 0.0 0.0
-719.1587444468521 199.1116509209298 -260.3536703341416 127.1707939799594 0.0 0.0
-891.1451771392285 36.04533266156608 -425.70364294450394 127.53514353947384 0.0 0.0
-973.8762732074841 -52.80048413630588 -510.59107640460763 124.55828170710521 0.0 0.0
-1005.4971431587744 -99.23965011411718 -549.3762076946119 119.22047404407024 0.0 0.0
-1003.5046965558449 -117.21865876144328 -557.1669249529065 114.97796911087228 0.0 0.0
-977.0641681715663 -116.96711818918449 -543.6207737882236 113.62068971214629 0.0 0.0
-935.7509641888195 -104.91558726770563 -516.7282848084162 115.42599287548227 0.0 0.0
-886.7732540732087 -88.21269264452536 -483.6761332012583 118.66677018527886 0.0 0.0
-835.1018405880754 -71.85689399365641 -449.4228852324099 121.96714664628122 0.0 0.0
-783.5574393199565 -59.94252446880451 -417.2181505017693 124.73636929123063 0.0 0.0
-730.5897801206539 -54.10658687925665 -385.4456191225153 126.63093891165816 0.0 0.0
-673.8411256189656 -49.61567358984541 -345.14593552397065 129.74715286396562 0.0 0.0
-593.2726205101529 -44.34868238430836 -278.7590903088821 132.08057517502854 0.0 0.0
-482.69775356648466 -22.930657768602273 -186.41071483831792 137.670940311646 0.0 0.0
-357.751621139636 7.440780384808264 -109.38000781251878 149.81667615977045 0.0 0.0
-252.5327928646778 18.497837583483204 -69.98484688305855 157.12099303662157 0.0 0.0
-181.25826090899838 13.336144464132047 -50.356260657107725 160.85157321585152 0.0 0.0
-118.26612153615034 -5.330753019219149 -37.073209701349946 160.20332330624083 0.0 0.0
-60.56950670255179 -70.72698491016762 -39.38912364117115 127.50384764266151 0.0 0.0
-58.56046012503008 -176.00106405152272 -70.36845725296581 79.93482169264028 0.0 0.0
-48.68040590642255 -117.18327401361576 -49.75910397601149 -65.9873992979747 0.0 0.0
-70.15332835095315 -61.12341771815554 -39.3830238207326 -110.06549853425872 0.0 0.0
-136.5149810672333 -4.8774390945268475 -42.416575676536596 -143.74073103007186 0.0 0.0
-215.6433070110088 11.131309251124632 -61.28300523855963 -144.6610539189057 0.0 0.0
-307.7935744733042 13.451109970585417 -88.63039499652784 -135.74057296108003 0.0 0.0
-433.95517642977177 -3.668007076825482 -143.84711633092186 -122.46194626981084 0.0 0.0
-558.91843138456 -36.878744491338104 -237.87691510477282 -111.42299384494052 0.0 0.0
-660.2403303152627 -53.5891420219323 -328.8515655813717 -109.66060796994488 0.0 0.0
-729.1967383230792 -62.742424689111374 -386.66147885089856 -108.00121205396756 0.0 0.0
-788.8430206141721 -68.3415265447869 -424.51535756465876 -107.96049392750551 0.0 0.0
-843.2655744147601 -77.85083473396453 -457.64588474452574 -106.74395491490729 0.0 0.0
-898.1184558005589 -93.0384148709761 -492.8444923680159 -104.47459471542922 0.0 0.0
-953.6629073827837 -112.81894290803444 -530.6141274747597 -101.65637527916043 0.0 0.0
-1007.609263431071 -133.7366063664833 -568.1525806729753 -98.70981245040306 0.0 0.0
-1055.8391749165114 -151.71300479962687 -601.3944074949598 -96.6382250157526 0.0 0.0
-1086.5195338946805 -155.40530503944353 -618.8348269830853 -97.07078657090051 0.0 0.0
-1084.2236142504698 -129.87034239064246 -605.2044777953743 -100.67836838837654 0.0 0.0
-1034.2730232724796 -63.77515829923988 -547.5653657723176 -105.22057321697929 0.0 0.0
-925.485017599334 51.78228370554878 -436.12842644080075 -107.60396938900323 0.0 0.0
-743.6670454849193 224.96901920758762 -259.77973988896946 -109.14049980553388 0.0 0.0
-3053.709835968327 -2151.817369557208 -2586.8937742994476 1.3105250218359288e-10 0.0 0.0
-743.6670454845195 224.96901920790322 -259.7797398886531 109.14049980575587 0.0 0.0
-925.485017600708 51.78228370408398 -436.1284264417568 107.60396938914138 0.0 0.0
-1034.273023271432 -63.77515829828471 -547.5653657715931 105.22057321700194 0.0 0.0
-1084.2236142509203 -129.87034239126967 -605.2044777957846 100.6783683885203 0.0 0.0
-1086.5195338948529 -155.40530503978658 -618.8348269831151 97.07078657102099 0.0 0.0
-1055.839174916421 -151.7130047996922 -601.3944074948524 96.63822501574377 0.0 0.0
-1007.6092634311954 -133.73660636674154 -568.1525806729501 98.70981245040487 0.0 0.0
-953.6629073818905 -112.81894290730703 -530.6141274743179 101.65637527902594 0.0 0.0
-898.1184557994061 -93.03841487015404 -492.8444923673243 104.47459471554592 0.0 0.0
-843.2655744146193 -77.8508347340524 -457.64588474448885 106.74395491491173 0.0 0.0
-788.8430206142567 -68.34152654528712 -424.5153575647438 107.96049392760233 0.0 0.0
-729.1967383223473 -62.74242468864264 -386.66147885037566 108.0012120539401 0.0 0.0
-660.2403303153171 -53.58914202241367 -328.851565581255 109.66060796992818 0.0 0.0
-558.9184313836876 -36.87874449072966 -237.87691510403872 111.42299384481665 0.0 0.0
-433.9551764293447 -3.6680070768984367 -143.8471163306868 122.46194626976433 0.0 0.0
-307.7935744727427 13.4511099708213 -88.63039499630806 135.7405729610091 0.0 0.0
-215.64330701090574 11.13130925103701 -61.28300523855582 144.66105391876707 0.0 0.0
-136.51498106702505 -4.877439094235393 -42.4165756763854 143.740731029984 0.0 0.0
-70.1533283509047 -61.12341771809519 -39.38302382069996 110.06549853414667 0.0 0.0
-48.680405906384834 -117.18327401347585 -49.7591039759582 65.98739929792046 0.0 0.0
-42.118035242309574 -71.61956095982984 -34.12127886064183 -51.77256514727499 0.0 0.0
-77.59263072875079 -49.73113424143325 -38.19712949105519 -90.68577655960664 0.0 0.0
-153.6539544919225 -3.877413642493813 -47.259917938798424 -123.22619542723436 0.0 0.0
-248.62827807955443 7.814193982507268 -72.17962214319596 -123.75352391108962 0.0 0.0
-365.37141747576294 7.162216443048077 -108.70274363638512 -111.57024758673707 0.0 0.0
-496.9547061444971 -19.82440227071882 -181.85183838702466 -92.36761099337343 0.0 0.0
-620.5924495672664 -46.16456530058805 -283.5475546230005 -87.73637326936385 0.0 0.0
-707.5708349195986 -63.233477850039066 -367.33186499507235 -87.04364874383411 0.0 0.0
-777.7929643714797 -73.11355142570666 -419.7695903151489 -87.70948791311788 0.0 0.0
-838.3066339076789 -82.79176964140639 -457.9427279235942 -88.40465334497563 0.0 0.0
-896.1353075316908 -95.96255962832464 -494.03165345552657 -87.75431896295156 0.0 0.0
-954.4011308673109 -114.29658431555389 -532.4207231836206 -86.02205280087769 0.0 0.0
-1013.3438382824047 -136.9110861510902 -573.2574215790669 -83.80318690270964 0.0 0.0
-1071.019591528832 -161.856481949575 -614.6144710082597 -81.3469451653949 0.0 0.0
-1124.361727252417 -183.95741067684924 -652.41049331498 -79.11014846039593 0.0 0.0
-1160.816357547975 -191.7826517133316 -674.7831459279971 -78.37445837987214 0.0 0.0
-1156.3337826598367 -163.15810509335623 -658.624323436007 -80.5091458491567 0.0 0.0
-1088.950585872545 -78.02725704738535 -582.8066459335479 -84.6208350869477 0.0 0.0
-955.3015485150272 63.2156606001343 -445.8666386068968 -88.55976224600582 0.0 0.0
-758.971479837033 250.26188907731108 -254.69885050763014 -94.00209701784877 0.0 0.0
-3313.142834124885 -2358.7930271206624 -2823.1132687227628 3.607780740821909e-11 0.0 0.0
-758.9714798377528 250.26188907649936 -254.69885050809626 94.00209701809256 0.0 0.0
-955.3015485158866 63.21566059914422 -445.8666386075058 88.55976224610716 0.0 0.0
-1088.950585871468 -78.0272570463652 -582.8066459327738 84.62083508709259 0.0 0.0
-1156.3337826600512 -163.15810509364712 -658.6243234362385 80.5091458490809 0.0 0.0
-1160.8163575475073 -191.78265171304668 -674.7831459276177 78.37445837994079 0.0 0.0
-1124.3617272522802 -183.95741067688672 -652.4104933149088 79.11014846042109 0.0 0.0
-1071.01959152927 -161.85648195025257 -614.6144710084994 81.34694516550334 0.0 0.0
-1013.3438382823138 -136.91108615119336 -573.2574215791192 83.80318690276546 0.0 0.0
-954.4011308661131 -114.2965843144989 -532.4207231828511 86.0220528006859 0.0 0.0
-896.1353075319307 -95.96255962886158 -494.0316534557393 87.75431896299196 0.0 0.0
-838.3066339073999 -82.7917696414246 -457.9427279234403 88.40465334494702 0.0 0.0
-777.7929643707903 -73.11355142528892 -419.76959031467965 87.70948791311817 0.0 0.0
-707.5708349195564 -63.23347785044234 -367.33186499494036 87.04364874389036 0.0 0.0
-620.5924495669386 -46.16456530062444 -283.547554622594 87.73637326934093 0.0 0.0
-496.9547061439053 -19.824402270569628 -181.85183838661348 92.36761099332526 0.0 0.0
-365.37141747503756 7.162216443573124 -108.7027436360186 111.57024758673896 0.0 0.0
-248.62827807951732 7.814193982263659 -72.17962214326579 123.75352391102005 0.0 0.0
-153.65395449175085 -3.877413642322601 -47.2599179386955 123.2261954271228 0.0 0.0
-77.59263072869439 -49.731134241442334 -38.19712949104101 90.68577655955858 0.0 0.0
-42.11803524217793 -71.61956095969869 -34.12127886056299 51.772565147166546 0.0 0.0
-38.20704451530647 -39.06143181506511 -23.18054289911147 -37.67253227744415 0.0 0.0
-82.78792962578189 -37.71322200084556 -36.15034548798823 -69.59492824510214 0.0 0.0
-169.49974906281463 -2.485902409274233 -51.59591591933093 -98.52686464981775 0.0 0.0
-281.6014966911412 3.4088213700268857 -83.35776576025022 -98.34937853860562 0.0 0.0
-420.1367983353694 -3.0834471946312654 -131.57561987953338 -82.42036896064778 0.0 0.0
-556.3354972299009 -31.752325632878268 -219.92799026478045 -67.04128307006212 0.0 0.0
-665.009949445209 -54.53215989732889 -322.1718634925876 -65.4424122730436 0.0 0.0
-747.3656660660909 -70.26168304937585 -396.96657315468684 -65.57709155543128 0.0 0.0
-818.6360553546323 -83.98014292898353 -447.74185251123697 -66.99872899024496 0.0 0.0
-882.3525670042247 -97.43290700976874 -488.1020332745511 -68.09172400633233 0.0 0.0
-943.5692827643742 -114.2136334625519 -527.454986898392 -67.87091582971517 0.0 0.0
-1005.496290984499 -135.81944117652378 -569.2742023884313 -66.66188967664108 0.0 0.0
-1067.5594563135094 -161.71028272618304 -613.2918037334769 -65.02276786822385 0.0 0.0
-1127.63470786802 -187.63294685256946 -656.3098656026092 -63.284525709769255 0.0 0.0
-1182.8598089463824 -211.6828539174508 -695.9692416468941 -61.22756042498839 0.0 0.0
-1224.925847772718 -224.8933949641409 -723.7739796843952 -59.2755875134086 0.0 0.0
-1227.3417437439457 -201.55298507073314 -713.7213132135707 -59.34239189065214 0.0 0.0
-1150.0285373097765 -105.10964060881892 -627.3448392812404 -63.11221381668832 0.0 0.0
-987.3946220731696 65.87511693460203 -460.91211284955114 -69.86652501608579 0.0 0.0
-761.3128882949774 283.0160745717612 -239.42025911493715 -80.30008146952375 0.0 0.0
-3532.7012391198964 -2535.0364448242144 -3023.3837106955157 -4.1035619346985186e-11 0.0 0.0
-761.312888295528 283.0160745710921 -239.42025911525621 80.30008146973874 0.0 0.0
-987.3946220732378 65.87511693445938 -460.91211284974247 69.86652501614664 0.0 0.0
-1150.0285373093368 -105.109640608491 -627.3448392808712 63.11221381684612 0.0 0.0
-1227.3417437442783 -201.55298507120816 -713.7213132138544 59.34239189075148 0.0 0.0
-1224.9258477710655 -224.89339496259436 -723.7739796832373 59.27558751341859 0.0 0.0
-1182.8598089460036 -211.6828539172231 -695.9692416466395 61.22756042495489 0.0 0.0
-1127.6347078675217 -187.63294685227163 -656.3098656022473 63.28452570973616 0.0 0.0
-1067.5594563137915 -161.71028272671015 -613.2918037336913 65.022767868372 0.0 0.0
-1005.4962909840216 -135.81944117626577 -569.2742023881352 66.66188967653933 0.0 0.0
-943.5692827647445 -114.21363346320092 -527.454986898686 67.87091582980162 0.0 0.0
-882.3525670035652 -97.43290700937435 -488.10203327412626 68.09172400621962 0.0 0.0
-818.636055354383 -83.98014292902343 -447.74185251106877 66.99872899025316 0.0 0.0
-747.3656660656319 -70.26168304926442 -396.96657315430383 65.57709155539247 0.0 0.0
-665.0099494449706 -54.53215989752576 -322.1718634922643 65.44241227318305 0.0 0.0
-556.335497229367 -31.752325632821798 -219.92799026433835 67.04128307008749 0.0 0.0
-420.13679833441313 -3.0834471939123476 -131.57561987900849 82.42036896074823 0.0 0.0
-281.6014966909212 3.4088213698905574 -83.35776576024965 98.3493785384537 0.0 0.0
-169.4997490628229 -2.4859024093606847 -51.595915919359044 98.52686464968961 0.0 0.0
-82.7879296257642 -37.71322200096644 -36.1503454880192 69.5949282451927 0.0 0.0
-38.20704451514981 -39.06143181497002 -23.18054289903595 37.67253227733788 0.0 0.0
-35.722469157381134 -19.13583741545691 -16.45749197185141 -24.45777850665732 0.0 0.0
-85.01073372676558 -26.262767575577953 -33.382050390703064 -47.09441471988837 0.0 0.0
-183.7069056182484 -1.2239063847405371 -55.479243600896666 -69.12375654544118 0.0 0.0
-316.13168505781175 -1.7285637492046466 -95.14301052697124 -67.9617511497991 0.0 0.0
-470.70562353324976 -16.57365820981723 -157.85602189785442 -51.79211274238288 0.0 0.0
-603.8389688916363 -41.07885617033722 -256.30436713719473 -43.91273099224853 0.0 0.0
-697.5906092487567 -60.7337219648305 -352.2493559411379 -43.66840237932186 0.0 0.0
-781.3541573475927 -78.08320525672389 -421.96391001471403 -44.580189302369604 0.0 0.0
-854.6976826297731 -95.4487461211748 -472.677919800323 -45.91915824174762 0.0 0.0
-921.755547885217 -112.42800598177536 -515.8000735290526 -47.010025648161985 0.0 0.0
-986.8390646421814 -132.6465951052015 -558.706365652759 -47.13183549617826 0.0 0.0
-1052.0606947946267 -157.50645656913804 -603.7970435001877 -46.43327992971257 0.0 0.0
-1117.396221780173 -185.34639795936874 -650.4081043178868 -45.47346643191739 0.0 0.0
-1179.1286602323198 -213.38725353106702 -695.3207247003492 -44.33741395324206 0.0 0.0
-1233.6826475241019 -236.19966959232207 -734.0288641839934 -42.798578183900084 0.0 0.0
-1274.8063209562936 -248.06727614526474 -760.5953659565846 -40.53195595707345 0.0 0.0
-1290.0831049278092 -237.2563140423526 -763.0647546167723 -38.51763196441338 0.0 0.0
-1237.8894581655118 -164.57485431488357 -701.1529473997382 -40.44234275166845 0.0 0.0
-1040.580191745707 42.91905255325193 -499.2506134154427 -49.97090078970733 0.0 0.0
-737.2715068216912 338.72790260973045 -199.5926898840904 -66.87772961828945 0.0 0.0
-3698.7614152123238 -2663.1332289410857 -3172.4168236414284 3.3804070653786766e-11 0.0 0.0
-737.2715068220647 338.7279026092857 -199.59268988433183 66.87772961844111 0.0 0.0
-1040.580191745244 42.91905255365735 -499.2506134151621 49.97090078978507 0.0 0.0
-1237.8894581659456 -164.57485431540562 -701.1529474000139 40.442342751759526 0.0 0.0
-1290.0831049272138 -237.25631404185566 -763.0647546163599 38.51763196433881 0.0 0.0
-1274.8063209547029 -248.06727614375748 -760.5953659553876 40.53195595695286 0.0 0.0
-1233.6826475235328 -236.19966959196572 -734.028864183531 42.79857818396791 0.0 0.0
-1179.1286602310845 -213.3872535299569 -695.3207246994384 44.337413953160535 0.0 0.0
-1117.3962217799592 -185.3463979594144 -650.4081043178128 45.473466432000684 0.0 0.0
-1052.0606947939277 -157.50645656865268 -603.7970434997151 46.43327992967745 0.0 0.0
-986.8390646425296 -132.64659510581293 -558.706365652998 47.131835496134485 0.0 0.0
-921.7555478846622 -112.42800598148648 -515.8000735287005 47.01002564811263 0.0 0.0
-854.6976826301961 -95.44874612192856 -472.6779198005481 45.91915824185541 0.0 0.0
-781.3541573467853 -78.08320525622685 -421.96391001412997 44.58018930225657 0.0 0.0
-697.5906092480934 -60.733721964483536 -352.2493559405478 43.66840237934976 0.0 0.0
-603.8389688911221 -41.07885617023414 -256.30436713671645 43.912730992301015 0.0 0.0
-470.7056235326062 -16.57365820952517 -157.8560218974898 51.79211274235121 0.0 0.0
-316.1316850572973 -1.7285637487837975 -95.14301052671051 67.96175114961238 0.0 0.0
-183.7069056179507 -1.2239063846686018 -55.479243600785765 69.12375654536774 0.0 0.0
-85.01073372651253 -26.262767575464498 -33.38205039059311 47.09441471999253 0.0 0.0
-35.72246915720308 -19.135837415413484 -16.457491971784965 24.457778506514927 0.0 0.0
-32.34575093692625 -10.8082663327412 -12.946205180900234 -13.79267384096881 0.0 0.0
-82.77254404511216 -17.055282915162636 -29.948348088082433 -23.596578078605397 0.0 0.0
-195.76472931934723 -1.0883598420079021 -59.05592674840652 -33.670680293461345 0.0 0.0
-352.560943441665 -6.695064345452606 -107.86960530270161 -32.08196471203683 0.0 0.0
-520.3945469852501 -27.786665356479972 -185.95679433658822 -23.279877948234112 0.0 0.0
-638.3953391932896 -47.92332546171215 -288.39826043786354 -22.608036506649665 0.0 0.0
-726.6444632522158 -64.73294771271142 -376.12425031748336 -23.43709579665776 0.0 0.0
-810.5574212361228 -86.42731545905335 -443.3018513860469 -23.893677932385753 0.0 0.0
-886.6731631720921 -107.08723277745622 -495.1423643992416 -24.506052606498052 0.0 0.0
-957.4540518367173 -128.0245885903579 -541.7870030792637 -25.205485019386032 0.0 0.0
-1026.123415812903 -151.4364342006022 -588.04292427543 -25.509569945660377 0.0 0.0
-1094.7855550939798 -178.5637917562333 -635.989519422717 -25.41572927307445 0.0 0.0
-1162.7502086554025 -209.33163950256946 -685.3750812295821 -25.032332927069152 0.0 0.0
-1226.607643469814 -238.2989663539506 -731.8118048334966 -24.500875373216566 0.0 0.0
-1279.2741146672633 -258.8739764396695 -768.4757149109951 -23.649088330985172 0.0 0.0
-1314.458929420842 -264.86719887423095 -789.1283509073686 -22.00558400743436 0.0 0.0
-1329.6229150016545 -254.2821588807609 -791.4604791129309 -19.479371476651806 0.0 0.0
-1323.0616480626127 -226.67818579566546 -774.5211310364407 -18.420620635905408 0.0 0.0
-1209.7879057897708 -100.34170914954703 -655.3936191211307 -26.211575510019223 0.0 0.0
-714.9659831002166 391.1154957381997 -162.56385684889287 -50.218962634370136 0.0 0.0
-3654.1296509319413 -2582.5109972472765 -3111.8181935321095 -4.915001738936553e-11 0.0 0.0
-714.9659831004178 391.11549573796844 -162.56385684904413 50.218962634201645 0.0 0.0
-1209.787905788924 -100.34170914877338 -655.3936191206317 26.21157551010411 0.0 0.0
-1323.0616480641002 -226.678185797264 -774.5211310374928 18.420620636006245 0.0 0.0
-1329.622915001361 -254.28215888057878 -791.4604791129066 19.479371476666074 0.0 0.0
-1314.4589294206767 -264.86719887420844 -789.1283509072076 22.00558400744448 0.0 0.0
-1279.2741146664923 -258.87397643905814 -768.4757149104405 23.649088331116502 0.0 0.0
-1226.607643469579 -238.29896635390165 -731.8118048332157 24.500875373194667 0.0 0.0
-1162.7502086551006 -209.33163950249178 -685.3750812295098 25.0323329270813 0.0 0.0
-1094.7855550934348 -178.56379175592232 -635.9895194223122 25.415729273210477 0.0 0.0
-1026.1234158122445 -151.4364342001911 -588.0429242749534 25.50956994548496 0.0 0.0
-957.4540518373107 -128.02458859124678 -541.7870030796004 25.20548501936765 0.0 0.0
-886.6731631725568 -107.08723277824213 -495.142364399498 24.506052606575807 0.0 0.0
-810.557421235741 -86.4273154589917 -443.30185138575894 23.89367793234934 0.0 0.0
-726.6444632517554 -64.73294771256252 -376.1242503170631 23.437095796575456 0.0 0.0
-638.3953391923442 -47.92332546110153 -288.3982604371104 22.608036506782263 0.0 0.0
-520.3945469849776 -27.78666535658402 -185.95679433638912 23.27987794810745 0.0 0.0
-352.5609434411109 -6.695064345001443 -107.86960530242355 32.08196471195479 0.0 0.0
-195.76472931921882 -1.0883598420841345 -59.05592674839088 33.670680293441976 0.0 0.0
-82.77254404502433 -17.055282915081374 -29.94834808803171 23.596578078620244 0.0 0.0
-32.345750936984565 -10.808266332771991 -12.946205180926965 13.792673840910476 0.0 0.0
-21.04056017687237 -5.487941989579577 -7.958550649935582 -8.466907927512027 0.0 0.0
-72.03800890928584 -9.732742962890148 -24.531225561652793 -9.805505616650237 0.0 0.0
-204.92986035840022 -3.0591051268730354 -62.39668964558195 -11.207802781707123 0.0 0.0
-396.73993084614506 -23.674767153617807 -127.85621607694372 -8.001213723995518 0.0 0.0
-589.4693438895627 -72.39665322146745 -233.53171125797232 -0.0745828645536939 0.0 0.0
-729.5717343832109 -121.25592278869769 -365.02538853645325 1.3506669266276994 0.0 0.0
-851.8944288418577 -175.0263343771905 -485.5166292392478 0.6843593195509463 0.0 0.0
-981.2911620762827 -243.70187454281762 -597.3784834172342 -0.7784696953726993 0.0 0.0
-1117.7319198693453 -325.5134145331591 -709.8121574082136 -2.421723870308263 0.0 0.0
-1269.7970721983875 -427.4789719264295 -837.4676045023705 -4.163691668339061 0.0 0.0
-1443.3126261556629 -555.087627453361 -987.9093277293042 -5.805460486945552 0.0 0.0
-1638.8104091070174 -709.2154659023598 -1162.350385789341 -7.1189669784405964 0.0 0.0
-1850.5848057558276 -882.7197732171827 -1354.5670221266275 -7.995501481186874 0.0 0.0
-2068.5103378003473 -1065.3158412228968 -1554.4869584441763 -8.706335856415969 0.0 0.0
-2276.339308929844 -1240.6935460367679 -1745.8533803103737 -9.061340683856425 0.0 0.0
-2451.6295593559994 -1386.6940849200057 -1906.4092112808476 -8.773017622357102 0.0 0.0
-2567.6154355845224 -1477.3012713196895 -2009.7429346551392 -7.423323608396775 0.0 0.0
-2610.4740555922026 -1499.5431921403974 -2042.0206369015307 -5.797296532995009 0.0 0.0
-2657.0749640741783 -1531.5874926792228 -2079.9801009214316 -12.018764980188884 0.0 0.0
-2724.7608537881806 -1597.8246321704266 -2144.37874929943 -39.85016894037142 0.0 0.0
-6183.816638149752 -5084.310402649608 -5609.846872447043 3.3097080631705467e-11 0.0 0.0
-2724.7608537872684 -1597.8246321695465 -2144.3787492986994 39.850168940337284 0.0 0.0
-2657.074964072278 -1531.5874926773595 -2079.98010092023 12.01876498024626 0.0 0.0
-2610.474055592784 -1499.5431921411118 -2042.0206369017037 5.797296533012613 0.0 0.0
-2567.615435584001 -1477.3012713192713 -2009.7429346547642 7.423323608480093 0.0 0.0
-2451.6295593558584 -1386.6940849200366 -1906.4092112805251 8.773017622269386 0.0 0.0
-2276.33930892883 -1240.6935460358982 -1745.853380309513 9.061340683930766 0.0 0.0
-2068.510337799649 -1065.3158412224097 -1554.486958443233 8.706335856357878 0.0 0.0
-1850.5848057550425 -882.7197732166112 -1354.5670221259008 7.99550148105396 0.0 0.0
-1638.810409106116 -709.2154659017367 -1162.3503857884464 7.118966978713022 0.0 0.0
-1443.3126261539533 -555.0876274518837 -987.9093277279799 5.80546048679772 0.0 0.0
-1269.7970721988552 -427.4789719272117 -837.4676045024622 4.163691668280066 0.0 0.0
-1117.7319198688276 -325.51341453295476 -709.8121574077467 2.4217238702705117 0.0 0.0
-981.2911620759894 -243.70187454283567 -597.3784834168989 0.7784696953279244 0.0 0.0
-851.894428841515 -175.02633437720414 -485.51662923884714 -0.6843593196480882 0.0 0.0
-729.5717343818542 -121.25592278758648 -365.02538853540807 -1.3506669264298736 0.0 0.0
-589.4693438890895 -72.39665322133537 -233.5317112575733 0.07458286442268047 0.0 0.0
-396.73993084546044 -23.674767153193187 -127.85621607660559 8.001213723911107 0.0 0.0
-204.92986035823265 -3.0591051270499854 -62.39668964558474 11.207802781605478 0.0 0.0
-72.03800890917574 -9.732742962839628 -24.531225561604604 9.805505616568265 0.0 0.0
-21.040560176698627 -5.487941989476147 -7.95855064985243 8.466907927556402 0.0 0.0
SCALARS Strain float 6
LOOKUP_TABLE default
0.014485962799465426 -0.02411795989943054 0.0 -0.0014021818887352037 0.0 0.0
0.008898660803723079 -0.0026357145090548113 0.0 -0.007330152860792231 0.0 0.0
0.0026366217951010033 -0.0006203592925618745 0.0 -0.0008659178508035085 0.0 0.0
0.0022475357901613285 -0.0008949446859376935 0.0 7.50493081303755e-06 0.0 0.0
0.0033139651368944553 -0.0014484292962422805 0.0 0.00018584785801452298 0.0 0.0
0.0056456113278357135 -0.0032055947845972387 0.0 0.0003434869998593011 0.0 0.0
0.00968626822808775 -0.006655601643816046 0.0 0.00045628801880907594 0.0 0.0
0.015770834353877824 -0.012127836934203017 0.0 0.000496090781440386 0.0 0.0
0.024165192975246476 -0.019859914340347878 0.0 0.00046254128468052087 0.0 0.0
0.03496808001660558 -0.029894477258882918 0.0 0.00032775492524274964 0.0 0.0
0.0481112583679794 -0.04212844896942592 0.0 0.00012509687484392267 0.0 0.0
0.06342964101604438 -0.05639378618177966 0.0 -0.0001393914578838569 0.0 0.0
0.08071650311399625 -0.07251831147986373 0.0 -0.0004894846032023781 0.0 0.0
0.09975097044067427 -0.09032430098716462 0.0 -0.0008785981893792184 0.0 0.0
0.12022486662432591 -0.10955971306858092 0.0 -0.001336481396423735 0.0 0.0
0.14159314030089787 -0.12974272210643353 0.0 -0.001846173123188219 0.0 0.0
0.16297332105163165 -0.1500552628301412 0.0 -0.0023070494764441916 0.0 0.0
0.18313976475756044 -0.16933623679480841 0.0 -0.002543723910763617 0.0 0.0
0.20064168303885682 -0.186148776019967 0.0 -0.002391549717197116 0.0 0.0
0.21370921877890475 -0.19880446805764795 0.0 -0.0027376638678912827 0.0 0.0
0.2188815917088589 -0.20403313932079536 0.0 4.342012860369948e-15 0.0 0.0
0.2137092187788749 -0.19880446805763197 0.0 0.0027376638678987594 0.0 0.0
0.20064168303879576 -0.18614877601991034 0.0 0.0023915497172050174 0.0 0.0
0.18313976475747387 -0.16933623679472679 0.0 0.002543723910768604 0.0 0.0
0.16297332105153137 -0.15005526283004883 0.0 0.002307049476444032 0.0 0.0
0.14159314030079356 -0.1297427221063313 0.0 0.0018461731231844457 0.0 0.0
0.12022486662422091 -0.1095597130684933 0.0 0.0013364813964232133 0.0 0.0
0.09975097044056962 -0.09032430098707325 0.0 0.000878598189376468 0.0 0.0
0.08071650311389317 -0.07251831147976756 0.0 0.0004894846031982003 0.0 0.0
0.06342964101594907 -0.05639378618168628 0.0 0.00013939145787912914 0.0 0.0
0.048111258367898944 -0.04212844896934851 0.0 -0.00012509687484551384 0.0 0.0
0.03496808001654149 -0.02989447725881888 0.0 -0.00032775492524478767 0.0 0.0
0.024165192975196908 -0.01985991434030733 0.0 -0.00046254128467897247 0.0 0.0
0.015770834353841752 -0.012127836934168185 0.0 -0.0004960907814392886 0.0 0.0
0.00968626822806426 -0.006655601643799698 0.0 -0.0004562880188078134 0.0 0.0
0.005645611327823388 -0.0032055947845891246 0.0 -0.00034348699985743616 0.0 0.0
0.0033139651368897 -0.0014484292962410944 0.0 -0.00018584785801556677 0.0 0.0
0.002247535790160071 -0.0008949446859378559 0.0 -7.504930812599945e-06 0.0 0.0
0.002636621795098975 -0.0006203592925614412 0.0 0.0008659178508004276 0.0 0.0
0.00889866080371672 -0.002635714509051351 0.0 0.007330152860784181 0.0 0.0
0.014485962799456811 -0.024117959899405517 0.0 0.0014021818886876761 0.0 0.0
0.01013157086945512 -0.021633578962279746 0.0 -0.0009314802555167063 0.0 0.0
0.005929879527722583 -0.0019715225542609096 0.0 -0.005984166598377737 0.0 0.0
0.0017337788878479833 -0.00047460246480756827 0.0 -0.0005491639665743278 0.0 0.0
0.001980689923483303 -0.000841550527256018 0.0 -0.00019263473949886106 0.0 0.0
0.0028514425826919824 -0.0013021133253125956 0.0 -0.00015067216920380372 0.0 0.0
0.004834319094858896 -0.002870902627059217 0.0 -0.00023035576143352584 0.0 0.0
0.008427925229802997 -0.006083127048209224 0.0 -0.0005337660265553567 0.0 0.0
0.01394621857281865 -0.011264251919402005 0.0 -0.001015058528653375 0.0 0.0
0.021602871082308593 -0.01862524459806601 0.0 -0.001692525940313648 0.0 0.0
0.031434035163707866 -0.02817694463387861 0.0 -0.002537387509733414 0.0 0.0
0.043334346822080434 -0.03979679841479012 0.0 -0.0034658885800298166 0.0 0.0
0.0571446408361661 -0.05331622255148692 0.0 -0.004413974557208936 0.0 0.0
0.0727154735952644 -0.0685867241492646 0.0 -0.0053927189092113905 0.0 0.0
0.08987899848204987 -0.08546219909651438 0.0 -0.006407823891393754 0.0 0.0
0.10836959640925577 -0.10370919419129519 0.0 -0.007429273646584865 0.0 0.0
0.12771553641941222 -0.12288317714574795 0.0 -0.008365948068003533 0.0 0.0
0.14714353710551079 -0.14222760071489393 0.0 -0.008982176076477139 0.0 0.0
0.16556445582787319 -0.16065018779326917 0.0 -0.008942258174848864 0.0 0.0
0.18155111988559458 -0.17674630145972406 0.0 -0.008057842510441641 0.0 0.0
0.1930318190640352 -0.18866187775656051 0.0 -0.007010007253470665 0.0 0.0
0.19732943175407897 -0.19363498814699734 0.0 6.746339598073803e-15 0.0 0.0
0.19303181906400743 -0.18866187775653784 0.0 0.007010007253490303 0.0 0.0
0.1815511198855401 -0.1767463014596672 0.0 0.008057842510463466 0.0 0.0
0.1655644558277974 -0.16065018779319706 0.0 0.00894225817486102 0.0 0.0
0.14714353710542225 -0.14222760071480536 0.0 0.008982176076480105 0.0 0.0
0.12771553641931835 -0.12288317714564911 0.0 0.008365948067999104 0.0 0.0
0.10836959640916079 -0.10370919419120715 0.0 0.007429273646583092 0.0 0.0
0.08987899848195588 -0.08546219909642813 0.0 0.0064078238913901735 0.0 0.0
0.07271547359517182 -0.06858672414917173 0.0 0.005392718909205601 0.0 0.0
0.05714464083608051 -0.05331622255140061 0.0 0.0044139745572023565 0.0 0.0
0.043334346822007604 -0.039796798414712155 0.0 0.003465888580022257 0.0 0.0
0.03143403516364934 -0.02817694463381916 0.0 0.0025373875097257836 0.0 0.0
0.021602871082263532 -0.01862524459802535 0.0 0.0016925259403102514 0.0 0.0
0.013946218572786113 -0.011264251919368935 0.0 0.0010150585286508133 0.0 0.0
0.008427925229782104 -0.006083127048191393 0.0 0.0005337660265533474 0.0 0.0
0.004834319094848056 -0.002870902627051075 0.0 0.00023035576143383578 0.0 0.0
0.0028514425826882957 -0.0013021133253101507 0.0 0.00015067216920256905 0.0 0.0
0.001980689923482457 -0.0008415505272558472 0.0 0.00019263473949919768 0.0 0.0
0.001733778887847766 -0.0004746024648084932 0.0 0.0005491639665748088 0.0 0.0
0.005929879527715514 -0.0019715225542571166 0.0 0.005984166598365218 0.0 0.0
0.01013157086944128 -0.021633578962253514 0.0 0.0009314802554803689 0.0 0.0
0.00743150188991051 -0.017270151914336715 0.0 -0.003955869894871017 0.0 0.0
0.00421085259440093 -0.001099252323750579 0.0 -0.0060363764781522335 0.0 0.0
0.001204581703993154 -0.00025520991708278867 0.0 -0.0004954942591838945 0.0 0.0
0.0016771324514988626 -0.0007129025178657157 0.0 -0.0004799772780034934 0.0 0.0
0.002432341203990813 -0.0010493338588856873 0.0 -0.0004896252798687256 0.0 0.0
0.004066255608937573 -0.0022415042091502137 0.0 -0.0006373664681460747 0.0 0.0
0.007185166230222955 -0.004957876635993931 0.0 -0.0012168645555656898 0.0 0.0
0.012106736939823342 -0.009542644443972995 0.0 -0.0021503537666439803 0.0 0.0
0.018985307843542444 -0.016139937718489636 0.0 -0.0034483832699811067 0.0 0.0
0.02781390664703441 -0.024711887232713812 0.0 -0.005028704478090441 0.0 0.0
0.038458866606386574 -0.0350965910271174 0.0 -0.006741423110040865 0.0 0.0
0.05076380362733191 -0.04712678228320519 0.0 -0.008454051455947052 0.0 0.0
0.06460864402205664 -0.060688704908796604 0.0 -0.010151444686318241 0.0 0.0
0.07988113410969623 -0.07569110206381778 0.0 -0.011896718494977518 0.0 0.0
0.09637463101388634 -0.09195235852093757 0.0 -0.013659902258562697 0.0 0.0
0.11369782062449287 -0.1091057474313338 0.0 -0.01525087661534738 0.0 0.0
0.13120649968670575 -0.12652146829402242 0.0 -0.016286694414169252 0.0 0.0
0.14792494024283548 -0.14324290298120199 0.0 -0.016268982668984484 0.0 0.0
0.1624230685179278 -0.15790667873635394 0.0 -0.014890096992936978 0.0 0.0
0.17285011032051387 -0.1685990796975736 0.0 -0.01217409131370481 0.0 0.0
0.17679567078578928 -0.17333937963204388 0.0 1.613119360310833e-14 0.0 0.0
0.17285011032048841 -0.1685990796975485 0.0 0.0121740913137428 0.0 0.0
0.16242306851787888 -0.157906678736302 0.0 0.014890096992973632 0.0 0.0
0.14792494024276967 -0.14324290298114192 0.0 0.01626898266900593 0.0 0.0
0.13120649968662826 -0.1265214682939454 0.0 0.01628669441417407 0.0 0.0
0.11369782062440892 -0.10910574743124345 0.0 0.015250876615340254 0.0 0.0
0.09637463101380124 -0.09195235852085784 0.0 0.013659902258556556 0.0 0.0
0.0798811341096122 -0.07569110206373822 0.0 0.011896718494973112 0.0 0.0
0.06460864402197525 -0.060688704908714544 0.0 0.01015144468630807 0.0 0.0
0.05076380362725608 -0.04712678228313013 0.0 0.008454051455935389 0.0 0.0
0.03845886660632115 -0.035096591027050136 0.0 0.006741423110028774 0.0 0.0
0.027813906646981714 -0.02471188723265928 0.0 0.00502870447807799 0.0 0.0
0.01898530784350232 -0.016139937718451763 0.0 0.0034483832699722713 0.0 0.0
0.012106736939794726 -0.009542644443944858 0.0 0.002150353766635613 0.0 0.0
0.007185166230204976 -0.00495787663597533 0.0 0.0012168645555595602 0.0 0.0
0.004066255608929237 -0.0022415042091425263 0.0 0.000637366468146055 0.0 0.0
0.0024323412039883884 -0.0010493338588834188 0.0 0.0004896252798687427 0.0 0.0
0.0016771324514985309 -0.0007129025178655397 0.0 0.0004799772780028646 0.0 0.0
0.0012045817039929704 -0.00025520991708399946 0.0 0.000495494259184326 0.0 0.0
0.004210852594393719 -0.0010992523237467783 0.0 0.006036376478137567 0.0 0.0
0.007431501889896485 -0.017270151914310358 0.0 0.0039558698948470705 0.0 0.0
0.005617161243643148 -0.013914519135620584 0.0 -0.004390869356769001 0.0 0.0
0.003110478674475142 -0.0007925860392567741 0.0 -0.005506614946792115 0.0 0.0
0.0008569338853515113 -0.00014294126333728224 0.0 -0.0007790958994331881 0.0 0.0
0.0013829817656769129 -0.0005661712223878168 0.0 -0.0007702364265831859 0.0 0.0
0.002050148588389303 -0.000856247831856305 0.0 -0.0008169502785371922 0.0 0.0
0.003360064594316227 -0.0017109770662784877 0.0 -0.0009887031969813965 0.0 0.0
0.005979910452398722 -0.0038922121427043647 0.0 -0.0016760994488510788 0.0 0.0
0.010270002979511968 -0.007841076105921939 0.0 -0.0029736239747509535 0.0 0.0
0.016340063349299883 -0.013639542277696046 0.0 -0.00474076446186152 0.0 0.0
0.02414120817555216 -0.02120383763079907 0.0 -0.0068775835308473015 0.0 0.0
0.033517121826459134 -0.030341455946696988 0.0 -0.009175371534382372 0.0 0.0
0.0443136991160657 -0.04088219169267147 0.0 -0.01146669258921535 0.0 0.0
0.056433333500139404 -0.05273512747502234 0.0 -0.013729177010397222 0.0 0.0
0.06979937696405807 -0.06585049049976818 0.0 -0.01602123734513602 0.0 0.0
0.08427465621257327 -0.08010666606262312 0.0 -0.0183205495563959 0.0 0.0
0.09956789967493744 -0.09522739179891415 0.0 -0.02041717760377039 0.0 0.0
0.11515384878558073 -0.11071274642791812 0.0 -0.021854858276544382 0.0 0.0
0.13017440484123116 -0.12573953056028034 0.0 -0.022031425820344532 0.0 0.0
0.1433403255285749 -0.13903716803528482 0.0 -0.020324897915215537 0.0 0.0
0.15305092583052726 -0.14892562022697786 0.0 -0.015859381783379443 0.0 0.0
0.1568322397315214 -0.15381992715872667 0.0 2.165542051235647e-14 0.0 0.0
0.15305092583050453 -0.14892562022695838 0.0 0.01585938178342857 0.0 0.0
0.1433403255285316 -0.13903716803524124 0.0 0.020324897915264442 0.0 0.0
0.13017440484117307 -0.1257395305602236 0.0 0.022031425820375407 0.0 0.0
0.11515384878551344 -0.11071274642785464 0.0 0.02185485827654996 0.0 0.0
0.09956789967486403 -0.09522739179883861 0.0 0.020417177603763423 0.0 0.0
0.08427465621249831 -0.08010666606254992 0.0 0.01832054955638692 0.0 0.0
0.0697993769639845 -0.06585049049969291 0.0 0.016021237345130303 0.0 0.0
0.056433333500068635 -0.05273512747495741 0.0 0.013729177010385122 0.0 0.0
0.04431369911600031 -0.04088219169260454 0.0 0.011466692589198519 0.0 0.0
0.033517121826402194 -0.030341455946644225 0.0 0.009175371534365083 0.0 0.0
0.024141208175505174 -0.021203837630750486 0.0 0.0068775835308305805 0.0 0.0
0.01634006334926386 -0.013639542277662196 0.0 0.004740764461847871 0.0 0.0
0.010270002979486999 -0.007841076105898757 0.0 0.002973623974742283 0.0 0.0
0.005979910452383683 -0.0038922121426907498 0.0 0.0016760994488441467 0.0 0.0
0.0033600645943091963 -0.0017109770662743452 0.0 0.0009887031969793784 0.0 0.0
0.0020501485883867034 -0.0008562478318549726 0.0 0.0008169502785370672 0.0 0.0
0.0013829817656762949 -0.0005661712223887321 0.0 0.0007702364265836445 0.0 0.0
0.0008569338853514627 -0.00014294126333751396 0.0 0.0007790958994300454 0.0 0.0
0.0031104786744686618 -0.0007925860392531838 0.0 0.005506614946780738 0.0 0.0
0.005617161243630411 -0.013914519135596916 0.0 0.004390869356752286 0.0 0.0
0.004261368504764113 -0.01121500633620706 0.0 -0.0039040671060694464 0.0 0.0
0.0023276242631325634 -0.0006328843818562303 0.0 -0.004912460064588825 0.0 0.0
0.0006218198994089193 -8.936065349266906e-05 0.0 -0.001172944997799098 0.0 0.0
0.001117327037290676 -0.00043061639846176796 0.0 -0.0010838695212474002 0.0 0.0
0.0017001820111778626 -0.000698049202621062 0.0 -0.0011413604943222477 0.0 0.0
0.00272866972077014 -0.001291369129938342 0.0 -0.001303079013995342 0.0 0.0
0.004838604623807441 -0.002932882974471455 0.0 -0.0019866343051181475 0.0 0.0
0.008457919660575552 -0.006183602015946746 0.0 -0.00344676331492435 0.0 0.0
0.013695927082217535 -0.011154825549347634 0.0 -0.005560981503945499 0.0 0.0
0.02044727543562159 -0.017687945787281723 0.0 -0.00807796576848986 0.0 0.0
0.028543060627886162 -0.025566549083400912 0.0 -0.010772596178218283 0.0 0.0
0.037825561497543854 -0.0346141306323281 0.0 -0.013454381348506855 0.0 0.0
0.04821508230783721 -0.04475690144984802 0.0 -0.01610331579199076 0.0 0.0
0.05967573867574301 -0.05598144616800796 0.0 -0.0187767528304763 0.0 0.0
0.07212153239299955 -0.06822145384488564 0.0 -0.021432237663225686 0.0 0.0
0.08535230626192128 -0.08128618534520174 0.0 -0.0238531988524477 0.0 0.0
0.09898120008617575 -0.09480389094944544 0.0 -0.025627408847155995 0.0 0.0
0.11231271124984007 -0.10811394791755727 0.0 -0.026103966979116794 0.0 0.0
0.12426737042923072 -0.120156972421396 0.0 -0.024248733922490624 0.0 0.0
0.13347300466854556 -0.1295026026951329 0.0 -0.018648666965758637 0.0 0.0
0.1372053495157168 -0.13473912946087424 0.0 2.3973011076261486e-14 0.0 0.0
0.13347300466852494 -0.12950260269511296 0.0 0.018648666965814242 0.0 0.0
0.12426737042919284 -0.1201569724213569 0.0 0.02424873392254573 0.0 0.0
0.11231271124979025 -0.10811394791750473 0.0 0.026103966979151884 0.0 0.0
0.09898120008611765 -0.0948038909493882 0.0 0.02562740884716276 0.0 0.0
0.08535230626185765 -0.08128618534514406 0.0 0.023853198852438477 0.0 0.0
0.07212153239293474 -0.0682214538448222 0.0 0.021432237663215753 0.0 0.0
0.05967573867567989 -0.05598144616794412 0.0 0.01877675283046645 0.0 0.0
0.04821508230777702 -0.0447569014497968 0.0 0.016103315791974375 0.0 0.0
0.03782556149748831 -0.034614130632269896 0.0 0.013454381348487782 0.0 0.0
0.028543060627837145 -0.02556654908335366 0.0 0.010772596178196857 0.0 0.0
0.020447275435580864 -0.017687945787240682 0.0 0.008077965768473345 0.0 0.0
0.013695927082187061 -0.011154825549315885 0.0 0.005560981503931995 0.0 0.0
0.008457919660554758 -0.00618360201592941 0.0 0.003446763314914692 0.0 0.0
0.004838604623795587 -0.002932882974462757 0.0 0.0019866343051119914 0.0 0.0
0.002728669720765448 -0.0012913691299352363 0.0 0.0013030790139922544 0.0 0.0
0.0017001820111763805 -0.0006980492026199406 0.0 0.0011413604943230232 0.0 0.0
0.0011173270372905172 -0.0004306163984638168 0.0 0.0010838695212477053 0.0 0.0
0.0006218198994089268 -8.936065349177271e-05 0.0 0.001172944997796202 0.0 0.0
0.0023276242631272447 -0.0006328843818533608 0.0 0.004912460064577409 0.0 0.0
0.004261368504753684 -0.011215006336186665 0.0 0.0039040671060575766 0.0 0.0
0.003197844470267353 -0.008963226935221672 0.0 -0.0032343055400499586 0.0 0.0
0.0017348551503645919 -0.0005249875495095138 0.0 -0.004336419659314817 0.0 0.0
0.0004534419962033899 -7.144375910949994e-05 0.0 -0.0015492791502439895 0.0 0.0
0.0008774037802083252 -0.0003096911046508541 0.0 -0.0013994393692633045 0.0 0.0
0.0013785656273307982 -0.000562575940078643 0.0 -0.0014608862288105163 0.0 0.0
0.0021678822847332573 -0.0009669568035124236 0.0 -0.0015910265001871835 0.0 0.0
0.0037936817883954957 -0.0021191198038994553 0.0 -0.0022221514425909703 0.0 0.0
0.006710121670429329 -0.004628195751477683 0.0 -0.003634433874183744 0.0 0.0
0.011073704151637052 -0.008716827412778018 0.0 -0.00588196187189172 0.0 0.0
0.016763462012405923 -0.014199174273194955 0.0 -0.008620566434523434 0.0 0.0
0.023567864546505536 -0.02080714023992607 0.0 -0.011525604960828037 0.0 0.0
0.031333204433167894 -0.028358428704156245 0.0 -0.01441526660572048 0.0 0.0
0.03999238398548468 -0.03679064333917056 0.0 -0.017263194780795764 0.0 0.0
0.049540177027071454 -0.0461224678163641 0.0 -0.020129340689509934 0.0 0.0
0.059951302901595976 -0.056340524657727764 0.0 -0.022974970903300952 0.0 0.0
0.07109912051477064 -0.06732770392193335 0.0 -0.025572172537282525 0.0 0.0
0.08271339127502222 -0.07882181859468616 0.0 -0.02755767468046219 0.0 0.0
0.09432199516203028 -0.09036625089154762 0.0 -0.02833305608910284 0.0 0.0
0.10512327943082966 -0.10120323780136178 0.0 -0.026662879303297114 0.0 0.0
0.11396056122524048 -0.11016180071022481 0.0 -0.020672461140114534 0.0 0.0
0.11772449064456264 -0.1158917056296829 0.0 2.5973147244062744e-14 0.0 0.0
0.11396056122522241 -0.11016180071020698 0.0 0.020672461140172474 0.0 0.0
0.10512327943079744 -0.1012032378013273 0.0 0.02666287930335709 0.0 0.0
0.09432199516198812 -0.09036625089150557 0.0 0.028333056089139684 0.0 0.0
0.08271339127497272 -0.07882181859463586 0.0 0.027557674680466125 0.0 0.0
0.07109912051471659 -0.0673277039218803 0.0 0.02557217253727116 0.0 0.0
0.059951302901541687 -0.056340524657683244 0.0 0.02297497090329076 0.0 0.0
0.04954017702701925 -0.046122467816314516 0.0 0.020129340689499967 0.0 0.0
0.039992383985434615 -0.03679064333912478 0.0 0.017263194780781983 0.0 0.0
0.03133320443312182 -0.028358428704109463 0.0 0.014415266605700278 0.0 0.0
0.023567864546465214 -0.020807140239886102 0.0 0.011525604960803244 0.0 0.0
0.016763462012372193 -0.014199174273163525 0.0 0.0086205664345039 0.0 0.0
0.011073704151611243 -0.008716827412753004 0.0 0.0058819618718774815 0.0 0.0
0.0067101216704124255 -0.0046281957514640705 0.0 0.0036344338741732055 0.0 0.0
0.0037936817883862575 -0.002119119803891047 0.0 0.0022221514425858012 0.0 0.0
0.0021678822847298893 -0.0009669568035091849 0.0 0.0015910265001853883 0.0 0.0
0.001378565627330219 -0.0005625759400783722 0.0 0.0014608862288105597 0.0 0.0
0.0008774037802080903 -0.00030969110465200783 0.0 0.0013994393692610659 0.0 0.0
0.0004534419962032168 -7.144375910858056e-05 0.0 0.0015492791502412745 0.0 0.0
0.0017348551503603192 -0.0005249875495076835 0.0 0.004336419659305377 0.0 0.0
0.0031978444702589945 -0.008963226935204559 0.0 0.0032343055400421436 0.0 0.0
0.0023528756332453597 -0.007061457232246927 0.0 -0.002616541227485079 0.0 0.0
0.0012728326603134667 -0.0004424420996302908 0.0 -0.003814767109213214 0.0 0.0
0.0003226044267754469 -6.80410000207706e-05 0.0 -0.0018602026616100819 0.0 0.0
0.0006555222428962993 -0.00020252360232468497 0.0 -0.0016917874524211727 0.0 0.0
0.001076376804653717 -0.0004341904314346676 0.0 -0.001755548393444284 0.0 0.0
0.001667522331394204 -0.0007188333776288089 0.0 -0.0018765869504086831 0.0 0.0
0.0028516156685243 -0.0014589721863154275 0.0 -0.002380883105669209 0.0 0.0
0.005073572957587938 -0.0032430471479525176 0.0 -0.0036473550120020076 0.0 0.0
0.008522864379780172 -0.006386451875455774 0.0 -0.005749233208330993 0.0 0.0
0.013117250287212312 -0.010776416455174236 0.0 -0.0084777386642972 0.0 0.0
0.018624521173203342 -0.016100967612028783 0.0 -0.011416082283535623 0.0 0.0
0.024868943949931995 -0.02215247105421005 0.0 -0.014335572243512978 0.0 0.0
0.03179877576343757 -0.028877875106195897 0.0 -0.017197069006436427 0.0 0.0
0.039436331325257916 -0.03631802996101086 0.0 -0.0200655287545726 0.0 0.0
0.04780157866917328 -0.044506292316331554 0.0 -0.022913409605655202 0.0 0.0
0.05683988209729429 -0.05339723994723989 0.0 -0.025541818558937182 0.0 0.0
0.06639240692479607 -0.0628168808064189 0.0 -0.027598077168687122 0.0 0.0
0.07620174677362963 -0.07250921412706837 0.0 -0.028623736140508622 0.0 0.0
0.08581062729151004 -0.08208952954516352 0.0 -0.027467171753514666 0.0 0.0
0.09434360343999898 -0.09072534395180246 0.0 -0.021911403450123868 0.0 0.0
0.09819879829407674 -0.0970899539335433 0.0 2.5783195023443284e-14 0.0 0.0
0.09434360343998395 -0.09072534395178534 0.0 0.021911403450184684 0.0 0.0
0.08581062729148332 -0.08208952954513722 0.0 0.0274671717535735 0.0 0.0
0.07620174677359447 -0.07250921412702915 0.0 0.028623736140545843 0.0 0.0
0.0663924069247553 -0.06281688080638327 0.0 0.02759807716869212 0.0 0.0
0.05683988209725032 -0.05339723994719005 0.0 0.025541818558924144 0.0 0.0
0.04780157866912977 -0.04450629231629141 0.0 0.02291340960564518 0.0 0.0
0.03943633132521675 -0.03631802996097175 0.0 0.02006552875456335 0.0 0.0
0.03179877576339783 -0.02887787510615647 0.0 0.01719706900642355 0.0 0.0
0.024868943949894955 -0.022152471054174963 0.0 0.014335572243493883 0.0 0.0
0.018624521173171128 -0.01610096761199758 0.0 0.011416082283511987 0.0 0.0
0.013117250287185533 -0.010776416455146216 0.0 0.008477738664276759 0.0 0.0
0.008522864379760157 -0.006386451875438193 0.0 0.005749233208318492 0.0 0.0
0.0050735729575756405 -0.0032430471479393506 0.0 0.0036473550119943054 0.0 0.0
0.0028516156685181723 -0.0014589721863097246 0.0 0.002380883105664189 0.0 0.0
0.0016675223313919044 -0.0007188333776298139 0.0 0.0018765869504070178 0.0 0.0
0.0010763768046529955 -0.0004341904314349302 0.0 0.0017555483934422055 0.0 0.0
0.0006555222428959948 -0.00020252360232442626 0.0 0.0016917874524168494 0.0 0.0
0.00032260442677533067 -6.804100002089521e-05 0.0 0.0018602026616081377 0.0 0.0
0.0012728326603100735 -0.00044244209962911743 0.0 0.0038147671092062484 0.0 0.0
0.0023528756332384846 -0.007061457232233085 0.0 0.0026165412274797096 0.0 0.0
0.0016816981847012063 -0.005462381340599768 0.0 -0.0021340027573296025 0.0 0.0
0.0009068596360654866 -0.0003806900475413491 0.0 -0.0033444062891461145 0.0 0.0
0.0002099795952355187 -6.309565376176752e-05 0.0 -0.002096096489516465 0.0 0.0
0.00044462836989479033 -0.00010706596396176292 0.0 -0.0019430479879975443 0.0 0.0
0.0007821733951406573 -0.0003018301552188698 0.0 -0.0020058332353574612 0.0 0.0
0.0012184330778618865 -0.0005202859899427316 0.0 -0.002158101423512944 0.0 0.0
0.002015754918292587 -0.0009510411767271235 0.0 -0.002508614898904574 0.0 0.0
0.0035710983587474857 -0.002071322140687743 0.0 -0.0035041995488756085 0.0 0.0
0.0061008374804332344 -0.004251435936381208 0.0 -0.005272877734430189 0.0 0.0
0.009558674493354465 -0.0074883543218765836 0.0 -0.007686234449724053 0.0 0.0
0.01374157715875862 -0.011495422378569506 0.0 -0.010422052708336819 0.0 0.0
0.018465442015566037 -0.01604144685801466 0.0 -0.0131781064341626 0.0 0.0
0.023672436852264396 -0.021065797693885287 0.0 -0.015875926996066495 0.0 0.0
0.029399197220173874 -0.02661912320389243 0.0 -0.01855834331063068 0.0 0.0
0.03571120193367006 -0.03277037821267283 0.0 -0.021228894163233956 0.0 0.0
0.04262254918883162 -0.03954395533506951 0.0 -0.02372668309298905 0.0 0.0
0.05005890423009564 -0.046853775650217803 0.0 -0.025719226823994974 0.0 0.0
0.0579549557835225 -0.05458414005719716 0.0 -0.026848165306184463 0.0 0.0
0.06623968204119395 -0.06273791881750246 0.0 -0.02643109435563327 0.0 0.0
0.07443758421404101 -0.07099496170793 0.0 -0.022223828414041025 0.0 0.0
0.07841205132124537 -0.0781331195729208 0.0 2.276911298393358e-14 0.0 0.0
0.07443758421402957 -0.07099496170791683 0.0 0.022223828414098222 0.0 0.0
0.06623968204117338 -0.062737918817482 0.0 0.026431094355690694 0.0 0.0
0.057954955783495285 -0.05458414005716423 0.0 0.026848165306216996 0.0 0.0
0.05005890423006337 -0.04685377565019456 0.0 0.02571922682399515 0.0 0.0
0.04262254918879808 -0.03954395533503093 0.0 0.023726683092976267 0.0 0.0
0.035711201933637346 -0.032770378212636786 0.0 0.021228894163223922 0.0 0.0
0.029399197220143586 -0.026619123203864982 0.0 0.01855834331062327 0.0 0.0
0.02367243685223572 -0.02106579769385864 0.0 0.015875926996053936 0.0 0.0
0.01846544201553905 -0.01604144685799032 0.0 0.013178106434145421 0.0 0.0
0.013741577158734945 -0.011495422378547344 0.0 0.010422052708316294 0.0 0.0
0.00955867449333495 -0.007488354321855484 0.0 0.007686234449704505 0.0 0.0
0.006100837480418798 -0.004251435936369859 0.0 0.005272877734419438 0.0 0.0
0.0035710983587386906 -0.002071322140680678 0.0 0.0035041995488690513 0.0 0.0
0.00201575491828849 -0.0009510411767230129 0.0 0.0025086148988997083 0.0 0.0
0.0012184330778604155 -0.0005202859899434523 0.0 0.0021581014235117833 0.0 0.0
0.0007821733951399895 -0.00030183015521865315 0.0 0.002005833235355086 0.0 0.0
0.0004446283698943316 -0.0001070659639603519 0.0 0.001943047987995231 0.0 0.0
0.00020997959523556063 -6.309565376223886e-05 0.0 0.0020960964895166056 0.0 0.0
0.0009068596360633035 -0.00038069004754071956 0.0 0.003344406289138728 0.0 0.0
0.0016816981846963892 -0.005462381340588995 0.0 0.002134002757326793 0.0 0.0
0.0011708148095766952 -0.004157886192856214 0.0 -0.0018186434834835301 0.0 0.0
0.0006186430124916521 -0.0003411954169194882 0.0 -0.0029275703207732383 0.0 0.0
9.945631089370757e-05 -4.521286138592457e-05 0.0 -0.0022614693445937115 0.0 0.0
0.0002414492987217199 -2.0607507388945296e-05 0.0 -0.002141991979764967 0.0 0.0
0.00048786954219837684 -0.0001651925249246457 0.0 -0.0022013551120110258 0.0 0.0
0.0007964898292653334 -0.00033640887934989277 0.0 -0.0024011794593013806 0.0 0.0
0.0012828726462910615 -0.0005777170062015381 0.0 -0.0026761166918340272 0.0 0.0
0.0022261853741000915 -0.0011532362771713737 0.0 -0.0032843444936649464 0.0 0.0
0.0038500158451801247 -0.002408554873766962 0.0 -0.0045339729708272 0.0 0.0
0.006151009998298646 -0.004449413512514452 0.0 -0.006358446583561622 0.0 0.0
0.008973088250059585 -0.007082965453790334 0.0 -0.008584454291255147 0.0 0.0
0.012157599304615052 -0.010099648942715578 0.0 -0.010927878843759236 0.0 0.0
0.015644147878116337 -0.013420626739433941 0.0 -0.013284283995276503 0.0 0.0
0.019468729406071444 -0.017095908231230993 0.0 -0.015623488101271846 0.0 0.0
0.023717883666697477 -0.021204521099623914 0.0 -0.01793994873385949 0.0 0.0
0.028477598473867657 -0.025832796379247937 0.0 -0.02017040300447748 0.0 0.0
0.03377359286361387 -0.031004898682682115 0.0 -0.022047573319088222 0.0 0.0
0.03963312629802497 -0.03669933322338393 0.0 -0.02315708473721169 0.0 0.0
0.04632780561768005 -0.04314458083491593 0.0 -0.023253163048838565 0.0 0.0
0.05401774786048856 -0.05074266121132443 0.0 -0.021209984161128282 0.0 0.0
0.0580928776608506 -0.05876361528543565 0.0 1.9516506466477068e-14 0.0 0.0
0.054017747860481226 -0.05074266121131744 0.0 0.021209984161177767 0.0 0.0
0.04632780561766558 -0.043144580834901504 0.0 0.023253163048892547 0.0 0.0
0.039633126298004986 -0.03669933322336947 0.0 0.023157084737236353 0.0 0.0
0.033773592863591766 -0.03100489868265814 0.0 0.022047573319084333 0.0 0.0
0.028477598473845296 -0.02583279637922967 0.0 0.020170403004465244 0.0 0.0
0.02371788366667629 -0.021204521099602167 0.0 0.01793994873384969 0.0 0.0
0.019468729406052442 -0.017095908231218242 0.0 0.015623488101265456 0.0 0.0
0.015644147878098466 -0.013420626739415221 0.0 0.013284283995268209 0.0 0.0
0.012157599304597453 -0.010099648942699877 0.0 0.010927878843741884 0.0 0.0
0.008973088250043856 -0.00708296545377216 0.0 0.00858445429123594 0.0 0.0
0.006151009998286767 -0.00444941351250889 0.0 0.006358446583545264 0.0 0.0
0.0038500158451713036 -0.002408554873758881 0.0 0.0045339729708213225 0.0 0.0
0.002226185374094688 -0.0011532362771711606 0.0 0.0032843444936602635 0.0 0.0
0.0012828726462888866 -0.0005777170061983534 0.0 0.0026761166918304793 0.0 0.0
0.000796489829264479 -0.00033640887934835727 0.0 0.0024011794592992525 0.0 0.0
0.00048786954219812476 -0.00016519252492439937 0.0 0.0022013551120086284 0.0 0.0
0.00024144929872178724 -2.0607507388743574e-05 0.0 0.002141991979761938 0.0 0.0
9.945631089331727e-05 -4.521286138594487e-05 0.0 0.0022614693445910565 0.0 0.0
0.0006186430124898683 -0.0003411954169196846 0.0 0.002927570320767859 0.0 0.0
0.0011708148095739201 -0.0041578861928480895 0.0 0.00181864348348237 0.0 0.0
0.0008057135337644133 -0.003128982186557495 0.0 -0.0016252499862531465 0.0 0.0
0.0003971829214290599 -0.000328236389963128 0.0 -0.002595984953841176 0.0 0.0
-1.5456872909748308e-05 -9.49619046480226e-06 0.0 -0.0023630821877833673 0.0 0.0
4.36457075327224e-05 5.9573194031510674e-05 0.0 -0.0022839479226582802 0.0 0.0
0.00019283895006626868 -2.8393680015303396e-05 0.0 -0.002341064627102765 0.0 0.0
0.00037774066188884863 -0.00014662158637393898 0.0 -0.0025636014683869802 0.0 0.0
0.0006254277886314581 -0.00027578786931927276 0.0 -0.0028549832265240215 0.0 0.0
0.0010513232548851632 -0.0004979790234462792 0.0 -0.003189024336708864 0.0 0.0
0.0018135156799873083 -0.0009956955401410812 0.0 -0.0037770713750276417 0.0 0.0
0.002953982685181811 -0.0018854190197820438 0.0 -0.004796107647145298 0.0 0.0
0.004382789405336513 -0.003100234411913397 0.0 -0.00625314874343548 0.0 0.0
0.005994505340792657 -0.00453457278462567 0.0 -0.007994719738368213 0.0 0.0
0.007744464357647923 -0.006133430809052484 0.0 -0.00987218624578851 0.0 0.0
0.00967008361501631 -0.007926009904657952 0.0 -0.01182076613822443 0.0 0.0
0.011852120748456398 -0.009981953727786042 0.0 -0.013827452372464806 0.0 0.0
0.014422448144278193 -0.012423367158874328 0.0 -0.015866563061875057 0.0 0.0
0.017540772755486798 -0.015405845152500583 0.0 -0.0177544387483253 0.0 0.0
0.02133945742682176 -0.019063366880103974 0.0 -0.018991669093930526 0.0 0.0
0.026134217722241528 -0.023602687428002134 0.0 -0.019090915589349375 0.0 0.0
0.03283542867349985 -0.02986965293351309 0.0 -0.018522268491549917 0.0 0.0
0.036824502258998526 -0.0386417281737928 0.0 1.4543054260851562e-14 0.0 0.0
0.03283542867349667 -0.029869652933500322 0.0 0.01852226849159302 0.0 0.0
0.02613421772223352 -0.02360268742799251 0.0 0.019090915589390748 0.0 0.0
0.02133945742680917 -0.019063366880095346 0.0 0.01899166909394806 0.0 0.0
0.01754077275547459 -0.015405845152482 0.0 0.017754438748320202 0.0 0.0
0.014422448144267597 -0.012423367158865549 0.0 0.015866563061862394 0.0 0.0
0.011852120748446788 -0.009981953727780999 0.0 0.01382745237245617 0.0 0.0
0.009670083615008727 -0.007926009904651758 0.0 0.011820766138216815 0.0 0.0
0.0077444643576403144 -0.006133430809044145 0.0 0.009872186245782627 0.0 0.0
0.005994505340784878 -0.004534572784619658 0.0 0.007994719738354939 0.0 0.0
0.004382789405330131 -0.0031002344119016013 0.0 0.006253148743423711 0.0 0.0
0.0029539826851771854 -0.001885419019776114 0.0 0.004796107647137251 0.0 0.0
0.0018135156799839482 -0.000995695540134983 0.0 0.003777071375025082 0.0 0.0
0.0010513232548827094 -0.0004979790234446574 0.0 0.003189024336706995 0.0 0.0
0.0006254277886307289 -0.00027578786931764515 0.0 0.0028549832265206874 0.0 0.0
0.00037774066188888143 -0.00014662158637334326 0.0 0.002563601468383967 0.0 0.0
0.00019283895006619417 -2.839368001582878e-05 0.0 0.0023410646271012016 0.0 0.0
4.364570753261374e-05 5.957319403064136e-05 0.0 0.002283947922654917 0.0 0.0
-1.545687290989081e-05 -9.496190464341852e-06 0.0 0.0023630821877809157 0.0 0.0
0.00039718292142804725 -0.00032823638996373977 0.0 0.0025959849538387775 0.0 0.0
0.0008057135337627181 -0.0031289821865516498 0.0 0.0016252499862520451 0.0 0.0
0.0005486767955724438 -0.002351742738168806 0.0 -0.0015171464695894238 0.0 0.0
0.00022756834998060603 -0.00032979110252667385 0.0 -0.002363806917537253 0.0 0.0
-0.0001314813102912241 3.762706548075012e-05 0.0 -0.0024086935097545783 0.0 0.0
-0.00014991073872969507 0.00013645968952158543 0.0 -0.0023668466169178776 0.0 0.0
-9.850369670145087e-05 0.00010560679835268529 0.0 -0.002419507628111405 0.0 0.0
-4.601278021555871e-05 4.824404872079223e-05 0.0 -0.0026320301675335695 0.0 0.0
-1.7056975039249787e-05 1.2770542999881094e-05 0.0 -0.002943963380875807 0.0 0.0
-5.699172787551181e-06 3.3620526066742583e-06 0.0 -0.003208969369922153 0.0 0.0
-1.3714972884346717e-06 6.54844326421344e-07 0.0 -0.003436764891021802 0.0 0.0
1.7274793875178334e-07 -9.293723011430301e-08 0.0 -0.003996226291779067 0.0 0.0
-1.0765306789304067e-06 5.348175612419101e-08 0.0 -0.0050107899336233 0.0 0.0
-1.0909653213447986e-05 9.883203340837793e-06 0.0 -0.006438292695021955 0.0 0.0
-3.154282089275185e-05 2.9828739594018976e-05 0.0 -0.008066290286181868 0.0 0.0
-4.0657949273029256e-05 4.509409048183803e-05 0.0 -0.009833909617498944 0.0 0.0
4.085458032782063e-05 -1.132150750689741e-05 0.0 -0.011745382612069038 0.0 0.0
0.0003892544651731525 -0.0002954702986397416 0.0 -0.013783623319654823 0.0 0.0
0.0013000793832901626 -0.0010734024844096354 0.0 -0.015862786500440682 0.0 0.0
0.003106902941562061 -0.002680148183501338 0.0 -0.017753486471718302 0.0 0.0
0.00602370939005253 -0.005224086006851212 0.0 -0.01913731512729125 0.0 0.0
0.010979139590158515 -0.00927337458168361 0.0 -0.020124614520522294 0.0 0.0
0.014183797760059179 -0.018553374798275128 0.0 1.1803058530546195e-14 0.0 0.0
0.010979139590158843 -0.009273374581673082 0.0 0.020124614520549908 0.0 0.0
0.006023709390050205 -0.005224086006845239 0.0 0.019137315127308374 0.0 0.0
0.003106902941559601 -0.0026801481835008033 0.0 0.017753486471718795 0.0 0.0
0.001300079383290708 -0.0010734024844085257 0.0 0.01586278650043079 0.0 0.0
0.00038925446517524404 -0.0002954702986337733 0.0 0.01378362331964236 0.0 0.0
4.0854580329746605e-05 -1.1321507511253084e-05 0.0 0.011745382612058125 0.0 0.0
-4.065794926949432e-05 4.509409048473643e-05 0.0 0.009833909617490665 0.0 0.0
-3.1542820888759275e-05 2.9828739585813788e-05 0.0 0.008066290286171153 0.0 0.0
-1.0909653210067444e-05 9.883203339570686e-06 0.0 0.006438292695011373 0.0 0.0
-1.0765306760672998e-06 5.348175650875752e-08 0.0 0.0050107899336131025 0.0 0.0
1.7274794046672013e-07 -9.293722928568795e-08 0.0 0.003996226291774436 0.0 0.0
-1.3714972874911177e-06 6.548443267732218e-07 0.0 0.003436764891020275 0.0 0.0
-5.699172787331468e-06 3.3620526080986967e-06 0.0 0.0032089693699204488 0.0 0.0
-1.705697503887136e-05 1.277054300085054e-05 0.0 0.0029439633808724954 0.0 0.0
-4.601278021480796e-05 4.8244048720851715e-05 0.0 0.0026320301675298403 0.0 0.0
-9.850369670120614e-05 0.0001056067983526095 0.0 0.0024195076281092495 0.0 0.0
-0.00014991073872962937 0.00013645968952125234 0.0 0.0023668466169163333 0.0 0.0
-0.00013148131029122918 3.7627065480000014e-05 0.0 0.0024086935097533515 0.0 0.0
0.0002275683499799017 -0.0003297911025269288 0.0 0.0023638069175344768 0.0 0.0
0.0005486767955712495 -0.00235174273816534 0.0 0.0015171464695898993 0.0 0.0
0.00037111277713514204 -0.001786925991469796 0.0 -0.0014556797613753407 0.0 0.0
0.00010118103760318743 -0.00032239124066139044 0.0 -0.0021916341760237737 0.0 0.0
-0.00024189888329979815 8.514827133660322e-05 0.0 -0.0024043481938000513 0.0 0.0
-0.00033794376978927974 0.000211589015198433 0.0 -0.0023883624328604846 0.0 0.0
-0.00038371346904279624 0.00023450160830874715 0.0 -0.002427489408113032 0.0 0.0
-0.0004663026312777918 0.00024184442763110507 0.0 -0.0026096665984268186 0.0 0.0
-0.0006588107904416827 0.0003017876418462391 0.0 -0.0028818195952359225 0.0 0.0
-0.0010624329968111012 0.00050551304350668 0.0 -0.003205113313965908 0.0 0.0
-0.0018155553783884746 0.0009966753581323261 0.0 -0.003783809641270908 0.0 0.0
-0.0029527379430021186 0.001884329590933544 0.0 -0.004795303525096788 0.0 0.0
-0.004386115788511624 0.0031021434454888055 0.0 -0.0062505636329012425 0.0 0.0
-0.006018956286416325 0.004556099640597485 0.0 -0.007998133787309741 0.0 0.0
-0.0078075521456099275 0.006194185339913052 0.0 -0.009869130355570816 0.0 0.0
-0.009745766878580028 0.008014719141788787 0.0 -0.011804652355202118 0.0 0.0
-0.011759199604871193 0.009952485996835072 0.0 -0.013829412018412056 0.0 0.0
-0.013646182571873215 0.011818022606593195 0.0 -0.01601523101134792 0.0 0.0
-0.015049844645780092 0.01326198166717735 0.0 -0.018406780301064244 0.0 0.0
-0.01553288275839321 0.01381602308712614 0.0 -0.02110625533713326 0.0 0.0
-0.014623166348539617 0.013162481979192994 0.0 -0.024060668680763262 0.0 0.0
-0.010471081725768078 0.010186015521476861 0.0 -0.02547135514847048 0.0 0.0
-0.007185611716781194 0.00016521896257037276 0.0 1.476162941882464e-14 0.0 0.0
-0.010471081725768237 0.01018601552148552 0.0 0.02547135514849505 0.0 0.0
-0.01462316634853543 0.013162481979189539 0.0 0.024060668680782583 0.0 0.0
-0.0155328827583829 0.01381602308711766 0.0 0.021106255337135914 0.0 0.0
-0.015049844645765337 0.013261981667159962 0.0 0.018406780301054766 0.0 0.0
-0.013646182571858512 0.01181802260658141 0.0 0.016015231011333605 0.0 0.0
-0.01175919960485801 0.009952485996824108 0.0 0.013829412018400454 0.0 0.0
-0.009745766878565513 0.00801471914178056 0.0 0.011804652355190865 0.0 0.0
-0.007807552145594894 0.006194185339895277 0.0 0.009869130355557552 0.0 0.0
-0.0060189562864017155 0.004556099640586545 0.0 0.0079981337872957 0.0 0.0
-0.004386115788498728 0.0031021434454807954 0.0 0.006250563632885441 0.0 0.0
-0.002952737942993149 0.001884329590925003 0.0 0.004795303525087724 0.0 0.0
-0.0018155553783833238 0.0009966753581275927 0.0 0.003783809641268174 0.0 0.0
-0.0010624329968085499 0.0005055130435045296 0.0 0.0032051133139634255 0.0 0.0
-0.0006588107904401137 0.00030178764184639356 0.0 0.0028818195952337723 0.0 0.0
-0.0004663026312764606 0.00024184442762849708 0.0 0.0026096665984236896 0.0 0.0
-0.00038371346904219304 0.00023450160830990638 0.0 0.002427489408110943 0.0 0.0
-0.00033794376978918763 0.00021158901519785606 0.0 0.0023883624328589377 0.0 0.0
-0.0002418988832997047 8.514827133622278e-05 0.0 0.0024043481937992247 0.0 0.0
0.00010118103760335608 -0.0003223912406621691 0.0 0.002191634176022823 0.0 0.0
0.0003711127771354513 -0.0017869259914675701 0.0 0.0014556797613735398 0.0 0.0
0.0002507457414924907 -0.0013522974139906828 0.0 -0.001360654198379674 0.0 0.0
7.3879096980838625e-06 -0.0002974840338613151 0.0 -0.002030738052302943 0.0 0.0
-0.00034452337405751484 0.0001284667193137196 0.0 -0.002349501065639943 0.0 0.0
-0.0005179063178761878 0.0002838382721182874 0.0 -0.00234722122783015 0.0 0.0
-0.0006602385912967717 0.00035646588511817334 0.0 -0.0023631751556114433 0.0 0.0
-0.0008763266394150693 0.00042795346968806417 0.0 -0.0024925296544335363 0.0 0.0
-0.001314537592966539 0.0006067156112780451 0.0 -0.0027316258186545457 0.0 0.0
-0.0022351483819501956 0.001160616839997856 0.0 -0.0033124940548896 0.0 0.0
-0.0038492552109369244 0.0024071345815768444 0.0 -0.004539189052022644 0.0 0.0
-0.006149173103877483 0.004447591769627384 0.0 -0.0063552936980471805 0.0 0.0
-0.008978194392940059 0.0070880503179281806 0.0 -0.008584221188596919 0.0 0.0
-0.012180878087781604 0.010121794786866277 0.0 -0.010923514089695512 0.0 0.0
-0.015697918717852345 0.01347443256106435 0.0 -0.0132421299182917 0.0 0.0
-0.019527813233892747 0.01716868872816629 0.0 -0.015521050954920904 0.0 0.0
-0.02361356176855311 0.021159680617753692 0.0 -0.01786869546132764 0.0 0.0
-0.027733927926735062 0.025244488437332364 0.0 -0.020499621956252163 0.0 0.0
-0.03147187601137079 0.029001790566098112 0.0 -0.023638543352545185 0.0 0.0
-0.03423563901748805 0.031831289179960934 0.0 -0.027392373424194396 0.0 0.0
-0.034915349111692445 0.03279052715570395 0.0 -0.03104072831088449 0.0 0.0
-0.031229107057204067 0.029701004956312872 0.0 -0.03195686037001072 0.0 0.0
-0.027916899911204815 0.017772608007526305 0.0 2.04116237800811e-14 0.0 0.0
-0.031229107057201208 0.029701004956311602 0.0 0.03195686037005311 0.0 0.0
-0.03491534911168174 0.0327905271556962 0.0 0.031040728310923124 0.0 0.0
-0.034235639017468456 0.031831289179941234 0.0 0.027392373424209658 0.0 0.0
-0.0314718760113444 0.029001790566070086 0.0 0.023638543352537678 0.0 0.0
-0.027733927926708243 0.025244488437305822 0.0 0.020499621956236867 0.0 0.0
-0.023613561768528097 0.02115968061772551 0.0 0.01786869546131296 0.0 0.0
-0.01952781323386719 0.017168688728141385 0.0 0.01552105095490625 0.0 0.0
-0.015697918717826293 0.013474432561039057 0.0 0.013242129918277019 0.0 0.0
-0.012180878087756858 0.01012179478683979 0.0 0.01092351408967609 0.0 0.0
-0.008978194392918101 0.007088050317906479 0.0 0.00858422118857367 0.0 0.0
-0.006149173103860828 0.004447591769615297 0.0 0.00635529369803004 0.0 0.0
-0.0038492552109263218 0.0024071345815691054 0.0 0.004539189052015707 0.0 0.0
-0.0022351483819441132 0.001160616839990341 0.0 0.0033124940548847513 0.0 0.0
-0.0013145375929632915 0.000606715611277111 0.0 0.002731625818650996 0.0 0.0
-0.0008763266394134848 0.0004279534696857109 0.0 0.002492529654430676 0.0 0.0
-0.0006602385912961367 0.0003564658851185985 0.0 0.0023631751556088187 0.0 0.0
-0.0005179063178759612 0.00028383827211897933 0.0 0.0023472212278281388 0.0 0.0
-0.00034452337405731025 0.00012846671931394436 0.0 0.002349501065639065 0.0 0.0
7.387909697906172e-06 -0.00029748403386179405 0.0 0.002030738052302883 0.0 0.0
0.0002507457414918664 -0.001352297413988626 0.0 0.0013606541983766124 0.0 0.0
0.00015692472236915995 -0.0009900514901610817 0.0 -0.0012116743948733227 0.0 0.0
-6.945272513684026e-05 -0.00025712213060592466 0.0 -0.001856969878421019 0.0 0.0
-0.000439031704861759 0.00016825881950532006 0.0 -0.002241953546014223 0.0 0.0
-0.0006887654373003511 0.00035147201477062296 0.0 -0.0022469471880580258 0.0 0.0
-0.0009251679006842314 0.0004694513454450007 0.0 -0.0022316065055708063 0.0 0.0
-0.0012859329772292815 0.0006077785545187435 0.0 -0.0022900280100589493 0.0 0.0
-0.0020430307742030406 0.0009828833591748688 0.0 -0.0025872066319722387 0.0 0.0
-0.0035745764250351047 0.002073316912762717 0.0 -0.003528793451003438 0.0 0.0
-0.006096673390281896 0.00424667457903123 0.0 -0.005271135003962057 0.0 0.0
-0.009558019938569098 0.007487930015088793 0.0 -0.007682687451624605 0.0 0.0
-0.013748220342402313 0.01150307502165068 0.0 -0.010423303626004734 0.0 0.0
-0.018482198098629856 0.01605902364586544 0.0 -0.013164791800665848 0.0 0.0
-0.023701689807211115 0.021096063892508118 0.0 -0.015791552881841052 0.0 0.0
-0.029420028424189594 0.026649395875759693 0.0 -0.01834739965462319 0.0 0.0
-0.035599683971331376 0.03270416125520598 0.0 -0.02102298874329379 0.0 0.0
-0.04201509285221848 0.03906124151831185 0.0 -0.024181171013213563 0.0 0.0
-0.048158121916121635 0.045223755569951056 0.0 -0.028267289623197644 0.0 0.0
-0.05308538652359432 0.05030220965677756 0.0 -0.033234145724508564 0.0 0.0
-0.0551227799355338 0.05267723107518234 0.0 -0.0377145362748141 0.0 0.0
-0.05102861430198907 0.049454230652052907 0.0 -0.03906417881030165 0.0 0.0
-0.0469042606448902 0.034700970829952875 0.0 2.214027572389199e-14 0.0 0.0
-0.05102861430198312 0.04945423065204044 0.0 0.03906417881035627 0.0 0.0
-0.05512277993551727 0.05267723107516747 0.0 0.037714536274862875 0.0 0.0
-0.05308538652356639 0.050302209656746026 0.0 0.033234145724532434 0.0 0.0
-0.048158121916085594 0.045223755569916986 0.0 0.02826728962319417 0.0 0.0
-0.04201509285218079 0.039061241518272234 0.0 0.024181171013196664 0.0 0.0
-0.03559968397129528 0.03270416125516815 0.0 0.021022988743275427 0.0 0.0
-0.02942002842415327 0.0266493958757233 0.0 0.01834739965460897 0.0 0.0
-0.023701689807174707 0.02109606389247253 0.0 0.015791552881823875 0.0 0.0
-0.01848219809859528 0.016059023645829708 0.0 0.013164791800642697 0.0 0.0
-0.01374822034237143 0.011503075021619305 0.0 0.010423303625979331 0.0 0.0
-0.009558019938544814 0.007487930015069682 0.0 0.007682687451603434 0.0 0.0
-0.0060966733902654046 0.004246674579018384 0.0 0.005271135003950066 0.0 0.0
-0.00357457642502528 0.002073316912753684 0.0 0.003528793450996469 0.0 0.0
-0.0020430307741980003 0.0009828833591696885 0.0 0.0025872066319680533 0.0 0.0
-0.00128593297722712 0.0006077785545196783 0.0 0.0022900280100570025 0.0 0.0
-0.0009251679006832144 0.00046945134544483817 0.0 0.002231606505570133 0.0 0.0
-0.0006887654372999386 0.0003514720147711131 0.0 0.0022469471880563574 0.0 0.0
-0.000439031704861493 0.00016825881950525908 0.0 0.002241953546012093 0.0 0.0
-6.945272513672025e-05 -0.00025712213060577216 0.0 0.0018569698784200463 0.0 0.0
0.00015692472236896696 -0.0009900514901596497 0.0 0.0012116743948720199 0.0 0.0
7.675198133158339e-05 -0.0006866119441915667 0.0 -0.0010391526820050195 0.0 0.0
-0.000137676181871126 -0.0002036950486366873 0.0 -0.0016575738985927428 0.0 0.0
-0.0005275798905554284 0.00020623972204115217 0.0 -0.002081997658979369 0.0 0.0
-0.0008502043890584435 0.0004136476348544539 0.0 -0.0020901294282740647 0.0 0.0
-0.0011788083100230566 0.0005707687056928104 0.0 -0.00203002860332197 0.0 0.0
-0.0017187422442299961 0.0007993605470934884 0.0 -0.002034087236863771 0.0 0.0
-0.0028697334700030063 0.0014856552176550175 0.0 -0.0024557831582142768 0.0 0.0
-0.005069726645059276 0.0032369658586497386 0.0 -0.0036597097613525406 0.0 0.0
-0.008518095919836516 0.006380890450368917 0.0 -0.005742885077330591 0.0 0.0
-0.013119074368771924 0.010778790396526133 0.0 -0.008475197684457592 0.0 0.0
-0.018631722433582347 0.016110286204997368 0.0 -0.011417203115119401 0.0 0.0
-0.0248740603383959 0.022161297098766915 0.0 -0.014313210329128512 0.0 0.0
-0.03178949604967536 0.028872171889834083 0.0 -0.017080386875660138 0.0 0.0
-0.039397063678656453 0.03628227400612488 0.0 -0.019772985748932152 0.0 0.0
-0.04768358016127353 0.04440827604097058 0.0 -0.022588171060394544 0.0 0.0
-0.05643078103254713 0.05307500047200836 0.0 -0.02600617660094007 0.0 0.0
-0.06498098316748727 0.06167275716555666 0.0 -0.030570629240864823 0.0 0.0
-0.07198170273412526 0.06890716706662828 0.0 -0.03618786767787555 0.0 0.0
-0.07504522494844063 0.07248361797360317 0.0 -0.04142323225581076 0.0 0.0
-0.07015702957003019 0.06859622804230824 0.0 -0.04338775897301459 0.0 0.0
-0.06509842564506675 0.05110553742448621 0.0 2.4060614611798314e-14 0.0 0.0
-0.07015702957001978 0.06859622804229963 0.0 0.04338775897306839 0.0 0.0
-0.07504522494841752 0.07248361797357311 0.0 0.04142323225586249 0.0 0.0
-0.07198170273409026 0.06890716706659333 0.0 0.03618786767790477 0.0 0.0
-0.06498098316744284 0.061672757165507866 0.0 0.030570629240864865 0.0 0.0
-0.05643078103249903 0.05307500047195859 0.0 0.026006176600923997 0.0 0.0
-0.04768358016122587 0.04440827604092794 0.0 0.022588171060375906 0.0 0.0
-0.03939706367860891 0.036282274006079016 0.0 0.01977298574891689 0.0 0.0
-0.03178949604962831 0.028872171889790313 0.0 0.017080386875641215 0.0 0.0
-0.024874060338351534 0.022161297098723252 0.0 0.01431321032910772 0.0 0.0
-0.01863172243354287 0.016110286204961827 0.0 0.011417203115093819 0.0 0.0
-0.013119074368740127 0.010778790396495283 0.0 0.00847519768443603 0.0 0.0
-0.008518095919813748 0.006380890450348184 0.0 0.005742885077314573 0.0 0.0
-0.005069726645045146 0.0032369658586384577 0.0 0.0036597097613427455 0.0 0.0
-0.002869733469995842 0.001485655217649033 0.0 0.0024557831582086125 0.0 0.0
-0.001718742244226811 0.0007993605470921181 0.0 0.002034087236861511 0.0 0.0
-0.0011788083100217233 0.0005707687056932169 0.0 0.0020300286033211744 0.0 0.0
-0.0008502043890577695 0.00041364763485382143 0.0 0.0020901294282726374 0.0 0.0
-0.000527579890554958 0.00020623972204151915 0.0 0.0020819976589780773 0.0 0.0
-0.0001376761818709713 -0.00020369504863680985 0.0 0.0016575738985914125 0.0 0.0
7.675198133158236e-05 -0.0006866119441906197 0.0 0.0010391526820043235 0.0 0.0
7.0115374523281385e-06 -0.0004382571052444279 0.0 -0.0008578361908736713 0.0 0.0
-0.00020000697944643354 -0.00014131256033324914 0.0 -0.0014308514809453633 0.0 0.0
-0.0006116127534795395 0.00024399476180294585 0.0 -0.0018685600573384825 0.0 0.0
-0.00100115834305299 0.00046956833705610196 0.0 -0.001876668686181852 0.0 0.0
-0.0014295496458091228 0.0006636039268106296 0.0 -0.0017657792161120522 0.0 0.0
-0.002195466284798717 0.001032525685123678 0.0 -0.0017543421310779717 0.0 0.0
-0.003800562739355703 0.0021332145573943607 0.0 -0.0022758374756500777 0.0 0.0
-0.0067034216962017674 0.004618059620364635 0.0 -0.003636369554482116 0.0 0.0
-0.011070501548585314 0.008713300264859138 0.0 -0.00587431332629908 0.0 0.0
-0.016767903442468403 0.014204503633021167 0.0 -0.00861955519266537 0.0 0.0
-0.023573809736313445 0.02081628514852693 0.0 -0.011524774035412294 0.0 0.0
-0.031322963580999674 0.028354960854920584 0.0 -0.01438335179840738 0.0 0.0
-0.03993733138819709 0.03674313943266589 0.0 -0.017130247558207384 0.0 0.0
-0.049428436718514754 0.04600943981757374 0.0 -0.019815825994423285 0.0 0.0
-0.059810791859963464 0.05619289868554124 0.0 -0.0225973205264713 0.0 0.0
-0.07086397586087165 0.06714245652903723 0.0 -0.02588211299812321 0.0 0.0
-0.0817720016631171 0.07813340479424415 0.0 -0.030298792178477633 0.0 0.0
-0.09074493560649732 0.08745370851180904 0.0 -0.036022062740315594 0.0 0.0
-0.09469188612545527 0.09207222380478607 0.0 -0.04190626934453103 0.0 0.0
-0.089043519579773 0.0874865640474404 0.0 -0.04592966884710171 0.0 0.0
-0.08315449280214661 0.06756965084249661 0.0 2.3880203370296726e-14 0.0 0.0
-0.08904351957975833 0.08748656404742787 0.0 0.045929668847155665 0.0 0.0
-0.09469188612542505 0.09207222380474832 0.0 0.04190626934458134 0.0 0.0
-0.09074493560645423 0.08745370851177155 0.0 0.03602206274034374 0.0 0.0
-0.08177200166306432 0.07813340479418829 0.0 0.030298792178479354 0.0 0.0
-0.07086397586081422 0.0671424565289787 0.0 0.025882112998112623 0.0 0.0
-0.05981079185990494 0.056192898685483036 0.0 0.022597320526456518 0.0 0.0
-0.04942843671845676 0.04600943981751496 0.0 0.01981582599440655 0.0 0.0
-0.03993733138813964 0.03674313943261258 0.0 0.017130247558188025 0.0 0.0
-0.031322963580945606 0.028354960854871804 0.0 0.01438335179838656 0.0 0.0
-0.02357380973626592 0.020816285148479594 0.0 0.011524774035386133 0.0 0.0
-0.01676790344242961 0.014204503632981029 0.0 0.008619555192644802 0.0 0.0
-0.011070501548556724 0.008713300264833995 0.0 0.005874313326284274 0.0 0.0
-0.006703421696182767 0.004618059620344796 0.0 0.0036363695544710424 0.0 0.0
-0.003800562739345317 0.002133214557388404 0.0 0.0022758374756435143 0.0 0.0
-0.002195466284794097 0.0010325256851202362 0.0 0.001754342131075386 0.0 0.0
-0.0014295496458075463 0.0006636039268110873 0.0 0.0017657792161121571 0.0 0.0
-0.0010011583430523689 0.00046956833705551974 0.0 0.0018766686861802404 0.0 0.0
-0.00061161275347913 0.00024399476180383826 0.0 0.0018685600573372374 0.0 0.0
-0.00020000697944633078 -0.00014131256033306905 0.0 0.001430851480943907 0.0 0.0
7.011537452226906e-06 -0.0004382571052438649 0.0 0.0008578361908729658 0.0 0.0
-5.197891648084043e-05 -0.00024373883364472217 0.0 -0.0006730433469145749 0.0 0.0
-0.0002560707580450213 -7.497103087745734e-05 0.0 -0.0011789150952748867 0.0 0.0
-0.0006915762132917939 0.00028199364114536425 0.0 -0.0016019726245538866 0.0 0.0
-0.0011449171493413315 0.0005189297368608456 0.0 -0.0016058814522226044 0.0 0.0
-0.0016904235299922427 0.0007565996406540426 0.0 -0.0014492720555027384 0.0 0.0
-0.002728015657286277 0.001330753763681795 0.0 -0.0014453243739160748 0.0 0.0
-0.004834516637702091 0.0029339074987203805 0.0 -0.0020204224254070724 0.0 0.0
-0.008451955479478242 0.00617568312394882 0.0 -0.003440993258727909 0.0 0.0
-0.013696394570746506 0.011155042358521834 0.0 -0.005554345030825756 0.0 0.0
-0.02045359129070693 0.017695509027761586 0.0 -0.008078707676488078 0.0 0.0
-0.028545204159037184 0.025572945117806084 0.0 -0.01076901514908193 0.0 0.0
-0.037797703043569456 0.034595466166836474 0.0 -0.013414154781332016 0.0 0.0
-0.04811692862115672 0.04466990392913155 0.0 -0.01597277873409877 0.0 0.0
-0.059492207747530806 0.05579722665855745 0.0 -0.018508448118468763 0.0 0.0
-0.07191975102611164 0.06799829176362328 0.0 -0.021089964667705047 0.0 0.0
-0.085181891839431 0.08112712752905227 0.0 -0.023905074306198832 0.0 0.0
-0.09835848281154469 0.09440225038916619 0.0 -0.027539575955701556 0.0 0.0
-0.1092588799781875 0.10575931100048062 0.0 -0.03274165791736131 0.0 0.0
-0.11418268520561442 0.11150678015257062 0.0 -0.03947929370007321 0.0 0.0
-0.10805645250444673 0.10652963562191198 0.0 -0.04711495780363474 0.0 0.0
-0.10151946642916637 0.08452936816922973 0.0 2.2173235469935548e-14 0.0 0.0
-0.10805645250442791 0.10652963562188912 0.0 0.04711495780368684 0.0 0.0
-0.11418268520557855 0.11150678015252988 0.0 0.039479293700121 0.0 0.0
-0.10925887997813702 0.10575931100043584 0.0 0.0327416579173893 0.0 0.0
-0.09835848281148296 0.09440225038910308 0.0 0.027539575955701827 0.0 0.0
-0.08518189183936341 0.08112712752898699 0.0 0.023905074306191366 0.0 0.0
-0.07191975102604287 0.06799829176355472 0.0 0.021089964667692498 0.0 0.0
-0.05949220774746239 0.055797226658486326 0.0 0.01850844811845426 0.0 0.0
-0.04811692862108915 0.0446699039290639 0.0 0.015972778734082933 0.0 0.0
-0.037797703043506166 0.034595466166779235 0.0 0.01341415478130855 0.0 0.0
-0.02854520415898138 0.02557294511774835 0.0 0.010769015149057756 0.0 0.0
-0.020453591290661016 0.017695509027716466 0.0 0.008078707676467399 0.0 0.0
-0.013696394570712495 0.011155042358490984 0.0 0.005554345030812407 0.0 0.0
-0.008451955479455172 0.006175683123925293 0.0 0.0034409932587185854 0.0 0.0
-0.004834516637688697 0.0029339074987083822 0.0 0.002020422425400993 0.0 0.0
-0.0027280156572801304 0.0013307537636779523 0.0 0.0014453243739135694 0.0 0.0
-0.0016904235299903523 0.0007565996406553863 0.0 0.001449272055503525 0.0 0.0
-0.0011449171493408267 0.0005189297368597877 0.0 0.0016058814522218801 0.0 0.0
-0.000691576213291345 0.00028199364114580704 0.0 0.0016019726245524325 0.0 0.0
-0.00025607075804474693 -7.49710308776086e-05 0.0 0.0011789150952742616 0.0 0.0
-5.1978916480497195e-05 -0.0002437388336443821 0.0 0.0006730433469131653 0.0 0.0
-9.767226050526751e-05 -0.00010322577795369864 0.0 -0.0004897429196067739 0.0 0.0
-0.0003031442968956588 -1.0158697333572696e-05 0.0 -0.0009047340671863276 0.0 0.0
-0.0007663813400360152 0.00031921820525317553 0.0 -0.0012808599253804032 0.0 0.0
-0.0012853731486248807 0.0005622722664621516 0.0 -0.0012749619595813287 0.0 0.0
-0.0019734277608087847 0.0008638360299897164 0.0 -0.0010832153304093954 0.0 0.0
-0.0033302595828195005 0.0017142279565643815 0.0 -0.0010897362984061004 0.0 0.0
-0.005970010986894297 0.0038865830412240414 0.0 -0.0016913217550316663 0.0 0.0
-0.010269029018781961 0.007839841174241654 0.0 -0.0029647966916714983 0.0 0.0
-0.016345067529064457 0.013644351427474742 0.0 -0.004736393915888661 0.0 0.0
-0.024148125792061947 0.021212350777484845 0.0 -0.00687964365962119 0.0 0.0
-0.03351274958279709 0.030342273776546427 0.0 -0.009168811719049262 0.0 0.0
-0.0442678753782857 0.04084669550918679 0.0 -0.011423127259352298 0.0 0.0
-0.05630178400906259 0.05261666092351633 0.0 -0.013618785878612217 0.0 0.0
-0.06955660405935846 0.06561344901871195 0.0 -0.015836748237914977 0.0 0.0
-0.08396843026101553 0.07978740645199407 0.0 -0.018087849067573644 0.0 0.0
-0.09927828685086347 0.09493110040602105 0.0 -0.020270247946650912 0.0 0.0
-0.11454949910003431 0.11026426701597783 0.0 -0.022599661530269953 0.0 0.0
-0.12740886359381037 0.1236438975594106 0.0 -0.026444353953208124 0.0 0.0
-0.13365175746485838 0.13088689422888214 0.0 -0.034069087937577826 0.0 0.0
-0.12754235602551367 0.12610692187983752 0.0 -0.046684631265523045 0.0 0.0
-0.12060394716437695 0.10242170437509758 0.0 1.7786119799190203e-14 0.0 0.0
-0.12754235602549102 0.12610692187981165 0.0 0.04668463126556803 0.0 0.0
-0.13365175746481586 0.13088689422883876 0.0 0.03406908793761981 0.0 0.0
-0.12740886359375134 0.12364389755935393 0.0 0.026444353953231692 0.0 0.0
-0.11454949909996306 0.11026426701590436 0.0 0.022599661530272607 0.0 0.0
-0.09927828685078627 0.09493110040595248 0.0 0.020270247946647318 0.0 0.0
-0.0839684302609368 0.07978740645191702 0.0 0.018087849067562736 0.0 0.0
-0.06955660405927974 0.06561344901863561 0.0 0.015836748237902095 0.0 0.0
-0.05630178400898498 0.052616660923436656 0.0 0.013618785878600704 0.0 0.0
-0.044267875378212446 0.04084669550911565 0.0 0.011423127259333362 0.0 0.0
-0.03351274958273304 0.03034227377647975 0.0 0.009168811719029096 0.0 0.0
-0.02414812579200968 0.021212350777435534 0.0 0.006879643659602504 0.0 0.0
-0.01634506752902474 0.013644351427435787 0.0 0.004736393915876449 0.0 0.0
-0.010269029018754587 0.007839841174216194 0.0 0.0029647966916624448 0.0 0.0
-0.0059700109868779105 0.0038865830412083864 0.0 0.0016913217550281316 0.0 0.0
-0.003330259582811283 0.0017142279565582268 0.0 0.0010897362984046777 0.0 0.0
-0.0019734277608057034 0.0008638360299910356 0.0 0.0010832153304111206 0.0 0.0
-0.0012853731486240647 0.0005622722664615043 0.0 0.0012749619595797753 0.0 0.0
-0.0007663813400358777 0.0003192182052527924 0.0 0.0012808599253787234 0.0 0.0
-0.0003031442968953428 -1.015869733415704e-05 0.0 0.0009047340671875052 0.0 0.0
-9.767226050474012e-05 -0.00010322577795357152 0.0 0.0004897429196053925 0.0 0.0
-0.0001252223517059432 -1.7409245383435734e-05 0.0 -0.00031795112058654527 0.0 0.0
-0.00033558644168440647 4.627533829831318e-05 0.0 -0.0006122273913585488 0.0 0.0
-0.0008334798031127864 0.00035265969190501485 0.0 -0.0008986088350907355 0.0 0.0
-0.0014295341748816002 0.0006035276562136249 0.0 -0.0008784794483978842 0.0 0.0
-0.002292732839603659 0.0010024622323218154 0.0 -0.000676865930362049 0.0 0.0
-0.004013870194954118 0.002211425810555779 0.0 -0.0006961541808494916 0.0 0.0
-0.007175297235474873 0.0049541498611654225 0.0 -0.0012198923840216396 0.0 0.0
-0.012113014425420815 0.009550211880182763 0.0 -0.0021429737939060393 0.0 0.0
-0.01899490654781584 0.01614925785071329 0.0 -0.0034465967172188504 0.0 0.0
-0.027819855688357438 0.024719888433565373 0.0 -0.005030999184575969 0.0 0.0
-0.03844604863624199 0.03508966458544168 0.0 -0.006733824465618112 0.0 0.0
-0.05070133361747601 0.04707460522774806 0.0 -0.008415766548651777 0.0 0.0
-0.064454112202223 0.06054781075410817 0.0 -0.010074096023371023 0.0 0.0
-0.07959585814525251 0.07542018486832502 0.0 -0.011799192492337584 0.0 0.0
-0.09593994824164943 0.09153212587904859 0.0 -0.01355533059542121 0.0 0.0
-0.1130919805115464 0.1085250425854301 0.0 -0.015069604001841038 0.0 0.0
-0.13016330721780967 0.12558249887063588 0.0 -0.016097643771544583 0.0 0.0
-0.14501017835443808 0.14080294383467779 0.0 -0.017786694937727693 0.0 0.0
-0.15314819190499962 0.15015436839978358 0.0 -0.024776257264759342 0.0 0.0
-0.14786702550176226 0.14667075291356996 0.0 -0.043595327721290815 0.0 0.0
-0.1409352025019722 0.12186657956638244 0.0 1.4040851814556277e-14 0.0 0.0
-0.1478670255017355 0.14667075291354129 0.0 0.043595327721325045 0.0 0.0
-0.15314819190495016 0.15015436839973687 0.0 0.024776257264794335 0.0 0.0
-0.14501017835437066 0.14080294383460792 0.0 0.017786694937746376 0.0 0.0
-0.13016330721772876 0.1255824988705581 0.0 0.016097643771543747 0.0 0.0
-0.11309198051145897 0.10852504258535133 0.0 0.015069604001836514 0.0 0.0
-0.09593994824156105 0.09153212587896303 0.0 0.013555330595416935 0.0 0.0
-0.07959585814516354 0.07542018486824262 0.0 0.011799192492328046 0.0 0.0
-0.0644541122021353 0.06054781075402091 0.0 0.010074096023363734 0.0 0.0
-0.05070133361739364 0.047074605227668986 0.0 0.008415766548638714 0.0 0.0
-0.038446048636170495 0.0350896645853678 0.0 0.006733824465601293 0.0 0.0
-0.027819855688299068 0.024719888433509363 0.0 0.0050309991845623415 0.0 0.0
-0.018994906547770453 0.01614925785066513 0.0 0.003446596717210821 0.0 0.0
-0.012113014425388625 0.009550211880154334 0.0 0.002142973793898144 0.0 0.0
-0.007175297235455305 0.004954149861149064 0.0 0.0012198923840180712 0.0 0.0
-0.004013870194944249 0.0022114258105481004 0.0 0.0006961541808488497 0.0 0.0
-0.002292732839599982 0.0010024622323207381 0.0 0.0006768659303619032 0.0 0.0
-0.0014295341748804527 0.0006035276562148691 0.0 0.0008784794483956187 0.0 0.0
-0.0008334798031115717 0.0003526596919047615 0.0 0.0008986088350897807 0.0 0.0
-0.0003355864416834762 4.6275338298335925e-05 0.0 0.000612227391359903 0.0 0.0
-0.00012522235170521777 -1.7409245383585347e-05 0.0 0.00031795112058469405 0.0 0.0
-0.00012609704741416912 1.3896602513033716e-05 0.0 -0.00017930475993259453 0.0 0.0
-0.0003433572737206933 8.380492362397865e-05 0.0 -0.0003067555150218702 0.0 0.0
-0.0008886072167111146 0.00037678918489159123 0.0 -0.0004377188438149974 0.0 0.0
-0.0015885476656709195 0.0006542964394912808 0.0 -0.00041137887343449753 0.0 0.0
-0.002666746902653195 0.001198470889296559 0.0 -0.00024306992622628854 0.0 0.0
-0.004768875497252556 0.0028194416470668235 0.0 -0.0002459371799769343 0.0 0.0
-0.008423185752432722 0.006088182429867907 0.0 -0.0005323761781169523 0.0 0.0
-0.013960762797405206 0.01128018962124274 0.0 -0.0010126413435004736 0.0 0.0
-0.02161597087544767 0.018638165354750092 0.0 -0.001692036616408219 0.0 0.0
-0.03143785224471867 0.02818332095770599 0.0 -0.0025392960273965897 0.0 0.0
-0.04331254854395696 0.0397813429953791 0.0 -0.0034610233769841524 0.0 0.0
-0.05706768971737036 0.05324901198482454 0.0 -0.004391184556095752 0.0 0.0
-0.07254454218040962 0.06842962832163443 0.0 -0.005354903659647348 0.0 0.0
-0.08956021467717444 0.08516677784785986 0.0 -0.006377617085763178 0.0 0.0
-0.10780114718223001 0.10318789957019421 0.0 -0.00741189622924893 0.0 0.0
-0.12667796992326713 0.12194106096486207 0.0 -0.008255627420068188 0.0 0.0
-0.14518123378368958 0.14043050267769894 0.0 -0.008523458681461466 0.0 0.0
-0.16161690471627396 0.15696838278648464 0.0 -0.008412116531813599 0.0 0.0
-0.17240247346191676 0.16847142699379558 0.0 -0.011915397626310522 0.0 0.0
-0.16956301256005674 0.16859018387163496 0.0 -0.032392745782358394 0.0 0.0
-0.16337136529950402 0.14467444761608125 0.0 5.757547216767023e-15 0.0 0.0
-0.1695630125600259 0.16859018387160285 0.0 0.03239274578237435 0.0 0.0
-0.17240247346185986 0.16847142699374312 0.0 0.011915397626331946 0.0 0.0
-0.1616169047161977 0.15696838278639988 0.0 0.008412116531823277 0.0 0.0
-0.14518123378359865 0.14043050267760906 0.0 0.0085234586814617 0.0 0.0
-0.1266779699231685 0.1219410609647642 0.0 0.008255627420066714 0.0 0.0
-0.107801147182131 0.10318789957009909 0.0 0.007411896229248543 0.0 0.0
-0.08956021467707556 0.08516677784776205 0.0 0.006377617085757603 0.0 0.0
-0.07254454218031178 0.06842962832153755 0.0 0.0053549036596431355 0.0 0.0
-0.057067689717279164 0.05324901198473583 0.0 0.004391184556090476 0.0 0.0
-0.043312548543878074 0.0397813429953033 0.0 0.003461023376972353 0.0 0.0
-0.03143785224465435 0.02818332095763805 0.0 0.0025392960273888975 0.0 0.0
-0.02161597087539773 0.018638165354697124 0.0 0.0016920366164046444 0.0 0.0
-0.013960762797369446 0.011280189621208452 0.0 0.0010126413434968541 0.0 0.0
-0.008423185752409664 0.0060881824298469 0.0 0.000532376178113346 0.0 0.0
-0.004768875497240636 0.002819441647059523 0.0 0.00024593717997857675 0.0 0.0
-0.0026667469026491245 0.0011984708892932225 0.0 0.00024306992622498262 0.0 0.0
-0.0015885476656697505 0.0006542964394926782 0.0 0.00041137887343356756 0.0 0.0
-0.0008886072167103814 0.00037678918489099383 0.0 0.0004377188438147456 0.0 0.0
-0.00034335727372045215 8.380492362417722e-05 0.0 0.00030675551502206316 0.0 0.0
-0.00012609704741437438 1.3896602513007321e-05 0.0 0.00017930475993183627 0.0 0.0
-8.50330619250891e-05 1.605895629231404e-05 0.0 -0.00011006980305765636 0.0 0.0
-0.0003087940917596148 9.619013689195721e-05 0.0 -0.00012747157301645307 0.0 0.0
-0.0009264656096333187 0.000385694299371608 0.0 -0.0001457014361621926 0.0 0.0
-0.0017805654845430385 0.0006840236563896251 0.0 -9.298998622227668e-05 0.0 0.0
-0.0031063559591712254 0.0013155605424332202 0.0 0.00015126040870502296 0.0 0.0
-0.005578205184144501 0.0031464990927277735 0.0 0.0003627468556081459 0.0 0.0
-0.00969170254835578 0.0066668277634391905 0.0 0.000461960809291997 0.0 0.0
-0.015792151095956775 0.012147408055884108 0.0 0.0004955597833935159 0.0 0.0
-0.024180451625445024 0.019874336641823562 0.0 0.0004616810427450972 0.0 0.0
-0.03496932734041116 0.02989984004315674 0.0 0.00032360045721596675 0.0 0.0
-0.048081353060310236 0.04210873389763356 0.0 0.00012219826210494713 0.0 0.0
-0.06334036965005752 0.056319617128460064 0.0 -0.00013613027163711985 0.0 0.0
-0.08052988423083256 0.0723541410286333 0.0 -0.00048723669182986797 0.0 0.0
-0.09939394576791746 0.09001731949298268 0.0 -0.0009037634527430394 0.0 0.0
-0.11951290173024494 0.10898712925969078 0.0 -0.0014097482050679545 0.0 0.0
-0.14010032190179933 0.12861085619068577 0.0 -0.0019162606967761172 0.0 0.0
-0.15987132093396847 0.1477620016508496 0.0 -0.0021688852436814714 0.0 0.0
-0.1770914741044268 0.16478739833515824 0.0 -0.001927529798126713 0.0 0.0
-0.18974505794128263 0.1772077728259332 0.0 -0.0036632695363808324 0.0 0.0
-0.19284928300946458 0.1799153545389484 0.0 -0.02443345035183757 0.0 0.0
-0.19103285492053973 0.15727690709404657 0.0 1.8596235662471372e-15 0.0 0.0
-0.19284928300943036 0.1799153545389192 0.0 0.0244334503518431 0.0 0.0
-0.18974505794121738 0.17720777282587769 0.0 0.0036632695363900958 0.0 0.0
-0.1770914741043394 0.1647873983350684 0.0 0.0019275297981276515 0.0 0.0
-0.1598713209338663 0.1477620016507499 0.0 0.0021688852436801617 0.0 0.0
-0.1401003219016899 0.12861085619057683 0.0 0.0019162606967734128 0.0 0.0
-0.11951290173013569 0.10898712925958706 0.0 0.0014097482050679736 0.0 0.0
-0.0993939457678087 0.090017319492878 0.0 0.0009037634527390218 0.0 0.0
-0.08052988423072441 0.07235414102852931 0.0 0.00048723669182564044 0.0 0.0
-0.06334036964995687 0.05631961712836421 0.0 0.00013613027163808522 0.0 0.0
-0.048081353060223916 0.042108733897556296 0.0 -0.0001221982621094535 0.0 0.0
-0.034969327340340854 0.029899840043083773 0.0 -0.00032360045721866165 0.0 0.0
-0.024180451625390422 0.019874336641771365 0.0 -0.00046168104274638697 0.0 0.0
-0.01579215109591725 0.012147408055845793 0.0 -0.0004955597833935562 0.0 0.0
-0.009691702548330123 0.0066668277634149824 0.0 -0.0004619608092927786 0.0 0.0
-0.0055782051841307394 0.0031464990927210423 0.0 -0.0003627468556045662 0.0 0.0
-0.0031063559591655928 0.0013155605424295972 0.0 -0.0001512604087058609 0.0 0.0
-0.0017805654845407537 0.0006840236563902349 0.0 9.298998622129536e-05 0.0 0.0
-0.0009264656096322108 0.000385694299370476 0.0 0.00014570143616087123 0.0 0.0
-0.0003087940917592124 9.619013689197233e-05 0.0 0.00012747157301538746 0.0 0.0
-8.503306192450026e-05 1.6058956292445833e-05 0.0 0.00011006980305823323 0.0 0.0
SCALARS Statev float 8
LOOKUP_TABLE default
0.0 0.019011900732444475 0.015260752049327312 -0.018141005639303986 0.002880253589976665 -0.0010704948095656142 0.0 0.0
0.0 0.006583393389044735 0.004863318503785159 -0.0030606660615071194 -0.0018026524422780396 -0.007053734444084607 0.0 0.0
0.0 0.00015337168471826732 0.00020529076548910915 -0.00012554186824404202 -7.974889724506717e-05 -0.0003345274645907191 0.0 0.0
0.0 0.00016938458466948626 8.436703295653812e-05 -6.0414181592852756e-05 -2.395285136368566e-05 2.7396219217664688e-05 0.0 0.0
0.0 0.0010612912185316396 0.0007417901378485962 -0.000544262483480475 -0.0001975276543681212 0.00015395415779404436 0.0 0.0
0.0 0.0027932890408908684 0.0027467863851023677 -0.0021887481757648978 -0.0005580382093374719 0.000320060514729082 0.0 0.0
0.0 0.0070062613131637395 0.006415160783674833 -0.005526336876930302 -0.000888823906744524 0.0004481879282827368 0.0 0.0
0.0 0.013452964863035105 0.012127350959374299 -0.010978466944579691 -0.001148884014794601 0.0005062291215240308 0.0 0.0
0.0 0.022571942861975895 0.020130066170864616 -0.018746277155393558 -0.0013837890154710507 0.0004937174330509016 0.0 0.0
0.0 0.03449775336956984 0.030515126509308044 -0.02887251625669491 -0.0016426102526131449 0.0003816883721129895 0.0 0.0
0.0 0.04913197282156561 0.04320549206226808 -0.04126028657846444 -0.001945205483803611 0.00020089097679440047 0.0 0.0
0.0 0.06595361175084949 0.05803719994381711 -0.05574253985977984 -0.0022946600840372017 -4.6235812890422774e-05 0.0 0.0
0.0 0.08509162056496516 0.0748107496449871 -0.07213055018862224 -0.0026801994563648473 -0.00038564455054519286 0.0 0.0
0.0 0.10624795242536117 0.09331925253754422 -0.0902314131136961 -0.003087839423847891 -0.0007665835464318456 0.0 0.0
0.0 0.12909451762775803 0.11327267422645405 -0.10977385897966363 -0.003498815246790312 -0.0012191350512546983 0.0 0.0
0.0 0.15307344566993963 0.13414733256945038 -0.130255154609686 -0.0038921779597644317 -0.0017272074247793475 0.0 0.0
0.0 0.17715928103616285 0.15508376875598245 -0.15083709311806676 -0.004246675637915684 -0.0021923180098887152 0.0 0.0
0.0 0.1999531706018985 0.17487978707588533 -0.17033887493626476 -0.0045409121396206035 -0.0024400269999023615 0.0 0.0
0.0 0.21977355452658892 0.19209105489734998 -0.1873212681440524 -0.004769786753297336 -0.0023022888008043083 0.0 0.0
0.0 0.23438547784781616 0.2049777300846776 -0.2000715265549909 -0.004906203529686793 -0.0026267435551111384 0.0 0.0
0.0 0.24058211524846687 0.2101651870579121 -0.20527675896039632 -0.004888428097515775 3.616031085673654e-15 0.0 0.0
0.0 0.23438547784778965 0.204977730084654 -0.20007152655496888 -0.004906203529685133 0.002626743555119151 0.0 0.0
0.0 0.21977355452652142 0.19209105489729117 -0.18732126814399383 -0.0047697867532971875 0.002302288800811716 0.0 0.0
0.0 0.19995317060180157 0.1748797870758006 -0.17033887493618183 -0.004540912139618678 0.0024400269999062564 0.0 0.0
0.0 0.1771592810360513 0.15508376875588528 -0.15083709311797205 -0.004246675637913369 0.0021923180098878114 0.0 0.0
0.0 0.1530734456698213 0.13414733256934663 -0.13025515460958415 -0.003892177959762395 0.0017272074247756796 0.0 0.0
0.0 0.12909451762764715 0.11327267422635626 -0.10977385897956965 -0.0034988152467864786 0.0012191350512542887 0.0 0.0
0.0 0.10624795242524807 0.09331925253744533 -0.09023141311359978 -0.003087839423845638 0.0007665835464309443 0.0 0.0
0.0 0.08509162056485045 0.07481074964488686 -0.07213055018852474 -0.002680199456362043 0.0003856445505416965 0.0 0.0
0.0 0.06595361175074146 0.0580371999437233 -0.05574253985968645 -0.0022946600840367624 4.6235812885911734e-05 0.0 0.0
0.0 0.04913197282147515 0.043205492062189044 -0.04126028657838715 -0.0019452054838018905 -0.000200890976797267 0.0 0.0
0.0 0.0344977533694969 0.030515126509244275 -0.028872516256632643 -0.0016426102526116747 -0.00038168837211488733 0.0 0.0
0.0 0.022571942861924887 0.020130066170819586 -0.018746277155349912 -0.0013837890154696337 -0.0004937174330508569 0.0 0.0
0.0 0.013452964862996011 0.012127350959339266 -0.01097846694454588 -0.00114888401479339 -0.0005062291215242203 0.0 0.0
0.0 0.007006261313142452 0.006415160783654884 -0.005526336876911902 -0.0008888239067429767 -0.0004481879282822325 0.0 0.0
0.0 0.0027932890408807814 0.002746786385092225 -0.0021887481757562246 -0.0005580382093360014 -0.0003200605147282566 0.0 0.0
0.0 0.0010612912185275012 0.0007417901378457395 -0.0005442624834784015 -0.0001975276543673365 -0.0001539541577933827 0.0 0.0
0.0 0.00016938458466817232 8.436703295609441e-05 -6.0414181592544287e-05 -2.3952851363549555e-05 -2.7396219217509766e-05 0.0 0.0
0.0 0.0001533716847171497 0.0002052907654881873 -0.00012554186824346658 -7.974889724472011e-05 0.00033452746458922575 0.0 0.0
0.0 0.006583393389033713 0.00486331850377938 -0.0030606660615027084 -0.0018026524422766709 0.007053734444075506 0.0 0.0
0.0 0.01901190073242323 0.015260752049313125 -0.0181410056392844 0.002880253589971263 0.0010704948095247996 0.0 0.0
0.0 0.015553767625623483 0.011691998787542518 -0.015058214084981304 0.003366215297438773 -0.0005793877072653087 0.0 0.0
0.0 0.00409426417889939 0.0029413384947779052 -0.0018325800175741029 -0.001108758477203798 -0.005602431638199528 0.0 0.0
0.0 -8.159148088993472e-05 -7.351488821188179e-05 6.697548825919175e-05 6.5393999526900916e-06 -9.187959066103616e-05 0.0 0.0
0.0 4.2101970867742593e-05 3.354253451496584e-05 -2.4206326024375355e-05 -9.336208490590474e-06 1.2597941239896772e-05 0.0 0.0
0.0 0.0006009375270736306 0.00048767235993563975 -0.00036074063690887554 -0.0001269317230267641 6.115182835444821e-05 0.0 0.0
0.0 0.0024326375604803376 0.0021294096061586797 -0.0017138007531440319 -0.00041560885301464946 5.192115436150927e-05 0.0 0.0
0.0 0.005969153158379195 0.005452072848757442 -0.0047558559477909185 -0.0006962169009665181 -0.00022821454818535575 0.0 0.0
0.0 0.011951787915557044 0.010687780090156264 -0.009816308887986158 -0.0008714712021701126 -0.0007039321389148527 0.0 0.0
0.0 0.02046100457294608 0.018073271265687 -0.017088351191576534 -0.0009849200741104598 -0.0013742052067141468 0.0 0.0
0.0 0.03151003216382085 0.02765066975591945 -0.02656921064715147 -0.0010814591087679626 -0.0022096956483263217 0.0 0.0
0.0 0.045003512856418834 0.03931063100285383 -0.03813472863974673 -0.001175902363107135 -0.003133134110121227 0.0 0.0
0.0 0.060850526851772294 0.05288868667223037 -0.05161558715209007 -0.0012730995201403234 -0.004081584897117379 0.0 0.0
0.0 0.07828984792953134 0.06823795295537476 -0.06686468733944301 -0.001373265615931652 -0.005065718604870308 0.0 0.0
0.0 0.09787091542889889 0.08519134120014601 -0.08372205590030664 -0.0014692852998394266 -0.006088614899141539 0.0 0.0
0.0 0.11900280707113625 0.10349549904742854 -0.10194502452723718 -0.0015504745201911868 -0.007119840443692515 0.0 0.0
0.0 0.14118550059575707 0.12268778790556906 -0.12108000262612789 -0.0016077852794412698 -0.00807101956577076 0.0 0.0
0.0 0.1635591512927924 0.14200151122909904 -0.14036587284798935 -0.0016356383811096161 -0.008709734711001544 0.0 0.0
0.0 0.1848565155630139 0.16034825775049327 -0.15871319819205193 -0.0016350595584413903 -0.008700342794725834 0.0 0.0
0.0 0.2033867070615823 0.17631128119101805 -0.1747122781527941 -0.0015990030382239716 -0.007846607627907391 0.0 0.0
0.0 0.2169205599138379 0.1878966628635366 -0.18643960150188998 -0.001457061361646703 -0.006797575005801319 0.0 0.0
0.0 0.2227647974590003 0.19242007592826288 -0.19118325284921764 -0.0012368230790452883 7.513087374455552e-15 0.0 0.0
0.0 0.2169205599138096 0.18789666286351106 -0.1864396015018654 -0.001457061361645569 0.006797575005821649 0.0 0.0
0.0 0.20338670706151848 0.1763112811909631 -0.17471227815273824 -0.0015990030382247505 0.00784660762792825 0.0 0.0
0.0 0.18485651556292837 0.16034825775041942 -0.15871319819197832 -0.0016350595584411333 0.00870034279473786 0.0 0.0
0.0 0.16355915129268994 0.14200151122901092 -0.1403658728479013 -0.0016356383811096489 0.00870973471100318 0.0 0.0
0.0 0.14118550059564644 0.12268778790547341 -0.12108000262603189 -0.0016077852794412644 0.008071019565765232 0.0 0.0
0.0 0.11900280707103107 0.10349549904733676 -0.10194502452714682 -0.0015504745201900584 0.0071198404436905146 0.0 0.0
0.0 0.09787091542879518 0.08519134120005595 -0.08372205590021754 -0.0014692852998383168 0.0060886148991381615 0.0 0.0
0.0 0.07828984792942463 0.06823795295528255 -0.06686468733935118 -0.0013732656159313617 0.0050657186048637705 0.0 0.0
0.0 0.060850526851673976 0.05288868667214516 -0.05161558715200484 -0.0012730995201403303 0.004081584897109982 0.0 0.0
0.0 0.045003512856332376 0.03931063100277919 -0.03813472863967227 -0.00117590236310693 0.0031331341101124986 0.0 0.0
0.0 0.03151003216375421 0.02765066975586102 -0.026569210647093635 -0.0010814591087673472 0.002209695648319977 0.0 0.0
0.0 0.020461004572898366 0.018073271265644692 -0.01708835119153488 -0.0009849200741098181 0.0013742052067102861 0.0 0.0
0.0 0.011951787915520897 0.010687780090124022 -0.009816308887954732 -0.0008714712021693064 0.0007039321389112646 0.0 0.0
0.0 0.005969153158358488 0.005452072848738505 -0.004755855947773106 -0.0006962169009653932 0.0002282145481833677 0.0 0.0
0.0 0.0024326375604698607 0.0021294096061494623 -0.0017138007531361376 -0.0004156088530133233 -5.192115436172169e-05 0.0 0.0
0.0 0.0006009375270701438 0.0004876723599331837 -0.0003607406369070606 -0.0001269317230261231 -6.115182835415567e-05 0.0 0.0
0.0 4.210197086716683e-05 3.354253451511713e-05 -2.420632602450214e-05 -9.33620849061485e-06 -1.2597941239779793e-05 0.0 0.0
0.0 -8.159148089001498e-05 -7.351488821165488e-05 6.697548825896772e-05 6.539399952686952e-06 9.187959066064674e-05 0.0 0.0
0.0 0.004094264178888366 0.0029413384947718493 -0.0018325800175697155 -0.0011087584772021342 0.005602431638188099 0.0 0.0
0.0 0.015553767625600507 0.01169199878752496 -0.015058214084959325 0.0033662152974343524 0.0005793877072346985 0.0 0.0
0.0 0.011648658414956672 0.008571467813204874 -0.011340957603115893 0.0027694897899110172 -0.0031058947167181663 0.0 0.0
0.0 0.0028412412819932694 0.0018120467013953414 -0.0010051416263255146 -0.0008069050750698306 -0.004766633734694505 0.0 0.0
0.0 -2.9815381371295316e-08 8.660428318232202e-07 -7.599883386534693e-07 -1.0605449316974672e-07 5.431271089102609e-07 0.0 0.0
0.0 -1.0796297566683693e-06 -2.923213968740711e-06 2.6117666505046284e-06 3.1144731823595814e-07 4.919677175344633e-06 0.0 0.0
0.0 0.00027404632940170764 0.00023714657594115537 -0.00017086057861349991 -6.628599732765554e-05 1.3427189611759674e-05 0.0 0.0
0.0 0.00174302821758284 0.0014738124630111948 -0.0011543437728147254 -0.00031946869019646806 -9.884632288374084e-05 0.0 0.0
0.0 0.004649446615139099 0.0043136147198097 -0.003688181009554217 -0.0006254337102554857 -0.0006486635140483846 0.0 0.0
0.0 0.010003823160507058 0.00895019228978574 -0.008129034987307125 -0.0008211573024786107 -0.0015696450212428943 0.0 0.0
0.0 0.017615616350262875 0.01556423063529819 -0.014626292472369502 -0.0009379381629286726 -0.0028517633713283407 0.0 0.0
0.0 0.027596742605553826 0.024146835521672592 -0.023118554837164657 -0.0010282806845079637 -0.004417744470781246 0.0 0.0
0.0 0.039703730548552474 0.03455964115234364 -0.03344349232242609 -0.0011161488299175058 -0.006127050093347095 0.0 0.0
0.0 0.05363187674934493 0.04664158514175623 -0.045433614225940604 -0.0012079709158156243 -0.007846800251982826 0.0 0.0
0.0 0.06958802216418915 0.06026969465731595 -0.05896727701157042 -0.0013024176457455453 -0.00955623560017395 0.0 0.0
0.0 0.08675181970245231 0.07534196331865128 -0.07394940695695364 -0.0013925563616975908 -0.011317111096439908 0.0 0.0
0.0 0.1056264354556284 0.09165439951252684 -0.0901844507753523 -0.0014699487371747006 -0.013099639263208653 0.0 0.0
0.0 0.1254881598997351 0.10882583394293151 -0.10729935321171405 -0.0015264807312173152 -0.014717194859451386 0.0 0.0
0.0 0.14561227646253147 0.1262176100498802 -0.12466014339552836 -0.00155746665435197 -0.01579149530517281 0.0 0.0
0.0 0.16486671304550068 0.14286233008254895 -0.14130557681633565 -0.0015567532662134663 -0.015822636620653124 0.0 0.0
0.0 0.1816671682598267 0.1573558474476465 -0.1558531501227229 -0.0015026973249234333 -0.014492065526956817 0.0 0.0
0.0 0.19386034780121358 0.1678310661870305 -0.1664152707977108 -0.0014157953893193529 -0.01181214694782225 0.0 0.0
0.0 0.1993694109881194 0.1720446706565812 -0.17088791453492794 -0.0011567561216532416 1.5395670849294163e-14 0.0 0.0
0.0 0.19386034780118588 0.16783106618700508 -0.1664152707976859 -0.0014157953893191328 0.01181214694785941 0.0 0.0
0.0 0.18166716825976892 0.15735584744759623 -0.15585315012267253 -0.0015026973249237902 0.01449206552699364 0.0 0.0
0.0 0.16486671304542863 0.14286233008248636 -0.14130557681627312 -0.001556753266213132 0.015822636620674155 0.0 0.0
0.0 0.14561227646244163 0.1262176100498032 -0.12466014339545152 -0.0015574666543516716 0.015791495305176335 0.0 0.0
0.0 0.12548815989963497 0.10882583394284498 -0.10729935321162734 -0.00152648073121768 0.014717194859442836 0.0 0.0
0.0 0.10562643545553353 0.0916543995124445 -0.09018445077527068 -0.0014699487371737695 0.013099639263203417 0.0 0.0
0.0 0.08675181970235842 0.07534196331856952 -0.073949406956873 -0.0013925563616965112 0.011317111096434861 0.0 0.0
0.0 0.06958802216409499 0.06026969465723495 -0.05896727701148929 -0.0013024176457456865 0.009556235600163611 0.0 0.0
0.0 0.05363187674925823 0.04664158514168139 -0.045433614225866156 -0.0012079709158151536 0.007846800251970387 0.0 0.0
0.0 0.039703730548476826 0.0345596411522779 -0.03344349232236059 -0.0011161488299173108 0.0061270500933338695 0.0 0.0
0.0 0.027596742605493486 0.02414683552161956 -0.02311855483711229 -0.0010282806845072386 0.00441774447076962 0.0 0.0
0.0 0.017615616350218945 0.015564230635259631 -0.014626292472331536 -0.0009379381629281079 0.002851763371320465 0.0 0.0
0.0 0.010003823160475149 0.008950192289757788 -0.00812903498727989 -0.0008211573024778842 0.0015696450212363963 0.0 0.0
0.0 0.004649446615119629 0.0043136147197919 -0.0036881810095376845 -0.0006254337102542159 0.0006486635140444019 0.0 0.0
0.0 0.0017430282175741278 0.0014738124630037316 -0.0011543437728086248 -0.00031946869019510663 9.884632288291066e-05 0.0 0.0
0.0 0.0002740463293992663 0.00023714657593960976 -0.0001708605786123771 -6.628599732723286e-05 -1.3427189611683329e-05 0.0 0.0
0.0 -1.0796297565212975e-06 -2.9232139684478505e-06 2.6117666502814996e-06 3.1144731816637856e-07 -4.9196771752496795e-06 0.0 0.0
0.0 -2.9815381296900306e-08 8.660428318260041e-07 -7.599883386543498e-07 -1.0605449317165515e-07 -5.431271089097477e-07 0.0 0.0
0.0 0.0028412412819844995 0.0018120467013901904 -0.0010051416263220482 -0.0008069050750681374 0.004766633734681264 0.0 0.0
0.0 0.011648658414932884 0.008571467813187232 -0.011340957603093707 0.0027694897899064653 0.0031058947166977694 0.0 0.0
0.0 0.00886513550486475 0.006356581181669204 -0.008585084800004568 0.00222850361833535 -0.003364084714767079 0.0 0.0
0.0 0.0020665247647323323 0.0012384205966646687 -0.0006702479794671889 -0.0005681726171974752 -0.0036161254734568913 0.0 0.0
0.0 0.0 0.0 0.0 0.0 0.0 0.0 0.0
0.0 -2.7407757808573323e-06 -2.8736850387037974e-06 2.2600452740239067e-06 6.136397646798882e-07 2.0638937995078275e-06 0.0 0.0
0.0 9.557630705657386e-05 7.285555084083725e-05 -4.988975365367787e-05 -2.2965797187158965e-05 8.471522366537142e-06 0.0 0.0
0.0 0.0010524021373531963 0.0009342924257374279 -0.0007122335814926052 -0.000222058844244822 -0.00017617407844288215 0.0 0.0
0.0 0.003644034715592953 0.003216883390924921 -0.002683636570191998 -0.0005332468207329248 -0.0008278016908741823 0.0 0.0
0.0 0.008106234181736647 0.007234255087149953 -0.006475881454026646 -0.0007583736331232967 -0.0021201576219695675 0.0 0.0
0.0 0.014843271146067483 0.01304458304642801 -0.01216001535748703 -0.0008845676889409771 -0.003870099798513874 0.0 0.0
0.0 0.023679459680084388 0.0206072507640093 -0.019636035855052678 -0.0009712149089566055 -0.005992703946360741 0.0 0.0
0.0 0.03431510075664552 0.02976005658724094 -0.028707875797114254 -0.0010521807901266412 -0.00829131133488685 0.0 0.0
0.0 0.04668974921804013 0.040340211719948005 -0.03920249972174743 -0.0011377119982005847 -0.01059514396516009 0.0 0.0
0.0 0.06038353568606311 0.052252969527544796 -0.051026076087514534 -0.0012268934400302735 -0.012876346325374526 0.0 0.0
0.0 0.07589523119470426 0.06542393373948294 -0.06411328908680941 -0.0013106446526735067 -0.015190174575948784 0.0 0.0
0.0 0.09236763352673819 0.07972484652081392 -0.0783411972906026 -0.0013836492302112377 -0.017517433815816025 0.0 0.0
0.0 0.10971955473825062 0.09486724664476795 -0.09342616946073193 -0.0014410771840360007 -0.01965148127717016 0.0 0.0
0.0 0.12769353669814076 0.11033338089529678 -0.10885870411669163 -0.0014746767786050275 -0.021138769580725743 0.0 0.0
0.0 0.14498017437551486 0.12528072554192105 -0.1238075508783692 -0.0014731746635517921 -0.021376189411884895 0.0 0.0
0.0 0.16015728034285007 0.13842967619353538 -0.13699939151710586 -0.001430284676429595 -0.019739993251938745 0.0 0.0
0.0 0.17134755601889 0.14815677086061257 -0.1467849223490402 -0.0013718485115727823 -0.015366494179758371 0.0 0.0
0.0 0.17686102613316804 0.1523149958010636 -0.15130505312871817 -0.0010099426723452283 2.1560010721177747e-14 0.0 0.0
0.0 0.171347556018868 0.14815677086059154 -0.14678492234901933 -0.0013718485115723825 0.015366494179807441 0.0 0.0
0.0 0.16015728034280183 0.13842967619349228 -0.13699939151706259 -0.0014302846764297085 0.019739993251986727 0.0 0.0
0.0 0.14498017437544988 0.1252807255418642 -0.12380755087831193 -0.0014731746635522711 0.021376189411912983 0.0 0.0
0.0 0.127693536698065 0.1103333808952313 -0.1088587041166272 -0.0014746767786040919 0.0211387695807303 0.0 0.0
0.0 0.10971955473816493 0.09486724664469413 -0.09342616946065767 -0.0014410771840364265 0.019651481277160952 0.0 0.0
0.0 0.09236763352665324 0.07972484652073997 -0.07834119729052942 -0.0013836492302106047 0.017517433815808066 0.0 0.0
0.0 0.07589523119461927 0.0654239337394089 -0.06411328908673605 -0.0013106446526728922 0.015190174575941368 0.0 0.0
0.0 0.060383535685984376 0.05225296952747712 -0.051026076087447504 -0.0012268934400295113 0.012876346325363093 0.0 0.0
0.0 0.0466897492179645 0.04034021171988258 -0.0392024997216822 -0.0011377119982004342 0.010595143965142235 0.0 0.0
0.0 0.03431510075658259 0.02976005658718656 -0.028707875797060224 -0.001052180790126305 0.00829131133487033 0.0 0.0
0.0 0.02367945968002983 0.020607250763962054 -0.019636035855005965 -0.0009712149089560783 0.005992703946344527 0.0 0.0
0.0 0.014843271146027605 0.01304458304639343 -0.01216001535745306 -0.0008845676889403641 0.0038700997985031166 0.0 0.0
0.0 0.008106234181710381 0.007234255087126327 -0.00647588145400389 -0.0007583736331224311 0.0021201576219613888 0.0 0.0
0.0 0.003644034715576173 0.0032168833909108274 -0.002683636570179284 -0.0005332468207315434 0.0008278016908691895 0.0 0.0
0.0 0.001052402137346725 0.0009342924257323199 -0.0007122335814885705 -0.00022205884424374923 0.00017617407844173948 0.0 0.0
0.0 9.557630705521038e-05 7.285555084022703e-05 -4.988975365326482e-05 -2.296579718696221e-05 -8.471522366388044e-06 0.0 0.0
0.0 -2.740775781234091e-06 -2.873685038709785e-06 2.2600452740285743e-06 6.136397646812312e-07 -2.063893799519028e-06 0.0 0.0
0.0 0.0 0.0 0.0 0.0 0.0 0.0 0.0
0.0 0.002066524764724879 0.0012384205966603618 -0.0006702479794643263 -0.0005681726171960363 0.0036161254734455037 0.0 0.0
0.0 0.008865135504844532 0.006356581181653492 -0.008585084799984658 0.0022285036183311594 0.0033640847147523223 0.0 0.0
0.0 0.006530518590353859 0.0046562876710944945 -0.006401905403764599 0.0017456177326701085 -0.0028930190778273723 0.0 0.0
0.0 0.0016512806497404936 0.0008161944765592795 -0.00043107282451726524 -0.00038512165204201325 -0.002606214376882806 0.0 0.0
0.0 0.0 0.0 0.0 0.0 0.0 0.0 0.0
0.0 -3.8239340650847223e-07 6.072455472723037e-08 -4.559598264645301e-08 -1.512857208077611e-08 8.032508389807042e-09 0.0 0.0
0.0 -1.1547566383253814e-05 1.783756619362473e-07 2.2739493102760234e-06 -2.4523249722122713e-06 1.7395101680985238e-05 0.0 0.0
0.0 0.0005986655684253381 0.0004991066316024438 -0.00037098119290551626 -0.00012812543869692775 -0.00016036428352464246 0.0 0.0
0.0 0.0026716396742501847 0.002228565898792999 -0.001808309520567799 -0.0004202563782251961 -0.0008555087001850973 0.0 0.0
0.0 0.0062950461248128696 0.005566252386027955 -0.0048861604435729315 -0.0006800919424550312 -0.0023151111717967343 0.0 0.0
0.0 0.012113842090760274 0.010546271273438709 -0.0097240551574126 -0.000822216116026113 -0.004421141034456254 0.0 0.0
0.0 0.019760432324762607 0.017066433857446703 -0.016158113566033836 -0.0009083202914128657 -0.006929060981329494 0.0 0.0
0.0 0.02901334769384994 0.02494603802982695 -0.02396277902850804 -0.0009832590013189113 -0.009630299156728432 0.0 0.0
0.0 0.039663947059925285 0.03402062948566318 -0.032958666917670555 -0.0010619625679926103 -0.012330321873965983 0.0 0.0
0.0 0.05166765377838752 0.04420981048592924 -0.04306520053239012 -0.0011446099535391196 -0.015002333646549851 0.0 0.0
0.0 0.06459745737072585 0.055485358954558736 -0.05426167477780261 -0.0012236841767561506 -0.01770393219101832 0.0 0.0
0.0 0.0789879809824413 0.06776114332873337 -0.06646881823203715 -0.0012923250966961838 -0.020395130611809323 0.0 0.0
0.0 0.0942727256394968 0.08084245515283289 -0.07949491427304538 -0.0013475408797874767 -0.022861455581372876 0.0 0.0
0.0 0.10976825695546163 0.09434919130579027 -0.09296447728823247 -0.001384714017557785 -0.02469235864672544 0.0 0.0
0.0 0.12505406317365372 0.10759736318083715 -0.10620490318766865 -0.0013924599931685712 -0.02523854700355063 0.0 0.0
0.0 0.13876634716291297 0.1195179185875212 -0.11815400587611924 -0.0013639127114018867 -0.023478046554706544 0.0 0.0
0.0 0.14927291438559878 0.1287224141009095 -0.12740457358843085 -0.0013178405124785327 -0.01802139441512893 0.0 0.0
0.0 0.15499427430949392 0.13296579375349854 -0.1321357761641422 -0.0008300175893563395 2.427485296108145e-14 0.0 0.0
0.0 0.1492729143855787 0.12872241410088944 -0.12740457358841062 -0.0013178405124786767 0.018021394415184355 0.0 0.0
0.0 0.13876634716287148 0.11951791858748295 -0.11815400587608092 -0.0013639127114019579 0.023478046554760396 0.0 0.0
0.0 0.1250540631735966 0.10759736318078678 -0.10620490318761747 -0.0013924599931693419 0.02523854700358371 0.0 0.0
0.0 0.10976825695539502 0.09434919130573274 -0.09296447728817556 -0.0013847140175571376 0.024692358646730958 0.0 0.0
0.0 0.09427272563942697 0.08084245515277244 -0.07949491427298516 -0.0013475408797872417 0.022861455581363696 0.0 0.0
0.0 0.07898798098236756 0.06776114332866978 -0.06646881823197355 -0.001292325096696193 0.02039513061179864 0.0 0.0
0.0 0.06459745737065281 0.055485358954495606 -0.05426167477773965 -0.0012236841767559305 0.017703932191008177 0.0 0.0
0.0 0.051667653778323136 0.0442098104858734 -0.04306520053233507 -0.001144609953538274 0.015002333646536924 0.0 0.0
0.0 0.039663947059859886 0.034020629485607044 -0.032958666917614704 -0.0010619625679923286 0.012330321873945862 0.0 0.0
0.0 0.029013347693794024 0.024946038029779214 -0.023962779028460984 -0.0009832590013182337 0.009630299156707347 0.0 0.0
0.0 0.01976043232471573 0.017066433857406686 -0.016158113565994222 -0.0009083202914124596 0.006929060981311239 0.0 0.0
0.0 0.012113842090724927 0.010546271273408195 -0.009724055157382653 -0.0008222161160255398 0.004421141034442964 0.0 0.0
0.0 0.006295046124791391 0.00556625238600924 -0.004886160443555162 -0.0006800919424540801 0.0023151111717879596 0.0 0.0
0.0 0.0026716396742374874 0.0022285658987827796 -0.001808309520559009 -0.00042025637822377086 0.0008555087001805026 0.0 0.0
0.0 0.0005986655684207416 0.0004991066315991685 -0.0003709811929030601 -0.00012812543869610848 0.00016036428352329672 0.0 0.0
0.0 -1.154756638342284e-05 1.7837566229037412e-07 2.2739493099858155e-06 -2.4523249722762447e-06 -1.7395101680333158e-05 0.0 0.0
0.0 -3.8239340639622893e-07 6.072455461977878e-08 -4.5595982563578574e-08 -1.5128572056206643e-08 -8.032508525021473e-09 0.0 0.0
0.0 0.0 0.0 0.0 0.0 0.0 0.0 0.0
0.0 0.0016512806497333285 0.0008161944765557458 -0.0004310728245149037 -0.0003851216520408403 0.002606214376873193 0.0 0.0
0.0 0.006530518590337241 0.004656287671081458 -0.006401905403747789 0.0017456177326663216 0.0028930190778171383 0.0 0.0
0.0 0.004775059136160238 0.0032949948576152205 -0.004606199091215435 0.001311204233600211 -0.002271385197103108 0.0 0.0
0.0 0.0010196290516813282 0.0005107937193708782 -0.0002621076792339501 -0.0002486860401369281 -0.001787443241697055 0.0 0.0
0.0 0.0 0.0 0.0 0.0 0.0 0.0 0.0
0.0 -3.871615968072712e-07 6.298144137881676e-08 -4.814432511179438e-08 -1.4837116267022393e-08 -1.1127826887030026e-07 0.0 0.0
0.0 -2.071831672611095e-05 -1.5702916243277893e-05 1.2761772122308095e-05 2.9411441209698015e-06 2.3829352793210215e-05 0.0 0.0
0.0 0.0002308242435061453 0.00021227183030718267 -0.00015352337870009082 -5.874845160709183e-05 -0.00010546140175050417 0.0 0.0
0.0 0.001592847211915117 0.001407877768082254 -0.001110454859385362 -0.00029742290869689327 -0.0007904478400437339 0.0 0.0
0.0 0.004868560140226439 0.00398302191134746 -0.0034098491497743856 -0.0005731727615730663 -0.0022105922697797224 0.0 0.0
0.0 0.009324277638649367 0.008101617555134964 -0.007356552204521555 -0.0007450653506134115 -0.004478411135669181 0.0 0.0
0.0 0.01592608128150575 0.013558187148118472 -0.012721260950817352 -0.000836926197301111 -0.007217408908183498 0.0 0.0
0.0 0.023724756610253476 0.02015382734669641 -0.019246378958170392 -0.000907448388526013 -0.010136793629607795 0.0 0.0
0.0 0.03264621309445949 0.027719523992270154 -0.02673994982001698 -0.0009795741722531512 -0.013050937778142644 0.0 0.0
0.0 0.04261072949176061 0.03618749474214 -0.035131683240569665 -0.0010558115015703608 -0.01592657083541093 0.0 0.0
0.0 0.053694674489922 0.045556681757025874 -0.04442834118083545 -0.001128340576190462 -0.018824457756096178 0.0 0.0
0.0 0.06563873650249753 0.05580462180544818 -0.05461172843835256 -0.001192893367095636 -0.021711778840440104 0.0 0.0
0.0 0.07833431248647023 0.06680677574790005 -0.06556035111910688 -0.0012464246287931676 -0.02436255931994974 0.0 0.0
0.0 0.09196637289910016 0.07829328285208104 -0.0770068679933989 -0.0012864148586820905 -0.026408522581909004 0.0 0.0
0.0 0.10516969015760765 0.08980342383110577 -0.08849519384513903 -0.0013082299859667914 -0.0272581761845307 0.0 0.0
0.0 0.11730011972873051 0.10055011956626014 -0.09925282675052395 -0.0012972928157362314 -0.02570149489810712 0.0 0.0
0.0 0.12734555003232936 0.1093724022041504 -0.1081149161101424 -0.0012574860940078893 -0.01989776271504049 0.0 0.0
0.0 0.13346740744386856 0.11380725082479783 -0.11318528536390457 -0.0006219654608931378 2.5275788406720068e-14 0.0 0.0
0.0 0.12734555003231326 0.10937240220413277 -0.10811491611012447 -0.0012574860940083837 0.01989776271509754 0.0 0.0
0.0 0.1173001197286962 0.10055011956622702 -0.09925282675049119 -0.0012972928157359098 0.02570149489816348 0.0 0.0
0.0 0.10516969015756138 0.08980342383106413 -0.08849519384509703 -0.0013082299859669716 0.027258176184565427 0.0 0.0
0.0 0.09196637289904208 0.07829328285203133 -0.07700686799334934 -0.0012864148586819823 0.026408522581912973 0.0 0.0
0.0 0.0783343124864086 0.06680677574784692 -0.0655603511190538 -0.0012464246287931535 0.02436255931993914 0.0 0.0
0.0 0.0656387365024406 0.055804621805398726 -0.05461172843830414 -0.0011928933670945687 0.021711778840429276 0.0 0.0
0.0 0.05369467448986392 0.045556681756975304 -0.044428341180785286 -0.0011283405761900378 0.018824457756085537 0.0 0.0
0.0 0.04261072949170505 0.03618749474209249 -0.035131683240522585 -0.001055811501569882 0.015926570835397405 0.0 0.0
0.0 0.03264621309440514 0.027719523992224115 -0.026739949819971215 -0.0009795741722528996 0.013050937778122884 0.0 0.0
0.0 0.023724756610205573 0.020153827346656477 -0.019246378958131242 -0.0009074483885252382 0.010136793629584235 0.0 0.0
0.0 0.015926081281468035 0.013558187148086476 -0.012721260950785712 -0.0008369261973007553 0.0072174089081643005 0.0 0.0
0.0 0.009324277638620572 0.008101617555110149 -0.0073565522044973086 -0.0007450653506128475 0.004478411135654765 0.0 0.0
0.0 0.004868560140207668 0.003983021911332424 -0.0034098491497603833 -0.000573172761572037 0.0022105922697708783 0.0 0.0
0.0 0.0015928472119050511 0.0014078777680742289 -0.0011104548593787096 -0.00029742290869551997 0.0007904478400386442 0.0 0.0
0.0 0.00023082424350293223 0.00021227183030502841 -0.00015352337869849026 -5.874845160653817e-05 0.00010546140174918473 0.0 0.0
0.0 -2.071831672636919e-05 -1.5702916242669294e-05 1.276177212183991e-05 2.941144120829352e-06 -2.382935279250399e-05 0.0 0.0
0.0 -3.8716159664124513e-07 6.298144138189996e-08 -4.814432511407961e-08 -1.4837116267817216e-08 1.1127826886868503e-07 0.0 0.0
0.0 0.0 0.0 0.0 0.0 0.0 0.0 0.0
0.0 0.0010196290516755542 0.0005107937193682114 -0.00026210767923217585 -0.0002486860401360348 0.0017874432416893505 0.0 0.0
0.0 0.0047750591361470805 0.003294994857604874 -0.0046061990912017545 0.0013112042335968784 0.0022713851970959822 0.0 0.0
0.0 0.0031925071663864942 0.002215032326112778 -0.003141283054410271 0.00092625072829749 -0.001695835543427457 0.0 0.0
0.0 0.0006369805535720632 0.0002790725909610994 -0.00012876038335695033 -0.00015031220760414836 -0.001115742377223984 0.0 0.0
0.0 2.9041076945466384e-07 -3.4488798683329004e-09 2.6803405111441826e-09 7.685393571887485e-10 5.864590140692222e-08 0.0 0.0
0.0 -3.9933846218285653e-07 2.3010864123224606e-08 -1.7665084308602554e-08 -5.345779814626124e-09 -7.114747973550936e-08 0.0 0.0
0.0 -1.008923967891229e-05 -6.9049695600757955e-06 5.510554036361949e-06 1.3944155237138908e-06 1.4715643730280067e-05 0.0 0.0
0.0 4.4982654890591176e-05 4.124034293506172e-05 -2.712121193904486e-05 -1.4119130996016858e-05 -1.7289431434515307e-05 0.0 0.0
0.0 0.0009106071056723585 0.0007430761656843104 -0.0005713456940732748 -0.0001717304716110359 -0.0006036513313618205 0.0 0.0
0.0 0.0030702861465708537 0.00259140997842179 -0.002153843200670024 -0.0004375667777517669 -0.0019345556528286424 0.0 0.0
0.0 0.007191672466683378 0.005745476292087635 -0.005105323239882191 -0.0006401530522054428 -0.004063018506892313 0.0 0.0
0.0 0.012024634481535467 0.010123309399571501 -0.009373123945139842 -0.0007501854544316645 -0.00683181387364548 0.0 0.0
0.0 0.01850613962811021 0.01542190517108324 -0.014600520493184034 -0.0008213846778992224 -0.009793659491443648 0.0 0.0
0.0 0.025734084841837757 0.021474780152363496 -0.020587037230992058 -0.0008877429213714548 -0.012743695652566554 0.0 0.0
0.0 0.03373711719025119 0.02822337372796204 -0.027266435513828152 -0.0009569382141338432 -0.015637321758189368 0.0 0.0
0.0 0.04258081876300811 0.03569171899262462 -0.03466822847114908 -0.0010234905214755643 -0.018540552531570116 0.0 0.0
0.0 0.052225754328037034 0.04390127068916761 -0.042818295354353615 -0.0010829753348139703 -0.021432996595468518 0.0 0.0
0.0 0.06292129860898804 0.05279644484661034 -0.05166421611153879 -0.001132228735071594 -0.024118883823449552 0.0 0.0
0.0 0.07356211574553066 0.06222067553898684 -0.06104437838368731 -0.0011762971552995848 -0.026243797974290998 0.0 0.0
0.0 0.08497855771973924 0.0719104349766722 -0.07069510022325863 -0.0012153347534134503 -0.02734355962254362 0.0 0.0
0.0 0.09603476911152756 0.0814370603741047 -0.08021123273735387 -0.0012258276367509372 -0.02630515092498613 0.0 0.0
0.0 0.10554531197114264 0.08993987453465921 -0.08874726604979413 -0.0011926084848650955 -0.02096591282929556 0.0 0.0
0.0 0.11230069189132225 0.09465796670356044 -0.09427293732058786 -0.000385029382972616 2.4020715971850848e-14 0.0 0.0
0.0 0.10554531197112989 0.08993987453464362 -0.08874726604977838 -0.0011926084848652705 0.020965912829352513 0.0 0.0
0.0 0.0960347691115018 0.08143706037407832 -0.08021123273732779 -0.0012258276367505597 0.026305150925042323 0.0 0.0
0.0 0.08497855771969967 0.07191043497663549 -0.07069510022322244 -0.0012153347534130559 0.027343559622577403 0.0 0.0
0.0 0.07356211574548599 0.06222067553894849 -0.061044378383649706 -0.0011762971552987834 0.02624379797429549 0.0 0.0
0.0 0.06292129860893361 0.05279644484656453 -0.05166421611149204 -0.001132228735072507 0.024118883823435345 0.0 0.0
0.0 0.052225754327989746 0.04390127068912605 -0.04281829535431319 -0.001082975334812861 0.021432996595456524 0.0 0.0
0.0 0.042580818762962075 0.03569171899258477 -0.03466822847110978 -0.0010234905214749834 0.018540552531559038 0.0 0.0
0.0 0.03373711719020503 0.028223373727922885 -0.027266435513789544 -0.0009569382141333577 0.015637321758175976 0.0 0.0
0.0 0.025734084841794687 0.02147478015232768 -0.02058703723095676 -0.00088774292137094 0.012743695652547623 0.0 0.0
0.0 0.018506139628071704 0.015421905171051985 -0.014600520493153331 -0.0008213846778986597 0.009793659491420345 0.0 0.0
0.0 0.012024634481503238 0.01012330939954493 -0.009373123945113662 -0.0007501854544312741 0.006831813873625413 0.0 0.0
0.0 0.007191672466659796 0.005745476292069121 -0.0051053232398646925 -0.0006401530522044237 0.004063018506879656 0.0 0.0
0.0 0.0030702861465562578 0.002591409978410045 -0.0021538432006594356 -0.00043756677775060786 0.0019345556528201724 0.0 0.0
0.0 0.0009106071056650828 0.0007430761656791725 -0.000571345694069163 -0.00017173047161000906 0.0006036513313574802 0.0 0.0
0.0 4.498265488965562e-05 4.12403429348836e-05 -2.7121211938941074e-05 -1.4119130995942692e-05 1.7289431434640973e-05 0.0 0.0
0.0 -1.008923967976261e-05 -6.904969560041923e-06 5.510554036329387e-06 1.3944155237125358e-06 -1.4715643730143372e-05 0.0 0.0
0.0 -3.9933846203843063e-07 2.3010864114477826e-08 -1.766508430182229e-08 -5.345779812654833e-09 7.114747970917023e-08 0.0 0.0
0.0 2.9041076910978675e-07 -3.44887986405181e-09 2.6803405077244864e-09 7.685393563274542e-10 -5.8645901335916544e-08 0.0 0.0
0.0 0.0006369805535674884 0.0002790725909592433 -0.0001287603833557278 -0.00015031220760351513 0.0011157423772181086 0.0 0.0
0.0 0.003192507166376101 0.00221503232610471 -0.003141283054399306 0.0009262507282945973 0.0016958355434221499 0.0 0.0
0.0 0.0024013275915928255 0.0013343018301998305 -0.0019165248024404459 0.0005822229722406145 -0.0011478807742129973 0.0 0.0
0.0 0.00025186256344961357 0.00012195577502307917 -4.1511278437388024e-05 -8.04444965856913e-05 -0.0006026224296658944 0.0 0.0
0.0 5.687735296802898e-07 2.666471610460519e-08 -2.7359452882683696e-08 6.947367780791714e-10 -5.315278289064627e-07 0.0 0.0
0.0 -7.086982173310267e-07 3.1712111705887525e-08 -2.4549190097452207e-08 -7.16292160843561e-09 -2.0018549558142582e-07 0.0 0.0
0.0 -6.3741391775738816e-06 -3.6224411717469643e-06 2.8714907725973708e-06 7.50950399149599e-07 1.2273118618757753e-05 0.0 0.0
0.0 -1.9675431401392372e-05 -1.184649089853944e-05 1.0660757323068988e-05 1.185733575470428e-06 2.883783763493961e-05 0.0 0.0
0.0 0.0003813127730420632 0.00028274632617875095 -0.00021308945324702375 -6.965687293172683e-05 -0.00035712407742731397 0.0 0.0
0.0 0.0017515074989857761 0.0014083546198529948 -0.0011354983815530662 -0.00027285623829992816 -0.0014807953810314235 0.0 0.0
0.0 0.004511107960877059 0.0036042621194895146 -0.003110672919102478 -0.0004935892003870378 -0.0033223388207440975 0.0 0.0
0.0 0.008730625693851198 0.006809971880695585 -0.0061783744736282386 -0.0006315974070673383 -0.005789620476890998 0.0 0.0
0.0 0.01338601053715585 0.010794219569139833 -0.010080659867579061 -0.0007135597015607604 -0.008580292055156716 0.0 0.0
0.0 0.018847198253391245 0.015334543654046622 -0.014555474753951273 -0.0007790689000953524 -0.011374707087572662 0.0 0.0
0.0 0.02495909365143756 0.020369614447026493 -0.019527260449109615 -0.0008423539979168617 -0.014109054487744594 0.0 0.0
0.0 0.03163990026688629 0.025938929196746646 -0.025037527775189954 -0.0009014014215566771 -0.016827933539658696 0.0 0.0
0.0 0.039094950053629784 0.03210276646424794 -0.03114703321061498 -0.0009557332536329473 -0.019541480846272066 0.0 0.0
0.0 0.04711058287000082 0.03887837762087362 -0.03787605014275978 -0.0010023274781138113 -0.022098156836991317 0.0 0.0
0.0 0.05589203386161803 0.046184301710598605 -0.04513974054622068 -0.001044561164377911 -0.024165633036294838 0.0 0.0
0.0 0.06484712046290181 0.05394330748956386 -0.0528443781298464 -0.0010989293597174225 -0.02537213237789046 0.0 0.0
0.0 0.07404106349180384 0.062108940031038465 -0.06096556335363308 -0.001143376677405377 -0.025060639569228976 0.0 0.0
0.0 0.08332671893355018 0.07024945861135373 -0.0691234963601304 -0.0011259622512233163 -0.0210713686947267 0.0 0.0
0.0 0.09103414808907563 0.07532697357778262 -0.07521220596332218 -0.0001147676144605481 2.1795933113910593e-14 0.0 0.0
0.0 0.08332671893354293 0.07024945861134199 -0.06912349636011826 -0.0011259622512236212 0.02107136869478015 0.0 0.0
0.0 0.0740410634917862 0.062108940031018224 -0.060965563353613146 -0.0011433766774051075 0.025060639569283123 0.0 0.0
0.0 0.06484712046286999 0.05394330748953432 -0.05284437812981671 -0.0010989293597176415 0.025372132377920086 0.0 0.0
0.0 0.055892033861584624 0.04618430171057011 -0.0451397405461932 -0.0010445611643768583 0.024165633036297367 0.0 0.0
0.0 0.047110582869958804 0.038878377620838726 -0.037876050142724785 -0.0010023274781140125 0.022098156836976395 0.0 0.0
0.0 0.03909495005359033 0.03210276646421431 -0.031147033210581734 -0.0009557332536325563 0.01954148084625893 0.0 0.0
0.0 0.031639900266853004 0.02593892919671827 -0.025037527775162098 -0.0009014014215561858 0.01682793353964917 0.0 0.0
0.0 0.024959093651404193 0.020369614446998835 -0.019527260449082394 -0.000842353997916425 0.014109054487732387 0.0 0.0
0.0 0.018847198253360193 0.015334543654021206 -0.014555474753926349 -0.0007790689000948591 0.011374707087555178 0.0 0.0
0.0 0.013386010537127223 0.010794219569117445 -0.010080659867557238 -0.0007135597015601905 0.008580292055136392 0.0 0.0
0.0 0.008730625693825291 0.006809971880675777 -0.006178374473608564 -0.0006315974070672127 0.005789620476871935 0.0 0.0
0.0 0.004511107960860984 0.0036042621194769435 -0.0031106729190908977 -0.0004935892003860486 0.0033223388207338084 0.0 0.0
0.0 0.0017515074989761096 0.001408354619845603 -0.0011354983815466426 -0.0002728562382989595 0.001480795381024557 0.0 0.0
0.0 0.0003813127730374543 0.0002827463261756263 -0.00021308945324461525 -6.965687293101091e-05 0.0003571240774231433 0.0 0.0
0.0 -1.9675431401769014e-05 -1.1846490897985428e-05 1.0660757322620217e-05 1.1857335753652671e-06 -2.883783763357768e-05 0.0 0.0
0.0 -6.3741391781133916e-06 -3.6224411717925647e-06 2.8714907726350718e-06 7.509503991574846e-07 -1.2273118618961468e-05 0.0 0.0
0.0 -7.086982176642505e-07 3.171211171564199e-08 -2.4549190104108556e-08 -7.162921611533331e-09 2.0018549570848156e-07 0.0 0.0
0.0 5.68773529504484e-07 2.666471613259918e-08 -2.735945291109898e-08 6.947367785002295e-10 5.315278295102719e-07 0.0 0.0
0.0 0.00025186256344652543 0.00012195577502180511 -4.151127843654143e-05 -8.044449658526395e-05 0.0006026224296612095 0.0 0.0
0.0 0.002401327591583868 0.0013343018301943325 -0.0019165248024326845 0.0005822229722383523 0.0011478807742094665 0.0 0.0
0.0 0.0012132218758494288 0.0007190451564881361 -0.001045558844309377 0.00032651368782124057 -0.0007535044802648686 0.0 0.0
0.0 7.258885578226626e-05 2.1900739501829534e-05 1.731493162431546e-05 -3.921567112614493e-05 -0.00022554834076498776 0.0 0.0
0.0 1.972274428340617e-06 -7.493462669484054e-10 1.0356415491119947e-08 -9.607069224170626e-09 5.349280641665303e-07 0.0 0.0
0.0 1.4194231546482763e-06 -6.744325950963199e-08 4.688504056310455e-08 2.05582189465273e-08 9.25680092449222e-07 0.0 0.0
0.0 -6.209037079771815e-06 -1.987857921219592e-06 1.559552737393224e-06 4.2830518382636767e-07 1.0775605530820775e-05 0.0 0.0
0.0 -2.3047841204882273e-05 -9.239164868182106e-06 7.704385460188038e-06 1.5347794079940792e-06 2.2797710385947402e-05 0.0 0.0
0.0 0.00011141108838653462 4.624539585241282e-05 -3.4178376811889725e-05 -1.2067019040523191e-05 -0.00012772242205229124 0.0 0.0
0.0 0.0008303108718913247 0.0005086488588835612 -0.0004039257024165794 -0.00010472315646698223 -0.0008784760111768891 0.0 0.0
0.0 0.0024169914221320826 0.0017378213052103865 -0.001454606694454706 -0.0002832146107556794 -0.0023152087893671593 0.0 0.0
0.0 0.005099173927731473 0.003750935907782516 -0.003306016480836437 -0.0004449194269460794 -0.004243574587212528 0.0 0.0
0.0 0.008302763961703378 0.006362553371711993 -0.005809571334330618 -0.000552982037381373 -0.006546173214453604 0.0 0.0
0.0 0.012142750094132185 0.009367282062717355 -0.008740810926263014 -0.0006264711364543311 -0.008935474197861778 0.0 0.0
0.0 0.016319546729277542 0.012694089903774053 -0.012004379781220728 -0.0006897101225533268 -0.011331940716026022 0.0 0.0
0.0 0.02089354778147474 0.01637502748118355 -0.01563204919843817 -0.0007429782827453894 -0.01370802994729607 0.0 0.0
0.0 0.02601565924128102 0.020488838059944614 -0.01969715117341796 -0.0007916868865266507 -0.01606196659197002 0.0 0.0
0.0 0.03175790732861474 0.025117778294703855 -0.024280675295559967 -0.0008371029991438791 -0.018343162921258396 0.0 0.0
0.0 0.03804950423102714 0.030285021891207766 -0.029404730376160662 -0.0008802915150470937 -0.02029681864232043 0.0 0.0
0.0 0.04466498312828794 0.036002818651129816 -0.03506778238530299 -0.0009350362658268884 -0.021498199727315304 0.0 0.0
0.0 0.052153654785918435 0.04252924875765306 -0.04151209790797062 -0.0010171508496823938 -0.021676783650686655 0.0 0.0
0.0 0.06099387633172307 0.05009703079495839 -0.04904436056221964 -0.001052670232738765 -0.019793126531930348 0.0 0.0
0.0 0.06975655184103084 0.0555913868523205 -0.055783048815386455 0.00019166196306592216 1.8544193958192068e-14 0.0 0.0
0.0 0.06099387633172332 0.050097030794952035 -0.049044360562212674 -0.0010526702327393444 0.019793126531976922 0.0 0.0
0.0 0.05215365478590811 0.04252924875763896 -0.04151209790795685 -0.001017150849682071 0.02167678365073506 0.0 0.0
0.0 0.04466498312826878 0.036002818651112364 -0.03506778238528528 -0.0009350362658270509 0.02149819972733993 0.0 0.0
0.0 0.03804950423099857 0.030285021891185204 -0.029404730376138704 -0.0008802915150465227 0.02029681864231646 0.0 0.0
0.0 0.031757907328589505 0.025117778294683736 -0.024280675295539483 -0.000837102999144219 0.018343162921245826 0.0 0.0
0.0 0.026015659241255446 0.020488838059923662 -0.019697151173397185 -0.0007916868865264778 0.01606196659195878 0.0 0.0
0.0 0.020893547781455662 0.01637502748116766 -0.015632049198422655 -0.0007429782827450255 0.013708029947289486 0.0 0.0
0.0 0.016319546729255743 0.01269408990375643 -0.012004379781203769 -0.0006897101225526553 0.011331940716015891 0.0 0.0
0.0 0.01214275009410943 0.009367282062700686 -0.008740810926246605 -0.0006264711364540718 0.00893547419784554 0.0 0.0
0.0 0.008302763961681435 0.006362553371695398 -0.005809571334314795 -0.0005529820373806005 0.006546173214435533 0.0 0.0
0.0 0.005099173927717594 0.00375093590777271 -0.003306016480827078 -0.0004449194269456323 0.004243574587201084 0.0 0.0
0.0 0.0024169914221224146 0.0017378213052034637 -0.0014546066944486195 -0.0002832146107548437 0.0023152087893594914 0.0 0.0
0.0 0.0008303108718864696 0.000508648858880326 -0.0004039257024139366 -0.00010472315646638963 0.0008784760111727993 0.0 0.0
0.0 0.00011141108838302722 4.6245395851482746e-05 -3.4178376811133305e-05 -1.2067019040349414e-05 0.0001277224220496465 0.0 0.0
0.0 -2.30478412048573e-05 -9.23916486763544e-06 7.704385459768582e-06 1.5347794078668273e-06 -2.2797710383949e-05 0.0 0.0
0.0 -6.209037079565188e-06 -1.98785792106755e-06 1.559552737280736e-06 4.2830518378682516e-07 -1.0775605529498143e-05 0.0 0.0
0.0 1.419423153965866e-06 -6.744325955240233e-08 4.68850405949465e-08 2.0558218957456677e-08 -9.256800928789836e-07 0.0 0.0
0.0 1.972274428284258e-06 -7.493462488445612e-10 1.0356415469252837e-08 -9.607069220407888e-09 -5.349280635361403e-07 0.0 0.0
0.0 7.258885577958888e-05 2.1900739501232324e-05 1.731493162468882e-05 -3.921567112592099e-05 0.0002255483407624679 0.0 0.0
0.0 0.0012132218758433818 0.0007190451564847697 -0.0010455588443045026 0.0003265136878197322 0.0007535044802623289 0.0 0.0
0.0 0.0005612954663690135 0.00029129945754490395 -0.0004270410052845587 0.00013574154773965497 -0.0003771712551332997 0.0 0.0
0.0 -2.5561352685067584e-05 -1.8466610436584306e-05 3.4475768547220694e-05 -1.6009158110636416e-05 -1.1971809439135394e-05 0.0 0.0
0.0 2.0768069387853378e-06 2.078733579992533e-08 -5.188338361821503e-08 3.109604781829022e-08 -1.552865138340065e-06 0.0 0.0
0.0 6.636670303474071e-07 -5.170155806269914e-08 4.386897394880767e-08 7.83258411388949e-09 -7.111651481371625e-07 0.0 0.0
0.0 -4.593089354807004e-06 -7.901329128772624e-07 6.482142506802511e-07 1.4191866219701923e-07 8.100797969232331e-06 0.0 0.0
0.0 -8.087080215857559e-06 -3.903341026972588e-06 3.2826471167330583e-06 6.20693910239499e-07 1.7833050976642158e-05 0.0 0.0
0.0 4.766464705639158e-05 -6.641076004365719e-08 3.692875662236807e-07 -3.0287680617997706e-07 -6.135738102724228e-05 0.0 0.0
0.0 0.00024328941190635323 5.315157266967461e-05 -4.4686934896304895e-05 -8.464637773369783e-06 -0.0003688039481410392 0.0 0.0
0.0 0.0008201061248237317 0.00034231017293016066 -0.000300586418880575 -4.172375404958518e-05 -0.0011520411092278827 0.0 0.0
0.0 0.0020159589825246797 0.0010953092259601898 -0.0009798998221812179 -0.00011540940377897326 -0.002451771043810849 0.0 0.0
0.0 0.003903947660157041 0.0022960201802588506 -0.0020874619502208955 -0.00020855823003795263 -0.004068920662485782 0.0 0.0
0.0 0.005871510405969948 0.003746846105478834 -0.003455042223801294 -0.00029180388167754357 -0.005867647349125843 0.0 0.0
0.0 0.008203808427303677 0.005361608246818195 -0.004997430973552833 -0.00036417727326535585 -0.007762352204967213 0.0 0.0
0.0 0.010821771000602443 0.0071675559112510615 -0.006742540337484391 -0.00042501557376666867 -0.00972237013112526 0.0 0.0
0.0 0.013743262154800418 0.009237137946170558 -0.008755874858475872 -0.00048126308769469005 -0.011741288614499579 0.0 0.0
0.0 0.01711530475797604 0.011690337880514358 -0.011152089023998932 -0.0005382488565154243 -0.013802932229916697 0.0 0.0
0.0 0.021107435378244922 0.01467783092164696 -0.01407903343864864 -0.0005987974829983261 -0.015751547548902567 0.0 0.0
0.0 0.025761856574965793 0.018329719859808 -0.01766913522295511 -0.0006605846368528825 -0.017094967291019073 0.0 0.0
0.0 0.031106914559456352 0.022924923244096722 -0.022178099436325715 -0.0007468238077710286 -0.017293510195291163 0.0 0.0
0.0 0.03827207588244069 0.02936042868921976 -0.028458071493785625 -0.0009023571954340894 -0.016753715592028425 0.0 0.0
0.0 0.049502726777870903 0.03519241143576744 -0.035742943972931276 0.0005505325371638455 1.3183031055685746e-14 0.0 0.0
0.0 0.03827207588244265 0.029360428689213954 -0.02845807149377936 -0.0009023571954346347 0.016753715592066523 0.0 0.0
0.0 0.03110691455945147 0.02292492324408904 -0.022178099436318006 -0.000746823807771064 0.017293510195326416 0.0 0.0
0.0 0.025761856574952603 0.018329719859797287 -0.017669135222944943 -0.0006605846368523341 0.017094967291034806 0.0 0.0
0.0 0.02110743537822151 0.014677830921632277 -0.014079033438634588 -0.000598797482997708 0.01575154754889257 0.0 0.0
0.0 0.017115304757963027 0.011690337880505133 -0.011152089023990359 -0.0005382488565147772 0.013802932229906625 0.0 0.0
0.0 0.01374326215478908 0.009237137946162665 -0.008755874858467487 -0.0004812630876951794 0.011741288614490242 0.0 0.0
0.0 0.010821771000592397 0.007167555911244397 -0.006742540337478336 -0.00042501557376606276 0.009722370131120393 0.0 0.0
0.0 0.00820380842729125 0.005361608246810617 -0.0049974309735453725 -0.0003641772732652484 0.0077623522049577376 0.0 0.0
0.0 0.005871510405957849 0.0037468461054718802 -0.0034550422237941856 -0.00029180388167769405 0.005867647349113774 0.0 0.0
0.0 0.003903947660143757 0.0022960201802516 -0.0020874619502137177 -0.00020855823003788093 0.004068920662470533 0.0 0.0
0.0 0.002015958982517238 0.0010953092259555516 -0.0009798998221771486 -0.00011540940377840404 0.0024517710438046137 0.0 0.0
0.0 0.0008201061248193991 0.0003423101729280904 -0.0003005864188786858 -4.1723754049403775e-05 0.0011520411092221072 0.0 0.0
0.0 0.00024328941190467527 5.315157266913707e-05 -4.468693489586445e-05 -8.464637773272647e-06 0.00036880394813919076 0.0 0.0
0.0 4.766464705497761e-05 -6.641076000846522e-08 3.6928756620533985e-07 -3.0287680619685726e-07 6.13573810264538e-05 0.0 0.0
0.0 -8.087080216923189e-06 -3.90334102694728e-06 3.282647116707853e-06 6.206939102394257e-07 -1.7833050976214464e-05 0.0 0.0
0.0 -4.5930893547584674e-06 -7.90132912848104e-07 6.482142506622183e-07 1.4191866218588253e-07 -8.10079796835061e-06 0.0 0.0
0.0 6.63667030431807e-07 -5.1701558080339275e-08 4.38689739685306e-08 7.832584111809376e-09 7.111651490798358e-07 0.0 0.0
0.0 2.0768069388039263e-06 2.078733580533055e-08 -5.18833836392622e-08 3.1096047833928144e-08 1.5528651392986906e-06 0.0 0.0
0.0 -2.5561352685991134e-05 -1.8466610436519372e-05 3.4475768547043664e-05 -1.600915811052422e-05 1.1971809438564135e-05 0.0 0.0
0.0 0.0005612954663648552 0.0002912994575429646 -0.00042704100528174696 0.00013574154773878175 0.0003771712551311449 0.0 0.0
0.0 0.00011258534107452281 6.469905458009046e-05 -9.682657023280748e-05 3.21275156527169e-05 -0.00010429509879901676 0.0 0.0
0.0 -1.8914983324718765e-05 -1.0757829267354779e-05 1.5109763921009679e-05 -4.351934653654876e-06 2.053350955841891e-05 0.0 0.0
0.0 3.1912653660660455e-06 1.2890726037526762e-07 -8.432149185590184e-08 -4.458576851936964e-08 3.352523562619481e-06 0.0 0.0
0.0 1.8319730313527017e-06 -1.4043178466009948e-07 1.1310617313865928e-07 2.7325611521442788e-08 -1.6582379663318238e-06 0.0 0.0
0.0 -1.819126362225923e-06 -2.103218504365583e-07 2.0760520844737308e-07 2.716641989184662e-09 2.8646963891597388e-06 0.0 0.0
0.0 7.516195364654521e-07 -9.174554706188436e-07 9.51999031113289e-07 -3.454356049444597e-08 6.855393503288524e-06 0.0 0.0
0.0 5.6972578025498155e-05 -1.5803419956914939e-06 1.5815064020968393e-06 -1.1644064053614607e-09 -7.487777547536023e-05 0.0 0.0
0.0 0.00017316389887698453 -1.1037565515743523e-06 1.0619899279652158e-06 4.1766623609196487e-08 -0.0002972322841860189 0.0 0.0
0.0 0.00040777279878713684 -2.6186010199542887e-07 2.4213817070327446e-07 1.9721931292117984e-08 -0.0006305564162336695 0.0 0.0
0.0 0.0006735566807956003 4.561938560924576e-08 -1.6286414467732663e-08 -2.9332971141709607e-08 -0.0012642818346110815 0.0 0.0
0.0 0.0012167272934416901 6.214818656127255e-07 -7.887366726457023e-07 1.6725480703305815e-07 -0.0023021031441014554 0.0 0.0
0.0 0.001979370653770183 -6.0411371869228785e-06 8.096715149669083e-06 -2.0555779627453777e-06 -0.0038740908201161856 0.0 0.0
0.0 0.00309892051250755 -2.0013619921681683e-05 2.37037741756926e-05 -3.6901542540108777e-06 -0.005627853526445153 0.0 0.0
0.0 0.004397697472574909 -3.18552225844627e-05 3.424510894521371e-05 -2.3898863607501165e-06 -0.007489848244674865 0.0 0.0
0.0 0.005852877338283319 1.8377328522136446e-05 -2.6839636529564048e-05 8.462308007428144e-06 -0.009468067614800884 0.0 0.0
0.0 0.00742749357364274 0.00027379111744041905 -0.00030763107532118527 3.3839957880765266e-05 -0.011563294488745107 0.0 0.0
0.0 0.009169231137127556 0.0009853016753141556 -0.0010651573640434926 7.985568872934148e-05 -0.013710892958725393 0.0 0.0
0.0 0.011009915205339314 0.0023838722412798247 -0.002580884735522618 0.00019701249424278634 -0.015719974481369366 0.0 0.0
0.0 0.0135602135565036 0.00417123842998092 -0.0045533287905796145 0.0003820903605986984 -0.017179901361146166 0.0 0.0
0.0 0.01971008252122921 0.008391068890319486 -0.008151359200658322 -0.00023970968966115997 -0.017581831461537103 0.0 0.0
0.0 0.0349553577849154 0.01491116934473215 -0.01602823894083435 0.0011170695961021996 1.1438766600591066e-14 0.0 0.0
0.0 0.019710082521233872 0.008391068890316468 -0.008151359200654516 -0.000239709689661944 0.017581831461562652 0.0 0.0
0.0 0.013560213556497239 0.004171238429978345 -0.0045533287905770254 0.00038209036059867757 0.017179901361152734 0.0 0.0
0.0 0.011009915205324187 0.0023838722412774824 -0.002580884735521036 0.00019701249424355195 0.01571997448136485 0.0 0.0
0.0 0.009169231137115224 0.000985301675313681 -0.0010651573640427542 7.985568872907509e-05 0.013710892958713247 0.0 0.0
0.0 0.0074274935736329956 0.00027379111744030434 -0.0003076310753204693 3.383995788016611e-05 0.011563294488732568 0.0 0.0
0.0 0.0058528773382772025 1.837732852440232e-05 -2.683963653181702e-05 8.462308007414754e-06 0.009468067614792198 0.0 0.0
0.0 0.004397697472568328 -3.185522258386932e-05 3.424510894532793e-05 -2.3898863614589137e-06 0.007489848244666126 0.0 0.0
0.0 0.003098920512497184 -2.001361991851798e-05 2.370377417206036e-05 -3.690154253541974e-06 0.005627853526431012 0.0 0.0
0.0 0.001979370653763341 -6.041137185299015e-06 8.096715147922406e-06 -2.055577962624069e-06 0.0038740908201067067 0.0 0.0
0.0 0.001216727293435193 6.214818658505181e-07 -7.887366729662738e-07 1.672548071161487e-07 0.0023021031440910184 0.0 0.0
0.0 0.0006735566807939638 4.561938538700464e-08 -1.6286414250912557e-08 -2.933297113602771e-08 0.001264281834610027 0.0 0.0
0.0 0.0004077727987857638 -2.6186010200548993e-07 2.421381707244164e-07 1.9721931280909197e-08 0.0006305564162315343 0.0 0.0
0.0 0.00017316389887575063 -1.1037565515329768e-06 1.0619899279502902e-06 4.176662358269759e-08 0.00029723228418384164 0.0 0.0
0.0 5.697257802461269e-05 -1.5803419956964312e-06 1.581506402113683e-06 -1.1644064172337524e-09 7.487777547551973e-05 0.0 0.0
0.0 7.516195351288701e-07 -9.174554705902186e-07 9.519990310884575e-07 -3.454356049824504e-08 -6.8553935033058385e-06 0.0 0.0
0.0 -1.8191263620782042e-06 -2.1032185047224155e-07 2.076052084810691e-07 2.716641991175924e-09 -2.8646963881726824e-06 0.0 0.0
0.0 1.8319730314861144e-06 -1.404317847195685e-07 1.1310617319069584e-07 2.7325611528872653e-08 1.6582379671613139e-06 0.0 0.0
0.0 3.1912653646894183e-06 1.2890726038934112e-07 -8.432149186604596e-08 -4.4585768523286365e-08 -3.3525235629815403e-06 0.0 0.0
0.0 -1.891498332469971e-05 -1.0757829266999691e-05 1.5109763920591553e-05 -4.351934653591877e-06 -2.0533509557136918e-05 0.0 0.0
0.0 0.00011258534107268226 6.46990545795865e-05 -9.682657023210692e-05 3.212751565252056e-05 0.00010429509879816814 0.0 0.0
0.0 2.2462087567652364e-06 -8.387165159032492e-07 9.55716383151213e-07 -1.1699986724797964e-07 2.3329826171956776e-06 0.0 0.0
0.0 -8.96613134054433e-07 1.372547980955402e-07 -1.3954074317996789e-07 2.285945084430177e-09 5.823599350684042e-07 0.0 0.0
0.0 6.995751953394492e-07 9.072959928473094e-08 -1.304043846491662e-07 3.9674785364434824e-08 -1.2902252503663937e-06 0.0 0.0
0.0 3.941639522876387e-06 -1.2365160647065627e-07 8.87424891205398e-08 3.490911735011716e-08 -2.3067316087478913e-06 0.0 0.0
0.0 1.7668709924533972e-06 -2.9744477742980163e-07 2.8346545489213847e-07 1.3979322537663513e-08 -2.5801994367411622e-06 0.0 0.0
0.0 2.624076222329973e-07 -1.740029261455933e-07 4.1480685444638913e-07 -2.4080392830075397e-07 -5.598711820065469e-06 0.0 0.0
0.0 7.386200485872907e-05 -3.7287353337059297e-06 3.2743862592354893e-06 4.5434907447037007e-07 -7.185733481656793e-05 0.0 0.0
0.0 0.0002567320490667712 -5.801475512568515e-05 4.904344510677576e-05 8.971310018909342e-06 -0.00038090616885573015 0.0 0.0
0.0 0.0008237755892514045 -0.0003439390803494422 0.0003019371000819191 4.200198026752355e-05 -0.0011584092817967257 0.0 0.0
0.0 0.0020139046838406594 -0.0010942542690723159 0.0009789158043782046 0.00011533846469411125 -0.0024513990703240603 0.0 0.0
0.0 0.0039164639158668834 -0.002297332466486416 0.002088750359401157 0.00020858210708525675 -0.004066114280128228 0.0 0.0
0.0 0.005907265113033136 -0.003769276289469644 0.0034743901045204383 0.000294886184949203 -0.005872551177376219 0.0 0.0
0.0 0.008267516832071298 -0.00541872518413552 0.005049929700895446 0.0003687954832400707 -0.007767076895005017 0.0 0.0
0.0 0.010891722462118916 -0.007237864249798942 0.006813821262366151 0.00042404298743279527 -0.009717039581614803 0.0 0.0
0.0 0.013621399964257042 -0.009159353336927337 0.008703054086109026 0.00045629925081830695 -0.01174081839604778 0.0 0.0
0.0 0.01631848649795433 -0.010986484091357114 0.010528178339960729 0.000458305751396383 -0.01389974349956921 0.0 0.0
0.0 0.018598166708078782 -0.01236817252911846 0.011945913002258548 0.00042225952685992247 -0.016232100164086216 0.0 0.0
0.0 0.020245677420397522 -0.012842326146663481 0.012507140348224572 0.000335185798438916 -0.018806949366118764 0.0 0.0
0.0 0.020355877489911172 -0.011870913309497322 0.011732007475077843 0.0001389058344194736 -0.021580248979847026 0.0 0.0
0.0 0.016586362653842196 -0.008589106351627584 0.008950475982870161 -0.00036136963124257585 -0.023510136159403196 0.0 0.0
0.0 0.03370132428438542 -0.00481401641423209 0.0023700533991043507 0.002443963015127731 1.6518036938251157e-14 0.0 0.0
0.0 0.016586362653851845 -0.008589106351630248 0.008950475982873352 -0.0003613696312431047 0.02351013615942175 0.0 0.0
0.0 0.020355877489909316 -0.01187091330949417 0.01173200747507451 0.00013890583441965624 0.021580248979862465 0.0 0.0
0.0 0.020245677420384762 -0.012842326146654003 0.012507140348216221 0.00033518579843777667 0.018806949366119975 0.0 0.0
0.0 0.01859816670805786 -0.012368172529103678 0.011945913002243371 0.0004222595268603249 0.016232100164074847 0.0 0.0
0.0 0.016318486497935436 -0.01098648409134349 0.010528178339947404 0.00045830575139608906 0.013899743499555332 0.0 0.0
0.0 0.01362139996424198 -0.009159353336915197 0.008703054086097357 0.00045629925081783706 0.011740818396036665 0.0 0.0
0.0 0.010891722462103785 -0.0072378642497875015 0.006813821262354695 0.0004240429874328051 0.009717039581603939 0.0 0.0
0.0 0.008267516832050514 -0.00541872518412003 0.005049929700880735 0.00036879548323929715 0.0077670768949916445 0.0 0.0
0.0 0.005907265113015518 -0.0037692762894575866 0.0034743901045090294 0.0002948861849485547 0.0058725511773607564 0.0 0.0
0.0 0.003916463915849632 -0.0022973324664757387 0.002088750359391103 0.00020858210708463387 0.004066114280112379 0.0 0.0
0.0 0.0020139046838294856 -0.0010942542690649637 0.0009789158043717469 0.00011533846469321754 0.0024513990703149096 0.0 0.0
0.0 0.0008237755892467804 -0.00034393908034675207 0.0003019371000795327 4.2001980267219224e-05 0.0011584092817920409 0.0 0.0
0.0 0.00025673204906432527 -5.801475512508367e-05 4.904344510630775e-05 8.971310018775948e-06 0.00038090616885290407 0.0 0.0
0.0 7.3862004857525e-05 -3.7287353338437784e-06 3.274386259325456e-06 4.5434907451832314e-07 7.185733481665429e-05 0.0 0.0
0.0 2.624076214467453e-07 -1.7400292624043514e-07 4.1480685451361104e-07 -2.4080392827317325e-07 5.5987118208692595e-06 0.0 0.0
0.0 1.7668709919003938e-06 -2.974447775543621e-07 2.834654549968993e-07 1.3979322557452313e-08 2.5801994377905226e-06 0.0 0.0
0.0 3.941639522337645e-06 -1.2365160657425417e-07 8.874248920679628e-08 3.4909117367456484e-08 2.3067316096612838e-06 0.0 0.0
0.0 6.995751949820076e-07 9.072959926584146e-08 -1.3040438464336136e-07 3.9674785377515375e-08 1.2902252510649939e-06 0.0 0.0
0.0 -8.966131339963422e-07 1.3725479799305446e-07 -1.3954074306187455e-07 2.2859450688188077e-09 -5.823599351834544e-07 0.0 0.0
0.0 2.2462087553607076e-06 -8.387165154165674e-07 9.557163824248924e-07 -1.1699986700830955e-07 -2.3329826161690423e-06 0.0 0.0
0.0 -5.791226492451871e-07 3.285152939261595e-08 -4.863961923435168e-08 1.5788089841737027e-08 -8.324711323925468e-08 0.0 0.0
0.0 1.114026035301659e-06 4.279030284089056e-09 1.726197598554866e-08 -2.154100626964251e-08 2.9030140884938746e-07 0.0 0.0
0.0 -6.208959547672236e-07 3.152913566627233e-07 -2.5899839966657024e-07 -5.6292956996162024e-08 2.1982472178973446e-06 0.0 0.0
0.0 1.8623613819838874e-06 -4.703531010327763e-07 3.6589843185522364e-07 1.0445466917754056e-07 -4.24138698186949e-06 0.0 0.0
0.0 4.2108394389259295e-06 2.029184956956807e-06 -1.6551759458910737e-06 -3.7400901106566926e-07 7.83938487367901e-06 0.0 0.0
0.0 1.7774919876161174e-05 3.6781075533166313e-06 -2.7961272957009166e-06 -8.819802576157308e-07 3.49684750728538e-06 0.0 0.0
0.0 0.00012893329402948887 -6.651259475319666e-05 5.129165455800155e-05 1.5220940195195109e-05 -0.00019012310922614814 0.0 0.0
0.0 0.0008497061632527935 -0.000517209217599625 0.0004115042217451205 0.0001057049958545044 -0.0008999222708261091 0.0 0.0
0.0 0.002417319331248476 -0.0017374485197745814 0.001454074587571736 0.000283373932202845 -0.002319093797206579 0.0 0.0
0.0 0.005095952175881377 -0.0037494431685164468 0.003304485477735942 0.00044495769078050203 -0.004240665834951621 0.0 0.0
0.0 0.008308127415529191 -0.006367591888686925 0.005814415089497838 0.0005531767991890879 -0.006546741940366943 0.0 0.0
0.0 0.012167907889736412 -0.009388777093555241 0.008761526301319877 0.0006272507922353685 -0.008936605198128379 0.0 0.0
0.0 0.016370566412242327 -0.012743933271483638 0.012053442018491407 0.0006904912529922218 -0.01130384203673615 0.0 0.0
0.0 0.020936683303509812 -0.016433201244055062 0.015693412044625925 0.0007397891994291275 -0.013622434083592528 0.0 0.0
0.0 0.02588356904543085 -0.020403861994829155 0.01963033864793614 0.0007735233468930166 -0.015985683429161474 0.0 0.0
0.0 0.030992324025381393 -0.024444039467944843 0.023657911590898046 0.0007861278770467791 -0.018600852011725188 0.0 0.0
0.0 0.035773358267674374 -0.028139619003031656 0.027361258592720164 0.0007783604103114917 -0.021688951644319474 0.0 0.0
0.0 0.03943011968071941 -0.03090378778648432 0.030149869248188566 0.0007539185382957631 -0.025357340224951036 0.0 0.0
0.0 0.041266185689484126 -0.031685066034982196 0.031022945617936983 0.0006621204170451918 -0.028905541543714174 0.0 0.0
0.0 0.038401149033703175 -0.028255782159267114 0.02778047578568696 0.00047530637358014956 -0.02972312107051549 0.0 0.0
0.0 0.041359682958652916 -0.022793611720616586 0.0195631913167717 0.003230420403844864 1.9171296494757684e-14 0.0 0.0
0.0 0.03840114903371087 -0.028255782159265073 0.027780475785684672 0.0004753063735804172 0.02972312107055342 0.0 0.0
0.0 0.04126618568948108 -0.03168506603497325 0.031022945617928406 0.0006621204170448265 0.028905541543751717 0.0 0.0
0.0 0.03943011968069751 -0.030903787786464777 0.03014986924816921 0.00075391853829557 0.02535734022496301 0.0 0.0
0.0 0.0357733582676418 -0.028139619003005243 0.027361258592693883 0.0007783604103113534 0.021688951644311352 0.0 0.0
0.0 0.030992324025349287 -0.024444039467918795 0.023657911590872275 0.0007861278770465317 0.01860085201170851 0.0 0.0
0.0 0.025883569045398284 -0.020403861994802843 0.019630338647910143 0.0007735233468927201 0.015985683429144942 0.0 0.0
0.0 0.02093668330348087 -0.016433201244030582 0.015693412044601725 0.0007397891994288391 0.01362243408357773 0.0 0.0
0.0 0.01637056641221128 -0.012743933271458601 0.012053442018466668 0.0006904912529919273 0.011303842036721188 0.0 0.0
0.0 0.01216790788970458 -0.009388777093530917 0.008761526301296115 0.0006272507922348011 0.008936605198106498 0.0 0.0
0.0 0.00830812741550075 -0.006367591888665328 0.005814415089476434 0.0005531767991888964 0.0065467419403446424 0.0 0.0
0.0 0.005095952175862092 -0.0037494431685018807 0.003304485477722173 0.00044495769077970856 0.004240665834937955 0.0 0.0
0.0 0.0024173193312375107 -0.0017374485197664386 0.0014540745875646695 0.0002833739322017703 0.002319093797198738 0.0 0.0
0.0 0.0008497061632453998 -0.0005172092175947715 0.0004115042217411658 0.00010570499585360488 0.000899922270818967 0.0 0.0
0.0 0.00012893329402637467 -6.651259475229303e-05 5.129165455729681e-05 1.5220940194996263e-05 0.00019012310922388712 0.0 0.0
0.0 1.7774919875652968e-05 3.6781075529601617e-06 -2.7961272954207e-06 -8.819802575395696e-07 -3.4968475062678745e-06 0.0 0.0
0.0 4.210839437978285e-06 2.0291849568035683e-06 -1.655175945763933e-06 -3.7400901103962686e-07 -7.839384872979953e-06 0.0 0.0
0.0 1.8623613817946202e-06 -4.703531011793621e-07 3.658984319764009e-07 1.044546692029671e-07 4.241386982833788e-06 0.0 0.0
0.0 -6.208959554552803e-07 3.152913566567824e-07 -2.5899839967290155e-07 -5.6292956983876135e-08 -2.198247217552881e-06 0.0 0.0
0.0 1.1140260349467724e-06 4.279030295888503e-09 1.7261975977735585e-08 -2.1541006273625698e-08 -2.903014090124679e-07 0.0 0.0
0.0 -5.791226488939735e-07 3.285152937202806e-08 -4.863961920387383e-08 1.57880898318369e-08 8.324711318699175e-08 0.0 0.0
0.0 0.0 0.0 0.0 0.0 0.0 0.0 0.0
0.0 1.2793262250216665e-07 8.703308849541075e-11 4.028570319636627e-09 -4.115603408136257e-09 2.4778079492361678e-08 0.0 0.0
0.0 5.884524361079371e-07 2.6325221302177903e-07 -2.0633397319232008e-07 -5.691823982945205e-08 1.4936405949503007e-06 0.0 0.0
0.0 8.934249791427636e-07 1.1564667542323383e-06 -9.707688113258933e-07 -1.8569794290644545e-07 3.1396787326406285e-06 0.0 0.0
0.0 2.2874259197959454e-06 2.225115819468459e-06 -1.7419253517016469e-06 -4.83190467766857e-07 1.7980624918005696e-06 0.0 0.0
0.0 2.0559919447313452e-05 -2.01558896462583e-05 1.522911103138276e-05 4.926778614875611e-06 -4.8984446465944826e-05 0.0 0.0
0.0 0.0004615635346373228 -0.0003049369700811381 0.00023317209024450544 7.176487983663246e-05 -0.00040079511170130225 0.0 0.0
0.0 0.0017680420013485999 -0.0014120715009139839 0.0011391425683401843 0.0002729289325737983 -0.0014972179222959487 0.0 0.0
0.0 0.004506976051216741 -0.003600699680348364 0.0031069664560218046 0.0004937332243265567 -0.0033199242959717633 0.0 0.0
0.0 0.008729919607696196 -0.006809632575382402 0.006177950313583631 0.0006316822617987791 -0.005785878693607271 0.0 0.0
0.0 0.013389798300905868 -0.010801171333567047 0.010087795858079217 0.0007133754754878167 -0.008582441630467785 0.0 0.0
0.0 0.01886581127231978 -0.01535054166167709 0.014571546041004524 0.000778995620672568 -0.011367629458247574 0.0 0.0
0.0 0.024980171864864485 -0.020396347640104333 0.019553981968150048 0.0008423656719543028 -0.014041498971233572 0.0 0.0
0.0 0.03162919325100255 -0.025958767249560546 0.02505973567510052 0.0008990315744600086 -0.016639418319532896 0.0 0.0
0.0 0.03893043594824135 -0.03200569061839029 0.031063777322389977 0.0009419132960003255 -0.01933454780927316 0.0 0.0
0.0 0.046477668793176934 -0.038325554657081415 0.037363462630372615 0.0009620920267087622 -0.022473609581107737 0.0 0.0
0.0 0.054117452899911614 -0.04441492845984079 0.04345901097371788 0.0009559174861228706 -0.02649912364345633 0.0 0.0
0.0 0.060395064992702065 -0.04935501118259151 0.04844923599709825 0.0009057751854932602 -0.03138725529360609 0.0 0.0
0.0 0.06360343115958726 -0.05149650183979895 0.05070034558539293 0.0007961562544059866 -0.03580469461060331 0.0 0.0
0.0 0.05992139643314826 -0.04773732604469691 0.047215887906619736 0.000521438138077131 -0.03712538274411418 0.0 0.0
0.0 0.05745308872579303 -0.04043460349328456 0.03647910129286148 0.003955502200423106 2.1457662036095115e-14 0.0 0.0
0.0 0.05992139643314995 -0.04773732604468901 0.047215887906612346 0.0005214381380766721 0.03712538274416117 0.0 0.0
0.0 0.063603431159577 -0.05149650183978305 0.050700345585377435 0.0007961562544055525 0.035804694610649834 0.0 0.0
0.0 0.06039506499267115 -0.049355011182562365 0.048449235997069365 0.0009057751854929954 0.03138725529362685 0.0 0.0
0.0 0.05411745289987063 -0.044414928459806206 0.04345901097368323 0.0009559174861229963 0.026499123643452045 0.0 0.0
0.0 0.04647766879313093 -0.03832555465704306 0.0373634626303343 0.0009620920267087243 0.02247360958109059 0.0 0.0
0.0 0.03893043594819751 -0.03200569061835381 0.031063777322354116 0.0009419132959996759 0.019334547809254487 0.0 0.0
0.0 0.03162919325096074 -0.025958767249524815 0.025059735675065566 0.0008990315744592195 0.016639418319517117 0.0 0.0
0.0 0.02498017186482157 -0.020396347640068847 0.019553981968114743 0.0008423656719541007 0.014041498971216069 0.0 0.0
0.0 0.018865811272276947 -0.01535054166164275 0.014571546040970638 0.0007789956206721155 0.011367629458223606 0.0 0.0
0.0 0.013389798300867634 -0.01080117133353664 0.010087795858048953 0.0007133754754876768 0.008582441630443171 0.0 0.0
0.0 0.008729919607668776 -0.006809632575360674 0.006177950313562557 0.0006316822617981172 0.005785878693589499 0.0 0.0
0.0 0.004506976051198262 -0.0036006996803341546 0.0031069664560086133 0.0004937332243255379 0.003319924295960065 0.0 0.0
0.0 0.0017680420013377973 -0.0014120715009055538 0.001139142568333226 0.00027292893257232847 0.00149721792228843 0.0 0.0
0.0 0.00046156353463171093 -0.0003049369700776998 0.00023317209024178035 7.176487983591942e-05 0.00040079511169679565 0.0 0.0
0.0 2.0559919446414855e-05 -2.015588964642165e-05 1.5229111031524503e-05 4.9267786148971575e-06 4.898444646651342e-05 0.0 0.0
0.0 2.2874259196479277e-06 2.225115819093231e-06 -1.7419253513941443e-06 -4.831904676990837e-07 -1.7980624907138106e-06 0.0 0.0
0.0 8.934249784520969e-07 1.1564667540975978e-06 -9.707688112151867e-07 -1.856979428824104e-07 -3.1396787318362966e-06 0.0 0.0
0.0 5.884524356045176e-07 2.6325221305506494e-07 -2.0633397322039573e-07 -5.691823983467589e-08 -1.493640595115575e-06 0.0 0.0
0.0 1.2793262222365965e-07 8.703308583074716e-11 4.028570317766604e-09 -4.115603403594462e-09 -2.4778079435018216e-08 0.0 0.0
0.0 0.0 0.0 0.0 0.0 0.0 0.0 0.0
0.0 0.0 0.0 0.0 0.0 0.0 0.0 0.0
0.0 -1.2025212151614905e-07 -2.8111852206668733e-09 1.9303984439410896e-09 8.807867767261456e-10 -2.3879236813071873e-08 0.0 0.0
0.0 -3.544522984605789e-07 1.4477304489907224e-07 -1.1550971860163792e-07 -2.926332629743728e-08 6.455440028898248e-07 0.0 0.0
0.0 -2.4910041798431167e-06 5.567411980790012e-07 -4.5486981624734497e-07 -1.0187138183164588e-07 9.410235344888912e-07 0.0 0.0
0.0 -1.0689447132638354e-07 6.62514035302052e-06 -5.496941846379356e-06 -1.1281985066411528e-06 1.2544306156435292e-05 0.0 0.0
0.0 0.00014222218701434567 -8.289297967134561e-05 6.145920174072688e-05 2.1433777930618628e-05 -8.647044678584139e-05 0.0 0.0
0.0 0.0009337229696491564 -0.0007702567610794087 0.0005966458038892578 0.00017361095719015102 -0.0006660609341620463 0.0 0.0
0.0 0.003075051282641424 -0.0025880252015465137 0.002150661704342506 0.00043736349720400737 -0.0019426622840763392 0.0 0.0
0.0 0.0071855261921856825 -0.005741032705411016 0.005100488226603448 0.0006405444788075668 -0.004056172090097559 0.0 0.0
0.0 0.012025657308938939 -0.010125453777170074 0.009375270232056908 0.0007501835451131781 -0.006828995478606317 0.0 0.0
0.0 0.018516549174140178 -0.01542967624943592 0.014608835442609873 0.0008208408068260534 -0.009795630314333255 0.0 0.0
0.0 0.025740182314788515 -0.02148047080429309 0.02059379448000333 0.0008866763242897301 -0.012727637422729081 0.0 0.0
0.0 0.03371566622079487 -0.0282134630180759 0.02725756127214611 0.0009559017459297962 -0.015537718863251528 0.0 0.0
0.0 0.042498376303850456 -0.03565077466582521 0.034628133068967296 0.0010226415968578953 -0.018272447841551603 0.0 0.0
0.0 0.05203620514871238 -0.04378914115837948 0.042712084218978576 0.0010770569394008733 -0.02111110209413564 0.0 0.0
0.0 0.06248229091002096 -0.0524248359253399 0.051320086333551326 0.0011047495917885855 -0.024511463002497853 0.0 0.0
0.0 0.07231457211541135 -0.06092642123840776 0.05983664538984483 0.0010897758485628887 -0.02902076307829469 0.0 0.0
0.0 0.081208167152077 -0.06795740870889855 0.06694446846289108 0.0010129402460075077 -0.03456861001568575 0.0 0.0
0.0 0.08582456693561569 -0.07117398652817168 0.07032811808016598 0.00084586844800566 -0.03976527538980063 0.0 0.0
0.0 0.08119971157088318 -0.06665309887691473 0.06613140116553232 0.0005216977113824389 -0.041734538651278436 0.0 0.0
0.0 0.07512238285262623 -0.05769128715185833 0.053113409347107066 0.004577877804751085 2.2495894036467234e-14 0.0 0.0
0.0 0.0811997115708821 -0.0666530988769053 0.0661314011655235 0.0005216977113818248 0.04173453865132892 0.0 0.0
0.0 0.08582456693559275 -0.07117398652814579 0.07032811808013968 0.0008458684480060262 0.03976527538984933 0.0 0.0
0.0 0.08120816715204032 -0.06795740870886419 0.0669444684628567 0.0010129402460073537 0.03456861001571241 0.0 0.0
0.0 0.07231457211535783 -0.06092642123836205 0.05983664538979838 0.0010897758485637237 0.02902076307829194 0.0 0.0
0.0 0.06248229090996382 -0.05242483592529134 0.05132008633350269 0.0011047495917886011 0.024511463002482654 0.0 0.0
0.0 0.052036205148659434 -0.04378914115833416 0.042712084218934174 0.0010770569393999906 0.021111102094118 0.0 0.0
0.0 0.04249837630379677 -0.035650774665778984 0.034628133068921686 0.0010226415968572946 0.01827244784153562 0.0 0.0
0.0 0.03371566622074135 -0.02821346301803095 0.027257561272101244 0.0009559017459296905 0.015537718863232585 0.0 0.0
0.0 0.025740182314737285 -0.021480470804250265 0.020593794479960802 0.0008866763242894521 0.01272763742270606 0.0 0.0
0.0 0.01851654917409548 -0.015429676249398946 0.014608835442573258 0.0008208408068257046 0.009795630314307819 0.0 0.0
0.0 0.012025657308902198 -0.010125453777139514 0.009375270232026816 0.0007501835451127104 0.006828995478584475 0.0 0.0
0.0 0.007185526192158465 -0.0057410327053896435 0.005100488226583007 0.0006405444788066366 0.004056172090083021 0.0 0.0
0.0 0.003075051282625739 -0.0025880252015341664 0.0021506617043314477 0.00043736349720271907 0.0019426622840673737 0.0 0.0
0.0 0.0009337229696412736 -0.0007702567610737992 0.0005966458038848406 0.00017361095718895913 0.0006660609341572144 0.0 0.0
0.0 0.00014222218701175922 -8.28929796701977e-05 6.145920173984511e-05 2.1433777930352558e-05 8.647044678449497e-05 0.0 0.0
0.0 -1.068944714444989e-07 6.625140352302969e-06 -5.496941845803833e-06 -1.128198506499115e-06 -1.2544306154906064e-05 0.0 0.0
0.0 -2.49100417984238e-06 5.567411977588628e-07 -4.5486981599797736e-07 -1.0187138176086908e-07 -9.410235334321724e-07 0.0 0.0
0.0 -3.5445229860249954e-07 1.4477304493988038e-07 -1.155097186354625e-07 -2.9263326304415025e-08 -6.455440030540835e-07 0.0 0.0
0.0 -1.2025212151506954e-07 -2.8111852205958148e-09 1.930398443898689e-09 8.807867766964716e-10 2.387923681280424e-08 0.0 0.0
0.0 0.0 0.0 0.0 0.0 0.0 0.0 0.0
0.0 0.0 0.0 0.0 0.0 0.0 0.0 0.0
0.0 0.0 0.0 0.0 0.0 0.0 0.0 0.0
0.0 -8.45346783888705e-08 2.112970003190621e-08 -1.53778400747302e-08 -5.7518599571771716e-09 6.944605245144127e-08 0.0 0.0
0.0 -2.122747016409349e-06 1.8306480209018066e-06 -1.4776775738737472e-06 -3.529704470280344e-07 3.925014763921846e-06 0.0 0.0
0.0 -6.209943337724521e-06 -3.3507009815156872e-06 1.712422752954437e-06 1.6382782285612312e-06 -1.1517676180117617e-06 0.0 0.0
0.0 0.0003429741084889313 -0.00024696308776147837 0.0001841622813667648 6.280080639471361e-05 -0.0001623368295704306 0.0 0.0
0.0 0.0016339106483793902 -0.0014181040718270698 0.0011224152601170523 0.00029568881171001724 -0.0008273385556658505 0.0 0.0
0.0 0.004865225900357811 -0.003975881106030411 0.0034023674866293452 0.0005735136194010659 -0.0022107816508728324 0.0 0.0
0.0 0.009320697667940862 -0.008098623712279929 0.007353225062543725 0.0007453986497362073 -0.0044702975695975035 0.0 0.0
0.0 0.015930841760653715 -0.013562973665561712 0.012726173698476857 0.0008367999670848546 -0.0072160687716077985 0.0 0.0
0.0 0.023733189892083603 -0.020160726943457375 0.019254172133457828 0.0009065548099995421 -0.010137102621518497 0.0 0.0
0.0 0.03263576300723512 -0.02771119566285537 0.026733708507022606 0.0009774871558327783 -0.013025182067106799 0.0 0.0
0.0 0.042540419819621915 -0.03613416645685737 0.035080818594919745 0.0010533478619375713 -0.01580871467957829 0.0 0.0
0.0 0.0535340619298192 -0.04544322418191858 0.044314480083250084 0.0011287440986685452 -0.01853259843256804 0.0 0.0
0.0 0.06541888078888586 -0.05566125710382279 0.05446561333592219 0.0011956437679005911 -0.021341023601266513 0.0 0.0
0.0 0.07806312717308282 -0.06659273838943204 0.0653614515129178 0.0012312868765142408 -0.02462019277270151 0.0 0.0
0.0 0.09116092685292125 -0.0774534958221438 0.07624861436812859 0.0012048814540152012 -0.02898997338942873 0.0 0.0
0.0 0.10197558216186092 -0.08649058127624226 0.08539982671973807 0.00109075455650401 -0.034654195288494866 0.0 0.0
0.0 0.10723548100823638 -0.09064098025156146 0.08977089222019813 0.0008700880313633253 -0.04050741774247399 0.0 0.0
0.0 0.10209760338667376 -0.08537740043337047 0.08485654877334164 0.0005208516600288507 -0.04451084234962975 0.0 0.0
0.0 0.09410963913682384 -0.07499401033808999 0.06986783227488098 0.005126178063208936 2.2181909087315432e-14 0.0 0.0
0.0 0.10209760338666653 -0.08537740043335687 0.0848565487733286 0.0005208516600283421 0.044510842349680835 0.0 0.0
0.0 0.10723548100820357 -0.090640980251528 0.08977089222016418 0.0008700880313638473 0.040507417742522506 0.0 0.0
0.0 0.10197558216181711 -0.08649058127620185 0.08539982671969844 0.0010907545565033902 0.034654195288522704 0.0 0.0
0.0 0.09116092685285936 -0.0774534958220903 0.07624861436807459 0.0012048814540156375 0.028989973389428596 0.0 0.0
0.0 0.07806312717301578 -0.06659273838937428 0.06536145151286071 0.0012312868765136159 0.02462019277268935 0.0 0.0
0.0 0.06541888078881826 -0.055661257103764655 0.054465613335864596 0.001195643767900094 0.021341023601251844 0.0 0.0
0.0 0.053534061929751915 -0.045443224181860316 0.04431448008319244 0.0011287440986678457 0.01853259843255129 0.0 0.0
0.0 0.042540419819557765 -0.03613416645680262 0.03508081859486481 0.0010533478619377935 0.015808714679560684 0.0 0.0
0.0 0.03263576300717533 -0.027711195662804774 0.02673370850697248 0.0009774871558322813 0.013025182067084463 0.0 0.0
0.0 0.0237331898920277 -0.020160726943410635 0.019254172133411192 0.0009065548099994368 0.01013710262149228 0.0 0.0
0.0 0.01593084176060809 -0.013562973665523368 0.012726173698438967 0.0008367999670844036 0.0072160687715859696 0.0 0.0
0.0 0.009320697667910879 -0.008098623712253512 0.007353225062518122 0.0007453986497353937 0.004470297569583052 0.0 0.0
0.0 0.004865225900334534 -0.003975881106011686 0.0034023674866120067 0.000573513619399679 0.002210781650861975 0.0 0.0
0.0 0.0016339106483693618 -0.0014181040718190317 0.001122415260110463 0.0002956888117085678 0.0008273385556608984 0.0 0.0
0.0 0.000342974108484451 -0.0002469630877587514 0.00018416228136468134 6.280080639406962e-05 0.00016233682956845016 0.0 0.0
0.0 -6.209943337895777e-06 -3.350700982063448e-06 1.7124227534049893e-06 1.6382782286584189e-06 1.1517676190394795e-06 0.0 0.0
0.0 -2.1227470170762497e-06 1.8306480208816002e-06 -1.4776775738577593e-06 -3.5297044702383476e-07 -3.925014763731229e-06 0.0 0.0
0.0 -8.453467824535408e-08 2.1129700064200824e-08 -1.5377840100481602e-08 -5.751859963718578e-09 -6.944605255460987e-08 0.0 0.0
0.0 0.0 0.0 0.0 0.0 0.0 0.0 0.0
0.0 0.0 0.0 0.0 0.0 0.0 0.0 0.0
0.0 0.0 0.0 0.0 0.0 0.0 0.0 0.0
0.0 0.0 0.0 0.0 0.0 0.0 0.0 0.0
0.0 -1.9259891853480113e-07 -1.2438204119640457e-08 9.900711751953166e-09 2.537492367688598e-09 -3.208399983975565e-08 0.0 0.0
0.0 -3.494834923430852e-06 1.6760988154071418e-06 -1.3530833858163966e-06 -3.230154295907747e-07 2.9143586215603683e-06 0.0 0.0
0.0 3.281037401374912e-05 -1.587723340343362e-05 9.677316770580265e-06 6.19991663285345e-06 1.1411631248434464e-06 0.0 0.0
0.0 0.0005744365482115391 -0.0005457564875504059 0.0004116659582381061 0.00013409052931229938 -0.00024454543100222033 0.0 0.0
0.0 0.00269930817723434 -0.002226122569751141 0.0018085203189379194 0.00041760225081322066 -0.0008798495729053427 0.0 0.0
0.0 0.006288387753444538 -0.005559949319147917 0.00487949646332701 0.0006804528558209054 -0.0023094258250580656 0.0 0.0
0.0 0.012114329972317438 -0.010546754461500394 0.009724266283620425 0.0008224881778799654 -0.004414121687955223 0.0 0.0
0.0 0.019768282847483006 -0.017073159867516036 0.016165093833221712 0.0009080660342943435 -0.006929447183003398 0.0 0.0
0.0 0.029017991000196284 -0.024949518941004493 0.02396750747446688 0.0009820114665376098 -0.009628209002563561 0.0 0.0
0.0 0.03963448834258302 -0.033995773350481664 0.03293671630733784 0.0010590570431438058 -0.012295868094920608 0.0 0.0
0.0 0.05155242447752839 -0.044115462191339945 0.04297455747009479 0.0011409047212450913 -0.014883337304363543 0.0 0.0
0.0 0.0643665867002826 -0.05530181621932336 0.054078057974499674 0.0012237582448236873 -0.01745093783131863 0.0 0.0
0.0 0.07871018242282676 -0.06755249424583729 0.06625292048615643 0.0012995737596810009 -0.020061532737719903 0.0 0.0
0.0 0.09404570900910733 -0.08067765874815314 0.07933264153240495 0.0013450172157480262 -0.02288620634726049 0.0 0.0
0.0 0.10921027626644936 -0.09380948754103956 0.09249560375548922 0.0013138837855502456 -0.02649295705966252 0.0 0.0
0.0 0.12222410882083631 -0.10480537790329615 0.10364181143800845 0.0011635664652878438 -0.031641587061231 0.0 0.0
0.0 0.12879712233721785 -0.10998015393004944 0.10908894956888705 0.0008912043611621445 -0.03832801679087514 0.0 0.0
0.0 0.12314228916793912 -0.10426825054740706 0.10375782068100842 0.0005104298663985687 -0.04589293054240272 0.0 0.0
0.0 0.11360173193266629 -0.09272661170230706 0.08711894915056159 0.005607662551745497 2.1690982343613996e-14 0.0 0.0
0.0 0.1231422891679222 -0.10426825054738652 0.10375782068098786 0.0005104298663986005 0.045892930542451645 0.0 0.0
0.0 0.1287971223371789 -0.1099801539300116 0.10908894956884904 0.000891204361162416 0.0383280167909216 0.0 0.0
0.0 0.12222410882078302 -0.1048053779032484 0.1036418114379613 0.0011635664652871196 0.03164158706125709 0.0 0.0
0.0 0.10921027626637764 -0.09380948754097754 0.0924956037554269 0.0013138837855506452 0.026492957059663765 0.0 0.0
0.0 0.09404570900903124 -0.08067765874808686 0.07933264153233952 0.0013450172157472577 0.022886206347252136 0.0 0.0
0.0 0.07871018242274747 -0.06755249424576916 0.06625292048608837 0.001299573759680794 0.020061532737707027 0.0 0.0
0.0 0.06436658670020232 -0.055301816219254174 0.05407805797443093 0.0012237582448232141 0.017450937831302714 0.0 0.0
0.0 0.051552424477450925 -0.04411546219127304 0.04297455747002772 0.0011409047212453353 0.014883337304346985 0.0 0.0
0.0 0.03963448834251286 -0.033995773350421636 0.03293671630727829 0.0010590570431433378 0.012295868094899631 0.0 0.0
0.0 0.02901799100013071 -0.024949518940948635 0.023967507474411145 0.000982011466537508 0.009628209002538862 0.0 0.0
0.0 0.01976828284743087 -0.017073159867471314 0.016165093833177324 0.0009080660342939651 0.006929447182983087 0.0 0.0
0.0 0.01211432997228085 -0.010546754461468496 0.009724266283589222 0.0008224881778792802 0.004414121687941869 0.0 0.0
0.0 0.006288387753418584 -0.005559949319125465 0.00487949646330576 0.0006804528558197033 0.0023094258250480107 0.0 0.0
0.0 0.0026993081772189406 -0.0022261225697388313 0.0018085203189272055 0.0004176022508116258 0.0008798495728995613 0.0 0.0
0.0 0.0005744365482060625 -0.0005457564875463784 0.0004116659582350229 0.00013409052931135536 0.0002445454310003411 0.0 0.0
0.0 3.2810374013166174e-05 -1.587723340383243e-05 9.677316770936227e-06 6.199916632896341e-06 -1.1411631240815784e-06 0.0 0.0
0.0 -3.4948349235211333e-06 1.6760988152567105e-06 -1.353083385705131e-06 -3.230154295515796e-07 -2.9143586213805263e-06 0.0 0.0
0.0 -1.9259891850927365e-07 -1.243820411784055e-08 9.900711750511593e-09 2.5374923673294314e-09 3.208399983580417e-08 0.0 0.0
0.0 0.0 0.0 0.0 0.0 0.0 0.0 0.0
0.0 0.0 0.0 0.0 0.0 0.0 0.0 0.0
0.0 0.0 0.0 0.0 0.0 0.0 0.0 0.0
0.0 0.0 0.0 0.0 0.0 0.0 0.0 0.0
0.0 -7.18462332870173e-08 -5.322214849680892e-09 4.219826328331633e-09 1.102388521349622e-09 -1.0684932772376604e-08 0.0 0.0
0.0 -4.04612704613214e-06 2.7109182454906457e-06 -2.210734065070173e-06 -5.001841804204661e-07 3.5799614205444345e-06 0.0 0.0
0.0 0.00010334290782725426 -7.473236974318412e-05 5.168463864051848e-05 2.3047731102665812e-05 -1.175053392097408e-05 0.0 0.0
0.0 0.0010703048005599545 -0.0009261025705164852 0.0007085943534867513 0.00021750821702973418 -0.00021819961849529264 0.0 0.0
0.0 0.0036435520659413635 -0.0032100172747531264 0.0026784711213039907 0.0005315461534491316 -0.0008405703954821 0.0 0.0
0.0 0.00810614822304093 -0.007233043072757604 0.006474651230657368 0.0007583918421002351 -0.002112294501450892 0.0 0.0
0.0 0.01484899874294095 -0.013049470245451625 0.012164685280320858 0.0008847849651307613 -0.0038654104390154756 0.0 0.0
0.0 0.02368862300914835 -0.020614665367467297 0.01964383341211552 0.0009708319553517659 -0.00599445124753887 0.0 0.0
0.0 0.03431289666989365 -0.02975740609951663 0.028706805539365034 0.0010506005601515712 -0.00828648981326296 0.0 0.0
0.0 0.0466407074661653 -0.040298034388710643 0.039163636975010026 0.0011343974137006222 -0.010556522693555965 0.0 0.0
0.0 0.06023409662809633 -0.05212648985718454 0.05090393544707677 0.0012225544101078464 -0.012773489896325303 0.0 0.0
0.0 0.07561038763848953 -0.06518434473870113 0.06387569689276887 0.0013086478459321611 -0.015014049403687975 0.0 0.0
0.0 0.09199414307528993 -0.07941560935963016 0.07802757714569142 0.001388032213938722 -0.017291890782048798 0.0 0.0
0.0 0.10935650192359264 -0.09457665867397269 0.09313251763965608 0.0014441410343166883 -0.019499665308976604 0.0 0.0
0.0 0.12704994469161243 -0.10978570182874102 0.1083604373558952 0.001425264472845836 -0.021828210435691473 0.0 0.0
0.0 0.14221948689465957 -0.12275740262709658 0.12150338569756822 0.0012540169295283095 -0.025623895173591166 0.0 0.0
0.0 0.1502685784057984 -0.12930733984836495 0.12838505854182508 0.0009222813065399052 -0.03316082311236871 0.0 0.0
0.0 0.14488538266754972 -0.12367039786085351 0.12319074178586382 0.00047965607498986145 -0.04564073020641924 0.0 0.0
0.0 0.13463658703103376 -0.111278071202057 0.10526275917449554 0.006015312027561417 1.8329088247170944e-14 0.0 0.0
0.0 0.14488538266752743 -0.12367039786082963 0.12319074178583996 0.0004796560749896273 0.04564073020646143 0.0 0.0
0.0 0.15026857840575203 -0.1293073398483226 0.12838505854178203 0.0009222813065405448 0.0331608231124099 0.0 0.0
0.0 0.14221948689459368 -0.1227574026270387 0.12150338569751105 0.0012540169295276154 0.025623895173612687 0.0 0.0
0.0 0.12704994469152944 -0.10978570182866924 0.10836043735582322 0.0014252644728460421 0.021828210435692837 0.0 0.0
0.0 0.10935650192350885 -0.09457665867389968 0.09313251763958401 0.0014441410343156965 0.01949966530897287 0.0 0.0
0.0 0.09199414307519994 -0.07941560935955255 0.07802757714561416 0.0013880322139383577 0.01729189078203832 0.0 0.0
0.0 0.07561038763840054 -0.06518434473862392 0.06387569689269232 0.0013086478459315466 0.015014049403675527 0.0 0.0
0.0 0.06023409662800593 -0.05212648985710662 0.05090393544699899 0.0012225544101077041 0.01277348989631186 0.0 0.0
0.0 0.0466407074660826 -0.04029803438863895 0.039163636974938736 0.0011343974137002454 0.01055652269353835 0.0 0.0
0.0 0.03431289666981861 -0.029757406099452145 0.028706805539300613 0.0010506005601515123 0.008286489813241675 0.0 0.0
0.0 0.02368862300909027 -0.0206146653674171 0.01964383341206587 0.000970831955351222 0.0059944512475216495 0.0 0.0
0.0 0.014848998742896628 -0.01304947024541296 0.01216468528028272 0.0008847849651302343 0.0038654104390031573 0.0 0.0
0.0 0.008106148223012083 -0.0072330430727317796 0.0064746512306326125 0.0007583918420991749 0.0021122945014423414 0.0 0.0
0.0 0.0036435520659233384 -0.0032100172747377424 0.0026784711212901632 0.0005315461534475777 0.0008405703954767519 0.0 0.0
0.0 0.001070304800551989 -0.0009261025705101869 0.0007085943534817779 0.00021750821702840866 0.00021819961849354008 0.0 0.0
0.0 0.00010334290782625846 -7.473236974301965e-05 5.168463864046519e-05 2.304773110255446e-05 1.1750533921393316e-05 0.0 0.0
0.0 -4.046127046440086e-06 2.7109182450025125e-06 -2.210734064704832e-06 -5.001841802976718e-07 -3.579961420122385e-06 0.0 0.0
0.0 -7.184623319621463e-08 -5.322214842869262e-09 4.219826322927047e-09 1.1023885199412321e-09 1.0684932758656047e-08 0.0 0.0
0.0 0.0 0.0 0.0 0.0 0.0 0.0 0.0
0.0 0.0 0.0 0.0 0.0 0.0 0.0 0.0
0.0 0.0 0.0 0.0 0.0 0.0 0.0 0.0
0.0 0.0 0.0 0.0 0.0 0.0 0.0 0.0
0.0 0.0 0.0 0.0 0.0 0.0 0.0 0.0
0.0 -6.040093202862244e-06 5.81688899319486e-06 -4.7415684175265146e-06 -1.0753205756683654e-06 5.023316549503989e-06 0.0 0.0
0.0 0.00020361451354006282 -0.00020084924209891743 0.00014248805522424553 5.836118687467183e-05 -3.5684647110715482e-06 0.0 0.0
0.0 0.0017035001526398725 -0.001440750185457233 0.0011266050873642189 0.00031414509809301374 -0.00012528867795026056 0.0 0.0
0.0 0.004643261278742976 -0.004306818806090041 0.0036830585232047333 0.000623760282885309 -0.0006522031530904552 0.0 0.0
0.0 0.010019747775323771 -0.008956314311590004 0.008135650805422922 0.000820663506167095 -0.0015634313329752345 0.0 0.0
0.0 0.01762550304863224 -0.015573608133549223 0.014635438177674024 0.0009381699558751935 -0.0028496476600761303 0.0 0.0
0.0 0.02760539771266631 -0.024153420068197595 0.023125695031352842 0.0010277250368447748 -0.004419868851149862 0.0 0.0
0.0 0.039692475194540465 -0.034548882754168016 0.03343457941552527 0.001114303338642721 -0.006121110604167795 0.0 0.0
0.0 0.053564657218492795 -0.04658298539360686 0.04537835090315153 0.0012046344904552918 -0.007812133909565514 0.0 0.0
0.0 0.06941561565215215 -0.060120762846738035 0.058822836254757926 0.0012979265919801212 -0.009482940959756095 0.0 0.0
0.0 0.08642973048755326 -0.07506327681143804 0.07367544705858138 0.0013878297528566665 -0.011222806110945437 0.0 0.0
0.0 0.10513326758262806 -0.09122687780469338 0.08976155695944807 0.0014653208452453303 -0.01299894907903051 0.0 0.0
0.0 0.1247948108406077 -0.1082309428699177 0.1067122764357871 0.0015186664341305866 -0.014542688574399082 0.0 0.0
0.0 0.1444238290074959 -0.12521337329615934 0.12368905865153082 0.0015243146446286206 -0.015596914556007209 0.0 0.0
0.0 0.16167370189977578 -0.14011932276618244 0.1387172544979043 0.0014020682682780992 -0.017260944481956003 0.0 0.0
0.0 0.17182936810860816 -0.14862978828756435 0.14763002692927557 0.00099976135828853 -0.024126635554493146 0.0 0.0
0.0 0.16762246569756445 -0.1439719651485653 0.1435718171054626 0.0004001480431025121 -0.04272591723625304 0.0 0.0
0.0 0.15735680420968412 -0.13119472050478434 0.12487547835280728 0.00631924215197703 1.3615844562941959e-14 0.0 0.0
0.0 0.1676224656975357 -0.14397196514853774 0.14357181710543523 0.00040014804310249056 0.04272591723628531 0.0 0.0
0.0 0.17182936810855456 -0.14862978828751622 0.14763002692922794 0.000999761358288431 0.024126635554527123 0.0 0.0
0.0 0.16167370189969646 -0.14011932276611408 0.138717254497836 0.0014020682682780417 0.017260944481973503 0.0 0.0
0.0 0.1444238290074045 -0.12521337329608007 0.12368905865145202 0.0015243146446281964 0.015596914556007344 0.0 0.0
0.0 0.1247948108405117 -0.10823094286983419 0.10671227643570498 0.001518666434129249 0.014542688574396122 0.0 0.0
0.0 0.10513326758252825 -0.09122687780460664 0.0897615569593623 0.001465320845244407 0.012998949079025351 0.0 0.0
0.0 0.08642973048745431 -0.07506327681135219 0.07367544705849659 0.00138782975285563 0.01122280611093696 0.0 0.0
0.0 0.06941561565205204 -0.06012076284665136 0.05882283625467132 0.0012979265919800032 0.009482940959747724 0.0 0.0
0.0 0.05356465721839976 -0.04658298539352656 0.045378350903071775 0.0012046344904547042 0.0078121339095529084 0.0 0.0
0.0 0.03969247519445782 -0.034548882754096046 0.033434579415453566 0.0011143033386424779 0.006121110604151544 0.0 0.0
0.0 0.027605397712601794 -0.024153420068141036 0.02312569503129675 0.0010277250368442793 0.004419868851136878 0.0 0.0
0.0 0.017625503048580033 -0.015573608133503192 0.014635438177628657 0.0009381699558745545 0.0028496476600667 0.0 0.0
0.0 0.010019747775290461 -0.008956314311560234 0.008135650805394096 0.0008206635061661316 0.0015634313329688089 0.0 0.0
0.0 0.004643261278723645 -0.004306818806072387 0.00368305852318852 0.0006237602828838736 0.0006522031530865248 0.0 0.0
0.0 0.001703500152630262 -0.0014407501854490634 0.001126605087357513 0.00031414509809154806 0.0001252886779489364 0.0 0.0
0.0 0.00020361451353754885 -0.00020084924209747267 0.0001424880552232201 5.8361186874252305e-05 3.5684647113373675e-06 0.0 0.0
0.0 -6.040093202790495e-06 5.816888992792497e-06 -4.741568417223528e-06 -1.0753205755689955e-06 -5.023316549341965e-06 0.0 0.0
0.0 0.0 0.0 0.0 0.0 0.0 0.0 0.0
0.0 0.0 0.0 0.0 0.0 0.0 0.0 0.0
0.0 0.0 0.0 0.0 0.0 0.0 0.0 0.0
0.0 0.0 0.0 0.0 0.0 0.0 0.0 0.0
0.0 0.0 0.0 0.0 0.0 0.0 0.0 0.0
0.0 0.0 0.0 0.0 0.0 0.0 0.0 0.0
0.0 -4.098186860677394e-06 2.4100470651745148e-06 -2.874061898006239e-06 4.6401483283172763e-07 5.686667821981316e-06 0.0 0.0
0.0 0.0004657034284840582 -0.000385389357266547 0.00027787720409620104 0.00010751215317034588 5.956848710075483e-05 0.0 0.0
0.0 0.0023299350289244306 -0.002081381180135472 0.0016688678749286537 0.0004125133052068159 4.796729460951122e-05 0.0 0.0
0.0 0.005961311888918625 -0.005451249233216934 0.004757694098076912 0.0006935551351400262 -0.00022769393276040147 0.0 0.0
0.0 0.011957081531706852 -0.010702569441492244 0.009831537289604751 0.0008710321518874708 -0.000702023530379459 0.0 0.0
0.0 0.020481721276644122 -0.01808594945535225 0.017100878227280375 0.0009850712280718857 -0.0013734579325237442 0.0 0.0
0.0 0.03151659651366194 -0.027655299373039517 0.026574582318283795 0.0010807170547557064 -0.0022116247221445713 0.0 0.0
0.0 0.04498241891029988 -0.03929115050260648 0.0381172756562496 0.0011738748463568918 -0.0031293989676905686 0.0 0.0
0.0 0.060767460549999125 -0.0528155919086689 0.051545668331830656 0.0012699235768382658 -0.004060780075545783 0.0 0.0
0.0 0.0781006494311179 -0.0680728512182308 0.06670409858431978 0.0013687526339109528 -0.0050294833315954485 0.0 0.0
0.0 0.09751814447502741 -0.08488234261660654 0.08342064350717462 0.0014616991094318368 -0.006059105705911361 0.0 0.0
0.0 0.11837812418832072 -0.1029458011459197 0.10141064470802516 0.0015351564378945767 -0.007104458080946125 0.0 0.0
0.0 0.14004276376417088 -0.1216866686008353 0.12011001603874091 0.001576652562094236 -0.007969554827971542 0.0 0.0
0.0 0.16135500574931436 -0.14010173316567184 0.13852028838093086 0.0015814447847410326 -0.00827022685226499 0.0 0.0
0.0 0.18032626539244506 -0.15650339545120906 0.15495539954681437 0.0015479959043947862 -0.008172648463546829 0.0 0.0
0.0 0.19305892520435627 -0.16748713692537393 0.166175363252177 0.0013117736731966764 -0.011574647144680275 0.0 0.0
0.0 0.19180084597875977 -0.16564535518622173 0.1653183116330203 0.0003270435532014394 -0.031739899268111584 0.0 0.0
0.0 0.183027742354646 -0.15364221083101337 0.1474380808356216 0.006204129995391722 6.409803243734302e-15 0.0 0.0
0.0 0.19180084597872524 -0.16564535518619042 0.1653183116329888 0.00032704355320154567 0.03173989926812973 0.0 0.0
0.0 0.19305892520429377 -0.1674871369253193 0.16617536325212268 0.0013117736731966122 0.011574647144700597 0.0 0.0
0.0 0.18032626539235225 -0.15650339545112932 0.1549553995467338 0.001547995904395419 0.008172648463555195 0.0 0.0
0.0 0.16135500574921 -0.1401017331655821 0.13852028838084054 0.0015814447847416226 0.00827022685226504 0.0 0.0
0.0 0.14004276376405797 -0.12168666860073726 0.12011001603864342 0.0015766525620937123 0.007969554827969936 0.0 0.0
0.0 0.11837812418820891 -0.10294580114582276 0.10141064470792897 0.0015351564378938772 0.007104458080944027 0.0 0.0
0.0 0.09751814447491428 -0.08488234261650832 0.08342064350707735 0.001461699109430858 0.006059105705906072 0.0 0.0
0.0 0.07810064943100611 -0.06807285121813428 0.06670409858422309 0.0013687526339111603 0.005029483331591079 0.0 0.0
0.0 0.06076746054989602 -0.052815591908579346 0.051545668331741824 0.0012699235768375268 0.00406078007553874 0.0 0.0
0.0 0.04498241891021121 -0.03929115050252956 0.03811727565617346 0.0011738748463561135 0.003129398967681048 0.0 0.0
0.0 0.031516596513587215 -0.027655299372974063 0.026574582318218916 0.0010807170547551658 0.0022116247221371176 0.0 0.0
0.0 0.020481721276586776 -0.018085949455301557 0.01710087822723025 0.000985071228071292 0.0013734579325191585 0.0 0.0
0.0 0.011957081531668409 -0.010702569441457867 0.009831537289571165 0.0008710321518866966 0.0007020235303763127 0.0 0.0
0.0 0.005961311888894942 -0.005451249233195324 0.004757694098056485 0.0006935551351388387 0.00022769393275786487 0.0 0.0
0.0 0.0023299350289139103 -0.0020813811801262344 0.0016688678749208498 0.00041251330520538363 -4.796729460959273e-05 0.0 0.0
0.0 0.00046570342848002895 -0.00038538935726369555 0.00027787720409409237 0.0001075121531696032 -5.9568487100414206e-05 0.0 0.0
0.0 -4.098186860643939e-06 2.4100470646669354e-06 -2.874061897616221e-06 4.6401483294935933e-07 -5.686667821844758e-06 0.0 0.0
0.0 0.0 0.0 0.0 0.0 0.0 0.0 0.0
0.0 0.0 0.0 0.0 0.0 0.0 0.0 0.0
0.0 0.0 0.0 0.0 0.0 0.0 0.0 0.0
0.0 0.0 0.0 0.0 0.0 0.0 0.0 0.0
0.0 0.0 0.0 0.0 0.0 0.0 0.0 0.0
0.0 0.0 0.0 0.0 0.0 0.0 0.0 0.0
0.0 2.545604480806841e-05 -2.4162305158155286e-05 1.550327177308106e-05 8.659033385074322e-06 1.102579218966498e-05 0.0 0.0
0.0 0.0007887653191254489 -0.0006179017864425719 0.0004430422258192551 0.0001748595606233169 0.000152229985944221 0.0 0.0
0.0 0.0029731754510001515 -0.0026597684792161727 0.0021108830222917653 0.0005488854569244033 0.0003451881855619859 0.0 0.0
0.0 0.006996243300116398 -0.006423044849571148 0.005535842848203484 0.0008872020013676671 0.0004530641381378348 0.0 0.0
0.0 0.013482109867496345 -0.01214731582251544 0.010997912960357924 0.0011494028621575208 0.0005056798894333611 0.0 0.0
0.0 0.0225903721631734 -0.02014478038401036 0.01876058759857302 0.0013841927854373116 0.000493163453059105 0.0 0.0
0.0 0.034502270316703484 -0.03051776184406242 0.028876337887737743 0.0016414239563246262 0.00037772844890437453 0.0 0.0
0.0 0.049103765015219375 -0.04317928536230592 0.041237339104072915 0.0019419462582329857 0.0001976692484352404 0.0 0.0
0.0 0.0658595531226157 -0.057953666382059975 0.05566395326562732 0.00228971311643264 -4.358370091739252e-05 0.0 0.0
0.0 0.08488992124729854 -0.07463289039506914 0.07196001215289553 0.0026728782421736232 -0.0003832951725744405 0.0 0.0
0.0 0.10586658499916876 -0.09298109827841633 0.08990940275473039 0.0030716955236860166 -0.0007905810866096347 0.0 0.0
0.0 0.1283537151978364 -0.11261102557511643 0.1091573079560143 0.0034537176191019522 -0.0012919507761778217 0.0 0.0
0.0 0.15155131605188935 -0.13278182904932062 0.12900726845933053 0.00377456058999023 -0.0018022114676854752 0.0 0.0
0.0 0.17401606001935563 -0.1522638100650081 0.1482824704520886 0.003981339612919378 -0.002072382036772312 0.0 0.0
0.0 0.19374607519807863 -0.16935144957002862 0.1653063722571196 0.004045077312908753 -0.0018521649431977767 0.0 0.0
0.0 0.20798296900828173 -0.18187703451131274 0.1777601276918359 0.004116906819477056 -0.003507025591638376 0.0 0.0
0.0 0.21079395176913499 -0.18483878381272845 0.18060076829516908 0.0042380155175592415 -0.023915398155612735 0.0 0.0
0.0 0.2066762351445707 -0.17615500764243597 0.16500796384139943 0.011147043801036177 1.4155343563970746e-15 0.0 0.0
0.0 0.21079395176909893 -0.18483878381269636 0.180600768295138 0.004238015517558277 0.023915398155618713 0.0 0.0
0.0 0.20798296900821178 -0.18187703451125237 0.17776012769177574 0.004116906819476696 0.003507025591646895 0.0 0.0
0.0 0.1937460751979761 -0.16935144956993972 0.1653063722570322 0.0040450773129076766 0.0018521649431984845 0.0 0.0
0.0 0.17401606001923955 -0.15226381006490736 0.14828247045198814 0.003981339612918914 0.0020723820367699215 0.0 0.0
0.0 0.15155131605176375 -0.13278182904921146 0.12900726845922245 0.003774560589988786 0.0018022114676839122 0.0 0.0
0.0 0.12835371519771407 -0.11261102557500964 0.10915730795590906 0.0034537176191004717 0.0012919507761768763 0.0 0.0
0.0 0.10586658499904607 -0.09298109827830892 0.08990940275462572 0.003071695523683078 0.0007905810866063699 0.0 0.0
0.0 0.0848899212471767 -0.07463289039496296 0.07196001215279098 0.002672878242172024 0.0003832951725719399 0.0 0.0
0.0 0.06585955312250295 -0.057953666381961574 0.055663953265531044 0.002289713116430452 4.3583700914816455e-05 0.0 0.0
0.0 0.049103765015125776 -0.04317928536222394 0.04123733910399282 0.0019419462582311456 -0.0001976692484378234 0.0 0.0
0.0 0.03450227031662159 -0.030517761843991093 0.028876337887667858 0.0016414239563232113 -0.00037772844890630224 0.0 0.0
0.0 0.022590372163113118 -0.020144780383957332 0.01876058759852128 0.0013841927854360597 -0.0004931634530599043 0.0 0.0
0.0 0.013482109867453303 -0.012147315822476901 0.010997912960320638 0.0011494028621562575 -0.0005056798894328193 0.0 0.0
0.0 0.006996243300089633 -0.006423044849546624 0.005535842848180459 0.0008872020013661571 -0.00045306413813735343 0.0 0.0
0.0 0.0029731754509894123 -0.0026597684792059586 0.0021108830222830817 0.0005488854569228796 -0.00034518818556097795 0.0 0.0
0.0 0.0007887653191202247 -0.0006179017864385082 0.00044304222581627995 0.00017485956062222952 -0.00015222998594335578 0.0 0.0
0.0 2.5456044807856042e-05 -2.4162305158149282e-05 1.5503271773101762e-05 8.65903338504749e-06 -1.1025792189548967e-05 0.0 0.0
0.0 0.0 0.0 0.0 0.0 0.0 0.0 0.0
0.0 0.0 0.0 0.0 0.0 0.0 0.0 0.0
0.0 0.0 0.0 0.0 0.0 0.0 0.0 0.0
SCALARS Wm float 4
LOOKUP_TABLE default
13.205164421015123 2.0378229265665477 5.578061587855184 5.589279906593394
6.705720669788967 3.200468994636973 1.5808499706255645 1.9244017045264323
0.758109490336597 0.6943540848051115 0.0110451184118451 0.05271028711964044
0.5594401143356343 0.5228438034770813 0.010129502389954534 0.02646680846859887
1.1690620933820508 0.8072363764030568 0.1304524830738769 0.2313732339051161
2.5905969188739726 1.186474013177759 0.529563883653457 0.8745590220427566
5.434632882868268 1.719671894758181 1.6229260225727438 2.092034965537345
10.101119559794856 2.4002454075030863 3.6689804971691506 4.031893655122617
17.052111509510706 3.280081044255736 7.003736901388487 6.768293563866479
26.6127817647545 4.389370659806653 11.895371679861114 10.328039425086748
38.915412431843286 5.741829632817751 18.493606417333012 14.679976381692525
53.83194414359606 7.33271228406854 26.7340176871121 19.76521417241543
71.41399081323777 9.135692664360343 36.7609531395692 25.517345009308208
91.50549426852753 11.121307606393334 48.51473759601875 31.86944906611548
113.73905884933531 13.138168265691785 61.88588374109439 38.71500684254908
137.38168683351427 14.932328393290081 76.57734091666526 45.87201752355893
161.19125030912625 16.20941975840939 91.91003474191825 53.07179580879867
183.55513069842866 16.758443522316053 106.91026725172418 59.88641992438829
202.77593441688833 16.655019417495602 120.30683265659536 65.81408234279759
216.28252281871977 15.639656287619868 130.38077313429633 70.26209339680348
220.60967397896005 13.710296010752941 134.70457074593534 72.19480722227183
216.2825228186682 15.639656287594251 130.38077313427792 70.262093396796
202.7759344168189 16.65501941749299 120.3068326565488 65.8140823427769
183.55513069833134 16.75844352231271 106.91026725165938 59.886419924359224
161.19125030901387 16.209419758402834 91.9100347418461 53.07179580876493
137.38168683340658 14.932328393291565 76.57734091659114 45.87201752352386
113.7390588492121 13.138168265668599 61.88588374102795 38.71500684251551
91.50549426841141 11.121307606375911 48.51473759595418 31.869449066081316
71.41399081312841 9.135692664347319 36.76095313950733 25.517345009273804
53.831944143503364 7.33271228406308 26.734017687057317 19.765214172383015
38.915412431764196 5.7418296328083684 18.493606417290387 14.679976381665412
26.612781764699513 4.3893706598048885 11.895371679829724 10.328039425064917
17.052111509466467 3.2800810442466837 7.003736901368719 6.768293563851068
10.101119559766534 2.400245407500047 3.6689804971558155 4.031893655110673
5.434632882850533 1.7196718947532919 1.622926022566554 2.0920349655306887
2.590596918865152 1.1864740131746212 0.529563883651299 0.87455902203923
1.169062093379098 0.8072363764016008 0.130452483073266 0.23137323390423112
0.5594401143349631 0.5228438034766352 0.01012950238987085 0.026466808468457087
0.7581094903353817 0.694354084804224 0.01104511841175578 0.05271028711940132
6.7057206697833225 3.2004689946378515 1.5808499706223775 1.9244017045230917
13.205164420986408 2.0378229265521166 5.578061587847286 5.5892799065870165
15.819893580867411 6.869898940027573 4.344418629811968 4.605576011027867
2.736525257583856 0.6010721109348705 0.9053459400695829 1.2301072065794016
0.2788518440850085 0.32550557413283354 -0.01576599152368814 -0.03088773852413678
0.4331539024284501 0.4205366864218164 0.002459162467680134 0.010158053538953334
0.8796122985442578 0.6589978123123558 0.06907821520641551 0.15153627102548667
2.066836686366469 0.9749282982517157 0.4142701545571931 0.6776382335575603
4.458191047800128 1.3448911245983364 1.326437635275381 1.786862287926409
8.545334876145704 1.8059517347436211 3.1605501638188933 3.5788329775831897
14.66779206263796 2.351597929460887 6.190298321670301 6.125895811506777
23.033053201489228 2.9771164759114033 10.618641319374577 9.437295406203239
33.720708833744595 3.6699301137609246 16.577546157737583 13.473232562246091
46.767084181814894 4.439191826037508 24.155861509937033 18.17203084584036
61.90345998725987 5.291579884692823 33.12728586656062 23.48459423600646
79.32808374175735 6.191978822079588 43.78317924633174 29.35292567334605
98.66704329801553 7.076435176831594 55.89483353855936 35.69577458262463
119.36236611137728 7.812435467984627 69.20217906564329 42.34775157774929
140.45081938160496 8.242481017118992 83.17914661115711 49.02919175332881
160.57001967106018 8.25790057826545 96.92932537327364 55.38279371952105
177.89949583944596 7.764676542520869 109.21433783062946 60.92048146629558
190.1512107068269 6.828669759860332 118.36704217356879 64.95549877339778
194.81738460000005 5.760137663512223 122.36452551083477 66.6927214256531
190.1512107068124 6.828669759873499 118.3670421735495 64.9554987733894
177.89949583939216 7.764676542529273 109.21433783058657 60.9204814662764
160.57001967096943 8.257900578256342 96.92932537321754 55.382793719495595
140.45081938151114 8.242481017120975 83.17914661109197 49.029191753298164
119.36236611128152 7.812435467989943 69.2021790655754 42.347751577716195
98.66704329792216 7.076435176831766 55.89483353849754 35.695774582592904
79.32808374166098 6.191978822072295 43.78317924627366 29.35292567331501
61.903459987168766 5.291579884690228 33.12728586650415 23.484594235974363
46.767084181730205 4.439191826031281 24.15586150988815 18.172030845810752
33.72070883367963 3.6699301137617213 16.577546157697785 13.473232562220128
23.0330532014386 2.9771164759089936 10.618641319346475 9.43729540618313
14.667792062601004 2.351597929456629 6.190298321652208 6.125895811492162
8.545334876120831 1.8059517347417855 3.1605501638069224 3.5788329775721226
4.4581910477860704 1.344891124596386 1.3264376352696798 1.7868622879200027
2.0668366863592444 0.9749282982497269 0.41427015455492167 0.6776382335545976
0.8796122985421795 0.6589978123114967 0.06907821520595657 0.15153627102472622
0.4331539024281037 0.42053668642143144 0.0024591624676712377 0.010158053539001058
0.27885184408504565 0.3255055741326809 -0.01576599152360995 -0.030887738524025213
2.7365252575762966 0.6010721109335928 0.9053459400665168 1.230107206576188
15.819893580840594 6.869898940015803 4.344418629803862 4.6055760110209105
11.979660045199896 5.476595769053375 3.031556521947947 3.471507754198571
1.7061925447692015 0.24944976133027538 0.604934495155715 0.8518082882832115
0.17405408762665528 0.17370158281464262 5.379652802864939e-05 0.0002987082839840359
0.3204484101773196 0.32215718894276535 -0.0005847154427625658 -0.0011240633226831812
0.6636889064044562 0.5652039958474122 0.026031199747282425 0.07245371080976161
1.6075063757338026 0.8729409564989516 0.2684837055282103 0.4660817137066413
3.612000875537098 1.2271015316271976 0.9763369324818155 1.4085624114280844
7.176445383374926 1.6534583794385456 2.5273038462610478 2.9956831576753324
12.556762345488078 2.1399131092162653 5.132204623807516 5.2846446124642945
19.937096719095678 2.6808005531929266 8.99285006046325 8.263446105439495
29.321381696839627 3.2752300856138703 14.167695469640783 11.87845614158498
40.64665075382006 3.9344022942942525 20.640595818086062 16.07165264143974
54.0386141955128 4.677329015476993 28.56646242405499 20.794822755980835
69.16426176422097 5.4870744118908785 37.65482584327116 26.02236150905888
86.1313104516451 6.297019931161248 48.15551750894001 31.67877301154382
104.37663891930472 7.0169144720419885 59.72237076376067 37.63735368350205
123.10186807304184 7.5122916104080115 71.90932886308154 43.680247599552324
141.0552577939508 7.623002367591307 83.98967821600014 49.442577210359396
156.5047169311374 7.221891827455046 94.82830924599222 54.454515857690126
167.45034706908902 6.512250695808208 102.86159001056343 58.07650636271734
171.43198117029473 5.1821303797294185 106.52395263955046 59.7258981510149
167.45034706906046 6.512250695806608 102.86159001054509 58.07650636270873
156.50471693108372 7.2218918274565915 94.8283092459545 54.45451585767261
141.05525779388086 7.623002367588691 83.98967821595429 49.4425772103378
123.10186807295405 7.512291610402599 71.90932886302609 43.68024759952535
104.37663891921437 7.016914472041253 59.722370763701036 37.63735368347209
86.1313104515556 6.297019931154107 48.15551750888596 31.678773011515556
69.16426176413975 5.487074411888864 37.65482584322018 26.02236150903065
54.03861419543052 4.6773290154714 28.566462424006584 20.79482275595255
40.646650753749114 3.9344022942909844 20.640595818044392 16.071652641413763
29.321381696776495 3.275230085607579 14.16769546960693 11.878456141561982
19.93709671905161 2.6808005531918386 8.992850060438625 8.263446105421146
12.556762345454423 2.1399131092120056 5.132204623791519 5.284644612450896
7.1764453833538235 1.6534583794371507 2.527303846250991 2.9956831576656855
3.6120008755247195 1.227101531625945 0.9763369324768117 1.4085624114219626
1.607506375728743 0.8729409564979765 0.2684837055265168 0.46608171370425
0.6636889064030794 0.5652039958467675 0.026031199747029776 0.07245371080928209
0.3204484101771835 0.322157188942514 -0.0005847154427402727 -0.001124063322590295
0.17405408762655536 0.17370158281454237 5.379652802812363e-05 0.0002987082839848706
1.7061925447633937 0.24944976132951266 0.6049344951533617 0.8518082882805174
11.979660045173986 5.476595769042611 3.0315565219400815 3.4715077541913013
9.068063182248583 4.267371070780367 2.154019015295146 2.6466730961730716
1.1493513159386621 0.11583575227830221 0.40669139337174365 0.6268241702886146
0.12180992614812493 0.12180992614812493 0.0 0.0
0.2392712236175578 0.2404160562856875 -0.00016156292223592556 -0.000983269745893767
0.49840557216403647 0.47198621551028874 0.005346122535526748 0.02107323411822105
1.196608334270136 0.75562581910902 0.14586486511205687 0.29511765004905954
2.8583465107126695 1.110727216642401 0.6964854199391968 1.0511338741310712
5.863543234052565 1.497097475112263 1.939395169190689 2.4270505897496144
10.517149668428324 1.9287192111752547 4.138165124283067 4.450265332970003
16.90778646442377 2.394296363279881 7.422362645415285 7.091127455728603
24.989462523463573 2.8978234253839186 11.80619999628468 10.285439101794985
34.78088948255904 3.463645854146178 17.345458321950556 13.97178530646231
46.15891491612963 4.1045067613003825 23.93890915607137 18.11549899875787
59.34288015374093 4.815023531064016 31.837747488411473 22.690109134265448
73.93355492846821 5.563622936386316 40.707792864435 27.66213912764693
89.69776706918373 6.270101685601325 50.49973007695414 32.92793530662828
106.14487086273543 6.817305752756434 61.03119539419517 38.29636971578384
122.03561924315413 7.036658249088189 71.51939068506165 43.479570309004274
135.8239848222402 6.802168898312737 80.98464791780508 48.03716800612239
145.7473994712795 6.234653976676998 88.11337780864272 51.39936768595982
149.3675697055255 4.644937196107228 91.68676609088155 53.0358664185367
145.74739947125886 6.234653976676677 88.11337780862867 51.39936768595349
135.82398482219688 6.802168898314647 80.98464791777451 48.0371680061078
122.03561924309737 7.036658249091088 71.51939068502148 43.47957030898482
106.1448708626614 6.817305752750497 61.03119539414995 38.296369715760946
89.6977670690997 6.270101685592376 50.499730076904775 32.927935306602556
73.93355492840165 5.563622936392328 40.70779286438813 27.662139127621142
59.342880153670826 4.815023531064215 31.8377474883668 22.69010913423979
46.15891491605802 4.1045067612913195 23.938909156032377 18.11549899873432
34.780889482499866 3.4636458541452306 17.34545832191532 13.971785306439319
24.989462523411508 2.897823425378081 11.806199996257567 10.28543910177586
16.90778646438354 2.3942963632775918 7.422362645393871 7.09112745571207
10.517149668399128 1.9287192111720228 4.138165124269191 4.4502653329579145
5.863543234034608 1.497097475110358 1.9393951691828906 2.4270505897413575
2.8583465107016806 1.1107272166401925 0.6964854199351673 1.0511338741263203
1.1966083342659337 0.7556258191075333 0.14586486511097424 0.29511765004742607
0.49840557216279957 0.4719862155093282 0.005346122535421719 0.02107323411804955
0.23927122361731984 0.24041605628545226 -0.00016156292223516887 -0.000983269745897193
0.12180992614798043 0.12180992614798043 0.0 0.0
1.1493513159341195 0.11583575227788254 0.40669139336984683 0.6268241702863907
9.068063182227299 4.267371070771834 2.1540190152888847 2.6466730961665834
6.766909017357692 3.301843056003162 1.4811343133483599 1.9839316480061728
0.8415888204390124 0.1135406859200648 0.2906359287464777 0.4374122057724696
0.11089077241313222 0.11089077241313222 0.0 0.0
0.1915830776407014 0.19156320695536885 5.329077734613783e-06 1.4541607597902354e-05
0.3756745036529461 0.3796909714786513 -0.002528597823598972 -0.0014878700021060723
0.873414640869193 0.6492324138783868 0.06658070433864101 0.15760152265216476
2.1701952093836434 0.9741130181189497 0.4641174967537168 0.7319646945109785
4.626712574762447 1.3389281344284487 1.4081739486430362 1.8796104916909624
8.549246073213851 1.7180812963897063 3.2036945983208467 3.627470178503299
13.958082064326916 2.1161938500215753 5.916556625018625 5.925331589286721
20.80536023496318 2.5421853652031485 9.566874013332008 8.696300856428016
29.038519992501516 3.0191193603868087 14.14283188319407 11.876568748920642
38.68528726135446 3.5714085347819498 19.676610911472515 15.437267815100004
49.6042416451159 4.196646994386578 26.035765416283237 19.371829234446068
61.989091673833826 4.8667241907047964 33.47219203311718 23.650175450011865
75.50692402640578 5.5512433142532 41.7487975536959 28.20688315845668
89.57251190332404 6.152704921464789 50.51077779691482 32.909029184944444
103.45873721565411 6.505151512063504 59.45363249131519 37.49995321227541
115.76812406683963 6.447960148882568 67.70843329524818 41.61173062270891
124.938208894257 6.003335716511543 74.17330065340732 44.76157252433808
128.3551217473772 4.134244022833134 77.74308289828433 46.47779482625979
124.93820889424498 6.003335716517875 74.173300653395 44.76157252433206
115.76812406680494 6.447960148885889 67.70843329522279 41.611730622696285
103.4587372156082 6.505151512069013 59.45363249128116 37.499953212258035
89.57251190326954 6.152704921468428 50.51077779687645 32.90902918492467
75.50692402633523 5.551243314242436 41.74879755365714 28.206883158435645
61.98909167376129 4.866724190693457 33.47219203307808 23.65017544998978
49.604241645052014 4.1966469943814015 26.035765416246406 19.37182923442419
38.685287261298214 3.5714085347759386 19.67661091144175 15.437267815080515
29.03851999245136 3.0191193603857425 14.142831883164826 11.876568748900786
20.805360234920737 2.5421853652008033 9.566874013308908 8.696300856411021
13.95808206429426 2.1161938500206228 5.916556625001068 5.925331589272569
8.549246073189932 1.7180812963882603 3.2036945983092013 3.6274701784924672
4.626712574747445 1.338928134425979 1.4081739486370322 1.8796104916844336
2.1701952093751697 0.9741130181166737 0.4641174967509804 0.7319646945075162
0.8734146408665528 0.6492324138774141 0.06658070433803233 0.15760152265110636
0.375674503652408 0.37969097147793684 -0.002528597823574632 -0.0014878700019541897
0.19158307764057667 0.19156320695528878 5.329077730921284e-06 1.4541607557033905e-05
0.11089077241296719 0.11089077241296719 0.0 0.0
0.8415888204353212 0.11354068591981314 0.2906359287448766 0.4374122057706328
6.766909017340462 3.3018430559960885 1.481134313343557 1.983931648000813
4.957333527770758 2.533020734328454 0.9922856350725258 1.4320271583697783
0.5969043850082352 0.143478435180913 0.16219677047101932 0.29122917935630255
0.12520823605431514 0.12520823605431514 0.0 0.0
0.16972236697961754 0.16969340194457577 2.264143863224566e-06 2.670089117852574e-05
0.2972328191926039 0.30581186000039146 -0.002073760554226517 -0.006505280253560983
0.6223519624437017 0.5363545808996195 0.018532552979619848 0.06746482856446244
1.540243688908681 0.8224108303984827 0.2470813260867874 0.4707515324234106
3.5268988955164366 1.170698685339437 0.9929162698595432 1.3632839403174575
6.647947061117056 1.5069713572487782 2.319550048902061 2.8214256549662178
11.127224378673727 1.847258597274441 4.50930239109431 4.770663390304975
16.7520824206321 2.2036533178174658 7.433811298006018 7.114617804808615
23.478398757011636 2.6044126061144284 11.084870498503951 9.789115652393262
31.308680886704707 3.0734366696656177 15.466843063835423 12.768401153203666
40.32224670020998 3.6167699251528993 20.647589127003354 16.057887648053743
50.41897142644981 4.226541916263654 26.543129762900698 19.649299747285447
61.49369620131868 4.863032612399808 33.13530965890619 23.49535393001273
73.45849441284511 5.493128286975593 40.47128083100167 27.49408529486784
85.36040233962842 5.998072136838634 47.867645661445025 31.49468454134476
96.22593491893512 6.1406022174474995 54.88614524045724 35.199187461030355
104.82720643765461 5.819494425732815 60.82097908872783 38.18673292319397
108.17782906014675 3.657598956938291 64.49876278792293 40.02146731528552
104.82720643763766 5.81949442573063 60.82097908871808 38.18673292318889
96.22593491890463 6.1406022174474915 54.886145240437166 35.199187461019996
85.36040233958487 5.998072136835079 47.867645661418585 31.494684541331168
73.45849441279209 5.493128286971893 40.47128083096963 27.49408529485052
61.493696201274254 4.863032612406584 33.135309658873666 23.495353929994053
50.41897142639297 4.22654191625262 26.54312976287187 19.649299747268476
40.32224670016154 3.6167699251500953 20.647589126975344 16.057887648036104
31.308680886660373 3.073436669663255 15.466843063810181 12.768401153186945
23.478398756969227 2.6044126061116133 11.084870498480825 9.78911565237679
16.752082420596473 2.2036533178151267 7.43381129798723 7.114617804794123
11.127224378646053 1.847258597271669 4.509302391080925 4.77066339029346
6.647947061096811 1.5069713572464771 2.3195500488930434 2.821425654957292
3.5268988955042575 1.1706986853373884 0.9929162698547308 1.363283940312139
1.5402436889027706 0.8224108303972838 0.24708132608485975 0.4707515324206267
0.6223519624417079 0.5363545808986652 0.01853255297929224 0.06746482856375033
0.2972328191924328 0.30581185999994165 -0.0020737605541744646 -0.006505280253334498
0.16972236697929932 0.1696934019442566 2.2641438632092896e-06 2.6700891179462072e-05
0.1252082360539621 0.1252082360539621 0.0 0.0
0.5969043850055125 0.1434784351808047 0.1621967704698563 0.2912291793548517
4.957333527757515 2.5330207343229723 0.9922856350690268 1.4320271583655177
3.5054679310604033 1.9140499894845409 0.6086608838347284 0.9827570577411346
0.4455598256529909 0.18753045622099346 0.08564779749662159 0.17238157193537573
0.15044832884859266 0.15045852670083176 -5.595583971474408e-07 -9.638293841952227e-06
0.16581539841397192 0.1658011123978549 9.176681420014073e-07 1.3368347975063384e-05
0.2506878298948891 0.2549107841708292 -0.0008552819750947691 -0.0033676723008454076
0.45008647254567596 0.4396162137596 -0.0015334818630911263 0.012003740649167064
1.0562347358568682 0.6815967460898875 0.11561805125951483 0.2590199385074658
2.4538251235723947 0.9764647404652351 0.5648790058449645 0.9124813772621955
4.9715887040574405 1.2966017431064256 1.6283831671434439 2.0466037938075727
8.393312159893867 1.5826911233060592 3.180153959021434 3.630467077566372
12.866477247113808 1.8813380893537108 5.43980297094835 5.545336186811745
18.153351641188554 2.2152989896813002 8.225442174045863 7.712610477461393
24.26758849303927 2.6099705119383954 11.54471381707707 10.112904164023803
31.2869363440662 3.0791174632026523 15.449314053389463 12.75850482747408
39.230591877125065 3.6193024693702838 19.950453725080344 15.66083568267445
48.16617833515402 4.215071919269271 25.159989929086432 18.79111648679831
57.56766394891692 4.8444297318061125 30.629729703112506 22.09350451399832
67.59437970768232 5.469873843557214 36.67434243257704 25.45016343154805
77.30359738435922 5.849269908076485 42.72385263737638 28.730474838906364
85.3845252891137 5.691939323216832 48.085818850700505 31.60676711519636
88.82314450353647 3.2292739390240044 51.96580986818239 33.628060696330024
85.3845252891128 5.691939323227108 48.08581885069322 31.60676711519247
77.30359738433286 5.849269908072207 42.72385263736198 28.7304748388987
67.59437970766469 5.469873843572832 36.67434243255567 25.45016343153616
57.567663948870404 4.844429731796298 30.62972970308921 22.093504513984907
48.16617833510853 4.215071919267317 25.15998992905912 18.791116486782087
39.23059187709155 3.61930246937376 19.95045372505773 15.66083568266008
31.286936344028945 3.0791174632002103 15.44931405336854 12.7585048274602
24.267588493004276 2.6099705119371377 11.54471381705728 10.112904164009864
18.15335164115571 2.2152989896786814 8.225442174028606 7.712610477448423
12.86647724708582 1.8813380893516238 5.439802970934156 5.54533618680004
8.393312159875633 1.5826911233082275 3.1801539590107613 3.6304670775566414
4.97158870404255 1.296601743104974 1.628383167136713 2.0466037938008634
2.453825123564035 0.9764647404644747 0.564879005841566 0.912481377257994
1.0562347358528035 0.6815967460888424 0.1156180512583441 0.25901993850561755
0.4500864725444784 0.43961621375843996 -0.0015334818630963042 0.012003740649135113
0.25068782989440686 0.2549107841703148 -0.0008552819750855862 -0.003367672300822502
0.16581539841335002 0.16580111239723835 9.176681415783688e-07 1.336834797013782e-05
0.15044832884832568 0.15045852670055238 -5.595583963068968e-07 -9.638293830423766e-06
0.44555982565102537 0.1875304562208545 0.08564779749584626 0.1723815719343242
3.5054679310506898 1.9140499894807301 0.6086608838322276 0.9827570577377328
2.4498104336547586 1.4594992691046909 0.3817631096860153 0.6085480548640526
0.32661912186507674 0.2143876177927685 0.02644918215154912 0.08578232192075912
0.17686073421374968 0.17675806842185054 9.801848184281824e-06 9.286394371482708e-05
0.17335042495509598 0.17331325283061647 2.8575089395386694e-06 3.431461553994001e-05
0.22548230383861625 0.22842643318313852 -0.0005313308873179789 -0.002412798457204201
0.34620831944570873 0.3574148991774929 -0.004950621229814552 -0.0062559585019697425
0.687174588019819 0.5436233770690672 0.0337275612624431 0.10982364968830863
1.5870528431103503 0.7827562134803597 0.2754527230284952 0.5288439066014954
3.307483264224497 1.0550545009774979 0.914545140343596 1.3378836229034035
5.930512291365005 1.3184199168779387 2.088339608802294 2.5237527656847734
9.173971475952806 1.5661127616130677 3.6150491618894236 3.992809552450316
13.066506354128569 1.8437447836608274 5.56813445332706 5.654627117140684
17.56540885764967 2.172946754150893 7.913905391971751 7.478556711527023
22.706522881834285 2.5693158156497367 10.653009764772186 9.484197301412362
28.62104867055821 3.0489412171497157 13.877558428464155 11.694549024944338
35.236582361272646 3.5961193563025873 17.528672280771524 14.111790724198551
42.582223830550454 4.193079634967332 21.70179205638369 16.68735213919941
50.42030426037677 4.890122383190462 26.12957368548139 19.40060819170493
58.61373499417009 5.526307443745155 30.873319533692616 22.214108016732315
66.37400832698526 5.6217137440297815 35.78634837746776 24.965946205487715
70.09809513941842 2.863430132898175 39.9808979304125 27.253767076107742
66.37400832697224 5.621713744022638 35.78634837746383 24.965946205485785
58.61373499415606 5.526307443745851 30.873319533683294 22.214108016726943
50.42030426034414 4.890122383183572 26.12957368546526 19.400608191695333
42.582223830518004 4.19307963496125 21.70179205636739 16.68735213918935
35.23658236123995 3.5961193563020557 17.528672280751934 14.111790724185948
28.62104867052788 3.0489412171488355 13.877558428446594 11.694549024932458
22.706522881805544 2.569315815645039 10.65300976475815 9.48419730140235
17.565408857623048 2.172946754147582 7.91390539195847 7.478556711516987
13.066506354104241 1.84374478365752 5.568134453315527 5.65462711713119
9.173971475932085 1.5661127616107686 3.6150491618797034 3.9928095524416096
5.930512291347421 1.3184199168758364 2.0883396087944077 2.5237527656771785
3.3074832642138734 1.0550545009756251 0.9145451403394885 1.3378836228987583
1.5870528431042537 0.7827562134789838 0.2754527230265368 0.5288439065987327
0.6871745880173721 0.5436233770684741 0.033727561261843654 0.10982364968705446
0.34620831944515806 0.35741489917658964 -0.004950621229754293 -0.006255958501677405
0.2254823038381177 0.22842643318267672 -0.0005313308873144204 -0.0024127984572445884
0.1733504249547556 0.17331325283025337 2.8575089404192415e-06 3.431461556179283e-05
0.17686073421376922 0.1767580684217572 9.801848192989443e-06 9.286394381901472e-05
0.32661912186343606 0.21438761779241544 0.026449182151079186 0.08578232191994116
2.449810433647757 1.459499269101828 0.3817631096842046 0.6085480548617243
1.5952173525341964 1.0808219445610552 0.17222947728881594 0.3421659306843247
0.25450436033058904 0.22781848886892095 0.0021734468710897046 0.024512424590578567
0.19912587128443754 0.19922202961738755 -9.93696811227401e-06 -8.622136483779553e-05
0.18724325935719716 0.187417785215845 -1.6310271568263477e-05 -0.00015821558707955512
0.21435599322476576 0.21678872473131292 -0.0004679528271295685 -0.0019647786794176145
0.29113552411736343 0.2990739939063903 -0.003104945790808623 -0.004833523998218289
0.45782295325462286 0.42922133585203404 0.0014137467203982818 0.02718787068219036
0.9229853407725507 0.5976667415543168 0.096215013037444 0.22910358618079066
1.928198602635136 0.8020476218877711 0.41000501061531475 0.7161459701320497
3.570359456745492 1.0183365209335167 1.0612485357329324 1.4907744000790437
5.709065715561045 1.2294209956334665 1.988769009580584 2.4908757103469945
8.299862191501088 1.4627587086645488 3.2032245947682467 3.6338788880682906
11.272524379372566 1.7368308746328172 4.647363021132354 4.88833048360739
14.666890098032368 2.0651163075425227 6.33731946818641 6.264454322303441
18.602698850410206 2.4748555728138397 8.338415965473036 7.789427312123318
23.165149646527887 2.978044762271225 10.698372445300897 9.488732438955774
28.31361114950388 3.54589597188701 13.409152594908655 11.358562582708215
33.96566019761195 4.182500329972627 16.406301434598923 13.376858433040411
40.59272128318617 5.039170348657382 19.91647017045608 15.6370807640727
48.04058465647384 5.611410215223551 24.204161039472112 18.225013401778167
52.22716974935143 2.6137242811839227 28.655795176601487 20.957650291566043
48.04058465647793 5.6114102152274254 24.204161039472215 18.225013401778302
40.59272128317347 5.039170348652803 19.916470170451067 15.63708076406958
33.96566019758718 4.182500329962409 16.406301434590038 13.376858433034732
28.313611149493774 3.545895971898103 13.409152594896055 11.358562582699609
23.16514964649423 2.9780447622558612 10.69837244529015 9.488732438948228
18.602698850388748 2.474855572810268 8.33841596546279 7.789427312115688
14.666890098013075 2.0651163075362167 6.337319468179131 6.264454322297735
11.272524379359934 1.73683087463475 4.64736302112453 4.888330483600652
8.299862191486005 1.4627587086637128 3.203224594760724 3.633878888061573
5.709065715549381 1.229420995635194 1.9887690095739425 2.4908757103402435
3.5703594567356585 1.018336520931209 1.0612485357293227 1.490774400075126
1.9281986026299385 0.8020476218873839 0.41000501061324246 0.7161459701293136
0.9229853407692941 0.5976667415531027 0.09621501303669419 0.22910358617949717
0.45782295325299394 0.4292213358512588 0.001413746720110987 0.02718787068162414
0.29113552411681487 0.29907399390538697 -0.003104945790738892 -0.004833523997833087
0.21435599322430762 0.21678872473059377 -0.0004679528271020623 -0.001964778679184155
0.18724325935666195 0.1874177852153942 -1.6310271575271543e-05 -0.00015821558715702216
0.19912587128397516 0.19922202961681074 -9.936968105919822e-06 -8.622136472963849e-05
0.25450436032966617 0.2278184888686307 0.0021734468708705344 0.02451242459016486
1.5952173525293365 1.080821944558738 0.172229477287778 0.34216593068282064
1.017813894850556 0.8100769001014724 0.061710613691428315 0.14602638105765567
0.2097702671985386 0.22149086349436992 -0.00534229048231496 -0.006378305813516412
0.21499996682176736 0.21468842578739183 3.981310385925505e-05 0.000271727930516298
0.2035958086196614 0.20345878839697729 1.3533621751156273e-05 0.00012348660093292974
0.21535738301014684 0.21719629185688355 -0.00041867719839742897 -0.0014202316483392524
0.26585206427316704 0.27105426973470764 -0.0019507304501751796 -0.003251475011365376
0.35195964289033543 0.3415894730969011 0.0001076094984771276 0.01026256029495711
0.5038046024215665 0.4191838619392191 0.01829673477717296 0.06632400570517434
0.8700775960562319 0.5302596620902188 0.10165701186194706 0.2381609221040658
1.5910702111270971 0.6674074378318016 0.32912015394922584 0.5945426193460693
2.6942662900524867 0.8160192070651195 0.7570902577591605 1.1211568252282054
4.023033016157004 0.982024844944273 1.288687050604566 1.7523211206081653
5.608139729943642 1.1857486920959135 1.9684355539999796 2.453955483847751
7.460330387432305 1.4401410320978238 2.787688443089816 3.232500912244667
9.63881358210362 1.7662650296341493 3.762988288292601 4.109560264176867
12.27506798686153 2.1981296294367683 4.951941233744011 5.1249971236807434
15.485904039924062 2.739746038835421 6.429992871984391 6.31616512910425
19.22427666633575 3.303763821010275 8.24184591259124 7.6786669327342345
23.702755045664237 4.019443098526864 10.415865949964113 9.267445997173255
30.292682796741392 5.341563297095368 13.504308000596179 11.446811499049849
36.084821994436304 2.6300566893960737 18.635824155479114 14.818941149561105
30.292682796757834 5.341563297110394 13.504308000597078 11.446811499050357
23.702755045665032 4.019443098531148 10.415865949962042 9.267445997171837
19.224276666333125 3.3037638210168745 8.241845912585962 7.678666932730292
15.485904039901996 2.7397460388292814 6.4299928719753865 6.316165129097333
12.275067986863997 2.1981296294478185 4.951941233739404 5.124997123676776
9.63881358209007 1.7662650296280538 3.7629882882886565 4.10956026417336
7.460330387429692 1.4401410321012014 2.7876884430866813 3.232500912241807
5.608139729932642 1.1857486920925084 1.9684355539961367 2.453955483843993
4.023033016147755 0.9820248449420832 1.2886870506011336 1.7523211206045388
2.6942662900445695 0.8160192070646141 0.7570902577557201 1.121156825224236
1.5910702111251531 0.6674074378331272 0.32912015394790567 0.5945426193441203
0.8700775960541371 0.5302596620901486 0.1016570118611945 0.23816092210279388
0.5038046024208426 0.41918386193900303 0.01829673477703863 0.06632400570480113
0.351959642889427 0.34158947309623167 0.00010760949837144637 0.010262560294823763
0.26585206427257946 0.2710542697340266 -0.0019507304501521295 -0.00325147501129508
0.21535738300987647 0.21719629185643674 -0.0004186771983725724 -0.0014202316481877369
0.20359580861905358 0.2034587883961902 1.3533621768010319e-05 0.00012348660109531728
0.21499996682132813 0.2146884257867676 3.9813103879482266e-05 0.0002717279306809995
0.20977026719828934 0.22149086349416774 -0.005342290482315132 -0.0063783058135632375
1.017813894847454 0.8100769000998372 0.06171061369089539 0.14602638105672114
0.6354197263553264 0.5919635117385933 0.008647725581190573 0.0348084890355425
0.1895800246868388 0.19713150727377401 -0.0015491323441631222 -0.0060023502427721176
0.22439481187551474 0.2250386056605595 -7.383397618481341e-05 -0.000569959808859928
0.2197219142097268 0.21939296156230684 3.666796665420219e-05 0.0002922846807657896
0.22628032024362316 0.22707160400860535 -0.0003001886303918546 -0.0004910951345901906
0.2628272011258782 0.26539611562557397 -0.001403342182029607 -0.001165572317666196
0.32614974087369886 0.3108708802692089 0.0022596239422187675 0.013019236662271368
0.38086445196928637 0.3130763867083557 0.016507673712420866 0.051280391548509933
0.4290088100948582 0.27246556976905517 0.04964258331063825 0.10690065701516478
0.5504101990991942 0.2480192791009725 0.1044499820896784 0.19794093790854345
0.8413278389418777 0.28789220173771535 0.21935683792907942 0.33407879927508294
1.2875750911879917 0.30641941767968073 0.3896840549641717 0.5914716185441395
1.8926886101412972 0.30976435063696983 0.6555942855164215 0.927329973987906
2.639699623081489 0.3320513067914273 0.9942315562794535 1.3134167600106088
3.548295879148655 0.39224348886933674 1.4076731157495457 1.7483792745297724
4.621666167284117 0.511282656366118 1.8830706377873343 2.227312873130664
5.9110184667668335 0.7134055417560271 2.4527967809979097 2.7448161440128978
7.399350879338966 0.9831784064379965 3.119167194643734 3.297005278257231
9.493661352220272 1.4290895788841262 4.027098998173819 4.037472775162326
14.986671319594464 3.238239610880404 5.866293772268444 5.882137936445616
25.07224880473684 2.827505650975909 11.80055464636554 10.4441885073954
14.986671319589597 3.2382396108726343 5.866293772270184 5.882137936446786
9.493661352214943 1.4290895788824922 4.027098998171766 4.037472775160683
7.3993508793226805 0.9831784064306426 3.1191671946389974 3.29700527825304
5.911018466757308 0.7134055417540455 2.452796780993898 2.7448161440093592
4.62166616727454 0.5112826563626431 1.8830706377843507 2.227312873127546
3.548295879148581 0.39224348887264304 1.4076731157477307 1.7483792745282074
2.639699623077715 0.3320513067913087 0.9942315562777063 1.3134167600087001
1.8926886101348446 0.30976435063608265 0.6555942855138415 0.9273299739849206
1.2875750911864374 0.30641941768098285 0.38968405496278347 0.5914716185426714
0.8413278389386671 0.2878922017372902 0.21935683792767086 0.33407879927370554
0.5504101990971104 0.24801927909871813 0.10444998208972975 0.19794093790866296
0.42900881009432823 0.272465569769082 0.04964258331041499 0.10690065701483112
0.38086445196868846 0.3130763867083115 0.01650767371224252 0.05128039154813447
0.32614974087290644 0.31087088026844756 0.00225962394216337 0.01301923666229545
0.2628272011250974 0.265396115624812 -0.0014033421820395587 -0.001165572317675164
0.22628032024325695 0.22707160400804222 -0.00030018863036566814 -0.0004910951344196233
0.21972191420943132 0.21939296156184862 3.666796667299697e-05 0.0002922846809096448
0.22439481187529048 0.22503860566040962 -7.383397619288657e-05 -0.0005699598089262682
0.1895800246864992 0.1971315072731176 -0.0015491323441126491 -0.006002350242505817
0.6354197263538565 0.5919635117375526 0.008647725581039456 0.034808489035264956
0.4088899205263314 0.4095777433736214 -0.00020744426941271684 -0.0004803785778772496
0.17821230794273746 0.17829679737548879 7.78619642798895e-06 -9.22756291793131e-05
0.2276885110577201 0.2274647123037702 7.149919356615311e-06 0.00021664883459333517
0.23345977517484695 0.23300980946417807 4.5123333278842405e-05 0.0004048423773899983
0.24330612710168983 0.2430070515606789 -0.00015755257485201556 0.00045662811586304566
0.28310561367191506 0.2832905276196547 -0.0011298800226552496 0.0009449660749157023
0.36341419950171794 0.34924766682566205 0.0017968067762191354 0.012369725899836823
0.509903072588378 0.42111901547461655 0.019915642782533396 0.06886841433122831
0.8719739103027517 0.5301898408305248 0.10241892536128158 0.23936514411094528
1.5901025478094266 0.6670040231631646 0.32881471091225534 0.5942838137340062
2.6980486348939117 0.8178405223128179 0.7584207914714312 1.1217873211096636
4.0430466944128 0.9853650934574008 1.298182499728938 1.75949910122646
5.650303707875734 1.1914943779085196 1.9867222310828492 2.472087098884368
7.501086530302619 1.4407589598645731 2.8095072204077773 3.250820350030265
9.53235250705885 1.733706479947067 3.725914938898295 4.0727310882134855
11.634153688532697 2.0720080258663103 4.680241549154854 4.881904113511538
13.538229329772443 2.436845808447033 5.530583004431052 5.57080051689436
15.057195705089999 2.866920152120503 6.181861487559572 6.0084140654099265
15.589915693326704 3.1698675634910494 6.353240253458855 6.066807876376802
12.602720187151059 2.1560609677238407 5.464989000008485 4.981670219418728
25.393904888725892 4.457240616790423 10.901038250873622 10.035626021061837
12.602720187165929 2.1560609677309928 5.464989000012806 4.981670219422131
15.589915693319872 3.1698675634857487 6.353240253457889 6.066807876376239
15.057195705087361 2.8669201521267835 6.181861487554523 6.008414065406043
13.53822932974982 2.436845808438761 5.530583004423079 5.570800516887987
11.634153688514129 2.0720080258602307 4.680241549148065 4.881904113505826
9.532352507046237 1.7337064799445516 3.7259149388930255 4.072731088208667
7.501086530289089 1.440758959860506 2.809507220402801 3.250820350025782
5.650303707863937 1.1914943779093312 1.9867222310765231 2.4720870988780823
4.043046694399029 0.9853650934538991 1.2981824997239504 1.7594991012211811
2.6980486348828956 0.8178405223108715 0.7584207914671939 1.1217873211048293
1.5901025478042434 0.6670040231630674 0.32881471091014713 0.5942838137310292
0.8719739103000544 0.5301898408297872 0.10241892536056299 0.23936514410970433
0.5099030725871669 0.4211190154742157 0.0199156427822619 0.06886841433068945
0.36341419950105114 0.3492476668249991 0.0017968067761911155 0.01236972589986065
0.28310561367102816 0.28329052761863815 -0.0011298800226637424 0.0009449660750537976
0.2433061271012949 0.2430070515600757 -0.00015755257482680368 0.0004566281160460422
0.23345977517453032 0.23300980946368638 4.512333329480159e-05 0.00040484237754931493
0.22768851105756396 0.22746471230348622 7.149919364637962e-06 0.00021664883471298054
0.17821230794276488 0.17829679737556153 7.786196419906274e-06 -9.227562921648197e-05
0.40888992052527 0.4095777433722448 -0.0002074442693782429 -0.0004803785775966177
0.2644649991491783 0.2644442600190561 1.3476233019465938e-06 1.9391506820260498e-05
0.16441266197643978 0.16446464979806152 -2.939973820310506e-06 -4.904784780144269e-05
0.2245498008072988 0.2250059170495127 -6.296744133040098e-05 -0.00039314880088349837
0.2431537842840951 0.2423448784697712 6.688004802643947e-05 0.0007420257662975242
0.26470752830380206 0.26671910649280106 -0.0005398623758970566 -0.0014717158131018124
0.3250309671262417 0.3273576199050525 -0.0013687475632357198 -0.0009579052155754539
0.4757686171170846 0.4306836506454638 0.005272306622762485 0.039812659848858276
0.9317021422954996 0.5985502570540558 0.09943688008180532 0.23371500515963833
1.9284256200713863 0.8017665620147828 0.4101816322176695 0.7164774258389336
3.5688990906497295 1.0182799420218063 1.0604410674430078 1.490178081184916
5.713357115341586 1.2302757134304674 1.9903823414310224 2.4926990604800947
8.318233958227754 1.4653335415375968 3.2114924708996933 3.641407945790462
11.308543297270493 1.7396549050839094 4.665498663780821 4.9033897284057675
14.68862289885943 2.0580338936572597 6.353874929191544 6.276714076010623
18.461867625054744 2.4271305231306814 8.286676472435317 7.748060629488742
22.474895648241024 2.836832594496628 10.380983612625828 9.257079441118552
26.398004267352825 3.2904860127227122 12.4268318624679 10.680686392162213
29.73455304690937 3.812457329785177 14.079719869363059 11.842375847761117
31.364958977095526 4.044655560135424 14.9352370920769 12.385066324883194
29.119264501310223 3.9521672843958298 13.747887945957716 11.419209270956678
35.8605026362156 8.589724124204892 14.852961548774564 12.417816963236124
29.119264501290935 3.9521672843708857 13.7478879459611 11.419209270958957
31.364958977097494 4.044655560139648 14.935237092075536 12.385066324882294
29.734553046879046 3.812457329771347 14.079719869353108 11.842375847754592
26.398004267335438 3.2904860127292537 12.426831862453707 10.68068639215247
22.47489564821389 2.8368325944926878 10.380983612612338 9.25707944110888
18.46186762502625 2.4271305231250935 8.286676472422204 7.748060629478947
14.688622898833897 2.0580338936516527 6.353874929180456 6.2767140760017925
11.308543297249237 1.7396549050831205 4.665498663769698 4.903389728396424
8.318233958205958 1.4653335415358772 3.211492470889114 3.6414079457809687
5.7133571153216245 1.2302757134277684 1.9903823414223805 2.492699060471474
3.568899090637253 1.0182799420198512 1.0604410674379703 1.4901780811794338
1.9284256200646148 0.8017665620134603 0.4101816322153067 0.7164774258358475
0.9317021422916296 0.5985502570534629 0.09943688008058768 0.23371500515757906
0.47576861711529256 0.4306836506444185 0.005272306622518187 0.039812659848356
0.32503096712543167 0.3273576199039958 -0.0013687475631937317 -0.0009579052153705888
0.2647075283031995 0.2667191064920459 -0.000539862375871171 -0.0014717158129752554
0.24315378428372525 0.24234487846921166 6.688004804429837e-05 0.0007420257664692563
0.22454980080711168 0.2250059170492646 -6.296744132663028e-05 -0.00039314880082625775
0.16441266197650387 0.164464649798156 -2.9399738219732485e-06 -4.904784783012048e-05
0.26446499914832305 0.2644442600182139 1.3476233008971399e-06 1.9391506808273514e-05
0.163827326568306 0.163827326568306 0.0 0.0
0.14551239416281303 0.1455166983945636 -1.4328105404036436e-07 -4.160950696500454e-06
0.21456544227128058 0.214874910593996 -3.9879785926529527e-05 -0.0002695885367889195
0.24905275384146278 0.24984987252525673 -0.00015666002670100817 -0.0006404586570929782
0.2897627479257736 0.2908322323824461 -0.0004699603013707637 -0.0005995241553016261
0.3870339844902772 0.377570801576369 -0.0012699546246350054 0.010733137538543502
0.7144109158552532 0.5513712202755887 0.04247825180584404 0.12056144377382005
1.5932117211479926 0.7832116265074034 0.2784331131592811 0.5315669814813085
3.3052330950725723 1.0550504935754133 0.9134430305149435 1.336739570982213
5.9304147827704385 1.3187824429565658 2.088360014241057 2.523272325572818
9.178788539223644 1.566709055272006 3.6160105186724345 3.996068965279205
13.08001928640791 1.8448489141571767 5.5750621326955265 5.660108239555213
17.579980978558314 2.1726100403080313 7.922485284797904 7.4848856534523724
22.68641801872964 2.5566936601943104 10.648849232912024 9.480875125623307
28.444587594352917 2.9948455915715035 13.804983443617807 11.644758559163602
34.62592129020142 3.469569835754676 17.235581635194436 13.920769819252307
40.974603938061136 3.9733115275954547 20.84734821680724 16.153944193658443
46.34988354644403 4.359975634568614 23.921232428826347 18.068675483049077
49.06164434721734 4.448829385538441 25.563109329590812 19.04970563208809
45.71251780281378 3.936379088139659 23.80858298296753 17.96755573170658
51.24944770519386 11.575498825663981 22.470537718119996 17.20341116140989
45.71251780282567 3.9363790881501055 23.808582982968474 17.967555731707076
49.06164434719739 4.4488293855267695 25.5631093295856 19.049705632085015
46.34988354642747 4.359975634576672 23.92123242881099 18.068675483039822
40.974603938023336 3.9733115275897712 20.847348216787402 16.153944193646147
34.62592129016222 3.4695698357506393 17.235581635173045 13.920769819238531
28.444587594325675 2.9948455915768704 13.80498344359837 11.644758559150434
22.686418018701247 2.5566936601960544 10.648849232894404 9.480875125610787
17.579980978525796 2.1726100403054764 7.922485284780828 7.484885653439497
13.080019286379168 1.8448489141571045 5.5750621326796725 5.660108239542383
9.178788539199429 1.566709055272176 3.6160105186594933 3.9960689652677606
5.93041478275158 1.318782442954003 2.0883600142327787 2.5232723255647986
3.305233095059752 1.0550504935725729 0.9134430305102386 1.3367395709769405
1.5932117211423504 0.7832116265069957 0.278433113157137 0.5315669814782172
0.7144109158522057 0.5513712202746389 0.042478251805121374 0.12056144377244515
0.387033984489324 0.37757080157530937 -0.001269954624634609 0.01073313753864922
0.28976274792544404 0.29083223238186506 -0.00046996030134130104 -0.0005995241550797337
0.249052753841089 0.24984987252471957 -0.00015666002667948312 -0.0006404586569511097
0.21456544227089602 0.21487491059364783 -3.9879785931569745e-05 -0.000269588536820217
0.14551239416265774 0.14551669839439826 -1.432810533475878e-07 -4.1609506871892085e-06
0.1638273265678638 0.1638273265678638 0.0 0.0
0.09599724458147071 0.09599724458147071 0.0 0.0
0.12209970057149808 0.12209547449777067 2.3276924337965782e-07 3.99330448403657e-06
0.19872700281296193 0.19886548409674917 -1.7281329409648392e-05 -0.00012119995437757865
0.2514970165406412 0.2518420784053919 -0.0001076942008347907 -0.00023736766391584723
0.3177540969352537 0.32207576644358316 -0.001327965082568815 -0.002993704425760583
0.49544346962287733 0.45854367799671825 0.006632410123136657 0.030267381503022495
1.0734835995550365 0.6785049866209643 0.12235362993045917 0.27262498300361304
2.454850743829208 0.976943910717959 0.5655840622187245 0.9123227708925239
4.968619090961364 1.2971819923255736 1.6265781206237495 2.0448589780120403
8.39483577278923 1.5832807042448185 3.1804487115649636 3.63110635697945
12.87307426143997 1.8812936530131699 5.4437225706778944 5.548058037748907
18.155607469994564 2.21318164211383 8.227996266034435 7.714429561846297
24.24519505162447 2.602997263202891 11.535803258718174 10.106394529703422
31.20751795218311 3.0616786036943138 15.412254229944635 12.733585118544147
39.045034871475394 3.581007430060943 19.860130620221998 15.60389682119246
47.735497488639574 4.134796208376729 24.940741193440683 18.659960086822167
56.30951838903277 4.60787319706739 29.98238177668049 21.719263415284896
63.80040665093111 4.822790398901847 34.65738457533267 24.32023167669658
67.34034623480974 4.529373770892997 37.14976223846939 25.66121022544734
63.049849414553144 4.018497664039288 34.721169551716734 24.310182198797126
68.46957282328201 14.496285743056903 31.44340362351481 22.529883456710262
63.049849414549264 4.01849766403626 34.72116955171627 24.31018219879674
67.34034623478759 4.52937377089014 37.14976223845693 25.66121022544052
63.80040665089911 4.822790398900493 34.65738457531299 24.32023167668562
56.309518388985936 4.607873197064431 29.982381776652723 21.719263415268774
47.735497488593985 4.134796208376892 24.94074119341212 18.659960086804993
39.04503487142824 3.5810074300551245 19.86013062019668 15.603896821176429
31.207517952138694 3.0616786036904644 15.412254229920228 12.733585118527996
24.245195051583817 2.6029972632012472 11.535803258695248 10.106394529687318
18.155607469955566 2.2131816421109365 8.227996266013902 7.714429561830729
12.873074261406806 1.881293653010113 5.443722570661427 5.548058037735269
8.394835772762153 1.5832807042411106 3.18044871155275 3.6311063569682913
4.9686190909435295 1.2971819923232168 1.6265781206160113 2.044858978004303
2.454850743818617 0.9769439107154305 0.5655840622151089 0.9123227708880777
1.0734835995506957 0.6785049866198992 0.12235362992918944 0.27262498300160665
0.4954434696211679 0.4585436779956236 0.006632410122961754 0.030267381502582687
0.3177540969348119 0.32207576644271146 -0.0013279650824868571 -0.002993704425412705
0.25149701654025775 0.2518420784047844 -0.00010769420081981522 -0.00023736766370688946
0.19872700281268643 0.1988654840965086 -1.7281329413433095e-05 -0.0001211999544087067
0.12209970057132555 0.1220954744975982 2.3276924336996675e-07 3.9933044839934034e-06
0.09599724458126407 0.09599724458126407 0.0 0.0
0.052909745333716535 0.052909745333716535 0.0 0.0
0.09684041125027501 0.09684041125027501 0.0 0.0
0.17850076647194718 0.178516276594486 -1.6166217988668925e-06 -1.389350073991203e-05
0.25136381401147545 0.2524500041410239 -0.00018945550011355327 -0.0008967346294349117
0.35311257960183157 0.3537865101094419 -0.0015780063186208696 0.0009040758110105416
0.6598422183040467 0.5486945822999785 0.028706680841850712 0.08244095516221722
1.5529696417710912 0.8222681537511475 0.253556040563981 0.4771454474559627
3.524634832821158 1.1718747813605102 0.9914808945401014 1.3612791569205458
6.6464402246990995 1.5079574371834155 2.318422527743034 2.820060259772652
11.131061775682696 1.8478212096135527 4.511009624319048 4.772230941750089
16.75681488870327 2.2024661339896054 7.43715986148957 7.1171888932241
23.46387137481469 2.5973205710105955 11.080551433037568 9.785999370766518
31.238729667528517 3.0563286877581604 15.435160717046415 12.74724026272393
40.176480067023704 3.5962243096296387 20.570659012512696 16.009596744881367
50.23496191788732 4.219148226420602 26.432309341481126 19.583504349985592
61.23753552720022 4.831420414921792 32.991635668901225 23.414479443377218
72.5292840311495 5.24808338633475 40.02807810430981 27.253122540504936
81.77210732181614 5.179420074814271 46.05731235787407 30.535374889127798
85.78223606488922 4.517075638079739 49.07739562462792 32.18776480218153
81.00597644718421 4.2264878838350315 46.195564696030885 30.583923867318298
87.25285536353216 17.437303310903303 41.66982845203286 28.145723600596003
81.00597644716782 4.226487883824859 46.1955646960268 30.58392386731613
85.78223606486755 4.517075638086665 49.077395624609146 32.18776480217171
81.77210732178241 5.1794200748185855 46.057312357849284 30.53537488911457
72.52928403110579 5.24808338634374 40.028078104275735 27.253122540486324
61.237535527140636 4.831420414917641 32.99163566886586 23.41447944335715
50.23496191782733 4.219148226415278 26.432309341446857 19.58350434996518
40.17648006697074 3.5962243096293594 20.57065901248031 16.00959674486108
31.2387296674747 3.0563286877528624 15.435160717017283 12.747240262704565
23.463871374767038 2.597320571006434 11.080551433012158 9.785999370748442
16.756814888661168 2.2024661339863663 7.43715986146761 7.11718889320719
11.131061775651716 1.8478212096124647 4.51100962430291 4.7722309417363435
6.646440224677788 1.5079574371808782 2.318422527733671 2.820060259763238
3.5246348328070805 1.1718747813590185 0.9914808945341091 1.361279156913953
1.5529696417643137 0.8222681537490617 0.25355604056206266 0.4771454474531905
0.6598422183015302 0.5486945822988787 0.02870668084136738 0.08244095516128397
0.3531125796013399 0.3537865101086582 -0.0015780063185759914 0.0009040758112579129
0.2513638140110844 0.25245000414060215 -0.00018945550011161268 -0.0008967346294062377
0.17850076647171564 0.17851627659427666 -1.6166218009467029e-06 -1.3893500760030089e-05
0.09684041125009221 0.09684041125009221 0.0 0.0
0.05290974533361206 0.05290974533361206 0.0 0.0
0.027342308377814276 0.027342308377814276 0.0 0.0
0.07263104175169081 0.07263104175169081 0.0 0.0
0.1562965325323885 0.15628971576872058 3.960330448053176e-07 6.420730623111643e-06
0.25093735346765134 0.2518444187107313 -0.00016719415691262624 -0.0007398710861672747
0.4086716918034026 0.4048348719255379 -0.0003677377854835141 0.004204557663348262
0.8820386199636264 0.6356342421444602 0.0696434701596858 0.17676090765947988
2.174982051293907 0.9743324387992043 0.46745306660499186 0.7331965458897096
4.624195108616715 1.3403515092835256 1.4060918374151514 1.8777517619180368
8.550306286237404 1.7191841674177406 3.2039099797520367 3.627212139067629
13.963646109228147 2.116491745360494 5.919506391120274 5.92764797274738
20.805651778834324 2.5391219134941343 9.56882954135376 8.697700323986423
29.003762110797627 3.0062703334243452 14.129780413636016 11.867711363737278
38.5685741779727 3.544068701786003 19.621859991593315 15.402645484593384
49.3934906743586 4.171224327764428 25.919745225838092 19.302521120756097
61.77228438954732 4.879908739698509 33.3253759526696 23.566999697179206
75.3294613558315 5.56622096842654 41.62349327276007 28.13974711464487
88.82629783544374 5.8942172072285395 50.189579668897146 32.74250095931803
99.9099884936306 5.484536341136706 57.7749547888203 36.6504973636736
104.82454691591695 4.51618827615898 61.68829531308093 38.62006332667707
99.77934194997691 4.481466982440993 58.36360476942955 36.934270198106375
107.19370310308845 20.36816114510731 52.74156293463466 34.08397902334649
99.77934194995385 4.481466982432913 58.36360476941949 36.934270198101366
104.8245469158851 4.516188276162421 61.6882953130575 38.620063326665175
99.90998849357298 5.484536341126613 57.774954788788705 36.65049736365766
88.82629783537627 5.89421720722387 50.18957966885585 32.74250095929653
75.32946135576903 5.5662209684292465 41.623493272717795 28.139747114621976
61.772284389481065 4.879908739697931 33.32537595262765 23.566999697155474
49.393490674292636 4.171224327763046 25.919745225797655 19.30252112073193
38.56857417790971 3.54406870178347 19.621859991556313 15.402645484569911
29.003762110737217 3.006270333416494 14.129780413604667 11.867711363716055
20.80565177878722 2.5391219134940304 9.56882954132666 8.69770032396652
13.963646109188605 2.1164917453562815 5.919506391100743 5.927647972731584
8.550306286210017 1.719184167413717 3.2039099797399877 3.6272121390563115
4.624195108600296 1.3403515092822023 1.406091837407839 1.8777517619102577
2.1749820512845326 0.974332438797328 0.4674530666016726 0.73319654588553
0.8820386199601147 0.6356342421430435 0.06964347015891852 0.17676090765815278
0.4086716918027217 0.4048348719246384 -0.00036773778544297675 0.0042045576635261666
0.25093735346741053 0.25184441871043467 -0.0001671941569128299 -0.0007398710861112402
0.15629653253211265 0.15628971576844564 3.960330447626668e-07 6.4207306222634735e-06
0.07263104175159457 0.07263104175159457 0.0 0.0
0.02734230837770579 0.02734230837770579 0.0 0.0
0.013397105204690958 0.013397105204690958 0.0 0.0
0.05178066986234018 0.05178066986234018 0.0 0.0
0.13489720973814237 0.13489470741347065 1.22441077168008e-07 2.379883594554421e-06
0.25411645257077564 0.25542031827705136 -0.0002387289279727652 -0.0010651367783030064
0.4917330288251046 0.4634867163949987 0.00575403204283068 0.022492280387275326
1.1928873875698223 0.7512659971602041 0.1469111122326398 0.2947102781769792
2.8569159687626495 1.110743975723098 0.6958848691147738 1.0502871239247777
5.864193221787586 1.4981750698807887 1.939441146765508 2.4265770051412874
10.52162560490179 1.9297606958332798 4.14012783352476 4.451737075543755
16.91355793275875 2.393851180781194 7.425943284022498 7.09376346795505
24.982239224713048 2.8922386125004396 11.805269890286269 10.284730721926351
34.725417820036235 3.445673794308396 17.322710029520657 13.95703399620719
46.00588606289927 4.070285449876443 23.864956552929925 18.07064406009291
59.07318032466109 4.779943486781887 31.688520316846372 22.60471652103281
73.61714682704594 5.564351969322877 40.502482420558664 27.550312437164397
89.39987175953657 6.289225144729392 50.291578358236016 32.81906825657115
105.30044838611664 6.549361622196715 60.64746928844133 38.10361747547863
118.30288243395488 5.833549394959817 69.81876950367099 42.65056353532408
124.3997762971446 4.551362469643622 74.77478235157552 45.073631475925445
119.65795176243488 4.722142004304474 71.48768301247267 43.448126745657746
128.83050707847784 23.242228242454942 65.21684157539416 40.371437260628745
119.65795176242281 4.722142004312893 71.48768301245893 43.448126745651074
124.39977629710505 4.551362469646799 74.77478235154663 45.07363147591159
118.30288243389558 5.8335493949606825 69.81876950363048 42.65056353530439
105.30044838604738 6.549361622201816 60.64746928839184 38.10361747545372
89.39987175945842 6.2892251447244325 50.29157835818788 32.81906825654608
73.6171468269614 5.564351969314894 40.502482420509104 27.55031243713741
59.07318032458965 4.779943486783958 31.688520316799657 22.604716521006043
46.005886062826214 4.070285449875257 23.864956552885168 18.070644060065774
34.72541781996777 3.4456737943035867 17.322710029482142 13.957033996182037
24.982239224655576 2.892238612498009 11.805269890253957 10.284730721903614
16.9135579327153 2.393851180778051 7.42594328399973 7.093763467937514
10.52162560486973 1.9297606958302103 4.140127833509281 4.451737075530238
5.8641932217674455 1.4981750698782206 1.9394411467570372 2.426577005132187
2.8569159687517076 1.1107439757216475 0.695884869110455 1.0502871239196059
1.1928873875649175 0.7512659971586498 0.14691111223132183 0.2947102781749455
0.4917330288238224 0.46348671639376093 0.005754032042801669 0.022492280387259672
0.25411645257035387 0.2554203182764524 -0.0002387289279639211 -0.0010651367781344275
0.13489720973797062 0.1348947074133021 1.2244107697319608e-07 2.3798835915387224e-06
0.05178066986242759 0.05178066986242759 0.0 0.0
0.013397105204608151 0.013397105204608151 0.0 0.0
0.006478852020091488 0.006478852020091488 0.0 0.0
0.035718616612485585 0.035718616612485585 0.0 0.0
0.11740952302730373 0.11740952302730373 0.0 0.0
0.2673368635332131 0.26988880358409073 -0.0005028032398241841 -0.002049136811053297
0.6121120708859423 0.5316253760619796 0.01950856980405961 0.060978125019903164
1.5854650449337901 0.8676932032320835 0.26139706220953585 0.4563747794921711
3.6094955394103305 1.2272288748099227 0.9743003715154794 1.4079662930849268
7.184011335574748 1.6542243522161624 2.532267107318938 2.9975198760396498
12.564129615966381 2.1404597651930413 5.1359053354386095 5.287764515334735
19.94133180271117 2.6791641466033544 8.996328716986616 8.265838939121203
29.304423905102304 3.2667981634252614 14.162649719854324 11.8749760218227
40.57253346828155 3.912852870348741 20.60825270969646 16.051427888236343
53.8609040344643 4.639920664253611 28.477940233577826 20.74304313663283
68.84566503597044 5.439746183954617 37.4801966653594 25.925722186656422
85.65276187716209 6.247015608442685 47.87489922979846 31.530847038920918
103.67673586276108 6.936335812918902 59.31108101329962 37.42931903654255
121.69469962627339 7.194000141805943 71.18071712275446 43.319982361713
136.81022013101787 6.365779259117941 81.9513921235691 48.49304874833083
144.5516056853277 4.605033849095214 88.44836544795116 51.498206388281325
140.8908047107119 4.883816315857193 85.77617545137018 50.23081294348447
152.36872829211006 25.940056252458298 79.23200431587601 47.196667723775725
140.89080471067476 4.883816315846596 85.77617545135193 50.230812943476195
144.5516056852752 4.605033849093836 88.44836544791642 51.498206388265
136.81022013094346 6.365779259117515 81.95139212351893 48.493048748307025
121.69469962619323 7.194000141809679 71.18071712269807 43.319982361685554
103.67673586265835 6.936335812901891 59.31108101324259 37.42931903651386
85.65276187707347 6.247015608440938 47.87489922974163 31.530847038890926
68.84566503587862 5.439746183946176 37.48019666530574 25.925722186626725
53.86090403438111 4.639920664251862 28.47794023352646 20.743043136602783
40.57253346820364 3.912852870343592 20.60825270965168 16.051427888208366
29.30442390503864 3.266798163423718 14.162649719817358 11.874976021797565
19.941331802660887 2.679164146599082 8.996328716960239 8.26583893910156
12.564129615929401 2.140459765191084 5.135905335419562 5.287764515318755
7.1840113355509585 1.654224352213164 2.5322671073083947 2.997519876029397
3.609495539396499 1.2272288748070943 0.9743003715106192 1.4079662930787857
1.585465044927866 0.8676932032306401 0.2613970622076913 0.45637477948953487
0.6121120708838652 0.5316253760605945 0.019508569803803607 0.06097812501946677
0.2673368635326971 0.2698888035834262 -0.0005028032398039337 -0.002049136810925262
0.11740952302698732 0.11740952302698732 0.0 0.0
0.03571861661246571 0.03571861661246571 0.0 0.0
0.006478852020023701 0.006478852020023701 0.0 0.0
0.003075106744147457 0.003075106744147457 0.0 0.0
0.02471067783764127 0.02471067783764127 0.0 0.0
0.10805064988760928 0.10805064988760928 0.0 0.0
0.3009795126197571 0.3027679414366569 -0.0007594429036163827 -0.0010289859132836148
0.7941125301149883 0.6238068733059636 0.05180063392092399 0.11850502288810076
2.030559292287188 0.9702065231284095 0.3980184137957338 0.6623343553630446
4.456478670185096 1.3446844660454653 1.3245926511841657 1.787201552955466
8.552472068457563 1.8057388560427314 3.1626249886822078 3.584108223732622
14.679401086584207 2.351527216319318 6.197613577979848 6.130260292285047
23.03438025777062 2.974020498607479 10.62134000020801 9.43901975895514
33.69323666188812 3.65868093290895 16.567777547158663 13.46677818182049
46.677013049480195 4.415455018119212 24.1145441087077 18.14701392265328
61.70774530570722 5.252714497105565 33.02720572296597 23.427825085635728
78.9627999613817 6.12974273120884 43.585970495726194 29.24708673444663
97.9906122982058 6.953967014878039 55.52860941617479 35.508035867152955
118.04295992455543 7.534402008160747 68.5029492324619 42.00560868393272
137.8086848350036 7.655301904536677 81.77899953969015 48.37438339077677
155.05441529665458 7.051631310195113 93.9705375406752 54.03224644578421
165.07124501362216 4.92151013501631 102.32160549202177 57.828129386583996
163.67623348053525 4.764726024746818 101.49540856131952 57.416098894468924
178.15213748901888 27.562757907089253 95.74168246919444 54.8476971127352
163.6762334805062 4.764726024751084 101.49540856129656 57.416098894458514
165.07124501355997 4.92151013501486 102.32160549198035 57.828129386564754
155.05441529657693 7.051631310205893 93.97053754061467 54.03224644575639
137.80868483490218 7.655301904532379 81.77899953962402 48.37438339074569
118.04295992444169 7.534402008150246 68.50294923239281 42.00560868389871
97.99061229809683 6.953967014868239 55.52860941610922 35.50803586711939
78.96279996128104 6.129742731205212 43.58597049566299 29.247086734412797
61.707745305610274 5.252714497101319 33.027205722906814 23.427825085602116
46.67701304939171 4.415455018112949 24.114544108656503 18.147013922622264
33.69323666181464 3.6586809329029855 16.567777547117807 13.466778181793856
23.034380257714787 2.9740204986058534 10.621340000176437 9.439019758932492
14.67940108654532 2.3515272163197185 6.197613577958075 6.130260292267524
8.552472068430546 1.805738856040265 3.1626249886694895 3.5841082237207913
4.456478670168674 1.344684466042902 1.324592651177657 1.7872015529481147
2.030559292279422 0.9702065231258296 0.3980184137934915 0.6623343553601009
0.7941125301125944 0.6238068733049719 0.05180063392040888 0.11850502288721353
0.3009795126192746 0.30276794143598706 -0.0007594429035896383 -0.001028985913122805
0.10805064988748705 0.10805064988748705 0.0 0.0
0.024710677837606682 0.024710677837606682 0.0 0.0
0.0030751067441374576 0.0030751067441374576 0.0 0.0
0.0009590668461025224 0.0009590668461025224 0.0 0.0
0.018103668856470335 0.018103668856470335 0.0 0.0
0.11344961300103364 0.11344961300103364 0.0 0.0
0.3735006656512696 0.3651704701386902 0.0011921013532744471 0.0071380941593049314
1.0545247845839707 0.7651994781733886 0.09772073473090803 0.19160457167967432
2.5897138016765036 1.2039601876494792 0.5409222138118516 0.8448314002151709
5.435251641902313 1.7193826755835016 1.62047007466933 2.095398891649482
10.117781077953229 2.4004935746038876 3.6784767545653065 4.038810748784037
17.0631298307143 3.279021678500901 7.010765233989585 6.773342918223819
26.60856577429697 4.382222179393878 11.897216257470461 10.329127337432611
38.87351462399458 5.72191731620264 18.48022444415547 14.671372863636488
53.71935996678409 7.296109612438451 26.686283094782667 19.736967259562974
71.18129787386663 9.072521768900351 36.65194720136686 25.4568289035994
91.02735317500202 10.97533625235982 48.29699021925574 31.755026703386488
112.67443824439556 12.738795458840277 61.441094313300766 38.49454847225445
134.9760178953439 13.931272884541702 75.6264073007562 45.41833771004596
156.10880633501807 14.09832580259918 89.87666665743458 52.13381387498433
174.0100907976409 13.198911910183396 102.77933353370759 58.03184535374994
186.43006411906228 11.843798237453536 112.29561278298313 62.2906530986257
182.2742278836944 4.879175048647811 114.18713892706502 63.20791390798149
252.46843359896943 79.26687590007555 111.39573431730325 61.80582338159071
182.27422788365433 4.879175048642882 114.18713892704066 63.207913907970706
186.4300641189841 11.843798237442968 112.29561278293586 62.290653098605176
174.01009079755747 13.1989119101992 102.7793335336398 58.031845353718666
156.1088063349103 14.098325802601492 89.87666665735966 52.13381387494918
134.97601789522992 13.931272884543414 75.62640730067774 45.418337710008615
112.67443824427741 12.73879545883244 61.44109431322741 38.4945484722176
91.02735317489069 10.975336252355142 48.296990219185744 31.755026703349856
71.18129787375815 9.072521768894086 36.65194720130117 25.456828903562936
53.719359966686895 7.29610961243216 26.68628309472558 19.736967259529145
38.87351462390808 5.721917316188375 18.480224444111364 14.671372863608347
26.60856577423693 4.382222179393619 11.897216257435183 10.32912733740813
17.063129830669663 3.279021678497889 7.01076523396617 6.773342918205606
10.117781077923299 2.4004935746018004 3.6784767545505996 4.0388107487708975
5.435251641883539 1.7193826755806594 1.6204700746616538 2.095398891641228
2.589713801666646 1.2039601876453605 0.5409222138095018 0.8448314002117832
1.0545247845805021 0.7651994781719664 0.09772073473012843 0.19160457167840741
0.3735006656503152 0.36517047013772974 0.0011921013532792723 0.007138094159305955
0.11344961300070643 0.11344961300070643 0.0 0.0
0.018103668856436987 0.018103668856436987 0.0 0.0
0.0009590668460921335 0.0009590668460921335 0.0 0.0
CELL_DATA 800
SCALARS Stress float 6
LOOKUP_TABLE default
167.13352478822907 -519.3168066096247 -181.85190306979487 -109.79490305920892 0.0 0.0
402.41746955208873 -72.45419013002915 115.90501866650489 55.48387921967788 0.0 0.0
411.55579362386277 8.970194346835331 125.96161038630468 -2.962514865626702 0.0 0.0
470.68794435952253 -14.086198468054263 146.35402240402877 -15.110401718122853 0.0 0.0
547.6310905512735 -20.060068118637687 202.82755331008505 -11.649893139481524 0.0 0.0
621.546829700476 -15.606358167848121 274.82103675839625 -10.222908707826516 0.0 0.0
693.1310025081334 -9.364417208355121 331.40988374662345 -10.816165283140364 0.0 0.0
765.4121180605589 4.810306265605462 380.3301068333201 -12.507069239505595 0.0 0.0
840.3482946096484 27.11564543279877 430.47983913022495 -14.228904320104084 0.0 0.0
917.7199393902325 56.555509168898354 484.5089055398751 -15.38448655982071 0.0 0.0
995.8227012872592 90.8053981736567 541.0997965910477 -15.862398252512891 0.0 0.0
1073.2693951946999 128.55332455810154 599.0071070886494 -15.808006088057393 0.0 0.0
1150.131061084739 168.64874596840184 657.7011885688869 -15.60660920662202 0.0 0.0
1227.252770471385 211.67328302304645 717.9207815523628 -15.30087580828316 0.0 0.0
1305.2129760893024 258.2593053956755 780.3000925679667 -14.756053456384786 0.0 0.0
1383.3120015510715 307.8975322937549 844.2514243591309 -13.779372823582023 0.0 0.0
1459.1711769967308 358.748440617905 907.6773623717543 -12.233115385083012 0.0 0.0
1530.180090234226 408.899847285518 968.3052652802977 -10.369055883955674 0.0 0.0
1595.4418412981458 458.37217541535995 1025.6380196142447 -9.663283572208547 0.0 0.0
1687.9235789917147 542.1731866890183 1113.2572554466603 -15.247495351132457 0.0 0.0
1687.923578990934 542.1731866882492 1113.2572554461265 15.247495351088157 0.0 0.0
1595.4418412961325 458.3721754133784 1025.6380196128316 9.663283572201742 0.0 0.0
1530.1800902336413 408.8998472850068 968.3052652798726 10.369055884067027 0.0 0.0
1459.1711769967314 358.7484406180101 907.6773623717062 12.233115385073072 0.0 0.0
1383.3120015506902 307.89753229351015 844.251424358752 13.779372823619585 0.0 0.0
1305.2129760883963 258.25930539491316 780.3000925672104 14.756053456477408 0.0 0.0
1227.2527704695285 211.67328302134035 717.9207815509683 15.300875808234887 0.0 0.0
1150.1310610833218 168.64874596715958 657.7011885678055 15.606609206480673 0.0 0.0
1073.2693951943847 128.553324558012 599.0071070884665 15.80800608810699 0.0 0.0
995.8227012871806 90.80539817381302 541.0997965910378 15.862398252521826 0.0 0.0
917.7199393906802 56.55550916961215 484.5089055401494 15.384486559727902 0.0 0.0
840.3482946091752 27.115645432575235 430.4798391299247 14.228904320210525 0.0 0.0
765.4121180599731 4.8103062653002695 380.33010683292247 12.507069239576895 0.0 0.0
693.1310025075807 -9.364417208636766 331.4098837462518 10.816165283233788 0.0 0.0
621.5468296995331 -15.606358168541057 274.82103675773203 10.222908707848447 0.0 0.0
547.631090551049 -20.060068118603613 202.8275533098899 11.649893139468547 0.0 0.0
470.68794435916516 -14.086198468206666 146.3540224038463 15.110401717992525 0.0 0.0
411.5557936238166 8.970194346781598 125.96161038627785 2.962514865634511 0.0 0.0
402.41746955197607 -72.45419013009241 115.9050186664087 -55.48387921961305 0.0 0.0
167.13352478876044 -519.3168066091206 -181.85190306928217 109.79490305886287 0.0 0.0
66.63758258094981 -547.0746819057908 -242.92686698275492 -158.32790786041912 0.0 0.0
270.6941560938912 -62.681344787978034 62.54100078426984 9.506396794455812 0.0 0.0
360.7108355455729 31.850450607761694 117.77063713984614 -9.78074114611729 0.0 0.0
435.14998692453855 -12.167582374445812 130.3579275015463 -35.293803418827125 0.0 0.0
519.6397620457757 -20.380364106555092 180.30177663547997 -33.230488139807846 0.0 0.0
597.9772839004681 -16.468586941138007 254.49979385754517 -30.262975672154028 0.0 0.0
673.2326264831438 -9.863753448522104 317.6227963297011 -31.227291465485983 0.0 0.0
746.497973592818 4.063611363378861 369.2842226031182 -33.78203535882491 0.0 0.0
820.1222614568201 25.00233284610735 418.8119048025256 -36.3937347963196 0.0 0.0
894.3944672227701 51.804781791531354 470.1984738301212 -37.80744389948009 0.0 0.0
968.011506392253 82.32630825173096 522.7795141505615 -37.92436659551553 0.0 0.0
1040.5112339176153 115.320862953242 575.8721757809525 -37.30574868729236 0.0 0.0
1112.1827283235016 151.0859462126042 629.8284203757014 -36.44414664633379 0.0 0.0
1183.9280016617254 189.4714690052648 685.0680941930375 -35.42550605717662 0.0 0.0
1255.9665010256163 230.6177182227795 741.7919227249141 -34.009241463355245 0.0 0.0
1327.8171902720605 274.3383295439054 799.6772892181461 -31.80003377088877 0.0 0.0
1398.3963919576574 320.0095583029252 857.867592792189 -28.66277842101493 0.0 0.0
1466.8763750658477 367.6196792939434 915.917667293764 -25.371323563003244 0.0 0.0
1539.2046097491211 424.3894493330308 980.3164094845979 -23.51752837410306 0.0 0.0
1593.1368353909556 469.43459926091606 1029.673093150356 -22.95194658734662 0.0 0.0
1593.1368353914345 469.4345992614068 1029.673093150689 22.951946587313195 0.0 0.0
1539.2046097492125 424.3894493331809 980.3164094846089 23.517528374201703 0.0 0.0
1466.8763750655255 367.619679293696 915.9176672934786 25.37132356300227 0.0 0.0
1398.3963919568994 320.0095583022623 857.8675927915979 28.66277842110459 0.0 0.0
1327.817190272259 274.338329544246 799.6772892182432 31.800033770992123 0.0 0.0
1255.9665010258539 230.61771822317473 741.7919227250941 34.009241463432716 0.0 0.0
1183.928001661088 189.47146900478816 685.068094192572 35.42550605721078 0.0 0.0
1112.182728322802 151.08594621209664 629.8284203751487 36.444146646364246 0.0 0.0
1040.5112339173063 115.32086295316867 575.8721757806662 37.305748687408524 0.0 0.0
968.0115063928844 82.32630825264255 522.7795141508834 37.92436659565816 0.0 0.0
894.394467223215 51.804781792225356 470.198473830375 37.807443899414565 0.0 0.0
820.1222614564867 25.002332846038087 418.81190480230197 36.393734796374076 0.0 0.0
746.497973592906 4.063611363766626 369.28422260313505 33.78203535886094 0.0 0.0
673.2326264830942 -9.863753448269492 317.6227963296127 31.227291465426646 0.0 0.0
597.9772839002642 -16.46858694101482 254.4997938573316 30.262975672179618 0.0 0.0
519.639762045668 -20.380364106342377 180.3017766353853 33.230488139859816 0.0 0.0
435.1499869245636 -12.16758237408395 130.35792750164148 35.293803418818015 0.0 0.0
360.71083554547243 31.850450607656914 117.77063713978768 9.780741146277913 0.0 0.0
270.69415609392945 -62.681344787722225 62.54100078436086 -9.506396794556341 0.0 0.0
66.63758258123178 -547.0746819055187 -242.9268669824604 158.327907860168 0.0 0.0
13.941503889868955 -555.4294228064618 -266.9162605896423 -173.31921255576898 0.0 0.0
152.68752103750072 -52.446913527496505 30.072182253001255 -45.05525618866327 0.0 0.0
293.18372747360723 35.62567833820675 98.64282174354418 -33.79319008902989 0.0 0.0
389.26740265781484 -3.250927213005143 116.65293188392073 -55.29126096619494 0.0 0.0
482.68727673286014 -19.14883038782842 157.49020683807555 -56.955169732012216 0.0 0.0
570.8901075094238 -18.75203535065958 229.60160620193966 -52.02913588947651 0.0 0.0
649.2411372283884 -9.524845764716943 300.67697876276156 -51.98584590091741 0.0 0.0
723.1907414218579 3.405188809018611 355.46941739202316 -54.949147398942955 0.0 0.0
795.8144268981163 22.94581340791389 404.9636079189625 -58.04270452810255 0.0 0.0
866.9066352972023 46.79434606707645 453.61765960890216 -59.4528067337522 0.0 0.0
936.2143666405292 73.41811683726881 502.2089694901961 -59.17707015003782 0.0 0.0
1003.7597656383507 102.30088571399898 550.8196465182077 -58.01551709827169 0.0 0.0
1070.4963689602391 133.276983275266 599.9454697818619 -56.64409760009071 0.0 0.0
1136.674005618795 166.75126981138897 649.9792968466969 -54.961777245605035 0.0 0.0
1202.6048344660783 202.2592960090575 700.8616466993631 -52.71744643077161 0.0 0.0
1268.309998958594 239.95591656136497 752.6771891513845 -49.52113830036085 0.0 0.0
1333.9266787851302 280.5767314131392 805.8462650051838 -45.30459224074625 0.0 0.0
1401.1222411234048 326.7429294785278 862.4919704846606 -40.82635013729 0.0 0.0
1464.4868522096367 374.1470132788165 917.8059524765965 -36.073050096940676 0.0 0.0
1509.545309793002 409.37164250763163 957.8621193898997 -29.500130800788945 0.0 0.0
1509.5453097924872 409.37164250714557 957.8621193895165 29.500130800850798 0.0 0.0
1464.4868522089885 374.1470132782099 917.8059524761246 36.07305009700451 0.0 0.0
1401.1222411222639 326.7429294774595 862.4919704838177 40.82635013740064 0.0 0.0
1333.926678784362 280.5767314124824 805.8462650045167 45.304592240802805 0.0 0.0
1268.3099989581924 239.95591656109093 752.6771891510623 49.521138300427765 0.0 0.0
1202.604834466485 202.25929600964741 700.861646699507 52.71744643089032 0.0 0.0
1136.67400561785 166.75126981059435 649.9792968459302 54.96177724560876 0.0 0.0
1070.4963689594001 133.27698327461172 599.9454697812705 56.64409760011149 0.0 0.0
1003.7597656381766 102.30088571402112 550.8196465181213 58.015517098208846 0.0 0.0
936.2143666396497 73.41811683661211 502.20896948959927 59.177070150081136 0.0 0.0
866.9066352971407 46.79434606725255 453.6176596088246 59.45280673365616 0.0 0.0
795.8144268980726 22.945813408113736 404.9636079188938 58.04270452800108 0.0 0.0
723.1907414218664 3.40518880923851 355.4694173920101 54.94914739868922 0.0 0.0
649.2411372280624 -9.524845764807395 300.6769787624598 51.98584590062143 0.0 0.0
570.8901075095978 -18.75203535010931 229.60160620193741 52.02913588947184 0.0 0.0
482.68727673274543 -19.148830387544763 157.49020683802456 56.95516973213116 0.0 0.0
389.2674026575274 -3.250927213019617 116.65293188384099 55.29126096604082 0.0 0.0
293.18372747358586 35.6256783381 98.64282174350575 33.79319008892742 0.0 0.0
152.6875210375781 -52.44691352710954 30.072182253140568 45.05525618856506 0.0 0.0
13.941503889951434 -555.429422806212 -266.9162605894065 173.31921255566522 0.0 0.0
-6.039370368818652 -543.7187247137775 -263.59209235960043 -175.39691700817815 0.0 0.0
88.24641937564387 -49.90607961276691 11.502101928863091 -91.23880970191011 0.0 0.0
229.26564956623824 32.432299574370596 78.50938474218265 -65.98315536737731 0.0 0.0
336.19249918174035 5.390189278838274 102.53408285925697 -77.03091162847585 0.0 0.0
436.0215850582518 -16.981127989311823 134.73293088363312 -83.01976621820697 0.0 0.0
533.6973886978568 -19.220667406979295 201.3017648240625 -75.68131524543726 0.0 0.0
618.5258268027626 -10.433925548716658 277.5538146531741 -73.4665822720225 0.0 0.0
695.2874727392746 3.34751197882607 338.63864511382667 -76.10544228268714 0.0 0.0
766.6291211455308 20.728280091171897 388.261439206241 -79.14337090326329 0.0 0.0
834.7605449084458 41.562413464602 434.4781858712055 -80.32998073237279 0.0 0.0
899.9616136537634 64.39424089728308 479.2977424273511 -79.62894558905379 0.0 0.0
962.9215493454568 89.03623340061657 523.5651444093896 -78.01429417628509 0.0 0.0
1024.3629950809589 115.44267302049221 567.8003786994344 -76.12619238793401 0.0 0.0
1085.2341959573262 143.80011411842293 612.6623370171199 -73.88210857367336 0.0 0.0
1145.1678083079269 173.47217365915378 657.6637255393123 -70.93938487313687 0.0 0.0
1204.472290584507 205.1380839755102 703.2821100454545 -66.99432964019105 0.0 0.0
1265.1965767917952 240.66001525199624 751.4492079826555 -62.072825600792065 0.0 0.0
1327.1470211043004 281.00782521802745 802.575333048201 -56.23997861285196 0.0 0.0
1384.8743161270388 321.6758483378831 851.7242703538249 -48.347791430341445 0.0 0.0
1426.8439112657236 352.12065689388515 887.85760844101 -36.403245672148714 0.0 0.0
1426.8439112655574 352.12065689372207 887.8576084408593 36.40324567211705 0.0 0.0
1384.8743161263324 321.6758483372352 851.7242703532693 48.347791430422404 0.0 0.0
1327.1470211041076 281.00782521790336 802.5753330481307 56.23997861291775 0.0 0.0
1265.1965767911317 240.660015251444 751.4492079821956 62.07282560090306 0.0 0.0
1204.4722905836584 205.13808397480233 703.2821100448383 66.99432964029847 0.0 0.0
1145.1678083080653 173.47217365942083 657.6637255394813 70.93938487306204 0.0 0.0
1085.2341959575892 143.8001141188712 612.6623370172498 73.88210857375286 0.0 0.0
1024.3629950808777 115.44267302059075 567.8003786992555 76.12619238791947 0.0 0.0
962.9215493445629 89.03623339990457 523.5651444086864 78.01429417628596 0.0 0.0
899.9616136531483 64.39424089693023 479.29774242697385 79.62894558911373 0.0 0.0
834.7605449081382 41.562413464512616 434.4781858710145 80.32998073231171 0.0 0.0
766.6291211450547 20.72828009093486 388.261439205882 79.14337090317905 0.0 0.0
695.2874727391296 3.34751197897468 338.63864511366944 76.10544228272843 0.0 0.0
618.5258268021269 -10.433925549053555 277.55381465269613 73.46658227198263 0.0 0.0
533.6973886973952 -19.220667407204758 201.3017648236812 75.68131524526743 0.0 0.0
436.0215850577319 -16.98112798951209 134.73293088337502 83.01976621821886 0.0 0.0
336.1924991814453 5.390189278677592 102.53408285912985 77.03091162850681 0.0 0.0
229.26564956628945 32.43229957431935 78.50938474218265 65.98315536722785 0.0 0.0
88.24641937572126 -49.906079612465334 11.502101928976781 91.23880970172223 0.0 0.0
-6.0393703687473135 -543.7187247134787 -263.59209235935225 175.3969170081106 0.0 0.0
-10.629634006249859 -520.3091197618049 -245.2207369616923 -172.8651620517212 0.0 0.0
52.339804457166025 -48.57785420579955 1.1285850754099425 -127.21049764756572 0.0 0.0
174.43441508939875 26.301343090193996 60.22072745387782 -98.4356538811451 0.0 0.0
279.84885002930133 10.849862986640622 87.21917986232076 -100.22646949309387 0.0 0.0
378.6881488844151 -12.315929148295723 113.31688032969568 -109.26867658269623 0.0 0.0
485.4388324013674 -19.121347912370027 170.24948318769663 -102.51556237700366 0.0 0.0
580.4556742977577 -11.700164263171171 248.28551705689244 -96.59730546216656 0.0 0.0
661.0666494685034 2.820321514163627 316.6783638765094 -97.29084410667367 0.0 0.0
731.9513055906483 18.60289275252135 368.19937824809244 -99.72432250355543 0.0 0.0
797.299071342808 36.139671921712846 412.36512140252484 -100.4923905459258 0.0 0.0
858.725411065094 55.25188484214121 453.73061936549203 -99.3031529501364 0.0 0.0
916.9779647278501 75.65601623908444 493.63895283461136 -97.24348926109394 0.0 0.0
973.3545253010735 97.40797576438463 533.0867918089357 -94.98393631676417 0.0 0.0
1028.4870571968852 120.67819376988571 572.5746181976458 -92.17612992587338 0.0 0.0
1082.6597154730607 144.85735828956842 611.9850510669746 -88.61882645104819 0.0 0.0
1136.2065917208768 170.36855160420026 651.6851541400076 -84.22020842634109 0.0 0.0
1190.177475876233 199.11404421601446 693.1124334643873 -78.7700252697989 0.0 0.0
1245.9483256182302 232.47749733761387 737.6658925830827 -71.74563262570418 0.0 0.0
1299.6424240814752 267.3080162613829 781.8784111201592 -61.04360385455217 0.0 0.0
1341.8269331724068 295.4121466780034 816.9300174305896 -44.25537098010122 0.0 0.0
1341.826933172403 295.4121466780105 816.930017430627 44.25537098008356 0.0 0.0
1299.6424240815606 267.3080162615305 781.8784111202585 61.04360385472298 0.0 0.0
1245.9483256189872 232.4774973385044 737.6658925835804 71.74563262594546 0.0 0.0
1190.1774758758932 199.11404421580414 693.1124334641466 78.77002526992351 0.0 0.0
1136.206591719976 170.3685516034272 651.685154139365 84.22020842637669 0.0 0.0
1082.6597154713027 144.85735828792576 611.9850510658081 88.61882645106087 0.0 0.0
1028.4870571959812 120.67819376914491 572.5746181971273 92.17612992592092 0.0 0.0
973.3545253000358 97.40797576345074 533.0867918082738 94.98393631660265 0.0 0.0
916.9779647273458 75.65601623872507 493.6389528342438 97.24348926098621 0.0 0.0
858.7254110651767 55.25188484246408 453.73061936542166 99.30315295018403 0.0 0.0
797.2990713429838 36.13967192221074 412.36512140257986 100.49239054606329 0.0 0.0
731.9513055904971 18.602892752735613 368.1993782480396 99.72432250369786 0.0 0.0
661.0666494683082 2.820321514225384 316.6783638763591 97.29084410658194 0.0 0.0
580.4556742969736 -11.700164263762105 248.28551705627623 96.59730546201928 0.0 0.0
485.4388324011999 -19.121347912150313 170.24948318754676 102.51556237696657 0.0 0.0
378.68814888440863 -12.315929147806692 113.31688032981677 109.26867658266926 0.0 0.0
279.84885002912256 10.849862986515612 87.21917986223593 100.22646949306122 0.0 0.0
174.43441508940413 26.301343090220684 60.22072745388743 98.4356538810554 0.0 0.0
52.33980445733469 -48.57785420534905 1.1285850755956908 127.21049764733085 0.0 0.0
-10.629634006213465 -520.3091197616036 -245.22073696147427 172.865162051605 0.0 0.0
-8.268168874283859 -489.04064729603886 -218.15566582953937 -169.11370381425206 0.0 0.0
31.010613560712507 -46.78434216433429 -4.732118581086536 -154.03798163519622 0.0 0.0
127.84823277739281 19.482459015375532 44.1992075378305 -127.01594162839872 0.0 0.0
222.9814235576553 12.962549267890648 70.7792153890802 -123.57524456496472 0.0 0.0
313.93176506690077 -5.86173870349603 93.54493356356102 -133.45645949107464 0.0 0.0
421.03673183534147 -18.064184981086285 137.3300607898597 -132.07429370496817 0.0 0.0
528.1338840221592 -11.925959482686542 211.97732621505466 -122.3877927581446 0.0 0.0
616.6617542638003 1.0039395714068746 286.2413131548351 -119.33711812651684 0.0 0.0
690.1563740834636 16.137177956315334 343.0679870426494 -120.04807152081935 0.0 0.0
753.4148596707934 30.697575807224737 386.5353584572915 -119.9472981295295 0.0 0.0
811.0173867108031 45.912161581219536 424.6245962812442 -118.22271352483105 0.0 0.0
864.8631146229126 62.23241521561127 460.5061397153821 -115.74259790177956 0.0 0.0
915.9593309321805 79.40123291263316 495.1369616169744 -113.09841167337322 0.0 0.0
965.4733171476347 97.37371481826857 529.2264932906563 -109.96862229841751 0.0 0.0
1014.2656753644106 116.31044463082087 563.3562665580363 -105.91818114109796 0.0 0.0
1061.5153629883484 136.0509304817273 597.0780439210888 -100.95542037794263 0.0 0.0
1108.225579641416 156.88268281898002 630.9819282098828 -95.23159841775991 0.0 0.0
1156.6447888587447 181.64006048833315 667.5743750798233 -87.54750814890019 0.0 0.0
1206.6751836896979 210.5779054617005 706.9818083714448 -74.70289847937785 0.0 0.0
1251.6328669138352 237.80184773682862 742.9252928486699 -53.698173823240566 0.0 0.0
1251.6328669138536 237.80184773690917 742.9252928486281 53.69817382343844 0.0 0.0
1206.675183689338 210.5779054614335 706.9818083710998 74.70289847960257 0.0 0.0
1156.6447888585635 181.6400604882665 667.5743750796431 87.54750814906633 0.0 0.0
1108.2255796407105 156.88268281836764 630.9819282094238 95.23159841778538 0.0 0.0
1061.5153629882152 136.05093048167868 597.0780439210066 100.95542037787988 0.0 0.0
1014.2656753640543 116.3104446306265 563.3562665577634 105.91818114115875 0.0 0.0
965.4733171468778 97.37371481770046 529.2264932900598 109.96862229854787 0.0 0.0
915.9593309314128 79.40123291204478 495.136961616402 113.09841167341622 0.0 0.0
864.8631146225337 62.23241521550369 460.5061397151127 115.74259790189282 0.0 0.0
811.0173867104111 45.91216158090509 424.62459628094945 118.22271352458208 0.0 0.0
753.4148596704099 30.697575806926068 386.5353584569677 119.9472981292921 0.0 0.0
690.1563740823542 16.137177955383947 343.0679870418869 120.04807152073344 0.0 0.0
616.6617542630927 1.0039395708790408 286.2413131542813 119.33711812637831 0.0 0.0
528.1338840220914 -11.92595948229308 211.9773262149438 122.38779275819456 0.0 0.0
421.03673183517014 -18.06418498073502 137.33006078981165 132.07429370499705 0.0 0.0
313.93176506674735 -5.861738703385377 93.5449335635483 133.4564594908731 0.0 0.0
222.9814235575955 12.962549267944043 70.77921538907971 123.57524456473696 0.0 0.0
127.84823277730902 19.482459015315214 44.19920753778727 127.01594162811264 0.0 0.0
31.01061356075681 -46.784342164181105 -4.732118581027288 154.03798163500835 0.0 0.0
-8.268168874256588 -489.04064729573065 -218.15566582928244 169.11370381421165 0.0 0.0
-2.7273986934297483 -451.506755332264 -185.92754954829007 -165.56086125519963 0.0 0.0
16.363035438441848 -45.10856608531729 -8.623598830423866 -172.8877227505625 0.0 0.0
86.98204736115065 13.12291327587268 30.031488191106995 -150.03939996986844 0.0 0.0
166.4313273808371 13.962970388430055 54.115165753092974 -145.09037677311747 0.0 0.0
245.25840360840172 -0.26578960120482487 74.03716880662914 -154.66733236945737 0.0 0.0
342.8135017486619 -14.059325298176208 105.56379935233826 -161.59522385563128 0.0 0.0
457.1866553390859 -12.268563278534158 168.6976465003182 -152.0018101778796 0.0 0.0
557.7246930171381 -0.5665200679781623 245.55762408455155 -143.3411407417196 0.0 0.0
636.6157684389759 12.607345097463224 308.74406215447533 -140.6430511351542 0.0 0.0
700.3651734169971 25.059232304566965 354.7914267452267 -138.9171690886043 0.0 0.0
754.5116713842162 36.38666558049809 390.51455117377145 -136.4154890405381 0.0 0.0
804.1204263911848 48.84646006533889 422.83917225492166 -133.5063734828852 0.0 0.0
849.9692262534271 61.40875255401979 452.7773359716323 -130.53292204422215 0.0 0.0
893.5089961295321 74.23220365621923 481.4372113211174 -127.18862740809396 0.0 0.0
936.2746162016608 87.6278891543736 509.81698807421543 -122.87893083115358 0.0 0.0
978.7697325580485 102.19848402524562 538.6260065234195 -117.38906558495883 0.0 0.0
1017.8286433476699 115.31770273764312 564.9717365306219 -111.17913233836974 0.0 0.0
1056.688260512674 129.49516132048512 591.5520239999224 -103.51561107169348 0.0 0.0
1102.3031178250044 150.4609007329965 624.7058565817789 -89.87321959431445 0.0 0.0
1152.5965319462955 177.71446783255755 663.2146885433057 -65.6838039888885 0.0 0.0
1152.5965319466363 177.71446783296892 663.214688543517 65.68380398916256 0.0 0.0
1102.3031178250233 150.46090073319453 624.7058565818214 89.87321959466844 0.0 0.0
1056.6882605139392 129.49516132192116 591.5520240006454 103.51561107198071 0.0 0.0
1017.8286433473806 115.31770273759986 564.9717365303064 111.17913233862993 0.0 0.0
978.7697325573179 102.19848402461139 538.6260065228524 117.38906558496866 0.0 0.0
936.2746162022111 87.62788915519297 509.8169880746304 122.87893083139434 0.0 0.0
893.5089961296716 74.23220365669908 481.43721132125734 127.1886274083841 0.0 0.0
849.9692262536739 61.40875255447196 452.7773359717681 130.53292204427783 0.0 0.0
804.1204263907736 48.84646006507222 422.83917225455906 133.50637348286799 0.0 0.0
754.5116713839558 36.38666558045958 390.51455117352356 136.41548904058385 0.0 0.0
700.3651734177023 25.059232305759195 354.79142674569437 138.91716908882958 0.0 0.0
636.6157684394909 12.607345098463696 308.7440621548149 140.6430511353122 0.0 0.0
557.7246930169226 -0.5665200678241575 245.55762408432165 143.34114074174153 0.0 0.0
457.1866553387735 -12.268563278413705 168.69764650010038 152.00181017787781 0.0 0.0
342.81350174802776 -14.05932529869428 105.5637993519568 161.59522385547487 0.0 0.0
245.25840360798352 -0.26578960159317244 74.03716880639486 154.66733236935085 0.0 0.0
166.4313273806433 13.962970388180088 54.11516575296083 145.09037677288086 0.0 0.0
86.98204736103003 13.12291327574778 30.03148819103334 150.0393999696763 0.0 0.0
16.36303543859735 -45.10856608507776 -8.623598830305408 172.88772275047984 0.0 0.0
-2.72739869350616 -451.5067553320334 -185.92754954809376 165.56086125514952 0.0 0.0
2.4720764324489863 -409.14154919590374 -152.93281467691432 -163.02766898231746 0.0 0.0
2.8747383464772134 -44.18126415341723 -12.391425955428664 -183.9679747115647 0.0 0.0
49.63803847005802 8.029146175622937 17.299752322456744 -167.4731714322493 0.0 0.0
111.04963971082792 15.082564370268454 37.840218851632436 -163.00436022683516 0.0 0.0
174.38105334037823 3.2787002129542633 53.619013573336595 -173.31039936309364 0.0 0.0
250.57192700104497 -7.261002917906297 75.78005244995975 -185.5795481080226 0.0 0.0
358.86089119886174 -10.585512191351539 120.85376375406872 -184.71754768163987 0.0 0.0
473.89057176427457 -2.22586083302492 191.29143806233768 -171.65330422816157 0.0 0.0
564.1411295046436 8.547409770425359 259.6757642568256 -162.76921918763068 0.0 0.0
630.8057721066712 18.663080841335294 311.00499212028967 -157.8118039648807 0.0 0.0
683.8143872193733 26.60695978071856 347.5349892004442 -154.16911341851812 0.0 0.0
729.028361846316 35.294239691001344 377.1588640098208 -150.6144676206283 0.0 0.0
769.6257459486551 43.69657369199966 403.05078952414175 -147.2360843959077 0.0 0.0
807.0209991717836 51.38724036953526 426.40135407410946 -143.80439249353853 0.0 0.0
843.399093769327 59.037853667990234 448.87117386100334 -139.606677870608 0.0 0.0
880.473731867069 67.99432852936222 472.16730966566087 -133.72019946622027 0.0 0.0
915.5719210605281 76.04544032374427 494.1157407807164 -126.60000240436568 0.0 0.0
943.3302746675404 78.14139511876115 509.3467278926957 -119.11069970887172 0.0 0.0
978.9145031715121 85.76610400950483 530.7244698901502 -106.6898155125424 0.0 0.0
1036.3627392073367 112.6593767127687 572.3562046909653 -81.59572746068359 0.0 0.0
1036.3627392066837 112.65937671216733 572.3562046905571 81.59572746086502 0.0 0.0
978.9145031713065 85.76610400940194 530.7244698900691 106.68981551279441 0.0 0.0
943.3302746673185 78.1413951186604 509.34672789255484 119.11069970896136 0.0 0.0
915.5719210597416 76.04544032295445 494.115740780221 126.6000024042012 0.0 0.0
880.473731866856 67.994328529115 472.1673096654124 133.7201994661028 0.0 0.0
843.399093769985 59.03785366897566 448.871173861417 139.60667787082764 0.0 0.0
807.0209991713159 51.38724036929537 426.40135407378534 143.80439249369437 0.0 0.0
769.6257459480165 43.69657369161405 403.0507895237361 147.23608439605047 0.0 0.0
729.0283618453079 35.294239690143044 377.1588640091515 150.6144676206829 0.0 0.0
683.8143872189492 26.6069597803981 347.53498920010475 154.16911341836737 0.0 0.0
630.805772106038 18.663080840691507 311.0049921197747 157.8118039646459 0.0 0.0
564.141129503476 8.547409769186707 259.6757642559578 162.76921918742445 0.0 0.0
473.89057176347427 -2.225860833536238 191.2914380617754 171.65330422814958 0.0 0.0
358.86089119841233 -10.585512191425016 120.85376375381445 184.71754768158462 0.0 0.0
250.57192700099904 -7.261002917451126 75.780052450064 185.57954810782283 0.0 0.0
174.38105334036752 3.2787002132951226 53.619013573436675 173.31039936288798 0.0 0.0
111.04963971096167 15.082564370730017 37.840218851814264 163.00436022661074 0.0 0.0
49.63803847008348 8.02914617575722 17.299752322505178 167.47317143214178 0.0 0.0
2.874738346425853 -44.18126415342884 -12.391425955448947 183.9679747113442 0.0 0.0
2.4720764325021634 -409.14154919562515 -152.93281467670076 163.02766898221608 0.0 0.0
3.4969189416125985 -362.6998283115556 -123.47527367269373 -159.81380900942548 0.0 0.0
-13.321764752671928 -45.21883728057519 -17.561628522863302 -189.5249443310425 0.0 0.0
14.552810866345984 5.013961096621744 5.8698219036446115 -179.56635429995475 0.0 0.0
57.18075607357355 16.200220410244548 22.019206639291266 -176.63393697776033 0.0 0.0
101.3750948318675 6.943936959115682 32.70459153431495 -187.3842561705481 0.0 0.0
151.30856830081373 -2.0268984070592806 46.03801734988185 -203.38786509534424 0.0 0.0
229.1494393057337 -4.606870571685084 72.84204001942729 -212.52439850166513 0.0 0.0
341.6088021043921 -2.1234669742091903 122.06872812159864 -205.42710848601087 0.0 0.0
450.00403154644493 4.834544993397083 185.59956446308254 -189.82910799197236 0.0 0.0
526.629019687691 11.08749059091684 241.17211139209783 -178.29007420707606 0.0 0.0
580.9316688379516 16.99246889573587 282.5319100275667 -171.79807929400926 0.0 0.0
622.6657055972265 21.42968975182948 312.13869860835393 -167.3064622728647 0.0 0.0
658.1039925178486 26.02887484289731 335.97162063553105 -163.35321583348585 0.0 0.0
689.1365217904099 29.19263408943182 355.27132625021966 -159.69609176805622 0.0 0.0
718.1220242792266 30.977867733486264 371.8535138411413 -155.70391509285105 0.0 0.0
748.2729692353103 32.953695853481264 388.4673077184202 -150.27288811579837 0.0 0.0
782.0580605536893 36.7916291167779 407.55573770128814 -142.13343406587134 0.0 0.0
808.7722334676431 34.21475367471061 420.316006655606 -133.19880683812437 0.0 0.0
823.7111409172477 16.781318501043273 419.1585191608585 -124.06400442573715 0.0 0.0
885.8059995996565 36.53721178725661 458.71744511121517 -103.8081315276537 0.0 0.0
885.8059995997294 36.53721178744979 458.7174451114065 103.80813152793439 0.0 0.0
823.7111409169288 16.781318500931377 419.15851916072313 124.06400442621988 0.0 0.0
808.77223346693 34.21475367426103 420.31600665520807 133.19880683850522 0.0 0.0
782.0580605533827 36.791629116531624 407.55573770107003 142.13343406601757 0.0 0.0
748.2729692350739 32.95369585357031 388.4673077183959 150.27288811592047 0.0 0.0
718.1220242777501 30.977867731834323 371.8535138401774 155.70391509276172 0.0 0.0
689.1365217892395 29.192634088236673 355.27132624948155 159.69609176793148 0.0 0.0
658.1039925178632 26.028874842961926 335.9716206355079 163.35321583355838 0.0 0.0
622.6657055977635 21.429689752788278 312.13869860871864 167.30646227293732 0.0 0.0
580.9316688385442 16.992468896455946 282.53191002787815 171.79807929396458 0.0 0.0
526.6290196877987 11.087490591350488 241.172111392153 178.29007420699133 0.0 0.0
450.0040315459886 4.834544993081344 185.59956446273065 189.82910799199678 0.0 0.0
341.608802104053 -2.1234669737282097 122.06872812154009 205.42710848613416 0.0 0.0
229.14943930506243 -4.606870572312084 72.84204001901851 212.5243985015591 0.0 0.0
151.30856830068845 -2.0268984071342624 46.03801734981845 203.38786509509552 0.0 0.0
101.37509483180476 6.943936959092237 32.704591534290145 187.38425617037424 0.0 0.0
57.180756073419886 16.20022040996863 22.019206639165734 176.63393697750914 0.0 0.0
14.552810866300003 5.0139610965287105 5.869821903603215 179.56635429956242 0.0 0.0
-13.321764752835033 -45.21883728066718 -17.56162852294126 189.5249443308657 0.0 0.0
3.496918941566033 -362.699828311297 -123.4752736725492 159.81380900933468 0.0 0.0
-1.0202745929005772 -312.97544422369003 -99.20571823153108 -153.52103035349288 0.0 0.0
-32.34642684824145 -48.58135357335345 -24.277344740546727 -191.9260435579166 0.0 0.0
-19.006460113026293 4.06383083606576 -4.4837699108085785 -186.9301812432318 0.0 0.0
4.809825866015171 17.21112599829441 6.611916653878995 -185.447571905236 0.0 0.0
27.82438268625561 11.004637531528285 11.718301444175063 -195.74891784478103 0.0 0.0
48.78194325611083 2.7356672244281337 15.858582661110466 -213.43462653768324 0.0 0.0
76.6196506955209 -0.606991892127482 24.154302086389723 -228.60494279950143 0.0 0.0
126.33060654623215 0.7181513202109056 41.691236603314465 -232.34330591713714 0.0 0.0
203.7979826336456 4.36703308632471 71.54607773312394 -220.84260368588298 0.0 0.0
282.67817847808226 6.654369768702132 107.81965811750015 -204.756426841761 0.0 0.0
347.8807887508987 8.555627324151956 145.6316590375122 -192.17548896537818 0.0 0.0
392.72078929141173 8.696028486890484 176.26973677609362 -184.23933736107148 0.0 0.0
423.5085084683691 9.308977816796698 200.20210977328395 -178.47758802730323 0.0 0.0
447.6436975720469 7.712314379598752 218.3365922013084 -173.9823799366731 0.0 0.0
470.27964350897594 3.7566649885037293 232.56481178148738 -169.93933714398457 0.0 0.0
497.4910426982006 -2.020823398711002 245.88929654212546 -165.53546006141354 0.0 0.0
534.3326937575697 -6.254810728366749 262.8599079002885 -158.63059463174753 0.0 0.0
581.1858954596726 -6.3511592405929775 286.3579279392683 -147.37009952928884 0.0 0.0
604.4824339948732 -33.74816744345816 285.8969882079054 -136.2285731444875 0.0 0.0
637.0528160747332 -72.3289822185439 279.94494072152355 -131.87118640751217 0.0 0.0
637.0528160763262 -72.32898221674037 279.9449407225826 131.8711864077901 0.0 0.0
604.4824339962037 -33.74816744135728 285.8969882089897 136.22857314514522 0.0 0.0
581.185895461023 -6.351159238693299 286.35792794029214 147.370099529642 0.0 0.0
534.3326937579641 -6.254810727856636 262.85990790052125 158.63059463190635 0.0 0.0
497.49104269883907 -2.0208233979289503 245.88929654244043 165.53546006136224 0.0 0.0
470.2796435090743 3.7566649891352597 232.56481178168832 169.93933714409928 0.0 0.0
447.6436975723595 7.712314379764152 218.33659220145492 173.9823799366389 0.0 0.0
423.50850846862176 9.308977817111469 200.20210977342518 178.47758802752713 0.0 0.0
392.72078929045614 8.696028485432024 176.26973677533005 184.23933736100776 0.0 0.0
347.88078875083124 8.555627324162359 145.6316590374306 192.17548896543138 0.0 0.0
282.67817847891575 6.654369770478681 107.81965811817919 204.7564268417166 0.0 0.0
203.7979826342479 4.367033087901898 71.54607773374777 220.84260368602105 0.0 0.0
126.33060654644176 0.7181513211909678 41.691236603651376 232.3433059171436 0.0 0.0
76.61965069553891 -0.6069918916873398 24.15430208652831 228.60494279929577 0.0 0.0
48.7819432564685 2.7356672249589113 15.858582661373877 213.43462653743023 0.0 0.0
27.824382686364338 11.004637531622768 11.718301444235527 195.7489178444854 0.0 0.0
4.809825865893151 17.211125998117268 6.611916653789574 185.44757190499513 0.0 0.0
-19.006460112937862 4.0638308361700295 -4.48376991075148 186.9301812430525 0.0 0.0
-32.34642684828306 -48.581353573321124 -24.27734474055131 191.9260435578102 0.0 0.0
-1.0202745929955057 -312.9754442234055 -99.20571823144142 153.52103035337558 0.0 0.0
-12.920129254897493 -262.8809810057161 -83.21939752785192 -143.20375116168447 0.0 0.0
-50.78764034968908 -51.265363314113 -30.618535711437687 -191.91745672552634 0.0 0.0
-51.477032548458894 3.876649650383919 -14.294382794746506 -190.14632944761792 0.0 0.0
-45.99346302680562 18.094805821503446 -8.396194851753895 -189.22901179602195 0.0 0.0
-44.842128808613154 15.015745220139625 -9.041243250521832 -197.92377376379315 0.0 0.0
-54.77496575422674 7.486359415655384 -14.628327139662957 -214.4207921970746 0.0 0.0
-79.09589610523386 2.636825874862902 -24.342032603770555 -228.71261461472253 0.0 0.0
-127.13515670649309 -0.3124730346286597 -41.837520264627244 -232.5104033490806 0.0 0.0
-203.65494112076527 -4.171738639065602 -71.44120263145382 -220.9325785404924 0.0 0.0
-282.4452420493378 -6.4308820998206 -107.66294843737677 -204.7334098178652 0.0 0.0
-348.0746410208086 -7.254496411966684 -145.14317891214858 -192.0468545506126 0.0 0.0
-394.28943416447373 -7.033662123807602 -176.27002904239572 -183.77711571040106 0.0 0.0
-427.83733615199606 -9.10240610087331 -201.94261139688484 -177.9826643212446 0.0 0.0
-453.948844197567 -14.013147891371219 -224.01972900251866 -174.38924363033098 0.0 0.0
-471.90441451808715 -22.536234107136153 -243.06581418210953 -172.88620466192847 0.0 0.0
-478.81902116949965 -33.85163353831001 -258.2285618267476 -173.02703599853535 0.0 0.0
-465.5925302945123 -45.52840762868098 -265.94543964992454 -173.43469182268655 0.0 0.0
-402.9980315735141 -40.25873402166215 -250.50946527689257 -173.35001212506612 0.0 0.0
-220.4278315234285 -36.70418231843908 -188.53798674512913 -176.21479300444793 0.0 0.0
-12.130689373877573 -175.60988020903756 -68.6813793887413 -163.2521846160915 0.0 0.0
-12.130689373620385 -175.6098802087761 -68.68137938861071 163.25218461652793 0.0 0.0
-220.42783152305083 -36.70418231788818 -188.53798674487817 176.21479300496543 0.0 0.0
-402.9980315739518 -40.258734022065426 -250.50946527720316 173.35001212530392 0.0 0.0
-465.59253029439776 -45.52840762866245 -265.94543964984933 173.43469182271008 0.0 0.0
-478.8190211690066 -33.851633538104664 -258.2285618264478 173.02703599857102 0.0 0.0
-471.9044145174123 -22.536234106326162 -243.06581418156713 172.88620466182934 0.0 0.0
-453.9488441966297 -14.013147890384914 -224.01972900184848 174.38924363034948 0.0 0.0
-427.83733615170956 -9.102406100907146 -201.94261139670817 177.98266432131413 0.0 0.0
-394.2894341639844 -7.033662123909977 -176.27002904217244 183.77711571039418 0.0 0.0
-348.0746410193002 -7.254496410905162 -145.1431789112217 192.04685455059726 0.0 0.0
-282.44524204902723 -6.430882100563785 -107.66294843736033 204.73340981778563 0.0 0.0
-203.654941120532 -4.171738639959528 -71.44120263159809 220.93257854067554 0.0 0.0
-127.13515670623687 -0.3124730348725837 -41.83752026461181 232.51040334911679 0.0 0.0
-79.09589610511921 2.636825874781982 -24.342032603748788 228.712614614547 0.0 0.0
-54.77496575392477 7.486359415779326 -14.628327139533797 214.42079219687383 0.0 0.0
-44.842128808392886 15.015745220186119 -9.041243250441644 197.92377376356325 0.0 0.0
-45.99346302673775 18.09480582161822 -8.396194851700606 189.22901179590235 0.0 0.0
-51.47703254857261 3.8766496499766667 -14.294382794905548 190.14632944743107 0.0 0.0
-50.787640349818275 -51.26536331437661 -30.618535711558362 191.9174567253703 0.0 0.0
-12.920129254926014 -262.8809810054198 -83.21939752779097 143.20375116150626 0.0 0.0
-23.750310357209734 -214.8875689207332 -71.58820616541452 -130.1741010742031 0.0 0.0
-66.36142267235033 -51.09808601864812 -35.24329198751567 -188.30106990055233 0.0 0.0
-82.689632906429 3.5711771938195573 -23.7665054098891 -189.47926560474752 0.0 0.0
-95.18512941879243 18.799686494894477 -22.97832127460327 -188.0986746398359 0.0 0.0
-115.87117458594646 18.17548192145872 -29.644347559548216 -193.6541878379159 0.0 0.0
-156.3011509258024 11.757557289011014 -44.81509420665801 -205.7516328711314 0.0 0.0
-230.69578144603128 6.548528871518158 -72.91772029922642 -213.47486791808038 0.0 0.0
-341.37128379893994 2.4358524343564945 -122.02557360561715 -205.87024992146604 0.0 0.0
-449.6411108302815 -4.692305565153674 -185.42460338646697 -189.98672431310862 0.0 0.0
-526.3019934278741 -10.735063184051711 -240.89709685579237 -178.25477803103354 0.0 0.0
-580.5045802253379 -16.005268045551276 -281.93779839557055 -171.53484208154862 0.0 0.0
-622.6574425533584 -19.95007638359516 -311.46551633696856 -166.54753397919382 0.0 0.0
-659.791855856924 -25.791235490590708 -336.5565782745687 -162.27653974359163 0.0 0.0
-694.34392802813 -34.46533752465328 -360.1346500829893 -159.70357722000296 0.0 0.0
-727.1744590252922 -47.044934087580685 -384.0448353100341 -159.5288225492385 0.0 0.0
-756.4427607450792 -62.66806041311952 -407.48213513144316 -161.75328114096087 0.0 0.0
-777.1964375786108 -78.22983324453799 -426.7536245645995 -166.76266416787982 0.0 0.0
-785.8537522585 -91.38582430828535 -438.74380564623664 -174.67403642286138 0.0 0.0
-820.3456789259744 -145.5074645648331 -484.2121687019008 -183.7926445310767 0.0 0.0
-827.0945756355304 -233.53341218937746 -533.4142173548515 -202.89308311315398 0.0 0.0
-827.094575634479 -233.53341218841962 -533.414217354313 202.89308311328767 0.0 0.0
-820.3456789250162 -145.50746456358104 -484.2121687012956 183.7926445311579 0.0 0.0
-785.8537522579117 -91.38582430792303 -438.7438056458575 174.67403642310447 0.0 0.0
-777.1964375787741 -78.22983324474498 -426.75362456460346 166.7626641678819 0.0 0.0
-756.4427607448101 -62.66806041314888 -407.482135131366 161.75328114104917 0.0 0.0
-727.1744590255105 -47.044934087997376 -384.0448353102246 159.52882254929938 0.0 0.0
-694.343928027622 -34.465337524199484 -360.1346500826571 159.70357721987364 0.0 0.0
-659.791855856546 -25.79123549031641 -336.55657827426114 162.27653974354965 0.0 0.0
-622.657442552897 -19.9500763834085 -311.465516336644 166.547533979271 0.0 0.0
-580.5045802247487 -16.005268045502504 -281.93779839522426 171.5348420816736 0.0 0.0
-526.3019934270948 -10.735063183323255 -240.8970968551492 178.2547780308197 0.0 0.0
-449.64111082952104 -4.692305564728951 -185.42460338594583 189.98672431314176 0.0 0.0
-341.37128379852976 2.4358524341299344 -122.02557360543983 205.8702499215414 0.0 0.0
-230.6957814454454 6.548528871788415 -72.91772029893067 213.47486791795797 0.0 0.0
-156.3011509256483 11.757557288522502 -44.81509420675383 205.7516328709209 0.0 0.0
-115.8711745858607 18.175481921115097 -29.644347559623426 193.65418783771815 0.0 0.0
-95.18512941862338 18.799686495175145 -22.978321274470108 188.09867463959398 0.0 0.0
-82.68963290639373 3.5711771938404397 -23.766505409875855 189.47926560462213 0.0 0.0
-66.36142267230713 -51.098086018633055 -35.243291987504556 188.30106990054475 0.0 0.0
-23.75031035718908 -214.8875689205875 -71.58820616536661 130.1741010739941 0.0 0.0
-28.013593439958292 -169.8959395295546 -59.37285989085386 -115.57696673259753 0.0 0.0
-79.2038564143715 -48.44138109129405 -38.29079878078589 -180.70712542807232 0.0 0.0
-112.2688065572941 3.193307583180769 -32.74553263456096 -184.7361791682609 0.0 0.0
-142.65462401454218 18.977935078770262 -37.20990122135856 -181.94507176678638 0.0 0.0
-184.71658810846043 20.040660935924375 -50.05119838696904 -183.50450491799222 0.0 0.0
-252.94805258643396 15.956335291073877 -74.48265485949442 -189.10102160456898 0.0 0.0
-358.2319565894154 12.225269863214796 -120.55288956953783 -186.04558912506332 0.0 0.0
-473.1238062101197 2.547851239587146 -190.9496473382079 -172.22987122830497 0.0 0.0
-563.9003707945965 -8.45567573953182 -259.5300352883675 -162.82780664111385 0.0 0.0
-630.5773847500554 -18.405254410813086 -310.8069310504832 -157.7888596145611 0.0 0.0
-683.4838830045983 -25.894673694285615 -347.06893517700905 -153.91233261594758 0.0 0.0
-728.8677683135767 -34.08797504252945 -376.4951367698403 -149.71954402875735 0.0 0.0
-770.6800537911413 -43.26237254605181 -403.2593643221926 -145.71271811048445 0.0 0.0
-811.2259261628055 -55.265968538903365 -430.18829708253486 -143.0583367795007 0.0 0.0
-851.8831681119757 -71.7698878267104 -459.19296437006506 -142.94088202334032 0.0 0.0
-890.6470584671613 -91.90178382277827 -489.08956221168705 -145.93428192365405 0.0 0.0
-924.8715587932961 -113.46340095130975 -517.4337016550592 -151.74172563437992 0.0 0.0
-963.2543589659477 -146.56262927060135 -553.5766903838993 -158.13283005300792 0.0 0.0
-1006.3727463101484 -195.78621089196204 -600.0466996583243 -163.89478493414575 0.0 0.0
-1103.7732950169059 -330.82114270057014 -715.4749212024292 -171.1902155313761 0.0 0.0
-1103.7732950180744 -330.82114270210394 -715.4749212032672 171.19021553188065 0.0 0.0
-1006.3727463107094 -195.78621089299307 -600.0466996587691 163.89478493457108 0.0 0.0
-963.25435896663 -146.56262927142836 -553.5766903842575 158.1328300532544 0.0 0.0
-924.8715587929015 -113.46340095110452 -517.4337016547538 151.74172563450213 0.0 0.0
-890.6470584666231 -91.90178382240126 -489.08956221124 145.93428192375086 0.0 0.0
-851.8831681128099 -71.76988782779001 -459.19296437058676 142.94088202347075 0.0 0.0
-811.2259261633328 -55.265968539719836 -430.188297082859 143.05833677963565 0.0 0.0
-770.6800537914436 -43.26237254685617 -403.2593643224541 145.71271811077622 0.0 0.0
-728.8677683136498 -34.087975042899394 -376.49513676986567 149.71954402882005 0.0 0.0
-683.4838830050622 -25.89467369512125 -347.0689351773222 153.9123326159812 0.0 0.0
-630.5773847501298 -18.405254411081913 -310.80693105052336 157.78885961435535 0.0 0.0
-563.9003707935065 -8.455675738537824 -259.530035287593 162.82780664098442 0.0 0.0
-473.1238062101684 2.547851238855164 -190.9496473381975 172.2298712284594 0.0 0.0
-358.2319565889713 12.225269863043764 -120.55288956933212 186.04558912506423 0.0 0.0
-252.94805258613772 15.956335290731692 -74.4826548594832 189.10102160442494 0.0 0.0
-184.71658810817075 20.04066093604622 -50.05119838684625 183.5045049178389 0.0 0.0
-142.65462401431168 18.97793507896971 -37.209901221233345 181.94507176657865 0.0 0.0
-112.26880655718308 3.193307583271677 -32.745532634506134 184.73617916805475 0.0 0.0
-79.20385641425028 -48.44138109120625 -38.29079878072428 180.70712542793112 0.0 0.0
-28.013593439923728 -169.8959395292889 -59.372859890763785 115.5769667325164 0.0 0.0
-29.555859476689072 -128.88077562528088 -47.53099053059098 -100.33158612313343 0.0 0.0
-89.86456796848543 -43.54297003857332 -40.02173437084194 -168.7064243320546 0.0 0.0
-140.00079275927047 2.730948591864143 -41.19339114003756 -175.7456146450086 0.0 0.0
-188.2386307823047 18.119149954617445 -51.20335562109394 -170.9816574503628 0.0 0.0
-250.17196505093236 21.264829899268655 -69.77103393724246 -168.10581175288527 0.0 0.0
-341.1814846932475 20.785985869460504 -104.24634659528434 -165.67665980878957 0.0 0.0
-455.35777384572066 13.988550343565546 -167.69019550075555 -153.68657090963876 0.0 0.0
-557.2501117888805 0.7253090117007446 -245.24865628952662 -143.6213180480426 0.0 0.0
-636.5432821602654 -12.607949638463538 -308.71453771505907 -140.64807524919473 0.0 0.0
-700.2308204020085 -24.897410239127552 -354.66920727599097 -138.90568522511865 0.0 0.0
-754.3715402854209 -35.96702787927492 -390.25383536663145 -136.16831119004866 0.0 0.0
-804.0857572035671 -48.061504413126556 -422.43617162430957 -132.56666419321934 0.0 0.0
-850.4665021082246 -60.7632215824035 -452.65770993673533 -128.75369030820133 0.0 0.0
-895.7627200182701 -76.07865471228453 -483.34764004412455 -125.92252511990901 0.0 0.0
-941.7156375606288 -95.88216283386569 -516.4619567412697 -125.7238121838427 0.0 0.0
-988.9832349241624 -121.55166996433536 -553.1683141363337 -128.87898169298236 0.0 0.0
-1038.4340796835909 -154.77389436776153 -594.7520890787125 -134.29731726509848 0.0 0.0
-1092.0114017628202 -198.58506743241452 -643.6355477117091 -139.31726434410908 0.0 0.0
-1163.1271728682093 -269.93806213734985 -714.7191486081169 -140.617025046221 0.0 0.0
-1259.4615169698345 -394.02284386260544 -824.8072507590919 -142.34902201270725 0.0 0.0
-1259.4615169697117 -394.0228438625817 -824.8072507590467 142.34902201298624 0.0 0.0
-1163.1271728686784 -269.9380621380513 -714.7191486084578 140.6170250465823 0.0 0.0
-1092.0114017625312 -198.58506743226502 -643.6355477114814 139.31726434429203 0.0 0.0
-1038.4340796832125 -154.77389436756474 -594.7520890784408 134.29731726524994 0.0 0.0
-988.9832349238943 -121.55166996420328 -553.1683141361838 128.87898169298114 0.0 0.0
-941.7156375602135 -95.88216283351771 -516.4619567410108 125.72381218374943 0.0 0.0
-895.7627200181323 -76.07865471229475 -483.3476400440136 125.92252511988644 0.0 0.0
-850.466502107499 -60.76322158189413 -452.65770993623704 128.75369030828796 0.0 0.0
-804.0857572030839 -48.0615044128385 -422.43617162397794 132.56666419320567 0.0 0.0
-754.3715402846268 -35.96702787881076 -390.2538353661762 136.16831119014228 0.0 0.0
-700.2308204009375 -24.8974102382645 -354.6692072752861 138.90568522499984 0.0 0.0
-636.5432821594054 -12.60794963780765 -308.7145377144459 140.6480752490711 0.0 0.0
-557.2501117882194 0.7253090120732146 -245.24865628900554 143.62131804799313 0.0 0.0
-455.3577738452974 13.9885503435925 -167.69019550042864 153.68657090958104 0.0 0.0
-341.18148469284864 20.785985869430203 -104.2463465951117 165.67665980865652 0.0 0.0
-250.17196505046422 21.264829899503724 -69.77103393703663 168.10581175270224 0.0 0.0
-188.23863078206165 18.119149954688147 -51.203355621012186 170.98165745026182 0.0 0.0
-140.00079275913788 2.730948591891048 -41.193391139995825 175.74561464480055 0.0 0.0
-89.8645679684108 -43.542970038578424 -40.021734370821264 168.70642433191588 0.0 0.0
-29.555859476646575 -128.8807756251319 -47.530990530533536 100.33158612304376 0.0 0.0
-30.439532822863438 -92.50340191590566 -36.882880421630716 -84.68071947577748 0.0 0.0
-99.25563719464961 -36.94780950060307 -40.8610340085758 -152.6400680528954 0.0 0.0
-165.9422579898217 2.3071433674722313 -49.094001564483236 -162.2760077546867 0.0 0.0
-232.14440304151924 16.478413931250742 -64.83325346026805 -155.70707418076842 0.0 0.0
-312.3207820426997 22.839935092297075 -88.91319154373988 -148.41027083960046 0.0 0.0
-417.7281868231016 23.2165820013422 -135.6437086522833 -136.80364743392158 0.0 0.0
-526.472677807711 13.367442919584477 -210.74999347175543 -123.35341199129812 0.0 0.0
-616.5659061247427 -1.073741264748577 -286.1592591969498 -119.38263589137006 0.0 0.0
-690.1767143543268 -16.1852767812844 -343.11468501142485 -120.05204109500029 0.0 0.0
-753.3975257618345 -30.622115881360685 -386.49780986082965 -119.93553745948873 0.0 0.0
-811.101665427377 -45.793858117144424 -424.60470379818594 -117.97378184678672 0.0 0.0
-865.0421732357446 -61.943903950584684 -460.452890726915 -114.85188272232254 0.0 0.0
-915.8529671924939 -78.59866421446858 -494.6877389123165 -111.36081040875455 0.0 0.0
-965.1225356761161 -96.76044266619476 -528.6994814164309 -108.50665356946037 0.0 0.0
-1016.2065766155102 -119.91294698740856 -565.9540416105999 -107.92775048505078 0.0 0.0
-1072.2164226752275 -152.42736783475556 -610.317981938123 -110.52796992854985 0.0 0.0
-1135.1875621338763 -196.4513624780732 -663.9400430177162 -115.35344300201844 0.0 0.0
-1207.350484587947 -256.37087629935024 -730.0167544086291 -118.97109116507892 0.0 0.0
-1290.2926221526186 -338.61845053441766 -812.5768623604988 -119.18625272624286 0.0 0.0
-1375.2655016041554 -449.0812898778439 -910.3800478234374 -121.91567301000038 0.0 0.0
-1375.265501604886 -449.08128987876034 -910.3800478239751 121.91567301030543 0.0 0.0
-1290.292622152785 -338.618450534649 -812.5768623607153 119.18625272636783 0.0 0.0
-1207.3504845883976 -256.3708762999173 -730.0167544089747 118.97109116518942 0.0 0.0
-1135.187562134633 -196.45136247901064 -663.9400430181779 115.35344300222846 0.0 0.0
-1072.2164226751095 -152.4273678348314 -610.3179819380152 110.52796992866413 0.0 0.0
-1016.2065766155702 -119.91294698761256 -565.9540416105896 107.92775048503057 0.0 0.0
-965.1225356755654 -96.76044266576523 -528.6994814160205 108.50665356941099 0.0 0.0
-915.8529671915317 -78.59866421367097 -494.6877389117293 111.36081040870056 0.0 0.0
-865.0421732347794 -61.943903949809766 -460.4528907262865 114.8518827223095 0.0 0.0
-811.1016654272288 -45.793858117407986 -424.60470379810545 117.97378184698158 0.0 0.0
-753.3975257616588 -30.62211588146643 -386.4978098606879 119.93553745948043 0.0 0.0
-690.1767143542718 -16.18527678162002 -343.11468501139365 120.0520410950667 0.0 0.0
-616.5659061243695 -1.0737412646548563 -286.1592591966267 119.38263589125691 0.0 0.0
-526.4726778073824 13.367442919497453 -210.74999347144893 123.35341199129543 0.0 0.0
-417.72818682268735 23.216582001207925 -135.6437086520706 136.80364743395066 0.0 0.0
-312.32078204242555 22.839935092007387 -88.91319154373126 148.41027083949567 0.0 0.0
-232.14440304133365 16.478413931215684 -64.83325346023123 155.7070741807013 0.0 0.0
-165.9422579896495 2.3071433675224697 -49.094001564421184 162.2760077545934 0.0 0.0
-99.25563719458235 -36.94780950057425 -40.86103400854697 152.64006805281855 0.0 0.0
-30.43953282283995 -92.50340191580102 -36.88288042159229 84.6807194757305 0.0 0.0
-31.21133285363888 -61.2963461383671 -27.75230369760179 -68.5961286850731 0.0 0.0
-107.82383112838026 -29.233017259956576 -41.11705451650104 -132.9278795534179 0.0 0.0
-190.3541853071438 1.8135371924502977 -56.56000732858756 -144.42179721676757 0.0 0.0
-273.30998014255783 14.22733373653992 -77.93977028293554 -136.08440510804985 0.0 0.0
-369.8997644302028 24.521663074279587 -108.22082880641224 -124.38956427486663 0.0 0.0
-480.81440853441524 23.006469509545955 -167.95408717514704 -106.76899285168759 0.0 0.0
-579.5287276211411 12.512881588521779 -247.3921690032584 -96.88267304557401 0.0 0.0
-661.150717731192 -2.972495149146738 -316.7603641167374 -97.22306477160997 0.0 0.0
-732.0348224357933 -18.681799399967247 -368.28912075839855 -99.73854526091478 0.0 0.0
-797.3794999056236 -36.1527347694861 -412.4078275735718 -100.46422147520576 0.0 0.0
-858.9944621780221 -55.38551861950913 -453.91791823201015 -99.04651219093991 0.0 0.0
-917.2994916221685 -75.77564218236816 -493.8598983749355 -96.48872052118872 0.0 0.0
-972.7337046854357 -96.56581621654169 -532.391063387 -93.58474783286002 0.0 0.0
-1025.983180335223 -118.1471619451919 -570.0707982837241 -90.77267245887589 0.0 0.0
-1081.3803960201344 -144.3983481539387 -610.974685097894 -89.48393606547275 0.0 0.0
-1145.635163472062 -182.91971409463125 -662.3603834316862 -91.098197157946 0.0 0.0
-1221.7684245660198 -238.69349422931055 -728.3294180956735 -94.95943745521957 0.0 0.0
-1308.8912329220916 -312.7556431396458 -808.9488554509153 -98.4346029046244 0.0 0.0
-1398.1312287734322 -401.5243586838775 -898.0037487584509 -100.44805202807207 0.0 0.0
-1476.3776692682027 -503.98099912895896 -988.5264669617868 -106.7030559882579 0.0 0.0
-1476.3776692685474 -503.9809991294094 -988.526466962025 106.70305598852991 0.0 0.0
-1398.131228774141 -401.52435868470957 -898.0037487589431 100.44805202825007 0.0 0.0
-1308.8912329217312 -312.7556431394099 -808.948855450598 98.434602904793 0.0 0.0
-1221.768424564574 -238.6934942279282 -728.3294180945932 94.95943745517602 0.0 0.0
-1145.6351634712369 -182.91971409390018 -662.360383431002 91.09819715791534 0.0 0.0
-1081.380396020556 -144.39834815454333 -610.9746850980723 89.48393606553957 0.0 0.0
-1025.983180335715 -118.14716194590844 -570.0707982840213 90.77267245900418 0.0 0.0
-972.7337046849191 -96.5658162162159 -532.391063386634 93.58474783287863 0.0 0.0
-917.2994916208123 -75.77564218117752 -493.85989837410614 96.48872052107106 0.0 0.0
-858.9944621774896 -55.38551861922521 -453.91791823168927 99.04651219093878 0.0 0.0
-797.3794999049722 -36.15273476907352 -412.40782757316396 100.46422147510926 0.0 0.0
-732.0348224352994 -18.68179939983222 -368.28912075810524 99.73854526102181 0.0 0.0
-661.150717731023 -2.97249514931217 -316.7603641165461 97.22306477157001 0.0 0.0
-579.5287276208677 12.512881588398646 -247.3921690029791 96.88267304558866 0.0 0.0
-480.81440853381935 23.006469509869582 -167.95408717469928 106.76899285151941 0.0 0.0
-369.89976442977513 24.52166307426917 -108.22082880625351 124.38956427476637 0.0 0.0
-273.3099801422566 14.227333736773005 -77.93977028278981 136.08440510793616 0.0 0.0
-190.35418530698558 1.813537192538273 -56.56000732851453 144.4217972165791 0.0 0.0
-107.8238311281801 -29.23301725963899 -41.11705451634572 132.9278795532514 0.0 0.0
-31.211332853551937 -61.29634613822119 -27.752303697531936 68.59612868494501 0.0 0.0
-31.761534054757483 -35.73814946461686 -20.249905055812302 -52.02184258867443 0.0 0.0
-115.43835233975541 -20.951300870843006 -40.91689596317952 -109.96819527966724 0.0 0.0
-213.47936296979213 1.1563484507619481 -63.696143871619924 -122.17415846372286 0.0 0.0
-313.45658879235503 12.277843493326316 -90.63554159760682 -112.86457230946442 0.0 0.0
-424.05531099056213 25.006406516161068 -128.98630415314082 -96.68170914702692 0.0 0.0
-530.4910262999352 21.963062890303704 -198.94712932633948 -78.45419587086835 0.0 0.0
-618.3357780911339 10.578731528335446 -277.27537775706713 -73.28625038428665 0.0 0.0
-695.4342390452855 -3.4844024990544114 -338.780126503539 -76.01556600287641 0.0 0.0
-766.757339396599 -20.822702429789857 -388.37254572831716 -79.15758719817494 0.0 0.0
-834.930713025815 -41.668626299864314 -434.6054103239338 -80.28228501080959 0.0 0.0
-900.3171383190269 -64.6855945678013 -479.60565967388385 -79.37593921861878 0.0 0.0
-963.2025277108816 -89.33191459410071 -523.8560668318369 -77.45001791190565 0.0 0.0
-1023.4788320126568 -114.71104812337828 -567.0299722159729 -75.20675522328955 0.0 0.0
-1081.9646756921195 -140.77574315568663 -609.5516354788142 -72.76894566103525 0.0 0.0
-1141.4312407109796 -170.15907889624094 -654.0562854031606 -70.70843186641547 0.0 0.0
-1210.3112938751735 -212.4443505229204 -709.5536501738285 -70.6396202069896 0.0 0.0
-1297.7533950536017 -278.00901378566596 -785.9852378879154 -73.58348029525285 0.0 0.0
-1397.6514652486983 -364.1297908781369 -879.0373357343278 -78.11639502770169 0.0 0.0
-1495.5857600838992 -461.7059469064713 -976.8881704238588 -83.53819695374443 0.0 0.0
-1572.7681534580809 -562.2365238992887 -1065.9514979314315 -94.44931238688571 0.0 0.0
-1572.7681534581184 -562.2365238993399 -1065.9514979315259 94.44931238693349 0.0 0.0
-1495.5857600846316 -461.70594690729473 -976.8881704243772 83.5381969538688 0.0 0.0
-1397.6514652487426 -364.12979087831405 -879.0373357343235 78.11639502794185 0.0 0.0
-1297.7533950536572 -278.0090137858479 -785.9852378879461 73.58348029533559 0.0 0.0
-1210.3112938754086 -212.44435052330647 -709.5536501740013 70.63962020708158 0.0 0.0
-1141.431240709383 -170.15907889478765 -654.0562854020758 70.70843186640496 0.0 0.0
-1081.9646756921602 -140.77574315589405 -609.5516354788449 72.76894566101429 0.0 0.0
-1023.4788320131017 -114.71104812406524 -567.0299722162691 75.20675522340767 0.0 0.0
-963.2025277106011 -89.33191459404375 -523.8560668316359 77.45001791185813 0.0 0.0
-900.317138318595 -64.68559456762115 -479.60565967356035 79.37593921865209 0.0 0.0
-834.9307130253276 -41.66862629963687 -434.60541032358634 80.28228501074086 0.0 0.0
-766.7573393964478 -20.8227024299459 -388.3725457282243 79.15758719821774 0.0 0.0
-695.4342390449945 -3.484402499059037 -338.7801265033047 76.01556600280885 0.0 0.0
-618.3357780911111 10.578731527888472 -277.27537775697846 73.28625038446914 0.0 0.0
-530.4910262998502 21.963062889910557 -198.94712932621465 78.45419587095414 0.0 0.0
-424.05531099001604 25.006406516205605 -128.98630415290555 96.68170914714844 0.0 0.0
-313.4565887920687 12.277843493310197 -90.63554159754752 112.8645723094639 0.0 0.0
-213.47936296973853 1.1563484506343134 -63.69614387164303 122.1741584637193 0.0 0.0
-115.43835233974846 -20.951300870962037 -40.91689596321314 109.96819527965872 0.0 0.0
-31.76153405464713 -35.7381494646298 -20.249905055783078 52.02184258867443 0.0 0.0
-31.471684716493762 -16.281466335656454 -14.325945315645065 -35.079584594409035 0.0 0.0
-121.27440799468317 -12.571858410989392 -40.15387992170176 -83.97955022840456 0.0 0.0
-235.69853345652893 0.07660689592512426 -70.68657796818113 -95.47124119380506 0.0 0.0
-353.3818389785463 11.718276593314403 -102.99391445143641 -85.99148981730238 0.0 0.0
-471.4159870460313 24.241562164438253 -151.23840686115722 -67.15537617809879 0.0 0.0
-569.2964498135027 19.603222767060366 -228.14865661523012 -53.26017346460404 0.0 0.0
-649.4438154895388 9.343618134514045 -300.8507187833021 -51.70462032493696 0.0 0.0
-723.3767935437618 -3.5212237708401375 -355.6254368205731 -54.85663785341835 0.0 0.0
-795.9667600843679 -23.04636523236374 -405.08274995346085 -58.05159926897885 0.0 0.0
-867.1382932385463 -46.98022193480759 -453.8141744502964 -59.39315093714066 0.0 0.0
-936.5429906686936 -73.75784207188164 -502.5323959801078 -58.95881119911645 0.0 0.0
-1003.8500656511569 -102.55344691019121 -550.9952066110404 -57.6523839566415 0.0 0.0
-1069.5883750125793 -132.7322035856702 -599.2415740262952 -56.15597214665829 0.0 0.0
-1133.9825579522385 -164.54315465291847 -647.5545273735121 -54.268465039758794 0.0 0.0
-1198.6625253971547 -198.7924453145651 -697.1248605079977 -51.86951472251155 0.0 0.0
-1269.5631391877992 -242.05142003647305 -754.135596319358 -50.02472677396633 0.0 0.0
-1358.733219197968 -308.37852347156894 -831.7092765067807 -51.43295865895078 0.0 0.0
-1473.9977922680675 -408.9207008337313 -939.6088274157768 -57.37444571610162 0.0 0.0
-1586.1218674228764 -519.9227835059619 -1051.3216309362215 -67.2641627588029 0.0 0.0
-1672.8145567255465 -628.4177349888839 -1149.1392205097889 -83.76211445467075 0.0 0.0
-1672.8145567248507 -628.4177349882251 -1149.1392205092648 83.76211445480679 0.0 0.0
-1586.1218674224988 -519.9227835056845 -1051.32163093598 67.26416275899558 0.0 0.0
-1473.9977922679575 -408.9207008337034 -939.6088274157105 57.37444571619126 0.0 0.0
-1358.7332191968203 -308.3785234705184 -831.7092765058213 51.43295865898179 0.0 0.0
-1269.5631391856493 -242.05142003443672 -754.135596317778 50.02472677396749 0.0 0.0
-1198.662525396428 -198.7924453139525 -697.1248605074267 51.86951472239938 0.0 0.0
-1133.9825579515623 -164.5431546524369 -647.5545273730136 54.268465039849545 0.0 0.0
-1069.5883750116427 -132.73220358490934 -599.2415740255883 56.15597214662067 0.0 0.0
-1003.8500656509073 -102.55344691018884 -550.9952066108254 57.65238395666489 0.0 0.0
-936.5429906689158 -73.75784207235117 -502.5323959802884 58.95881119907315 0.0 0.0
-867.1382932385328 -46.98022193504466 -453.81417445033355 59.393150937046464 0.0 0.0
-795.9667600835867 -23.04636523185153 -405.0827499529477 58.05159926891367 0.0 0.0
-723.3767935434118 -3.521223770763825 -355.6254368203172 54.856637853255435 0.0 0.0
-649.4438154889192 9.34361813479871 -300.8507187828451 51.704620325048495 0.0 0.0
-569.2964498131364 19.60322276705253 -228.14865661488403 53.260173464592995 0.0 0.0
-471.41598704541127 24.24156216466676 -151.23840686079868 67.15537617816597 0.0 0.0
-353.38183897806925 11.718276593573371 -102.99391445123915 85.99148981711237 0.0 0.0
-235.6985334564083 0.0766068958792232 -70.6865779681587 95.47124119357875 0.0 0.0
-121.27440799459056 -12.571858411047309 -40.153879921691356 83.97955022831488 0.0 0.0
-31.471684716371602 -16.281466335641838 -14.32594531560403 35.07958459439622 0.0 0.0
-29.03411378020577 -3.305393917905157 -9.701852309433276 -18.28592275210372 0.0 0.0
-123.61663229863598 -4.703415955830797 -38.49601447634003 -54.92741196391546 0.0 0.0
-257.4208110901626 -1.2624033237800667 -77.60496432418279 -63.803325961278375 0.0 0.0
-394.7428924598794 12.504510628210536 -115.91342176707641 -55.56382175147853 0.0 0.0
-510.50016055542676 23.025608293045305 -174.18454118784697 -38.829609164502834 0.0 0.0
-597.7622389726896 16.074318488663458 -254.10414835196718 -30.590204439605806 0.0 0.0
-673.7099571828526 9.47585330415373 -318.10792608860663 -30.998340512721335 0.0 0.0
-746.6315526506144 -4.1498787446209775 -369.3967657565064 -33.698425560426216 0.0 0.0
-820.2846312625825 -25.103005762100082 -418.9325789032125 -36.396368475308876 0.0 0.0
-894.6560789450684 -52.048878461168556 -470.44131687614515 -37.75166919722566 0.0 0.0
-968.2261129774552 -82.61906888020656 -523.0289090361887 -37.77570509529878 0.0 0.0
-1040.3762068824506 -115.42938280280268 -575.8616393095597 -37.12033366939035 0.0 0.0
-1111.4079711826214 -150.7540576342925 -629.2793652054232 -36.23823289833063 0.0 0.0
-1182.4714943108866 -188.6385007217621 -683.9205469562233 -35.05230130732816 0.0 0.0
-1254.2230040714212 -229.6647122012339 -740.4190278853479 -33.12098078359735 0.0 0.0
-1327.690334745972 -275.39316525731215 -800.0337074155314 -30.381119248826174 0.0 0.0
-1409.89271124054 -334.209444818658 -870.3910407858003 -29.245052863283714 0.0 0.0
-1518.4860591054696 -426.6582282599113 -970.6992156888192 -34.877756368595804 0.0 0.0
-1677.6528141159674 -582.3972851785977 -1128.3033897471541 -49.84775643993949 0.0 0.0
-1785.9001701962209 -709.9682369664029 -1246.5232076007214 -73.66157917796791 0.0 0.0
-1785.9001701964194 -709.9682369666067 -1246.523207600888 73.66157917790773 0.0 0.0
-1677.652814116233 -582.3972851789138 -1128.303389747257 49.847756440001234 0.0 0.0
-1518.4860591057304 -426.6582282602576 -970.6992156888335 34.877756368670234 0.0 0.0
-1409.8927112399451 -334.20944481817435 -870.391040785273 29.24505286333209 0.0 0.0
-1327.6903347442894 -275.39316525573525 -800.0337074142776 30.381119248745197 0.0 0.0
-1254.2230040702898 -229.6647122002284 -740.4190278843561 33.12098078352096 0.0 0.0
-1182.4714943102192 -188.63850072127616 -683.9205469556617 35.05230130739308 0.0 0.0
-1111.407971181769 -150.7540576336346 -629.2793652048549 36.23823289836531 0.0 0.0
-1040.3762068811689 -115.42938280176844 -575.8616393086659 37.120333669525934 0.0 0.0
-968.2261129767721 -82.61906887977207 -523.0289090356292 37.77570509521675 0.0 0.0
-894.6560789451526 -52.048878461528076 -470.4413168761173 37.75166919720923 0.0 0.0
-820.284631263069 -25.10300576290311 -418.9325789034713 36.39636847539238 0.0 0.0
-746.6315526506357 -4.149878744965683 -369.39676575649094 33.698425560408815 0.0 0.0
-673.7099571821534 9.475853304525565 -318.1079260881029 30.99834051274492 0.0 0.0
-597.7622389722134 16.074318488811027 -254.10414835155277 30.590204439650563 0.0 0.0
-510.5001605550146 23.0256082930584 -174.1845411875661 38.829609164598054 0.0 0.0
-394.74289245951786 12.50451062828145 -115.91342176696065 55.56382175134744 0.0 0.0
-257.4208110898164 -1.2624033235097216 -77.60496432399785 63.80332596130826 0.0 0.0
-123.61663229834426 -4.703415955559376 -38.49601447617109 54.92741196399659 0.0 0.0
-29.034113780148193 -3.3053939178900116 -9.701852309411459 18.285922752061023 0.0 0.0
-21.94545165043044 2.92987162063018 -5.704674008940076 -2.919863819497501 0.0 0.0
-119.356827741559 1.801407480352884 -35.266626078361824 -22.245580644474607 0.0 0.0
-279.80110288824534 -2.3633346705977107 -84.6493312676529 -26.105584561666795 0.0 0.0
-434.9123323470611 14.662331056500165 -130.1672663440732 -22.374450931595934 0.0 0.0
-543.3186701156775 20.5800443130434 -197.98457897864728 -13.202347026365096 0.0 0.0
-622.4941796301113 14.210615180256625 -275.6869486349268 -10.189121705438854 0.0 0.0
-693.6279502645937 8.95111652478053 -331.9061346977818 -10.702958436363422 0.0 0.0
-765.5859661537263 -4.850508125580276 -380.4423747067591 -12.453997459621366 0.0 0.0
-840.5197306058712 -27.224429219065968 -430.6078959635482 -14.21780018328495 0.0 0.0
-917.972130859117 -56.81852672722286 -484.7594227478469 -15.354298772393962 0.0 0.0
-995.9077663639466 -91.01439822671892 -541.247315487768 -15.808218591722966 0.0 0.0
-1072.965199556315 -128.52685503077652 -598.8408532513389 -15.756334979421746 0.0 0.0
-1149.6046586820266 -168.57989810595745 -657.3910713162118 -15.52489246826088 0.0 0.0
-1227.1401167450535 -212.25840689306398 -718.1287522302144 -15.027109305305848 0.0 0.0
-1306.3659468591711 -260.5464564098557 -781.9762263374259 -13.981601361909185 0.0 0.0
-1386.349408278049 -312.96235062358824 -848.2347010470946 -12.072105175036707 0.0 0.0
-1464.8336243446224 -368.23142642112316 -915.1013912295969 -9.570235000034433 0.0 0.0
-1547.3507370076818 -433.64655353488024 -988.8828910388064 -10.811272363866232 0.0 0.0
-1669.1805593024967 -548.3140470938833 -1106.816282127402 -26.69485929849862 0.0 0.0
-1988.6192624108949 -880.9746244394161 -1433.3957599174707 -60.90763190428097 0.0 0.0
-1988.6192624099951 -880.9746244385209 -1433.3957599168202 60.90763190421405 0.0 0.0
-1669.1805593017828 -548.3140470932153 -1106.8162821270732 26.694859298545865 0.0 0.0
-1547.350737007383 -433.6465535346624 -988.8828910386428 10.811272363824063 0.0 0.0
-1464.8336243449712 -368.2314264215844 -915.1013912298135 9.57023500016704 0.0 0.0
-1386.3494082781724 -312.96235062385495 -848.2347010472351 12.072105175011053 0.0 0.0
-1306.3659468593685 -260.5464564102089 -781.9762263376845 13.981601362012288 0.0 0.0
-1227.1401167450979 -212.25840689328956 -718.1287522301452 15.027109305261963 0.0 0.0
-1149.6046586819234 -168.57989810606117 -657.391071316041 15.524892468221838 0.0 0.0
-1072.9651995562501 -128.5268550309419 -598.8408532512159 15.756334979473946 0.0 0.0
-995.9077663631324 -91.01439822617526 -541.247315487191 15.80821859174862 0.0 0.0
-917.97213085934 -56.818526727726535 -484.75942274794374 15.35429877228537 0.0 0.0
-840.5197306062651 -27.2244292197624 -430.60789596378726 14.217800183291025 0.0 0.0
-765.5859661536701 -4.85050812583313 -380.4423747067166 12.453997459601787 0.0 0.0
-693.6279502641904 8.95111652487622 -331.90613469751435 10.702958436260232 0.0 0.0
-622.4941796294844 14.210615180619591 -275.68694863447456 10.189121705421472 0.0 0.0
-543.3186701153445 20.58004431302609 -197.98457897838583 13.202347026466606 0.0 0.0
-434.9123323467145 14.662331056545097 -130.16726634393726 22.37445093144179 0.0 0.0
-279.8011028879215 -2.3633346706053153 -84.64933126755804 26.10558456153869 0.0 0.0
-119.35682774145985 1.8014074802977742 -35.266626078348615 22.24558064435504 0.0 0.0
-21.945451650373528 2.9298716206366517 -5.704674008921062 2.919863819497501 0.0 0.0
SCALARS Strain float 6
LOOKUP_TABLE default
0.012308766834460267 -0.013376837204242653 0.0 -0.007425685074958888 0.0 0.0
0.00251977349698539 -0.0016280369008082607 0.0 0.0012450220452723815 0.0 0.0
0.0018506271859636027 -0.000757651989249597 0.0 -3.795066003953185e-05 0.0 0.0
0.002377598527681043 -0.0011716869910900485 0.0 -0.00022787092544557241 0.0 0.0
0.0037878091919054044 -0.0023270120404199623 0.0 -0.00029464867430484265 0.0 0.0
0.0066921212307892095 -0.00493059821420716 0.0 -0.000458968531073467 0.0 0.0
0.01142207222710153 -0.009391719289008726 0.0 -0.000742244099590339 0.0 0.0
0.01829498069959492 -0.015993875637275945 0.0 -0.0011826961561117177 0.0 0.0
0.027473083357960136 -0.024877195799614782 0.0 -0.001797293031111702 0.0 0.0
0.038929031822353286 -0.03601146311415526 0.0 -0.002533414070879314 0.0 0.0
0.05251657336770653 -0.049261117575602587 0.0 -0.003297622442959669 0.0 0.0
0.06805770848450395 -0.06445604883082101 0.0 -0.004043431174365897 0.0 0.0
0.08537426822475663 -0.08142130623351251 0.0 -0.004777431850374464 0.0 0.0
0.10425570069796747 -0.09994200702787381 0.0 -0.005493130018883019 0.0 0.0
0.12433876233561411 -0.11965121758750819 0.0 -0.006157138147746821 0.0 0.0
0.14496991438469592 -0.13989899246828807 0.0 -0.006636483750611932 0.0 0.0
0.1651469437724464 -0.1596957498124736 0.0 -0.006696192865074335 0.0 0.0
0.18355727681298709 -0.17774250640738698 0.0 -0.006115655712693291 0.0 0.0
0.1986355261114641 -0.19247662203880855 0.0 -0.0051992779163424485 0.0 0.0
0.2081055117314756 -0.20141880368922083 0.0 -0.006010636191684071 0.0 0.0
0.20810551173146216 -0.2014188036892115 0.0 0.006010636191692176 0.0 0.0
0.19863552611142002 -0.19247662203877525 0.0 0.005199277916363321 0.0 0.0
0.18355727681291564 -0.1777425064073186 0.0 0.006115655712708112 0.0 0.0
0.16514694377235548 -0.15969574981238255 0.0 0.00669619286508083 0.0 0.0
0.144969914384598 -0.13989899246819215 0.0 0.006636483750602995 0.0 0.0
0.12433876233551377 -0.1196512175874127 0.0 0.006157138147747432 0.0 0.0
0.10425570069786783 -0.09994200702778411 0.0 0.005493130018882519 0.0 0.0
0.0853742682246576 -0.08142130623342103 0.0 0.004777431850371716 0.0 0.0
0.06805770848440729 -0.06445604883072553 0.0 0.004043431174358125 0.0 0.0
0.05251657336762228 -0.04926111757551821 0.0 0.0032976224429546175 0.0 0.0
0.03892903182228419 -0.03601146311408332 0.0 0.0025334140708684894 0.0 0.0
0.027473083357906602 -0.024877195799563268 0.0 0.0017972930311107582 0.0 0.0
0.01829498069955393 -0.01599387563723753 0.0 0.0011826961561092197 0.0 0.0
0.011422072227074032 -0.009391719288983635 0.0 0.0007422440995898394 0.0 0.0
0.0066921212307723965 -0.004930598214194948 0.0 0.0004589685310723568 0.0 0.0
0.003787809191899083 -0.0023270120404144112 0.0 0.00029464867430401 0.0 0.0
0.0023775985276789924 -0.0011716869910893823 0.0 0.00022787092544374055 0.0 0.0
0.0018506271859635715 -0.000757651989249819 0.0 3.795066003964287e-05 0.0 0.0
0.0025197734969831798 -0.0016280369008065954 0.0 -0.0012450220452693284 0.0 0.0
0.012308766834449092 -0.01337683720422838 0.0 0.007425685074924249 0.0 0.0
0.008781536379682812 -0.010228264312298008 0.0 -0.009001244500773609 0.0 0.0
0.0013591957424407067 -0.0008180881182603406 0.0 0.0001271959105314524 0.0 0.0
0.0015791648494004329 -0.0005585010028140713 0.0 -0.00012716093916331772 0.0 0.0
0.0020786575255817077 -0.0009719768614784297 0.0 -0.00048733130969708105 0.0 0.0
0.003205126261101067 -0.0018460039119516658 0.0 -0.000657480982473424 0.0 0.0
0.005695448442695407 -0.004023431461061655 0.0 -0.0010597446308716063 0.0 0.0
0.00991764301733055 -0.0079556596786019 0.0 -0.0017729093170796295 0.0 0.0
0.016135312495311437 -0.013895620880192805 0.0 -0.0028177917332135594 0.0 0.0
0.024452866430539594 -0.021924993432328677 0.0 -0.004201030830814356 0.0 0.0
0.03479507538020268 -0.03196227993451384 0.0 -0.0057985249619589285 0.0 0.0
0.04699813804826433 -0.04385190339067524 0.0 -0.007431900602164865 0.0 0.0
0.0609103064152337 -0.05744689786993007 0.0 -0.008998826814665295 0.0 0.0
0.07641381120208733 -0.07262761701226372 0.0 -0.010557271045946393 0.0 0.0
0.09334632138965877 -0.0892293862599387 0.0 -0.012119418906254897 0.0 0.0
0.1113979060334833 -0.10694115374953661 0.0 -0.013573954721233239 0.0 0.0
0.13001545101042175 -0.12521178539235356 0.0 -0.01465635813150784 0.0 0.0
0.14833458578179476 -0.14318203869568924 0.0 -0.01491462201401278 0.0 0.0
0.16515481028891388 -0.15965398284560672 0.0 -0.014009293130054834 0.0 0.0
0.17881937811460846 -0.172931557177475 0.0 -0.012197733848918202 0.0 0.0
0.18706255126994067 -0.18087806221433622 0.0 -0.00929071176226759 0.0 0.0
0.18706255126992768 -0.18087806221432068 0.0 0.00929071176229146 0.0 0.0
0.1788193781145681 -0.17293155717743414 0.0 0.012197733848959835 0.0 0.0
0.16515481028885085 -0.15965398284554544 0.0 0.014009293130081035 0.0 0.0
0.1483345857817163 -0.14318203869561463 0.0 0.014914622014028378 0.0 0.0
0.13001545101033432 -0.12521178539226474 0.0 0.014656358131499014 0.0 0.0
0.11139790603339297 -0.10694115374944468 0.0 0.013573954721228909 0.0 0.0
0.09334632138956905 -0.0892293862598521 0.0 0.012119418906251234 0.0 0.0
0.07641381120199903 -0.0726276170121789 0.0 0.010557271045941619 0.0 0.0
0.060910306415148 -0.05744689786984569 0.0 0.008998826814654581 0.0 0.0
0.04699813804818859 -0.04385190339059575 0.0 0.007431900602156594 0.0 0.0
0.034795075380140206 -0.031962279934448556 0.0 0.005798524961943219 0.0 0.0
0.024452866430490827 -0.02192499343228116 0.0 0.004201030830808139 0.0 0.0
0.01613531249527489 -0.01389562088015528 0.0 0.0028177917332068425 0.0 0.0
0.009917643017305688 -0.00795565967857681 0.0 0.0017729093170741894 0.0 0.0
0.005695448442681272 -0.00402343146104811 0.0 0.0010597446308688863 0.0 0.0
0.0032051262610959808 -0.0018460039119465588 0.0 0.0006574809824729799 0.0 0.0
0.002078657525580563 -0.0009719768614763202 0.0 0.00048733130969669247 0.0 0.0
0.0015791648494002386 -0.0005585010028144044 0.0 0.00012716093916542714 0.0 0.0
0.0013591957424404222 -0.0008180881182592858 0.0 -0.00012719591053278467 0.0 0.0
0.008781536379668775 -0.010228264312282274 0.0 0.009001244500744132 0.0 0.0
0.006524331566776828 -0.008141139925789298 0.0 -0.008357056499361415 0.0 0.0
0.0007969997020992464 -0.0005363741225732355 0.0 -0.0005857183304526226 0.0 0.0
0.0012645158872454099 -0.0004096114321346933 0.0 -0.00043931147115738867 0.0 0.0
0.0017955983299303563 -0.0007902595152728953 0.0 -0.000731539382099855 0.0 0.0
0.002686891462449756 -0.001444834156083541 0.0 -0.0009679887547886512 0.0 0.0
0.004739428740804019 -0.0031759493840826103 0.0 -0.0015038130371320957 0.0 0.0
0.008425647941817653 -0.006544861401364788 0.0 -0.002534063681600418 0.0 0.0
0.013951091977517663 -0.011786961282271857 0.0 -0.004071086773632937 0.0 0.0
0.02137427921532463 -0.018926831518874643 0.0 -0.006058714953065425 0.0 0.0
0.030580835607261922 -0.02784619832531554 0.0 -0.008319677473490827 0.0 0.0
0.041395152825583786 -0.038371469919647794 0.0 -0.010629483236052062 0.0 0.0
0.053682349917813794 -0.050368589322072665 0.0 -0.01285641150065625 0.0 0.0
0.06735962760438223 -0.06375218996034748 0.0 -0.015048898159133517 0.0 0.0
0.08232088346937208 -0.07841407432481828 0.0 -0.01726133193810353 0.0 0.0
0.09832840375708754 -0.09411695220273852 0.0 -0.01935893849017456 0.0 0.0
0.11493731654234278 -0.11041543033300005 0.0 -0.020955745507067525 0.0 0.0
0.1314230319299437 -0.12658233257953677 0.0 -0.021502891774976662 0.0 0.0
0.14667631315412294 -0.14149559887194973 0.0 -0.020527227424276595 0.0 0.0
0.15908708089237975 -0.1535742012564496 0.0 -0.01754159093140284 0.0 0.0
0.16681395525866138 -0.1610603971152802 0.0 -0.011616446573924022 0.0 0.0
0.16681395525864923 -0.16106039711527087 0.0 0.011616446573963879 0.0 0.0
0.15908708089234377 -0.1535742012564172 0.0 0.017541590931459794 0.0 0.0
0.14667631315406673 -0.14149559887189955 0.0 0.020527227424316674 0.0 0.0
0.13142303192987595 -0.12658233257947327 0.0 0.021502891774995647 0.0 0.0
0.11493731654226577 -0.110415430332925 0.0 0.02095574550705881 0.0 0.0
0.09832840375700719 -0.09411695220265592 0.0 0.019358938490168676 0.0 0.0
0.08232088346929242 -0.07841407432474368 0.0 0.017261331938098978 0.0 0.0
0.06735962760430436 -0.06375218996027376 0.0 0.015048898159128021 0.0 0.0
0.05368234991773957 -0.05036858932199895 0.0 0.012856411500637988 0.0 0.0
0.04139515282551692 -0.03837146991958518 0.0 0.010629483236037185 0.0 0.0
0.03058083560720648 -0.02784619832526003 0.0 0.008319677473470732 0.0 0.0
0.0213742792152804 -0.018926831518830234 0.0 0.006058714953051769 0.0 0.0
0.013951091977485675 -0.011786961282239439 0.0 0.004071086773619281 0.0 0.0
0.00842564794179601 -0.006544861401344582 0.0 0.0025340636815902595 0.0 0.0
0.004739428740792584 -0.0031759493840697317 0.0 0.0015038130371274328 0.0 0.0
0.002686891462445773 -0.001444834156079322 0.0 0.0009679887547887067 0.0 0.0
0.00179559832992926 -0.0007902595152725622 0.0 0.0007315393820979121 0.0 0.0
0.0012645158872455209 -0.0004096114321351374 0.0 0.0004393114711560564 0.0 0.0
0.000796999702098844 -0.0005363741225716256 0.0 0.0005857183304513458 0.0 0.0
0.006524331566763575 -0.00814113992577491 0.0 0.008357056499339155 0.0 0.0
0.004939264874203639 -0.006565965249088035 0.0 -0.0071094486492556674 0.0 0.0
0.0004988380634040751 -0.00039915318002059497 0.0 -0.0011861045261248315 0.0 0.0
0.0009799157213563614 -0.0002995010535907783 0.0 -0.000857781019775905 0.0 0.0
0.0015203930816112265 -0.0006321595389715551 0.0 -0.0010027367635799256 0.0 0.0
0.0022299375179559294 -0.0011223907420507828 0.0 -0.0012514451389475378 0.0 0.0
0.0038587967971304427 -0.0024272398249005622 0.0 -0.001819711317490036 0.0 0.0
0.0069597182790757245 -0.005188426847261285 0.0 -0.0030360693867250155 0.0 0.0
0.011768204361011808 -0.009693657101347952 0.0 -0.004936890465396804 0.0 0.0
0.018267786070505637 -0.015916548389619756 0.0 -0.007361543031520201 0.0 0.0
0.026320697540668153 -0.023699095252179614 0.0 -0.010100773366439164 0.0 0.0
0.03573948491367718 -0.03285217771972038 0.0 -0.012890624161100817 0.0 0.0
0.046399775699932366 -0.04324872984562145 0.0 -0.015597734863820822 0.0 0.0
0.05824864010804423 -0.054833428014442465 0.0 -0.01827759101443799 0.0 0.0
0.07122647553175686 -0.0675430822375711 0.0 -0.020942752498642303 0.0 0.0
0.08516971307381596 -0.08121710565880313 0.0 -0.02346909266711522 0.0 0.0
0.09975049286304272 -0.09552470789383172 0.0 -0.02549974676102973 0.0 0.0
0.11438455600871374 -0.10986994440866082 0.0 -0.026412241597898345 0.0 0.0
0.1281025600823575 -0.12328109972361645 0.0 -0.025448923342005103 0.0 0.0
0.1395051358754481 -0.13438858700581058 0.0 -0.02157183896826853 0.0 0.0
0.14701879462362474 -0.1416851502704235 0.0 -0.013513104983785551 0.0 0.0
0.14701879462361353 -0.14168515027041328 0.0 0.013513104983833846 0.0 0.0
0.1395051358754159 -0.13438858700578216 0.0 0.021571838968334145 0.0 0.0
0.12810256008230841 -0.12328109972356804 0.0 0.025448923342050733 0.0 0.0
0.11438455600865491 -0.10986994440860531 0.0 0.026412241597920216 0.0 0.0
0.09975049286297613 -0.09552470789376954 0.0 0.02549974676102229 0.0 0.0
0.08516971307374557 -0.08121710565873164 0.0 0.023469092667104174 0.0 0.0
0.07122647553168748 -0.06754308223750005 0.0 0.020942752498634865 0.0 0.0
0.05824864010797687 -0.05483342801437541 0.0 0.018277591014427386 0.0 0.0
0.046399775699868695 -0.043248729845562384 0.0 0.01559773486380256 0.0 0.0
0.03573948491361986 -0.032852177719665754 0.0 0.012890624161081887 0.0 0.0
0.026320697540619442 -0.023699095252132096 0.0 0.010100773366416016 0.0 0.0
0.01826778607046664 -0.015916548389582896 0.0 0.007361543031504825 0.0 0.0
0.011768204360984413 -0.009693657101320863 0.0 0.0049368904653853685 0.0 0.0
0.006959718279057503 -0.005188426847245964 0.0 0.003036069386717022 0.0 0.0
0.003858796797121866 -0.002427239824894123 0.0 0.0018197113174834856 0.0 0.0
0.0022299375179528624 -0.0011223907420496726 0.0 0.0012514451389468717 0.0 0.0
0.0015203930816103939 -0.0006321595389718881 0.0 0.0010027367635805362 0.0 0.0
0.0009799157213566945 -0.00029950105359111134 0.0 0.0008577810197739622 0.0 0.0
0.0004988380634038392 -0.0003991531800193737 0.0 0.001186104526122389 0.0 0.0
0.004939264874191995 -0.006565965249075155 0.0 0.007109448649237959 0.0 0.0
0.0037296064875157187 -0.005281925468975213 0.0 -0.005827772230350914 0.0 0.0
0.0003328729259814145 -0.00032309185532786167 0.0 -0.0016537364694183543 0.0 0.0
0.0007423889696308861 -0.00022047599836394483 0.0 -0.0012796635004548862 0.0 0.0
0.001252341847868127 -0.0004965060621116013 0.0 -0.0013032376238401033 0.0 0.0
0.00182640579064057 -0.0008670275905089397 0.0 -0.001520017006540031 0.0 0.0
0.0030701462148628456 -0.0017970122795094579 0.0 -0.002067901914348802 0.0 0.0
0.005562140197340068 -0.003928058143157109 0.0 -0.0033010293101024546 0.0 0.0
0.00960590113366476 -0.007644770463946404 0.0 -0.005374835196594818 0.0 0.0
0.015163730100189815 -0.012926222947007293 0.0 -0.008102308592842888 0.0 0.0
0.02204700734783771 -0.01955539961850361 0.0 -0.011137432425450955 0.0 0.0
0.030063917826553987 -0.02732850199600856 0.0 -0.014224067314542899 0.0 0.0
0.03909484810415777 -0.03612230223655466 0.0 -0.017221853117829977 0.0 0.0
0.04911261818916415 -0.04590491960341536 0.0 -0.020189941263806688 0.0 0.0
0.06010329751365029 -0.056659817775321475 0.0 -0.02315666192911875 0.0 0.0
0.07196953778094521 -0.068290533531286 0.0 -0.025957605740768275 0.0 0.0
0.0844818889957467 -0.08056536840081652 0.0 -0.02825187269720275 0.0 0.0
0.09721270236545124 -0.09304789445833794 0.0 -0.029493095822032744 0.0 0.0
0.10942200404641911 -0.10498982061534123 0.0 -0.028729109435745248 0.0 0.0
0.1199686458136413 -0.11527098811071523 0.0 -0.02446222010071164 0.0 0.0
0.12746492008014476 -0.12255658188558272 0.0 -0.015114299364523354 0.0 0.0
0.12746492008013466 -0.1225565818855725 0.0 0.015114299364574202 0.0 0.0
0.11996864581361263 -0.11527098811068592 0.0 0.024462220100781584 0.0 0.0
0.10942200404637764 -0.10498982061529549 0.0 0.02872910943579776 0.0 0.0
0.0972127023654008 -0.0930478944582891 0.0 0.029493095822056725 0.0 0.0
0.08448188899568959 -0.08056536840076411 0.0 0.0282518726971952 0.0 0.0
0.07196953778088455 -0.06829053353123449 0.0 0.025957605740758005 0.0 0.0
0.06010329751359181 -0.056659817775267296 0.0 0.023156661929110367 0.0 0.0
0.04911261818910739 -0.04590491960336385 0.0 0.020189941263794253 0.0 0.0
0.03909484810410424 -0.03612230223650359 0.0 0.01722185311780977 0.0 0.0
0.03006391782650583 -0.02732850199595971 0.0 0.014224067314520417 0.0 0.0
0.02204700734779652 -0.019555399618460978 0.0 0.011137432425426641 0.0 0.0
0.015163730100156536 -0.012926222946973986 0.0 0.008102308592828122 0.0 0.0
0.009605901133641764 -0.007644770463923978 0.0 0.005374835196580163 0.0 0.0
0.005562140197325427 -0.003928058143146451 0.0 0.0033010293100929067 0.0 0.0
0.003070146214856434 -0.0017970122795032406 0.0 0.0020679019143437505 0.0 0.0
0.0018264057906388909 -0.0008670275905060532 0.0 0.0015200170065386986 0.0 0.0
0.0012523418478676829 -0.0004965060621119344 0.0 0.0013032376238398813 0.0 0.0
0.0007423889696308583 -0.0002204759983638338 0.0 0.0012796635004537205 0.0 0.0
0.00033287292598130347 -0.0003230918553261408 0.0 0.0016537364694153012 0.0 0.0
0.0037296064875063373 -0.005281925468964922 0.0 0.0058277722303364254 0.0 0.0
0.0027753600517563676 -0.004206289015756093 0.0 -0.004703342114229625 0.0 0.0
0.00023232775892169377 -0.0002733394532911104 0.0 -0.002002493761257551 0.0 0.0
0.0005437186640571551 -0.0001606588653959573 0.0 -0.0016512072411691836 0.0 0.0
0.0009892073590475198 -0.0003757609826182673 0.0 -0.0016062738579444291 0.0 0.0
0.0014657350729370133 -0.0006625051530830817 0.0 -0.0017832170029679628 0.0 0.0
0.002369669543190442 -0.0012890643279022118 0.0 -0.002276337514222515 0.0 0.0
0.004275627913729388 -0.002819257412220333 0.0 -0.0034372662846119395 0.0 0.0
0.007508066714287914 -0.0057002527003078285 0.0 -0.005460963990315093 0.0 0.0
0.01208850181712931 -0.00998977873896445 0.0 -0.008251333551447082 0.0 0.0
0.01779221048248887 -0.01545091489461825 0.0 -0.011417455368546214 0.0 0.0
0.024400175237219948 -0.021837066948073414 0.0 -0.014612510049699823 0.0 0.0
0.0318019731458799 -0.0290267698067721 0.0 -0.017718141071123572 0.0 0.0
0.03998918660304235 -0.03700819155211876 0.0 -0.02079477127642082 0.0 0.0
0.048987321749287036 -0.04580317469877393 0.0 -0.02385618624534569 0.0 0.0
0.05876555982148225 -0.05537769504837575 0.0 -0.026767389626779714 0.0 0.0
0.06917344279058274 -0.06558415411580043 0.0 -0.029212601116656023 0.0 0.0
0.07993235540923554 -0.07614017502789494 0.0 -0.030679105803804174 0.0 0.0
0.09059138652642434 -0.08657966807757056 0.0 -0.03025638727311708 0.0 0.0
0.10034252019591533 -0.0960940504008696 0.0 -0.02619413650152147 0.0 0.0
0.10796164446932408 -0.10349692445432535 0.0 -0.01645710863572547 0.0 0.0
0.10796164446931528 -0.10349692445431646 0.0 0.016457108635780204 0.0 0.0
0.1003425201958911 -0.0960940504008474 0.0 0.02619413650159308 0.0 0.0
0.09059138652638973 -0.08657966807753681 0.0 0.03025638727316904 0.0 0.0
0.07993235540919288 -0.07614017502785586 0.0 0.03067910580382538 0.0 0.0
0.0691734427905352 -0.06558415411575336 0.0 0.029212601116645254 0.0 0.0
0.058765559821431806 -0.0553776950483269 0.0 0.026767389626766946 0.0 0.0
0.04898732174923967 -0.04580317469873041 0.0 0.02385618624533692 0.0 0.0
0.039989186602996274 -0.037008191552076575 0.0 0.020794771276410606 0.0 0.0
0.031801973145836215 -0.029026769806729913 0.0 0.017718141071106697 0.0 0.0
0.024400175237180632 -0.02183706694803611 0.0 0.014612510049674343 0.0 0.0
0.017792210482455773 -0.015450914894587164 0.0 0.011417455368517015 0.0 0.0
0.012088501817101943 -0.00998977873894269 0.0 0.008251333551429818 0.0 0.0
0.007508066714269457 -0.0057002527002929515 0.0 0.005460963990300882 0.0 0.0
0.004275627913718716 -0.0028192574122092307 0.0 0.0034372662846044455 0.0 0.0
0.0023696695431858206 -0.0012890643278973268 0.0 0.0022763375142187403 0.0 0.0
0.0014657350729360141 -0.0006625051530821935 0.0 0.0017832170029650762 0.0 0.0
0.0009892073590471728 -0.0003757609826179342 0.0 0.0016062738579415425 0.0 0.0
0.0005437186640568914 -0.00016065886539606833 0.0 0.0016512072411654644 0.0 0.0
0.00023232775892159663 -0.0002733394532904998 0.0 0.0020024937612551086 0.0 0.0
0.002775360051748721 -0.00420628901574726 0.0 0.004703342114218967 0.0 0.0
0.0020172869089732787 -0.0032976103161212467 0.0 -0.0037713214537034023 0.0 0.0
0.0001624053874056952 -0.00023714364636029384 0.0 -0.00224742874577033 0.0 0.0
0.0003701786346052838 -0.00010990573694902306 0.0 -0.0019505121996082897 0.0 0.0
0.0007299719781857644 -0.00026095305114104406 0.0 -0.0018859242158436595 0.0 0.0
0.0011285782216085838 -0.0004905186559809316 0.0 -0.0020441697374808943 0.0 0.0
0.001757377187647527 -0.0008887412360418789 0.0 -0.002446081415131196 0.0 0.0
0.0031099933991693557 -0.0018827619220476155 0.0 -0.0034431727452013394 0.0 0.0
0.005534677917166081 -0.003929246323098656 0.0 -0.00527040643636717 0.0 0.0
0.00908902394304735 -0.007173089591665516 0.0 -0.007857164470512434 0.0 0.0
0.013586900837519414 -0.01142646917258583 0.0 -0.010906389206551848 0.0 0.0
0.01877919749444254 -0.016416371718165568 0.0 -0.014041584523606376 0.0 0.0
0.024555188471055492 -0.022003576353632592 0.0 -0.01707265650200135 0.0 0.0
0.030916024144646476 -0.02818771351508831 0.0 -0.02005889716451109 0.0 0.0
0.037919504400785314 -0.035021147578571554 0.0 -0.023040492621644648 0.0 0.0
0.045593276202058025 -0.04252583721519754 0.0 -0.02588997733429632 0.0 0.0
0.053869155084067866 -0.05062996663785446 0.0 -0.028299740095187875 0.0 0.0
0.06258215607082385 -0.059185919905591966 0.0 -0.029884491275599445 0.0 0.0
0.0715745464863283 -0.06801907559466214 0.0 -0.02993993867610001 0.0 0.0
0.08047576284637564 -0.07672082309609607 0.0 -0.026674735095625457 0.0 0.0
0.08830542480766432 -0.08431837343102 0.0 -0.017526151886471553 0.0 0.0
0.08830542480765782 -0.08431837343101156 0.0 0.01752615188652551 0.0 0.0
0.08047576284635563 -0.07672082309607564 0.0 0.02667473509569762 0.0 0.0
0.07157454648630099 -0.06801907559462794 0.0 0.029939938676152855 0.0 0.0
0.06258215607078876 -0.059185919905558215 0.0 0.02988449127562265 0.0 0.0
0.05386915508402984 -0.05062996663782027 0.0 0.02829974009517844 0.0 0.0
0.04559327620201853 -0.04252583721515446 0.0 0.025889977334284442 0.0 0.0
0.03791950440074862 -0.03502114757853336 0.0 0.02304049262163721 0.0 0.0
0.030916024144611726 -0.028187713515051893 0.0 0.020058897164500378 0.0 0.0
0.024555188471021866 -0.022003576353601062 0.0 0.01707265650198264 0.0 0.0
0.018779197494412148 -0.016416371718136258 0.0 0.014041584523584505 0.0 0.0
0.013586900837493948 -0.011426469172555631 0.0 0.010906389206528755 0.0 0.0
0.00908902394302663 -0.007173089591641091 0.0 0.00785716447049667 0.0 0.0
0.005534677917152397 -0.003929246323085556 0.0 0.005270406436355846 0.0 0.0
0.0031099933991618756 -0.0018827619220409542 0.0 0.003443172745194234 0.0 0.0
0.001757377187644682 -0.000888741236042101 0.0 0.002446081415127088 0.0 0.0
0.0011285782216076123 -0.0004905186559820418 0.0 0.002044169737480006 0.0 0.0
0.0007299719781853897 -0.0002609530511418212 0.0 0.001885924215840662 0.0 0.0
0.00037017863460497846 -0.00010990573694935613 0.0 0.0019505121996057917 0.0 0.0
0.000162405387405945 -0.00023714364635951668 0.0 0.0022474287457693864 0.0 0.0
0.002017286908967464 -0.003297610316114731 0.0 0.0037713214536956308 0.0 0.0
0.0014262564971389557 -0.0025454610720196946 0.0 -0.0030358481263516035 0.0 0.0
9.924615141818083e-05 -0.0002066420549429182 0.0 -0.0023919540405425987 0.0 0.0
0.00021018975471101542 -6.025588077473998e-05 0.0 -0.002177022481582913 0.0 0.0
0.0004758879139054595 -0.0001479430680400018 0.0 -0.0021192737607685364 0.0 0.0
0.0007941550234335515 -0.00033159748918021315 0.0 -0.00228384396698994 0.0 0.0
0.0012207678836936298 -0.0005825859306274328 0.0 -0.0026302464629129885 0.0 0.0
0.0020778596808899985 -0.0011396013953668405 0.0 -0.003387805324356785 0.0 0.0
0.003719424051957576 -0.002393511753970401 0.0 -0.004849750766682426 0.0 0.0
0.00623142927365572 -0.004566700666591927 0.0 -0.007015888891903965 0.0 0.0
0.009478255217997361 -0.007557307527860768 0.0 -0.009654005850535774 0.0 0.0
0.013236410190820891 -0.011120497518419814 0.0 -0.012466119850296331 0.0 0.0
0.017386631129360203 -0.015103668198265918 0.0 -0.01523413652413752 0.0 0.0
0.021929953601020485 -0.019497207382690895 0.0 -0.017960421107080293 0.0 0.0
0.026937973025224826 -0.02436835383799396 0.0 -0.02066483377498085 0.0 0.0
0.032491112575142755 -0.0297884963325461 0.0 -0.02328166514191332 0.0 0.0
0.03860903508755653 -0.03576776434743234 0.0 -0.02553595992700075 0.0 0.0
0.045223462006153015 -0.04225199580182304 0.0 -0.027033081817491533 0.0 0.0
0.05236462007539447 -0.04930298328003646 0.0 -0.02749453678788716 0.0 0.0
0.06020286758347951 -0.057012057429337126 0.0 -0.02561887393273443 0.0 0.0
0.06825246449105007 -0.06480970784982798 0.0 -0.018245837977597823 0.0 0.0
0.06825246449104591 -0.06480970784982709 0.0 0.01824583797764434 0.0 0.0
0.06020286758346491 -0.05701205742932336 0.0 0.025618873932799824 0.0 0.0
0.05236462007537401 -0.04930298328001692 0.0 0.027494536787932566 0.0 0.0
0.0452234620061262 -0.04225199580180039 0.0 0.027033081817502858 0.0 0.0
0.038609035087528915 -0.03576776434740614 0.0 0.025535959926987317 0.0 0.0
0.03249111257511442 -0.02978849633251368 0.0 0.023281665141900776 0.0 0.0
0.026937973025199208 -0.024368353837970425 0.0 0.020664833774972968 0.0 0.0
0.021929953600996754 -0.019497207382670023 0.0 0.017960421107074298 0.0 0.0
0.01738663112933736 -0.015103668198248155 0.0 0.015234136524123643 0.0 0.0
0.013236410190799186 -0.011120497518400274 0.0 0.012466119850275237 0.0 0.0
0.00947825521797957 -0.007557307527846557 0.0 0.009654005850512237 0.0 0.0
0.006231429273642064 -0.004566700666584822 0.0 0.00701588889188931 0.0 0.0
0.003719424051948056 -0.002393511753964628 0.0 0.0048497507666733775 0.0 0.0
0.0020778596808853356 -0.0011396013953637318 0.0 0.003387805324351012 0.0 0.0
0.0012207678836919922 -0.0005825859306247683 0.0 0.002630246462908492 0.0 0.0
0.0007941550234328576 -0.00033159748917865883 0.0 0.0022838439669873867 0.0 0.0
0.00047588791390523744 -0.00014794306803822543 0.0 0.0021192737607661494 0.0 0.0
0.00021018975471087664 -6.025588077418487e-05 0.0 0.0021770224815816364 0.0 0.0
9.92461514180143e-05 -0.0002066420549429182 0.0 0.002391954040540767 0.0 0.0
0.0014262564971352087 -0.0025454610720148565 0.0 0.00303584812634472 0.0 0.0
0.0009882641716706109 -0.0019536205377558846 0.0 -0.0024946158537107466 0.0 0.0
2.7561762250133404e-05 -0.00017976622336235426 0.0 -0.0024638726929576693 0.0 0.0
5.643767573382252e-05 -5.564488000597834e-06 0.0 -0.0023343450322291792 0.0 0.0
0.00022865733052071513 -3.785696427449636e-05 0.0 -0.0022973919843611856 0.0 0.0
0.00045205116174396043 -0.0001700039150933641 0.0 -0.002471526981562555 0.0 0.0
0.0007221793294101275 -0.0003315399549228548 0.0 -0.0028226760957120733 0.0 0.0
0.001186121105512361 -0.0005913518880054092 0.0 -0.003362038085817365 0.0 0.0
0.0020913875234729595 -0.001168279396969396 0.0 -0.00431372989781903 0.0 0.0
0.0035721440016945327 -0.0022912677196886833 0.0 -0.005818967153335963 0.0 0.0
0.005532848681785968 -0.003975071438444555 0.0 -0.007762708709842969 0.0 0.0
0.007823028973610174 -0.006062116878087664 0.0 -0.009957845340612392 0.0 0.0
0.010329075671797555 -0.008416607483882732 0.0 -0.012222940602886756 0.0 0.0
0.013059536563966745 -0.011019327587974193 0.0 -0.014523379294881789 0.0 0.0
0.01607927645712104 -0.013932075492860907 0.0 -0.016808836714740982 0.0 0.0
0.019490727958032805 -0.01724882114632509 0.0 -0.01904536228955578 0.0 0.0
0.023409318660113004 -0.021069930714498586 0.0 -0.021076412289098068 0.0 0.0
0.027905046958987684 -0.025452236104244186 0.0 -0.022494152205486895 0.0 0.0
0.03306753676585905 -0.030540930778263142 0.0 -0.0230306679864134 0.0 0.0
0.0393944865740625 -0.0368751846169042 0.0 -0.022570059210180293 0.0 0.0
0.04745868995992586 -0.04469656864692961 0.0 -0.01835267301321386 0.0 0.0
0.04745868995992322 -0.04469656864692606 0.0 0.01835267301325405 0.0 0.0
0.03939448657405473 -0.03687518461689754 0.0 0.022570059210241245 0.0 0.0
0.033067536765844396 -0.030540930778251596 0.0 0.023030667986456366 0.0 0.0
0.027905046958969726 -0.025452236104227755 0.0 0.02249415220549833 0.0 0.0
0.023409318660096684 -0.0210699307144826 0.0 0.021076412289083746 0.0 0.0
0.01949072795801618 -0.01724882114631665 0.0 0.019045362289544787 0.0 0.0
0.016079276457106828 -0.013932075492852913 0.0 0.01680883671473299 0.0 0.0
0.013059536563954421 -0.011019327587961758 0.0 0.01452337929487768 0.0 0.0
0.010329075671784399 -0.008416607483865857 0.0 0.012222940602872545 0.0 0.0
0.007823028973597879 -0.006062116878072121 0.0 0.009957845340593519 0.0 0.0
0.005532848681776059 -0.003975071438433453 0.0 0.007762708709823873 0.0 0.0
0.0035721440016878436 -0.0022912677196842424 0.0 0.005818967153328192 0.0 0.0
0.002091387523467353 -0.001168279396963623 0.0 0.004313729897813534 0.0 0.0
0.0011861211055100573 -0.0005913518880065194 0.0 0.003362038085814145 0.0 0.0
0.0007221793294096002 -0.0003315399549228548 0.0 0.00282267609570791 0.0 0.0
0.0004520511617437384 -0.0001700039150933641 0.0 0.0024715269815604457 0.0 0.0
0.0002286573305206041 -3.7856964275495564e-05 0.0 0.002297391984358743 0.0 0.0
5.643767573379477e-05 -5.5644880009309006e-06 0.0 0.0023343450322245163 0.0 0.0
2.7561762249578292e-05 -0.00017976622336246528 0.0 0.002463872692955782 0.0 0.0
0.0009882641716682794 -0.00195362053775284 0.0 0.0024946158537071383 0.0 0.0
0.0006771951646684093 -0.001503598038764653 0.0 -0.0021129386804171757 0.0 0.0
-5.244389325873011e-05 -0.00015796635706555318 0.0 -0.0024953148404814884 0.0 0.0
-9.449428994220965e-05 5.564149156667142e-05 0.0 -0.002432649897814776 0.0 0.0
-1.1770741254774064e-05 6.903647829115123e-05 0.0 -0.002417967334876203 0.0 0.0
0.00010610599461963188 -5.0113512957139505e-06 0.0 -0.0025849158087014046 0.0 0.0
0.00022562188705371744 -9.086950077041855e-05 0.0 -0.0029588166159090767 0.0 0.0
0.00038274892653847314 -0.00018241500475890682 0.0 -0.0034615944478542104 0.0 0.0
0.0006628751555590728 -0.0003253951666195576 0.0 -0.0040108088343283055 0.0 0.0
0.0011492690271398542 -0.0005898468402336654 0.0 -0.004727595878917246 0.0 0.0
0.0018048864059807823 -0.001010581993252213 0.0 -0.005779740910051956 0.0 0.0
0.0025768264686767683 -0.0015726903184516416 0.0 -0.007204026651137174 0.0 0.0
0.003406769218902428 -0.0022513961097936352 0.0 -0.008879535947072359 0.0 0.0
0.004306152317852724 -0.0030401131257358216 0.0 -0.01073369953915071 0.0 0.0
0.005323273347890511 -0.003975888139584605 0.0 -0.012733381233830054 0.0 0.0
0.006569701980893655 -0.005156499740335718 0.0 -0.014848287210185052 0.0 0.0
0.008242000628557677 -0.006759281596874445 0.0 -0.016926776748421024 0.0 0.0
0.010598851510219248 -0.00901697592836026 0.0 -0.01854477065458382 0.0 0.0
0.013847508858164548 -0.012125123529847848 0.0 -0.019057278596806726 0.0 0.0
0.0183104182541296 -0.01659715574461096 0.0 -0.01869626280697967 0.0 0.0
0.025504150009528853 -0.023814812460373425 0.0 -0.017801033629116003 0.0 0.0
0.02550415000952888 -0.023814812460364543 0.0 0.01780103362914609 0.0 0.0
0.01831041825412663 -0.016597155744598968 0.0 0.018696262807026964 0.0 0.0
0.01384750885815711 -0.01212512352983186 0.0 0.019057278596831928 0.0 0.0
0.010598851510211754 -0.00901697592835049 0.0 0.01854477065458493 0.0 0.0
0.008242000628553597 -0.006759281596866895 0.0 0.016926776748406036 0.0 0.0
0.006569701980889298 -0.005156499740329501 0.0 0.014848287210173727 0.0 0.0
0.0053232733478873195 -0.003975888139580164 0.0 0.012733381233821395 0.0 0.0
0.004306152317851919 -0.003040113125733601 0.0 0.01073369953914638 0.0 0.0
0.0034067692188996246 -0.002251396109797188 0.0 0.008879535947061479 0.0 0.0
0.0025768264686751585 -0.0015726903184503094 0.0 0.0072040266511286255 0.0 0.0
0.0018048864059789227 -0.0010105819932437754 0.0 0.0057797409100398545 0.0 0.0
0.0011492690271387995 -0.0005898468402270041 0.0 0.004727595878914026 0.0 0.0
0.0006628751555576851 -0.0003253951666151167 0.0 0.004010808834324364 0.0 0.0
0.00038274892653766823 -0.00018241500475690842 0.0 0.0034615944478505467 0.0 0.0
0.0002256218870542448 -9.08695007686422e-05 0.0 0.0029588166159041918 0.0 0.0
0.0001061059946199372 -5.011351295491906e-06 0.0 0.0025849158086972412 0.0 0.0
-1.1770741254996109e-05 6.903647829059611e-05 0.0 0.0024179673348737607 0.0 0.0
-9.449428994204312e-05 5.5641491567004486e-05 0.0 0.002432649897813277 0.0 0.0
-5.244389325897991e-05 -0.00015796635706533113 0.0 0.0024953148404806003 0.0 0.0
0.000677195164666966 -0.0015035980387626512 0.0 0.002112938680415122 0.0 0.0
0.0004598947863537761 -0.0011779358019307073 0.0 -0.001872475778643412 0.0 0.0
-0.00013114539877001619 -0.0001341976799804634 0.0 -0.0024955762693313344 0.0 0.0
-0.00024223479482105015 0.00011844526343540718 0.0 -0.002477630255165064 0.0 0.0
-0.0002456197136980198 0.00017303000958390768 0.0 -0.002473275410217357 0.0 0.0
-0.00023659745204634985 0.00015886219836835913 0.0 -0.0026223198509508494 0.0 0.0
-0.0002757179594470305 0.00015188409249056178 0.0 -0.002976893983009987 0.0 0.0
-0.0004001498060339226 0.00019854760036563945 0.0 -0.00347023176805189 0.0 0.0
-0.0006679823635648008 0.00032941206355330266 0.0 -0.004016616419399988 0.0 0.0
-0.0011489445121121988 0.0005904087473296293 0.0 -0.00473010042260591 0.0 0.0
-0.0018036206829512846 0.001010542537778214 0.0 -0.005778424918394198 0.0 0.0
-0.0025835716362393457 0.0015826270035494971 0.0 -0.007204983121100628 0.0 0.0
-0.003446294303390385 0.0022911080527290295 0.0 -0.00888849002015546 0.0 0.0
-0.004392800663112262 0.0031150359558127505 0.0 -0.010743832243282458 0.0 0.0
-0.005393624164740846 0.004009660722557928 0.0 -0.012738903635250876 0.0 0.0
-0.006324720859802485 0.004849707934187819 0.0 -0.014865894978171368 0.0 0.0
-0.0069322072468974705 0.005390408813828351 0.0 -0.017076803796834295 0.0 0.0
-0.006817558015592445 0.005263425260446208 0.0 -0.01933892370882384 0.0 0.0
-0.005608421801238744 0.0042208893394946045 0.0 -0.021714654540891054 0.0 0.0
-0.0029910351572483285 0.0020996951560743327 0.0 -0.023875446064549277 0.0 0.0
0.0034990930216388105 -0.004011936919582126 0.0 -0.02266362372746822 0.0 0.0
0.003499093021639227 -0.004011936919581238 0.0 0.022663623727487647 0.0 0.0
-0.0029910351572486338 0.002099695156076997 0.0 0.02387544606456904 0.0 0.0
-0.005608421801236607 0.004220889339490164 0.0 0.021714654540894385 0.0 0.0
-0.0068175580155867 0.005263425260440879 0.0 0.019338923708812517 0.0 0.0
-0.0069322072468879226 0.005390408813820802 0.0 0.01707680379681953 0.0 0.0
-0.006324720859795324 0.0048497079341847105 0.0 0.014865894978158156 0.0 0.0
-0.005393624164732991 0.004009660722555264 0.0 0.012738903635240773 0.0 0.0
-0.0043928006631020755 0.0031150359558034246 0.0 0.010743832243273577 0.0 0.0
-0.003446294303381614 0.00229110805272148 0.0 0.008888490020140916 0.0 0.0
-0.002583571636230131 0.0015826270035472767 0.0 0.007204983121088415 0.0 0.0
-0.0018036206829445678 0.0010105425377706645 0.0 0.005778424918380876 0.0 0.0
-0.0011489445121080355 0.0005904087473238562 0.0 0.004730100422603134 0.0 0.0
-0.0006679823635627469 0.00032941206355130426 0.0 0.004016616419398045 0.0 0.0
-0.00040014980603314543 0.00019854760036497332 0.0 0.0034702317680478934 0.0 0.0
-0.00027571795944592026 0.00015188409249056178 0.0 0.002976893983007267 0.0 0.0
-0.00023659745204543392 0.00015886219836813709 0.0 0.0026223198509477963 0.0 0.0
-0.00024561971369799207 0.00017303000958435177 0.0 0.002473275410216469 0.0 0.0
-0.00024223479482085586 0.00011844526343385287 0.0 0.002477630255163621 0.0 0.0
-0.00013114539877009945 -0.00013419767998140708 0.0 0.00249557626932978 0.0 0.0
0.0004598947863533598 -0.0011779358019296336 0.0 0.0018724757786418023 0.0 0.0
0.00031092925931378024 -0.0009313814302004952 0.0 -0.0016921800668514009 0.0 0.0
-0.0002023603120125672 -0.00010304528934446111 0.0 -0.0024491526293534682 0.0 0.0
-0.0003840619453447103 0.00017829202309971315 0.0 -0.0024703089782175947 0.0 0.0
-0.00047178814232062827 0.0002730606139236258 0.0 -0.0024595542390678515 0.0 0.0
-0.0005721639180188698 0.0003174838375707978 0.0 -0.0025777525229009335 0.0 0.0
-0.0007704653526739436 0.00039174797698704467 0.0 -0.0028781131845365127 0.0 0.0
-0.0012028830307342364 0.0006087530849867573 0.0 -0.003391397371207694 0.0 0.0
-0.0020946983480270576 0.0011727763380866563 0.0 -0.004329849038774702 0.0 0.0
-0.0035701122412983566 0.0022905962017345516 0.0 -0.005822273868230421 0.0 0.0
-0.0055317988055811895 0.003975930498645752 0.0 -0.007762156338315784 0.0 0.0
-0.007832511375870405 0.006075616082537483 0.0 -0.009957836342270099 0.0 0.0
-0.0103673229983276 0.008459176927779755 0.0 -0.012210811537920363 0.0 0.0
-0.01313814786513473 0.01109386852589056 0.0 -0.014477970725508826 0.0 0.0
-0.01613543224733799 0.013957544416066447 0.0 -0.016751483558207547 0.0 0.0
-0.019237329126086333 0.01692080066924051 0.0 -0.01911376437638035 0.0 0.0
-0.02214278137252204 0.019689595459942755 0.0 -0.02163930085360044 0.0 0.0
-0.024378939284628837 0.021814579493853348 0.0 -0.02441232952182637 0.0 0.0
-0.025389582491252366 0.02275761572682633 0.0 -0.0273418382224212 0.0 0.0
-0.024148932968979686 0.021248802344594253 0.0 -0.028664589181767397 0.0 0.0
-0.0175512558139925 0.014363171403632968 0.0 -0.02644506543202041 0.0 0.0
-0.01755125581399361 0.014363171403639186 0.0 0.02644506543205538 0.0 0.0
-0.024148932968975828 0.02124880234459603 0.0 0.02866458918181225 0.0 0.0
-0.02538958249124129 0.022757615726817892 0.0 0.02734183822245051 0.0 0.0
-0.024378939284610046 0.021814579493833808 0.0 0.02441232952182526 0.0 0.0
-0.022142781372499643 0.019689595459920994 0.0 0.021639300853584897 0.0 0.0
-0.0192373291260671 0.016920800669219638 0.0 0.019113764376365028 0.0 0.0
-0.016135432247318976 0.013957544416050016 0.0 0.016751483558192448 0.0 0.0
-0.01313814786511372 0.011093868525871464 0.0 0.014477970725496725 0.0 0.0
-0.010367322998307449 0.008459176927761547 0.0 0.012210811537904376 0.0 0.0
-0.007832511375851114 0.006075616082520163 0.0 0.009957836342250892 0.0 0.0
-0.005531798805565785 0.00397593049863465 0.0 0.007762156338293469 0.0 0.0
-0.0035701122412882813 0.0022905962017278902 0.0 0.005822273868220651 0.0 0.0
-0.002094698348021451 0.0011727763380817713 0.0 0.004329849038768929 0.0 0.0
-0.0012028830307312666 0.0006087530849860912 0.0 0.003391397371203031 0.0 0.0
-0.0007704653526721394 0.00039174797698438013 0.0 0.002878113184532849 0.0 0.0
-0.0005721639180177596 0.00031748383756902143 0.0 0.002577752522898047 0.0 0.0
-0.00047178814232046173 0.000273060613924625 0.0 0.002459554239065076 0.0 0.0
-0.0003840619453446825 0.00017829202309982417 0.0 0.0024703089782167065 0.0 0.0
-0.00020236031201242843 -0.00010304528934446111 0.0 0.0024491526293542454 0.0 0.0
0.0003109292593136137 -0.0009313814301999002 0.0 0.0016921800668487363 0.0 0.0
0.0002038352319308212 -0.0007184000176515548 0.0 -0.001502500567523768 0.0 0.0
-0.00026590004736959383 -6.597202520330914e-05 0.0 -0.002348878814483313 0.0 0.0
-0.000517655031549713 0.0002340129683323644 0.0 -0.0024052153236246987 0.0 0.0
-0.0006890167236268951 0.0003672435433126342 0.0 -0.0023787328547757447 0.0 0.0
-0.0008963897683541 0.00046693551723508975 0.0 -0.002450832894249466 0.0 0.0
-0.0012658698482901631 0.0006429211039804539 0.0 -0.00272270423533727 0.0 0.0
-0.0020916985188793036 0.0011585793662878263 0.0 -0.003433269165075581 0.0 0.0
-0.0037180262881058856 0.0023949750834884043 0.0 -0.004865417336210431 0.0 0.0
-0.006227902313112876 0.004564130149467882 0.0 -0.007014230691234968 0.0 0.0
-0.009479290729333706 0.007559711588911 0.0 -0.009653759516525362 0.0 0.0
-0.013247124006008693 0.011134229022256914 0.0 -0.012462907420456193 0.0 0.0
-0.01741595218040279 0.0151370504201509 0.0 -0.015193752127721116 0.0 0.0
-0.021983656344660624 0.01954925276334185 0.0 -0.017829124785548434 0.0 0.0
-0.026964185313421596 0.024370824929853097 0.0 -0.020469129027565702 0.0 0.0
-0.03224906042646283 0.02948336838584531 0.0 -0.02333499601962452 0.0 0.0
-0.037499960352490674 0.0345566835434874 0.0 -0.026716087202037775 0.0 0.0
-0.042130037575001666 0.039018500252202326 0.0 -0.03077792490563136 0.0 0.0
-0.045190987966080565 0.04186420060883966 0.0 -0.03476296375380439 0.0 0.0
-0.0448471410811456 0.04124272976742471 0.0 -0.036758896999688595 0.0 0.0
-0.03741058027804753 0.033110441560207704 0.0 -0.032915019590685435 0.0 0.0
-0.0374105802780475 0.0331104415602006 0.0 0.032915019590734396 0.0 0.0
-0.04484714108113677 0.041242729767411834 0.0 0.03675889699974544 0.0 0.0
-0.045190987966062135 0.04186420060881746 0.0 0.034762963753842135 0.0 0.0
-0.04213003757497272 0.03901850025217524 0.0 0.030777924905637022 0.0 0.0
-0.037499960352457284 0.034556683543456757 0.0 0.026716087202024674 0.0 0.0
-0.03224906042643172 0.02948336838580934 0.0 0.023334996019608645 0.0 0.0
-0.02696418531339162 0.02437082492981979 0.0 0.020469129027548272 0.0 0.0
-0.021983656344628733 0.019549252763307212 0.0 0.01782912478553711 0.0 0.0
-0.0174159521803722 0.015137050420119369 0.0 0.015193752127701021 0.0 0.0
-0.013247124005979952 0.01113422902222494 0.0 0.012462907420429548 0.0 0.0
-0.0094792907293096 0.007559711588886131 0.0 0.009653759516497551 0.0 0.0
-0.0062279023130960565 0.00456413014945678 0.0 0.007014230691220147 0.0 0.0
-0.0037180262880956577 0.002394975083476636 0.0 0.004865417336201994 0.0 0.0
-0.002091698518873683 0.0011585793662831634 0.0 0.003433269165069197 0.0 0.0
-0.001265869848287568 0.0006429211039777893 0.0 0.0027227042353335507 0.0 0.0
-0.0008963897683530314 0.00046693551723508975 0.0 0.0024508328942475233 0.0 0.0
-0.00068901672362634 0.0003672435433131893 0.0 0.0023787328547735243 0.0 0.0
-0.0005176550315495326 0.00023401296833269747 0.0 0.0024052153236229223 0.0 0.0
-0.00026590004736921913 -6.59720252031426e-05 0.0 0.002348878814481592 0.0 0.0
0.00020383523193046038 -0.0007184000176504134 0.0 0.0015025005675227132 0.0 0.0
0.0001168383518503624 -0.0005287736031154844 0.0 -0.0013043106196007348 0.0 0.0
-0.00032396725885830424 -2.2891285897497227e-05 0.0 -0.0021931072565202214 0.0 0.0
-0.0006426443365588896 0.00028571786594400184 0.0 -0.0022861451239309383 0.0 0.0
-0.0008963254897999262 0.0004536798169023637 0.0 -0.002238290450562175 0.0 0.0
-0.0012076507209073384 0.000610294382729526 0.0 -0.002260147920242428 0.0 0.0
-0.0017970245005519692 0.0009477408097138262 0.0 -0.00256563657918224 0.0 0.0
-0.003115739743654089 0.0018976209056482674 0.0 -0.0034902073799397693 0.0 0.0
-0.005528563326440306 0.003925016408306892 0.0 -0.005274513230660971 0.0 0.0
-0.009086205983678153 0.007170474444650576 0.0 -0.007852369544075755 0.0 0.0
-0.013590888323662925 0.011431293447828672 0.0 -0.010907256358782313 0.0 0.0
-0.018789054452321763 0.016427869645259108 0.0 -0.014035107925169488 0.0 0.0
-0.02456720398470394 0.022018037118221923 0.0 -0.01700784864250171 0.0 0.0
-0.03092398187218251 0.028196207004927754 0.0 -0.019850288978595643 0.0 0.0
-0.03789311023066361 0.03498273220111425 0.0 -0.02270421512824461 0.0 0.0
-0.045390153901941344 0.042282034387669754 0.0 -0.02588559934804391 0.0 0.0
-0.05305571998282427 0.04972831354477458 0.0 -0.029853425102703057 0.0 0.0
-0.060083385100784675 0.056507464974524524 0.0 -0.034732739183956474 0.0 0.0
-0.06498370415693491 0.06111524012312097 0.0 -0.03957991101693459 0.0 0.0
-0.06518430072703954 0.06088873195981215 0.0 -0.04183540647946238 0.0 0.0
-0.05600134314497973 0.05104475992179669 0.0 -0.0381897260132249 0.0 0.0
-0.05600134314497718 0.05104475992179447 0.0 0.03818972601327619 0.0 0.0
-0.06518430072702566 0.06088873195979527 0.0 0.04183540647952699 0.0 0.0
-0.06498370415690913 0.06111524012309655 0.0 0.03957991101697966 0.0 0.0
-0.060083385100747455 0.056507464974489 0.0 0.03473273918396824 0.0 0.0
-0.05305571998278097 0.049728313544732394 0.0 0.0298534251026904 0.0 0.0
-0.045390153901898864 0.04228203438762934 0.0 0.025885599348025312 0.0 0.0
-0.03789311023062228 0.0349827322010734 0.0 0.022704215128225347 0.0 0.0
-0.030923981872139933 0.028196207004888674 0.0 0.01985028897858193 0.0 0.0
-0.024567203984663097 0.022018037118183287 0.0 0.01700784864247995 0.0 0.0
-0.018789054452283696 0.01642786964522447 0.0 0.014035107925144119 0.0 0.0
-0.013590888323630562 0.011431293447801583 0.0 0.010907256358755058 0.0 0.0
-0.009086205983654352 0.0071704744446310364 0.0 0.007852369544057214 0.0 0.0
-0.0055285633264247624 0.003925016408294457 0.0 0.005274513230647981 0.0 0.0
-0.0031157397436456513 0.001897620905641384 0.0 0.003490207379931054 0.0 0.0
-0.0017970245005482222 0.0009477408097111617 0.0 0.002565636579176911 0.0 0.0
-0.0012076507209057424 0.000610294382729748 0.0 0.002260147920240152 0.0 0.0
-0.0008963254897992462 0.0004536798169024747 0.0 0.002238290450561786 0.0 0.0
-0.0006426443365584872 0.00028571786594400184 0.0 0.00228614512392894 0.0 0.0
-0.0003239672588579573 -2.289128589766376e-05 0.0 0.002193107256518445 0.0 0.0
0.00011683835185026525 -0.0005287736031148894 0.0 0.001304310619599569 0.0 0.0
4.188175939198735e-05 -0.00036153338971278703 0.0 -0.0011008493531851071 0.0 0.0
-0.0003795649207094798 2.543595930182274e-05 0.0 -0.0019843208846876403 0.0 0.0
-0.00075962772332544 0.0003341694909517745 0.0 -0.002109929175486691 0.0 0.0
-0.0010917350087859545 0.0005307365236448813 0.0 -0.0020327062215598213 0.0 0.0
-0.0015166229470462145 0.0007598348700579294 0.0 -0.0020250997043896324 0.0 0.0
-0.0023975855819825254 0.0013372749550344398 0.0 -0.0023918217503098305 0.0 0.0
-0.004272710627376219 0.0028250001706564554 0.0 -0.00346664485266851 0.0 0.0
-0.007500437713884783 0.005692839900711899 0.0 -0.0054569765401816794 0.0 0.0
-0.012088159754536948 0.009989206402242878 0.0 -0.0082452714117639 0.0 0.0
-0.01779881805670333 0.015457783153695281 0.0 -0.011417857834866041 0.0 0.0
-0.024406714113192424 0.021843713658507014 0.0 -0.014600171476136903 0.0 0.0
-0.031790309806203065 0.029015431870376585 0.0 -0.01763611023049394 0.0 0.0
-0.03993651763166936 0.03695823889103078 0.0 -0.02054386011951348 0.0 0.0
-0.04888898276550191 0.04570781784598443 0.0 -0.023436162431089702 0.0 0.0
-0.05860538925573511 0.05520124212530808 0.0 -0.02665562808683275 0.0 0.0
-0.0686893676376836 0.06501944409278737 0.0 -0.03071072236784822 0.0 0.0
-0.07806361719292074 0.07407245925766137 0.0 -0.03580350212427874 0.0 0.0
-0.08466302114770183 0.08027554491710998 0.0 -0.04103283035314653 0.0 0.0
-0.085074089926194 0.08019111405609891 0.0 -0.04405115068167165 0.0 0.0
-0.07412645922360908 0.0686570055449982 0.0 -0.042838594353871495 0.0 0.0
-0.07412645922360417 0.06865700554498888 0.0 0.042838594353923565 0.0 0.0
-0.08507408992617391 0.0801911140560776 0.0 0.04405115068173249 0.0 0.0
-0.08466302114766866 0.080275544917074 0.0 0.04103283035319094 0.0 0.0
-0.07806361719287577 0.07407245925761208 0.0 0.035803502124291786 0.0 0.0
-0.06868936763763134 0.06501944409273541 0.0 0.03071072236783956 0.0 0.0
-0.05860538925568187 0.055201242125254346 0.0 0.026655628086817595 0.0 0.0
-0.04888898276544895 0.04570781784593425 0.0 0.023436162431070662 0.0 0.0
-0.039936517631616694 0.03695823889098282 0.0 0.02054386011949655 0.0 0.0
-0.03179030980615127 0.02901543187032951 0.0 0.017636110230472457 0.0 0.0
-0.024406714113145878 0.021843713658460384 0.0 0.014600171476111368 0.0 0.0
-0.017798818056662932 0.015457783153655313 0.0 0.011417857834838119 0.0 0.0
-0.012088159754506805 0.009989206402212236 0.0 0.00824527141174608 0.0 0.0
-0.007500437713863661 0.005692839900692359 0.0 0.005456976540166469 0.0 0.0
-0.004272710627364243 0.002825000170645575 0.0 0.0034666448526591287 0.0 0.0
-0.002397585581976877 0.0013372749550297769 0.0 0.002391821750305889 0.0 0.0
-0.001516622947044008 0.0007598348700557089 0.0 0.002025099704387523 0.0 0.0
-0.0010917350087852468 0.0005307365236445483 0.0 0.002032706221559488 0.0 0.0
-0.000759627723324871 0.0003341694909517745 0.0 0.002109929175485914 0.0 0.0
-0.00037956492070923 2.543595930182274e-05 0.0 0.001984320884686641 0.0 0.0
4.1881759391890205e-05 -0.0003615333897123568 0.0 0.0011008493531844965 0.0 0.0
-2.2483689514241068e-05 -0.00021803627586497454 0.0 -0.0008917496729059504 0.0 0.0
-0.0004335940479772149 7.724624216753906e-05 0.0 -0.0017280624341944328 0.0 0.0
-0.0008695949187940699 0.00037939360790750776 0.0 -0.0018773265492673663 0.0 0.0
-0.0012764805736002471 0.0006024357402223401 0.0 -0.0017792075008875585 0.0 0.0
-0.00184349260220118 0.0009362947418765089 0.0 -0.0017684096351663903 0.0 0.0
-0.0030799893398838485 0.0018284652874838159 0.0 -0.0021754912302737184 0.0 0.0
-0.005555090037173971 0.003926274007102215 0.0 -0.0033167738009325376 0.0 0.0
-0.00960028713850608 0.007638519984511927 0.0 -0.0053638615216016206 0.0 0.0
-0.01516660898082578 0.012928597495637462 0.0 -0.008097115285919276 0.0 0.0
-0.02205488575234954 0.01956300562785218 0.0 -0.011136992270352919 0.0 0.0
-0.030064128143001106 0.027327532344942007 0.0 -0.014204810843871929 0.0 0.0
-0.039056538481568065 0.036082668417209085 0.0 -0.017131718760255432 0.0 0.0
-0.04899772152778578 0.04579434035920782 0.0 -0.01994698577523646 0.0 0.0
-0.05992292293825974 0.05649452065713145 0.0 -0.022739590422675815 0.0 0.0
-0.07180761994781534 0.06813411308927142 0.0 -0.02569452120437199 0.0 0.0
-0.08423824775248726 0.08025641723049048 0.0 -0.029278152480897934 0.0 0.0
-0.09589223672217448 0.09151465404839243 0.0 -0.03397044398542859 0.0 0.0
-0.10411157886251035 0.099250387399485 0.0 -0.03937806531771759 0.0 0.0
-0.10476299246855936 0.09936767379612776 0.0 -0.04407398102140114 0.0 0.0
-0.09233697961566029 0.08639920934494238 0.0 -0.0472000097152262 0.0 0.0
-0.09233697961565265 0.08639920934493261 0.0 0.047200009715279045 0.0 0.0
-0.10476299246853363 0.09936767379609801 0.0 0.044073981021462316 0.0 0.0
-0.10411157886246988 0.09925038739944636 0.0 0.03937806531776333 0.0 0.0
-0.09589223672212134 0.09151465404834713 0.0 0.03397044398544019 0.0 0.0
-0.08423824775242594 0.08025641723043364 0.0 0.02927815248089094 0.0 0.0
-0.07180761994775163 0.06813411308920525 0.0 0.025694521204361942 0.0 0.0
-0.05992292293819615 0.05649452065706484 0.0 0.022739590422661105 0.0 0.0
-0.048997721527723 0.04579434035914742 0.0 0.01994698577522097 0.0 0.0
-0.03905653848150578 0.036082668417153574 0.0 0.017131718760234393 0.0 0.0
-0.03006412814294597 0.02732753234488916 0.0 0.01420481084384545 0.0 0.0
-0.022054885752301315 0.019563005627806884 0.0 0.011136992270324941 0.0 0.0
-0.015166608980789295 0.012928597495602823 0.0 0.008097115285903123 0.0 0.0
-0.009600287138479935 0.0076385199844861695 0.0 0.005363861521587243 0.0 0.0
-0.005555090037158011 0.003926274007087116 0.0 0.0033167738009232672 0.0 0.0
-0.0030799893398760075 0.0018284652874787088 0.0 0.002175491230266502 0.0 0.0
-0.0018434926021982517 0.0009362947418747325 0.0 0.0017684096351638368 0.0 0.0
-0.0012764805735996643 0.0006024357402231173 0.0 0.0017792075008867259 0.0 0.0
-0.0008695949187935426 0.0003793936079076188 0.0 0.0018773265492649793 0.0 0.0
-0.00043359404797692347 7.724624216859377e-05 0.0 0.001728062434192268 0.0 0.0
-2.2483689514130045e-05 -0.00021803627586448014 0.0 0.0008917496729042851 0.0 0.0
-7.482558849314369e-05 -0.00010067358865722964 0.0 -0.0006762839536527676 0.0 0.0
-0.0004843894664477433 0.00012977636810018733 0.0 -0.0014295865386356743 0.0 0.0
-0.0009735680868802055 0.00042152977009890513 0.0 -0.0015882244655148758 0.0 0.0
-0.0014567222110860034 0.0006730936372927321 0.0 -0.0014767107370963761 0.0 0.0
-0.0022071290797149867 0.0011510586624599028 0.0 -0.0014703132030983168 0.0 0.0
-0.0038511461603907837 0.002436195974918842 0.0 -0.001898923107384487 0.0 0.0
-0.006953381464205655 0.005183316615565925 0.0 -0.0030367120088786725 0.0 0.0
-0.011767603034054663 0.009692205497958906 0.0 -0.004923562851321006 0.0 0.0
-0.018273859065756404 0.01592195389064699 0.0 -0.007357659501598279 0.0 0.0
-0.026327858017012484 0.02370544851771328 0.0 -0.010098680743296784 0.0 0.0
-0.035730095724821775 0.032840878939700335 0.0 -0.012864832081212807 0.0 0.0
-0.04633548269703347 0.043182701678759816 0.0 -0.015510492307865165 0.0 0.0
-0.05808322993318585 0.054672790228481816 0.0 -0.01808357070084876 0.0 0.0
-0.07096558187370333 0.06730099776505005 0.0 -0.020610240885624798 0.0 0.0
-0.08492259941342387 0.08099130620340311 0.0 -0.023092109277252026 0.0 0.0
-0.09953757927687062 0.09527296068772673 0.0 -0.025753084911599333 0.0 0.0
-0.11337040263470832 0.10864690734125393 0.0 -0.029343032538575176 0.0 0.0
-0.1232973409372895 0.11801570375356718 0.0 -0.03469720871140458 0.0 0.0
-0.12453710173318325 0.11866874197835475 0.0 -0.04198737055210977 0.0 0.0
-0.11106170679677704 0.10465979444619933 0.0 -0.05126106236201555 0.0 0.0
-0.11106170679676616 0.10465979444618823 0.0 0.05126106236206174 0.0 0.0
-0.12453710173315269 0.11866874197832011 0.0 0.04198737055216506 0.0 0.0
-0.12329734093724165 0.11801570375351877 0.0 0.03469720871144605 0.0 0.0
-0.11337040263464664 0.10864690734119176 0.0 0.029343032538585667 0.0 0.0
-0.09953757927679938 0.0952729606876539 0.0 0.02575308491159517 0.0 0.0
-0.08492259941335033 0.08099130620333783 0.0 0.023092109277243644 0.0 0.0
-0.07096558187362934 0.06730099776497545 0.0 0.020610240885610143 0.0 0.0
-0.058083229933112754 0.054672790228405876 0.0 0.018083570700834717 0.0 0.0
-0.04633548269696129 0.04318270167868876 0.0 0.015510492307846513 0.0 0.0
-0.035730095724757285 0.03284087893963772 0.0 0.01286483208118866 0.0 0.0
-0.026327858016957105 0.02370544851765999 0.0 0.01009868074327186 0.0 0.0
-0.01827385906571359 0.015921953890604357 0.0 0.007357659501583069 0.0 0.0
-0.011767603034023646 0.00969220549792893 0.0 0.004923562851307572 0.0 0.0
-0.006953381464186122 0.005183316615545719 0.0 0.0030367120088723998 0.0 0.0
-0.0038511461603804933 0.002436195974908184 0.0 0.001898923107380046 0.0 0.0
-0.0022071290797108928 0.0011510586624574604 0.0 0.0014703132030983723 0.0 0.0
-0.0014567222110851222 0.00067309363729251 0.0 0.0014767107370969867 0.0 0.0
-0.0009735680868797336 0.000421529770098239 0.0 0.0015882244655148758 0.0 0.0
-0.0004843894664474796 0.00012977636809963222 0.0 0.0014295865386355633 0.0 0.0
-7.482558849261634e-05 -0.00010067358865750373 0.0 0.0006762839536527676 0.0 0.0
-0.00011144730610551656 -1.2710886630074025e-05 0.0 -0.0004560345997273174 0.0 0.0
-0.0005272834324743791 0.0001792831398196304 0.0 -0.0010917341529692592 0.0 0.0
-0.0010725777106742607 0.00045996070161669067 0.0 -0.0012411261355194658 0.0 0.0
-0.0016423296128321163 0.0007530146591587794 0.0 -0.0011298050894132383 0.0 0.0
-0.002623830987580289 0.0014270053240947878 0.0 -0.0011314039065691284 0.0 0.0
-0.004720298790193256 0.00316461502286991 0.0 -0.001554989767741377 0.0 0.0
-0.008425009432175834 0.006543107599899178 0.0 -0.002526720504698654 0.0 0.0
-0.01395703401202697 0.011791987103756618 0.0 -0.004058405786427188 0.0 0.0
-0.021382940064853362 0.018934748314312966 0.0 -0.006056294404242046 0.0 0.0
-0.03058504141556595 0.027849176036318646 0.0 -0.008315616313441576 0.0 0.0
-0.041373756803472994 0.038348090346031594 0.0 -0.010601157486703539 0.0 0.0
-0.05359545219228862 0.05028065475394383 0.0 -0.01278357541082853 0.0 0.0
-0.0671604440189969 0.06355731971374778 0.0 -0.01491983935461505 0.0 0.0
-0.08199201818561397 0.07809985770565664 0.0 -0.01705164830113337 0.0 0.0
-0.0979163603170509 0.09372720065461149 0.0 -0.018982437545497777 0.0 0.0
-0.11445390704535896 0.10992240673427167 0.0 -0.020465239612863173 0.0 0.0
-0.13025889927248496 0.12526125723413228 0.0 -0.02223473857361491 0.0 0.0
-0.14216014267576338 0.13651508803472812 0.0 -0.026928397794955372 0.0 0.0
-0.14463980669409457 0.13832507413036454 0.0 -0.03733375061387478 0.0 0.0
-0.13076957483318136 0.12386883180873287 0.0 -0.05468881753343402 0.0 0.0
-0.13076957483316778 0.1238688318087231 0.0 0.054688817533471434 0.0 0.0
-0.1446398066940587 0.13832507413033035 0.0 0.03733375061392463 0.0 0.0
-0.14216014267570737 0.1365150880346726 0.0 0.026928397794991565 0.0 0.0
-0.13025889927241463 0.12526125723406834 0.0 0.022234738573622848 0.0 0.0
-0.11445390704527725 0.1099224067342015 0.0 0.020465239612861508 0.0 0.0
-0.09791636031696799 0.09372720065453244 0.0 0.018982437545492004 0.0 0.0
-0.08199201818552987 0.07809985770557581 0.0 0.017051648301124878 0.0 0.0
-0.06716044401891343 0.06355731971366918 0.0 0.014919839354604031 0.0 0.0
-0.05359545219220688 0.05028065475386301 0.0 0.012783575410816705 0.0 0.0
-0.04137375680339922 0.0383480903459561 0.0 0.010601157486682777 0.0 0.0
-0.03058504141550429 0.027849176036256473 0.0 0.008315616313419594 0.0 0.0
-0.021382940064804443 0.01893474831426767 0.0 0.0060562944042281686 0.0 0.0
-0.013957034011990742 0.011791987103721757 0.0 0.004058405786414032 0.0 0.0
-0.008425009432152457 0.006543107599878528 0.0 0.002526720504692992 0.0 0.0
-0.004720298790180745 0.0031646150228588077 0.0 0.0015549897677368807 0.0 0.0
-0.0026238309875747656 0.0014270053240916791 0.0 0.0011314039065681847 0.0 0.0
-0.0016423296128309159 0.0007530146591594455 0.0 0.0011298050894111844 0.0 0.0
-0.0010725777106736223 0.0004599607016162466 0.0 0.0012411261355165237 0.0 0.0
-0.0005272834324738448 0.0001792831398191863 0.0 0.0010917341529680935 0.0 0.0
-0.00011144730610498921 -1.2710886630245763e-05 0.0 0.0004560345997271509 0.0 0.0
-0.0001256596995600212 4.157697954493278e-05 0.0 -0.0002377169957773484 0.0 0.0
-0.0005532840158449237 0.00021965189038331 0.0 -0.000714056355530901 0.0 0.0
-0.0011688030039788688 0.0004962266465026177 0.0 -0.0008294432374966187 0.0 0.0
-0.001849278836573709 0.0008529752293762183 0.0 -0.0007405153965757139 0.0 0.0
-0.003110200905683258 0.0017868827187828007 0.0 -0.0007584429002194804 0.0 0.0
-0.00567254478652357 0.004000960648851581 0.0 -0.001084167403951397 0.0 0.0
-0.009925938201384155 0.007961254141449547 0.0 -0.00176297272231557 0.0 0.0
-0.016147839021441845 0.013907482627138368 0.0 -0.0028089638775496972 0.0 0.0
-0.02446303840182157 0.02193439796996577 0.0 -0.004198857577807025 0.0 0.0
-0.034794669531254485 0.03196037698268972 0.0 -0.00579345973501566 0.0 0.0
-0.04696392764894447 0.04381617946715677 0.0 -0.007408013202751862 0.0 0.0
-0.06080509568590198 0.05734176122791235 0.0 -0.008949956348678345 0.0 0.0
-0.07619355869673067 0.072410675908686 0.0 -0.01048883528560407 0.0 0.0
-0.09296251412569628 0.08885245304171852 0.0 -0.012011162292109634 0.0 0.0
-0.11077858129818308 0.10632996780986703 0.0 -0.01328043145234259 0.0 0.0
-0.12899136913663029 0.1241851347217926 0.0 -0.013836281629153402 0.0 0.0
-0.14635317186486882 0.1411241854711789 0.0 -0.013681507212613853 0.0 0.0
-0.1602739112058432 0.15444222419973475 0.0 -0.01586406793852202 0.0 0.0
-0.16527675416107318 0.1585000471829896 0.0 -0.0285095692373748 0.0 0.0
-0.15215328390074573 0.14466850067121895 0.0 -0.0566800459503628 0.0 0.0
-0.15215328390073035 0.14466850067120252 0.0 0.05668004595038634 0.0 0.0
-0.16527675416103096 0.15850004718294608 0.0 0.028509569237412102 0.0 0.0
-0.16027391120577905 0.15444222419966946 0.0 0.015864067938549276 0.0 0.0
-0.14635317186478927 0.1411241854711025 0.0 0.013681507212617738 0.0 0.0
-0.12899136913653814 0.12418513472170956 0.0 0.013836281629149405 0.0 0.0
-0.11077858129808928 0.10632996780977955 0.0 0.013280431452339647 0.0 0.0
-0.09296251412560273 0.08885245304162837 0.0 0.012011162292105443 0.0 0.0
-0.07619355869663635 0.07241067590859585 0.0 0.01048883528559702 0.0 0.0
-0.060805095685810745 0.057341761227827526 0.0 0.00894995634867296 0.0 0.0
-0.04696392764886207 0.04381617946707772 0.0 0.007408013202735653 0.0 0.0
-0.03479466953118647 0.031960376982620886 0.0 0.005793459735000506 0.0 0.0
-0.024463038401766928 0.021934397969908037 0.0 0.004198857577799586 0.0 0.0
-0.01614783902140126 0.013907482627097068 0.0 0.0028089638775421477 0.0 0.0
-0.009925938201356808 0.007961254141425345 0.0 0.0017629727223107405 0.0 0.0
-0.005672544786508169 0.004000960648838259 0.0 0.0010841674039488436 0.0 0.0
-0.003110200905676739 0.0017868827187776937 0.0 0.0007584429002194248 0.0 0.0
-0.0018492788365723906 0.0008529752293759962 0.0 0.0007405153965740485 0.0 0.0
-0.001168803003977821 0.0004962266465031728 0.0 0.0008294432374970073 0.0 0.0
-0.0005532840158441257 0.00021965189038397614 0.0 0.0007140563555319557 0.0 0.0
-0.00012565969955978876 4.157697954488941e-05 0.0 0.00023771699577679328 0.0 0.0
-0.00010556505466968735 5.612454659220667e-05 0.0 -3.795822965346751e-05 0.0 0.0
-0.0005465863108107816 0.00024094221813164562 0.0 -0.0002891925483781699 0.0 0.0
-0.001268486515533851 0.0005348589778808588 0.0 -0.0003393725993016683 0.0 0.0
-0.0021006266346801916 0.0009997920994109233 0.0 -0.00031579527190628287 0.0 0.0
-0.0036724762271441724 0.002231029817581609 0.0 -0.0003269036724276031 0.0 0.0
-0.006674604454252775 0.004906663428083213 0.0 -0.0004579832082786117 0.0 0.0
-0.011440283846535615 0.009407117909660423 0.0 -0.000738485040362391 0.0 0.0
-0.01831263004682626 0.01601087234885412 0.0 -0.0011775437663313904 0.0 0.0
-0.027483792454066402 0.024887088342489427 0.0 -0.0017943081886867551 0.0 0.0
-0.038923387131063525 0.03600428697039515 0.0 -0.0025296078945364897 0.0 0.0
-0.05247051447320372 0.049214175513046854 0.0 -0.0032859680588817053 0.0 0.0
-0.0679375448942241 0.06433687907854724 0.0 -0.004024969699140124 0.0 0.0
-0.08513688151701804 0.08118573026080966 0.0 -0.0047543636276558 0.0 0.0
-0.10381727892807396 0.09950222437633727 0.0 -0.005433195820421122 0.0 0.0
-0.12349676998440107 0.11879899272518823 0.0 -0.005921677492308319 0.0 0.0
-0.14328152184066545 0.13818642892076793 0.0 -0.005888907856825054 0.0 0.0
-0.1617710328769927 0.15627469999300203 0.0 -0.004910666178896794 0.0 0.0
-0.17693734594370814 0.17099758558054523 0.0 -0.0038233079854386176 0.0 0.0
-0.1852101854594913 0.17856156368244358 0.0 -0.011668092806455088 0.0 0.0
-0.17720211011003012 0.1685961308164945 0.0 -0.052208326367247815 0.0 0.0
-0.17720211011001374 0.16859613081648295 0.0 0.052208326367255364 0.0 0.0
-0.18521018545944254 0.17856156368239828 0.0 0.011668092806475516 0.0 0.0
-0.17693734594363475 0.1709975855804733 0.0 0.003823307985450164 0.0 0.0
-0.1617710328769024 0.15627469999290966 0.0 0.004910666178896628 0.0 0.0
-0.14328152184056264 0.13818642892066402 0.0 0.005888907856822501 0.0 0.0
-0.1234967699842958 0.11879899272508121 0.0 0.005921677492309735 0.0 0.0
-0.10381727892797091 0.0995022243762338 0.0 0.00543319582041743 0.0 0.0
-0.08513688151691337 0.0811857302607053 0.0 0.004754363627651442 0.0 0.0
-0.06793754489412282 0.06433687907844599 0.0 0.004024969699138181 0.0 0.0
-0.052470514473113246 0.049214175512960256 0.0 0.003285968058874711 0.0 0.0
-0.03892338713098878 0.036004286970318766 0.0 0.0025296078945282185 0.0 0.0
-0.027483792454006443 0.02488708834242681 0.0 0.00179430818868348 0.0 0.0
-0.01831263004678172 0.01601087234880927 0.0 0.0011775437663279487 0.0 0.0
-0.011440283846504994 0.009407117909631335 0.0 0.0007384850403591159 0.0 0.0
-0.0066746044542347945 0.004906663428068114 0.0 0.00045798320827666883 0.0 0.0
-0.003672476227136578 0.0022310298175751697 0.0 0.00032690367242843577 0.0 0.0
-0.0021006266346781377 0.000999792099409924 0.0 0.0003157952719040624 0.0 0.0
-0.0012684865155323626 0.0005348589778801927 0.0 0.00033937259930000296 0.0 0.0
-0.000546586310810223 0.00024094221813120154 0.0 0.00028919254837661557 0.0 0.0
-0.00010556505466944102 5.612454659212514e-05 0.0 3.795822965346751e-05 0.0 0.0
SCALARS Statev float 8
LOOKUP_TABLE default
0.0 0.013461893636254071 0.010421346145999991 -0.010802330738616878 0.00038098459261688125 -0.005998351335189171 0.0 0.0
0.0 0.0008055051338645381 0.0005728623920296598 -0.0004882822178302247 -8.458017419943513e-05 0.000523731615416569 0.0 0.0
0.0 3.342380937738801e-05 -4.754075056001044e-06 3.773145031477424e-06 9.809300245235895e-07 5.62033213615258e-07 0.0 0.0
0.0 0.00030536651988766146 0.00022256054178739182 -0.00017569304860445026 -4.686749318294156e-05 -3.143570310997534e-05 0.0 0.0
0.0 0.0016239710725508756 0.0013238049669362078 -0.0011010237340347362 -0.00022278123290147157 -0.00014320006349158285 0.0 0.0
0.0 0.004391077214492196 0.003973209100172651 -0.0035080146236796117 -0.00046519447649303957 -0.0003260707178717223 0.0 0.0
0.0 0.009484033550182555 0.008439485414368265 -0.007808085873584815 -0.0006313995407834502 -0.0006016339509095143 0.0 0.0
0.0 0.017080448754620288 0.015045630728940513 -0.014299313831263153 -0.000746316897677354 -0.001020104255998145 0.0 0.0
0.0 0.027365175965650548 0.02395773511175643 -0.023106531826168966 -0.0008512032855874538 -0.001612317274950349 0.0 0.0
0.0 0.04031078455822175 0.03515202874746528 -0.03419089739260459 -0.0009611313548606793 -0.002333415745601645 0.0 0.0
0.0 0.05577541716271072 0.048485317653417286 -0.04740976081965342 -0.001075556833763865 -0.0030914112656770017 0.0 0.0
0.0 0.0732711091687297 0.06378270215600057 -0.0625904007001865 -0.0011923014558140451 -0.0038379270952211505 0.0 0.0
0.0 0.09289740126678486 0.08086313782113885 -0.07955280158887408 -0.0013103362322647231 -0.004574545930688377 0.0 0.0
0.0 0.11440585586847443 0.09951382794247367 -0.09808261311495342 -0.001431214827520168 -0.005294218633375338 0.0 0.0
0.0 0.13731203543824852 0.11937053655211308 -0.11781424451150066 -0.0015562920406123676 -0.005965309452813819 0.0 0.0
0.0 0.16089779263582887 0.13978157781191988 -0.13809713499089155 -0.0016844428210284154 -0.0064573519039053656 0.0 0.0
0.0 0.18397880234121533 0.15975072659194722 -0.15793921920651038 -0.0018115073854368183 -0.006537162365068256 0.0 0.0
0.0 0.20502834402074976 0.17797218403066467 -0.17603927761054278 -0.001932906420121873 -0.005980857986201866 0.0 0.0
0.0 0.22224930083452182 0.19288433219751777 -0.19083686312451675 -0.0020474690730009656 -0.005073655229903737 0.0 0.0
0.0 0.23279139459884018 0.20214903949972055 -0.19992789837100833 -0.002221141128712202 -0.005812418752119349 0.0 0.0
0.0 0.23279139459882725 0.20214903949970905 -0.19992789837099717 -0.002221141128711858 0.00581241875212803 0.0 0.0
0.0 0.22224930083447741 0.1928843321974787 -0.1908368631244787 -0.002047469072999892 0.005073655229924698 0.0 0.0
0.0 0.20502834402066916 0.17797218403059473 -0.17603927761047336 -0.0019329064201213909 0.0059808579862152406 0.0 0.0
0.0 0.18397880234111064 0.1597507265918564 -0.15793921920641993 -0.0018115073854364184 0.00653716236507488 0.0 0.0
0.0 0.1608977926357172 0.13978157781182293 -0.13809713499079554 -0.0016844428210274595 0.006457351903895941 0.0 0.0
0.0 0.137312035438136 0.11937053655201497 -0.11781424451140385 -0.0015562920406110878 0.0059653094528132255 0.0 0.0
0.0 0.1144058558683655 0.09951382794237865 -0.09808261311486006 -0.0014312148275185388 0.005294218633375466 0.0 0.0
0.0 0.09289740126667531 0.08086313782104343 -0.07955280158878014 -0.0013103362322633059 0.004574545930687467 0.0 0.0
0.0 0.07327110916861938 0.06378270215590508 -0.06259040070009131 -0.0011923014558137374 0.0038379270952127345 0.0 0.0
0.0 0.05577541716261433 0.04848531765333365 -0.04740976081956995 -0.0010755568337636986 0.003091411265671834 0.0 0.0
0.0 0.040310784558140994 0.035152028747395425 -0.034190897392535134 -0.0009611313548603089 0.0023334157455920266 0.0 0.0
0.0 0.027365175965591307 0.023957735111704476 -0.023106531826117493 -0.0008512032855869981 0.0016123172749480214 0.0 0.0
0.0 0.017080448754576247 0.015045630728901398 -0.014299313831224689 -0.0007463168976767026 0.0010201042559947202 0.0 0.0
0.0 0.00948403355015387 0.00843948541434255 -0.007808085873559703 -0.0006313995407828436 0.0006016339509078002 0.0 0.0
0.0 0.004391077214476937 0.003973209100158517 -0.0035080146236663445 -0.0004651944764921723 0.000326070717870327 0.0 0.0
0.0 0.0016239710725442164 0.0013238049669307673 -0.001101023734029985 -0.00022278123290078144 0.00014320006349091886 0.0 0.0
0.0 0.0003053665198857897 0.00022256054178662583 -0.00017569304860383188 -4.686749318279385e-05 3.143570310983771e-05 0.0 0.0
0.0 3.342380937687491e-05 -4.754075055922566e-06 3.7731450314146314e-06 9.80930024507978e-07 -5.620332136057866e-07 0.0 0.0
0.0 0.0008055051338613444 0.0005728623920277738 -0.0004882822178285561 -8.458017419921815e-05 -0.0005237316154143587 0.0 0.0
0.0 0.013461893636235542 0.010421346145987685 -0.01080233073860356 0.00038098459261587094 0.0059983513351590315 0.0 0.0
0.0 0.010011015089868451 0.007263346143445245 -0.00775732482937176 0.0004939786859265131 -0.00694298169858816 0.0 0.0
0.0 8.21258219618971e-06 5.514445965688332e-06 -4.828659003208856e-06 -6.857869624794803e-07 3.612752203526806e-06 0.0 0.0
0.0 5.255329199926912e-07 4.2303293980352e-08 -3.104682475139578e-08 -1.1256469228958947e-08 -1.1304263792955023e-08 0.0 0.0
0.0 0.00011864381105186835 8.019310864966566e-05 -6.28770779670734e-05 -1.7316030682592482e-05 -2.8511865252328443e-05 0.0 0.0
0.0 0.001087951152910898 0.0008468095696655757 -0.0006941897833970069 -0.00015261978626856897 -0.00022548463665592204 0.0 0.0
0.0 0.00338104035207627 0.0030626088335676763 -0.002662372909718945 -0.0004002359238487308 -0.0006663259471336039 0.0 0.0
0.0 0.007886261214816948 0.0070131184492366 -0.006420057777140023 -0.0005930606720965728 -0.001366954528028312 0.0 0.0
0.0 0.0147407506930674 0.012962844378297093 -0.012242265642715794 -0.0007205787355812959 -0.002378625273548835 0.0 0.0
0.0 0.0240470720842144 0.021017976479728445 -0.020191603847170194 -0.000826372632558237 -0.003727912278462201 0.0 0.0
0.0 0.03571950403105176 0.0311061079275213 -0.030174414431892158 -0.0009316934956291538 -0.005307028191265687 0.0 0.0
0.0 0.04957033409897739 0.043065739249906504 -0.04202734840111967 -0.001038390848786832 -0.006938883836423162 0.0 0.0
0.0 0.06546606610502251 0.05674453980374691 -0.055598927070148435 -0.0011456127335984765 -0.008513852081730494 0.0 0.0
0.0 0.08297527699728105 0.07202426911035228 -0.07077003002027794 -0.0012542390900743482 -0.010083497139544054 0.0 0.0
0.0 0.10220517798363908 0.0887384907261476 -0.08737324946118288 -0.0013652412649647024 -0.011658887327511601 0.0 0.0
0.0 0.12279365584848147 0.10657668798977676 -0.10509760470502472 -0.0014790832847519774 -0.013131834582209621 0.0 0.0
0.0 0.14402689439045543 0.12498738848720453 -0.12339223532083776 -0.0015951531663667819 -0.014242957692486288 0.0 0.0
0.0 0.16491994137754412 0.14310941954864914 -0.1413976905100791 -0.0017117290385700716 -0.014542005894539585 0.0 0.0
0.0 0.1841023950561812 0.15974573443346618 -0.15791789017853702 -0.0018278442549291337 -0.013679465923735793 0.0 0.0
0.0 0.19963238206659545 0.1732304138540893 -0.17127422289528957 -0.001956190958799762 -0.011892005980054863 0.0 0.0
0.0 0.20894637851131953 0.1813455286316028 -0.17929102031782884 -0.0020545083137739725 -0.008992336456632083 0.0 0.0
0.0 0.20894637851130332 0.18134552863158868 -0.17929102031781452 -0.002054508313774184 0.008992336456656388 0.0 0.0
0.0 0.19963238206654954 0.17323041385404872 -0.17127422289524932 -0.001956190958799455 0.011892005980095214 0.0 0.0
0.0 0.18410239505611037 0.15974573443340398 -0.1579178901784754 -0.0018278442549285615 0.013679465923762006 0.0 0.0
0.0 0.16491994137745628 0.14310941954857256 -0.1413976905100032 -0.0017117290385692458 0.014542005894554018 0.0 0.0
0.0 0.14402689439035382 0.12498738848711677 -0.12339223532075022 -0.0015951531663664581 0.014242957692476117 0.0 0.0
0.0 0.12279365584837659 0.10657668798968611 -0.10509760470493414 -0.0014790832847519275 0.013131834582204283 0.0 0.0
0.0 0.1022051779835377 0.08873849072605966 -0.08737324946109555 -0.0013652412649640456 0.011658887327507493 0.0 0.0
0.0 0.08297527699718169 0.07202426911026588 -0.07077003002019246 -0.0012542390900733959 0.010083497139538884 0.0 0.0
0.0 0.06546606610492497 0.05674453980366222 -0.05559892707006458 -0.0011456127335976191 0.00851385208171827 0.0 0.0
0.0 0.04957033409888867 0.043065739249829454 -0.0420273484010433 -0.0010383908487861266 0.006938883836413038 0.0 0.0
0.0 0.035719504030978816 0.031106107927458028 -0.030174414431829298 -0.0009316934956287149 0.0053070281912508295 0.0 0.0
0.0 0.024047072084160417 0.021017976479680903 -0.020191603847123166 -0.0008263726325577228 0.003727912278455276 0.0 0.0
0.0 0.014740750693026062 0.012962844378260712 -0.01224226564268005 -0.0007205787355806664 0.00237862527354165 0.0 0.0
0.0 0.007886261214789718 0.007013118449212232 -0.006420057777116402 -0.0005930606720958267 0.0013669545280236431 0.0 0.0
0.0 0.0033810403520612774 0.003062608833554427 -0.0026623729097066426 -0.0004002359238477843 0.0006663259471305512 0.0 0.0
0.0 0.001087951152905086 0.0008468095696612049 -0.0006941897833932669 -0.00015261978626793812 0.00022548463665480236 0.0 0.0
0.0 0.00011864381105052384 8.019310864908118e-05 -6.28770779665929e-05 -1.7316030682488124e-05 2.8511865252058233e-05 0.0 0.0
0.0 5.255329200545392e-07 4.230329404333693e-08 -3.1046824798869685e-08 -1.1256469244469126e-08 1.1304263814271186e-08 0.0 0.0
0.0 8.212582195861132e-06 5.514445965732615e-06 -4.828659003239171e-06 -6.857869624934396e-07 -3.61275220355225e-06 0.0 0.0
0.0 0.010011015089846323 0.007263346143430648 -0.007757324829356524 0.0004939786859258717 0.006942981698561948 0.0 0.0
0.0 0.007598279169178813 0.005221105522233327 -0.005743454946806649 0.0005223494245733225 -0.006103906736136418 0.0 0.0
0.0 0.0 0.0 0.0 0.0 0.0 0.0 0.0
0.0 0.0 0.0 0.0 0.0 0.0 0.0 0.0
0.0 2.4810995814411486e-05 1.9364323647655435e-05 -1.512437739526629e-05 -4.239946252389169e-06 -1.2752989539320793e-05 0.0 0.0
0.0 0.0006113008795479068 0.0004809671434608259 -0.00038882377878799546 -9.21433646728303e-05 -0.00022757154827249244 0.0 0.0
0.0 0.0026200614308784674 0.00220125255953382 -0.0018814516367622674 -0.00031980092277155206 -0.0008274342705689012 0.0 0.0
0.0 0.006347717178201044 0.005616170455172777 -0.005072359998554478 -0.0005438104566183007 -0.0018582476848884918 0.0 0.0
0.0 0.012425173608669095 0.010873450179709936 -0.01018599698809613 -0.0006874531916138012 -0.0033567478574466785 0.0 0.0
0.0 0.0207503688944098 0.018037071212824364 -0.017240393533688593 -0.0007966776791357676 -0.005304159794200092 0.0 0.0
0.0 0.03115927663086878 0.02699692043928988 -0.02609938361329177 -0.0008975368259980926 -0.007546790985952049 0.0 0.0
0.0 0.04346943734002768 0.037577521621872334 -0.03658092549963805 -0.000996596122234284 -0.009860181324101571 0.0 0.0
0.0 0.05743149145649492 0.04964323188797035 -0.04854822463240782 -0.0010950072555625146 -0.012102209778378718 0.0 0.0
0.0 0.07311600233968882 0.06310697943916672 -0.061912912118610657 -0.001194067320556052 -0.01431252489033234 0.0 0.0
0.0 0.09006453103735396 0.07786260929126523 -0.076567850720177 -0.0012947585710882089 -0.016546828833910666 0.0 0.0
0.0 0.1082754467977646 0.09367006099881978 -0.09227304896103565 -0.001397012037784112 -0.018673611686574526 0.0 0.0
0.0 0.127218905512305 0.11008471620611893 -0.1085837291336419 -0.0015009870724769843 -0.020311970709162835 0.0 0.0
0.0 0.1459746700189405 0.12638303303064552 -0.12477555682091701 -0.001607476209728515 -0.02091393207584696 0.0 0.0
0.0 0.16325296413770807 0.1414545542984507 -0.13973389220193028 -0.0017206620965204047 -0.019996484872491824 0.0 0.0
0.0 0.1772378678449276 0.15370257607996468 -0.15187149711581432 -0.0018310789641503035 -0.01707264128014261 0.0 0.0
0.0 0.18584568230182613 0.16131707935254266 -0.159406144184044 -0.0019109351684985488 -0.011232944873513766 0.0 0.0
0.0 0.18584568230181453 0.16131707935253178 -0.1594061441840336 -0.0019109351684981333 0.011232944873552819 0.0 0.0
0.0 0.1772378678448901 0.15370257607993032 -0.15187149711578057 -0.0018310789641498267 0.017072641280198735 0.0 0.0
0.0 0.16325296413764856 0.14145455429839734 -0.13973389220187774 -0.0017206620965195046 0.019996484872530466 0.0 0.0
0.0 0.14597467001886594 0.12638303303057963 -0.12477555682085235 -0.0016074762097273172 0.020913932075865213 0.0 0.0
0.0 0.12721890551221732 0.11008471620604304 -0.10858372913356656 -0.0015009870724763874 0.02031197070915325 0.0 0.0
0.0 0.10827544679767104 0.0936700609987385 -0.09227304896095517 -0.001397012037783337 0.0186736116865671 0.0 0.0
0.0 0.09006453103726549 0.07786260929118796 -0.07656785072010099 -0.0012947585710869846 0.016546828833906065 0.0 0.0
0.0 0.07311600233960203 0.06310697943909119 -0.06191291211853582 -0.001194067320555335 0.014312524890326573 0.0 0.0
0.0 0.05743149145640951 0.0496432318878969 -0.04854822463233461 -0.0010950072555623097 0.012102209778361274 0.0 0.0
0.0 0.043469437339953676 0.037577521621808 -0.03658092549957437 -0.0009965961222336036 0.00986018132408613 0.0 0.0
0.0 0.03115927663080537 0.026996920439234892 -0.026099383613237347 -0.0008975368259975331 0.0075467909859332025 0.0 0.0
0.0 0.020750368894359498 0.01803707121278055 -0.017240393533645353 -0.0007966776791351898 0.005304159794187755 0.0 0.0
0.0 0.012425173608632736 0.010873450179678215 -0.010185996988064817 -0.0006874531916133933 0.0033567478574363214 0.0 0.0
0.0 0.00634771717817781 0.0056161704551521766 -0.005072359998534761 -0.0005438104566174164 0.0018582476848821809 0.0 0.0
0.0 0.0026200614308647297 0.0022012525595223363 -0.0018814516367518823 -0.00031980092277045425 0.0008274342705642988 0.0 0.0
0.0 0.0006113008795436967 0.00048096714345776553 -0.0003888237787854434 -9.214336467232205e-05 0.00022757154827100158 0.0 0.0
0.0 2.4810995814030107e-05 1.9364323647854874e-05 -1.5124377395411608e-05 -4.239946252443284e-06 1.2752989539381548e-05 0.0 0.0
0.0 0.0 0.0 0.0 0.0 0.0 0.0 0.0
0.0 0.0 0.0 0.0 0.0 0.0 0.0 0.0
0.0 0.007598279169159991 0.00522110552222039 -0.005743454946793034 0.0005223494245726418 0.006103906736115507 0.0 0.0
0.0 0.00570219793155274 0.0037584955004376654 -0.004251818819611775 0.0004933233191741079 -0.004829288728149351 0.0 0.0
0.0 0.0 0.0 0.0 0.0 0.0 0.0 0.0
0.0 0.0 0.0 0.0 0.0 0.0 0.0 0.0
0.0 4.040378775282541e-06 1.316993909667409e-06 -1.0206123042504424e-06 -2.9638160541695155e-07 -1.3349124097396215e-06 0.0 0.0
0.0 0.0002965307659240189 0.00022645729700615237 -0.0001813533281913964 -4.510396881475577e-05 -0.00017218817811084735 0.0 0.0
0.0 0.0018008613542724711 0.0014634314997667831 -0.0012286377575827867 -0.00023479374218399646 -0.0008358542192993515 0.0 0.0
0.0 0.004934400423398266 0.004267768978718597 -0.003792137757333797 -0.0004756312213848017 -0.0020810038171887226 0.0 0.0
0.0 0.010162648211948802 0.008804746232954415 -0.008159505484462431 -0.0006452407484919825 -0.003947519715721871 0.0 0.0
0.0 0.017474728962425863 0.015048125043724103 -0.014287853949547957 -0.0007602710941761509 -0.006332679209777779 0.0 0.0
0.0 0.026604801197924858 0.022860955715129635 -0.022003049223333147 -0.0008579064917964561 -0.009056483616918317 0.0 0.0
0.0 0.037349238294763165 0.03205521482039531 -0.03110525989008512 -0.0009499549303101861 -0.011855447868443118 0.0 0.0
0.0 0.04953914321777515 0.0425040700199201 -0.04146418097199226 -0.0010398890479278388 -0.014583549039529117 0.0 0.0
0.0 0.06308827717332724 0.054151689710219324 -0.053022396318874336 -0.0011292933913449952 -0.017287950513394844 0.0 0.0
0.0 0.07796571075500691 0.06693499822867355 -0.06571523800870155 -0.0012197602199719754 -0.01998228508718455 0.0 0.0
0.0 0.09393725555602558 0.08069057788107403 -0.07938021922632804 -0.0013103586547459408 -0.022546880663764444 0.0 0.0
0.0 0.11039195606624887 0.09509076170115163 -0.09368876671276433 -0.0014019949883872474 -0.024628820475707247 0.0 0.0
0.0 0.1270187219134185 0.10954673695960673 -0.10804827580775912 -0.0014984611518475905 -0.025605294865088047 0.0 0.0
0.0 0.1424893064208698 0.12309219971423532 -0.12149155531847783 -0.0016006443957575127 -0.024717803620038028 0.0 0.0
0.0 0.15519440003453203 0.13434086447285049 -0.1326420683677787 -0.0016987961050717417 -0.02094331767967409 0.0 0.0
0.0 0.16339442398060244 0.14174454246529847 -0.13997370127533282 -0.001770841189965637 -0.013039862790047617 0.0 0.0
0.0 0.16339442398059126 0.14174454246528762 -0.13997370127532227 -0.0017708411899653776 0.013039862790096324 0.0 0.0
0.0 0.15519440003450027 0.13434086447282 -0.13264206836774894 -0.0016987961050709945 0.020943317679738654 0.0 0.0
0.0 0.14248930642081648 0.12309219971418692 -0.1214915553184292 -0.0016006443957576372 0.0247178036200828 0.0 0.0
0.0 0.12701872191335445 0.10954673695954971 -0.10804827580770253 -0.0014984611518471156 0.025605294865108475 0.0 0.0
0.0 0.11039195606617466 0.0950907617010873 -0.09368876671270082 -0.0014019949883865004 0.02462882047569841 0.0 0.0
0.0 0.09393725555594379 0.08069057788100359 -0.07938021922625742 -0.0013103586547461776 0.02254688066375437 0.0 0.0
0.0 0.07796571075492652 0.06693499822860371 -0.06571523800863215 -0.0012197602199715588 0.019982285087176078 0.0 0.0
0.0 0.06308827717325027 0.054151689710152245 -0.05302239631880816 -0.0011292933913440752 0.017287950513384432 0.0 0.0
0.0 0.04953914321770456 0.042504070019858765 -0.04146418097193203 -0.0010398890479267307 0.014583549039510842 0.0 0.0
0.0 0.03734923829469904 0.032055214820339975 -0.03110525989003022 -0.0009499549303097519 0.01185544786842341 0.0 0.0
0.0 0.026604801197869062 0.02286095571508204 -0.02200304922328593 -0.0008579064917960964 0.009056483616895964 0.0 0.0
0.0 0.017474728962382564 0.015048125043686592 -0.014287853949511167 -0.0007602710941754259 0.006332679209763497 0.0 0.0
0.0 0.010162648211918028 0.008804746232927731 -0.008159505484436537 -0.0006452407484911907 0.0039475197157098985 0.0 0.0
0.0 0.0049344004233792624 0.004267768978702333 -0.003792137757318462 -0.00047563122138387083 0.0020810038171812477 0.0 0.0
0.0 0.0018008613542629284 0.0014634314997596046 -0.0012286377575764847 -0.00023479374218312037 0.0008358542192950089 0.0 0.0
0.0 0.0002965307659216631 0.00022645729700499715 -0.00018135332819045182 -4.510396881454542e-05 0.00017218817811002647 0.0 0.0
0.0 4.040378774937457e-06 1.3169939098783997e-06 -1.0206123044134338e-06 -2.96381605464955e-07 1.3349124099475859e-06 0.0 0.0
0.0 0.0 0.0 0.0 0.0 0.0 0.0 0.0
0.0 0.0 0.0 0.0 0.0 0.0 0.0 0.0
0.0 0.0057021979315359204 0.0037584955004264856 -0.00425181881959991 0.0004933233191734222 0.0048292887281325214 0.0 0.0
0.0 0.004147022534805035 0.0026344598724617222 -0.003064155426618101 0.0004296955541563794 -0.003580525123678538 0.0 0.0
0.0 0.0 0.0 0.0 0.0 0.0 0.0 0.0
0.0 0.0 0.0 0.0 0.0 0.0 0.0 0.0
0.0 6.18587388453449e-07 2.01161995062263e-07 -1.533322073713579e-07 -4.7829787690905234e-08 -2.93520429882945e-07 0.0 0.0
0.0 0.0001223889553456974 8.446647299059435e-05 -6.7440400946295e-05 -1.7026072044299392e-05 -9.95242109649796e-05 0.0 0.0
0.0 0.0011126147416284922 0.0008696442557689984 -0.0007178730665640116 -0.0001517711892049872 -0.0007351996034477544 0.0 0.0
0.0 0.0037125626991606217 0.0030147398550418618 -0.0026264455348092783 -0.0003882943202325827 -0.0020452643390942893 0.0 0.0
0.0 0.008021551885353768 0.006779815914408251 -0.006192254551499703 -0.0005875613629085464 -0.004110054223208061 0.0 0.0
0.0 0.014242150067122348 0.012084176978737494 -0.011369011385011788 -0.0007151655937257077 -0.006805892400296667 0.0 0.0
0.0 0.022088678049266227 0.018733269181110027 -0.017921601688994176 -0.0008116674921158429 -0.009831031348353919 0.0 0.0
0.0 0.031276466399424316 0.026533764527539968 -0.025636077374573386 -0.0008976871529666077 -0.012933126326191128 0.0 0.0
0.0 0.04162998904264434 0.03536390073412905 -0.03438465694140639 -0.000979243792722655 -0.015957687757435758 0.0 0.0
0.0 0.05318692967386026 0.045191587714018766 -0.04413229750657227 -0.0010592902074464917 -0.01895515009168875 0.0 0.0
0.0 0.06572557021175116 0.05600074144561716 -0.05486161623107911 -0.0011391252145380737 -0.021958372240082395 0.0 0.0
0.0 0.0793481118852774 0.06769150281761471 -0.0664728531729238 -0.0012186496446909298 -0.024805560996904646 0.0 0.0
0.0 0.09375406711196617 0.08003393659575862 -0.0787353735400462 -0.0012985630557124225 -0.027157009987660317 0.0 0.0
0.0 0.10806070267737883 0.09260015470259067 -0.09121852981540708 -0.001381624887183566 -0.02846908549352536 0.0 0.0
0.0 0.12169843493458603 0.104647477503209 -0.10317678677472733 -0.0014706907284816485 -0.027796416211611094 0.0 0.0
0.0 0.1333051934178688 0.11504421333430623 -0.1134852469392197 -0.0015589663950865084 -0.023668653250602464 0.0 0.0
0.0 0.1413119620201517 0.1224242986604456 -0.12079550719306825 -0.001628791467377333 -0.014538979541782038 0.0 0.0
0.0 0.1413119620201418 0.12242429866043558 -0.12079550719305801 -0.0016287914673775148 0.014538979541833115 0.0 0.0
0.0 0.1333051934178397 0.11504421333427753 -0.11348524693919085 -0.0015589663950866563 0.023668653250670184 0.0 0.0
0.0 0.12169843493454008 0.10464747750316583 -0.10317678677468417 -0.0014706907284816645 0.02779641621166047 0.0 0.0
0.0 0.10806070267732432 0.09260015470254127 -0.09121852981535807 -0.0013816248871831875 0.028469085493547718 0.0 0.0
0.0 0.09375406711190334 0.0800339365957039 -0.07873537353999224 -0.0012985630557117204 0.027157009987652303 0.0 0.0
0.0 0.07934811188521286 0.06769150281755865 -0.06647285317286845 -0.0012186496446901982 0.024805560996894214 0.0 0.0
0.0 0.06572557021168668 0.05600074144556131 -0.054861616231023355 -0.0011391252145379481 0.021958372240073395 0.0 0.0
0.0 0.05318692967379836 0.0451915877139648 -0.04413229750651864 -0.0010592902074461393 0.01895515009167842 0.0 0.0
0.0 0.041629989042583804 0.03536390073407696 -0.03438465694135483 -0.000979243792722113 0.01595768775741695 0.0 0.0
0.0 0.03127646639936793 0.026533764527491777 -0.02563607737452613 -0.0008976871529656473 0.012933126326168023 0.0 0.0
0.0 0.022088678049216798 0.01873326918106879 -0.017921601688953688 -0.0008116674921151079 0.009831031348327818 0.0 0.0
0.0 0.014242150067084328 0.012084176978705213 -0.01136901138497986 -0.0007151655937253492 0.0068058924002800504 0.0 0.0
0.0 0.008021551885327084 0.0067798159143861 -0.006192254551478104 -0.0005875613629079949 0.004110054223194598 0.0 0.0
0.0 0.0037125626991451437 0.00301473985502933 -0.0026264455347977662 -0.00038829432023156394 0.002045264339086656 0.0 0.0
0.0 0.0011126147416209854 0.000869644255763529 -0.0007178730665593691 -0.0001517711892041594 0.0007351996034431851 0.0 0.0
0.0 0.00012238895534390736 8.446647298986265e-05 -6.744040094568168e-05 -1.702607204418091e-05 9.952421096399842e-05 0.0 0.0
0.0 6.185873882999563e-07 2.011619951971201e-07 -1.5333220747470947e-07 -4.782978772240865e-08 2.935204300855134e-07 0.0 0.0
0.0 0.0 0.0 0.0 0.0 0.0 0.0 0.0
0.0 0.0 0.0 0.0 0.0 0.0 0.0 0.0
0.0 0.004147022534791239 0.0026344598724527876 -0.0030641554266084355 0.0004296955541556459 0.00358052512366556 0.0 0.0
0.0 0.002849986927483919 0.0017559064264394196 -0.002100721531331633 0.0003448151048922129 -0.0025048639646443487 0.0 0.0
0.0 0.0 0.0 0.0 0.0 0.0 0.0 0.0
0.0 0.0 0.0 0.0 0.0 0.0 0.0 0.0
0.0 1.2459832782016668e-06 -8.711175530045244e-08 6.722946238267231e-08 1.9882292917777628e-08 2.0432140011233723e-07 0.0 0.0
0.0 5.274227611491291e-05 2.7601039892607042e-05 -2.1981411619908922e-05 -5.619628272698115e-06 -4.828302958399258e-05 0.0 0.0
0.0 0.0005952955764672587 0.00044338469772689477 -0.0003611932140589787 -8.219148366791584e-05 -0.0005593716960579291 0.0 0.0
0.0 0.0024704451742332064 0.001935035543717144 -0.0016494607994510795 -0.0002855747442660645 -0.0018462249787560595 0.0 0.0
0.0 0.005995445086443821 0.004855625822058276 -0.00435091779703691 -0.0005047080250213653 -0.003909581454670374 0.0 0.0
0.0 0.011124757903242913 0.00917652769421044 -0.008520628087056857 -0.0006558996071535789 -0.006690708621676431 0.0 0.0
0.0 0.017630307963129595 0.014650985585531679 -0.013894477446462246 -0.0007565081390694307 -0.00985814049286233 0.0 0.0
0.0 0.025232484155634022 0.021050893440459628 -0.02021316478149144 -0.0008377286589681871 -0.013075614773877019 0.0 0.0
0.0 0.0337789716288387 0.02826176540516183 -0.027349878001342715 -0.000911887403819125 -0.01621348729840044 0.0 0.0
0.0 0.043238731329611806 0.036271197240175856 -0.035288553277858195 -0.0009826439623176516 -0.01932449192466697 0.0 0.0
0.0 0.05363765724021016 0.04509985547571225 -0.044047993557207836 -0.0010518619185044267 -0.02242659415546626 0.0 0.0
0.0 0.06495215104368031 0.054713731511443486 -0.053592814358646185 -0.001120917152797335 -0.02539045327194544 0.0 0.0
0.0 0.0767301804794148 0.06496555943724522 -0.06377651865784491 -0.0011890407794003309 -0.027900180651742768 0.0 0.0
0.0 0.08904334329755983 0.07557302442757176 -0.0743157771802129 -0.00125724724735882 -0.029441095024373296 0.0 0.0
0.0 0.10098980461095008 0.08608198423548286 -0.08475153963410438 -0.0013304446013785002 -0.02911826966718138 0.0 0.0
0.0 0.11141433933779615 0.09568548384821657 -0.0942764544400864 -0.001409029408130127 -0.02522299882128956 0.0 0.0
0.0 0.11937316567218945 0.10317457084563314 -0.10169409645336572 -0.0014804743922673539 -0.015759032376023344 0.0 0.0
0.0 0.11937316567218173 0.10317457084562431 -0.10169409645335728 -0.0014804743922669965 0.015759032376075503 0.0 0.0
0.0 0.11141433933777492 0.09568548384819321 -0.0942764544400639 -0.0014090294081293417 0.025222998821358245 0.0 0.0
0.0 0.10098980461091614 0.08608198423544877 -0.08475153963407082 -0.0013304446013779707 0.029118269667231175 0.0 0.0
0.0 0.08904334329751576 0.07557302442753103 -0.0743157771801725 -0.001257247247358503 0.029441095024394168 0.0 0.0
0.0 0.07673018047936003 0.06496555943719814 -0.06377651865779792 -0.0011890407794001917 0.027900180651732817 0.0 0.0
0.0 0.06495215104362305 0.054713731511394116 -0.053592814358597314 -0.001120917152796796 0.025390453271931884 0.0 0.0
0.0 0.05363765724015836 0.04509985547566692 -0.0440479935571635 -0.001051861918503432 0.022426594155455795 0.0 0.0
0.0 0.043238731329561325 0.03627119724013188 -0.03528855327781508 -0.0009826439623168233 0.019324491924656195 0.0 0.0
0.0 0.03377897162878888 0.02826176540511947 -0.02734987800130096 -0.0009118874038185074 0.01621348729838209 0.0 0.0
0.0 0.025232484155588226 0.02105089344042136 -0.020213164781453595 -0.000837728658967773 0.013075614773854776 0.0 0.0
0.0 0.017630307963090206 0.014650985585499564 -0.013894477446430728 -0.0007565081390688347 0.009858140492836218 0.0 0.0
0.0 0.011124757903213829 0.009176527694186079 -0.008520628087033248 -0.0006558996071528273 0.006690708621660282 0.0 0.0
0.0 0.005995445086423409 0.004855625822041734 -0.004350917797021286 -0.0005047080250204491 0.003909581454657964 0.0 0.0
0.0 0.0024704451742204683 0.001935035543707235 -0.0016494607994422125 -0.0002855747442650217 0.001846224978747916 0.0 0.0
0.0 0.0005952955764619781 0.00044338469772358486 -0.00036119321405617914 -8.219148366740567e-05 0.0005593716960537788 0.0 0.0
0.0 5.274227611383875e-05 2.7601039892521902e-05 -2.1981411619823226e-05 -5.6196282726986705e-06 4.8283029583725516e-05 0.0 0.0
0.0 1.245983277765114e-06 -8.711175526903953e-08 6.722946235833695e-08 1.9882292910690027e-08 -2.0432140003799813e-07 0.0 0.0
0.0 0.0 0.0 0.0 0.0 0.0 0.0 0.0
0.0 0.0 0.0 0.0 0.0 0.0 0.0 0.0
0.0 0.0028499869274727597 0.0017559064264324842 -0.0021007215313239144 0.00034481510489143137 0.0025048639646342154 0.0 0.0
0.0 0.0018291666699790541 0.0010747724451195964 -0.0013230589618225064 0.0002482865167029099 -0.0016190302573858074 0.0 0.0
0.0 5.610935232125803e-07 -8.037160125762508e-09 8.338978319598262e-09 -3.018181938355691e-10 1.1164998698213293e-07 0.0 0.0
0.0 0.0 0.0 0.0 0.0 0.0 0.0 0.0
0.0 1.343535810957597e-06 -6.745450613659108e-08 5.1836617700734505e-08 1.5617888435866596e-08 2.5068220686766373e-07 0.0 0.0
0.0 2.7875315376851184e-05 1.294327237471163e-05 -1.0246349352361218e-05 -2.696923022350412e-06 -3.3494416677948616e-05 0.0 0.0
0.0 0.0003122394079218303 0.00018056638998546046 -0.0001458786578994977 -3.4687732085962844e-05 -0.0003453435050079893 0.0 0.0
0.0 0.0014799109713034145 0.0010587037473066023 -0.0008825926528958387 -0.00017611109441076364 -0.0014671492128889043 0.0 0.0
0.0 0.004078603613755194 0.0031135411081052505 -0.0027214902471062313 -0.0003920508609990179 -0.003406971606724815 0.0 0.0
0.0 0.008109519015576144 0.0063879722117303785 -0.005818086571262655 -0.000569885640467718 -0.00602880480575543 0.0 0.0
0.0 0.01325730015867481 0.01065485095900912 -0.00996903043386533 -0.0006858205251437879 -0.00910046600839999 0.0 0.0
0.0 0.019266039947107468 0.015646990962652863 -0.014880765712231077 -0.0007662252504217863 -0.012268183166079381 0.0 0.0
0.0 0.025983409687903525 0.02124211478757996 -0.020407369255990127 -0.0008347455315898232 -0.01533707364672384 0.0 0.0
0.0 0.0334140262894789 0.02743745714616782 -0.026540637434520814 -0.0008968197116469911 -0.018361969177936203 0.0 0.0
0.0 0.0415437162142289 0.03428546354260366 -0.03332988928567668 -0.0009555742569269601 -0.021387040465339426 0.0 0.0
0.0 0.05045383368044814 0.04180807043689261 -0.04079483925455559 -0.0010132311823370255 -0.024292551233491326 0.0 0.0
0.0 0.059979855687035157 0.049936543157100624 -0.048864865449358495 -0.001071677707742157 -0.026773682242583408 0.0 0.0
0.0 0.06983860978082383 0.05851344701298789 -0.05738830784946274 -0.0011251391635251407 -0.02843916255520064 0.0 0.0
0.0 0.07986518902366484 0.06737267596174554 -0.06619419097449566 -0.0011784849872498737 -0.028594235732167995 0.0 0.0
0.0 0.08952579803439625 0.07612699739322279 -0.07488261413815088 -0.001244383255071894 -0.025506383240899367 0.0 0.0
0.0 0.0976028892075527 0.08380383588249662 -0.08248322893944837 -0.001320606943048249 -0.016672262434616 0.0 0.0
0.0 0.09760288920754705 0.08380383588248937 -0.08248322893944118 -0.001320606943048178 0.016672262434666393 0.0 0.0
0.0 0.0895257980343801 0.07612699739320303 -0.07488261413813135 -0.001244383255071781 0.02550638324096693 0.0 0.0
0.0 0.07986518902363608 0.06737267596171514 -0.06619419097446567 -0.001178484987249436 0.028594235732217105 0.0 0.0
0.0 0.06983860978078844 0.05851344701295372 -0.05738830784942968 -0.001125139163524061 0.02843916255522046 0.0 0.0
0.0 0.05997985568699345 0.049936543157064445 -0.048864865449323065 -0.0010716777077413686 0.026773682242573846 0.0 0.0
0.0 0.0504538336804005 0.04180807043685221 -0.040794839254515165 -0.001013231182337046 0.024292551233476317 0.0 0.0
0.0 0.041543716214186524 0.0342854635425672 -0.033329889285640464 -0.0009555742569267309 0.021387040465328216 0.0 0.0
0.0 0.03341402628943808 0.027437457146132715 -0.02654063743448609 -0.0008968197116466225 0.018361969177924764 0.0 0.0
0.0 0.02598340968786482 0.021242114787547447 -0.020407369255958423 -0.0008347455315890267 0.015337073646705357 0.0 0.0
0.0 0.019266039947071212 0.015646990962623345 -0.014880765712202336 -0.0007662252504209947 0.012268183166056915 0.0 0.0
0.0 0.013257300158640807 0.010654850958982618 -0.009969030433839333 -0.00068582052514328 0.00910046600837397 0.0 0.0
0.0 0.008109519015549042 0.006387972211709093 -0.005818086571241951 -0.0005698856404671427 0.006028804805737611 0.0 0.0
0.0 0.004078603613738713 0.00311354110809253 -0.0027214902470945684 -0.0003920508609979607 0.0034069716067132057 0.0 0.0
0.0 0.001479910971294886 0.0010587037473005379 -0.0008825926528905748 -0.00017611109440996228 0.001467149212881822 0.0 0.0
0.0 0.00031223940791925324 0.00018056638998443673 -0.00014587865789865277 -3.468773208578379e-05 0.0003453435050059147 0.0 0.0
0.0 2.7875315376522986e-05 1.2943272374897242e-05 -1.024634935250844e-05 -2.696923022388807e-06 3.3494416678444964e-05 0.0 0.0
0.0 1.343535810551308e-06 -6.74545061154224e-08 5.1836617684484416e-08 1.561788843093987e-08 -2.5068220678900275e-07 0.0 0.0
0.0 0.0 0.0 0.0 0.0 0.0 0.0 0.0
0.0 5.610935225658215e-07 -8.037160116491167e-09 8.3389783100577e-09 -3.018181935663175e-10 -1.1164998685127716e-07 0.0 0.0
0.0 0.001829166669970682 0.001074772445114804 -0.0013230589618169642 0.00024828651670215964 0.001619030257378687 0.0 0.0
0.0 0.0010409625034614603 0.0005707845691674838 -0.0007254444334068738 0.00015465986423938944 -0.0009164884295814764 0.0 0.0
0.0 1.0437048007165517e-06 1.3424522525932663e-08 -1.0765589259244644e-08 -2.658933266689359e-09 -3.7036929225744606e-07 0.0 0.0
0.0 6.305102464673167e-07 -7.0898921551877894e-09 5.074535917472657e-09 2.0153562377156586e-09 1.2874703632778445e-07 0.0 0.0
0.0 1.102010661595307e-06 2.3890184171215412e-08 -2.1102047653547915e-08 -2.7881365176653093e-09 -2.1707781967934526e-07 0.0 0.0
0.0 2.283144858914626e-05 7.596327411096445e-06 -5.990889874412207e-06 -1.605437536684249e-06 -3.08087752697229e-05 0.0 0.0
0.0 0.00016772735132266947 7.06868229864851e-05 -5.67529468613943e-05 -1.3933876125090805e-05 -0.0002177123375086945 0.0 0.0
0.0 0.0007825292139581782 0.0004489576022397656 -0.0003671018519806871 -8.185575025907845e-05 -0.0009864772044954665 0.0 0.0
0.0 0.0024150035987950493 0.0016335695589801721 -0.001384609435065358 -0.000248960123914814 -0.0026182578117163254 0.0 0.0
0.0 0.005272790967794833 0.0038130583871733782 -0.0033737123748018506 -0.0004393460123715247 -0.004899889042464766 0.0 0.0
0.0 0.008961502866286613 0.006818728466906442 -0.006237906785727003 -0.0005808216811794391 -0.007602452398992324 0.0 0.0
0.0 0.013454003614647193 0.010378551178195769 -0.009706508252693681 -0.0006720429255020835 -0.010461921375855596 0.0 0.0
0.0 0.01830964939237263 0.014360168975679856 -0.01362085855793672 -0.000739310417743128 -0.013276148445069354 0.0 0.0
0.0 0.02366818878813073 0.018751945916101423 -0.0179566754479417 -0.0007952704681597267 -0.01604635200993349 0.0 0.0
0.0 0.029594927454549076 0.023619550921031372 -0.022775156509972798 -0.0008443944110585697 -0.01879537667256485 0.0 0.0
0.0 0.03617777280818313 0.02903598064758961 -0.028145280199440553 -0.0008907004481490411 -0.021466778329595416 0.0 0.0
0.0 0.043268060248913116 0.03501690888551372 -0.034078774427780054 -0.0009381344577336573 -0.023797597333939886 0.0 0.0
0.0 0.05085175845981652 0.041500844172507066 -0.040517691510679896 -0.0009831526618271733 -0.02538728178623478 0.0 0.0
0.0 0.058762733162841974 0.048529200886573955 -0.04751467475178991 -0.0010145261347840266 -0.02594609769167183 0.0 0.0
0.0 0.06710964850547056 0.05623303092847143 -0.055176429489792164 -0.001056601438679226 -0.024231906331071376 0.0 0.0
0.0 0.07522712568049669 0.064098174167119 -0.06295992631754437 -0.001138247849574669 -0.017185093520608936 0.0 0.0
0.0 0.07522712568049728 0.06409817416711658 -0.06295992631754206 -0.0011382478495745097 0.017185093520653096 0.0 0.0
0.0 0.06710964850546203 0.056233030928457585 -0.0551764294897783 -0.001056601438679283 0.024231906331133497 0.0 0.0
0.0 0.05876273316282603 0.04852920088655424 -0.04751467475177041 -0.0010145261347838063 0.025946097691716068 0.0 0.0
0.0 0.05085175845979069 0.04150084417248226 -0.04051769151065522 -0.0009831526618270614 0.025387281786248245 0.0 0.0
0.0 0.04326806024888055 0.03501690888548643 -0.03407877442775331 -0.0009381344577331058 0.02379759733392798 0.0 0.0
0.0 0.03617777280814752 0.029035980647560085 -0.028145280199411454 -0.0008907004481486441 0.021466778329580015 0.0 0.0
0.0 0.02959492745452045 0.02361955092100725 -0.02277515650994925 -0.0008443944110580097 0.01879537667255494 0.0 0.0
0.0 0.02366818878810542 0.018751945916079697 -0.017956675447920466 -0.0007952704681592351 0.01604635200992564 0.0 0.0
0.0 0.018309649392347783 0.01436016897565976 -0.01362085855791718 -0.0007393104177425812 0.013276148445054765 0.0 0.0
0.0 0.013454003614620826 0.010378551178175193 -0.009706508252673683 -0.0006720429255015028 0.010461921375836462 0.0 0.0
0.0 0.008961502866264005 0.006818728466890078 -0.006237906785711295 -0.0005808216811787794 0.00760245239897184 0.0 0.0
0.0 0.005272790967779973 0.0038130583871624005 -0.003373712374791605 -0.0004393460123707951 0.004899889042452792 0.0 0.0
0.0 0.0024150035987851384 0.001633569558973043 -0.001384609435059072 -0.0002489601239139701 0.0026182578117074327 0.0 0.0
0.0 0.0007825292139530559 0.00044895760223685803 -0.0003671018519782667 -8.185575025859137e-05 0.000986477204490412 0.0 0.0
0.0 0.00016772735132043753 7.068682298591632e-05 -5.675294686091812e-05 -1.3933876124998202e-05 0.00021771233750679514 0.0 0.0
0.0 2.28314485886462e-05 7.59632741111761e-06 -5.9908898744281785e-06 -1.605437536689421e-06 3.080877526984271e-05 0.0 0.0
0.0 1.1020106613165847e-06 2.3890184245380075e-08 -2.1102047711620005e-08 -2.7881365337630563e-09 2.1707782020949678e-07 0.0 0.0
0.0 6.305102458760242e-07 -7.089892147158693e-09 5.074535912009278e-09 2.015356235150372e-09 -1.2874703620679312e-07 0.0 0.0
0.0 1.0437048002017288e-06 1.3424522568349776e-08 -1.0765589308590539e-08 -2.658933259759288e-09 3.7036929329226086e-07 0.0 0.0
0.0 0.0010409625034548556 0.0005707845691642091 -0.0007254444334030285 0.00015465986423881948 0.0009164884295759113 0.0 0.0
0.0 0.0004472935548506958 0.00024151692398617386 -0.00032008892829472804 7.857200430855422e-05 -0.00041703633658821517 0.0 0.0
0.0 2.35211325551485e-06 -1.12691664676061e-10 2.8731272188222677e-09 -2.7604355541459867e-09 -4.8416654116682645e-08 0.0 0.0
0.0 8.990991395240477e-07 -7.040975078719848e-10 -3.443287206588325e-10 1.0484262285304692e-09 1.75736702327258e-08 0.0 0.0
0.0 2.231778152500487e-06 8.269072715110677e-08 -5.812225642190104e-08 -2.4568470729202524e-08 -1.150803650301381e-06 0.0 0.0
0.0 2.4551217800176195e-05 4.648480324768849e-06 -3.6040703396688545e-06 -1.0444099850999997e-06 -3.5531651345430265e-05 0.0 0.0
0.0 0.00012800768394229586 3.165316632029266e-05 -2.5385584411515066e-05 -6.267581908777598e-06 -0.00017863384947259815 0.0 0.0
0.0 0.00041018032275303356 0.0001427266631553059 -0.00011533031615924234 -2.739634699606352e-05 -0.0005992209052957181 0.0 0.0
0.0 0.0011554539611162973 0.0005632614046720831 -0.0004621457667593641 -0.00010111563791271883 -0.001643177487500888 0.0 0.0
0.0 0.0027370251521894296 0.0016077750081470274 -0.0013620350506413775 -0.0002457399575056499 -0.0033511887494403225 0.0 0.0
0.0 0.005012433052356737 0.0032780929863220356 -0.002878807194779456 -0.0003992857915425775 -0.00544493774515098 0.0 0.0
0.0 0.007755508944859201 0.005367657197805371 -0.0048518838542680656 -0.0005157733435373024 -0.007724470309790272 0.0 0.0
0.0 0.01089430047433179 0.007716099726351697 -0.007121549326333509 -0.0005945504000181857 -0.010047956593339517 0.0 0.0
0.0 0.01429028303791205 0.010312017344595144 -0.00965835854245861 -0.0006536588021365368 -0.012399787489046472 0.0 0.0
0.0 0.018046111832094418 0.013210289788678466 -0.01251142689124712 -0.0006988628974313362 -0.014732787521756252 0.0 0.0
0.0 0.022238628768901758 0.016504364908998616 -0.015768747177811966 -0.0007356177311866372 -0.017021211393348713 0.0 0.0
0.0 0.0269285561690945 0.020300085319294305 -0.019529588778335397 -0.000770496540958914 -0.019122864743592687 0.0 0.0
0.0 0.03213784443916214 0.024661277706446334 -0.02385177355244561 -0.0008095041540007405 -0.020646417562630567 0.0 0.0
0.0 0.03791062830324774 0.02970547173901631 -0.028868372186451823 -0.0008370995525644997 -0.021299083497517784 0.0 0.0
0.0 0.044804413381073285 0.035929840625969114 -0.03509478671929226 -0.0008350539066768561 -0.02095722715264571 0.0 0.0
0.0 0.05281898809472083 0.043772541947275284 -0.04286246953879959 -0.0009100724084757064 -0.017003167303354362 0.0 0.0
0.0 0.05281898809472155 0.043772541947272856 -0.042862469538796605 -0.0009100724084762639 0.017003167303390902 0.0 0.0
0.0 0.04480441338107365 0.035929840625962564 -0.03509478671928572 -0.0008350539066768262 0.020957227152700385 0.0 0.0
0.0 0.037910628303240476 0.02970547173900395 -0.028868372186439693 -0.0008370995525642538 0.0212990834975558 0.0 0.0
0.0 0.032137844439144775 0.024661277706429216 -0.023851773552428734 -0.0008095041540004792 0.0206464175626401 0.0 0.0
0.0 0.026928556169073588 0.02030008531927926 -0.019529588778320246 -0.0007704965409590131 0.01912286474357678 0.0 0.0
0.0 0.022238628768884564 0.016504364908985446 -0.01576874717779893 -0.0007356177311865106 0.017021211393338884 0.0 0.0
0.0 0.01804611183208022 0.013210289788667208 -0.012511426891236015 -0.0006988628974311942 0.014732787521749878 0.0 0.0
0.0 0.014290283037897228 0.01031201734458281 -0.00965835854244651 -0.000653658802136302 0.01239978748904142 0.0 0.0
0.0 0.01089430047431258 0.007716099726337842 -0.007121549326320076 -0.0005945504000177657 0.01004795659332436 0.0 0.0
0.0 0.007755508944839246 0.0053676571977916586 -0.004851883854254767 -0.000515773343536891 0.0077244703097719795 0.0 0.0
0.0 0.005012433052340651 0.0032780929863123207 -0.0028788071947702778 -0.0003992857915420413 0.005444937745132985 0.0 0.0
0.0 0.002737025152181348 0.0016077750081416185 -0.0013620350506365702 -0.00024573995750504853 0.0033511887494322335 0.0 0.0
0.0 0.0011554539611102774 0.0005632614046688057 -0.00046214576675659237 -0.00010111563791221335 0.0016431774874937903 0.0 0.0
0.0 0.0004101803227511228 0.00014272666315480473 -0.0001153303161588376 -2.7396346995967048e-05 0.0005992209052938766 0.0 0.0
0.0 0.00012800768394056355 3.1653166320184205e-05 -2.538558441142318e-05 -6.267581908761014e-06 0.00017863384947166834 0.0 0.0
0.0 2.455121779968474e-05 4.648480324788233e-06 -3.6040703396829678e-06 -1.0444099851052672e-06 3.55316513455804e-05 0.0 0.0
0.0 2.2317781524264734e-06 8.269072720619355e-08 -5.812225646028353e-08 -2.456847074590734e-08 1.150803651124476e-06 0.0 0.0
0.0 8.99099139274161e-07 -7.040975073589233e-10 -3.443287196291705e-10 1.048426226988559e-09 -1.7573669794887626e-08 0.0 0.0
0.0 2.3521132549617457e-06 -1.1269165920210065e-10 2.873127206224355e-09 -2.7604355470225736e-09 4.8416654527493465e-08 0.0 0.0
0.0 0.00044729355484708096 0.00024151692398468 -0.0003200889282928299 7.857200430814968e-05 0.00041703633658578764 0.0 0.0
0.0 0.00012531796455451382 6.402479395008051e-05 -8.905980688285006e-05 2.5035012932769537e-05 -0.00011716528582176827 0.0 0.0
0.0 2.781870384754148e-06 1.9351162690060233e-10 4.7534180317972145e-09 -4.946929658696566e-09 -2.7627422857248554e-07 0.0 0.0
0.0 3.3063548448805152e-06 -9.189798919240934e-08 8.699235059031369e-08 4.905638602096309e-09 -2.557541652762251e-06 0.0 0.0
0.0 5.288101376700529e-06 -8.530660658981134e-08 1.1346207952042507e-07 -2.8155472930613097e-08 -7.148900108135069e-06 0.0 0.0
0.0 2.940919286567529e-05 1.0684896519088514e-06 -7.205127577093793e-07 -3.4797689419947846e-07 -4.017987671925126e-05 0.0 0.0
0.0 0.00012223280031423543 9.603545601471228e-06 -7.58704801672731e-06 -2.016497584743907e-06 -0.0001841664709191945 0.0 0.0
0.0 0.0003045833345492768 3.497163835226199e-05 -2.821911612540349e-05 -6.7525222268585036e-06 -0.000489730191460692 0.0 0.0
0.0 0.0006359579227353248 9.483620471320012e-05 -7.695315849629222e-05 -1.788304621690779e-05 -0.0009903458574055226 0.0 0.0
0.0 0.0011495660164608757 0.00024414878020079906 -0.00019866591511513465 -4.5482865085664225e-05 -0.001856642031000767 0.0 0.0
0.0 0.0020391297817710097 0.0005632065554196742 -0.0004581070872023501 -0.00010509946821732418 -0.0031179073611090633 0.0 0.0
0.0 0.0031115468654694493 0.0010687034544647708 -0.0008751997833897851 -0.000193503671074985 -0.004705745294587258 0.0 0.0
0.0 0.004515652138266141 0.0017206139203398449 -0.0014413904631268297 -0.00027922345721301457 -0.006484424561378431 0.0 0.0
0.0 0.006135105895673733 0.002502876406895999 -0.0021510920874573255 -0.00035178431943867116 -0.008413490894795768 0.0 0.0
0.0 0.007994908227370668 0.003424128219901637 -0.0030154792768225655 -0.0004086489430790734 -0.010471610294653304 0.0 0.0
0.0 0.010103798113282146 0.004572785978503762 -0.004121016382342542 -0.0004517695961612174 -0.012639075827313252 0.0 0.0
0.0 0.012591328001499655 0.006120348124781797 -0.005634106971020401 -0.0004862411537613929 -0.014774815767622648 0.0 0.0
0.0 0.015491709751279175 0.008312095687189281 -0.0077899129722316385 -0.0005221827149576382 -0.0164825729243711 0.0 0.0
0.0 0.018879754306664567 0.0113615895339142 -0.010792051998546472 -0.0005695375353677222 -0.017141467302925973 0.0 0.0
0.0 0.023454227905774845 0.015666229315301906 -0.015092845774089498 -0.0005733835412124049 -0.01692529135610133 0.0 0.0
0.0 0.030560517329035322 0.022630309866909656 -0.02207767091408632 -0.0005526389528233336 -0.016086708205818343 0.0 0.0
0.0 0.030560517329034143 0.022630309866906013 -0.022077670914082477 -0.0005526389528235346 0.01608670820584482 0.0 0.0
0.0 0.023454227905775903 0.01566622931529706 -0.015092845774084391 -0.0005733835412126791 0.016925291356140078 0.0 0.0
0.0 0.01887975430665694 0.011361589533904393 -0.010792051998536422 -0.0005695375353679665 0.01714146730294658 0.0 0.0
0.0 0.015491709751267912 0.00831209568718093 -0.007789912972223479 -0.0005221827149574449 0.016482572924370147 0.0 0.0
0.0 0.012591328001487167 0.006120348124776169 -0.0056341069710153305 -0.00048624115376083707 0.014774815767608328 0.0 0.0
0.0 0.01010379811327262 0.0045727859785001605 -0.004121016382339033 -0.0004517695961611271 0.012639075827300436 0.0 0.0
0.0 0.007994908227361638 0.00342412821989735 -0.0030154792768182625 -0.0004086489430790892 0.010471610294645089 0.0 0.0
0.0 0.006135105895668279 0.002502876406894615 -0.002151092087456088 -0.00035178431943852625 0.008413490894788527 0.0 0.0
0.0 0.004515652138259504 0.001720613920338487 -0.001441390463125669 -0.00027922345721281805 0.006484424561368378 0.0 0.0
0.0 0.0031115468654633175 0.0010687034544633917 -0.0008751997833887285 -0.00019350367107466275 0.004705745294578017 0.0 0.0
0.0 0.0020391297817626596 0.0005632065554173306 -0.00045810708720052645 -0.00010509946821680431 0.0031179073610975386 0.0 0.0
0.0 0.001149566016457831 0.00024414878020003454 -0.00019866591511452007 -4.5482865085514206e-05 0.0018566420309957523 0.0 0.0
0.0 0.0006359579227328863 9.483620471273979e-05 -7.695315849593185e-05 -1.788304621680784e-05 0.0009903458574014978 0.0 0.0
0.0 0.00030458333454776854 3.497163835223513e-05 -2.8219116125370887e-05 -6.752522226864227e-06 0.0004897301914597015 0.0 0.0
0.0 0.00012223280031227343 9.603545601401484e-06 -7.587048016673203e-06 -2.0164975847282804e-06 0.00018416647091759847 0.0 0.0
0.0 2.9409192864925787e-05 1.0684896519029353e-06 -7.205127577059511e-07 -3.479768941969879e-07 4.01798767189312e-05 0.0 0.0
0.0 5.288101376516308e-06 -8.53066066016041e-08 1.1346207953385928e-07 -2.8155472932255223e-08 7.1489001088237635e-06 0.0 0.0
0.0 3.3063548442380462e-06 -9.189798922597131e-08 8.699235062032033e-08 4.905638605650327e-09 2.557541653594525e-06 0.0 0.0
0.0 2.7818703842819685e-06 1.935116267544904e-10 4.753418022956153e-09 -4.946929649708109e-09 2.7627422906704654e-07 0.0 0.0
0.0 0.00012531796455293528 6.402479394967324e-05 -8.9059806882279e-05 2.5035012932605714e-05 0.0001171652858212395 0.0 0.0
0.0 1.2322094844784982e-05 5.344864827911633e-06 -7.740187076250984e-06 2.3953222483393413e-06 -1.082701354151417e-05 0.0 0.0
0.0 2.5130778201676987e-06 -3.304555989681954e-08 1.9872498411485708e-08 1.31730614853387e-08 -6.493318994922347e-07 0.0 0.0
0.0 5.217485825331192e-06 -4.762317952995718e-07 4.0489216867949285e-07 7.13396266200799e-08 -5.727972346031271e-06 0.0 0.0
0.0 9.77087898505927e-06 -1.1044821093674081e-06 9.71493658551183e-07 1.3298845081622688e-07 -1.3298256869071615e-05 0.0 0.0
0.0 3.65572343388917e-05 -3.425055048857416e-06 2.958414178958541e-06 4.6664086989888346e-07 -4.931079202153858e-05 0.0 0.0
0.0 0.0001303608283615255 -1.25560822619081e-05 1.0347356071450329e-05 2.2087261904577646e-06 -0.0001894236844480174 0.0 0.0
0.0 0.00030888735964236427 -3.722813560111472e-05 3.020657792781834e-05 7.021557673296344e-06 -0.0004969677780604973 0.0 0.0
0.0 0.000637510465464063 -9.553156998121909e-05 7.751541326976547e-05 1.8016156711453593e-05 -0.0009939811758619397 0.0 0.0
0.0 0.0011489503563171227 -0.00024408921841415166 0.00019862322489662873 4.546599351752289e-05 -0.0018579769015795086 0.0 0.0
0.0 0.002037801008892351 -0.0005625352185103915 0.00045753466254724526 0.00010500055596314618 -0.00311689059076195 0.0 0.0
0.0 0.0031245619980772663 -0.0010717949441214755 0.0008790727557098948 0.00019272218841158016 -0.004708374011942664 0.0 0.0
0.0 0.004540102296501484 -0.0017498026693173207 0.0014704371685377632 0.0002793655007795566 -0.006499387515920246 0.0 0.0
0.0 0.006189940399518553 -0.002570181508598919 0.002215878064993796 0.00035430344360512056 -0.00843005760710628 0.0 0.0
0.0 0.00803409518996613 -0.003480929259093845 0.003062773602214656 0.000418155656879186 -0.010471843468056574 0.0 0.0
0.0 0.009922670868444642 -0.004363601859645918 0.003889933761673205 0.00047366809797271285 -0.012618374317566298 0.0 0.0
0.0 0.011712556193323835 -0.004976232434097559 0.0044540956070255305 0.0005221368270720234 -0.014827452328853333 0.0 0.0
0.0 0.01307406220190551 -0.004956806135037792 0.004393760343672958 0.0005630457913648331 -0.017084272715128915 0.0 0.0
0.0 0.013879620921976425 -0.004029583942319006 0.003441921764327305 0.0005876621779916992 -0.019461104383265194 0.0 0.0
0.0 0.01412046714874522 -0.0022267592532265383 0.0016697673402636917 0.0005569919129628446 -0.021584653755491456 0.0 0.0
0.0 0.013908261582192208 0.0031933095791115305 -0.003255105621680867 6.179604256933365e-05 -0.020541345327459028 0.0 0.0
0.0 0.013908261582197202 0.003193309579111249 -0.0032551056216807046 6.179604256945873e-05 0.020541345327472784 0.0 0.0
0.0 0.01412046714874913 -0.0022267592532275293 0.0016697673402645448 0.0005569919129629823 0.021584653755504488 0.0 0.0
0.0 0.013879620921969614 -0.004029583942315751 0.0034419217643237585 0.0005876621779919902 0.019461104383265433 0.0 0.0
0.0 0.013074062201893926 -0.004956806135032479 0.004393760343667822 0.0005630457913646566 0.017084272715117282 0.0 0.0
0.0 0.011712556193309794 -0.004976232434089718 0.004454095607018143 0.0005221368270715721 0.014827452328838104 0.0 0.0
0.0 0.009922670868433422 -0.004363601859640102 0.0038899337616678724 0.00047366809797222837 0.012618374317554375 0.0 0.0
0.0 0.00803409518995584 -0.003480929259088192 0.003062773602209471 0.0004181556568787206 0.010471843468046228 0.0 0.0
0.0 0.006189940399504983 -0.002570181508589951 0.002215878064985334 0.000354303443604616 0.008430057607096492 0.0 0.0
0.0 0.004540102296488083 -0.0017498026693108155 0.0014704371685317946 0.00027936550077902074 0.006499387515905791 0.0 0.0
0.0 0.0031245619980672604 -0.0010717949441168204 0.0008790727557060197 0.00019272218841080068 0.0047083740119306505 0.0 0.0
0.0 0.002037801008881389 -0.0005625352185063176 0.0004575346625439021 0.00010500055596241519 0.0031168905907496616 0.0 0.0
0.0 0.0011489503563133453 -0.00024408921841271187 0.00019862322489545874 4.5465993517253153e-05 0.0018579769015743517 0.0 0.0
0.0 0.000637510465462248 -9.553156998078904e-05 7.751541326939419e-05 1.8016156711394907e-05 0.0009939811758595265 0.0 0.0
0.0 0.0003088873596405257 -3.7228135600999555e-05 3.020657792776144e-05 7.021557673238109e-06 0.0004969677780587824 0.0 0.0
0.0 0.00013036082836034526 -1.2556082261928136e-05 1.0347356071477322e-05 2.2087261904508287e-06 0.00018942368444790716 0.0 0.0
0.0 3.6557234337904186e-05 -3.4250550488527983e-06 2.9584141789547043e-06 4.6664086989808815e-07 4.9310792021473946e-05 0.0 0.0
0.0 9.770878984877713e-06 -1.104482109426885e-06 9.71493658603145e-07 1.3298845082373921e-07 1.3298256869738628e-05 0.0 0.0
0.0 5.2174858248823015e-06 -4.7623179538614604e-07 4.0489216875230756e-07 7.133962663383908e-08 5.727972347016857e-06 0.0 0.0
0.0 2.5130778195601533e-06 -3.304555991050628e-08 1.987249841101092e-08 1.3173061499500272e-08 6.493318999659751e-07 0.0 0.0
0.0 1.2322094844498444e-05 5.34486482817367e-06 -7.740187076609822e-06 2.3953222484361533e-06 1.0827013542220747e-05 0.0 0.0
0.0 5.791226492451869e-07 -3.285152939261594e-08 4.863961923435166e-08 -1.578808984173702e-08 8.324711323925464e-08 0.0 0.0
0.0 1.5968438027292547e-06 -6.52656600612049e-08 3.806875898053215e-08 2.719690108067122e-08 -1.2387206462878254e-06 0.0 0.0
0.0 6.3410868218878e-06 -9.067731366695784e-07 7.519296561382162e-07 1.5484348053135806e-07 -7.07852535587681e-06 0.0 0.0
0.0 1.4046193780012677e-05 -2.130447396229278e-06 1.8170054090598498e-06 3.1344198716944083e-07 -1.4271468749984896e-05 0.0 0.0
0.0 4.378982665295949e-05 -1.0011343546271695e-05 8.333144745262201e-06 1.678198801009496e-06 -6.02480810080266e-05 0.0 0.0
0.0 0.000143604172007116 -3.854590342140204e-05 3.1285822843299014e-05 7.260080578103005e-06 -0.00020334195721180461 0.0 0.0
0.0 0.00042765039165269775 -0.00014895791064564233 0.00012059018801127998 2.8367722634362432e-05 -0.0006162240882726489 0.0 0.0
0.0 0.0011636578546636576 -0.0005672265107892489 0.0004655017898080383 0.00010172472098121061 -0.001653535789795644 0.0 0.0
0.0 0.0027355333295458867 -0.0016070820505743799 0.0013614591582351975 0.0002456228923391821 -0.003352446452160009 0.0 0.0
0.0 0.005011341845416478 -0.003277737078501585 0.0028788071791405107 0.00039892989936107326 -0.005444844223912349 0.0 0.0
0.0 0.007765409405116212 -0.005376903074405398 0.004861978854833877 0.0005149242195715191 -0.007727883395209966 0.0 0.0
0.0 0.010927307336358945 -0.007751159174641654 0.00715774287136224 0.0005934163032794129 -0.010045693596190843 0.0 0.0
0.0 0.014350203520216083 -0.01038271030649785 0.009728302052146275 0.0006544082543515716 -0.012368375708842135 0.0 0.0
0.0 0.018073643118283366 -0.013255612588608804 0.012548153236523035 0.0007074593520857719 -0.01467533705434751 0.0 0.0
0.0 0.021984149690263844 -0.016248091485056293 0.015489196398175423 0.0007588950868808615 -0.017039889683240245 0.0 0.0
0.0 0.025782397376050314 -0.01906579286211349 0.018257048418193568 0.0008087444439199179 -0.019536508198767948 0.0 0.0
0.0 0.029051331237035967 -0.02125043228344949 0.020399803566861222 0.0008506287165882744 -0.02224441488764393 0.0 0.0
0.0 0.031164064481186554 -0.02225550817489165 0.021377648511510652 0.0008778596633810055 -0.025071075748924 0.0 0.0
0.0 0.030464618875440518 -0.020991784024249914 0.020019502895976607 0.0009722811282732932 -0.026275284802863397 0.0 0.0
0.0 0.024273639988708785 -0.01456620438013119 0.013490075275094283 0.0010761291050368957 -0.02380745535154941 0.0 0.0
0.0 0.02427363998872241 -0.014566204380135315 0.013490075275098094 0.001076129105037217 0.023807455351582643 0.0 0.0
0.0 0.03046461887544903 -0.02099178402424806 0.020019502895974466 0.0009722811282735827 0.0262752848029072 0.0 0.0
0.0 0.031164064481182537 -0.022255508174882407 0.021377648511501854 0.0008778596633805359 0.02507107574895015 0.0 0.0
0.0 0.02905133123701438 -0.021250432283430196 0.020399803566842466 0.0008506287165877391 0.022244414887642797 0.0 0.0
0.0 0.025782397376023423 -0.019065792862092364 0.018257048418172474 0.0008087444439198916 0.01953650819875126 0.0 0.0
0.0 0.021984149690238618 -0.016248091485036878 0.015489196398156022 0.0007588950868808609 0.017039889683224136 0.0 0.0
0.0 0.018073643118260804 -0.013255612588591151 0.012548153236505596 0.0007074593520855535 0.014675337054334091 0.0 0.0
0.0 0.01435020352019201 -0.010382710306477857 0.009728302052126835 0.0006544082543510121 0.012368375708830578 0.0 0.0
0.0 0.010927307336334516 -0.007751159174623042 0.007157742871344278 0.000593416303278762 0.010045693596173851 0.0 0.0
0.0 0.007765409405092269 -0.005376903074388461 0.004861978854817717 0.0005149242195707449 0.0077278833951891345 0.0 0.0
0.0 0.005011341845396404 -0.00327773707848802 0.0028788071791279 0.00039892989936011905 0.005444844223892813 0.0 0.0
0.0 0.002735533329535063 -0.0016070820505666886 0.001361459158228335 0.0002456228923383543 0.0033524464521498083 0.0 0.0
0.0 0.001163657854657821 -0.0005672265107857668 0.00046550178980516723 0.00010172472098059946 0.0016535357897888912 0.0 0.0
0.0 0.0004276503916497236 -0.00014895791064475293 0.000120590188010585 2.836772263416795e-05 0.0006162240882695773 0.0 0.0
0.0 0.00014360417200533267 -3.8545903421244915e-05 3.128582284316443e-05 7.260080578080472e-06 0.0002033419572108773 0.0 0.0
0.0 4.3789826651782586e-05 -1.0011343546218537e-05 8.333144745219767e-06 1.678198800998754e-06 6.0248081007710966e-05 0.0 0.0
0.0 1.4046193779277649e-05 -2.1304473962872542e-06 1.8170054091090438e-06 3.1344198717821233e-07 1.4271468750354019e-05 0.0 0.0
0.0 6.341086821266177e-06 -9.067731367669763e-07 7.519296562176118e-07 1.5484348054936413e-07 7.0785253566186984e-06 0.0 0.0
0.0 1.5968438025089346e-06 -6.526566009923e-08 3.806875898669946e-08 2.7196901112530898e-08 1.238720647163793e-06 0.0 0.0
0.0 5.791226488939735e-07 -3.285152937202806e-08 4.863961920387383e-08 -1.57880898318369e-08 -8.324711318699175e-08 0.0 0.0
0.0 0.0 0.0 0.0 0.0 0.0 0.0 0.0
0.0 1.546319917433396e-06 2.096489414379388e-08 -7.102539574969584e-09 -1.3862354568826943e-08 3.138160816275471e-07 0.0 0.0
0.0 5.717687494516896e-06 -6.393363403127632e-07 5.249216286779688e-07 1.1441471163479049e-07 -3.64499443730725e-06 0.0 0.0
0.0 1.6568216342495616e-05 -3.0915527680667428e-06 2.557080064931818e-06 5.344727031349339e-07 -1.3446921807521517e-05 0.0 0.0
0.0 5.248610911694608e-05 -1.7822633988364882e-05 1.4580532812323717e-05 3.242101176041181e-06 -6.5274330315567e-05 0.0 0.0
0.0 0.00020401445380526507 -8.8919064710624e-05 7.199336635619195e-05 1.6925698354432003e-05 -0.000264390954477873 0.0 0.0
0.0 0.0008114352181575642 -0.00046303016549171085 0.00037927574773332257 8.375441775838824e-05 -0.0010146765064497577 0.0 0.0
0.0 0.002419940133746957 -0.001635009951203218 0.001386125646967977 0.00024888430423524073 -0.0026264290102424666 0.0 0.0
0.0 0.005268102287178865 -0.0038103790256817423 0.003371262919041095 0.000439116106640645 -0.004897469204900489 0.0 0.0
0.0 0.008962334169600353 -0.006820222083775373 0.006239661387264258 0.0005805606965111131 -0.007602504341536068 0.0 0.0
0.0 0.013464991086956025 -0.010389150004292642 0.009717873163455931 0.0006712768408367194 -0.010462047096448875 0.0 0.0
0.0 0.018331275893519697 -0.014387488006553458 0.013649445937738421 0.0007380420688150422 -0.01324739805534727 0.0 0.0
0.0 0.023691092347156904 -0.018800038681007283 0.01800465549890211 0.0007953831821051736 -0.015934859450112134 0.0 0.0
0.0 0.029567424601917663 -0.023636237081039724 0.022785033437679604 0.0008512036433601109 -0.018609370649432192 0.0 0.0
0.0 0.03590973877267394 -0.028786088864198117 0.027875603626255803 0.0009104852379422964 -0.0214767645533211 0.0 0.0
0.0 0.04230010176774637 -0.03391821207920657 0.03294658753158302 0.0009716245476235263 -0.02481894153703027 0.0 0.0
0.0 0.04823337033110606 -0.038452025434944734 0.037422359366286344 0.0010296660686583872 -0.028805282472384425 0.0 0.0
0.0 0.05226036969019297 -0.04142492515073258 0.0403217671811679 0.0011031579695646736 -0.03270723696311528 0.0 0.0
0.0 0.05240986177711485 -0.04100902671542028 0.03981203165293181 0.0011969950624884562 -0.0346282647955447 0.0 0.0
0.0 0.04357188545073297 -0.0334611578988175 0.03203567494938155 0.0014254829494359323 -0.030689546788777545 0.0 0.0
0.0 0.043571885450739846 -0.03346115789881519 0.0320356749493791 0.0014254829494360687 0.030689546788819945 0.0 0.0
0.0 0.05240986177711512 -0.041009026715410866 0.03981203165292259 0.001196995062488292 0.03462826479559601 0.0 0.0
0.0 0.05226036969017781 -0.04142492515071251 0.040321767181148264 0.0011031579695642002 0.032707236963149824 0.0 0.0
0.0 0.04823337033107634 -0.038452025434917 0.037422359366259275 0.0010296660686577599 0.02880528247238849 0.0 0.0
0.0 0.042300101767708764 -0.03391821207917463 0.03294658753155197 0.0009716245476226633 0.02481894153701591 0.0 0.0
0.0 0.03590973877263425 -0.028786088864165234 0.027875603626223194 0.0009104852379420345 0.021476764553303523 0.0 0.0
0.0 0.029567424601880013 -0.023636237081008822 0.0227850334376491 0.0008512036433597161 0.01860937064941301 0.0 0.0
0.0 0.023691092347119264 -0.01880003868097548 0.018004655498870648 0.000795383182104821 0.015934859450097018 0.0 0.0
0.0 0.018331275893482414 -0.0143874880065231 0.013649445937708593 0.0007380420688145048 0.013247398055326359 0.0 0.0
0.0 0.013464991086918378 -0.010389150004263305 0.009717873163426968 0.0006712768408363359 0.010462047096421791 0.0 0.0
0.0 0.008962334169568403 -0.006820222083751359 0.006239661387240561 0.0005805606965107995 0.007602504341510932 0.0 0.0
0.0 0.005268102287160837 -0.0038103790256677197 0.00337126291902782 0.00043911610663989865 0.004897469204887349 0.0 0.0
0.0 0.0024199401337343736 -0.0016350099511938288 0.001386125646959811 0.00024888430423401775 0.0026264290102320214 0.0 0.0
0.0 0.000811435218151168 -0.0004630301654882592 0.0003792757477304895 8.375441775776944e-05 0.001014676506443362 0.0 0.0
0.0 0.00020401445380278395 -8.891906471000667e-05 7.199336635569955e-05 1.6925698354307083e-05 0.0002643909544760264 0.0 0.0
0.0 5.248610911582269e-05 -1.782263398837769e-05 1.458053281233316e-05 3.2421011760444937e-06 6.527433031561797e-05 0.0 0.0
0.0 1.6568216341752782e-05 -3.0915527681770807e-06 2.5570800650232596e-06 5.344727031538093e-07 1.3446921808001326e-05 0.0 0.0
0.0 5.717687494144741e-06 -6.393363404688503e-07 5.249216288052534e-07 1.1441471166360316e-07 3.6449944382102956e-06 0.0 0.0
0.0 1.5463199168796422e-06 2.0964894136532813e-08 -7.10253957316928e-09 -1.3862354563367244e-08 -3.138160815128601e-07 0.0 0.0
0.0 0.0 0.0 0.0 0.0 0.0 0.0 0.0
0.0 0.0 0.0 0.0 0.0 0.0 0.0 0.0
0.0 3.8538157917848767e-07 8.524370000021943e-09 -5.889213621647465e-09 -2.6351563783748637e-09 7.625979648851619e-08 0.0 0.0
0.0 3.261085666844341e-06 -3.3403658479746033e-07 2.7184713571910326e-07 6.218944907835218e-08 -1.4521335458261782e-06 0.0 0.0
0.0 1.6025052896243958e-05 -4.758644388117372e-06 3.921087524178533e-06 8.375568639388328e-07 -1.5528903707458046e-05 0.0 0.0
0.0 6.758907895753882e-05 -2.955020170963727e-05 2.40557347509205e-05 5.494466958716794e-06 -7.477236745491939e-05 0.0 0.0
0.0 0.00036014893725345266 -0.00021630761817446724 0.00017566913343372602 4.063848474074119e-05 -0.00041184000166797567 0.0 0.0
0.0 0.0015106120433923276 -0.0010695033421612707 0.0008931061999107254 0.00017639714225054523 -0.0014922819581144652 0.0 0.0
0.0 0.004075562795981128 -0.003109097788412641 0.0027176417111307773 0.0003914560772818634 -0.003407436096036417 0.0 0.0
0.0 0.0081048764520926 -0.0063854733039071096 0.005815627463029907 0.0005698458408772021 -0.006023944565836223 0.0 0.0
0.0 0.013259250588208347 -0.010659084147925562 0.009973430457507312 0.0006856536904182513 -0.00910148245085577 0.0 0.0
0.0 0.019275717548930614 -0.015656528045763517 0.014890766721177404 0.0007657613245861138 -0.012264919879698855 0.0 0.0
0.0 0.025983650950231564 -0.021252521712742257 0.02041856174704574 0.0008339599656965076 -0.015284482007989857 0.0 0.0
0.0 0.03338158947511424 -0.027441780758920096 0.026545336794772334 0.0008964439641477349 -0.018176491004589023 0.0 0.0
0.0 0.04144792839328597 -0.034253436072706867 0.033294459934582084 0.000958976138124791 -0.021067222301685794 0.0 0.0
0.0 0.05021733698844792 -0.041600091893500904 0.04057417881038623 0.0010259130831146066 -0.024251189789653953 0.0 0.0
0.0 0.059317172438125426 -0.04912288378435446 0.048022844571005516 0.001100039213348922 -0.028177998340694288 0.0 0.0
0.0 0.06778082279763911 -0.05601550367753643 0.054831555193219875 0.0011839484843165341 -0.032986874059510195 0.0 0.0
0.0 0.07389283738472172 -0.060786978070836994 0.05950469503607125 0.0012822830347656935 -0.03776878658046117 0.0 0.0
0.0 0.07434402871914246 -0.0608456506788167 0.0594216527882844 0.0014239978905322458 -0.040007385153861506 0.0 0.0
0.0 0.06347489595553987 -0.0515322807020631 0.04988847098951633 0.0016438097125467998 -0.036339188727059706 0.0 0.0
0.0 0.06347489595554631 -0.05153228070206106 0.04988847098951424 0.0016438097125467937 0.03633918872710737 0.0 0.0
0.0 0.07434402871913627 -0.06084565067880204 0.05942165278826982 0.0014239978905321942 0.040007385153921424 0.0 0.0
0.0 0.07389283738470104 -0.060786978070812084 0.05950469503604685 0.0012822830347652128 0.037768786580503866 0.0 0.0
0.0 0.06778082279760056 -0.056015503677500404 0.05483155519318434 0.0011839484843160389 0.03298687405951999 0.0 0.0
0.0 0.05931717243807608 -0.04912288378431208 0.04802284457096329 0.0011000392133487726 0.028177998340681645 0.0 0.0
0.0 0.05021733698839904 -0.04160009189345959 0.0405741788103451 0.001025913083114457 0.02425118978963657 0.0 0.0
0.0 0.041447928393237465 -0.03425343607266608 0.03329445993454165 0.0009589761381244276 0.021067222301666823 0.0 0.0
0.0 0.033381589475067135 -0.027441780758879635 0.02654533679473254 0.0008964439641470957 0.018176491004574188 0.0 0.0
0.0 0.025983650950184702 -0.0212525217127029 0.02041856174700689 0.0008339599656960066 0.015284482007968277 0.0 0.0
0.0 0.019275717548886896 -0.015656528045728042 0.01489076672114232 0.000765761324585725 0.01226491987967227 0.0 0.0
0.0 0.013259250588171475 -0.010659084147896201 0.009973430457478569 0.0006856536904176277 0.00910148245083006 0.0 0.0
0.0 0.008104876452065621 -0.006385473303885706 0.005815627463009298 0.0005698458408764103 0.00602394456581929 0.0 0.0
0.0 0.0040755627959636765 -0.003109097788399064 0.0027176417111182535 0.0003914560772808085 0.003407436096024071 0.0 0.0
0.0 0.0015106120433825906 -0.0010695033421544184 0.0008931061999048326 0.0001763971422495859 0.0014922819581065006 0.0 0.0
0.0 0.0003601489372492305 -0.00021630761817250117 0.00017566913343207023 4.063848474043095e-05 0.0004118400016643761 0.0 0.0
0.0 6.758907895660786e-05 -2.955020170972068e-05 2.405573475097817e-05 5.49446695874245e-06 7.477236745502283e-05 0.0 0.0
0.0 1.6025052895846418e-05 -4.758644388423942e-06 3.921087524423229e-06 8.375568640007083e-07 1.5528903708382424e-05 0.0 0.0
0.0 3.261085666408228e-06 -3.340365849550562e-07 2.718471358460859e-07 6.218944910896833e-08 1.452133546532699e-06 0.0 0.0
0.0 3.8538157904294466e-07 8.52436999717895e-09 -5.889213619678072e-09 -2.6351563774992616e-09 -7.62597964614563e-08 0.0 0.0
0.0 0.0 0.0 0.0 0.0 0.0 0.0 0.0
0.0 0.0 0.0 0.0 0.0 0.0 0.0 0.0
0.0 0.0 0.0 0.0 0.0 0.0 0.0 0.0
0.0 1.0857256873010829e-06 -9.672067184789525e-08 7.938478295593777e-08 1.7335888891960698e-08 -3.410746757639827e-07 0.0 0.0
0.0 1.5215028994136657e-05 -3.5452528718843515e-06 2.8779692359467534e-06 6.672836359376099e-07 -8.514257209832146e-06 0.0 0.0
0.0 0.00010896591884632388 -5.412892150988031e-05 4.378423421678468e-05 1.034468729309562e-05 -9.576618347482641e-05 0.0 0.0
0.0 0.0006622295149325729 -0.0004775853378434289 0.0003911342018146516 8.645113602877741e-05 -0.0006133743336688497 0.0 0.0
0.0 0.0024861134602904445 -0.001936421064165921 0.0016523289491393335 0.00028409211502658754 -0.0018630504967816343 0.0 0.0
0.0 0.005988207268279713 -0.004848457683953617 0.004344120859053103 0.0005043368249005122 -0.0039050022735938683 0.0 0.0
0.0 0.011122863882573008 -0.009176226125454379 0.008520195687100673 0.0006560304383537077 -0.006684594877528895 0.0 0.0
0.0 0.01763754539610321 -0.014657510316507444 0.01390105072966809 0.0007564595868393557 -0.009858695847892687 0.0 0.0
0.0 0.025237122132508696 -0.021056803628928533 0.02021912339525439 0.0008376802336741476 -0.013066512312128676 0.0 0.0
0.0 0.03375196881318678 -0.02824869413204059 0.02733690879418552 0.0009117853378550812 -0.016143035755103747 0.0 0.0
0.0 0.043141634665674986 -0.03621718240039707 0.03523542115294591 0.000981761247451139 -0.01909616958419967 0.0 0.0
0.0 0.053468592606497764 -0.045001559973245266 0.04395088703367658 0.0010506729395686884 -0.022025575934686716 0.0 0.0
0.0 0.06475473756826224 -0.05455315685555458 0.05342756593290596 0.0011255909226486212 -0.025252567330527092 0.0 0.0
0.0 0.07635774487368052 -0.06447240354896679 0.06325777932504112 0.0012146242239256407 -0.029273858758777072 0.0 0.0
0.0 0.08751668830464793 -0.07367826649049504 0.07235602466232435 0.001322241828170657 -0.0343039073652525 0.0 0.0
0.0 0.09546457805698169 -0.08010585017082407 0.07865134844011187 0.0014545017307122004 -0.0394862061680005 0.0 0.0
0.0 0.09607630733358524 -0.08034941978477328 0.07872990208200133 0.0016195177027719398 -0.04250172939623049 0.0 0.0
0.0 0.08352505681100492 -0.06928932372214022 0.06747394367024603 0.0018153800518941885 -0.041253690604741496 0.0 0.0
0.0 0.08352505681100542 -0.06928932372213384 0.06747394367023939 0.0018153800518944064 0.041253690604789596 0.0 0.0
0.0 0.0960763073335706 -0.08034941978475303 0.0787299020819806 0.0016195177027724258 0.042501729396289704 0.0 0.0
0.0 0.09546457805694872 -0.08010585017079 0.07865134844007754 0.0014545017307124016 0.03948620616804348 0.0 0.0
0.0 0.08751668830459665 -0.0736782664904484 0.07235602466227792 0.0013222418281704242 0.034303907365262815 0.0 0.0
0.0 0.07635774487362104 -0.06447240354891506 0.06325777932498988 0.0012146242239251654 0.029273858758766924 0.0 0.0
0.0 0.06475473756820047 -0.05455315685550132 0.053427565932853166 0.001125590922648174 0.025252567330512198 0.0 0.0
0.0 0.05346859260643774 -0.0450015599731938 0.0439508870336257 0.0010506729395681068 0.02202557593466832 0.0 0.0
0.0 0.04314163466561692 -0.03621718240034714 0.03523542115289628 0.0009817612474508426 0.01909616958418344 0.0 0.0
0.0 0.03375196881312921 -0.02824869413199152 0.027336908794136965 0.0009117853378545492 0.016143035755082434 0.0 0.0
0.0 0.02523712213245408 -0.021056803628883004 0.020219123395209423 0.0008376802336735723 0.013066512312100608 0.0 0.0
0.0 0.017637545396055568 -0.014657510316467868 0.013901050729629126 0.0007564595868387519 0.009858695847864873 0.0 0.0
0.0 0.011122863882537564 -0.009176226125424966 0.008520195687071838 0.0006560304383531306 0.006684594877510212 0.0 0.0
0.0 0.005988207268255352 -0.0048484576839337365 0.004344120859034139 0.0005043368248995971 0.0039050022735801293 0.0 0.0
0.0 0.0024861134602764783 -0.001936421064155258 0.001652328949129841 0.0002840921150254174 0.001863050496772288 0.0 0.0
0.0 0.0006622295149266903 -0.0004775853378397346 0.0003911342018116005 8.645113602813402e-05 0.0006133743336645305 0.0 0.0
0.0 0.00010896591884456788 -5.4128921509466005e-05 4.378423421643684e-05 1.034468729302908e-05 9.576618347407928e-05 0.0 0.0
0.0 1.521502899366026e-05 -3.5452528721018408e-06 2.877969236122559e-06 6.672836359792906e-07 8.514257210371135e-06 0.0 0.0
0.0 1.0857256872674724e-06 -9.672067197153772e-08 7.938478305612295e-08 1.7335888915414024e-08 3.4107467619973205e-07 0.0 0.0
0.0 0.0 0.0 0.0 0.0 0.0 0.0 0.0
0.0 0.0 0.0 0.0 0.0 0.0 0.0 0.0
0.0 0.0 0.0 0.0 0.0 0.0 0.0 0.0
0.0 0.0 0.0 0.0 0.0 0.0 0.0 0.0
0.0 9.159772724021529e-07 5.630253744311479e-08 -4.536700834069255e-08 -1.0935529102421052e-08 1.5681455061216043e-07 0.0 0.0
0.0 1.2281111014203396e-05 -5.499327707051445e-06 4.424445901400582e-06 1.0748818056509048e-06 -1.0110234482910253e-05 0.0 0.0
0.0 0.00018043438998190258 -0.00011954252864836476 9.650553665018836e-05 2.303699199817644e-05 -0.000151345299593124 0.0 0.0
0.0 0.0011483682278651851 -0.0008933387237101736 0.0007402801963717427 0.00015305852733843133 -0.0007874943232017798 0.0 0.0
0.0 0.0037157226589498277 -0.00300976533019037 0.002623328254223007 0.00038643707596736326 -0.0020572990513400753 0.0 0.0
0.0 0.008014576597985323 -0.006774132838748947 0.006186515837485767 0.0005876170012631789 -0.004099961679570691 0.0 0.0
0.0 0.014244375244620966 -0.01208689124888436 0.01137152057784601 0.0007153706710383517 -0.006800514197527384 0.0 0.0
0.0 0.022097060888378605 -0.01874082909633601 0.017929088310480817 0.0008117407858551948 -0.009830957391175245 0.0 0.0
0.0 0.03127293673431651 -0.026533110987388274 0.025635091367424506 0.0008980196199637541 -0.012917206185389711 0.0 0.0
0.0 0.04157384627928984 -0.035324494334293174 0.03434480754312527 0.0009796867911678728 -0.015877365393479982 0.0 0.0
0.0 0.05302937304969884 -0.04507748832376392 0.04401948228818187 0.001058006035582034 -0.018730384053409276 0.0 0.0
0.0 0.06548152420707268 -0.055825333976926995 0.05469117549892899 0.0011341584779979985 -0.02155954568071043 0.0 0.0
0.0 0.07914096923826618 -0.06753377751759243 0.06631757220836407 0.001216205309228361 -0.024531230035520844 0.0 0.0
0.0 0.09355360071293767 -0.07977799208141642 0.07845902248060801 0.0013189696008083917 -0.028093875917844634 0.0 0.0
0.0 0.10691012402164987 -0.09123392896783186 0.08978297475554643 0.0014509542122853724 -0.03273597129851073 0.0 0.0
0.0 0.1164798537392002 -0.09924967944578574 0.09763740548262372 0.0016122739631619712 -0.03809841547995747 0.0 0.0
0.0 0.11751824354081378 -0.0997216284858557 0.09793109312324934 0.0017905353626062903 -0.04276815634503621 0.0 0.0
0.0 0.10402447428079188 -0.08719385246845539 0.08522175813624219 0.0019720943322131925 -0.04581286998737885 0.0 0.0
0.0 0.10402447428078941 -0.08719385246844706 0.08522175813623381 0.00197209433221319 0.04581286998742816 0.0 0.0
0.0 0.11751824354078964 -0.09972162848582841 0.09793109312322193 0.0017905353626064394 0.042768156345095065 0.0 0.0
0.0 0.11647985373916023 -0.09924967944574625 0.09763740548258493 0.0016122739631612788 0.03809841548000102 0.0 0.0
0.0 0.10691012402159517 -0.09123392896778226 0.08978297475549801 0.0014509542122842132 0.0327359712985229 0.0 0.0
0.0 0.09355360071286992 -0.07977799208135712 0.07845902248054978 0.0013189696008073042 0.02809387591783804 0.0 0.0
0.0 0.07914096923819168 -0.06753377751752777 0.06631757220830002 0.0012162053092277132 0.02453123003550993 0.0 0.0
0.0 0.06548152420699785 -0.05582533397686247 0.05469117549886478 0.001134158477997672 0.02155954568069405 0.0 0.0
0.0 0.053029373049628306 -0.045077488323702675 0.04401948228812117 0.0010580060355814668 0.01873038405339355 0.0 0.0
0.0 0.04157384627922194 -0.035324494334234645 0.03434480754306708 0.0009796867911675458 0.01587736539346047 0.0 0.0
0.0 0.03127293673425349 -0.026533110987334893 0.025635091367371517 0.0008980196199633743 0.012917206185363246 0.0 0.0
0.0 0.022097060888323656 -0.01874082909628981 0.01792908831043505 0.0008117407858547511 0.009830957391148521 0.0 0.0
0.0 0.014244375244580304 -0.012086891248849704 0.011371520577811878 0.0007153706710378289 0.006800514197509839 0.0 0.0
0.0 0.008014576597955477 -0.0067741328387236075 0.006186515837461377 0.000587617001262228 0.004099961679556833 0.0 0.0
0.0 0.00371572265893154 -0.0030097653301755438 0.0026233282542093526 0.00038643707596619227 0.0020572990513306145 0.0 0.0
0.0 0.0011483682278569068 -0.0008933387237041553 0.0007402801963665832 0.00015305852733757185 0.0007874943231967494 0.0 0.0
0.0 0.00018043438997946922 -0.00011954252864735248 9.650553664934376e-05 2.3036991998008657e-05 0.0001513452995918741 0.0 0.0
0.0 1.2281111014123675e-05 -5.49932770740639e-06 4.424445901682646e-06 1.0748818057237234e-06 1.0110234483555956e-05 0.0 0.0
0.0 9.159772720464821e-07 5.630253742091469e-08 -4.5367008322703315e-08 -1.0935529098212496e-08 -1.5681455054918204e-07 0.0 0.0
0.0 0.0 0.0 0.0 0.0 0.0 0.0 0.0
0.0 0.0 0.0 0.0 0.0 0.0 0.0 0.0
0.0 0.0 0.0 0.0 0.0 0.0 0.0 0.0
0.0 0.0 0.0 0.0 0.0 0.0 0.0 0.0
0.0 2.633745482838499e-07 1.9034837468267232e-08 -1.5232417022672714e-08 -3.80242044559584e-09 3.959451352121644e-08 0.0 0.0
0.0 1.2279924709120018e-05 -6.975814280648854e-06 5.566224241157734e-06 1.4095900394911398e-06 -9.4712970733387e-06 0.0 0.0
0.0 0.00032556744530900736 -0.0002428223712176456 0.00019646420716354314 4.635816405410254e-05 -0.00021345098418696677 0.0 0.0
0.0 0.0018198447854316428 -0.0014641671285451614 0.0012322234270279117 0.00023194370151725035 -0.0008790185610631985 0.0 0.0
0.0 0.004930062780686079 -0.004261747543093082 0.003787006224151946 0.00047474131894113835 -0.002083990753882946 0.0 0.0
0.0 0.010161601257834364 -0.008803828632332126 0.008158305962130942 0.0006455226702011853 -0.003935360493283613 0.0 0.0
0.0 0.017481299943650726 -0.015053865241010569 0.014293372575108565 0.0007604926659020028 -0.006328610868022005 0.0 0.0
0.0 0.02661211567097848 -0.022867615506819105 0.022009487464187974 0.0008581280426311507 -0.00905501103815626 0.0 0.0
0.0 0.037334453842765306 -0.03204494691458917 0.031094422715549977 0.0009505241990391772 -0.011832944871370763 0.0 0.0
0.0 0.04945621693689757 -0.04243925203061797 0.04139877335991624 0.0010404786707017112 -0.014503642075010391 0.0 0.0
0.0 0.06288472153299125 -0.05398844730363159 0.052860582262755765 0.0011278650408758117 -0.017105882882945997 0.0 0.0
0.0 0.0776490695889528 -0.06668124956319449 0.06546760201407209 0.0012136475491223624 -0.019664244592031338 0.0 0.0
0.0 0.09363236154053567 -0.08045176625631807 0.0791488703087131 0.001302895947604972 -0.02217289966298863 0.0 0.0
0.0 0.11014468196272742 -0.09486901980853987 0.09345538502426783 0.0014136347842720017 -0.02483476984890847 0.0 0.0
0.0 0.12596946448388868 -0.10847762703695069 0.10691134446076998 0.0015662825761806759 -0.028386447294736886 0.0 0.0
0.0 0.13743437438300743 -0.11817383430096472 0.11642131950648332 0.0017525147944813867 -0.03368169557604446 0.0 0.0
0.0 0.1392394410841141 -0.11921706410875925 0.11726856081712547 0.0019485032916337383 -0.040901373991711086 0.0 0.0
0.0 0.12507896324703882 -0.10564014806223272 0.10351289758861151 0.002127250473621104 -0.05003322130098604 0.0 0.0
0.0 0.12507896324703244 -0.10564014806222187 0.10351289758860047 0.0021272504736214426 0.050033221301031605 0.0 0.0
0.0 0.13923944108408234 -0.11921706410872705 0.11726856081709307 0.0019485032916339974 0.040901373991764765 0.0 0.0
0.0 0.1374343743829557 -0.1181738343009169 0.11642131950643575 0.0017525147944810332 0.033681695576082804 0.0 0.0
0.0 0.1259694644838187 -0.10847762703688904 0.10691134446070857 0.0015662825761804731 0.028386447294746306 0.0 0.0
0.0 0.11014468196264487 -0.09486901980846829 0.09345538502419631 0.0014136347842719347 0.024834769848903107 0.0 0.0
0.0 0.09363236154045591 -0.08045176625624871 0.07914887030864459 0.0013028959476041237 0.022172899662980382 0.0 0.0
0.0 0.07764906958886705 -0.06668124956312063 0.06546760201399841 0.0012136475491221431 0.019664244592016957 0.0 0.0
0.0 0.06288472153290571 -0.05398844730355775 0.05286058226268214 0.001127865040875596 0.017105882882930416 0.0 0.0
0.0 0.049456216936815435 -0.04243925203054681 0.041398773359845625 0.001040478670701212 0.014503642074992358 0.0 0.0
0.0 0.03733445384269208 -0.032044946914526085 0.031094422715487593 0.0009505241990384777 0.011832944871346182 0.0 0.0
0.0 0.026612115670915815 -0.0228676155067653 0.0220094874641348 0.000858128042630485 0.009055011038132228 0.0 0.0
0.0 0.017481299943602313 -0.015053865240968606 0.01429337257506708 0.0007604926659015313 0.006328610868006238 0.0 0.0
0.0 0.01016160125779995 -0.00880382863230222 0.008158305962101776 0.0006455226702004435 0.003935360493271057 0.0 0.0
0.0 0.00493006278066407 -0.004261747543074201 0.0037870062241341425 0.0004747413189400584 0.0020839907538743006 0.0 0.0
0.0 0.0018198447854193842 -0.0014641671285356983 0.001232223427019534 0.00023194370151616384 0.0008790185610576423 0.0 0.0
0.0 0.00032556744530568287 -0.00024282237121586243 0.00019646420716205008 4.6358164053812085e-05 0.0002134509841854425 0.0 0.0
0.0 1.2279924708982196e-05 -6.975814281134689e-06 5.566224241534805e-06 1.4095900395998954e-06 9.471297073955955e-06 0.0 0.0
0.0 2.633745479801639e-07 1.90348374459991e-08 -1.5232417004860948e-08 -3.802420441135515e-09 -3.959451347502403e-08 0.0 0.0
0.0 0.0 0.0 0.0 0.0 0.0 0.0 0.0
0.0 0.0 0.0 0.0 0.0 0.0 0.0 0.0
0.0 0.0 0.0 0.0 0.0 0.0 0.0 0.0
0.0 0.0 0.0 0.0 0.0 0.0 0.0 0.0
0.0 0.0 0.0 0.0 0.0 0.0 0.0 0.0
0.0 1.8300029884925888e-05 -1.2333874726567465e-05 9.859646047233297e-06 2.4742286793341586e-06 -1.1915721788307371e-05 0.0 0.0
0.0 0.0005856713403884216 -0.00045724631939521044 0.00037181592241181366 8.543039698339654e-05 -0.00025838401625384404 0.0 0.0
0.0 0.002607888411700127 -0.002186634691897997 0.001870431249391509 0.0003162034425064874 -0.0008626075127015246 0.0 0.0
0.0 0.006345834903009804 -0.005615051005701322 0.005070947707817347 0.0005441032978839733 -0.0018545604404744736 0.0 0.0
0.0 0.012432246859433053 -0.010878870035195281 0.010191089877064317 0.0006877801581309626 -0.0033452694943327498 0.0 0.0
0.0 0.020760126617097648 -0.018045299937210258 0.01724840587541804 0.0007968940617922071 -0.005301623613745322 0.0 0.0
0.0 0.031163155307015734 -0.027000541543950877 0.02610264844445942 0.0008978930994914514 -0.007543505351258748 0.0 0.0
0.0 0.04344157825307231 -0.03755547720720751 0.0365582664764178 0.0009972107307896763 -0.009834692941115023 0.0 0.0
0.0 0.05732645749524124 -0.04955652484431468 0.048461154080101494 0.00109537076421318 -0.012034094419392188 0.0 0.0
0.0 0.07288263895771509 -0.06291046281035195 0.061717735808117825 0.0011927270022341024 -0.014189811716708493 0.0 0.0
0.0 0.08968301854541613 -0.07754025191889242 0.07625026785093261 0.0012899840679598251 -0.016346158255616507 0.0 0.0
0.0 0.10778791740566568 -0.09326692364879896 0.09187748180232659 0.001389441846472409 -0.018308133854105128 0.0 0.0
0.0 0.12661655699733546 -0.1096003718739537 0.1080971157311933 0.001503256142760382 -0.019814918164801607 0.0 0.0
0.0 0.14457458976656418 -0.12517536487646266 0.123517486107933 0.0016578787685295985 -0.021566110111048552 0.0 0.0
0.0 0.15814872393489143 -0.1368129480067973 0.134939281609371 0.001873666397426186 -0.02618253000064605 0.0 0.0
0.0 0.16139476173173806 -0.13906606397864346 0.1369685228003557 0.002097541178287851 -0.03645931649801034 0.0 0.0
0.0 0.14739126767947955 -0.12507183748280165 0.12277798981782428 0.0022938476649772997 -0.0535999100455233 0.0 0.0
0.0 0.14739126767947072 -0.12507183748278977 0.12277798981781306 0.0022938476649767103 0.053599910045558946 0.0 0.0
0.0 0.1613947617317017 -0.1390660639786087 0.13696852280032107 0.0020975411782876256 0.03645931649805769 0.0 0.0
0.0 0.15814872393482948 -0.1368129480067417 0.13493928160931562 0.0018736663974260616 0.02618253000068108 0.0 0.0
0.0 0.14457458976648732 -0.12517536487639502 0.12351748610786696 0.001657878768528099 0.021566110111056084 0.0 0.0
0.0 0.12661655699724814 -0.10960037187387732 0.10809711573111855 0.0015032561427587615 0.01981491816479993 0.0 0.0
0.0 0.10778791740557257 -0.09326692364871791 0.09187748180224642 0.0013894418464715627 0.01830813385410081 0.0 0.0
0.0 0.08968301854532139 -0.07754025191881023 0.07625026785085114 0.0012899840679590697 0.016346158255606834 0.0 0.0
0.0 0.07288263895762204 -0.06291046281027096 0.06171773580803788 0.0011927270022331136 0.014189811716697961 0.0 0.0
0.0 0.05732645749514805 -0.04955652484423386 0.04846115408002135 0.0010953707642124835 0.01203409441938006 0.0 0.0
0.0 0.043441578252986945 -0.0375554772071336 0.03655826647634405 0.0009972107307895423 0.009834692941094826 0.0 0.0
0.0 0.03116315530694492 -0.027000541543889693 0.0261026484443984 0.0008978930994913018 0.00754350535123799 0.0 0.0
0.0 0.020760126617044388 -0.01804529993716371 0.017248405875372123 0.0007968940617915815 0.005301623613732291 0.0 0.0
0.0 0.012432246859393186 -0.010878870035160304 0.010191089877029982 0.0006877801581303223 0.0033452694943217117 0.0 0.0
0.0 0.006345834902985622 -0.005615051005679931 0.005070947707796889 0.0005441032978830448 0.0018545604404673617 0.0 0.0
0.0 0.002607888411686747 -0.0021866346918868102 0.0018704312493815147 0.0003162034425052943 0.0008626075126971717 0.0 0.0
0.0 0.0005856713403835784 -0.00045724631939190715 0.0003718159224090305 8.543039698287675e-05 0.00025838401625202713 0.0 0.0
0.0 1.83000298846696e-05 -1.23338747270681e-05 9.859646047616129e-06 2.4742286794519814e-06 1.1915721788723642e-05 0.0 0.0
0.0 0.0 0.0 0.0 0.0 0.0 0.0 0.0
0.0 0.0 0.0 0.0 0.0 0.0 0.0 0.0
0.0 0.0 0.0 0.0 0.0 0.0 0.0 0.0
0.0 0.0 0.0 0.0 0.0 0.0 0.0 0.0
0.0 0.0 0.0 0.0 0.0 0.0 0.0 0.0
0.0 0.0 0.0 0.0 0.0 0.0 0.0 0.0
0.0 4.2629570046377284e-05 -3.06777409826108e-05 2.446820489473198e-05 6.209536087878853e-06 -1.8185713806493025e-05 0.0 0.0
0.0 0.0009912262213211621 -0.0007844385022483264 0.0006447276247026635 0.00013971087754566277 -0.0002536579810809434 0.0 0.0
0.0 0.003360084548023091 -0.0030407783364550774 0.002642789475421279 0.00039798886103379683 -0.0006864947462365216 0.0 0.0
0.0 0.007893013553511888 -0.007020336524646571 0.00642614805002159 0.000594188474624985 -0.0013599942956501925 0.0 0.0
0.0 0.014747011264150282 -0.012975001224940465 0.01225418954325079 0.0007208116816896791 -0.002370884345264157 0.0 0.0
0.0 0.024059025247802106 -0.021027668622506625 0.020201087183527578 0.000826581438979039 -0.003725704787628009 0.0 0.0
0.0 0.035718199680785864 -0.031105124429535114 0.03017297528126374 0.0009321491482713707 -0.0053026880354517265 0.0 0.0
0.0 0.04952912521088708 -0.043031269050931784 0.041992392278537335 0.0010388767723944516 -0.006916929036512978 0.0 0.0
0.0 0.06534348676724468 -0.05664015118465826 0.05549455137263835 0.0011455998120199185 -0.008467392010976271 0.0 0.0
0.0 0.08272217816366798 -0.07180656897507713 0.07055341519227538 0.001253153782801746 -0.010017738257925773 0.0 0.0
0.0 0.10176409786234804 -0.08835899522565882 0.08699605748342665 0.001362937742232144 -0.011555482375114367 0.0 0.0
0.0 0.1220698747897915 -0.10596259188795584 0.10448632832293804 0.0014762635650177574 -0.012849858702155824 0.0 0.0
0.0 0.14279856727700274 -0.1239660577719097 0.1223705144848369 0.0015955432870727309 -0.013441327078918663 0.0 0.0
0.0 0.16251138874757345 -0.14111060903707281 0.13937480706723268 0.001735801969840205 -0.013301321525391164 0.0 0.0
0.0 0.17830577087950977 -0.15477751707623894 0.15284173742884288 0.0019357796473960253 -0.015410657105730275 0.0 0.0
0.0 0.18426019972144717 -0.15945454110288199 0.1572030993030879 0.0022514417997939245 -0.027861548403655585 0.0 0.0
0.0 0.17153807868721832 -0.1461585202166153 0.14366970678935553 0.0024888134272596724 -0.05572244542104922 0.0 0.0
0.0 0.17153807868720267 -0.1461585202165995 0.1436697067893396 0.002488813427259902 0.05572244542107354 0.0 0.0
0.0 0.18426019972139973 -0.15945454110283908 0.1572030993030454 0.0022514417997935654 0.027861548403692087 0.0 0.0
0.0 0.178305770879436 -0.15477751707617401 0.1528417374287789 0.0019357796473951866 0.015410657105756563 0.0 0.0
0.0 0.162511388747484 -0.1411106090369947 0.13937480706715555 0.0017358019698391863 0.01330132152539442 0.0 0.0
0.0 0.14279856727690177 -0.12396605777182171 0.12237051448475039 0.0015955432870713515 0.013441327078915717 0.0 0.0
0.0 0.12206987478968721 -0.10596259188786471 0.10448632832284871 0.0014762635650160034 0.012849858702153875 0.0 0.0
0.0 0.10176409786224248 -0.08835899522556703 0.08699605748333593 0.0013629377422310668 0.011555482375109333 0.0 0.0
0.0 0.08272217816356203 -0.07180656897498525 0.07055341519218408 0.0012531537828011693 0.010017738257918272 0.0 0.0
0.0 0.06534348676714413 -0.05664015118457055 0.05549455137255162 0.0011455998120189234 0.008467392010969122 0.0 0.0
0.0 0.04952912521079454 -0.04303126905085131 0.04199239227845798 0.0010388767723933303 0.006916929036497835 0.0 0.0
0.0 0.03571819968070783 -0.031105124429467175 0.030172975281196623 0.0009321491482705657 0.005302688035436785 0.0 0.0
0.0 0.02405902524773906 -0.021027668622451146 0.020201087183472743 0.000826581438978399 0.003725704787619485 0.0 0.0
0.0 0.014747011264104696 -0.012975001224900267 0.012254189543211207 0.0007208116816890529 0.0023708843452568333 0.0 0.0
0.0 0.00789301355348385 -0.007020336524621407 0.006426148049997332 0.000594188474624073 0.0013599942956450566 0.0 0.0
0.0 0.003360084548007718 -0.0030407783364412152 0.0026427894754085545 0.0003979888610326604 0.0006864947462333862 0.0 0.0
0.0 0.0009912262213146693 -0.0007844385022434277 0.0006447276246985306 0.0001397108775448966 0.00025365798107965015 0.0 0.0
0.0 4.2629570045616025e-05 -3.067774098282013e-05 2.4468204894871313e-05 6.20953608794877e-06 1.8185713806531796e-05 0.0 0.0
0.0 0.0 0.0 0.0 0.0 0.0 0.0 0.0
0.0 0.0 0.0 0.0 0.0 0.0 0.0 0.0
0.0 0.0 0.0 0.0 0.0 0.0 0.0 0.0
0.0 0.0 0.0 0.0 0.0 0.0 0.0 0.0
0.0 0.0 0.0 0.0 0.0 0.0 0.0 0.0
0.0 0.0 0.0 0.0 0.0 0.0 0.0 0.0
0.0 0.00012142474331300852 -9.932237587624552e-05 7.886104609172107e-05 2.0461329784524548e-05 -2.4927409795535773e-05 0.0 0.0
0.0 0.0015493881765880058 -0.0012219896785641909 0.001016174722374905 0.00020581495618928543 -0.00015527316108485681 0.0 0.0
0.0 0.004369943357598883 -0.003954348056284224 0.003488338659784373 0.0004660093964998523 -0.0003255246261079066 0.0 0.0
0.0 0.009494673053647814 -0.008456576622472147 0.007824061199592957 0.0006325154228791893 -0.0005993465806896664 0.0 0.0
0.0 0.017101936721321646 -0.01506263954030614 0.014316082378191295 0.0007465571621148358 -0.0010156417993563125 0.0 0.0
0.0 0.027377990517790655 -0.02396794228881097 0.02311651904873063 0.0008514232400803352 -0.0016094767863040506 0.0 0.0
0.0 0.04030378138921589 -0.03514589340098055 0.03418428227362082 0.0009616111273597248 -0.002330002010495368 0.0 0.0
0.0 0.05572190134449446 -0.04843936821195571 0.04736351488140288 0.0010758533305528415 -0.0030804612171893065 0.0 0.0
0.0 0.0731332981586836 -0.0636637704588657 0.06247180427448964 0.0011919661843760579 -0.0038201373444076417 0.0 0.0
0.0 0.09262539134108594 -0.08062781467774116 0.07931813615634209 0.0013096785213990829 -0.004552540025568408 0.0 0.0
0.0 0.11389925780118962 -0.09907715908303362 0.09764561310733968 0.0014315459756938963 -0.005237843399452146 0.0 0.0
0.0 0.13632593935104337 -0.11852872427422613 0.11696921174744263 0.0015595125267835895 -0.0057399166746035 0.0 0.0
0.0 0.15889808048956122 -0.13809157037678121 0.13639936450989817 0.0016922058668830179 -0.0057319704895495765 0.0 0.0
0.0 0.17997442664565344 -0.15637186398174566 0.1545459546017463 0.001825909379999366 -0.004786253123896347 0.0 0.0
0.0 0.19718949559029497 -0.17133438642553026 0.1693614679061499 0.0019729185193801888 -0.0036827614447083566 0.0 0.0
0.0 0.2066282748115902 -0.17934697815681075 0.17713913865576814 0.00220783950104244 -0.011321059635574605 0.0 0.0
0.0 0.19915024930391442 -0.17073056937451098 0.167867981405199 0.0028625879693118883 -0.05141652715249216 0.0 0.0
0.0 0.19915024930389916 -0.17073056937449677 0.16786798140518533 0.002862587969311328 0.051416527152500585 0.0 0.0
0.0 0.2066282748115364 -0.17934697815676406 0.17713913865572106 0.002207839501042869 0.01132105963559442 0.0 0.0
0.0 0.19718949559021132 -0.17133438642545779 0.1693614679060776 0.0019729185193801467 0.003682761444720451 0.0 0.0
0.0 0.17997442664554816 -0.15637186398165465 0.1545459546016554 0.0018259093799992342 0.004786253123894456 0.0 0.0
0.0 0.15889808048944226 -0.1380915703766784 0.13639936450979517 0.0016922058668831352 0.005731970489547357 0.0 0.0
0.0 0.13632593935092127 -0.1185287242741208 0.11696921174733668 0.0015595125267840561 0.0057399166746035755 0.0 0.0
0.0 0.11389925780107088 -0.09907715908293056 0.09764561310723738 0.0014315459756931454 0.005237843399449025 0.0 0.0
0.0 0.09262539134096583 -0.08062781467763691 0.07931813615623866 0.0013096785213982285 0.004552540025564558 0.0 0.0
0.0 0.07313329815856734 -0.06366377045876481 0.0624718042743895 0.0011919661843752915 0.0038201373444050196 0.0 0.0
0.0 0.055721901344393254 -0.04843936821186764 0.04736351488131564 0.0010758533305519939 0.0030804612171819786 0.0 0.0
0.0 0.04030378138912944 -0.035145893400905584 0.034184282273546474 0.0009616111273591189 0.002330002010488509 0.0 0.0
0.0 0.027377990517721502 -0.023967942288750443 0.023116519048670542 0.0008514232400798955 0.0016094767863006967 0.0 0.0
0.0 0.01710193672127203 -0.015062639540262192 0.014316082378147854 0.0007465571621143283 0.0010156417993531254 0.0 0.0
0.0 0.009494673053615111 -0.008456576622442999 0.007824061199564396 0.000632515422878601 0.0005993465806877329 0.0 0.0
0.0 0.004369943357581338 -0.003954348056268155 0.0034883386597690785 0.0004660093964990759 0.0003255246261061897 0.0 0.0
0.0 0.001549388176579923 -0.001221989678557895 0.0010161747223694439 0.00020581495618845168 0.00015527316108436984 0.0 0.0
0.0 0.00012142474331159733 -9.932237587565345e-05 7.886104609122109e-05 2.0461329784432275e-05 2.4927409795319132e-05 0.0 0.0
0.0 0.0 0.0 0.0 0.0 0.0 0.0 0.0
0.0 0.0 0.0 0.0 0.0 0.0 0.0 0.0
0.0 0.0 0.0 0.0 0.0 0.0 0.0 0.0