# vtk DataFile Version 3.0
Some data
ASCII
DATASET UNSTRUCTURED_GRID
POINTS 861 float
0.0 0.0 0.0
0.4 0.0 0.0
0.8 0.0 0.0
1.2000000000000002 0.0 0.0
1.6 0.0 0.0
2.0 0.0 0.0
2.4000000000000004 0.0 0.0
2.8000000000000003 0.0 0.0
3.2 0.0 0.0
3.6 0.0 0.0
4.0 0.0 0.0
4.4 0.0 0.0
4.800000000000001 0.0 0.0
5.2 0.0 0.0
5.6000000000000005 0.0 0.0
6.0 0.0 0.0
6.4 0.0 0.0
6.800000000000001 0.0 0.0
7.2 0.0 0.0
7.6000000000000005 0.0 0.0
8.0 0.0 0.0
8.4 0.0 0.0
8.8 0.0 0.0
9.200000000000001 0.0 0.0
9.600000000000001 0.0 0.0
10.0 0.0 0.0
10.4 0.0 0.0
10.8 0.0 0.0
11.200000000000001 0.0 0.0
11.600000000000001 0.0 0.0
12.0 0.0 0.0
12.4 0.0 0.0
12.8 0.0 0.0
13.200000000000001 0.0 0.0
13.600000000000001 0.0 0.0
14.0 0.0 0.0
14.4 0.0 0.0
14.8 0.0 0.0
15.200000000000001 0.0 0.0
15.600000000000001 0.0 0.0
16.0 0.0 0.0
0.0 0.1 0.0
0.4 0.1 0.0
0.8 0.1 0.0
1.2000000000000002 0.1 0.0
1.6 0.1 0.0
2.0 0.1 0.0
2.4000000000000004 0.1 0.0
2.8000000000000003 0.1 0.0
3.2 0.1 0.0
3.6 0.1 0.0
4.0 0.1 0.0
4.4 0.1 0.0
4.800000000000001 0.1 0.0
5.2 0.1 0.0
5.6000000000000005 0.1 0.0
6.0 0.1 0.0
6.4 0.1 0.0
6.800000000000001 0.1 0.0
7.2 0.1 0.0
7.6000000000000005 0.1 0.0
8.0 0.1 0.0
8.4 0.1 0.0
8.8 0.1 0.0
9.200000000000001 0.1 0.0
9.600000000000001 0.1 0.0
10.0 0.1 0.0
10.4 0.1 0.0
10.8 0.1 0.0
11.200000000000001 0.1 0.0
11.600000000000001 0.1 0.0
12.0 0.1 0.0
12.4 0.1 0.0
12.8 0.1 0.0
13.200000000000001 0.1 0.0
13.600000000000001 0.1 0.0
14.0 0.1 0.0
14.4 0.1 0.0
14.8 0.1 0.0
15.200000000000001 0.1 0.0
15.600000000000001 0.1 0.0
16.0 0.1 0.0
0.0 0.2 0.0
0.4 0.2 0.0
0.8 0.2 0.0
1.2000000000000002 0.2 0.0
1.6 0.2 0.0
2.0 0.2 0.0
2.4000000000000004 0.2 0.0
2.8000000000000003 0.2 0.0
3.2 0.2 0.0
3.6 0.2 0.0
4.0 0.2 0.0
4.4 0.2 0.0
4.800000000000001 0.2 0.0
5.2 0.2 0.0
5.6000000000000005 0.2 0.0
6.0 0.2 0.0
6.4 0.2 0.0
6.800000000000001 0.2 0.0
7.2 0.2 0.0
7.6000000000000005 0.2 0.0
8.0 0.2 0.0
8.4 0.2 0.0
8.8 0.2 0.0
9.200000000000001 0.2 0.0
9.600000000000001 0.2 0.0
10.0 0.2 0.0
10.4 0.2 0.0
10.8 0.2 0.0
11.200000000000001 0.2 0.0
11.600000000000001 0.2 0.0
12.0 0.2 0.0
12.4 0.2 0.0
12.8 0.2 0.0
13.200000000000001 0.2 0.0
13.600000000000001 0.2 0.0
14.0 0.2 0.0
14.4 0.2 0.0
14.8 0.2 0.0
15.200000000000001 0.2 0.0
15.600000000000001 0.2 0.0
16.0 0.2 0.0
0.0 0.30000000000000004 0.0
0.4 0.30000000000000004 0.0
0.8 0.30000000000000004 0.0
1.2000000000000002 0.30000000000000004 0.0
1.6 0.30000000000000004 0.0
2.0 0.30000000000000004 0.0
2.4000000000000004 0.30000000000000004 0.0
2.8000000000000003 0.30000000000000004 0.0
3.2 0.30000000000000004 0.0
3.6 0.30000000000000004 0.0
4.0 0.30000000000000004 0.0
4.4 0.30000000000000004 0.0
4.800000000000001 0.30000000000000004 0.0
5.2 0.30000000000000004 0.0
5.6000000000000005 0.30000000000000004 0.0
6.0 0.30000000000000004 0.0
6.4 0.30000000000000004 0.0
6.800000000000001 0.30000000000000004 0.0
7.2 0.30000000000000004 0.0
7.6000000000000005 0.30000000000000004 0.0
8.0 0.30000000000000004 0.0
8.4 0.30000000000000004 0.0
8.8 0.30000000000000004 0.0
9.200000000000001 0.30000000000000004 0.0
9.600000000000001 0.30000000000000004 0.0
10.0 0.30000000000000004 0.0
10.4 0.30000000000000004 0.0
10.8 0.30000000000000004 0.0
11.200000000000001 0.30000000000000004 0.0
11.600000000000001 0.30000000000000004 0.0
12.0 0.30000000000000004 0.0
12.4 0.30000000000000004 0.0
12.8 0.30000000000000004 0.0
13.200000000000001 0.30000000000000004 0.0
13.600000000000001 0.30000000000000004 0.0
14.0 0.30000000000000004 0.0
14.4 0.30000000000000004 0.0
14.8 0.30000000000000004 0.0
15.200000000000001 0.30000000000000004 0.0
15.600000000000001 0.30000000000000004 0.0
16.0 0.30000000000000004 0.0
0.0 0.4 0.0
0.4 0.4 0.0
0.8 0.4 0.0
1.2000000000000002 0.4 0.0
1.6 0.4 0.0
2.0 0.4 0.0
2.4000000000000004 0.4 0.0
2.8000000000000003 0.4 0.0
3.2 0.4 0.0
3.6 0.4 0.0
4.0 0.4 0.0
4.4 0.4 0.0
4.800000000000001 0.4 0.0
5.2 0.4 0.0
5.6000000000000005 0.4 0.0
6.0 0.4 0.0
6.4 0.4 0.0
6.800000000000001 0.4 0.0
7.2 0.4 0.0
7.6000000000000005 0.4 0.0
8.0 0.4 0.0
8.4 0.4 0.0
8.8 0.4 0.0
9.200000000000001 0.4 0.0
9.600000000000001 0.4 0.0
10.0 0.4 0.0
10.4 0.4 0.0
10.8 0.4 0.0
11.200000000000001 0.4 0.0
11.600000000000001 0.4 0.0
12.0 0.4 0.0
12.4 0.4 0.0
12.8 0.4 0.0
13.200000000000001 0.4 0.0
13.600000000000001 0.4 0.0
14.0 0.4 0.0
14.4 0.4 0.0
14.8 0.4 0.0
15.200000000000001 0.4 0.0
15.600000000000001 0.4 0.0
16.0 0.4 0.0
0.0 0.5 0.0
0.4 0.5 0.0
0.8 0.5 0.0
1.2000000000000002 0.5 0.0
1.6 0.5 0.0
2.0 0.5 0.0
2.4000000000000004 0.5 0.0
2.8000000000000003 0.5 0.0
3.2 0.5 0.0
3.6 0.5 0.0
4.0 0.5 0.0
4.4 0.5 0.0
4.800000000000001 0.5 0.0
5.2 0.5 0.0
5.6000000000000005 0.5 0.0
6.0 0.5 0.0
6.4 0.5 0.0
6.800000000000001 0.5 0.0
7.2 0.5 0.0
7.6000000000000005 0.5 0.0
8.0 0.5 0.0
8.4 0.5 0.0
8.8 0.5 0.0
9.200000000000001 0.5 0.0
9.600000000000001 0.5 0.0
10.0 0.5 0.0
10.4 0.5 0.0
10.8 0.5 0.0
11.200000000000001 0.5 0.0
11.600000000000001 0.5 0.0
12.0 0.5 0.0
12.4 0.5 0.0
12.8 0.5 0.0
13.200000000000001 0.5 0.0
13.600000000000001 0.5 0.0
14.0 0.5 0.0
14.4 0.5 0.0
14.8 0.5 0.0
15.200000000000001 0.5 0.0
15.600000000000001 0.5 0.0
16.0 0.5 0.0
0.0 0.6000000000000001 0.0
0.4 0.6000000000000001 0.0
0.8 0.6000000000000001 0.0
1.2000000000000002 0.6000000000000001 0.0
1.6 0.6000000000000001 0.0
2.0 0.6000000000000001 0.0
2.4000000000000004 0.6000000000000001 0.0
2.8000000000000003 0.6000000000000001 0.0
3.2 0.6000000000000001 0.0
3.6 0.6000000000000001 0.0
4.0 0.6000000000000001 0.0
4.4 0.6000000000000001 0.0
4.800000000000001 0.6000000000000001 0.0
5.2 0.6000000000000001 0.0
5.6000000000000005 0.6000000000000001 0.0
6.0 0.6000000000000001 0.0
6.4 0.6000000000000001 0.0
6.800000000000001 0.6000000000000001 0.0
7.2 0.6000000000000001 0.0
7.6000000000000005 0.6000000000000001 0.0
8.0 0.6000000000000001 0.0
8.4 0.6000000000000001 0.0
8.8 0.6000000000000001 0.0
9.200000000000001 0.6000000000000001 0.0
9.600000000000001 0.6000000000000001 0.0
10.0 0.6000000000000001 0.0
10.4 0.6000000000000001 0.0
10.8 0.6000000000000001 0.0
11.200000000000001 0.6000000000000001 0.0
11.600000000000001 0.6000000000000001 0.0
12.0 0.6000000000000001 0.0
12.4 0.6000000000000001 0.0
12.8 0.6000000000000001 0.0
13.200000000000001 0.6000000000000001 0.0
13.600000000000001 0.6000000000000001 0.0
14.0 0.6000000000000001 0.0
14.4 0.6000000000000001 0.0
14.8 0.6000000000000001 0.0
15.200000000000001 0.6000000000000001 0.0
15.600000000000001 0.6000000000000001 0.0
16.0 0.6000000000000001 0.0
0.0 0.7000000000000001 0.0
0.4 0.7000000000000001 0.0
0.8 0.7000000000000001 0.0
1.2000000000000002 0.7000000000000001 0.0
1.6 0.7000000000000001 0.0
2.0 0.7000000000000001 0.0
2.4000000000000004 0.7000000000000001 0.0
2.8000000000000003 0.7000000000000001 0.0
3.2 0.7000000000000001 0.0
3.6 0.7000000000000001 0.0
4.0 0.7000000000000001 0.0
4.4 0.7000000000000001 0.0
4.800000000000001 0.7000000000000001 0.0
5.2 0.7000000000000001 0.0
5.6000000000000005 0.7000000000000001 0.0
6.0 0.7000000000000001 0.0
6.4 0.7000000000000001 0.0
6.800000000000001 0.7000000000000001 0.0
7.2 0.7000000000000001 0.0
7.6000000000000005 0.7000000000000001 0.0
8.0 0.7000000000000001 0.0
8.4 0.7000000000000001 0.0
8.8 0.7000000000000001 0.0
9.200000000000001 0.7000000000000001 0.0
9.600000000000001 0.7000000000000001 0.0
10.0 0.7000000000000001 0.0
10.4 0.7000000000000001 0.0
10.8 0.7000000000000001 0.0
11.200000000000001 0.7000000000000001 0.0
11.600000000000001 0.7000000000000001 0.0
12.0 0.7000000000000001 0.0
12.4 0.7000000000000001 0.0
12.8 0.7000000000000001 0.0
13.200000000000001 0.7000000000000001 0.0
13.600000000000001 0.7000000000000001 0.0
14.0 0.7000000000000001 0.0
14.4 0.7000000000000001 0.0
14.8 0.7000000000000001 0.0
15.200000000000001 0.7000000000000001 0.0
15.600000000000001 0.7000000000000001 0.0
16.0 0.7000000000000001 0.0
0.0 0.8 0.0
0.4 0.8 0.0
0.8 0.8 0.0
1.2000000000000002 0.8 0.0
1.6 0.8 0.0
2.0 0.8 0.0
2.4000000000000004 0.8 0.0
2.8000000000000003 0.8 0.0
3.2 0.8 0.0
3.6 0.8 0.0
4.0 0.8 0.0
4.4 0.8 0.0
4.800000000000001 0.8 0.0
5.2 0.8 0.0
5.6000000000000005 0.8 0.0
6.0 0.8 0.0
6.4 0.8 0.0
6.800000000000001 0.8 0.0
7.2 0.8 0.0
7.6000000000000005 0.8 0.0
8.0 0.8 0.0
8.4 0.8 0.0
8.8 0.8 0.0
9.200000000000001 0.8 0.0
9.600000000000001 0.8 0.0
10.0 0.8 0.0
10.4 0.8 0.0
10.8 0.8 0.0
11.200000000000001 0.8 0.0
11.600000000000001 0.8 0.0
12.0 0.8 0.0
12.4 0.8 0.0
12.8 0.8 0.0
13.200000000000001 0.8 0.0
13.600000000000001 0.8 0.0
14.0 0.8 0.0
14.4 0.8 0.0
14.8 0.8 0.0
15.200000000000001 0.8 0.0
15.600000000000001 0.8 0.0
16.0 0.8 0.0
0.0 0.9 0.0
0.4 0.9 0.0
0.8 0.9 0.0
1.2000000000000002 0.9 0.0
1.6 0.9 0.0
2.0 0.9 0.0
2.4000000000000004 0.9 0.0
2.8000000000000003 0.9 0.0
3.2 0.9 0.0
3.6 0.9 0.0
4.0 0.9 0.0
4.4 0.9 0.0
4.800000000000001 0.9 0.0
5.2 0.9 0.0
5.6000000000000005 0.9 0.0
6.0 0.9 0.0
6.4 0.9 0.0
6.800000000000001 0.9 0.0
7.2 0.9 0.0
7.6000000000000005 0.9 0.0
8.0 0.9 0.0
8.4 0.9 0.0
8.8 0.9 0.0
9.200000000000001 0.9 0.0
9.600000000000001 0.9 0.0
10.0 0.9 0.0
10.4 0.9 0.0
10.8 0.9 0.0
11.200000000000001 0.9 0.0
11.600000000000001 0.9 0.0
12.0 0.9 0.0
12.4 0.9 0.0
12.8 0.9 0.0
13.200000000000001 0.9 0.0
13.600000000000001 0.9 0.0
14.0 0.9 0.0
14.4 0.9 0.0
14.8 0.9 0.0
15.200000000000001 0.9 0.0
15.600000000000001 0.9 0.0
16.0 0.9 0.0
0.0 1.0 0.0
0.4 1.0 0.0
0.8 1.0 0.0
1.2000000000000002 1.0 0.0
1.6 1.0 0.0
2.0 1.0 0.0
2.4000000000000004 1.0 0.0
2.8000000000000003 1.0 0.0
3.2 1.0 0.0
3.6 1.0 0.0
4.0 1.0 0.0
4.4 1.0 0.0
4.800000000000001 1.0 0.0
5.2 1.0 0.0
5.6000000000000005 1.0 0.0
6.0 1.0 0.0
6.4 1.0 0.0
6.800000000000001 1.0 0.0
7.2 1.0 0.0
7.6000000000000005 1.0 0.0
8.0 1.0 0.0
8.4 1.0 0.0
8.8 1.0 0.0
9.200000000000001 1.0 0.0
9.600000000000001 1.0 0.0
10.0 1.0 0.0
10.4 1.0 0.0
10.8 1.0 0.0
11.200000000000001 1.0 0.0
11.600000000000001 1.0 0.0
12.0 1.0 0.0
12.4 1.0 0.0
12.8 1.0 0.0
13.200000000000001 1.0 0.0
13.600000000000001 1.0 0.0
14.0 1.0 0.0
14.4 1.0 0.0
14.8 1.0 0.0
15.200000000000001 1.0 0.0
15.600000000000001 1.0 0.0
16.0 1.0 0.0
0.0 1.1 0.0
0.4 1.1 0.0
0.8 1.1 0.0
1.2000000000000002 1.1 0.0
1.6 1.1 0.0
2.0 1.1 0.0
2.4000000000000004 1.1 0.0
2.8000000000000003 1.1 0.0
3.2 1.1 0.0
3.6 1.1 0.0
4.0 1.1 0.0
4.4 1.1 0.0
4.800000000000001 1.1 0.0
5.2 1.1 0.0
5.6000000000000005 1.1 0.0
6.0 1.1 0.0
6.4 1.1 0.0
6.800000000000001 1.1 0.0
7.2 1.1 0.0
7.6000000000000005 1.1 0.0
8.0 1.1 0.0
8.4 1.1 0.0
8.8 1.1 0.0
9.200000000000001 1.1 0.0
9.600000000000001 1.1 0.0
10.0 1.1 0.0
10.4 1.1 0.0
10.8 1.1 0.0
11.200000000000001 1.1 0.0
11.600000000000001 1.1 0.0
12.0 1.1 0.0
12.4 1.1 0.0
12.8 1.1 0.0
13.200000000000001 1.1 0.0
13.600000000000001 1.1 0.0
14.0 1.1 0.0
14.4 1.1 0.0
14.8 1.1 0.0
15.200000000000001 1.1 0.0
15.600000000000001 1.1 0.0
16.0 1.1 0.0
0.0 1.2000000000000002 0.0
0.4 1.2000000000000002 0.0
0.8 1.2000000000000002 0.0
1.2000000000000002 1.2000000000000002 0.0
1.6 1.2000000000000002 0.0
2.0 1.2000000000000002 0.0
2.4000000000000004 1.2000000000000002 0.0
2.8000000000000003 1.2000000000000002 0.0
3.2 1.2000000000000002 0.0
3.6 1.2000000000000002 0.0
4.0 1.2000000000000002 0.0
4.4 1.2000000000000002 0.0
4.800000000000001 1.2000000000000002 0.0
5.2 1.2000000000000002 0.0
5.6000000000000005 1.2000000000000002 0.0
6.0 1.2000000000000002 0.0
6.4 1.2000000000000002 0.0
6.800000000000001 1.2000000000000002 0.0
7.2 1.2000000000000002 0.0
7.6000000000000005 1.2000000000000002 0.0
8.0 1.2000000000000002 0.0
8.4 1.2000000000000002 0.0
8.8 1.2000000000000002 0.0
9.200000000000001 1.2000000000000002 0.0
9.600000000000001 1.2000000000000002 0.0
10.0 1.2000000000000002 0.0
10.4 1.2000000000000002 0.0
10.8 1.2000000000000002 0.0
11.200000000000001 1.2000000000000002 0.0
11.600000000000001 1.2000000000000002 0.0
12.0 1.2000000000000002 0.0
12.4 1.2000000000000002 0.0
12.8 1.2000000000000002 0.0
13.200000000000001 1.2000000000000002 0.0
13.600000000000001 1.2000000000000002 0.0
14.0 1.2000000000000002 0.0
14.4 1.2000000000000002 0.0
14.8 1.2000000000000002 0.0
15.200000000000001 1.2000000000000002 0.0
15.600000000000001 1.2000000000000002 0.0
16.0 1.2000000000000002 0.0
0.0 1.3 0.0
0.4 1.3 0.0
0.8 1.3 0.0
1.2000000000000002 1.3 0.0
1.6 1.3 0.0
2.0 1.3 0.0
2.4000000000000004 1.3 0.0
2.8000000000000003 1.3 0.0
3.2 1.3 0.0
3.6 1.3 0.0
4.0 1.3 0.0
4.4 1.3 0.0
4.800000000000001 1.3 0.0
5.2 1.3 0.0
5.6000000000000005 1.3 0.0
6.0 1.3 0.0
6.4 1.3 0.0
6.800000000000001 1.3 0.0
7.2 1.3 0.0
7.6000000000000005 1.3 0.0
8.0 1.3 0.0
8.4 1.3 0.0
8.8 1.3 0.0
9.200000000000001 1.3 0.0
9.600000000000001 1.3 0.0
10.0 1.3 0.0
10.4 1.3 0.0
10.8 1.3 0.0
11.200000000000001 1.3 0.0
11.600000000000001 1.3 0.0
12.0 1.3 0.0
12.4 1.3 0.0
12.8 1.3 0.0
13.200000000000001 1.3 0.0
13.600000000000001 1.3 0.0
14.0 1.3 0.0
14.4 1.3 0.0
14.8 1.3 0.0
15.200000000000001 1.3 0.0
15.600000000000001 1.3 0.0
16.0 1.3 0.0
0.0 1.4000000000000001 0.0
0.4 1.4000000000000001 0.0
0.8 1.4000000000000001 0.0
1.2000000000000002 1.4000000000000001 0.0
1.6 1.4000000000000001 0.0
2.0 1.4000000000000001 0.0
2.4000000000000004 1.4000000000000001 0.0
2.8000000000000003 1.4000000000000001 0.0
3.2 1.4000000000000001 0.0
3.6 1.4000000000000001 0.0
4.0 1.4000000000000001 0.0
4.4 1.4000000000000001 0.0
4.800000000000001 1.4000000000000001 0.0
5.2 1.4000000000000001 0.0
5.6000000000000005 1.4000000000000001 0.0
6.0 1.4000000000000001 0.0
6.4 1.4000000000000001 0.0
6.800000000000001 1.4000000000000001 0.0
7.2 1.4000000000000001 0.0
7.6000000000000005 1.4000000000000001 0.0
8.0 1.4000000000000001 0.0
8.4 1.4000000000000001 0.0
8.8 1.4000000000000001 0.0
9.200000000000001 1.4000000000000001 0.0
9.600000000000001 1.4000000000000001 0.0
10.0 1.4000000000000001 0.0
10.4 1.4000000000000001 0.0
10.8 1.4000000000000001 0.0
11.200000000000001 1.4000000000000001 0.0
11.600000000000001 1.4000000000000001 0.0
12.0 1.4000000000000001 0.0
12.4 1.4000000000000001 0.0
12.8 1.4000000000000001 0.0
13.200000000000001 1.4000000000000001 0.0
13.600000000000001 1.4000000000000001 0.0
14.0 1.4000000000000001 0.0
14.4 1.4000000000000001 0.0
14.8 1.4000000000000001 0.0
15.200000000000001 1.4000000000000001 0.0
15.600000000000001 1.4000000000000001 0.0
16.0 1.4000000000000001 0.0
0.0 1.5 0.0
0.4 1.5 0.0
0.8 1.5 0.0
1.2000000000000002 1.5 0.0
1.6 1.5 0.0
2.0 1.5 0.0
2.4000000000000004 1.5 0.0
2.8000000000000003 1.5 0.0
3.2 1.5 0.0
3.6 1.5 0.0
4.0 1.5 0.0
4.4 1.5 0.0
4.800000000000001 1.5 0.0
5.2 1.5 0.0
5.6000000000000005 1.5 0.0
6.0 1.5 0.0
6.4 1.5 0.0
6.800000000000001 1.5 0.0
7.2 1.5 0.0
7.6000000000000005 1.5 0.0
8.0 1.5 0.0
8.4 1.5 0.0
8.8 1.5 0.0
9.200000000000001 1.5 0.0
9.600000000000001 1.5 0.0
10.0 1.5 0.0
10.4 1.5 0.0
10.8 1.5 0.0
11.200000000000001 1.5 0.0
11.600000000000001 1.5 0.0
12.0 1.5 0.0
12.4 1.5 0.0
12.8 1.5 0.0
13.200000000000001 1.5 0.0
13.600000000000001 1.5 0.0
14.0 1.5 0.0
14.4 1.5 0.0
14.8 1.5 0.0
15.200000000000001 1.5 0.0
15.600000000000001 1.5 0.0
16.0 1.5 0.0
0.0 1.6 0.0
0.4 1.6 0.0
0.8 1.6 0.0
1.2000000000000002 1.6 0.0
1.6 1.6 0.0
2.0 1.6 0.0
2.4000000000000004 1.6 0.0
2.8000000000000003 1.6 0.0
3.2 1.6 0.0
3.6 1.6 0.0
4.0 1.6 0.0
4.4 1.6 0.0
4.800000000000001 1.6 0.0
5.2 1.6 0.0
5.6000000000000005 1.6 0.0
6.0 1.6 0.0
6.4 1.6 0.0
6.800000000000001 1.6 0.0
7.2 1.6 0.0
7.6000000000000005 1.6 0.0
8.0 1.6 0.0
8.4 1.6 0.0
8.8 1.6 0.0
9.200000000000001 1.6 0.0
9.600000000000001 1.6 0.0
10.0 1.6 0.0
10.4 1.6 0.0
10.8 1.6 0.0
11.200000000000001 1.6 0.0
11.600000000000001 1.6 0.0
12.0 1.6 0.0
12.4 1.6 0.0
12.8 1.6 0.0
13.200000000000001 1.6 0.0
13.600000000000001 1.6 0.0
14.0 1.6 0.0
14.4 1.6 0.0
14.8 1.6 0.0
15.200000000000001 1.6 0.0
15.600000000000001 1.6 0.0
16.0 1.6 0.0
0.0 1.7000000000000002 0.0
0.4 1.7000000000000002 0.0
0.8 1.7000000000000002 0.0
1.2000000000000002 1.7000000000000002 0.0
1.6 1.7000000000000002 0.0
2.0 1.7000000000000002 0.0
2.4000000000000004 1.7000000000000002 0.0
2.8000000000000003 1.7000000000000002 0.0
3.2 1.7000000000000002 0.0
3.6 1.7000000000000002 0.0
4.0 1.7000000000000002 0.0
4.4 1.7000000000000002 0.0
4.800000000000001 1.7000000000000002 0.0
5.2 1.7000000000000002 0.0
5.6000000000000005 1.7000000000000002 0.0
6.0 1.7000000000000002 0.0
6.4 1.7000000000000002 0.0
6.800000000000001 1.7000000000000002 0.0
7.2 1.7000000000000002 0.0
7.6000000000000005 1.7000000000000002 0.0
8.0 1.7000000000000002 0.0
8.4 1.7000000000000002 0.0
8.8 1.7000000000000002 0.0
9.200000000000001 1.7000000000000002 0.0
9.600000000000001 1.7000000000000002 0.0
10.0 1.7000000000000002 0.0
10.4 1.7000000000000002 0.0
10.8 1.7000000000000002 0.0
11.200000000000001 1.7000000000000002 0.0
11.600000000000001 1.7000000000000002 0.0
12.0 1.7000000000000002 0.0
12.4 1.7000000000000002 0.0
12.8 1.7000000000000002 0.0
13.200000000000001 1.7000000000000002 0.0
13.600000000000001 1.7000000000000002 0.0
14.0 1.7000000000000002 0.0
14.4 1.7000000000000002 0.0
14.8 1.7000000000000002 0.0
15.200000000000001 1.7000000000000002 0.0
15.600000000000001 1.7000000000000002 0.0
16.0 1.7000000000000002 0.0
0.0 1.8 0.0
0.4 1.8 0.0
0.8 1.8 0.0
1.2000000000000002 1.8 0.0
1.6 1.8 0.0
2.0 1.8 0.0
2.4000000000000004 1.8 0.0
2.8000000000000003 1.8 0.0
3.2 1.8 0.0
3.6 1.8 0.0
4.0 1.8 0.0
4.4 1.8 0.0
4.800000000000001 1.8 0.0
5.2 1.8 0.0
5.6000000000000005 1.8 0.0
6.0 1.8 0.0
6.4 1.8 0.0
6.800000000000001 1.8 0.0
7.2 1.8 0.0
7.6000000000000005 1.8 0.0
8.0 1.8 0.0
8.4 1.8 0.0
8.8 1.8 0.0
9.200000000000001 1.8 0.0
9.600000000000001 1.8 0.0
10.0 1.8 0.0
10.4 1.8 0.0
10.8 1.8 0.0
11.200000000000001 1.8 0.0
11.600000000000001 1.8 0.0
12.0 1.8 0.0
12.4 1.8 0.0
12.8 1.8 0.0
13.200000000000001 1.8 0.0
13.600000000000001 1.8 0.0
14.0 1.8 0.0
14.4 1.8 0.0
14.8 1.8 0.0
15.200000000000001 1.8 0.0
15.600000000000001 1.8 0.0
16.0 1.8 0.0
0.0 1.9000000000000001 0.0
0.4 1.9000000000000001 0.0
0.8 1.9000000000000001 0.0
1.2000000000000002 1.9000000000000001 0.0
1.6 1.9000000000000001 0.0
2.0 1.9000000000000001 0.0
2.4000000000000004 1.9000000000000001 0.0
2.8000000000000003 1.9000000000000001 0.0
3.2 1.9000000000000001 0.0
3.6 1.9000000000000001 0.0
4.0 1.9000000000000001 0.0
4.4 1.9000000000000001 0.0
4.800000000000001 1.9000000000000001 0.0
5.2 1.9000000000000001 0.0
5.6000000000000005 1.9000000000000001 0.0
6.0 1.9000000000000001 0.0
6.4 1.9000000000000001 0.0
6.800000000000001 1.9000000000000001 0.0
7.2 1.9000000000000001 0.0
7.6000000000000005 1.9000000000000001 0.0
8.0 1.9000000000000001 0.0
8.4 1.9000000000000001 0.0
8.8 1.9000000000000001 0.0
9.200000000000001 1.9000000000000001 0.0
9.600000000000001 1.9000000000000001 0.0
10.0 1.9000000000000001 0.0
10.4 1.9000000000000001 0.0
10.8 1.9000000000000001 0.0
11.200000000000001 1.9000000000000001 0.0
11.600000000000001 1.9000000000000001 0.0
12.0 1.9000000000000001 0.0
12.4 1.9000000000000001 0.0
12.8 1.9000000000000001 0.0
13.200000000000001 1.9000000000000001 0.0
13.600000000000001 1.9000000000000001 0.0
14.0 1.9000000000000001 0.0
14.4 1.9000000000000001 0.0
14.8 1.9000000000000001 0.0
15.200000000000001 1.9000000000000001 0.0
15.600000000000001 1.9000000000000001 0.0
16.0 1.9000000000000001 0.0
0.0 2.0 0.0
0.4 2.0 0.0
0.8 2.0 0.0
1.2000000000000002 2.0 0.0
1.6 2.0 0.0
2.0 2.0 0.0
2.4000000000000004 2.0 0.0
2.8000000000000003 2.0 0.0
3.2 2.0 0.0
3.6 2.0 0.0
4.0 2.0 0.0
4.4 2.0 0.0
4.800000000000001 2.0 0.0
5.2 2.0 0.0
5.6000000000000005 2.0 0.0
6.0 2.0 0.0
6.4 2.0 0.0
6.800000000000001 2.0 0.0
7.2 2.0 0.0
7.6000000000000005 2.0 0.0
8.0 2.0 0.0
8.4 2.0 0.0
8.8 2.0 0.0
9.200000000000001 2.0 0.0
9.600000000000001 2.0 0.0
10.0 2.0 0.0
10.4 2.0 0.0
10.8 2.0 0.0
11.200000000000001 2.0 0.0
11.600000000000001 2.0 0.0
12.0 2.0 0.0
12.4 2.0 0.0
12.8 2.0 0.0
13.200000000000001 2.0 0.0
13.600000000000001 2.0 0.0
14.0 2.0 0.0
14.4 2.0 0.0
14.8 2.0 0.0
15.200000000000001 2.0 0.0
15.600000000000001 2.0 0.0
16.0 2.0 0.0
CELLS 800 4000
4 0 1 42 41
4 1 2 43 42
4 2 3 44 43
4 3 4 45 44
4 4 5 46 45
4 5 6 47 46
4 6 7 48 47
4 7 8 49 48
4 8 9 50 49
4 9 10 51 50
4 10 11 52 51
4 11 12 53 52
4 12 13 54 53
4 13 14 55 54
4 14 15 56 55
4 15 16 57 56
4 16 17 58 57
4 17 18 59 58
4 18 19 60 59
4 19 20 61 60
4 20 21 62 61
4 21 22 63 62
4 22 23 64 63
4 23 24 65 64
4 24 25 66 65
4 25 26 67 66
4 26 27 68 67
4 27 28 69 68
4 28 29 70 69
4 29 30 71 70
4 30 31 72 71
4 31 32 73 72
4 32 33 74 73
4 33 34 75 74
4 34 35 76 75
4 35 36 77 76
4 36 37 78 77
4 37 38 79 78
4 38 39 80 79
4 39 40 81 80
4 41 42 83 82
4 42 43 84 83
4 43 44 85 84
4 44 45 86 85
4 45 46 87 86
4 46 47 88 87
4 47 48 89 88
4 48 49 90 89
4 49 50 91 90
4 50 51 92 91
4 51 52 93 92
4 52 53 94 93
4 53 54 95 94
4 54 55 96 95
4 55 56 97 96
4 56 57 98 97
4 57 58 99 98
4 58 59 100 99
4 59 60 101 100
4 60 61 102 101
4 61 62 103 102
4 62 63 104 103
4 63 64 105 104
4 64 65 106 105
4 65 66 107 106
4 66 67 108 107
4 67 68 109 108
4 68 69 110 109
4 69 70 111 110
4 70 71 112 111
4 71 72 113 112
4 72 73 114 113
4 73 74 115 114
4 74 75 116 115
4 75 76 117 116
4 76 77 118 117
4 77 78 119 118
4 78 79 120 119
4 79 80 121 120
4 80 81 122 121
4 82 83 124 123
4 83 84 125 124
4 84 85 126 125
4 85 86 127 126
4 86 87 128 127
4 87 88 129 128
4 88 89 130 129
4 89 90 131 130
4 90 91 132 131
4 91 92 133 132
4 92 93 134 133
4 93 94 135 134
4 94 95 136 135
4 95 96 137 136
4 96 97 138 137
4 97 98 139 138
4 98 99 140 139
4 99 100 141 140
4 100 101 142 141
4 101 102 143 142
4 102 103 144 143
4 103 104 145 144
4 104 105 146 145
4 105 106 147 146
4 106 107 148 147
4 107 108 149 148
4 108 109 150 149
4 109 110 151 150
4 110 111 152 151
4 111 112 153 152
4 112 113 154 153
4 113 114 155 154
4 114 115 156 155
4 115 116 157 156
4 116 117 158 157
4 117 118 159 158
4 118 119 160 159
4 119 120 161 160
4 120 121 162 161
4 121 122 163 162
4 123 124 165 164
4 124 125 166 165
4 125 126 167 166
4 126 127 168 167
4 127 128 169 168
4 128 129 170 169
4 129 130 171 170
4 130 131 172 171
4 131 132 173 172
4 132 133 174 173
4 133 134 175 174
4 134 135 176 175
4 135 136 177 176
4 136 137 178 177
4 137 138 179 178
4 138 139 180 179
4 139 140 181 180
4 140 141 182 181
4 141 142 183 182
4 142 143 184 183
4 143 144 185 184
4 144 145 186 185
4 145 146 187 186
4 146 147 188 187
4 147 148 189 188
4 148 149 190 189
4 149 150 191 190
4 150 151 192 191
4 151 152 193 192
4 152 153 194 193
4 153 154 195 194
4 154 155 196 195
4 155 156 197 196
4 156 157 198 197
4 157 158 199 198
4 158 159 200 199
4 159 160 201 200
4 160 161 202 201
4 161 162 203 202
4 162 163 204 203
4 164 165 206 205
4 165 166 207 206
4 166 167 208 207
4 167 168 209 208
4 168 169 210 209
4 169 170 211 210
4 170 171 212 211
4 171 172 213 212
4 172 173 214 213
4 173 174 215 214
4 174 175 216 215
4 175 176 217 216
4 176 177 218 217
4 177 178 219 218
4 178 179 220 219
4 179 180 221 220
4 180 181 222 221
4 181 182 223 222
4 182 183 224 223
4 183 184 225 224
4 184 185 226 225
4 185 186 227 226
4 186 187 228 227
4 187 188 229 228
4 188 189 230 229
4 189 190 231 230
4 190 191 232 231
4 191 192 233 232
4 192 193 234 233
4 193 194 235 234
4 194 195 236 235
4 195 196 237 236
4 196 197 238 237
4 197 198 239 238
4 198 199 240 239
4 199 200 241 240
4 200 201 242 241
4 201 202 243 242
4 202 203 244 243
4 203 204 245 244
4 205 206 247 246
4 206 207 248 247
4 207 208 249 248
4 208 209 250 249
4 209 210 251 250
4 210 211 252 251
4 211 212 253 252
4 212 213 254 253
4 213 214 255 254
4 214 215 256 255
4 215 216 257 256
4 216 217 258 257
4 217 218 259 258
4 218 219 260 259
4 219 220 261 260
4 220 221 262 261
4 221 222 263 262
4 222 223 264 263
4 223 224 265 264
4 224 225 266 265
4 225 226 267 266
4 226 227 268 267
4 227 228 269 268
4 228 229 270 269
4 229 230 271 270
4 230 231 272 271
4 231 232 273 272
4 232 233 274 273
4 233 234 275 274
4 234 235 276 275
4 235 236 277 276
4 236 237 278 277
4 237 238 279 278
4 238 239 280 279
4 239 240 281 280
4 240 241 282 281
4 241 242 283 282
4 242 243 284 283
4 243 244 285 284
4 244 245 286 285
4 246 247 288 287
4 247 248 289 288
4 248 249 290 289
4 249 250 291 290
4 250 251 292 291
4 251 252 293 292
4 252 253 294 293
4 253 254 295 294
4 254 255 296 295
4 255 256 297 296
4 256 257 298 297
4 257 258 299 298
4 258 259 300 299
4 259 260 301 300
4 260 261 302 301
4 261 262 303 302
4 262 263 304 303
4 263 264 305 304
4 264 265 306 305
4 265 266 307 306
4 266 267 308 307
4 267 268 309 308
4 268 269 310 309
4 269 270 311 310
4 270 271 312 311
4 271 272 313 312
4 272 273 314 313
4 273 274 315 314
4 274 275 316 315
4 275 276 317 316
4 276 277 318 317
4 277 278 319 318
4 278 279 320 319
4 279 280 321 320
4 280 281 322 321
4 281 282 323 322
4 282 283 324 323
4 283 284 325 324
4 284 285 326 325
4 285 286 327 326
4 287 288 329 328
4 288 289 330 329
4 289 290 331 330
4 290 291 332 331
4 291 292 333 332
4 292 293 334 333
4 293 294 335 334
4 294 295 336 335
4 295 296 337 336
4 296 297 338 337
4 297 298 339 338
4 298 299 340 339
4 299 300 341 340
4 300 301 342 341
4 301 302 343 342
4 302 303 344 343
4 303 304 345 344
4 304 305 346 345
4 305 306 347 346
4 306 307 348 347
4 307 308 349 348
4 308 309 350 349
4 309 310 351 350
4 310 311 352 351
4 311 312 353 352
4 312 313 354 353
4 313 314 355 354
4 314 315 356 355
4 315 316 357 356
4 316 317 358 357
4 317 318 359 358
4 318 319 360 359
4 319 320 361 360
4 320 321 362 361
4 321 322 363 362
4 322 323 364 363
4 323 324 365 364
4 324 325 366 365
4 325 326 367 366
4 326 327 368 367
4 328 329 370 369
4 329 330 371 370
4 330 331 372 371
4 331 332 373 372
4 332 333 374 373
4 333 334 375 374
4 334 335 376 375
4 335 336 377 376
4 336 337 378 377
4 337 338 379 378
4 338 339 380 379
4 339 340 381 380
4 340 341 382 381
4 341 342 383 382
4 342 343 384 383
4 343 344 385 384
4 344 345 386 385
4 345 346 387 386
4 346 347 388 387
4 347 348 389 388
4 348 349 390 389
4 349 350 391 390
4 350 351 392 391
4 351 352 393 392
4 352 353 394 393
4 353 354 395 394
4 354 355 396 395
4 355 356 397 396
4 356 357 398 397
4 357 358 399 398
4 358 359 400 399
4 359 360 401 400
4 360 361 402 401
4 361 362 403 402
4 362 363 404 403
4 363 364 405 404
4 364 365 406 405
4 365 366 407 406
4 366 367 408 407
4 367 368 409 408
4 369 370 411 410
4 370 371 412 411
4 371 372 413 412
4 372 373 414 413
4 373 374 415 414
4 374 375 416 415
4 375 376 417 416
4 376 377 418 417
4 377 378 419 418
4 378 379 420 419
4 379 380 421 420
4 380 381 422 421
4 381 382 423 422
4 382 383 424 423
4 383 384 425 424
4 384 385 426 425
4 385 386 427 426
4 386 387 428 427
4 387 388 429 428
4 388 389 430 429
4 389 390 431 430
4 390 391 432 431
4 391 392 433 432
4 392 393 434 433
4 393 394 435 434
4 394 395 436 435
4 395 396 437 436
4 396 397 438 437
4 397 398 439 438
4 398 399 440 439
4 399 400 441 440
4 400 401 442 441
4 401 402 443 442
4 402 403 444 443
4 403 404 445 444
4 404 405 446 445
4 405 406 447 446
4 406 407 448 447
4 407 408 449 448
4 408 409 450 449
4 410 411 452 451
4 411 412 453 452
4 412 413 454 453
4 413 414 455 454
4 414 415 456 455
4 415 416 457 456
4 416 417 458 457
4 417 418 459 458
4 418 419 460 459
4 419 420 461 460
4 420 421 462 461
4 421 422 463 462
4 422 423 464 463
4 423 424 465 464
4 424 425 466 465
4 425 426 467 466
4 426 427 468 467
4 427 428 469 468
4 428 429 470 469
4 429 430 471 470
4 430 431 472 471
4 431 432 473 472
4 432 433 474 473
4 433 434 475 474
4 434 435 476 475
4 435 436 477 476
4 436 437 478 477
4 437 438 479 478
4 438 439 480 479
4 439 440 481 480
4 440 441 482 481
4 441 442 483 482
4 442 443 484 483
4 443 444 485 484
4 444 445 486 485
4 445 446 487 486
4 446 447 488 487
4 447 448 489 488
4 448 449 490 489
4 449 450 491 490
4 451 452 493 492
4 452 453 494 493
4 453 454 495 494
4 454 455 496 495
4 455 456 497 496
4 456 457 498 497
4 457 458 499 498
4 458 459 500 499
4 459 460 501 500
4 460 461 502 501
4 461 462 503 502
4 462 463 504 503
4 463 464 505 504
4 464 465 506 505
4 465 466 507 506
4 466 467 508 507
4 467 468 509 508
4 468 469 510 509
4 469 470 511 510
4 470 471 512 511
4 471 472 513 512
4 472 473 514 513
4 473 474 515 514
4 474 475 516 515
4 475 476 517 516
4 476 477 518 517
4 477 478 519 518
4 478 479 520 519
4 479 480 521 520
4 480 481 522 521
4 481 482 523 522
4 482 483 524 523
4 483 484 525 524
4 484 485 526 525
4 485 486 527 526
4 486 487 528 527
4 487 488 529 528
4 488 489 530 529
4 489 490 531 530
4 490 491 532 531
4 492 493 534 533
4 493 494 535 534
4 494 495 536 535
4 495 496 537 536
4 496 497 538 537
4 497 498 539 538
4 498 499 540 539
4 499 500 541 540
4 500 501 542 541
4 501 502 543 542
4 502 503 544 543
4 503 504 545 544
4 504 505 546 545
4 505 506 547 546
4 506 507 548 547
4 507 508 549 548
4 508 509 550 549
4 509 510 551 550
4 510 511 552 551
4 511 512 553 552
4 512 513 554 553
4 513 514 555 554
4 514 515 556 555
4 515 516 557 556
4 516 517 558 557
4 517 518 559 558
4 518 519 560 559
4 519 520 561 560
4 520 521 562 561
4 521 522 563 562
4 522 523 564 563
4 523 524 565 564
4 524 525 566 565
4 525 526 567 566
4 526 527 568 567
4 527 528 569 568
4 528 529 570 569
4 529 530 571 570
4 530 531 572 571
4 531 532 573 572
4 533 534 575 574
4 534 535 576 575
4 535 536 577 576
4 536 537 578 577
4 537 538 579 578
4 538 539 580 579
4 539 540 581 580
4 540 541 582 581
4 541 542 583 582
4 542 543 584 583
4 543 544 585 584
4 544 545 586 585
4 545 546 587 586
4 546 547 588 587
4 547 548 589 588
4 548 549 590 589
4 549 550 591 590
4 550 551 592 591
4 551 552 593 592
4 552 553 594 593
4 553 554 595 594
4 554 555 596 595
4 555 556 597 596
4 556 557 598 597
4 557 558 599 598
4 558 559 600 599
4 559 560 601 600
4 560 561 602 601
4 561 562 603 602
4 562 563 604 603
4 563 564 605 604
4 564 565 606 605
4 565 566 607 606
4 566 567 608 607
4 567 568 609 608
4 568 569 610 609
4 569 570 611 610
4 570 571 612 611
4 571 572 613 612
4 572 573 614 613
4 574 575 616 615
4 575 576 617 616
4 576 577 618 617
4 577 578 619 618
4 578 579 620 619
4 579 580 621 620
4 580 581 622 621
4 581 582 623 622
4 582 583 624 623
4 583 584 625 624
4 584 585 626 625
4 585 586 627 626
4 586 587 628 627
4 587 588 629 628
4 588 589 630 629
4 589 590 631 630
4 590 591 632 631
4 591 592 633 632
4 592 593 634 633
4 593 594 635 634
4 594 595 636 635
4 595 596 637 636
4 596 597 638 637
4 597 598 639 638
4 598 599 640 639
4 599 600 641 640
4 600 601 642 641
4 601 602 643 642
4 602 603 644 643
4 603 604 645 644
4 604 605 646 645
4 605 606 647 646
4 606 607 648 647
4 607 608 649 648
4 608 609 650 649
4 609 610 651 650
4 610 611 652 651
4 611 612 653 652
4 612 613 654 653
4 613 614 655 654
4 615 616 657 656
4 616 617 658 657
4 617 618 659 658
4 618 619 660 659
4 619 620 661 660
4 620 621 662 661
4 621 622 663 662
4 622 623 664 663
4 623 624 665 664
4 624 625 666 665
4 625 626 667 666
4 626 627 668 667
4 627 628 669 668
4 628 629 670 669
4 629 630 671 670
4 630 631 672 671
4 631 632 673 672
4 632 633 674 673
4 633 634 675 674
4 634 635 676 675
4 635 636 677 676
4 636 637 678 677
4 637 638 679 678
4 638 639 680 679
4 639 640 681 680
4 640 641 682 681
4 641 642 683 682
4 642 643 684 683
4 643 644 685 684
4 644 645 686 685
4 645 646 687 686
4 646 647 688 687
4 647 648 689 688
4 648 649 690 689
4 649 650 691 690
4 650 651 692 691
4 651 652 693 692
4 652 653 694 693
4 653 654 695 694
4 654 655 696 695
4 656 657 698 697
4 657 658 699 698
4 658 659 700 699
4 659 660 701 700
4 660 661 702 701
4 661 662 703 702
4 662 663 704 703
4 663 664 705 704
4 664 665 706 705
4 665 666 707 706
4 666 667 708 707
4 667 668 709 708
4 668 669 710 709
4 669 670 711 710
4 670 671 712 711
4 671 672 713 712
4 672 673 714 713
4 673 674 715 714
4 674 675 716 715
4 675 676 717 716
4 676 677 718 717
4 677 678 719 718
4 678 679 720 719
4 679 680 721 720
4 680 681 722 721
4 681 682 723 722
4 682 683 724 723
4 683 684 725 724
4 684 685 726 725
4 685 686 727 726
4 686 687 728 727
4 687 688 729 728
4 688 689 730 729
4 689 690 731 730
4 690 691 732 731
4 691 692 733 732
4 692 693 734 733
4 693 694 735 734
4 694 695 736 735
4 695 696 737 736
4 697 698 739 738
4 698 699 740 739
4 699 700 741 740
4 700 701 742 741
4 701 702 743 742
4 702 703 744 743
4 703 704 745 744
4 704 705 746 745
4 705 706 747 746
4 706 707 748 747
4 707 708 749 748
4 708 709 750 749
4 709 710 751 750
4 710 711 752 751
4 711 712 753 752
4 712 713 754 753
4 713 714 755 754
4 714 715 756 755
4 715 716 757 756
4 716 717 758 757
4 717 718 759 758
4 718 719 760 759
4 719 720 761 760
4 720 721 762 761
4 721 722 763 762
4 722 723 764 763
4 723 724 765 764
4 724 725 766 765
4 725 726 767 766
4 726 727 768 767
4 727 728 769 768
4 728 729 770 769
4 729 730 771 770
4 730 731 772 771
4 731 732 773 772
4 732 733 774 773
4 733 734 775 774
4 734 735 776 775
4 735 736 777 776
4 736 737 778 777
4 738 739 780 779
4 739 740 781 780
4 740 741 782 781
4 741 742 783 782
4 742 743 784 783
4 743 744 785 784
4 744 745 786 785
4 745 746 787 786
4 746 747 788 787
4 747 748 789 788
4 748 749 790 789
4 749 750 791 790
4 750 751 792 791
4 751 752 793 792
4 752 753 794 793
4 753 754 795 794
4 754 755 796 795
4 755 756 797 796
4 756 757 798 797
4 757 758 799 798
4 758 759 800 799
4 759 760 801 800
4 760 761 802 801
4 761 762 803 802
4 762 763 804 803
4 763 764 805 804
4 764 765 806 805
4 765 766 807 806
4 766 767 808 807
4 767 768 809 808
4 768 769 810 809
4 769 770 811 810
4 770 771 812 811
4 771 772 813 812
4 772 773 814 813
4 773 774 815 814
4 774 775 816 815
4 775 776 817 816
4 776 777 818 817
4 777 778 819 818
4 779 780 821 820
4 780 781 822 821
4 781 782 823 822
4 782 783 824 823
4 783 784 825 824
4 784 785 826 825
4 785 786 827 826
4 786 787 828 827
4 787 788 829 828
4 788 789 830 829
4 789 790 831 830
4 790 791 832 831
4 791 792 833 832
4 792 793 834 833
4 793 794 835 834
4 794 795 836 835
4 795 796 837 836
4 796 797 838 837
4 797 798 839 838
4 798 799 840 839
4 799 800 841 840
4 800 801 842 841
4 801 802 843 842
4 802 803 844 843
4 803 804 845 844
4 804 805 846 845
4 805 806 847 846
4 806 807 848 847
4 807 808 849 848
4 808 809 850 849
4 809 810 851 850
4 810 811 852 851
4 811 812 853 852
4 812 813 854 853
4 813 814 855 854
4 814 815 856 855
4 815 816 857 856
4 816 817 858 857
4 817 818 859 858
4 818 819 860 859
CELL_TYPES 800
9
9
9
9
9
9
9
9
9
9
9
9
9
9
9
9
9
9
9
9
9
9
9
9
9
9
9
9
9
9
9
9
9
9
9
9
9
9
9
9
9
9
9
9
9
9
9
9
9
9
9
9
9
9
9
9
9
9
9
9
9
9
9
9
9
9
9
9
9
9
9
9
9
9
9
9
9
9
9
9
9
9
9
9
9
9
9
9
9
9
9
9
9
9
9
9
9
9
9
9
9
9
9
9
9
9
9
9
9
9
9
9
9
9
9
9
9
9
9
9
9
9
9
9
9
9
9
9
9
9
9
9
9
9
9
9
9
9
9
9
9
9
9
9
9
9
9
9
9
9
9
9
9
9
9
9
9
9
9
9
9
9
9
9
9
9
9
9
9
9
9
9
9
9
9
9
9
9
9
9
9
9
9
9
9
9
9
9
9
9
9
9
9
9
9
9
9
9
9
9
9
9
9
9
9
9
9
9
9
9
9
9
9
9
9
9
9
9
9
9
9
9
9
9
9
9
9
9
9
9
9
9
9
9
9
9
9
9
9
9
9
9
9
9
9
9
9
9
9
9
9
9
9
9
9
9
9
9
9
9
9
9
9
9
9
9
9
9
9
9
9
9
9
9
9
9
9
9
9
9
9
9
9
9
9
9
9
9
9
9
9
9
9
9
9
9
9
9
9
9
9
9
9
9
9
9
9
9
9
9
9
9
9
9
9
9
9
9
9
9
9
9
9
9
9
9
9
9
9
9
9
9
9
9
9
9
9
9
9
9
9
9
9
9
9
9
9
9
9
9
9
9
9
9
9
9
9
9
9
9
9
9
9
9
9
9
9
9
9
9
9
9
9
9
9
9
9
9
9
9
9
9
9
9
9
9
9
9
9
9
9
9
9
9
9
9
9
9
9
9
9
9
9
9
9
9
9
9
9
9
9
9
9
9
9
9
9
9
9
9
9
9
9
9
9
9
9
9
9
9
9
9
9
9
9
9
9
9
9
9
9
9
9
9
9
9
9
9
9
9
9
9
9
9
9
9
9
9
9
9
9
9
9
9
9
9
9
9
9
9
9
9
9
9
9
9
9
9
9
9
9
9
9
9
9
9
9
9
9
9
9
9
9
9
9
9
9
9
9
9
9
9
9
9
9
9
9
9
9
9
9
9
9
9
9
9
9
9
9
9
9
9
9
9
9
9
9
9
9
9
9
9
9
9
9
9
9
9
9
9
9
9
9
9
9
9
9
9
9
9
9
9
9
9
9
9
9
9
9
9
9
9
9
9
9
9
9
9
9
9
9
9
9
9
9
9
9
9
9
9
9
9
9
9
9
9
9
9
9
9
9
9
9
9
9
9
9
9
9
9
9
9
9
9
9
9
9
9
9
9
9
9
9
9
9
9
9
9
9
9
9
9
9
9
9
9
9
9
9
9
9
9
9
9
9
9
9
9
9
9
9
9
9
9
9
9
9
9
9
9
9
9
9
9
9
9
9
9
9
9
9
9
9
9
9
9
9
9
9
9
9
9
9
9
9
9
9
9
9
9
9
9
9
9
9
9
9
9
9
9
9
9
9
9
9
9
9
9
9
9
9
9
9
9
9
9
9
9
9
9
9
9
9
9
9
9
9
9
9
9
9
9
9
9
9
9
9
9
9
9
9
9
9
9
9
9
9
9
9
9
9
9
9
9
9
9
9
9
9
9
9
9
9
9
9
9
9
9
9
9
9
9
9
9
9
9
9
9
9
9
9
9
9
9
9
9
9
9
9
9
9
9
9
9
9
9
9
9
9
9
9
9
9
9
9
9
9
9
9
9
POINT_DATA 861
SCALARS Disp float 2
LOOKUP_TABLE default
0.0 0.0
0.00705083443659855 -0.12885927313165055
0.012558685871641374 -0.23774068529365625
0.016976726177294402 -0.34475314054408834
0.022024162142561466 -0.449707408272516
0.02809459818842556 -0.55255681866555
0.03538159697144272 -0.6528098936325906
0.04396284258979854 -0.7499356283349722
0.05386376501063795 -0.8433853060171562
0.0650902581615761 -0.9326169563136484
0.07764144064075788 -1.0170948850039756
0.09151528047926441 -1.0962883103015706
0.10671052716007744 -1.169669714551882
0.12322856496390859 -1.236714109000654
0.1410773928170008 -1.296897290469098
0.1602789152866103 -1.3496886327777204
0.18087627999646344 -1.3945305146865563
0.20292662265699274 -1.4307968967438327
0.22644768949441468 -1.4577398241834398
0.2512864233413337 -1.4744826293478226
0.27695180160944327 -1.4801901953997199
0.3026171798775527 -1.4744826293478224
0.3274559137244717 -1.4577398241834396
0.35097698056189364 -1.4307968967438327
0.373027323222423 -1.3945305146865563
0.39362468793227595 -1.3496886327777204
0.4128262104018856 -1.2968972904690979
0.4306750382549779 -1.236714109000653
0.447193076058809 -1.1696697145518817
0.46238832273962194 -1.0962883103015701
0.4762621625781283 -1.0170948850039756
0.4888133450573103 -0.9326169563136482
0.5000398382082484 -0.8433853060171559
0.5099407606290878 -0.7499356283349715
0.5185220062474436 -0.6528098936325899
0.5258090050304607 -0.5525568186655503
0.5318794410763248 -0.449707408272516
0.5369268770415919 -0.34475314054408857
0.5413449173472449 -0.2377406852936559
0.5468527687822877 -0.12885927313165013
0.5539036032188862 0.0
0.031920182423155814 -0.00437870468812124
0.036310752555900626 -0.1285179379534136
0.03934968005658293 -0.23835897208963794
0.04344341377221793 -0.34518420897659957
0.0479324331199193 -0.4502753512188383
0.053413173375162194 -0.5532333159874278
0.059980532361248 -0.6536173961937717
0.0677097626298661 -0.7508761489821548
0.07662335886044715 -0.8444606365961789
0.0867282361714782 -0.9338271381831947
0.09802464053503915 -1.0184397832282588
0.11051139804958561 -1.0977677529848655
0.12418786836641088 -1.1712836841254746
0.139055693778754 -1.2384629833955785
0.15512200042753282 -1.2987823753017382
0.1724045987487391 -1.3517129392626421
0.19093577209106574 -1.3966990364861644
0.21075202174131982 -1.4331141538912195
0.2318452122363189 -1.4602010411172672
0.2540557518317742 -1.4770573995850993
0.27695180160944316 -1.482809994283506
0.2998478513871122 -1.4770573995850993
0.32205839098256756 -1.4602010411172672
0.3431515814775665 -1.4331141538912193
0.3629678311278206 -1.3966990364861642
0.38149900447014723 -1.3517129392626421
0.3987816027913535 -1.2987823753017382
0.41484790944013245 -1.238462983395578
0.4297157348524755 -1.1712836841254743
0.4433922051693007 -1.0977677529848648
0.45587896268384714 -1.018439783228259
0.4671753670474081 -0.9338271381831944
0.47728024435843913 -0.8444606365961785
0.48619384058902015 -0.7508761489821542
0.4939230708576383 -0.653617396193771
0.500490429843724 -0.553233315987428
0.505971170098967 -0.4502753512188383
0.5104601894466684 -0.3451842089765998
0.5145539231623034 -0.23835897208963763
0.5175928506629857 -0.12851793795341318
0.5219834207957305 -0.004378704688121246
0.06166692509784647 -0.008139892491315992
0.06481609089801726 -0.12826760358680522
0.0664516251042885 -0.23869963939536853
0.06972933789876416 -0.3456038667594485
0.07370989717397204 -0.45076704820058405
0.07856020000657021 -0.5538408822120912
0.08440295199155232 -0.6543393957859421
0.09127633977377281 -0.7517180929040185
0.0992020141668308 -0.8454229269180402
0.10818532295831323 -0.9349100435753115
0.11822717721096226 -1.0196431748404278
0.12932698833141482 -1.0990915276798257
0.14148451369950296 -1.1727278317961753
0.15470119023696868 -1.2400277716556567
0.16898241451507168 -1.3004687222740996
0.18434101274048623 -1.3535229960116317
0.2007992545431528 -1.3986364634185153
0.2183796503101183 -1.4351823781856012
0.23706522782813044 -1.462396390308643
0.256712980059513 -1.479355040348178
0.2769518016094431 -1.485149735486635
0.29719062315937345 -1.479355040348178
0.316838375390756 -1.4623963903086428
0.3355239529087681 -1.4351823781856008
0.35310434867573354 -1.3986364634185153
0.3695625904784001 -1.3535229960116315
0.38492118870381464 -1.3004687222740996
0.3992024129819178 -1.2400277716556565
0.41241908951938344 -1.1727278317961751
0.4245766148874716 -1.099091527679825
0.43567642600792406 -1.0196431748404275
0.4457182802605731 -0.9349100435753112
0.4547015890520555 -0.8454229269180397
0.4626272634451135 -0.751718092904018
0.469500651227334 -0.6543393957859414
0.47534340321231605 -0.5538408822120915
0.4801937060449143 -0.4507670482005841
0.48417426532012214 -0.3456038667594487
0.4874519781145979 -0.23869963939536823
0.48908751232086906 -0.12826760358680475
0.49223667812103983 -0.008139892491316008
0.09012946191857892 -0.011354552869652331
0.09263095891813257 -0.12819399789622413
0.09349819893512842 -0.2388504986240335
0.09593780539593794 -0.34595060328202093
0.09934149661792373 -0.45119492105958686
0.10356108155094211 -0.5543723835234804
0.10866753014120153 -0.6549762255991376
0.11468333684968188 -0.7524608663063077
0.12162000702566798 -0.8462722078916641
0.12948172549439121 -0.9358656827500842
0.13826912795580007 -1.0207050951242793
0.14798205037224074 -1.1002596343892672
0.15862042795711184 -1.174002076543833
0.1701851413555484 -1.241408202695443
0.18267929060410495 -1.3019557124701908
0.19611031508612425 -1.3551177836129542
0.21049171311005305 -1.4003419199587552
0.22583801488664107 -1.43700283469794
0.242137137245026 -1.464333106792542
0.25927909669647303 -1.4813918332678868
0.27695180160944316 -1.4872307949323977
0.29462450652241334 -1.4813918332678868
0.31176646597386043 -1.4643331067925418
0.3280655883322453 -1.4370028346979398
0.3434118901088333 -1.400341919958755
0.35779328813276207 -1.355117783612954
0.3712243126147815 -1.3019557124701906
0.383718461863338 -1.2414082026954425
0.3952831752617746 -1.1740020765438328
0.40592155284664566 -1.1002596343892668
0.4156344752630863 -1.020705095124279
0.424421877724495 -0.9358656827500839
0.4322835961932183 -0.8462722078916635
0.43922026636920447 -0.7524608663063073
0.44523607307768476 -0.6549762255991367
0.4503425216679442 -0.5543723835234806
0.4545621066009626 -0.4511949210595869
0.45796579782294833 -0.3459506032820212
0.46040540428375787 -0.23885049862403318
0.4612726443007538 -0.12819399789622368
0.4637741413003074 -0.011354552869652354
0.11777142701402003 -0.014092563277314923
0.1198827451609062 -0.12828807264038286
0.12034085814805968 -0.23889280740572832
0.12206017565252028 -0.34620684056299933
0.12484812342141478 -0.45155521192646325
0.12842979515854477 -0.5548274664467686
0.13279526096530997 -0.655526564516434
0.1379506872876377 -0.7531043997200113
0.1438977048197553 -0.8470083621714402
0.15063760552063582 -0.9366940768629641
0.1581705833194704 -1.0216255545665283
0.16649660360455593 -1.101272065742239
0.17561563097856653 -1.1751063466832192
0.1855277504495981 -1.2426040710767232
0.1962334699532322 -1.3032429172892193
0.20773480115452575 -1.356496667355607
0.22003777764127166 -1.4018150615305451
0.23315386126137888 -1.4385770826249806
0.24708639515502626 -1.4660176088630557
0.2617705915501951 -1.4831813590111125
0.27695180160944316 -1.4890709879519115
0.2921330116686913 -1.4831813590111125
0.30681720806386015 -1.4660176088630554
0.3207497419575075 -1.4385770826249804
0.3338658255776147 -1.401815061530545
0.34616880206436057 -1.3564966673556067
0.3576701332656542 -1.303242917289219
0.3683758527692883 -1.242604071076723
0.37828797224031985 -1.175106346683219
0.38740699961433045 -1.1012720657422386
0.39573301989941595 -1.0216255545665276
0.40326599769825044 -0.9366940768629636
0.41000589839913104 -0.8470083621714395
0.41595291593124867 -0.7531043997200108
0.42110834225357635 -0.6555265645164332
0.4254738080603416 -0.5548274664467688
0.4290554797974715 -0.45155521192646314
0.43184342756636596 -0.3462068405629996
0.4335627450708266 -0.23889280740572805
0.43402085805798013 -0.12828807264038244
0.4361321762048663 -0.014092563277314944
0.14485915705769484 -0.01641817797913973
0.1466938830805407 -0.12851122886153038
0.14693588707293162 -0.2388827479401931
0.14807278427243156 -0.34637699252917853
0.15024655073805643 -0.45184357981922263
0.153182986413656 -0.5552059590902284
0.156805491743945 -0.6559898017247753
0.16109862337056094 -0.7536484687022629
0.16605528959097696 -0.8476313401730429
0.17167314368178732 -0.9373952090092543
0.17795162845863208 -1.0224045560338535
0.18489068813550877 -1.1021288075396638
0.19249018471255694 -1.1760405889471608
0.20074929831960506 -1.243615248586278
0.20966589115952164 -1.3043301026084066
0.2192367708265273 -1.3576593540311528
0.22946164015411177 -1.403055902980703
0.24035239589675275 -1.4399066108565135
0.2519354000088523 -1.4674551439909451
0.26420085305076063 -1.4847348666948517
0.27695180160944316 -1.4906856355454905
0.2897027501681258 -1.4847348666948517
0.3019682032100341 -1.467455143990945
0.3135512073221336 -1.4399066108565133
0.3244419630647746 -1.403055902980703
0.33466683239235906 -1.357659354031153
0.34423771205936476 -1.3043301026084066
0.35315430489928135 -1.2436152485862777
0.3614134185063294 -1.1760405889471603
0.36901291508337764 -1.1021288075396634
0.3759519747602542 -1.022404556033853
0.382230459537099 -0.937395209009254
0.3878483136279094 -0.8476313401730424
0.3928049798483254 -0.7536484687022623
0.3970981114749414 -0.6559898017247745
0.4007206168052303 -0.5552059590902286
0.4036570524808299 -0.45184357981922246
0.40583081894645473 -0.34637699252917875
0.4069677161459547 -0.23888274794019282
0.40720972013834555 -0.12851122886152996
0.4090444461611915 -0.016418177979139744
0.17155873655204124 -0.018387267220739804
0.17316683541304498 -0.12882062097668878
0.17328921153625274 -0.23885378376127794
0.17396194588034622 -0.3464736400564997
0.17554843084708321 -0.4520589794390852
0.1778384158747809 -0.5555075519975191
0.18071724117784924 -0.6563657976104235
0.18414721768742848 -0.7540928983475879
0.18811293088660302 -0.8481410927193137
0.19260848777288975 -0.9379690567148931
0.197632354397039 -1.0230420891294079
0.20318435680700006 -1.1028298445829807
0.20926418058454677 -1.1768047724588033
0.21587010395503856 -1.2444416883616174
0.22299750816372588 -1.3052172228161285
0.23063842079456115 -1.3586058497103985
0.23878703573333235 -1.4040646852307717
0.2474575893518949 -1.4409925724636379
0.25670431384591086 -1.4686495584601402
0.26658107557154315 -1.4860615372797663
0.27695180160944316 -1.4920883648275072
0.28732252764734334 -1.4860615372797663
0.29719928937297546 -1.46864955846014
0.3064460138669915 -1.4409925724636377
0.315116567485554 -1.4040646852307714
0.3232651824243252 -1.3586058497103985
0.3309060950551605 -1.3052172228161283
0.3380334992638478 -1.244441688361617
0.34463942263433955 -1.1768047724588029
0.3507192464118863 -1.1028298445829805
0.3562712488218473 -1.0230420891294074
0.3612951154459966 -0.9379690567148927
0.36579067233228335 -0.8481410927193133
0.36975638553145784 -0.7540928983475874
0.3731863620410371 -0.6563657976104228
0.3760651873441054 -0.5555075519975193
0.3783551723718031 -0.452058979439085
0.3799416573385401 -0.34647364005650005
0.38061439168263356 -0.2388537837612776
0.3807367678058413 -0.12882062097668837
0.3823448666668451 -0.01838726722073981
0.19798120761577226 -0.020046802746979665
0.19938436195162632 -0.12917828276309873
0.19942908293865189 -0.23882301291921337
0.19972734024780597 -0.3465104753637923
0.20076426812492162 -0.4522034354964718
0.20241373886054057 -0.5557323434211054
0.20454965958082458 -0.6566546431604032
0.20711639861509099 -0.7544376309807843
0.21009077312033153 -0.848537572974451
0.21346376631285197 -0.9384155933920737
0.21723284985500088 -1.023538134968891
0.2213976724958841 -1.103375162103057
0.22595772533922076 -1.177398890385822
0.23091048815031506 -1.2450834215844007
0.23624921560662293 -1.305904406865735
0.2419617545474935 -1.359336423535479
0.24803726281680605 -1.4048417873775858
0.2544925281320897 -1.4418356120716458
0.2614117976222583 -1.4696031217252672
0.2689208968284648 -1.4871686330830938
0.27695180160944316 -1.4932917794353922
0.28498270639042156 -1.4871686330830938
0.29249180559662813 -1.469603121725267
0.29941107508679665 -1.4418356120716458
0.3058663404020803 -1.4048417873775856
0.3119418486713929 -1.359336423535479
0.31765438761226344 -1.3059044068657346
0.32299311506857126 -1.2450834215844
0.32794587787966556 -1.1773988903858217
0.33250593072300216 -1.1033751621030565
0.3366707533638854 -1.0235381349688906
0.34043983690603435 -0.9384155933920733
0.34381283009855473 -0.8485375729744505
0.34678720460379536 -0.7544376309807839
0.34935394363806177 -0.6566546431604026
0.3514898643583458 -0.5557323434211056
0.3531393350939647 -0.4522034354964717
0.35417626297108035 -0.34651047536379265
0.3544745202802344 -0.23882301291921304
0.35451924126726003 -0.12917828276309834
0.355922395603114 -0.020046802746979668
0.22420549418556673 -0.021435698249406172
0.2254133082511745 -0.12955364599192862
0.2253926180508937 -0.23879692617393652
0.22537957606760958 -0.3464992775974255
0.22590611226473314 -0.45228082990915697
0.22692647377117128 -0.5558811050062267
0.2283220406496506 -0.6568566037597074
0.2300260558695907 -0.754682709853324
0.2320089234591309 -0.8488207505721408
0.2342590937526987 -0.9387347879768286
0.2367731987829727 -1.0238926693388812
0.2395507033000765 -1.1037647469889327
0.2425909288755194 -1.177822958317008
0.2458907417682354 -1.2455405479919417
0.24944178283900237 -1.3063919371261177
0.25322850103780054 -1.3598515794271677
0.25723521788473597 -1.4053876891087236
0.2614797859147366 -1.4424357796474752
0.2660756977191701 -1.470316367988776
0.2712288880833232 -1.488061523784707
0.27695180160944316 -1.4943080893697165
0.2826747151355632 -1.488061523784707
0.2878279054997163 -1.4703163679887759
0.29242381730414974 -1.4424357796474752
0.2966683853341503 -1.4053876891087236
0.3006751021810858 -1.359851579427168
0.3044618203798839 -1.3063919371261172
0.30801286145065093 -1.2455405479919412
0.31131267434336696 -1.1778229583170075
0.31435289991880977 -1.1037647469889322
0.3171304044359136 -1.0238926693388808
0.3196445094661876 -0.9387347879768282
0.3218946797597554 -0.8488207505721403
0.3238775473492956 -0.7546827098533235
0.32558156256923576 -0.6568566037597068
0.32697712944771506 -0.5558811050062269
0.3279974909541532 -0.4522808299091569
0.3285240271512767 -0.34649927759742577
0.3285109851679926 -0.23879692617393622
0.3284902949677118 -0.12955364599192823
0.32969810903331953 -0.02143569824940618
0.250290848801986 -0.02258622815204003
0.25130848105442805 -0.1299234611173416
0.25121929460973974 -0.23877566540730766
0.2509368859094954 -0.3464489894024505
0.2509886595554498 -0.45229577669781135
0.25139440370619687 -0.5559552346266636
0.2520538016641201 -0.656972121000814
0.2528961008734355 -0.7548282512636948
0.25388746142637214 -0.848990615426124
0.2550145692781512 -0.9389266070341378
0.25627347970456954 -1.0241056642859412
0.25766351813563637 -1.1039985883545231
0.2591838940969912 -1.1780770102861808
0.26083110108087776 -1.245813221127624
0.2625957984206751 -1.3066802209001156
0.2644600335967873 -1.3601520340776827
0.26640341577700916 -1.4057029851060687
0.2684417922783335 -1.4427925320471635
0.27071373406003485 -1.4707879381343512
0.27351298130046203 -1.4887435664754396
0.27695180160944316 -1.4951497728450345
0.28039062191842434 -1.4887435664754396
0.2831898691588515 -1.4707879381343512
0.28546181094055284 -1.4427925320471633
0.28750018744187716 -1.4057029851060687
0.289443569622099 -1.3601520340776827
0.2913078047982112 -1.3066802209001152
0.2930725021380085 -1.2458132211276238
0.2947197091218951 -1.1780770102861806
0.29624008508324984 -1.1039985883545227
0.2976301235143167 -1.024105664285941
0.2988890339407352 -0.9389266070341373
0.3000161417925142 -0.8489906154261236
0.3010075023454508 -0.7548282512636945
0.3018498015547662 -0.6569721210008134
0.3025091995126895 -0.555955234626664
0.3029149436634366 -0.4522957766978112
0.30296671730939084 -0.3464489894024508
0.3026843086091465 -0.23877566540730738
0.3025951221644583 -0.1299234611173412
0.3036127544169003 -0.02258622815204002
0.276283950092791 -0.023525568942947262
0.27711576623684175 -0.13027082178088054
0.276947942493778 -0.23875591113175532
0.2764223499986215 -0.34636577987865
0.2760293826874541 -0.4522528476075908
0.2758359615534399 -0.5559565509983492
0.2757645206646672 -0.6570017968301893
0.27574649054602096 -0.7548744222997362
0.2757464523557548 -0.8490471734975918
0.27575027619252684 -0.9389910167727209
0.27575376475677177 -1.0241770893673066
0.2757561835270755 -1.1040766772158765
0.27575670922728246 -1.1781610932514295
0.27575173174075274 -1.245901629777989
0.2757316287920202 -1.306769753786338
0.2756772832157351 -1.360238695314163
0.2755639627542466 -1.4057884494395774
0.275401174478982 -1.4429048348729947
0.27534424836034554 -1.471014423050687
0.27578090952384793 -1.4892157969946254
0.27695180160944316 -1.4958303410986216
0.2781226936950384 -1.4892157969946251
0.27855935485854083 -1.4710144230506867
0.27850242873990433 -1.4429048348729945
0.27833964046463966 -1.4057884494395771
0.2782263200031511 -1.360238695314163
0.2781719744268662 -1.3067697537863376
0.2781518714781335 -1.2459016297779886
0.27814689399160375 -1.1781610932514293
0.2781474196918108 -1.1040766772158759
0.27814983846211444 -1.0241770893673063
0.2781533270263595 -0.9389910167727207
0.27815715086313153 -0.8490471734975915
0.27815711267286536 -0.7548744222997358
0.2781390825542191 -0.6570017968301889
0.27806764166544645 -0.5559565509983495
0.27787422053143224 -0.45225284760759066
0.27748125322026485 -0.3463657798786503
0.2769556607251083 -0.238755911131755
0.2767878369820445 -0.13027082178088017
0.2776196531260953 -0.023525568942947255
0.30222306593575293 -0.024277244338764145
0.3028744159163247 -0.1305840019769559
0.3026154783014974 -0.2387327440595235
0.30186189444444894 -0.34625350642902497
0.3010482137058412 -0.45215613051616005
0.3002704578399598 -0.5558870507042785
0.29947400128933 -0.6569463435954005
0.2985972372174586 -0.7548214206606935
0.29760595570023674 -0.8489904395670602
0.2964862825792788 -0.9389279838589641
0.2952341187901789 -1.0241069128555647
0.29384876167755286 -1.1039990054972497
0.29232944279266565 -1.1780752606832006
0.2906727217920742 -1.2458059776578985
0.2888693969014233 -1.3066610743626423
0.2869006469623249 -1.360112629908819
0.2847384445661455 -1.4056451417588853
0.28238103100599554 -1.4427713903009358
0.27998707989688926 -1.470990231938797
0.27804075422423397 -1.4894763604662666
0.27695180160944316 -1.4963652849601135
0.27586284899465235 -1.4894763604662664
0.2739165233219972 -1.4709902319387969
0.2715225722128909 -1.4427713903009356
0.26916515865274077 -1.4056451417588853
0.26700295625656134 -1.360112629908819
0.265034206317463 -1.306661074362642
0.26323088142681206 -1.245805977657898
0.2615741604262205 -1.1780752606832001
0.2600548415413334 -1.103999005497249
0.25866948442870735 -1.0241069128555644
0.25741732063960754 -0.938927983858964
0.2562976475186496 -0.8489904395670599
0.2553063660014277 -0.7548214206606931
0.2544296019295563 -0.6569463435953999
0.2536331453789265 -0.5558870507042789
0.2528553895130451 -0.45215613051616005
0.25204170877443743 -0.34625350642902525
0.2512881249173889 -0.23873274405952322
0.25102918730256163 -0.13058400197695555
0.25168053728313333 -0.024277244338764162
0.3281404988053481 -0.024862391805812355
0.3286186283549657 -0.13085538111861658
0.32825649428324005 -0.23870080620671633
0.32728297462199724 -0.3461142871767076
0.32606709259497335 -0.4520090292871074
0.3247181522832277 -0.5557486890820645
0.3232023256834016 -0.656806509678901
0.32146841332880594 -0.7546694520531225
0.3194860274298616 -0.8488204295953866
0.3172426419953837 -0.9387374753544613
0.31473459894983075 -1.0238951029060481
0.3119613100678691 -1.1037655646743598
0.30892214134850093 -1.1778195656720996
0.3056140821354632 -1.2455264639296824
0.3020289876237542 -1.306354711755175
0.2981499054855132 -1.3597750049164212
0.2939476889141179 -1.4052745348132765
0.2894050572278905 -1.4423910302956973
0.28466464515434015 -1.4707075458304721
0.2803017450472126 -1.4895195667305232
0.27695180160944316 -1.4967732952624482
0.2736018581716737 -1.489519566730523
0.26923895806454623 -1.4707075458304717
0.2644985459909958 -1.442391030295697
0.2599559143047685 -1.4052745348132762
0.2557536977333731 -1.3597750049164212
0.251874615595132 -1.3063547117551746
0.24828952108342303 -1.245526463929682
0.24498146187038528 -1.177819565672099
0.24194229315101717 -1.1037655646743594
0.23916900426905552 -1.0238951029060483
0.23666096122350255 -0.9387374753544611
0.23441757578902467 -0.8488204295953865
0.23243518989008036 -0.7546694520531222
0.23070127753548467 -0.6568065096789004
0.2291854509356586 -0.5557486890820649
0.22783651062391297 -0.4520090292871074
0.226620628596889 -0.3461142871767078
0.22564710893564624 -0.23870080620671608
0.2252849748639206 -0.1308553811186162
0.22576310441353817 -0.024862391805812387
0.35406395257257284 -0.025300835144199663
0.35437856484964436 -0.13108054616367848
0.35390325809625267 -0.2386550165555907
0.35271379359140315 -0.345949054251513
0.3511095382959688 -0.45181421214526535
0.34920021113190935 -0.5555432049696895
0.34696987297901133 -0.6565829957891872
0.3443801501036794 -0.7544187044848935
0.3414067180016735 -0.8485371535870003
0.33803939345640527 -0.9384194584547036
0.3342752547135338 -1.0235416287707924
0.3301138827666271 -1.1033763444767772
0.32555483072227104 -1.1773940535467193
0.32059575036817267 -1.2450632669115316
0.3152300834074072 -1.3058511324304733
0.3094441856485954 -1.3592269841063103
0.30321137066827286 -1.4046786190596534
0.29649736907503604 -1.4417633249258441
0.28940329658889496 -1.4701564827315372
0.2825755709624699 -1.4893343962499497
0.27695180160944316 -1.497077860470849
0.2713280322564164 -1.4893343962499495
0.26450030662999136 -1.470156482731537
0.25740623414385033 -1.441763324925844
0.2506922325506135 -1.404678619059653
0.24445941757029097 -1.35922698410631
0.238673519811479 -1.3058511324304731
0.23330785285071354 -1.245063266911531
0.22834877249661528 -1.177394053546719
0.22378972045225917 -1.1033763444767768
0.21962834850535246 -1.0235416287707924
0.21586420976248097 -0.9384194584547035
0.21249688521721277 -0.8485371535870001
0.20952345311520693 -0.7544187044848931
0.2069337302398749 -0.6565829957891866
0.2047033920869769 -0.5555432049696898
0.2027940649229175 -0.45181421214526535
0.20118980962748312 -0.34594905425151323
0.20000034512263365 -0.2386550165555904
0.19952503836924193 -0.13108054616367815
0.19983965064631345 -0.02530083514419969
0.3800171546441832 -0.02561197383765608
0.380180919720281 -0.13125758756722603
0.37958591880859777 -0.2385910301893859
0.3781829291523787 -0.345758036448526
0.3762003052748648 -0.4515736328413264
0.3737385908862373 -0.5552719873402107
0.3707972967682259 -0.6562763743931591
0.36735262704022964 -0.7540693217630796
0.3633880670476622 -0.8481406094647893
0.35889656072173404 -0.9379739006015023
0.3538761282936576 -1.0230464621329507
0.3483265328865158 -1.1028313323312198
0.34224752297092687 -1.1767987538615685
0.3356375935795148 -1.2444165309971618
0.3284922196328774 -1.305150699925828
0.3208020332599544 -1.3584695677005232
0.3125474753144836 -1.4038598975113015
0.3036817368142433 -1.4408894491539717
0.294234989353532 -1.4693257251570455
0.284878704036185 -1.4889022002123882
0.27695180160944316 -1.4973093343030257
0.2690248991827013 -1.488902200212388
0.2596686138653543 -1.469325725157045
0.250221866404643 -1.4408894491539714
0.24135612790440267 -1.403859897511301
0.23310156995893191 -1.3584695677005227
0.2254113835860089 -1.3051506999258278
0.21826600963937143 -1.2444165309971615
0.21165608024795943 -1.1767987538615683
0.20557707033237044 -1.1028313323312193
0.20002747492522868 -1.023046462132951
0.1950070424971522 -0.9379739006015021
0.19051553617122408 -0.8481406094647893
0.18655097617865668 -0.7540693217630794
0.18310630645066034 -0.6562763743931584
0.18016501233264898 -0.555271987340211
0.17770329794402148 -0.4515736328413263
0.17572067406650752 -0.3457580364485262
0.17431768441028853 -0.2385910301893856
0.17372268349860528 -0.13125758756722572
0.17388644857470315 -0.025611973837656087
0.4060198838191986 -0.02581550135268646
0.4060491237824047 -0.13138658947392093
0.40533285528646645 -0.23850558103844183
0.40371928532649637 -0.34554115197441304
0.4013651342857019 -0.45128856618494756
0.3983558745277306 -0.5549359735488062
0.39470546455086775 -0.655887020811939
0.39040605032136194 -0.7536213796863265
0.38545009538126485 -0.8476307786141181
0.3798341511488086 -0.937400770440591
0.37355725581321775 -1.0224095784647018
0.36661931442556833 -1.1021305142170135
0.359020231083477 -1.176033673065955
0.35075941420236123 -1.2435863511482825
0.3418348191727246 -1.3042536666678632
0.3322416749327732 -1.357503394455748
0.3219717831759757 -1.4028211170175793
0.310979722346883 -1.4397732901280327
0.2991990812229396 -1.4682040987759137
0.2872367702899695 -1.4881932413165286
0.2769518016094432 -1.4975074774825383
0.26666683292891663 -1.4881932413165284
0.25470452199594673 -1.4682040987759135
0.24292388087200337 -1.4397732901280325
0.23193182004291063 -1.4028211170175788
0.22166192828611309 -1.3575033944557475
0.2120687840461617 -1.3042536666678626
0.203144189016525 -1.243586351148282
0.19488337213540924 -1.1760336730659549
0.18728428879331793 -1.102130514217013
0.18034634740566857 -1.0224095784647018
0.17406945207007768 -0.9374007704405909
0.1684535078376214 -0.8476307786141181
0.16349755289752432 -0.7536213796863263
0.15919813866801852 -0.6558870208119384
0.15554772869115574 -0.5549359735488065
0.15253846893318437 -0.4512885661849474
0.1501843178923899 -0.3455411519744132
0.1485707479324198 -0.23850558103844158
0.1478544794364816 -0.1313865894739206
0.14788371939968772 -0.025815501352686492
0.4320874172348869 -0.025931948974777012
0.43200323239745897 -0.1314693324643785
0.43117120693752703 -0.23839681602286475
0.42935232022766856 -0.34529829521814287
0.42663056975961117 -0.45095961245160116
0.4230750724726345 -0.5545355694050584
0.41871536689882594 -0.6554150613868509
0.41356062014356393 -0.7530748683202535
0.4076127950187713 -0.8470076239497042
0.40087215418706623 -0.9367000400021357
0.39333867008134954 -1.0216309584641905
0.3850122827543678 -1.1012738761247527
0.3758929849439785 -1.1750987935031079
0.36598098791533124 -1.2425727435221074
0.35527713553660467 -1.3031602032454872
0.3437814644302237 -1.3563286064515343
0.3314979061893331 -1.4015645076096441
0.3184069480467288 -1.438422553170247
0.3043433698811714 -1.466784051000877
0.28969324592086776 -1.4871616587011738
0.27695180160944316 -1.4977241507587815
0.26421035729801845 -1.4871616587011733
0.24956023333771485 -1.4667840510008767
0.2354966551721575 -1.4384225531702466
0.22240569702955323 -1.4015645076096437
0.21012213878866257 -1.356328606451534
0.1986264676822816 -1.3031602032454868
0.18792261530355497 -1.2425727435221066
0.17801061827490774 -1.1750987935031074
0.1688913204645184 -1.1012738761247522
0.16056493313753673 -1.0216309584641905
0.15303144903182006 -0.9367000400021356
0.14629080820011497 -0.8470076239497041
0.1403429830753223 -0.7530748683202533
0.13518823632006033 -0.6554150613868502
0.1308285307462518 -0.5545355694050588
0.1272730334592751 -0.450959612451601
0.12455128299121773 -0.34529829521814304
0.12273239628135932 -0.23839681602286444
0.12190037082142734 -0.13146933246437814
0.12181618598399942 -0.025931948974777044
0.45822926577358825 -0.025983019537973096
0.45805953552379924 -0.13150927866286108
0.45712773881797814 -0.2382647054532343
0.45511251502771344 -0.3450294810183466
0.4520237844826797 -0.45058663627609247
0.4479193947040666 -0.554070587634079
0.4428480054324342 -0.6548603416555787
0.43683648836305966 -0.7524296831120028
0.4298961184124328 -0.8462710915744776
0.42203054013785196 -0.9358716878527474
0.4132404030084456 -1.020710591048707
0.40352550201684945 -1.100261402023536
0.3928858218921236 -1.1739940867917718
0.3813221794530534 -1.2413756051682538
0.3688381119063577 -1.301870396659198
0.355440109492741 -1.3549450256860844
0.34113912826387305 -1.4000903429550264
0.3259668590790845 -1.4368489410953134
0.3097210251123942 -1.4650688662691898
0.29232788556303824 -1.4857386252954476
0.2769518016094431 -1.4980247962719682
0.2615757176558479 -1.4857386252954474
0.24418257810649197 -1.4650688662691895
0.22793674413980175 -1.4368489410953131
0.21276447495501324 -1.400090342955026
0.19846349372614533 -1.354945025686084
0.18506549131252858 -1.3018703966591976
0.1725814237658328 -1.2413756051682532
0.16101778132676264 -1.1739940867917713
0.15037810120203676 -1.1002614020235357
0.14066320021044065 -1.0207105910487069
0.13187306308103441 -0.9358716878527473
0.12400748480645346 -0.8462710915744774
0.11706711485582659 -0.7524296831120026
0.11105559778645208 -0.654860341655578
0.10598420851481968 -0.5540705876340792
0.10187981873620655 -0.4505866362760923
0.09879108819117284 -0.3450294810183468
0.09677586440090818 -0.23826470545323397
0.09584406769508703 -0.1315092786628607
0.09567433744529806 -0.025983019537973148
0.484446850171469 -0.025991620512307644
0.48422994638505756 -0.13151201399500215
0.48323036703228056 -0.2381115857655789
0.48103200003704033 -0.3447347622266408
0.47757232548773265 -0.45016862493349674
0.47291200881893464 -0.5535402100786193
0.46712426447444355 -0.6542224145630771
0.46025371032423207 -0.751685627321546
0.45231996740613917 -0.8454211172515281
0.4433292626947058 -0.9349157020821315
0.43328248031180683 -1.0196484794415213
0.422179070962074 -1.0990930696029448
0.4100187524530515 -1.1727195218742423
0.39680302532942646 -1.239994750716604
0.38253665884077126 -1.3003839863834956
0.3672353165908891 -1.3533529542646185
0.35091376833094606 -1.39839534126605
0.3336443884756461 -1.4350645207364554
0.3153716142426901 -1.463087101205691
0.2952988959024349 -1.48382473304799
0.27695180160944305 -1.4984841015159147
0.25860470731645124 -1.4838247330479897
0.23853198897619604 -1.4630871012056907
0.22025921474324 -1.4350645207364554
0.2029898348879402 -1.3983953412660495
0.1866682866279972 -1.3533529542646179
0.17136694437811503 -1.300383986383495
0.15710057788945977 -1.2399947507166034
0.14388485076583474 -1.1727195218742419
0.1317245322568123 -1.0990930696029444
0.12062112290707952 -1.0196484794415213
0.11057434052418053 -0.9349157020821314
0.10158363581274715 -0.8454211172515281
0.09364989289465421 -0.7516856273215458
0.08677933874444273 -0.6542224145630765
0.08099159439995171 -0.5535402100786194
0.07633127773115365 -0.4501686249334967
0.07287160318184599 -0.344734762226641
0.07067323618660576 -0.2381115857655786
0.06967365683382878 -0.1315120139950018
0.06945675304741733 -0.02599162051230769
0.5107293593029719 -0.02598141229528978
0.5105213146641734 -0.13148653644751887
0.5095110144701287 -0.23794281774981652
0.5071450215508512 -0.3444137512520733
0.5033037296858399 -0.44970350385559904
0.4980758087294411 -0.5529429780242848
0.49156476062037674 -0.653500546898613
0.48383219959839874 -0.7508424298103337
0.4749041848632129 -0.8444576355693347
0.4647882567406006 -0.9338320886438433
0.45348493982264154 -1.0184446338339608
0.4409930689272743 -1.0977688881111858
0.42731197553562456 -1.1712749641777822
0.41244311569954434 -1.2384302063455481
0.39639356480458715 -1.2986997550267583
0.37917997301552686 -1.3515537270756945
0.3608497445693168 -1.3964749241100725
0.34142030599499024 -1.4330659443864093
0.3212437259714597 -1.460920286562793
0.29894903445776344 -1.481288263950853
0.2769518016094431 -1.4991607568302974
0.2549545687611227 -1.4812882639508527
0.23265987724742643 -1.4609202865627928
0.21248329722389586 -1.4330659443864089
0.19305385864956937 -1.396474924110072
0.17472363020335943 -1.351553727075694
0.15751003841429906 -1.2986997550267578
0.1414604875193419 -1.238430206345547
0.12659162768326176 -1.1712749641777818
0.11291053429161206 -1.0977688881111856
0.10041866339624482 -1.0184446338339608
0.08911534647828574 -0.9338320886438432
0.07899941835567345 -0.8444576355693346
0.07007140362048757 -0.7508424298103333
0.06233884259850945 -0.6535005468986126
0.055827794489445186 -0.552942978024285
0.05059987353304643 -0.44970350385559893
0.0467585816680352 -0.3444137512520736
0.04439258874875763 -0.23794281774981618
0.0433822885547129 -0.1314865364475185
0.04317424391591431 -0.025981412295289823
0.5370462137793595 -0.02597550475079609
0.5369350017117672 -0.13144824520728854
0.5360113121648675 -0.23776731782924718
0.5334870709589672 -0.3440644452614046
0.5292453715474534 -0.44918809876801463
0.523433071238883 -0.5522767531479781
0.5161897108263672 -0.6526937675004508
0.5075916835369335 -0.7498997721833383
0.49766854940718097 -0.843380596206048
0.48642744548487393 -0.9326208733032968
0.4738678184219856 -1.0170990899644194
0.45998762901055495 -1.0962888416534713
0.4447855925645637 -1.1696604138963893
0.4282628290144385 -1.236681387322833
0.41042694612329716 -1.296818408205003
0.39129899561301107 -1.3495407258206102
0.37093104265187155 -1.3943473995831661
0.3494203419522835 -1.4307836511150178
0.32689823828055214 -1.4587508507099873
0.3041040640904191 -1.477999341915406
0.27695180160944316 -1.5
0.24979953912846706 -1.477999341915406
0.22700536493833395 -1.4587508507099871
0.2044832612666026 -1.4307836511150176
0.18297256056701452 -1.3943473995831657
0.16260460760587522 -1.3495407258206094
0.1434766570955891 -1.2968184082050025
0.1256407742044477 -1.2366813873228322
0.10911801065432276 -1.1696604138963889
0.0939159742083314 -1.0962888416534708
0.08003578479690074 -1.0170990899644192
0.06747615773401247 -0.9326208733032965
0.05623505381170536 -0.843380596206048
0.04631191968195273 -0.7498997721833379
0.03771389239251896 -0.6526937675004503
0.030470531980003268 -0.5522767531479782
0.02465823167143293 -0.4491880987680145
0.02041653225991915 -0.34406444526140484
0.017892291054018843 -0.23776731782924687
0.016968601507119083 -0.13144824520728815
0.01685738943952685 -0.02597550475079614
SCALARS Stress float 6
LOOKUP_TABLE default
-306.59761550626973 -9754.9257651538 -3018.457014198021 -226.64296904371136 0.0 0.0
4620.329104768109 2730.3282498170115 2205.197206375536 -352.051955696125 0.0 0.0
2627.0364942937867 -232.99929581183966 718.211159544584 -150.56864739474094 0.0 0.0
2688.1101690466003 204.64406692918823 867.8262707927368 -22.425213410720808 0.0 0.0
3086.2727579895336 74.46206919919267 948.2204481566179 -51.68368294220878 0.0 0.0
3714.716734476085 105.21415680236917 1145.9792673835366 -53.258064055898046 0.0 0.0
4408.540833714567 114.64373932566625 1356.9553719120706 -56.47370682499523 0.0 0.0
5134.74426644161 133.52634016168233 1580.4811819809875 -57.69731384858074 0.0 0.0
5869.421880091323 152.10261009927018 1806.4573470571781 -58.13242117331988 0.0 0.0
6605.738679890637 171.29049018075753 2033.1087510214197 -58.24566419253161 0.0 0.0
7341.230713510638 190.4214612117944 2259.4956524167296 -58.24565708386544 0.0 0.0
8075.816405584552 209.5417929539862 2485.607459561562 -58.25855628238468 0.0 0.0
8810.467385879261 228.72871792072553 2711.758831139997 -58.37202388612782 0.0 0.0
9547.840101936376 248.2514834134683 2938.827475604952 -58.70628831280145 0.0 0.0
10293.770013247464 268.57213174293776 3168.7026434971203 -59.3906627702451 0.0 0.0
11058.118010486496 290.1681914796262 3404.485860589838 -60.36120388733333 0.0 0.0
11850.453288561741 312.78371793742156 3648.971101949749 -60.800693201319575 0.0 0.0
12662.77379559504 334.03020385558733 3899.041199835189 -58.28046367948788 0.0 0.0
13435.06722973699 348.61796916771226 4135.10555967141 -48.61064122655755 0.0 0.0
14025.687457238477 352.17322392268085 4313.3582043483475 -28.43685507270071 0.0 0.0
14251.92896839756 350.16981330000067 4380.6296345092705 -8.148504093696829e-11 0.0 0.0
14025.687457238226 352.1732239222612 4313.358204348147 28.436855072714394 0.0 0.0
13435.067229736533 348.61796916671966 4135.105559670976 48.61064122661196 0.0 0.0
12662.773795595289 334.03020385613735 3899.041199835429 58.28046367946382 0.0 0.0
11850.45328856208 312.7837179382112 3648.9711019500874 60.80069320122584 0.0 0.0
11058.118010486505 290.1681914796237 3404.485860589839 60.36120388736538 0.0 0.0
10293.770013247413 268.57213174272664 3168.702643497042 59.390662770193 0.0 0.0
9547.840101935788 248.25148341205784 2938.827475604354 58.706288312786754 0.0 0.0
8810.4673858793 228.72871792087403 2711.758831140054 58.372023886059765 0.0 0.0
8075.816405584571 209.54179295413252 2485.607459561611 58.25855628234564 0.0 0.0
7341.230713510456 190.42146121133152 2259.4956524165364 58.245657083906764 0.0 0.0
6605.73867989078 171.29049018105383 2033.108751021551 58.24566419249682 0.0 0.0
5869.421880091309 152.10261009926708 1806.4573470571722 58.132421173384685 0.0 0.0
5134.744266441568 133.5263401615463 1580.4811819809338 57.69731384853637 0.0 0.0
4408.54083371462 114.64373932577328 1356.955371912118 56.473706824920924 0.0 0.0
3714.716734476137 105.21415680252039 1145.9792673835973 53.2580640559247 0.0 0.0
3086.2727579895786 74.46206919920861 948.2204481566362 51.6836829422191 0.0 0.0
2688.110169046725 204.64406692945158 867.8262707928532 22.425213410721987 0.0 0.0
2627.0364942937026 -232.99929581198563 718.2111595445151 150.5686473948032 0.0 0.0
4620.329104768108 2730.3282498170047 2205.1972063755343 352.0519556961205 0.0 0.0
-306.59761550630014 -9754.925765153797 -3018.45701419803 226.64296904369525 0.0 0.0
-1740.9003864117656 -9691.036969249006 -3429.5812066982317 -154.88135953834583 0.0 0.0
2841.6595178910475 1868.0403921130119 1412.9099730012176 -280.6963034463306 0.0 0.0
1847.1720814266196 -262.15053841308116 475.5064629040617 -105.24173967283038 0.0 0.0
2397.6229259149954 92.68870961167131 747.093490658 -87.10886955012803 0.0 0.0
2743.8768309516013 11.507731871511282 826.6153688469336 -125.5929697294115 0.0 0.0
3313.8428909041772 9.159539463147407 996.9007291101975 -142.27285599563658 0.0 0.0
3928.9470645532333 3.062859147352222 1179.6029771101757 -149.7512417585238 0.0 0.0
4572.60628201158 0.936132899357214 1372.0627244732814 -152.81266024135977 0.0 0.0
5224.897306763313 0.09785577329319722 1567.4985487609822 -153.6531323335026 0.0 0.0
5879.419451066642 -0.12491840347843097 1763.7883597989492 -153.7391774164643 0.0 0.0
6533.781495640697 -0.12643203542111836 1960.0965190815825 -153.62197315895773 0.0 0.0
7187.691648102793 -0.019379665099118704 2156.301680531309 -153.56437390520736 0.0 0.0
7841.954960224012 0.2694397737100518 2352.667319999317 -153.77733202028608 0.0 0.0
8498.796758068274 0.9539347734223522 2549.925207852509 -154.63366192531538 0.0 0.0
9162.747746628786 2.241556245927205 2749.496790862414 -156.71818026731216 0.0 0.0
9840.578982586341 3.8050212059844553 2953.3152011376974 -160.4107085502267 0.0 0.0
10536.566161757575 3.639638600565986 3162.061740107442 -164.35735017495054 0.0 0.0
11237.51460170918 -3.132689122890987 3370.314573775887 -162.48980948079458 0.0 0.0
11886.890246670459 -22.724097803775702 3559.249844660004 -141.6434960592989 0.0 0.0
12369.095846519354 -53.25672550889387 3694.751736303137 -86.80060514630767 0.0 0.0
12549.529607903205 -71.67421959639543 3743.356616492044 -6.033928912074771e-11 0.0 0.0
12369.095846519333 -53.256725508994045 3694.7517363031025 86.80060514634775 0.0 0.0
11886.890246670397 -22.724097803948204 3559.249844659935 141.64349605934808 0.0 0.0
11237.514601709347 -3.1326891224816578 3370.314573776059 162.48980948087046 0.0 0.0
10536.566161757662 3.639638600761117 3162.061740107526 164.3573501749263 0.0 0.0
9840.578982586323 3.805021206001193 2953.3152011376974 160.41070855025725 0.0 0.0
9162.747746628771 2.2415562458938005 2749.4967908623994 156.71818026731162 0.0 0.0
8498.796758067825 0.9539347723432172 2549.9252078520494 154.63366192539513 0.0 0.0
7841.95496022393 0.269439773566603 2352.667319999249 153.7773320203366 0.0 0.0
7187.691648102869 -0.019379664890202264 2156.301680531394 153.5643739052528 0.0 0.0
6533.781495640853 -0.12643203507577994 1960.0965190817333 153.62197315900664 0.0 0.0
5879.419451066704 -0.12491840332354087 1763.7883597990135 153.73917741648953 0.0 0.0
5224.897306763413 0.09785577361548192 1567.4985487611093 153.65313233352646 0.0 0.0
4572.606282011378 0.9361328989268465 1372.0627244730913 152.81266024136363 0.0 0.0
3928.947064553324 3.0628591475750024 1179.6029771102694 149.75124175845883 0.0 0.0
3313.8428909041113 9.159539463011122 996.9007291101369 142.27285599566073 0.0 0.0
2743.8768309516317 11.50773187155112 826.6153688469548 125.59296972943338 0.0 0.0
2397.6229259151105 92.68870961183816 747.0934906580848 87.10886955016261 0.0 0.0
1847.1720814266164 -262.1505384131222 475.5064629040483 105.24173967287518 0.0 0.0
2841.6595178910484 1868.0403921130796 1412.9099730012388 280.69630344633583 0.0 0.0
-1740.9003864117894 -9691.036969249017 -3429.581206698242 154.8813595383427 0.0 0.0
-1904.8969699991353 -8482.151648165654 -3116.114585449437 -713.2984816621199 0.0 0.0
1797.124073623441 1126.1741163764823 876.9894569999769 -507.58860145430646 0.0 0.0
1369.9235861769916 46.971059575236275 425.06839372566844 -71.36419792897183 0.0 0.0
2000.537154938873 15.181521983307576 604.7156030766542 -200.94637599379587 0.0 0.0
2441.403685849041 35.79955684900502 743.1609728094138 -250.07321736778988 0.0 0.0
2941.4698697321987 8.907377080082092 885.1131740436844 -286.607200215227 0.0 0.0
3495.5300724050935 4.8651899691963045 1050.1185787122868 -300.8864973185657 0.0 0.0
4066.1936219767867 1.2068004596280557 1220.2201267309242 -306.6571396956625 0.0 0.0
4645.385901247989 0.14198461684077568 1393.6583657594497 -308.2075010009315 0.0 0.0
5226.615697415672 -0.18070867846920224 1567.9304966211614 -308.2971760322703 0.0 0.0
5808.072829782086 -0.17966198383814902 1742.3679503394746 -308.032155910631 0.0 0.0
6389.364354180794 -0.03220469396953174 1916.7996448460474 -307.8891985698803 0.0 0.0
6971.0915537777 0.3662501262550295 2091.4373411711863 -308.26977048337596 0.0 0.0
7554.9362553175415 1.325098581491467 2266.87840616971 -309.9134779564309 0.0 0.0
8144.168822268834 3.1743650903770666 2444.202956207763 -314.0445817006482 0.0 0.0
8743.257115039507 5.522994014541686 2624.6340327162147 -321.62267258415727 0.0 0.0
9353.647178669826 5.537282516751176 2807.7553383559743 -330.34789404041317 0.0 0.0
9961.42515933642 -4.093400636574319 2987.1995276099547 -328.45714508101247 0.0 0.0
10516.755776080234 -33.550464399157704 3144.9615935043234 -288.93866612961426 0.0 0.0
10922.731359410425 -81.94335452485572 3252.236401465671 -178.8428576150791 0.0 0.0
11071.8218227078 -112.95619564365936 3287.6596881192418 -9.976020010071807e-12 0.0 0.0
10922.731359410438 -81.94335452492066 3252.2364014656546 178.84285761508227 0.0 0.0
10516.75577608037 -33.550464398784435 3144.961593504476 288.93866612968264 0.0 0.0
9961.425159336273 -4.093400636869042 2987.1995276098196 328.45714508103254 0.0 0.0
9353.647178669944 5.537282517028764 2807.755338356093 330.3478940403938 0.0 0.0
8743.257115039665 5.522994014879931 2624.634032716364 321.62267258414414 0.0 0.0
8144.168822269066 3.17436509086836 2444.2029562079806 314.0445817006657 0.0 0.0
7554.936255317403 1.3250985811365723 2266.878406169562 309.9134779564869 0.0 0.0
6971.0915537776855 0.36625012623395037 2091.4373411711763 308.26977048348266 0.0 0.0
6389.364354180772 -0.032204694023938885 1916.799644846024 307.88919856996597 0.0 0.0
5808.072829782316 -0.17966198324310767 1742.3679503397225 308.03215591063986 0.0 0.0
5226.61569741568 -0.18070867839181304 1567.9304966211864 308.297176032276 0.0 0.0
4645.38590124827 0.1419846174952326 1393.6583657597293 308.2075010008946 0.0 0.0
4066.1936219766326 1.2068004592584174 1220.220126730767 306.65713969568526 0.0 0.0
3495.5300724052245 4.865189969520761 1050.1185787124236 300.88649731854775 0.0 0.0
2941.46986973219 8.907377080019309 885.1131740436625 286.6072002152507 0.0 0.0
2441.403685849076 35.7995568490676 743.1609728094431 250.07321736779085 0.0 0.0
2000.5371549388774 15.181521983267874 604.7156030766434 200.94637599384367 0.0 0.0
1369.9235861770128 46.97105957524837 425.06839372567833 71.36419792892838 0.0 0.0
1797.1240736234436 1126.1741163765441 876.9894569999963 507.5886014543237 0.0 0.0
-1904.8969699991633 -8482.151648165685 -3116.114585449455 713.2984816621444 0.0 0.0
-1750.5332422228857 -7291.625000511927 -2712.6474728204444 -890.4694604278191 0.0 0.0
1121.9005035055266 458.32103603244167 474.0664618613904 -695.1277598870603 0.0 0.0
1001.4379432846408 216.91515112225474 365.5059283220687 -211.50703949155042 0.0 0.0
1618.624910430647 31.087814854002303 494.9138175853949 -290.48763658931244 0.0 0.0
2110.815787234568 38.521352903623594 644.8011420414574 -372.0072357392826 0.0 0.0
2569.3857618660813 17.00682686843043 775.9177766203537 -413.742685735826 0.0 0.0
3058.1616502535658 6.059684732840153 919.266400495922 -434.54296998045254 0.0 0.0
3559.214249968859 1.9634521924314154 1068.3533106483876 -442.17233048720897 0.0 0.0
4065.552763084886 0.1432134100207052 1219.7087929484721 -444.4282530844753 0.0 0.0
4573.819570148665 -0.2677530711350373 1372.065545123259 -444.59201762738627 0.0 0.0
5082.39026114156 -0.272004675793867 1524.6354769397303 -444.2622312644528 0.0 0.0
5590.992464433607 -0.056045367571746496 1677.2809257198105 -444.0884929797493 0.0 0.0
6099.973953780224 0.5219284951108181 1830.148764682601 -444.6249221078477 0.0 0.0
6610.406032507426 1.9328918807051512 1983.7016773164396 -446.8649111385151 0.0 0.0
7124.320958297785 4.7144600179726766 2138.7106254947275 -452.43838123745513 0.0 0.0
7644.370260285148 8.387975313998787 2295.8274706797442 -462.6013300390863 0.0 0.0
8170.707752848896 8.766935803339493 2453.842406595671 -474.1306435105782 0.0 0.0
8691.419022704686 -5.550572005036088 2605.7605352098954 -470.6099066100394 0.0 0.0
9165.045673839968 -51.48433144513523 2734.0684027184498 -413.87781368875943 0.0 0.0
9508.982047870697 -129.46776292811273 2813.8542854827765 -256.46559395454074 0.0 0.0
9632.828807608728 -180.71343990042573 2835.63461031249 2.12878603633726e-11 0.0 0.0
9508.982047870677 -129.4677629281913 2813.8542854827456 256.465593954554 0.0 0.0
9165.045673839906 -51.484331445275664 2734.0684027183897 413.87781368879996 0.0 0.0
8691.419022704482 -5.550572005473775 2605.760535209703 470.60990661006053 0.0 0.0
8170.7077528490845 8.766935803773276 2453.842406595858 474.1306435106218 0.0 0.0
7644.3702602853 8.387975314299343 2295.8274706798798 462.6013300390145 0.0 0.0
7124.32095829794 4.714460018318437 2138.7106254948776 452.4383812374701 0.0 0.0
6610.4060325073215 1.932891880463952 1983.7016773163355 446.86491113846057 0.0 0.0
6099.973953780249 0.5219284951386669 1830.1487646826163 444.6249221077944 0.0 0.0
5590.992464433575 -0.05604536765377688 1677.280925719777 444.0884929797178 0.0 0.0
5082.390261141776 -0.27200467523719496 1524.635476939962 444.26223126447303 0.0 0.0
4573.819570148697 -0.267753071024611 1372.0655451233013 444.5920176274034 0.0 0.0
4065.552763085074 0.14321341039863356 1219.7087929486415 444.42825308446976 0.0 0.0
3559.2142499688857 1.9634521925172415 1068.3533106484208 442.17233048722784 0.0 0.0
3058.161650253564 6.059684732869947 919.26640049593 434.54296998047266 0.0 0.0
2569.3857618661764 17.00682686864395 775.917776620446 413.7426857358094 0.0 0.0
2110.815787234595 38.52135290372346 644.8011420414955 372.0072357392427 0.0 0.0
1618.6249104306064 31.08781485391762 494.9138175853571 290.4876365893478 0.0 0.0
1001.4379432846602 216.91515112220816 365.5059283220605 211.50703949145048 0.0 0.0
1121.9005035055181 458.32103603237147 474.06646186136686 695.1277598870502 0.0 0.0
-1750.53324222292 -7291.625000511935 -2712.6474728204566 890.4694604278268 0.0 0.0
-1500.2426566078154 -6207.384335785113 -2312.288097717879 -910.7921316992444 0.0 0.0
681.6945362789756 -56.45065511806271 187.57316434827388 -821.9757191135318 0.0 0.0
714.1837330472777 270.63993376795736 295.44710004457045 -400.7707087888069 0.0 0.0
1270.8743244036104 76.10081248336917 404.09254106609393 -396.39317449619057 0.0 0.0
1769.3957416606797 45.50063693613656 544.4689135790449 -480.8085964652382 0.0 0.0
2193.6084618409295 24.10080590112944 665.3127803226176 -527.2820326072484 0.0 0.0
2619.390932499813 8.776195645110855 788.4501384434773 -550.4891213719874 0.0 0.0
3051.244145656499 2.6184844514930194 916.1587890323973 -559.6780357201814 0.0 0.0
3485.5211660789446 0.2428279033838372 1045.7291981946987 -562.3602770881524 0.0 0.0
3920.9535763444487 -0.3894114238951243 1176.169249476166 -562.6461197599883 0.0 0.0
4356.7045996419965 -0.38034693795537944 1306.897275811213 -562.3064296102682 0.0 0.0
4792.560375428377 -0.08198239540532093 1437.7435179098918 -562.1385638095181 0.0 0.0
5228.648032469272 0.7256366320413292 1568.8121007303944 -562.7863762214954 0.0 0.0
5665.4001025309335 2.703460607012852 1700.4310689413837 -565.3791105551559 0.0 0.0
6103.686215187575 6.6455886891851375 1833.0995411630279 -571.7494285785656 0.0 0.0
6544.774461437062 11.968815122740025 1967.02298296794 -583.3001230493883 0.0 0.0
6988.7319463749 12.771908943293857 2100.451156595458 -596.221835878696 0.0 0.0
7427.644648721164 -7.686533595854609 2225.987434537593 -590.8676242368776 0.0 0.0
7829.455078888329 -75.32936004018103 2326.237715654445 -520.310127964092 0.0 0.0
8122.1848104492055 -192.72675921913412 2378.8374153690215 -323.6878530485756 0.0 0.0
8224.944878478771 -271.55176976512513 2386.017932614093 -4.007461029686965e-12 0.0 0.0
8122.184810449267 -192.72675921900702 2378.8374153690784 323.6878530486422 0.0 0.0
7829.455078888224 -75.32936004044765 2326.2377156543325 520.3101279640462 0.0 0.0
7427.64464872113 -7.686533595943978 2225.9874345375565 590.8676242368459 0.0 0.0
6988.731946374634 12.771908942682591 2100.451156595195 596.2218358787487 0.0 0.0
6544.774461436922 11.968815122298452 1967.0229829677655 583.3001230494034 0.0 0.0
6103.686215187441 6.64558868882294 1833.0995411628787 571.7494285785499 0.0 0.0
5665.400102530819 2.7034606067793803 1700.4310689412796 565.3791105551161 0.0 0.0
5228.6480324695 0.7256366325816899 1568.812100730625 562.7863762215015 0.0 0.0
4792.560375428447 -0.08198239521358275 1437.7435179099703 562.1385638095657 0.0 0.0
4356.704599642012 -0.3803469378772242 1306.8972758112402 562.3064296102717 0.0 0.0
3920.953576344391 -0.38941142402414286 1176.1692494761098 562.6461197600044 0.0 0.0
3485.521166078817 0.2428279030224516 1045.729198194552 562.3602770881315 0.0 0.0
3051.244145656525 2.618484451598725 916.1587890324372 559.6780357201876 0.0 0.0
2619.3909324996976 8.776195644899154 788.450138443379 550.489121371994 0.0 0.0
2193.608461840954 24.100805901232533 665.312780322656 527.282032607183 0.0 0.0
1769.3957416607357 45.500636936306904 544.4689135791132 480.8085964652465 0.0 0.0
1270.8743244036152 76.10081248336043 404.09254106609274 396.3931744962178 0.0 0.0
714.1837330472681 270.63993376791024 295.4471000445536 400.7707087887924 0.0 0.0
681.6945362789348 -56.450655118145846 187.57316434823662 821.9757191134831 0.0 0.0
-1500.2426566078375 -6207.384335785095 -2312.2880977178797 910.7921316992391 0.0 0.0
-1242.8020673680917 -5252.0843403279505 -1948.4659223088124 -868.9291935285179 0.0 0.0
391.66009956666284 -417.36362359880513 -7.711057209642757 -896.9431685094618 0.0 0.0
486.56692676154483 251.41180866741996 221.3936206286895 -583.8798187380719 0.0 0.0
960.2428718206156 118.34640275783536 323.57678237353525 -514.7837468967142 0.0 0.0
1429.144463322485 58.899811070131776 446.41328231778493 -579.5900825361662 0.0 0.0
1814.9788669334057 30.501326762201025 553.644058108682 -626.1287539046361 0.0 0.0
2179.743344733645 11.941549952269593 657.5054684057746 -649.4796886420492 0.0 0.0
2542.625067226237 3.434229276644685 763.8177889508646 -659.1746970293002 0.0 0.0
2905.2344040433454 0.3416150585822004 871.6728057305784 -662.0996191923513 0.0 0.0
3268.010281271176 -0.5009255307886225 980.2528067221162 -662.4698895956799 0.0 0.0
3630.980597187274 -0.4968461280573653 1089.1451253177647 -662.1648288591443 0.0 0.0
3994.064792719884 -0.10282591314098077 1198.1885900420227 -662.0211638010352 0.0 0.0
4357.171249118344 0.9571555733718089 1307.4385214075148 -662.7156367974048 0.0 0.0
4720.122005289631 3.5497771086744656 1417.1015347194916 -665.39419610428 0.0 0.0
5082.72313584344 8.743402274272263 1527.4399614353138 -671.9185195096443 0.0 0.0
5445.194937722676 15.872165846395188 1638.3201310707213 -683.7809434764207 0.0 0.0
5808.36014850295 17.18325020855142 1747.6630196134504 -697.1369670306 0.0 0.0
6169.732736504609 -10.213265297221565 1847.8558413622163 -690.8008315555661 0.0 0.0
6507.490620819264 -103.32775270882163 1921.2488604331331 -611.2097187307529 0.0 0.0
6757.339999052525 -269.02820771780796 1946.4935374004149 -383.51494895704195 0.0 0.0
6841.5748708849915 -383.69524829734144 1937.363886776295 3.836930773104541e-13 0.0 0.0
6757.339999052512 -269.0282077178127 1946.4935374004099 383.5149489570995 0.0 0.0
6507.490620819282 -103.32775270872912 1921.2488604331663 611.2097187307457 0.0 0.0
6169.732736504571 -10.213265297350318 1847.8558413621665 690.8008315555909 0.0 0.0
5808.360148502727 17.18325020798447 1747.6630196132132 697.1369670305244 0.0 0.0
5445.1949377225765 15.872165846181055 1638.3201310706277 683.7809434763851 0.0 0.0
5082.723135843283 8.743402273929053 1527.4399614351635 671.9185195096477 0.0 0.0
4720.122005289768 3.549777109068767 1417.101534719651 665.394196104332 0.0 0.0
4357.171249118627 0.9571555740599464 1307.4385214078063 662.7156367974148 0.0 0.0
3994.064792719714 -0.10282591347089465 1198.188590041873 662.0211638010402 0.0 0.0
3630.980597187012 -0.49684612860938415 1089.1451253175208 662.1648288590973 0.0 0.0
3268.0102812711675 -0.5009255308417799 980.2528067220977 662.4698895956715 0.0 0.0
2905.234404043142 0.34161505811641746 871.6728057303776 662.0996191923547 0.0 0.0
2542.6250672261535 3.4342292764385594 763.8177889507774 659.1746970292888 0.0 0.0
2179.7433447334897 11.941549951926328 657.5054684056247 649.4796886420255 0.0 0.0
1814.978866933418 30.5013267622502 553.6440581087006 626.1287539045873 0.0 0.0
1429.1444633225528 58.899811070298675 446.4132823178555 579.590082536195 0.0 0.0
960.2428718205556 118.34640275770288 323.5767823734775 514.7837468967401 0.0 0.0
486.5669267615524 251.41180866748635 221.39362062871166 583.8798187380908 0.0 0.0
391.6600995666447 -417.3636235988397 -7.711057209658584 896.9431685094288 0.0 0.0
-1242.8020673680182 -5252.084340327909 -1948.465922308778 868.9291935285219 0.0 0.0
-1011.0631326935982 -4420.812516033438 -1629.5626946181112 -805.6255076527367 0.0 0.0
197.53259955099207 -648.3694370807036 -135.25105125891344 -933.1347169419026 0.0 0.0
302.04776552237615 195.0919225642252 149.1419064259804 -738.4841939355565 0.0 0.0
683.3048634830448 146.16050785116542 248.83961140026315 -633.3626707989959 0.0 0.0
1096.972203560223 74.68514520805583 351.4972046304836 -669.5233070729349 0.0 0.0
1435.820208886416 36.907198449057994 441.8182222006422 -709.9815753653974 0.0 0.0
1739.5920894710405 14.944482709600715 526.3609716541926 -731.6033656298364 0.0 0.0
2033.6481066836661 4.3521792145871565 611.400085769476 -740.7878971894215 0.0 0.0
2324.716201025492 0.4467219689405555 697.5488768983298 -743.6754086429632 0.0 0.0
2614.968845154915 -0.6005859436308594 784.3104777633853 -744.0871044072925 0.0 0.0
2905.198847034575 -0.6059172464344726 871.3778789364421 -743.8367579435131 0.0 0.0
3195.5061803768654 -0.11775059995775727 958.6165289330725 -743.7255661436475 0.0 0.0
3485.606383285197 1.1923635382268696 1046.0396240470272 -744.3924299982103 0.0 0.0
3774.7700517683775 4.381672601124082 1133.7455173108506 -746.89336870056 0.0 0.0
4061.854172534567 10.78996698922994 1221.7932418571397 -752.9676500361861 0.0 0.0
4346.243218044672 19.742143638545794 1309.7956085049655 -764.1853394979144 0.0 0.0
4629.9791893627125 21.76646919648961 1395.5236975677606 -777.3300098521671 0.0 0.0
4916.967894541411 -12.509600287040662 1471.337488276311 -771.5715661558559 0.0 0.0
5196.570707965093 -133.31336067647356 1518.977204186586 -688.7859963946776 0.0 0.0
5409.962388741487 -355.9132490469822 1516.2147419083515 -438.32992851445294 0.0 0.0
5476.7518197971185 -516.7150331658313 1488.011035989386 -2.5863755581667647e-12 0.0 0.0
5409.962388741473 -355.9132490470219 1516.214741908335 438.3299285144451 0.0 0.0
5196.570707965077 -133.31336067649323 1518.977204186575 688.7859963947162 0.0 0.0
4916.967894541243 -12.509600287449985 1471.337488276138 771.5715661558747 0.0 0.0
4629.979189362685 21.766469196464534 1395.5236975677449 777.3300098520988 0.0 0.0
4346.243218044793 19.74214363879508 1309.7956085050762 764.185339497917 0.0 0.0
4061.854172534589 10.78996698930273 1221.7932418571677 752.9676500361643 0.0 0.0
3774.7700517686635 4.3816726018354935 1133.74551731115 746.8933687005185 0.0 0.0
3485.6063832851323 1.1923635380412883 1046.0396240469522 744.392429998174 0.0 0.0
3195.5061803768103 -0.11775060013690819 958.6165289330019 743.7255661436399 0.0 0.0
2905.1988470346146 -0.6059172463620079 871.3778789364759 743.8367579435085 0.0 0.0
2614.9688451550537 -0.6005859433671468 784.310477763506 744.0871044072462 0.0 0.0
2324.716201025505 0.44672196892973304 697.5488768983304 743.6754086429152 0.0 0.0
2033.6481066835515 4.352179214300431 611.4000857693558 740.7878971894646 0.0 0.0
1739.5920894709152 14.94448270934489 526.3609716540781 731.603365629811 0.0 0.0
1435.820208886483 36.90719844925193 441.8182222007205 709.9815753653941 0.0 0.0
1096.9722035602565 74.68514520810956 351.49720463050977 669.5233070729197 0.0 0.0
683.3048634829738 146.16050785101206 248.83961140019576 633.3626707990074 0.0 0.0
302.0477655224047 195.09192256431777 149.1419064260167 738.4841939355606 0.0 0.0
197.5325995509788 -648.3694370807814 -135.25105125894083 933.134716941925 0.0 0.0
-1011.0631326935396 -4420.812516033417 -1629.5626946180867 805.625507652673 0.0 0.0
-814.279405867276 -3698.901095554512 -1353.9541504265362 -738.0701440515556 0.0 0.0
64.3666864076678 -777.9362720228996 -214.0708756845695 -941.3768095880398 0.0 0.0
148.22784237282917 126.00708337016431 82.27047772289805 -857.5544752047778 0.0 0.0
434.550279460549 158.0627121581161 177.78389748559957 -741.3367142504675 0.0 0.0
776.085800398078 88.8164748169332 259.4706825645034 -749.1483064147371 0.0 0.0
1058.4184657129804 43.110102110468375 330.4585703470347 -778.7476998432604 0.0 0.0
1299.468485117513 17.567648254723544 395.110840011671 -796.7393915839544 0.0 0.0
1524.5219571017128 5.222041245706345 458.92319950422575 -804.5747197498846 0.0 0.0
1744.0230601154612 0.5616929867285441 523.3754259306569 -807.1146270363361 0.0 0.0
1961.815480743205 -0.6848620282759583 588.3391856144788 -807.5132764619357 0.0 0.0
2179.3452292088696 -0.698428661456413 653.594040164224 -807.3260737738717 0.0 0.0
2396.8893999095244 -0.12696701872377147 719.0287298672403 -807.2470619831685 0.0 0.0
2614.01342704612 1.405910267254427 784.6258011940121 -807.8140689858782 0.0 0.0
2829.524822496393 5.115440054306426 850.3920787652099 -809.9005026082544 0.0 0.0
3041.456397133611 12.586466915324799 916.2128592146804 -814.9906971127241 0.0 0.0
3248.4410514447463 23.255267356252606 981.5088956402998 -824.7172633550811 0.0 0.0
3453.8157959975947 26.356354381446252 1044.0516451137123 -837.159608706911 0.0 0.0
3668.425838082526 -13.759458225522764 1096.399913957101 -833.8988554148591 0.0 0.0
3894.080121682531 -162.76734195557748 1119.3938339180859 -754.5659152318174 0.0 0.0
4075.9706659137814 -450.9427969607352 1087.5083606859139 -490.13535221197 0.0 0.0
4124.806366691529 -671.483581538204 1035.9968355459966 1.3670842236024328e-11 0.0 0.0
4075.9706659137755 -450.9427969608045 1087.508360685891 490.1353522119673 0.0 0.0
3894.0801216824375 -162.76734195583032 1119.3938339179822 754.5659152318912 0.0 0.0
3668.4258380823426 -13.759458225928114 1096.3999139569246 833.8988554148352 0.0 0.0
3453.8157959975524 26.35635438133168 1044.0516451136652 837.1596087069021 0.0 0.0
3248.4410514445403 23.255267355773043 981.5088956400944 824.7172633551 0.0 0.0
3041.456397133653 12.586466915476361 916.2128592147392 814.9906971127677 0.0 0.0
2829.5248224964034 5.115440054334906 850.3920787652214 809.9005026082634 0.0 0.0
2614.013427046066 1.4059102671714392 784.6258011939714 807.8140689859111 0.0 0.0
2396.889399909692 -0.1269670182850966 719.0287298674223 807.2470619832036 0.0 0.0
2179.345229208764 -0.6984286617245452 653.5940401641118 807.3260737739395 0.0 0.0
1961.8154807433377 -0.684862027949185 588.3391856146163 807.5132764619149 0.0 0.0
1744.023060115388 0.5616929865782652 523.3754259305902 807.1146270362893 0.0 0.0
1524.5219571017317 5.222041245714449 458.9231995042338 804.5747197498703 0.0 0.0
1299.4684851175552 17.56764825478708 395.1108400117027 796.7393915840071 0.0 0.0
1058.4184657130063 43.11010211050059 330.45857034705205 778.7476998432775 0.0 0.0
776.0858003980375 88.816474816852 259.47068256446687 749.14830641474 0.0 0.0
434.55027946054423 158.0627121581413 177.78389748560568 741.3367142504694 0.0 0.0
148.2278423728102 126.00708337007228 82.27047772286473 857.554475204772 0.0 0.0
64.36668640766223 -777.9362720229191 -214.07087568457706 941.3768095880391 0.0 0.0
-814.2794058673419 -3698.901095554546 -1353.9541504265662 738.0701440514866 0.0 0.0
-652.1013433757612 -3070.0493725020933 -1116.6452147633563 -672.8202634798058 0.0 0.0
-30.397749693551653 -831.9049193663294 -258.69080071796446 -929.3030301272697 0.0 0.0
15.96369509203641 58.871816474306904 22.45065346990299 -940.8447039562919 0.0 0.0
208.28322273934825 156.8312288024219 109.53433546253106 -831.3193354291066 0.0 0.0
467.31680331041844 98.80478236424256 169.83647570239833 -815.7943929508241 0.0 0.0
684.4617417175195 48.4053557271234 219.86012923339297 -832.0302373005164 0.0 0.0
859.9682982695739 19.68109441142417 263.89481780429946 -844.7150494149149 0.0 0.0
1015.4200130498233 5.926947449385487 306.4040881497626 -850.5132479860916 0.0 0.0
1163.2094116193323 0.6694712733042287 349.16366486779094 -852.43508647521 0.0 0.0
1308.5463251020399 -0.7478849168921382 392.3395320555445 -852.7602793791837 0.0 0.0
1453.4093763001483 -0.7688574648672226 435.7921556505844 -852.6384244066792 0.0 0.0
1598.220943761245 -0.1319597793058236 479.4266951945817 -852.5871556843841 0.0 0.0
1742.4437727310576 1.5749131937074736 523.2056057774295 -852.9928819160812 0.0 0.0
1884.5376550817134 5.681475009266567 567.065739027294 -854.4737583518096 0.0 0.0
2021.8531958841443 13.965617598142952 610.7456440446861 -858.1442479824425 0.0 0.0
2152.246096812134 26.1158632452127 653.5085880172041 -865.6380562913964 0.0 0.0
2280.0298748440237 30.784530446305343 693.2443215870987 -876.8834980283202 0.0 0.0
2423.0922660973024 -13.092298615333625 722.9999902445907 -878.0406052959215 0.0 0.0
2597.3999168796468 -188.8246609901937 722.5725767668357 -809.4229217428525 0.0 0.0
2751.6118521040926 -551.4338132142141 660.0534116669635 -540.7099512453269 0.0 0.0
2780.041752402505 -850.3045342916047 578.9211654332702 -2.1316282072803006e-12 0.0 0.0
2751.611852104043 -551.4338132143683 660.0534116669027 540.7099512453619 0.0 0.0
2597.399916879453 -188.8246609905832 722.572576766661 809.4229217428614 0.0 0.0
2423.092266097439 -13.092298614943203 722.9999902447489 878.0406052958776 0.0 0.0
2280.0298748440446 30.78453044631183 693.2443215871068 876.8834980283539 0.0 0.0
2152.246096812036 26.11586324501083 653.5085880171142 865.6380562914227 0.0 0.0
2021.853195884197 13.965617598306196 610.745644044751 858.1442479825025 0.0 0.0
1884.5376550815004 5.681475008717518 567.0657390270654 854.4737583518029 0.0 0.0
1742.4437727310121 1.5749131936277863 523.205605777392 852.992881916075 0.0 0.0
1598.2209437614388 -0.13195977885146348 479.42669519477624 852.5871556843587 0.0 0.0
1453.4093762999332 -0.7688574654503917 435.79215565034497 852.6384244067038 0.0 0.0
1308.5463251020687 -0.7478849168252744 392.339532055573 852.7602793791795 0.0 0.0
1163.2094116191847 0.6694712729953878 349.1636648676539 852.435086475248 0.0 0.0
1015.4200130497868 5.926947449279032 306.40408814971966 850.5132479860127 0.0 0.0
859.9682982695876 19.681094411445812 263.89481780431004 844.7150494149438 0.0 0.0
684.4617417173693 48.405355726795655 219.86012923324955 832.0302373005226 0.0 0.0
467.3168033104596 98.80478236436096 169.8364757024462 815.7943929508649 0.0 0.0
208.28322273932827 156.8312288023883 109.534335462515 831.3193354290852 0.0 0.0
15.963695091981496 58.87181647415581 22.450653469841214 940.8447039562783 0.0 0.0
-30.397749693512907 -831.9049193662478 -258.69080071792825 929.3030301272423 0.0 0.0
-652.1013433757709 -3070.0493725020915 -1116.6452147633586 672.8202634797618 0.0 0.0
-520.7498455915515 -2519.7397069470144 -912.1468657615698 -611.6002213178622 0.0 0.0
-101.29753909359422 -831.518493624644 -279.84480981547154 -901.8851262114114 0.0 0.0
-101.39353405547726 1.6171031863383183 -29.9329292607417 -990.7913955357111 0.0 0.0
-0.5996516693905445 146.443796290625 43.753243386370336 -898.9438044669239 0.0 0.0
170.11597094727537 103.65662663246303 82.13177927392154 -866.6503397431983 0.0 0.0
314.9347526549589 52.064353201121364 110.0997317568241 -869.0762667238444 0.0 0.0
421.6136213888399 21.138727318422863 132.82570461217884 -875.2977477850403 0.0 0.0
506.49370090471103 6.3957109237904985 153.86682354855046 -878.5342038066218 0.0 0.0
582.317486903802 0.7482356501000016 174.91971676617064 -879.6384792257254 0.0 0.0
655.1626152248128 -0.7861274224940065 196.31294634069565 -879.8383750485038 0.0 0.0
727.384695254301 -0.8131838202269623 217.9714534302223 -879.7805216528249 0.0 0.0
799.5066357513227 -0.13476813262492904 239.81156028560932 -879.7524127157048 0.0 0.0
870.9356444052617 1.6812823037025257 261.78507801268916 -879.9530159662095 0.0 0.0
939.9206169816921 6.029950083042731 283.7851701194205 -880.6971849870769 0.0 0.0
1003.3042158039846 14.80437795958579 305.43257812907115 -882.6374171141526 0.0 0.0
1058.0735985767792 28.058040054707376 325.83949158944597 -887.2726436745058 0.0 0.0
1108.8070577200037 34.8070567657525 343.08423434572694 -896.6844703305816 0.0 0.0
1179.9790997569023 -9.739974301689806 351.07173763656374 -903.7883433942677 0.0 0.0
1303.9260774984882 -208.26801284236657 328.69741939683655 -853.5415253436739 0.0 0.0
1433.4228041750944 -654.1080398788395 233.79442928887656 -591.7066296715506 0.0 0.0
1436.3684412920613 -1057.2176228584917 113.7452455300708 -3.183231456205249e-12 0.0 0.0
1433.4228041752328 -654.1080398785583 233.79442928900244 591.7066296715179 0.0 0.0
1303.9260774984741 -208.26801284236183 328.6974193968338 853.5415253436349 0.0 0.0
1179.979099757093 -9.739974301194945 351.07173763676946 903.7883433942725 0.0 0.0
1108.8070577201972 34.80705676625264 343.08423434593504 896.6844703305607 0.0 0.0
1058.0735985768802 28.05804005497695 325.83949158955716 887.2726436745307 0.0 0.0
1003.3042158040148 14.804377959662979 305.4325781291033 882.637417114238 0.0 0.0
939.9206169817932 6.029950083228336 283.78517011950646 880.6971849870486 0.0 0.0
870.9356444052044 1.681282303588711 261.78507801263794 879.953015966167 0.0 0.0
799.5066357515201 -0.13476813211353367 239.811560285822 879.7524127157853 0.0 0.0
727.3846952542494 -0.8131838204312025 217.97145343014546 879.7805216527843 0.0 0.0
655.1626152246415 -0.7861274229104449 196.31294634051943 879.8383750484976 0.0 0.0
582.317486903647 0.7482356497749176 174.91971676602657 879.6384792257224 0.0 0.0
506.49370090467113 6.395710923683799 153.8668235485064 878.5342038066228 0.0 0.0
421.61362138884584 21.138727318354558 132.82570461216014 875.2977477850673 0.0 0.0
314.93475265491503 52.06435320093586 110.09973175675525 869.0762667238807 0.0 0.0
170.11597094734927 103.65662663268148 82.13177927400922 866.6503397432116 0.0 0.0
-0.5996516694767848 146.44379629048174 43.753243386301484 898.9438044669164 0.0 0.0
-101.39353405547018 1.6171031863150205 -29.93292926074654 990.7913955357615 0.0 0.0
-101.29753909357962 -831.5184936246252 -279.8448098154614 901.8851262113774 0.0 0.0
-520.7498455915642 -2519.7397069470117 -912.146865761573 611.6002213179215 0.0 0.0
-415.7100107682033 -2036.4209790370467 -735.6392969415748 -554.0035712306349 0.0 0.0
-157.6222840607022 -793.4214839538299 -285.31313040435975 -862.1733405020817 0.0 0.0
-208.59891798711533 -42.23322003384224 -75.24964140628725 -1010.5983971864453 0.0 0.0
-196.35206553656187 130.66556908388728 -19.70594893580237 -942.0098400020354 0.0 0.0
-116.7771604065294 103.40998801395646 -4.010151717771878 -899.2840882820564 0.0 0.0
-49.79937936946663 53.5847960781813 1.135625012614403 -888.9166045717992 0.0 0.0
-15.238855142866797 21.795881217241316 1.9671078223123537 -888.1800769757182 0.0 0.0
-2.1399483831146355 6.589036408896312 1.3347264077344896 -888.5414703182608 0.0 0.0
1.3754728032351977 0.7827400627503884 0.6474638597956677 -888.713209377522 0.0 0.0
1.6665821732467379 -0.7987448117605709 0.26035120844586146 -888.7560255003981 0.0 0.0
1.267716651723788 -0.8287473951165651 0.1316907769821647 -888.760009684421 0.0 0.0
0.7502683104714691 -0.13685503882750538 0.184023981493187 -888.7528573516156 0.0 0.0
-0.48881098552458013 1.7131502150421305 0.36730176885527754 -888.726709559098 0.0 0.0
-4.261606256099171 6.133454160325947 0.5615543712680164 -888.6709317426132 0.0 0.0
-14.00871276177908 15.036417028699788 0.30831128007618247 -888.7184243443006 0.0 0.0
-33.69289606019589 28.861471868261873 -1.4494272575802256 -890.0232876046946 0.0 0.0
-59.55004764775609 38.04266879188384 -6.452213656761657 -896.7331156044602 0.0 0.0
-61.74518281612271 -3.229533044644029 -19.492414758230005 -910.4825673520152 0.0 0.0
11.087483687962163 -217.5491052831718 -61.938486478562965 -886.3056513666611 0.0 0.0
118.2377333538931 -754.5948074932019 -190.90712224179265 -644.6948416198965 0.0 0.0
86.84345275889046 -1298.5089763769795 -363.49965708542675 2.7199575924896635e-11 0.0 0.0
118.23773335397513 -754.5948074930869 -190.90712224173353 644.6948416198873 0.0 0.0
11.087483688141361 -217.5491052827599 -61.93848647838552 886.3056513666439 0.0 0.0
-61.745182816082576 -3.229533044482846 -19.49241475816963 910.4825673521339 0.0 0.0
-59.55004764772275 38.04266879199157 -6.452213656719337 896.7331156043865 0.0 0.0
-33.6928960601569 28.861471868278645 -1.449427257563471 890.0232876047113 0.0 0.0
-14.008712761738408 15.036417028776748 0.30831128011151776 888.7184243443387 0.0 0.0
-4.261606255939242 6.13345416082063 0.5615543714644105 888.6709317425758 0.0 0.0
-0.4888109852580982 1.7131502156247311 0.36730176911 888.7267095590738 0.0 0.0
0.7502683104982424 -0.13685503875000826 0.1840239815244793 888.7528573517116 0.0 0.0
1.2677166518205212 -0.8287473949072695 0.1316907770739668 888.7600096844571 0.0 0.0
1.6665821730563835 -0.7987448122885414 0.26035120823034674 888.7560255003899 0.0 0.0
1.3754728031476873 0.7827400625578793 0.6474638597116815 888.7132093775567 0.0 0.0
-2.1399483831808155 6.589036408740286 1.3347264076678478 888.5414703182678 0.0 0.0
-15.2388551428091 21.79588121734852 1.9671078223618323 888.1800769757084 0.0 0.0
-49.799379369569365 53.584796077969116 1.1356250125199203 888.9166045718275 0.0 0.0
-116.77716040664714 103.40998801374457 -4.010151717870775 899.2840882820252 0.0 0.0
-196.3520655365649 130.66556908385382 -19.70594893581334 942.0098400020868 0.0 0.0
-208.59891798713272 -42.23322003387658 -75.2496414063028 1010.5983971864415 0.0 0.0
-157.62228406072973 -793.4214839538552 -285.31313040437544 862.1733405020548 0.0 0.0
-415.7100107682206 -2036.4209790370865 -735.6392969415922 554.0035712306731 0.0 0.0
-332.8353185758266 -1611.6798209996218 -583.3545418726346 -498.7808102072113 0.0 0.0
-205.18391791451393 -730.3088634315579 -280.6478344038215 -811.9280046407525 0.0 0.0
-308.9611155125981 -71.85704396801518 -114.24544784418399 -1003.3939705981904 0.0 0.0
-382.3528724174779 112.50008977983235 -80.95583479129368 -959.7007656858932 0.0 0.0
-394.91521084724855 98.68284423407873 -88.86970998395097 -911.7985235746594 0.0 0.0
-409.8626884693835 52.76425030941609 -107.12953144799016 -890.5240538547528 0.0 0.0
-450.43742990614896 21.556652335104268 -128.66423327131338 -882.995180911273 0.0 0.0
-510.41712328307545 6.4918335531147955 -151.1775869189882 -880.4235423576844 0.0 0.0
-579.6036365766829 0.7675647696801171 -173.65082154210086 -879.6406636387953 0.0 0.0
-651.9404495811934 -0.7861066780438009 -195.8179668777712 -879.520199718948 0.0 0.0
-724.9427296626517 -0.8145091321316364 -217.727171638435 -879.5850832739719 0.0 0.0
-798.0471867495557 -0.13830913792042665 -239.45564876624286 -879.6001600443876 0.0 0.0
-871.8244349228013 1.6659886920614007 -261.04753386922204 -879.3503534398835 0.0 0.0
-947.9966855295856 5.985869176047039 -282.6032449060615 -878.5011635192446 0.0 0.0
-1030.0009343407394 14.661172275009143 -304.60192861971893 -876.65547346003 0.0 0.0
-1122.7106525983654 28.388179371680806 -328.29674196800545 -874.382530493335 0.0 0.0
-1224.5353932065373 39.94046478055003 -355.37847852779606 -877.2938223683808 0.0 0.0
-1302.5912383280854 6.3670267577385005 -388.86726347110437 -897.0729984882197 0.0 0.0
-1283.6255206614214 -212.89750861921405 -448.9569087841905 -906.0945182069777 0.0 0.0
-1196.7396559083256 -846.7013205514264 -613.0322929379258 -701.1260507555252 0.0 0.0
-1276.9608929321873 -1583.482320956134 -858.1329641664965 2.8478552849264815e-11 0.0 0.0
-1196.7396559084111 -846.7013205516831 -613.0322929380284 701.1260507555711 0.0 0.0
-1283.6255206610963 -212.89750861856822 -448.95690878389934 906.0945182069208 0.0 0.0
-1302.591238328121 6.367026757734104 -388.86726347111596 897.0729984882098 0.0 0.0
-1224.5353932065186 39.94046478068447 -355.37847852775025 877.2938223684405 0.0 0.0
-1122.7106525982892 28.388179371780016 -328.2967419679529 874.3825304934139 0.0 0.0
-1030.0009343407141 14.661172275048461 -304.6019286196996 876.6554734600259 0.0 0.0
-947.9966855296624 5.98586917599553 -282.6032449061001 878.5011635192416 0.0 0.0
-871.82443492234 1.6659886931859074 -261.0475338687461 879.3503534399372 0.0 0.0
-798.0471867497962 -0.13830913854847893 -239.45564876650343 879.6001600444137 0.0 0.0
-724.9427296626657 -0.8145091322060392 -217.72717163846147 879.5850832740243 0.0 0.0
-651.9404495812696 -0.786106678250535 -195.81796687785607 879.5201997189183 0.0 0.0
-579.6036365767761 0.7675647694628225 -173.650821542194 879.6406636387931 0.0 0.0
-510.4171232831932 6.491833552869961 -151.17758691909697 880.4235423576512 0.0 0.0
-450.4374299061217 21.55665233520247 -128.6642332712758 882.9951809112672 0.0 0.0
-409.86268846935917 52.76425030945714 -107.12953144797059 890.5240538547454 0.0 0.0
-394.91521084731664 98.68284423387577 -88.86970998403226 911.7985235746742 0.0 0.0
-382.35287241742907 112.50008977997618 -80.95583479123587 959.7007656859228 0.0 0.0
-308.9611155126762 -71.85704396816483 -114.24544784425234 1003.3939705981536 0.0 0.0
-205.18391791446604 -730.3088634314792 -280.6478344037836 811.92800464075 0.0 0.0
-332.83531857584273 -1611.679820999679 -583.3545418726565 498.78081020720043 0.0 0.0
-268.7151908932723 -1239.988714158129 -452.6111715154203 -444.4646229162137 0.0 0.0
-247.43086035707455 -651.6947497382673 -269.73768302860265 -752.0979488101267 0.0 0.0
-404.65606171086677 -88.00918696096532 -147.79957460154966 -971.9025845259464 0.0 0.0
-561.1723888328346 94.06038007381446 -140.133602627706 -951.9833165936569 0.0 0.0
-665.9007654158723 90.34843118958456 -172.66570026788625 -902.7984177737155 0.0 0.0
-765.7317099006976 49.6817227776796 -214.81499613690536 -872.9295407688024 0.0 0.0
-884.0384137688 20.409697630311662 -259.0886148415466 -859.3534819550459 0.0 0.0
-1018.3410415951655 6.113373162562343 -303.66830052978105 -854.0642665002467 0.0 0.0
-1160.6234410209524 0.7064154525609609 -347.97510767051756 -852.4013553453267 0.0 0.0
-1305.658389860192 -0.748755807791035 -391.92214370039505 -852.1374809764931 0.0 0.0
-1451.2458882373603 -0.7712215828983062 -435.6051329460776 -852.264002546034 0.0 0.0
-1596.8880270980837 -0.13770340203176445 -479.10771915003465 -852.3056163225306 0.0 0.0
-1743.0822062052096 1.5440396275232757 -522.461449973306 -851.8603400866509 0.0 0.0
-1891.3243806165044 5.598063655532226 -565.7178950882916 -850.2915171809509 0.0 0.0
-2044.7083347894381 13.74250725412784 -609.289748260593 -846.7110541157238 0.0 0.0
-2208.7183335263285 26.64357410286311 -654.6224278270395 -840.929645482645 0.0 0.0
-2385.368529450816 39.81205796261116 -703.6669414464616 -838.8770164198744 0.0 0.0
-2542.5250873722507 18.110539578647586 -757.3243643380811 -862.2748789455137 0.0 0.0
-2582.6055181553024 -190.62301628681968 -831.9685603326366 -909.9682371926164 0.0 0.0
-2513.7660681959455 -921.3236816258063 -1030.5269249465257 -762.1617768300238 0.0 0.0
-2665.8708777690977 -1925.5661022696352 -1377.4310940116204 3.456079866737127e-11 0.0 0.0
-2513.7660681959387 -921.3236816258545 -1030.526924946538 762.1617768300545 0.0 0.0
-2582.605518155173 -190.62301628649104 -831.9685603324992 909.9682371925995 0.0 0.0
-2542.5250873722266 18.1105395787327 -757.3243643380481 862.2748789455038 0.0 0.0
-2385.368529450579 39.81205796321436 -703.6669414462099 838.8770164198946 0.0 0.0
-2208.7183335261902 26.64357410331035 -654.6224278268642 840.9296454826872 0.0 0.0
-2044.7083347895905 13.742507253799872 -609.2897482607373 846.7110541156769 0.0 0.0
-1891.3243806164432 5.598063655669934 -565.7178950882318 850.2915171809478 0.0 0.0
-1743.0822062052407 1.5440396274149144 -522.461449973348 851.8603400867011 0.0 0.0
-1596.8880270982638 -0.1377034025066326 -479.10771915023116 852.3056163225174 0.0 0.0
-1451.2458882374158 -0.7712215830495062 -435.6051329461397 852.2640025460978 0.0 0.0
-1305.658389860231 -0.7487558079326568 -391.9221437004489 852.1374809764948 0.0 0.0
-1160.6234410210627 0.7064154522705888 -347.9751076706377 852.4013553453333 0.0 0.0
-1018.3410415952145 6.113373162466191 -303.6683005298245 854.0642665002543 0.0 0.0
-884.0384137688308 20.40969763028067 -259.08861484156506 859.3534819550246 0.0 0.0
-765.731709900632 49.681722777808325 -214.81499613684713 872.9295407687457 0.0 0.0
-665.900765415912 90.34843118953307 -172.66570026791365 902.7984177737217 0.0 0.0
-561.1723888328229 94.06038007389618 -140.13360262767796 951.9833165936217 0.0 0.0
-404.6560617108384 -88.00918696092461 -147.79957460152892 971.9025845259542 0.0 0.0
-247.43086035709644 -651.6947497383047 -269.7376830286204 752.0979488101037 0.0 0.0
-268.71519089328734 -1239.9887141581366 -452.6111715154274 444.46462291625437 0.0 0.0
-220.69290880401556 -918.2991937113336 -341.6976307546047 -389.69218111706635 0.0 0.0
-286.1220537285508 -564.6088456742192 -255.21926982083102 -683.1746105893793 0.0 0.0
-496.92724037132945 -92.33583122465964 -176.77892147879672 -918.3471140772798 0.0 0.0
-734.6648972984551 76.62793212660007 -197.4110895515565 -919.1709103988528 0.0 0.0
-931.2653782252421 79.34389920122167 -255.57644370720624 -871.2788460202503 0.0 0.0
-1118.1363613680528 44.64677024211114 -322.0468773377824 -835.2912722964561 0.0 0.0
-1316.2886427262179 18.44254404263534 -389.35382960507474 -816.886074606404 0.0 0.0
-1525.986603886894 5.489576403538594 -456.14910824500663 -809.3560530882975 0.0 0.0
-1741.7045655650013 0.6102747547646405 -522.328287243071 -806.98033640456 0.0 0.0
-1959.487787570658 -0.6873452676933702 -588.0525398515053 -806.6154113836839 0.0 0.0
-2177.6387284269276 -0.7014626255827068 -653.5020573157534 -806.8046775736815 0.0 0.0
-2395.777876017295 -0.13299835910136082 -718.773262312919 -806.8782212827194 0.0 0.0
-2614.2877434042475 1.3621874762466248 -783.8776667784003 -806.2880716394534 0.0 0.0
-2834.328654509586 4.994238749321308 -848.8003247280792 -804.1377988026768 0.0 0.0
-3058.3082252344598 12.38639725888769 -913.7765483926717 -799.1143421428937 0.0 0.0
-3291.622239575006 23.85114556491904 -980.3313282030263 -790.286108789928 0.0 0.0
-3540.9648265007913 36.99013147210163 -1051.1924085086068 -782.4226171221991 0.0 0.0
-3780.6511949488727 29.81008318210166 -1125.2523335300314 -804.9178198530831 0.0 0.0
-3888.0162839828977 -147.80843662277863 -1210.747416181703 -893.23985839794 0.0 0.0
-3834.2339730068484 -964.8183860853266 -1439.715707727653 -828.2251714829322 0.0 0.0
-4094.482664870446 -2343.8321756890687 -1931.494452167855 3.072386789426673e-11 0.0 0.0
-3834.2339730069098 -964.8183860855014 -1439.7157077277234 828.2251714829265 0.0 0.0
-3888.016283982739 -147.80843662256814 -1210.7474161815921 893.2398583978983 0.0 0.0
-3780.6511949487713 29.810083182191118 -1125.2523335299743 804.9178198531332 0.0 0.0
-3540.964826500674 36.990131472377854 -1051.192408508489 782.4226171221729 0.0 0.0
-3291.622239574812 23.851145565542033 -980.3313282027806 790.2861087899325 0.0 0.0
-3058.3082252345644 12.386397258724994 -913.7765483927518 799.1143421429404 0.0 0.0
-2834.328654509749 4.994238748883408 -848.8003247282593 804.1377988027034 0.0 0.0
-2614.287743404507 1.3621874756249603 -783.8776667786649 806.2880716395125 0.0 0.0
-2395.777876017339 -0.13299835915085367 -718.7732623129468 806.878221282657 0.0 0.0
-2177.63872842691 -0.7014626254633409 -653.5020573157118 806.804677573643 0.0 0.0
-1959.4877875707484 -0.6873452678423195 -588.0525398515774 806.6154113837185 0.0 0.0
-1741.704565565127 0.6102747544720373 -522.3282872431967 806.9803364045886 0.0 0.0
-1525.986603887019 5.489576403249221 -456.14910824513106 809.3560530882892 0.0 0.0
-1316.2886427261901 18.442544042732926 -389.35382960503716 816.8860746063818 0.0 0.0
-1118.1363613680821 44.64677024205635 -322.0468773378077 835.2912722964496 0.0 0.0
-931.2653782251779 79.34389920136205 -255.5764437071448 871.2788460202372 0.0 0.0
-734.6648972984701 76.62793212652751 -197.41108955158282 919.170910398897 0.0 0.0
-496.9272403712788 -92.33583122453675 -176.77892147874468 918.3471140772417 0.0 0.0
-286.1220537286289 -564.6088456743638 -255.21926982089784 683.1746105893645 0.0 0.0
-220.6929088039991 -918.299193711274 -341.697630754582 389.69218111706215 0.0 0.0
-186.69631906114608 -645.5799702424715 -249.6828867910853 -333.41369929199607 0.0 0.0
-321.6908928849777 -474.1788554588922 -238.7609245031609 -605.463521220012 0.0 0.0
-586.1878735350873 -87.00852036241396 -201.95891816925038 -844.4288577350676 0.0 0.0
-904.0609332178408 60.7895748846353 -252.98140749996165 -861.5995876506765 0.0 0.0
-1192.4334778450468 66.59000434964531 -337.7530420486205 -816.4968204569342 0.0 0.0
-1467.994350763182 38.146839654427055 -428.95425333262654 -776.9315354372459 0.0 0.0
-1747.5984228400841 15.836914660111468 -519.5284524539919 -755.2853976387572 0.0 0.0
-2033.495695247137 4.682942220620264 -608.6438259079547 -746.2148270095736 0.0 0.0
-2322.8829112924896 0.4952060198569015 -696.7163115817899 -743.37205000548 0.0 0.0
-2613.428610994227 -0.6034551373997452 -784.2096198394879 -742.9636440911269 0.0 0.0
-2904.1149602617397 -0.6093718810882507 -871.4172996428481 -743.2141664405295 0.0 0.0
-3194.724718362952 -0.12349494255098747 -958.4544639916508 -743.3235666204614 0.0 0.0
-3485.4812201845734 1.1459394418115814 -1045.3005842228288 -742.6535789536149 0.0 0.0
-3777.121836892168 4.217853693574945 -1131.8711949595781 -740.1241084139514 0.0 0.0
-4071.1217829616444 10.690403576952686 -1218.1294138154078 -734.0474655857228 0.0 0.0
-4371.641077981109 20.49409906572558 -1305.3440936746151 -723.0038893040536 0.0 0.0
-4690.002433417672 31.2099923529589 -1397.6377323194142 -709.445329099717 0.0 0.0
-5014.758853505919 37.669060378226646 -1493.126937938308 -724.6552459957722 0.0 0.0
-5201.568364371363 -83.76671041889033 -1585.6005224370765 -849.0012040613661 0.0 0.0
-5158.098798440793 -956.5973604074835 -1834.4088476544825 -897.9626765367022 0.0 0.0
-5583.271063204705 -2864.937061911154 -2534.4624375347576 3.680611371237319e-11 0.0 0.0
-5158.098798440944 -956.5973604077957 -1834.4088476546222 897.9626765366934 0.0 0.0
-5201.568364371505 -83.76671041917919 -1585.6005224372052 849.0012040613626 0.0 0.0
-5014.758853506076 37.66906037791103 -1493.1269379384496 724.6552459957744 0.0 0.0
-4690.002433417615 31.209992353152245 -1397.6377323193394 709.4453290997196 0.0 0.0
-4371.641077981012 20.494099065926292 -1305.3440936745262 723.0038893040136 0.0 0.0
-4071.121782961328 10.690403577716904 -1218.1294138150831 734.0474655857463 0.0 0.0
-3777.1218368923746 4.217853693090254 -1131.8711949597857 740.1241084139832 0.0 0.0
-3485.4812201844543 1.145939442052045 -1045.3005842227205 742.6535789536514 0.0 0.0
-3194.724718362941 -0.12349494252683968 -958.4544639916406 743.3235666204121 0.0 0.0
-2904.1149602616656 -0.609371880916191 -871.417299642775 743.2141664405688 0.0 0.0
-2613.4286109942614 -0.6034551375246382 -784.2096198395358 742.9636440911779 0.0 0.0
-2322.882911292564 0.49520601959390564 -696.7163115818913 743.3720500054549 0.0 0.0
-2033.495695247241 4.682942220377896 -608.6438259080588 746.2148270096081 0.0 0.0
-1747.5984228401603 15.836914659968109 -519.5284524540576 755.285397638759 0.0 0.0
-1467.9943507631147 38.14683965458931 -428.9542533325576 776.9315354372841 0.0 0.0
-1192.4334778449488 66.59000434990769 -337.7530420485124 816.4968204569415 0.0 0.0
-904.0609332178387 60.78957488464167 -252.98140749995915 861.5995876507118 0.0 0.0
-586.1878735350714 -87.00852036244659 -201.95891816925547 844.4288577350135 0.0 0.0
-321.6908928849492 -474.17885545887003 -238.76092450314582 605.4635212200253 0.0 0.0
-186.6963190611291 -645.5799702424504 -249.68288679107394 333.41369929200226 0.0 0.0
-164.9202961810706 -422.30115673794984 -176.16643587570616 -275.10825765904326 0.0 0.0
-353.3720430267168 -384.1318614647713 -221.25117134744642 -519.3104785618699 0.0 0.0
-672.0336150530804 -74.59224543904334 -223.98775814763707 -751.2894216129757 0.0 0.0
-1070.0553961900926 46.61497348242738 -307.03212681229957 -779.3673889755935 0.0 0.0
-1450.751486281632 52.99704403889821 -419.3263326728203 -737.8618880199722 0.0 0.0
-1816.37850586606 30.802547103646077 -535.672787628724 -697.3584885963788 0.0 0.0
-2178.5102581193264 12.850555650163784 -649.6979107407487 -674.3390014538566 0.0 0.0
-2541.0645612166336 3.778312034840507 -761.1858747545376 -664.5947489270957 0.0 0.0
-2904.2051935986356 0.3796588809835022 -871.1476604152956 -661.5845067142584 0.0 0.0
-3267.4783549967165 -0.5010539364705657 -980.3938226799563 -661.1948066591128 0.0 0.0
-3630.6640883442615 -0.5003579056554912 -1089.3493338749754 -661.4977524667836 0.0 0.0
-3993.735511085534 -0.11059654524676077 -1198.153832289234 -661.6437624851167 0.0 0.0
-4356.7200606213955 0.9225657341338191 -1306.7392484661787 -660.9604845252401 0.0 0.0
-4719.828542048641 3.3564215995767555 -1414.9416361347198 -658.3092556387144 0.0 0.0
-5083.568015530296 8.686982729354565 -1522.464309840283 -651.6711242842797 0.0 0.0
-5449.505624489276 17.202258723094168 -1629.6910097298542 -639.3966989075541 0.0 0.0
-5831.201407756933 23.320167727573647 -1742.3643720088075 -621.9396320083234 0.0 0.0
-6240.680858969045 36.297196403065385 -1861.3150987697945 -623.2823873453984 0.0 0.0
-6524.06608290244 -2.9797979817298597 -1958.1137642652511 -767.9258728786644 0.0 0.0
-6482.90669037982 -865.7056022347357 -2204.5836877843662 -965.8856892205628 0.0 0.0
-7161.892259444278 -3525.224655977091 -3206.1350746264116 -5.684341886080802e-14 0.0 0.0
-6482.906690379779 -865.7056022345845 -2204.5836877843085 965.8856892205114 0.0 0.0
-6524.066082902602 -2.9797979821923057 -1958.1137642654382 767.9258728786907 0.0 0.0
-6240.68085896895 36.297196403284346 -1861.3150987696995 623.2823873454581 0.0 0.0
-5831.201407756991 23.320167727481895 -1742.364372008853 621.9396320084005 0.0 0.0
-5449.505624489341 17.20225872290335 -1629.691009729931 639.3966989075881 0.0 0.0
-5083.568015529911 8.686982730227832 -1522.464309839905 651.6711242842242 0.0 0.0
-4719.828542048382 3.3564216002258878 -1414.9416361344465 658.3092556386671 0.0 0.0
-4356.720060621186 0.9225657345942597 -1306.7392484659777 660.9604845252175 0.0 0.0
-3993.735511085497 -0.11059654521155515 -1198.153832289213 661.6437624851075 0.0 0.0
-3630.664088344117 -0.5003579053296434 -1089.3493338748337 661.4977524667945 0.0 0.0
-3267.4783549967915 -0.501053936635091 -980.393822680028 661.194806659126 0.0 0.0
-2904.205193598557 0.37965888114770907 -871.1476604152227 661.5845067142319 0.0 0.0
-2541.064561216631 3.778312034806731 -761.1858747545472 664.5947489270853 0.0 0.0
-2178.510258119324 12.850555650151652 -649.6979107407518 674.3390014538669 0.0 0.0
-1816.3785058659143 30.80254710398266 -535.6727876285797 697.3584885964152 0.0 0.0
-1450.7514862816242 52.99704403892691 -419.32633267280926 737.861888019972 0.0 0.0
-1070.0553961900948 46.6149734824535 -307.03212681229235 779.3673889756077 0.0 0.0
-672.0336150530655 -74.59224543902317 -223.98775814762655 751.2894216129847 0.0 0.0
-353.37204302662315 -384.13186146462 -221.25117134737292 519.3104785618717 0.0 0.0
-164.9202961810553 -422.3011567379811 -176.16643587571096 275.1082576590531 0.0 0.0
-153.30797824186953 -249.78933714390337 -120.92919461573187 -215.11915015818835 0.0 0.0
-379.1222283077519 -297.3042395386862 -202.9279403539314 -425.3096233182352 0.0 0.0
-753.1672195212626 -58.08750594036951 -243.37641763848964 -639.3681372805459 0.0 0.0
-1232.9042679141294 33.88823250543782 -359.70481062260774 -672.1036176796239 0.0 0.0
-1707.5757393739354 39.53337417496273 -500.41270955969196 -634.8724422120296 0.0 0.0
-2164.509088883249 23.326780288581737 -642.3546925784003 -596.2854067216845 0.0 0.0
-2609.6642513062598 9.79131686910698 -779.9618803311458 -573.9553258586255 0.0 0.0
-3048.925205216298 2.874444273958499 -913.8152282827018 -564.5009996214213 0.0 0.0
-3485.721981721018 0.280732713598038 -1045.6323747022257 -561.6422651163937 0.0 0.0
-3921.6290147995146 -0.38761310803305804 -1176.6049883722644 -561.3248613762719 0.0 0.0
-4357.271684469015 -0.38301203126457395 -1307.296408950084 -561.658398240957 0.0 0.0
-4792.810078839748 -0.0920189779498557 -1437.8706293453092 -561.8350647878059 0.0 0.0
-5228.078297262381 0.6986134625003757 -1568.2139051399636 -561.2023233431347 0.0 0.0
-5662.595869772479 2.564385514099598 -1698.009445277514 -558.6873788087146 0.0 0.0
-6096.0300140276595 6.393739773613728 -1826.8908822762144 -552.1819225860182 0.0 0.0
-6526.643278602829 14.261418690556368 -1953.7145579736823 -539.4775119505485 0.0 0.0
-6964.054131434083 16.25599043256008 -2084.3394423004565 -521.5929199156702 0.0 0.0
-7451.4214309854015 20.104038060794043 -2229.3952178773825 -506.8265829256407 0.0 0.0
-7854.4771538625355 79.10595243684013 -2332.611360427709 -639.5509589526816 0.0 0.0
-7802.1916177463245 -646.4161646591747 -2534.5823347216497 -1016.8883332336528 0.0 0.0
-8874.4252804377 -4371.807306374303 -3973.8697760436007 -1.3642420526593924e-12 0.0 0.0
-7802.191617746259 -646.416164659046 -2534.582334721591 1016.8883332336641 0.0 0.0
-7854.477153862467 79.10595243688783 -2332.6113604276734 639.5509589526266 0.0 0.0
-7451.421430985372 20.1040380608147 -2229.3952178773675 506.82658292562223 0.0 0.0
-6964.054131434169 16.255990432420273 -2084.339442300525 521.5929199156798 0.0 0.0
-6526.6432786028345 14.261418690596912 -1953.7145579736714 539.4775119505754 0.0 0.0
-6096.030014027517 6.393739774000222 -1826.8908822760552 552.1819225860552 0.0 0.0
-5662.595869772549 2.564385513997827 -1698.0094452775652 558.6873788087263 0.0 0.0
-5228.078297262132 0.698613463106545 -1568.213905139708 561.2023233430764 0.0 0.0
-4792.810078839841 -0.09201897821677552 -1437.8706293454172 561.8350647877658 0.0 0.0
-4357.271684468806 -0.38301203081763013 -1307.2964089498864 561.6583982409013 0.0 0.0
-3921.6290147995132 -0.3876131080007297 -1176.6049883722544 561.3248613762851 0.0 0.0
-3485.7219817209957 0.28073271366597274 -1045.632374702199 561.6422651164038 0.0 0.0
-3048.925205216254 2.87444427403164 -913.8152282826668 564.5009996214226 0.0 0.0
-2609.66425130623 9.79131686913313 -779.9618803311291 573.9553258585975 0.0 0.0
-2164.509088883118 23.326780288930266 -642.3546925782566 596.2854067217106 0.0 0.0
-1707.57573937391 39.533374175042205 -500.4127095596603 634.8724422119973 0.0 0.0
-1232.9042679141082 33.88823250539861 -359.70481062261297 672.103617679647 0.0 0.0
-753.1672195212332 -58.08750594032834 -243.37641763846847 639.3681372805798 0.0 0.0
-379.12222830769804 -297.3042395385406 -202.92794035387158 425.3096233182316 0.0 0.0
-153.3079782418708 -249.78933714395464 -120.92919461574762 215.11915015814247 0.0 0.0
-148.66740131796004 -129.2877187303655 -83.38653601449765 -155.2679330238916 0.0 0.0
-395.33014695937914 -216.32998674486018 -183.49804011127176 -324.50288123722487 0.0 0.0
-827.2298262101273 -41.08722520449807 -260.49511542438756 -508.0348054299166 0.0 0.0
-1392.5617523588382 22.454844046304874 -411.03207249375987 -538.7703447472107 0.0 0.0
-1964.4226946286258 27.321612306837608 -581.1303246965363 -507.1234330045228 0.0 0.0
-2513.756799733183 16.47711488253826 -749.1839054551933 -473.6499994505267 0.0 0.0
-3041.7587741230454 6.990002050629737 -910.4306316217246 -454.18318994744004 0.0 0.0
-3557.322940169233 2.0714857598359693 -1066.5754363228189 -445.99896117562923 0.0 0.0
-4067.478711458686 0.2087919859675118 -1220.180975841815 -443.58799916089276 0.0 0.0
-4575.863114801006 -0.2732909541279014 -1372.8409217265407 -443.37167727613064 0.0 0.0
-5083.919162259137 -0.2741215517581246 -1525.2579851432686 -443.6993508615065 0.0 0.0
-5591.941805411559 -0.05580472829108274 -1677.5992830419548 -443.8791261768744 0.0 0.0
-6099.615307701317 0.4633613866908952 -1829.7455838943883 -443.37818350248864 0.0 0.0
-6605.675780496055 1.955221000223311 -1981.11616784875 -441.16925106205343 0.0 0.0
-7108.648431648576 4.224146866415616 -2131.3272854346474 -435.7045481889023 0.0 0.0
-7605.05092569241 10.639918566843285 -2278.3233021376705 -423.51323588148483 0.0 0.0
-8090.517152522355 15.235883637903418 -2422.584380665336 -407.7371964208443 0.0 0.0
-8636.073694944824 -11.028909051472205 -2594.130781198889 -387.38092293213526 0.0 0.0
-9187.952743754398 124.88815947450286 -2718.919375283969 -459.29872635189014 0.0 0.0
-9102.954648194742 -234.31501056266782 -2801.1808976272223 -1012.820199664435 0.0 0.0
-10787.720405573398 -5458.41946736976 -4873.8419618829475 -3.8255620893323794e-11 0.0 0.0
-9102.954648194842 -234.3150105629225 -2801.18089762733 1012.8201996644141 0.0 0.0
-9187.952743754498 124.88815947421895 -2718.9193752840833 459.2987263518255 0.0 0.0
-8636.073694945066 -11.028909052150272 -2594.1307811991655 387.3809229320797 0.0 0.0
-8090.517152522184 15.23588363824556 -2422.5843806651815 407.7371964208752 0.0 0.0
-7605.050925692184 10.63991856739159 -2278.3233021374376 423.51323588142185 0.0 0.0
-7108.64843164843 4.224146866796909 -2131.32728543449 435.7045481888779 0.0 0.0
-6605.675780496282 1.955220999670324 -1981.1161678489839 441.1692510620867 0.0 0.0
-6099.6153077011895 0.4633613870195843 -1829.7455838942503 443.3781835024703 0.0 0.0
-5591.94180541173 -0.05580472862198782 -1677.599283042105 443.87912617696816 0.0 0.0
-5083.919162259026 -0.27412155158617546 -1525.257985143184 443.6993508615541 0.0 0.0
-4575.863114800923 -0.2732909539697288 -1372.8409217264687 443.3716772761079 0.0 0.0
-4067.478711458839 0.2087919856647802 -1220.1809758419517 443.58799916088753 0.0 0.0
-3557.322940169135 2.0714857600564582 -1066.5754363227238 445.99896117566124 0.0 0.0
-3041.758774123263 6.990002050154049 -910.4306316219325 454.1831899474804 0.0 0.0
-2513.756799733021 16.47711488292174 -749.1839054550296 473.6499994505958 0.0 0.0
-1964.4226946286487 27.321612306767136 -581.1303246965646 507.1234330045191 0.0 0.0
-1392.5617523588671 22.454844046214063 -411.032072493796 538.7703447472562 0.0 0.0
-827.2298262101012 -41.087225204461305 -260.49511542436875 508.03480542995004 0.0 0.0
-395.3301469593513 -216.32998674481178 -183.49804011124886 324.502881237216 0.0 0.0
-148.66740131794856 -129.28771873037894 -83.38653601449823 155.26793302381873 0.0 0.0
-145.0656777673449 -60.404804006536516 -61.641144532164425 -100.03969690912511 0.0 0.0
-396.2728552986938 -144.83977826846322 -162.33379007014716 -218.54314343986624 0.0 0.0
-890.5274997647648 -27.93189174777488 -275.53781745376193 -354.7736175996351 0.0 0.0
-1548.9198854113251 12.803308750454038 -460.83497299826143 -377.5974110929612 0.0 0.0
-2223.1898788855165 17.67952497587227 -661.6531061728932 -354.3910614747808 0.0 0.0
-2865.630373821737 11.004136267905224 -856.3878712661497 -329.62822385402814 0.0 0.0
-3475.5073259292544 4.776813025734924 -1041.2191538710554 -315.2304318419479 0.0 0.0
-4066.4923008702804 1.4519827798602805 -1219.5120954271256 -309.2170910668199 0.0 0.0
-4649.5029492774065 0.16467574133545426 -1394.8014820608214 -307.48163052547744 0.0 0.0
-5230.154766994154 -0.1770881579379342 -1569.0995565456276 -307.3553633652764 0.0 0.0
-5810.569978435957 -0.18140312506870515 -1743.225414468308 -307.61733307980336 0.0 0.0
-6391.150387648299 -0.03817454137252696 -1917.3565686569018 -307.7668068290213 0.0 0.0
-6971.290772147169 0.3507833537658769 -2091.281996638021 -307.4102441976056 0.0 0.0
-7549.512952571917 1.1964518708847507 -2264.49495021031 -305.8384157009046 0.0 0.0
-8121.454883677088 3.598052533860397 -2435.357049342968 -301.57614952854385 0.0 0.0
-8685.800492504755 4.215844299936929 -2604.475394461445 -293.4519991741475 0.0 0.0
-9218.820705156224 22.06458235532517 -2759.026836840269 -275.87512019826477 0.0 0.0
-9778.803755334047 -33.776654589750386 -2943.7741229771395 -276.7281034632448 0.0 0.0
-10511.321708447951 54.02663747477309 -3137.1885212919533 -256.67393031466077 0.0 0.0
-10362.228475845672 449.5519110056862 -2973.802969451997 -856.9619933964432 0.0 0.0
-13004.367634703693 -6821.608720729304 -5947.792906629899 1.5973000699887052e-11 0.0 0.0
-10362.228475845646 449.5519110056505 -2973.802969451999 856.9619933964595 0.0 0.0
-10511.32170844815 54.026637474333626 -3137.188521292145 256.67393031463087 0.0 0.0
-9778.803755333784 -33.77665458918581 -2943.774122976891 276.72810346321353 0.0 0.0
-9218.820705156164 22.064582355378683 -2759.0268368402362 275.8751201982766 0.0 0.0
-8685.800492504613 4.215844300255519 -2604.4753944613067 293.4519991741193 0.0 0.0
-8121.454883677175 3.598052533632267 -2435.3570493430625 301.5761495284927 0.0 0.0
-7549.512952571711 1.1964518713395158 -2264.4949502101117 305.8384157009708 0.0 0.0
-6971.290772147127 0.35078335381926706 -2091.281996637993 307.4102441976604 0.0 0.0
-6391.150387648457 -0.0381745417613657 -1917.3565686570655 307.7668068290247 0.0 0.0
-5810.569978436053 -0.1814031252762629 -1743.225414468399 307.6173330798119 0.0 0.0
-5230.154766994034 -0.17708815764541924 -1569.0995565455037 307.3553633652235 0.0 0.0
-4649.502949277416 0.16467574135482899 -1394.8014820608187 307.4816305255214 0.0 0.0
-4066.4923008701294 1.4519827802087542 -1219.5120954269764 309.2170910668498 0.0 0.0
-3475.507325929521 4.77681302504963 -1041.2191538713412 315.23043184195615 0.0 0.0
-2865.6303738217116 11.004136268008585 -856.3878712661111 329.62822385406474 0.0 0.0
-2223.1898788855783 17.67952497578002 -661.6531061729393 354.3910614748077 0.0 0.0
-1548.9198854113483 12.8033087503715 -460.8349729982931 377.597411093016 0.0 0.0
-890.5274997647495 -27.931891747750377 -275.53781745375 354.77361759965316 0.0 0.0
-396.27285529869357 -144.8397782684712 -162.33379007014946 218.54314343987923 0.0 0.0
-145.06567776731717 -60.404804006497365 -61.64114453214437 100.03969690905024 0.0 0.0
-130.73249062691627 -38.31858223400585 -50.71532185827666 -58.92248777845401 0.0 0.0
-373.230210448999 -89.8802135840851 -138.93312720992523 -109.72924496994467 0.0 0.0
-937.6363729459213 -23.527746282598084 -288.34923576855573 -173.4071417506152 0.0 0.0
-1702.2687455378725 7.068301622419421 -508.56013317463584 -186.57715558406437 0.0 0.0
-2486.4507578887487 11.879527368601057 -742.3713691560444 -176.63870512768895 0.0 0.0
-3221.6971293532065 7.686868344567024 -964.2030783025918 -164.6916695404005 0.0 0.0
-3911.6105368163917 3.427421173521399 -1172.4549346928618 -157.46792099559002 0.0 0.0
-4576.62349238728 1.0681056885545566 -1372.6666160096172 -154.345751914975 0.0 0.0
-5231.79555090505 0.13272596393842306 -1569.498847482333 -153.39719512906333 0.0 0.0
-5884.460093172309 -0.12160165122498512 -1765.3745084470602 -153.29491384165723 0.0 0.0
-6537.194277310635 -0.1277923617995569 -1961.1966209017303 -153.40836794493345 0.0 0.0
-7190.385318049876 -0.024532490085409364 -2157.122955161989 -153.47097595167594 0.0 0.0
-7843.287349032471 0.24825464854496104 -2352.911728315178 -153.26517195315972 0.0 0.0
-8493.678576539049 0.9107130995148864 -2547.830359031861 -152.45924124304403 0.0 0.0
-9137.262531067736 2.2481223916281436 -2740.5043226028315 -150.22803846566103 0.0 0.0
-9762.500015326661 5.333448385473588 -2927.149970082357 -146.19740334869516 0.0 0.0
-10372.229276401265 3.0464451512601656 -3110.7548493750023 -138.76154105892311 0.0 0.0
-10859.216092680374 50.30257724387536 -3242.6740546309484 -128.99505251642472 0.0 0.0
-11791.533404429993 -288.40388134512017 -3623.9811857325335 -203.4445589418644 0.0 0.0
-11545.133506880275 1453.61435703363 -3027.4557449539925 -290.36514572765066 0.0 0.0
-15680.386619495705 -8385.988204053612 -7219.912447064794 5.297806637827307e-11 0.0 0.0
-11545.133506880384 1453.6143570333415 -3027.4557449541135 290.3651457276591 0.0 0.0
-11791.533404430149 -288.40388134543934 -3623.9811857326767 203.44455894186015 0.0 0.0
-10859.216092680108 50.30257724453408 -3242.674054630671 128.99505251644499 0.0 0.0
-10372.229276401384 3.0464451509021107 -3110.7548493751447 138.76154105885792 0.0 0.0
-9762.500015326337 5.333448386170507 -2927.149970082051 146.19740334865062 0.0 0.0
-9137.262531068007 2.24812239099601 -2740.5043226031025 150.2280384656963 0.0 0.0
-8493.6785765389 0.9107130998307511 -2547.8303590317205 152.45924124303846 0.0 0.0
-7843.287349032387 0.2482546487054571 -2352.9117283151054 153.2651719532276 0.0 0.0
-7190.385318049912 -0.024532490193964307 -2157.122955162032 153.47097595166102 0.0 0.0
-6537.194277310558 -0.12779236158023854 -1961.1966209016414 153.40836794492392 0.0 0.0
-5884.460093172123 -0.12160165075526108 -1765.3745084468635 153.2949138416968 0.0 0.0
-5231.795550905061 0.13272596392423885 -1569.4988474823408 153.39719512906214 0.0 0.0
-4576.62349238721 1.0681056887939313 -1372.666616009525 154.3457519149386 0.0 0.0
-3911.610536816551 3.4274211731815187 -1172.4549346930107 157.4679209955177 0.0 0.0
-3221.697129353086 7.686868344749369 -964.2030783025014 164.69166954039395 0.0 0.0
-2486.450757888708 11.879527368649514 -742.3713691560175 176.6387051277256 0.0 0.0
-1702.268745537855 7.068301622447411 -508.5601331746225 186.57715558412556 0.0 0.0
-937.6363729459443 -23.52774628266259 -288.3492357685821 173.40714175061763 0.0 0.0
-373.2302104490096 -89.88021358402139 -138.93312720990934 109.72924496996205 0.0 0.0
-130.73249062699597 -38.31858223402482 -50.71532185830624 58.922487778453466 0.0 0.0
-68.03787877131408 -16.175476630153167 -25.264006620440178 -39.485105950311414 0.0 0.0
-304.10199691903176 -46.172855316247364 -105.08245567058373 -46.376605548038825 0.0 0.0
-957.8614026892003 -24.797918582507947 -294.7977963815125 -59.02100925048397 0.0 0.0
-1873.953872396664 -35.41761417296023 -572.8114459708872 -65.80631479210294 0.0 0.0
-2788.8594201232354 -62.4670315157162 -855.3979354916855 -65.30509554464405 0.0 0.0
-3625.010962319283 -89.34562933077305 -1114.306977495017 -62.26621700966045 0.0 0.0
-4400.33694027665 -112.71715426755102 -1353.9162283632604 -59.94397956114115 0.0 0.0
-5145.401292616167 -133.39697816445678 -1583.639481234187 -58.745884357527984 0.0 0.0
-5879.842386804534 -152.81297173649267 -1809.7966075623074 -58.28699694362609 0.0 0.0
-6612.305227079451 -171.83335985499605 -2035.2415760803342 -58.171519633021774 0.0 0.0
-7345.464540924869 -190.81695810742391 -2260.884449709687 -58.16726494439371 0.0 0.0
-8079.541635423486 -209.81134328180738 -2486.805893611588 -58.15800631962094 0.0 0.0
-8813.672750932023 -228.8261649205985 -2712.749674755786 -58.039369023833785 0.0 0.0
-9545.13791075506 -247.2150986422331 -2937.705902819188 -57.71997975572111 0.0 0.0
-10268.966831147303 -266.15760509531964 -3160.5373308727867 -56.950764240048045 0.0 0.0
-10969.196835478593 -276.9057754592949 -3373.8307832813666 -55.462557527835884 0.0 0.0
-11638.941681699042 -312.2397824724486 -3585.3544392514477 -56.97506095852469 0.0 0.0
-12185.316927203832 -206.24951519396058 -3717.4699327193375 -38.765718122595445 0.0 0.0
-12747.475219505544 -695.2127802152507 -4032.8063999162387 -190.34541612009662 0.0 0.0
-13013.986915723219 1650.9771140234293 -3408.9029405099363 -0.8569450737566058 0.0 0.0
-19243.918788775343 -10091.884249480867 -8800.740911476863 2.864908310584724e-11 0.0 0.0
-13013.986915723484 1650.9771140228534 -3408.902940510189 0.8569450737863349 0.0 0.0
-12747.475219505603 -695.2127802153507 -4032.8063999162864 190.34541612007763 0.0 0.0
-12185.316927204018 -206.24951519438534 -3717.4699327195212 38.76571812259647 0.0 0.0
-11638.9416816991 -312.23978247270946 -3585.354439251543 56.975060958585345 0.0 0.0
-10969.196835477904 -276.90577545779314 -3373.8307832807086 55.462557527773754 0.0 0.0
-10268.966831147465 -266.15760509570083 -3160.5373308729495 56.950764240107674 0.0 0.0
-9545.137910755138 -247.21509864255216 -2937.705902819308 57.71997975574823 0.0 0.0
-8813.672750931843 -228.82616492024167 -2712.7496747556247 58.03936902396157 0.0 0.0
-8079.541635423326 -209.81134328131313 -2486.805893611392 58.15800631962338 0.0 0.0
-7345.464540924656 -190.81695810692935 -2260.884449709476 58.16726494437188 0.0 0.0
-6612.30522707915 -171.83335985434158 -2035.2415760800477 58.171519633102264 0.0 0.0
-5879.842386804727 -152.81297173684501 -1809.7966075624713 58.2869969435684 0.0 0.0
-5145.401292616131 -133.39697816433318 -1583.6394812341402 58.74588435751403 0.0 0.0
-4400.336940276538 -112.71715426738325 -1353.9162283631767 59.943979561122035 0.0 0.0
-3625.010962319009 -89.34562933021473 -1114.3069774947674 62.26621700962963 0.0 0.0
-2788.8594201233013 -62.46703151584133 -855.3979354917429 65.30509554467466 0.0 0.0
-1873.9538723966186 -35.417614172827044 -572.8114459708336 65.80631479214648 0.0 0.0
-957.8614026892672 -24.79791858261342 -294.7977963815643 59.02100925047263 0.0 0.0
-304.10199691898606 -46.17285531609914 -105.08245567052553 46.37660554804786 0.0 0.0
-68.03787877128417 -16.175476630136025 -25.264006620426052 39.48510595040901 0.0 0.0
SCALARS Strain float 6
LOOKUP_TABLE default
0.017627086091496387 -0.04378704688121257 0.0 -0.002946358597568248 0.0 0.0
0.015698357339551727 0.0034133517823695886 0.0 -0.004576675424049625 0.0 0.0
0.012407364675869819 -0.0061828679598167555 0.0 -0.0019573924161316323 0.0 0.0
0.011831845338650115 -0.004310684325113065 0.0 -0.0002915277743393705 0.0 0.0
0.013897340013913958 -0.005679429463223265 0.0 -0.0006718878782487148 0.0 0.0
0.016696793536101578 -0.006764973218777589 0.0 -0.0006923548327266746 0.0 0.0
0.019835305501716236 -0.008075025611811627 0.0 -0.000734158188724938 0.0 0.0
0.023102710048994054 -0.009405206471825488 0.0 -0.0007500650800315502 0.0 0.0
0.026409269464721954 -0.010753305790226405 0.0 -0.0007557214752531584 0.0 0.0
0.029722094537649936 -0.012101818695464301 0.0 -0.0007571936345029116 0.0 0.0
0.03303127789711041 -0.013448982242832079 0.0 -0.0007571935420902502 0.0 0.0
0.03633635814914944 -0.01479442683294924 0.0 -0.0007573612316710018 0.0 0.0
0.03964160560580522 -0.01613969573592526 0.0 -0.0007588363105196615 0.0 0.0
0.04295858207115425 -0.017488743949244656 0.0 -0.0007631817480664194 0.0 0.0
0.04631293790337723 -0.01885084832640219 0.0 -0.0007720786160131863 0.0 0.0
0.0497486089743283 -0.020243064849216376 0.0 -0.0007846956505353346 0.0 0.0
0.05330963421297798 -0.021685217996080135 0.0 -0.0007904090116171546 0.0 0.0
0.05696426187243908 -0.02317257147386742 0.0 -0.0007576460278333428 0.0 0.0
0.060449750855426254 -0.024612169338274037 0.0 -0.0006319383359452476 0.0 0.0
0.06313014014378583 -0.025747702372766836 0.0 -0.0003696791159451078 0.0 0.0
0.06416344567027392 -0.026197988837860245 0.0 -1.0612170864288117e-15 0.0 0.0
0.06313014014378554 -0.025747702372768272 0.0 0.000369679115945288 0.0 0.0
0.06044975085542616 -0.024612169338277673 0.0 0.0006319383359459558 0.0 0.0
0.05696426187243912 -0.0231725714738654 0.0 0.0007576460278330296 0.0 0.0
0.05330963421297796 -0.021685217996077203 0.0 0.0007904090116159362 0.0 0.0
0.049748608974328326 -0.020243064849216393 0.0 0.0007846956505357496 0.0 0.0
0.046312937903377434 -0.018850848326403057 0.0 0.0007720786160125095 0.0 0.0
0.042958582071154335 -0.017488743949249926 0.0 0.0007631817480662278 0.0 0.0
0.03964160560580513 -0.01613969573592467 0.0 0.0007588363105187769 0.0 0.0
0.03633635814914924 -0.014794426832948609 0.0 0.000757361231670494 0.0 0.0
0.033031277897110474 -0.013448982242833831 0.0 0.0007571935420907876 0.0 0.0
0.029722094537650005 -0.012101818695463232 0.0 0.0007571936345024573 0.0 0.0
0.026409269464721885 -0.010753305790226386 0.0 0.0007557214752540004 0.0 0.0
0.023102710048994116 -0.009405206471826022 0.0 0.000750065080030973 0.0 0.0
0.01983530550171627 -0.00807502561181124 0.0 0.0007341581887239715 0.0 0.0
0.016696793536101512 -0.0067649732187770005 0.0 0.0006923548327270214 0.0 0.0
0.013897340013914131 -0.0056794294632232815 0.0 0.000671887878248848 0.0 0.0
0.011831845338650167 -0.0043106843251121095 0.0 0.00029152777433938566 0.0 0.0
0.01240736467586972 -0.006182867959817257 0.0 0.0019573924161324415 0.0 0.0
0.015698357339551744 0.00341335178236956 0.0 0.004576675424049564 0.0 0.0
0.017627086091496248 -0.04378704688121251 0.0 0.002946358597568039 0.0 0.0
0.010976425331862034 -0.04069946245658004 0.0 -0.002013457673998496 0.0 0.0
0.009286872041783892 0.002958347724226662 0.0 -0.0036490519448022967 0.0 0.0
0.00891582652039663 -0.004794770508561429 0.0 -0.0013681426157467946 0.0 0.0
0.01072844132917047 -0.004253631076801137 0.0 -0.0011324153041516647 0.0 0.0
0.012462199503680335 -0.005298199640340245 0.0 -0.0016327086064823492 0.0 0.0
0.015060124051660875 -0.0064203177327058275 0.0 -0.0018495471279432753 0.0 0.0
0.017870736568379873 -0.007647510766758353 0.0 -0.0019467661428608104 0.0 0.0
0.02080353312399895 -0.00891232284523051 0.0 -0.0019865645831376767 0.0 0.0
0.023773091927015162 -0.01018810450441998 0.0 -0.001997490720335535 0.0 0.0
0.02675160209324001 -0.011465436308315783 0.0 -0.001998609306414036 0.0 0.0
0.029728952347634244 -0.012741449182260526 0.0 -0.001997085651066451 0.0 0.0
0.03270403478921465 -0.014016086891276654 0.0 -0.0019963368607676946 0.0 0.0
0.03568036966146052 -0.015290586221466448 0.0 -0.0019991053162637194 0.0 0.0
0.038667665076402485 -0.016568313275014065 0.0 -0.0020102376050290995 0.0 0.0
0.04168613121248142 -0.017857159025007164 0.0 -0.002037336343475059 0.0 0.0
0.04476721457941618 -0.019171816169556138 0.0 -0.0020853392111529474 0.0 0.0
0.04793427874072587 -0.020529743659794698 0.0 -0.002136645552274357 0.0 0.0
0.05113680018156641 -0.02192740720884206 0.0 -0.0021123675232503298 0.0 0.0
0.05412966261306794 -0.02328283062601457 0.0 -0.0018413654487708865 0.0 0.0
0.0563832367164054 -0.024362055001778214 0.0 -0.0011284078669019997 0.0 0.0
0.05724012444417258 -0.024797700434574865 0.0 -7.834444898380255e-16 0.0 0.0
0.05638323671640551 -0.024362055001778626 0.0 0.0011284078669025201 0.0 0.0
0.05412966261306801 -0.02328283062601524 0.0 0.0018413654487715247 0.0 0.0
0.051136800181566376 -0.02192740720884052 0.0 0.002112367523251316 0.0 0.0
0.04793427874072589 -0.020529743659793983 0.0 0.002136645552274043 0.0 0.0
0.04476721457941607 -0.019171816169556027 0.0 0.0020853392111533442 0.0 0.0
0.04168613121248141 -0.017857159025007282 0.0 0.002037336343475051 0.0 0.0
0.03866766507640253 -0.016568313275018096 0.0 0.002010237605030137 0.0 0.0
0.03568036966146044 -0.01529058622146694 0.0 0.001999105316264377 0.0 0.0
0.0327040347892146 -0.014016086891275852 0.0 0.0019963368607682852 0.0 0.0
0.029728952347634285 -0.012741449182259263 0.0 0.0019970856510670865 0.0 0.0
0.026751602093239978 -0.011465436308315194 0.0 0.0019986093064143636 0.0 0.0
0.023773091927014985 -0.01018810450441871 0.0 0.001997490720335844 0.0 0.0
0.02080353312399887 -0.008912322845232072 0.0 0.001986564583137727 0.0 0.0
0.017870736568379852 -0.007647510766757517 0.0 0.0019467661428599651 0.0 0.0
0.015060124051660836 -0.006420317732706318 0.0 0.0018495471279435897 0.0 0.0
0.0124621995036804 -0.005298199640340125 0.0 0.0016327086064826337 0.0 0.0
0.010728441329170673 -0.004253631076800604 0.0 0.001132415304152114 0.0 0.0
0.008915826520396694 -0.00479477050856161 0.0 0.0013681426157473777 0.0 0.0
0.009286872041783767 0.0029583477242269693 0.0 0.0036490519448023665 0.0 0.0
0.01097642533186194 -0.040699462456580036 0.0 0.0020134576739984558 0.0 0.0
0.00787291450042696 -0.034879240907655415 0.0 -0.00927288026160756 0.0 0.0
0.005980875008052517 0.0016197002859472845 0.0 -0.0065986518189059835 0.0 0.0
0.006141558750933604 -0.0024576326719778093 0.0 -0.0009277345730766339 0.0 0.0
0.009072840087104423 -0.003831971527106753 0.0 -0.0026123028879193465 0.0 0.0
0.011038577634757577 -0.004597849203742658 0.0 -0.0032509518257812678 0.0 0.0
0.013366318521975347 -0.005695337680263416 0.0 -0.0037258936027979523 0.0 0.0
0.015895174709003243 -0.006794147026830088 0.0 -0.003911524465141353 0.0 0.0
0.018498827719098103 -0.007923586620763428 0.0 -0.003986542816043613 0.0 0.0
0.021136228980675516 -0.009057856477426957 0.0 -0.004006697513012108 0.0 0.0
0.02378145380516433 -0.010192722834447599 0.0 -0.004007863288419513 0.0 0.0
0.026427081716376977 -0.011326559480101535 0.0 -0.0040044180268382 0.0 0.0
0.029071670610675858 -0.012459407022010116 0.0 -0.004002559581408444 0.0 0.0
0.03171775238194235 -0.01359196209179206 0.0 -0.004007507016283889 0.0 0.0
0.03437237601946092 -0.014726096499323427 0.0 -0.004028875213433599 0.0 0.0
0.03704977812939696 -0.015866685842263015 0.0 -0.004082579562108426 0.0 0.0
0.03977105003510141 -0.017024221751560882 0.0 -0.004181094743594045 0.0 0.0
0.04254829696204005 -0.01821441736295495 0.0 -0.004294522622525373 0.0 0.0
0.04533246660622204 -0.019443404033602438 0.0 -0.004269942886053161 0.0 0.0
0.04791666218674343 -0.020660328376372626 0.0 -0.0037562026596849856 0.0 0.0
0.04985821722664092 -0.021672168413938427 0.0 -0.002324957148996028 0.0 0.0
0.05059705387482562 -0.022104003244458856 0.0 -1.3032110113275763e-16 0.0 0.0
0.04985821722664108 -0.02167216841393874 0.0 0.0023249571489960706 0.0 0.0
0.04791666218674331 -0.020660328376371193 0.0 0.0037562026596858734 0.0 0.0
0.04533246660622193 -0.01944340403360349 0.0 0.004269942886053424 0.0 0.0
0.04254829696204006 -0.01821441736295392 0.0 0.004294522622525119 0.0 0.0
0.039771050035101466 -0.01702422175155965 0.0 0.0041810947435938755 0.0 0.0
0.03704977812939707 -0.015866685842261228 0.0 0.004082579562108653 0.0 0.0
0.03437237601946098 -0.014726096499324774 0.0 0.004028875213434329 0.0 0.0
0.03171775238194233 -0.013591962091792127 0.0 0.004007507016285275 0.0 0.0
0.029071670610675865 -0.012459407022010316 0.0 0.004002559581409559 0.0 0.0
0.02642708171637687 -0.011326559480099276 0.0 0.004004418026838317 0.0 0.0
0.02378145380516421 -0.010192722834447259 0.0 0.004007863288419589 0.0 0.0
0.021136228980675516 -0.009057856477424523 0.0 0.00400669751301163 0.0 0.0
0.01849882771909812 -0.00792358662076481 0.0 0.003986542816043908 0.0 0.0
0.015895174709003205 -0.006794147026828869 0.0 0.0039115244651411205 0.0 0.0
0.013366318521975425 -0.005695337680263681 0.0 0.0037258936027982576 0.0 0.0
0.011038577634757615 -0.004597849203742442 0.0 0.0032509518257812795 0.0 0.0
0.009072840087104522 -0.0038319715271069423 0.0 0.002612302887919967 0.0 0.0
0.006141558750933673 -0.002457632671977795 0.0 0.0009277345730760691 0.0 0.0
0.005980875008052409 0.0016197002859475616 0.0 0.006598651818906211 0.0 0.0
0.007872914500426896 -0.034879240907655505 0.0 0.009272880261607877 0.0 0.0
0.006253742498884131 -0.02976335392999465 0.0 -0.011576102985561647 0.0 0.0
0.004210921270686885 -0.00010234526788816789 0.0 -0.009036660878531784 0.0 0.0
0.004133558097256719 -0.0009658400517987909 0.0 -0.002749591513390156 0.0 0.0
0.007304122103494142 -0.003014869017754052 0.0 -0.0037763392756610618 0.0 0.0
0.00952909519375522 -0.003940818629395921 0.0 -0.0048360940646106736 0.0 0.0
0.011657541904097235 -0.004932921173387502 0.0 -0.005378654914565737 0.0 0.0
0.013902819123424694 -0.005935843652460034 0.0 -0.0056490586097458825 0.0 0.0
0.01619059610558307 -0.006931534079963715 0.0 -0.005748240296333718 0.0 0.0
0.0184979858058867 -0.007927176266999935 0.0 -0.005777567290098178 0.0 0.0
0.02081140116266514 -0.008920166438263563 0.0 -0.005779696229156024 0.0 0.0
0.0231254060973119 -0.009911898630500907 0.0 -0.005775409006437887 0.0 0.0
0.02543912500163968 -0.010902690312067989 0.0 -0.005773150408736741 0.0 0.0
0.027753863729134562 -0.011892574435218687 0.0 -0.005780123987402021 0.0 0.0
0.030073578308741425 -0.012881497105332275 0.0 -0.005809243844800696 0.0 0.0
0.03240646716321988 -0.01387097507559891 0.0 -0.005881698956086916 0.0 0.0
0.03476552813243513 -0.014868356719877351 0.0 -0.006013817290508123 0.0 0.0
0.037159624750645964 -0.015892990560150155 0.0 -0.006163698365637517 0.0 0.0
0.03955678016871615 -0.016973522196897056 0.0 -0.006117928785930509 0.0 0.0
0.04180135226228987 -0.01810609277206331 0.0 -0.005380411577953873 0.0 0.0
0.04351833045552152 -0.019131593314670785 0.0 -0.0033340527214090303 0.0 0.0
0.04418176228242555 -0.01960626232638396 0.0 2.7582103268031233e-16 0.0 0.0
0.04351833045552156 -0.019131593314671087 0.0 0.0033340527214092 0.0 0.0
0.04180135226228988 -0.018106092772063827 0.0 0.005380411577954398 0.0 0.0
0.03955678016871607 -0.016973522196898645 0.0 0.006117928785930787 0.0 0.0
0.03715962475064598 -0.015892990560148552 0.0 0.0061636983656380845 0.0 0.0
0.03476552813243525 -0.014868356719876276 0.0 0.006013817290507187 0.0 0.0
0.03240646716321991 -0.013870975075597633 0.0 0.005881698956087112 0.0 0.0
0.03007357830874141 -0.012881497105333168 0.0 0.005809243844799987 0.0 0.0
0.027753863729134617 -0.011892574435218605 0.0 0.005780123987401326 0.0 0.0
0.025439125001639706 -0.010902690312068303 0.0 0.005773150408736332 0.0 0.0
0.0231254060973118 -0.009911898630498793 0.0 0.005775409006438149 0.0 0.0
0.020811401162665062 -0.00892016643826312 0.0 0.005779696229156245 0.0 0.0
0.018497985805886807 -0.007927176266998584 0.0 0.005777567290098107 0.0 0.0
0.016190596105583023 -0.006931534079963375 0.0 0.00574824029633396 0.0 0.0
0.013902819123424623 -0.005935843652459892 0.0 0.005649058609746145 0.0 0.0
0.011657541904097244 -0.004932921173386714 0.0 0.0053786549145655215 0.0 0.0
0.009529095193755147 -0.00394081862939552 0.0 0.004836094064610157 0.0 0.0
0.007304122103494121 -0.003014869017754359 0.0 0.0037763392756615215 0.0 0.0
0.004133558097256899 -0.0009658400517990409 0.0 0.0027495915133888557 0.0 0.0
0.004210921270686984 -0.00010234526788847073 0.0 0.009036660878531652 0.0 0.0
0.006253742498883989 -0.029763353929994612 0.0 0.011576102985561748 0.0 0.0
0.005278295367215414 -0.02531812554743703 0.0 -0.011840297712090175 0.0 0.0
0.0032117889175495616 -0.0015861548265311883 0.0 -0.010685684348475914 0.0 0.0
0.0027217881145175974 -0.00016124658079798572 0.0 -0.00521001921425449 0.0 0.0
0.0056340815916938606 -0.002131946235787712 0.0 -0.005153111268450477 0.0 0.0
0.007962024382530625 -0.0032432937981789044 0.0 -0.006250511754048098 0.0 0.0
0.009933921929869027 -0.004167877833739673 0.0 -0.006854666423894232 0.0 0.0
0.011901115161366185 -0.005067880628189382 0.0 -0.007156358577835836 0.0 0.0
0.013878054818056656 -0.005938011979775879 0.0 -0.00727581446436236 0.0 0.0
0.015858647791247606 -0.00679566140689355 0.0 -0.0073106836021459825 0.0 0.0
0.017841098124643837 -0.0076476312958504 0.0 -0.007314399556879847 0.0 0.0
0.019823747604900105 -0.008497304547869592 0.0 -0.007309983584933486 0.0 0.0
0.021806309573870163 -0.009345865751984431 0.0 -0.0073078013295237365 0.0 0.0
0.023788933556302707 -0.010192562016639295 0.0 -0.0073162228908794395 0.0 0.0
0.025772298718332073 -0.011035229454173415 0.0 -0.007349928437217026 0.0 0.0
0.027758813381159562 -0.01187195069107998 0.0 -0.007432742571521354 0.0 0.0
0.0297553846100493 -0.012707852090993807 0.0 -0.007582901599642047 0.0 0.0
0.031773825133566386 -0.013569915109739072 0.0 -0.007750883866423048 0.0 0.0
0.03381077189219322 -0.014518880792867409 0.0 -0.0076812791150794105 0.0 0.0
0.035770912861020264 -0.01561018599201507 0.0 -0.006764031663533195 0.0 0.0
0.03733175806802119 -0.016715167134823013 0.0 -0.004207942089631485 0.0 0.0
0.0379530251481204 -0.017274203065464924 0.0 -5.182486384480711e-17 0.0 0.0
0.03733175806802124 -0.016715167134822562 0.0 0.004207942089632349 0.0 0.0
0.035770912861020285 -0.015610185992016072 0.0 0.006764031663532601 0.0 0.0
0.03381077189219324 -0.014518880792867752 0.0 0.007681279115078999 0.0 0.0
0.03177382513356636 -0.013569915109741334 0.0 0.007750883866423735 0.0 0.0
0.029755384610049507 -0.012707852090995543 0.0 0.007582901599642243 0.0 0.0
0.027758813381159653 -0.011871950691081367 0.0 0.007432742571521149 0.0 0.0
0.02577229871833201 -0.011035229454174254 0.0 0.00734992843721651 0.0 0.0
0.023788933556302704 -0.01019256201663728 0.0 0.00731622289087952 0.0 0.0
0.021806309573870104 -0.009345865751983698 0.0 0.007307801329524353 0.0 0.0
0.019823747604900018 -0.008497304547869266 0.0 0.007309983584933531 0.0 0.0
0.01784109812464383 -0.007647631295850875 0.0 0.007314399556880057 0.0 0.0
0.015858647791247727 -0.006795661406894944 0.0 0.00731068360214571 0.0 0.0
0.013878054818056575 -0.005938011979775451 0.0 0.007275814464362441 0.0 0.0
0.011901115161366072 -0.00506788062819012 0.0 0.007156358577835921 0.0 0.0
0.00993392192986894 -0.004167877833739254 0.0 0.006854666423893379 0.0 0.0
0.007962024382530554 -0.00324329379817824 0.0 0.006250511754048207 0.0 0.0
0.005634081591693897 -0.0021319462357877604 0.0 0.00515311126845083 0.0 0.0
0.002721788114517646 -0.00016124658079818145 0.0 0.005210019214254299 0.0 0.0
0.0032117889175495382 -0.001586154826531486 0.0 0.010685684348475279 0.0 0.0
0.005278295367215274 -0.0253181255474369 0.0 0.01184029771209011 0.0 0.0
0.0045868150571146855 -0.021473519717124398 0.0 -0.011296079515870732 0.0 0.0
0.0025959125190459877 -0.0026627416815295565 0.0 -0.011660261190623 0.0 0.0
0.0017236264898635605 0.0001951182222517484 0.0 -0.0075904376435949345 0.0 0.0
0.004138329581406022 -0.0013339974675020498 0.0 -0.006692188709657284 0.0 0.0
0.00638775267653055 -0.0025188375631097467 0.0 -0.007534671072970159 0.0 0.0
0.008198676257360706 -0.003400427753752128 0.0 -0.008139673800760272 0.0 0.0
0.009894546196131164 -0.004196165469947784 0.0 -0.008443235952346638 0.0 0.0
0.011562247308789925 -0.004942493137882432 0.0 -0.008569271061380904 0.0 0.0
0.013218150389032986 -0.0056636527393679765 0.0 -0.008607295049500568 0.0 0.0
0.01487042358456889 -0.0063748992596438835 0.0 -0.008612108564743837 0.0 0.0
0.01652193056715181 -0.007082672814397846 0.0 -0.00860814277516888 0.0 0.0
0.0181731953174061 -0.007788894203708567 0.0 -0.008606275129413457 0.0 0.0
0.019823262730120392 -0.008492128877921933 0.0 -0.008615303278366264 0.0 0.0
0.021469633058705903 -0.009188086424470315 0.0 -0.008650124549355638 0.0 0.0
0.023109340633652824 -0.00987152763454677 0.0 -0.008734940753625376 0.0 0.0
0.024744686243237706 -0.01054591177395812 0.0 -0.008889152265193469 0.0 0.0
0.026394531337781756 -0.011248118501131847 0.0 -0.0090627805713978 0.0 0.0
0.028092199818425555 -0.012077449193286348 0.0 -0.008980410810222359 0.0 0.0
0.029810571442509856 -0.013159747985422706 0.0 -0.007945726343499788 0.0 0.0
0.031270502000738706 -0.014400891343268454 0.0 -0.0049856943364415445 0.0 0.0
0.03187737139670654 -0.015086884377978643 0.0 6.288372600415926e-18 0.0 0.0
0.03127050200073867 -0.01440089134326845 0.0 0.004985694336442293 0.0 0.0
0.029810571442509773 -0.01315974798542232 0.0 0.007945726343499692 0.0 0.0
0.02809219981842564 -0.012077449193286863 0.0 0.008980410810222682 0.0 0.0
0.026394531337781833 -0.01124811850113399 0.0 0.009062780571396816 0.0 0.0
0.02474468624323768 -0.010545911773958905 0.0 0.008889152265193007 0.0 0.0
0.02310934063365278 -0.009871527634548027 0.0 0.008734940753625419 0.0 0.0
0.021469633058705768 -0.00918808642446879 0.0 0.008650124549356316 0.0 0.0
0.01982326273012034 -0.008492128877919355 0.0 0.008615303278366397 0.0 0.0
0.018173195317405976 -0.007788894203709738 0.0 0.008606275129413525 0.0 0.0
0.0165219305671517 -0.00708267281439985 0.0 0.008608142775168266 0.0 0.0
0.014870423584568956 -0.006374899259644109 0.0 0.008612108564743731 0.0 0.0
0.013218150389032972 -0.005663652739369698 0.0 0.008607295049500611 0.0 0.0
0.011562247308789941 -0.004942493137883202 0.0 0.008569271061380753 0.0 0.0
0.00989454619613112 -0.0041961654699490415 0.0 0.008443235952346334 0.0 0.0
0.008198676257360664 -0.0034004277537519273 0.0 0.008139673800759636 0.0 0.0
0.006387752676530533 -0.002518837563109119 0.0 0.007534671072970534 0.0 0.0
0.004138329581406007 -0.0013339974675025358 0.0 0.0066921887096576226 0.0 0.0
0.0017236264898634654 0.00019511822225203555 0.0 0.007590437643595181 0.0 0.0
0.0025959125190459713 -0.0026627416815296788 0.0 0.011660261190622577 0.0 0.0
0.0045868150571149405 -0.021473519717124356 0.0 0.011296079515870786 0.0 0.0
0.004020247152509337 -0.018143123839199637 0.0 -0.01047313159948558 0.0 0.0
0.0021630937302643868 -0.0033352695078416364 0.0 -0.012130751320244734 0.0 0.0
0.0009938880841265725 0.0002986751048985911 0.0 -0.00960029452116223 0.0 0.0
0.0028240241385380817 -0.0006674141730691347 0.0 -0.00823371472038695 0.0 0.0
0.004845587493043307 -0.0017992783862457815 0.0 -0.008703802991948152 0.0 0.0
0.006461012913457532 -0.002631921654385298 0.0 -0.009229760479750165 0.0 0.0
0.007886002265809515 -0.0033242071781398475 0.0 -0.009510843753187876 0.0 0.0
0.009244612135942238 -0.003945811392606778 0.0 -0.009630242663462478 0.0 0.0
0.010576587606826554 -0.004531164007041029 0.0 -0.009667780312358522 0.0 0.0
0.011899279388044947 -0.005101921914095607 0.0 -0.009673132357294802 0.0 0.0
0.013219836292637866 -0.005667894675188699 0.0 -0.009669877853265669 0.0 0.0
0.014539782734384662 -0.006231772816964697 0.0 -0.009668432359867416 0.0 0.0
0.015857183935048105 -0.006791507193307205 0.0 -0.009677101589976735 0.0 0.0
0.017166659473973927 -0.007340864990613222 0.0 -0.009709613793107278 0.0 0.0
0.018460396049403284 -0.007871521286641415 0.0 -0.009788579450470418 0.0 0.0
0.019736909462008095 -0.008385347521631729 0.0 -0.009934409413472886 0.0 0.0
0.021023960696667197 -0.008929421984413268 0.0 -0.010105290128078174 0.0 0.0
0.022396597640723156 -0.009645006075661789 0.0 -0.010030430360026125 0.0 0.0
0.023904357774560295 -0.010739888671609889 0.0 -0.008954217953130807 0.0 0.0
0.025309359704415384 -0.012168831941209667 0.0 -0.0056982890706878874 0.0 0.0
0.025926815094750262 -0.01303071944950892 0.0 -3.361026734705064e-17 0.0 0.0
0.025309359704415387 -0.012168831941209822 0.0 0.005698289070687788 0.0 0.0
0.023904357774560268 -0.010739888671609948 0.0 0.00895421795313131 0.0 0.0
0.022396597640723187 -0.009645006075663324 0.0 0.01003043036002637 0.0 0.0
0.021023960696667114 -0.008929421984413325 0.0 0.010105290128077283 0.0 0.0
0.019736909462008158 -0.00838534752163083 0.0 0.009934409413472919 0.0 0.0
0.018460396049403242 -0.007871521286641125 0.0 0.00978857945047014 0.0 0.0
0.017166659473973847 -0.007340864990610546 0.0 0.009709613793106739 0.0 0.0
0.015857183935048175 -0.006791507193307922 0.0 0.009677101589976258 0.0 0.0
0.014539782734384755 -0.006231772816965405 0.0 0.009668432359867323 0.0 0.0
0.013219836292637907 -0.005667894675188447 0.0 0.009669877853265611 0.0 0.0
0.011899279388045062 -0.005101921914094676 0.0 0.0096731323572942 0.0 0.0
0.010576587606826634 -0.004531164007041105 0.0 0.0096677803123579 0.0 0.0
0.009244612135942278 -0.00394581139260786 0.0 0.00963024266346304 0.0 0.0
0.007886002265809443 -0.003324207178140766 0.0 0.009510843753187542 0.0 0.0
0.006461012913457457 -0.0026319216543845467 0.0 0.009229760479750122 0.0 0.0
0.004845587493043354 -0.0017992783862456015 0.0 0.008703802991947958 0.0 0.0
0.002824024138538057 -0.0006674141730696942 0.0 0.008233714720387095 0.0 0.0
0.0009938880841265218 0.00029867510489895674 0.0 0.009600294521162286 0.0 0.0
0.0021630937302644774 -0.0033352695078419656 0.0 0.012130751320245027 0.0 0.0
0.004020247152509557 -0.018143123839199637 0.0 0.01047313159948475 0.0 0.0
0.0035078858396351918 -0.01524215514333184 0.0 -0.009594911872670222 0.0 0.0
0.0018098441535995434 -0.003665125076199146 0.0 -0.012237898524644523 0.0 0.0
0.00042872287022455255 0.0002842879367072308 0.0 -0.011148208177662112 0.0 0.0
0.0016689814828371714 -0.00012818770462864217 0.0 -0.00963737728525608 0.0 0.0
0.003357998265918236 -0.0011092523503592067 0.0 -0.009738927983391581 0.0 0.0
0.00473173931987865 -0.0018677650435376812 0.0 -0.010123720097962386 0.0 0.0
0.005878324693187974 -0.002454030746420159 0.0 -0.010357612090591408 0.0 0.0
0.006926391924383669 -0.002949057528680377 0.0 -0.010459471356748502 0.0 0.0
0.00793420962220123 -0.003398289264135535 0.0 -0.010492490151472368 0.0 0.0
0.008927595918336724 -0.0038286563096779063 0.0 -0.01049767259400516 0.0 0.0
0.009917382728790197 -0.004252901047366923 0.0 -0.010495238959060333 0.0 0.0
0.01090609435527485 -0.004674512029758766 0.0 -0.010494211805781188 0.0 0.0
0.011891019568038699 -0.005090929291023926 0.0 -0.01050158289681642 0.0 0.0
0.012864362834252695 -0.005494298151620874 0.0 -0.010528706533907311 0.0 0.0
0.01381408299647305 -0.005873571549945814 0.0 -0.010594879062465413 0.0 0.0
0.01473505901272891 -0.006228648583846309 0.0 -0.010721324423616055 0.0 0.0
0.015663466980745236 -0.00661501938975973 0.0 -0.010883074913189844 0.0 0.0
0.016718168506815272 -0.007216035919187057 0.0 -0.010840685120393167 0.0 0.0
0.018035460870468895 -0.008334047643178813 0.0 -0.009809356898013625 0.0 0.0
0.019425004983981146 -0.00999993252470322 0.0 -0.006371759578755608 0.0 0.0
0.02007726195244595 -0.011098622711047307 0.0 1.7499023063916042e-16 0.0 0.0
0.019425004983981246 -0.009999932524703523 0.0 0.006371759578755576 0.0 0.0
0.018035460870468964 -0.008334047643179784 0.0 0.009809356898014588 0.0 0.0
0.01671816850681522 -0.007216035919188542 0.0 0.010840685120392862 0.0 0.0
0.01566346698074527 -0.006615019389760172 0.0 0.010883074913189728 0.0 0.0
0.014735059012728906 -0.006228648583848089 0.0 0.010721324423616303 0.0 0.0
0.013814082996472946 -0.005873571549945207 0.0 0.010594879062465977 0.0 0.0
0.012864362834252682 -0.005494298151620763 0.0 0.010528706533907427 0.0 0.0
0.011891019568038617 -0.0050909292910242005 0.0 0.010501582896816845 0.0 0.0
0.010906094355274759 -0.004674512029757099 0.0 0.010494211805781644 0.0 0.0
0.009917382728790234 -0.004252901047367937 0.0 0.010495238959061216 0.0 0.0
0.008927595918336686 -0.0038286563096766773 0.0 0.010497672594004893 0.0 0.0
0.007934209622201193 -0.0033982892641360772 0.0 0.01049249015147176 0.0 0.0
0.006926391924383738 -0.0029490575286803774 0.0 0.010459471356748316 0.0 0.0
0.005878324693188042 -0.0024540307464199517 0.0 0.01035761209059209 0.0 0.0
0.004731739319878702 -0.0018677650435375854 0.0 0.010123720097962608 0.0 0.0
0.0033579982659182103 -0.001109252350359497 0.0 0.009738927983391623 0.0 0.0
0.0016689814828371012 -0.00012818770462851825 0.0 0.009637377285256104 0.0 0.0
0.00042872287022464563 0.00028428793670684884 0.0 0.01114820817766204 0.0 0.0
0.0018098441535995555 -0.003665125076199224 0.0 0.012237898524644509 0.0 0.0
0.00350788583963496 -0.01524215514333187 0.0 0.009594911872669327 0.0 0.0
0.003019535164019369 -0.012697127025301791 0.0 -0.008746663425237475 0.0 0.0
0.0014839048316586834 -0.0037258917712143748 0.0 -0.012080939391654512 0.0 0.0
-4.216522945613274e-05 0.00023673755952862547 0.0 -0.012230981151431796 0.0 0.0
0.0006418677672993119 0.0003074298067092905 0.0 -0.010807151360578386 0.0 0.0
0.0019336221294521312 -0.0004617060066980126 0.0 -0.010605327108360712 0.0 0.0
0.0030199104811468244 -0.0011144560277907523 0.0 -0.010816393084906714 0.0 0.0
0.0038744776230242852 -0.0015873892020536898 0.0 -0.010981295642393894 0.0 0.0
0.004608603511850395 -0.0019531014145524519 0.0 -0.011056672223819192 0.0 0.0
0.005291297353885019 -0.0022652122583641642 0.0 -0.01108165612417773 0.0 0.0
0.005955344154802223 -0.0025550682103208378 0.0 -0.011085883631929387 0.0 0.0
0.006614511934222169 -0.0028376465852504354 0.0 -0.011084299517286829 0.0 0.0
0.007272162615683314 -0.003117131257330271 0.0 -0.011083633023896993 0.0 0.0
0.007925048085198585 -0.0033905995017941945 0.0 -0.011088907464909054 0.0 0.0
0.00856356745435373 -0.0036489977161171788 0.0 -0.011108158858573523 0.0 0.0
0.009172199086956477 -0.0038790701719025314 0.0 -0.011155875223771754 0.0 0.0
0.009741793807167045 -0.004078052711017944 0.0 -0.011253294731788153 0.0 0.0
0.010314106096170016 -0.004305988642415158 0.0 -0.011399485474368162 0.0 0.0
0.011050599793042628 -0.004784599877589508 0.0 -0.011414527868846983 0.0 0.0
0.012186377710733274 -0.005924082045420694 0.0 -0.010522497982657083 0.0 0.0
0.013595129862841341 -0.007874666961727658 0.0 -0.00702922936618925 0.0 0.0
0.014307283815300031 -0.009289967048211688 0.0 -2.7538735181131813e-17 0.0 0.0
0.013595129862841419 -0.007874666961728262 0.0 0.007029229366189705 0.0 0.0
0.012186377710733148 -0.005924082045422089 0.0 0.010522497982657196 0.0 0.0
0.01105059979304249 -0.004784599877587999 0.0 0.01141452786884641 0.0 0.0
0.010314106096170094 -0.00430598864241517 0.0 0.0113994854743686 0.0 0.0
0.009741793807166995 -0.004078052711018673 0.0 0.011253294731788491 0.0 0.0
0.0091721990869564 -0.003879070171901892 0.0 0.01115587522377253 0.0 0.0
0.008563567454353828 -0.003648997716119262 0.0 0.011108158858573438 0.0 0.0
0.007925048085198531 -0.003390599501794467 0.0 0.011088907464908976 0.0 0.0
0.007272162615683307 -0.0031171312573285803 0.0 0.011083633023896663 0.0 0.0
0.006614511934222327 -0.00283764658525267 0.0 0.011084299517287151 0.0 0.0
0.005955344154802222 -0.002555068210320589 0.0 0.011085883631929333 0.0 0.0
0.005291297353884949 -0.0022652122583652814 0.0 0.011081656124178222 0.0 0.0
0.004608603511850435 -0.0019531014145528643 0.0 0.011056672223818165 0.0 0.0
0.003874477623024305 -0.0015873892020536182 0.0 0.010981295642394265 0.0 0.0
0.00301991048114678 -0.0011144560277919504 0.0 0.010816393084906794 0.0 0.0
0.0019336221294520878 -0.0004617060066975541 0.0 0.010605327108361243 0.0 0.0
0.0006418677672992865 0.00030742980670917674 0.0 0.010807151360578107 0.0 0.0
-4.2165229456088035e-05 0.00023673755952804515 0.0 0.012230981151431617 0.0 0.0
0.0014839048316586999 -0.003725891771214078 0.0 0.012080939391654152 0.0 0.0
0.0030195351640193214 -0.012697127025301765 0.0 0.008746663425236903 0.0 0.0
0.0025440806311051193 -0.010449353467705393 0.0 -0.007950802877132209 0.0 0.0
0.0011605572596922022 -0.003585878944759621 0.0 -0.011724506640748348 0.0 0.0
-0.0004644939311657815 0.00020507521090602006 0.0 -0.01288028814196425 0.0 0.0
-0.00028829381786244564 0.0006674885938776553 0.0 -0.011686269458070012 0.0 0.0
0.0005718972458768002 0.00013991150783051976 0.0 -0.011266454416661575 0.0 0.0
0.0013314276358378768 -0.0003772299606120679 0.0 -0.011297991467409974 0.0 0.0
0.0018771214590482977 -0.000725965352409414 0.0 -0.011378870721205529 0.0 0.0
0.0022920747028150443 -0.00095856223206094 0.0 -0.011420944649486085 0.0 0.0
0.002648085505894605 -0.0011321146272544596 0.0 -0.011435300229934435 0.0 0.0
0.002982522847746762 -0.001281143979460733 0.0 -0.01143789887563055 0.0 0.0
0.003311186071856513 -0.0014221001421279205 0.0 -0.011437146781486721 0.0 0.0
0.0036380179905271376 -0.001559651134718523 0.0 -0.011436781365304164 0.0 0.0
0.003959478681551722 -0.0016906746721084141 0.0 -0.011439389207560725 0.0 0.0
0.004264880404604766 -0.0018054089302364555 0.0 -0.011449063404832 0.0 0.0
0.004536165644886938 -0.0018890833011016555 0.0 -0.011474286422483984 0.0 0.0
0.0047595216954176645 -0.0019355794349758004 0.0 -0.011534544367768573 0.0 0.0
0.004977198351932802 -0.0020038016542698344 0.0 -0.011656898114297563 0.0 0.0
0.005387897853782201 -0.0023452761275986485 0.0 -0.011749248464125481 0.0 0.0
0.006338986277660738 -0.00349027530955482 0.0 -0.011096039829467757 0.0 0.0
0.007797584436760421 -0.005771366049590155 0.0 -0.007692186185730159 0.0 0.0
0.008597050772452939 -0.007611258644525658 0.0 -4.0332320816460765e-17 0.0 0.0
0.007797584436760499 -0.005771366049589144 0.0 0.007692186185729737 0.0 0.0
0.006338986277660665 -0.003490275309554772 0.0 0.011096039829467256 0.0 0.0
0.005387897853782104 -0.0023452761275967694 0.0 0.011749248464125539 0.0 0.0
0.0049771983519327065 -0.002003801654267936 0.0 0.011656898114297288 0.0 0.0
0.004759521695417601 -0.0019355794349747717 0.0 0.0115345443677689 0.0 0.0
0.004536165644886925 -0.0018890833011013628 0.0 0.011474286422485096 0.0 0.0
0.004264880404604864 -0.0018054089302358082 0.0 0.011449063404831632 0.0 0.0
0.003959478681551683 -0.0016906746721088203 0.0 0.011439389207560172 0.0 0.0
0.003638017990527039 -0.0015596511347165812 0.0 0.011436781365305211 0.0 0.0
0.0033111860718566767 -0.001422100142128749 0.0 0.011437146781486194 0.0 0.0
0.002982522847746796 -0.001281143979462294 0.0 0.01143789887563047 0.0 0.0
0.0026480855058945334 -0.0011321146272556361 0.0 0.011435300229934395 0.0 0.0
0.00229207470281507 -0.0009585622320613474 0.0 0.011420944649486096 0.0 0.0
0.0018771214590484568 -0.0007259653524097363 0.0 0.011378870721205876 0.0 0.0
0.0013314276358380387 -0.0003772299606128262 0.0 0.011297991467410453 0.0 0.0
0.0005718972458767106 0.0001399115078313695 0.0 0.011266454416661754 0.0 0.0
-0.00028829381786255894 0.000667488593877172 0.0 0.011686269458069911 0.0 0.0
-0.00046449393116570375 0.0002050752109059003 0.0 0.012880288141964897 0.0 0.0
0.001160557259692232 -0.003585878944759564 0.0 0.011724506640747907 0.0 0.0
0.0025440806311050577 -0.010449353467705359 0.0 0.00795080287713298 0.0 0.0
0.0020795403601269165 -0.008455080933620567 0.0 -0.007202046425998254 0.0 0.0
0.0008299905012337732 -0.003302704298071557 0.0 -0.011208253426527063 0.0 0.0
-0.0008667702977753827 0.0002146067389208929 0.0 -0.01313777916342379 0.0 0.0
-0.0011481997579049366 0.000977414867127983 0.0 -0.01224612792002646 0.0 0.0
-0.000732985556476924 0.0006982309082562343 0.0 -0.011690693147666732 0.0 0.0
-0.00033107752848352657 0.0003409196119261849 0.0 -0.011555915859433392 0.0 0.0
-0.00011183875927366435 0.0001288870270670384 0.0 -0.011546341000684336 0.0 0.0
-2.2585386140519558e-05 3.4153015007551784e-05 0.0 -0.011551039114137388 0.0 0.0
4.732058132356969e-06 8.792953192054401e-07 0.0 -0.011553271721907787 0.0 0.0
9.140501271205572e-06 -6.884124131341528e-06 0.0 -0.01155382833150518 0.0 0.0
7.384168185820667e-06 -6.2428481186418435e-06 0.0 -0.011553880125897474 0.0 0.0
3.680588138358699e-06 -2.08571363208442e-06 0.0 -0.011553787145571003 0.0 0.0
-5.5647329034687115e-06 8.748014900214544e-06 0.0 -0.011553447224268277 0.0 0.0
-3.135054407788705e-05 3.621734862887662e-05 0.0 -0.011552722112653973 0.0 0.0
-9.306065627205954e-05 9.573268736605344e-05 0.0 -0.011553339516475903 0.0 0.0
-0.0002095825472170018 0.0001970208443179736 0.0 -0.011570302738861032 0.0 0.0
-0.00034513592094146295 0.00028921673591619573 0.0 -0.011657530502857984 0.0 0.0
-0.00027464299237630187 0.00010570873113830887 0.0 -0.011836273375576196 0.0 0.0
0.00047466880608241233 -0.0010114690222299578 0.0 -0.011521973467766596 0.0 0.0
0.002009441561371957 -0.0036639699541341593 0.0 -0.008381032941058655 0.0 0.0
0.0029272302139880615 -0.006077560575395094 0.0 3.5279938692678314e-16 0.0 0.0
0.002009441561372106 -0.0036639699541337976 0.0 0.008381032941058532 0.0 0.0
0.00047466880608242534 -0.0010114690222284332 0.0 0.01152197346776637 0.0 0.0
-0.00027464299237643403 0.00010570873113896389 0.0 0.01183627337557774 0.0 0.0
-0.0003451359209415217 0.00028921673591662085 0.0 0.011657530502857024 0.0 0.0
-0.0002095825472168566 0.0001970208443179737 0.0 0.011570302738861244 0.0 0.0
-9.306065627202409e-05 9.573268736632384e-05 0.0 0.011553339516476406 0.0 0.0
-3.135054407812384e-05 3.6217348630815307e-05 0.0 0.011552722112653487 0.0 0.0
-5.564732903392275e-06 8.74801490234572e-06 0.0 0.01155344722426796 0.0 0.0
3.6805881383297507e-06 -2.085713631784001e-06 0.0 0.01155378714557225 0.0 0.0
7.384168185852434e-06 -6.242848117878091e-06 0.0 0.011553880125897944 0.0 0.0
9.140501271369232e-06 -6.884124133372754e-06 0.0 0.01155382833150507 0.0 0.0
4.732058132334255e-06 8.79295318500153e-07 0.0 0.011553271721908235 0.0 0.0
-2.258538614051625e-05 3.415301500697095e-05 0.0 0.011551039114137483 0.0 0.0
-0.0001118387592736109 0.00012888702706741352 0.0 0.011546341000684208 0.0 0.0
-0.00033107752848358045 0.0003409196119254198 0.0 0.011555915859433757 0.0 0.0
-0.0007329855564770465 0.0006982309082554999 0.0 0.011690693147666326 0.0 0.0
-0.0011481997579048857 0.0009774148671278366 0.0 0.012246127920027123 0.0 0.0
-0.0008667702977753946 0.00021460673892077038 0.0 0.01313777916342374 0.0 0.0
0.0008299905012336974 -0.003302704298071618 0.0 0.011208253426526713 0.0 0.0
0.0020795403601269156 -0.008455080933620714 0.0 0.007202046425998748 0.0 0.0
0.0016283749514292521 -0.006684114314325418 0.0 -0.006484150532693748 0.0 0.0
0.0004905154571804993 -0.0029227966886802865 0.0 -0.010555064060329782 0.0 0.0
-0.0012656518398446923 0.00027552462519509743 0.0 -0.013044121617776475 0.0 0.0
-0.001959080744570198 0.0012574635097123196 0.0 -0.012476109953916615 0.0 0.0
-0.0019892957556114353 0.0012190916024171937 0.0 -0.011853380806470576 0.0 0.0
-0.0019677655206390564 0.001039309581423141 0.0 -0.011576812700111787 0.0 0.0
-0.0020915257781264317 0.0009764357564417151 0.0 -0.011478937351846548 0.0 0.0
-0.002335056986366567 0.0010248512330686698 0.0 -0.011445506050649897 0.0 0.0
-0.0026386932977247833 0.0011337195110265766 0.0 -0.01143532862730434 0.0 0.0
-0.002964796137572245 0.001267707091298228 0.0 -0.011433762596346321 0.0 0.0
-0.0032969011271574093 0.0014099323062909722 0.0 -0.011434606082561636 0.0 0.0
-0.003630844996891535 0.0015555627075840963 0.0 -0.011434802080577039 0.0 0.0
-0.0039700498568482675 0.0017076378966483425 0.0 -0.011431554594718488 0.0 0.0
-0.004325057364052906 0.001875829241533706 0.0 -0.011420515125750177 0.0 0.0
-0.004715093537186633 0.002075210155815734 0.0 -0.011396521154980391 0.0 0.0
-0.005163690419097342 0.002318451988707961 0.0 -0.011366972896413356 0.0 0.0
-0.005649519945411815 0.0025695731315042497 0.0 -0.01140481969078895 0.0 0.0
-0.005939205836570382 0.002569022886487478 0.0 -0.011661948980346852 0.0 0.0
-0.005425345977202001 0.001534386101072348 0.0 -0.011779228736690713 0.0 0.0
-0.0037940978593076005 -0.0015188486794877557 0.0 -0.009114638659821827 0.0 0.0
-0.002722381536976992 -0.004714770819132645 0.0 3.694961003830599e-16 0.0 0.0
-0.0037940978593074886 -0.001518848679488758 0.0 0.009114638659822425 0.0 0.0
-0.005425345977201781 0.0015343861010746526 0.0 0.01177922873668997 0.0 0.0
-0.005939205836570532 0.002569022886487526 0.0 0.011661948980346728 0.0 0.0
-0.0056495199454119965 0.002569573131504826 0.0 0.011404819690789724 0.0 0.0
-0.0051636904190971895 0.002318451988708264 0.0 0.011366972896414381 0.0 0.0
-0.004715093537186596 0.0020752101558158638 0.0 0.011396521154980336 0.0 0.0
-0.004325057364053156 0.0018758292415336228 0.0 0.011420515125750146 0.0 0.0
-0.00397004985684836 0.0017076378966525596 0.0 0.011431554594719185 0.0 0.0
-0.0036308449968914048 0.0015555627075817073 0.0 0.011434802080577375 0.0 0.0
-0.0032969011271573277 0.0014099323062906608 0.0 0.011434606082562316 0.0 0.0
-0.002964796137572189 0.001267707091297436 0.0 0.011433762596345938 0.0 0.0
-0.002638693297724784 0.0011337195110257697 0.0 0.011435328627304309 0.0 0.0
-0.002335056986366626 0.0010248512330677858 0.0 0.011445506050649465 0.0 0.0
-0.0020915257781264993 0.0009764357564421091 0.0 0.011478937351846472 0.0 0.0
-0.001967765520639026 0.0010393095814232804 0.0 0.011576812700111688 0.0 0.0
-0.0019892957556113485 0.001219091602416403 0.0 0.011853380806470764 0.0 0.0
-0.0019590807445702568 0.0012574635097128786 0.0 0.012476109953916995 0.0 0.0
-0.0012656518398447556 0.0002755246251945688 0.0 0.013044121617776 0.0 0.0
0.0004905154571805646 -0.002922796688680023 0.0 0.010555064060329748 0.0 0.0
0.00162837495142929 -0.006684114314325645 0.0 0.006484150532693604 0.0 0.0
0.0011953238740439632 -0.005117954027177608 0.0 -0.005778040097910779 0.0 0.0
0.00014499434736493178 -0.002482720933612821 0.0 -0.009777273334531648 0.0 0.0
-0.0016695671662105625 0.00038863751966379827 0.0 -0.012634733598837305 0.0 0.0
-0.0027367521103333356 0.0015222608875598836 0.0 -0.012375783115717538 0.0 0.0
-0.003206027923461909 0.0017095918544735612 0.0 -0.0117363794310583 0.0 0.0
-0.00358095863946465 0.0017192286729448025 0.0 -0.011348084029994432 0.0 0.0
-0.004062173693027149 0.001816739031067079 0.0 -0.011171595265415595 0.0 0.0
-0.0046453728169250025 0.0020135808790002325 0.0 -0.011102835464503209 0.0 0.0
-0.005282214166777829 0.002266429900300011 0.0 -0.011081217619489245 0.0 0.0
-0.005939285600038683 0.002542627021301926 0.0 -0.011077787252694413 0.0 0.0
-0.0066016649093933386 0.002826420423860666 0.0 -0.011079432033098443 0.0 0.0
-0.007265572001662319 0.00311330510236202 0.0 -0.011079973012192894 0.0 0.0
-0.007934034915507376 0.003406035682405391 0.0 -0.01107418442112646 0.0 0.0
-0.008616442155933384 0.0037135537318348563 0.0 -0.01105378972335236 0.0 0.0
-0.009330220812437494 0.004049709660845687 0.0 -0.011007243703504413 0.0 0.0
-0.010101623387045379 0.00442822901254437 0.0 -0.010932085391274387 0.0 0.0
-0.010931060322028308 0.004832613496158974 0.0 -0.010905401213458366 0.0 0.0
-0.011603804699722107 0.005040326875458737 0.0 -0.011209573426291678 0.0 0.0
-0.01137914022584733 0.004168746036297811 0.0 -0.011829587083504012 0.0 0.0
-0.009641054431121234 0.0007098210815846756 0.0 -0.009908103098790309 0.0 0.0
-0.008374858594423606 -0.0035628775536771006 0.0 4.475586568020162e-16 0.0 0.0
-0.009641054431121105 0.0007098210815844426 0.0 0.009908103098790708 0.0 0.0
-0.011379140225847384 0.004168746036299054 0.0 0.011829587083503795 0.0 0.0
-0.011603804699722163 0.005040326875459078 0.0 0.011209573426291548 0.0 0.0
-0.010931060322028409 0.0048326134961612565 0.0 0.01090540121345863 0.0 0.0
-0.01010162338704563 0.004428229012546137 0.0 0.010932085391274934 0.0 0.0
-0.009330220812437548 0.004049709660844492 0.0 0.011007243703503804 0.0 0.0
-0.008616442155933374 0.003713553731835362 0.0 0.011053789723352326 0.0 0.0
-0.007934034915507307 0.003406035682404958 0.0 0.011074184421127113 0.0 0.0
-0.007265572001662215 0.0031133051023602104 0.0 0.011079973012192724 0.0 0.0
-0.006601664909393297 0.002826420423860087 0.0 0.01107943203309927 0.0 0.0
-0.005939285600038581 0.0025426270213013565 0.0 0.011077787252694437 0.0 0.0
-0.005282214166777764 0.002266429900298905 0.0 0.011081217619489332 0.0 0.0
-0.004645372816925037 0.0020135808789998903 0.0 0.011102835464503307 0.0 0.0
-0.004062173693027228 0.0018167390310669974 0.0 0.01117159526541532 0.0 0.0
-0.0035809586394646023 0.0017192286729452604 0.0 0.011348084029993693 0.0 0.0
-0.003206027923461989 0.0017095918544734042 0.0 0.011736379431058383 0.0 0.0
-0.002736752110333442 0.0015222608875602324 0.0 0.012375783115717081 0.0 0.0
-0.001669567166210512 0.00038863751966392826 0.0 0.012634733598837402 0.0 0.0
0.00014499434736490522 -0.0024827209336129494 0.0 0.009777273334531347 0.0 0.0
0.0011953238740439092 -0.005117954027177613 0.0 0.0057780400979113074 0.0 0.0
0.0007865306926788294 -0.0037479101592187373 0.0 -0.005065998354521863 0.0 0.0
-0.0002008680954001791 -0.0020110322430470233 0.0 -0.008881269937661935 0.0 0.0
-0.002080964072801463 0.0005488800866518911 0.0 -0.011938512483004638 0.0 0.0
-0.0034921497503548433 0.001781253640908019 0.0 -0.011949221835185084 0.0 0.0
-0.004391978074367236 0.002176982228904782 0.0 -0.011326624998263254 0.0 0.0
-0.005174581646196757 0.002383508709269309 0.0 -0.010858786539853931 0.0 0.0
-0.006025076285287431 0.0026506764287101167 0.0 -0.010619518969883252 0.0 0.0
-0.006953943721672268 0.0030006514502155432 0.0 -0.010521628690147868 0.0 0.0
-0.007925945809092548 0.0033991006529859313 0.0 -0.010490744373259281 0.0 0.0
-0.008914329110174491 0.003817873764794779 0.0 -0.010486000347987889 0.0 0.0
-0.009906888362222638 0.004243203865486111 0.0 -0.010488460808457858 0.0 0.0
-0.010900529989078448 0.004671161715699816 0.0 -0.010489416876675352 0.0 0.0
-0.011897665498068012 0.005104059052655207 0.0 -0.010481744931312898 0.0 0.0
-0.012905934143579796 0.0055496646626031045 0.0 -0.010453791384434799 0.0 0.0
-0.013939455899471626 0.0060200591467351365 0.0 -0.010388486447857616 0.0 0.0
-0.01502339092391787 0.006527186079491644 0.0 -0.010273719414269064 0.0 0.0
-0.0161835207169492 0.007073186509874608 0.0 -0.01017149402258859 0.0 0.0
-0.017260092599222468 0.007507905708628866 0.0 -0.010463931658090082 0.0 0.0
-0.017402247640707774 0.006909103367133011 0.0 -0.011612118159173224 0.0 0.0
-0.015564368724314777 0.003086832590675121 0.0 -0.010766927229278122 0.0 0.0
-0.014059423382566855 -0.0026801952028878894 0.0 3.9811903773667723e-16 0.0 0.0
-0.015564368724314714 0.0030868325906744437 0.0 0.010766927229278045 0.0 0.0
-0.017402247640707465 0.006909103367133658 0.0 0.011612118159172678 0.0 0.0
-0.017260092599222183 0.007507905708629076 0.0 0.010463931658090732 0.0 0.0
-0.016183520716949208 0.007073186509875637 0.0 0.010171494022588247 0.0 0.0
-0.015023390923918203 0.006527186079494099 0.0 0.010273719414269123 0.0 0.0
-0.013939455899471782 0.0060200591467346005 0.0 0.010388486447858225 0.0 0.0
-0.012905934143579682 0.00554966466260143 0.0 0.010453791384435147 0.0 0.0
-0.01189766549806798 0.005104059052652884 0.0 0.010481744931313661 0.0 0.0
-0.010900529989078549 0.004671161715699675 0.0 0.01048941687667454 0.0 0.0
-0.00990688836222279 0.0042432038654866165 0.0 0.010488460808457358 0.0 0.0
-0.008914329110174618 0.0038178737647942777 0.0 0.010486000347988342 0.0 0.0
-0.00792594580909255 0.0033991006529848467 0.0 0.010490744373259652 0.0 0.0
-0.006953943721672275 0.0030006514502144725 0.0 0.01052162869014776 0.0 0.0
-0.006025076285287495 0.0026506764287105066 0.0 0.010619518969882962 0.0 0.0
-0.005174581646196783 0.0023835087092691164 0.0 0.010858786539853846 0.0 0.0
-0.004391978074367216 0.002176982228905295 0.0 0.011326624998263084 0.0 0.0
-0.003492149750354768 0.001781253640907717 0.0 0.011949221835185663 0.0 0.0
-0.002080964072801472 0.0005488800866523515 0.0 0.011938512483004142 0.0 0.0
-0.00020086809540025187 -0.0020110322430475294 0.0 0.008881269937661739 0.0 0.0
0.0007865306926787888 -0.0037479101592184988 0.0 0.005065998354521806 0.0 0.0
0.0004094126902446051 -0.002573331042434012 0.0 -0.0043343780907959505 0.0 0.0
-0.0005390447944818085 -0.0015302165512122532 0.0 -0.007871025775860158 0.0 0.0
-0.00249748820987794 0.000747177585744437 0.0 -0.01097757515055588 0.0 0.0
-0.004232016917166216 0.0020395113854998806 0.0 -0.011200794639458795 0.0 0.0
-0.005555422832676774 0.0026282298015887287 0.0 -0.010614458665940147 0.0 0.0
-0.0067537606332986125 0.0030361571044158495 0.0 -0.010100109960684198 0.0 0.0
-0.007982454807509604 0.003479874886241672 0.0 -0.009818710169303845 0.0 0.0
-0.009261537150704683 0.003986623992835741 0.0 -0.009700792751124456 0.0 0.0
-0.010570082898119552 0.0045318748644107044 0.0 -0.00966383665007124 0.0 0.0
-0.011889923442505803 0.0050934400705635735 0.0 -0.009658527373184646 0.0 0.0
-0.013212534794022793 0.0056602515304514395 0.0 -0.009661784163726888 0.0 0.0
-0.014535756653413459 0.0062291512988191505 0.0 -0.009663206366066001 0.0 0.0
-0.015861174133751342 0.006801902403820162 0.0 -0.009654496526396994 0.0 0.0
-0.017194129172561835 0.0073845788162454976 0.0 -0.009621613409381367 0.0 0.0
-0.01854445039945054 0.007987328813050344 0.0 -0.009542617052614395 0.0 0.0
-0.01993093039799222 0.008617948252812218 0.0 -0.009399050560952698 0.0 0.0
-0.021400370557138684 0.009287510210370428 0.0 -0.009222789278296322 0.0 0.0
-0.02289060745118947 0.00995017398905748 0.0 -0.00942051819794504 0.0 0.0
-0.023503790972572876 0.009761919778118213 0.0 -0.011037015652797763 0.0 0.0
-0.021603984680111012 0.005705774667105496 0.0 -0.011673514794977132 0.0 0.0
-0.01981725606685466 -0.002148085058446576 0.0 4.748805515486509e-16 0.0 0.0
-0.021603984680111106 0.005705774667104374 0.0 0.011673514794977016 0.0 0.0
-0.023503790972572946 0.009761919778117172 0.0 0.011037015652797714 0.0 0.0
-0.022890607451189572 0.009950173989056347 0.0 0.009420518197945068 0.0 0.0
-0.021400370557138802 0.009287510210371198 0.0 0.009222789278296357 0.0 0.0
-0.01993093039799217 0.008617948252812943 0.0 0.009399050560952174 0.0 0.0
-0.018544450399450588 0.007987328813053201 0.0 0.0095426170526147 0.0 0.0
-0.017194129172561842 0.0073845788162436934 0.0 0.009621613409381778 0.0 0.0
-0.015861174133751273 0.006801902403821024 0.0 0.009654496526397464 0.0 0.0
-0.014535756653413459 0.00622915129881924 0.0 0.009663206366065357 0.0 0.0
-0.013212534794022797 0.005660251530452082 0.0 0.009661784163727394 0.0 0.0
-0.011889923442505718 0.005093440070563075 0.0 0.00965852737318531 0.0 0.0
-0.010570082898119379 0.004531874864409654 0.0 0.009663836650070912 0.0 0.0
-0.009261537150704689 0.00398662399283484 0.0 0.009700792751124907 0.0 0.0
-0.007982454807509668 0.0034798748862411672 0.0 0.009818710169303869 0.0 0.0
-0.006753760633298621 0.0030361571044164558 0.0 0.010100109960684693 0.0 0.0
-0.005555422832676839 0.0026282298015897305 0.0 0.010614458665940237 0.0 0.0
-0.004232016917166219 0.0020395113854999054 0.0 0.011200794639459253 0.0 0.0
-0.002497488209877805 0.0007471775857442577 0.0 0.010977575150555176 0.0 0.0
-0.0005390447944817228 -0.0015302165512122072 0.0 0.007871025775860328 0.0 0.0
0.00040941269024464156 -0.0025733310424339486 0.0 0.004334378090796029 0.0 0.0
7.309990801513102e-05 -0.0015998756856045846 0.0 -0.0035764073495675626 0.0 0.0
-0.0008587856659152573 -0.0010587244857626122 0.0 -0.006751036221304308 0.0 0.0
-0.002912298069885382 0.00097107083260586 0.0 -0.009766762480968687 0.0 0.0
-0.0049596512509556545 0.0022987061519157254 0.0 -0.010131776056682713 0.0 0.0
-0.006704263498457279 0.0030701019486261702 0.0 -0.009592204544259639 0.0 0.0
-0.008324587168542683 0.003682089675760407 0.0 -0.009065660351752927 0.0 0.0
-0.00993728025796076 0.004306565031540935 0.0 -0.008766407018900137 0.0 0.0
-0.011569211462003619 0.0049722672141309585 0.0 -0.008639731736052245 0.0 0.0
-0.013214873965691713 0.0056649275754258165 0.0 -0.008600598587285362 0.0 0.0
-0.014866049460058945 0.006369302996832657 0.0 -0.008595532486568467 0.0 0.0
-0.016518545904050372 0.007077518343800581 0.0 -0.008599470782068186 0.0 0.0
-0.018171280912175954 0.007787281032335919 0.0 -0.00860136891230652 0.0 0.0
-0.019824875279008912 0.008499801792302033 0.0 -0.00859248629882812 0.0 0.0
-0.021481764888440506 0.00921893737527293 0.0 -0.008558020323303286 0.0 0.0
-0.023147174086985096 0.009952483401702643 0.0 -0.008471724615695637 0.0 0.0
-0.02482879499593624 0.01070480624494417 0.0 -0.008312157085798202 0.0 0.0
-0.026577440732362817 0.011476949508286479 0.0 -0.008085215216108206 0.0 0.0
-0.02846587744129514 0.01233447991862359 0.0 -0.00810267103549018 0.0 0.0
-0.029678690071141732 0.012708370780842894 0.0 -0.009983036347422642 0.0 0.0
-0.027809099516870453 0.008702707556072603 0.0 -0.012556513959867318 0.0 0.0
-0.025712421701316143 -0.0020740822787794202 0.0 -3.903127820947816e-18 0.0 0.0
-0.027809099516870557 0.00870270755607321 0.0 0.012556513959866646 0.0 0.0
-0.029678690071141572 0.0127083707808411 0.0 0.009983036347422982 0.0 0.0
-0.028465877441295126 0.0123344799186244 0.0 0.008102671035490954 0.0 0.0
-0.0265774407323629 0.011476949508286179 0.0 0.00808521521610921 0.0 0.0
-0.024828794995936168 0.010704806244943429 0.0 0.008312157085798643 0.0 0.0
-0.023147174086985044 0.009952483401705868 0.0 0.008471724615694917 0.0 0.0
-0.021481764888440575 0.009218937375275373 0.0 0.008558020323302672 0.0 0.0
-0.019824875279008856 0.008499801792303719 0.0 0.008592486298827829 0.0 0.0
-0.018171280912175854 0.007787281032336007 0.0 0.008601368912306395 0.0 0.0
-0.016518545904050337 0.007077518343801777 0.0 0.008599470782068328 0.0 0.0
-0.014866049460058962 0.0063693029968320556 0.0 0.008595532486568639 0.0 0.0
-0.013214873965691673 0.005664927575426408 0.0 0.008600598587285013 0.0 0.0
-0.011569211462003546 0.004972267214130802 0.0 0.00863973173605211 0.0 0.0
-0.009937280257960722 0.004306565031540872 0.0 0.008766407018900269 0.0 0.0
-0.008324587168542681 0.003682089675761656 0.0 0.0090656603517534 0.0 0.0
-0.006704263498457301 0.0030701019486262847 0.0 0.009592204544259634 0.0 0.0
-0.004959651250955715 0.0022987061519158486 0.0 0.010131776056682898 0.0 0.0
-0.0029122980698853542 0.0009710708326059227 0.0 0.009766762480968798 0.0 0.0
-0.0008587856659151266 -0.0010587244857621055 0.0 0.006751036221304331 0.0 0.0
7.309990801526164e-05 -0.001599875685604757 0.0 0.00357640734956769 0.0 0.0
-0.00021046209356989483 -0.000837590926433115 0.0 -0.0027965489520564483 0.0 0.0
-0.0011452628716998332 -0.0006134459447009059 0.0 -0.005529025103137059 0.0 0.0
-0.0033136402122380254 0.001204377926037781 0.0 -0.008311785784647096 0.0 0.0
-0.005675796472394897 0.0025583547803322963 0.0 -0.00873734702983511 0.0 0.0
-0.007846559693792584 0.003509649544275255 0.0 -0.008253341748756382 0.0 0.0
-0.00989400357598152 0.004326929573635385 0.0 -0.007751710287381898 0.0 0.0
-0.011893065411338244 0.005133395781801647 0.0 -0.00746141923616213 0.0 0.0
-0.013878214850068377 0.005958482871618293 0.0 -0.00733851299507848 0.0 0.0
-0.015860582445622145 0.006798435198202856 0.0 -0.007301349446513117 0.0 0.0
-0.017842656171777133 0.007645412939217505 0.0 -0.007297223197891534 0.0 0.0
-0.019824839290873055 0.008494937079972328 0.0 -0.007301559177132439 0.0 0.0
-0.021807106421713848 0.009345560967387834 0.0 -0.007303855842241478 0.0 0.0
-0.023789118548795705 0.01019793137091602 0.0 -0.007295630203460752 0.0 0.0
-0.02576981175921728 0.01105372990014549 0.0 -0.0072629359245132905 0.0 0.0
-0.027749404356384413 0.011916350043323882 0.0 -0.0071783649936182385 0.0 0.0
-0.029724036684089468 0.012791843848317556 0.0 -0.00701320765535713 0.0 0.0
-0.03171814547936858 0.013653870312764615 0.0 -0.006780707958903711 0.0 0.0
-0.03394317038520213 0.014621745163598144 0.0 -0.006588745578033331 0.0 0.0
-0.0358921276573264 0.015676162533619576 0.0 -0.008314162466384863 0.0 0.0
-0.03423946033966038 0.012273080105406092 0.0 -0.013219548332037489 0.0 0.0
-0.03185361077856165 -0.002586593947149564 0.0 -1.7780915628762273e-17 0.0 0.0
-0.034239460339660334 0.012273080105406545 0.0 0.013219548332037631 0.0 0.0
-0.03589212765732616 0.015676162533619656 0.0 0.008314162466384147 0.0 0.0
-0.033943170385202046 0.014621745163598193 0.0 0.00658874557803309 0.0 0.0
-0.031718145479368694 0.013653870312764148 0.0 0.0067807079589038335 0.0 0.0
-0.029724036684089572 0.012791843848317747 0.0 0.0070132076553574806 0.0 0.0
-0.027749404356384504 0.011916350043325358 0.0 0.007178364993618716 0.0 0.0
-0.025769811759217394 0.011053729900145162 0.0 0.007262935924513443 0.0 0.0
-0.023789118548795767 0.010197931370918296 0.0 0.007295630203459993 0.0 0.0
-0.021807106421713757 0.009345560967386807 0.0 0.007303855842240954 0.0 0.0
-0.019824839290872965 0.008494937079973949 0.0 0.007301559177131718 0.0 0.0
-0.01784265617177719 0.007645412939217649 0.0 0.007297223197891705 0.0 0.0
-0.015860582445622183 0.006798435198203123 0.0 0.007301349446513249 0.0 0.0
-0.013878214850068318 0.005958482871618539 0.0 0.00733851299507849 0.0 0.0
-0.011893065411338161 0.005133395781801707 0.0 0.007461419236161768 0.0 0.0
-0.009894003575981606 0.0043269295736367164 0.0 0.007751710287382236 0.0 0.0
-0.007846559693792625 0.0035096495442755683 0.0 0.008253341748755964 0.0 0.0
-0.0056757964723947235 0.0025583547803320755 0.0 0.00873734702983541 0.0 0.0
-0.0033136402122379708 0.0012043779260379112 0.0 0.00831178578464754 0.0 0.0
-0.0011452628716998713 -0.0006134459447003488 0.0 0.00552902510313701 0.0 0.0
-0.0002104620935698006 -0.0008375909264333459 0.0 0.0027965489520558515 0.0 0.0
-0.0004243256244725055 -0.0002983576876531409 0.0 -0.0020184831293105915 0.0 0.0
-0.0013769086945126976 -0.00021340765311832468 0.0 -0.004218537456083923 0.0 0.0
-0.0036837756201073095 0.0014261512864292825 0.0 -0.006604452470588913 0.0 0.0
-0.006379942919123008 0.0028176649575104213 0.0 -0.00700401448171374 0.0 0.0
-0.008991400404558578 0.003954937590521931 0.0 -0.0065926046290587965 0.0 0.0
-0.01146972381280693 0.0049767966321952566 0.0 -0.0061574499928568486 0.0 0.0
-0.013853632926258588 0.005963234118870305 0.0 -0.00590438146931672 0.0 0.0
-0.016189858775001693 0.006946204993537259 0.0 -0.0057979864952831806 0.0 0.0
-0.018507435281509662 0.00793253349088059 0.0 -0.0057666439890916065 0.0 0.0
-0.020819644254984032 0.008921689600020682 0.0 -0.005763831804589698 0.0 0.0
-0.023131297651253147 0.00991239511334482 0.0 -0.005768091561199582 0.0 0.0
-0.02544322639540242 0.010904032609038815 0.0 -0.005770428640299366 0.0 0.0
-0.027754153204745044 0.011896358144327013 0.0 -0.005763916385532352 0.0 0.0
-0.030059637482207496 0.012889964027518326 0.0 -0.005735200263806696 0.0 0.0
-0.032352587450390526 0.013881084309956916 0.0 -0.00566415912645573 0.0 0.0
-0.03462372955310581 0.014878260934579342 0.0 -0.005505672066459301 0.0 0.0
-0.03684156301707064 0.015845831717971052 0.0 -0.0053005835534709785 0.0 0.0
-0.039272628939348575 0.016790162168958206 0.0 -0.005035951998117758 0.0 0.0
-0.0420487168950578 0.01848474897593006 0.0 -0.005970883442574572 0.0 0.0
-0.040961529378688875 0.016684628265919613 0.0 -0.013166662595637653 0.0 0.0
-0.03844020988398795 -0.0037997537856642788 0.0 -4.974319567363494e-16 0.0 0.0
-0.04096152937868885 0.016684628265918648 0.0 0.013166662595637384 0.0 0.0
-0.042048716895057694 0.018484748975928972 0.0 0.005970883442573733 0.0 0.0
-0.039272628939348374 0.016790162168955604 0.0 0.005035951998117037 0.0 0.0
-0.03684156301707054 0.01584583171797228 0.0 0.0053005835534713774 0.0 0.0
-0.03462372955310586 0.014878260934581392 0.0 0.005505672066458484 0.0 0.0
-0.03235258745039062 0.01388108430995837 0.0 0.005664159126455411 0.0 0.0
-0.030059637482207448 0.012889964027516252 0.0 0.005735200263807128 0.0 0.0
-0.027754153204745106 0.011896358144328262 0.0 0.005763916385532113 0.0 0.0
-0.025443226395402557 0.01090403260903764 0.0 0.0057704286403005844 0.0 0.0
-0.023131297651252977 0.009912395113345388 0.0 0.005768091561200203 0.0 0.0
-0.02081964425498397 0.008921689600021245 0.0 0.0057638318045894026 0.0 0.0
-0.01850743528150976 0.00793253349087951 0.0 0.005766643989091537 0.0 0.0
-0.016189858775001675 0.006946204993538069 0.0 0.005797986495283597 0.0 0.0
-0.013853632926258646 0.005963234118868564 0.0 0.005904381469317244 0.0 0.0
-0.011469723812806943 0.004976796632196684 0.0 0.0061574499928577445 0.0 0.0
-0.008991400404558553 0.003954937590521657 0.0 0.006592604629058748 0.0 0.0
-0.006379942919122963 0.0028176649575100657 0.0 0.007004014481714333 0.0 0.0
-0.003683775620107261 0.0014261512864293985 0.0 0.006604452470589352 0.0 0.0
-0.0013769086945126657 -0.00021340765311815842 0.0 0.004218537456083809 0.0 0.0
-0.0004243256244724271 -0.00029835768765322447 0.0 0.002018483129309643 0.0 0.0
-0.0005422594660286732 8.036213416581481e-06 0.0 -0.0013005160598186264 0.0 0.0
-0.0015206039239855544 0.00011371107671094545 0.0 -0.0028410608647182613 0.0 0.0
-0.003997432935021521 0.0016094385170889165 0.0 -0.004612057028795256 0.0 0.0
-0.007072551930684918 0.0030786488313666507 0.0 -0.004908766344208495 0.0 0.0
-0.01014998902263205 0.004415662102466977 0.0 -0.004607083799172151 0.0 0.0
-0.013060076266611322 0.005638048048971357 0.0 -0.004285166910102366 0.0 0.0
-0.015822873118378288 0.006798973784829141 0.0 -0.004097995613945323 0.0 0.0
-0.0185053713353805 0.00793626650834541 0.0 -0.00401982218386866 0.0 0.0
-0.0211555595369078 0.009067280025714018 0.0 -0.003997261196831208 0.0 0.0
-0.02379685886791542 0.010197996044519986 0.0 -0.003995619723748592 0.0 0.0
-0.026437739665789724 0.01132978607373105 0.0 -0.003999025330037444 0.0 0.0
-0.0290796598234441 0.012462569561750946 0.0 -0.004000968488777276 0.0 0.0
-0.03172005704080947 0.013595613069946619 0.0 -0.003996333174568873 0.0 0.0
-0.03435261701535045 0.014726994113527767 0.0 -0.003975899404111759 0.0 0.0
-0.03695963592317179 0.01585320816219939 0.0 -0.003920489943871069 0.0 0.0
-0.03952861313728152 0.01695649305194899 0.0 -0.003814875989263918 0.0 0.0
-0.04198866014405372 0.01807709422477137 0.0 -0.0035863765625774417 0.0 0.0
-0.044427692610319904 0.018914983544518035 0.0 -0.003597465345022183 0.0 0.0
-0.04793186571651399 0.020742898531983724 0.0 -0.00333676109409059 0.0 0.0
-0.04802476579155891 0.022251806722974946 0.0 -0.011140505914153765 0.0 0.0
-0.04586773573247966 -0.0056798027916461265 0.0 2.0556473190325164e-16 0.0 0.0
-0.04802476579155871 0.022251806722974728 0.0 0.011140505914153977 0.0 0.0
-0.04793186571651403 0.020742898531982117 0.0 0.0033367610940902015 0.0 0.0
-0.04442769261031981 0.018914983544520085 0.0 0.003597465345021776 0.0 0.0
-0.041988660144053544 0.018077094224771502 0.0 0.003586376562577596 0.0 0.0
-0.03952861313728149 0.01695649305195016 0.0 0.003814875989263551 0.0 0.0
-0.03695963592317173 0.015853208162198526 0.0 0.0039204899438704055 0.0 0.0
-0.0343526170153504 0.014726994113529436 0.0 0.00397589940411262 0.0 0.0
-0.03172005704080939 0.01359561306994678 0.0 0.003996333174569586 0.0 0.0
-0.02907965982344405 0.012462569561749478 0.0 0.004000968488777321 0.0 0.0
-0.026437739665789762 0.011329786073730301 0.0 0.003999025330037554 0.0 0.0
-0.023796858867915452 0.010197996044521084 0.0 0.003995619723747906 0.0 0.0
-0.021155559536907887 0.009067280025714126 0.0 0.003997261196831779 0.0 0.0
-0.018505371335380504 0.007936266508346706 0.0 0.004019822183869045 0.0 0.0
-0.015822873118378166 0.006798973784826541 0.0 0.00409799561394543 0.0 0.0
-0.013060076266611407 0.0056380480489717786 0.0 0.004285166910102842 0.0 0.0
-0.010149989022632153 0.004415662102466677 0.0 0.004607083799172502 0.0 0.0
-0.007072551930684861 0.0030786488313663198 0.0 0.004908766344209207 0.0 0.0
-0.003997432935021498 0.0016094385170889978 0.0 0.004612057028795491 0.0 0.0
-0.0015206039239855373 0.00011371107671090866 0.0 0.00284106086471843 0.0 0.0
-0.0005422594660286234 8.036213416705455e-06 0.0 0.0013005160598176535 0.0 0.0
-0.0005201115969961578 8.057880755776018e-05 0.0 -0.0007659923411199024 0.0 0.0
-0.00152293104105398 0.00031884393856796095 0.0 -0.0014264801846092807 0.0 0.0
-0.0042203663916528765 0.0017213396816587252 0.0 -0.0022542928427579977 0.0 0.0
-0.007759105980361039 0.0033515848261808606 0.0 -0.0024255030225928363 0.0 0.0
-0.011336516026762581 0.004902630827410196 0.0 -0.002296303166659956 0.0 0.0
-0.014673711331828997 0.006317284653206534 0.0 -0.0021409917040252067 0.0 0.0
-0.017804511413802952 0.007643235313131488 0.0 -0.00204708297294267 0.0 0.0
-0.0208257196964548 0.008929275691038118 0.0 -0.002006494774894676 0.0 0.0
-0.023804928572247655 0.01020260522740077 0.0 -0.001994163536677824 0.0 0.0
-0.026774056300714118 0.011474143894172931 0.0 -0.0019928338799415444 0.0 0.0
-0.02974398476665787 0.012746947385509551 0.0 -0.0019943087832841357 0.0 0.0
-0.03271620535877129 0.014021139747367375 0.0 -0.001995122687371787 0.0 0.0
-0.035687441534662426 0.015295539889264208 0.0 -0.001992447235391076 0.0 0.0
-0.03864801341379674 0.016566816968853943 0.0 -0.0019819701361595715 0.0 0.0
-0.041578928355021874 0.017827890892463998 0.0 -0.0019529645000535942 0.0 0.0
-0.044429775294087995 0.0190611422200409 0.0 -0.0019005662435330369 0.0 0.0
-0.047199583775670725 0.020239708414420708 0.0 -0.0018039000337659998 0.0 0.0
-0.04950752324732125 0.021404348107186368 0.0 -0.0016769356827135208 0.0 0.0
-0.05308908942153348 0.021681252478518192 0.0 -0.0026447792662442383 0.0 0.0
-0.05536490545252083 0.029126955662919556 0.0 -0.0037747468944594573 0.0 0.0
-0.054993082120800924 -0.007579492420427309 0.0 6.852157730108388e-16 0.0 0.0
-0.05536490545252079 0.029126955662918466 0.0 0.003774746894459567 0.0 0.0
-0.05308908942153359 0.021681252478517047 0.0 0.002644779266244182 0.0 0.0
-0.04950752324732134 0.021404348107188845 0.0 0.0016769356827137847 0.0 0.0
-0.04719958377567055 0.020239708414419303 0.0 0.0018039000337651521 0.0 0.0
-0.044429775294087884 0.019061142220043445 0.0 0.001900566243532458 0.0 0.0
-0.04157892835502187 0.01782789089246165 0.0 0.0019529645000540524 0.0 0.0
-0.038648013413796665 0.016566816968855085 0.0 0.0019819701361595 0.0 0.0
-0.035687441534662336 0.01529553988926477 0.0 0.0019924472353919586 0.0 0.0
-0.03271620535877123 0.014021139747366948 0.0 0.0019951226873715943 0.0 0.0
-0.029743984766657964 0.012746947385510401 0.0 0.0019943087832840108 0.0 0.0
-0.02677405630071419 0.011474143894174706 0.0 0.0019928338799420574 0.0 0.0
-0.023804928572247686 0.010202605227400727 0.0 0.001994163536677808 0.0 0.0
-0.02082571969645496 0.008929275691039077 0.0 0.0020064947748942023 0.0 0.0
-0.01780451141380301 0.007643235313130249 0.0 0.0020470829729417293 0.0 0.0
-0.01467371133182881 0.00631728465320713 0.0 0.0021409917040251204 0.0 0.0
-0.01133651602676249 0.004902630827410336 0.0 0.002296303166660433 0.0 0.0
-0.007759105980361012 0.0033515848261809534 0.0 0.002425503022593633 0.0 0.0
-0.004220366391652856 0.0017213396816584776 0.0 0.0022542928427580285 0.0 0.0
-0.0015229310410541524 0.0003188439385682716 0.0 0.0014264801846095067 0.0 0.0
-0.0005201115969964836 8.057880755782935e-05 0.0 0.000765992341119895 0.0 0.0
-0.00027803016898068054 5.90754449368656e-05 0.0 -0.0005133063773540484 0.0 0.0
-0.0012936270181149124 0.0003829124023031866 0.0 -0.0006028958721245047 0.0 0.0
-0.004309913440999972 0.0017549992056935303 0.0 -0.0007672731202562914 0.0 0.0
-0.008457425771767552 0.003493059906686528 0.0 -0.0008554820922973382 0.0 0.0
-0.012567499650105077 0.005154050875843803 0.0 -0.0008489662420803729 0.0 0.0
-0.016319575901357734 0.006662248763067587 0.0 -0.0008094608211255862 0.0 0.0
-0.019801734627437038 0.008067793981622114 0.0 -0.0007792717342948341 0.0 0.0
-0.023151451773982874 0.00942657626995325 0.0 -0.0007636964966478631 0.0 0.0
-0.026455297565074466 0.010770393632867798 0.0 -0.00075773096026714 0.0 0.0
-0.029750913731494265 0.0121121534054647 0.0 -0.0007562297552292838 0.0 0.0
-0.03304977059289868 0.013455438695414719 0.0 -0.0007561744442771191 0.0 0.0
-0.03635278232177735 0.014800464577143575 0.0 -0.0007560540821550722 0.0 0.0
-0.03965599999514553 0.016145502813928722 0.0 -0.0007545117973098399 0.0 0.0
-0.04294830805158317 0.017488190227150206 0.0 -0.0007503597368243749 0.0 0.0
-0.046204791751784366 0.01881346821755354 0.0 -0.0007403599351206245 0.0 0.0
-0.049369879339281976 0.020130012550843474 0.0 -0.000721013247861866 0.0 0.0
-0.052348317075909374 0.0212752452690635 0.0 -0.0007406757924608215 0.0 0.0
-0.05504100546414922 0.02282293271391496 0.0 -0.0005039543355937412 0.0 0.0
-0.05664534732733049 0.021694358528056425 0.0 -0.0024744904095612558 0.0 0.0
-0.06243304583888634 0.03288922035446688 0.0 -1.1140285958836232e-05 0.0 0.0
-0.06788065620244013 -0.00839243169702603 0.0 3.7470027081099033e-16 0.0 0.0
-0.062433045838886425 0.03288922035446478 0.0 1.1140285959220907e-05 0.0 0.0
-0.05664534732733057 0.021694358528056082 0.0 0.0024744904095610103 0.0 0.0
-0.05504100546414923 0.02282293271391338 0.0 0.0005039543355937533 0.0 0.0
-0.05234831707590914 0.021275245269062423 0.0 0.0007406757924616108 0.0 0.0
-0.04936987933928177 0.020130012550848956 0.0 0.0007210132478610593 0.0 0.0
-0.04620479175178436 0.018813468217552122 0.0 0.000740359935121399 0.0 0.0
-0.042948308051582916 0.01748819022714892 0.0 0.000750359736824727 0.0 0.0
-0.03965599999514541 0.016145502813929992 0.0 0.0007545117973115 0.0 0.0
-0.03635278232177759 0.014800464577145516 0.0 0.0007560540821551047 0.0 0.0
-0.03304977059289868 0.013455438695416554 0.0 0.0007561744442768342 0.0 0.0
-0.029750913731494178 0.012112153405467094 0.0 0.0007562297552303299 0.0 0.0
-0.026455297565074663 0.010770393632866575 0.0 0.0007577309602663897 0.0 0.0
-0.023151451773982958 0.009426576269953744 0.0 0.0007636964966476821 0.0 0.0
-0.019801734627436854 0.008067793981622658 0.0 0.0007792717342945867 0.0 0.0
-0.01631957590135758 0.0066622487630695944 0.0 0.0008094608211251853 0.0 0.0
-0.012567499650105134 0.005154050875843361 0.0 0.0008489662420807704 0.0 0.0
-0.008457425771767602 0.003493059906687044 0.0 0.0008554820922979044 0.0 0.0
-0.004309913441000072 0.001754999205693181 0.0 0.0007672731202561441 0.0 0.0
-0.0012936270181149933 0.0003829124023037717 0.0 0.0006028958721246224 0.0 0.0
-0.00027803016898057765 5.90754449368852e-05 0.0 0.000513306377355317 0.0 0.0