# vtk DataFile Version 3.0
Some data
ASCII
DATASET UNSTRUCTURED_GRID
POINTS 861 float
0.0 0.0 0.0
0.4 0.0 0.0
0.8 0.0 0.0
1.2000000000000002 0.0 0.0
1.6 0.0 0.0
2.0 0.0 0.0
2.4000000000000004 0.0 0.0
2.8000000000000003 0.0 0.0
3.2 0.0 0.0
3.6 0.0 0.0
4.0 0.0 0.0
4.4 0.0 0.0
4.800000000000001 0.0 0.0
5.2 0.0 0.0
5.6000000000000005 0.0 0.0
6.0 0.0 0.0
6.4 0.0 0.0
6.800000000000001 0.0 0.0
7.2 0.0 0.0
7.6000000000000005 0.0 0.0
8.0 0.0 0.0
8.4 0.0 0.0
8.8 0.0 0.0
9.200000000000001 0.0 0.0
9.600000000000001 0.0 0.0
10.0 0.0 0.0
10.4 0.0 0.0
10.8 0.0 0.0
11.200000000000001 0.0 0.0
11.600000000000001 0.0 0.0
12.0 0.0 0.0
12.4 0.0 0.0
12.8 0.0 0.0
13.200000000000001 0.0 0.0
13.600000000000001 0.0 0.0
14.0 0.0 0.0
14.4 0.0 0.0
14.8 0.0 0.0
15.200000000000001 0.0 0.0
15.600000000000001 0.0 0.0
16.0 0.0 0.0
0.0 0.1 0.0
0.4 0.1 0.0
0.8 0.1 0.0
1.2000000000000002 0.1 0.0
1.6 0.1 0.0
2.0 0.1 0.0
2.4000000000000004 0.1 0.0
2.8000000000000003 0.1 0.0
3.2 0.1 0.0
3.6 0.1 0.0
4.0 0.1 0.0
4.4 0.1 0.0
4.800000000000001 0.1 0.0
5.2 0.1 0.0
5.6000000000000005 0.1 0.0
6.0 0.1 0.0
6.4 0.1 0.0
6.800000000000001 0.1 0.0
7.2 0.1 0.0
7.6000000000000005 0.1 0.0
8.0 0.1 0.0
8.4 0.1 0.0
8.8 0.1 0.0
9.200000000000001 0.1 0.0
9.600000000000001 0.1 0.0
10.0 0.1 0.0
10.4 0.1 0.0
10.8 0.1 0.0
11.200000000000001 0.1 0.0
11.600000000000001 0.1 0.0
12.0 0.1 0.0
12.4 0.1 0.0
12.8 0.1 0.0
13.200000000000001 0.1 0.0
13.600000000000001 0.1 0.0
14.0 0.1 0.0
14.4 0.1 0.0
14.8 0.1 0.0
15.200000000000001 0.1 0.0
15.600000000000001 0.1 0.0
16.0 0.1 0.0
0.0 0.2 0.0
0.4 0.2 0.0
0.8 0.2 0.0
1.2000000000000002 0.2 0.0
1.6 0.2 0.0
2.0 0.2 0.0
2.4000000000000004 0.2 0.0
2.8000000000000003 0.2 0.0
3.2 0.2 0.0
3.6 0.2 0.0
4.0 0.2 0.0
4.4 0.2 0.0
4.800000000000001 0.2 0.0
5.2 0.2 0.0
5.6000000000000005 0.2 0.0
6.0 0.2 0.0
6.4 0.2 0.0
6.800000000000001 0.2 0.0
7.2 0.2 0.0
7.6000000000000005 0.2 0.0
8.0 0.2 0.0
8.4 0.2 0.0
8.8 0.2 0.0
9.200000000000001 0.2 0.0
9.600000000000001 0.2 0.0
10.0 0.2 0.0
10.4 0.2 0.0
10.8 0.2 0.0
11.200000000000001 0.2 0.0
11.600000000000001 0.2 0.0
12.0 0.2 0.0
12.4 0.2 0.0
12.8 0.2 0.0
13.200000000000001 0.2 0.0
13.600000000000001 0.2 0.0
14.0 0.2 0.0
14.4 0.2 0.0
14.8 0.2 0.0
15.200000000000001 0.2 0.0
15.600000000000001 0.2 0.0
16.0 0.2 0.0
0.0 0.30000000000000004 0.0
0.4 0.30000000000000004 0.0
0.8 0.30000000000000004 0.0
1.2000000000000002 0.30000000000000004 0.0
1.6 0.30000000000000004 0.0
2.0 0.30000000000000004 0.0
2.4000000000000004 0.30000000000000004 0.0
2.8000000000000003 0.30000000000000004 0.0
3.2 0.30000000000000004 0.0
3.6 0.30000000000000004 0.0
4.0 0.30000000000000004 0.0
4.4 0.30000000000000004 0.0
4.800000000000001 0.30000000000000004 0.0
5.2 0.30000000000000004 0.0
5.6000000000000005 0.30000000000000004 0.0
6.0 0.30000000000000004 0.0
6.4 0.30000000000000004 0.0
6.800000000000001 0.30000000000000004 0.0
7.2 0.30000000000000004 0.0
7.6000000000000005 0.30000000000000004 0.0
8.0 0.30000000000000004 0.0
8.4 0.30000000000000004 0.0
8.8 0.30000000000000004 0.0
9.200000000000001 0.30000000000000004 0.0
9.600000000000001 0.30000000000000004 0.0
10.0 0.30000000000000004 0.0
10.4 0.30000000000000004 0.0
10.8 0.30000000000000004 0.0
11.200000000000001 0.30000000000000004 0.0
11.600000000000001 0.30000000000000004 0.0
12.0 0.30000000000000004 0.0
12.4 0.30000000000000004 0.0
12.8 0.30000000000000004 0.0
13.200000000000001 0.30000000000000004 0.0
13.600000000000001 0.30000000000000004 0.0
14.0 0.30000000000000004 0.0
14.4 0.30000000000000004 0.0
14.8 0.30000000000000004 0.0
15.200000000000001 0.30000000000000004 0.0
15.600000000000001 0.30000000000000004 0.0
16.0 0.30000000000000004 0.0
0.0 0.4 0.0
0.4 0.4 0.0
0.8 0.4 0.0
1.2000000000000002 0.4 0.0
1.6 0.4 0.0
2.0 0.4 0.0
2.4000000000000004 0.4 0.0
2.8000000000000003 0.4 0.0
3.2 0.4 0.0
3.6 0.4 0.0
4.0 0.4 0.0
4.4 0.4 0.0
4.800000000000001 0.4 0.0
5.2 0.4 0.0
5.6000000000000005 0.4 0.0
6.0 0.4 0.0
6.4 0.4 0.0
6.800000000000001 0.4 0.0
7.2 0.4 0.0
7.6000000000000005 0.4 0.0
8.0 0.4 0.0
8.4 0.4 0.0
8.8 0.4 0.0
9.200000000000001 0.4 0.0
9.600000000000001 0.4 0.0
10.0 0.4 0.0
10.4 0.4 0.0
10.8 0.4 0.0
11.200000000000001 0.4 0.0
11.600000000000001 0.4 0.0
12.0 0.4 0.0
12.4 0.4 0.0
12.8 0.4 0.0
13.200000000000001 0.4 0.0
13.600000000000001 0.4 0.0
14.0 0.4 0.0
14.4 0.4 0.0
14.8 0.4 0.0
15.200000000000001 0.4 0.0
15.600000000000001 0.4 0.0
16.0 0.4 0.0
0.0 0.5 0.0
0.4 0.5 0.0
0.8 0.5 0.0
1.2000000000000002 0.5 0.0
1.6 0.5 0.0
2.0 0.5 0.0
2.4000000000000004 0.5 0.0
2.8000000000000003 0.5 0.0
3.2 0.5 0.0
3.6 0.5 0.0
4.0 0.5 0.0
4.4 0.5 0.0
4.800000000000001 0.5 0.0
5.2 0.5 0.0
5.6000000000000005 0.5 0.0
6.0 0.5 0.0
6.4 0.5 0.0
6.800000000000001 0.5 0.0
7.2 0.5 0.0
7.6000000000000005 0.5 0.0
8.0 0.5 0.0
8.4 0.5 0.0
8.8 0.5 0.0
9.200000000000001 0.5 0.0
9.600000000000001 0.5 0.0
10.0 0.5 0.0
10.4 0.5 0.0
10.8 0.5 0.0
11.200000000000001 0.5 0.0
11.600000000000001 0.5 0.0
12.0 0.5 0.0
12.4 0.5 0.0
12.8 0.5 0.0
13.200000000000001 0.5 0.0
13.600000000000001 0.5 0.0
14.0 0.5 0.0
14.4 0.5 0.0
14.8 0.5 0.0
15.200000000000001 0.5 0.0
15.600000000000001 0.5 0.0
16.0 0.5 0.0
0.0 0.6000000000000001 0.0
0.4 0.6000000000000001 0.0
0.8 0.6000000000000001 0.0
1.2000000000000002 0.6000000000000001 0.0
1.6 0.6000000000000001 0.0
2.0 0.6000000000000001 0.0
2.4000000000000004 0.6000000000000001 0.0
2.8000000000000003 0.6000000000000001 0.0
3.2 0.6000000000000001 0.0
3.6 0.6000000000000001 0.0
4.0 0.6000000000000001 0.0
4.4 0.6000000000000001 0.0
4.800000000000001 0.6000000000000001 0.0
5.2 0.6000000000000001 0.0
5.6000000000000005 0.6000000000000001 0.0
6.0 0.6000000000000001 0.0
6.4 0.6000000000000001 0.0
6.800000000000001 0.6000000000000001 0.0
7.2 0.6000000000000001 0.0
7.6000000000000005 0.6000000000000001 0.0
8.0 0.6000000000000001 0.0
8.4 0.6000000000000001 0.0
8.8 0.6000000000000001 0.0
9.200000000000001 0.6000000000000001 0.0
9.600000000000001 0.6000000000000001 0.0
10.0 0.6000000000000001 0.0
10.4 0.6000000000000001 0.0
10.8 0.6000000000000001 0.0
11.200000000000001 0.6000000000000001 0.0
11.600000000000001 0.6000000000000001 0.0
12.0 0.6000000000000001 0.0
12.4 0.6000000000000001 0.0
12.8 0.6000000000000001 0.0
13.200000000000001 0.6000000000000001 0.0
13.600000000000001 0.6000000000000001 0.0
14.0 0.6000000000000001 0.0
14.4 0.6000000000000001 0.0
14.8 0.6000000000000001 0.0
15.200000000000001 0.6000000000000001 0.0
15.600000000000001 0.6000000000000001 0.0
16.0 0.6000000000000001 0.0
0.0 0.7000000000000001 0.0
0.4 0.7000000000000001 0.0
0.8 0.7000000000000001 0.0
1.2000000000000002 0.7000000000000001 0.0
1.6 0.7000000000000001 0.0
2.0 0.7000000000000001 0.0
2.4000000000000004 0.7000000000000001 0.0
2.8000000000000003 0.7000000000000001 0.0
3.2 0.7000000000000001 0.0
3.6 0.7000000000000001 0.0
4.0 0.7000000000000001 0.0
4.4 0.7000000000000001 0.0
4.800000000000001 0.7000000000000001 0.0
5.2 0.7000000000000001 0.0
5.6000000000000005 0.7000000000000001 0.0
6.0 0.7000000000000001 0.0
6.4 0.7000000000000001 0.0
6.800000000000001 0.7000000000000001 0.0
7.2 0.7000000000000001 0.0
7.6000000000000005 0.7000000000000001 0.0
8.0 0.7000000000000001 0.0
8.4 0.7000000000000001 0.0
8.8 0.7000000000000001 0.0
9.200000000000001 0.7000000000000001 0.0
9.600000000000001 0.7000000000000001 0.0
10.0 0.7000000000000001 0.0
10.4 0.7000000000000001 0.0
10.8 0.7000000000000001 0.0
11.200000000000001 0.7000000000000001 0.0
11.600000000000001 0.7000000000000001 0.0
12.0 0.7000000000000001 0.0
12.4 0.7000000000000001 0.0
12.8 0.7000000000000001 0.0
13.200000000000001 0.7000000000000001 0.0
13.600000000000001 0.7000000000000001 0.0
14.0 0.7000000000000001 0.0
14.4 0.7000000000000001 0.0
14.8 0.7000000000000001 0.0
15.200000000000001 0.7000000000000001 0.0
15.600000000000001 0.7000000000000001 0.0
16.0 0.7000000000000001 0.0
0.0 0.8 0.0
0.4 0.8 0.0
0.8 0.8 0.0
1.2000000000000002 0.8 0.0
1.6 0.8 0.0
2.0 0.8 0.0
2.4000000000000004 0.8 0.0
2.8000000000000003 0.8 0.0
3.2 0.8 0.0
3.6 0.8 0.0
4.0 0.8 0.0
4.4 0.8 0.0
4.800000000000001 0.8 0.0
5.2 0.8 0.0
5.6000000000000005 0.8 0.0
6.0 0.8 0.0
6.4 0.8 0.0
6.800000000000001 0.8 0.0
7.2 0.8 0.0
7.6000000000000005 0.8 0.0
8.0 0.8 0.0
8.4 0.8 0.0
8.8 0.8 0.0
9.200000000000001 0.8 0.0
9.600000000000001 0.8 0.0
10.0 0.8 0.0
10.4 0.8 0.0
10.8 0.8 0.0
11.200000000000001 0.8 0.0
11.600000000000001 0.8 0.0
12.0 0.8 0.0
12.4 0.8 0.0
12.8 0.8 0.0
13.200000000000001 0.8 0.0
13.600000000000001 0.8 0.0
14.0 0.8 0.0
14.4 0.8 0.0
14.8 0.8 0.0
15.200000000000001 0.8 0.0
15.600000000000001 0.8 0.0
16.0 0.8 0.0
0.0 0.9 0.0
0.4 0.9 0.0
0.8 0.9 0.0
1.2000000000000002 0.9 0.0
1.6 0.9 0.0
2.0 0.9 0.0
2.4000000000000004 0.9 0.0
2.8000000000000003 0.9 0.0
3.2 0.9 0.0
3.6 0.9 0.0
4.0 0.9 0.0
4.4 0.9 0.0
4.800000000000001 0.9 0.0
5.2 0.9 0.0
5.6000000000000005 0.9 0.0
6.0 0.9 0.0
6.4 0.9 0.0
6.800000000000001 0.9 0.0
7.2 0.9 0.0
7.6000000000000005 0.9 0.0
8.0 0.9 0.0
8.4 0.9 0.0
8.8 0.9 0.0
9.200000000000001 0.9 0.0
9.600000000000001 0.9 0.0
10.0 0.9 0.0
10.4 0.9 0.0
10.8 0.9 0.0
11.200000000000001 0.9 0.0
11.600000000000001 0.9 0.0
12.0 0.9 0.0
12.4 0.9 0.0
12.8 0.9 0.0
13.200000000000001 0.9 0.0
13.600000000000001 0.9 0.0
14.0 0.9 0.0
14.4 0.9 0.0
14.8 0.9 0.0
15.200000000000001 0.9 0.0
15.600000000000001 0.9 0.0
16.0 0.9 0.0
0.0 1.0 0.0
0.4 1.0 0.0
0.8 1.0 0.0
1.2000000000000002 1.0 0.0
1.6 1.0 0.0
2.0 1.0 0.0
2.4000000000000004 1.0 0.0
2.8000000000000003 1.0 0.0
3.2 1.0 0.0
3.6 1.0 0.0
4.0 1.0 0.0
4.4 1.0 0.0
4.800000000000001 1.0 0.0
5.2 1.0 0.0
5.6000000000000005 1.0 0.0
6.0 1.0 0.0
6.4 1.0 0.0
6.800000000000001 1.0 0.0
7.2 1.0 0.0
7.6000000000000005 1.0 0.0
8.0 1.0 0.0
8.4 1.0 0.0
8.8 1.0 0.0
9.200000000000001 1.0 0.0
9.600000000000001 1.0 0.0
10.0 1.0 0.0
10.4 1.0 0.0
10.8 1.0 0.0
11.200000000000001 1.0 0.0
11.600000000000001 1.0 0.0
12.0 1.0 0.0
12.4 1.0 0.0
12.8 1.0 0.0
13.200000000000001 1.0 0.0
13.600000000000001 1.0 0.0
14.0 1.0 0.0
14.4 1.0 0.0
14.8 1.0 0.0
15.200000000000001 1.0 0.0
15.600000000000001 1.0 0.0
16.0 1.0 0.0
0.0 1.1 0.0
0.4 1.1 0.0
0.8 1.1 0.0
1.2000000000000002 1.1 0.0
1.6 1.1 0.0
2.0 1.1 0.0
2.4000000000000004 1.1 0.0
2.8000000000000003 1.1 0.0
3.2 1.1 0.0
3.6 1.1 0.0
4.0 1.1 0.0
4.4 1.1 0.0
4.800000000000001 1.1 0.0
5.2 1.1 0.0
5.6000000000000005 1.1 0.0
6.0 1.1 0.0
6.4 1.1 0.0
6.800000000000001 1.1 0.0
7.2 1.1 0.0
7.6000000000000005 1.1 0.0
8.0 1.1 0.0
8.4 1.1 0.0
8.8 1.1 0.0
9.200000000000001 1.1 0.0
9.600000000000001 1.1 0.0
10.0 1.1 0.0
10.4 1.1 0.0
10.8 1.1 0.0
11.200000000000001 1.1 0.0
11.600000000000001 1.1 0.0
12.0 1.1 0.0
12.4 1.1 0.0
12.8 1.1 0.0
13.200000000000001 1.1 0.0
13.600000000000001 1.1 0.0
14.0 1.1 0.0
14.4 1.1 0.0
14.8 1.1 0.0
15.200000000000001 1.1 0.0
15.600000000000001 1.1 0.0
16.0 1.1 0.0
0.0 1.2000000000000002 0.0
0.4 1.2000000000000002 0.0
0.8 1.2000000000000002 0.0
1.2000000000000002 1.2000000000000002 0.0
1.6 1.2000000000000002 0.0
2.0 1.2000000000000002 0.0
2.4000000000000004 1.2000000000000002 0.0
2.8000000000000003 1.2000000000000002 0.0
3.2 1.2000000000000002 0.0
3.6 1.2000000000000002 0.0
4.0 1.2000000000000002 0.0
4.4 1.2000000000000002 0.0
4.800000000000001 1.2000000000000002 0.0
5.2 1.2000000000000002 0.0
5.6000000000000005 1.2000000000000002 0.0
6.0 1.2000000000000002 0.0
6.4 1.2000000000000002 0.0
6.800000000000001 1.2000000000000002 0.0
7.2 1.2000000000000002 0.0
7.6000000000000005 1.2000000000000002 0.0
8.0 1.2000000000000002 0.0
8.4 1.2000000000000002 0.0
8.8 1.2000000000000002 0.0
9.200000000000001 1.2000000000000002 0.0
9.600000000000001 1.2000000000000002 0.0
10.0 1.2000000000000002 0.0
10.4 1.2000000000000002 0.0
10.8 1.2000000000000002 0.0
11.200000000000001 1.2000000000000002 0.0
11.600000000000001 1.2000000000000002 0.0
12.0 1.2000000000000002 0.0
12.4 1.2000000000000002 0.0
12.8 1.2000000000000002 0.0
13.200000000000001 1.2000000000000002 0.0
13.600000000000001 1.2000000000000002 0.0
14.0 1.2000000000000002 0.0
14.4 1.2000000000000002 0.0
14.8 1.2000000000000002 0.0
15.200000000000001 1.2000000000000002 0.0
15.600000000000001 1.2000000000000002 0.0
16.0 1.2000000000000002 0.0
0.0 1.3 0.0
0.4 1.3 0.0
0.8 1.3 0.0
1.2000000000000002 1.3 0.0
1.6 1.3 0.0
2.0 1.3 0.0
2.4000000000000004 1.3 0.0
2.8000000000000003 1.3 0.0
3.2 1.3 0.0
3.6 1.3 0.0
4.0 1.3 0.0
4.4 1.3 0.0
4.800000000000001 1.3 0.0
5.2 1.3 0.0
5.6000000000000005 1.3 0.0
6.0 1.3 0.0
6.4 1.3 0.0
6.800000000000001 1.3 0.0
7.2 1.3 0.0
7.6000000000000005 1.3 0.0
8.0 1.3 0.0
8.4 1.3 0.0
8.8 1.3 0.0
9.200000000000001 1.3 0.0
9.600000000000001 1.3 0.0
10.0 1.3 0.0
10.4 1.3 0.0
10.8 1.3 0.0
11.200000000000001 1.3 0.0
11.600000000000001 1.3 0.0
12.0 1.3 0.0
12.4 1.3 0.0
12.8 1.3 0.0
13.200000000000001 1.3 0.0
13.600000000000001 1.3 0.0
14.0 1.3 0.0
14.4 1.3 0.0
14.8 1.3 0.0
15.200000000000001 1.3 0.0
15.600000000000001 1.3 0.0
16.0 1.3 0.0
0.0 1.4000000000000001 0.0
0.4 1.4000000000000001 0.0
0.8 1.4000000000000001 0.0
1.2000000000000002 1.4000000000000001 0.0
1.6 1.4000000000000001 0.0
2.0 1.4000000000000001 0.0
2.4000000000000004 1.4000000000000001 0.0
2.8000000000000003 1.4000000000000001 0.0
3.2 1.4000000000000001 0.0
3.6 1.4000000000000001 0.0
4.0 1.4000000000000001 0.0
4.4 1.4000000000000001 0.0
4.800000000000001 1.4000000000000001 0.0
5.2 1.4000000000000001 0.0
5.6000000000000005 1.4000000000000001 0.0
6.0 1.4000000000000001 0.0
6.4 1.4000000000000001 0.0
6.800000000000001 1.4000000000000001 0.0
7.2 1.4000000000000001 0.0
7.6000000000000005 1.4000000000000001 0.0
8.0 1.4000000000000001 0.0
8.4 1.4000000000000001 0.0
8.8 1.4000000000000001 0.0
9.200000000000001 1.4000000000000001 0.0
9.600000000000001 1.4000000000000001 0.0
10.0 1.4000000000000001 0.0
10.4 1.4000000000000001 0.0
10.8 1.4000000000000001 0.0
11.200000000000001 1.4000000000000001 0.0
11.600000000000001 1.4000000000000001 0.0
12.0 1.4000000000000001 0.0
12.4 1.4000000000000001 0.0
12.8 1.4000000000000001 0.0
13.200000000000001 1.4000000000000001 0.0
13.600000000000001 1.4000000000000001 0.0
14.0 1.4000000000000001 0.0
14.4 1.4000000000000001 0.0
14.8 1.4000000000000001 0.0
15.200000000000001 1.4000000000000001 0.0
15.600000000000001 1.4000000000000001 0.0
16.0 1.4000000000000001 0.0
0.0 1.5 0.0
0.4 1.5 0.0
0.8 1.5 0.0
1.2000000000000002 1.5 0.0
1.6 1.5 0.0
2.0 1.5 0.0
2.4000000000000004 1.5 0.0
2.8000000000000003 1.5 0.0
3.2 1.5 0.0
3.6 1.5 0.0
4.0 1.5 0.0
4.4 1.5 0.0
4.800000000000001 1.5 0.0
5.2 1.5 0.0
5.6000000000000005 1.5 0.0
6.0 1.5 0.0
6.4 1.5 0.0
6.800000000000001 1.5 0.0
7.2 1.5 0.0
7.6000000000000005 1.5 0.0
8.0 1.5 0.0
8.4 1.5 0.0
8.8 1.5 0.0
9.200000000000001 1.5 0.0
9.600000000000001 1.5 0.0
10.0 1.5 0.0
10.4 1.5 0.0
10.8 1.5 0.0
11.200000000000001 1.5 0.0
11.600000000000001 1.5 0.0
12.0 1.5 0.0
12.4 1.5 0.0
12.8 1.5 0.0
13.200000000000001 1.5 0.0
13.600000000000001 1.5 0.0
14.0 1.5 0.0
14.4 1.5 0.0
14.8 1.5 0.0
15.200000000000001 1.5 0.0
15.600000000000001 1.5 0.0
16.0 1.5 0.0
0.0 1.6 0.0
0.4 1.6 0.0
0.8 1.6 0.0
1.2000000000000002 1.6 0.0
1.6 1.6 0.0
2.0 1.6 0.0
2.4000000000000004 1.6 0.0
2.8000000000000003 1.6 0.0
3.2 1.6 0.0
3.6 1.6 0.0
4.0 1.6 0.0
4.4 1.6 0.0
4.800000000000001 1.6 0.0
5.2 1.6 0.0
5.6000000000000005 1.6 0.0
6.0 1.6 0.0
6.4 1.6 0.0
6.800000000000001 1.6 0.0
7.2 1.6 0.0
7.6000000000000005 1.6 0.0
8.0 1.6 0.0
8.4 1.6 0.0
8.8 1.6 0.0
9.200000000000001 1.6 0.0
9.600000000000001 1.6 0.0
10.0 1.6 0.0
10.4 1.6 0.0
10.8 1.6 0.0
11.200000000000001 1.6 0.0
11.600000000000001 1.6 0.0
12.0 1.6 0.0
12.4 1.6 0.0
12.8 1.6 0.0
13.200000000000001 1.6 0.0
13.600000000000001 1.6 0.0
14.0 1.6 0.0
14.4 1.6 0.0
14.8 1.6 0.0
15.200000000000001 1.6 0.0
15.600000000000001 1.6 0.0
16.0 1.6 0.0
0.0 1.7000000000000002 0.0
0.4 1.7000000000000002 0.0
0.8 1.7000000000000002 0.0
1.2000000000000002 1.7000000000000002 0.0
1.6 1.7000000000000002 0.0
2.0 1.7000000000000002 0.0
2.4000000000000004 1.7000000000000002 0.0
2.8000000000000003 1.7000000000000002 0.0
3.2 1.7000000000000002 0.0
3.6 1.7000000000000002 0.0
4.0 1.7000000000000002 0.0
4.4 1.7000000000000002 0.0
4.800000000000001 1.7000000000000002 0.0
5.2 1.7000000000000002 0.0
5.6000000000000005 1.7000000000000002 0.0
6.0 1.7000000000000002 0.0
6.4 1.7000000000000002 0.0
6.800000000000001 1.7000000000000002 0.0
7.2 1.7000000000000002 0.0
7.6000000000000005 1.7000000000000002 0.0
8.0 1.7000000000000002 0.0
8.4 1.7000000000000002 0.0
8.8 1.7000000000000002 0.0
9.200000000000001 1.7000000000000002 0.0
9.600000000000001 1.7000000000000002 0.0
10.0 1.7000000000000002 0.0
10.4 1.7000000000000002 0.0
10.8 1.7000000000000002 0.0
11.200000000000001 1.7000000000000002 0.0
11.600000000000001 1.7000000000000002 0.0
12.0 1.7000000000000002 0.0
12.4 1.7000000000000002 0.0
12.8 1.7000000000000002 0.0
13.200000000000001 1.7000000000000002 0.0
13.600000000000001 1.7000000000000002 0.0
14.0 1.7000000000000002 0.0
14.4 1.7000000000000002 0.0
14.8 1.7000000000000002 0.0
15.200000000000001 1.7000000000000002 0.0
15.600000000000001 1.7000000000000002 0.0
16.0 1.7000000000000002 0.0
0.0 1.8 0.0
0.4 1.8 0.0
0.8 1.8 0.0
1.2000000000000002 1.8 0.0
1.6 1.8 0.0
2.0 1.8 0.0
2.4000000000000004 1.8 0.0
2.8000000000000003 1.8 0.0
3.2 1.8 0.0
3.6 1.8 0.0
4.0 1.8 0.0
4.4 1.8 0.0
4.800000000000001 1.8 0.0
5.2 1.8 0.0
5.6000000000000005 1.8 0.0
6.0 1.8 0.0
6.4 1.8 0.0
6.800000000000001 1.8 0.0
7.2 1.8 0.0
7.6000000000000005 1.8 0.0
8.0 1.8 0.0
8.4 1.8 0.0
8.8 1.8 0.0
9.200000000000001 1.8 0.0
9.600000000000001 1.8 0.0
10.0 1.8 0.0
10.4 1.8 0.0
10.8 1.8 0.0
11.200000000000001 1.8 0.0
11.600000000000001 1.8 0.0
12.0 1.8 0.0
12.4 1.8 0.0
12.8 1.8 0.0
13.200000000000001 1.8 0.0
13.600000000000001 1.8 0.0
14.0 1.8 0.0
14.4 1.8 0.0
14.8 1.8 0.0
15.200000000000001 1.8 0.0
15.600000000000001 1.8 0.0
16.0 1.8 0.0
0.0 1.9000000000000001 0.0
0.4 1.9000000000000001 0.0
0.8 1.9000000000000001 0.0
1.2000000000000002 1.9000000000000001 0.0
1.6 1.9000000000000001 0.0
2.0 1.9000000000000001 0.0
2.4000000000000004 1.9000000000000001 0.0
2.8000000000000003 1.9000000000000001 0.0
3.2 1.9000000000000001 0.0
3.6 1.9000000000000001 0.0
4.0 1.9000000000000001 0.0
4.4 1.9000000000000001 0.0
4.800000000000001 1.9000000000000001 0.0
5.2 1.9000000000000001 0.0
5.6000000000000005 1.9000000000000001 0.0
6.0 1.9000000000000001 0.0
6.4 1.9000000000000001 0.0
6.800000000000001 1.9000000000000001 0.0
7.2 1.9000000000000001 0.0
7.6000000000000005 1.9000000000000001 0.0
8.0 1.9000000000000001 0.0
8.4 1.9000000000000001 0.0
8.8 1.9000000000000001 0.0
9.200000000000001 1.9000000000000001 0.0
9.600000000000001 1.9000000000000001 0.0
10.0 1.9000000000000001 0.0
10.4 1.9000000000000001 0.0
10.8 1.9000000000000001 0.0
11.200000000000001 1.9000000000000001 0.0
11.600000000000001 1.9000000000000001 0.0
12.0 1.9000000000000001 0.0
12.4 1.9000000000000001 0.0
12.8 1.9000000000000001 0.0
13.200000000000001 1.9000000000000001 0.0
13.600000000000001 1.9000000000000001 0.0
14.0 1.9000000000000001 0.0
14.4 1.9000000000000001 0.0
14.8 1.9000000000000001 0.0
15.200000000000001 1.9000000000000001 0.0
15.600000000000001 1.9000000000000001 0.0
16.0 1.9000000000000001 0.0
0.0 2.0 0.0
0.4 2.0 0.0
0.8 2.0 0.0
1.2000000000000002 2.0 0.0
1.6 2.0 0.0
2.0 2.0 0.0
2.4000000000000004 2.0 0.0
2.8000000000000003 2.0 0.0
3.2 2.0 0.0
3.6 2.0 0.0
4.0 2.0 0.0
4.4 2.0 0.0
4.800000000000001 2.0 0.0
5.2 2.0 0.0
5.6000000000000005 2.0 0.0
6.0 2.0 0.0
6.4 2.0 0.0
6.800000000000001 2.0 0.0
7.2 2.0 0.0
7.6000000000000005 2.0 0.0
8.0 2.0 0.0
8.4 2.0 0.0
8.8 2.0 0.0
9.200000000000001 2.0 0.0
9.600000000000001 2.0 0.0
10.0 2.0 0.0
10.4 2.0 0.0
10.8 2.0 0.0
11.200000000000001 2.0 0.0
11.600000000000001 2.0 0.0
12.0 2.0 0.0
12.4 2.0 0.0
12.8 2.0 0.0
13.200000000000001 2.0 0.0
13.600000000000001 2.0 0.0
14.0 2.0 0.0
14.4 2.0 0.0
14.8 2.0 0.0
15.200000000000001 2.0 0.0
15.600000000000001 2.0 0.0
16.0 2.0 0.0
CELLS 800 4000
4 0 1 42 41
4 1 2 43 42
4 2 3 44 43
4 3 4 45 44
4 4 5 46 45
4 5 6 47 46
4 6 7 48 47
4 7 8 49 48
4 8 9 50 49
4 9 10 51 50
4 10 11 52 51
4 11 12 53 52
4 12 13 54 53
4 13 14 55 54
4 14 15 56 55
4 15 16 57 56
4 16 17 58 57
4 17 18 59 58
4 18 19 60 59
4 19 20 61 60
4 20 21 62 61
4 21 22 63 62
4 22 23 64 63
4 23 24 65 64
4 24 25 66 65
4 25 26 67 66
4 26 27 68 67
4 27 28 69 68
4 28 29 70 69
4 29 30 71 70
4 30 31 72 71
4 31 32 73 72
4 32 33 74 73
4 33 34 75 74
4 34 35 76 75
4 35 36 77 76
4 36 37 78 77
4 37 38 79 78
4 38 39 80 79
4 39 40 81 80
4 41 42 83 82
4 42 43 84 83
4 43 44 85 84
4 44 45 86 85
4 45 46 87 86
4 46 47 88 87
4 47 48 89 88
4 48 49 90 89
4 49 50 91 90
4 50 51 92 91
4 51 52 93 92
4 52 53 94 93
4 53 54 95 94
4 54 55 96 95
4 55 56 97 96
4 56 57 98 97
4 57 58 99 98
4 58 59 100 99
4 59 60 101 100
4 60 61 102 101
4 61 62 103 102
4 62 63 104 103
4 63 64 105 104
4 64 65 106 105
4 65 66 107 106
4 66 67 108 107
4 67 68 109 108
4 68 69 110 109
4 69 70 111 110
4 70 71 112 111
4 71 72 113 112
4 72 73 114 113
4 73 74 115 114
4 74 75 116 115
4 75 76 117 116
4 76 77 118 117
4 77 78 119 118
4 78 79 120 119
4 79 80 121 120
4 80 81 122 121
4 82 83 124 123
4 83 84 125 124
4 84 85 126 125
4 85 86 127 126
4 86 87 128 127
4 87 88 129 128
4 88 89 130 129
4 89 90 131 130
4 90 91 132 131
4 91 92 133 132
4 92 93 134 133
4 93 94 135 134
4 94 95 136 135
4 95 96 137 136
4 96 97 138 137
4 97 98 139 138
4 98 99 140 139
4 99 100 141 140
4 100 101 142 141
4 101 102 143 142
4 102 103 144 143
4 103 104 145 144
4 104 105 146 145
4 105 106 147 146
4 106 107 148 147
4 107 108 149 148
4 108 109 150 149
4 109 110 151 150
4 110 111 152 151
4 111 112 153 152
4 112 113 154 153
4 113 114 155 154
4 114 115 156 155
4 115 116 157 156
4 116 117 158 157
4 117 118 159 158
4 118 119 160 159
4 119 120 161 160
4 120 121 162 161
4 121 122 163 162
4 123 124 165 164
4 124 125 166 165
4 125 126 167 166
4 126 127 168 167
4 127 128 169 168
4 128 129 170 169
4 129 130 171 170
4 130 131 172 171
4 131 132 173 172
4 132 133 174 173
4 133 134 175 174
4 134 135 176 175
4 135 136 177 176
4 136 137 178 177
4 137 138 179 178
4 138 139 180 179
4 139 140 181 180
4 140 141 182 181
4 141 142 183 182
4 142 143 184 183
4 143 144 185 184
4 144 145 186 185
4 145 146 187 186
4 146 147 188 187
4 147 148 189 188
4 148 149 190 189
4 149 150 191 190
4 150 151 192 191
4 151 152 193 192
4 152 153 194 193
4 153 154 195 194
4 154 155 196 195
4 155 156 197 196
4 156 157 198 197
4 157 158 199 198
4 158 159 200 199
4 159 160 201 200
4 160 161 202 201
4 161 162 203 202
4 162 163 204 203
4 164 165 206 205
4 165 166 207 206
4 166 167 208 207
4 167 168 209 208
4 168 169 210 209
4 169 170 211 210
4 170 171 212 211
4 171 172 213 212
4 172 173 214 213
4 173 174 215 214
4 174 175 216 215
4 175 176 217 216
4 176 177 218 217
4 177 178 219 218
4 178 179 220 219
4 179 180 221 220
4 180 181 222 221
4 181 182 223 222
4 182 183 224 223
4 183 184 225 224
4 184 185 226 225
4 185 186 227 226
4 186 187 228 227
4 187 188 229 228
4 188 189 230 229
4 189 190 231 230
4 190 191 232 231
4 191 192 233 232
4 192 193 234 233
4 193 194 235 234
4 194 195 236 235
4 195 196 237 236
4 196 197 238 237
4 197 198 239 238
4 198 199 240 239
4 199 200 241 240
4 200 201 242 241
4 201 202 243 242
4 202 203 244 243
4 203 204 245 244
4 205 206 247 246
4 206 207 248 247
4 207 208 249 248
4 208 209 250 249
4 209 210 251 250
4 210 211 252 251
4 211 212 253 252
4 212 213 254 253
4 213 214 255 254
4 214 215 256 255
4 215 216 257 256
4 216 217 258 257
4 217 218 259 258
4 218 219 260 259
4 219 220 261 260
4 220 221 262 261
4 221 222 263 262
4 222 223 264 263
4 223 224 265 264
4 224 225 266 265
4 225 226 267 266
4 226 227 268 267
4 227 228 269 268
4 228 229 270 269
4 229 230 271 270
4 230 231 272 271
4 231 232 273 272
4 232 233 274 273
4 233 234 275 274
4 234 235 276 275
4 235 236 277 276
4 236 237 278 277
4 237 238 279 278
4 238 239 280 279
4 239 240 281 280
4 240 241 282 281
4 241 242 283 282
4 242 243 284 283
4 243 244 285 284
4 244 245 286 285
4 246 247 288 287
4 247 248 289 288
4 248 249 290 289
4 249 250 291 290
4 250 251 292 291
4 251 252 293 292
4 252 253 294 293
4 253 254 295 294
4 254 255 296 295
4 255 256 297 296
4 256 257 298 297
4 257 258 299 298
4 258 259 300 299
4 259 260 301 300
4 260 261 302 301
4 261 262 303 302
4 262 263 304 303
4 263 264 305 304
4 264 265 306 305
4 265 266 307 306
4 266 267 308 307
4 267 268 309 308
4 268 269 310 309
4 269 270 311 310
4 270 271 312 311
4 271 272 313 312
4 272 273 314 313
4 273 274 315 314
4 274 275 316 315
4 275 276 317 316
4 276 277 318 317
4 277 278 319 318
4 278 279 320 319
4 279 280 321 320
4 280 281 322 321
4 281 282 323 322
4 282 283 324 323
4 283 284 325 324
4 284 285 326 325
4 285 286 327 326
4 287 288 329 328
4 288 289 330 329
4 289 290 331 330
4 290 291 332 331
4 291 292 333 332
4 292 293 334 333
4 293 294 335 334
4 294 295 336 335
4 295 296 337 336
4 296 297 338 337
4 297 298 339 338
4 298 299 340 339
4 299 300 341 340
4 300 301 342 341
4 301 302 343 342
4 302 303 344 343
4 303 304 345 344
4 304 305 346 345
4 305 306 347 346
4 306 307 348 347
4 307 308 349 348
4 308 309 350 349
4 309 310 351 350
4 310 311 352 351
4 311 312 353 352
4 312 313 354 353
4 313 314 355 354
4 314 315 356 355
4 315 316 357 356
4 316 317 358 357
4 317 318 359 358
4 318 319 360 359
4 319 320 361 360
4 320 321 362 361
4 321 322 363 362
4 322 323 364 363
4 323 324 365 364
4 324 325 366 365
4 325 326 367 366
4 326 327 368 367
4 328 329 370 369
4 329 330 371 370
4 330 331 372 371
4 331 332 373 372
4 332 333 374 373
4 333 334 375 374
4 334 335 376 375
4 335 336 377 376
4 336 337 378 377
4 337 338 379 378
4 338 339 380 379
4 339 340 381 380
4 340 341 382 381
4 341 342 383 382
4 342 343 384 383
4 343 344 385 384
4 344 345 386 385
4 345 346 387 386
4 346 347 388 387
4 347 348 389 388
4 348 349 390 389
4 349 350 391 390
4 350 351 392 391
4 351 352 393 392
4 352 353 394 393
4 353 354 395 394
4 354 355 396 395
4 355 356 397 396
4 356 357 398 397
4 357 358 399 398
4 358 359 400 399
4 359 360 401 400
4 360 361 402 401
4 361 362 403 402
4 362 363 404 403
4 363 364 405 404
4 364 365 406 405
4 365 366 407 406
4 366 367 408 407
4 367 368 409 408
4 369 370 411 410
4 370 371 412 411
4 371 372 413 412
4 372 373 414 413
4 373 374 415 414
4 374 375 416 415
4 375 376 417 416
4 376 377 418 417
4 377 378 419 418
4 378 379 420 419
4 379 380 421 420
4 380 381 422 421
4 381 382 423 422
4 382 383 424 423
4 383 384 425 424
4 384 385 426 425
4 385 386 427 426
4 386 387 428 427
4 387 388 429 428
4 388 389 430 429
4 389 390 431 430
4 390 391 432 431
4 391 392 433 432
4 392 393 434 433
4 393 394 435 434
4 394 395 436 435
4 395 396 437 436
4 396 397 438 437
4 397 398 439 438
4 398 399 440 439
4 399 400 441 440
4 400 401 442 441
4 401 402 443 442
4 402 403 444 443
4 403 404 445 444
4 404 405 446 445
4 405 406 447 446
4 406 407 448 447
4 407 408 449 448
4 408 409 450 449
4 410 411 452 451
4 411 412 453 452
4 412 413 454 453
4 413 414 455 454
4 414 415 456 455
4 415 416 457 456
4 416 417 458 457
4 417 418 459 458
4 418 419 460 459
4 419 420 461 460
4 420 421 462 461
4 421 422 463 462
4 422 423 464 463
4 423 424 465 464
4 424 425 466 465
4 425 426 467 466
4 426 427 468 467
4 427 428 469 468
4 428 429 470 469
4 429 430 471 470
4 430 431 472 471
4 431 432 473 472
4 432 433 474 473
4 433 434 475 474
4 434 435 476 475
4 435 436 477 476
4 436 437 478 477
4 437 438 479 478
4 438 439 480 479
4 439 440 481 480
4 440 441 482 481
4 441 442 483 482
4 442 443 484 483
4 443 444 485 484
4 444 445 486 485
4 445 446 487 486
4 446 447 488 487
4 447 448 489 488
4 448 449 490 489
4 449 450 491 490
4 451 452 493 492
4 452 453 494 493
4 453 454 495 494
4 454 455 496 495
4 455 456 497 496
4 456 457 498 497
4 457 458 499 498
4 458 459 500 499
4 459 460 501 500
4 460 461 502 501
4 461 462 503 502
4 462 463 504 503
4 463 464 505 504
4 464 465 506 505
4 465 466 507 506
4 466 467 508 507
4 467 468 509 508
4 468 469 510 509
4 469 470 511 510
4 470 471 512 511
4 471 472 513 512
4 472 473 514 513
4 473 474 515 514
4 474 475 516 515
4 475 476 517 516
4 476 477 518 517
4 477 478 519 518
4 478 479 520 519
4 479 480 521 520
4 480 481 522 521
4 481 482 523 522
4 482 483 524 523
4 483 484 525 524
4 484 485 526 525
4 485 486 527 526
4 486 487 528 527
4 487 488 529 528
4 488 489 530 529
4 489 490 531 530
4 490 491 532 531
4 492 493 534 533
4 493 494 535 534
4 494 495 536 535
4 495 496 537 536
4 496 497 538 537
4 497 498 539 538
4 498 499 540 539
4 499 500 541 540
4 500 501 542 541
4 501 502 543 542
4 502 503 544 543
4 503 504 545 544
4 504 505 546 545
4 505 506 547 546
4 506 507 548 547
4 507 508 549 548
4 508 509 550 549
4 509 510 551 550
4 510 511 552 551
4 511 512 553 552
4 512 513 554 553
4 513 514 555 554
4 514 515 556 555
4 515 516 557 556
4 516 517 558 557
4 517 518 559 558
4 518 519 560 559
4 519 520 561 560
4 520 521 562 561
4 521 522 563 562
4 522 523 564 563
4 523 524 565 564
4 524 525 566 565
4 525 526 567 566
4 526 527 568 567
4 527 528 569 568
4 528 529 570 569
4 529 530 571 570
4 530 531 572 571
4 531 532 573 572
4 533 534 575 574
4 534 535 576 575
4 535 536 577 576
4 536 537 578 577
4 537 538 579 578
4 538 539 580 579
4 539 540 581 580
4 540 541 582 581
4 541 542 583 582
4 542 543 584 583
4 543 544 585 584
4 544 545 586 585
4 545 546 587 586
4 546 547 588 587
4 547 548 589 588
4 548 549 590 589
4 549 550 591 590
4 550 551 592 591
4 551 552 593 592
4 552 553 594 593
4 553 554 595 594
4 554 555 596 595
4 555 556 597 596
4 556 557 598 597
4 557 558 599 598
4 558 559 600 599
4 559 560 601 600
4 560 561 602 601
4 561 562 603 602
4 562 563 604 603
4 563 564 605 604
4 564 565 606 605
4 565 566 607 606
4 566 567 608 607
4 567 568 609 608
4 568 569 610 609
4 569 570 611 610
4 570 571 612 611
4 571 572 613 612
4 572 573 614 613
4 574 575 616 615
4 575 576 617 616
4 576 577 618 617
4 577 578 619 618
4 578 579 620 619
4 579 580 621 620
4 580 581 622 621
4 581 582 623 622
4 582 583 624 623
4 583 584 625 624
4 584 585 626 625
4 585 586 627 626
4 586 587 628 627
4 587 588 629 628
4 588 589 630 629
4 589 590 631 630
4 590 591 632 631
4 591 592 633 632
4 592 593 634 633
4 593 594 635 634
4 594 595 636 635
4 595 596 637 636
4 596 597 638 637
4 597 598 639 638
4 598 599 640 639
4 599 600 641 640
4 600 601 642 641
4 601 602 643 642
4 602 603 644 643
4 603 604 645 644
4 604 605 646 645
4 605 606 647 646
4 606 607 648 647
4 607 608 649 648
4 608 609 650 649
4 609 610 651 650
4 610 611 652 651
4 611 612 653 652
4 612 613 654 653
4 613 614 655 654
4 615 616 657 656
4 616 617 658 657
4 617 618 659 658
4 618 619 660 659
4 619 620 661 660
4 620 621 662 661
4 621 622 663 662
4 622 623 664 663
4 623 624 665 664
4 624 625 666 665
4 625 626 667 666
4 626 627 668 667
4 627 628 669 668
4 628 629 670 669
4 629 630 671 670
4 630 631 672 671
4 631 632 673 672
4 632 633 674 673
4 633 634 675 674
4 634 635 676 675
4 635 636 677 676
4 636 637 678 677
4 637 638 679 678
4 638 639 680 679
4 639 640 681 680
4 640 641 682 681
4 641 642 683 682
4 642 643 684 683
4 643 644 685 684
4 644 645 686 685
4 645 646 687 686
4 646 647 688 687
4 647 648 689 688
4 648 649 690 689
4 649 650 691 690
4 650 651 692 691
4 651 652 693 692
4 652 653 694 693
4 653 654 695 694
4 654 655 696 695
4 656 657 698 697
4 657 658 699 698
4 658 659 700 699
4 659 660 701 700
4 660 661 702 701
4 661 662 703 702
4 662 663 704 703
4 663 664 705 704
4 664 665 706 705
4 665 666 707 706
4 666 667 708 707
4 667 668 709 708
4 668 669 710 709
4 669 670 711 710
4 670 671 712 711
4 671 672 713 712
4 672 673 714 713
4 673 674 715 714
4 674 675 716 715
4 675 676 717 716
4 676 677 718 717
4 677 678 719 718
4 678 679 720 719
4 679 680 721 720
4 680 681 722 721
4 681 682 723 722
4 682 683 724 723
4 683 684 725 724
4 684 685 726 725
4 685 686 727 726
4 686 687 728 727
4 687 688 729 728
4 688 689 730 729
4 689 690 731 730
4 690 691 732 731
4 691 692 733 732
4 692 693 734 733
4 693 694 735 734
4 694 695 736 735
4 695 696 737 736
4 697 698 739 738
4 698 699 740 739
4 699 700 741 740
4 700 701 742 741
4 701 702 743 742
4 702 703 744 743
4 703 704 745 744
4 704 705 746 745
4 705 706 747 746
4 706 707 748 747
4 707 708 749 748
4 708 709 750 749
4 709 710 751 750
4 710 711 752 751
4 711 712 753 752
4 712 713 754 753
4 713 714 755 754
4 714 715 756 755
4 715 716 757 756
4 716 717 758 757
4 717 718 759 758
4 718 719 760 759
4 719 720 761 760
4 720 721 762 761
4 721 722 763 762
4 722 723 764 763
4 723 724 765 764
4 724 725 766 765
4 725 726 767 766
4 726 727 768 767
4 727 728 769 768
4 728 729 770 769
4 729 730 771 770
4 730 731 772 771
4 731 732 773 772
4 732 733 774 773
4 733 734 775 774
4 734 735 776 775
4 735 736 777 776
4 736 737 778 777
4 738 739 780 779
4 739 740 781 780
4 740 741 782 781
4 741 742 783 782
4 742 743 784 783
4 743 744 785 784
4 744 745 786 785
4 745 746 787 786
4 746 747 788 787
4 747 748 789 788
4 748 749 790 789
4 749 750 791 790
4 750 751 792 791
4 751 752 793 792
4 752 753 794 793
4 753 754 795 794
4 754 755 796 795
4 755 756 797 796
4 756 757 798 797
4 757 758 799 798
4 758 759 800 799
4 759 760 801 800
4 760 761 802 801
4 761 762 803 802
4 762 763 804 803
4 763 764 805 804
4 764 765 806 805
4 765 766 807 806
4 766 767 808 807
4 767 768 809 808
4 768 769 810 809
4 769 770 811 810
4 770 771 812 811
4 771 772 813 812
4 772 773 814 813
4 773 774 815 814
4 774 775 816 815
4 775 776 817 816
4 776 777 818 817
4 777 778 819 818
4 779 780 821 820
4 780 781 822 821
4 781 782 823 822
4 782 783 824 823
4 783 784 825 824
4 784 785 826 825
4 785 786 827 826
4 786 787 828 827
4 787 788 829 828
4 788 789 830 829
4 789 790 831 830
4 790 791 832 831
4 791 792 833 832
4 792 793 834 833
4 793 794 835 834
4 794 795 836 835
4 795 796 837 836
4 796 797 838 837
4 797 798 839 838
4 798 799 840 839
4 799 800 841 840
4 800 801 842 841
4 801 802 843 842
4 802 803 844 843
4 803 804 845 844
4 804 805 846 845
4 805 806 847 846
4 806 807 848 847
4 807 808 849 848
4 808 809 850 849
4 809 810 851 850
4 810 811 852 851
4 811 812 853 852
4 812 813 854 853
4 813 814 855 854
4 814 815 856 855
4 815 816 857 856
4 816 817 858 857
4 817 818 859 858
4 818 819 860 859
CELL_TYPES 800
9
9
9
9
9
9
9
9
9
9
9
9
9
9
9
9
9
9
9
9
9
9
9
9
9
9
9
9
9
9
9
9
9
9
9
9
9
9
9
9
9
9
9
9
9
9
9
9
9
9
9
9
9
9
9
9
9
9
9
9
9
9
9
9
9
9
9
9
9
9
9
9
9
9
9
9
9
9
9
9
9
9
9
9
9
9
9
9
9
9
9
9
9
9
9
9
9
9
9
9
9
9
9
9
9
9
9
9
9
9
9
9
9
9
9
9
9
9
9
9
9
9
9
9
9
9
9
9
9
9
9
9
9
9
9
9
9
9
9
9
9
9
9
9
9
9
9
9
9
9
9
9
9
9
9
9
9
9
9
9
9
9
9
9
9
9
9
9
9
9
9
9
9
9
9
9
9
9
9
9
9
9
9
9
9
9
9
9
9
9
9
9
9
9
9
9
9
9
9
9
9
9
9
9
9
9
9
9
9
9
9
9
9
9
9
9
9
9
9
9
9
9
9
9
9
9
9
9
9
9
9
9
9
9
9
9
9
9
9
9
9
9
9
9
9
9
9
9
9
9
9
9
9
9
9
9
9
9
9
9
9
9
9
9
9
9
9
9
9
9
9
9
9
9
9
9
9
9
9
9
9
9
9
9
9
9
9
9
9
9
9
9
9
9
9
9
9
9
9
9
9
9
9
9
9
9
9
9
9
9
9
9
9
9
9
9
9
9
9
9
9
9
9
9
9
9
9
9
9
9
9
9
9
9
9
9
9
9
9
9
9
9
9
9
9
9
9
9
9
9
9
9
9
9
9
9
9
9
9
9
9
9
9
9
9
9
9
9
9
9
9
9
9
9
9
9
9
9
9
9
9
9
9
9
9
9
9
9
9
9
9
9
9
9
9
9
9
9
9
9
9
9
9
9
9
9
9
9
9
9
9
9
9
9
9
9
9
9
9
9
9
9
9
9
9
9
9
9
9
9
9
9
9
9
9
9
9
9
9
9
9
9
9
9
9
9
9
9
9
9
9
9
9
9
9
9
9
9
9
9
9
9
9
9
9
9
9
9
9
9
9
9
9
9
9
9
9
9
9
9
9
9
9
9
9
9
9
9
9
9
9
9
9
9
9
9
9
9
9
9
9
9
9
9
9
9
9
9
9
9
9
9
9
9
9
9
9
9
9
9
9
9
9
9
9
9
9
9
9
9
9
9
9
9
9
9
9
9
9
9
9
9
9
9
9
9
9
9
9
9
9
9
9
9
9
9
9
9
9
9
9
9
9
9
9
9
9
9
9
9
9
9
9
9
9
9
9
9
9
9
9
9
9
9
9
9
9
9
9
9
9
9
9
9
9
9
9
9
9
9
9
9
9
9
9
9
9
9
9
9
9
9
9
9
9
9
9
9
9
9
9
9
9
9
9
9
9
9
9
9
9
9
9
9
9
9
9
9
9
9
9
9
9
9
9
9
9
9
9
9
9
9
9
9
9
9
9
9
9
9
9
9
9
9
9
9
9
9
9
9
9
9
9
9
9
9
9
9
9
9
9
9
9
9
9
9
9
9
9
9
9
9
9
9
9
9
9
9
9
9
9
9
9
9
9
9
9
9
9
9
9
9
9
9
9
9
9
9
9
9
9
9
9
9
9
9
9
9
9
9
9
9
9
9
9
9
9
9
9
9
9
9
9
9
9
9
9
9
9
9
9
9
9
9
9
9
9
9
9
9
9
9
9
9
9
9
9
9
9
9
9
9
9
9
9
9
9
9
9
9
9
9
9
9
9
9
9
9
9
9
9
9
9
9
9
9
9
9
9
9
POINT_DATA 861
SCALARS Disp float 2
LOOKUP_TABLE default
0.0 0.0
0.005024397120318694 -0.1805405872625467
0.006170609008199147 -0.35296647389646396
0.006918004460108286 -0.5245436196002607
0.007839991026671475 -0.6958047201305336
0.009212656787810315 -0.866446643662262
0.011473001166928445 -1.0360783851785307
0.015120359703660064 -1.2042202515403742
0.02073131926206432 -1.3702786797139688
0.028929089386780713 -1.5334916265986913
0.04034585070275964 -1.6928380236474048
0.055613695011103005 -1.846969373077079
0.07536519478289225 -1.9942069137736615
0.10022581485547698 -2.132608400695104
0.13081387336948103 -2.260026453417817
0.16767346949735348 -2.374152561171601
0.21114770768549027 -2.4725668248610364
0.26121795232921646 -2.5528211170794095
0.3173573282175634 -2.612601562694275
0.37845763760967094 -2.6499637662983697
0.44271886205692623 -2.6635676634673646
0.5069800865041783 -2.6499637662982907
0.5680803958962741 -2.612601562694113
0.624219771784601 -2.5528211170791755
0.6742900164283012 -2.4725668248607424
0.71776425461641 -2.3741525611712655
0.7546238507442543 -2.260026453417449
0.7852119092582296 -2.132608400694714
0.8100725293307856 -1.9942069137732614
0.8298240291025475 -1.846969373076682
0.8450918734108663 -1.692838023647021
0.8565086347268251 -1.5334916265983292
0.8647064048515256 -1.3702786797136335
0.8703173644099179 -1.204220251540071
0.8739647229466413 -1.0360783851782625
0.8762250673257542 -0.866446643662034
0.8775977330868908 -0.6958047201303462
0.8785197196534532 -0.5245436196001163
0.8792671151053622 -0.3529664738963617
0.8804133269932416 -0.18054058726248887
0.8854377241135571 0.0
0.04504032882317096 -0.0021398385217625796
0.04848783094811387 -0.18073277160502346
0.0491021830617128 -0.3530275817846477
0.04977018058896002 -0.5246272364408555
0.05058836359211335 -0.6959235812153903
0.05176832543972703 -0.8666869406543483
0.05372331952064401 -1.0365544480381037
0.05692678635636369 -1.205064737371617
0.06192070398689281 -1.3716387456070787
0.06927337239173335 -1.5355159272272956
0.07954763600275681 -1.695672996644414
0.09329297134536925 -1.8507611602967984
0.11106244785115975 -1.999103835420931
0.13342774205193647 -2.1387603999537763
0.16095648510584032 -2.2675782973144867
0.19415786380800745 -2.383219977089073
0.23336312692367192 -2.4832002075360635
0.2785805519172013 -2.5649672593548796
0.32936365488151126 -2.626073398829836
0.38468837637987874 -2.664421427428714
0.44271886205691646 -2.678424726111718
0.5007493477339509 -2.664421427428633
0.5560740692323075 -2.6260733988296705
0.6068571721966 -2.5649672593546398
0.6520745971901067 -2.4832002075357638
0.6912798603057464 -2.3832199770887317
0.7244812390078881 -2.2675782973141123
0.7520099820617661 -2.1387603999533797
0.7743752762625169 -1.9991038354205246
0.792144752768283 -1.8507611602963954
0.8058900881108734 -1.695672996644025
0.8161643517218784 -1.5355159272269292
0.8235170201267046 -1.3716387456067403
0.8285109377572227 -1.2050647373713117
0.831714404592935 -1.036554448037834
0.8336693986738476 -0.8666869406541196
0.8348493605214593 -0.6959235812152027
0.8356675435246123 -0.5246272364407111
0.8363355410518593 -0.3530275817845454
0.8369498931654582 -0.1807327716049653
0.8403973952903961 -0.0021398385217601974
0.08920027365801723 -0.0038222287737558333
0.09169861329406846 -0.18082544149017374
0.09205447491936429 -0.3530635464293839
0.09260076135996652 -0.5247016678857843
0.09332284300906392 -0.6960212297192725
0.09433002423520175 -0.8668776040866797
0.09598399263999728 -1.0369475738002618
0.09874476950228595 -1.2057858825161933
0.10311150596822179 -1.372824970511364
0.1096007192915236 -1.5373016924785488
0.11870883027105823 -1.6981869246839483
0.13091082812890342 -1.8541293700928623
0.14668311076159285 -2.003456887943194
0.1665286414328084 -2.144235353040548
0.19096863008179052 -2.274308613659435
0.2204735491611429 -2.391314887444451
0.2553687087162101 -2.492712678950435
0.2957058803184213 -2.575858754121593
0.34112266050835843 -2.6381813241637224
0.39067077335980754 -2.677412687339077
0.442718862056907 -2.69178264996253
0.4947669507540034 -2.6774126873389945
0.5443150636054426 -2.6381813241635537
0.5897318437953643 -2.5758587541213487
0.630069015397556 -2.4927126789501295
0.6649641749526011 -2.391314887444104
0.6944690940319308 -2.2743086136590542
0.7189090826808899 -2.1442353530401452
0.7387546133520826 -2.003456887942782
0.7545268959847504 -1.8541293700924537
0.7667288938425758 -1.6981869246835546
0.7758370048220942 -1.5373016924781788
0.782326218145383 -1.3728249705110227
0.786692954611309 -1.205785882515886
0.7894537314735911 -1.036947573799991
0.7911076998783829 -0.8668776040864505
0.7921148811045194 -0.6960212297190848
0.7928369627536165 -0.52470166788564
0.7933832491942187 -0.35306354642928167
0.7937391108195145 -0.18082544149011529
0.7962374504555609 -0.0038222287737508928
0.13289983363255745 -0.005167819649985747
0.13476779423371804 -0.1808879659995232
0.13498597191219774 -0.3530838110402947
0.13541377341957747 -0.5247630834750571
0.13603775677107138 -0.6961040584946383
0.1368940049354059 -0.8670251531256326
0.13826362606995296 -1.0372602239518023
0.14058464638407991 -1.206384968022205
0.14432043486028126 -1.3738356774191074
0.14993490319064995 -1.5388456376450623
0.15786203505154583 -1.700375947499356
0.16850568679503675 -1.857071514330393
0.18226996704023693 -2.0072642557038183
0.1995875642901958 -2.1490291519420035
0.2209176808942079 -2.28021129392102
0.24669879944630232 -2.3984296414142317
0.2772531159395281 -2.50109670511057
0.31267667489598144 -2.5854906908011364
0.352696702462306 -2.6489214095876954
0.39651015544740564 -2.6889653182064044
0.442718862056898 -2.703703819392772
0.4889275686663873 -2.6889653182063205
0.5327410216514781 -2.6489214095875235
0.5727610492177891 -2.585490690800888
0.608184608174225 -2.5010967051102604
0.6387389246674318 -2.398429641413879
0.6645200432195062 -2.2802112939206345
0.6858501598234982 -2.149029151941596
0.703167757073437 -2.007264255703401
0.7169320373186182 -1.8570715143299796
0.7275756890620921 -1.700375947498958
0.7355028209229736 -1.538845637644689
0.7411172892533306 -1.3738356774187637
0.7448530777295235 -1.2063849680218957
0.7471740980436448 -1.0372602239515303
0.748543719178189 -0.8670251531254032
0.7493999673425226 -0.6961040584944505
0.7500239506940162 -0.5247630834749126
0.7504517522013959 -0.35308381104019243
0.7506699298798757 -0.1808879659994644
0.7525378904810319 -0.005167819649978512
0.17633434994158917 -0.006249830060665983
0.17773749206273973 -0.18093832664621295
0.17788010813171154 -0.35309542476034855
0.17820687748547104 -0.5248108470280203
0.17873066688014697 -0.696174222763389
0.1794515502073657 -0.8671397953602573
0.180567926974059 -1.0374987605095314
0.18245658801207945 -1.206864179594289
0.18556442303811546 -1.3746715515136605
0.1903002275913901 -1.5401465553842841
0.1970388821356584 -1.7022386799176479
0.20611797844960963 -1.8595863867561626
0.21786896847632153 -2.0105255791208
0.232654139235771 -2.153141495359419
0.25087355921113585 -2.285283625355378
0.2729178272716024 -2.4045594212311694
0.29910541262828505 -2.50834574869709
0.32957898801690827 -2.5938547506014173
0.36417218897147013 -2.658292631291034
0.4022684266298225 -2.699099349794112
0.4427188620568891 -2.714223628895519
0.483169297483953 -2.6990993497940257
0.5212655351422972 -2.6582926312908595
0.5558587360968472 -2.593854750601165
0.5863323114854554 -2.508345748696776
0.6125198968421217 -2.4045594212308123
0.634564164902571 -2.2852836253549875
0.6527835848779184 -2.153141495359007
0.6675687556373509 -2.010525579120378
0.6793197456640464 -1.8595863867557452
0.6883988419779833 -1.7022386799172464
0.6951374965222391 -1.5401465553839082
0.6998733010755037 -1.3746715515133148
0.7029811361015325 -1.2068641795939783
0.7048697971395483 -1.0374987605092587
0.7059861739062394 -0.8671397953600276
0.7067070572334575 -0.6961742227632012
0.7072308466281332 -0.524810847027876
0.7075576159818927 -0.3530954247602464
0.7077002320508645 -0.18093832664615392
0.7091033741720114 -0.006249830060656742
0.2195930737476073 -0.007114635712778134
0.22063701161734306 -0.18098234312288994
0.22073505025890683 -0.35310321466433175
0.22097756511431024 -0.5248459645214016
0.22140016929995665 -0.6962327716790161
0.22199670037585634 -0.8672293109066334
0.22288841325225076 -1.0376747161142936
0.224377613903927 -1.2072276469825183
0.2268608432143776 -1.375335079104434
0.23072151940968486 -1.5412057012852671
0.23627196643040113 -1.7037755641749646
0.24378647823066377 -1.8616750850988426
0.2535279307515093 -2.013242486496767
0.2657872978919028 -2.156574053151174
0.2808978052077404 -2.2895273455960843
0.2992100504236214 -2.4097034775073163
0.32102220439253554 -2.514454409497383
0.3465103131959397 -2.600942276308562
0.37563512955726025 -2.6662908488491275
0.4079981101096395 -2.7078236108707174
0.44271886205688016 -2.723362582049526
0.4774396140041183 -2.70782361087063
0.5098025945564905 -2.6662908488489507
0.5389274109178008 -2.6009422763083068
0.5644155197211923 -2.5144544094970653
0.5862276736900925 -2.409703477506956
0.6045399189059587 -2.2895273455956904
0.619650426221782 -2.1565740531507585
0.6319097933621614 -2.013242486496342
0.6416512458829936 -1.8616750850984218
0.6491657576832441 -1.70377556417456
0.6547162047039499 -1.541205701284889
0.658576880899249 -1.3753350791040864
0.6610601102096936 -1.2072276469822063
0.6625493108613664 -1.03767471611402
0.6634410237377592 -0.8672293109064034
0.6640375548136584 -0.6962327716788284
0.6644601589993046 -0.5248459645212572
0.6647026738547079 -0.3531032146642296
0.6648007124962717 -0.18098234312283068
0.6658446503660045 -0.007114635712767221
0.2627238771536175 -0.007797914959300159
0.2634868806598232 -0.18102188443278602
0.2635551295132147 -0.3531096483600603
0.2637253507552709 -0.524869874346994
0.2640476168553882 -0.6962795592082114
0.26452435860592566 -0.867299231140282
0.26521506899306735 -1.0378011392729696
0.26634291910223373 -1.2074880596061253
0.26823250137171284 -1.3758308640610415
0.2712247934549491 -1.5420265677628053
0.2755953294176295 -1.7049896314365467
0.2815528365718904 -1.8633407270901854
0.2892948272970068 -2.0154190589645915
0.299042790960341 -2.1593316865552463
0.31106386499193794 -2.292946459487421
0.3256539640114291 -2.4138649299773576
0.3430925947235112 -2.5194215182957977
0.3635776801669815 -2.6067451624693954
0.38718200421017335 -2.672906163011268
0.41375337021657105 -2.7151351166475073
0.442718862056871 -2.7311285033631614
0.47168435389716873 -2.7151351166474185
0.49825571990356066 -2.672906163011089
0.5218600439467438 -2.6067451624691373
0.5423451293902037 -2.5194215182954776
0.5597837601022746 -2.413864929976994
0.5743738591217535 -2.2929464594870246
0.5863949331533391 -2.1593316865548275
0.5961428968166625 -2.0154190589641634
0.6038848875417683 -1.863340727089762
0.6098423946960194 -1.7049896314361397
0.6142129306586913 -1.542026567762425
0.6172052227419211 -1.3758308640606924
0.6190948050113959 -1.2074880596058124
0.6202226551205596 -1.037801139272696
0.6209133655077002 -0.867299231140052
0.6213901072582374 -0.6962795592080235
0.6217123733583544 -0.5248698743468495
0.6218825946004106 -0.3531096483599582
0.621950843453802 -0.18102188443272654
0.6227138469600055 -0.007797914959287861
0.3057593049394781 -0.008328046690082653
0.3063023848771549 -0.18105853881667558
0.30634670261773295 -0.3531152672202793
0.3064516419932432 -0.5248839811935399
0.3066757056960504 -0.6963137819748058
0.3070304868805566 -0.8673532640497291
0.3075431950051552 -1.037888312201467
0.30834520802140625 -1.207661913838738
0.30968651264135966 -1.3761717521756283
0.3118415579274464 -1.5426158219221402
0.31504553581273387 -1.7058864730969963
0.3194596256858223 -1.8645890023599387
0.32522031422364484 -2.017062076786257
0.33248073970030256 -2.1614223675988677
0.3414386768861827 -2.295549408681747
0.352333433315809 -2.4170500767546486
0.3654136292529108 -2.5232497444995445
0.3808853884071026 -2.611258380353079
0.3989155562372757 -2.678123483235133
0.41959638747507355 -2.721017770239461
0.4427188620568615 -2.737515989886861
0.46584133663864796 -2.721017770239371
0.48652216787644126 -2.6781234832349523
0.5045523357066075 -2.6112583803528193
0.5200240948607913 -2.5232497444992226
0.5331042907978841 -2.417050076754282
0.5439990472275014 -2.295549408681348
0.5529569844133732 -2.1614223675984467
0.560217409890023 -2.0170620767858267
0.5659780984278376 -1.8645890023595133
0.5703921883009185 -1.7058864730965877
0.5735961661861999 -1.542615821921758
0.575751211472282 -1.376171752175278
0.5770925160922324 -1.2076619138384246
0.5778945291084817 -1.0378883122011933
0.5784072372330796 -0.8673532640494992
0.5787620184175855 -0.6963137819746178
0.5789860821203927 -0.5248839811933954
0.5790910214959029 -0.3531152672201771
0.5791353392364808 -0.18105853881661607
0.5796784191741561 -0.008328046690069257
0.3487182269908785 -0.00873240979665193
0.34909788801635355 -0.18109358375128093
0.3491154554163741 -0.3531193542598903
0.3491592167348802 -0.5248893674431734
0.34928821887188355 -0.6963350295933863
0.3495168011296868 -0.8673916834022957
0.3498596410900125 -1.0379469336570397
0.3503769434127371 -1.2077668384800564
0.35122058469953676 -1.3763781204687888
0.3525901038213888 -1.5429888569116847
0.3546621411321114 -1.706476306507549
0.3575569017162263 -1.8654294870918064
0.36135900374754054 -2.018181943113526
0.36616239617962154 -2.162858161693506
0.3720953212659541 -2.297348822404621
0.3793308354175365 -2.419270091174515
0.3880776248763154 -2.5259473355397564
0.3985503311650461 -2.614481455264586
0.4109583279016565 -2.6819246248299113
0.42560360574283423 -2.725441415089927
0.44271886205685157 -2.742505232777077
0.4598341183708684 -2.7254414150898367
0.474479396212043 -2.6819246248297297
0.4868873929486484 -2.6144814552643245
0.4973600992373734 -2.5259473355394326
0.5061068886961462 -2.4192700911741465
0.5133424028477225 -2.2973488224042202
0.5192753279340497 -2.1628581616930833
0.5240787203661257 -2.0181819431130945
0.5278808223974352 -1.8654294870913792
0.5307755829815453 -1.706476306507139
0.5328476202922638 -1.5429888569113017
0.5342171394141131 -1.376378120468438
0.5350607807009109 -1.2077668384797426
0.5355780830236346 -1.037946933656766
0.5359209229839599 -0.8673916834020656
0.536149505241763 -0.6963350295931983
0.5362785073787663 -0.5248893674430289
0.5363222686972722 -0.35311935425978797
0.5363398360972926 -0.18109358375122145
0.5367194971227667 -0.008732409796637725
0.39161312239825835 -0.009039416102563619
0.39187920107467 -0.18112875688319763
0.39186683484288387 -0.3531204240885824
0.39185188663059656 -0.524886839718703
0.3918888111500209 -0.6963434604226253
0.39198971426518137 -0.8674130713330535
0.3921581885230925 -1.0379820091698908
0.3924170910274965 -1.207822726466512
0.3928220893309432 -1.37647820439904
0.39347466016519717 -1.5431734376204356
0.39447354915958294 -1.706781758243691
0.3958927159016827 -1.8658809032727723
0.39776886681623147 -2.018796353670397
0.4001484185282921 -2.163658249148378
0.40309839666150216 -2.298365106647754
0.40671799606645365 -2.420543723927132
0.4111612256065481 -2.5275288300654903
0.41664511038114177 -2.616425832584576
0.4234369333974417 -2.6842983774939673
0.43189306741732686 -2.7283605967189732
0.4427188620568415 -2.7460555105913658
0.45354465669635613 -2.7283605967188826
0.4620007907162397 -2.684298377493785
0.4687926137325364 -2.6164258325843135
0.474276498507127 -2.5275288300651657
0.4787197280472185 -2.4205437239267624
0.4823393274521671 -2.2983651066473523
0.485289305585375 -2.163658249147954
0.4876688572974337 -2.0187963536699645
0.48954500821198044 -1.8658809032723442
0.490964174954078 -1.7067817582432805
0.49196306394846206 -1.5431734376200523
0.4926156347827151 -1.376478204398689
0.49302063308616106 -1.2078227264661983
0.49327953559056464 -1.0379820091696168
0.4934480098484756 -0.8674130713328234
0.493548912963636 -0.6963434604224372
0.49358583748306034 -0.5248868397185585
0.493570889270773 -0.3531204240884801
0.4935585230389868 -0.18112875688313815
0.4938246017153978 -0.00903941610254886
0.43445988538854197 -0.009272631532351014
0.43464600230901534 -0.18116537555762238
0.43460557388061355 -0.3531174005738441
0.43453401627399135 -0.5248769222318749
0.4344817811090754 -0.6963393341388221
0.43445563578088153 -0.8674169310529615
0.4344459519167188 -1.0379930073834676
0.4344434034862967 -1.207840984510951
0.4344429861615464 -1.3765078466794183
0.43444322309922456 -1.543222342873278
0.4344434466097466 -1.7068600086126673
0.43444338758041917 -1.8659974249162263
0.43444018766298886 -2.0189561796121462
0.43443039607570405 -2.163870947506779
0.43441641943400794 -2.298645290860756
0.4344296430951962 -2.4209146304341216
0.4345710346561473 -2.528031929843216
0.43506447032341167 -2.61712595674635
0.4362609141048877 -2.6852773973369577
0.4385605426451438 -2.7297417770055326
0.44271886205683103 -2.7481056972918116
0.446877181468519 -2.729741777005441
0.44917681000877463 -2.685277397336775
0.45037325379024934 -2.617125956746087
0.45086668945751385 -2.528031929842891
0.4510080810184655 -2.420914630433752
0.45102130467965423 -2.298645290860354
0.45100732803795895 -2.1638709475063553
0.4509975364506751 -2.0189561796117137
0.45099433653324583 -1.8659974249157982
0.4509942775039192 -1.706860008612257
0.45099450101444194 -1.5432223428728944
0.4509947379521205 -1.3765078466790672
0.4509943206273705 -1.2078409845106368
0.45099177219694847 -1.0379930073831936
0.45098208833278575 -0.8674169310527312
0.45095594300459196 -0.696339334138634
0.4509037078396761 -0.5248769222317303
0.4508321502330539 -0.35311740057374175
0.4507917218046521 -0.18116537555756293
0.4509778387251252 -0.009272631532335898
0.47726963953179335 -0.00945304867790327
0.4774012156824298 -0.1812015526361488
0.47733546383688746 -0.35311048173676396
0.4772102635096632 -0.5248598344866814
0.4770716844890681 -0.6963231127180556
0.4769205864047483 -0.8674032938551712
0.4767337176146708 -1.0379793436980682
0.4764694192022505 -1.2078222121685664
0.4760637473985351 -1.3764782434811167
0.47541174538008296 -1.5431734888120947
0.47441377630187204 -1.7067819319053896
0.47299419406855064 -1.865880250405864
0.4711109274432137 -2.018793566451118
0.4687115143252315 -2.163652430683031
0.46573495465315573 -2.2983622150735483
0.4621441145369198 -2.420570467757845
0.45797717113780184 -2.5276539085046275
0.45341768942856414 -2.6167782214416055
0.4488269377668242 -2.685039434300232
0.44475610889719586 -2.729697563935588
0.44271886205682076 -2.748769439431348
0.4406816152164451 -2.7296975639354963
0.4366107863468171 -2.6850394343000494
0.4320200346850787 -2.616778221441343
0.4274605529758453 -2.5276539085043024
0.4232936095767314 -2.4205704677574755
0.4197027694604993 -2.2983622150731464
0.41672620978842706 -2.163652430682608
0.41432679667044897 -2.0187935664506864
0.4124435300451163 -1.8658802504054361
0.4110239478117985 -1.7067819319049793
0.4100259787335908 -1.5431734888117115
0.4093739767151406 -1.3764782434807656
0.4089683049114262 -1.2078222121682525
0.4087040064990065 -1.0379793436977942
0.40851713770892933 -0.8674032938549411
0.4083660396246099 -0.6963231127178676
0.4082274606040148 -0.5248598344865366
0.40810226027679064 -0.3531104817366616
0.4080365084312483 -0.18120155263608934
0.4081680845818846 -0.009453048677887967
0.5200576657694937 -0.009592061410439025
0.5201494543910404 -0.18123531628923237
0.5200608447407189 -0.35309997467870624
0.5198852640639726 -0.5248358932108099
0.5196636875039305 -0.6962953914052259
0.5193906633906912 -0.8673724727298864
0.5190308505947804 -1.037941650574405
0.5185089861692559 -1.2077658026546754
0.5176649314810965 -1.376378226225508
0.5162966366121556 -1.5429891350562268
0.5142253755584006 -1.7064765015325667
0.5113295360847651 -1.8654279226430672
0.5075210603133702 -2.0181759254445426
0.5027004802708733 -2.1628461382366453
0.49674414867577316 -2.297342917568337
0.48953465297813686 -2.4193242987372776
0.4810393901694645 -2.5261966105018807
0.4713977700037893 -2.6151720104952223
0.46100236511106396 -2.683402635205961
0.4508012832264586 -2.7283250825433223
0.4427188620568107 -2.7482078012881708
0.43463644088716225 -2.728325082543231
0.42443535900255824 -2.683402635205779
0.41403995410983696 -2.615172010494961
0.4043983339441683 -2.5261966105015574
0.39590307113550366 -2.4193242987369095
0.3886935754378744 -2.2973429175679363
0.3827372438427805 -2.162846138236224
0.377916663800291 -2.0181759254441123
0.37410818802890305 -1.8654279226426405
0.371212348555274 -1.706476501532158
0.3691410875015247 -1.5429891350558442
0.3677727926325876 -1.3763782262251574
0.36692873794443037 -1.2077658026543614
0.36640687351890694 -1.0379416505741312
0.3660470607229969 -0.8673724727296561
0.3657740366097579 -0.6962953914050378
0.36555246004971603 -0.5248358932106651
0.36537687937296986 -0.35309997467860377
0.3652882697226483 -0.18123531628917294
0.365380058344195 -0.009592061410423536
0.5628379731183492 -0.00969584768897295
0.5628963556455108 -0.18126509232491222
0.5627865538736787 -0.3530860592407325
0.5625638028603922 -0.5248055309524968
0.5622629348525967 -0.6962568022869269
0.5618726294510725 -0.8673255702708411
0.5613456614109492 -1.0378802379578915
0.5605394027193393 -1.2076604019038235
0.5591992780932539 -1.376172155316043
0.5570457012594472 -1.542616378849713
0.553841871062932 -1.705886516747395
0.5494261950966858 -1.8645865474887826
0.5436613304774903 -2.0170535880120983
0.5363913557206894 -2.1614056813233273
0.5274203511040226 -2.2955412670321533
0.5165459091075278 -2.4171268011246654
0.5036488208594685 -2.523602361956077
0.48882652450662173 -2.612240891421209
0.472617018103525 -2.680317534988641
0.45633214399458627 -2.7254798217724114
0.4427188620568006 -2.7464415362235486
0.42910558011901556 -2.7254798217723204
0.41282070601007903 -2.68031753498846
0.3966111996069883 -2.6122408914209494
0.3817889032541507 -2.523602361955756
0.3688918150061019 -2.4171268011242995
0.35801737300961717 -2.295541267031754
0.34904636839295966 -2.161405681322908
0.34177639363616896 -2.01705358801167
0.3360115290169834 -1.864586547488358
0.33159585305074635 -1.7058865167469879
0.3283920228542393 -1.5426163788493317
0.3262384460204382 -1.3761721553156934
0.32489832139435626 -1.20766040190351
0.3240920627027484 -1.037880237957618
0.32356509466262595 -0.8673255702706111
0.3231747892611023 -0.6962568022867387
0.322873921253307 -0.5248055309523522
0.3226511702400207 -0.35308605924063
0.32254136846818865 -0.1812650923248528
0.3225997509953503 -0.009695847688957341
0.6056191727061702 -0.009769767280346356
0.6056481132641135 -0.18128951918068417
0.6055175777663717 -0.3530687694885707
0.6052504613044739 -0.5247691990344576
0.6048738375526731 -0.6962082208011433
0.6043736248582396 -0.8672639281197291
0.6036705692290226 -1.0377901004555967
0.6025415815753555 -1.207486525080471
0.6006540867844717 -1.3758317921930543
0.5976629036618861 -1.542027279090259
0.5932916254766947 -1.704989315886923
0.5873323443460801 -1.8633375520690239
0.5795895253472663 -2.0154095800646097
0.5698441829837356 -2.159313740312562
0.5578288059391437 -2.292938495261265
0.5432528258391394 -2.413955088111657
0.5259005375791147 -2.5198411902469973
0.505854265066376 -2.6079631007387447
0.48382377546088995 -2.6757721894406803
0.46159547664789086 -2.721214937546997
0.4427188620567908 -2.7435284350214624
0.42384224746569205 -2.721214937546907
0.40161394865269684 -2.6757721894405
0.3795834590472185 -2.6079631007384867
0.3595371865344912 -2.5198411902466793
0.3421848982744796 -2.413955088111294
0.32760891817448823 -2.2929384952608682
0.3155935411299089 -2.1593137403121454
0.305848198766391 -2.0154095800641842
0.29810537976758994 -1.8633375520686017
0.29214609863698715 -1.7049893158865181
0.2877748204518061 -1.5420272790898792
0.2847836373292278 -1.3758317921927057
0.2828961425383491 -1.207486525080158
0.28176715488468485 -1.0377901004553234
0.2810640992554692 -0.867263928119499
0.2805638865610363 -0.6962082208009552
0.2801872628092359 -0.524769199034313
0.2799201463473383 -0.35306876948846827
0.27978961084959675 -0.18128951918062472
0.27981855140754003 -0.009769767280330644
0.6484072769265126 -0.009818823948762174
0.648410284636921 -0.18130767053633204
0.6482591393089429 -0.3530480162556607
0.6479500647770683 -0.524727321268057
0.647502361308152 -0.6961508785576204
0.6468956746428015 -0.8671875748126088
0.6459963804576824 -1.0376613590708716
0.6445077691307589 -1.20722660982284
0.6420268470968398 -1.3753365258882686
0.6381663787563399 -1.5412063513080185
0.6326144868629047 -1.7037747438336637
0.6250983709694027 -1.8616714854401455
0.6153602178365718 -2.0132339377239195
0.6031177292867496 -2.15655958353445
0.5880367099051923 -2.2895236748583696
0.5697389589223695 -2.409797073537457
0.5479275367601525 -2.5149026004464208
0.5226721808797047 -2.602332223169023
0.4948679677540767 -2.6697772981440697
0.46679874956197664 -2.7155650724548503
0.44271886205678135 -2.7394862881433095
0.41863897455158755 -2.7155650724547606
0.3905697563594931 -2.669777298143891
0.36276554323387483 -2.6023322231687676
0.33751018735344057 -2.5149026004461064
0.3156987651912388 -2.4097970735370975
0.2974010142084316 -2.2895236748579766
0.2823199948268901 -2.1565595835340368
0.2700775062770835 -2.013233937723497
0.26033935314426815 -1.861671485439727
0.2528232372507804 -1.7037747438332613
0.2472713453573575 -1.5412063513076413
0.24341087701686717 -1.3753365258879215
0.2409299549829547 -1.207226609822528
0.23944134365603514 -1.0376613590705988
0.23854204947091776 -0.8671875748123787
0.23793536280556798 -0.6961508785574323
0.2374876593366521 -0.5247273212679123
0.2371785848047777 -0.35304801625555826
0.23702743947679988 -0.18130767053627259
0.23703044718720828 -0.009818823948746398
0.6912065928705582 -0.009847881968429907
0.691187602679729 -0.18131909998367615
0.6910164400204657 -0.3530236634293665
0.6906675407872741 -0.5246803926470976
0.6901525794600837 -0.6960857344407649
0.6894349465364163 -0.8670929933762848
0.6883176473650225 -1.037484069421132
0.6864310085597631 -1.2068638521217392
0.6833242171379137 -1.3746732727863291
0.6785875937821991 -1.5401469299899935
0.671847041457475 -1.7022373038053429
0.662767255261073 -1.8595828247319122
0.6510241934429924 -2.010519971534399
0.636268615454527 -2.153135312489328
0.6181015111841747 -2.2852896935341307
0.5960894777502872 -2.404651801890581
0.5698638692848025 -2.5087921069425874
0.539472570234691 -2.5953584387074295
0.5059766461154964 -2.6623473116690146
0.4720905041848902 -2.708534104313937
0.4427188620567719 -2.7342942426166696
0.41334721992865564 -2.7085341043138484
0.37946107799805645 -2.6623473116688383
0.34596515387887383 -2.5953584387071773
0.31557385482877787 -2.5087921069422765
0.2893482463633107 -2.404651801890225
0.2673362129294419 -2.285289693533742
0.24916910865910794 -2.153135312488918
0.23441353067066095 -2.010519971533981
0.22267046885259872 -1.8595828247314974
0.2135906826562134 -1.702237303804944
0.20685013033150357 -1.540146929989619
0.20211350697580024 -1.3746732727859838
0.19900671555395905 -1.2068638521214288
0.1971200767487047 -1.0374840694208598
0.19600277757731333 -0.8670929933760549
0.19528514465364688 -0.696085734440577
0.19477018332645685 -0.524680392646953
0.19442128409326562 -0.35302366342926406
0.1942501214340024 -0.18131909998361673
0.19423113124317318 -0.009847881968414109
0.7340199144436361 -0.009861820940754213
0.7339839438224773 -0.1813238255958557
0.7337946800685863 -0.3529956880269362
0.7334080163774144 -0.5246288561448899
0.7328276284348053 -0.6960132440619623
0.731989414907213 -0.8669758121868455
0.7306256507733202 -1.037245535379859
0.7283056386448311 -1.2063849846120247
0.7245688906834021 -1.373837305411207
0.7189525659974558 -1.5388455679152757
0.7110235134119102 -1.7003741074237058
0.7003808916982897 -1.8570686581902616
0.6866293224573166 -2.0072633804174136
0.6693500308689727 -2.1490348240868165
0.6480887868568739 -2.280233071883399
0.6223755481166928 -2.39852618950322
0.5918260882789461 -2.501531630822835
0.5564529864820874 -2.587069057874751
0.5173711937445324 -2.653492106570863
0.47760915808438015 -2.7000958086550573
0.44271886205676264 -2.727898122218397
0.40782856602914724 -2.7000958086549693
0.3680665303690035 -2.65349210657069
0.3289847376314624 -2.587069057874502
0.29361163583462163 -2.501531630822529
0.2630621759968949 -2.3985261895028693
0.2373489372567352 -2.280233071883015
0.2160876932446577 -2.1490348240864114
0.19880840165633504 -2.007263380417
0.18505683241538287 -1.8570686581898512
0.17441421070178179 -1.7003741074233112
0.16648515811625217 -1.5388455679149047
0.16086883343031882 -1.3738373054108641
0.15713208546889953 -1.2063849846117158
0.1548120733404165 -1.0372455353795875
0.15344830920652697 -0.8669758121866159
0.15261009567893594 -0.6960132440617743
0.1520297077363273 -0.5246288561447453
0.15164304404515572 -0.35299568802683384
0.15145378029126474 -0.18132382559579627
0.1514178096701061 -0.009861820940738397
0.7768483076305016 -0.009865610395745954
0.7768022592825019 -0.18132239810724696
0.7765993748765342 -0.35296426816220694
0.7761767989849431 -0.5245732246808843
0.7755294882834283 -0.6959321615393111
0.7745546394937177 -0.8668293976108649
0.7729104714633133 -1.0369334076193635
0.7701482382864598 -1.2057855292872641
0.7657781375557406 -1.372826105438009
0.7592862707074044 -1.5373010794986368
0.7501766180811269 -1.698184861125614
0.7379780058459304 -1.854128045737079
0.7222228802055431 -2.0034621399085775
0.7024204200854812 -2.144254783152597
0.678058321776129 -2.274351165122088
0.6486639672190415 -2.3914308364345547
0.6139019056026118 -2.493159981267901
0.5737880899479154 -2.5775115896351113
0.5292857751837652 -2.643219875184115
0.4835348464420364 -2.690193533728363
0.442718862056753 -2.7202023435306444
0.40190287767147226 -2.6901935337282765
0.3561519489297536 -2.6432198751839446
0.3116496341656195 -2.577511589634866
0.2715358185109435 -2.4931599812675995
0.23677375689453664 -2.391430836434209
0.207379402337473 -2.274351165121709
0.1830173040281448 -2.144254783152197
0.16321484390810706 -2.00346213990817
0.14745971826774334 -1.8541280457366738
0.13526110603256855 -1.698184861125224
0.126151453406309 -1.5373010794982696
0.11965958655798725 -1.3728261054376694
0.11528948582727908 -1.2057855292869573
0.11252725265043269 -1.036933407619093
0.1108830846200325 -0.8668293976106356
0.10990823583032347 -0.6959321615391233
0.10926092512880917 -0.5245732246807397
0.1088383492372185 -0.3529642681621045
0.10863546483125089 -0.18132239810718753
0.10858941648325118 -0.00986561039573013
0.8196904529623201 -0.009864303418286379
0.8196444951044934 -0.1813160869591168
0.8194368769390549 -0.3529300246181706
0.8189795893995822 -0.5245135236154552
0.818258080865481 -0.6958403448189837
0.8171214506374226 -0.8666429816771047
0.815176980337513 -1.0365405334801117
0.81196835134227 -1.2050631706572985
0.8069690990360158 -1.3716390376741785
0.7996131744069327 -1.5355147362785284
0.7893380234187778 -1.6956710563205843
0.7755986588224961 -1.8507622403403654
0.7578501423630591 -1.9991162087165473
0.7355302993955054 -2.1387943032601506
0.7080847202562153 -2.2676453790940077
0.675035999153381 -2.3833754209398696
0.6361332114038173 -2.4837154068929004
0.5915332737198289 -2.5667684749456097
0.54205201653038 -2.6315646081100876
0.4901691629628464 -2.6787289883211938
0.44271886205674316 -2.7110433806912972
0.39526856115064346 -2.67872898832111
0.3433857075831212 -2.631564608109921
0.2939044503936905 -2.5667684749453703
0.24930451270972556 -2.483715406892604
0.21040172496018755 -2.383375420939531
0.17735300385737982 -2.2676453790936346
0.14990742471811647 -2.1387943032597567
0.12758758175058985 -1.9991162087161463
0.10983906529117908 -1.850762240339966
0.09609970069492131 -1.6956710563201989
0.0858245497067862 -1.535514736278165
0.07846862507771914 -1.3716390376738419
0.07346937277147715 -1.2050631706569943
0.0702607437762423 -1.0365405334798423
0.06831627347633766 -0.8666429816768761
0.06717964324828132 -0.6958403448187961
0.06645813471418081 -0.5245135236153107
0.06600084717470847 -0.3529300246180682
0.06579322900927011 -0.1813160869590574
0.06574727115144349 -0.009864303418270546
0.8625413012137475 -0.009862860151591425
0.8625115466280219 -0.18130740311437624
0.8623154156462395 -0.35289415458679185
0.8618224540373729 -0.5244489887161852
0.8610095787304813 -0.6957321940012662
0.8596859188639621 -0.8664091330982401
0.8574320111766461 -1.0360635061809365
0.8537764380388378 -1.2042169283649131
0.8481586921905426 -1.3702778344179252
0.8399571553001105 -1.5334898624351996
0.8285403097006471 -1.692836587374943
0.8132807321320142 -1.8469736473865304
0.7935533048320359 -1.9942271474917184
0.7687404343536278 -2.1326571865286312
0.7382426374071096 -2.260121711913921
0.701580426960016 -2.3743684329723784
0.6585797637988325 -2.4732189901809036
0.6096000315697048 -2.5549175935057122
0.5557012147556198 -2.6186954384683396
0.4986002146249728 -2.6656011215118864
0.44271886205673305 -2.6999999999999984
0.38683750948849727 -2.6656011215118047
0.32973650935786286 -2.6186954384681767
0.2758376925437989 -2.554917593505478
0.22685796031469782 -2.473218990180614
0.18385729715354318 -2.374368432972045
0.1471950867064785 -2.2601217119135555
0.11669728975999043 -2.132657186528245
0.09188441928161228 -1.9942271474913238
0.0721569919816624 -1.8469736473861376
0.05689741441305594 -1.6928365873745632
0.045480568813614106 -1.5334898624348405
0.03727903192319937 -1.370277834417592
0.03166128607491752 -1.2042169283646114
0.0280057129371183 -1.0360635061806687
0.02575180524980824 -0.8664091330980122
0.02442814538329148 -0.6957321940010789
0.023615270076400702 -0.5244489887160406
0.023122308467534575 -0.35289415458668943
0.022926177485752472 -0.1813074031143168
0.022896422900026827 -0.009862860151575593
SCALARS Stress float 6
LOOKUP_TABLE default
-1103.4142260747367 -1893.6971321803899 -1421.5848501594005 -16.529400158998982 0.0 0.0
1255.7878826887227 729.7717159606639 910.1493190913609 -23.954997435144083 0.0 0.0
553.1962983976999 117.21503112272411 207.5538169291853 -37.606212695793545 0.0 0.0
460.4394779114175 19.148305415628812 145.6917752439911 -2.947716797986875 0.0 0.0
571.2200657898765 57.30624937169656 211.32596536865654 0.8137511230295766 0.0 0.0
666.2993551302279 94.48988918690148 308.3571329125059 1.2960793994379656 0.0 0.0
772.9166965783081 128.6668247995654 410.41650316285336 0.6505200075359161 0.0 0.0
878.1925942322662 178.26379715048017 507.5632618635154 -0.3911979851957237 0.0 0.0
989.1958795047054 239.72112542154363 601.2095814748816 -1.6778948249706271 0.0 0.0
1113.5903908236505 318.9161941683619 705.0724224207981 -3.0737316731137434 0.0 0.0
1256.09537436531 419.79001298474236 827.1281428059498 -4.46364211475329 0.0 0.0
1416.7236521733512 542.7349258347813 968.6953734781416 -5.684604738952078 0.0 0.0
1591.2885643056338 681.6908327099579 1124.9872693717562 -6.460648375214516 0.0 0.0
1774.1116480999508 830.8453069235172 1290.470868235219 -7.098954930449954 0.0 0.0
1956.903958562469 981.8255730838321 1456.8351361777998 -7.546958903753007 0.0 0.0
2130.5983393748493 1125.8014048309512 1615.167115937329 -7.7733894315488765 0.0 0.0
2286.4700169328653 1254.758557436478 1757.1598204086322 -7.6394971495021915 0.0 0.0
2415.4909270331523 1360.5341303164682 1874.2763978476758 -7.0047137503689445 0.0 0.0
2513.3277721494796 1439.7068365296807 1962.5880137984934 -5.877151339215511 0.0 0.0
2568.8490839268866 1482.2506386886143 2011.5532752632298 -6.052519726122559 0.0 0.0
2562.756071638605 1473.83973515207 2004.6215305109165 -2.8885338565487473e-11 0.0 0.0
2568.849083928135 1482.250638689907 2011.5532752640538 6.052519726158538 0.0 0.0
2513.327772148785 1439.7068365290293 1962.5880137979627 5.877151339216525 0.0 0.0
2415.4909270321905 1360.5341303155917 1874.2763978467935 7.004713750385287 0.0 0.0
2286.470016931697 1254.7585574354116 1757.159820407434 7.639497149506383 0.0 0.0
2130.5983393735187 1125.8014048297314 1615.1671159362274 7.77338943159706 0.0 0.0
1956.9039585613689 981.8255730828679 1456.8351361768919 7.546958903638039 0.0 0.0
1774.1116480983612 830.8453069221011 1290.4708682339433 7.098954930503789 0.0 0.0
1591.2885643035875 681.6908327080695 1124.987269370155 6.460648375174875 0.0 0.0
1416.7236521721754 542.7349258338164 968.6953734771687 5.684604738959013 0.0 0.0
1256.0953743643743 419.7900129840448 827.128142805118 4.463642114817683 0.0 0.0
1113.5903908229302 318.9161941678807 705.0724224201686 3.0737316730813706 0.0 0.0
989.1958795041193 239.7211254212028 601.2095814743607 1.6778948250641932 0.0 0.0
878.1925942315158 178.26379714998194 507.5632618629039 0.3911979851465759 0.0 0.0
772.9166965778345 128.66682479936787 410.4165031623553 -0.6505200076164144 0.0 0.0
666.2993551298252 94.48988918678828 308.35713291206423 -1.2960793994105124 0.0 0.0
571.2200657893761 57.30624937142855 211.3259653683043 -0.8137511230959547 0.0 0.0
460.43947791128625 19.148305415870524 145.6917752440108 2.9477167981069243 0.0 0.0
553.1962983974539 117.21503112260706 207.5538169290392 37.60621269578082 0.0 0.0
1255.7878826884648 729.7717159604347 910.1493190909207 23.954997435138367 0.0 0.0
-1103.4142260719987 -1893.6971321777505 -1421.5848501567468 16.52940015819608 0.0 0.0
-1405.956227179962 -2166.085239587403 -1674.152811443577 -16.294226318680835 0.0 0.0
852.3375384395274 406.4627438695382 567.7230477120181 -34.06514934386408 0.0 0.0
383.97322312488836 47.061374935291774 127.75259516878829 -31.10875192185224 0.0 0.0
408.0465026074184 2.2568035238428017 123.4388115601197 -16.327980043842153 0.0 0.0
509.1055478586441 24.850046157164833 173.61096586646764 -15.323001796650148 0.0 0.0
600.3883765810992 33.998024263441955 247.55999344269068 -19.530897985837512 0.0 0.0
676.5343300767566 46.83182117938805 327.70036731380145 -21.764810572172948 0.0 0.0
750.8039427825785 63.61277767932746 394.87113139642537 -22.506507321641905 0.0 0.0
820.3916690565394 82.9284840973475 447.569125464403 -22.82840565124591 0.0 0.0
889.0408744791694 106.53678516625241 496.0901506253934 -23.17429493973792 0.0 0.0
958.7669505284084 135.2687454684878 545.9610586668933 -23.27527781095447 0.0 0.0
1030.043709704945 168.39411847431876 598.3270376143514 -23.101527522124904 0.0 0.0
1101.431480456119 205.36126590531234 652.503521412145 -22.59993217075579 0.0 0.0
1170.469649672538 241.09566389624564 704.8271069971477 -21.989809878891688 0.0 0.0
1231.037132808633 270.2619475581156 749.6264131338256 -21.338966564183742 0.0 0.0
1278.1913220349918 288.0874240690131 782.0567079137282 -20.4435377089898 0.0 0.0
1308.6198382834325 291.82553671368424 799.0994697516951 -19.052376442364515 0.0 0.0
1322.4640484482943 282.45009112934923 801.3232286144644 -17.010065864819573 0.0 0.0
1319.0260205716193 260.31695976391427 788.6436352192874 -14.482885073657913 0.0 0.0
1277.4589976839845 205.93698218934807 741.3059029865002 -12.907284514962699 0.0 0.0
1203.3592485357044 129.9186202164708 667.3629896306057 3.0947688856031164e-11 0.0 0.0
1277.458997683682 205.93698218904098 741.3059029863117 12.907284514939665 0.0 0.0
1319.0260205712023 260.31695976355047 788.6436352188904 14.482885073596858 0.0 0.0
1322.4640484477789 282.4500911289036 801.3232286141259 17.010065864834374 0.0 0.0
1308.6198382831114 291.8255367134585 799.0994697513872 19.052376442330534 0.0 0.0
1278.1913220346653 288.08742406879594 782.0567079134822 20.44353770897989 0.0 0.0
1231.0371328084268 270.261947558069 749.6264131336438 21.33896656415306 0.0 0.0
1170.4696496720233 241.0956638958798 704.8271069967833 21.989809878918262 0.0 0.0
1101.431480455675 205.36126590506018 652.503521411817 22.599932170683033 0.0 0.0
1030.04370970465 168.39411847424142 598.3270376141542 23.101527522178728 0.0 0.0
958.7669505280627 135.26874546838022 545.9610586665907 23.27527781102868 0.0 0.0
889.0408744787709 106.53678516608211 496.0901506251168 23.174294939725254 0.0 0.0
820.3916690561091 82.92848409717146 447.5691254640573 22.828405651265783 0.0 0.0
750.8039427820165 63.61277767902334 394.8711313960059 22.50650732166361 0.0 0.0
676.5343300762523 46.83182117912072 327.7003673133344 21.764810572111198 0.0 0.0
600.3883765807923 33.99802426344504 247.55999344237034 19.53089798580176 0.0 0.0
509.10554785817 24.850046156968308 173.61096586618206 15.323001796628898 0.0 0.0
408.0465026071522 2.2568035237784705 123.43881156003384 16.327980043893717 0.0 0.0
383.9732231247521 47.06137493522448 127.75259516873365 31.108751921851493 0.0 0.0
852.3375384389649 406.46274386905145 567.7230477113826 34.065149343854245 0.0 0.0
-1405.9562271780158 -2166.0852395853854 -1674.1528114415075 16.294226318051994 0.0 0.0
-1160.0538175992651 -1885.891526460026 -1401.0829314345515 -54.887729652961866 0.0 0.0
656.2076990394831 315.10495423767105 424.577148815367 -100.70334575050649 0.0 0.0
271.167979116285 54.42395685917619 97.67746609349656 -32.79525043143391 0.0 0.0
348.9002602797412 -0.25865692578322785 104.47086720445844 -36.93596546888576 0.0 0.0
463.77631805398585 16.383994396776615 149.43578645149915 -37.562951462831556 0.0 0.0
568.1776094699256 29.903205014838846 219.60652663762613 -38.27446539751074 0.0 0.0
647.9393661100194 43.87239435216371 302.96424721944624 -40.98533595780534 0.0 0.0
723.8317630190718 57.08619168083101 373.2012489704708 -42.310694663297575 0.0 0.0
791.8696689614399 73.83392708195792 426.9354921590385 -43.13952685540074 0.0 0.0
857.2830148732995 93.70231381391494 473.0663161685615 -43.774204993522766 0.0 0.0
923.1371986093661 118.81334693815026 519.4903404598449 -43.805155843260565 0.0 0.0
990.352452039106 149.17484762489838 568.512922932566 -43.11096339884686 0.0 0.0
1058.5917895545447 182.277038560322 619.2137796069666 -42.07326971344981 0.0 0.0
1123.418491411725 215.13227857743044 668.0188345652914 -40.88350668189447 0.0 0.0
1181.0896556819212 241.83691848978273 710.1492397043738 -39.58744860584034 0.0 0.0
1226.5357018048144 258.3060819100744 741.0465498999714 -37.885799929152235 0.0 0.0
1257.5037320605525 262.7484257362322 758.7108792371786 -35.36321086549115 0.0 0.0
1272.0163254066688 254.00197443120362 761.6229546116955 -31.880465292494105 0.0 0.0
1263.1398635369296 226.3024094632965 743.5889832181144 -27.717865126379586 0.0 0.0
1237.687638863808 188.08996933025009 712.1214154244691 -23.167869855148922 0.0 0.0
1146.1350615919373 94.99835850433996 621.2442486415637 -3.9745096103160904e-11 0.0 0.0
1237.687638862643 188.08996932913453 712.1214154236737 23.167869855123982 0.0 0.0
1263.139863537319 226.3024094637343 743.5889832182784 27.717865126480177 0.0 0.0
1272.016325406499 254.00197443114354 761.6229546116149 31.880465292638874 0.0 0.0
1257.503732059426 262.7484257351628 758.7108792364193 35.36321086550666 0.0 0.0
1226.5357018050847 258.3060819104754 741.0465499002157 37.88579992916644 0.0 0.0
1181.0896556816347 241.83691848965435 710.1492397039926 39.58744860594608 0.0 0.0
1123.418491411229 215.13227857709808 668.0188345649624 40.88350668196655 0.0 0.0
1058.591789554928 182.27703856091006 619.2137796072194 42.073269713535055 0.0 0.0
990.3524520392674 149.17484762526732 568.5129229326735 43.11096339887133 0.0 0.0
923.1371986092435 118.81334693825815 519.4903404597188 43.80515584326119 0.0 0.0
857.2830148728821 93.7023138137464 473.0663161682914 43.77420499356748 0.0 0.0
791.8696689607369 73.83392708146616 426.93549215852124 43.139526855320625 0.0 0.0
723.8317630190741 57.08619168116188 373.20124897038454 42.310694663354404 0.0 0.0
647.9393661091964 43.872394351576204 302.9642472187713 40.985335957758956 0.0 0.0
568.1776094693921 29.903205014552647 219.60652663718935 38.27446539742558 0.0 0.0
463.77631805361904 16.383994396788815 149.4357864513599 37.56295146284829 0.0 0.0
348.90026027962324 -0.2586569257637794 104.47086720442809 36.9359654688629 0.0 0.0
271.16797911621865 54.42395685903436 97.67746609343425 32.79525043143123 0.0 0.0
656.2076990388653 315.10495423731265 424.57714881477546 100.70334575042651 0.0 0.0
-1160.0538175973343 -1885.8915264579973 -1401.0829314324778 54.887729652681145 0.0 0.0
-940.4312690062554 -1635.612741333916 -1158.0084554844182 -68.37684306278885 0.0 0.0
495.8920253382683 220.20915750972296 305.5223518291135 -144.3534686111853 0.0 0.0
199.00549660770974 50.256937046550846 74.77873009627817 -55.056214052398786 0.0 0.0
290.9951337592396 4.7128687512109515 88.7096786956113 -57.293966136881 0.0 0.0
408.8356621758891 8.029246379524135 125.79717854600128 -61.64520616504031 0.0 0.0
522.23649014028 24.622436714285477 188.83120100262147 -58.7545516345378 0.0 0.0
617.2548627968746 38.48846797717547 272.9408014740533 -61.63367730360101 0.0 0.0
691.8291605346931 50.77754430413909 347.1560938762168 -62.44171436203122 0.0 0.0
759.3309035148108 64.8663766326234 403.2607182181674 -63.25748873453088 0.0 0.0
821.8916404759665 81.39513629446581 448.05607843164177 -63.81029258946203 0.0 0.0
883.5996716420025 102.70978564977626 491.04221120144064 -63.52056019362779 0.0 0.0
947.0185883495645 129.08335187401042 536.3138944570702 -62.388367805356296 0.0 0.0
1011.1362792959092 159.59097428032115 583.7182368824755 -60.776811472141844 0.0 0.0
1072.5337046873994 188.2162341606369 628.7154227055494 -59.18579363509032 0.0 0.0
1126.8074861200068 212.32127352716589 667.8639730600553 -57.34254423245499 0.0 0.0
1171.4213602815853 228.61747951237933 698.2735967362122 -54.87522403626583 0.0 0.0
1203.1745860310193 233.67685749511253 716.6463458862578 -51.48450700082345 0.0 0.0
1217.8303636269354 224.8077153240629 719.6122982232757 -46.99199284588791 0.0 0.0
1212.4859363675107 200.2665503456143 704.9050396472179 -41.139593863405395 0.0 0.0
1195.6436907637726 169.98034849219414 681.5695697788118 -32.47961330948532 0.0 0.0
1066.0359647104929 38.912749860831454 553.4872148192883 2.4027002609727788e-11 0.0 0.0
1195.643690763783 169.98034849225124 681.5695697787492 32.47961330954903 0.0 0.0
1212.4859363686421 200.2665503468242 704.9050396480789 41.13959386352162 0.0 0.0
1217.8303636271796 224.80771532435972 719.6122982234568 46.99199284596353 0.0 0.0
1203.174586030342 233.6768574945625 716.6463458857761 51.48450700083496 0.0 0.0
1171.421360281494 228.61747951240426 698.2735967362244 54.875224036314336 0.0 0.0
1126.807486120208 212.32127352753724 667.8639730600983 57.34254423259262 0.0 0.0
1072.5337046868651 188.21623416028365 628.7154227051924 59.18579363515003 0.0 0.0
1011.1362792958074 159.59097428039325 583.7182368824066 60.77681147221455 0.0 0.0
947.0185883495285 129.08335187417066 536.313894457041 62.388367805329764 0.0 0.0
883.5996716416811 102.70978564965844 491.0422112012444 63.52056019360815 0.0 0.0
821.8916404754278 81.39513629414594 448.05607843126165 63.810292589411745 0.0 0.0
759.3309035139586 64.86637663198499 403.2607182175827 63.25748873445239 0.0 0.0
691.8291605346816 50.77754430444703 347.15609387611005 62.4417143620694 0.0 0.0
617.2548627959842 38.48846797647238 272.9408014733303 61.63367730348035 0.0 0.0
522.2364901397772 24.62243671404471 188.8312010022548 58.75455163438795 0.0 0.0
408.83566217554215 8.02924637955681 125.7971785459066 61.64520616498953 0.0 0.0
290.99513375925306 4.712868751368887 88.70967869566053 57.29396613673265 0.0 0.0
199.00549660767817 50.256937046414514 74.7787300962278 55.056214052253154 0.0 0.0
495.89202533776785 220.2091575095028 305.52235182864376 144.35346861102175 0.0 0.0
-940.4312690045477 -1635.6127413320794 -1158.0084554825446 68.37684306260586 0.0 0.0
-750.6860141154353 -1417.5083373080004 -944.9181541193082 -68.30194439326621 0.0 0.0
377.8463562797465 138.2597306334761 214.0499734963375 -174.42844392195818 0.0 0.0
146.7718495516468 41.5795574594258 56.50542210332178 -84.25067259335599 0.0 0.0
238.42719354456023 11.108157816814648 74.86125054943811 -79.19377363422566 0.0 0.0
346.05556520073196 5.07687063752162 105.00505440115543 -85.35267569159598 0.0 0.0
469.2616752695931 12.886377350049743 155.7450535736197 -84.72588295874714 0.0 0.0
574.0068034513199 31.543860963324306 236.36755730311359 -82.45223475460173 0.0 0.0
653.9681389439095 45.64140800893488 316.50309229802144 -82.88190034176714 0.0 0.0
721.797654261597 56.38135203174472 375.5915174590035 -83.18807863936262 0.0 0.0
781.8541011919529 69.42123910244865 420.10249515767913 -83.24915574720923 0.0 0.0
840.0756985159026 86.70606469448941 460.27083415576067 -82.48389212561403 0.0 0.0
899.1665319194294 109.04032014532656 501.6701897257507 -80.8403361841002 0.0 0.0
959.3217262887352 135.19390275181064 545.0078799390146 -78.8539472553676 0.0 0.0
1016.7905626948336 161.76054279241035 587.0650808440096 -76.82953809000861 0.0 0.0
1068.3059580118227 182.95130089974612 623.418575820897 -74.53009337536773 0.0 0.0
1111.2017881913455 197.1734316717683 651.9429331443739 -71.5025753127956 0.0 0.0
1143.8832720608552 203.60322931805618 671.4779974042607 -67.45136635645208 0.0 0.0
1162.0530482658078 197.93225771413222 677.7861399463417 -62.21614364104569 0.0 0.0
1161.8346946995396 177.6997456745122 667.7665391156855 -54.62945804204426 0.0 0.0
1148.7803011952994 149.72038167451493 647.4383347356434 -42.12021570796876 0.0 0.0
971.7521602044217 -28.718023135760717 473.10350487611686 1.1547918177257088e-10 0.0 0.0
1148.780301194875 149.72038167411793 647.4383347353734 42.1202157081643 0.0 0.0
1161.8346947005768 177.69974567563324 667.7665391163828 54.62945804216575 0.0 0.0
1162.0530482655595 197.93225771394378 677.7861399462533 62.21614364110308 0.0 0.0
1143.8832720612677 203.60322931862135 671.4779974045081 67.45136635656789 0.0 0.0
1111.2017881900167 197.1734316705074 651.942933143556 71.50257531279361 0.0 0.0
1068.3059580121478 182.95130090018648 623.418575821146 74.53009337537996 0.0 0.0
1016.7905626949215 161.76054279268521 587.0650808440287 76.82953809005235 0.0 0.0
959.3217262876387 135.19390275079303 545.0078799382466 78.8539472552307 0.0 0.0
899.1665319187832 109.0403201448791 501.67018972531275 80.84033618410211 0.0 0.0
840.0756985155981 86.70606469441518 460.2708341555086 82.48389212563217 0.0 0.0
781.854101191346 69.42123910200772 420.1024951572705 83.24915574706863 0.0 0.0
721.79765426107 56.38135203152396 375.59151745861203 83.18807863942799 0.0 0.0
653.9681389437374 45.64140800912405 316.5030922977879 82.88190034181909 0.0 0.0
574.0068034509006 31.543860963288903 236.36755730271273 82.45223475461857 0.0 0.0
469.261675269257 12.886377350042057 155.74505357339945 84.72588295861252 0.0 0.0
346.05556520039886 5.076870637504258 105.0050544010685 85.35267569150429 0.0 0.0
238.4271935444421 11.108157816643029 74.86125054935079 79.19377363402276 0.0 0.0
146.7718495515972 41.57955745927921 56.5054221032629 84.25067259311885 0.0 0.0
377.8463562792837 138.25973063331762 214.04997349594962 174.42844392176633 0.0 0.0
-750.6860141140058 -1417.5083373064467 -944.9181541176745 68.30194439307425 0.0 0.0
-584.5225305963953 -1224.2870483566894 -756.4803304626068 -67.07938900128487 0.0 0.0
285.015786348221 75.1387818540579 144.68628492726438 -190.98214989082302 0.0 0.0
106.4034270301973 29.971139373557747 40.91236992112651 -111.8784492787821 0.0 0.0
189.77824940242672 16.47512805955266 61.877725760339715 -101.5002123663528 0.0 0.0
283.0400929243511 4.5273752870056745 86.05095819863985 -107.84908183459885 0.0 0.0
400.668080223528 5.683699165754017 125.2112407329942 -110.06283672696631 0.0 0.0
512.6290126923639 24.12097135389334 195.37406240252506 -105.05252093272112 0.0 0.0
608.8745192295743 37.111182155374635 277.08299535281805 -104.64654939411884 0.0 0.0
675.9368670930321 48.750301596326004 341.97240395712555 -102.6664459279084 0.0 0.0
736.3535183459788 57.577846614941215 387.9896987504486 -102.15877155248016 0.0 0.0
791.2060700618758 70.83009180480059 426.184303998229 -100.69768355077784 0.0 0.0
846.0864285963886 89.02895876500271 464.0114782734329 -98.46966729478575 0.0 0.0
901.8681849181958 111.44547764811678 503.499016229922 -96.06231295091075 0.0 0.0
955.4258428335771 133.72853224543144 541.5391704961538 -93.81909296233756 0.0 0.0
1003.9018499027246 152.83808432724786 575.3950679850321 -91.20684364726009 0.0 0.0
1045.1257791438563 166.15344112443347 602.6984047568118 -87.59974419235323 0.0 0.0
1078.558280561645 172.2526843120969 622.4292710569995 -83.13555884043451 0.0 0.0
1101.8775415755485 171.47847611275952 633.6925403189043 -77.42960030761459 0.0 0.0
1108.5454118067496 157.3458580047193 630.1525006654466 -68.49392928248365 0.0 0.0
1097.709785087662 129.28451721683817 610.9213764698876 -52.71670655815031 0.0 0.0
863.5700191876758 -106.02035507461777 381.2041008308773 8.72351080261069e-11 0.0 0.0
1097.7097850872722 129.2845172164953 610.9213764696551 52.71670655824102 0.0 0.0
1108.5454118075104 157.34585800559316 630.1525006659768 68.4939292827147 0.0 0.0
1101.8775415757955 171.47847611311673 633.692540319145 77.42960030772687 0.0 0.0
1078.5582805607846 172.25268431123249 622.4292710563498 83.1355588403826 0.0 0.0
1045.1257791437624 166.15344112458956 602.69840475681 87.59974419242879 0.0 0.0
1003.9018499024887 152.83808432706113 575.3950679848982 91.20684364727141 0.0 0.0
955.425842834123 133.72853224623935 541.5391704964576 93.81909296244311 0.0 0.0
901.868184917161 111.4454776472381 503.499016229185 96.06231295093234 0.0 0.0
846.0864285959678 89.02895876482542 464.0114782731547 98.46966729490073 0.0 0.0
791.2060700618457 70.83009180498394 426.18430399810927 100.69768355079864 0.0 0.0
736.353518345753 57.57784661495106 387.9896987502748 102.1587715523987 0.0 0.0
675.9368670925089 48.75030159606169 341.9724039567116 102.66644592789245 0.0 0.0
608.8745192294891 37.11118215573665 277.08299535265263 104.64654939422672 0.0 0.0
512.6290126917977 24.120971353574113 195.3740624020751 105.05252093272549 0.0 0.0
400.66808022315195 5.683699165770122 125.21124073283913 110.0628367267368 0.0 0.0
283.04009292423626 4.5273752871738155 86.05095819865878 107.84908183454485 0.0 0.0
189.77824940216559 16.475128059160287 61.87772576014306 101.50021236615507 0.0 0.0
106.40342703022577 29.971139373671118 40.912369921169066 111.87844927852822 0.0 0.0
285.01578634780935 75.13878185398057 144.68628492696809 190.98214989066338 0.0 0.0
-584.5225305952496 -1224.2870483553515 -756.4803304612119 67.07938900116473 0.0 0.0
-442.14723185449714 -1046.818061912129 -590.807766737609 -66.78691482854578 0.0 0.0
211.98005436556596 24.881095545175693 92.18234037341696 -200.44945463406316 0.0 0.0
73.30186744437147 18.169299638486358 27.441252702931614 -134.75506761368513 0.0 0.0
143.80712920148449 19.856324015618227 49.09945529607851 -122.4594995448467 0.0 0.0
222.29277902725497 6.084377241845203 68.47701091571149 -127.76992886695889 0.0 0.0
323.75699273269976 -0.5414385706808168 96.55917414811726 -136.07444883535658 0.0 0.0
439.73422541788386 11.740602242738069 151.13526459873572 -131.95289280883586 0.0 0.0
541.647880379934 29.8715679514834 228.70864777207944 -125.95347904022773 0.0 0.0
623.6522146266016 37.37270865351514 298.46386918265705 -124.36542524656699 0.0 0.0
681.410405871032 46.17242959874625 348.8831010451537 -120.28792709848969 0.0 0.0
735.4929974652616 55.10772423937569 387.1539213044543 -118.11019510765438 0.0 0.0
786.3840814021145 68.93497947577248 422.0739609926987 -115.30526375396309 0.0 0.0
837.5079110602106 87.11835628513514 457.6195017108147 -112.49075762396343 0.0 0.0
886.780913373831 106.0483353902351 492.03319133425657 -110.00759185967502 0.0 0.0
931.7231662709883 122.28152847193851 522.8207480299097 -107.22562993270944 0.0 0.0
970.9102626729199 132.77921642271792 547.7684848057419 -103.53227850346964 0.0 0.0
1004.6554721581799 140.72213419669012 568.6074854617868 -98.3330129867792 0.0 0.0
1034.6144897841316 145.2702028548394 585.7361252323507 -92.37041801664053 0.0 0.0
1050.178028324127 138.01963501681578 590.0226526378822 -83.03417367474545 0.0 0.0
1042.3055576331788 110.2734120452158 572.5587626489205 -64.94865266915608 0.0 0.0
739.379830006496 -192.90732093256474 276.87269796421157 1.0629008784235339e-10 0.0 0.0
1042.3055576336042 110.27341204567841 572.5587626492837 64.94865266929058 0.0 0.0
1050.178028324796 138.01963501763615 590.0226526384039 83.03417367498363 0.0 0.0
1034.6144897842105 145.2702028549532 585.7361252323916 92.3704180166958 0.0 0.0
1004.6554721563427 140.72213419489395 568.6074854604816 98.33301298671364 0.0 0.0
970.9102626739939 132.7792164240041 547.768484806476 103.5322785036518 0.0 0.0
931.7231662703919 122.28152847151541 522.8207480295624 107.22562993279536 0.0 0.0
886.7809133734454 106.0483353900148 492.03319133395223 110.0075918598019 0.0 0.0
837.5079110599065 87.1183562850787 457.61950171059465 112.49075762412868 0.0 0.0
786.3840814016628 68.93497947545876 422.07396099243533 115.305263753939 0.0 0.0
735.4929974649881 55.1077242392432 387.1539213042006 118.11019510757352 0.0 0.0
681.4104058710232 46.172429599048925 348.8831010451233 120.28792709849665 0.0 0.0
623.6522146261652 37.37270865323107 298.46386918223055 124.36542524637781 0.0 0.0
541.647880379633 29.871567951616612 228.7086477718079 125.95347904028493 0.0 0.0
439.7342254168804 11.740602241871372 151.13526459806343 131.95289280876088 0.0 0.0
323.7569927321683 -0.5414385708712279 96.55917414791807 136.07444883514148 0.0 0.0
222.2927790272276 6.084377242104838 68.47701091577927 127.76992886681579 0.0 0.0
143.80712920121945 19.856324015199476 49.099455295873234 122.4594995447058 0.0 0.0
73.3018674444247 18.169299638695584 27.441252703010463 134.75506761345412 0.0 0.0
211.98005436516613 24.88109554502727 92.1823403731548 200.449454633902 0.0 0.0
-442.14723185347503 -1046.8180619108448 -590.807766736392 66.78691482853951 0.0 0.0
-316.8026930512212 -894.3093670622362 -446.27511117003576 -76.23889000799502 0.0 0.0
149.3630256990394 -12.905979253362796 51.41820622634349 -201.11315449506918 0.0 0.0
44.63060820406344 8.46258468720269 15.927755089087462 -152.31804877570158 0.0 0.0
99.47244931229022 21.214491775270353 36.207242411995644 -140.66832340676314 0.0 0.0
162.94427869258396 8.70269021950164 51.455122721435984 -145.1366714508399 0.0 0.0
240.78309827881176 -1.0817592567524594 71.34882413413101 -156.8170606316506 0.0 0.0
347.56795978379114 1.2698124646134636 108.3769806068269 -159.8443474607952 0.0 0.0
454.76184905102946 16.780711008573636 171.08377774081723 -149.8022082773668 0.0 0.0
546.9296694749927 28.36169830733626 241.78630412439838 -144.06680822331606 0.0 0.0
615.3188868378742 31.40551369688363 296.94220937581656 -139.84751047555295 0.0 0.0
667.9057163939342 38.55881544232354 338.14013964258805 -134.67328083480285 0.0 0.0
715.9303718447128 48.94467028391128 372.4614606392715 -131.09483111884856 0.0 0.0
763.0272377541168 62.88643823175245 405.07221072747063 -127.92362314837922 0.0 0.0
807.2275193554203 77.62796501598724 435.4333340652467 -125.2685193277044 0.0 0.0
848.458987341741 90.57213538449844 462.99509396779973 -122.5365430041961 0.0 0.0
885.0517909956216 100.05351777758048 486.3369275369547 -118.85830995776955 0.0 0.0
918.3445601366512 105.97474657568603 506.1095154511786 -113.44313400787631 0.0 0.0
953.7916547456242 115.76200161251069 528.4187208926832 -106.83135898162477 0.0 0.0
982.3031560873309 120.75502622396525 545.1616885610275 -97.91759403603737 0.0 0.0
981.7038968180603 96.3247711834014 533.2913631915646 -79.64130646727959 0.0 0.0
593.4022317301407 -289.5029363153165 157.37039702977862 8.222400538215879e-11 0.0 0.0
981.7038968175974 96.32477118307918 533.2913631912892 79.64130646753546 0.0 0.0
982.3031560872465 120.75502622394558 545.1616885610583 97.91759403632051 0.0 0.0
953.7916547456872 115.76200161272206 528.418720892658 106.83135898178503 0.0 0.0
918.3445601350259 105.97474657417531 506.1095154499732 113.44313400796557 0.0 0.0
885.0517909964071 100.05351777854928 486.33692753750273 118.85830995790539 0.0 0.0
848.4589873407587 90.57213538359426 462.9950939671746 122.53654300418123 0.0 0.0
807.2275193551241 77.6279650159313 435.4333340650032 125.26851932782465 0.0 0.0
763.0272377536536 62.886438231423604 405.072210727125 127.92362314842065 0.0 0.0
715.9303718439404 48.944670283239745 372.4614606387695 131.0948311187752 0.0 0.0
667.905716393737 38.55881544236214 338.14013964239484 134.67328083481672 0.0 0.0
615.3188868375414 31.40551369681365 296.94220937559254 139.8475104755251 0.0 0.0
546.9296694748768 28.361698307619513 241.7863041242467 144.06680822335719 0.0 0.0
454.7618490505621 16.780711008461925 171.08377774049382 149.80220827739592 0.0 0.0
347.56795978324465 1.2698124643724622 108.37698060653915 159.84434746072566 0.0 0.0
240.78309827849708 -1.0817592566889394 71.34882413407153 156.81706063147124 0.0 0.0
162.9442786926192 8.702690219709162 51.45512272150736 145.136671450644 0.0 0.0
99.4724493123069 21.214491775330444 36.20724241201837 140.6683234066022 0.0 0.0
44.63060820409436 8.46258468742123 15.927755089162304 152.3180487754996 0.0 0.0
149.3630256986178 -12.905979253672712 51.41820622606693 201.11315449487535 0.0 0.0
-316.8026930503442 -894.3093670610548 -446.27511116903577 76.2388900080206 0.0 0.0
-224.89137839295384 -746.0640077615703 -332.8918632040799 -85.38005366381806 0.0 0.0
95.43716224784319 -43.2386635155549 20.524100897406502 -195.50806077609306 0.0 0.0
17.665085694432914 1.9015651900786252 5.871627436838543 -164.96788422079044 0.0 0.0
56.49265050234946 21.069823526655938 23.268372756400108 -155.27183148474842 0.0 0.0
103.3015652813441 11.55933230469374 34.43322961928188 -158.900998525932 0.0 0.0
158.41997227087762 1.4025814585348964 47.7981242903147 -171.7324360136471 0.0 0.0
237.03001579010174 -3.4263637384929604 69.74285379558152 -185.4516752729384 0.0 0.0
339.95708844931767 -0.299656300458941 108.90075436966109 -181.1356356726289 0.0 0.0
439.3402724828668 11.303688610938256 166.4507357832618 -166.05952812437047 0.0 0.0
517.7855426498286 16.485466595687704 222.66251537524047 -156.77822256474047 0.0 0.0
576.3542465327528 21.194853063311253 268.4867179402223 -149.58849865664737 0.0 0.0
624.2162193126023 27.33027219974406 304.240361046987 -145.25835505416265 0.0 0.0
668.0640467748432 38.139668777250314 336.53811372012285 -141.91498672791303 0.0 0.0
707.4625835918999 48.800509789007435 364.231481852198 -139.22297345562654 0.0 0.0
743.921224965474 58.346591185502874 388.7617925307197 -136.7212112788582 0.0 0.0
778.1300375639456 66.08351125647333 410.60827644582963 -133.63437725980194 0.0 0.0
811.2722055799862 72.20995267922734 430.9887690707329 -128.4569752882604 0.0 0.0
847.2122849329805 81.12725927158905 453.4692678913461 -120.89721792934961 0.0 0.0
890.4510843781873 97.69689373251433 482.912985920997 -112.48964787647598 0.0 0.0
911.7830066870886 90.38019920923902 491.10444232070347 -98.06511524949546 0.0 0.0
417.13715737340317 -392.44282751516545 20.574301400624634 9.71382974057633e-11 0.0 0.0
911.7830066866733 90.38019920883657 491.1044423204376 98.0651152497212 0.0 0.0
890.4510843771689 97.69689373161056 482.9129859204124 112.4896478766691 0.0 0.0
847.2122849331399 81.12725927176682 453.4692678914389 120.89721792951903 0.0 0.0
811.2722055795314 72.2099526790125 430.98876907031297 128.45697528838548 0.0 0.0
778.1300375642885 66.08351125695796 410.6082764460964 133.6343772599089 0.0 0.0
743.9212249647485 58.34659118476276 388.7617925302714 136.7212112787949 0.0 0.0
707.4625835922253 48.80050978963085 364.2314818524321 139.22297345582768 0.0 0.0
668.0640467744684 38.13966877690125 336.5381137198258 141.91498672787384 0.0 0.0
624.2162193126263 27.330272200077005 304.2403610469599 145.25835505422697 0.0 0.0
576.3542465323619 21.194853063119435 268.4867179399566 149.58849865668319 0.0 0.0
517.7855426492863 16.485466595312968 222.66251537481614 156.7782225646182 0.0 0.0
439.3402724827889 11.303688611396407 166.45073578323525 166.0595281244719 0.0 0.0
339.9570884486782 -0.29965630093023066 108.90075436927192 181.13563567261997 0.0 0.0
237.03001578952603 -3.4263637387699517 69.74285379534409 185.45167527271641 0.0 0.0
158.41997227066446 1.4025814586531158 47.798124290299 171.7324360134161 0.0 0.0
103.30156528125919 11.559332304752207 34.43322961927249 158.9009985257557 0.0 0.0
56.49265050227768 21.06982352674776 23.268372756406105 155.27183148447327 0.0 0.0
17.665085694398172 1.901565190212204 5.871627436867849 164.96788422065117 0.0 0.0
95.43716224744537 -43.23866351579664 20.524100897180546 195.50806077588908 0.0 0.0
-224.89137839243108 -746.064007760674 -332.89186320340065 85.38005366384691 0.0 0.0
-153.96534857816874 -619.0641417681024 -244.9265033869358 -101.62157771391759 0.0 0.0
47.0293668182439 -64.42358225186582 -3.515022529050963 -183.89841309002279 0.0 0.0
-8.065401827870435 -1.3095187074312968 -2.8123918951777007 -172.85284652783818 0.0 0.0
14.574416928993701 19.924000416163107 10.34980286148469 -165.75751409969365 0.0 0.0
43.91166079102706 14.07737480169314 17.391872433588343 -168.6117725450438 0.0 0.0
76.50380030247443 4.534689883762364 24.20324131890301 -182.75545593965427 0.0 0.0
117.71516969840283 -0.7781575145102364 34.98914819380308 -198.40568255474412 0.0 0.0
180.24106010959858 -3.7125998140624645 53.044467374287365 -204.67890552371688 0.0 0.0
266.3339461129892 -9.202358205978353 79.53359658191357 -197.78603274394317 0.0 0.0
354.9491530808301 -17.219082514674525 110.71741834977018 -182.7841890277975 0.0 0.0
422.8557289705645 -16.134185419302664 145.30802895646787 -168.66233625993513 0.0 0.0
469.7281467042354 -7.722547952240088 177.72337560346463 -158.71780580171588 0.0 0.0
509.47716565537183 6.08714435095245 208.65858507420643 -154.35926891519992 0.0 0.0
545.5957499695338 16.721059195179265 236.67481094810628 -152.50943243204983 0.0 0.0
577.7033916688713 24.97324593614711 262.13818340924263 -151.68197876948108 0.0 0.0
609.1205657148205 32.25219638319709 286.54717953931817 -151.5416636611406 0.0 0.0
643.0542289411445 38.256081201330204 311.6503778884103 -148.30858161346194 0.0 0.0
680.800317158958 42.99811586255562 337.2652318779949 -140.12423871901697 0.0 0.0
727.5236580506572 53.394739912418814 367.1234820364706 -129.3649559368694 0.0 0.0
796.8442588153354 83.98343773868673 419.4729265562858 -122.02632597657501 0.0 0.0
177.610082463168 -499.713515454417 -146.81455445195286 4.9972470606007846e-11 0.0 0.0
796.8442588159907 83.98343773976998 419.47292655688005 122.0263259768648 0.0 0.0
727.5236580503783 53.39473991234101 367.12348203631797 129.36495593723942 0.0 0.0
680.800317158777 42.99811586226995 337.2652318778242 140.12423871920126 0.0 0.0
643.0542289407751 38.256081200915474 311.6503778881384 148.3085816136269 0.0 0.0
609.1205657144467 32.25219638273093 286.5471795390101 151.54166366105636 0.0 0.0
577.7033916684559 24.973245935744085 262.13818340900593 151.6819787693808 0.0 0.0
545.5957499688308 16.72105919445228 236.67481094765463 152.50943243217014 0.0 0.0
509.4771656553607 6.087144351023053 208.65858507417468 154.35926891527566 0.0 0.0
469.7281467042007 -7.722547952164902 177.72337560341413 158.71780580176699 0.0 0.0
422.8557289697408 -16.134185420386203 145.30802895586956 168.66233625976048 0.0 0.0
354.9491530809903 -17.219082513735724 110.71741835004899 182.78418902773183 0.0 0.0
266.3339461128934 -9.202358205583685 79.53359658198026 197.7860327440334 0.0 0.0
180.24106010941097 -3.712599813772273 53.04446737432227 204.67890552361834 0.0 0.0
117.71516969825555 -0.7781575145454367 34.989148193747134 198.405682554565 0.0 0.0
76.50380030258772 4.534689884169142 24.203241319061988 182.75545593930184 0.0 0.0
43.91166079093365 14.07737480151789 17.39187243350766 168.61177254489493 0.0 0.0
14.57441692915246 19.92400041656439 10.349802861652563 165.75751409945536 0.0 0.0
-8.065401827884266 -1.3095187073741963 -2.8123918951648665 172.85284652771668 0.0 0.0
47.029366817917214 -64.42358225200013 -3.515022529208449 183.89841308977552 0.0 0.0
-153.96534857780824 -619.0641417673297 -244.9265033864792 101.62157771398458 0.0 0.0
-115.64531802119728 -499.61010097750517 -186.17986875866768 -109.7146906826955 0.0 0.0
7.400809050053585 -77.52133545748028 -20.81354842568041 -169.24278729035808 0.0 0.0
-31.952508290228813 -2.7695784732935333 -10.413305580336143 -176.69535177712623 0.0 0.0
-26.089041088798005 18.505487976372653 -2.273849045338551 -172.01942727664132 0.0 0.0
-14.657292380554967 16.10356348070877 0.43518213071800194 -174.1220799861805 0.0 0.0
-6.385149315219001 7.959756212319025 0.47584258506975274 -186.78224916113646 0.0 0.0
-2.482745221620551 1.7300367401030867 -0.22879607737616858 -203.50045574301726 0.0 0.0
-0.6076414043578353 0.17138019775699664 -0.1315909123780976 -209.2605616802841 0.0 0.0
-0.0777776836567341 -0.0845388937774203 -0.04813053436503445 -202.8481717480955 0.0 0.0
0.10383929053331542 0.010194548255057612 0.04576713807017185 -191.58197647434724 0.0 0.0
0.054560534045450026 -0.24245122578378542 -0.14346280828876345 -189.22753116982668 0.0 0.0
-1.023050749286071 0.6114960024269855 0.006880294489100436 -186.63835907889555 0.0 0.0
-1.891515650570966 0.6641149118817467 0.0757584886669207 -182.10290896284073 0.0 0.0
-1.8166919087192213 1.0798201431801147 0.42789202033118556 -174.0129334484576 0.0 0.0
2.3201480671249044 3.207621465485502 1.2305531648147934 -167.80637816271863 0.0 0.0
17.99920239089434 8.079921474941536 3.6958131892562704 -162.25781688784912 0.0 0.0
56.38497462688683 17.76685336537649 9.919091801899299 -156.92608257581813 0.0 0.0
138.42231073051113 22.929419863374278 13.85078229378837 -149.12651129227913 0.0 0.0
336.93212473247695 -34.08906631658566 29.560127003764713 -142.95848715004627 0.0 0.0
514.8400817812613 -7.0798635617145536 186.0392102087759 -173.12405870064387 0.0 0.0
-407.13232717740175 -700.2502004347057 -479.54030773373995 7.290879011634388e-11 0.0 0.0
514.8400817818973 -7.079863561082519 186.03921020913424 173.1240587007765 0.0 0.0
336.93212473293084 -34.08906631524208 29.56012700452385 142.9584871505918 0.0 0.0
138.42231073075035 22.929419863630557 13.850782294063478 149.12651129282352 0.0 0.0
56.38497462640014 17.766853364619017 9.919091801456148 156.92608257597846 0.0 0.0
17.999202390978652 8.07992147485431 3.6958131892413064 162.25781688772997 0.0 0.0
2.320148067585606 3.2076214658011537 1.2305531651029398 167.806378162626 0.0 0.0
-1.816691909567993 1.0798201415114121 0.4278920194786906 174.01293344868628 0.0 0.0
-1.891515650374572 0.6641149113353109 0.0757584885437268 182.10290896311346 0.0 0.0
-1.023050748955363 0.6114960019292681 0.006880294434338907 186.63835907882813 0.0 0.0
0.054560534343472966 -0.24245122602814995 -0.14346280828258529 189.22753116970182 0.0 0.0
0.10383929122750502 0.010194549165095879 0.045767138561361165 191.58197647430333 0.0 0.0
-0.07777768335857616 -0.08453889348158405 -0.04813053418185831 202.84817174814626 0.0 0.0
-0.6076414041512841 0.17138019803158278 -0.13159091223030384 209.26056168033634 0.0 0.0
-2.482745221642313 1.730036739990414 -0.228796077416491 203.50045574285036 0.0 0.0
-6.385149314864499 7.959756213093295 0.47584258540807567 186.7822491608063 0.0 0.0
-14.657292380685846 16.103563480251413 0.4351821305412411 174.12207998600607 0.0 0.0
-26.089041088405175 18.505487977200964 -2.2738490449715703 172.01942727655623 0.0 0.0
-31.95250829016076 -2.769578473198137 -10.413305580286725 176.69535177705947 0.0 0.0
7.400809049917182 -77.52133545768203 -20.813548425778958 169.24278729019613 0.0 0.0
-115.64531802114175 -499.61010097676564 -186.17986875846302 109.71469068256653 0.0 0.0
-95.67511784628722 -392.12151101303476 -146.30787806508724 -106.38800912234333 0.0 0.0
-18.205740175194126 -84.64612309693385 -30.859775069032803 -158.0369414485956 0.0 0.0
-54.20934250675514 -4.082662585963454 -17.48836504176826 -176.64320072767498 0.0 0.0
-65.12708697577719 17.208226424108293 -14.370679173363989 -173.89393855181603 0.0 0.0
-72.15244974063532 17.389376564305056 -16.428283404881615 -174.6511841400771 0.0 0.0
-88.19448039709377 11.169510105836011 -23.058518519721467 -184.82369870071608 0.0 0.0
-122.62747800991416 4.377130087334358 -35.33713098169521 -199.97339702320468 0.0 0.0
-181.40930621835213 3.975487965451383 -53.34292614274602 -204.92701896774201 0.0 0.0
-266.30959419900773 8.947670387901915 -79.63308026720037 -197.77419853616593 0.0 0.0
-354.76317906450845 17.20439185970483 -110.65360558182886 -182.74476050416067 0.0 0.0
-423.47497433347587 16.439189074737012 -145.16608419729312 -168.77478560340992 0.0 0.0
-469.8652296860116 7.490278185578678 -178.14990226358162 -158.50489934870117 0.0 0.0
-510.48740629646784 -5.900888240081251 -209.65112602898301 -153.9053909204867 0.0 0.0
-546.4452525572393 -14.600692728925786 -236.91387316570217 -151.82762298850506 0.0 0.0
-573.797542766149 -18.196261280391937 -256.69783259993136 -151.34775593744598 0.0 0.0
-590.6230899479702 -16.631258631030263 -265.5311064068043 -153.7594538065859 0.0 0.0
-594.711487112719 -10.046925808514487 -260.95892646116147 -158.92802255880767 0.0 0.0
-590.0493479944787 -2.74272621140301 -241.23815483692684 -169.47368864897953 0.0 0.0
-574.1043735932668 39.336817970537126 -191.81494899071842 -181.25926416500315 0.0 0.0
-328.50540183541244 96.99694390995705 -44.30270530042232 -129.27167293665494 0.0 0.0
-940.8481147245874 -927.5266889610634 -933.4437376804751 -8.471090495731914e-11 0.0 0.0
-328.50540183564937 96.99694390948775 -44.30270530058661 129.27167293732163 0.0 0.0
-574.1043735933004 39.33681797054701 -191.81494899086022 181.25926416523265 0.0 0.0
-590.0493479942812 -2.742726211488801 -241.23815483686172 169.47368864919716 0.0 0.0
-594.7114871128013 -10.046925808562222 -260.95892646119324 158.92802255888535 0.0 0.0
-590.6230899471218 -16.6312586301674 -265.53110640622066 153.75945380644708 0.0 0.0
-573.7975427658599 -18.196261280268878 -256.6978325997444 151.34775593749876 0.0 0.0
-546.4452525578981 -14.600692730192929 -236.91387316616715 151.82762298852265 0.0 0.0
-510.4874062964303 -5.900888240420528 -209.651126028938 153.90539092060126 0.0 0.0
-469.8652296855694 7.490278185946362 -178.1499022631716 158.5048993487702 0.0 0.0
-423.4749743332823 16.439189074551773 -145.1660841971884 168.77478560350025 0.0 0.0
-354.76317906374857 17.20439185973486 -110.65360558154947 182.74476050409893 0.0 0.0
-266.30959419857123 8.947670387601942 -79.6330802671379 197.77419853628177 0.0 0.0
-181.40930621786188 3.9754879655061206 -53.34292614257595 204.92701896769825 0.0 0.0
-122.62747800995827 4.377130086654961 -35.33713098191169 199.97339702302477 0.0 0.0
-88.19448039667142 11.169510106372153 -23.058518519438444 184.823698700396 0.0 0.0
-72.15244974054448 17.38937656421142 -16.428283404886596 174.651184139874 0.0 0.0
-65.12708697546338 17.208226424771464 -14.370679173072405 173.8939385517186 0.0 0.0
-54.209342506656625 -4.082662585774681 -17.488365041684954 176.64320072754754 0.0 0.0
-18.205740175257272 -84.64612309699714 -30.859775069071006 158.0369414484452 0.0 0.0
-95.67511784617481 -392.12151101260935 -146.30787806492225 106.38800912227485 0.0 0.0
-78.29554957606531 -300.36733560915576 -113.59886555556632 -97.42071263111427 0.0 0.0
-35.588052019366074 -85.07697167742299 -36.19734119620717 -146.87173031798486 0.0 0.0
-74.83284592490847 -5.218109430670707 -24.011758983218563 -172.76031735709296 0.0 0.0
-102.27163783828605 15.771380023749908 -25.96417971704122 -171.08963445203685 0.0 0.0
-128.4194666869045 18.113552507953916 -33.04342880004095 -170.9294606806248 0.0 0.0
-169.24116794596273 14.237226732073028 -46.21016617969403 -178.75016325252284 0.0 0.0
-239.5129886787657 6.233474905118545 -70.00439918182892 -184.90984712176495 0.0 0.0
-340.1581434080448 0.150312642555539 -109.16595342979697 -181.35401079543942 0.0 0.0
-439.3897659875863 -11.56238870683017 -166.54590580889806 -166.1062063435295 0.0 0.0
-517.7443300986653 -16.54803889255988 -222.65517673965914 -156.72547944814823 0.0 0.0
-576.3057587997256 -21.140875442085168 -268.4533003909488 -149.52181695548202 0.0 0.0
-624.3673266840898 -27.22672372887174 -304.3456850279498 -145.00877988389195 0.0 0.0
-668.6107867557411 -37.80964610336259 -336.7933532737922 -141.15380675297857 0.0 0.0
-707.6254077783625 -47.26833893759296 -363.80262752274274 -137.9967504869406 0.0 0.0
-739.6076061594285 -52.56404517075222 -384.1003031432204 -136.2326759462495 0.0 0.0
-760.6992203890013 -50.9599496095957 -394.64831349528845 -137.0165818254343 0.0 0.0
-769.0802180582372 -42.80587645365513 -394.7993930789898 -141.0738321289564 0.0 0.0
-763.7331262299111 -30.47960258881767 -385.60288169176323 -148.53422915564775 0.0 0.0
-725.0256750930257 6.235428020841994 -349.2657097810926 -157.4958979749288 0.0 0.0
-654.9892446073341 62.256216441457035 -290.10097280093856 -163.0949323064737 0.0 0.0
-1675.7681824421795 -1208.6688697160569 -1398.8313904035188 4.943956355418777e-11 0.0 0.0
-654.9892446078686 62.25621644060689 -290.10097280132493 163.0949323069562 0.0 0.0
-725.025675093307 6.235428020349673 -349.2657097812325 157.49589797509452 0.0 0.0
-763.7331262294399 -30.47960258858103 -385.6028816914371 148.5342291558528 0.0 0.0
-769.080218058306 -42.8058764537965 -394.7993930790376 141.07383212902192 0.0 0.0
-760.6992203887194 -50.95994960949362 -394.6483134951747 137.01658182549 0.0 0.0
-739.6076061590616 -52.56404517052913 -384.10030314292 136.23267594624267 0.0 0.0
-707.6254077788963 -47.2683389383201 -363.8026275231091 137.99675048693877 0.0 0.0
-668.6107867551701 -37.8096461029441 -336.7933532734368 141.1538067529199 0.0 0.0
-624.3673266839446 -27.226723728957225 -304.34568502780337 145.00877988393208 0.0 0.0
-576.3057587997366 -21.140875442531637 -268.4533003909065 149.5218169554334 0.0 0.0
-517.7443300979867 -16.54803889222475 -222.65517673915986 156.72547944809628 0.0 0.0
-439.38976598744364 -11.562388707431662 -166.54590580882336 166.10620634370443 0.0 0.0
-340.1581434073115 0.1503126431108975 -109.16595342932766 181.35401079546324 0.0 0.0
-239.51298867839472 6.233474904652556 -70.00439918186822 184.90984712156123 0.0 0.0
-169.2411679456343 14.237226732095374 -46.21016617959282 178.75016325228538 0.0 0.0
-128.41946668664062 18.113552508225855 -33.04342879988002 170.9294606805125 0.0 0.0
-102.2716378380479 15.771380023939741 -25.9641797169172 171.08963445189335 0.0 0.0
-74.83284592476701 -5.218109430508518 -24.011758983127514 172.76031735695292 0.0 0.0
-35.58805201932241 -85.07697167739208 -36.19734119618553 146.8717303178839 0.0 0.0
-78.29554957587196 -300.3673356087584 -113.5988655553891 97.42071263101533 0.0 0.0
-63.22668551081605 -222.3783266555465 -85.68150364990873 -85.81360818973889 0.0 0.0
-48.574753234478976 -80.38209827696677 -38.687405037097975 -134.18589548227152 0.0 0.0
-93.9157234789337 -5.9566785824992525 -29.96011329881895 -164.77398865475166 0.0 0.0
-137.8322269032534 14.334240389624755 -37.02846078189204 -164.59044390467605 0.0 0.0
-182.66078505890238 17.932634950202775 -49.32872050912764 -161.97837956974 0.0 0.0
-246.30032758194784 14.006581573925216 -69.64062962850035 -162.30143417934036 0.0 0.0
-348.5885822891023 2.1727420417917696 -107.97557006580757 -162.71203721641652 0.0 0.0
-455.0000135036764 -17.04708841915354 -171.24853612565101 -150.37896667971057 0.0 0.0
-546.9664284961398 -28.63527931280346 -241.87662348968811 -144.06962298398287 0.0 0.0
-615.3189617824697 -31.44567125023334 -296.9748459991509 -139.81409623335145 0.0 0.0
-667.7674909905927 -38.42851748487324 -338.03122914193034 -134.6191872449394 0.0 0.0
-715.8635584085409 -48.69836463771183 -372.34950774626145 -130.82717431632236 0.0 0.0
-763.2808960931736 -62.54468116689172 -405.08558290542 -127.04147715558811 0.0 0.0
-807.568936014193 -76.75573631819444 -435.2926258763249 -123.69952104838768 0.0 0.0
-845.7254370268554 -86.67710330024227 -459.9458252192162 -121.6201761303513 0.0 0.0
-871.8156326448072 -88.24773346505364 -474.1164726840318 -122.36633261629984 0.0 0.0
-882.4233597195487 -78.80572497799865 -474.83565366065346 -127.00927061674895 0.0 0.0
-867.426153930699 -51.28991888037703 -453.88625846015555 -134.03924037299257 0.0 0.0
-822.1438139480895 -2.6310936009539745 -408.0984992714804 -140.34409559414007 0.0 0.0
-706.8825524836855 100.43844014940301 -304.5409260546727 -145.35035228019552 0.0 0.0
-2118.786186869361 -1448.89456352791 -1750.5060050645961 6.623679382755654e-11 0.0 0.0
-706.8825524845095 100.43844014826313 -304.5409260552298 145.35035228062648 0.0 0.0
-822.1438139476597 -2.6310936005340153 -408.09849927112396 140.34409559427408 0.0 0.0
-867.4261539301481 -51.289918879949056 -453.88625845981505 134.03924037312095 0.0 0.0
-882.4233597192786 -78.8057249778493 -474.8356536604598 127.00927061685474 0.0 0.0
-871.8156326453043 -88.2477334657651 -474.1164726843617 122.3663326164509 0.0 0.0
-845.7254370265435 -86.67710330000861 -459.94582521897917 121.62017613025999 0.0 0.0
-807.5689360141607 -76.75573631845974 -435.2926258763094 123.699521048468 0.0 0.0
-763.2808960929298 -62.54468116675692 -405.08558290528 127.04147715560376 0.0 0.0
-715.8635584083402 -48.698364637820305 -372.34950774610917 130.8271743163909 0.0 0.0
-667.767490990055 -38.42851748456498 -338.0312291415886 134.61918724485346 0.0 0.0
-615.3189617815884 -31.44567124963266 -296.97484599851384 139.814096233335 0.0 0.0
-546.9664284957499 -28.635279312855275 -241.87662348933029 144.0696229840079 0.0 0.0
-455.000013503041 -17.047088418873592 -171.24853612518478 150.37896667971123 0.0 0.0
-348.588582288391 2.1727420421883386 -107.97557006540904 162.71203721634765 0.0 0.0
-246.30032758147735 14.006581573808596 -69.6406296284247 162.30143417913536 0.0 0.0
-182.66078505880466 17.932634949920548 -49.32872050919346 161.9783795695298 0.0 0.0
-137.83222690319022 14.334240389594283 -37.028460781882195 164.59044390455168 0.0 0.0
-93.91572347887063 -5.956678582494398 -29.960113298798667 164.77398865458048 0.0 0.0
-48.57475323444334 -80.38209827694625 -38.68740503708111 134.18589548228584 0.0 0.0
-63.2266855106367 -222.37832665521216 -85.68150364975465 85.81360818960765 0.0 0.0
-51.46862049349284 -157.19672723262357 -62.59960431783492 -73.29697769434397 0.0 0.0
-58.75495748204693 -71.969939382201 -39.217469059274364 -119.54675409450195 0.0 0.0
-111.8752115668786 -6.143604648348286 -35.40619588002636 -152.81674008496705 0.0 0.0
-171.4898013840979 12.408111647377405 -47.73173272540475 -153.2571544948234 0.0 0.0
-234.82173967425442 16.80259972423582 -65.19431568012887 -148.76138485628482 0.0 0.0
-325.6134235814234 12.602616647987098 -94.04324976729828 -144.33170083088083 0.0 0.0
-437.0027880521362 -10.202402858587105 -150.62464334261824 -132.6308370021536 0.0 0.0
-541.6990334801648 -30.33369706378132 -228.78859484087837 -126.27067451352313 0.0 0.0
-623.7907168215195 -37.66796957257052 -298.64144008804874 -124.34525999391879 0.0 0.0
-681.3967035106423 -46.16634266558249 -348.9064169484245 -120.26245376747947 0.0 0.0
-735.3096412942059 -54.88271099442055 -386.97493576241754 -118.08070566885222 0.0 0.0
-786.0191796575067 -68.44996765147043 -421.6883119909826 -115.04380211041148 0.0 0.0
-837.2566500939502 -86.4996218219296 -457.2188591027393 -111.61086461869411 0.0 0.0
-887.2713732232563 -105.75404117872898 -492.1797434804553 -108.3578494820739 0.0 0.0
-931.716620532152 -121.40360460645822 -522.4975557750565 -106.04368495114493 0.0 0.0
-963.6235276850442 -126.16543334035362 -541.05979597239 -106.54489161671796 0.0 0.0
-972.0191308848879 -113.48862880452958 -539.1889491460076 -110.5014867589778 0.0 0.0
-947.1089815297385 -72.52131283365068 -506.67539906168867 -116.74922831446719 0.0 0.0
-878.1381108876102 2.8282034369789955 -435.84074267405344 -121.9971108503051 0.0 0.0
-735.8984164590623 134.81811147366963 -302.61727867349987 -125.70273717925559 0.0 0.0
-2465.2753233133976 -1690.7476064776465 -2051.625108485737 5.945466341472638e-11 0.0 0.0
-735.8984164586905 134.81811147386324 -302.61727867333764 125.70273717946009 0.0 0.0
-878.1381108878645 2.8282034366239657 -435.8407426741196 121.99711085058433 0.0 0.0
-947.1089815294575 -72.52131283354981 -506.6753990614833 116.74922831459159 0.0 0.0
-972.0191308853739 -113.48862880521412 -539.1889491464161 110.50148675922861 0.0 0.0
-963.6235276845132 -126.16543333995023 -541.0597959720028 106.54489161678126 0.0 0.0
-931.7166205321787 -121.40360460662288 -522.4975557750458 106.0436849511091 0.0 0.0
-887.2713732230898 -105.75404117876668 -492.17974348033863 108.35784948216127 0.0 0.0
-837.2566500936838 -86.49962182182152 -457.2188591025547 111.61086461865332 0.0 0.0
-786.0191796574603 -68.44996765166627 -421.6883119909486 115.04380211043842 0.0 0.0
-735.3096412932838 -54.88271099368562 -386.97493576184854 118.08070566871297 0.0 0.0
-681.3967035100087 -46.166342665157856 -348.906416947963 120.26245376741788 0.0 0.0
-623.7907168208933 -37.66796957225874 -298.64144008753686 124.34525999387569 0.0 0.0
-541.6990334796124 -30.33369706361386 -228.78859484039947 126.27067451352433 0.0 0.0
-437.00278805138026 -10.202402858150572 -150.62464334212962 132.6308370021103 0.0 0.0
-325.61342358080054 12.602616648179058 -94.04324976705355 144.33170083077206 0.0 0.0
-234.8217396740235 16.80259972406263 -65.19431568011257 148.76138485611577 0.0 0.0
-171.48980138379665 12.408111647518567 -47.73173272527376 153.2571544947396 0.0 0.0
-111.87521156668627 -6.143604648229541 -35.4061958799328 152.81674008475713 0.0 0.0
-58.75495748200255 -71.96993938220719 -39.21746905926291 119.5467540944821 0.0 0.0
-51.46862049340082 -157.19672723238554 -62.59960431773591 73.29697769431972 0.0 0.0
-43.04174573480195 -104.28677903309386 -44.19855743036874 -60.385818998742394 0.0 0.0
-66.91985379286203 -61.18631425410957 -38.431850414091485 -103.00333119581559 0.0 0.0
-128.85635805069816 -5.6602720347719275 -40.35563431192826 -136.93838917190223 0.0 0.0
-203.44916444251572 10.394917831182177 -57.91603548295309 -137.93708299090605 0.0 0.0
-284.6928176497423 13.2498008972921 -81.33491621837238 -129.87865470229985 0.0 0.0
-397.60300399147116 5.242102142794856 -121.54027108411472 -119.60051609431012 0.0 0.0
-510.97358184309115 -22.153120776716577 -194.23665624560883 -106.78523324759435 0.0 0.0
-609.1894630067304 -37.75526338474466 -277.33122730602906 -104.74678581881633 0.0 0.0
-676.0465388110152 -48.910647918271515 -342.1132804692629 -102.64217798935073 0.0 0.0
-736.3260708237291 -57.53704979062846 -387.98927493113234 -102.1517686073885 0.0 0.0
-790.9665028094938 -70.55454384844586 -425.95361622832877 -100.6631866553478 0.0 0.0
-845.4364269648497 -88.30082950849034 -463.3625422058486 -98.20804374202937 0.0 0.0
-900.9637523822208 -110.37498797833553 -502.54098577137233 -95.26902759647031 0.0 0.0
-955.7385821908558 -133.70554782430577 -541.678769010362 -92.37741733334008 0.0 0.0
-1006.6676631438877 -155.12540119045565 -577.9340955680459 -90.02820126619343 0.0 0.0
-1043.7189468404208 -164.78136301049776 -601.517353109427 -89.5637763842755 0.0 0.0
-1050.6365353405772 -146.9754079475065 -596.4160723509899 -92.60485184104995 0.0 0.0
-1011.296154974388 -90.30612249199564 -548.973273043154 -98.0025561537226 0.0 0.0
-917.1371199802932 10.899160070028998 -452.4621845048241 -102.83094269352412 0.0 0.0
-755.5388590250502 162.6423237198208 -298.2114428536323 -108.71346074030974 0.0 0.0
-2766.784385205453 -1923.7847164008904 -2323.809267905431 2.2676971411783597e-11 0.0 0.0
-755.5388590246805 162.6423237201631 -298.2114428534146 108.71346074037746 0.0 0.0
-917.1371199806047 10.899160069583203 -452.4621845050087 102.83094269371264 0.0 0.0
-1011.2961549739264 -90.30612249165897 -548.9732730428751 98.00255615389848 0.0 0.0
-1050.6365353406666 -146.97540794777368 -596.4160723510759 92.6048518412402 0.0 0.0
-1043.7189468396123 -164.78136300971158 -601.5173531088941 89.56377638420312 0.0 0.0
-1006.667663143818 -155.1254011904776 -577.9340955679575 90.02820126607831 0.0 0.0
-955.7385821903923 -133.70554782405594 -541.6787690100044 92.3774173333867 0.0 0.0
-900.9637523817767 -110.37498797802968 -502.5409857711121 95.26902759642105 0.0 0.0
-845.4364269645507 -88.3008295084957 -463.3625422056638 98.20804374210967 0.0 0.0
-790.9665028084748 -70.55454384758751 -425.9536162277266 100.66318665529175 0.0 0.0
-736.326070823497 -57.537049790660866 -387.9892749309337 102.15176860729873 0.0 0.0
-676.0465388102003 -48.91064791773647 -342.1132804686539 102.64217798931243 0.0 0.0
-609.1894630064526 -37.755263384893375 -277.3312273056968 104.74678581887358 0.0 0.0
-510.97358184237083 -22.153120776370304 -194.23665624507677 106.78523324760076 0.0 0.0
-397.6030039910038 5.242102142805252 -121.54027108391682 119.60051609430059 0.0 0.0
-284.69281764932026 13.249800897286985 -81.3349162182694 129.87865470218685 0.0 0.0
-203.44916444229864 10.394917831265563 -57.916035482865226 137.93708299081993 0.0 0.0
-128.8563580505166 -5.6602720346238 -40.35563431182895 136.93838917178144 0.0 0.0
-66.91985379278634 -61.18631425404863 -38.43185041405048 103.00333119565627 0.0 0.0
-43.04174573481435 -104.28677903301657 -44.19855743034928 60.3858189986756 0.0 0.0
-37.58781613044194 -63.35850580538738 -30.283896580748795 -47.29672711524676 0.0 0.0
-73.31397427554728 -49.173087352908055 -36.746118488536595 -84.72545372229901 0.0 0.0
-144.8298059759136 -4.568395065229071 -44.819909932024814 -117.22182728655325 0.0 0.0
-233.90975497123443 7.949364566220437 -67.78965191584871 -118.29819494412865 0.0 0.0
-337.39794071936075 9.168237202532744 -98.05546412392945 -108.29929086493613 0.0 0.0
-455.8336468667185 -9.04289349795179 -152.54945464060887 -89.84785097030556 0.0 0.0
-572.7091043068049 -30.068297357654156 -235.12460621250418 -83.60876639915037 0.0 0.0
-654.169003803574 -46.007709836874746 -316.6541512652966 -82.81011672886594 0.0 0.0
-721.9046268978634 -56.46853563192931 -375.70988079326435 -83.16479232167497 0.0 0.0
-781.8219263135602 -69.36609872809845 -420.0882933756064 -83.26259814355444 0.0 0.0
-839.7724937845019 -86.36996803812816 -459.97808898732023 -82.43991767260562 0.0 0.0
-898.2845920887521 -108.11929099733706 -500.8080012553465 -80.57668046204472 0.0 0.0
-957.8924189213884 -133.7604774722256 -543.6037164332942 -78.20548824693256 0.0 0.0
-1016.4950736333769 -161.5114991649807 -586.7712198785966 -75.80416364003044 0.0 0.0
-1071.9379410331985 -186.5303249521163 -626.9853617379791 -73.59457179531562 0.0 0.0
-1114.9368429207823 -200.6784955340812 -655.7007630600633 -72.229261232942 0.0 0.0
-1123.0420033058383 -183.5036746716528 -651.597460304426 -73.4515253789292 0.0 0.0
-1070.218323068742 -111.51725313300525 -589.865668933036 -78.00781531647783 0.0 0.0
-950.4477735039388 16.521166964945294 -466.8857415688668 -84.19714005616774 0.0 0.0
-765.4150409535087 190.9473587831745 -288.48785505020845 -94.18026068936084 0.0 0.0
-3033.8691947264992 -2140.6406493576005 -2569.6280037809915 8.233769221988041e-11 0.0 0.0
-765.4150409527247 190.94735878390162 -288.4878550495683 94.18026068946266 0.0 0.0
-950.4477735052296 16.521166963544985 -466.88574156972595 84.19714005637393 0.0 0.0
-1070.218323068507 -111.51725313288708 -589.8656689329504 78.00781531661252 0.0 0.0
-1123.0420033061223 -183.50367467207647 -651.5974603046179 73.45152537906743 0.0 0.0
-1114.9368429205824 -200.67849553397082 -655.7007630599198 72.22926123295575 0.0 0.0
-1071.9379410325107 -186.53032495161187 -626.9853617374512 73.59457179533268 0.0 0.0
-1016.4950736326416 -161.51149916441034 -586.7712198780298 75.80416364015981 0.0 0.0
-957.8924189205969 -133.76047747157236 -543.603716432772 78.20548824680003 0.0 0.0
-898.2845920884694 -108.1192909973295 -500.8080012551552 80.57668046213648 0.0 0.0
-839.7724937841069 -86.36996803798354 -459.97808898709513 82.43991767266854 0.0 0.0
-781.8219263133766 -69.36609872822885 -420.08829337544813 83.26259814359567 0.0 0.0
-721.9046268971788 -56.46853563145254 -375.7098807927455 83.16479232156325 0.0 0.0
-654.1690038031096 -46.00770983676175 -316.65415126484214 82.81011672882602 0.0 0.0
-572.7091043060566 -30.068297357237526 -235.12460621190354 83.6087663991118 0.0 0.0
-455.8336468662505 -9.042893497903627 -152.54945464034648 89.84785097031585 0.0 0.0
-337.39794071885945 9.168237202644807 -98.05546412376782 108.29929086486194 0.0 0.0
-233.9097549710677 7.949364566117069 -67.7896519158291 118.2981949440869 0.0 0.0
-144.82980597578876 -4.56839506520405 -44.81990993197982 117.22182728652453 0.0 0.0
-73.31397427551889 -49.17308735287134 -36.74611848851706 84.72545372214296 0.0 0.0
-37.58781613041859 -63.35850580534571 -30.283896580729284 47.29672711521974 0.0 0.0
-34.43893384694519 -34.24133133666605 -20.604079555083366 -34.34137215660482 0.0 0.0
-77.70279366345058 -36.925508900611696 -34.38849076921867 -64.92698798955718 0.0 0.0
-159.5552360349531 -3.1112910923774066 -48.799958138199145 -93.58568507307567 0.0 0.0
-263.6752875488717 4.827983880630608 -77.64005191161138 -94.32400385032426 0.0 0.0
-388.01306406775694 1.8331091424110868 -116.51371031591535 -81.42683227447844 0.0 0.0
-514.3116190782123 -18.819946275618832 -184.11505952430124 -64.9080258526646 0.0 0.0
-615.866501571431 -37.81859603049216 -272.02056196572914 -62.027235999679476 0.0 0.0
-691.8344507565171 -50.729552918115054 -347.1039663369849 -62.30436270322838 0.0 0.0
-759.4509588169556 -64.92992296770447 -403.37115202482363 -63.24248379522987 0.0 0.0
-821.8614531350362 -81.3363232332977 -448.0367899227258 -63.83750039954935 0.0 0.0
-883.2149434180662 -102.30292446950757 -490.6718697694665 -63.465563108539655 0.0 0.0
-946.0057907457153 -128.07727614051998 -535.3387926515999 -62.13922008941919 0.0 0.0
-1009.4913791944617 -158.06178548015544 -582.1557890944164 -60.307222603074514 0.0 0.0
-1071.4119073680856 -187.37301842370175 -627.7264826577587 -58.60380818126337 0.0 0.0
-1128.5774990475575 -214.39542468033633 -669.7577663390741 -56.7981618725503 0.0 0.0
-1175.8995732122605 -233.0724061769525 -702.8009917499776 -54.7282472469201 0.0 0.0
-1192.3042867217341 -222.75244255464077 -706.2301056351353 -53.79917261232307 0.0 0.0
-1134.3620662815847 -144.11136253551584 -638.7129743951937 -57.05113555646655 0.0 0.0
-985.9849038256457 13.629907188197137 -486.446539679976 -65.63344826817737 0.0 0.0
-763.2125633895033 226.22909943280666 -269.29737696690256 -80.79199964145427 0.0 0.0
-3266.669694619332 -2331.721692315781 -2784.730932521801 5.962519367130881e-11 0.0 0.0
-763.2125633879613 226.22909943436107 -269.2973769656844 80.79199964143397 0.0 0.0
-985.9849038264183 13.629907187290215 -486.44653968046885 65.633448268329 0.0 0.0
-1134.3620662810067 -144.11136253500985 -638.7129743947461 57.05113555657899 0.0 0.0
-1192.3042867223112 -222.7524425553393 -706.2301056355502 53.799172612408455 0.0 0.0
-1175.899573212301 -233.07240617711957 -702.8009917498787 54.72824724694957 0.0 0.0
-1128.5774990467344 -214.39542467963565 -669.7577663385227 56.7981618725331 0.0 0.0
-1071.4119073671056 -187.37301842290194 -627.7264826569882 58.603808181335886 0.0 0.0
-1009.491379193962 -158.06178547979172 -582.1557890941299 60.30722260300571 0.0 0.0
-946.0057907453909 -128.0772761404283 -535.3387926513278 62.139220089349664 0.0 0.0
-883.2149434177537 -102.30292446943153 -490.6718697692902 63.46556310853994 0.0 0.0
-821.8614531347171 -81.33632323328838 -448.03678992251446 63.83750039958783 0.0 0.0
-759.4509588167871 -64.92992296782859 -403.37115202468 63.24248379524029 0.0 0.0
-691.8344507555875 -50.729552917431654 -347.10396633626317 62.304362703182505 0.0 0.0
-615.866501570841 -37.818596030210564 -272.0205619651899 62.02723599957516 0.0 0.0
-514.311619077758 -18.819946275595843 -184.11505952398312 64.90802585271348 0.0 0.0
-388.01306406722307 1.833109142478071 -116.51371031573932 81.42683227437401 0.0 0.0
-263.67528754867965 4.827983880551263 -77.6400519115756 94.32400385022433 0.0 0.0
-159.5552360347813 -3.1112910923109403 -48.799958138127685 93.58568507306995 0.0 0.0
-77.70279366333837 -36.925508900566626 -34.38849076917148 64.92698798943456 0.0 0.0
-34.43893384680245 -34.24133133656025 -20.604079555008806 34.34137215667029 0.0 0.0
-32.42627896069683 -16.624973985561635 -14.715375883877538 -22.252052717867407 0.0 0.0
-79.3108479281391 -25.48636698140508 -31.439164472863247 -43.889676768949606 0.0 0.0
-172.60871046749816 -1.8175695787915296 -52.32788401388689 -65.58068190029383 0.0 0.0
-293.7359988337695 1.1162924086693722 -87.72809067951223 -65.62728804808827 0.0 0.0
-434.2954894361455 -9.483773622123845 -137.82231151102755 -51.70618469232886 0.0 0.0
-561.5925593756053 -27.399250825344065 -215.81742801892997 -41.79410708172973 0.0 0.0
-646.5663987963586 -42.936901540580585 -301.99270483067 -41.02809261839536 0.0 0.0
-723.6272902625417 -56.655194908762134 -372.8913202466365 -42.178858435047424 0.0 0.0
-792.0395255880411 -73.93455761853863 -427.08631113195224 -43.13764478356042 0.0 0.0
-857.2330557478713 -93.61783956608261 -473.01968445141404 -43.80108057805791 0.0 0.0
-922.6640780019852 -118.33586281302952 -519.0378398026378 -43.74859354338036 0.0 0.0
-989.3155176096027 -148.19443670651037 -567.5315931830517 -42.90961900097156 0.0 0.0
-1056.9827205534998 -180.8563338296012 -617.7227937312427 -41.78533806146274 0.0 0.0
-1121.5519414131668 -213.638606931934 -666.3564033741684 -40.638830212296135 0.0 0.0
-1179.3174173251487 -240.57603069089745 -708.6576200291581 -39.39074481391557 0.0 0.0
-1224.5933615534277 -256.8405233945612 -739.4048151248227 -37.473391835333715 0.0 0.0
-1249.8478637359067 -255.49046661421926 -751.5251392665136 -34.98231943843707 0.0 0.0
-1219.4566224055784 -203.25337989814358 -710.9141866231756 -35.43366745064065 0.0 0.0
-1043.578353528177 -15.771541486689273 -530.1811442197181 -45.37487340110214 0.0 0.0
-738.582885655905 280.78786450272594 -229.47484857204938 -67.37669920089651 0.0 0.0
-3450.829378035967 -2479.111857212871 -2953.1854286043867 5.161560068245308e-11 0.0 0.0
-738.5828856561943 280.78786450239846 -229.47484857219936 67.37669920103511 0.0 0.0
-1043.578353528801 -15.771541487394757 -530.181144220262 45.374873401246596 0.0 0.0
-1219.456622405828 -203.25337989845048 -710.9141866233339 35.43366745066558 0.0 0.0
-1249.8478637357507 -255.49046661418734 -751.5251392664334 34.9823194384941 0.0 0.0
-1224.5933615531876 -256.8405233944706 -739.4048151244382 37.47339183545661 0.0 0.0
-1179.3174173248979 -240.57603069080278 -708.6576200289925 39.39074481404539 0.0 0.0
-1121.5519414121884 -213.638606931087 -666.3564033734398 40.63883021223591 0.0 0.0
-1056.9827205540084 -180.85633383031674 -617.7227937316554 41.78533806141228 0.0 0.0
-989.3155176088867 -148.1944367060236 -567.5315931825363 42.90961900096156 0.0 0.0
-922.6640780013119 -118.33586281258289 -519.0378398022108 43.74859354334182 0.0 0.0
-857.2330557471881 -93.6178395656589 -473.01968445094315 43.80108057805484 0.0 0.0
-792.0395255880351 -73.93455761882437 -427.0863111319076 43.13764478356876 0.0 0.0
-723.6272902620993 -56.65519490861556 -372.8913202462169 42.17885843502798 0.0 0.0
-646.5663987958827 -42.93690154043844 -301.9927048302146 41.02809261834945 0.0 0.0
-561.5925593750774 -27.399250825148776 -215.81742801847827 41.79410708171238 0.0 0.0
-434.2954894357126 -9.483773622286979 -137.8223115109127 51.706184692319525 0.0 0.0
-293.73599883354683 1.116292408590982 -87.72809067946812 65.62728804802826 0.0 0.0
-172.60871046729503 -1.817569578640208 -52.32788401378057 65.58068190021969 0.0 0.0
-79.31084792811356 -25.486366981435562 -31.439164472864732 43.88967676887368 0.0 0.0
-32.42627896065319 -16.62497398550274 -14.715375883846773 22.252052717864387 0.0 0.0
-29.346494217270234 -9.554822626617081 -11.670395053166194 -12.653148911248476 0.0 0.0
-76.68712732723895 -16.38789756797158 -27.922507468563165 -21.978059404199254 0.0 0.0
-183.31620333646913 -1.5162020727828964 -55.44972162277561 -32.0455362997347 0.0 0.0
-325.38436235013813 -2.484346735194278 -98.28892515019311 -31.626253750697536 0.0 0.0
-482.92291112571303 -17.96896321169126 -160.52600689993153 -23.115892400281055 0.0 0.0
-595.5294302544783 -34.17416640035476 -245.32295176309592 -20.826342520469524 0.0 0.0
-674.6215554688451 -45.114646921817894 -326.19726101212507 -21.774300020043157 0.0 0.0
-750.5405484981063 -63.2684329212879 -394.6145261385787 -22.445169652786053 0.0 0.0
-820.6033468942044 -82.99436344345021 -447.710324038116 -22.83299744855048 0.0 0.0
-888.9577321371514 -106.41614006637484 -496.0057299771621 -23.18730343542697 0.0 0.0
-958.2163150201281 -134.73357636137507 -545.4379722139242 -23.23507840067075 0.0 0.0
-1029.0424929627604 -167.4910944678878 -597.3961960220502 -22.98317492693667 0.0 0.0
-1099.9587914882343 -204.11498299751514 -651.1698252350823 -22.47092273090207 0.0 0.0
-1167.9302863932019 -238.9441282479535 -702.5228422223963 -21.93437896686964 0.0 0.0
-1225.5041405001089 -265.32972384843816 -744.470766563485 -21.298301080934376 0.0 0.0
-1266.1153024238995 -276.9714991876844 -770.5975756967341 -20.08001576947348 0.0 0.0
-1286.7948760329873 -271.6320848156066 -778.298717627371 -17.799568888094253 0.0 0.0
-1290.6519645340666 -253.6682381831757 -771.4362696846739 -15.67403468682637 0.0 0.0
-1206.1116230525524 -154.75600702120195 -680.6098036006426 -21.671983947569124 0.0 0.0
-724.5531643669387 323.52180889176736 -201.1596493558924 -49.079135258002125 0.0 0.0
-3442.195578124296 -2435.054413027198 -2929.7673148603308 1.2825296380469808e-11 0.0 0.0
-724.5531643682658 323.5218088903818 -201.15964935681544 49.07913525811591 0.0 0.0
-1206.1116230536015 -154.75600702232444 -680.6098036014874 21.671983947645778 0.0 0.0
-1290.6519645340331 -253.6682381832306 -771.4362696846532 15.674034686872348 0.0 0.0
-1286.7948760328409 -271.6320848155416 -778.2987176273152 17.799568888030933 0.0 0.0
-1266.115302422646 -276.97149918657533 -770.5975756957797 20.080015769522927 0.0 0.0
-1225.5041404996216 -265.32972384809244 -744.4707665630815 21.298301081011118 0.0 0.0
-1167.9302863930616 -238.94412824797533 -702.5228422222899 21.93437896685309 0.0 0.0
-1099.9587914880995 -204.11498299759194 -651.1698252350063 22.470922730898142 0.0 0.0
-1029.0424929625246 -167.49109446788452 -597.3961960218767 22.983174927005322 0.0 0.0
-958.216315019521 -134.73357636099368 -545.4379722135214 23.235078400612323 0.0 0.0
-888.9577321364802 -106.41614006595594 -496.00572997667985 23.18730343538376 0.0 0.0
-820.6033468938095 -82.99436344332003 -447.7103240378174 22.832997448540386 0.0 0.0
-750.5405484981411 -63.26843292166923 -394.6145261385156 22.4451696528037 0.0 0.0
-674.621555468399 -45.114646921663144 -326.1972610116926 21.774300020100114 0.0 0.0
-595.5294302539279 -34.17416640011324 -245.3229517626056 20.826342520366175 0.0 0.0
-482.92291112534593 -17.968963211824146 -160.5260068997666 23.115892400307523 0.0 0.0
-325.3843623498918 -2.484346735450096 -98.28892515021151 31.626253750763386 0.0 0.0
-183.31620333620512 -1.5162020724927925 -55.449721622609374 32.04553629962682 0.0 0.0
-76.68712732723567 -16.387897568041524 -27.922507468583145 21.978059404219962 0.0 0.0
-29.34649421723111 -9.554822626578057 -11.670395053142748 12.653148911269826 0.0 0.0
-18.3618172826447 -4.697335549822366 -6.917745849740119 -7.91345328353011 0.0 0.0
-65.99936051836885 -9.200067165896945 -22.55982830527973 -9.123292978050639 0.0 0.0
-190.51766256996507 -2.8151930163988546 -57.99985667590915 -10.891917724165161 0.0 0.0
-364.7673688492825 -14.682968209880338 -114.02323893908678 -9.362291369430036 0.0 0.0
-544.5723959903265 -52.07119579961958 -197.93680300411924 -2.0283872260293982 0.0 0.0
-670.102011423442 -90.9219879149348 -305.71282748471896 0.569231581207994 0.0 0.0
-771.5202798407757 -127.40103785021819 -409.3677021363702 0.7023016153990227 0.0 0.0
-878.5204970374341 -178.3164531940198 -507.7759541549635 -0.37038096090572736 0.0 0.0
-989.5526348729747 -239.9681789069628 -601.5146166576425 -1.6894191026144831 0.0 0.0
-1113.4474679513337 -318.735216760608 -704.937154828625 -3.088874254623187 0.0 0.0
-1255.2071236066452 -418.9294886929334 -826.2831395537667 -4.4574281966887614 0.0 0.0
-1415.2418807419172 -541.3728482326912 -967.2985447333792 -5.644268097662959 0.0 0.0
-1589.2987057895325 -679.935516167397 -1123.14576538947 -6.443158784307544 0.0 0.0
-1769.9455516162454 -827.0593142053076 -1286.578617161269 -7.170665046732534 0.0 0.0
-1943.5372478127024 -969.1079176719517 -1444.0235550916343 -7.656705176363179 0.0 0.0
-2090.7248764595506 -1087.1910452850693 -1576.4402459708685 -7.667677326211582 0.0 0.0
-2187.2809463301646 -1158.1364058120823 -1660.2462068185764 -6.7730010736300486 0.0 0.0
-2210.740099949491 -1160.6071975727277 -1673.3386549988625 -4.689583546759479 0.0 0.0
-2213.4601862491 -1148.0321603509772 -1667.5450351173038 -8.123679681402336 0.0 0.0
-2197.5272126089276 -1129.846222559764 -1647.2629550975294 -37.6081429113962 0.0 0.0
-5404.5704589984125 -4369.447322852697 -4860.769471952505 -5.063327535026474e-11 0.0 0.0
-2197.52721260978 -1129.8462225606827 -1647.262955098035 37.608142911454365 0.0 0.0
-2213.4601862487348 -1148.0321603506472 -1667.5450351169666 8.123679681401828 0.0 0.0
-2210.740099947741 -1160.6071975710643 -1673.338654997355 4.689583546791937 0.0 0.0
-2187.28094632936 -1158.1364058113834 -1660.2462068179166 6.773001073535113 0.0 0.0
-2090.724876456733 -1087.1910452823545 -1576.4402459687547 7.667677326357801 0.0 0.0
-1943.5372478119275 -969.1079176713195 -1444.0235550908121 7.6567051762877725 0.0 0.0
-1769.945551615831 -827.0593142050801 -1286.5786171607836 7.170665046739153 0.0 0.0
-1589.298705788258 -679.9355161663077 -1123.145765388388 6.44315878431955 0.0 0.0
-1415.2418807415115 -541.3728482325266 -967.2985447329078 5.644268097682545 0.0 0.0
-1255.2071236059764 -418.92948869251325 -826.2831395531907 4.457428196666918 0.0 0.0
-1113.4474679506043 -318.7352167601373 -704.9371548279719 3.0888742545948773 0.0 0.0
-989.5526348722116 -239.96817890646986 -601.5146166570119 1.689419102597089 0.0 0.0
-878.5204970373466 -178.3164531942657 -507.77595415481005 0.3703809609165525 0.0 0.0
-771.5202798400699 -127.4010378497987 -409.367702135729 -0.7023016153445418 0.0 0.0
-670.1020114228439 -90.9219879146268 -305.7128274841349 -0.569231581300734 0.0 0.0
-544.5723959900811 -52.07119579980666 -197.93680300394692 2.028387225975436 0.0 0.0
-364.76736884897747 -14.682968209962045 -114.0232389390227 9.362291369539744 0.0 0.0
-190.51766256949742 -2.8151930158582807 -57.99985667560672 10.89191772407225 0.0 0.0
-65.99936051827997 -9.200067165893774 -22.55982830525213 9.123292978063503 0.0 0.0
-18.36181728269453 -4.697335549824545 -6.9177458497557245 7.913453283579789 0.0 0.0
SCALARS Strain float 6
LOOKUP_TABLE default
0.012560992800796741 -0.021398385217625798 0.0 -0.0009481799246572513 0.0 0.0
0.007713261260248934 -0.0019218434247674342 0.0 -0.006573754092628339 0.0 0.0
0.002367009174736989 -0.0006110788818377704 0.0 -0.0006880498870059736 0.0 0.0
0.0020867275230904117 -0.0008361684059483374 0.0 -2.6046504069596506e-05 0.0 0.0
0.002868315409627534 -0.0011886108485670754 0.0 0.00010494557691720785 0.0 0.0
0.00454126267532121 -0.0024029699208619375 0.0 0.00021460520917106644 0.0 0.0
0.007384628644812192 -0.004760628595730733 0.0 0.0002861736895156487 0.0 0.0
0.011572897618919848 -0.00844485831242733 0.0 0.00031389835773856984 0.0 0.0
0.01726091210390082 -0.01360065893109855 0.0 0.0003046284253885513 0.0 0.0
0.024518164300869172 -0.020243006286043582 0.0 0.0002436501327313817 0.0 0.0
0.033355757030402874 -0.028349729970090852 0.0 0.0001706699019873696 0.0 0.0
0.04377418010016579 -0.03791787219719326 0.0 8.165068484158747e-05 0.0 0.0
0.05576514980546751 -0.04896921647269281 0.0 -7.625383985616311e-05 0.0 0.0
0.06931084823323608 -0.06151999258671867 0.0 -0.0002551525905992951 0.0 0.0
0.0843095683023458 -0.07551843896669744 0.0 -0.0005040832320284776 0.0 0.0
0.10041729289501158 -0.09067415917472538 0.0 -0.0008315211974847926 0.0 0.0
0.11693060353982862 -0.10633382675027261 0.0 -0.001181502502943666 0.0 0.0
0.13276202566509132 -0.12146142275469657 0.0 -0.001417426411698999 0.0 0.0
0.14654960660056804 -0.13471836135561274 0.0 -0.0013650448842218146 0.0 0.0
0.15670191729920377 -0.14457661130344657 0.0 -0.0014002382642837423 0.0 0.0
0.16065306111813435 -0.14857062644353092 0.0 1.3010426069826053e-15 0.0 0.0
0.1567019172991848 -0.1445766113034206 0.0 0.0014002382642909561 0.0 0.0
0.14654960660052854 -0.13471836135557697 0.0 0.0013650448842277953 0.0 0.0
0.13276202566503395 -0.12146142275464486 0.0 0.0014174264117031215 0.0 0.0
0.11693060353976151 -0.1063338267502125 0.0 0.0011815025029431924 0.0 0.0
0.10041729289494165 -0.09067415917466277 0.0 0.0008315211974825477 0.0 0.0
0.08430956830227444 -0.0755184389666321 0.0 0.0005040832320257595 0.0 0.0
0.06931084823316405 -0.061519992586655275 0.0 0.00025515259059990386 0.0 0.0
0.05576514980539747 -0.048969216472633775 0.0 7.625383985374306e-05 0.0 0.0
0.04377418010010102 -0.037917872197134696 0.0 -8.16506848435039e-05 0.0 0.0
0.03335575703034691 -0.028349729970039837 0.0 -0.00017066990198772326 0.0 0.0
0.024518164300824014 -0.020243006286002074 0.0 -0.00024365013273338677 0.0 0.0
0.017260912103866103 -0.013600658931066715 0.0 -0.00030462842538747854 0.0 0.0
0.011572897618894636 -0.008444858312405833 0.0 -0.00031389835773896476 0.0 0.0
0.007384628644795346 -0.0047606285957162275 0.0 -0.00028617368951649997 0.0 0.0
0.004541262675311937 -0.00240296992085458 0.0 -0.00021460520916995217 0.0 0.0
0.0028683154096237947 -0.0011886108485655751 0.0 -0.00010494557691760178 0.0 0.0
0.002086727523089143 -0.0008361684059468074 0.0 2.604650407125807e-05 0.0 0.0
0.00236700917473553 -0.0006110788818373292 0.0 0.00068804988700485 0.0 0.0
0.007713261260243883 -0.0019218434247642365 0.0 0.006573754092619042 0.0 0.0
0.012560992800789005 -0.021398385217602008 0.0 0.0009481799246125277 0.0 0.0
0.008618755312357269 -0.01911114386877916 0.0 -0.0004809644180660223 0.0 0.0
0.0050773177981773086 -0.0014242711381351365 0.0 -0.005238598209857627 0.0 0.0
0.0016029370510576835 -0.00048536266459974604 0.0 -0.0004487514889642376 0.0 0.0
0.001857725663000677 -0.0007902414276179153 0.0 -0.0002062147891369055 0.0 0.0
0.0024976810634587763 -0.0010825479436942227 0.0 -0.00016037035490369653 0.0 0.0
0.003918694910663334 -0.002154802122088872 0.0 -0.00020174629143436513 0.0 0.0
0.00644807614579582 -0.0043459431086559225 0.0 -0.00041728853124147424 0.0 0.0
0.010246730582810998 -0.007828154879094341 0.0 -0.0007333229680892764 0.0 0.0
0.015433232544212087 -0.012731453986975496 0.0 -0.001163053788810786 0.0 0.0
0.02203366501983001 -0.019050329399288368 0.0 -0.0016846642729548104 0.0 0.0
0.030024498692044863 -0.026744505182717305 0.0 -0.0022416434953853905 0.0 0.0
0.03939351481050364 -0.035799985078916366 0.0 -0.0028028828816439753 0.0 0.0
0.05016846338320903 -0.04624987084766182 0.0 -0.0034094696777196023 0.0 0.0
0.06236754656835079 -0.05813476172721892 0.0 -0.004078944480287609 0.0 0.0
0.07591265219508883 -0.07141080120808765 0.0 -0.004800687857573729 0.0 0.0
0.09050830227228951 -0.08581163136425408 0.0 -0.005526989458024338 0.0 0.0
0.1055283601364922 -0.10072927044699446 0.0 -0.006079097678658893 0.0 0.0
0.12000065994729914 -0.11518818521091503 0.0 -0.006151849171191829 0.0 0.0
0.1326347805783467 -0.12789880734723705 0.0 -0.0054910486383187036 0.0 0.0
0.1416940089692567 -0.137244605203537 0.0 -0.0043734803516690575 0.0 0.0
0.14507621419259045 -0.14107493247582498 0.0 6.419777903721169e-15 0.0 0.0
0.1416940089692388 -0.1372446052035206 0.0 0.0043734803516846605 0.0 0.0
0.13263478057831146 -0.1278988073472041 0.0 0.005491048638333274 0.0 0.0
0.12000065994724901 -0.11518818521086732 0.0 0.0061518491711999084 0.0 0.0
0.105528360136433 -0.10072927044693705 0.0 0.006079097678659241 0.0 0.0
0.09050830227222673 -0.0858116313641927 0.0 0.005526989458020307 0.0 0.0
0.07591265219502452 -0.0714108012080243 0.0 0.0048006878575715915 0.0 0.0
0.06236754656828615 -0.058134761727156745 0.0 0.0040789444802865615 0.0 0.0
0.05016846338314634 -0.04624987084760126 0.0 0.003409469677714654 0.0 0.0
0.039393514810445535 -0.03579998507885944 0.0 0.002802882881640106 0.0 0.0
0.030024498691994327 -0.02674450518266828 0.0 0.002241643495381174 0.0 0.0
0.02203366501978905 -0.019050329399249104 0.0 0.00168466427295036 0.0 0.0
0.015433232544180345 -0.012731453986945671 0.0 0.0011630537888084394 0.0 0.0
0.010246730582787984 -0.007828154879073892 0.0 0.000733322968087351 0.0 0.0
0.006448076145781196 -0.0043459431086437786 0.0 0.0004172885312393948 0.0 0.0
0.00391869491065546 -0.0021548021220822453 0.0 0.00020174629143361695 0.0 0.0
0.002497681063455645 -0.0010825479436930045 0.0 0.0001603703549038068 0.0 0.0
0.0018577256629998531 -0.0007902414276179232 0.0 0.00020621478913760804 0.0 0.0
0.0016029370510574445 -0.0004853626646000239 0.0 0.0004487514889640262 0.0 0.0
0.005077317798170997 -0.0014242711381321975 0.0 0.005238598209846954 0.0 0.0
0.00861875531234464 -0.01911114386875447 0.0 0.0004809644180325545 0.0 0.0
0.006245849090128089 -0.015139905641115784 0.0 -0.00321050774411249 0.0 0.0
0.0035677515766838275 -0.0007759719724987844 0.0 -0.005151830641514367 0.0 0.0
0.001127685082372572 -0.0002811462782346565 0.0 -0.0004263387420885648 0.0 0.0
0.0015854601121245448 -0.0006792351710077119 0.0 -0.00047913995927333585 0.0 0.0
0.0021615785940440266 -0.0009023863962395035 0.0 -0.0004729543563290568 0.0 0.0
0.003326437038666699 -0.0016910623564219168 0.0 -0.000529532622842199 0.0 0.0
0.005518431583855246 -0.00352887956849199 0.0 -0.0009338152903473921 0.0 0.0
0.008909391660280628 -0.006601153252939877 0.0 -0.0015574457502967856 0.0 0.0
0.01356993723654707 -0.010984659060142198 0.0 -0.0023961080860021608 0.0 0.0
0.019496655378545585 -0.01664855208883404 0.0 -0.003394788721147581 0.0 0.0
0.02663763604672482 -0.023514754274710076 0.0 -0.00446260177394703 0.0 0.0
0.03496785061316828 -0.03155177016797514 0.0 -0.0055238768257197535 0.0 0.0
0.04452226662988122 -0.040802101414437575 0.0 -0.006594882739221464 0.0 0.0
0.05535689915024712 -0.05134375994113819 0.0 -0.0077655459540042476 0.0 0.0
0.06743113466041822 -0.06316498303266607 0.0 -0.009043439063040934 0.0 0.0
0.08050009829302453 -0.07604832162579472 0.0 -0.010300403422276113 0.0 0.0
0.09404041394659797 -0.0894824878725301 0.0 -0.0112298882671457 0.0 0.0
0.10719243974018536 -0.10261715723128616 0.0 -0.01135519162270811 0.0 0.0
0.11870611630173271 -0.11424005378929597 0.0 -0.010277178617880993 0.0 0.0
0.1269952519356859 -0.12271945388844874 0.0 -0.007892761910875451 0.0 0.0
0.13012022174274496 -0.12639546640526927 0.0 1.0425254409751616e-14 0.0 0.0
0.12699525193566938 -0.12271945388843858 0.0 0.007892761910901522 0.0 0.0
0.11870611630170111 -0.11424005378926252 0.0 0.01027717861790996 0.0 0.0
0.10719243974014178 -0.10261715723124316 0.0 0.011355191622726517 0.0 0.0
0.09404041394654597 -0.08948248787248395 0.0 0.011229888267148217 0.0 0.0
0.08050009829296845 -0.07604832162573694 0.0 0.010300403422271825 0.0 0.0
0.06743113466036087 -0.06316498303261035 0.0 0.009043439063039366 0.0 0.0
0.05535689915018963 -0.05134375994108302 0.0 0.00776554595400223 0.0 0.0
0.04452226662982558 -0.04080210141437947 0.0 0.006594882739215413 0.0 0.0
0.034967850613116545 -0.03155177016792211 0.0 0.005523876825711649 0.0 0.0
0.026637636046679593 -0.023514754274665144 0.0 0.004462601773938191 0.0 0.0
0.0194966553785088 -0.016648552088798948 0.0 0.003394788721140308 0.0 0.0
0.013569937236518696 -0.010984659060117256 0.0 0.0023961080859959583 0.0 0.0
0.008909391660260255 -0.00660115325291901 0.0 0.0015574457502930171 0.0 0.0
0.005518431583842307 -0.003528879568483219 0.0 0.0009338152903446296 0.0 0.0
0.003326437038660357 -0.0016910623564180877 0.0 0.0005295326228405843 0.0 0.0
0.002161578594041884 -0.0009023863962383486 0.0 0.0004729543563294882 0.0 0.0
0.0015854601121239517 -0.0006792351710073762 0.0 0.0004791399592730339 0.0 0.0
0.0011276850823725496 -0.00028114627823517456 0.0 0.0004263387420885296 0.0 0.0
0.0035677515766777837 -0.0007759719724958746 0.0 0.0051518306415017775 0.0 0.0
0.006245849090115887 -0.015139905641091505 0.0 0.0032105077440918936 0.0 0.0
0.004669901502901469 -0.01213800643455066 0.0 -0.0036299844559841516 0.0 0.0
0.002607672849550371 -0.0005644257801961602 0.0 -0.004700595394529778 0.0 0.0
0.0008074739823243054 -0.00015939165482322767 0.0 -0.0007157307826811841 0.0 0.0
0.0013147310735920766 -0.0005458957111799526 0.0 -0.0007447286904069743 0.0 0.0
0.0018502893947855707 -0.0007649652205827411 0.0 -0.0007884677078044076 0.0 0.0
0.0027823366236019572 -0.0013109563678875824 0.0 -0.0008375769606351654 0.0 0.0
0.004613301810842491 -0.0027559335463462793 0.0 -0.0012800969504067608 0.0 0.0
0.007571010987910375 -0.005391485390480278 0.0 -0.0021602242851641498 0.0 0.0
0.011687821008212562 -0.00923290501148135 0.0 -0.003311251679103494 0.0 0.0
0.016927000239080718 -0.01422431452867657 0.0 -0.0046777961009784935 0.0 0.0
0.023213479505483463 -0.020258776168497014 0.0 -0.006132086533662481 0.0 0.0
0.030509914985863876 -0.027285083316502576 0.0 -0.007574633652046589 0.0 0.0
0.038852346868948874 -0.0353434558880315 0.0 -0.009017758440869413 0.0 0.0
0.04830964231746379 -0.04453071159435659 0.0 -0.01055630875668955 0.0 0.0
0.05888904394513324 -0.054875058479718734 0.0 -0.012225966193558991 0.0 0.0
0.07041929380665025 -0.06622266893358991 0.0 -0.013885373434639948 0.0 0.0
0.0824723443120987 -0.0781653487332739 0.0 -0.015142792173255485 0.0 0.0
0.09430448315347231 -0.08997998239912372 0.0 -0.015415342103971746 0.0 0.0
0.10479185068928028 -0.10055653563655956 0.0 -0.014095641941026953 0.0 0.0
0.11252769949324011 -0.10843331227517068 0.0 -0.010489745906271736 0.0 0.0
0.11552176652372717 -0.11220489466494599 0.0 1.5217428012137546e-14 0.0 0.0
0.11252769949322507 -0.10843331227515543 0.0 0.010489745906308006 0.0 0.0
0.10479185068925245 -0.10055653563652538 0.0 0.014095641941063379 0.0 0.0
0.09430448315343394 -0.08997998239908392 0.0 0.015415342103993663 0.0 0.0
0.08247234431205348 -0.07816534873323212 0.0 0.015142792173258812 0.0 0.0
0.07041929380660158 -0.06622266893354131 0.0 0.01388537343463505 0.0 0.0
0.058889043945082986 -0.05487505847966731 0.0 0.01222596619355553 0.0 0.0
0.048309642317413616 -0.04453071159430889 0.0 0.010556308756685506 0.0 0.0
0.038852346868900045 -0.03534345588798281 0.0 0.009017758440861294 0.0 0.0
0.03050991498581889 -0.027285083316457435 0.0 0.007574633652034415 0.0 0.0
0.02321347950544417 -0.020258776168459 0.0 0.006132086533651192 0.0 0.0
0.016927000239048064 -0.014224314528646378 0.0 0.004677796100966957 0.0 0.0
0.01168782100818734 -0.009232905011460284 0.0 0.003311251679095308 0.0 0.0
0.007571010987892587 -0.005391485390462108 0.0 0.0021602242851585384 0.0 0.0
0.004613301810831963 -0.0027559335463403886 0.0 0.0012800969504027872 0.0 0.0
0.0027823366235973242 -0.001310956367885171 0.0 0.0008375769606326423 0.0 0.0
0.0018502893947839956 -0.0007649652205819841 0.0 0.0007884677078039825 0.0 0.0
0.001314731073591782 -0.0005458957111792172 0.0 0.000744728690405008 0.0 0.0
0.0008074739823244276 -0.00015939165482378641 0.0 0.0007157307826792913 0.0 0.0
0.002607672849545066 -0.0005644257801932391 0.0 0.004700595394517383 0.0 0.0
0.004669901502890798 -0.012138006434529133 0.0 0.0036299844559695826 0.0 0.0
0.0035078553028763757 -0.009734080313961863 0.0 -0.003255040888618139 0.0 0.0
0.0019321977376529401 -0.0004718856168338184 0.0 -0.004210906456478013 0.0 0.0
0.000586731778414113 -9.701812018532385e-05 0.0 -0.001095258743713628 0.0 0.0
0.0010631984355442604 -0.00041440523172263426 0.0 -0.0010295390301367348 0.0 0.0
0.001555840902368311 -0.000643565921889493 0.0 -0.0010991227708700968 0.0 0.0
0.0022965751173900342 -0.0010207889050035087 0.0 -0.0011421949804255628 0.0 0.0
0.003756297255892201 -0.0020724608124566843 0.0 -0.0015315443810505988 0.0 0.0
0.006245620080070621 -0.0042133948015688925 0.0 -0.0025011511559261527 0.0 0.0
0.009804549474138302 -0.007497008426633608 0.0 -0.003900927967011989 0.0 0.0
0.014343073871928666 -0.011800318201024496 0.0 -0.005525829409809846 0.0 0.0
0.01977218857277443 -0.016998083378042136 0.0 -0.007250132320571515 0.0 0.0
0.026037607925828907 -0.023017853842247887 0.0 -0.008954666825805325 0.0 0.0
0.03317020098270168 -0.02989115396474252 0.0 -0.010654067197708826 0.0 0.0
0.04125573841851792 -0.037724506045855394 0.0 -0.012448889784687313 0.0 0.0
0.05032961004478932 -0.04658025837532441 0.0 -0.014371785772025875 0.0 0.0
0.060289816771436466 -0.056369180465421456 0.0 -0.01627139929054535 0.0 0.0
0.07082645093163223 -0.06678852193406587 0.0 -0.01777371944777257 0.0 0.0
0.08133347042898131 -0.07725792753712883 0.0 -0.01826541174263918 0.0 0.0
0.09086179826614274 -0.08684719630716325 0.0 -0.016863613516097175 0.0 0.0
0.09818334135677391 -0.09429146332156288 0.0 -0.012473973694435567 0.0 0.0
0.10112608856766334 -0.09829381328377373 0.0 1.923374653989285e-14 0.0 0.0
0.09818334135676007 -0.09429146332155124 0.0 0.012473973694479185 0.0 0.0
0.0908617982661177 -0.08684719630713249 0.0 0.016863613516137545 0.0 0.0
0.0813334704289475 -0.07725792753709602 0.0 0.018265411742662985 0.0 0.0
0.07082645093159294 -0.06678852193402411 0.0 0.01777371944777762 0.0 0.0
0.06028981677139447 -0.05636918046538626 0.0 0.016271399290538856 0.0 0.0
0.05032961004474584 -0.04658025837527886 0.0 0.014371785772018846 0.0 0.0
0.04125573841847476 -0.0377245060458115 0.0 0.012448889784681009 0.0 0.0
0.03317020098265999 -0.029891153964706617 0.0 0.010654067197697983 0.0 0.0
0.026037607925790483 -0.023017853842212523 0.0 0.00895466682579217 0.0 0.0
0.019772188572740875 -0.016998083378009836 0.0 0.007250132320557797 0.0 0.0
0.014343073871900612 -0.011800318200999353 0.0 0.00552582940979536 0.0 0.0
0.009804549474116636 -0.007497008426614219 0.0 0.003900927967004227 0.0 0.0
0.006245620080055664 -0.004213394801554367 0.0 0.0025011511559202716 0.0 0.0
0.003756297255883578 -0.002072460812449774 0.0 0.0015315443810478243 0.0 0.0
0.00229657511738637 -0.0010207889050009714 0.0 0.0011421949804230082 0.0 0.0
0.0015558409023671991 -0.0006435659218892561 0.0 0.001099122770869267 0.0 0.0
0.0010631984355440492 -0.00041440523172317723 0.0 0.0010295390301340848 0.0 0.0
0.0005867317784141727 -9.701812018589405e-05 0.0 0.001095258743710545 0.0 0.0
0.0019321977376483895 -0.00047188561683128534 0.0 0.004210906456466964 0.0 0.0
0.0035078553028672294 -0.009734080313943492 0.0 0.003255040888606925 0.0 0.0
0.002609844674339435 -0.007740424493170819 0.0 -0.002721632465138058 0.0 0.0
0.0014274706391244085 -0.00041778893286532177 0.0 -0.0037387807040249743 0.0 0.0
0.00042569187120896013 -7.111799855919695e-05 0.0 -0.0014544198406241677 0.0 0.0
0.0008313988013122809 -0.00029513659486764265 0.0 -0.0013195799193561767 0.0 0.0
0.001273919076932654 -0.0005266822241126603 0.0 -0.0013944331053335484 0.0 0.0
0.001860304940367651 -0.0007971789001230984 0.0 -0.001438388551297537 0.0 0.0
0.002976141910088285 -0.0015118938171907205 0.0 -0.0017622099998145279 0.0 0.0
0.0049655374526585295 -0.0031194000591829958 0.0 -0.002643798286904386 0.0 0.0
0.007929881882197287 -0.005796562736904316 0.0 -0.004132176210449222 0.0 0.0
0.01176390402002938 -0.00940006189260665 0.0 -0.005927777020367989 0.0 0.0
0.016331198526223625 -0.013754757594493803 0.0 -0.007804493357114006 0.0 0.0
0.0215699554013852 -0.018771701670115548 0.0 -0.00965936229084887 0.0 0.0
0.027501024576548797 -0.024467399218956347 0.0 -0.011494415961988467 0.0 0.0
0.034212343070288885 -0.030950955979138585 0.0 -0.013412815251297235 0.0 0.0
0.04177844066464833 -0.038314170660218305 0.0 -0.015460251541167019 0.0 0.0
0.050155498980993994 -0.04652754373094378 0.0 -0.017478146177489842 0.0 0.0
0.05912532846539789 -0.05537884799353639 0.0 -0.019112588025426386 0.0 0.0
0.06826615645590584 -0.06445205933989141 0.0 -0.01980208843931481 0.0 0.0
0.07685974614212461 -0.07306765860117082 0.0 -0.018552592009178605 0.0 0.0
0.08385466562452498 -0.08017883426697611 0.0 -0.013914948566756086 0.0 0.0
0.0868018798680986 -0.08452437233821074 0.0 1.9079356150530913e-14 0.0 0.0
0.08385466562451284 -0.08017883426696605 0.0 0.013914948566797883 0.0 0.0
0.07685974614210322 -0.07306765860114509 0.0 0.0185525920092211 0.0 0.0
0.06826615645587747 -0.0644520593398613 0.0 0.01980208843933992 0.0 0.0
0.059125328465364876 -0.05537884799350813 0.0 0.01911258802543037 0.0 0.0
0.050155498980958134 -0.04652754373090779 0.0 0.01747814617748296 0.0 0.0
0.04177844066461177 -0.038314170660182875 0.0 0.01546025154115881 0.0 0.0
0.03421234307025328 -0.03095095597909965 0.0 0.01341281525129049 0.0 0.0
0.027501024576514554 -0.024467399218927367 0.0 0.011494415961980333 0.0 0.0
0.021569955401353577 -0.018771701670085676 0.0 0.009659362290837258 0.0 0.0
0.016331198526195426 -0.013754757594465556 0.0 0.007804493357097889 0.0 0.0
0.011763904020006174 -0.009400061892584211 0.0 0.005927777020353102 0.0 0.0
0.007929881882179541 -0.00579656273688898 0.0 0.004132176210439681 0.0 0.0
0.004965537452646488 -0.0031194000591707296 0.0 0.0026437982868995403 0.0 0.0
0.0029761419100818877 -0.0015118938171869952 0.0 0.0017622099998117246 0.0 0.0
0.0018603049403651479 -0.0007971789001216254 0.0 0.001438388551294295 0.0 0.0
0.0012739190769318726 -0.0005266822241117354 0.0 0.0013944331053330015 0.0 0.0
0.0008313988013118456 -0.0002951365948689075 0.0 0.001319579919353579 0.0 0.0
0.00042569187120886857 -7.111799855873662e-05 0.0 0.0014544198406208667 0.0 0.0
0.0014274706391206639 -0.00041778893286314734 0.0 0.00373878070401618 0.0 0.0
0.002609844674331943 -0.007740424493155574 0.0 0.002721632465130209 0.0 0.0
0.0019075087655141126 -0.006067054886522582 0.0 -0.002228767724360728 0.0 0.0
0.0010390654494964757 -0.000380978468928158 0.0 -0.0033128004518910236 0.0 0.0
0.00029808761930976416 -6.0262779738185125e-05 0.0 -0.0017517255986294654 0.0 0.0
0.0006156091777169755 -0.00019008336069061292 0.0 -0.0015920041655238311 0.0 0.0
0.0009987598133184296 -0.0004050514789488061 0.0 -0.001659014011141215 0.0 0.0
0.001459315172098918 -0.0006197657154786453 0.0 -0.0017330425574465182 0.0 0.0
0.002273200620385141 -0.0010679804358664246 0.0 -0.001962126817781421 0.0 0.0
0.0037717904733069038 -0.0021713342810999094 0.0 -0.0026991853976939912 0.0 0.0
0.0061023429408942195 -0.004183365355968672 0.0 -0.004044788060940185 0.0 0.0
0.009203535057395826 -0.007050603184365964 0.0 -0.0058482666305738505 0.0 0.0
0.012910053896176573 -0.010554544610158392 0.0 -0.007774852247561586 0.0 0.0
0.017124372349221557 -0.01456958630548038 0.0 -0.009671047134263179 0.0 0.0
0.021862442985563217 -0.019097951447450887 0.0 -0.011526781970648539 0.0 0.0
0.027211297118663946 -0.0242415722384673 0.0 -0.013442041611538105 0.0 0.0
0.033263966313860145 -0.030110315428314452 0.0 -0.015462195885427889 0.0 0.0
0.04003591216446663 -0.036732996236663866 0.0 -0.01747690904953252 0.0 0.0
0.04740464519444043 -0.043976675010807174 0.0 -0.019143166313170396 0.0 0.0
0.055111761858327606 -0.051580520222584886 0.0 -0.01998042983852316 0.0 0.0
0.06271961256198688 -0.05916317193002925 0.0 -0.019085309322562156 0.0 0.0
0.06942107230837209 -0.06597079684371748 0.0 -0.014786538612696876 0.0 0.0
0.07241372960074713 -0.0707670391866708 0.0 1.7655581857622948e-14 0.0 0.0
0.06942107230836199 -0.06597079684370481 0.0 0.014786538612739077 0.0 0.0
0.0627196125619689 -0.05916317193000724 0.0 0.019085309322605205 0.0 0.0
0.055111761858303916 -0.05158052022256084 0.0 0.019980429838546386 0.0 0.0
0.04740464519441345 -0.04397667501078997 0.0 0.019143166313174025 0.0 0.0
0.040035912164437144 -0.0367329962366282 0.0 0.017476909049524213 0.0 0.0
0.03326396631383061 -0.030110315428287654 0.0 0.01546219588542103 0.0 0.0
0.027211297118636266 -0.024241572238441426 0.0 0.013442041611532396 0.0 0.0
0.021862442985536357 -0.019097951447425193 0.0 0.011526781970641196 0.0 0.0
0.017124372349196053 -0.01456958630545695 0.0 0.009671047134249919 0.0 0.0
0.012910053896153854 -0.010554544610136983 0.0 0.007774852247543941 0.0 0.0
0.00920353505737709 -0.007050603184346703 0.0 0.0058482666305594835 0.0 0.0
0.0061023429408807485 -0.004183365355957493 0.0 0.004044788060929352 0.0 0.0
0.0037717904732981703 -0.002171334281092054 0.0 0.002699185397689626 0.0 0.0
0.0022732006203803313 -0.0010679804358667013 0.0 0.00196212681777888 0.0 0.0
0.0014593151720972276 -0.0006197657154787971 0.0 0.0017330425574444337 0.0 0.0
0.0009987598133177607 -0.0004050514789475372 0.0 0.001659014011139301 0.0 0.0
0.0006156091777165841 -0.00019008336069199964 0.0 0.0015920041655219895 0.0 0.0
0.00029808761930960517 -6.0262779737343554e-05 0.0 0.0017517255986265697 0.0 0.0
0.0010390654494936472 -0.0003809784689269509 0.0 0.003312800451884147 0.0 0.0
0.0019075087655087623 -0.0060670548865101835 0.0 0.002228767724356086 0.0 0.0
0.0013576998441918852 -0.004672474186758872 0.0 -0.0018544811301772404 0.0 0.0
0.0007342470978185059 -0.0003584965924744657 0.0 -0.0029289888800936486 0.0 0.0
0.00018657139511034552 -4.8529499149638285e-05 0.0 -0.0019801734552830556 0.0 0.0
0.000411253847896766 -9.746548089765349e-05 0.0 -0.001828813545111618 0.0 0.0
0.000723556109141719 -0.00027735192587467566 0.0 -0.001883593487759788 0.0 0.0
0.0010843616363809246 -0.000462261310068544 0.0 -0.0020059501645206617 0.0 0.0
0.0016434014260619714 -0.0007289719203515081 0.0 -0.0021629517515351047 0.0 0.0
0.0026791470452555686 -0.0013938943696547284 0.0 -0.0026841784151844816 0.0 0.0
0.004370437382550184 -0.002736282038736728 0.0 -0.0037519684651323567 0.0 0.0
0.006698778964217731 -0.004811445744396579 0.0 -0.005316849319511461 0.0 0.0
0.009522584697969915 -0.0074333753550122166 0.0 -0.007132416974838317 0.0 0.0
0.01271847301363874 -0.01044380000810296 0.0 -0.00894917888989649 0.0 0.0
0.016276392518100303 -0.013814420744673601 0.0 -0.010720824295992252 0.0 0.0
0.02027295332817229 -0.01763237569129897 0.0 -0.012511138772959762 0.0 0.0
0.024815867019383146 -0.022011814585995056 0.0 -0.014377355074645845 0.0 0.0
0.02996869045841028 -0.02702580598578994 0.0 -0.016241062741709937 0.0 0.0
0.035689943864117064 -0.03262908621979002 0.0 -0.01783522873401657 0.0 0.0
0.04187740873045618 -0.03868146397595453 0.0 -0.01872891842916249 0.0 0.0
0.04838874883496377 -0.04509230909321914 0.0 -0.018317618900561217 0.0 0.0
0.054754132274482475 -0.05153149221209648 0.0 -0.01498945568334421 0.0 0.0
0.05780618645446815 -0.05688364706957895 0.0 1.485660552913437e-14 0.0 0.0
0.05475413227447467 -0.051531492212090683 0.0 0.014989455683384868 0.0 0.0
0.04838874883494951 -0.045092309093205024 0.0 0.01831761890060218 0.0 0.0
0.04187740873043756 -0.03868146397593547 0.0 0.018728918429185164 0.0 0.0
0.03568994386409587 -0.0326290862197775 0.0 0.017835228734019923 0.0 0.0
0.029968690458387723 -0.02702580598576283 0.0 0.016241062741700504 0.0 0.0
0.02481586701936121 -0.02201181458597815 0.0 0.014377355074638519 0.0 0.0
0.020272953328152016 -0.017632375691279917 0.0 0.012511138772955385 0.0 0.0
0.016276392518080628 -0.01381442074465621 0.0 0.010720824295983538 0.0 0.0
0.012718473013619402 -0.010443800008087492 0.0 0.00894917888988382 0.0 0.0
0.009522584697952865 -0.007433375354995872 0.0 0.00713241697482357 0.0 0.0
0.006698778964204424 -0.004811445744384529 0.0 0.005316849319499683 0.0 0.0
0.004370437382540757 -0.0027362820387272693 0.0 0.003751968465125725 0.0 0.0
0.002679147045249679 -0.0013938943696506425 0.0 0.0026841784151807823 0.0 0.0
0.0016434014260589898 -0.0007289719203506769 0.0 0.0021629517515327997 0.0 0.0
0.0010843616363797337 -0.00046226131006797384 0.0 0.0020059501645194404 0.0 0.0
0.0007235561091414387 -0.0002773519258737672 0.0 0.0018835934877571678 0.0 0.0
0.0004112538478967186 -9.746548089740716e-05 0.0 0.001828813545109493 0.0 0.0
0.00018657139511005916 -4.852949914870331e-05 0.0 0.00198017345528045 0.0 0.0
0.000734247097816652 -0.0003584965924746279 0.0 0.0029289888800885385 0.0 0.0
0.001357699844188473 -0.004672474186749343 0.0 0.0018544811301741226 0.0 0.0
0.0009491525636876315 -0.00355684706240484 0.0 -0.0016338475926715628 0.0 0.0
0.0004965355318695306 -0.0003510903326101411 0.0 -0.002599599591472162 0.0 0.0
7.666089815833282e-05 -2.5784341515632654e-05 0.0 -0.002144068489110665 0.0 0.0
0.00021595431938683284 -1.4292625816021788e-05 0.0 -0.0020183709801035662 0.0 0.0
0.0004469804935083087 -0.00014839223909766917 0.0 -0.002062367679050521 0.0 0.0
0.0007142777726611765 -0.00029903641662172207 0.0 -0.0022187431564427607 0.0 0.0
0.0010751778538128406 -0.00046848484211845984 0.0 -0.002393976257514249 0.0 0.0
0.0017011795119052965 -0.0008040631388682571 0.0 -0.0026795684842350924 0.0 0.0
0.0027664505108145974 -0.0015322611170604618 0.0 -0.0033496395916178096 0.0 0.0
0.004301945540718399 -0.0027880784914768855 0.0 -0.0044572213596968165 0.0 0.0
0.006208497368546901 -0.004476425733474325 0.0 -0.005910720990906495 0.0 0.0
0.00837107826928636 -0.006459504564167686 0.0 -0.007466594678169392 0.0 0.0
0.010756868079244069 -0.008671384420699632 0.0 -0.009043080289191843 0.0 0.0
0.013420396898016987 -0.011179407747550768 0.0 -0.010620204973921138 0.0 0.0
0.016460549047393712 -0.014078489830030337 0.0 -0.012216312974664053 0.0 0.0
0.019977879512951654 -0.017468235862419156 0.0 -0.013825327665696285 0.0 0.0
0.024024369684386957 -0.021395427829727042 0.0 -0.015276223344402332 0.0 0.0
0.028600878781676338 -0.025837261157484546 0.0 -0.016173001742497837 0.0 0.0
0.03381659322223522 -0.030874471294171778 0.0 -0.016093063980845732 0.0 0.0
0.039700667693993885 -0.03671413239755982 0.0 -0.014242360222690336 0.0 0.0
0.042788140785042714 -0.04269760352252502 0.0 1.3750285632330161e-14 0.0 0.0
0.03970066769398919 -0.036714132397557296 0.0 0.014242360222724973 0.0 0.0
0.03381659322222501 -0.030874471294166587 0.0 0.01609306398088217 0.0 0.0
0.028600878781663116 -0.02583726115747039 0.0 0.01617300174251587 0.0 0.0
0.024024369684372226 -0.021395427829714507 0.0 0.015276223344401374 0.0 0.0
0.01997787951293637 -0.017468235862401673 0.0 0.013825327665688291 0.0 0.0
0.016460549047379498 -0.014078489830019926 0.0 0.012216312974657105 0.0 0.0
0.013420396898004136 -0.01117940774753556 0.0 0.010620204973917384 0.0 0.0
0.01075686807923195 -0.008671384420689564 0.0 0.009043080289184746 0.0 0.0
0.008371078269274582 -0.006459504564155257 0.0 0.00746659467815966 0.0 0.0
0.006208497368535915 -0.00447642573346504 0.0 0.005910720990895201 0.0 0.0
0.004301945540709765 -0.0027880784914709337 0.0 0.004457221359687287 0.0 0.0
0.0027664505108088585 -0.001532261117054017 0.0 0.0033496395916135582 0.0 0.0
0.0017011795119019888 -0.0008040631388679488 0.0 0.002679568484232603 0.0 0.0
0.0010751778538111423 -0.000468484842118942 0.0 0.0023939762575119865 0.0 0.0
0.0007142777726602375 -0.0002990364166210044 0.0 0.0022187431564411634 0.0 0.0
0.00044698049350777255 -0.00014839223909720477 0.0 0.0020623676790480876 0.0 0.0
0.0002159543193863243 -1.4292625815461232e-05 0.0 0.0020183709801000135 0.0 0.0
7.66608981579168e-05 -2.5784341514960357e-05 0.0 0.002144068489108992 0.0 0.0
0.0004965355318681133 -0.00035109033261045467 0.0 0.002599599591468426 0.0 0.0
0.0009491525636850323 -0.0035568470623980456 0.0 0.0016338475926692404 0.0 0.0
0.0006651966910290331 -0.0027011086784954476 0.0 -0.0015150599632675977 0.0 0.0
0.00031714055578188605 -0.00035895903170723184 0.0 -0.0023606885192141245 0.0 0.0
-3.4143055091787945e-05 9.768430230829077e-06 0.0 -0.0022470112231841883 0.0 0.0
2.74703839212663e-05 6.222605649201674e-05 0.0 -0.002154797721997837 0.0 0.0
0.00017228454323103755 -2.1522727178420406e-05 0.0 -0.0021899783319784105 0.0 0.0
0.0003367217163394777 -0.00012623825332919798 0.0 -0.0023540126781079807 0.0 0.0
0.0005342209528938774 -0.0002303686321384861 0.0 -0.0025805147832916333 0.0 0.0
0.0008298760098134038 -0.00037073015447375675 0.0 -0.002787943668638981 0.0 0.0
0.0013219614221258542 -0.0006486310531480049 0.0 -0.0030763816323561826 0.0 0.0
0.002064324785799709 -0.0011674298079678573 0.0 -0.003613845916634587 0.0 0.0
0.0030225696706069655 -0.0019185105255915052 0.0 -0.0044778046772452305 0.0 0.0
0.004119147070810729 -0.0028396891220998097 0.0 -0.005585814962417656 0.0 0.0
0.005319628283261786 -0.0038711824931007216 0.0 -0.006815762767265263 0.0 0.0
0.0066619123065884255 -0.005063929066362786 0.0 -0.008120941741284 0.0 0.0
0.008211971922702024 -0.0064823422806735 0.0 -0.009501352633174054 0.0 0.0
0.010078536181307426 -0.008222696298032748 0.0 -0.010960615883872208 0.0 0.0
0.01240889289336005 -0.010422971517298275 0.0 -0.012385586922644503 0.0 0.0
0.015344634738616927 -0.013222507408817906 0.0 -0.013391238493767506 0.0 0.0
0.019059946295231427 -0.01676386253523236 0.0 -0.01340552415183998 0.0 0.0
0.024102410824249916 -0.021501809578029277 0.0 -0.012411731860200198 0.0 0.0
0.02706448659878667 -0.028002322573673084 0.0 1.0168081654438055e-14 0.0 0.0
0.024102410824247716 -0.021501809578022446 0.0 0.012411731860228852 0.0 0.0
0.019059946295225363 -0.016763862535227297 0.0 0.013405524151870143 0.0 0.0
0.01534463473860919 -0.013222507408811444 0.0 0.0133912384937795 0.0 0.0
0.012408892893352685 -0.010422971517293027 0.0 0.012385586922640742 0.0 0.0
0.010078536181300097 -0.008222696298027724 0.0 0.010960615883863094 0.0 0.0
0.008211971922695509 -0.006482342280669098 0.0 0.00950135263316794 0.0 0.0
0.006661912306583249 -0.005063929066361378 0.0 0.008120941741281631 0.0 0.0
0.005319628283256854 -0.0038711824930957334 0.0 0.006815762767260373 0.0 0.0
0.004119147070805376 -0.0028396891220944754 0.0 0.0055858149624084495 0.0 0.0
0.003022569670602034 -0.0019185105255915842 0.0 0.004477804677234734 0.0 0.0
0.0020643247857963414 -0.0011674298079617346 0.0 0.0036138459166295857 0.0 0.0
0.0013219614221237797 -0.0006486310531451996 0.0 0.003076381632354096 0.0 0.0
0.0008298760098120541 -0.00037073015447213213 0.0 0.0027879436686370483 0.0 0.0
0.0005342209528932519 -0.00023036863213833734 0.0 0.002580514783288772 0.0 0.0
0.0003367217163392691 -0.0001262382533276313 0.0 0.0023540126781043426 0.0 0.0
0.00017228454323095236 -2.152272717903395e-05 0.0 0.002189978331976193 0.0 0.0
2.7470383921200115e-05 6.222605649353875e-05 0.0 0.0021547977219948987 0.0 0.0
-3.41430550919621e-05 9.768430231115438e-06 0.0 0.0022470112231826656 0.0 0.0
0.00031714055578104645 -0.0003589590317076292 0.0 0.0023606885192117622 0.0 0.0
0.0006651966910276317 -0.0027011086784908666 0.0 0.0015150599632665646 0.0 0.0
0.00046529230118349727 -0.0020681628766982384 0.0 -0.001449274395503243 0.0 0.0
0.0001821106150894431 -0.0003639787647556574 0.0 -0.0021958882630673257 0.0 0.0
-0.00013998254378009534 4.971175909237834e-05 0.0 -0.0022962883727973295 0.0 0.0
-0.00015474096442275308 0.0001350261601072253 0.0 -0.002235532560889336 0.0 0.0
-9.797561638729771e-05 0.00010173852284904129 0.0 -0.0022606443311219814 0.0 0.0
-4.478649044578067e-05 4.888738941012023e-05 0.0 -0.0024127308579724536 0.0 0.0
-1.5290368231107116e-05 1.332735911331985e-05 0.0 -0.002652421364595054 0.0 0.0
-3.7071939654744434e-06 2.571489727516528e-06 0.0 -0.002881908246168454 0.0 0.0
-2.2548384017652043e-07 -1.9541038342187994e-07 0.0 -0.0030184076149493123 0.0 0.0
5.755602501112235e-07 -2.559582963940915e-07 0.0 -0.003254776342131983 0.0 0.0
2.0560149322537387e-07 -8.683084932795929e-07 0.0 -0.0037677168422397024 0.0 0.0
-4.073683447112868e-06 3.2643345423735953e-06 0.0 -0.004612822915009119 0.0 0.0
-1.623938089388569e-05 1.393609639384211e-05 0.0 -0.005631600103280012 0.0 0.0
-2.9710286226195047e-05 2.90923267357798e-05 0.0 -0.006795910076065676 0.0 0.0
-9.412256348698004e-07 1.4457871029720465e-05 0.0 -0.008121813700910786 0.0 0.0
0.0001932690276741848 -0.00013371915356400052 0.0 -0.009602706375745623 0.0 0.0
0.0007935340352693408 -0.000625392195681017 0.0 -0.011184430234016293 0.0 0.0
0.0021123493109255443 -0.0017619442851502 0.0 -0.0126939391300647 0.0 0.0
0.00437009040216521 -0.0037052840313258973 0.0 -0.013819753477065601 0.0 0.0
0.0080724349399292 -0.0066848360830725475 0.0 -0.014220167544222695 0.0 0.0
0.010395798529219085 -0.013569644199910769 0.0 1.061650767297806e-14 0.0 0.0
0.008072434939929544 -0.006684836083069645 0.0 0.014220167544239846 0.0 0.0
0.004370090402162908 -0.003705284031318482 0.0 0.013819753477079269 0.0 0.0
0.0021123493109239328 -0.001761944285147048 0.0 0.012693939130066126 0.0 0.0
0.0007935340352701559 -0.0006253921956852033 0.0 0.011184430234009866 0.0 0.0
0.00019326902767554115 -0.00013371915356539187 0.0 0.00960270637573521 0.0 0.0
-9.412256331547009e-07 1.4457871030133275e-05 0.0 0.008121813700906245 0.0 0.0
-2.9710286223900875e-05 2.9092326726744874e-05 0.0 0.0067959100760620495 0.0 0.0
-1.6239380891334672e-05 1.3936096390343661e-05 0.0 0.005631600103273585 0.0 0.0
-4.073683444862878e-06 3.2643345396790005e-06 0.0 0.004612822915000635 0.0 0.0
2.0560149508391324e-07 -8.683084950183144e-07 0.0 0.0037677168422327384 0.0 0.0
5.755602516535824e-07 -2.5595829374550755e-07 0.0 0.0032547763421304377 0.0 0.0
-2.2548383930712582e-07 -1.954103827368539e-07 0.0 0.0030184076149492828 0.0 0.0
-3.707193965085879e-06 2.5714897283858717e-06 0.0 0.0028819082461674227 0.0 0.0
-1.5290368230979885e-05 1.3327359112843059e-05 0.0 0.002652421364592715 0.0 0.0
-4.478649044569829e-05 4.8887389412972024e-05 0.0 0.0024127308579690453 0.0 0.0
-9.797561638704401e-05 0.00010173852284725763 0.0 0.00226064433112089 0.0 0.0
-0.00015474096442255728 0.00013502616011020572 0.0 0.002235532560887779 0.0 0.0
-0.00013998254377997144 4.9711759092680185e-05 0.0 0.0022962883727964192 0.0 0.0
0.00018211061508917228 -0.00036397876475626 0.0 0.002195888263065237 0.0 0.0
0.0004652923011827454 -0.0020681628766954863 0.0 0.0014492743955024662 0.0 0.0
0.00032894037659117334 -0.001597149390439992 0.0 -0.0013823579908544988 0.0 0.0
8.228038136762807e-05 -0.0003497036580499497 0.0 -0.0020545309134506508 0.0 0.0
-0.00023869021595823898 8.712947568926517e-05 0.0 -0.002296498012638966 0.0 0.0
-0.00032972418477414866 0.00020514510532408284 0.0 -0.0022595497767080026 0.0 0.0
-0.00036209638114361164 0.00021971366798118774 0.0 -0.002269792236336723 0.0 0.0
-0.00042245859299658425 0.00022229161537462583 0.0 -0.0023951506759679253 0.0 0.0
-0.0005639590031222503 0.00025678404531370014 0.0 -0.002599154501435765 0.0 0.0
-0.0008374627701697212 0.00037590928137842746 0.0 -0.002795711314015144 0.0 0.0
-0.0013220922777093793 0.0006481022695527667 0.0 -0.0030793692066600543 0.0 0.0
-0.002062463870828695 0.0011660390852554292 0.0 -0.0036125429656858254 0.0 0.0
-0.003021939139415405 0.0019175354005033412 0.0 -0.004473807248940902 0.0 0.0
-0.004128561073322953 0.0028475113657949217 0.0 -0.005583800660431379 0.0 0.0
-0.005353349679148922 0.0039012708380178566 0.0 -0.006810862094552101 0.0 0.0
-0.006719965987572466 0.005124046350668733 0.0 -0.008110389802191894 0.0 0.0
-0.008209249735389664 0.00651186646209672 0.0 -0.009508900134692242 0.0 0.0
-0.009697229394192326 0.007951658484220714 0.0 -0.011089567374146283 0.0 0.0
-0.010908031385444494 0.009176596706679706 0.0 -0.012917914538114274 0.0 0.0
-0.011437791713722069 0.009769731255636448 0.0 -0.015065408842618179 0.0 0.0
-0.01082697566421036 0.009373810654983472 0.0 -0.017441923086596405 0.0 0.0
-0.007635094637504284 0.007083472311052533 0.0 -0.01845880350732047 0.0 0.0
-0.005093117100938434 -0.000510519981793819 0.0 1.2580214647783805e-14 0.0 0.0
-0.00763509463750464 0.0070834723110511436 0.0 0.018458803507338976 0.0 0.0
-0.010826975664208077 0.009373810654980847 0.0 0.017441923086609887 0.0 0.0
-0.011437791713714729 0.009769731255629462 0.0 0.01506540884262184 0.0 0.0
-0.010908031385434138 0.009176596706669022 0.0 0.012917914538106715 0.0 0.0
-0.009697229394182577 0.007951658484215555 0.0 0.01108956737413553 0.0 0.0
-0.00820924973538043 0.0065118664620886875 0.0 0.009508900134684266 0.0 0.0
-0.006719965987562871 0.005124046350654354 0.0 0.008110389802182748 0.0 0.0
-0.005353349679138424 0.0039012708380068437 0.0 0.006810862094545305 0.0 0.0
-0.004128561073313057 0.0028475113657874676 0.0 0.005583800660420765 0.0 0.0
-0.0030219391394068797 0.0019175354004950418 0.0 0.004473807248930936 0.0 0.0
-0.0020624638708224 0.0011660390852512728 0.0 0.00361254296568078 0.0 0.0
-0.0013220922777057399 0.0006481022695495254 0.0 0.0030793692066588365 0.0 0.0
-0.0008374627701675465 0.00037590928137768294 0.0 0.0027957113140132032 0.0 0.0
-0.0005639590031210727 0.0002567840453106427 0.0 0.0025991545014329006 0.0 0.0
-0.00042245859299583745 0.0002222916153763619 0.0 0.002395150675964827 0.0 0.0
-0.0003620963811431434 0.00021971366798070419 0.0 0.002269792236335189 0.0 0.0
-0.0003297241847740475 0.00020514510532651883 0.0 0.0022595497767072432 0.0 0.0
-0.00023869021595816856 8.712947568993601e-05 0.0 0.002296498012637868 0.0 0.0
8.228038136747339e-05 -0.00034970365805012425 0.0 0.0020545309134485583 0.0 0.0
0.00032894037659080233 -0.0015971493904382156 0.0 0.001382357990853507 0.0 0.0
0.00022947155386675652 -0.0012139950553483317 0.0 -0.0012664692642044856 0.0 0.0
3.973714031339444e-06 -0.00031769844381733205 0.0 -0.0019091917699290985 0.0 0.0
-0.00033023790883495964 0.00012211248015736408 0.0 -0.002245270968015828 0.0 0.0
-0.0004964465459855704 0.00027151767092241575 0.0 -0.0022265741545042256 0.0 0.0
-0.0006182508416018134 0.0003315521556438303 0.0 -0.0022144725812026102 0.0 0.0
-0.0007910461364376885 0.0003886179216505209 0.0 -0.002297608729853188 0.0 0.0
-0.0011020965267941499 0.0004955287008831976 0.0 -0.00243194342459434 0.0 0.0
-0.001707398892104802 0.0008090513237142296 0.0 -0.0026958019784348755 0.0 0.0
-0.002765436946375443 0.001530440825368814 0.0 -0.003351512028344678 0.0 0.0
-0.004299444903369984 0.002785549811908213 0.0 -0.004453064737002233 0.0 0.0
-0.006208875659238134 0.0044770757899726165 0.0 -0.005908010678250021 0.0 0.0
-0.008380394056287918 0.006468514585406093 0.0 -0.007464274749294061 0.0 0.0
-0.01078631976736457 0.00869989219509878 0.0 -0.009020754320589481 0.0 0.0
-0.013471139546996337 0.011233746798518946 0.0 -0.0105595331774544 0.0 0.0
-0.016457284115920668 0.014104740206973852 0.0 -0.012170718371456597 0.0 0.0
-0.019630948132885812 0.017218333165898037 0.0 -0.014058143313888773 0.0 0.0
-0.022671103717934394 0.02025773274275263 0.0 -0.016451391089098037 0.0 0.0
-0.025046281323000668 0.022686650101979684 0.0 -0.01946335548981264 0.0 0.0
-0.025745608471663396 0.023609496557956827 0.0 -0.02249093837662099 0.0 0.0
-0.022854378817816635 0.021088710815882993 0.0 -0.023126282115810557 0.0 0.0
-0.02020605292412052 0.011639516038996997 0.0 1.3680896693291089e-14 0.0 0.0
-0.022854378817815577 0.02108871081587839 0.0 0.02312628211584143 0.0 0.0
-0.025745608471656616 0.02360949655794823 0.0 0.022490938376646386 0.0 0.0
-0.025046281322987456 0.02268665010196854 0.0 0.0194633554898251 0.0 0.0
-0.022671103717916703 0.02025773274273442 0.0 0.016451391089091973 0.0 0.0
-0.019630948132867476 0.017218333165880718 0.0 0.014058143313878637 0.0 0.0
-0.016457284115903942 0.014104740206958927 0.0 0.012170718371446334 0.0 0.0
-0.013471139546979236 0.011233746798498574 0.0 0.010559533177443367 0.0 0.0
-0.010786319767346843 0.008699892195083735 0.0 0.009020754320579317 0.0 0.0
-0.008380394056271246 0.006468514585389833 0.0 0.007464274749279203 0.0 0.0
-0.006208875659222925 0.004477075789956575 0.0 0.005908010678234668 0.0 0.0
-0.004299444903358028 0.0027855498118992865 0.0 0.004453064736992275 0.0 0.0
-0.0027654369463679606 0.0015304408253605625 0.0 0.0033515120283410934 0.0 0.0
-0.0017073988921008187 0.0008090513237137616 0.0 0.0026958019784318475 0.0 0.0
-0.0011020965267917564 0.0004955287008805354 0.0 0.0024319434245918536 0.0 0.0
-0.0007910461364363257 0.00038861792165006194 0.0 0.002297608729850598 0.0 0.0
-0.0006182508416011416 0.00033155215564455203 0.0 0.002214472581201076 0.0 0.0
-0.0004964465459849688 0.0002715176709229181 0.0 0.002226574154503199 0.0 0.0
-0.0003302379088346225 0.00012211248015781632 0.0 0.002245270968013981 0.0 0.0
3.97371403147914e-06 -0.0003176984438172793 0.0 0.001909191769927824 0.0 0.0
0.0002294715538668615 -0.0012139950553469007 0.0 0.001266469264203199 0.0 0.0
0.0001459563179041025 -0.0008885293495366452 0.0 -0.001115576906466605 0.0 0.0
-6.427405583810846e-05 -0.0002710144572589792 0.0 -0.0017444700743334284 0.0 0.0
-0.0004156909813982422 0.00015602595067773826 0.0 -0.0021418831562167325 0.0 0.0
-0.0006545237763523564 0.0003334708817613151 0.0 -0.0021374426052360495 0.0 0.0
-0.0008639667616493912 0.0004358530204137365 0.0 -0.0020992989042174595 0.0 0.0
-0.0011465918020592374 0.0005427230507861914 0.0 -0.00211448725096273 0.0 0.0
-0.001666533414666552 0.0007577505940403157 0.0 -0.002219946370016216 0.0 0.0
-0.002682979147119172 0.0013963878710222105 0.0 -0.0027019196671910863 0.0 0.0
-0.0043671268248650415 0.002732170162267777 0.0 -0.0037491946654847636 0.0 0.0
-0.006696758787902293 0.004809279829838589 0.0 -0.005311616540536716 0.0 0.0
-0.009524382703451954 0.0074359282282171636 0.0 -0.007131461207366544 0.0 0.0
-0.012725675731802217 0.01045185287021718 0.0 -0.008944797774302796 0.0 0.0
-0.01629354921999544 0.013831726899664467 0.0 -0.010681592123700213 0.0 0.0
-0.020301224216834682 0.017661989620417245 0.0 -0.012391085210757428 0.0 0.0
-0.024806808266452072 0.022022111535359455 0.0 -0.014228113434820153 0.0 0.0
-0.029714412805692855 0.02684605312810505 0.0 -0.016485504349892367 0.0 0.0
-0.034649230751132715 0.03177710127441631 0.0 -0.019586875822428407 0.0 0.0
-0.03878975344492935 0.03604454878238687 0.0 -0.023611490977770874 0.0 0.0
-0.040617975640044365 0.03815222882640331 0.0 -0.027441611189872463 0.0 0.0
-0.037372695058405576 0.03555072498162765 0.0 -0.028684034436473084 0.0 0.0
-0.0340332048444635 0.023396831333539776 0.0 1.5133727604421665e-14 0.0 0.0
-0.037372695058401975 0.03555072498161905 0.0 0.02868403443650975 0.0 0.0
-0.04061797564003407 0.03815222882639541 0.0 0.027441611189906304 0.0 0.0
-0.03878975344491041 0.03604454878237058 0.0 0.023611490977787183 0.0 0.0
-0.034649230751108 0.03177710127439284 0.0 0.019586875822426082 0.0 0.0
-0.02971441280566693 0.026846053128076048 0.0 0.01648550434988156 0.0 0.0
-0.024806808266427734 0.02202211153533668 0.0 0.014228113434807454 0.0 0.0
-0.02030122421681025 0.017661989620392376 0.0 0.012391085210747808 0.0 0.0
-0.016293549219970335 0.013831726899640389 0.0 0.010681592123688423 0.0 0.0
-0.01272567573177823 0.01045185287019369 0.0 0.008944797774287153 0.0 0.0
-0.009524382703430177 0.007435928228197766 0.0 0.00713146120734875 0.0 0.0
-0.006696758787885194 0.004809279829825723 0.0 0.005311616540524507 0.0 0.0
-0.004367126824853708 0.0027321701622578334 0.0 0.003749194665477429 0.0 0.0
-0.0026829791471122523 0.001396387871018054 0.0 0.0027019196671864195 0.0 0.0
-0.0016665334146628754 0.0007577505940396525 0.0 0.0022199463700137813 0.0 0.0
-0.0011465918020575202 0.0005427230507853329 0.0 0.00211448725096149 0.0 0.0
-0.0008639667616486637 0.0004358530204125083 0.0 0.0020992989042157876 0.0 0.0
-0.0006545237763520018 0.0003334708817610456 0.0 0.0021374426052344123 0.0 0.0
-0.0004156909813979629 0.0001560259506776354 0.0 0.002141883156214502 0.0 0.0
-6.427405583798604e-05 -0.00027101445725895534 0.0 0.0017444700743336117 0.0 0.0
0.00014595631790426664 -0.0008885293495354741 0.0 0.0011155769064648997 0.0 0.0
7.235139485822339e-05 -0.0006148812989461262 0.0 -0.0009528607100264715 0.0 0.0
-0.0001269936747480216 -0.0002128910570990231 0.0 -0.0015541078032285255 0.0 0.0
-0.0004970649495495299 0.00019021492535902323 0.0 -0.001986672640895729 0.0 0.0
-0.0008046752671235142 0.00039104842219926374 0.0 -0.0019930045573343927 0.0 0.0
-0.0010960455577929548 0.00052961864653266 0.0 -0.0019212790788123825 0.0 0.0
-0.001504085404563149 0.0006899772911616799 0.0 -0.0018621236094208873 0.0 0.0
-0.0022900541036050648 0.0010943944350983806 0.0 -0.0020246509672608762 0.0 0.0
-0.003770603055688576 0.0021689604049189254 0.0 -0.0027102826147241523 0.0 0.0
-0.006098347391836853 0.004178147138872575 0.0 -0.0040380974943047205 0.0 0.0
-0.009203076634721412 0.007050137708472112 0.0 -0.005843517132871265 0.0 0.0
-0.012913199144757689 0.010558864568655587 0.0 -0.0077747622235928866 0.0 0.0
-0.01712762516178552 0.014575310243185601 0.0 -0.009664450858522923 0.0 0.0
-0.021860201702930536 0.0190982514408933 0.0 -0.011475798509015152 0.0 0.0
-0.027200899260153136 0.024230488944388243 0.0 -0.013279276165517362 0.0 0.0
-0.03323919643074534 0.03008796086891799 0.0 -0.015219890743020315 0.0 0.0
-0.0399103354500362 0.03664863793604066 0.0 -0.017663119657956732 0.0 0.0
-0.04674820096595401 0.043498807548283065 0.0 -0.021116436280438848 0.0 0.0
-0.05259595264778084 0.04954334126093071 0.0 -0.02568546712668924 0.0 0.0
-0.05532348552310641 0.052701184222857016 0.0 -0.03031004775755739 0.0 0.0
-0.05138114175512407 0.049573746587806264 0.0 -0.032362279139025535 0.0 0.0
-0.04719153647774856 0.03477624040119494 0.0 1.6218797138645158e-14 0.0 0.0
-0.05138114175511733 0.04957374658780098 0.0 0.03236227913906296 0.0 0.0
-0.05532348552309191 0.05270118422284122 0.0 0.030310047757595576 0.0 0.0
-0.05259595264775716 0.049543341260908105 0.0 0.025685467126708605 0.0 0.0
-0.04674820096592372 0.043498807548249696 0.0 0.02111643628044036 0.0 0.0
-0.03991033545000375 0.036648637936010815 0.0 0.01766311965794801 0.0 0.0
-0.03323919643071344 0.030087960868885738 0.0 0.015219890743007242 0.0 0.0
-0.02720089926012165 0.024230488944357243 0.0 0.013279276165507323 0.0 0.0
-0.021860201702898707 0.019098251440862586 0.0 0.011475798509001892 0.0 0.0
-0.01712762516175484 0.014575310243154688 0.0 0.009664450858506394 0.0 0.0
-0.012913199144729867 0.010558864568632238 0.0 0.007774762223573548 0.0 0.0
-0.009203076634699185 0.0070501377084529245 0.0 0.005843517132855944 0.0 0.0
-0.006098347391821273 0.004178147138859899 0.0 0.0040380974942951136 0.0 0.0
-0.0037706030556786977 0.002168960404911446 0.0 0.002710282614718498 0.0 0.0
-0.0022900541035998936 0.001094394435096572 0.0 0.0020246509672581427 0.0 0.0
-0.0015040854045607135 0.0006899772911613631 0.0 0.0018621236094197233 0.0 0.0
-0.001096045557791594 0.0005296186465314466 0.0 0.00192127907881026 0.0 0.0
-0.0008046752671224571 0.0003910484221993532 0.0 0.001993004557333442 0.0 0.0
-0.0004970649495488804 0.00019021492535918304 0.0 0.001986672640892974 0.0 0.0
-0.00012699367474780767 -0.00021289105709913767 0.0 0.0015541078032282666 0.0 0.0
7.235139485817801e-05 -0.0006148812989452227 0.0 0.0009528607100261564 0.0 0.0
7.519276021184152e-06 -0.00039057344041771344 0.0 -0.0007850156469836511 0.0 0.0
-0.0001851720219620086 -0.00014790401496011764 0.0 -0.0013390433055456025 0.0 0.0
-0.0005752748248158417 0.0002255302960210449 0.0 -0.0017802521441857878 0.0 0.0
-0.0009459725009886436 0.00044403193680007025 0.0 -0.0017931804634478761 0.0 0.0
-0.0013179876678335327 0.0006124318018918875 0.0 -0.0016816073936366481 0.0 0.0
-0.0018824760630871016 0.0008546737172215194 0.0 -0.001581492250680393 0.0 0.0
-0.0029848818900533904 0.0015301551723225565 0.0 -0.001813403082789215 0.0 0.0
-0.004961916701053316 0.0031133647936583083 0.0 -0.0026468235997086035 0.0 0.0
-0.007926737968023883 0.005792597033626782 0.0 -0.004124025089263696 0.0 0.0
-0.01176545029241907 0.009401745501328095 0.0 -0.005924321830178315 0.0 0.0
-0.016335009733671538 0.013760060407899007 0.0 -0.007804337761256011 0.0 0.0
-0.021567836282916142 0.018773636685557753 0.0 -0.00964943778785407 0.0 0.0
-0.027475802103316398 0.024448042651052517 0.0 -0.011436782139250356 0.0 0.0
-0.03415438491422448 0.030892139116173452 0.0 -0.013240009064105274 0.0 0.0
-0.041723462955475334 0.0382440086356705 0.0 -0.015183336278605783 0.0 0.0
-0.05013646643129979 0.046516431105379105 0.0 -0.01754039742932522 0.0 0.0
-0.05883347255333095 0.055245416522052795 0.0 -0.020852278511017893 0.0 0.0
-0.06632446125759481 0.06302331015657564 0.0 -0.025501846280485924 0.0 0.0
-0.06984178914716009 0.06712438885832994 0.0 -0.03077670833425148 0.0 0.0
-0.06518638212161931 0.06340416616530156 0.0 -0.034661099814053416 0.0 0.0
-0.06019971876298648 0.046170962023962925 0.0 1.64998223417534e-14 0.0 0.0
-0.06518638212161033 0.06340416616529448 0.0 0.03466109981409043 0.0 0.0
-0.06984178914714098 0.0671243888583089 0.0 0.03077670833428975 0.0 0.0
-0.06632446125756568 0.06302331015654876 0.0 0.02550184628050765 0.0 0.0
-0.058833472553295116 0.055245416522015964 0.0 0.02085227851102078 0.0 0.0
-0.0501364664312613 0.04651643110534494 0.0 0.017540397429317334 0.0 0.0
-0.04172346295543586 0.03824400863563137 0.0 0.01518333627859349 0.0 0.0
-0.03415438491418512 0.030892139116136197 0.0 0.013240009064094675 0.0 0.0
-0.027475802103277443 0.02444804265101558 0.0 0.011436782139237168 0.0 0.0
-0.021567836282878953 0.018773636685521514 0.0 0.009649437787839568 0.0 0.0
-0.016335009733638394 0.013760060407870808 0.0 0.0078043377612384834 0.0 0.0
-0.011765450292391538 0.009401745501301365 0.0 0.005924321830161637 0.0 0.0
-0.00792673796800349 0.0057925970336103055 0.0 0.004124025089253714 0.0 0.0
-0.004961916701039987 0.0031133647936459003 0.0 0.0026468235997026096 0.0 0.0
-0.002984881890046178 0.001530155172318543 0.0 0.0018134030827865804 0.0 0.0
-0.0018824760630839796 0.0008546737172197485 0.0 0.0015814922506795742 0.0 0.0
-0.0013179876678320694 0.0006124318018914637 0.0 0.0016816073936358155 0.0 0.0
-0.0009459725009878697 0.00044403193680007274 0.0 0.0017931804634469025 0.0 0.0
-0.0005752748248152945 0.0002255302960213557 0.0 0.0017802521441841854 0.0 0.0
-0.00018517202196178297 -0.00014790401495998797 0.0 0.001339043305543532 0.0 0.0
7.51927602097698e-06 -0.0003905734404173374 0.0 0.0007850156469827827 0.0 0.0
-4.747547707300548e-05 -0.0002149849599601508 0.0 -0.0006148574524982079 0.0 0.0
-0.00023769106261556957 -8.077529761841444e-05 0.0 -0.0011014308983898873 0.0 0.0
-0.0006500773655685864 0.0002616411436222512 0.0 -0.0015239120310600056 0.0 0.0
-0.0010798257004775444 0.0004923256158358188 0.0 -0.0015378307625179821 0.0 0.0
-0.0015407428135721444 0.0006881724782906292 0.0 -0.0013894152782179157 0.0 0.0
-0.0022936651188263197 0.0010588131288157608 0.0 -0.0012792174034016582 0.0 0.0
-0.0037549224708163893 0.002079118455062462 0.0 -0.0015672218536289084 0.0 0.0
-0.006241787783886002 0.004208126054074508 0.0 -0.002497156636135653 0.0 0.0
-0.009804268471954918 0.007496102385308807 0.0 -0.0038936294025073547 0.0 0.0
-0.014346469600548223 0.011803916963713695 0.0 -0.005524102568187445 0.0 0.0
-0.019775423151407474 0.017003182049787558 0.0 -0.007249735682370891 0.0 0.0
-0.026028560018103063 0.02301413624942018 0.0 -0.008940731016885275 0.0 0.0
-0.033123299758182685 0.029852786532528874 0.0 -0.010595086593047419 0.0 0.0
-0.0411533528235223 0.037623797238168395 0.0 -0.012300644588548376 0.0 0.0
-0.05022392213029963 0.04645301487485305 0.0 -0.014135226993159436 0.0 0.0
-0.06029705237421519 0.05635442017118522 0.0 -0.016195070788954866 0.0 0.0
-0.07077113439449517 0.06685484811793134 0.0 -0.018890538427092218 0.0 0.0
-0.07985902896163254 0.07631582647136301 0.0 -0.02303997789611983 0.0 0.0
-0.08422758256225107 0.08142595786603525 0.0 -0.02895345205585535 0.0 0.0
-0.07907223007340573 0.07734631899896463 0.0 -0.03588162107255123 0.0 0.0
-0.07342910532029324 0.05794082962456312 0.0 1.7506829319557937e-14 0.0 0.0
-0.07907223007339427 0.07734631899895746 0.0 0.03588162107258753 0.0 0.0
-0.08422758256222729 0.08142595786600434 0.0 0.02895345205589126 0.0 0.0
-0.07985902896159826 0.07631582647132958 0.0 0.023039977896139905 0.0 0.0
-0.07077113439445389 0.0668548481178883 0.0 0.018890538427096194 0.0 0.0
-0.06029705237416996 0.05635442017114095 0.0 0.016195070788949693 0.0 0.0
-0.05022392213025343 0.046453014874810274 0.0 0.014135226993151912 0.0 0.0
-0.04115335282347622 0.037623797238126075 0.0 0.012300644588540173 0.0 0.0
-0.03312329975813654 0.029852786532486693 0.0 0.010595086593034663 0.0 0.0
-0.026028560018059456 0.023014136249377537 0.0 0.008940731016871494 0.0 0.0
-0.01977542315136898 0.017003182049750612 0.0 0.007249735682356064 0.0 0.0
-0.014346469600516415 0.011803916963682302 0.0 0.005524102568174124 0.0 0.0
-0.009804268471930664 0.007496102385287905 0.0 0.0038936294024965725 0.0 0.0
-0.00624178778386944 0.004208126054060014 0.0 0.002497156636128802 0.0 0.0
-0.0037549224708070946 0.002079118455056697 0.0 0.0015672218536253897 0.0 0.0
-0.0022936651188222405 0.0010588131288132387 0.0 0.0012792174034009802 0.0 0.0
-0.0015407428135705864 0.0006881724782906212 0.0 0.0013894152782176247 0.0 0.0
-0.0010798257004765645 0.0004923256158350048 0.0 0.0015378307625173832 0.0 0.0
-0.0006500773655680665 0.0002616411436221212 0.0 0.001523912031059631 0.0 0.0
-0.00023769106261551184 -8.077529761830279e-05 0.0 0.0011014308983878583 0.0 0.0
-4.747547707298044e-05 -0.00021498495996000682 0.0 0.0006148574524978565 0.0 0.0
-8.992655289710179e-05 -8.864213658028744e-05 0.0 -0.00044643783803586254 0.0 0.0
-0.0002815429688125074 -1.6490617854054634e-05 0.0 -0.0008440508438642435 0.0 0.0
-0.0007199093063289007 0.0002969763357978413 0.0 -0.0012166139059499833 0.0 0.0
-0.001208814542226372 0.0005358398310666666 0.0 -0.0012256540554387478 0.0 0.0
-0.0017732518377516376 0.0007678645072691158 0.0 -0.0010491509357224591 0.0 0.0
-0.0027524720768562936 0.001317978827100029 0.0 -0.0009418993608639125 0.0 0.0
-0.004604720327977448 0.0027533090088421404 0.0 -0.0012973450400210428 0.0 0.0
-0.007570950112397671 0.005391614172374441 0.0 -0.0021535639057018445 0.0 0.0
-0.011691340809219084 0.009235836741600102 0.0 -0.0033061270399296003 0.0 0.0
-0.01693172158936486 0.014229252456782748 0.0 -0.004677617889597041 0.0 0.0
-0.023214592873957784 0.02026221339864369 0.0 -0.0061309797254732006 0.0 0.0
-0.03049273869324208 0.0272738949741664 0.0 -0.007557838317848125 0.0 0.0
-0.03878857603664608 0.03528915812910801 0.0 -0.008964273557940725 0.0 0.0
-0.048175669500553325 0.0444026466836542 0.0 -0.010453091177710695 0.0 0.0
-0.05871810344035003 0.054692642060216096 0.0 -0.012080153810733631 0.0 0.0
-0.07032837322240976 0.06610482728013148 0.0 -0.01375075133052389 0.0 0.0
-0.08240320204325667 0.07816062837343363 0.0 -0.01548840387536556 0.0 0.0
-0.09306861816801709 0.08923424536159248 0.0 -0.01837299611891264 0.0 0.0
-0.09855478549713403 0.09563718242449921 0.0 -0.024737793134039027 0.0 0.0
-0.09331541460971234 0.09170285292786529 0.0 -0.0357858082736861 0.0 0.0
-0.08722574006904121 0.07045949543012736 0.0 1.5102502581854083e-14 0.0 0.0
-0.09331541460969882 0.09170285292786025 0.0 0.035785808273716864 0.0 0.0
-0.0985547854971061 0.0956371824244669 0.0 0.024737793134070412 0.0 0.0
-0.09306861816797739 0.08923424536155579 0.0 0.018372996118930104 0.0 0.0
-0.08240320204320947 0.07816062837338304 0.0 0.015488403875368716 0.0 0.0
-0.07032837322235813 0.06610482728007955 0.0 0.013750751330521935 0.0 0.0
-0.058718103440296446 0.05469264206016668 0.0 0.0120801538107279 0.0 0.0
-0.04817566950050026 0.044402646683606224 0.0 0.010453091177703749 0.0 0.0
-0.03878857603659362 0.03528915812905788 0.0 0.008964273557931396 0.0 0.0
-0.030492738693191572 0.027273894974117308 0.0 0.007557838317834938 0.0 0.0
-0.023214592873913368 0.020262213398600407 0.0 0.006130979725459416 0.0 0.0
-0.016931721589328687 0.014229252456747627 0.0 0.004677617889585782 0.0 0.0
-0.011691340809190804 0.00923583674157221 0.0 0.0033061270399212233 0.0 0.0
-0.0075709501123778986 0.005391614172359336 0.0 0.002153563905695703 0.0 0.0
-0.004604720327965716 0.002753309008833234 0.0 0.0012973450400163595 0.0 0.0
-0.0027524720768507182 0.001317978827096043 0.0 0.0009418993608636516 0.0 0.0
-0.0017732518377495828 0.0007678645072686133 0.0 0.0010491509357217032 0.0 0.0
-0.0012088145422252867 0.0005358398310658786 0.0 0.0012256540554373512 0.0 0.0
-0.0007199093063282489 0.0002969763357978089 0.0 0.0012166139059499096 0.0 0.0
-0.0002815429688120845 -1.6490617854068417e-05 0.0 0.000844050843862649 0.0 0.0
-8.992655289665869e-05 -8.864213658008438e-05 0.0 0.0004464378380367137 0.0 0.0
-0.00011512086999932537 -1.2412387660946649e-05 0.0 -0.0002892766853322764 0.0 0.0
-0.00031116594245929303 3.86931836944781e-05 0.0 -0.0005705657979963449 0.0 0.0
-0.000781825371948473 0.00032831704382811985 0.0 -0.0008525488647038198 0.0 0.0
-0.0013373582413824228 0.0005766626471731981 0.0 -0.0008520016105415993 0.0 0.0
-0.0020276993640318615 0.0008644962148932674 0.0 -0.0006679540090968535 0.0 0.0
-0.0032737710251439017 0.0016641525487041424 0.0 -0.0005913789490177805 0.0 0.0
-0.00550800150907241 0.003525009498737193 0.0 -0.0009385167745358911 0.0 0.0
-0.00891541738446574 0.006609069773629861 0.0 -0.0015523087861128476 0.0 0.0
-0.01357745947381912 0.010991338685142052 0.0 -0.0023933960011479714 0.0 0.0
-0.019501899343267102 0.01665415818373636 0.0 -0.0033954025621219202 0.0 0.0
-0.026635331076842548 0.02351525551560722 0.0 -0.0044611577637147974 0.0 0.0
-0.03494217234447973 0.0315320892494814 0.0 -0.0055077628576717125 0.0 0.0
-0.04444698220056157 0.04073585850433287 0.0 -0.006554322240685373 0.0 0.0
-0.055205698036767725 0.05120260413332913 0.0 -0.0077099388842250885 0.0 0.0
-0.06719556608304975 0.06293846394695941 0.0 -0.008990399605739715 0.0 0.0
-0.08019552021689658 0.07575384281675085 0.0 -0.010208764998826444 0.0 0.0
-0.09359484658890753 0.08908111964967441 0.0 -0.011065325876339339 0.0 0.0
-0.10577016302355823 0.10150291464570439 0.0 -0.01217343120656101 0.0 0.0
-0.1128165543823487 0.10963749230387945 0.0 -0.017448316187325705 0.0 0.0
-0.10820864140876539 0.10683410166931476 0.0 -0.033428061040830064 0.0 0.0
-0.10203996096320539 0.08427370763549885 0.0 1.1211517825238104e-14 0.0 0.0
-0.10820864140874914 0.10683410166929719 0.0 0.03342806104085625 0.0 0.0
-0.11281655438231597 0.10963749230384309 0.0 0.017448316187351962 0.0 0.0
-0.10577016302351265 0.1015029146456574 0.0 0.01217343120657215 0.0 0.0
-0.0935948465888536 0.08908111964962091 0.0 0.011065325876341544 0.0 0.0
-0.08019552021683815 0.07575384281669402 0.0 0.010208764998827254 0.0 0.0
-0.06719556608298972 0.06293846394690031 0.0 0.008990399605738188 0.0 0.0
-0.055205698036707496 0.051202604133274106 0.0 0.007709938884217877 0.0 0.0
-0.04444698220050191 0.04073585850426995 0.0 0.00655432224067823 0.0 0.0
-0.03494217234442319 0.031532089249428234 0.0 0.005507762857663863 0.0 0.0
-0.02663533107679298 0.02351525551556078 0.0 0.004461157763703863 0.0 0.0
-0.01950189934322662 0.016654158183699048 0.0 0.0033954025621131707 0.0 0.0
-0.01357745947378742 0.01099133868510989 0.0 0.0023933960011416774 0.0 0.0
-0.008915417384443179 0.006609069773609315 0.0 0.0015523087861080006 0.0 0.0
-0.005508001509058221 0.003525009498725148 0.0 0.0009385167745324533 0.0 0.0
-0.0032737710251365382 0.0016641525486991286 0.0 0.0005913789490167641 0.0 0.0
-0.002027699364029172 0.0008644962148913464 0.0 0.0006679540090971143 0.0 0.0
-0.0013373582413812285 0.0005766626471723804 0.0 0.0008520016105407788 0.0 0.0
-0.0007818253719478442 0.00032831704382841226 0.0 0.0008525488647028557 0.0 0.0
-0.0003111659424591174 3.869318369428963e-05 0.0 0.0005705657979953577 0.0 0.0
-0.00011512086999924167 -1.2412387660763739e-05 0.0 0.0002892766853322371 0.0 0.0
-0.00011489464456667628 1.3751220772569215e-05 0.0 -0.00016449093584623017 0.0 0.0
-0.0003169700290813927 7.497496435384525e-05 0.0 -0.0002857147722545903 0.0 0.0
-0.0008311321311390081 0.00035056787707495263 0.0 -0.00041659197189655115 0.0 0.0
-0.0014734950919673847 0.000621179823496333 0.0 -0.00040962498886569607 0.0 0.0
-0.0023226734526995167 0.0009998376902248451 0.0 -0.00026137034179585646 0.0 0.0
-0.00385137565996012 0.0021013225631242617 0.0 -0.00021883897518841202 0.0 0.0
-0.006441374118940721 0.004349507192135144 0.0 -0.00041753765857694433 0.0 0.0
-0.01025985162687143 0.007843004611755479 0.0 -0.0007321314806925959 0.0 0.0
-0.015443971169171629 0.012741355100420081 0.0 -0.0011616838525268392 0.0 0.0
-0.02203884452154751 0.01905608531718612 0.0 -0.00168560034447608 0.0 0.0
-0.030018144480545635 0.0267413687533548 0.0 -0.0022409219796947926 0.0 0.0
-0.03935985131964829 0.0357719917527429 0.0 -0.0027928090645330575 0.0 0.0
-0.050085449283738516 0.046174962084296806 0.0 -0.0033879555172684115 0.0 0.0
-0.06220677763355495 0.057987983119827835 0.0 -0.004061391631092001 0.0 0.0
-0.0756178753026556 0.07114726604083159 0.0 -0.004804818944745325 0.0 0.0
-0.0899393860654974 0.08531201731088073 0.0 -0.00550523604374355 0.0 0.0
-0.10437840679193999 0.09970495543498809 0.0 -0.005852026526070771 0.0 0.0
-0.11760149359179659 0.11296998064699282 0.0 -0.005751793412536103 0.0 0.0
-0.1267051384462282 0.12262218357887919 0.0 -0.007873443860205533 0.0 0.0
-0.12416644309204641 0.12296206108238442 0.0 -0.024021624811830223 0.0 0.0
-0.11862575226525389 0.10101171765323012 0.0 5.622238785640832e-15 0.0 0.0
-0.12416644309202726 0.12296206108235785 0.0 0.024021624811844715 0.0 0.0
-0.1267051384461912 0.12262218357883614 0.0 0.007873443860220106 0.0 0.0
-0.11760149359174459 0.11296998064694075 0.0 0.005751793412542951 0.0 0.0
-0.10437840679187876 0.09970495543492741 0.0 0.005852026526070897 0.0 0.0
-0.08993938606543227 0.08531201731082223 0.0 0.005505236043744151 0.0 0.0
-0.07561787530258882 0.07114726604076729 0.0 0.004804818944743773 0.0 0.0
-0.062206777633487476 0.05798798311976075 0.0 0.004061391631088392 0.0 0.0
-0.05008544928367179 0.04617496208423038 0.0 0.0033879555172650943 0.0 0.0
-0.03935985131958573 0.03577199175268114 0.0 0.0027928090645294125 0.0 0.0
-0.030018144480491157 0.026741368753303085 0.0 0.0022409219796881543 0.0 0.0
-0.022038844521502704 0.019056085317144464 0.0 0.0016856003444707958 0.0 0.0
-0.015443971169136284 0.012741355100386379 0.0 0.0011616838525232598 0.0 0.0
-0.010259851626846042 0.007843004611729385 0.0 0.0007321314806904926 0.0 0.0
-0.006441374118924372 0.00434950719212086 0.0 0.00041753765857606667 0.0 0.0
-0.003851375659951236 0.002101322563117942 0.0 0.000218838975186917 0.0 0.0
-0.002322673452696071 0.000999837690222197 0.0 0.0002613703417966194 0.0 0.0
-0.001473495091966056 0.0006211798234949493 0.0 0.00040962498886657546 0.0 0.0
-0.0008311321311383725 0.00035056787707575776 0.0 0.0004165919718951487 0.0 0.0
-0.00031697002908124145 7.497496435352064e-05 0.0 0.00028571477225485946 0.0 0.0
-0.00011489464456657434 1.3751220772670488e-05 0.0 0.0001644909358465077 0.0 0.0
-7.438646431387979e-05 1.4432666949465396e-05 0.0 -0.00010287489268589144 0.0 0.0
-0.0002823569593850792 8.683844740598811e-05 0.0 -0.00011860280871465827 0.0 0.0
-0.0008613657383113631 0.00035870031378681694 0.0 -0.00014159493041414708 0.0 0.0
-0.0016322961446975956 0.0006453489927010963 0.0 -0.00011890289018226303 0.0 0.0
-0.002670668966763396 0.0010815081771752652 0.0 6.479817243532651e-05 0.0 0.0
-0.00447195944229393 0.0023384857886477378 0.0 0.00023054204080716925 0.0 0.0
-0.007386851031405342 0.004770272991750615 0.0 0.00029056430799229475 0.0 0.0
-0.011591648732629474 0.008462422923856636 0.0 0.00031295666944468987 0.0 0.0
-0.01727410342340915 0.013612032562533986 0.0 0.00030476395741162025 0.0 0.0
-0.02452297811236939 0.020248738433288258 0.0 0.00024136773550753978 0.0 0.0
-0.03334552896012027 0.028344689456413562 0.0 0.0001681316295310221 0.0 0.0
-0.043733756085763825 0.03788592953834786 0.0 8.25329492138531e-05 0.0 0.0
-0.055675372222982855 0.04889061224829 0.0 -7.279923785810747e-05 0.0 0.0
-0.06913833428115777 0.061371167315192134 0.0 -0.00026685594652928364 0.0 0.0
-0.08395000924201486 0.07523667180086212 0.0 -0.0005598865457404649 0.0 0.0
-0.09957859201034636 0.09006987967491531 0.0 -0.0009273197673757005 0.0 0.0
-0.11497549423788875 0.10496416711996698 0.0 -0.0012209267165144127 0.0 0.0
-0.12859818630401565 0.11850881439897333 0.0 -0.0011779818605345306 0.0 0.0
-0.13874977118091475 0.12869169641748013 0.0 -0.0018624277553193234 0.0 0.0
-0.14122794087360846 0.13127866809307584 0.0 -0.017320185293309847 0.0 0.0
-0.13970338142059452 0.11043380691298725 0.0 6.522560269672795e-16 0.0 0.0
-0.14122794087358764 0.1312786680930506 0.0 0.01732018529331493 0.0 0.0
-0.138749771180873 0.1286916964174404 0.0 0.0018624277553241537 0.0 0.0
-0.12859818630395634 0.11850881439892405 0.0 0.0011779818605363 0.0 0.0
-0.11497549423781962 0.10496416711990206 0.0 0.0012209267165126415 0.0 0.0
-0.0995785920102741 0.09006987967485837 0.0 0.00092731976737883 0.0 0.0
-0.0839500092419408 0.07523667180079265 0.0 0.0005598865457360942 0.0 0.0
-0.06913833428108279 0.06137116731511937 0.0 0.0002668559465286175 0.0 0.0
-0.055675372222910094 0.048890612248224184 0.0 7.27992378579791e-05 0.0 0.0
-0.04373375608569546 0.03788592953828156 0.0 -8.253294921687672e-05 0.0 0.0
-0.03334552896006041 0.028344689456357063 0.0 -0.00016813162953338307 0.0 0.0
-0.024522978112320692 0.020248738433243287 0.0 -0.00024136773550875778 0.0 0.0
-0.01727410342337071 0.013612032562499331 0.0 -0.0003047639574128508 0.0 0.0
-0.011591648732601299 0.008462422923828452 0.0 -0.0003129566694442616 0.0 0.0
-0.007386851031386612 0.0047702729917354185 0.0 -0.0002905643079913335 0.0 0.0
-0.004471959442283542 0.0023384857886403322 0.0 -0.0002305420408074435 0.0 0.0
-0.0026706689667594105 0.0010815081771717422 0.0 -6.479817243543591e-05 0.0 0.0
-0.0016322961446961326 0.0006453489927002081 0.0 0.00011890289018373851 0.0 0.0
-0.0008613657383102899 0.00035870031378836486 0.0 0.00014159493041293925 0.0 0.0
-0.0002823569593846811 8.683844740582927e-05 0.0 0.00011860280871482552 0.0 0.0
-7.438646431410226e-05 1.443266694955266e-05 0.0 0.00010287489268653722 0.0 0.0
SCALARS Statev float 8
LOOKUP_TABLE default
0.0 0.016432220127437776 0.013105140957660744 -0.015717398171075057 0.0026122572134143138 -0.0007332977225902651 0.0 0.0
0.0 0.005359132176106906 0.0038942033993833555 -0.002321796201900629 -0.0015724071974827242 -0.006262339125971468 0.0 0.0
0.0 4.463525163087755e-05 8.818095482635395e-05 -5.602886446106334e-05 -3.2152090365290676e-05 -0.00019916912196065744 0.0 0.0
0.0 0.00011545866860153006 3.1790254522755335e-05 -2.2713053293368864e-05 -9.077201229386584e-06 1.2273814304232851e-05 0.0 0.0
0.0 0.0007208597747431778 0.00041516340278868074 -0.0003013230486877585 -0.00011384035410092283 9.43668123178234e-05 0.0 0.0
0.0 0.0017905514485843268 0.0018140364328191804 -0.0014134346347323438 -0.0004006017980868356 0.00019775617697837292 0.0 0.0
0.0 0.004691115057973819 0.004328670153864277 -0.0036289629201168164 -0.0006997072337474572 0.0002777169294176818 0.0 0.0
0.0 0.009028714391328373 0.008210675236279512 -0.007257543514036056 -0.0009531317222434574 0.00031898393154611434 0.0 0.0
0.0 0.0151150707774374 0.013576328766721935 -0.01241365636673689 -0.001162672399985036 0.00032644105811316946 0.0 0.0
0.0 0.023049503469108414 0.020486195271634658 -0.01910959303701871 -0.0013766022346159731 0.0002836086444818603 0.0 0.0
0.0 0.03282443365936383 0.028945657392262368 -0.02732384475925767 -0.0016218126330046709 0.00022869724947916257 0.0 0.0
0.0 0.04411021817109519 0.03895770728826841 -0.03705341828788993 -0.0019042890003785082 0.0001555505464479643 0.0 0.0
0.0 0.057262110670450686 0.050518724137061925 -0.048303256885726537 -0.002215467251335396 7.734589021625871e-06 0.0 0.0
0.0 0.07221162858849266 0.06362226425547443 -0.06107734534683351 -0.002544918908640893 -0.00016286617650344533 0.0 0.0
0.0 0.08886565054756616 0.07818303957342587 -0.07530695819000618 -0.002876081383419548 -0.00040597276627968814 0.0 0.0
0.0 0.10689378259937662 0.09387575397928974 -0.09068451801591186 -0.003191235963377943 -0.0007304671348746578 0.0 0.0
0.0 0.12547126595055652 0.11001613102193192 -0.10654217478144279 -0.003473956240489147 -0.0010821890400001363 0.0 0.0
0.0 0.14335476855226123 0.12553678682217176 -0.12182944241895763 -0.00370734440321395 -0.001326365132944202 0.0 0.0
0.0 0.15897556847960537 0.13908641001531288 -0.1352030218593392 -0.0038833881559737285 -0.0012886419168120149 0.0 0.0
0.0 0.17030773249162598 0.14909837775049706 -0.14511726095810445 -0.003981116792392896 -0.001321555507844149 0.0 0.0
0.0 0.17488566751067086 0.15305697265843576 -0.14908875871606697 -0.003968213942368572 1.6774776012695725e-15 0.0 0.0
0.0 0.17030773249160042 0.14909837775047508 -0.1451172609580819 -0.003981116792393209 0.0013215555078508936 0.0 0.0
0.0 0.158975568479562 0.1390864100152751 -0.13520302185930194 -0.003883388155973092 0.001288641916817981 0.0 0.0
0.0 0.14335476855219853 0.12553678682211658 -0.12182944241890431 -0.003707344403212293 0.001326365132948113 0.0 0.0
0.0 0.12547126595048283 0.1100161310218673 -0.10654217478138084 -0.0034739562404865047 0.0010821890399996112 0.0 0.0
0.0 0.1068937825993008 0.093875753979223 -0.09068451801584677 -0.003191235963376265 0.0007304671348717854 0.0 0.0
0.0 0.08886565054748749 0.07818303957335723 -0.07530695818993904 -0.002876081383418106 0.00040597276627846353 0.0 0.0
0.0 0.07221162858841491 0.06362226425540632 -0.061077345346767314 -0.002544918908639023 0.00016286617650335513 0.0 0.0
0.0 0.0572621106703764 0.05051872413699686 -0.04830325688566352 -0.00221546725133329 -7.73458902352973e-06 0.0 0.0
0.0 0.04411021817102485 0.03895770728820662 -0.03705341828782975 -0.0019042890003768554 -0.00015555054644997117 0.0 0.0
0.0 0.03282443365930286 0.028945657392208793 -0.02732384475920583 -0.0016218126330029617 -0.0002286972494803534 0.0 0.0
0.0 0.023049503469059006 0.020486195271591436 -0.019109593036976832 -0.0013766022346146274 -0.000283608644483444 0.0 0.0
0.0 0.01511507077740016 0.013576328766688848 -0.012413656366705009 -0.0011626723999838204 -0.0003264410581133128 0.0 0.0
0.0 0.009028714391302973 0.008210675236256383 -0.007257543514014114 -0.0009531317222422728 -0.0003189839315458703 0.0 0.0
0.0 0.004691115057957632 0.004328670153848758 -0.003628962920102784 -0.0006997072337459735 -0.00027771692941748667 0.0 0.0
0.0 0.0017905514485765542 0.0018140364328110884 -0.0014134346347256868 -0.0004006017980854005 -0.00019775617697761555 0.0 0.0
0.0 0.0007208597747397582 0.000415163402786513 -0.00030132304868619737 -0.00011384035410031455 -9.436681231735438e-05 0.0 0.0
0.0 0.00011545866860044056 3.1790254522534016e-05 -2.271305329321449e-05 -9.077201229319042e-06 -1.2273814304131995e-05 0.0 0.0
0.0 4.463525163000926e-05 8.818095482573028e-05 -5.602886446062521e-05 -3.215209036510454e-05 0.0001991691219596994 0.0 0.0
0.0 0.005359132176097679 0.0038942033993785933 -0.0023217962018973323 -0.0015724071974812564 0.0062623391259622446 0.0 0.0
0.0 0.016432220127417935 0.013105140957647251 -0.015717398171056374 0.0026122572134091113 0.0007332977225559777 0.0 0.0
0.0 0.013295610323890057 0.009888179371710609 -0.012900881228777455 0.0030127018570668394 -0.0002691394759231707 0.0 0.0
0.0 0.003182935446824198 0.002276908793352007 -0.0013264939782555091 -0.0009504148150964937 -0.004795751268387391 0.0 0.0
0.0 -4.9961176900697756e-05 -5.4708109410638615e-05 4.6919188164309914e-05 7.788921246328713e-06 -4.4337713980158476e-05 0.0 0.0
0.0 1.4356646679086434e-05 6.0365725895284845e-06 -4.29747398582187e-06 -1.7390986037066522e-06 6.0489514330425375e-06 0.0 0.0
0.0 0.00035461559812887463 0.0002498448422010044 -0.00018272340389237926 -6.712143830862484e-05 3.882866845275527e-05 0.0 0.0
0.0 0.001583065126437444 0.0013390900543170364 -0.0010528696883703968 -0.00028622036594664176 5.215538238152242e-05 0.0 0.0
0.0 0.0039318754032201236 0.003627202778151821 -0.0030737501684670256 -0.0005534526096847902 -0.00013434599380322595 0.0 0.0
0.0 0.007954065913986251 0.0071804367325117345 -0.006427706156222474 -0.0007527305762892683 -0.0004407383729079316 0.0 0.0
0.0 0.013630370554922886 0.012127020613272012 -0.01124415521568082 -0.0008828653975911855 -0.000866284515344589 0.0 0.0
0.0 0.020955458066572393 0.01849240105112163 -0.017505316787462786 -0.0009870842636588337 -0.0013833984387382173 0.0 0.0
0.0 0.029927667378510638 0.026252508645605892 -0.025163756896266792 -0.0010887517493391224 -0.0019390648838429824 0.0 0.0
0.0 0.04063063628081494 0.035393377996111926 -0.03419939955030901 -0.0011939784458028617 -0.0025025630238563515 0.0 0.0
0.0 0.052513485057701384 0.045948103161904626 -0.04464577467438599 -0.0013023284875185784 -0.0031156705594997777 0.0 0.0
0.0 0.06633858773877511 0.05793408247632818 -0.05652729491169562 -0.0014067875646325636 -0.003793076951862019 0.0 0.0
0.0 0.08173370910783781 0.07128729907208357 -0.06979111562696455 -0.0014961834451190053 -0.004523281292239338 0.0 0.0
0.0 0.0984048467147097 0.0857225618600887 -0.0841616964396761 -0.001560865420412636 -0.005261223467807469 0.0 0.0
0.0 0.11566605818765699 0.10062164845477309 -0.09902681916851018 -0.0015948292862628002 -0.0058314167849081505 0.0 0.0
0.0 0.13238919125581977 0.11501399968467338 -0.1134147547509676 -0.0015992449337058558 -0.005930718314949169 0.0 0.0
0.0 0.14703093271920398 0.12761309136796345 -0.12603888766237026 -0.0015742037055931379 -0.005302771132361149 0.0 0.0
0.0 0.15768919184331645 0.13672757830860058 -0.135246142763478 -0.0014814355451225013 -0.004205685652974545 0.0 0.0
0.0 0.16212069516813335 0.14025534036468257 -0.13891844221965788 -0.0013368981450247663 6.016454695556561e-15 0.0 0.0
0.0 0.1576891918432971 0.1367275783085834 -0.13524614276346086 -0.0014814355451224735 0.004205685652990447 0.0 0.0
0.0 0.1470309327191646 0.1276130913679291 -0.12603888766233673 -0.001574203705592324 0.005302771132376512 0.0 0.0
0.0 0.13238919125576337 0.11501399968462467 -0.11341475475091897 -0.0015992449337056073 0.00593071831495706 0.0 0.0
0.0 0.11566605818758943 0.10062164845471469 -0.09902681916845257 -0.001594829286262082 0.005831416784908943 0.0 0.0
0.0 0.09840484671463848 0.08572256186002683 -0.08416169643961448 -0.0015608654204122192 0.005261223467803568 0.0 0.0
0.0 0.08173370910776466 0.07128729907201996 -0.06979111562690157 -0.0014961834451184771 0.004523281292237601 0.0 0.0
0.0 0.06633858773870231 0.05793408247626501 -0.056527294911632935 -0.0014067875646320623 0.003793076951860626 0.0 0.0
0.0 0.052513485057630586 0.04594810316184328 -0.044645774674325324 -0.001302328487517984 0.0031156705594957744 0.0 0.0
0.0 0.04063063628074955 0.03539337799605488 -0.034199399550252446 -0.001193978445802434 0.002502563023851782 0.0 0.0
0.0 0.02992766737845386 0.026252508645556477 -0.0251637568962182 -0.0010887517493382898 0.0019390648838378023 0.0 0.0
0.0 0.020955458066527485 0.018492401051081995 -0.017505316787423682 -0.000987084263658305 0.001383398438733932 0.0 0.0
0.0 0.013630370554889071 0.012127020613241639 -0.011244155215651282 -0.0008828653975903658 0.0008662845153419843 0.0 0.0
0.0 0.007954065913962784 0.007180436732490443 -0.006427706156201978 -0.000752730576288471 0.000440738372905724 0.0 0.0
0.0 0.003931875403206087 0.0036272027781386173 -0.0030737501684550013 -0.0005534526096836127 0.00013434599380194922 0.0 0.0
0.0 0.001583065126429637 0.0013390900543102228 -0.001052869688364727 -0.0002862203659454959 -5.215538238180621e-05 0.0 0.0
0.0 0.00035461559812641056 0.0002498448421995207 -0.0001827234038913178 -6.712143830820314e-05 -3.8828668452368844e-05 0.0 0.0
0.0 1.4356646678675527e-05 6.036572589809942e-06 -4.297473986036479e-06 -1.7390986037732832e-06 -6.048951433010326e-06 0.0 0.0
0.0 -4.9961176900487204e-05 -5.470810941037897e-05 4.691918816408231e-05 7.788921246296503e-06 4.433771397995663e-05 0.0 0.0
0.0 0.003182935446814737 0.002276908793346822 -0.001326493978251933 -0.0009504148150948888 0.0047957512683768485 0.0 0.0
0.0 0.013295610323868848 0.009888179371694384 -0.012900881228756832 0.0030127018570624384 0.00026913947589787753 0.0 0.0
0.0 0.009780263210967997 0.007115656491282549 -0.009552153132366377 0.002436496641083821 -0.002496967258623985 0.0 0.0
0.0 0.0022123424037368182 0.0013962362360659686 -0.000730319471904864 -0.0006659167641611035 -0.003842687146757782 0.0 0.0
0.0 2.5678426942533087e-08 -2.678779843523035e-09 2.105284134767642e-09 5.734957087552363e-10 -4.864799241920996e-10 0.0 0.0
0.0 -9.990992933661929e-07 -2.722873856148409e-06 2.1148048475036716e-06 6.080690086446106e-07 1.0275918221789532e-06 0.0 0.0
0.0 0.00012479968874124812 9.142667504651106e-05 -6.448821146515917e-05 -2.693846358135224e-05 1.5364012687753362e-05 0.0 0.0
0.0 0.001088892922187569 0.000859813588795768 -0.000658902177334783 -0.00020091141146098411 -3.1964572674559305e-05 0.0 0.0
0.0 0.0029666008813028035 0.002798989715662562 -0.0023218861202586095 -0.00047710359540395703 -0.00040100592289592295 0.0 0.0
0.0 0.006566191912756114 0.005935664006162221 -0.005241034693359719 -0.0006946293128024998 -0.0010074067196739174 0.0 0.0
0.0 0.011619890295264806 0.010361743020601367 -0.009525620953871269 -0.0008361220667300968 -0.0018352942368819512 0.0 0.0
0.0 0.01823980006307768 0.0160603932491528 -0.01512153966134083 -0.0009388535878119857 -0.0028257240562317844 0.0 0.0
0.0 0.026280114329933903 0.022979405584774987 -0.02194487970079701 -0.00103452588397795 -0.0038931347479846416 0.0 0.0
0.0 0.035593483002861304 0.031092620008808962 -0.029959346343642116 -0.0011332736651668241 -0.004963434301534745 0.0 0.0
0.0 0.0465669981116042 0.040431543909359435 -0.03919677825349692 -0.0012347656558625326 -0.006047930232946616 0.0 0.0
0.0 0.05857687872069563 0.05106453336290258 -0.04973226534505982 -0.0013322680178427238 -0.00723406036713962 0.0 0.0
0.0 0.07231883547618423 0.06295366561929987 -0.06153730928203554 -0.0014163563372643132 -0.008528802231165008 0.0 0.0
0.0 0.08724327622929068 0.07586644873171552 -0.07438847865778794 -0.0014779700739275244 -0.009807888023197132 0.0 0.0
0.0 0.10276835200946513 0.08928508424375532 -0.08777190808426466 -0.0015131761594907164 -0.010770166525894319 0.0 0.0
0.0 0.11789434021458088 0.10235579550671636 -0.10083670818341463 -0.0015190873233016675 -0.010940745573905685 0.0 0.0
0.0 0.13122330356916073 0.11384525407307017 -0.11236147256647988 -0.001483781506590233 -0.009916846371238058 0.0 0.0
0.0 0.14090717900952415 0.12215713081849894 -0.12073519015366757 -0.0014219406648312586 -0.007591579602758518 0.0 0.0
0.0 0.14508759208054936 0.12546391034550414 -0.12421938923244076 -0.0012445211130634015 1.0938732558640751e-14 0.0 0.0
0.0 0.14090717900951014 0.12215713081848537 -0.12073519015365479 -0.0014219406648307027 0.0075915796027849125 0.0 0.0
0.0 0.1312233035691237 0.11384525407303756 -0.1123614725664478 -0.001483781506589812 0.009916846371265721 0.0 0.0
0.0 0.11789434021453143 0.10235579550667342 -0.10083670818337172 -0.0015190873233016115 0.01094074557392221 0.0 0.0
0.0 0.10276835200940793 0.0892850842437062 -0.08777190808421595 -0.001513176159490213 0.010770166525896633 0.0 0.0
0.0 0.08724327622922545 0.07586644873165906 -0.07438847865773136 -0.0014779700739277395 0.009807888023192662 0.0 0.0
0.0 0.07231883547611935 0.06295366561924318 -0.061537309281980174 -0.0014163563372630295 0.008528802231162067 0.0 0.0
0.0 0.058576878720631075 0.051064533362846554 -0.04973226534500423 -0.0013322680178423218 0.007234060367136664 0.0 0.0
0.0 0.046566998111539006 0.04043154390930313 -0.03919677825344079 -0.00123476565586234 0.006047930232939458 0.0 0.0
0.0 0.03559348300280123 0.031092620008757135 -0.02995934634359053 -0.0011332736651665663 0.0049634343015263205 0.0 0.0
0.0 0.026280114329883142 0.022979405584730342 -0.021944879700752994 -0.001034525883977343 0.0038931347479757954 0.0 0.0
0.0 0.01823980006303769 0.016060393249117448 -0.015121539661305916 -0.0009388535878115142 0.0028257240562239317 0.0 0.0
0.0 0.01161989029523521 0.010361743020574993 -0.009525620953845695 -0.0008361220667293023 0.00183529423687679 0.0 0.0
0.0 0.006566191912733552 0.005935664006142203 -0.005241034693340632 -0.0006946293128015683 0.0010074067196694095 0.0 0.0
0.0 0.00296660088129159 0.0027989897156518464 -0.0023218861202491496 -0.0004771035954026977 0.0004010059228937631 0.0 0.0
0.0 0.001088892922181772 0.0008598135887910092 -0.000658902177330979 -0.00020091141146002996 3.196457267405197e-05 0.0 0.0
0.0 0.0001247996887398995 9.14266750460124e-05 -6.448821146482454e-05 -2.6938463581187867e-05 -1.5364012687539713e-05 0.0 0.0
0.0 -9.990992936924913e-07 -2.7228738561688745e-06 2.1148048475199914e-06 6.080690086489051e-07 -1.027591822183837e-06 0.0 0.0
0.0 2.5678426919816804e-08 -2.678779841143436e-09 2.1052841328877173e-09 5.734957082559921e-10 4.864799235722653e-10 0.0 0.0
0.0 0.0022123424037295593 0.0013962362360615884 -0.0007303194719019768 -0.0006659167641596107 0.003842687146746233 0.0 0.0
0.0 0.009780263210946757 0.007115656491266847 -0.009552153132346237 0.0024364966410793916 0.0024969672586070404 0.0 0.0
0.0 0.007323860146318476 0.005181626052705244 -0.007107602314617087 0.0019259762619118343 -0.002741085496167897 0.0 0.0
0.0 0.001550147871745187 0.0009168099868672845 -0.00046335000199370215 -0.00045345998487358115 -0.0028240003025843683 0.0 0.0
0.0 0.0 0.0 0.0 0.0 0.0 0.0 0.0
0.0 -4.628712268857164e-07 -1.1077403388822957e-07 9.71637462690009e-08 1.3610287619225262e-08 9.286937247872964e-08 0.0 0.0
0.0 2.9729371667866676e-05 6.850721294412965e-06 -3.1621913975262383e-06 -3.6885298968864432e-06 1.2919972341116541e-05 0.0 0.0
0.0 0.000582249343044747 0.0004913346294759173 -0.0003674670147446574 -0.00012386761473125922 -7.376778938617394e-05 0.0 0.0
0.0 0.0022886955062488986 0.0019941714010349586 -0.001613082389825765 -0.0003810890112091916 -0.00047885914545994757 0.0 0.0
0.0 0.005218045408787906 0.004708765642507445 -0.004086895230384609 -0.0006218704121228357 -0.001348481998457743 0.0 0.0
0.0 0.00968144411634279 0.00859335713291469 -0.007813349462045002 -0.0007800076708696856 -0.002488904325554591 0.0 0.0
0.0 0.015527477053415673 0.013611718858790051 -0.012726368631787487 -0.0008853502270025605 -0.0038482622973154876 0.0 0.0
0.0 0.02255741407643105 0.019686109142550277 -0.018710362272480723 -0.0009757468700695354 -0.005306319251145318 0.0 0.0
0.0 0.03085089042847429 0.026772917913612672 -0.025705501351662677 -0.0010674165619499903 -0.006763584870576958 0.0 0.0
0.0 0.040143909813884326 0.03491162928921353 -0.033749128985165536 -0.0011625003040480327 -0.008227659891731569 0.0 0.0
0.0 0.05110182948457876 0.04417237127932607 -0.04291991907407036 -0.0012524522052556923 -0.00978689343943337 0.0 0.0
0.0 0.06304130743654407 0.05457528438441404 -0.05324465765858448 -0.0013306267258295162 -0.011480513118537075 0.0 0.0
0.0 0.0760241392582125 0.06595252361961522 -0.0645612138956251 -0.001391309723990115 -0.013171995522168493 0.0 0.0
0.0 0.08990624894117792 0.07788195618701567 -0.07645400162287354 -0.0014279545641420921 -0.01447349358224478 0.0 0.0
0.0 0.10350461277139925 0.08963196135565862 -0.08819785698296873 -0.00143410437268988 -0.014804446196975202 0.0 0.0
0.0 0.11557890322805958 0.100087178392432 -0.09868178192426556 -0.0014053964681664032 -0.013560827220802684 0.0 0.0
0.0 0.1244883056425747 0.10782680591682776 -0.10646739412681776 -0.001359411790010108 -0.01006751093324843 0.0 0.0
0.0 0.1286438180489804 0.11108018664719489 -0.10997017364495545 -0.001110013002239456 1.4901708339509767e-14 0.0 0.0
0.0 0.12448830564255906 0.10782680591681264 -0.1064673941268029 -0.001359411790009694 0.01006751093328387 0.0 0.0
0.0 0.1155789032280251 0.10008717839240162 -0.09868178192423442 -0.0014053964681671946 0.013560827220837606 0.0 0.0
0.0 0.10350461277135486 0.08963196135561977 -0.08819785698292977 -0.001434104372689976 0.014804446196996134 0.0 0.0
0.0 0.08990624894112766 0.07788195618697229 -0.07645400162283077 -0.001427954564141524 0.014473493582247955 0.0 0.0
0.0 0.0760241392581566 0.06595252361956706 -0.06456121389557676 -0.0013913097239902734 0.013171995522162961 0.0 0.0
0.0 0.06304130743648596 0.054575284384363404 -0.05324465765853455 -0.0013306267258288733 0.01148051311853183 0.0 0.0
0.0 0.05110182948452299 0.044172371279277506 -0.042919919074022234 -0.0012524522052552384 0.009786893439428552 0.0 0.0
0.0 0.04014390981382795 0.034911629289165205 -0.03374912898511745 -0.0011625003040477337 0.008227659891722503 0.0 0.0
0.0 0.03085089042842315 0.02677291791356806 -0.025705501351618434 -0.0010674165619496566 0.006763584870565127 0.0 0.0
0.0 0.022557414076387207 0.019686109142512124 -0.018710362272442903 -0.0009757468700692125 0.005306319251134284 0.0 0.0
0.0 0.015527477053380163 0.013611718858759031 -0.012726368631757077 -0.0008853502270019475 0.0038482622973046035 0.0 0.0
0.0 0.009681444116316785 0.008593357132891902 -0.007813349462022895 -0.0007800076708689984 0.0024889043255474272 0.0 0.0
0.0 0.005218045408768957 0.0047087656424900145 -0.004086895230368154 -0.0006218704121218575 0.0013484819984516364 0.0 0.0
0.0 0.002288695506239023 0.0019941714010267442 -0.0016130823898187778 -0.0003810890112079664 0.0004788591454575426 0.0 0.0
0.0 0.000582249343040521 0.0004913346294728877 -0.0003674670147423465 -0.0001238676147305415 7.376778938559884e-05 0.0 0.0
0.0 2.9729371667048022e-05 6.850721294480023e-06 -3.162191397595243e-06 -3.68852989688478e-06 -1.291997234088169e-05 0.0 0.0
0.0 -4.62871226795079e-07 -1.1077403393871984e-07 9.716374630843572e-08 1.361028763029656e-08 -9.28693725166067e-08 0.0 0.0
0.0 0.0 0.0 0.0 0.0 0.0 0.0 0.0
0.0 0.0015501478717385255 0.0009168099868634465 -0.000463350001991136 -0.0004534599848723131 0.0028240003025741004 0.0 0.0
0.0 0.007323860146300965 0.005181626052691601 -0.007107602314599373 0.0019259762619077826 0.0027410854961557062 0.0 0.0
0.0 0.005277562614350456 0.0037176456363125893 -0.005189944879773976 0.0014722992434613874 -0.0023671156115056794 0.0 0.0
0.0 0.0012355254148538161 0.0005714305124489277 -0.00027533977533707323 -0.00029609073711185354 -0.0019433366854925544 0.0 0.0
0.0 0.0 0.0 0.0 0.0 0.0 0.0 0.0
0.0 -1.7918878968638495e-07 1.6580370838373166e-08 -1.3354665710081564e-08 -3.22570512829003e-09 -1.9972891801069645e-08 0.0 0.0
0.0 -1.8432780272821736e-05 -9.314036077333113e-06 7.640654325729985e-06 1.6733817516031202e-06 1.0462013120650968e-05 0.0 0.0
0.0 0.0002816120616893974 0.00020321388742757258 -0.00014771069848893822 -5.550318893863416e-05 -4.075850196185018e-05 0.0 0.0
0.0 0.001626171488459011 0.0012881303660352578 -0.0010146185761416558 -0.00027351178989360164 -0.0004596653292407761 0.0 0.0
0.0 0.003939478164361253 0.003518996135811509 -0.002985894994750671 -0.0005331011410608409 -0.0014236864514831798 0.0 0.0
0.0 0.007779451100538082 0.006843520507066438 -0.006132831429211433 -0.0007106890778550047 -0.0028194829447002745 0.0 0.0
0.0 0.012815135199810682 0.01116808896735909 -0.010344489502012293 -0.0008235994653467934 -0.004443590385096127 0.0 0.0
0.0 0.018929967878954714 0.016392275428470292 -0.015481093902507088 -0.0009111815259632153 -0.006177841722938534 0.0 0.0
0.0 0.026041238320568615 0.022457841031038383 -0.021461800360506753 -0.0009960406705316195 -0.007903742455412022 0.0 0.0
0.0 0.03423069037580704 0.02939389502529425 -0.028310629069159952 -0.001083265956134254 -0.009628965883389046 0.0 0.0
0.0 0.04321220205744084 0.03729502404049839 -0.03612752529450918 -0.0011674987459891829 -0.011450105789517198 0.0 0.0
0.0 0.053666964566665976 0.04619763506981117 -0.04495742807907406 -0.001240206990737132 -0.013402894558146092 0.0 0.0
0.0 0.06514958058530611 0.05600748237770395 -0.05471033054177672 -0.0012971518359272004 -0.015341865811479005 0.0 0.0
0.0 0.07706409461719156 0.06641965641141144 -0.0650834961764585 -0.0013361602349529359 -0.016896851685138693 0.0 0.0
0.0 0.08908845901023177 0.07683678278414302 -0.07548783004338126 -0.0013489527407617994 -0.01745660187530559 0.0 0.0
0.0 0.10000883039120896 0.08632082421983034 -0.08499129318481297 -0.001329531035017352 -0.0161534305615506 0.0 0.0
0.0 0.10837710471445666 0.09363517792541264 -0.09234573727603905 -0.0012894406493734957 -0.011926410890231973 0.0 0.0
0.0 0.11264951899518397 0.09693390598925174 -0.09598293967047414 -0.000950966318777592 1.7732777052303916e-14 0.0 0.0
0.0 0.1083771047144444 0.09363517792539992 -0.09234573727602644 -0.0012894406493733788 0.011926410890273048 0.0 0.0
0.0 0.1000088303911787 0.08632082421980286 -0.08499129318478524 -0.0013295310350175998 0.016153430561589386 0.0 0.0
0.0 0.08908845901019458 0.07683678278411002 -0.07548783004334801 -0.0013489527407620132 0.017456601875328645 0.0 0.0
0.0 0.07706409461714475 0.06641965641137128 -0.06508349617641858 -0.0013361602349527058 0.01689685168514224 0.0 0.0
0.0 0.06514958058526173 0.056007482377665486 -0.05471033054173843 -0.0012971518359269935 0.015341865811472538 0.0 0.0
0.0 0.05366696456661479 0.046197635069767096 -0.04495742807902986 -0.001240206990737228 0.013402894558138909 0.0 0.0
0.0 0.043212202057391215 0.03729502404045523 -0.0361275252944665 -0.0011674987459887346 0.011450105789510326 0.0 0.0
0.0 0.03423069037576244 0.029393895025255357 -0.028310629069121757 -0.0010832659561335852 0.009628965883379987 0.0 0.0
0.0 0.02604123832052655 0.022457841031001846 -0.021461800360470778 -0.0009960406705310707 0.007903742455398842 0.0 0.0
0.0 0.018929967878916914 0.016392275428437766 -0.015481093902475254 -0.0009111815259625233 0.00617784172292458 0.0 0.0
0.0 0.012815135199780068 0.011168088967332799 -0.010344489501986468 -0.0008235994653463225 0.004443590385083468 0.0 0.0
0.0 0.007779451100515414 0.0068435205070464895 -0.006132831429192318 -0.0007106890778541701 0.002819482944691662 0.0 0.0
0.0 0.003939478164345306 0.0035189961357973455 -0.002985894994737699 -0.0005331011410596475 0.0014236864514766223 0.0 0.0
0.0 0.0016261714884499112 0.001288130366028077 -0.001014618576135799 -0.00027351178989227934 0.0004596653292377827 0.0 0.0
0.0 0.0002816120616858545 0.0002032138874252463 -0.00014771069848719713 -5.550318893804877e-05 4.075850196104555e-05 0.0 0.0
0.0 -1.843278027299609e-05 -9.314036076935348e-06 7.640654325423416e-06 1.6733817515118666e-06 -1.046201312028864e-05 0.0 0.0
0.0 -1.7918878958620634e-07 1.6580370829333657e-08 -1.3354665703083526e-08 -3.225705126253981e-09 1.9972891788994082e-08 0.0 0.0
0.0 0.0 0.0 0.0 0.0 0.0 0.0 0.0
0.0 0.0012355254148474122 0.0005714305124458712 -0.0002753397753350233 -0.000296090737110846 0.0019433366854840022 0.0 0.0
0.0 0.005277562614335741 0.003717645636301079 -0.005189944879758779 0.0014722992434576937 0.002367115611496961 0.0 0.0
0.0 0.0037758783586040612 0.002561306259092468 -0.0036304935429758755 0.0010691872838834084 -0.0018496004081213538 0.0 0.0
0.0 0.0006984694049913686 0.0003321293075552868 -0.00014892973522238315 -0.00018319957233290356 -0.0012560127554442743 0.0 0.0
0.0 0.0 0.0 0.0 0.0 0.0 0.0 0.0
0.0 -4.930754295569554e-07 3.68350299857422e-08 -2.8272421256256188e-08 -8.562608729485888e-09 -7.715859359061078e-08 0.0 0.0
0.0 -5.734106344537121e-06 -5.4138874606338125e-06 4.317476136797833e-06 1.0964113238359888e-06 7.604958516236993e-06 0.0 0.0
0.0 5.640596986271027e-05 5.330694909813314e-05 -3.677841451708521e-05 -1.652853458104805e-05 -7.571673846975145e-06 0.0 0.0
0.0 0.0008415822149923186 0.0007422393972610936 -0.0005704940613178542 -0.00017174533594323997 -0.0003965272276891532 0.0 0.0
0.0 0.003018256246388887 0.0023924561227729475 -0.001976019698086281 -0.0004164364246866667 -0.0012833931447808417 0.0 0.0
0.0 0.005806135877464907 0.005136281605062305 -0.004513450338310711 -0.0006228312667515912 -0.002797512413386411 0.0 0.0
0.0 0.010183510714775395 0.008750487746347572 -0.008001436300036715 -0.0007490514463108624 -0.004599712990185747 0.0 0.0
0.0 0.015319377420328151 0.01312068976961879 -0.01228282249242765 -0.0008378672771911307 -0.006495423470953895 0.0 0.0
0.0 0.02125154095709309 0.018169083913960916 -0.017251699603635838 -0.000917384310325078 -0.008379256616016654 0.0 0.0
0.0 0.027997997136921585 0.023914100392774862 -0.02291657580547475 -0.0009975245873001415 -0.010245605893626625 0.0 0.0
0.0 0.03574146115071205 0.030448115410233373 -0.02937415112037114 -0.0010739642898622572 -0.012193167042786843 0.0 0.0
0.0 0.044348264152634966 0.03785128114360313 -0.03670941570502291 -0.001141865438580202 -0.01427456257375264 0.0 0.0
0.0 0.05381434338372952 0.04608314785409657 -0.04488657466071495 -0.001196573193381625 -0.01633934950298925 0.0 0.0
0.0 0.06438243290709272 0.05492455999564331 -0.053688630087668915 -0.0012359299079743851 -0.01803182576050074 0.0 0.0
0.0 0.07474169659860425 0.06396452527267557 -0.06270609659761353 -0.0012584286750620592 -0.018795503635315822 0.0 0.0
0.0 0.08434827407361227 0.07249826662109612 -0.0712463410224861 -0.0012519255986100306 -0.017662170928506322 0.0 0.0
0.0 0.09233689390995758 0.07947642553961674 -0.07826231011072399 -0.0012141154288926885 -0.01322963138150014 0.0 0.0
0.0 0.09686131824816098 0.08289680539079461 -0.08212710938280984 -0.000769696007984799 1.7947015401587052e-14 0.0 0.0
0.0 0.09233689390994791 0.07947642553960571 -0.07826231011071316 -0.0012141154288926234 0.013229631381540752 0.0 0.0
0.0 0.08434827407358805 0.07249826662107303 -0.07124634102246281 -0.001251925598610229 0.017662170928545808 0.0 0.0
0.0 0.07474169659857227 0.06396452527264687 -0.06270609659758448 -0.0012584286750623576 0.01879550363533947 0.0 0.0
0.0 0.06438243290705671 0.05492455999561232 -0.0536886300876386 -0.0012359299079737227 0.018031825760505396 0.0 0.0
0.0 0.053814343383688706 0.04608314785406142 -0.044886574660679884 -0.0011965731933815211 0.016339349502981385 0.0 0.0
0.0 0.04434826415259338 0.03785128114356725 -0.03670941570498711 -0.001141865438580167 0.014274562573744282 0.0 0.0
0.0 0.03574146115067013 0.030448115410196715 -0.02937415112033498 -0.0010739642898617446 0.012193167042778726 0.0 0.0
0.0 0.027997997136885083 0.023914100392743384 -0.022916575805444036 -0.000997524587299327 0.010245605893618212 0.0 0.0
0.0 0.02125154095705781 0.018169083913930715 -0.01725169960360612 -0.000917384310324584 0.008379256616003552 0.0 0.0
0.0 0.015319377420294844 0.013120689769590837 -0.012282822492400548 -0.0008378672771903018 0.006495423470937508 0.0 0.0
0.0 0.010183510714749384 0.00875048774632525 -0.008001436300014923 -0.0007490514463103175 0.004599712990171921 0.0 0.0
0.0 0.005806135877446782 0.005136281605046156 -0.004513450338295458 -0.0006228312667507025 0.0027975124133770785 0.0 0.0
0.0 0.003018256246374782 0.002392456122761625 -0.0019760196980761996 -0.00041643642468542437 0.0012833931447745923 0.0 0.0
0.0 0.0008415822149861153 0.0007422393972563748 -0.0005704940613140564 -0.00017174533594231794 0.00039652722768629314 0.0 0.0
0.0 5.640596986105687e-05 5.330694909730195e-05 -3.6778414516489356e-05 -1.652853458081265e-05 7.571673846716454e-06 0.0 0.0
0.0 -5.7341063456655e-06 -5.413887460559086e-06 4.317476136737936e-06 1.0964113238211208e-06 -7.604958516081348e-06 0.0 0.0
0.0 -4.930754293848574e-07 3.683502997241244e-08 -2.8272421245946087e-08 -8.562608726462763e-09 7.715859356278835e-08 0.0 0.0
0.0 0.0 0.0 0.0 0.0 0.0 0.0 0.0
0.0 0.0006984694049862792 0.0003321293075530401 -0.00014892973522088418 -0.00018319957233215562 0.0012560127554375558 0.0 0.0
0.0 0.0037758783585923558 0.002561306259083347 -0.003630493542963508 0.0010691872838801578 0.0018496004081150668 0.0 0.0
0.0 0.0024199632625095716 0.0016618061818119913 -0.0023823970748500967 0.0007205908930381055 -0.0013605378315896324 0.0 0.0
0.0 0.00039793105859872973 0.0001547603315465348 -4.914035454556234e-05 -0.00010561997700097236 -0.0007069575416482029 0.0 0.0
0.0 4.5030000765742004e-07 -5.889399966331698e-09 5.402290337682763e-09 4.871096286490315e-10 9.028034844085993e-08 0.0 0.0
0.0 -1.5718552920546317e-07 7.200677098081056e-09 -5.104022359583998e-09 -2.0966547385017164e-09 -3.067144082449297e-08 0.0 0.0
0.0 -3.5181540622830683e-06 -8.619995815104318e-07 6.8131975641757e-07 1.8067982509288897e-07 1.995064129250781e-06 0.0 0.0
0.0 -2.0491416120687076e-05 -1.5443188198426316e-05 1.3415727695984272e-05 2.0274605024421043e-06 3.592527741311803e-05 0.0 0.0
0.0 0.00041231399297214703 0.00031884329355793146 -0.0002403792120551857 -7.846408150274578e-05 -0.00024673921126655443 0.0 0.0
0.0 0.0017130680198976845 0.0014514213949925773 -0.0011651573286293065 -0.00028626406636327143 -0.0010617901701710317 0.0 0.0
0.0 0.004460018935064723 0.0034878367345154695 -0.002987054773522359 -0.0005007819609931101 -0.0024280375327348142 0.0 0.0
0.0 0.007476295382808698 0.006389066324006517 -0.005736025071985416 -0.0006530412520211013 -0.004284523578293483 0.0 0.0
0.0 0.011777505143811148 0.009895981377166007 -0.009146112853200696 -0.000749868523965316 -0.006239419711162079 0.0 0.0
0.0 0.016573073135823038 0.013928965352913693 -0.013101574139267025 -0.0008273912136466624 -0.008172078705461662 0.0 0.0
0.0 0.021962516057241095 0.01849201021725609 -0.017590852109720025 -0.000901158107536055 -0.010064402121537015 0.0 0.0
0.0 0.02808451531878692 0.023674514841881527 -0.022703592758356348 -0.0009709220835251836 -0.012011942917362333 0.0 0.0
0.0 0.03499293796226412 0.02957300389725798 -0.028539907199222805 -0.0010330966980351592 -0.014068262696302665 0.0 0.0
0.0 0.04303022586259725 0.03620218240294472 -0.03511887419755947 -0.0010833082053852531 -0.016130989428987413 0.0 0.0
0.0 0.05113901504061708 0.04344536226313724 -0.042320391245360675 -0.0011249710177766283 -0.01786483714434227 0.0 0.0
0.0 0.060136668598150984 0.05103519890153772 -0.049876345314334374 -0.0011588535872032973 -0.01877961440430683 0.0 0.0
0.0 0.06891280800844769 0.05856078585184831 -0.057392969083670316 -0.001167816768177998 -0.01800586506479047 0.0 0.0
0.0 0.07639983348368351 0.0652337927822474 -0.06409986742352042 -0.0011339253587270102 -0.013942206127997849 0.0 0.0
0.0 0.08134075466583493 0.06884277851626211 -0.06827812379005191 -0.0005646547262101607 1.6270405162055468e-14 0.0 0.0
0.0 0.07639983348367416 0.06523379278223641 -0.06409986742350887 -0.0011339253587274946 0.0139422061280383 0.0 0.0
0.0 0.06891280800842838 0.058560785851828986 -0.057392969083650616 -0.0011678167681783709 0.018005865064830415 0.0 0.0
0.0 0.060136668598124984 0.051035198901513895 -0.049876345314310705 -0.0011588535872032138 0.01877961440432934 0.0 0.0
0.0 0.05113901504059118 0.043445362263114816 -0.042320391245339206 -0.0011249710177755532 0.017864837144346744 0.0 0.0
0.0 0.04303022586255971 0.03620218240291289 -0.035118874197527516 -0.0010833082053853837 0.01613098942897674 0.0 0.0
0.0 0.03499293796223242 0.02957300389723027 -0.028539907199195306 -0.0010330966980349517 0.014068262696294687 0.0 0.0
0.0 0.02808451531875643 0.02367451484185499 -0.02270359275833041 -0.0009709220835245704 0.012011942917354967 0.0 0.0
0.0 0.02196251605721071 0.018492010217230334 -0.01759085210969483 -0.0009011581075354954 0.010064402121527524 0.0 0.0
0.0 0.016573073135794057 0.01392896535288958 -0.013101574139243101 -0.0008273912136464944 0.008172078705448713 0.0 0.0
0.0 0.01177750514378436 0.00989598137714408 -0.009146112853179416 -0.0007498685239646564 0.006239419711145484 0.0 0.0
0.0 0.007476295382786611 0.006389066323988233 -0.005736025071967728 -0.0006530412520205089 0.004284523578279027 0.0 0.0
0.0 0.0044600189350487785 0.003487836734503115 -0.0029870547735110554 -0.000500781960992058 0.0024280375327264416 0.0 0.0
0.0 0.0017130680198884298 0.0014514213949851425 -0.0011651573286229758 -0.0002862640663621653 0.001061790170165921 0.0 0.0
0.0 0.0004123139929685959 0.00031884329355583163 -0.00024037921205364234 -7.84640815021896e-05 0.0002467392112649885 0.0 0.0
0.0 -2.049141612111225e-05 -1.5443188198044027e-05 1.3415727695688676e-05 2.027460502355258e-06 -3.592527741240568e-05 0.0 0.0
0.0 -3.5181540622590727e-06 -8.619995815508568e-07 6.813197564486834e-07 1.8067982510218052e-07 -1.9950641293047684e-06 0.0 0.0
0.0 -1.5718552915767728e-07 7.200677095833753e-09 -5.104022357979988e-09 -2.096654737854836e-09 3.0671440814790696e-08 0.0 0.0
0.0 4.503000071303827e-07 -5.889399959299267e-09 5.402290331223529e-09 4.871096280759266e-10 -9.028034833325816e-08 0.0 0.0
0.0 0.00039793105859516195 0.00015476033154508985 -4.9140354544606077e-05 -0.000105619977000484 0.0007069575416434206 0.0 0.0
0.0 0.0024199632625008707 0.0016618061818052831 -0.0023823970748407595 0.0007205908930354801 0.0013605378315850725 0.0 0.0
0.0 0.0018162552963737581 0.0009308365920995829 -0.0013455440577795758 0.0004147074656799934 -0.0008633755600733048 0.0 0.0
0.0 9.089169979157222e-05 4.5200309782779955e-05 7.205151680422626e-06 -5.240546146320261e-05 -0.0003145178716577476 0.0 0.0
0.0 -1.913158456041943e-07 3.8637544635110525e-09 -4.877645925398686e-09 1.0138914618880749e-09 -3.8821198934823165e-08 0.0 0.0
0.0 -6.363894460634292e-07 2.4202616213886604e-08 -1.8402187576480567e-08 -5.800428637406307e-09 -1.2534082369721003e-07 0.0 0.0
0.0 -9.977476021456394e-08 -9.285649097945042e-07 7.337251488460618e-07 1.948397609484491e-07 3.1832411011316283e-06 0.0 0.0
0.0 -2.310332733285836e-05 -1.4153257697066207e-05 1.1345369834632424e-05 2.807887862433757e-06 3.267162369079731e-05 0.0 0.0
0.0 0.0001047930756749563 7.003181675017599e-05 -5.1403572088648354e-05 -1.8628244661527723e-05 -8.497523454476725e-05 0.0 0.0
0.0 0.0008485431467717574 0.0006871345331245078 -0.0005390294845098267 -0.00014810504861468158 -0.000736749707578714 0.0 0.0
0.0 0.0025548612797128 0.0020410110388228227 -0.0016950165698743224 -0.0003459944689484991 -0.0018790999582292483 0.0 0.0
0.0 0.005352400863174548 0.004114706114637411 -0.0036000816685604615 -0.0005146244460769466 -0.0034988316833292734 0.0 0.0
0.0 0.008326110885567263 0.00674810454862761 -0.006117100648169052 -0.0006310039004585541 -0.005381664323985881 0.0 0.0
0.0 0.011919074692983374 0.009770930350799949 -0.009055935610796543 -0.0007149947400034219 -0.00724494608535146 0.0 0.0
0.0 0.01602809210039595 0.013163194302768551 -0.012376703763109986 -0.0007864905396585498 -0.009057817195063319 0.0 0.0
0.0 0.02061647768512493 0.017006407680017033 -0.016156524236247912 -0.0008498834437691222 -0.010882648021699604 0.0 0.0
0.0 0.025945406324554027 0.02140392292670288 -0.02049749414095324 -0.0009064287857496389 -0.012784380015591292 0.0 0.0
0.0 0.03187088202090507 0.02642301717140397 -0.025468990496878972 -0.0009540266745249712 -0.014695904712258933 0.0 0.0
0.0 0.0386509451276272 0.0320163474564741 -0.03102227883928671 -0.000994068617187387 -0.01636046799191418 0.0 0.0
0.0 0.045647936453205744 0.03807472154048585 -0.03703695842055964 -0.0010377631199262136 -0.017340110762401374 0.0 0.0
0.0 0.05282221260335372 0.0444761081267046 -0.043404886957366426 -0.001071221169338194 -0.017044690178092736 0.0 0.0
0.0 0.06007946212725499 0.050790036991954626 -0.04974062317799904 -0.0010494138139556313 -0.01395411869926957 0.0 0.0
0.0 0.06565420458677307 0.05464097648688914 -0.05430997344486249 -0.00033100304202665675 1.3788449548801651e-14 0.0 0.0
0.0 0.06007946212725197 0.05079003699194823 -0.04974062317799274 -0.001049413813955431 0.013954118699306902 0.0 0.0
0.0 0.052822212603341315 0.04447610812669077 -0.0434048869573523 -0.0010712211693385042 0.017044690178130022 0.0 0.0
0.0 0.04564793645318602 0.03807472154046721 -0.037036958420541555 -0.0010377631199256765 0.01734011076242196 0.0 0.0
0.0 0.03865094512760741 0.03201634745645697 -0.03102227883927088 -0.0009940686171860638 0.016360467991916365 0.0 0.0
0.0 0.03187088202087572 0.026423017171379768 -0.02546899049685471 -0.0009540266745250794 0.014695904712247729 0.0 0.0
0.0 0.025945406324531673 0.02140392292668358 -0.020497494140934224 -0.0009064287857493441 0.012784380015584164 0.0 0.0
0.0 0.0206164776851027 0.0170064076799978 -0.016156524236229385 -0.0008498834437684331 0.010882648021693662 0.0 0.0
0.0 0.016028092100373696 0.013163194302750184 -0.012376703763092163 -0.0007864905396580103 0.009057817195054073 0.0 0.0
0.0 0.011919074692962557 0.009770930350782714 -0.009055935610779628 -0.0007149947400030771 0.0072449460853397435 0.0 0.0
0.0 0.008326110885546616 0.006748104548611316 -0.0061171006481534835 -0.0006310039004578261 0.005381664323970952 0.0 0.0
0.0 0.005352400863158815 0.004114706114625325 -0.0036000816685488966 -0.0005146244460764299 0.0034988316833178567 0.0 0.0
0.0 0.0025548612797016337 0.002041011038814172 -0.0016950165698666818 -0.0003459944689474895 0.0018790999582220806 0.0 0.0
0.0 0.0008485431467660635 0.0006871345331203011 -0.000539029484506368 -0.0001481050486139327 0.0007367497075746353 0.0 0.0
0.0 0.00010479307567312972 7.003181674913364e-05 -5.140357208786347e-05 -1.8628244661270185e-05 8.497523454336552e-05 0.0 0.0
0.0 -2.3103327333447137e-05 -1.4153257696678214e-05 1.1345369834323779e-05 2.8078878623544723e-06 -3.267162368968533e-05 0.0 0.0
0.0 -9.977476072377689e-08 -9.285649098324536e-07 7.337251488767719e-07 1.9483976095567392e-07 -3.1832411012035723e-06 0.0 0.0
0.0 -6.363894459073826e-07 2.4202616207271002e-08 -1.8402187571489822e-08 -5.8004286357806e-09 1.2534082366478187e-07 0.0 0.0
0.0 -1.9131584570987368e-07 3.863754462644628e-09 -4.877645924500945e-09 1.013891461856389e-09 3.882119895543256e-08 0.0 0.0
0.0 9.089169978941993e-05 4.5200309782154146e-05 7.205151680762917e-06 -5.240546146291704e-05 0.0003145178716551597 0.0 0.0
0.0 0.0018162552963659421 0.000930836592095058 -0.001345544057773139 0.00041470746567808084 0.0008633755600698549 0.0 0.0
0.0 0.0008129479571073977 0.00045517564920392564 -0.0006632018859925392 0.0002080262367886137 -0.0005239068950419278 0.0 0.0
0.0 -1.6044833271065803e-05 -1.4722123296907788e-05 3.904487968550794e-05 -2.4322756388600132e-05 -5.799480138295212e-05 0.0 0.0
0.0 2.3707835292080704e-06 -4.741373455978782e-09 1.2902230881395796e-08 -8.160857425415773e-09 5.140057596115298e-07 0.0 0.0
0.0 7.864306231303351e-07 -1.6387003304045022e-09 -2.085611771306629e-10 1.847261507534281e-09 1.628291981626507e-07 0.0 0.0
0.0 -1.6697592720687324e-06 -5.384900124483528e-07 4.132917298010582e-07 1.2519828264729355e-07 3.345301786594915e-06 0.0 0.0
0.0 -1.5932638125359522e-05 -4.021030069937091e-06 3.277820927391907e-06 7.432091425451872e-07 1.3778511734650554e-05 0.0 0.0
0.0 7.113351499182225e-06 -1.0497490052035448e-05 8.80628095252987e-06 1.6912090995055083e-06 1.6895521033951122e-05 0.0 0.0
0.0 0.0003317322542660647 0.00016429571676251174 -0.00012927809313749425 -3.501762362501749e-05 -0.000324805220490917 0.0 0.0
0.0 0.0012013621153592366 0.0008363807849915626 -0.0006800930477159603 -0.0001562877372756014 -0.0011908657260009923 0.0 0.0
0.0 0.002880038146280891 0.0020717398004256463 -0.0017598337374177206 -0.00031190606300792795 -0.002419104466355189 0.0 0.0
0.0 0.004897457139697021 0.0037612484923884365 -0.0033151385520814184 -0.0004461099403070159 -0.00396607050837008 0.0 0.0
0.0 0.007432638003752339 0.005747353122593442 -0.005203471054627022 -0.0005438820679664158 -0.005578236062465276 0.0 0.0
0.0 0.010218771026477879 0.00797856451911591 -0.007355179523843434 -0.0006233849952724747 -0.007198185461728975 0.0 0.0
0.0 0.0133355046079303 0.010502631967519296 -0.009815869198329656 -0.0006867627691896291 -0.008810306318997992 0.0 0.0
0.0 0.0169540241918445 0.013411605498140678 -0.012671198259713558 -0.0007404072384271334 -0.010438937228038892 0.0 0.0
0.0 0.021173547693847553 0.016802267006685384 -0.016015545947686866 -0.0007867210589985201 -0.01208808076131886 0.0 0.0
0.0 0.025972439153054045 0.020722806739111973 -0.019893086131147104 -0.0008297206079648443 -0.013606282665654947 0.0 0.0
0.0 0.031119622596093074 0.025166712147755836 -0.024291875124606004 -0.0008748370231498777 -0.01460133790941629 0.0 0.0
0.0 0.03693952191201959 0.03023525261982455 -0.02930290965738557 -0.000932342962438932 -0.014630698558451538 0.0 0.0
0.0 0.043749857347065706 0.03601397962285337 -0.035061702220094325 -0.0009522774027590262 -0.012967513724446891 0.0 0.0
0.0 0.0498832542843201 0.040144652209003893 -0.04007882219678814 -6.583001221576658e-05 1.2485672218343069e-14 0.0 0.0
0.0 0.04374985734706697 0.03601397962284974 -0.035061702220090814 -0.0009522774027589238 0.012967513724478595 0.0 0.0
0.0 0.036939521912015064 0.030235252619817198 -0.029302909657378275 -0.0009323429624388923 0.01463069855848547 0.0 0.0
0.0 0.031119622596077767 0.025166712147742215 -0.024291875124592358 -0.0008748370231498341 0.014601337909432122 0.0 0.0
0.0 0.025972439153037326 0.02072280673909855 -0.019893086131134812 -0.0008297206079637493 0.013606282665652366 0.0 0.0
0.0 0.021173547693827604 0.01680226700666951 -0.016015545947670882 -0.0007867210589986122 0.012088080761309471 0.0 0.0
0.0 0.01695402419182963 0.013411605498128306 -0.012671198259701208 -0.0007404072384270907 0.010438937228032772 0.0 0.0
0.0 0.013335504607914127 0.010502631967506107 -0.009815869198316726 -0.0006867627691893774 0.008810306318991623 0.0 0.0
0.0 0.010218771026464232 0.007978564519104699 -0.00735517952383263 -0.0006233849952720748 0.007198185461722386 0.0 0.0
0.0 0.007432638003736918 0.005747353122582007 -0.005203471054616262 -0.0005438820679657451 0.005578236062454708 0.0 0.0
0.0 0.004897457139684064 0.0037612484923787207 -0.003315138552072159 -0.0004461099403065605 0.003966070508358319 0.0 0.0
0.0 0.0028800381462708124 0.0020717398004185266 -0.001759833737411345 -0.0003119060630071821 0.0024191044663472512 0.0 0.0
0.0 0.0012013621153524239 0.0008363807849868619 -0.000680093047711963 -0.0001562877372748986 0.0011908657259954239 0.0 0.0
0.0 0.00033173225426342043 0.00016429571676111065 -0.00012927809313637253 -3.501762362473796e-05 0.00032480522048854393 0.0 0.0
0.0 7.113351498124538e-06 -1.0497490051626579e-05 8.806280952212943e-06 1.691209099413669e-06 -1.6895521033327198e-05 0.0 0.0
0.0 -1.593263812594479e-05 -4.021030069656537e-06 3.2778209271751393e-06 7.432091424813686e-07 -1.3778511733246748e-05 0.0 0.0
0.0 -1.669759272731316e-06 -5.384900124863648e-07 4.1329172983171885e-07 1.2519828265465757e-07 -3.345301786736883e-06 0.0 0.0
0.0 7.864306230353753e-07 -1.6387003332195712e-09 -2.0856117435996048e-10 1.847261507578611e-09 -1.6282919813890725e-07 0.0 0.0
0.0 2.370783528572564e-06 -4.741373453977909e-09 1.2902230877658941e-08 -8.160857423679981e-09 -5.140057594732086e-07 0.0 0.0
0.0 -1.6044833272022845e-05 -1.4722123297037882e-05 3.90448796854676e-05 -2.4322756388429604e-05 5.799480138186825e-05 0.0 0.0
0.0 0.0008129479571019262 0.0004551756492010753 -0.0006632018859884217 0.00020802623678734558 0.0005239068950392305 0.0 0.0
0.0 0.00031306053561542483 0.00013903746618731922 -0.000204125747602591 6.508828141527204e-05 -0.00019397945298666944 0.0 0.0
0.0 -3.888308086200245e-05 -1.9914185480708577e-05 2.843039598588658e-05 -8.51621050517802e-06 2.9990850956172263e-05 0.0 0.0
0.0 3.752924145788859e-07 1.0881436507427485e-09 -6.668165866363456e-10 -4.213270641053044e-10 7.578167770759034e-08 0.0 0.0
0.0 4.2760309138756165e-07 9.004192769495964e-09 -7.615903081245535e-09 -1.3882896882525616e-09 4.996129818040689e-08 0.0 0.0
0.0 -1.0033287159924878e-06 -6.988987117553178e-08 4.569865003697343e-08 2.4191221138566704e-08 1.974711107159439e-06 0.0 0.0
0.0 -1.0102216376429568e-05 -2.6903883688965016e-06 2.1488596840563533e-06 5.415286848401219e-07 2.1808249107524995e-05 0.0 0.0
0.0 1.3582159089593868e-05 -3.0384095791973702e-06 2.578632272373952e-06 4.597773068234464e-07 -1.2409100799600872e-06 0.0 0.0
0.0 9.182887433370039e-05 2.6685106057481505e-06 -2.238864177615545e-06 -4.296464281326708e-07 -0.000127117896830661 0.0 0.0
0.0 0.0003402267485860457 9.578854912481066e-05 -8.38179480757589e-05 -1.197060104905158e-05 -0.0005051632066849205 0.0 0.0
0.0 0.0009374901090054059 0.0004298265241482015 -0.00038283453824858435 -4.6991985899617666e-05 -0.0012376514592732193 0.0 0.0
0.0 0.002091151705208346 0.001102051791059891 -0.0009855939616044435 -0.00011645782945544672 -0.0022851943058660755 0.0 0.0
0.0 0.0033056185028628405 0.0020255075787663874 -0.0018298990988770594 -0.00019560847988933 -0.0035224834869953484 0.0 0.0
0.0 0.0048424002325639795 0.0030943610491226663 -0.002824414588761116 -0.0002699464603615459 -0.0048090922713676645 0.0 0.0
0.0 0.006607366226726619 0.004314027361955685 -0.003974128520962222 -0.0003398988409934626 -0.006138319119667354 0.0 0.0
0.0 0.00862717862123464 0.005754122108375754 -0.005347446147737065 -0.0004066759606386853 -0.007529486909170801 0.0 0.0
0.0 0.011038351413941437 0.007511132416617097 -0.007040455662067526 -0.0004706767545495653 -0.008990574256277382 0.0 0.0
0.0 0.01401565313104434 0.009718481437288935 -0.009182195013060593 -0.0005362864242283395 -0.010457575361669498 0.0 0.0
0.0 0.017650930092360125 0.012511028174432963 -0.011910399664575255 -0.0006006285098577039 -0.011569623390420287 0.0 0.0
0.0 0.021833625297194494 0.016053105337901476 -0.015388865524663762 -0.0006642398132377395 -0.011723779724660675 0.0 0.0
0.0 0.027162437521314513 0.0208733740766157 -0.020097250988665282 -0.0007761230879503965 -0.010825389622504724 0.0 0.0
0.0 0.03492552676572495 0.025206644081611277 -0.02545756170438418 0.00025091762277289133 9.518861393553735e-15 0.0 0.0
0.0 0.02716243752131677 0.020873374076612737 -0.02009725098866199 -0.000776123087950759 0.010825389622529609 0.0 0.0
0.0 0.02183362529719164 0.016053105337896462 -0.015388865524658953 -0.0006642398132375109 0.011723779724686034 0.0 0.0
0.0 0.01765093009235058 0.012511028174425448 -0.011910399664567892 -0.0006006285098575509 0.01156962339042988 0.0 0.0
0.0 0.01401565313103265 0.00971848143728239 -0.009182195013054234 -0.0005362864242281569 0.010457575361663592 0.0 0.0
0.0 0.011038351413931783 0.0075111324166104755 -0.0070404556620611925 -0.00047067675454928374 0.00899057425626936 0.0 0.0
0.0 0.008627178621227539 0.005754122108370354 -0.005347446147731624 -0.0004066759606387296 0.007529486909165989 0.0 0.0
0.0 0.0066073662267206075 0.004314027361952254 -0.003974128520958912 -0.00033989884099334874 0.006138319119663419 0.0 0.0
0.0 0.004842400232556136 0.0030943610491178464 -0.0028244145887565456 -0.0002699464603612978 0.004809092271361787 0.0 0.0
0.0 0.003305618502853911 0.0020255075787612466 -0.0018298990988722286 -0.00019560847988901703 0.0035224834869854796 0.0 0.0
0.0 0.0020911517052015207 0.0011020517910565548 -0.0009855939616012378 -0.00011645782945531597 0.0022851943058578477 0.0 0.0
0.0 0.0009374901090006618 0.00042982652414585987 -0.0003828345382464972 -4.699198589936319e-05 0.0012376514592690711 0.0 0.0
0.0 0.00034022674858383143 9.57885491239076e-05 -8.381794807497065e-05 -1.1970601048936659e-05 0.0005051632066816631 0.0 0.0
0.0 9.182887433295784e-05 2.668510605824207e-06 -2.2388641776709206e-06 -4.296464281533829e-07 0.00012711789683000948 0.0 0.0
0.0 1.3582159088053028e-05 -3.038409579223409e-06 2.5786322723939037e-06 4.59777306829521e-07 1.2409100794264532e-06 0.0 0.0
0.0 -1.0102216376260943e-05 -2.690388368822906e-06 2.1488596839975522e-06 5.415286848253539e-07 -2.18082491065813e-05 0.0 0.0
0.0 -1.003328716616793e-06 -6.988987117752895e-08 4.569865003856098e-08 2.419122113896471e-08 -1.9747111074411306e-06 0.0 0.0
0.0 4.27603090957468e-07 9.004192763244039e-09 -7.615903075691138e-09 -1.3882896875520798e-09 -4.996129802078196e-08 0.0 0.0
0.0 3.752924143091098e-07 1.0881436506432341e-09 -6.668165872929771e-10 -4.213270633542405e-10 -7.578167765116563e-08 0.0 0.0
0.0 -3.888308086206003e-05 -1.991418548035242e-05 2.8430395985434608e-05 -8.516210505082178e-06 -2.9990850955319114e-05 0.0 0.0
0.0 0.0003130605356120587 0.00013903746618595958 -0.0002041257476006491 6.50882814146893e-05 0.00019397945298476536 0.0 0.0
0.0 2.3209851346564315e-05 1.4833936685224429e-05 -2.2850151980509066e-05 8.016215295284587e-06 -2.2983416628200913e-05 0.0 0.0
0.0 -3.3030425603779717e-06 -2.3957559855657675e-06 3.5088034683037304e-06 -1.1130474827379504e-06 4.267971707330099e-06 0.0 0.0
0.0 3.575646425006509e-06 5.6715906042261415e-09 1.0930652998577705e-08 -1.6602243602808474e-08 7.512003053108864e-07 0.0 0.0
0.0 9.696021831133986e-07 5.1699417788067095e-08 -4.561497584280114e-08 -6.0844419452626534e-09 7.199937070007904e-07 0.0 0.0
0.0 -1.6278890031675778e-06 1.1896393261729494e-07 -1.1245992925798347e-07 -6.504003359311554e-09 2.9427086983655987e-06 0.0 0.0
0.0 -7.4168192308131385e-06 -2.0734567360251824e-07 2.2464825330124992e-07 -1.7302579698728398e-08 1.543838112232017e-05 0.0 0.0
0.0 1.8629157861237663e-05 -6.247811289140002e-07 6.098634643093425e-07 1.491766460464564e-08 -6.915439935828671e-06 0.0 0.0
0.0 9.54746496075119e-05 -6.093030156168697e-07 6.057402636276674e-07 3.5627519892139723e-09 -0.00016152094432476087 0.0 0.0
0.0 0.0002694125193775331 -3.559956410647589e-08 3.842175843259327e-08 -2.822194326101821e-09 -0.0003813813822240697 0.0 0.0
0.0 0.0004409523918252721 1.4030632693242957e-07 -8.252139476415453e-08 -5.77849321682852e-08 -0.0007642106479654696 0.0 0.0
0.0 0.0007834628794444949 -6.460722281105913e-07 2.1059422427421713e-07 4.3547800383631654e-07 -0.0013077589370319549 0.0 0.0
0.0 0.0010821651787310063 1.969134744691446e-06 -1.3174011519569633e-06 -6.517335927341573e-07 -0.002186524246983477 0.0 0.0
0.0 0.0015993321385033093 -5.671992540208178e-06 7.89188609157736e-06 -2.2198935513683345e-06 -0.0032642622867630846 0.0 0.0
0.0 0.002385351966795531 -1.8365258437332737e-05 2.1610026187297236e-05 -3.244767749964567e-06 -0.0045337419412357265 0.0 0.0
0.0 0.003357094503804719 -5.8847040250444255e-06 3.7458155502028225e-06 2.138888474841576e-06 -0.0059403307847954445 0.0 0.0
0.0 0.0044621846278258695 0.00012093661771600967 -0.00014157623756848282 2.063961985247263e-05 -0.007493354756203585 0.0 0.0
0.0 0.005768896382486095 0.0005531380798858203 -0.0006147703628647196 6.163228297889828e-05 -0.009144391160530656 0.0 0.0
0.0 0.007236191279858952 0.001475408060508733 -0.0016481817449306223 0.00017277368442188625 -0.010755294483265074 0.0 0.0
0.0 0.00941329115324332 0.0026786363695335924 -0.0029851003221386067 0.0003064639526050136 -0.011961293144114999 0.0 0.0
0.0 0.013844387689213068 0.005766673550993483 -0.0055981178272789195 -0.0001685557237145594 -0.011969554781114328 0.0 0.0
0.0 0.024185718341723346 0.010661774402853425 -0.011398402150103955 0.0007366277472505389 9.671517059439694e-15 0.0 0.0
0.0 0.01384438768921607 0.005766673550992135 -0.005598117827277686 -0.0001685557237144487 0.011969554781129751 0.0 0.0
0.0 0.009413291153240754 0.0026786363695321764 -0.0029851003221360896 0.0003064639526039134 0.011961293144121575 0.0 0.0
0.0 0.007236191279849476 0.0014754080605067217 -0.001648181744927979 0.0001727736844212539 0.01075529448325942 0.0 0.0
0.0 0.005768896382479872 0.0005531380798872677 -0.0006147703628665142 6.163228297924826e-05 0.009144391160522146 0.0 0.0
0.0 0.004462184627820874 0.00012093661771679165 -0.00014157623756933348 2.063961985254275e-05 0.00749335475619472 0.0 0.0
0.0 0.0033570945038022505 -5.884704024726646e-06 3.745815550159888e-06 2.1388884745654973e-06 0.005940330784792106 0.0 0.0
0.0 0.0023853519667912247 -1.8365258434575773e-05 2.161002618405425e-05 -3.244767749478343e-06 0.0045337419412291285 0.0 0.0
0.0 0.001599332138497593 -5.6719925396431735e-06 7.89188609092093e-06 -2.2198935512775665e-06 0.0032642622867531095 0.0 0.0
0.0 0.0010821651787250221 1.969134744459237e-06 -1.317401151748539e-06 -6.517335927108537e-07 0.002186524246975868 0.0 0.0
0.0 0.0007834628794413613 -6.460722280995934e-07 2.1059422421373898e-07 4.3547800388590524e-07 0.001307758937026613 0.0 0.0
0.0 0.00044095239182520725 1.4030632710566475e-07 -8.252139488773791e-08 -5.77849322178235e-08 0.0007642106479644938 0.0 0.0
0.0 0.00026941251937685675 -3.55995640094993e-08 3.842175836039883e-08 -2.822194350943577e-09 0.0003813813822233816 0.0 0.0
0.0 9.547464960653541e-05 -6.09303015627564e-07 6.057402636556052e-07 3.562751971966853e-09 0.00016152094432305043 0.0 0.0
0.0 1.862915785999524e-05 -6.24781128907399e-07 6.098634643028207e-07 1.4917664604593563e-08 6.915439935660659e-06 0.0 0.0
0.0 -7.416819230957741e-06 -2.073456736237395e-07 2.2464825332091305e-07 -1.730257969718016e-08 -1.5438381121436287e-05 0.0 0.0
0.0 -1.6278890030288916e-06 1.1896393257418485e-07 -1.1245992921632356e-07 -6.504003357858127e-09 -2.942708697189679e-06 0.0 0.0
0.0 9.696021822575925e-07 5.169941781266785e-08 -4.561497586421244e-08 -6.084441948456333e-09 -7.199937074517734e-07 0.0 0.0
0.0 3.575646424680709e-06 5.671590605073385e-09 1.0930652999650593e-08 -1.6602243604714784e-08 -7.512003053543601e-07 0.0 0.0
0.0 -3.3030425612700736e-06 -2.3957559856050745e-06 3.5088034683574776e-06 -1.1130474827524169e-06 -4.267971707311868e-06 0.0 0.0
0.0 2.320985134640667e-05 1.4833936685611526e-05 -2.2850151981065496e-05 8.016215295454075e-06 2.2983416629101664e-05 0.0 0.0
0.0 8.198645139842549e-07 -3.2811779457340424e-07 4.836707581200438e-07 -1.5555296354665332e-07 6.861277359645264e-07 0.0 0.0
0.0 -2.0560364704452247e-07 5.023499464868194e-08 -7.131543162081766e-08 2.1080436972137984e-08 -5.0674618908031574e-08 0.0 0.0
0.0 -3.0669116707458745e-07 -4.4866060737896285e-11 -3.772703702669026e-09 3.817569763406544e-09 -1.3640317919196305e-07 0.0 0.0
0.0 8.691844573469204e-07 1.6757098085376402e-07 -1.4267602017035568e-07 -2.4894960683409915e-08 1.071424465605634e-06 0.0 0.0
0.0 -1.4596940287823666e-06 1.0750729870020834e-07 -1.0431455861286492e-07 -3.192740087341211e-09 6.731574842793611e-07 0.0 0.0
0.0 -6.570376315898127e-06 6.802963680563942e-07 -4.3543352977708885e-07 -2.4486283827927016e-07 7.557407141384027e-06 0.0 0.0
0.0 3.19724331754235e-05 2.738385585779301e-06 -2.0485186103857057e-06 -6.898669753936538e-07 4.996598658964506e-07 0.0 0.0
0.0 9.991030132211729e-05 -4.467396343902412e-06 3.903493009523273e-06 5.639033343791449e-07 -0.00013166006743449782 0.0 0.0
0.0 0.00034135146544349775 -9.657242153328858e-05 8.44499059139451e-05 1.2122515619343287e-05 -0.0005083046256898976 0.0 0.0
0.0 0.0009353459331290794 -0.0004288217960893377 0.00038189194898739917 4.692984710193902e-05 -0.0012368610791317369 0.0 0.0
0.0 0.0020971346468004184 -0.0010976546104318596 0.0009823778673335023 0.00011527674309835727 -0.0022797350360965725 0.0 0.0
0.0 0.0033262966605251327 -0.0020352243610098986 0.0018380372769426384 0.00019718708406725878 -0.003523236968898265 0.0 0.0
0.0 0.004877426858243074 -0.003124240669070181 0.0028505674807300842 0.0002736731883400918 -0.004810092012585775 0.0 0.0
0.0 0.0066646964542906445 -0.004365011573628212 0.004022011125728952 0.0003430004478992635 -0.006136630703341328 0.0 0.0
0.0 0.008606423438417003 -0.005752603162379401 0.005357104705449559 0.0003954984569298456 -0.0075413793075054456 0.0 0.0
0.0 0.010649363312582632 -0.0071673574920092225 0.006750583482843704 0.0004167740091655209 -0.009090694474660667 0.0 0.0
0.0 0.012500350834642435 -0.008340982728285411 0.00794332571536146 0.00039765701292395785 -0.01085185024484977 0.0 0.0
0.0 0.013970168064306055 -0.008853516295322168 0.008536513632446355 0.00031700266287581233 -0.012862250890181445 0.0 0.0
0.0 0.014164799209001749 -0.008185170992774299 0.008028247581254809 0.0001569234115194972 -0.015085552652451364 0.0 0.0
0.0 0.011689486000662155 -0.005913526270412921 0.006039275430798997 -0.0001257491603860716 -0.016778271759143957 0.0 0.0
0.0 0.023120124994368944 -0.0031803321672778054 0.0013156756844039034 0.0018646564828739016 1.3678294608077124e-14 0.0 0.0
0.0 0.011689486000665598 -0.005913526270413036 0.00603927543079935 -0.00012574916038630946 0.01677827175915379 0.0 0.0
0.0 0.0141647992089994 -0.008185170992772042 0.008028247581251875 0.0001569234115201713 0.01508555265246186 0.0 0.0
0.0 0.013970168064297241 -0.008853516295315847 0.008536513632440188 0.00031700266287565393 0.012862250890182272 0.0 0.0
0.0 0.012500350834627338 -0.008340982728274762 0.007943325715350839 0.00039765701292392126 0.010851850244841203 0.0 0.0
0.0 0.010649363312572052 -0.00716735749200155 0.006750583482836378 0.0004167740091651697 0.009090694474651717 0.0 0.0
0.0 0.00860642343840664 -0.005752603162371151 0.005357104705441628 0.00039549845692952914 0.007541379307496782 0.0 0.0
0.0 0.0066646964542770555 -0.004365011573617919 0.004022011125719221 0.00034300044789869935 0.006136630703331952 0.0 0.0
0.0 0.004877426858230042 -0.0031242406690603097 0.0028505674807208954 0.000273673188339414 0.004810092012577488 0.0 0.0
0.0 0.0033262966605123842 -0.0020352243610010463 0.0018380372769346235 0.00019718708406642375 0.003523236968886752 0.0 0.0
0.0 0.0020971346467879444 -0.0010976546104244235 0.0009823778673265769 0.00011527674309784613 0.0022797350360854317 0.0 0.0
0.0 0.0009353459331230417 -0.00042882179608637826 0.00038189194898465137 4.692984710172661e-05 0.0012368610791274929 0.0 0.0
0.0 0.0003413514654409094 -9.657242153218742e-05 8.444990591295193e-05 1.2122515619235637e-05 0.0005083046256871731 0.0 0.0
0.0 9.991030132070824e-05 -4.467396343841552e-06 3.903493009495483e-06 5.639033343460615e-07 0.00013166006743312665 0.0 0.0
0.0 3.197243317369289e-05 2.738385585833573e-06 -2.0485186104371286e-06 -6.89866975396438e-07 -4.996598664220998e-07 0.0 0.0
0.0 -6.5703763162709005e-06 6.802963679203834e-07 -4.354335296636863e-07 -2.448628382566965e-07 -7.557407140320408e-06 0.0 0.0
0.0 -1.4596940287081114e-06 1.0750729856613485e-07 -1.0431455849956994e-07 -3.1927400665687435e-09 -6.731574831728787e-07 0.0 0.0
0.0 8.691844570934994e-07 1.675709808179927e-07 -1.4267602014215862e-07 -2.48949606758334e-08 -1.071424465099437e-06 0.0 0.0
0.0 -3.0669116729193266e-07 -4.4866074899824975e-11 -3.772703702926141e-09 3.817569777821739e-09 1.364031797495876e-07 0.0 0.0
0.0 -2.056036471332116e-07 5.0234994657509224e-08 -7.131543163091435e-08 2.1080436973408672e-08 5.06746187714657e-08 0.0 0.0
0.0 8.198645130084696e-07 -3.2811779462081813e-07 4.836707581855864e-07 -1.5555296356478864e-07 -6.861277360661962e-07 0.0 0.0
0.0 0.0 0.0 0.0 0.0 0.0 0.0 0.0
0.0 6.880248193494307e-07 2.5048177246087156e-09 8.32474642317674e-09 -1.0829564147790443e-08 1.407242047044977e-07 0.0 0.0
0.0 4.4218986819451197e-07 8.151816874893619e-08 -6.388005147295657e-08 -1.7638117275988626e-08 6.131576263805124e-07 0.0 0.0
0.0 -6.688793605054775e-08 -3.775563340771174e-07 3.0704447067526826e-07 7.0511863401842e-08 -2.4089066277461225e-06 0.0 0.0
0.0 3.797335764754406e-06 1.4516773945784375e-06 -1.2099501263573462e-06 -2.417272682210368e-07 7.610407645512569e-06 0.0 0.0
0.0 4.576314238325378e-06 7.200294120693814e-06 -5.7452131983292784e-06 -1.4550809223645171e-06 2.6143392429608286e-05 0.0 0.0
0.0 1.0485939136904455e-05 -1.8796981538667395e-07 8.524456671282368e-08 1.027252486739138e-07 -2.8115412011395647e-05 0.0 0.0
0.0 0.0003457648934526789 -0.00017013163624544063 0.00013431361524468945 3.5818021000751e-05 -0.00033819983809416267 0.0 0.0
0.0 0.0012004709830251018 -0.0008356505582111033 0.0006793492612082378 0.0001563012970028658 -0.001192131345878794 0.0 0.0
0.0 0.0028757564958840115 -0.0020695280763249864 0.0017576907461135261 0.0003118373302114582 -0.0024156335041763057 0.0 0.0
0.0 0.004897043768868819 -0.0037617381289890566 0.0033156415783970306 0.00044609655059202796 -0.003964227057828754 0.0 0.0
0.0 0.007443017248732748 -0.0057559160360027 0.005211578686482393 0.0005443373495203073 -0.0055791606108034665 0.0 0.0
0.0 0.010247585336552553 -0.008005170332651594 0.007380834215571291 0.0006243361170803055 -0.007185754832800757 0.0 0.0
0.0 0.013378291539135691 -0.010549618957795028 0.009862946440255253 0.0006866725175397811 -0.008765575421124171 0.0 0.0
0.0 0.01693676290333245 -0.013414242607594482 0.012681998568873637 0.0007322440387208313 -0.01039969358415535 0.0 0.0
0.0 0.020819399882185712 -0.016495864425598132 0.015740111613119577 0.0007557528124785462 -0.012276927750158123 0.0 0.0
0.0 0.024646116874914827 -0.019482110531942168 0.018725942708315065 0.0007561678236271108 -0.014617431271421611 0.0 0.0
0.0 0.027684548366426115 -0.021851739418271978 0.02111504410304126 0.0007366953152307227 -0.017532410510789215 0.0 0.0
0.0 0.029342924438119967 -0.02263502551883864 0.021966882340541435 0.0006681431782971871 -0.020443491702946914 0.0 0.0
0.0 0.027179337295769407 -0.019921199729319182 0.019359794407563306 0.0005614053217558774 -0.021006047995826393 0.0 0.0
0.0 0.02851557784474725 -0.015738462402088975 0.013070961028308735 0.0026675013737802408 1.3031242751537775e-14 0.0 0.0
0.0 0.027179337295773997 -0.019921199729317315 0.019359794407561574 0.0005614053217557321 0.021006047995851 0.0 0.0
0.0 0.029342924438116272 -0.022635025518831405 0.02196688234053467 0.0006681431782967266 0.020443491702970152 0.0 0.0
0.0 0.027684548366413545 -0.021851739418260286 0.021115044103030133 0.0007366953152301545 0.017532410510799016 0.0 0.0
0.0 0.02464611687489273 -0.019482110531924425 0.018725942708297385 0.0007561678236270349 0.014617431271414683 0.0 0.0
0.0 0.02081939988216422 -0.016495864425580882 0.015740111613102348 0.0007557528124785538 0.012276927750147265 0.0 0.0
0.0 0.016936762903313286 -0.013414242607578808 0.012681998568858592 0.0007322440387202142 0.01039969358414518 0.0 0.0
0.0 0.013378291539114285 -0.010549618957776898 0.00986294644023716 0.000686672517539721 0.008765575421113165 0.0 0.0
0.0 0.010247585336532779 -0.008005170332635562 0.007380834215555543 0.0006243361170800131 0.007185754832791358 0.0 0.0
0.0 0.007443017248711553 -0.0057559160359866605 0.005211578686466996 0.0005443373495196641 0.0055791606107880864 0.0 0.0
0.0 0.004897043768850088 -0.0037617381289743995 0.0033156415783832686 0.00044609655059113024 0.003964227057814033 0.0 0.0
0.0 0.0028757564958707296 -0.0020695280763151714 0.00175769074610469 0.00031183733021048236 0.0024156335041670236 0.0 0.0
0.0 0.0012004709830169694 -0.000835650558205124 0.0006793492612033201 0.00015630129700180387 0.0011921313458729348 0.0 0.0
0.0 0.0003457648934492976 -0.00017013163624358607 0.0001343136152432483 3.581802100033744e-05 0.0003381998380908249 0.0 0.0
0.0 1.048593913564629e-05 -1.8796981560606565e-07 8.524456687823227e-08 1.0272524872779738e-07 2.8115412011557376e-05 0.0 0.0
0.0 4.576314237360078e-06 7.2002941205996106e-06 -5.7452131982555095e-06 -1.4550809223441983e-06 -2.6143392429111898e-05 0.0 0.0
0.0 3.7973357634422476e-06 1.4516773945802514e-06 -1.2099501263582367e-06 -2.4172726822201006e-07 -7.610407645586932e-06 0.0 0.0
0.0 -6.688793591861693e-08 -3.775563341954438e-07 3.0704447077170635e-07 7.051186342374739e-08 2.40890662858584e-06 0.0 0.0
0.0 4.421898672876716e-07 8.151816875856579e-08 -6.38800514828761e-08 -1.7638117275685626e-08 -6.131576264068534e-07 0.0 0.0
0.0 6.880248191809002e-07 2.5048177248053658e-09 8.324746419153091e-09 -1.0829564143958909e-08 -1.407242046677047e-07 0.0 0.0
0.0 0.0 0.0 0.0 0.0 0.0 0.0 0.0
0.0 0.0 0.0 0.0 0.0 0.0 0.0 0.0
0.0 -2.601208151042033e-07 -4.54463681070783e-09 2.796718489368658e-09 1.747918321339569e-09 -5.343306389855201e-08 0.0 0.0
0.0 8.768806017353131e-07 1.2448174449155846e-08 -4.41157639447504e-09 -8.036598054674761e-09 1.786962950399552e-07 0.0 0.0
0.0 1.9182670243099367e-06 5.960275755095763e-07 -4.913517145268877e-07 -1.0467586098269049e-07 2.2331655247397426e-06 0.0 0.0
0.0 -1.1002870396151871e-07 2.2430353067333085e-06 -1.7944126893222364e-06 -4.4862261741110783e-07 6.4200301891607275e-06 0.0 0.0
0.0 -1.41742125405498e-05 1.458763768639309e-06 -1.2212928991070786e-06 -2.3747086953218238e-07 -4.568606631305193e-06 0.0 0.0
0.0 0.00016743101149583307 -8.229474525706448e-05 6.204065529899212e-05 2.025408995807222e-05 -0.00010468988620280064 0.0 0.0
0.0 0.000862769012625448 -0.0006904225164179972 0.0005422504886739867 0.00014817202774401034 -0.0007469931003548489 0.0 0.0
0.0 0.0025510833904268506 -0.00203806253658808 0.0016920819808530522 0.00034598055573502594 -0.0018762895666929857 0.0 0.0
0.0 0.0053496237828102875 -0.004112794754864022 0.003598067474417323 0.0005147272804466999 -0.003494033289503147 0.0 0.0
0.0 0.008323759380787155 -0.006750234868439197 0.0061193727354427446 0.0006308621329964532 -0.0053814117731823315 0.0 0.0
0.0 0.011927922122738268 -0.009777929748335471 0.009063025094173534 0.0007149046541619279 -0.007244044508190603 0.0 0.0
0.0 0.016042748883109963 -0.013178590135638034 0.012391900587001034 0.0007866895486370022 -0.009030052920677567 0.0 0.0
0.0 0.020628938277780777 -0.017031452080055496 0.016181475959172437 0.0008499761208830435 -0.010782991437128384 0.0 0.0
0.0 0.025904743722472208 -0.02139811547409698 0.020496990158491563 0.0009011253156054351 -0.01264705114512559 0.0 0.0
0.0 0.03159934758490976 -0.026198880951692444 0.025268393637437055 0.0009304873142553672 -0.014894742025880467 0.0 0.0
0.0 0.037702181675817376 -0.031067576020492954 0.03013524137923601 0.0009323346412569473 -0.017935755304410668 0.0 0.0
0.0 0.04290627126584295 -0.03521038694128666 0.034319029758202474 0.0008913571830841636 -0.021868980852921965 0.0 0.0
0.0 0.04570559068053501 -0.03712335095961256 0.03632002082457871 0.0008033301350338377 -0.025617137947148646 0.0 0.0
0.0 0.042825327274470124 -0.03414443602484507 0.0335313975630731 0.00061303846177194 -0.026794479856830547 0.0 0.0
0.0 0.04006074255337402 -0.02823837476300546 0.024837365863278386 0.0034010088997270763 1.4275906845551134e-14 0.0 0.0
0.0 0.04282532727447113 -0.03414443602483988 0.03353139756306811 0.000613038461771779 0.0267944798568616 0.0 0.0
0.0 0.045705590680530116 -0.03712335095960326 0.03632002082456989 0.0008033301350333291 0.025617137947180735 0.0 0.0
0.0 0.04290627126582473 -0.035210386941269316 0.03431902975818538 0.0008913571830839301 0.021868980852936606 0.0 0.0
0.0 0.037702181675789086 -0.031067576020469067 0.03013524137921247 0.0009323346412566081 0.017935755304406973 0.0 0.0
0.0 0.031599347584877695 -0.026198880951665598 0.02526839363741038 0.0009304873142552039 0.014894742025867696 0.0 0.0
0.0 0.025904743722443904 -0.021398115474073498 0.02049699015846844 0.0009011253156050681 0.012647051145114076 0.0 0.0
0.0 0.02062893827775273 -0.0170314520800316 0.01618147595914897 0.0008499761208826165 0.010782991437117726 0.0 0.0
0.0 0.016042748883080618 -0.01317859013561374 0.012391900586976866 0.0007866895486368698 0.009030052920665575 0.0 0.0
0.0 0.01192792212270959 -0.009777929748312424 0.009063025094151116 0.0007149046541613053 0.0072440445081740695 0.0 0.0
0.0 0.008323759380761927 -0.006750234868419135 0.006119372735423122 0.0006308621329960134 0.005381411773165653 0.0 0.0
0.0 0.005349623782791987 -0.0041127947548494715 0.0035980674744037332 0.0005147272804457379 0.003494033289491152 0.0 0.0
0.0 0.002551083390414085 -0.002038062536578236 0.00169208198084449 0.00034598055573374425 0.0018762895666853264 0.0 0.0
0.0 0.0008627690126189224 -0.0006904225164131353 0.0005422504886700832 0.00014817202774305218 0.0007469931003501728 0.0 0.0
0.0 0.00016743101149314333 -8.22947452557518e-05 6.204065529801054e-05 2.025408995774133e-05 0.00010468988620126272 0.0 0.0
0.0 -1.417421254070416e-05 1.4587637679427166e-06 -1.2212928985631422e-06 -2.3747086937954958e-07 4.568606632730078e-06 0.0 0.0
0.0 -1.1002870414949724e-07 2.2430353064503436e-06 -1.7944126890914754e-06 -4.4862261735886925e-07 -6.420030188100333e-06 0.0 0.0
0.0 1.918267022941934e-06 5.960275755172087e-07 -4.913517145343668e-07 -1.0467586098284035e-07 -2.2331655247595805e-06 0.0 0.0
0.0 8.768806017548074e-07 1.2448174450744215e-08 -4.411576396546859e-09 -8.036598054201751e-09 -1.7869629504425285e-07 0.0 0.0
0.0 -2.601208150903466e-07 -4.544636810377973e-09 2.7967184891725414e-09 1.7479183212069819e-09 5.3433063895465725e-08 0.0 0.0
0.0 0.0 0.0 0.0 0.0 0.0 0.0 0.0
0.0 0.0 0.0 0.0 0.0 0.0 0.0 0.0
0.0 0.0 0.0 0.0 0.0 0.0 0.0 0.0
0.0 -2.95889627028445e-07 -1.3592507698731995e-08 1.083743040721265e-08 2.7550772915178707e-09 -5.501979115714737e-08 0.0 0.0
0.0 -1.3204310500150383e-06 -2.116918200658426e-07 1.7556279812283312e-07 3.6129021943019735e-08 -6.61548901688581e-07 0.0 0.0
0.0 5.728031498522708e-07 5.475566644477334e-06 -4.418435120093961e-06 -1.0571315243833682e-06 1.2618924319320343e-05 0.0 0.0
0.0 3.520183811762021e-05 1.8207636650009218e-06 -2.520802101338041e-06 7.000384363370524e-07 1.4188501380562961e-05 0.0 0.0
0.0 0.0004326409113792042 -0.0003462807326461908 0.0002639653022991843 8.231543034700646e-05 -0.0003004500862328793 0.0 0.0
0.0 0.0017202274034879208 -0.0014507913261447409 0.0011648974477562674 0.00028589387838847313 -0.001068763846048351 0.0 0.0
0.0 0.004454339506471016 -0.0034838579222201843 0.002982838751371075 0.0005010191708491087 -0.002421609114383779 0.0 0.0
0.0 0.007474125242407003 -0.0063887022565892095 0.005735514741111423 0.0006531875154777855 -0.004280105233894029 0.0 0.0
0.0 0.011782370829763845 -0.009899437408421913 0.009149851258042758 0.000749586150379148 -0.006239713049897808 0.0 0.0
0.0 0.016577871297323774 -0.013932736682961668 0.01310599884397022 0.0008267378389914472 -0.008168881431087571 0.0 0.0
0.0 0.021957021000230063 -0.01848949617384778 0.017589036286207914 0.0009004598876398769 -0.01002485726897213 0.0 0.0
0.0 0.028053249583954137 -0.023661443071025634 0.022690082475226317 0.0009713605957992989 -0.011870624122250397 0.0 0.0
0.0 0.034923100955353246 -0.029546465068656852 0.028513657627489458 0.0010328074411673676 -0.013841322838655436 0.0 0.0
0.0 0.04287577119069079 -0.036093055655580096 0.03502244011725627 0.0010706155383238538 -0.0162780360669394 0.0 0.0
0.0 0.05059916762011263 -0.042867121678455376 0.04179943857225936 0.0010676831061959132 -0.019679916952572134 0.0 0.0
0.0 0.058005288432528994 -0.04872920280797516 0.047725271254211825 0.0010039315537633594 -0.024167727158601167 0.0 0.0
0.0 0.06208190762279243 -0.051582313777523967 0.05071607492532961 0.0008662388521943205 -0.02872408531650342 0.0 0.0
0.0 0.05844355277634528 -0.0479533484236285 0.04734188248773907 0.0006114659358894108 -0.03072814355569521 0.0 0.0
0.0 0.05265341827062553 -0.04047871893362665 0.03645462778588448 0.00402409114774212 1.5444243106621514e-14 0.0 0.0
0.0 0.058443552776345525 -0.04795334842362308 0.04734188248773363 0.0006114659358894485 0.030728143555729972 0.0 0.0
0.0 0.062081907622780264 -0.05158231377750882 0.05071607492531511 0.0008662388521937371 0.028724085316537987 0.0 0.0
0.0 0.05800528843250474 -0.04872920280795241 0.04772527125418945 0.0010039315537629058 0.024167727158618913 0.0 0.0
0.0 0.05059916762007652 -0.04286712167842431 0.041799438572228086 0.0010676831061961997 0.019679916952570382 0.0 0.0
0.0 0.04287577119065454 -0.03609305565554912 0.03502244011722578 0.0010706155383233182 0.016278036066929857 0.0 0.0
0.0 0.03492310095531599 -0.02954646506862505 0.028513657627458017 0.0010328074411670263 0.013841322838642822 0.0 0.0
0.0 0.028053249583918333 -0.02366144307099485 0.022690082475195935 0.000971360595798908 0.011870624122239227 0.0 0.0
0.0 0.02195702100019352 -0.018489496173816854 0.017589036286177338 0.000900459887639516 0.0100248572689594 0.0 0.0
0.0 0.016577871297287775 -0.013932736682931457 0.013105998843940408 0.0008267378389910534 0.008168881431070696 0.0 0.0
0.0 0.011782370829733727 -0.00989943740839675 0.009149851258017967 0.0007495861503787892 0.006239713049880278 0.0 0.0
0.0 0.007474125242382866 -0.00638870225656882 0.005735514741091755 0.0006531875154770657 0.0042801052338795114 0.0 0.0
0.0 0.004454339506453407 -0.0034838579222065016 0.002982838751358547 0.0005010191708479565 0.0024216091143747292 0.0 0.0
0.0 0.0017202274034775734 -0.0014507913261366564 0.0011648974477494977 0.00028589387838715816 0.0010687638460426816 0.0 0.0
0.0 0.0004326409113747735 -0.0003462807326434122 0.0002639653022970602 8.231543034635179e-05 0.00030045008623070873 0.0 0.0
0.0 3.520183811659209e-05 1.820763664977714e-06 -2.5208021013133276e-06 7.00038436335588e-07 -1.4188501380313249e-05 0.0 0.0
0.0 5.728031486121137e-07 5.475566644448908e-06 -4.418435120070574e-06 -1.057131524378313e-06 -1.2618924319245054e-05 0.0 0.0
0.0 -1.3204310506727355e-06 -2.1169182010641272e-07 1.755627981547938e-07 3.6129021951635794e-08 6.615489018264944e-07 0.0 0.0
0.0 -2.9588962689353585e-07 -1.3592507692400482e-08 1.0837430402124616e-08 2.755077290274585e-09 5.50197911312241e-08 0.0 0.0
0.0 0.0 0.0 0.0 0.0 0.0 0.0 0.0
0.0 0.0 0.0 0.0 0.0 0.0 0.0 0.0
0.0 0.0 0.0 0.0 0.0 0.0 0.0 0.0
0.0 0.0 0.0 0.0 0.0 0.0 0.0 0.0
0.0 -3.008317283811859e-07 -1.6894082401111415e-08 1.3667650964936457e-08 3.226431436173586e-09 -5.3084951058647605e-08 0.0 0.0
0.0 9.461276054792199e-07 -8.355253721209762e-09 9.54775595604491e-09 -1.1925022348101495e-09 1.6154339030074456e-09 0.0 0.0
0.0 -1.4702530122802614e-05 3.3487474335583567e-06 -2.8588033967450007e-06 -4.899440368133635e-07 6.815117493250124e-06 0.0 0.0
0.0 0.00013949468768569408 -6.890829654172569e-05 4.974829389416649e-05 1.9160002647559363e-05 -2.6685541454360856e-05 0.0 0.0
0.0 0.0008821002202798921 -0.000754598646371422 0.0005831054190730893 0.00017149322729833276 -0.00042519505057048786 0.0 0.0
0.0 0.003018666711555606 -0.0023885991220558246 0.001972360075112892 0.000416239046942933 -0.0012851153840639903 0.0 0.0
0.0 0.00580229396968686 -0.005133041166550109 0.004509910544297724 0.0006231306222523849 -0.002789676775402136 0.0 0.0
0.0 0.010184253127492118 -0.008752109425383065 0.008002957731648944 0.0007491516937341254 -0.004596348838282263 0.0 0.0
0.0 0.01532426864522574 -0.013124939459739231 0.012287452948584498 0.0008374865111547346 -0.006495716334736488 0.0 0.0
0.0 0.02125069393085748 -0.018168149205663398 0.017251942379344156 0.0009162068263192337 -0.008372733219207687 0.0 0.0
0.0 0.027968517371644686 -0.023890357302029853 0.022894660483713806 0.0009956968183160277 -0.01019828478049624 0.0 0.0
0.0 0.03565987323418892 -0.0303887684785222 0.029314540828493146 0.001074227650029068 -0.012039102638771853 0.0 0.0
0.0 0.04424230884577935 -0.03778971388489364 0.03664273300355488 0.0011469808813387146 -0.014012969662145268 0.0 0.0
0.0 0.053761911592481317 -0.04606731977127757 0.044872483470506846 0.0011948363007707572 -0.016376068336329635 0.0 0.0
0.0 0.06419018680598394 -0.05469537709707582 0.05350971465025296 0.001185662446822824 -0.019648415437084243 0.0 0.0
0.0 0.07314880084044965 -0.06222689957602557 0.061134436627009334 0.0010924629490161944 -0.024227813050487525 0.0 0.0
0.0 0.07778203456238515 -0.06591844808391081 0.06501549410125211 0.000902953982658725 -0.029439906079235665 0.0 0.0
0.0 0.07370536140614682 -0.06161204150519477 0.06101032909388443 0.000601712411310318 -0.03324782482442939 0.0 0.0
0.0 0.06625106836854311 -0.0527371878134187 0.048153995126301065 0.004583192687117643 1.620665407431332e-14 0.0 0.0
0.0 0.07370536140614367 -0.06161204150518681 0.06101032909387652 0.0006017124113102963 0.03324782482446551 0.0 0.0
0.0 0.0777820345623669 -0.06591844808389109 0.06501549410123258 0.0009029539826585118 0.029439906079271487 0.0 0.0
0.0 0.07314880084041932 -0.062226899575997856 0.061134436626981835 0.001092462949015997 0.024227813050506967 0.0 0.0
0.0 0.06419018680594277 -0.05469537709704005 0.05350971465021723 0.0011856624468227195 0.019648415437084663 0.0 0.0
0.0 0.05376191159243907 -0.04606731977124115 0.044872483470470736 0.001194836300770486 0.016376068336322692 0.0 0.0
0.0 0.04424230884573365 -0.037789713884854415 0.036642733003516094 0.001146980881338344 0.01401296966213447 0.0 0.0
0.0 0.03565987323414545 -0.030388768478484242 0.02931454082845588 0.0010742276500283498 0.012039102638760645 0.0 0.0
0.0 0.027968517371600936 -0.023890357301992276 0.022894660483676398 0.0009956968183158512 0.010198284780483697 0.0 0.0
0.0 0.021250693930815225 -0.018168149205627437 0.017251942379308674 0.0009162068263187495 0.008372733219192144 0.0 0.0
0.0 0.015324268645189843 -0.013124939459708985 0.012287452948554442 0.0008374865111545389 0.006495716334719691 0.0 0.0
0.0 0.01018425312746064 -0.008752109425356444 0.00800295773162302 0.0007491516937334321 0.004596348838266755 0.0 0.0
0.0 0.005802293969667151 -0.005133041166532073 0.004509910544280708 0.0006231306222513645 0.0027896767753926516 0.0 0.0
0.0 0.00301866671154027 -0.0023885991220436095 0.0019723600751021426 0.0004162390469414651 0.0012851153840572535 0.0 0.0
0.0 0.0008821002202735552 -0.0007545986463664953 0.0005831054190692238 0.00017149322729727247 0.00042519505056777096 0.0 0.0
0.0 0.00013949468768309945 -6.890829654062806e-05 4.974829389334139e-05 1.9160002647286568e-05 2.6685541453666512e-05 0.0 0.0
0.0 -1.4702530123165347e-05 3.348747433058231e-06 -2.8588033963555185e-06 -4.899440367027442e-07 -6.815117492613434e-06 0.0 0.0
0.0 9.461276048172159e-07 -8.355253775728105e-09 9.547755999195662e-09 -1.1925022234629537e-09 -1.6154337568527183e-09 0.0 0.0
0.0 -3.0083172820327663e-07 -1.6894082390560128e-08 1.3667650956397697e-08 3.226431434162971e-09 5.3084951026648725e-08 0.0 0.0
0.0 0.0 0.0 0.0 0.0 0.0 0.0 0.0
0.0 0.0 0.0 0.0 0.0 0.0 0.0 0.0
0.0 0.0 0.0 0.0 0.0 0.0 0.0 0.0
0.0 0.0 0.0 0.0 0.0 0.0 0.0 0.0
0.0 -1.680433764396781e-07 -1.0793184899027673e-08 8.54508648894806e-09 2.2480984100807976e-09 -2.827633481288059e-08 0.0 0.0
0.0 -1.1347530639329795e-06 -3.73566458143433e-08 2.968267409180804e-08 7.673971722506447e-09 4.5771755690062395e-08 0.0 0.0
0.0 1.6055144581954188e-06 1.2916049642564636e-05 -1.0848814986969717e-05 -2.067234655594871e-06 1.8475503026253892e-05 0.0 0.0
0.0 0.00026080803939471596 -0.00025688540670056753 0.00019145294404452847 6.543246265603892e-05 -0.00011119534078768622 0.0 0.0
0.0 0.001655989453250987 -0.0012891663046376025 0.0010177093760717698 0.0002714569285658327 -0.00048030789043995394 0.0 0.0
0.0 0.003935686383784973 -0.003514935556521388 0.0029819298706555775 0.0005330056858658099 -0.0014206251186603958 0.0 0.0
0.0 0.007778845259869158 -0.00684301296210339 0.006132023301931761 0.0007109896601716329 -0.00281248710232558 0.0 0.0
0.0 0.012818778071018928 -0.011171541557135975 0.010347882127820436 0.000823659429315544 -0.004441688792321237 0.0 0.0
0.0 0.01893460112892373 -0.016396082768023137 0.015485406015820467 0.0009106767522026567 -0.006178016752627018 0.0 0.0
0.0 0.026033058959415715 -0.022450527996038326 0.021456093814390717 0.000994434181647599 -0.007893234170878692 0.0 0.0
0.0 0.034178420060943036 -0.02934988395443403 0.028269344716857978 0.0010805392375760486 -0.009578415245837298 0.0 0.0
0.0 0.04308671542355705 -0.03719330153392078 0.03602645529372534 0.001166846240195447 -0.011315190461227975 0.0 0.0
0.0 0.05351426472462099 -0.04608450595516879 0.04483728154545686 0.0012472244097119244 -0.01317849755982033 0.0 0.0
0.0 0.06511392829881069 -0.05600693704750248 0.05470185623988436 0.0013050808076180212 -0.01525609039292662 0.0 0.0
0.0 0.0770638596505104 -0.06640857608043008 0.0651104072958742 0.0012981687845558937 -0.01793566859716614 0.0 0.0
0.0 0.08785536273386697 -0.07556001172938791 0.07438328674902536 0.0011767249803625581 -0.022025876297005618 0.0 0.0
0.0 0.09366303383813901 -0.0801508905566373 0.07921735175860133 0.0009335387980358439 -0.027858889235125167 0.0 0.0
0.0 0.08903442234360434 -0.07539146561303876 0.07481072786104316 0.0005807377519955422 -0.03465727768358953 0.0 0.0
0.0 0.08009766475187738 -0.06532516232636865 0.060238787073589914 0.005086375252778809 1.644517855226013e-14 0.0 0.0
0.0 0.08903442234359879 -0.07539146561302916 0.07481072786103453 0.0005807377519946067 0.03465727768362451 0.0 0.0
0.0 0.09366303383811127 -0.08015089055661043 0.07921735175857418 0.0009335387980361038 0.027858889235158404 0.0 0.0
0.0 0.08785536273382923 -0.0755600117293545 0.07438328674899182 0.0011767249803626607 0.02202587629702395 0.0 0.0
0.0 0.07706385965046242 -0.06640857608038832 0.06511040729583259 0.0012981687845557907 0.01793566859716831 0.0 0.0
0.0 0.06511392829875927 -0.05600693704745789 0.05470185623984006 0.0013050808076177697 0.015256090392921261 0.0 0.0
0.0 0.05351426472456998 -0.04608450595512448 0.044837281545413395 0.001247224409711072 0.013178497559812583 0.0 0.0
0.0 0.04308671542350624 -0.03719330153387669 0.03602645529368212 0.0011668462401945713 0.011315190461218096 0.0 0.0
0.0 0.034178420060892674 -0.029349883954390067 0.028269344716814502 0.0010805392375756071 0.00957841524582626 0.0 0.0
0.0 0.026033058959366383 -0.022450527995995836 0.021456093814348747 0.000994434181647077 0.007893234170863718 0.0 0.0
0.0 0.018934601128880638 -0.01639608276798607 0.015485406015783727 0.0009106767522023405 0.006178016752611372 0.0 0.0
0.0 0.012818778070983337 -0.01117154155710505 0.010347882127790206 0.0008236594293148327 0.0044416887923073795 0.0 0.0
0.0 0.007778845259843999 -0.006843012962081067 0.006132023301910281 0.0007109896601707803 0.00281248710231625 0.0 0.0
0.0 0.003935686383767918 -0.003514935556506299 0.0029819298706418953 0.0005330056858644039 0.0014206251186540647 0.0 0.0
0.0 0.0016559894532417138 -0.0012891663046305237 0.0010177093760659448 0.0002714569285645771 0.0004803078904369356 0.0 0.0
0.0 0.00026080803939127064 -0.00025688540669836275 0.0001914529440428613 6.54324626555011e-05 0.00011119534078687392 0.0 0.0
0.0 1.6055144577081695e-06 1.2916049642026727e-05 -1.0848814986543746e-05 -2.0672346554828544e-06 -1.8475503025581003e-05 0.0 0.0
0.0 -1.1347530641636867e-06 -3.7356645793766795e-08 2.9682674074353145e-08 7.673971719415139e-09 -4.5771755746214724e-08 0.0 0.0
0.0 -1.6804337643450485e-07 -1.0793184898566844e-08 8.545086488621468e-09 2.248098409945835e-09 2.8276334812116163e-08 0.0 0.0
0.0 0.0 0.0 0.0 0.0 0.0 0.0 0.0
0.0 0.0 0.0 0.0 0.0 0.0 0.0 0.0
0.0 0.0 0.0 0.0 0.0 0.0 0.0 0.0
0.0 0.0 0.0 0.0 0.0 0.0 0.0 0.0
0.0 0.0 0.0 0.0 0.0 0.0 0.0 0.0
0.0 -1.280085721605522e-06 3.4379347151599074e-07 -2.730975272111093e-07 -7.069594430487305e-08 5.579946154678559e-07 0.0 0.0
0.0 3.1252168937260114e-05 -5.207419173109484e-06 1.9087999815516913e-06 3.298619191558054e-06 9.397883845760658e-06 0.0 0.0
0.0 0.0005990804198627202 -0.00048531649016511234 0.0003644385405743528 0.00012087794959075998 -9.809502477927278e-05 0.0 0.0
0.0 0.0022903564396610817 -0.0019901465571146243 0.0016105713936888596 0.0003795751634257613 -0.0004909909720252095 0.0 0.0
0.0 0.005219424204573858 -0.004708528137497735 0.004086854311324764 0.000621673826172976 -0.0013436071905598762 0.0 0.0
0.0 0.009685224623592411 -0.008596537627623097 0.007816253190175955 0.0007802844374471286 -0.002483974750591613 0.0 0.0
0.0 0.01553311888272788 -0.013616473993423712 0.012731086708362588 0.0008853872850611285 -0.0038477303844029 0.0 0.0
0.0 0.02256009296679479 -0.01968798034822591 0.018712897801209927 0.0009750825470159714 -0.005305927405062185 0.0 0.0
0.0 0.030833838693457148 -0.02675783384270168 0.02569226447977302 0.001065569362928647 -0.006750028456685677 0.0 0.0
0.0 0.040073639477234295 -0.03485144550253563 0.03369199630407547 0.0011594491984601564 -0.008180279664100756 0.0 0.0
0.0 0.050947214944548166 -0.04404125921533508 0.04279080419073396 0.0012504550246011117 -0.00969124167135427 0.0 0.0
0.0 0.06283214634211619 -0.054401445731641365 0.053067116285537834 0.0013343294461035306 -0.011341777706390476 0.0 0.0
0.0 0.0758896256517388 -0.06585268545323883 0.06445213846357287 0.0014005469896660695 -0.013039284116313934 0.0 0.0
0.0 0.08982694999244922 -0.07783515443193267 0.07642658899767149 0.0014085654342611137 -0.014789014631405356 0.0 0.0
0.0 0.10235064279299731 -0.08857104434200523 0.08729518961325489 0.0012758547287503178 -0.01763133135667857 0.0 0.0
0.0 0.10939993182398977 -0.09433408592674346 0.09336038572329977 0.0009737002034437077 -0.02388455830655272 0.0 0.0
0.0 0.10490974318663474 -0.08956395420906596 0.0890229425201666 0.0005410116888994681 -0.034735512278347196 0.0 0.0
0.0 0.0952201176549788 -0.07856707053320092 0.07304100295099457 0.005526067582206336 1.4331417996782392e-14 0.0 0.0
0.0 0.10490974318662778 -0.08956395420905601 0.089022942520158 0.000541011688898021 0.03473551227837821 0.0 0.0
0.0 0.10939993182395763 -0.09433408592671377 0.0933603857232701 0.0009737002034436516 0.023884558306582135 0.0 0.0
0.0 0.10235064279295383 -0.08857104434196701 0.08729518961321722 0.0012758547287497065 0.017631331356694577 0.0 0.0
0.0 0.0898269499923933 -0.07783515443188425 0.07642658899762296 0.001408565434261275 0.014789014631407407 0.0 0.0
0.0 0.0758896256516794 -0.06585268545318713 0.06445213846352187 0.0014005469896652624 0.013039284116311587 0.0 0.0
0.0 0.06283214634205686 -0.05440144573159001 0.05306711628548698 0.001334329446103059 0.011341777706384965 0.0 0.0
0.0 0.05094721494449037 -0.04404125921528457 0.0427908041906846 0.0012504550245999299 0.009691241671346381 0.0 0.0
0.0 0.04007363947717526 -0.034851445502484715 0.03369199630402472 0.0011594491984600196 0.00818027966409232 0.0 0.0
0.0 0.03083383869340071 -0.026757833842652262 0.025692264479724378 0.0010655693629279099 0.006750028456673391 0.0 0.0
0.0 0.02256009296674496 -0.01968798034818268 0.018712897801167003 0.0009750825470156735 0.005305927405048395 0.0 0.0
0.0 0.015533118882687725 -0.013616473993388802 0.012731086708328227 0.0008853872850605645 0.00384773038439114 0.0 0.0
0.0 0.009685224623561346 -0.008596537627595635 0.00781625319014915 0.0007802844374464765 0.0024839747505830986 0.0 0.0
0.0 0.005219424204555177 -0.004708528137480503 0.004086854311308719 0.0006216738261717874 0.0013436071905543305 0.0 0.0
0.0 0.0022903564396492783 -0.0019901465571046106 0.0016105713936802398 0.000379575163424372 0.0004909909720218821 0.0 0.0
0.0 0.0005990804198574705 -0.00048531649016129535 0.0003644385405714104 0.00012087794958988474 9.809502477837632e-05 0.0 0.0
0.0 3.1252168936702557e-05 -5.207419173358876e-06 1.908799981779588e-06 3.2986191915791794e-06 -9.397883845158842e-06 0.0 0.0
0.0 -1.2800857221838088e-06 3.437934715749021e-07 -2.730975272605202e-07 -7.069594431437667e-08 -5.579946155650864e-07 0.0 0.0
0.0 0.0 0.0 0.0 0.0 0.0 0.0 0.0
0.0 0.0 0.0 0.0 0.0 0.0 0.0 0.0
0.0 0.0 0.0 0.0 0.0 0.0 0.0 0.0
0.0 0.0 0.0 0.0 0.0 0.0 0.0 0.0
0.0 0.0 0.0 0.0 0.0 0.0 0.0 0.0
0.0 0.0 0.0 0.0 0.0 0.0 0.0 0.0
0.0 -8.318088816730043e-07 1.4040553801600077e-06 -1.1149491400713264e-06 -2.891062400886963e-07 1.1531340835482381e-06 0.0 0.0
0.0 7.740560880064878e-05 -7.718104455086108e-05 5.373838158312735e-05 2.3442662967733683e-05 4.226391903421978e-06 0.0 0.0
0.0 0.001052118046604722 -0.0008306332465322867 0.0006350338217390593 0.00019559942479322641 -4.8055556955294235e-05 0.0 0.0
0.0 0.002960194449817605 -0.0027925639246474923 0.0023168553509995524 0.00047570857364794125 -0.0004051515704967515 0.0 0.0
0.0 0.0065821264888513056 -0.0059416007058861265 0.005247567832409906 0.0006940328734762272 -0.0010039836264572307 0.0 0.0
0.0 0.011627058403798764 -0.010368793149004647 0.009532322718154754 0.0008364704308498915 -0.0018326066189616854 0.0 0.0
0.0 0.018246550910637552 -0.016065690350554 0.015126868271267843 0.0009388220792861399 -0.0028259885146071665 0.0 0.0
0.0 0.026279360480461873 -0.02297807124075612 0.02194438195296543 0.0010336892877906671 -0.003892426047650852 0.0 0.0
0.0 0.0355670291109512 -0.031069183801266054 0.02993779076682497 0.0011313930344410885 -0.004949937810659081 0.0 0.0
0.0 0.046484552395448464 -0.04035993728913534 0.03912808190205375 0.0012318553870815623 -0.006011112845886357 0.0 0.0
0.0 0.05840808201132748 -0.050917930845161045 0.04958893465080781 0.001328996194353191 -0.007181634091465238 0.0 0.0
0.0 0.07205436119627039 -0.0627228294725041 0.06130938154438243 0.001413447928121723 -0.008478319923158813 0.0 0.0
0.0 0.0868967673349221 -0.07556692141690853 0.07409204816870628 0.0014748732482021297 -0.009721610904967105 0.0 0.0
0.0 0.10225224373889104 -0.0888561306790491 0.08735651247824186 0.00149961820080738 -0.010610555723639658 0.0 0.0
0.0 0.11633505748984675 -0.10104413126131236 0.09962362533165199 0.0014205059296602965 -0.011712793529702682 0.0 0.0
0.0 0.12510263515767778 -0.10841759164326745 0.10735571076469108 0.001061880878576292 -0.01685844283311138 0.0 0.0
0.0 0.12154493090251808 -0.10443875745658988 0.10397807574545916 0.0004606817111304782 -0.03255216395121841 0.0 0.0
0.0 0.111709333324612 -0.09293426000175144 0.08706324471160269 0.005871015290148681 1.054017984003508e-14 0.0 0.0
0.0 0.12154493090250093 -0.10443875745657287 0.1039780757454426 0.00046068171113030303 0.032552163951242795 0.0 0.0
0.0 0.12510263515763936 -0.10841759164323345 0.10735571076465646 0.0010618808785770172 0.016858442833135753 0.0 0.0
0.0 0.11633505748979324 -0.1010441312612662 0.09962362533160592 0.0014205059296602512 0.011712793529713498 0.0 0.0
0.0 0.10225224373882943 -0.08885613067899578 0.08735651247818857 0.0014996182008072604 0.01061055572364112 0.0 0.0
0.0 0.08689676733485599 -0.07556692141685056 0.07409204816864995 0.0014748732482007037 0.009721610904966317 0.0 0.0
0.0 0.0720543611962019 -0.06272282947244494 0.06130938154432349 0.0014134479281214113 0.008478319923155599 0.0 0.0
0.0 0.058408082011261075 -0.050917930845103335 0.0495889346507511 0.001328996194352286 0.00718163409145881 0.0 0.0
0.0 0.04648455239537852 -0.04035993728907483 0.039128081901993045 0.0012318553870817892 0.006011112845879869 0.0 0.0
0.0 0.035567029110888326 -0.031069183801211608 0.02993779076677123 0.0011313930344403172 0.0049499378106513635 0.0 0.0
0.0 0.0262793604804079 -0.022978071240708612 0.021944381952918406 0.0010336892877902118 0.0038924260476404177 0.0 0.0
0.0 0.018246550910594267 -0.016065690350515582 0.015126868271230144 0.0009388220792854449 0.0028259885145984587 0.0 0.0
0.0 0.01162705840376368 -0.010368793148973345 0.009532322718124098 0.0008364704308492501 0.0018326066189552836 0.0 0.0
0.0 0.006582126488828121 -0.00594160070586493 0.005247567832389917 0.0006940328734750122 0.0010039836264526363 0.0 0.0
0.0 0.002960194449803977 -0.0027925639246347868 0.0023168553509881947 0.000475708573646592 0.00040515157049391033 0.0 0.0
0.0 0.0010521180465978466 -0.0008306332465265919 0.0006350338217345387 0.00019559942479205214 4.805555695450304e-05 0.0 0.0
0.0 7.740560879916384e-05 -7.718104455040733e-05 5.3738381582843285e-05 2.344266296756394e-05 -4.226391903039674e-06 0.0 0.0
0.0 -8.318088820681405e-07 1.404055380189952e-06 -1.1149491400969915e-06 -2.8910624009298123e-07 -1.1531340835887477e-06 0.0 0.0
0.0 0.0 0.0 0.0 0.0 0.0 0.0 0.0
0.0 0.0 0.0 0.0 0.0 0.0 0.0 0.0
0.0 0.0 0.0 0.0 0.0 0.0 0.0 0.0
0.0 0.0 0.0 0.0 0.0 0.0 0.0 0.0
0.0 0.0 0.0 0.0 0.0 0.0 0.0 0.0
0.0 0.0 0.0 0.0 0.0 0.0 0.0 0.0
0.0 -3.2226356098396737e-06 2.2668119552255415e-06 -1.9083740781924023e-06 -3.5843787703313445e-07 1.5163098933716982e-06 0.0 0.0
0.0 0.0002502043118713476 -0.00017580135223838603 0.0001245091292448347 5.1292222993551395e-05 3.913625940779725e-05 0.0 0.0
0.0 0.0014822413270476446 -0.0012929741859329044 0.0010109148220996745 0.00028205936383322985 5.190347757769195e-05 0.0 0.0
0.0 0.0039222187709056855 -0.0036252342034974083 0.003073852202022777 0.0005513820014746306 -0.00013447175831638342 0.0 0.0
0.0 0.007957880140313891 -0.007193973322970699 0.006441614164406891 0.0007523591585638019 -0.0004403442752063774 0.0 0.0
0.0 0.01364793652705287 -0.012137011465922953 0.01125385641123885 0.0008831550546840983 -0.0008648548856956834 0.0 0.0
0.0 0.02096241510675223 -0.01849768866592705 0.017510720824346522 0.000986967841580521 -0.0013841653998155291 0.0 0.0
0.0 0.029922604909245594 -0.026247320228307943 0.0251595552043106 0.0010877650239973667 -0.0019388659604860723 0.0 0.0
0.0 0.040595331182664826 -0.0353619697905694 0.03416978919160513 0.001192180598964278 -0.002494027790482882 0.0 0.0
0.0 0.05242246598054332 -0.04586858253864623 0.04456884407419941 0.0012997384644467878 -0.003095833521766684 0.0 0.0
0.0 0.06616237987980116 -0.05777932665729447 0.05637702406814421 0.001402302589150248 -0.003776244704522696 0.0 0.0
0.0 0.08141552883037169 -0.07100505533577295 0.06951895229947842 0.0014861030362946063 -0.004527941030693177 0.0 0.0
0.0 0.0977908426080161 -0.08518016316570452 0.0836418054896382 0.0015383576760662943 -0.005244195838740394 0.0 0.0
0.0 0.11438908615683774 -0.09951932861543954 0.09796547546857556 0.001553853146863964 -0.0056206321305255465 0.0 0.0
0.0 0.12962550941910553 -0.11268589053092803 0.11114518948658059 0.0015407010443475061 -0.005548030961607361 0.0 0.0
0.0 0.14032248143137455 -0.12192762904689819 0.12056588147400542 0.0013617475728925823 -0.007591708068887133 0.0 0.0
0.0 0.1392674237848299 -0.1203601340309079 0.11995588281734135 0.0004042512135667054 -0.023383596053476192 0.0 0.0
0.0 0.13069948565544037 -0.10946200696646369 0.10362904537888916 0.005832961587574417 5.455705331947058e-15 0.0 0.0
0.0 0.13926742378480492 -0.1203601340308856 0.11995588281731832 0.00040425121356725096 0.023383596053489213 0.0 0.0
0.0 0.14032248143132903 -0.12192762904685887 0.12056588147396519 0.0013617475728935496 0.00759170806890071 0.0 0.0
0.0 0.12962550941904544 -0.11268589053087627 0.11114518948652886 0.0015407010443473715 0.005548030961613609 0.0 0.0
0.0 0.11438908615676754 -0.09951932861537884 0.09796547546851489 0.0015538531468640032 0.0056206321305264945 0.0 0.0
0.0 0.09779084260794524 -0.08518016316564257 0.08364180548957743 0.0015383576760650678 0.005244195838740353 0.0 0.0
0.0 0.08141552883029633 -0.07100505533570749 0.06951895229941368 0.0014861030362938368 0.00452794103069063 0.0 0.0
0.0 0.06616237987972381 -0.057779326657227584 0.05637702406807761 0.0014023025891498956 0.0037762447045193 0.0 0.0
0.0 0.05242246598046717 -0.0458685825385802 0.044568844074133675 0.0012997384644464953 0.0030958335217634177 0.0 0.0
0.0 0.040595331182593994 -0.03536196979050774 0.03416978919154395 0.0011921805989637698 0.002494027790478343 0.0 0.0
0.0 0.029922604909184934 -0.026247320228255332 0.02515955520425848 0.0010877650239968365 0.001938865960480194 0.0 0.0
0.0 0.020962415106703835 -0.018497688665884266 0.017510720824304504 0.0009869678415797447 0.001384165399810807 0.0 0.0
0.0 0.013647936527014893 -0.012137011465888945 0.011253856411205541 0.0008831550546833927 0.0008648548856922347 0.0 0.0
0.0 0.007957880140286281 -0.007193973322945614 0.006441614164382747 0.0007523591585628621 0.00044034427520404446 0.0 0.0
0.0 0.003922218770889725 -0.00362523420348241 0.0030738522020090377 0.0005513820014733698 0.00013447175831476514 0.0 0.0
0.0 0.0014822413270393297 -0.0012929741859256738 0.0010109148220937077 0.0002820593638319664 -5.190347757784326e-05 0.0 0.0
0.0 0.00025020431186858095 -0.00017580135223672693 0.0001245091292436491 5.1292222993077884e-05 -3.9136259407378444e-05 0.0 0.0
0.0 -3.222635610018245e-06 2.266811954910542e-06 -1.908374077955077e-06 -3.5843787695540324e-07 -1.516309893348559e-06 0.0 0.0
0.0 0.0 0.0 0.0 0.0 0.0 0.0 0.0
0.0 0.0 0.0 0.0 0.0 0.0 0.0 0.0
0.0 0.0 0.0 0.0 0.0 0.0 0.0 0.0
0.0 0.0 0.0 0.0 0.0 0.0 0.0 0.0
0.0 0.0 0.0 0.0 0.0 0.0 0.0 0.0
0.0 0.0 0.0 0.0 0.0 0.0 0.0 0.0
0.0 2.9026420131438743e-06 -1.51861117463368e-06 5.779220679440789e-07 9.406891066897155e-07 2.8068976203274714e-06 0.0 0.0
0.0 0.0004826942116250376 -0.00032281898501737214 0.00022810035768169485 9.47186273356774e-05 9.11672063737086e-05 0.0 0.0
0.0 0.00195994811988917 -0.0017164016082762005 0.0013293734698601699 0.0003870281384160296 0.00022314203025146557 0.0 0.0
0.0 0.004678397988842134 -0.004334402742181345 0.003635946208035986 0.0006984565341453608 0.00028143438699210747 0.0 0.0
0.0 0.009055011978315304 -0.008228184858465779 0.0072745605130381365 0.0009536243454276367 0.00031777162193646436 0.0 0.0
0.0 0.015130567939723082 -0.013588564442391182 0.012425272579772873 0.001163291862618306 0.0003267264057456084 0.0 0.0
0.0 0.023056322305156522 -0.020491249329996568 0.01911483758292136 0.0013764117470752126 0.000281523100817641 0.0 0.0
0.0 0.03281600938404062 -0.02893731228445709 0.027317101505137612 0.0016202107793194653 0.0002260781960879755 0.0 0.0
0.0 0.04406862064124132 -0.038920553771503344 0.03701898314129836 0.001901570630204983 0.00015590843448347195 0.0 0.0
0.0 0.05716544085666528 -0.0504335006163705 0.04822162312235849 0.0022118774940119556 1.0961826337889911e-05 0.0 0.0
0.0 0.07202756810195271 -0.0634590634201264 0.060921677633052396 0.0025373857870740154 -0.00017363730092176052 0.0 0.0
0.0 0.08849580912072844 -0.07785202021209672 0.07500087018486538 0.0028511500272311915 -0.0004603493784477424 0.0 0.0
0.0 0.10605491727784372 -0.09312041456493252 0.09000508721769503 0.003115327347237413 -0.0008276399621349514 0.0 0.0
0.0 0.12352886607462865 -0.1082666634251839 0.10498355841930429 0.003283105005879512 -0.0011328777025572234 0.0 0.0
0.0 0.1391796223239854 -0.12179540458312554 0.11848573225441443 0.0033096723287109856 -0.0011170172744266547 0.0 0.0
0.0 0.15072489796595923 -0.13190583604287168 0.1286103493871854 0.003295486655686403 -0.0017568199194610938 0.0 0.0
0.0 0.15305172311223508 -0.13440596857704973 0.13116071395431497 0.00324525462273461 -0.016831279435461692 0.0 0.0
0.0 0.14882660440973944 -0.12652585431781027 0.11688303363082436 0.009642820686985864 1.304512053934559e-15 0.0 0.0
0.0 0.1530517231122091 -0.13440596857702686 0.13116071395429227 0.0032452546227344815 0.016831279435466022 0.0 0.0
0.0 0.15072489796591176 -0.13190583604283074 0.1286103493871451 0.003295486655685762 0.0017568199194659285 0.0 0.0
0.0 0.13917962232392286 -0.12179540458307025 0.11848573225436174 0.003309672328708567 0.0011170172744280043 0.0 0.0
0.0 0.12352886607455169 -0.10826666342511679 0.10498355841923805 0.0032831050058784684 0.0011328777025566856 0.0 0.0
0.0 0.1060549172777693 -0.09312041456486711 0.09000508721763191 0.0031153273472351414 0.0008276399621361813 0.0 0.0
0.0 0.088495809120646 -0.07785202021202436 0.07500087018479515 0.002851150027229191 0.0004603493784443545 0.0 0.0
0.0 0.072027568101868 -0.06345906342005243 0.060921677632979856 0.00253738578707255 0.0001736373009210094 0.0 0.0
0.0 0.05716544085658581 -0.05043350061630085 0.04822162312229075 0.0022118774940100916 -1.096182633817614e-05 0.0 0.0
0.0 0.044068620641164215 -0.038920553771436064 0.03701898314123256 0.0019015706302034836 -0.00015590843448675014 0.0 0.0
0.0 0.03281600938397443 -0.02893731228439908 0.027317101505080876 0.0016202107793182202 -0.00022607819609005327 0.0 0.0
0.0 0.02305632230510304 -0.020491249329949834 0.019114837582876108 0.001376411747073748 -0.00028152310081849125 0.0 0.0
0.0 0.015130567939682094 -0.013588564442354874 0.012425272579737846 0.001163291862617037 -0.00032672640574661323 0.0 0.0
0.0 0.009055011978284762 -0.008228184858438178 0.007274560513011545 0.0009536243454266317 -0.00031777162193617693 0.0 0.0
0.0 0.00467839798882433 -0.004334402742164555 0.003635946208020713 0.0006984565341438425 -0.00028143438699185447 0.0 0.0
0.0 0.001959948119880117 -0.0017164016082674661 0.001329373469852998 0.00038702813841446845 -0.000223142030250534 0.0 0.0
0.0 0.00048269421162121126 -0.0003228189850146362 0.00022810035767973394 9.47186273349031e-05 -9.116720637311646e-05 0.0 0.0
0.0 2.902642013023101e-06 -1.5186111747224863e-06 5.779220680181672e-07 9.406891067042992e-07 -2.8068976202781144e-06 0.0 0.0
0.0 0.0 0.0 0.0 0.0 0.0 0.0 0.0
0.0 0.0 0.0 0.0 0.0 0.0 0.0 0.0
0.0 0.0 0.0 0.0 0.0 0.0 0.0 0.0
SCALARS Wm float 4
LOOKUP_TABLE default
11.419987397932214 1.9651558866197738 4.639455759701283 4.8153757516111515
5.446454289470271 2.6604709189060527 1.2288594958946146 1.5571238746696023
0.607252750537768 0.5876782049267173 -0.0005147643205453195 0.020089309931595974
0.4831102093252703 0.4689905366578524 0.0038306415183761745 0.010289031149041734
0.9067346247302364 0.7071265326445827 0.07036428062339409 0.12924381146225927
1.8602340523220864 0.9778047696279315 0.3086913143071931 0.57373796838696
3.7403293332647918 1.3611450747281266 0.9816927236958335 1.3974915348408352
6.746867470302522 1.8142815094714626 2.2279672302764695 2.7046187305545852
11.139098302342818 2.3659622899585164 4.241904022465378 4.531231989918924
17.128987236021494 3.051926160382282 7.183496595873504 6.893564479765721
24.861481842367738 3.910655217615712 11.163111946523413 9.787714678228609
34.34396901043001 4.966291368855713 16.165481482547936 13.212196159026377
45.784883700461364 6.214026983296888 22.402364608975596 17.168492108188893
59.24058081480976 7.649235747141611 29.93279308109465 21.658551986573496
74.61234587453006 9.169316840377643 38.79668224193612 26.646346792216285
91.48007120303899 10.58457366894987 48.87737886502155 32.01811866906758
108.92262183653952 11.65357260494844 59.70365789698163 37.565391334609444
125.59599737010441 12.176401490847505 70.51269651884013 42.90689936041677
139.97029880221126 12.160840659601938 80.23477149991395 47.57468664269542
150.0386566879581 11.558765028210585 87.44112118949758 51.0387704702498
153.39199228744013 10.51575504299972 90.39036246108836 52.48587478335209
150.03865668795237 11.558765028228606 87.44112118948114 51.03877047024274
139.97029880217048 12.160840659601664 80.23477149988649 47.57468664268229
125.59599737004382 12.176401490844698 70.51269651880152 42.906899360397595
108.9226218364646 11.653572604939514 59.703657896937806 37.56539133458725
91.48007120296205 10.58457366893918 48.877378864978176 32.018118669044725
74.61234587445699 9.169316840371282 38.79668224189324 26.64634679219246
59.240580814737015 7.64923574713249 29.932793081054363 21.658551986550144
45.78488370038959 6.2140269832837 22.402364608939266 17.168492108166667
34.343969010368205 4.966291368847332 16.165481482515663 13.212196159005227
24.861481842315445 3.9106552176076823 11.163111946497462 9.787714678210282
17.12898723598292 3.051926160377658 7.183496595854301 6.893564479750968
11.139098302315025 2.365962289955073 4.241904022452314 4.531231989907643
6.746867470283414 1.8142815094680205 2.2279672302686335 2.7046187305467626
3.7403293332534915 1.3611450747262337 0.9816927236915582 1.397491534835701
1.860234052316236 0.9778047696263394 0.3086913143057662 0.5737379683841295
0.9067346247280581 0.707126532643488 0.07036428062298138 0.12924381146158898
0.4831102093246399 0.4689905366573358 0.0038306415183361232 0.010289031148967988
0.6072527505371009 0.5876782049262622 -0.0005147643205936986 0.020089309931432122
5.446454289466093 2.6604709189072686 1.2288594958920245 1.557123874666798
11.419987397905686 1.9651558866063041 4.63945575969418 4.815375751605209
13.45732260226185 5.964691792045189 3.564501670167855 3.9281291400488056
2.0772006248325536 0.45550248744801614 0.6652494415859047 0.9564486957986323
0.2469542958903701 0.27654784690366274 -0.008403125730264544 -0.021190425283028155
0.381717960937793 0.37975049691225243 0.00018910285776163358 0.0017783611677789004
0.6913815382619015 0.5815467033278912 0.03219514873549536 0.07763968619851525
1.4932307204277018 0.836153705408985 0.23431028747815888 0.42276672754055833
3.0721234437203697 1.1104786785316385 0.7859653094263029 1.1756794557624277
5.713343682598599 1.4353399425064997 1.8984871002395352 2.3795166398525645
9.594548935832009 1.7936368224815873 3.724206448484658 4.0767056648657665
14.8412155848227 2.1949210653517612 6.3753713238455285 6.270923195625413
21.549893517234974 2.647015736523483 9.952398831638927 8.950478949072549
29.84424454671433 3.167746743468552 14.570434083909369 12.106063719336413
39.62940905756221 3.7702336813365105 20.107489939075744 15.751685437149956
51.25425593661222 4.437618328954554 26.923410159175933 19.893227448481746
64.58076235982843 5.125529103257813 34.94018797258935 24.51504528398128
79.29832010438378 5.72596153603515 44.05880307518528 29.513555493163317
94.69446602102252 6.102661244047265 53.93054089884646 34.66126387812879
109.6443347401599 6.155958658238497 63.84577959625131 39.64259648567008
122.6293549813622 5.833124312836639 72.7824813420608 44.013749326464776
131.79640558546097 5.179783666832047 79.43053261838577 47.18608930024318
135.19385941494335 4.466090713997872 82.22827590801388 48.4994927929316
131.79640558543284 5.179783666821854 79.43053261837362 47.18608930023735
122.62935498132484 5.833124312835603 72.78248134203638 44.01374932645287
109.64433474010895 6.155958658238276 63.84577959621732 39.642596485653385
94.6944660209615 6.1026612440458265 53.930540898807145 34.661263878108514
79.2983201043233 5.72596153603599 44.05880307514532 29.51355549314198
64.58076235976623 5.125529103256746 34.94018797255017 24.515045283959292
51.254255936552276 4.437618328953381 26.92341015913897 19.89322744845994
39.62940905750623 3.7702336813357338 20.10748993904186 15.751685437128614
29.844244546662992 3.1677467434663775 14.570434083879984 12.106063719316634
21.54989351719135 2.6470157365205558 9.952398831615321 8.950478949055471
14.841215584788799 2.194921065348629 6.375371323828404 6.270923195611766
9.594548935807705 1.793636822479313 3.7242064484730553 4.076705664855332
5.713343682581878 1.435339942504044 1.89848710023253 2.3795166398453027
3.0721234437105958 1.1104786785297514 0.7859653094228249 1.1756794557580186
1.4932307204228747 0.8361537054078109 0.23431028747666813 0.4227667275383958
0.691381538260221 0.5815467033269195 0.032195148735239494 0.07763968619806198
0.3817179609374278 0.37975049691178575 0.00018910285777767752 0.0017783611678644099
0.24695429589034842 0.27654784690348266 -0.008403125730210868 -0.02119042528292337
2.0772006248264487 0.45550248744706945 0.6652494415834571 0.9564486957959224
13.457322602237486 5.96469179203442 3.564501670160665 3.9281291400424
10.039604834526983 4.696268212365489 2.432347079214492 2.910989542947002
1.2723206058912504 0.16994245626100626 0.4383923379859823 0.6639858116442613
0.15568721737969746 0.15568810260939855 -3.6811495252537546e-08 -8.48418205815541e-07
0.2867852330690169 0.2878698711611103 -0.00019408427920895603 -0.0008905538128845408
0.5305485977116632 0.49457067241447505 0.00829822155511313 0.027679703742075207
1.1619551413950655 0.7505263404550981 0.14158753506040495 0.26984126587956286
2.4782813094809066 1.0160107554233637 0.5585613356399143 0.9037092184176294
4.781749156388515 1.3259012740471883 1.4914537058155337 1.9643941765257926
8.19182010334497 1.6556352766839126 3.0502579281355424 3.485926898525511
12.825321884891295 2.011556757371733 5.357401762767499 5.456363364752061
18.711901714876596 2.4055868524873714 8.454943563809135 7.851371298580093
25.87568471512437 2.8533492857873544 12.36220088075331 10.66013454858369
34.547309527666 3.3783018188062317 17.28049211977937 13.888515589080395
44.58913435982687 3.9738438073973716 23.045411268601754 17.56987928382773
56.263338942655494 4.590681922796789 29.98616393038587 21.686493089472823
69.22326101470213 5.154370482029625 37.90500189364846 26.163888639024073
82.88248530588952 5.554927232668208 46.500487770346886 30.827070302874407
96.23408282078402 5.671008208184223 55.2122091864085 35.3508654261913
107.86044030523698 5.409531230500984 63.129552379535525 39.32135669520047
116.11321173202656 4.905369744739569 69.01728499932875 42.190556987958225
119.08124763115875 4.058297323255065 71.58159560974032 43.4413546981634
116.11321173201489 4.905369744740926 69.0172849993202 42.19055698795372
107.86044030521151 5.409531230508978 63.12955237951321 39.32135669518935
96.23408282074378 5.671008208187825 55.21220918637966 35.35086542617627
82.88248530583071 5.5549272326590255 46.500487770314464 30.827070302857226
69.22326101464881 5.15437048203129 37.90500189361301 26.163888639004497
56.263338942598544 4.590681922792925 29.98616393035222 21.68649308945337
44.58913435977155 3.973843807393239 23.04541126856999 17.569879283808326
34.54730952761585 3.3783018188060154 17.280492119749063 13.888515589060766
25.87568471507993 2.853349285787022 12.362200880727231 10.660134548565686
18.711901714839307 2.4055868524861186 8.454943563788623 7.851371298564561
12.825321884861372 2.011556757368773 5.3574017627527795 5.4563633647398175
8.19182010332314 1.6556352766809035 3.0502579281258138 3.4859268985164236
4.781749156374447 1.3259012740463376 1.4914537058091635 1.9643941765189472
2.4782813094726888 1.0160107554213191 0.5585613356373835 0.9037092184139858
1.161955141391107 0.75052634045362 0.14158753505944005 0.26984126587804713
0.530548597710629 0.4945706724136784 0.008298221555026585 0.027679703741923956
0.28678523306883624 0.28786987116093976 -0.00019408427921151968 -0.0008905538128921262
0.15568721737964134 0.15568810260934163 -3.68114952114993e-08 -8.484182050657688e-07
1.2723206058868284 0.16994245626076304 0.43839233798410865 0.6639858116419557
10.039604834503677 4.696268212355416 2.432347079207775 2.9109895429404884
7.526223025214179 3.6487876196969777 1.693144578405683 2.1842908271115187
0.8402294484029234 0.08741929649382554 0.2808990779033116 0.47191107400578597
0.10977363460318997 0.10977363460318997 0.0 0.0
0.21646229402046316 0.21650162471139905 9.60207109232962e-07 -4.029089804511513e-05
0.40892688592060245 0.4081325416802941 -0.0004552481044723536 0.001249592344780621
0.8672968330501574 0.6465321292150817 0.06669283912764228 0.15407186470743345
1.9525856255688239 0.9266848100894708 0.3813681808449489 0.6445326346344037
3.887588281872526 1.210778908189357 1.116214861110494 1.5605945125726748
6.840218502870382 1.5144260000856151 2.424075090593723 2.9017174121910396
10.853723032892868 1.8301978170645936 4.377992515304468 4.645532700523812
15.914250178978376 2.1692773055076247 6.986839759901231 6.758133113569521
22.105690129339074 2.5563136401389173 10.329248799395524 9.220127689804645
29.420854575287592 3.0063550459169064 14.370888254390454 12.043611274980233
38.1850104347677 3.522926019665332 19.40999574019863 15.252088674903735
48.18931088812454 4.0801295758812985 25.24493996210503 18.864241350138208
59.351083841114125 4.611128103651695 31.920645037866485 22.819310699595942
71.34040488735786 5.028190211823223 39.352031253218826 26.960183422315815
83.16553025923163 5.210056199003716 46.918572155235296 31.036901904992618
93.56540481330664 5.057804787823874 53.84394486864966 34.66365515683307
101.07281694642025 4.655538286531872 59.07568475014046 37.341593909747964
103.77843540804915 3.6419525990697643 61.56577644139135 38.57070636758801
101.07281694640947 4.655538286534854 59.075684750131195 37.34159390974338
93.56540481328136 5.057804787829171 53.84394486862953 34.663655156822685
83.16553025919521 5.210056199005709 46.91857215521012 31.03690190497938
71.34040488731927 5.028190211827309 39.35203125319133 26.960183422300638
59.35108384106326 4.611128103646948 31.92064503783713 22.819310699579226
48.18931088808124 4.080129575884601 25.244939962075897 18.864241350120736
38.18501043472324 3.522926019664214 19.4099957401721 15.252088674886922
29.42085457524299 3.0063550459144084 14.37088825436525 12.043611274963341
22.10569012929876 2.556313640135699 10.329248799374021 9.220127689789042
15.914250178946373 2.1692773055060592 6.986839759884196 6.75813311355612
10.853723032866608 1.8301978170616782 4.377992515291912 4.645532700513009
6.8402185028513545 1.51442600008264 2.4240750905855917 2.9017174121831193
3.8875882818599825 1.2107789081878768 1.116214861105485 1.5605945125666196
1.9525856255619602 0.9266848100873557 0.3813681808428828 0.6445326346317214
0.8672968330474918 0.6465321292139501 0.06669283912706786 0.15407186470647408
0.4089268859198501 0.40813254167951873 -0.00045524810448211903 0.0012495923448134205
0.2164622940202125 0.21650162471116685 9.602071077299107e-07 -4.0290898061998934e-05
0.10977363460308268 0.10977363460308268 0.0 0.0
0.840229448399294 0.0874192964937666 0.2808990779017256 0.47191107400380183
7.526223025195104 3.648787619688786 1.6931445784004933 2.1842908271058272
5.555811761076218 2.8127114131248616 1.1350552285140505 1.608045119437306
0.6149651741537392 0.10719433821298113 0.19508521147923522 0.31268562446152326
0.09989953894962973 0.09989953894962973 0.0 0.0
0.1727361870221601 0.17272989745516715 3.5059575947504334e-07 5.938971233487455e-06
0.3185135816232432 0.3235323981641897 -0.0014840117719522995 -0.003534804768994152
0.6410345319372716 0.5569189299764311 0.02163012111595319 0.06248548084488671
1.47512790234323 0.8166304868710845 0.24017277606029844 0.41832463941184783
3.0449201309464518 1.0912166999877715 0.7807626017354783 1.172940829223203
5.534830771163811 1.3685319740659339 1.8391455712953577 2.3271532258025203
8.93200146170136 1.6482927166446524 3.441966224519085 3.8417425205376223
13.221695473276224 1.9418507516104704 5.608557794664999 5.67128692700075
18.41456639918866 2.269486398739147 8.355323860952296 7.789756139497225
24.614277367127627 2.654600341146573 11.753498203212306 10.206178822768758
31.806075980816757 3.1009155269588238 15.748907775175123 12.956252678682805
40.281948086844864 3.586546444820825 20.641531087947797 16.05387055407625
49.847876796693946 4.083288137740976 26.294648993389526 19.469939665563462
60.067788758866456 4.518777449598686 32.45123079295903 23.09778051630875
70.38853037737167 4.777203121818836 38.90105520677071 26.71027204878211
79.67454005030628 4.743625907401581 44.94643826111253 29.98447588179217
86.6122521660548 4.427437370606061 49.69198381775769 32.49283097769102
89.15522963714663 3.2294382324688096 52.15142063972806 33.774370764949786
86.6122521660375 4.427437370599482 49.691983817750675 32.49283097768735
79.67454005028591 4.743625907407341 44.94643826109549 29.984475881783073
70.38853037733783 4.777203121816559 38.901055206750314 26.71027204877095
60.067788758827795 4.518777449598753 32.45123079293434 23.09778051629471
49.847876796649054 4.083288137731852 26.294648993367076 19.469939665550122
40.28194808680296 3.58654644481888 20.641531087923163 16.053870554060918
31.80607598077957 3.1009155269592203 15.748907775152478 12.956252678667866
24.614277367088825 2.6546003411406187 11.753498203193042 10.206178822755152
18.414566399154644 2.2694863987349425 8.35532386093534 7.789756139484361
13.221695473250296 1.9418507516101409 5.608557794650947 5.671286926989209
8.932001461679272 1.6482927166421115 3.441966224508809 3.8417425205283555
5.534830771148143 1.3685319740639597 1.8391455712886924 2.327153225795489
3.044920130936489 1.0912166999866397 0.7807626017315161 1.1729408292183323
1.475127902338127 0.8166304868700448 0.2401727760586163 0.41832463940946624
0.6410345319352192 0.5569189299754873 0.021630121115588943 0.06248548084414323
0.3185135816227587 0.32353239816353213 -0.0014840117719184052 -0.00353480476885502
0.1727361870218803 0.17272989745489084 3.5059575927603094e-07 5.938971230153005e-06
0.0998995389493575 0.0998995389493575 0.0 0.0
0.6149651741506703 0.10719433821283272 0.1950852114779217 0.3126856244599164
5.555811761061224 2.81271141311871 1.1350552285100033 1.6080451194325116
4.022024097307958 2.1520653516061836 0.7376856457310956 1.1322730999706805
0.4349055458369955 0.14266795113996678 0.09735630657311628 0.19488128812391217
0.11215405704383799 0.11215405704383799 0.0 0.0
0.15121116747585966 0.15119343872440044 1.169214643420643e-06 1.655953681576686e-05
0.2584755370399467 0.2611160091341626 -0.00046726718229173823 -0.0021732049119242416
0.4707013068191807 0.4548043600228104 0.0007355121510585296 0.015161434645311875
1.0409923523964237 0.6869745134457823 0.1086455970326051 0.245372241918036
2.3047424959155918 0.9645162836446491 0.5320326179160242 0.8081935943549191
4.26687488921564 1.2141956392822593 1.2866955351546183 1.7659837147787636
7.089000617297815 1.4657958918508949 2.5753123323826665 3.047892393064252
10.612462733572697 1.7179775234316632 4.301481128807635 4.593004081333396
14.845643002465287 1.9947815807038298 6.480147399712341 6.370714022049119
19.849939885914164 2.318229718077645 9.147128700283726 8.384581467552794
25.776507562482397 2.6965773007647806 12.408006589187982 10.671923672529635
32.64001135062809 3.126912067342354 16.250941225283054 13.26215805800269
40.434268610667935 3.57273088857952 20.722174505188857 16.139363216899554
49.130322839663826 4.007137281356475 25.904282227920586 19.21890333038677
57.94282557917886 4.35457300156707 31.221966011934853 22.36628656567693
66.10175935032753 4.452789012654637 36.33533627711848 25.31363406055441
72.5900094993721 4.222679831384243 40.683192218270655 27.684137449717223
75.05945054273212 2.829000237678825 43.19080704797804 29.03964325707523
72.59000949936828 4.222679831388773 40.68319221826527 27.684137449714207
66.10175935030713 4.452789012654626 36.33533627710539 25.313634060547137
57.94282557915854 4.354573001573013 31.221966011918095 22.36628656566741
49.130322839626075 4.007137281347583 25.90428222790244 19.21890333037606
40.434268610643294 3.5727308885867655 20.722174505169225 16.139363216887315
32.640011350594854 3.1269120673407182 16.250941225263926 13.2621580579902
25.776507562452508 2.6965773007658673 12.40800658916972 10.671923672516915
19.849939885886727 2.318229718076121 9.147128700268816 8.384581467541787
14.84564300243923 1.9947815807019746 6.480147399698861 6.370714022038397
10.612462733549954 1.7179775234307626 4.301481128795915 4.593004081323278
7.089000617280218 1.465795891849524 2.5753123323744416 3.047892393056247
4.266874889203144 1.2141956392805553 1.2866955351495515 1.7659837147730375
2.30474249590753 0.9645162836436897 0.5320326179128355 0.8081935943510044
1.0409923523923 0.6869745134442743 0.10864559703161455 0.2453722419164111
0.4707013068177292 0.45480436002171554 0.0007355121509550894 0.015161434645058541
0.258475537039696 0.2611160091338714 -0.0004672671822837193 -0.0021732049118916865
0.15121116747543098 0.15119343872397825 1.1692146428938903e-06 1.6559536809874406e-05
0.11215405704348701 0.11215405704348701 0.0 0.0
0.4349055458346254 0.14266795113976619 0.09735630657219313 0.19488128812266628
4.022024097296598 2.152065351601591 0.7376856457281517 1.1322730999668573
2.804093044699129 1.621552305698061 0.43154675462985387 0.7509939843712145
0.3292031118578356 0.18516745117008346 0.04328038630049008 0.10075527438726198
0.13428685758865436 0.13430261542060865 -8.23290305344124e-07 -1.4934541648948963e-05
0.14642373552608148 0.14641807357879935 3.8189143181449443e-07 5.280055850313281e-06
0.21997146031151396 0.22051935305020695 -0.00010143956500186199 -0.00044645317369111317
0.3565557133476817 0.368596836156063 -0.004228833103243292 -0.007812289705137941
0.7204030228476709 0.5726682635725566 0.038202672519808314 0.10953208675530557
1.5773497912742016 0.8035737154119647 0.26845948808895426 0.5053165877732828
3.166995183929137 1.0610139329390391 0.8788725624365192 1.227108688553578
5.299792983778008 1.2755762608054617 1.7582509610022952 2.2659657619702505
8.1114210737867 1.4956340066607954 3.089041110258083 3.5267459568678228
11.43587187403478 1.7283157710674952 4.743249108317747 4.9643069946495375
15.325409273931315 1.996822686258488 6.748062744055348 6.580523843617486
19.902676843063865 2.3138335715060485 9.17922945636946 8.409613815188349
25.26166753567564 2.6794307320824973 12.091246017533319 10.49099078605982
31.54329705048332 3.0863022731152268 15.633200089380065 12.823794687988025
38.310515327297054 3.5031623867604056 19.440778599000332 15.366574341536328
45.70501349747256 3.910592710365206 23.79682399056341 17.997596796543927
52.96009876682999 4.162133508928171 28.204078425515164 20.593886832386644
59.00265757207426 4.046361014084662 32.09317158271262 22.863124975276982
61.50220221439249 2.4518895057687904 34.710230298858306 24.3400824097654
59.00265757206837 4.046361014086465 32.093171582707676 22.863124975274218
52.96009876681951 4.162133508933428 28.20407842550525 20.593886832380846
45.70501349744583 3.910592710359256 23.796823990550482 17.997596796536065
38.31051532727213 3.5031623867554913 19.44077859898801 15.366574341528633
31.543297050453482 3.086302273113808 15.633200089362902 12.823794687976768
25.261667535647913 2.6794307320781643 12.091246017519564 10.490990786050178
19.902676843036456 2.3138335715003997 9.179229456356945 8.409613815179112
15.325409273909338 1.9968226862573872 6.74806274404364 6.580523843608313
11.435871874013129 1.7283157710650041 4.743249108307334 4.964306994640791
8.111421073768081 1.4956340066591909 3.0890411102492656 3.5267459568596236
5.299792983763704 1.2755762608043506 1.7582509609957895 2.265965761963565
3.1669951839194295 1.061013932937718 0.87887256243255 1.227108688549162
1.5773497912689871 0.8035737154111909 0.2684594880871136 0.5053165877706829
0.7204030228450508 0.5726682635710776 0.038202672519398205 0.10953208675457508
0.3565557133467335 0.36859683615489197 -0.004228833103189706 -0.007812289704968513
0.21997146031111364 0.2205193530498243 -0.00010143956500481712 -0.0004464531737059131
0.14642373552579527 0.14641807357851494 3.8189143166517263e-07 5.28005584866719e-06
0.13428685758827047 0.134302615420206 -8.232903041218908e-07 -1.4934541631370911e-05
0.3292031118562496 0.18516745116989977 0.0432803862999279 0.10075527438642162
2.804093044690557 1.6215523056943464 0.4315467546278923 0.7509939843683193
1.9348332178125733 1.2451197438883472 0.2566870479419725 0.4330264259822542
0.24638747686426268 0.20474558256414122 0.004233149399287957 0.0374087449008334
0.1580820440358263 0.15807516517401315 4.794575328611232e-07 6.399404280218839e-06
0.15290912484253943 0.15288607650709574 1.6035202761400769e-06 2.1444815167550736e-05
0.19726847356074895 0.1979908290439098 -0.00010057812354313072 -0.0006217773596176034
0.28754343147352057 0.2973764619073109 -0.002573234785682356 -0.007259795648108029
0.4865225310755737 0.4572388303984785 0.002415944035434399 0.026867756641660634
1.011641121219504 0.6455554577509326 0.10813070530327208 0.2579549581652995
2.0602008192536907 0.8656059134051324 0.4435842305298572 0.7510106753187014
3.7071865587162653 1.0797517969564032 1.1171485147283233 1.5102862470315384
5.731207800186904 1.2655233029206427 1.9908444565485062 2.4748400407177558
8.1751175931916 1.4602993958138653 3.138628024234762 3.576190173142972
11.027987790405238 1.6822822884119784 4.546449206735954 4.799256295257304
14.351622129101091 1.9408673868812154 6.233584182865627 6.177170559354249
18.306435364210646 2.250322156899758 8.306427277420939 7.749685929889952
22.895652121342003 2.60771551828924 10.748056088316789 9.539880514735978
28.18737769932623 2.9975765410995696 13.674775570238529 11.515025587988138
33.91040226941566 3.4356411402280944 16.833908022724632 13.640853106462947
39.92011543925681 3.8350102221565225 20.236652058773625 15.848453158326665
45.65105278934972 3.8909737634930774 23.768308330228372 17.99177069562827
48.31124897038925 2.105109555382027 26.566352320710173 19.63978709429705
45.6510527893417 3.8909737634873784 23.768308330226837 17.991770695627487
39.92011543923926 3.83501022214877 20.23665205876757 15.848453158322943
33.91040226940637 3.435641140233884 16.8339080227155 13.640853106456992
28.1873776993058 2.997576541093945 13.674775570229707 11.515025587982144
22.895652121323952 2.607715518292368 10.748056088304404 9.539880514727182
18.306435364191213 2.2503221568960634 8.306427277411952 7.749685929883199
14.351622129088351 1.9408673868835427 6.233584182857236 6.177170559347572
11.027987790388243 1.6822822884096447 4.54644920672802 4.799256295250576
8.175117593176417 1.4602993958120087 3.1386280242278524 3.5761901731365544
5.731207800173471 1.265523302919729 1.9908444565422947 2.4748400407114475
3.707186558705927 1.0797517969548023 1.1171485147241254 1.5102862470269998
2.0602008192474717 0.8656059134045375 0.4435842305274069 0.7510106753155277
1.0116411212160008 0.6455554577499323 0.10813070530233913 0.25795495816372827
0.4865225310740323 0.45723883039750635 0.0024159440352852445 0.026867756641240744
0.28754343147306416 0.2973764619065858 -0.002573234785638987 -0.007259795647882717
0.19726847356029953 0.19799082904347853 -0.00010057812354346383 -0.0006217773596354816
0.15290912484225838 0.15288607650682073 1.6035202755702054e-06 2.1444815162099012e-05
0.15808204403543194 0.15807516517361533 4.794575329594315e-07 6.39940428362168e-06
0.2463874768633868 0.20474558256389327 0.004233149399074987 0.03740874490041848
1.9348332178063612 1.2451197438855452 0.25668704794054487 0.43302642598027147
1.246976073487414 0.9237661327315568 0.1011261347116793 0.22208380604417782
0.20197150469439923 0.20998398823436268 -0.006043282915843765 -0.001969200624119618
0.17892774409090834 0.17901717728276884 -7.491667817260607e-06 -8.19415240432175e-05
0.16586535307821437 0.16589365483339208 -1.911838206656354e-06 -2.6389916971011686e-05
0.18749323381961647 0.18819992393733487 -0.00010370404967391882 -0.0006029860680445742
0.2460790649732908 0.2500725170551559 -0.0012756136177112596 -0.0027178384641538423
0.3509858451510838 0.35955088240859023 -0.004468642141335566 -0.004096395116170795
0.6047738945412251 0.5009484755964263 0.024295185849800623 0.07953023309499804
1.1781678471107495 0.6612247056612696 0.1654851574220741 0.3514579840274058
2.1729947716414566 0.8372716528699788 0.5106881539351028 0.8250349648363771
3.495458160434629 1.0001997422034026 1.025973762325861 1.4692846559053663
5.117485568665747 1.1665926190641995 1.7300471731256664 2.2208457764758793
6.992744885496614 1.3493005359104577 2.5853463331039372 3.058098016482219
9.165413887861959 1.5561448740204682 3.6122275180121552 3.997041495829337
11.75493980836172 1.8064847414722611 4.8775181918576065 5.070936875031852
14.865876729426734 2.115251307678699 6.437200781905446 6.31342463984259
18.524282802666832 2.4805341273156882 8.30830547317725 7.735443202173888
22.630995278449614 2.8800260886289597 10.437718733790872 9.313250456029792
27.39805227636598 3.3895817026422392 12.935629107521057 11.072841466202682
32.762855806279504 3.7457994922386213 15.965246701390427 13.051809612650441
35.66247155697732 1.8260455712899715 18.840761757175304 14.995664228512052
32.762855806285216 3.745799492243454 15.965246701390988 13.051809612650777
27.398052276360584 3.3895817026402706 12.935629107519027 11.07284146620129
22.630995278433105 2.880026088623406 10.437718733784411 9.313250456025292
18.524282802658806 2.4805341273194315 8.308305473170538 7.73544320216884
14.865876729409134 2.115251307674727 6.437200781897786 6.313424639836624
11.754939808350784 1.8064847414710787 4.877518191852273 5.070936875027424
9.165413887849628 1.5561448740185053 3.6122275180066215 3.9970414958245044
6.992744885487153 1.3493005359096883 2.5853463330995488 3.0580980164779166
5.117485568657413 1.1665926190648659 1.7300471731211837 2.2208457764713656
3.495458160425224 1.0001997422015516 1.0259737623223608 1.469284655901312
2.1729947716353872 0.8372716528689279 0.51068815393286 0.8250349648335995
1.17816784710711 0.6612247056607229 0.16548515742086112 0.3514579840255262
0.604773894539429 0.5009484755955419 0.024295185849518914 0.07953023309436806
0.350985845150165 0.3595508824075075 -0.004468642141326594 -0.004096395116015979
0.24607906497282817 0.2500725170543956 -0.0012756136176687916 -0.00271783846389864
0.1874932338191625 0.18819992393691215 -0.00010370404967758703 -0.0006029860680721071
0.1658653530776393 0.1658936548328129 -1.91183820609508e-06 -2.638991696751545e-05
0.17892774409062856 0.179017177282465 -7.491667815417641e-06 -8.194152402093453e-05
0.20197150469380043 0.2099839882339491 -0.006043282915899629 -0.001969200624249134
1.246976073483479 0.9237661327297757 0.10112613471085653 0.222083806042847
0.7999692945320729 0.7018279387932667 0.026585399735527652 0.07155595600327887
0.18061056119166025 0.19504938663586033 -0.004063984601502424 -0.010374840842697745
0.19436604294405466 0.19437872386533006 -6.695763111968447e-07 -1.2011344964188092e-05
0.18139820751368127 0.18140624910681266 3.4126281259202945e-08 -8.075719412662356e-06
0.18877088265475644 0.18918107769043724 -6.690727335499423e-05 -0.00034328776232579614
0.22436506465314304 0.22947390814152036 -0.0012485627226288252 -0.0038602807657484315
0.2864095738080697 0.28779199174113146 -0.001421400438608 3.8982505546100574e-05
0.37626436165201194 0.35084798066818096 0.004530422444319653 0.02088595853951133
0.5620003419671344 0.4361037420013215 0.03187830378477223 0.09401829618104056
0.9484859796128138 0.5516103740175438 0.12610636525846738 0.2707692403368028
1.5933672399014303 0.6731510665052274 0.3431348471161263 0.577081326280076
2.3889342972451835 0.7786829763615383 0.6276134618266208 0.9826378590570245
3.363797800468119 0.9027423197608776 1.0155215594965863 1.4455339212106568
4.522882807113351 1.0540915385222238 1.5006111366556316 1.9681801319354977
5.9115457007381815 1.2385027967631983 2.098307169381446 2.5747357345935384
7.643656822047482 1.4848115901284653 2.8569336295886236 3.30191160233039
9.845843582703841 1.8109035870486656 3.846308983225143 4.18863101243003
12.558894431346166 2.1861705598018 5.127334287034512 5.245389584509852
15.765729208286752 2.6007708986605285 6.679498312222108 6.485459997404118
20.2770691847467 3.37394166984681 8.789204791660296 8.113922723239591
24.18577973046386 1.6904865535774765 12.049509068317134 10.445784108569251
20.277069184754133 3.373941669852691 8.789204791661206 8.11392272324023
15.765729208287246 2.6007708986629288 6.679498312221021 6.485459997403298
12.55889443134151 2.186170559803503 5.127334287031022 5.245389584506989
9.845843582688563 1.8109035870409138 3.8463089832210287 4.18863101242662
7.643656822040119 1.4848115901272156 2.856933629585475 3.301911602327427
5.911545700732535 1.2385027967619378 2.0983071693792934 2.574735734591305
4.522882807106886 1.0540915385190994 1.5006111366539345 1.9681801319338514
3.363797800463717 0.9027423197609525 1.0155215594944917 1.4455339212082723
2.3889342972387912 0.7786829763600794 0.6276134618243814 0.9826378590543307
1.5933672398966334 0.6731510665039139 0.34313484711461584 0.5770813262781045
0.948485979611102 0.5516103740176148 0.12610636525779678 0.2707692403356903
0.5620003419659665 0.4361037420011145 0.03187830378446646 0.09401829618038515
0.3762643616515136 0.35084798066783024 0.0045304224442653555 0.02088595853941813
0.28640957380735876 0.2877919917405704 -0.001421400438660787 3.898250544914859e-05
0.22436506465258524 0.22947390814075436 -0.0012485627225842708 -0.0038602807655848384
0.18877088265436587 0.18918107769010448 -6.690727336255837e-05 -0.0003432877623760123
0.18139820751324293 0.18140624910634537 3.412628363067481e-08 -8.07571938603596e-06
0.19436604294378843 0.19437872386505417 -6.695763105209002e-07 -1.2011344955200635e-05
0.18061056119140895 0.19504938663533092 -0.004063984601437194 -0.010374840842484688
0.7999692945297713 0.7018279387919909 0.02658539973519843 0.07155595600258188
0.5132855566651302 0.504070586365614 0.0012191560445171117 0.007995814254998878
0.17331010043672126 0.17483065072201412 -0.0002018383582334756 -0.0013187119270593492
0.20403265962230366 0.20416234455671567 -1.0323045617699457e-05 -0.00011936188879435055
0.19677537444985121 0.19691135479961314 -1.3105299079428089e-05 -0.0001228750506824815
0.19837947290004787 0.19900441359158932 -0.00011227115512828004 -0.0005126695364132097
0.22215219602169609 0.2258368524839361 -0.0010187790661826813 -0.0026658773960573237
0.2673966058406854 0.266907621237562 -0.0007795496418140728 0.0012685342449375268
0.3160626866471716 0.28074452524668025 0.007344601919346253 0.027973559481144925
0.3542315313392797 0.260427846018307 0.02767274623034559 0.06613093909062721
0.40935679635254935 0.22029382452137503 0.05905707943354706 0.13000589239762722
0.5468519229664521 0.21882313926223962 0.12204841523358921 0.20598036847062323
0.7677873741301489 0.24852869531440042 0.1975963530238619 0.3216623257918871
1.0832634396586234 0.29055066635408267 0.3152594440078172 0.47745332929672313
1.4961903572273754 0.2980018944285057 0.4884746487569235 0.7097138140419462
2.029636615759498 0.3028047671827833 0.727186805260158 0.9996450433165557
2.684538640169186 0.3288609460950712 1.017956887350405 1.3377208067237112
3.513176250112683 0.3933891565432946 1.3950705613019627 1.7247165322674258
4.535352645024197 0.501685127159545 1.8687786857239281 2.1648888321407234
6.103828645601376 0.7552056556377926 2.555226008282097 2.793396981681486
9.79544680212479 1.8990413112452889 3.773972324286768 4.122433166592735
16.290353745648048 1.6391836150266803 7.437871779344844 7.213298351276525
9.795446802121589 1.8990413112404823 3.7739723242876986 4.122433166593408
6.103828645604269 0.7552056556418727 2.55522600828141 2.793396981680985
4.535352645018362 0.5016851271590146 1.8687786857211224 2.1648888321382254
3.513176250112446 0.3933891565466146 1.3950705613001062 1.7247165322657214
2.6845386401666396 0.328860946095736 1.0179568873488753 1.3377208067220283
2.0296366157600434 0.3028047671843743 0.7271868052595845 0.9996450433160853
1.4961903572249424 0.2980018944283105 0.4884746487559185 0.7097138140407149
1.0832634396542913 0.2905506663526416 0.31525944400651496 0.47745332929513423
0.767787374128212 0.24852869531431043 0.1975963530230602 0.32166232579084186
0.5468519229655928 0.2188231392627927 0.12204841523296221 0.20598036846983722
0.4093567963520125 0.22029382452103297 0.059057079433487106 0.13000589239749266
0.3542315313392698 0.2604278460184841 0.027672746230279082 0.06613093909050664
0.3160626866466468 0.2807445252466026 0.0073446019191971855 0.027973559480846975
0.2673966058401201 0.26690762123705336 -0.0007795496418381892 0.0012685342449049574
0.2221521960210675 0.2258368524831243 -0.0010187790661500852 -0.0026658773959068265
0.19837947289983635 0.19900441359114968 -0.00011227115510327962 -0.0005126695362100396
0.19677537444962648 0.1969113547994783 -1.31052990890816e-05 -0.00012287505076277386
0.20403265962212183 0.20416234455654225 -1.0323045617202049e-05 -0.00011936188880323182
0.17331010043651682 0.17483065072181572 -0.00020183835823261984 -0.0013187119270662707
0.5132855566639065 0.5040705863641609 0.0012191560445192118 0.007995814255226405
0.33887206631998124 0.3390853210096838 -2.579555273952454e-05 -0.00018745913696303912
0.1647082435615167 0.16468706183171258 2.729001569145561e-06 1.845272823497218e-05
0.20783989600223027 0.20781603426293668 1.929754475786839e-06 2.1931984817833637e-05
0.2099596513686974 0.21017839389265297 -2.9927109852811424e-05 -0.00018881541410279318
0.2136678514855369 0.21386561542070254 -7.131853252429461e-05 -0.00012644540264129678
0.23919540225933 0.2414338515079473 -0.0009044944968283667 -0.0013339547517889822
0.29456815812146975 0.29565150873253676 -0.0009132392553706625 -0.00017011135569648217
0.37938396044304407 0.35239389233328094 0.005168105164004268 0.02182196294575881
0.5626318284707642 0.4358196111070124 0.03219264995482267 0.09461956740892888
0.9473925675774155 0.5510985146531016 0.12583693381886935 0.2704571191054446
1.5935365301634579 0.6750548063775808 0.3427574378189142 0.5757242859669633
2.3973013828530734 0.7799217659919664 0.6320799336749603 0.9852996831861474
3.3854749407099165 0.9064682303343856 1.0239458020523888 1.4550609083231414
4.556399313435337 1.0579795715837794 1.5157065139364831 1.9827132279150748
5.889741158007397 1.2276878643911375 2.0938147786771166 2.568238514939143
7.339792225562196 1.420134109514183 2.7384907945739068 3.1811673214741054
8.722075496496585 1.6226538593391253 3.35796571973529 3.741455917422167
9.851414522766069 1.8472091423765664 3.8784438434050905 4.125761536984418
10.24945239909085 1.9910926236688633 4.048875282138817 4.209484493283172
8.18241153055711 1.1277625043443358 3.5420415804727368 3.5126074457400343
16.492687730240373 2.8430051623615356 6.78841220576279 6.861270362116052
8.182411530561986 1.1277625043457957 3.542041580474619 3.5126074457415646
10.249452399077345 1.9910926236570659 4.048875282137828 4.209484493282451
9.85141452275569 1.8472091423721446 3.8784438434018176 4.125761536981724
8.722075496482736 1.6226538593351383 3.3579657197300774 3.741455917417526
7.339792225555419 1.4201341095140387 2.7384907945704997 3.181167321470879
5.889741157996573 1.2276878643870444 2.0938147786737944 2.5682385149357345
4.55639931342892 1.0579795715853115 1.5157065139325518 1.9827132279110542
3.385474940703058 0.9064682303349291 1.023945802048944 1.4550609083191854
2.3973013828449274 0.7799217659907985 0.6320799336718239 0.9852996831823049
1.593536530155912 0.6750548063759465 0.34275743781635115 0.5757242859636142
0.9473925675740278 0.551098514651798 0.1258369338180533 0.2704571191041764
0.5626318284691245 0.4358196111063054 0.03219264995450406 0.09461956740831498
0.37938396044226796 0.3523938923328465 0.00516810516389039 0.02182196294553107
0.2945681581206522 0.29565150873186224 -0.0009132392554154589 -0.00017011135579469375
0.23919540225874616 0.24143385150713964 -0.0009044944967905439 -0.0013339547516028958
0.21366785148526074 0.2138656154202056 -7.13185324983082e-05 -0.00012644540244646243
0.2099596513685814 0.2101783938924429 -2.99271098456006e-05 -0.00018881541401587486
0.20783989600202446 0.20781603426262932 1.9297544813624785e-06 2.1931984913728805e-05
0.16470824356125255 0.16468706183147258 2.7290015676517752e-06 1.845272821238966e-05
0.33887206631933164 0.3390853210090691 -2.5795552745480856e-05 -0.00018745913699195815
0.21930538852573594 0.21930538852573594 0.0 0.0
0.1511052406218562 0.1511298366963739 -1.5725880685879657e-06 -2.3023486449051548e-05
0.20496884905524504 0.20508846329203717 -1.1108368888580536e-05 -0.00010850586790355998
0.21958819361864168 0.2191026556649062 5.6890332806844914e-05 0.00042864762092870027
0.23278371862411706 0.23446003616382416 -0.0003037199981608806 -0.0013725975415462065
0.2741371197812454 0.28062598267759414 -0.0014925782432968402 -0.004996284653051883
0.36359122868680654 0.3618447007124908 -0.002531888093968361 0.004278416068284166
0.6101001499891836 0.5015466998746064 0.026020597882839294 0.08253285223173781
1.177896135216725 0.6610534642286501 0.1654189447084458 0.3514237262796298
2.170952708399423 0.8370678323706618 0.5097641978462166 0.8241206781825436
3.495562992558755 1.000305329856145 1.0258827009143232 1.4693749617882854
5.124539624978615 1.1675614670806784 1.7330368761752268 2.223941281722709
7.01226104265782 1.3513747178868618 2.5943906529109597 3.066495671860001
9.192230253796689 1.5563834955741664 3.626650078210094 4.009196680012425
11.724692033385391 1.7891924429487127 4.8714807511062155 5.0640188393304575
14.552694708874002 2.043106550718127 6.304385904380398 6.205202253775478
17.44409124668673 2.313130573539306 7.788446610832129 7.3425140623152885
19.981715615865607 2.6168041323209605 9.04620696403255 8.318704519512094
21.278526057976684 2.7204421771221976 9.749995799074144 8.808088081780342
19.666010530908505 2.6821569469718716 8.93118837935815 8.05266520457848
23.950071421443916 6.057810517192425 9.327671492819935 8.56458941143154
19.66601053090813 2.6821569469682505 8.93118837936007 8.052665204579817
21.278526057983427 2.720442177131511 9.749995799072659 8.808088081779252
19.981715615860896 2.6168041323251563 9.046206964027384 8.318704519508355
17.444091246673246 2.3131305735412075 7.788446610823348 7.342514062308689
14.552694708851842 2.043106550710637 6.304385904372191 6.205202253769011
11.724692033374074 1.7891924429500894 4.871480751099309 5.064018839324675
9.192230253782867 1.5563834955742453 3.626650078202756 4.009196680005866
7.012261042644317 1.351374717885595 2.5943906529046723 3.0664956718540486
5.124539624964436 1.1675614670790326 1.733036876168997 2.223941281716405
3.495562992548604 1.0003053298566655 1.0258827009093605 1.4693749617825773
2.170952708391173 0.837067832369077 0.5097641978432327 0.8241206781788643
1.177896135212518 0.6610534642281176 0.1654189447070068 0.35142372627739304
0.6101001499869646 0.5015466998736468 0.026020597882435118 0.08253285223088272
0.3635912286857512 0.3618447007113966 -0.0025318880939838475 0.0042784160683383525
0.27413711978049143 0.2806259826767186 -0.0014925782432602213 -0.004996284652966959
0.23278371862379224 0.23446003616351963 -0.0003037199981651208 -0.0013725975415622021
0.2195881936183782 0.21910265566447834 5.689033282178555e-05 0.00042864762107806635
0.20496884905489296 0.20508846329169342 -1.110836888999409e-05 -0.00010850586791044149
0.15110524062169203 0.1511298366962032 -1.5725880679371782e-06 -2.302348644323898e-05
0.2193053885252199 0.2193053885252199 0.0 0.0
0.13522341458029666 0.13522341458029666 0.0 0.0
0.1322069499906781 0.1321975778002631 6.316936465528355e-07 8.74049676847986e-06
0.1954335964952367 0.19546464766631114 -1.8256901364633365e-06 -2.9225480937948953e-05
0.2253200072924869 0.22580843052936028 -6.309687131581344e-05 -0.000425326365557617
0.255538373768395 0.25719110692167446 -0.0003468942765912699 -0.0013058388766882243
0.3206037089744399 0.3218745561866474 -0.0015837375001228344 0.0003128902879155338
0.5067320144632117 0.4677976297139613 0.006612671469659063 0.032321713279591185
1.0167671505152067 0.646580388439083 0.11020132832718385 0.25998543374893973
2.0582393065086606 0.865546063373815 0.4427204109757802 0.7499728321590653
3.7056904284176286 1.0798631871415478 1.11664273153409 1.5091845097419911
5.731574846338883 1.2655117801636737 1.9898053927336334 2.4762576734415784
8.180873220245923 1.4605920431589468 3.1415395529741827 3.5787416241127947
11.038385920388125 1.6829716972596498 4.551755408552095 4.803658814576377
14.358498587586102 1.9392477935965788 6.238452125274307 6.180798668715216
18.25870567846702 2.231427473890138 8.290227278545798 7.737050926031079
22.633644190928663 2.542696457207742 10.633674164718872 9.45727356900205
27.349602102197796 2.862706928050973 13.257532195255529 11.229362978891299
31.494286136232123 3.083826431627563 15.588422270214542 12.822037434390015
33.675509191642675 3.089204034617622 16.905951584923553 13.680353572101486
31.20430895123531 2.714819992144561 15.650753557876083 12.83873540121467
35.068383497769005 8.771236030470707 14.311435614167298 11.985711853131015
31.2043089512404 2.7148199921487848 15.650753557876616 12.83873540121499
33.675509191632884 3.0892040346115786 16.905951584921247 13.680353572100056
31.494286136210395 3.083826431619683 15.588422270206179 12.822037434384535
27.34960210217342 2.8627069280475643 13.257532195243014 11.22936297888284
22.633644190907507 2.542696457209769 10.633674164705353 9.457273568992395
18.25870567844139 2.23142747388436 8.290227278534427 7.7370509260226115
14.358498587568704 1.9392477935981984 6.23845212526369 6.18079866870681
11.038385920366665 1.6829716972574673 4.551755408541632 4.803658814567567
8.180873220226939 1.4605920431580042 3.141539552964724 3.578741624104209
5.73157484632171 1.2655117801616316 1.9898053927260468 2.4762576734340307
3.705690428405483 1.0798631871395477 1.1166427315292309 1.5091845097367038
2.0582393065013034 0.8655460633727994 0.44272041097299536 0.7499728321555095
1.016767150511047 0.6465803884378019 0.11020132832611355 0.25998543374713146
0.5067320144614912 0.46779762971292743 0.006612671469469887 0.03232171327909378
0.320603708973788 0.3218745561856264 -0.0015837375000829245 0.0003128902882444818
0.255538373767926 0.25719110692096836 -0.00034689427655649525 -0.0013058388764858706
0.22532000729217347 0.22580843052905794 -6.30968713195804e-05 -0.0004253263655649757
0.19543359649484532 0.19546464766592056 -1.8256901365811306e-06 -2.9225480938672146e-05
0.1322069499907195 0.13219757780030503 6.316936464977709e-07 8.740496767980233e-06
0.13522341457990314 0.13522341457990314 0.0 0.0
0.07902501036973632 0.07902501036973632 0.0 0.0
0.10964995142843846 0.10964995142843846 0.0 0.0
0.18025212857591288 0.1802416877504639 6.169848764971448e-07 9.823840572470336e-06
0.22756512044413907 0.2274213578649235 2.0299526213977675e-05 0.0001234630530015749
0.2799615333053298 0.2834318652705653 -0.0006806250304211313 -0.0027897069348143157
0.3923690933518771 0.3963434680451843 -0.0021356400734418367 -0.0018387346198652683
0.7356115007729557 0.5697423463537105 0.04356872208062576 0.12230043233861937
1.579402313159549 0.8039879289251287 0.26953813423750733 0.5058762499969133
3.1642545564402456 1.0613461109715046 0.8774045123351916 1.2255039331335484
5.299066980066335 1.2758447545306297 1.7575750751626316 2.2656471503730726
8.114026550996964 1.4955122926105 3.0907096077953184 3.5278046505911482
11.438115056860848 1.727368550700327 4.745010218822579 4.965736287337937
15.319241980863353 1.994361985118819 6.746079016071935 6.578800979672607
19.875903627717904 2.309225168660274 9.166631336840574 8.40004712221705
25.199463204261818 2.6683548981518066 12.06114269690349 10.46996560920653
31.397195159075864 3.056164776108206 15.563026030734951 12.7780043522327
37.76669289981396 3.3778330522031275 19.184217506938886 15.204642340671958
43.59788091391117 3.4887982071821075 22.749714517510704 17.35936818921835
46.54435039668832 3.233779318946667 24.77215854595769 18.538412531783965
43.29087435509366 2.7907565988660323 23.016781801762317 17.483335954465318
47.322693351751155 11.374410194424009 20.159083070471553 15.789200086855587
43.29087435509749 2.7907565988695655 23.01678180176253 17.483335954465392
46.54435039667815 3.2337793189462065 24.772158545951587 18.53841253178036
43.59788091389506 3.488798207185129 22.749714517498763 17.35936818921116
37.76669289978583 3.3778330522030604 19.184217506921755 15.204642340661017
31.397195159048408 3.056164776108094 15.563026030718456 12.778004352221865
25.19946320423557 2.668354898153 12.061142696887357 10.46996560919521
19.875903627689606 2.309225168657445 9.166631336825896 8.400047122206276
15.319241980838694 1.9943619851192071 6.746079016057879 6.578800979661604
11.438115056835029 1.7273685506984555 4.74501021880963 4.965736287326944
8.11402655097614 1.4955122926088398 3.0907096077854157 3.5278046505818805
5.299066980048604 1.2758447545274214 1.7575750751554915 2.265647150365692
3.1642545564291873 1.061346110969687 0.8774045123308108 1.2255039331286888
1.579402313153131 0.8039879289235923 0.26953813423547024 0.5058762499940692
0.7356115007700644 0.5697423463523388 0.043568722080076804 0.12230043233764853
0.392369093350815 0.3963434680440811 -0.002135640073428902 -0.0018387346198371869
0.2799615333046762 0.2834318652698948 -0.0006806250304151669 -0.002789706934803386
0.22756512044380922 0.2274213578645661 2.02995262153087e-05 0.00012346305302780327
0.18025212857541173 0.18024168774996768 6.169848761276928e-07 9.823840567913113e-06
0.10964995142842465 0.10964995142842465 0.0 0.0
0.07902501036958114 0.07902501036958114 0.0 0.0
0.04347557704509085 0.04347557704509085 0.0 0.0
0.08615085964247092 0.08615085964247092 0.0 0.0
0.1611184264989164 0.16110776790462197 6.366593226293898e-07 1.002193497175889e-05
0.2271710469199717 0.2271656757618556 5.245925404723873e-06 1.2523271136080147e-07
0.3072749460855729 0.30974135822392956 -0.0008227425189269914 -0.0016436696194298635
0.5009677299693489 0.4747471937053438 0.004823407023530885 0.021397129240474044
1.0536415749482835 0.6881046113307423 0.1139344529846266 0.2516025106329144
2.304087544324286 0.965183602386354 0.531591715011332 0.8073122269265998
4.26499857080494 1.2148306241902134 1.2856282033758646 1.764539743238863
7.089886531580604 1.4660684694760089 2.5755635381418926 3.0482545239627044
10.615348419438666 1.7176179692509235 4.303217896813726 4.594512553374021
14.842404691572922 1.9920533342195803 6.479872699958062 6.370478657395284
19.821498962456623 2.3106457943596634 9.135183628442693 8.375669539654272
25.707541907905508 2.6874732789869444 12.372728470626052 10.647340158292504
32.56490687291601 3.1317057401346937 16.202668312933866 13.230532819847454
40.4052096604577 3.584415769319161 20.69667891098875 16.124114980149777
48.87006197734384 3.9011436894280425 25.807017356423067 19.161900931492738
56.11565330737011 3.837277605637097 30.391034991442964 21.887340710290054
59.47945276135524 3.284740166040894 32.84298160684949 23.35173098846486
55.73535037971959 2.931964855075107 30.73713222541389 22.066253299230603
60.68081496617704 14.033746512915952 26.85890835420082 19.78816009906023
55.735350379711385 2.931964855069478 30.737132225412243 22.066253299229665
59.47945276134034 3.284740166041206 32.84298160683983 23.35173098845929
56.115653307340004 3.83727760563193 30.391034991427144 21.887340710280945
48.87006197731442 3.9011436894316205 25.8070173564023 19.1619009314805
40.405209660419565 3.584415769314099 20.696678910968423 16.12411498013706
32.56490687287874 3.1317057401322326 16.202668312912863 13.230532819833629
25.70754190787249 2.6874732789860034 12.372728470607134 10.647340158279349
19.8214989624222 2.3106457943564154 9.135183628424771 8.375669539641013
14.842404691543031 1.992053334218615 6.47987269994194 6.370478657382479
10.615348419411704 1.7176179692475284 4.303217896801074 4.594512553363098
7.08988653155939 1.466068469474236 2.575563538131941 3.0482545239532124
4.26499857079086 1.214830624187983 1.2856282033703512 1.7645397432325272
2.3040875443151734 0.9651836023849121 0.5315917150078702 0.807312226922391
1.0536415749441108 0.6881046113292497 0.11393445298361228 0.2516025106312489
0.5009677299678554 0.47474719370437823 0.004823407023370628 0.02139712924010648
0.3072749460849926 0.30974135822313087 -0.0008227425188983269 -0.0016436696192398655
0.227171046919671 0.22716567576152305 5.24592540748408e-06 1.2523274045691144e-07
0.16111842649862074 0.16110776790433282 6.366593221431451e-07 1.0021934965748754e-05
0.08615085964222585 0.08615085964222585 0.0 0.0
0.04347557704501804 0.04347557704501804 0.0 0.0
0.022447652749734447 0.022447652749734447 0.0 0.0
0.06414027802322086 0.06414027802322086 0.0 0.0
0.14036566640092754 0.1403596922578839 3.662909033654852e-07 5.6078521402870744e-06
0.22602215032874745 0.2260270842310909 -3.6052099699288062e-06 -1.3286923735456062e-06
0.34614806295376516 0.35309564233223933 -0.0017907137555387646 -0.005156865622935176
0.6501263780798319 0.5418137941267116 0.02564022015423508 0.08267236379888479
1.4806836336585891 0.8171864966161374 0.243295824385943 0.42020131265650806
3.0436445986253897 1.0920870441623114 0.779615467677132 1.1719420867859465
5.5347715542598905 1.3691824450394687 1.8390220382892832 2.326567070931141
8.934526819432577 1.648536794091364 3.4431934166722717 3.8427966086689374
13.223979263303999 1.9410034945662875 5.6102923913514235 5.672683377386285
18.40399295828176 2.2646365587367994 8.352073842201033 7.787282557343927
24.56318499255609 2.6416561364293414 11.731084677847912 10.190444178278833
31.696814943970665 3.086367356746214 15.691887815391972 12.918559771832486
40.17684735068169 3.600288865574008 20.56833404534193 16.008224439765737
49.87045964202473 4.133139093494118 26.277107472212478 19.46021307631814
59.98720715777319 4.437765093229472 32.450865622529264 23.09857644201446
68.7181390301623 4.151227934264275 38.22703718539256 26.339873910505474
72.81182240635931 3.3201290809387607 41.41185640161097 28.079836923809587
68.69628076926864 3.0888734363300934 38.905494760511516 26.701912572427027
74.82908658144967 16.72906570339325 34.06725266834758 24.032768209708863
68.69628076926585 3.0888734363319146 38.90549476050852 26.70191257242539
72.81182240633348 3.320129080936784 41.41185640159548 28.07983692380121
68.71813903013256 4.151227934266289 38.22703718537201 26.339873910494273
59.98720715772819 4.437765093224269 32.45086562250397 23.098576441999985
49.870459641979984 4.133139093490889 26.27710747218644 19.46021307630266
40.17684735064296 3.6002888655750933 20.568334045317446 16.00822443975041
31.69681494392753 3.0863673567415204 15.691887815368828 12.918559771817185
24.563184992517712 2.641656136428024 11.731084677826196 10.190444178263492
18.40399295824286 2.2646365587327573 8.352073842181168 7.787282557328928
13.223979263272788 1.9410034945642316 5.610292391335406 5.672683377373144
8.934526819408244 1.6485367940898725 3.4431934166602858 3.842796608658087
5.534771554242063 1.369182445036919 1.8390220382818774 2.326567070923265
3.0436445986146765 1.092087044161004 0.7796154676728393 1.171942086780835
1.4806836336526443 0.8171864966142323 0.2432958243842446 0.42020131265416677
0.6501263780776708 0.5418137941256534 0.02564022015385069 0.08267236379816681
0.34614806295320066 0.3530956423314155 -0.0017907137554862165 -0.00515686562272867
0.22602215032842488 0.22602708423078294 -3.605209973176416e-06 -1.3286923848690956e-06
0.14036566640078563 0.14035969225774214 3.662909033509835e-07 5.607852140109466e-06
0.06414027802302806 0.06414027802302806 0.0 0.0
0.022447652749703513 0.022447652749703513 0.0 0.0
0.011016533263366593 0.011016533263366593 0.0 0.0
0.045460206354552536 0.045460206354552536 0.0 0.0
0.12049211836330098 0.12049211836330098 0.0 0.0
0.22732215798837982 0.22749186153615733 -2.370213450653393e-05 -0.00014600141327106696
0.40283249625079987 0.40254719133808853 -0.000579743294206051 0.0008650482069174452
0.8633650053561305 0.6427679599596857 0.06725402953655368 0.15334301585989119
1.9517178615051776 0.9261176175278963 0.3812712911924412 0.6443289527848406
3.888613590472282 1.2113944495021574 1.116658781041001 1.5605603599291233
6.84283825798842 1.515011238722272 2.4252219906969206 2.9026050285692273
10.857357537571676 1.8302812149950478 4.379964059461441 4.647112263115185
15.914398688504333 2.167629667552748 6.987879395838294 6.758889625113295
22.086422231535774 2.549334820168121 10.322114031689777 9.214973379677883
29.351924240738896 2.989934742110705 14.339482551312749 12.022506947315437
38.045432488425185 3.503053399616064 19.336614323538832 15.205764765270306
48.02660942394387 4.084382111547632 25.140513841774897 18.801713470621333
59.29206569451151 4.6624060798178295 31.850654141187427 22.779005473506242
71.21848868063933 4.97229097193499 39.309478268355534 26.93671944034882
81.45782355671054 4.504331697527299 46.263580927728704 30.68991093145453
86.44671351140487 3.3733443640224037 50.26033139016831 32.81303775721414
82.40281265484185 3.2111835938507474 47.736191598435944 31.455437462555146
90.24011235702935 19.407339973010313 42.28626529229576 28.54650709172325
82.40281265482623 3.2111835938411106 47.73619159843197 31.455437462553164
86.44671351138955 3.373344364035181 50.260331390149865 32.813037757204484
81.4578235566719 4.504331697526264 46.26358092770407 30.68991093144155
71.21848868059499 4.9722909719381025 39.309478268324966 26.936719440331917
59.292065694463545 4.662406079818748 31.850654141156287 22.77900547348852
48.02660942388802 4.084382111539331 25.14051384174519 18.80171347060351
38.04543248837683 3.5030533996125666 19.33661432351135 15.20576476525292
29.351924240689996 2.989934742105977 14.339482551286338 12.022506947297686
22.08642223149401 2.549334820167363 10.32211403166605 9.214973379660602
15.91439868846701 2.167629667549941 6.987879395818949 6.758889625098119
10.857357537543903 1.8302812149936194 4.379964059447247 4.647112263103031
6.842838257967412 1.5150112387205732 2.425221990687156 2.902605028559683
3.8886135904586063 1.2113944494993771 1.1166587810361532 1.560560359923075
1.9517178614975146 0.9261176175260369 0.38127129118994185 0.6443289527815355
0.863365005353006 0.6427679599584945 0.06725402953583863 0.1533430158586728
0.40283249624986617 0.40254719133702976 -0.0005797432941975748 0.000865048207033946
0.22732215798796374 0.2274918615357717 -2.370213451162006e-05 -0.00014600141329635101
0.1204921183631812 0.1204921183631812 0.0 0.0
0.04546020635442166 0.04546020635442166 0.0 0.0
0.011016533263382927 0.011016533263382927 0.0 0.0
0.005358062233076026 0.005358062233076026 0.0 0.0
0.031180861920437397 0.031180861920437397 0.0 0.0
0.10421903886439925 0.10421903886439925 0.0 0.0
0.2359205527178941 0.23648676908791733 -7.958157461222768e-05 -0.0004866347954109115
0.48542165540127274 0.4567179962382321 0.005588213649617394 0.023115445513423413
1.1401873809813687 0.7432812378175127 0.13594585773733037 0.2609602854265259
2.4754088485613672 1.0157002505979216 0.5566618273364157 0.9030467706270292
4.788296545715502 1.3261580023139572 1.4959046592060021 1.9662338841955433
8.196931084192212 1.6559982306204732 3.0527016280456065 3.488231225526131
12.829364746575079 2.0113488086170905 5.35983101726513 5.4581849206928625
18.708487521325306 2.4028329431922235 8.45461295077448 7.851041627358599
25.84748374344663 2.844643004574234 12.350701255989659 10.65213948288274
34.46665391428878 3.360749922020971 17.24217978410747 13.863724208160328
44.43178668808516 3.9501217812281464 22.96243719238301 17.519227714473995
56.02574829852523 4.569244778658967 29.849328335700477 21.607175184165786
68.9125880767376 5.134975578144939 37.71770646301158 26.05990603558107
82.33905348049382 5.457321987577482 46.21322455906651 30.668506933849827
94.19007505012115 5.006934385796104 54.29168455139511 34.891456112929916
100.4138170341034 3.46828508102203 59.465344736271874 37.48018721680954
97.01210390913633 3.222955024472283 57.381594027581905 36.40755485708214
107.03959624546312 21.927518618463495 51.60963971012177 33.50243791687787
97.01210390910443 3.2229550244556338 57.38159402757181 36.40755485707697
100.41381703406284 3.4682850810160133 59.4653447362489 37.480187216797944
94.19007505007197 5.00693438579423 54.291684551363886 34.89145611291382
82.33905348044014 5.457321987577064 46.21322455903164 30.668506933831438
68.91258807667884 5.134975578141961 37.71770646297572 26.05990603556113
56.0257482984701 4.569244778659751 29.849328335665007 21.607175184145333
44.431786688025525 3.950121781221136 22.96243719235037 17.519227714454033
34.46665391423562 3.3607499220213697 17.242179784074978 13.863724208139267
25.847483743398083 2.8446430045718722 12.350701255962349 10.652139482863868
18.708487521283917 2.402832943189218 8.45461295075265 7.851041627342053
12.829364746542737 2.011348808613999 5.359831017249158 5.458184920679579
8.196931084168725 1.655998230619359 3.052701628034072 3.488231225515291
4.788296545699199 1.326158002311493 1.4959046591993896 1.9662338841883178
2.4754088485523895 1.0157002505963506 0.5566618273334368 0.9030467706226007
1.1401873809769147 0.7432812378160057 0.13594585773620133 0.26096028542470795
0.48542165540001514 0.4567179962371988 0.005588213649520384 0.023115445513295977
0.23592055271746648 0.2364867690875032 -7.958157461366899e-05 -0.0004866347954231373
0.10421903886420705 0.10421903886420705 0.0 0.0
0.031180861920367668 0.031180861920367668 0.0 0.0
0.0053580622330738 0.0053580622330738 0.0 0.0
0.0025427216996355218 0.0025427216996355218 0.0 0.0
0.02137429002189136 0.02137429002189136 0.0 0.0
0.0951637467436861 0.0951637467436861 0.0 0.0
0.2596637951484333 0.260656412868852 -0.00022631419299595803 -0.0007663035274226435
0.6144361607243563 0.5390381902794266 0.021542693243279877 0.05385527720164993
1.4574737921719556 0.8287361468517724 0.2207111655004686 0.4080264798197146
3.0690111364987263 1.1096269112843762 0.783910120727234 1.1754741044871155
5.719067185212848 1.4347389218654887 1.8999801949064374 2.384348068440921
9.60368454398202 1.7938577088459544 3.729701907514173 4.080124927621896
14.845004153002385 2.194283999050648 6.377954798400183 6.272765355551551
21.542077763487892 2.6429958723686813 9.950247882089258 8.948834009029952
29.807718454200636 3.1578158393173807 14.554527460041315 12.095375154841943
39.541323187526146 3.7530486352060075 20.063904437337396 15.724370114982761
51.08485457115509 4.4104695508460035 26.8340275822261 19.840357438082993
64.26031370422366 5.070501566487384 34.77055480586318 24.41925733187309
78.631768336608 5.586087813010302 43.715648140210874 29.330032383386804
93.25330203882645 5.782687736307204 53.186006771829426 34.28460753068982
106.52372468081914 5.515782826109155 62.18592196001135 38.8220198946986
114.61748784408967 3.9592355584126677 68.65105486080233 42.00719742487458
112.6120323820927 2.945544912585901 68.0104136836859 41.656073785820944
125.2938460112178 23.308096355603006 62.83651834080911 39.14923131480568
112.61203238207077 2.945544912586603 68.01041368367065 41.65607378581353
114.61748784406008 3.9592355584248753 68.65105486077445 42.007197424860735
106.5237246807744 5.515782826118355 62.185921959975374 38.82201989468069
93.25330203876341 5.782687736306131 53.1860067717886 34.284607530668666
78.63176833654474 5.58608781300786 43.71564814017126 29.33003238336565
64.26031370415562 5.070501566482236 34.7705548058229 24.419257331850456
51.08485457108999 4.410469550843298 26.834027582186874 19.84035743805981
39.54132318746785 3.7530486352069836 20.063904437300938 15.724370114959905
29.80771845414497 3.157815839314957 14.554527460009474 12.09537515482054
21.542077763440314 2.6429958723645344 9.950247882064035 8.948834009011748
14.845004152965114 2.1942839990465637 6.377954798381714 6.272765355536839
9.603684543954804 1.7938577088435053 3.729701907501125 4.080124927610176
5.719067185194714 1.4347389218641728 1.8999801948981936 2.3843480684323493
3.069011136488189 1.1096269112828034 0.7839101207233072 1.1754741044820776
1.4574737921664807 0.8287361468501477 0.2207111654989007 0.40802647981743234
0.614436160722591 0.539038190278449 0.02154269324300059 0.053855277201141395
0.2596637951480146 0.2606564128683263 -0.00022631419298657456 -0.0007663035273251768
0.09516374674347919 0.09516374674347919 0.0 0.0
0.02137429002188362 0.02137429002188362 0.0 0.0
0.002542721699634471 0.002542721699634471 0.0 0.0
0.0007312487694613615 0.0007312487694613615 0.0 0.0
0.015439066762232641 0.015439066762232641 0.0 0.0
0.09858175824056262 0.09858175824056262 0.0 0.0
0.31284753207793276 0.3126499362136904 -0.00017447791758694732 0.00037207378182929586
0.8024893858214024 0.654710172416721 0.04799597362794961 0.09978323977673133
1.8526166151056058 0.997544607499488 0.3142085449574986 0.5408634626486191
3.738583384643639 1.3597124663884583 0.978825183276496 1.4000457349786861
6.760974934624341 1.8146343664860654 2.235658970097412 2.710681598040862
11.148771381056912 2.36614258036995 4.247227096090063 4.535401704596902
17.131457444177958 3.0500487316640448 7.186065753295786 6.89534295921813
24.847537623264234 3.9030437721485867 11.159447633361573 9.785046217754068
34.296856626774726 4.9507981742810125 16.146370877355853 13.199687575137858
45.684148239158134 6.18963361872956 22.35502976335334 17.139484857075235
59.03518962484611 7.594492035548406 29.837375882230877 21.60332170706682
74.12026239670547 8.989187468812693 38.59389821827146 26.537176709621292
90.21186939432998 10.0442389379897 48.39821234192684 31.76941811441344
105.89701534686208 10.358294877123999 58.55106476944413 36.98765570029397
119.37563658782722 9.757359375341728 67.95636783577082 41.66190937671473
128.9962171454931 8.81642882104314 75.06655533306676 45.11323299138319
125.3624410850864 2.96765039631269 76.50954484952734 45.88524583924632
179.34567916220482 61.02569568406534 73.86903846121197 44.450945016927534
125.36244108507387 2.9676503963244256 76.50954484951107 45.88524583923836
128.99621714545316 8.816428821046536 75.06655533303741 45.11323299136915
119.375636587759 9.757359375330717 67.95636783573264 41.66190937669573
105.89701534679033 10.358294877120795 58.55106476939853 36.987655700271006
90.21186939424129 10.044238937965893 48.39821234188444 31.769418114390906
74.12026239662812 8.98918746880523 38.593898218226435 26.537176709596487
59.03518962477619 7.594492035547785 29.837375882186947 21.60332170704147
45.684148239088316 6.189633618722485 22.355029763314484 17.139484857051368
34.29685662671291 4.950798174277606 16.14637087732054 13.19968757511475
24.847537623210343 3.9030437721427997 11.1594476333334 9.785046217734154
17.13145744413636 3.0500487316591958 7.186065753275004 6.895342959202162
11.148771381026211 2.3661425803660276 4.247227096075674 4.535401704584514
6.760974934604082 1.8146343664846465 2.235658970087969 2.7106815980314645
3.7385833846311254 1.3597124663861346 0.9788251832718813 1.4000457349731108
1.8526166150990229 0.9975446074975641 0.31420854495571726 0.5408634626457406
0.8024893858191922 0.6547101724158271 0.047995973627481134 0.09978323977588394
0.3128475320773859 0.31264993621310133 -0.00017447791757296588 0.000372073781857512
0.09858175824033949 0.09858175824033949 0.0 0.0
0.015439066762158888 0.015439066762158888 0.0 0.0
0.0007312487694712134 0.0007312487694712134 0.0 0.0
CELL_DATA 800
SCALARS Stress float 6
LOOKUP_TABLE default
157.5362497387105 -510.19989650150785 -182.45648554704294 -107.77990566279654 0.0 0.0
397.8308222283531 -47.41657709493307 116.70767913990447 57.83345287261817 0.0 0.0
393.57053600627046 8.740984017668495 120.49727000227693 -4.062428568626847 0.0 0.0
453.8421094480876 -9.889487477018514 137.45854547302457 -13.902551910806485 0.0 0.0
528.1603563106216 -14.794310567219393 184.1310173696453 -11.367591106660313 0.0 0.0
598.6150172211748 -8.331960814769381 253.4038519674018 -9.786919683561164 0.0 0.0
666.8537349022729 -0.8579093242872986 314.3983051645909 -9.910438384126417 0.0 0.0
735.1976625995974 14.481495248514982 366.98977435360985 -11.063467418661608 0.0 0.0
804.9157734915075 36.636672898084015 416.5553302979075 -12.445595298178882 0.0 0.0
876.3388689013423 64.83194277941615 467.5357036619039 -13.454014236164626 0.0 0.0
948.6270053442499 97.28939846783977 520.4203362144074 -13.924650795549452 0.0 0.0
1020.8575332052833 133.17326836025612 574.8072044508394 -13.86888806120072 0.0 0.0
1093.005673994223 170.9091025719728 629.9793794317308 -13.637946003572821 0.0 0.0
1165.794875404668 211.0188658850525 686.5793502983813 -13.361492652262928 0.0 0.0
1239.9783808669827 254.47973643457493 745.5016161176611 -12.959173677900573 0.0 0.0
1315.0516116491176 301.1789254552509 806.461296522363 -12.242236327605736 0.0 0.0
1388.731616387423 349.6502277441926 867.5993029105321 -11.017123345011338 0.0 0.0
1457.8016094550667 397.63766058695046 926.1639852906997 -9.327838691177618 0.0 0.0
1519.1818132100595 443.1481958532233 979.571132719349 -8.009182245521753 0.0 0.0
1591.576232860028 506.8467823865758 1047.0863756923186 -10.740545465680704 0.0 0.0
1591.57623286065 506.8467823872113 1047.086375692793 10.740545465681336 0.0 0.0
1519.1818132104536 443.14819585365564 979.5711327196748 8.009182245499169 0.0 0.0
1457.8016094546185 397.637660586568 926.1639852903033 9.32783869116998 0.0 0.0
1388.7316163865812 349.65022774344163 867.5993029097475 11.017123345016877 0.0 0.0
1315.051611648314 301.1789254545504 806.4612965216664 12.242236327602502 0.0 0.0
1239.9783808663542 254.47973643407505 745.5016161172084 12.959173677833986 0.0 0.0
1165.794875403832 211.01886588436383 686.5793502978308 13.361492652293453 0.0 0.0
1093.005673992836 170.90910257075336 629.9793794307485 13.637946003557653 0.0 0.0
1020.8575332040754 133.1732683592357 574.807204449941 13.86888806114988 0.0 0.0
948.627005343361 97.28939846716997 520.4203362137442 13.924650795568425 0.0 0.0
876.338868901129 64.83194277944767 467.53570366170237 13.454014236204458 0.0 0.0
804.9157734912137 36.63667289802726 416.5553302976804 12.445595298200189 0.0 0.0
735.1976625991387 14.48149524831257 366.9897743532832 11.06346741866524 0.0 0.0
666.8537349020039 -0.857909324282673 314.398305164343 9.91043838411314 0.0 0.0
598.6150172208686 -8.33196081481561 253.40385196709735 9.786919683524017 0.0 0.0
528.1603563103979 -14.794310567168385 184.1310173694571 11.367591106626483 0.0 0.0
453.84210944788606 -9.88948747691055 137.45854547297586 13.902551910848992 0.0 0.0
393.5705360062501 8.74098401790646 120.49727000234537 4.06242856863679 0.0 0.0
397.83082222841637 -47.41657709468841 116.70767913995834 -57.83345287259318 0.0 0.0
157.53624973930488 -510.1998965009581 -182.45648554649932 107.77990566233225 0.0 0.0
59.294894870994455 -539.7855125297897 -241.00862457867504 -152.11601213330667 0.0 0.0
252.30351568120489 -33.22841714830915 65.72216356014745 11.479568452874325 0.0 0.0
344.964777375719 26.525796370291907 111.44668199747537 -10.220048979573065 0.0 0.0
416.3878908736557 -7.388956400663551 123.46660115652882 -33.61305208155875 0.0 0.0
498.91430248930214 -15.745940820126119 163.01621889125443 -32.26893956505985 0.0 0.0
574.1677092115558 -9.595773922099383 231.55663205680372 -28.94519833244316 0.0 0.0
646.4171084334149 -2.219724209870318 297.77766019600824 -29.424787476762912 0.0 0.0
715.7707047464739 12.469596023704234 353.74338736684456 -31.182017414506543 0.0 0.0
784.391794066152 33.23761932010538 403.57127785611226 -33.29834009475648 0.0 0.0
853.1227077836652 59.064616051734944 452.5635682949003 -34.61233321215989 0.0 0.0
921.4414816329804 88.25736341904123 502.03981623812246 -34.80376482408612 0.0 0.0
989.0719153968196 119.4890243024765 551.8827260327843 -34.19541364679062 0.0 0.0
1056.195820824545 153.05928599989724 602.496415582985 -33.280606796893764 0.0 0.0
1123.9586644956255 188.8658477422822 654.4592227662393 -32.33265840375988 0.0 0.0
1192.7526711997589 227.37799392264787 708.238697512173 -31.178862981918385 0.0 0.0
1262.0567118623176 268.6352617632184 763.6177712074868 -29.389316211842193 0.0 0.0
1330.3884216411982 311.8570461305491 819.4619518539007 -26.680783583959187 0.0 0.0
1395.8581940443444 356.15927050749633 874.3592553532508 -23.355097802799804 0.0 0.0
1460.8842619193547 405.3613075434738 931.3127885502324 -20.44107680110242 0.0 0.0
1508.348239751972 443.74414103002385 974.0572001169771 -17.31204914614298 0.0 0.0
1508.34823975136 443.7441410294203 974.0572001165442 17.312049146119996 0.0 0.0
1460.884261917993 405.36130754213633 931.31278854913 20.441076801081017 0.0 0.0
1395.85819404384 356.15927050704846 874.3592553527849 23.355097802819472 0.0 0.0
1330.3884216403894 311.85704612982875 819.4619518533055 26.680783584008964 0.0 0.0
1262.0567118623214 268.63526176332743 763.6177712074093 29.38931621181596 0.0 0.0
1192.7526711994522 227.37799392247075 708.2386975118383 31.1788629819171 0.0 0.0
1123.95866449566 188.86584774248146 654.459222766196 32.33265840384114 0.0 0.0
1056.1958208246745 153.05928600021184 602.4964155830359 33.280606796915585 0.0 0.0
989.0719153969459 119.48902430281376 551.8827260328245 34.195413646862335 0.0 0.0
921.4414816328571 88.25736341914123 502.03981623799325 34.803764824102146 0.0 0.0
853.1227077829509 59.0646160512547 452.5635682944129 34.61233321221427 0.0 0.0
784.3917940658527 33.237619320058215 403.5712778558771 33.298340094785964 0.0 0.0
715.7707047459226 12.469596023395866 353.74338736643455 31.182017414501935 0.0 0.0
646.4171084328985 -2.219724210120823 297.7776601956061 29.42478747681243 0.0 0.0
574.167709211023 -9.595773922368949 231.556632056371 28.945198332395446 0.0 0.0
498.91430248908625 -15.74594082003307 163.01621889111013 32.26893956504617 0.0 0.0
416.38789087327916 -7.388956400890576 123.46660115635672 33.6130520815306 0.0 0.0
344.9647773754991 26.525796369955085 111.44668199730872 10.220048979662524 0.0 0.0
252.30351568132815 -33.22841714804703 65.72216356026341 -11.479568452918592 0.0 0.0
59.29489487124826 -539.7855125295032 -241.00862457835785 152.1160121330748 0.0 0.0
11.497235088280718 -543.8522659039809 -258.99578487539713 -166.27655992203685 0.0 0.0
145.42335015894244 -28.6527623057602 35.03117635595466 -41.46521635094051 0.0 0.0
280.6948670034064 30.539338404123704 93.37026162225902 -32.630546287036275 0.0 0.0
369.1830289208394 0.4370021328215974 111.05968271968614 -52.56158030146635 0.0 0.0
460.064076565192 -14.207433574208176 142.8421902578908 -55.33988874527449 0.0 0.0
546.5960131309423 -12.999152422400513 205.64862514766992 -50.214846823830904 0.0 0.0
621.7339549615323 -2.69640986216449 277.7465462800446 -49.244864041950834 0.0 0.0
691.9419379010772 10.489382423401288 337.165734123811 -51.261946260095 0.0 0.0
760.0142608040969 29.93163554101418 388.2249515567215 -53.74266479481422 0.0 0.0
826.067519720742 53.128212511644094 435.4110882337534 -55.09142214409561 0.0 0.0
890.4822130351106 78.70527027038192 481.42588518308366 -54.94683072917776 0.0 0.0
953.3986890379879 106.07432142313468 527.0987928314771 -53.77322085480492 0.0 0.0
1015.924438266228 134.97702759521923 573.1368296722649 -52.357055227431815 0.0 0.0
1078.5204537802942 166.28885580281587 620.3085659354163 -50.81739301171457 0.0 0.0
1141.7206791703288 199.69619454250198 668.7710675265888 -48.945023748843035 0.0 0.0
1205.2409495410893 235.2829972861873 718.4482585676341 -46.25019240189307 0.0 0.0
1268.3528639186356 273.17597917404794 769.0206568765121 -42.431524157554264 0.0 0.0
1331.5273482674115 314.9523612200482 821.4698793846317 -37.80677650526944 0.0 0.0
1390.1384317021798 357.23364870328845 871.8158391868192 -32.07417958029721 0.0 0.0
1430.811422376111 387.8467728901146 907.3381274315341 -23.11905402411961 0.0 0.0
1430.8114223759444 387.8467728899593 907.3381274313468 23.119054024097792 0.0 0.0
1390.1384317025118 357.2336487036717 871.8158391870312 32.07417958044037 0.0 0.0
1331.5273482677856 314.95236122050267 821.4698793848471 37.80677650542637 0.0 0.0
1268.3528639178428 273.17597917335286 769.0206568759061 42.431524157650706 0.0 0.0
1205.2409495401805 235.2829972853762 718.4482585670629 46.250192401909146 0.0 0.0
1141.7206791700526 199.69619454235442 668.7710675263259 48.945023748891764 0.0 0.0
1078.5204537796315 166.28885580231656 620.3085659348238 50.817393011816534 0.0 0.0
1015.9244382658646 134.97702759505535 573.13682967198 52.35705522756889 0.0 0.0
953.398689037994 106.07432142335162 527.0987928314547 53.77322085484619 0.0 0.0
890.4822130351417 78.70527027062394 481.4258851830992 54.94683072914873 0.0 0.0
826.0675197204315 53.12821251154929 435.4110882335009 55.091422144053055 0.0 0.0
760.0142608036059 29.931635540756005 388.2249515563913 53.742664794767066 0.0 0.0
691.9419379009094 10.4893824234926 337.165734123631 51.26194626002474 0.0 0.0
621.7339549614525 -2.6964098619188874 277.74654627989594 49.244864041996586 0.0 0.0
546.5960131302813 -12.9991524228323 205.64862514717038 50.21484682373148 0.0 0.0
460.06407656477097 -14.207433574368853 142.84219025766407 55.33988874524963 0.0 0.0
369.18302892073865 0.4370021331052474 111.05968271974947 52.5615803013868 0.0 0.0
280.6948670035556 30.53933840446825 93.37026162240713 32.63054628699785 0.0 0.0
145.4233501591765 -28.652762305281676 35.03117635616845 41.46521635079747 0.0 0.0
11.497235088490427 -543.8522659036422 -258.9957848750788 166.27655992190054 0.0 0.0
-6.083604682919315 -529.0463306955037 -251.35850660211693 -168.62827081317675 0.0 0.0
85.66653034792661 -31.38947242632215 16.28311737648134 -86.30836161202527 0.0 0.0
219.68599768120382 28.90139129510391 74.5762166928923 -62.0897654619718 0.0 0.0
318.2618074860295 6.7739439661416 97.50266061903245 -73.11964530569625 0.0 0.0
411.59373597156105 -11.378582117910575 123.47576992846297 -80.11173411262378 0.0 0.0
507.3368073295942 -14.343917096985518 177.80881715851135 -73.60868331765958 0.0 0.0
589.9463260681673 -4.68788865897546 251.4220831498307 -69.92833804271149 0.0 0.0
663.4679645845009 9.135617668069532 316.94694005266194 -71.45371182290664 0.0 0.0
730.8709758424046 26.480972879267625 369.58901911834437 -73.75828734897478 0.0 0.0
794.5004523026842 46.953314623086044 415.53734251810647 -74.89995196930757 0.0 0.0
855.2285018786527 69.02001518014544 458.4569086883571 -74.35775137086797 0.0 0.0
913.9575976229966 92.3795171695443 500.2171982750215 -72.70193663466483 0.0 0.0
971.4332541151222 116.97097804677583 541.6586877247678 -70.78785508251218 0.0 0.0
1029.1721957891218 143.52291469606072 584.0781221905422 -68.80422323617347 0.0 0.0
1086.8791704940797 171.55889192502084 627.1504421921537 -66.32223527683816 0.0 0.0
1144.2518902470758 201.44677134054893 670.9314859607208 -62.86228173867099 0.0 0.0
1202.3984747277589 234.12895095976552 716.4230729822827 -58.273986417886135 0.0 0.0
1260.7825092526245 270.49651652620156 763.7850407260471 -52.345928734973896 0.0 0.0
1314.670260590167 306.8999022159186 808.8532617360893 -43.61793544367459 0.0 0.0
1352.8979783357274 333.3695416294784 841.0935267480421 -29.282662514707688 0.0 0.0
1352.8979783361242 333.3695416299041 841.0935267483055 29.28266251482752 0.0 0.0
1314.6702605909861 306.8999022168076 808.8532617366469 43.617935443809216 0.0 0.0
1260.7825092528296 270.4965165264781 763.7850407261768 52.345928735056845 0.0 0.0
1202.398474727954 234.12895096003047 716.4230729824227 58.27398641784008 0.0 0.0
1144.2518902468778 201.44677134049056 670.931485960507 62.86228173877892 0.0 0.0
1086.879170494432 171.55889192552823 627.1504421923731 66.32223527696695 0.0 0.0
1029.1721957893692 143.52291469647648 584.0781221907541 68.80422323622557 0.0 0.0
971.4332541146252 116.97097804645941 541.6586877244284 70.78785508257809 0.0 0.0
913.9575976222752 92.37951716897254 500.2171982745106 72.70193663457097 0.0 0.0
855.2285018786504 69.02001518035851 458.4569086883226 74.35775137088916 0.0 0.0
794.5004523016179 46.953314622203635 415.53734251740656 74.89995196921961 0.0 0.0
730.8709758416502 26.480972878718177 369.5890191178204 73.75828734891488 0.0 0.0
663.4679645837804 9.135617667603945 316.9469400521538 71.45371182290556 0.0 0.0
589.9463260676167 -4.687888659225024 251.42208314939148 69.92833804271578 0.0 0.0
507.33680732904963 -14.343917097276563 177.80881715810824 73.60868331749812 0.0 0.0
411.5937359712272 -11.378582117936737 123.47576992833734 80.11173411248106 0.0 0.0
318.2618074858108 6.7739439659802185 97.5026606189198 73.11964530546749 0.0 0.0
219.6859976811422 28.901391294906688 74.57621669281465 62.08976546177965 0.0 0.0
85.6665303480339 -31.389472426093164 16.283117376582222 86.30836161174985 0.0 0.0
-6.083604682795169 -529.046330695238 -251.35850660184155 168.62827081303945 0.0 0.0
-9.432163970195816 -503.32788036549175 -229.8702833332128 -166.66699243720842 0.0 0.0
51.10126951088073 -35.02954456150512 4.821517484812684 -121.1656661906774 0.0 0.0
166.83176421953596 24.348341407823092 57.3540316882077 -91.88972121187753 0.0 0.0
264.4634678498174 10.406582600282805 82.45991473016875 -95.14003671968764 0.0 0.0
354.3895570822252 -6.489917829216618 105.32320768835868 -103.90927739747909 0.0 0.0
456.71198017293165 -14.56658871920951 149.2327576302659 -100.07169803012218 0.0 0.0
550.3915902283127 -7.376472671541615 219.59095602379665 -92.79540435224024 0.0 0.0
628.6110410564801 7.3439200721877995 290.97280166735686 -91.75969775137135 0.0 0.0
696.1941506140239 23.11768006588149 346.80490779182765 -93.41641146595558 0.0 0.0
757.7351105446965 40.5613390969126 392.3166327244556 -94.09225055808903 0.0 0.0
815.176643941004 59.1612199091644 432.7107075418993 -93.08278887036835 0.0 0.0
869.5944332483105 78.52144065164255 470.64642170670857 -90.93818073731597 0.0 0.0
922.4996982054511 98.84394743140649 507.82962245900177 -88.67901298921629 0.0 0.0
974.7054312890702 120.62966591922715 545.1743786388071 -86.2551926120172 0.0 0.0
1026.9364271447382 143.4794835040934 582.9635949345046 -83.26157240708974 0.0 0.0
1079.1311111200118 167.5977624891861 621.3155137889978 -79.30390017310117 0.0 0.0
1131.001672338634 194.01351353392687 660.5711655504817 -74.08869393817551 0.0 0.0
1183.668600391451 223.88470691411467 701.8493520241572 -67.0369708141563 0.0 0.0
1233.819357817468 254.72421278627596 742.271224355446 -55.62006709991195 0.0 0.0
1272.075439411447 278.6488001462933 773.2322928517628 -36.31560775378292 0.0 0.0
1272.0754394110086 278.6488001458889 773.2322928515081 36.31560775396463 0.0 0.0
1233.8193578172359 254.72421278609107 742.2712243552725 55.620067099999396 0.0 0.0
1183.6686003917025 223.88470691447876 701.8493520242544 67.03697081435863 0.0 0.0
1131.0016723381796 194.01351353356824 660.5711655502037 74.08869393824104 0.0 0.0
1079.131111119063 167.59776248832904 621.3155137884175 79.30390017309675 0.0 0.0
1026.9364271438812 143.4794835033591 582.9635949339514 83.26157240711728 0.0 0.0
974.7054312887121 120.6296659189324 545.1743786384661 86.25519261188003 0.0 0.0
922.4996982046628 98.84394743078812 507.8296224584575 88.67901298922658 0.0 0.0
869.594433247131 78.5214406505792 470.64642170584057 90.93818073724898 0.0 0.0
815.1766439407402 59.16121990915573 432.71070754164276 93.0827888704575 0.0 0.0
757.7351105441735 40.561339096590714 392.31663272405143 94.09225055799985 0.0 0.0
696.1941506136527 23.11768006574809 346.80490779155355 93.41641146595146 0.0 0.0
628.6110410564295 7.34392007252027 290.9728016672308 91.75969775145083 0.0 0.0
550.3915902285494 -7.376472670799831 219.59095602384906 92.79540435236626 0.0 0.0
456.7119801729685 -14.566588718615447 149.23275763031157 100.07169803010498 0.0 0.0
354.389557081971 -6.489917829134638 105.32320768830883 103.90927739739357 0.0 0.0
264.4634678496328 10.406582600159602 82.45991473007754 95.14003671960128 0.0 0.0
166.83176421951114 24.348341407775862 57.35403168818609 91.88972121163414 0.0 0.0
51.10126951104273 -35.02954456113069 4.8215174849736115 121.16566619038063 0.0 0.0
-9.432163970106316 -503.32788036520236 -229.87028333292855 166.66699243706552 0.0 0.0
-6.397378131349086 -470.3577319389442 -200.95792101161095 -163.39466158845963 0.0 0.0
29.438096018792496 -37.90565733774453 -2.5402683956856107 -147.00406553506 0.0 0.0
121.39569357534789 18.68219689396809 42.02336714079478 -118.41502528167625 0.0 0.0
209.8991016977853 12.257220180450705 66.6442197549177 -116.89018545395153 0.0 0.0
293.21610052593246 -1.7941567613002694 87.60416564856604 -125.95231387777628 0.0 0.0
390.25855927727014 -12.848542832280483 120.74604245398586 -127.64848434786472 0.0 0.0
494.53521176351103 -8.791705494571676 182.8237635510341 -118.81086322385659 0.0 0.0
582.515557071126 4.011615208803642 255.98611464050532 -113.48194597036348 0.0 0.0
654.2465204151471 19.396147597563527 317.8339207129601 -112.99510677938599 0.0 0.0
714.583031427892 34.124209621688145 364.5727757727218 -112.70040701584739 0.0 0.0
768.7338327940929 49.00515199854732 402.99972947159426 -111.1437103692411 0.0 0.0
819.2949483528356 64.55607487842775 437.7648575765602 -108.56375477779864 0.0 0.0
867.4684691538156 80.7755763951358 470.82302703803924 -105.92013549985238 0.0 0.0
914.4615341379849 97.64984461252168 503.25872487253537 -103.28022010494131 0.0 0.0
961.3536835509632 115.33021046391038 535.8653496460346 -99.93498836546854 0.0 0.0
1007.5910097383708 134.1226001755322 568.6236445685508 -95.40289764092363 0.0 0.0
1053.3283024349232 153.5440353409901 601.3866683997933 -89.77975098822361 0.0 0.0
1099.3331286626358 175.46828327775557 635.4105334454462 -82.02844453273043 0.0 0.0
1145.655872742982 200.3385150780997 670.9223640898422 -68.51216222944615 0.0 0.0
1185.871270805475 222.5271931157153 701.9361772301324 -44.76230374961759 0.0 0.0
1185.8712708056203 222.5271931159146 701.9361772301841 44.76230374978863 0.0 0.0
1145.6558727433908 200.33851507859245 670.9223640900952 68.51216222966885 0.0 0.0
1099.333128662997 175.4682832782467 635.4105334457665 82.0284445328999 0.0 0.0
1053.3283024347518 153.54403534091455 601.386668399677 89.77975098826502 0.0 0.0
1007.5910097380906 134.12260017530951 568.6236445682043 95.40289764087663 0.0 0.0
961.3536835513892 115.33021046459683 535.8653496463543 99.93498836572459 0.0 0.0
914.4615341383062 97.64984461300352 503.2587248727584 103.28022010498879 0.0 0.0
867.4684691541443 80.77557639574135 470.82302703822864 105.9201355000809 0.0 0.0
819.2949483524346 64.55607487827437 437.7648575762574 108.5637547779103 0.0 0.0
768.7338327940383 49.0051519987266 402.9997294715342 111.14371036927312 0.0 0.0
714.5830314276989 34.1242096216741 364.5727757725125 112.7004070157383 0.0 0.0
654.2465204151245 19.396147597817247 317.8339207128667 112.9951067793429 0.0 0.0
582.5155570706409 4.01161520861875 255.98611464009207 113.48194597039074 0.0 0.0
494.5352117625101 -8.791705495252433 182.82376355039136 118.81086322393706 0.0 0.0
390.2585592763265 -12.848542833198183 120.74604245338386 127.64848434759732 0.0 0.0
293.21610052585703 -1.794156761103916 87.6041656486047 125.95231387763289 0.0 0.0
209.89910169758977 12.257220180394684 66.6442197548431 116.89018545376263 0.0 0.0
121.39569357530998 18.682196893915258 42.02336714076757 118.41502528145207 0.0 0.0
29.43809601887363 -37.90565733748406 -2.54026839558313 147.00406553486786 0.0 0.0
-6.397378131262457 -470.35773193854453 -200.9579210112985 163.39466158841668 0.0 0.0
-0.7563018492618738 -431.5851881669431 -168.32164423745996 -159.96508032991792 0.0 0.0
13.49506384942509 -40.671169104949215 -8.152883784909886 -165.021321956951 0.0 0.0
81.22191547050272 13.132791503933001 28.306412092330717 -140.1425567530466 0.0 0.0
155.9888998657636 13.730498253326488 50.91269585803985 -136.7467186260375 0.0 0.0
228.49485818065324 1.4639068171035974 69.10387930073534 -145.80941077584362 0.0 0.0
313.80982486892555 -8.747016599619307 94.0591667069763 -153.52590462199333 0.0 0.0
420.25770345045976 -9.281702596670302 142.6205497564311 -147.80167433688007 0.0 0.0
519.7257955431559 0.9470121324813601 211.77563022086983 -138.01304970425574 0.0 0.0
599.2499518943284 14.39268278587387 278.0875363426879 -133.34431734423794 0.0 0.0
662.0283792532719 27.442027558380346 329.3611987070842 -130.99678656249063 0.0 0.0
713.5570528980913 38.589706738064 367.30905695066025 -128.59783368747347 0.0 0.0
760.5500553797615 50.5267954047131 399.86496000546026 -125.58719186618359 0.0 0.0
804.1604732685912 62.60221713897957 429.2333588708521 -122.62949431113051 0.0 0.0
845.7796183375407 74.954349924557 457.0724477932445 -119.80207464798585 0.0 0.0
886.5649486267669 87.17314771571318 484.05663031403475 -116.3245782927741 0.0 0.0
928.1106106682971 100.78033874017324 511.9432537364167 -111.43645154541761 0.0 0.0
967.4435271908634 113.64814469047158 538.3259830810765 -105.1629165786894 0.0 0.0
1005.2163338423088 126.29218780029714 563.7036303378511 -97.17525820031267 0.0 0.0
1046.9546690560517 142.93456499975258 592.7995040190602 -82.74585159295188 0.0 0.0
1091.0951519348228 163.6230366728107 624.910536063963 -55.4392539749915 0.0 0.0
1091.0951519353102 163.62303667336013 624.9105360643956 55.43925397521742 0.0 0.0
1046.9546690563968 142.9345650002084 592.7995040193733 82.7458515931826 0.0 0.0
1005.2163338420346 126.29218780015833 563.7036303376534 97.17525820050064 0.0 0.0
967.4435271898285 113.6481446895136 538.325983080321 105.1629165787489 0.0 0.0
928.1106106677103 100.78033873969073 511.943253735963 111.43645154547494 0.0 0.0
886.564948626035 87.17314771510866 484.05663031353106 116.32457829281181 0.0 0.0
845.7796183365948 74.95434992379009 457.0724477926089 119.80207464810638 0.0 0.0
804.1604732677552 62.60221713833849 429.23335887024626 122.62949431127998 0.0 0.0
760.5500553791932 50.52679540434076 399.8649600051008 125.58719186621084 0.0 0.0
713.5570528973275 38.58970673738136 367.3090569501204 128.59783368733338 0.0 0.0
662.0283792528343 27.442027558039598 329.361198706718 130.99678656231748 0.0 0.0
599.2499518942684 14.392682786142409 278.0875363425971 133.3443173442428 0.0 0.0
519.7257955430528 0.9470121327604417 211.77563022072178 138.0130497042663 0.0 0.0
420.2577034498904 -9.281702596851565 142.62054975609192 147.801674336866 0.0 0.0
313.80982486835273 -8.747016600018103 94.05916670667098 153.52590462182832 0.0 0.0
228.49485818051178 1.4639068171969534 69.10387930072797 145.80941077563008 0.0 0.0
155.98889986572408 13.730498253386642 50.912695858047016 136.7467186258201 0.0 0.0
81.22191547045149 13.132791503898838 28.306412092305088 140.14255675287578 0.0 0.0
13.495063849408496 -40.67116910481524 -8.15288378487461 165.02132195672024 0.0 0.0
-0.7563018492041707 -431.58518816660364 -168.3216442371952 159.96508032984576 0.0 0.0
3.517550030466161 -388.5371394968869 -136.7874115002148 -157.02280311433242 0.0 0.0
-1.7483216786178364 -43.75341561006264 -13.6499853778437 -175.53524543372106 0.0 0.0
44.57814361438504 8.694710730793453 15.981856303553547 -157.05932648375241 0.0 0.0
103.45913783116781 15.066351483339027 35.55599003160491 -153.38942828710907 0.0 0.0
161.67272449974277 3.99770686871914 49.764292206932566 -163.07356248153516 0.0 0.0
227.82155029282384 -3.966837636057008 68.2608200725615 -174.168017324343 0.0 0.0
321.06810658286685 -6.953815078472571 101.59255312821433 -177.1531281973551 0.0 0.0
430.4378797150646 -1.3149838068731476 158.2359596153455 -166.8965894211932 0.0 0.0
522.3905153546186 8.717878650996266 223.23615419343668 -156.38593156615246 0.0 0.0
591.1764032132751 19.75224825603699 279.4098457936792 -149.72912775590646 0.0 0.0
643.9449448498624 27.827531837581176 320.46370301383104 -145.87836829914053 0.0 0.0
687.4387726040379 36.117514613723685 352.3101706504117 -142.10526811434175 0.0 0.0
726.7292316315527 44.60064716985994 379.4052593916267 -138.8016925361691 0.0 0.0
763.0462105921868 52.439734582158614 403.2834311790143 -135.8644979136811 0.0 0.0
798.0101972055169 59.50701376412057 425.33154543538575 -132.49846639249046 0.0 0.0
833.452390378232 67.071044673564 447.3287871786656 -127.49918533629051 0.0 0.0
869.1449829938856 74.99068876675541 469.49035076976736 -120.45124132283259 0.0 0.0
898.7647062440556 78.20574780786575 486.3411344737391 -112.07066025067712 0.0 0.0
930.781381765883 81.8944565950982 504.1762228887714 -98.28483411656792 0.0 0.0
979.7224249168053 99.66097382692672 536.979059429312 -69.48143828634785 0.0 0.0
979.7224249166981 99.66097382688932 536.9790594291908 69.48143828658115 0.0 0.0
930.7813817647847 81.89445659410757 504.1762228880042 98.28483411683291 0.0 0.0
898.7647062438664 78.20574780778418 486.34113447355344 112.07066025086581 0.0 0.0
869.1449829933987 74.99068876642988 469.49035076934433 120.45124132297755 0.0 0.0
833.4523903780569 67.07104467357377 447.3287871785239 127.49918533644103 0.0 0.0
798.0101972055351 59.50701376435697 425.3315454354143 132.4984663926136 0.0 0.0
763.0462105921902 52.4397345822626 403.28343117900556 135.86449791371632 0.0 0.0
726.729231631454 44.600647169954726 379.405259391604 138.80169253618578 0.0 0.0
687.4387726037189 36.11751461350188 352.3101706501282 142.105268114294 0.0 0.0
643.9449448494167 27.827531837374494 320.4637030134975 145.878368299214 0.0 0.0
591.1764032130327 19.752248256113177 279.4098457934775 149.72912775591485 0.0 0.0
522.3905153542236 8.717878650940776 223.23615419313177 156.38593156620956 0.0 0.0
430.43787971465645 -1.3149838068490602 158.23595961510503 166.89658942124888 0.0 0.0
321.0681065823573 -6.95381507857549 101.59255312798723 177.15312819728837 0.0 0.0
227.821550292554 -3.966837635996942 68.26082007249369 174.1680173242499 0.0 0.0
161.67272449970588 3.9977068690717044 49.76429220703321 163.07356248141483 0.0 0.0
103.4591378312395 15.06635148359231 35.55599003170321 153.3894282869151 0.0 0.0
44.578143614383436 8.694710731024573 15.981856303622404 157.0593264835261 0.0 0.0
-1.7483216786724478 -43.753415610066526 -13.649985377861531 175.5352454335811 0.0 0.0
3.5175500304306446 -388.53713949661926 -136.78741150003927 157.0228031142442 0.0 0.0
1.328987514871251 -342.0341532045194 -111.15611520213159 -152.35621902364804 0.0 0.0
-19.158058602602516 -48.04070795908642 -20.15790481393652 -181.44396186413027 0.0 0.0
10.53796184626647 6.118366364631985 4.996602621412557 -169.2658595488444 0.0 0.0
52.4377108513109 15.983452279101872 20.525235215623397 -166.29469125770805 0.0 0.0
93.54037547456109 7.487573443427988 30.353509192837794 -175.66819379971702 0.0 0.0
137.50119555931724 -0.6695843358162636 41.581166152484805 -190.25218733345508 0.0 0.0
199.12344165110196 -2.7954162453828024 61.391243283119316 -199.74099390677003 0.0 0.0
293.4923095089431 -0.4002298937956521 97.37787252171925 -197.64021541262622 0.0 0.0
398.8553486851614 4.391243173295564 148.89803320233528 -185.1674041141526 0.0 0.0
481.02598209725795 10.628550729200374 202.59329563358676 -171.64826974601306 0.0 0.0
539.2585941701327 17.089239611804334 247.6869523322519 -163.70513440917645 0.0 0.0
581.9984192579683 21.18922211443578 281.1536052005061 -158.66598085705348 0.0 0.0
618.0224920982085 26.372397789118118 308.70017084530645 -154.7232813087807 0.0 0.0
649.414430392897 30.375205650895083 331.0956311592462 -151.4728886890829 0.0 0.0
677.9066082330489 32.34993034634549 349.3969448798771 -148.14202812331922 0.0 0.0
706.5881421451254 33.414242593060365 365.9412936800087 -143.6578641870458 0.0 0.0
738.9506971397457 35.4476694358588 383.79143369247544 -136.2137897439253 0.0 0.0
769.6227562538152 35.21186479208146 399.72776440793615 -126.22999971892935 0.0 0.0
786.5172040785974 18.791322116636238 400.7381542138284 -114.0792770607991 0.0 0.0
836.4975912937837 25.208640986534277 427.8020053399993 -88.62969528729417 0.0 0.0
836.4975912937407 25.208640986541667 427.80200534004996 88.62969528753261 0.0 0.0
786.5172040778144 18.791322115921332 400.73815421341703 114.07927706103783 0.0 0.0
769.62275625338 35.21186479182913 399.7277644077135 126.22999971919992 0.0 0.0
738.9506971395864 35.44766943565739 383.79143369230985 136.21378974392445 0.0 0.0
706.5881421453241 33.414242593496 365.94129368015024 143.657864187158 0.0 0.0
677.9066082326777 32.34993034600045 349.3969448796297 148.14202812326783 0.0 0.0
649.4144303922782 30.37520565029088 331.09563115882025 151.4728886891291 0.0 0.0
618.0224920983441 26.372397789505015 308.7001708454031 154.7232813089546 0.0 0.0
581.9984192578534 21.189222114471953 281.15360520035006 158.66598085709364 0.0 0.0
539.2585941697184 17.08923961161382 247.68695233196152 163.7051344091249 0.0 0.0
481.0259820968954 10.628550728926797 202.59329563326537 171.64826974585597 0.0 0.0
398.8553486847844 4.391243173231864 148.89803320210274 185.1674041141901 0.0 0.0
293.4923095084589 -0.40022989388939934 97.37787252149921 197.64021541261263 0.0 0.0
199.12344165069473 -2.7954162455907197 61.39124328292955 199.7409939066352 0.0 0.0
137.50119555910783 -0.669584336007758 41.58116615235836 190.25218733311902 0.0 0.0
93.54037547435597 7.487573443182223 30.353509192705822 175.6681937994219 0.0 0.0
52.43771085124106 15.983452279048628 20.52523521558688 166.29469125742452 0.0 0.0
10.537961846159703 6.118366364525153 4.996602621348597 169.26585954862364 0.0 0.0
-19.15805860264405 -48.04070795906031 -20.157904813941908 181.44396186400772 0.0 0.0
1.3289875147992234 -342.0341532042039 -111.1561152019951 152.35621902348268 0.0 0.0
-6.781657519940378 -293.3103728110991 -91.87098214619013 -143.98492560909222 0.0 0.0
-37.149356557375484 -52.840881960773686 -26.99432331538936 -184.80008599263496 0.0 0.0
-21.647920048098065 4.9450081039543505 -5.010720958336292 -177.17284105625697 0.0 0.0
2.9500557490768724 16.69662623532718 5.893591161515997 -174.8672403878477 0.0 0.0
25.286239325101636 11.158585526411109 10.94520174039086 -183.34980219393242 0.0 0.0
44.25122255168152 3.381925958570604 14.466013870054468 -198.80414418432412 0.0 0.0
66.49570947137866 -0.09507603096276007 20.680017758654245 -212.8210107404292 0.0 0.0
100.75397779919987 0.10385485646683712 32.254466986114565 -218.7929539214976 0.0 0.0
155.8700169769485 3.343571243661847 52.422436184653286 -211.56718060061135 0.0 0.0
223.52261291556 4.8117703967910685 78.2218777076734 -198.84992062707107 0.0 0.0
284.7003783298608 7.394321054898398 107.91759002236911 -184.94632948990505 0.0 0.0
334.3843036464757 8.698759500284758 136.64234704423896 -177.00214385115217 0.0 0.0
376.4917066154736 9.43107575185715 163.86654524186773 -171.4938345681918 0.0 0.0
407.6756064457294 8.90585104679657 186.21304619661686 -166.57093352281413 0.0 0.0
432.6506864350206 6.032937465723691 204.10399245723994 -162.4746480840648 0.0 0.0
460.0206148356167 0.232212815832753 220.11964871449476 -158.63300344719633 0.0 0.0
495.8536851586948 -5.901677764511902 237.8134200191961 -152.4325540633135 0.0 0.0
542.3985378089653 -8.768588495734718 261.1767873859718 -141.72481797609612 0.0 0.0
577.5242462823762 -28.116264066607926 272.44329399685023 -126.25388215725211 0.0 0.0
603.3704659947828 -76.9895781368188 260.27292662963123 -111.48962926159587 0.0 0.0
603.3704659957756 -76.98957813564431 260.27292663030437 111.48962926188804 0.0 0.0
577.5242462834082 -28.116264065061273 272.44329399761875 126.25388215778872 0.0 0.0
542.398537808705 -8.768588495772406 261.1767873858398 141.72481797652208 0.0 0.0
495.85368515813917 -5.901677765156222 237.8134200188066 152.43255406340984 0.0 0.0
460.02061483497386 0.23221281487734302 220.11964871394912 158.63300344707434 0.0 0.0
432.65068643454754 6.032937465066965 204.10399245684278 162.47464808401088 0.0 0.0
407.6756064451436 8.905851046083 186.21304619617445 166.57093352296215 0.0 0.0
376.4917066152336 9.431075751395305 163.86654524159107 171.4938345682761 0.0 0.0
334.3843036463223 8.698759499976056 136.64234704406266 177.00214385110303 0.0 0.0
284.70037832933525 7.3943210540024324 107.91759002189619 184.9463294897983 0.0 0.0
223.5226129155668 4.811770397014506 78.2218777077069 198.8499206269782 0.0 0.0
155.87001697735022 3.3435712447488726 52.42243618507964 211.56718060068516 0.0 0.0
100.75397779935885 0.10385485708840214 32.25446698634019 218.7929539214943 0.0 0.0
66.49570947160565 -0.09507603029778089 20.68001775892107 212.82101074033912 0.0 0.0
44.251222551874555 3.3819259591096174 14.466013870273049 198.8041441840685 0.0 0.0
25.286239325338126 11.158585526953276 10.94520174062528 183.3498021937316 0.0 0.0
2.950055749204843 16.69662623552507 5.8935911616134105 174.86724038767017 0.0 0.0
-21.64792004795211 4.945008104320885 -5.010720958182652 177.17284105612592 0.0 0.0
-37.14935655740332 -52.84088196080916 -26.994323315409318 184.8000859925406 0.0 0.0
-6.781657520040081 -293.31037281082547 -91.87098214612898 143.98492560897003 0.0 0.0
-18.062537922722232 -245.71873379014713 -79.14611904010897 -132.80515739978236 0.0 0.0
-52.613960661826184 -54.70145336511341 -32.192860803909426 -184.69090021472178 0.0 0.0
-52.361862311418335 3.934248757531398 -14.529639416010458 -181.16112394946387 0.0 0.0
-44.97775719228419 17.2995547586833 -8.30774861085289 -178.83026744538327 0.0 0.0
-42.31820855312171 14.537518881459583 -8.349896757988038 -185.58609345358033 0.0 0.0
-49.588961964723005 7.7378235699760864 -12.742062531159537 -199.76255884686492 0.0 0.0
-68.03046739802126 2.7112644017221834 -20.370004320003826 -212.97373109359484 0.0 0.0
-100.97007708922412 0.30471522007442786 -32.201491706430836 -218.9176524715415 0.0 0.0
-155.6089573791733 -3.281400453720405 -52.31966893841699 -211.6012103126502 0.0 0.0
-223.2898926501677 -4.819426715280187 -78.1547392878432 -198.8225232420114 0.0 0.0
-284.89725358191214 -6.688289310788363 -107.56220216244428 -184.88368000457655 0.0 0.0
-335.57685338866116 -7.340991233276974 -136.65456613104647 -176.6543269378827 0.0 0.0
-379.9193332681159 -8.156597780000595 -164.8520478031833 -170.93760056408536 0.0 0.0
-413.7394214110558 -11.449154511301415 -189.91509279532642 -166.36503581733857 0.0 0.0
-437.37499767963016 -18.574213498057716 -211.96491451501652 -164.1290909245905 0.0 0.0
-450.5173167143521 -29.396380378348837 -230.59616459712555 -164.46795058296996 0.0 0.0
-443.16111579588954 -42.31052416223517 -241.41552794279988 -165.8849976260369 0.0 0.0
-386.21322460404826 -40.65287548466907 -230.33047140265555 -166.69590188807499 0.0 0.0
-206.35935318797533 -34.136644153017016 -161.0639418402292 -168.7758284527385 0.0 0.0
14.271686692334583 -172.40325537908296 -65.02074822242129 -141.55974243226808 0.0 0.0
14.271686692475498 -172.4032553787699 -65.02074822230756 141.55974243263205 0.0 0.0
-206.35935318768577 -34.13664415241024 -161.06394183994524 168.7758284531641 0.0 0.0
-386.21322460361813 -40.652875483717736 -230.33047140213603 166.69590188830705 0.0 0.0
-443.1611157950871 -42.31052416134301 -241.41552794218336 165.88499762613964 0.0 0.0
-450.51731671380907 -29.39638037780263 -230.5961645967099 164.46795058285903 0.0 0.0
-437.37499767915756 -18.57421349769359 -211.96491451470814 164.1290909245549 0.0 0.0
-413.73942141098183 -11.449154511576324 -189.91509279523683 166.36503581740837 0.0 0.0
-379.91933326854905 -8.15659778167796 -164.85204780366794 170.937600564339 0.0 0.0
-335.57685338832846 -7.340991233945779 -136.65456613103643 176.654326938021 0.0 0.0
-284.89725358113594 -6.688289310403611 -107.56220216199566 184.88368000456518 0.0 0.0
-223.28989264913122 -4.819426714709241 -78.15473928732726 198.82252324194164 0.0 0.0
-155.60895737859497 -3.2814004536226893 -52.31966893819789 211.60121031274784 0.0 0.0
-100.97007708897803 0.3047152199347334 -32.20149170639152 218.91765247156974 0.0 0.0
-68.03046739807102 2.711264401183419 -20.370004320171617 212.9737310934737 0.0 0.0
-49.58896196471977 7.737823569815962 -12.742062531203885 199.7625588466251 0.0 0.0
-42.31820855298933 14.537518881509373 -8.349896757934276 185.58609345337356 0.0 0.0
-44.97775719213912 17.299554758902584 -8.3077486107454 178.8302674452291 0.0 0.0
-52.36186231125873 3.9342487578324907 -14.529639415874398 181.16112394931048 0.0 0.0
-52.61396066176727 -54.701453365052586 -32.19286080387652 184.69090021463097 0.0 0.0
-18.06253792279025 -245.71873378993953 -79.14611904007941 132.80515739956564 0.0 0.0
-24.507847218741198 -200.36752311500365 -67.46261110012344 -119.87490882639722 0.0 0.0
-65.36670248728551 -53.57101039196277 -35.679709600465344 -180.69578831974022 0.0 0.0
-81.33755822906868 2.9804751858509126 -23.510209615643163 -181.08563390120898 0.0 0.0
-91.39635837261538 17.59474754031966 -22.139155313242846 -178.31001969026005 0.0 0.0
-108.4899905559154 17.243485470903448 -27.473773103199328 -182.12054397372904 0.0 0.0
-141.78587319302957 11.23756811258246 -39.84206379192241 -192.57079419871457 0.0 0.0
-200.37767580592788 5.3323430920090376 -61.049847115910545 -200.71278692085815 0.0 0.0
-293.4324989993172 0.7236409427025823 -97.30327561542616 -197.89921095897876 0.0 0.0
-398.5815517045775 -4.3841311505722125 -148.79234307367804 -185.242741785955 0.0 0.0
-480.8484067523156 -10.50473899311865 -202.45536500616316 -171.59678930201812 0.0 0.0
-538.9359951120152 -16.48608979270479 -247.3211428941647 -163.53033735969305 0.0 0.0
-581.8143256952148 -19.988889062698057 -280.61385976953756 -158.1279900259279 0.0 0.0
-618.8000437948082 -25.28293496563559 -308.57911413598833 -153.6856337869511 0.0 0.0
-652.9161337645194 -32.521180582310606 -333.6448486452119 -150.75724369589352 0.0 0.0
-685.4300383372417 -43.14231214514594 -357.9712187412869 -150.1232088044518 0.0 0.0
-715.4622412260978 -57.746822228122696 -382.00225812955523 -152.3966727938615 0.0 0.0
-738.875799877324 -74.45122314361367 -403.5892759739743 -158.06280922887802 0.0 0.0
-750.4392466271349 -89.68488630378141 -418.6986119736629 -166.99409704015554 0.0 0.0
-787.2339174953513 -144.47798637463555 -465.0311011831957 -176.0728861074459 0.0 0.0
-773.4393484159448 -219.92262873137503 -496.1316905090745 -192.0689602396103 0.0 0.0
-773.4393484163215 -219.92262873218087 -496.1316905094627 192.06896024002916 0.0 0.0
-787.2339174964629 -144.47798637608358 -465.03110118402935 176.07288610777553 0.0 0.0
-750.439246627946 -89.6848863050387 -418.6986119742665 166.99409704054386 0.0 0.0
-738.8757998774258 -74.45122314413464 -403.58927597414106 158.0628092291023 0.0 0.0
-715.462241225856 -57.74682222793956 -382.00225812935776 152.39667279376897 0.0 0.0
-685.4300383368795 -43.14231214480701 -357.9712187409765 150.12320880439418 0.0 0.0
-652.9161337649922 -32.521180583058424 -333.64484864557244 150.75724369593726 0.0 0.0
-618.800043794762 -25.282934965844383 -308.57911413600567 153.68563378700927 0.0 0.0
-581.8143256948315 -19.988889062613467 -280.61385976925493 158.1279900259576 0.0 0.0
-538.9359951122135 -16.48608979317367 -247.3211428941575 163.53033735959346 0.0 0.0
-480.84840675213445 -10.504738993552674 -202.45536500602157 171.59678930204606 0.0 0.0
-398.58155170412635 -4.384131150779252 -148.7923430734434 185.2427417860851 0.0 0.0
-293.43249899869556 0.7236409427858153 -97.30327561515948 197.89921095903142 0.0 0.0
-200.37767580547583 5.332343092125969 -61.04984711572314 200.7127869206595 0.0 0.0
-141.7858731928983 11.237568112232767 -39.84206379198158 192.5707941985078 0.0 0.0
-108.48999055545465 17.243485471575937 -27.473773102861497 182.12054397350698 0.0 0.0
-91.39635837235383 17.59474754068908 -22.139155313055035 178.31001969015549 0.0 0.0
-81.33755822881169 2.980475186263564 -23.510209615445458 181.08563390106292 0.0 0.0
-65.36670248719246 -53.571010391825354 -35.67970960039744 180.69578831963398 0.0 0.0
-24.507847218680077 -200.36752311478986 -67.46261110004099 119.8749088262926 0.0 0.0
-26.516813923423236 -158.13612268561587 -55.39588098271173 -106.12164436826777 0.0 0.0
-75.92578342968679 -49.96638404730401 -37.76646563431962 -172.62897423169787 0.0 0.0
-108.52570632797953 2.166081986333899 -31.903441211652797 -176.81758911299676 0.0 0.0
-136.057055277978 17.47868950164486 -35.57104759173503 -173.0783403059096 0.0 0.0
-172.96882820320715 18.647227690720577 -46.530402853849736 -173.3928951962477 0.0 0.0
-230.6094905418666 13.614705885621515 -66.4555489683873 -177.9339667723541 0.0 0.0
-321.09269971103805 9.197949637237432 -101.14877972243573 -178.27849593917313 0.0 0.0
-429.9305013768147 1.5314729637229298 -158.0338921982293 -167.32721968104858 0.0 0.0
-522.2367397441351 -8.715175667094115 -223.15010885927904 -156.38859547353437 0.0 0.0
-591.0812312363439 -19.661962612358224 -279.33635835648397 -149.67841925870698 0.0 0.0
-643.7095841016582 -27.396057992179585 -320.1916591921892 -145.73224493848377 0.0 0.0
-687.1608908439163 -35.14406224910213 -351.75132420329487 -141.51776799047076 0.0 0.0
-727.0325883517127 -43.56221722657979 -379.0160795770123 -137.5024583282805 0.0 0.0
-765.5397884631453 -53.7734525387567 -405.00326759875986 -134.55135881117994 0.0 0.0
-804.5009965292037 -67.75557718302984 -432.33411313013596 -133.8288772288812 0.0 0.0
-843.0069606966815 -86.40067672738941 -461.446376993664 -136.53720315826564 0.0 0.0
-878.2086426405931 -107.94575405562182 -490.3743778388291 -142.95939749229473 0.0 0.0
-918.0882351804435 -141.70074145763613 -527.7323549187091 -150.165766664766 0.0 0.0
-961.4234695396433 -191.47965532946955 -574.9169005191483 -157.1058112038345 0.0 0.0
-1041.2348166659635 -315.1069091616112 -674.6581274867592 -168.07236477854187 0.0 0.0
-1041.23481666617 -315.10690916199934 -674.6581274869671 168.07236477887892 0.0 0.0
-961.4234695395108 -191.47965532963613 -574.9169005190639 157.10581120414338 0.0 0.0
-918.0882351794176 -141.70074145665075 -527.7323549180147 150.1657666648317 0.0 0.0
-878.2086426394847 -107.94575405461418 -490.3743778380365 142.95939749240418 0.0 0.0
-843.006960696526 -86.4006767273508 -461.44637699355565 136.53720315828838 0.0 0.0
-804.5009965292221 -67.7555771832864 -432.33411313021816 133.82887722893503 0.0 0.0
-765.5397884632918 -53.77345253898888 -405.0032675987977 134.55135881112204 0.0 0.0
-727.0325883514041 -43.56221722654093 -379.016079576851 137.50245832838542 0.0 0.0
-687.1608908433082 -35.144062248656056 -351.7513242028785 141.5177679904677 0.0 0.0
-643.7095841014319 -27.39605799224805 -320.1916591920117 145.7322449384659 0.0 0.0
-591.0812312356263 -19.661962611937568 -279.3363583559915 149.67841925867316 0.0 0.0
-522.2367397438405 -8.715175667279755 -223.15010885905517 156.38859547362034 0.0 0.0
-429.93050137637204 1.5314729635467739 -158.0338921979823 167.32721968116314 0.0 0.0
-321.09269971048843 9.197949637225848 -101.14877972221046 178.27849593908573 0.0 0.0
-230.60949054153315 13.61470588535212 -66.45554896836808 177.933966772213 0.0 0.0
-172.96882820300996 18.647227690674363 -46.530402853806386 173.39289519609866 0.0 0.0
-136.05705527782953 17.478689501686596 -35.571047591682344 173.07834030578732 0.0 0.0
-108.52570632796433 2.1660819861274803 -31.903441211711407 176.81758911280846 0.0 0.0
-75.92578342967863 -49.96638404730123 -37.76646563431669 172.62897423158 0.0 0.0
-26.51681392331041 -158.13612268544514 -55.39588098262666 106.12164436813752 0.0 0.0
-27.35075817353753 -119.79477234399215 -44.1436591552589 -92.0353567867016 0.0 0.0
-85.00029472780584 -44.27166874062227 -38.78158904052843 -160.48953639646015 0.0 0.0
-133.93509074935375 1.5383304261183595 -39.716236164533896 -168.2161374924573 0.0 0.0
-178.95686592640322 16.54222547643071 -48.73419974073042 -163.3622806725707 0.0 0.0
-234.62811873294112 18.73745971980055 -65.12405872138012 -159.33405633671305 0.0 0.0
-313.54191151440074 16.613553464192815 -92.38730177079654 -157.8989632291616 0.0 0.0
-418.9935662458686 11.299121629413447 -141.7987070635032 -149.39052598322488 0.0 0.0
-519.3280387427251 -0.8056630135352876 -211.52856799599564 -138.24871727158234 0.0 0.0
-599.2534446430959 -14.463516452768289 -278.1008055427246 -133.29164491490081 0.0 0.0
-661.9727891973624 -27.38857721432157 -329.3298223404978 -130.96007910257387 0.0 0.0
-713.4203593366641 -38.30812854034643 -367.1289970843113 -128.4757409265599 0.0 0.0
-760.4011294985667 -49.893408572699244 -399.4993050665428 -125.00266187798132 0.0 0.0
-804.2233008605914 -61.68441998181959 -428.793083729769 -121.20914331303737 0.0 0.0
-846.926254348449 -75.13805857389312 -457.6422712289214 -118.0997927840233 0.0 0.0
-890.3020318490533 -91.9080841629683 -488.0917345574662 -117.14568471789691 0.0 0.0
-936.0051807959597 -114.95756960547236 -522.6857619313101 -119.81769413689896 0.0 0.0
-985.174051684391 -146.84429050683255 -563.43121993821 -125.62549701368866 0.0 0.0
-1039.1428746476427 -190.45337693752447 -612.5606777160526 -131.8378279226489 0.0 0.0
-1106.2976514879945 -258.63816755864116 -680.2228237259592 -135.5326159715487 0.0 0.0
-1195.205891449558 -381.01062723702097 -785.0052431154281 -142.88173583408465 0.0 0.0
-1195.205891449828 -381.01062723744474 -785.0052431156814 142.88173583433758 0.0 0.0
-1106.297651489017 -258.6381675598899 -680.2228237267122 135.53261597189112 0.0 0.0
-1039.1428746473753 -190.453376937326 -612.5606777157915 131.83782792271333 0.0 0.0
-985.174051684761 -146.84429050741113 -563.4312199384258 125.62549701388541 0.0 0.0
-936.0051807957573 -114.95756960544027 -522.6857619310939 119.81769413703415 0.0 0.0
-890.3020318490826 -91.90808416315647 -488.09173455742996 117.14568471792148 0.0 0.0
-846.9262543485826 -75.1380585742457 -457.64227122898853 118.09979278412692 0.0 0.0
-804.2233008607027 -61.68441998219754 -428.7930837298314 121.20914331316776 0.0 0.0
-760.4011294980513 -49.89340857233432 -399.49930506615254 125.00266187791615 0.0 0.0
-713.4203593361976 -38.308128540079814 -367.1289970839559 128.47574092646275 0.0 0.0
-661.9727891965643 -27.388577213815985 -329.32982233995574 130.96007910258228 0.0 0.0
-599.2534446423039 -14.463516452199691 -278.10080554209395 133.29164491481075 0.0 0.0
-519.3280387420691 -0.80566301320862 -211.52856799547249 138.24871727157534 0.0 0.0
-418.99356624520675 11.299121629745816 -141.79870706307477 149.39052598313125 0.0 0.0
-313.54191151361454 16.613553464715633 -92.38730177039172 157.8989632290109 0.0 0.0
-234.6281187326527 18.737459719738826 -65.12405872131525 159.33405633655457 0.0 0.0
-178.95686592629426 16.54222547626087 -48.73419974075283 163.36228067236743 0.0 0.0
-133.93509074918043 1.5383304261644475 -39.71623616446883 168.2161374923008 0.0 0.0
-85.00029472775675 -44.27166874065002 -38.78158904052203 160.4895363964409 0.0 0.0
-27.350758173451993 -119.7947723438068 -44.14365915517763 92.03535678669519 0.0 0.0
-28.022038956802927 -85.86441676574543 -34.165936716764506 -77.64385724109553 0.0 0.0
-93.2953486967869 -37.12451508748923 -39.125959135282834 -144.67926593266492 0.0 0.0
-157.78204966116945 1.2104303635059654 -46.97025353328439 -155.30438920739954 0.0 0.0
-220.26497061885868 14.743733188877675 -61.63325070940062 -149.15843965653215 0.0 0.0
-293.3628294462732 18.69707306325716 -82.90746687377178 -141.45888408437955 0.0 0.0
-388.34672093863605 18.759451959492697 -119.14463536751579 -132.6260494846569 0.0 0.0
-492.99421116996007 10.415453035189056 -181.77899884396277 -119.90238244453995 0.0 0.0
-582.4040627556676 -4.035831426393898 -255.86671527775496 -113.49634819145723 0.0 0.0
-654.3467526435193 -19.51535909006931 -317.9348351290993 -112.93293938717544 0.0 0.0
-714.5772452255824 -34.08679671930979 -364.5676684477591 -112.68303704307601 0.0 0.0
-768.7170407492622 -48.87574761160246 -402.9336463678451 -111.02372930347627 0.0 0.0
-819.3544252214153 -64.30740106217378 -437.6733320725119 -108.0160929079043 0.0 0.0
-867.3736909010813 -80.08626610956759 -470.4365668292484 -104.57153094582925 0.0 0.0
-913.9134248676392 -96.49159367718218 -502.39979528128856 -101.53158947813911 0.0 0.0
-961.6427215320332 -116.07405368629557 -536.2777088110399 -100.21173575265132 0.0 0.0
-1014.4212587695367 -144.4764536169884 -576.9103645733107 -102.08240879746477 0.0 0.0
-1075.805282878754 -185.73669009284868 -628.3073470239578 -107.15151296204297 0.0 0.0
-1146.3468347528383 -243.39928874343835 -692.5209176192931 -112.2717610902829 0.0 0.0
-1227.0093840837048 -323.94178437366975 -773.1059878363209 -115.19101010978856 0.0 0.0
-1309.4368942903886 -437.51784293684466 -870.8291472089585 -124.37400040925591 0.0 0.0
-1309.4368942894587 -437.51784293595824 -870.829147208408 124.3740004093496 0.0 0.0
-1227.0093840830243 -323.94178437307204 -773.1059878358786 115.19101010998162 0.0 0.0
-1146.3468347526534 -243.39928874338855 -692.5209176190888 112.27176109045078 0.0 0.0
-1075.8052828786074 -185.73669009289 -628.3073470238477 107.15151296230438 0.0 0.0
-1014.4212587691102 -144.47645361675782 -576.9103645730811 102.08240879761527 0.0 0.0
-961.6427215316216 -116.07405368592208 -536.277708810786 100.21173575247207 0.0 0.0
-913.913424867144 -96.49159367674275 -502.39979528093136 101.53158947800017 0.0 0.0
-867.3736909007096 -80.08626610939339 -470.4365668289863 104.57153094586027 0.0 0.0
-819.3544252210895 -64.30740106203903 -437.6733320722811 108.01609290787573 0.0 0.0
-768.7170407488592 -48.87574761144727 -402.9336463676398 111.0237293034701 0.0 0.0
-714.5772452244439 -34.08679671830908 -364.5676684469966 112.6830370428779 0.0 0.0
-654.3467526432986 -19.515359090097384 -317.93483512891214 112.93293938709353 0.0 0.0
-582.4040627550737 -4.035831426197495 -255.86671527728996 113.49634819152864 0.0 0.0
-492.9942111694146 10.415453035266248 -181.77899884356546 119.90238244462422 0.0 0.0
-388.34672093813936 18.759451959442433 -119.1446353673169 132.6260494846624 0.0 0.0
-293.36282944585474 18.69707306339762 -82.90746687360904 141.45888408424236 0.0 0.0
-220.2649706185244 14.74373318900967 -61.633250709263244 149.1584396563844 0.0 0.0
-157.7820496610348 1.2104303634998477 -46.97025353324641 155.30438920724598 0.0 0.0
-93.29534869662622 -37.124515087420384 -39.125959135213975 144.67926593253466 0.0 0.0
-28.022038956824144 -85.86441676570954 -34.1659367167601 77.64385724101652 0.0 0.0
-28.73687341767721 -56.80752488434812 -25.66331949060759 -62.839293788641285 0.0 0.0
-101.01323861965949 -29.08987265013194 -39.03093338093743 -125.61866804764966 0.0 0.0
-180.3182286798908 1.062711650235368 -53.774468003076144 -138.17815335127267 0.0 0.0
-259.294470857996 12.003899505159897 -74.19308167677777 -130.57187028386238 0.0 0.0
-347.48163470723534 19.163082368185194 -100.06730784869364 -119.68604213336107 0.0 0.0
-452.1786513872354 18.73389179628493 -147.24837307099358 -104.9512878625847 0.0 0.0
-549.2497590113928 8.490474629620898 -218.65367113220213 -93.33560356946538 0.0 0.0
-628.739809992495 -7.508354209037904 -291.0457380537746 -91.60448746746637 0.0 0.0
-696.322628360891 -23.239777805573226 -346.93385405643505 -93.37916761095624 0.0 0.0
-757.7561222568006 -40.54369754971606 -392.3244506784549 -94.08159365707284 0.0 0.0
-815.2690257909554 -59.16543642024574 -432.7525025936435 -92.95127887257874 0.0 0.0
-869.8177645887747 -78.58939619558892 -470.78493915143645 -90.45306823865624 0.0 0.0
-922.2756595539172 -98.40504716813386 -507.51779310090035 -87.59497479581383 0.0 0.0
-972.7715752389419 -118.48987653884598 -543.1849072620068 -84.77262496896579 0.0 0.0
-1024.2609099318042 -140.9177520543105 -580.3041706694016 -82.9167445287303 0.0 0.0
-1083.683168714268 -173.69175112258563 -626.3563457013332 -83.63821654675505 0.0 0.0
-1156.0270595284564 -224.5518573043295 -687.8855011990886 -87.46996359124049 0.0 0.0
-1241.2050310225573 -295.8280941958595 -766.1253111738845 -92.34765143329683 0.0 0.0
-1330.108112418356 -384.5966844712923 -855.0087398792867 -97.0832915589545 0.0 0.0
-1408.5630540690515 -492.75319033548584 -948.3556075336763 -110.33498248655064 0.0 0.0
-1408.5630540690881 -492.7531903355632 -948.3556075336958 110.33498248665774 0.0 0.0
-1330.108112418755 -384.59668447178035 -855.0087398795804 97.08329155911174 0.0 0.0
-1241.2050310224224 -295.8280941958312 -766.1253111738237 92.347651433468 0.0 0.0
-1156.0270595278594 -224.5518573038744 -687.8855011986786 87.46996359139041 0.0 0.0
-1083.6831687136762 -173.69175112213566 -626.3563457008252 83.63821654686274 0.0 0.0
-1024.260909931761 -140.91775205438927 -580.304170669232 82.91674452872789 0.0 0.0
-972.7715752384444 -118.4898765385361 -543.184907261661 84.77262496907414 0.0 0.0
-922.2756595534313 -98.40504716783224 -507.51779310059305 87.59497479583374 0.0 0.0
-869.8177645880382 -78.58939619503222 -470.7849391509327 90.45306823863187 0.0 0.0
-815.2690257905198 -59.16543642012718 -432.7525025933366 92.95127887273597 0.0 0.0
-757.7561222563073 -40.543697549460845 -392.32445067809044 94.08159365700271 0.0 0.0
-696.3226283603399 -23.239777805310204 -346.93385405600975 93.37916761094112 0.0 0.0
-628.739809992054 -7.508354208883439 -291.04573805335605 91.60448746738197 0.0 0.0
-549.249759010924 8.490474629710908 -218.65367113180366 93.33560356947288 0.0 0.0
-452.17865138676177 18.73389179628927 -147.24837307073238 104.95128786264684 0.0 0.0
-347.48163470683517 19.163082368124364 -100.06730784859234 119.68604213325332 0.0 0.0
-259.29447085773353 12.003899505097152 -74.19308167672416 130.5718702837744 0.0 0.0
-180.31822867962373 1.0627116504920098 -53.77446800291986 138.17815335119096 0.0 0.0
-101.01323861952098 -29.089872650011575 -39.030933380859764 125.61866804756853 0.0 0.0
-28.736873417675138 -56.807524884314816 -25.663319490596987 62.83929378846834 0.0 0.0
-29.264456632806343 -33.052442407279905 -18.695069712025873 -47.55498144647844 0.0 0.0
-107.88401005156892 -20.686784252099674 -38.57123829110057 -103.66356858615848 0.0 0.0
-201.6729622542271 0.9444498449855816 -60.21855372277244 -116.83026756173712 0.0 0.0
-296.9408162027556 8.872118106568877 -86.45739300240021 -108.33882254864093 0.0 0.0
-399.91233101572607 19.49133976121068 -117.80412017796394 -94.51488785785968 0.0 0.0
-503.5904580104449 17.62687657325216 -175.4129075861619 -77.42236810558234 0.0 0.0
-589.6127936923774 4.998848526034834 -251.03901095832958 -69.84234794647516 0.0 0.0
-663.6868252226409 -9.310286176581556 -317.1277910584506 -71.26736415524493 0.0 0.0
-730.9939339945678 -26.57502522288236 -369.6999422209316 -73.74390769787716 0.0 0.0
-794.5600862617841 -46.97202358673627 -415.5748181833647 -74.88909310012522 0.0 0.0
-855.3921172075989 -69.12591269317709 -458.57960564407006 -74.21285763394192 0.0 0.0
-914.2054235827795 -92.60050150252935 -500.4443402330805 -72.30447933545645 0.0 0.0
-971.0657990516833 -116.67761541825246 -541.351272293283 -70.0593852219956 0.0 0.0
-1026.8063661406022 -141.29791619179343 -581.8382610924216 -67.78450890051354 0.0 0.0
-1082.5465583699465 -167.2976029034979 -622.8658522894027 -65.5347413352652 0.0 0.0
-1144.9862860678602 -202.569420735184 -671.6407149326124 -64.5571325968308 0.0 0.0
-1226.264000790476 -260.7045182992248 -741.1396291882199 -66.9393256389589 0.0 0.0
-1324.2291755844676 -343.7681445037924 -831.610888303592 -72.43061179744629 0.0 0.0
-1423.2154303707107 -442.549398400407 -930.5942728748382 -80.56879516385328 0.0 0.0
-1502.5698694211592 -550.5844044440063 -1024.5169305886327 -98.77581905669139 0.0 0.0
-1502.5698694207022 -550.5844044436164 -1024.5169305882891 98.77581905681649 0.0 0.0
-1423.215430370999 -442.5493984007385 -930.594272874945 80.56879516392993 0.0 0.0
-1324.2291755851843 -343.76814450465463 -831.6108883040424 72.43061179767705 0.0 0.0
-1226.2640007902132 -260.704518299062 -741.139629187975 66.93932563901251 0.0 0.0
-1144.9862860685332 -202.56942073600237 -671.6407149330355 64.55713259692592 0.0 0.0
-1082.5465583690234 -167.29760290267348 -622.8658522887655 65.5347413351783 0.0 0.0
-1026.8063661394244 -141.29791619075354 -581.8382610915129 67.78450890054023 0.0 0.0
-971.0657990509497 -116.67761541769151 -541.3512722927287 70.05938522198417 0.0 0.0
-914.2054235819501 -92.60050150184837 -500.44434023246635 72.30447933530394 0.0 0.0
-855.3921172074768 -69.12591269331983 -458.5796056439857 74.21285763400878 0.0 0.0
-794.5600862615942 -46.97202358681004 -415.574818183217 74.88909310010922 0.0 0.0
-730.9939339941517 -26.575025222768236 -369.69994222066634 73.74390769791748 0.0 0.0
-663.6868252220813 -9.310286176319451 -317.12779105802906 71.26736415524098 0.0 0.0
-589.6127936914596 4.998848526689599 -251.0390109576255 69.84234794640989 0.0 0.0
-503.59045800997114 17.626876573310824 -175.4129075858269 77.42236810562652 0.0 0.0
-399.9123310152584 19.491339761264683 -117.80412017779142 94.51488785783634 0.0 0.0
-296.9408162024472 8.872118106614167 -86.45739300230285 108.33882254861948 0.0 0.0
-201.6729622541086 0.9444498447923682 -60.218553722794866 116.83026756167735 0.0 0.0
-107.88401005152944 -20.686784252149845 -38.57123829110378 103.66356858606882 0.0 0.0
-29.264456632737094 -33.05244240724641 -18.695069711995046 47.55498144648271 0.0 0.0
-28.965210610847585 -15.009229144211734 -13.192331926517795 -31.919017215575032 0.0 0.0
-113.02254225747717 -12.342239716922172 -37.6094345923198 -79.00878982219275 0.0 0.0
-222.1183237751774 0.46723347524102277 -66.49532708998089 -91.17451680041599 0.0 0.0
-334.11835959250965 6.826930535822182 -98.2352568789079 -82.68060122833843 0.0 0.0
-447.2490230962942 19.380257077099145 -136.55243571547084 -66.80055696966198 0.0 0.0
-544.1961737752969 14.381001228748989 -203.78658894879138 -52.28814534515452 0.0 0.0
-621.9859643356396 2.477252507819962 -277.93689087077587 -48.94847954312893 0.0 0.0
-692.1681190221456 -10.616273658939114 -337.3577950159331 -51.096613868093115 0.0 0.0
-760.1129765428075 -29.98572119721969 -388.3000365948642 -53.74196016695742 0.0 0.0
-826.1702905454188 -53.19445883126045 -435.48922118619043 -55.07702286286128 0.0 0.0
-890.6647799727727 -78.8707567777106 -481.5888030742792 -54.80595766035195 0.0 0.0
-953.5232222383422 -106.27172087289256 -527.2569526918624 -53.486270728745524 0.0 0.0
-1015.4192503929091 -134.70552463927692 -572.7664350825102 -51.95128125370972 0.0 0.0
-1076.529926170369 -164.6569643315065 -618.5328215764257 -50.2728118934567 0.0 0.0
-1137.876516228543 -196.12812482268686 -665.0915947983897 -48.11649512917055 0.0 0.0
-1202.932258852608 -233.14600001129816 -716.116090997546 -45.71463498628545 0.0 0.0
-1283.1524154421113 -289.3390812779317 -784.0374240676921 -45.89782372168939 0.0 0.0
-1394.328668848901 -384.4911096055117 -886.9983441425663 -51.92573048016746 0.0 0.0
-1509.3885131678448 -498.3281283883647 -1001.6203260152606 -64.47315045860367 0.0 0.0
-1599.8705167458743 -615.5785994474678 -1105.8421057539351 -88.41377200951594 0.0 0.0
-1599.8705167455196 -615.5785994471458 -1105.8421057536123 88.4137720095988 0.0 0.0
-1509.3885131668403 -498.3281283873863 -1001.6203260144705 64.4731504586042 0.0 0.0
-1394.328668847901 -384.49110960459234 -886.9983441417598 51.92573048032175 0.0 0.0
-1283.152415441431 -289.33908127733764 -784.0374240670862 45.89782372172409 0.0 0.0
-1202.9322588522036 -233.14600001102238 -716.1160909971144 45.714634986397456 0.0 0.0
-1137.8765162285379 -196.1281248228436 -665.0915947983033 48.116495129302486 0.0 0.0
-1076.529926169978 -164.65696433128403 -618.5328215761353 50.27281189353258 0.0 0.0
-1015.4192503923582 -134.70552463890073 -572.7664350820604 51.95128125369075 0.0 0.0
-953.523222238085 -106.27172087284177 -527.2569526916494 53.4862707287014 0.0 0.0
-890.6647799718185 -78.87075677698914 -481.58880307362733 54.805957660355894 0.0 0.0
-826.1702905452614 -53.194458831354396 -435.4892211860814 55.077022862831896 0.0 0.0
-760.1129765425155 -29.98572119722722 -388.3000365946476 53.74196016700509 0.0 0.0
-692.1681190216244 -10.616273658679557 -337.35779501554896 51.09661386799732 0.0 0.0
-621.9859643352959 2.4772525078685526 -277.93689087042804 48.948479543035425 0.0 0.0
-544.1961737747946 14.38100122891306 -203.78658894836965 52.288145345151946 0.0 0.0
-447.24902309605534 19.380257076879683 -136.55243571539143 66.80055696961702 0.0 0.0
-334.11835959225084 6.82693053564459 -98.23525687889375 82.68060122817963 0.0 0.0
-222.118323774873 0.46723347546907057 -66.49532708982117 91.17451680033486 0.0 0.0
-113.02254225735987 -12.342239716792598 -37.609434592245734 79.00878982210097 0.0 0.0
-28.965210610795946 -15.009229144192656 -13.192331926496578 31.91901721551311 0.0 0.0
-26.568554505208088 -3.014956777258815 -8.87505338474007 -16.446792028072487 0.0 0.0
-114.75296605024194 -4.614246805591982 -35.81016385675017 -51.620786150529376 0.0 0.0
-241.90907230102795 -0.4394821229905954 -72.70456632720555 -60.70053916565557 0.0 0.0
-372.7755783191917 6.162418061848059 -110.10439761127014 -53.71491285882051 0.0 0.0
-487.1312047474779 19.213616010725673 -156.1751621500237 -39.24322405350619 0.0 0.0
-573.4200879079485 9.432370744429662 -230.68605675260181 -29.622866092278116 0.0 0.0
-647.0351866032121 1.7067535275180603 -298.37850144109143 -29.164253180390244 0.0 0.0
-715.8846987748731 -12.53422180614237 -353.86074303716464 -31.063803151540245 0.0 0.0
-784.4694878735925 -33.256516948763164 -403.61620871706464 -33.30010542110271 0.0 0.0
-853.2655890267206 -59.18165201504053 -452.68495513342873 -34.59485679646243 0.0 0.0
-921.5872703530343 -88.4300927572715 -502.1926522054199 -34.696987963914644 0.0 0.0
-988.9994419891959 -119.55474381646839 -551.8806547243622 -34.02933552769682 0.0 0.0
-1055.5993259211148 -152.75657412625412 -602.0558185204245 -33.10554009921823 0.0 0.0
-1122.6847267424323 -188.0337542428062 -653.4151231006078 -32.09395967780331 0.0 0.0
-1190.9935058906476 -226.16890651348467 -706.7560681343277 -30.564254103552297 0.0 0.0
-1260.4646463207387 -267.7515677406995 -762.3399654705458 -27.898736616645966 0.0 0.0
-1334.7399768249284 -317.79337117572106 -824.3398274226861 -25.53878246576486 0.0 0.0
-1432.5734536881723 -398.1941644683273 -913.0104440205109 -29.77365222993889 0.0 0.0
-1593.7880822005968 -555.4905754190727 -1072.304082676382 -46.72430654469616 0.0 0.0
-1710.4264924163322 -695.8246817804694 -1201.406516628198 -78.29388937256742 0.0 0.0
-1710.4264924177817 -695.8246817819758 -1201.4065166292644 78.29388937272516 0.0 0.0
-1593.7880822021357 -555.4905754206825 -1072.3040826775516 46.724306544821836 0.0 0.0
-1432.5734536894756 -398.19416446972866 -913.0104440215105 29.77365223004975 0.0 0.0
-1334.7399768247956 -317.7933711756734 -824.339827422531 25.538782465745562 0.0 0.0
-1260.4646463204194 -267.7515677404898 -762.339965470187 27.898736616607174 0.0 0.0
-1190.9935058902104 -226.16890651318985 -706.756068133905 30.564254103666638 0.0 0.0
-1122.6847267415405 -188.03375424207687 -653.4151230999383 32.09395967783432 0.0 0.0
-1055.5993259212923 -152.75657412661016 -602.0558185205617 33.1055400991374 0.0 0.0
-988.9994419891591 -119.55474381665032 -551.8806547243587 34.029335527737246 0.0 0.0
-921.5872703520935 -88.43009275656857 -502.19265220474585 34.696987963935356 0.0 0.0
-853.2655890255405 -59.18165201408124 -452.6849551326081 34.59485679636052 0.0 0.0
-784.4694878730706 -33.25651694850982 -403.6162087167023 33.30010542111384 0.0 0.0
-715.8846987746256 -12.53422180620069 -353.86074303692226 31.063803151525907 0.0 0.0
-647.0351866030628 1.7067535273351169 -298.37850144089214 29.16425318052584 0.0 0.0
-573.4200879074623 9.432370744586393 -230.68605675218566 29.622866092291634 0.0 0.0
-487.13120474723996 19.213616010580886 -156.17516214987734 39.24322405350032 0.0 0.0
-372.7755783189387 6.16241806156759 -110.10439761128949 53.71491285885131 0.0 0.0
-241.90907230081334 -0.43948212304504786 -72.70456632715752 60.70053916563422 0.0 0.0
-114.75296605024248 -4.614246805714215 -35.810163856787 51.620786150441845 0.0 0.0
-26.5685545051794 -3.0149567772594814 -8.875053384731663 16.446792028061815 0.0 0.0
-19.637584982649624 2.7125860354987763 -5.077499684145254 -2.377634979837929 0.0 0.0
-110.17295755361891 1.7433216190984488 -32.528890780356136 -20.99309698235711 0.0 0.0
-261.8694649321815 -1.8946820601403296 -79.12924409769653 -24.29997565141976 0.0 0.0
-412.6860947044885 7.9465588435734125 -122.53607229052443 -21.801644339575635 0.0 0.0
-521.5939340337196 16.799330160339856 -177.88821378209494 -13.499823077286909 0.0 0.0
-599.4743319051996 6.7135901659397135 -254.03580517717944 -9.680670829370593 0.0 0.0
-667.399021171374 0.40497240776739574 -314.95830549130324 -9.823730597157315 0.0 0.0
-735.3784497395311 -14.508130338750533 -367.12339491764897 -11.002477832055087 0.0 0.0
-804.9885395883872 -36.64243228914398 -416.58972886382713 -12.436550655184007 0.0 0.0
-876.4928712764261 -64.97345718830232 -467.6745663714122 -13.440705603397577 0.0 0.0
-948.7124698277303 -97.43650498177132 -520.5351295713734 -13.880986293174434 0.0 0.0
-1020.6009285128139 -133.08866520646922 -574.6398092559451 -13.819810357088405 0.0 0.0
-1092.39158330892 -170.59520127560577 -629.5142282713941 -13.590993771284896 0.0 0.0
-1165.3210710988892 -211.00652100262315 -686.3226825148697 -13.222453905303468 0.0 0.0
-1240.5107170176416 -255.79003255131244 -746.3936001913004 -12.46052394460978 0.0 0.0
-1317.1325162778628 -304.7662734041357 -809.2463308145393 -10.886474832743204 0.0 0.0
-1391.6169380206914 -355.55632005825197 -871.8750578837551 -8.171429443250517 0.0 0.0
-1465.0924969685984 -411.156086272471 -936.1699648541789 -7.506510934764722 0.0 0.0
-1572.5623615494983 -510.6695346740989 -1039.085537500261 -22.533251708865965 0.0 0.0
-1908.1738251131255 -862.4170894923004 -1383.5737553428085 -63.79476872083868 0.0 0.0
-1908.1738251139873 -862.4170894931707 -1383.5737553434597 63.79476872080909 0.0 0.0
-1572.562361549833 -510.669534674488 -1039.0855375004878 22.533251708963412 0.0 0.0
-1465.0924969678276 -411.1560862717639 -936.1699648534906 7.5065109347692935 0.0 0.0
-1391.6169380195417 -355.55632005720133 -871.875057882871 8.171429443293853 0.0 0.0
-1317.1325162764394 -304.76627340280834 -809.2463308135646 10.886474832724954 0.0 0.0
-1240.5107170164945 -255.79003255030744 -746.393600190418 12.460523944680473 0.0 0.0
-1165.3210710990409 -211.00652100293723 -686.3226825149299 13.222453905313577 0.0 0.0
-1092.391583308528 -170.59520127539878 -629.5142282710533 13.590993771311624 0.0 0.0
-1020.6009285121661 -133.0886652060336 -574.6398092553906 13.819810357069409 0.0 0.0
-948.7124698272835 -97.43650498156606 -520.5351295710279 13.880986293171638 0.0 0.0
-876.4928712761671 -64.9734571882955 -467.67456637121296 13.440705603365746 0.0 0.0
-804.9885395880913 -36.64243228911379 -416.58972886359743 12.43655065516478 0.0 0.0
-735.3784497393718 -14.508130338882673 -367.1233949175381 11.002477831957567 0.0 0.0
-667.3990211712735 0.4049724075568335 -314.9583054911912 9.823730597261022 0.0 0.0
-599.4743319047401 6.71359016608551 -254.03580517677756 9.68067082934434 0.0 0.0
-521.5939340334609 16.799330160259018 -177.88821378188652 13.499823077216991 0.0 0.0
-412.68609470423655 7.946558843333655 -122.53607229052054 21.801644339586343 0.0 0.0
-261.8694649319063 -1.8946820600468275 -79.12924409758594 24.29997565139841 0.0 0.0
-110.17295755337939 1.7433216193353047 -32.52889078021322 20.993096982288787 0.0 0.0
-19.637584982663636 2.7125860354954403 -5.0774996841504585 2.3776349798913055 0.0 0.0
SCALARS Strain float 6
LOOKUP_TABLE default
0.010589874056577 -0.01166011432119668 0.0 -0.006398087177428874 0.0 0.0
0.0022007050018492385 -0.0012664611533025893 0.0 0.0010741683896171583 0.0 0.0
0.001769241223945433 -0.000723623643893001 0.0 -5.224953817853373e-05 0.0 0.0
0.002175211962145658 -0.0010123896272574706 0.0 -0.00019406315954154096 0.0 0.0
0.003190784510940653 -0.0017957903847145573 0.0 -0.0002363976265650214 0.0 0.0
0.0052691730750438846 -0.00358179925829627 0.0 -0.00034412609686826356 0.0 0.0
0.008563531715564118 -0.006602743454078963 0.0 -0.0005314695870999864 0.0 0.0
0.013256096486166723 -0.011022758621763273 0.0 -0.0008114886236598728 0.0 0.0
0.019438048161946168 -0.016921832608571163 0.0 -0.001194321982268487 0.0 0.0
0.027113781158753007 -0.02429636812806768 0.0 -0.0016489915575409464 0.0 0.0
0.03626647456369472 -0.03313380108364172 0.0 -0.0021190831812558097 0.0 0.0
0.04690122034697468 -0.04344354433494191 0.0 -0.002592622763225083 0.0 0.0
0.059032392841701815 -0.05524460452970592 0.0 -0.0030766629942249324 0.0 0.0
0.07264600195988499 -0.06851921577670872 0.0 -0.0035722429401852662 0.0 0.0
0.0875762185375496 -0.08309629907071114 0.0 -0.004074704175396793 0.0 0.0
0.10334937662975147 -0.09850399296249801 0.0 -0.004494049926354465 0.0 0.0
0.11910958704656928 -0.113897624752485 0.0 -0.004636585915653302 0.0 0.0
0.13365309856582108 -0.12808989205515564 0.0 -0.0042636001026143955 0.0 0.0
0.1455312886130936 -0.13964748632952828 0.0 -0.0034524630829377845 0.0 0.0
0.1528646376553668 -0.14657361887348896 0.0 -0.00335530096400799 0.0 0.0
0.15286463765535785 -0.14657361887347653 0.0 0.0033553009640133746 0.0 0.0
0.14553128861306566 -0.13964748632949808 0.0 0.003452463082954993 0.0 0.0
0.13365309856577423 -0.12808989205511123 0.0 0.004263600102621834 0.0 0.0
0.11910958704650862 -0.11389762475242904 0.0 0.004636585915659297 0.0 0.0
0.1033493766296858 -0.09850399296243673 0.0 0.0044940499263466105 0.0 0.0
0.08757621853748246 -0.0830962990706472 0.0 0.0040747041753956825 0.0 0.0
0.07264600195981638 -0.06851921577664433 0.0 0.0035722429401848776 0.0 0.0
0.05903239284163375 -0.05524460452964508 0.0 0.0030766629942247103 0.0 0.0
0.04690122034691002 -0.04344354433488351 0.0 0.00259262276321931 0.0 0.0
0.03626647456363655 -0.03313380108358799 0.0 0.0021190831812534228 0.0 0.0
0.02711378115870472 -0.024296368128020163 0.0 0.0016489915575358949 0.0 0.0
0.01943804816190836 -0.016921832608534526 0.0 0.0011943219822669326 0.0 0.0
0.013256096486138097 -0.011022758621736628 0.0 0.0008114886236577079 0.0 0.0
0.008563531715544442 -0.006602743454060311 0.0 0.0005314695870987651 0.0 0.0
0.005269173075032024 -0.0035817992582857228 0.0 0.0003441260968668203 0.0 0.0
0.0031907845109353794 -0.0017957903847100054 0.0 0.0002363976265640777 0.0 0.0
0.0021752119621440413 -0.0010123896272561383 0.0 0.00019406315954198505 0.0 0.0
0.0017692412239449506 -0.0007236236438919463 0.0 5.2249538178672505e-05 0.0 0.0
0.002200705001848019 -0.0012664611533006465 0.0 -0.0010741683896154097 0.0 0.0
0.010589874056566778 -0.011660114321183088 0.0 0.006398087177396844 0.0 0.0
0.0074323022012426805 -0.008875300685717624 0.0 -0.007641546345594108 0.0 0.0
0.001212767173618453 -0.0006431726494323664 0.0 0.00014922711948733847 0.0 0.0
0.001517854959811802 -0.0005519804483248292 0.0 -0.00013285699747001 0.0 0.0
0.0019253308153134273 -0.0008603997440543854 0.0 -0.00044458232024321975 0.0 0.0
0.0027339288421893773 -0.001441559681068516 0.0 -0.0005437761958299592 0.0 0.0
0.004511203107140649 -0.002918945972448128 0.0 -0.0008099867975316366 0.0 0.0
0.007455304622510411 -0.005571354533671302 0.0 -0.0012924662354283911 0.0 0.0
0.011700817620581217 -0.009536850244307171 0.0 -0.001972444652034222 0.0 0.0
0.01730235216017794 -0.014859950777693198 0.0 -0.002851635078655712 0.0 0.0
0.024227968238197648 -0.02149846645393705 0.0 -0.003860171187689415 0.0 0.0
0.03243416650057203 -0.029410689177991722 0.0 -0.004893006067444805 0.0 0.0
0.0419271989230999 -0.038606311591635745 0.0 -0.005895142748243931 0.0 0.0
0.052763531089990344 -0.04914002804517548 0.0 -0.006935975581224357 0.0 0.0
0.06496091462860754 -0.061026347158599226 0.0 -0.008048725690385478 0.0 0.0
0.07838287222689949 -0.07412613350163033 0.0 -0.009170790304075832 0.0 0.0
0.09262552833841452 -0.08803690884874849 0.0 -0.01011619171284961 0.0 0.0
0.10694324574467563 -0.10201983090542432 0.0 -0.010486857768676028 0.0 0.0
0.12024985394280882 -0.1149971005029986 0.0 -0.00986421675602206 0.0 0.0
0.1310910429372706 -0.1254959262212445 0.0 -0.008267226683910556 0.0 0.0
0.137598217967672 -0.13174591880587405 0.0 -0.0055545917334743344 0.0 0.0
0.13759821796766336 -0.13174591880586872 0.0 0.005554591733491154 0.0 0.0
0.13109104293724477 -0.1254959262212263 0.0 0.00826722668394142 0.0 0.0
0.1202498539427678 -0.11499710050296041 0.0 0.009864216756041433 0.0 0.0
0.10694324574462305 -0.10201983090537592 0.0 0.010486857768687075 0.0 0.0
0.092625528338356 -0.08803690884868987 0.0 0.010116191712841949 0.0 0.0
0.07838287222683923 -0.07412613350157171 0.0 0.00917079030407364 0.0 0.0
0.0649609146285462 -0.0610263471585375 0.0 0.008048725690384173 0.0 0.0
0.052763531089929594 -0.04914002804511375 0.0 0.006935975581222165 0.0 0.0
0.04192719892304231 -0.038606311591577125 0.0 0.00589514274823727 0.0 0.0
0.03243416650051975 -0.029410689177939764 0.0 0.0048930060674377 0.0 0.0
0.024227968238154096 -0.02149846645389686 0.0 0.0038601711876805056 0.0 0.0
0.017302352160143697 -0.014859950777660114 0.0 0.0028516350786515487 0.0 0.0
0.01170081762055536 -0.009536850244283857 0.0 0.001972444652029448 0.0 0.0
0.00745530462249297 -0.005571354533656203 0.0 0.0012924662354260597 0.0 0.0
0.004511203107130629 -0.0029189459724405786 0.0 0.0008099867975290831 0.0 0.0
0.0027339288421851793 -0.0014415596810648523 0.0 0.0005437761958288767 0.0 0.0
0.0019253308153123205 -0.0008603997440548294 0.0 0.0004445823202428867 0.0 0.0
0.0015178549598114655 -0.0005519804483259394 0.0 0.00013285699747117574 0.0 0.0
0.001212767173618512 -0.0006431726494314227 0.0 -0.00014922711948792133 0.0 0.0
0.007432302201230312 -0.008875300685703537 0.0 0.007641546345569156 0.0 0.0
0.005457875296514779 -0.007040576927896974 0.0 -0.00706049426149552 0.0 0.0
0.0007175491297194206 -0.00041394560130114666 0.0 -0.0005390478125622267 0.0 0.0
0.001217609934977458 -0.00040840100091787956 0.0 -0.0004241971017314716 0.0 0.0
0.0016825812507391472 -0.0007212218231924528 0.0 -0.0006860419582449262 0.0 0.0
0.002329286738090443 -0.0011518890715926933 0.0 -0.0008273639369439922 0.0 0.0
0.0037794869241782256 -0.002300995952465801 0.0 -0.001163230023890488 0.0 0.0
0.006352246470519511 -0.004558678287760687 0.0 -0.0018562644241699455 0.0 0.0
0.010128156177671502 -0.008048962068774923 0.0 -0.002868217870824752 0.0 0.0
0.015129602067088126 -0.012773260371284456 0.0 -0.004142788785495594 0.0 0.0
0.021294053550538164 -0.01866483990960588 0.0 -0.005582484176547303 0.0 0.0
0.02855706200167011 -0.02565583526469295 0.0 -0.007057198066834136 0.0 0.0
0.036920703597362034 -0.03374755999077683 0.0 -0.008491749305809426 0.0 0.0
0.04645390990146806 -0.04300583331040064 0.0 -0.009950305989266495 0.0 0.0
0.05721263156624284 -0.05348239581520575 0.0 -0.011529384898355283 0.0 0.0
0.0691075470393086 -0.06508717115682972 0.0 -0.013159271109901616 0.0 0.0
0.08181184506036615 -0.07749390064957629 0.0 -0.014532781460515232 0.0 0.0
0.0947009131983305 -0.09007981419839206 0.0 -0.0151490670727642 0.0 0.0
0.10679600969532714 -0.10186011051758292 0.0 -0.01446742837832199 0.0 0.0
0.11670195729568587 -0.11146358145650126 0.0 -0.012026969534851606 0.0 0.0
0.12282099413324014 -0.11736900148784457 0.0 -0.007188669324331098 0.0 0.0
0.12282099413323203 -0.11736900148783747 0.0 0.007188669324357688 0.0 0.0
0.11670195729566238 -0.11146358145647595 0.0 0.012026969534893905 0.0 0.0
0.1067960096952911 -0.10186011051754473 0.0 0.014467428378352798 0.0 0.0
0.0947009131982845 -0.09007981419835032 0.0 0.01514906707277841 0.0 0.0
0.08181184506031491 -0.07749390064952966 0.0 0.014532781460508848 0.0 0.0
0.0691075470392552 -0.06508717115677776 0.0 0.013159271109899007 0.0 0.0
0.057212631566188665 -0.053482395815155126 0.0 0.011529384898353534 0.0 0.0
0.046453909901414486 -0.043005833310348685 0.0 0.009950305989263608 0.0 0.0
0.036920703597311144 -0.03374755999072554 0.0 0.008491749305798157 0.0 0.0
0.028557062001624278 -0.025655835264646543 0.0 0.007057198066823089 0.0 0.0
0.021294053550499542 -0.018664839909568576 0.0 0.00558248417653362 0.0 0.0
0.015129602067057324 -0.012773260371255812 0.0 0.004142788785486962 0.0 0.0
0.010128156177648562 -0.008048962068752497 0.0 0.0028682178708169803 0.0 0.0
0.006352246470504225 -0.004558678287745366 0.0 0.0018562644241657544 0.0 0.0
0.0037794869241700446 -0.002300995952460805 0.0 0.0011632300238866855 0.0 0.0
0.0023292867380876048 -0.001151889071591472 0.0 0.0008273639369430486 0.0 0.0
0.0016825812507383076 -0.0007212218231911205 0.0 0.0006860419582440103 0.0 0.0
0.001217609934977465 -0.0004084010009166028 0.0 0.000424197101730972 0.0 0.0
0.0007175491297195524 -0.0004139456012994258 0.0 0.000539047812560367 0.0 0.0
0.005457875296503378 -0.007040576927883839 0.0 0.007060494261475342 0.0 0.0
0.004088878402888928 -0.005661855286850009 0.0 -0.005989732978588347 0.0 0.0
0.00045099218431439436 -0.0003098718337182227 0.0 -0.0011220087009563284 0.0 0.0
0.0009432135764240249 -0.0002968863650856246 0.0 -0.0008071669510056334 0.0 0.0
0.0014347159327123132 -0.000589639108569906 0.0 -0.0009503675688418423 0.0 0.0
0.001971414364441565 -0.0009240325168773378 0.0 -0.0011060571296514499 0.0 0.0
0.0031074973765504235 -0.0017658939617681835 0.0 -0.0014333140889752627 0.0 0.0
0.005262101690184269 -0.0035887406490662244 0.0 -0.00223149128342251 0.0 0.0
0.008554529377796716 -0.006575428333186251 0.0 -0.003492952616173689 0.0 0.0
0.012937841104554135 -0.010683959168874102 0.0 -0.005059642227851213 0.0 0.0
0.01833223300645525 -0.01581825078756749 0.0 -0.006817185560308497 0.0 0.0
0.02465343507180264 -0.021888024220308333 0.0 -0.008608398393512018 0.0 0.0
0.03189408783989012 -0.028880979213754987 0.0 -0.010358451719291173 0.0 0.0
0.04012846001176043 -0.036868334171987094 0.0 -0.012148133687706009 0.0 0.0
0.04943692072422128 -0.04592337425886983 0.0 -0.014043073656203942 0.0 0.0
0.059781733265701284 -0.05601055625647877 0.0 -0.015993148500114074 0.0 0.0
0.07092737731238544 -0.06689411701728876 0.0 -0.017710116382538332 0.0 0.0
0.08237141793134552 -0.07806551693400587 0.0 -0.018605685445198306 0.0 0.0
0.09326653565110808 -0.08867640751809835 0.0 -0.01794675119476541 0.0 0.0
0.10238711330431491 -0.09752626645523055 0.0 -0.014894495444328415 0.0 0.0
0.1083239275456991 -0.10326920545227258 0.0 -0.008537119447677877 0.0 0.0
0.10832392754569144 -0.10326920545226281 0.0 0.008537119447714736 0.0 0.0
0.1023871133042937 -0.09752626645520479 0.0 0.01489449544437782 0.0 0.0
0.09326653565107648 -0.08867640751806549 0.0 0.017946751194798494 0.0 0.0
0.08237141793130492 -0.07806551693396413 0.0 0.01860568544521246 0.0 0.0
0.07092737731234144 -0.06689411701724568 0.0 0.017710116382532615 0.0 0.0
0.05978173326565461 -0.05601055625642992 0.0 0.015993148500109355 0.0 0.0
0.04943692072417419 -0.04592337425882098 0.0 0.014043073656198835 0.0 0.0
0.04012846001171416 -0.03686833417194313 0.0 0.01214813368770018 0.0 0.0
0.031894087839845875 -0.028880979213714353 0.0 0.01035845171927674 0.0 0.0
0.024653435071763458 -0.02188802422026881 0.0 0.008608398393499195 0.0 0.0
0.018332233006421533 -0.015818250787539068 0.0 0.006817185560292427 0.0 0.0
0.01293784110452717 -0.010683959168850787 0.0 0.005059642227840999 0.0 0.0
0.008554529377776898 -0.006575428333169819 0.0 0.003492952616165834 0.0 0.0
0.005262101690171356 -0.0035887406490557883 0.0 0.0022314912834174305 0.0 0.0
0.0031074973765441716 -0.0017658939617644087 0.0 0.0014333140889705165 0.0 0.0
0.0019714143644395943 -0.0009240325168763386 0.0 0.0011060571296491184 0.0 0.0
0.001434715932711661 -0.000589639108570239 0.0 0.0009503675688389002 0.0 0.0
0.000943213576424129 -0.00029688636508640176 0.0 0.0008071669510031354 0.0 0.0
0.000450992184314436 -0.00030987183371739 0.0 0.001122008700952748 0.0 0.0
0.004088878402878943 -0.005661855286838692 0.0 0.005989732978571888 0.0 0.0
0.0030588499886078924 -0.004544110643945692 0.0 -0.004904038191466148 0.0 0.0
0.00030081838816944234 -0.00025903190330106574 0.0 -0.0015751536604788063 0.0 0.0
0.0007116052614536336 -0.0002145369868225 0.0 -0.0011945663757544078 0.0 0.0
0.0011829919754029125 -0.00046833204504237447 0.0 -0.0012367783729846371 0.0 0.0
0.0016467680038980415 -0.0007403223100153067 0.0 -0.0013793768391052175 0.0 0.0
0.002510112053859627 -0.0013273557556916504 0.0 -0.001677280712755802 0.0 0.0
0.004222327112120859 -0.0026971149649597237 0.0 -0.00244037659103144 0.0 0.0
0.006988830420608293 -0.005134974895016242 0.0 -0.0038062747110609307 0.0 0.0
0.010745600935727295 -0.008613367458783827 0.0 -0.005593472591536114 0.0 0.0
0.015361376956230743 -0.012980150791498613 0.0 -0.007555603713639142 0.0 0.0
0.02074201014276731 -0.018127912999983176 0.0 -0.009551114324006404 0.0 0.0
0.02686555318444682 -0.024028028593233497 0.0 -0.011495931921992608 0.0 0.0
0.03380567237480367 -0.03074732583861195 0.0 -0.01347374895968495 0.0 0.0
0.04166240911400311 -0.038381390162308904 0.0 -0.015582254787404826 0.0 0.0
0.05044564159543452 -0.046938882584267816 0.0 -0.017732563990661643 0.0 0.0
0.05999967415699596 -0.056263585382199555 0.0 -0.019626499738636616 0.0 0.0
0.06995210524003416 -0.06598093253718806 0.0 -0.020755501177973312 0.0 0.0
0.07964752164485299 -0.07542871632619352 0.0 -0.02026173771362033 0.0 0.0
0.08807402276341438 -0.083612393173496 0.0 -0.016961230327799004 0.0 0.0
0.09396398421788445 -0.08931607115306539 0.0 -0.00968064545122893 0.0 0.0
0.0939639842178774 -0.0893160711530605 0.0 0.009680645451268233 0.0 0.0
0.08807402276339549 -0.08361239317347824 0.0 0.01696123032784913 0.0 0.0
0.07964752164482553 -0.07542871632616466 0.0 0.020261737713657246 0.0 0.0
0.06995210523999953 -0.06598093253715565 0.0 0.020755501177991076 0.0 0.0
0.05999967415695831 -0.05626358538216669 0.0 0.019626499738629843 0.0 0.0
0.05044564159539422 -0.046938882584231845 0.0 0.01773256399065526 0.0 0.0
0.04166240911396338 -0.038381390162271156 0.0 0.015582254787396943 0.0 0.0
0.0338056723747647 -0.030747325838576867 0.0 0.013473748959678344 0.0 0.0
0.02686555318440975 -0.024028028593202633 0.0 0.011495931921978897 0.0 0.0
0.020742010142734274 -0.0181279129999512 0.0 0.009551114323992915 0.0 0.0
0.015361376956202044 -0.012980150791472411 0.0 0.00755560371361963 0.0 0.0
0.010745600935704647 -0.008613367458762733 0.0 0.0055934725915252614 0.0 0.0
0.0069888304205915075 -0.005134974894999145 0.0 0.0038062747110525486 0.0 0.0
0.0042223271121107075 -0.0026971149649475112 0.0 0.0024403765910269715 0.0 0.0
0.0025101120538547628 -0.0013273557556854332 0.0 0.0016772807127520273 0.0 0.0
0.0016467680038967092 -0.0007403223100144185 0.0 0.001379376839104024 0.0 0.0
0.0011829919754023366 -0.0004683320450425965 0.0 0.0012367783729835546 0.0 0.0
0.0007116052614536128 -0.00021453698682266653 0.0 0.0011945663757512437 0.0 0.0
0.0003008183881694493 -0.00025903190329967796 0.0 0.0015751536604749483 0.0 0.0
0.003058849988599649 -0.004544110643936124 0.0 0.004904038191452825 0.0 0.0
0.0022586767199267582 -0.003614102782090567 0.0 -0.003961233862045832 0.0 0.0
0.0002078593686941077 -0.000229875028123383 0.0 -0.0019110528519557801 0.0 0.0
0.0005159201218245951 -0.0001517176066043735 0.0 -0.0015393953286617912 0.0 0.0
0.0009310878572046238 -0.0003534867739383163 0.0 -0.0015194490415790796 0.0 0.0
0.001341591033046416 -0.0005835388142200193 0.0 -0.0016447350221058532 0.0 0.0
0.0019780290794201433 -0.0009817169616221921 0.0 -0.0019125718210056541 0.0 0.0
0.00327131345105329 -0.0019341789114133423 0.0 -0.0025900093061089757 0.0 0.0
0.005466014474912156 -0.0037809879010712866 0.0 -0.0038779789428305955 0.0 0.0
0.008566210348179393 -0.006583257170728052 0.0 -0.005708246340248746 0.0 0.0
0.012401228729245845 -0.010174668695601241 0.0 -0.007782973041836061 0.0 0.0
0.016840023693154363 -0.014398546264625889 0.0 -0.00986466407962111 0.0 0.0
0.02185430405745238 -0.01921107229583674 0.0 -0.011890892156792732 0.0 0.0
0.027509163504659595 -0.02467102935948562 0.0 -0.01394329473664957 0.0 0.0
0.03391447668429322 -0.03088373647704712 0.0 -0.016102317458178084 0.0 0.0
0.041127930294215256 -0.03790283180689347 0.0 -0.018318386141434717 0.0 0.0
0.049063480851245345 -0.04564280634228046 0.0 -0.02031288079171617 0.0 0.0
0.057466492808592964 -0.05384997479624154 0.0 -0.021575602220883616 0.0 0.0
0.06591142550564048 -0.0620910016148688 0.0 -0.02131575823327292 0.0 0.0
0.07366793319847102 -0.06963409969464918 0.0 -0.018191470773063878 0.0 0.0
0.07960780473442605 -0.07538713545212339 0.0 -0.01063914683346634 0.0 0.0
0.07960780473441971 -0.07538713545211628 0.0 0.010639146833505364 0.0 0.0
0.07366793319845512 -0.06963409969463097 0.0 0.018191470773114782 0.0 0.0
0.06591142550561704 -0.062091001614843044 0.0 0.02131575823331 0.0 0.0
0.05746649280856428 -0.05384997479621356 0.0 0.02157560222089816 0.0 0.0
0.04906348085121395 -0.04564280634225071 0.0 0.020312880791709342 0.0 0.0
0.0411279302941813 -0.03790283180685661 0.0 0.018318386141428 0.0 0.0
0.03391447668426106 -0.030883736477012924 0.0 0.016102317458170923 0.0 0.0
0.027509163504628537 -0.024671029359452312 0.0 0.01394329473664424 0.0 0.0
0.021854304057422475 -0.01921107229580854 0.0 0.01189089215678113 0.0 0.0
0.016840023693127176 -0.014398546264598577 0.0 0.009864664079606456 0.0 0.0
0.012401228729222141 -0.01017466869557837 0.0 0.0077829730418160215 0.0 0.0
0.00856621034816124 -0.006583257170709622 0.0 0.005708246340236145 0.0 0.0
0.005466014474899111 -0.0037809879010604064 0.0 0.003877978942822491 0.0 0.0
0.003271313451045532 -0.0019341789114102337 0.0 0.002590009306105978 0.0 0.0
0.00197802907941666 -0.0009817169616236354 0.0 0.0019125718210008247 0.0 0.0
0.001341591033045736 -0.0005835388142190201 0.0 0.0016447350221040768 0.0 0.0
0.0009310878572038606 -0.00035348677393820527 0.0 0.0015194490415766648 0.0 0.0
0.0005159201218245257 -0.00015171760660454003 0.0 0.0015393953286588768 0.0 0.0
0.00020785936869396893 -0.00022987502812235605 0.0 0.0019110528519532821 0.0 0.0
0.002258676719920333 -0.003614102782082544 0.0 0.003961233862036728 0.0 0.0
0.0016326043048530137 -0.0028339305733603437 0.0 -0.0031884169841364662 0.0 0.0
0.00014070824246198432 -0.00021136622054285237 0.0 -0.0021452288043474488 0.0 0.0
0.0003439507719581181 -9.862853382458514e-05 0.0 -0.0018218532377896057 0.0 0.0
0.000682912253655632 -0.00024164806570137198 0.0 -0.00177745665993162 0.0 0.0
0.0010394036688045616 -0.00044127838020757704 0.0 -0.0019028569322764033 0.0 0.0
0.0015042731396752995 -0.0007060291897227344 0.0 -0.002124923921937305 0.0 0.0
0.002412328906771802 -0.0013051358055513607 0.0 -0.0026735778067312754 0.0 0.0
0.004038608611790645 -0.0025737117359976303 0.0 -0.003784302545661533 0.0 0.0
0.006434171711653711 -0.004650711369607929 0.0 -0.005445838099623401 0.0 0.0
0.009468142309959834 -0.00743047909892236 0.0 -0.007457289222738417 0.0 0.0
0.012964496284186666 -0.010725584651013031 0.0 -0.009532053600544543 0.0 0.0
0.016878349078673652 -0.014456465457093781 0.0 -0.011527877673055076 0.0 0.0
0.021260486424989886 -0.018668494326433027 0.0 -0.01352396967108338 0.0 0.0
0.026223764021846355 -0.023468151189735664 0.0 -0.015613464347786155 0.0 0.0
0.03185606931139694 -0.0289404798580839 0.0 -0.017752517210424756 0.0 0.0
0.03814853331147995 -0.035066864905190176 0.0 -0.019692800910271813 0.0 0.0
0.04494605574707751 -0.04170722043715269 0.0 -0.021021636186311476 0.0 0.0
0.05204311484170625 -0.04865269053774535 0.0 -0.021076327943790385 0.0 0.0
0.05906524655524441 -0.055499869079094655 0.0 -0.018521204372684508 0.0 0.0
0.06510995802761017 -0.06135070057826697 0.0 -0.011399421661353049 0.0 0.0
0.06510995802760515 -0.061350700578258976 0.0 0.01139942166138963 0.0 0.0
0.0590652465552315 -0.055499869079079556 0.0 0.018521204372734856 0.0 0.0
0.05204311484168686 -0.04865269053772714 0.0 0.02107632794382719 0.0 0.0
0.04494605574705468 -0.04170722043713537 0.0 0.02102163618632602 0.0 0.0
0.03814853331145471 -0.03506686490516797 0.0 0.019692800910265484 0.0 0.0
0.031856069311370167 -0.028940479858060808 0.0 0.017752517210415153 0.0 0.0
0.026223764021821666 -0.02346815118971568 0.0 0.015613464347781991 0.0 0.0
0.021260486424966613 -0.01866849432641393 0.0 0.013523969671079272 0.0 0.0
0.016878349078650406 -0.014456465457073131 0.0 0.01152787767304242 0.0 0.0
0.012964496284165156 -0.01072558465099549 0.0 0.009532053600528001 0.0 0.0
0.009468142309941557 -0.007430479098906373 0.0 0.007457289222718488 0.0 0.0
0.006434171711639958 -0.004650711369593941 0.0 0.0054458380996123545 0.0 0.0
0.004038608611781597 -0.0025737117359885264 0.0 0.003784302545653706 0.0 0.0
0.0024123289067662923 -0.00130513580554803 0.0 0.002673577806726779 0.0 0.0
0.001504273139673079 -0.0007060291897230675 0.0 0.002124923921934224 0.0 0.0
0.0010394036688038955 -0.0004412783802070219 0.0 0.0019028569322740996 0.0 0.0
0.0006829122536553545 -0.00024164806570103892 0.0 0.0017774566599288721 0.0 0.0
0.00034395077195795154 -9.862853382464065e-05 0.0 0.0018218532377873853 0.0 0.0
0.00014070824246165126 -0.000211366220542214 0.0 0.0021452288043445067 0.0 0.0
0.0016326043048485728 -0.0028339305733545792 0.0 0.0031884169841297494 0.0 0.0
0.001153426203939753 -0.0021970402058730243 0.0 -0.002592456648532082 0.0 0.0
7.73564257482845e-05 -0.00019565987108133287 0.0 -0.0022818439510670085 0.0 0.0
0.00018587586752040475 -4.736644622294062e-05 0.0 -0.0020417712442887814 0.0 0.0
0.00044133229976321686 -0.00013316934107099332 0.0 -0.001993889076998212 0.0 0.0
0.0007292043028868378 -0.0002983348557360488 0.0 -0.0021260327299740533 0.0 0.0
0.0010694351061552865 -0.0004852040406966296 0.0 -0.002349071338164671 0.0 0.0
0.001649144173719544 -0.0008177304844543265 0.0 -0.002750975694418567 0.0 0.0
0.002731182383441305 -0.001556464672394231 0.0 -0.0035723631594884453 0.0 0.0
0.0044057055099234604 -0.002897016413525355 0.0 -0.004905417976162119 0.0 0.0
0.0065950189950126775 -0.004814342000486693 0.0 -0.006621869896801136 0.0 0.0
0.009136063071504136 -0.007151590712101585 0.0 -0.008500230560091915 0.0 0.0
0.011953488211420962 -0.009801755295684611 0.0 -0.010352085288549417 0.0 0.0
0.015079772385923423 -0.012778302109537343 0.0 -0.012193906724665249 0.0 0.0
0.018613577840265877 -0.016176039087559158 0.0 -0.014080622947041266 0.0 0.0
0.022662838226510995 -0.020097140713700945 0.0 -0.01600718864600048 0.0 0.0
0.027283731744850936 -0.024588027300390003 0.0 -0.017789151512010548 0.0 0.0
0.032430581803653075 -0.029603329758592256 0.0 -0.019033752566214368 0.0 0.0
0.038047705708479415 -0.035121082531428094 0.0 -0.019346768447602858 0.0 0.0
0.04415763634871954 -0.04112393222622002 0.0 -0.017763896919721522 0.0 0.0
0.05029716361975678 -0.047064438703410705 0.0 -0.011916455329434361 0.0 0.0
0.05029716361975406 -0.047064438703408484 0.0 0.011916455329465836 0.0 0.0
0.044157636348709825 -0.04112393222621602 0.0 0.017763896919768207 0.0 0.0
0.038047705708464746 -0.03512108253141433 0.0 0.01934676844763661 0.0 0.0
0.03243058180363595 -0.0296033297585776 0.0 0.019033752566225304 0.0 0.0
0.027283731744832118 -0.024588027300371795 0.0 0.017789151512004886 0.0 0.0
0.02266283822649201 -0.020097140713681405 0.0 0.016007188645991155 0.0 0.0
0.01861357784024875 -0.016176039087541838 0.0 0.014080622947035826 0.0 0.0
0.01507977238590738 -0.012778302109521356 0.0 0.012193906724659032 0.0 0.0
0.0119534882114051 -0.0098017552956704 0.0 0.01035208528853726 0.0 0.0
0.009136063071488842 -0.007151590712088263 0.0 0.008500230560080091 0.0 0.0
0.006595018994999952 -0.004814342000474703 0.0 0.0066218698967868694 0.0 0.0
0.004405705509914176 -0.0028970164135175835 0.0 0.004905417976154569 0.0 0.0
0.002731182383435393 -0.001556464672389568 0.0 0.0035723631594833383 0.0 0.0
0.0016491441737163104 -0.0008177304844527722 0.0 0.0027509756944152364 0.0 0.0
0.0010694351061538432 -0.0004852040406957414 0.0 0.002349071338163089 0.0 0.0
0.0007292043028861162 -0.0002983348557344945 0.0 0.0021260327299731097 0.0 0.0
0.0004413322997630642 -0.00013316934106999412 0.0 0.0019938890769957973 0.0 0.0
0.00018587586751994678 -4.7366446221885905e-05 0.0 0.0020417712442858393 0.0 0.0
7.735642574804857e-05 -0.0001956598710812496 0.0 0.0022818439510653155 0.0 0.0
0.0011534262039367693 -0.0021970402058692252 0.0 0.0025924566485276135 0.0 0.0
0.0008071746273583535 -0.0017108971891419134 0.0 -0.0021821010905971605 0.0 0.0
6.501460293087402e-06 -0.00018121480304433835 0.0 -0.00235833471836161 0.0 0.0
3.601638277345165e-05 7.289478891170376e-06 0.0 -0.0022002894056238897 0.0 0.0
0.00020740832053463276 -2.9515523842560398e-05 0.0 -0.002161542698400798 0.0 0.0
0.00041185671620472264 -0.00014909379998306882 0.0 -0.002290303831012419 0.0 0.0
0.0006391427727959198 -0.00028231721804394816 0.0 -0.0025479322716038533 0.0 0.0
0.0009702560339107658 -0.00045481749653308867 0.0 -0.002882302410350368 0.0 0.0
0.0015607994878079484 -0.0007798595835342148 0.0 -0.003375188670746654 0.0 0.0
0.0025276124451325127 -0.0014233231950109282 0.0 -0.0042021572042901245 0.0 0.0
0.003838657881385571 -0.0024501622244654797 0.0 -0.005389890917500473 0.0 0.0
0.005392409157768299 -0.0037843395855399198 0.0 -0.006829295952033465 0.0 0.0
0.007097816182328798 -0.005329133689182974 0.0 -0.008356496753444131 0.0 0.0
0.00897868018017707 -0.0070724900587118 0.0 -0.009943215485643475 0.0 0.0
0.01110362902442838 -0.009081858490022299 0.0 -0.011551409042021177 0.0 0.0
0.013568891945667363 -0.011449584978748817 0.0 -0.013173677339264667 0.0 0.0
0.01648752374859172 -0.01427563639175533 0.0 -0.014724131233750604 0.0 0.0
0.019945738829155346 -0.01762935922861919 0.0 -0.01589700307325237 0.0 0.0
0.023999774691137954 -0.021590649920230298 0.0 -0.016277719533991042 0.0 0.0
0.0288767648263287 -0.02646467146551057 0.0 -0.015633426004887097 0.0 0.0
0.03492631369191514 -0.03234729721667451 0.0 -0.012001106077015378 0.0 0.0
0.034926313691914276 -0.03234729721667362 0.0 0.012001106077043022 0.0 0.0
0.028876764826322662 -0.02646467146550835 0.0 0.01563342600492723 0.0 0.0
0.023999774691127712 -0.02159064992022186 0.0 0.016277719534019963 0.0 0.0
0.019945738829144535 -0.01762935922860942 0.0 0.01589700307325781 0.0 0.0
0.016487523748580396 -0.014275636391742452 0.0 0.014724131233741722 0.0 0.0
0.013568891945656109 -0.011449584978739491 0.0 0.013173677339255008 0.0 0.0
0.01110362902441886 -0.009081858490016081 0.0 0.011551409042017902 0.0 0.0
0.008978680180168536 -0.00707249005870203 0.0 0.009943215485641366 0.0 0.0
0.007097816182320332 -0.005329133689174981 0.0 0.008356496753436415 0.0 0.0
0.005392409157759626 -0.0037843395855330364 0.0 0.006829295952021419 0.0 0.0
0.0038386578813783268 -0.0024501622244601506 0.0 0.005389890917487372 0.0 0.0
0.002527612445127836 -0.0014233231950075975 0.0 0.0042021572042849065 0.0 0.0
0.0015607994878047982 -0.0007798595835326605 0.0 0.003375188670743101 0.0 0.0
0.0009702560339091559 -0.00045481749653308867 0.0 0.0028823024103475925 0.0 0.0
0.0006391427727951982 -0.0002823172180442812 0.0 0.002547932271598552 0.0 0.0
0.00041185671620433406 -0.00014909379998384598 0.0 0.002290303831009144 0.0 0.0
0.0002074083205344246 -2.951552384267142e-05 0.0 0.0021615426983972175 0.0 0.0
3.6016382773174094e-05 7.28947889089282e-06 0.0 0.002200289405621114 0.0 0.0
6.50146029285148e-06 -0.00018121480304414406 0.0 0.0023583347183601666 0.0 0.0
0.0008071746273563551 -0.0017108971891391551 0.0 0.0021821010905935245 0.0 0.0
0.0005652444961062458 -0.0013491705210607052 0.0 -0.0019097848842363208 0.0 0.0
-6.59933252349365e-05 -0.0001679757984321406 0.0 -0.0024019139166326364 0.0 0.0
-0.00010813227363691558 6.470500783195554e-05 0.0 -0.00230307820456635 0.0 0.0
-1.9138306864549537e-05 7.021885315638965e-05 0.0 -0.002273292751339945 0.0 0.0
9.34472337082437e-05 1.332819475563518e-06 0.0 -0.002389552406935669 0.0 0.0
0.00019848799218545599 -7.428966742484278e-05 0.0 -0.002662843162546502 0.0 0.0
0.0003204425924773491 -0.00014628129007920876 0.0 -0.0030404887679982284 0.0 0.0
0.0005057262233705978 -0.00023950162408703513 0.0 -0.0034168786792268535 0.0 0.0
0.0008160097149151196 -0.00039273766610459226 0.0 -0.0038148629459156536 0.0 0.0
0.0012488906311347026 -0.0006357781090946535 0.0 -0.004365181032350285 0.0 0.0
0.001773884640965423 -0.0009738600621511662 0.0 -0.005192856021299208 0.0 0.0
0.0023411887463981457 -0.0013817379260161466 0.0 -0.006232793739461395 0.0 0.0
0.0029622001559697353 -0.001862621500751338 0.0 -0.007454337244920395 0.0 0.0
0.0036700018643924387 -0.0024644128570141532 0.0 -0.008851499467103341 0.0 0.0
0.004541028832674682 -0.003255453599958713 0.0 -0.010411597059688471 0.0 0.0
0.005730776376306951 -0.00437003142357506 0.0 -0.012020726542606608 0.0 0.0
0.007471650552322476 -0.006016119697495714 0.0 -0.013342941818427823 0.0 0.0
0.009985333497220014 -0.008395720023821607 0.0 -0.013813278626418957 0.0 0.0
0.0134447032001766 -0.011801000647751358 0.0 -0.013200968940660696 0.0 0.0
0.018730142564002475 -0.017156834935027288 0.0 -0.011736166559307426 0.0 0.0
0.01873014256400328 -0.017156834935022403 0.0 0.011736166559328798 0.0 0.0
0.013444703200173963 -0.011801000647742033 0.0 0.01320096894069267 0.0 0.0
0.009985333497214269 -0.008395720023816722 0.0 0.013813278626439718 0.0 0.0
0.007471650552318854 -0.00601611969749527 0.0 0.013342941818427767 0.0 0.0
0.005730776376303995 -0.004370031423576393 0.0 0.01202072654259706 0.0 0.0
0.004541028832671629 -0.003255453599958713 0.0 0.0104115970596797 0.0 0.0
0.0036700018643907317 -0.0024644128570159296 0.0 0.008851499467100954 0.0 0.0
0.0029622001559686667 -0.0018626215007522262 0.0 0.007454337244917231 0.0 0.0
0.002341188746396869 -0.0013817379260161466 0.0 0.006232793739452791 0.0 0.0
0.0017738846409636327 -0.0009738600621531646 0.0 0.005192856021289882 0.0 0.0
0.0012488906311334536 -0.0006357781090928771 0.0 0.004365181032342569 0.0 0.0
0.000816009714914509 -0.00039273766610015137 0.0 0.0038148629459135996 0.0 0.0
0.0005057262233699455 -0.0002395016240843706 0.0 0.0034168786792249106 0.0 0.0
0.00032044259247700213 -0.00014628129007654422 0.0 0.003040488767995786 0.0 0.0
0.00019848799218524782 -7.428966742273335e-05 0.0 0.00266284316254245 0.0 0.0
9.344723370827146e-05 1.3328194775619195e-06 0.0 0.002389552406933504 0.0 0.0
-1.9138306864369126e-05 7.021885315705578e-05 0.0 0.002273292751338224 0.0 0.0
-0.00010813227363697109 6.470500783334332e-05 0.0 0.00230307820456474 0.0 0.0
-6.599332523499202e-05 -0.00016797579843225163 0.0 0.002401913916631554 0.0 0.0
0.0005652444961051772 -0.0013491705210591665 0.0 0.0019097848842347664 0.0 0.0
0.00039711633888733777 -0.0010829711203932946 0.0 -0.001726722396067415 0.0 0.0
-0.00013272534243027878 -0.0001462912072314193 0.0 -0.0024006759976041847 0.0 0.0
-0.0002459474173081011 0.0001200329113683063 0.0 -0.0023554070502063706 0.0 0.0
-0.00023851773188882097 0.0001665458297999134 0.0 -0.0023263595945798854 0.0 0.0
-0.0002215542656420766 0.00014929309278277625 0.0 -0.0024229525447717892 0.0 0.0
-0.00024569081780029256 0.00013650441594847962 0.0 -0.002676576107659784 0.0 0.0
-0.0003335585535530483 0.00016218013892044247 0.0 -0.003044649927948284 0.0 0.0
-0.0005076114105821428 0.00024187770343098158 0.0 -0.0034197320865598235 0.0 0.0
-0.0008147063509674479 0.00039228629742482646 0.0 -0.0038157593168120507 0.0 0.0
-0.0012471819596111267 0.0006346538423045445 0.0 -0.0043633761759365175 0.0 0.0
-0.0017745515783110233 0.0009762560882007332 0.0 -0.005188987603757134 0.0 0.0
-0.0023580831784590084 0.001398938356953039 0.0 -0.00623235708468628 0.0 0.0
-0.0030115058815838036 0.001905649923881203 0.0 -0.007457750009421116 0.0 0.0
-0.0037381703922148846 0.002507963054779516 0.0 -0.008856892337242017 0.0 0.0
-0.004472020568809645 0.0031361923174242357 0.0 -0.010431957017722593 0.0 0.0
-0.005031939797708496 0.0036109200743288383 0.0 -0.012147885577956097 0.0 0.0
-0.005082557552466671 0.0036287832166648215 0.0 -0.013976146866104822 0.0 0.0
-0.0042428848503298505 0.002928491707347103 0.0 -0.01591960297609779 0.0 0.0
-0.002214000411715253 0.0014108805333528096 0.0 -0.01759518705997043 0.0 0.0
0.0026513407141401935 -0.003097645347958533 0.0 -0.015816913467340044 0.0 0.0
0.0026513407141404433 -0.003097645347957645 0.0 0.01581691346735603 0.0 0.0
-0.002214000411715558 0.0014108805333554741 0.0 0.017595187059983697 0.0 0.0
-0.004242884850329601 0.0029284917073506556 0.0 0.0159196029761024 0.0 0.0
-0.005082557552461162 0.0036287832166639333 0.0 0.013976146866099326 0.0 0.0
-0.00503193979770282 0.003610920074326174 0.0 0.012147885577944328 0.0 0.0
-0.004472020568804247 0.003136192317421127 0.0 0.010431957017712934 0.0 0.0
-0.0037381703922093334 0.002507963054773743 0.0 0.008856892337236966 0.0 0.0
-0.0030115058815774476 0.0019056499238696567 0.0 0.007457750009416342 0.0 0.0
-0.002358083178452333 0.0013989383569457114 0.0 0.006232357084679119 0.0 0.0
-0.0017745515783055832 0.0009762560881985127 0.0 0.005188987603748474 0.0 0.0
-0.001247181959606214 0.0006346538423038783 0.0 0.0043633761759293566 0.0 0.0
-0.0008147063509645475 0.00039228629742371623 0.0 0.0038157593168111625 0.0 0.0
-0.0005076114105805191 0.00024187770342964932 0.0 0.0034197320865588243 0.0 0.0
-0.0003335585535521185 0.00016218013891799998 0.0 0.00304464992794512 0.0 0.0
-0.00024569081779991786 0.00013650441594770246 0.0 0.0026765761076559536 0.0 0.0
-0.00022155426564160474 0.00014929309278277625 0.0 0.0024229525447695965 0.0 0.0
-0.00023851773188865444 0.00016654582980069055 0.0 0.002326359594578664 0.0 0.0
-0.00024594741730801783 0.00012003291136941652 0.0 0.002355407050204983 0.0 0.0
-0.00013272534243014 -0.00014629120723125277 0.0 0.0024006759976035186 0.0 0.0
0.00039711633888678266 -0.0010829711203924012 0.0 0.001726722396064917 0.0 0.0
0.00027920596522898466 -0.0008638819280967214 0.0 -0.0015583738147431636 0.0 0.0
-0.0001929518698300381 -0.00011628297512938923 0.0 -0.002348886300400782 0.0 0.0
-0.00037597625496318954 0.0001722416696454676 0.0 -0.002354681811821746 0.0 0.0
-0.0004501944757965004 0.0002583129435054232 0.0 -0.002318452686378092 0.0 0.0
-0.0005301527469488976 0.000292712190572475 0.0 -0.002386178073193662 0.0 0.0
-0.0006833519824854251 0.0003425712447406859 0.0 -0.002595484779007201 0.0 0.0
-0.0009827035474310186 0.00047051318777135975 0.0 -0.002900275952886222 0.0 0.0
-0.0015621581148434482 0.0007821338474993667 0.0 -0.0033818133563943142 0.0 0.0
-0.0025253711092413367 0.0014218550573836808 0.0 -0.004202316128950112 0.0 0.0
-0.00383653766495734 0.0024489206434541444 0.0 -0.005387309519037542 0.0 0.0
-0.005394277133696224 0.0037887906780984526 0.0 -0.006827468150003291 0.0 0.0
-0.00711467799591467 0.00534984384685977 0.0 -0.008349274126557338 0.0 0.0
-0.009024991450598818 0.007119667264805951 0.0 -0.009915852201028086 0.0 0.0
-0.011166114083970002 0.00912794975798592 0.0 -0.011517404811465792 0.0 0.0
-0.013500419767340316 0.011327332628892961 0.0 -0.013238379997374539 0.0 0.0
-0.015827757759737826 0.013517335116570273 0.0 -0.015180903274833124 0.0 0.0
-0.0177513773436411 0.01531754474565128 0.0 -0.017413143128460484 0.0 0.0
-0.01873269569308167 0.01621505020327252 0.0 -0.019837257364382244 0.0 0.0
-0.017839888442792107 0.015046402432685735 0.0 -0.0208727128483836 0.0 0.0
-0.012649585012528802 0.009670597677216008 0.0 -0.01846737115449726 0.0 0.0
-0.012649585012530162 0.009670597677214232 0.0 0.01846737115452446 0.0 0.0
-0.01783988844279001 0.015046402432676853 0.0 0.02087271284841441 0.0 0.0
-0.01873269569307459 0.016215050203260084 0.0 0.01983725736440256 0.0 0.0
-0.017751377343627583 0.01531754474563618 0.0 0.01741314312846154 0.0 0.0
-0.015827757759723254 0.01351733511655695 0.0 0.015180903274819746 0.0 0.0
-0.013500419767326743 0.011327332628881415 0.0 0.013238379997363825 0.0 0.0
-0.011166114083957623 0.009127949757970377 0.0 0.011517404811455745 0.0 0.0
-0.009024991450584524 0.007119667264791296 0.0 0.009915852201019926 0.0 0.0
-0.007114677995900737 0.005349843846847335 0.0 0.008349274126546014 0.0 0.0
-0.005394277133683553 0.003788790678084464 0.0 0.006827468149986526 0.0 0.0
-0.003836537664946238 0.00244892064344282 0.0 0.00538730951902372 0.0 0.0
-0.002525371109234162 0.0014218550573774635 0.0 0.0042023161289443944 0.0 0.0
-0.001562158114839507 0.0007821338474973683 0.0 0.0033818133563917607 0.0 0.0
-0.0009827035474288398 0.0004705131877706936 0.0 0.0029002759528820032 0.0 0.0
-0.0006833519824839818 0.0003425712447386875 0.0 0.002595484779003593 0.0 0.0
-0.0005301527469481759 0.00029271219057469544 0.0 0.002386178073191192 0.0 0.0
-0.00045019447579608407 0.00025831294350664447 0.0 0.0023184526863771204 0.0 0.0
-0.0003759762549628981 0.0001722416696469109 0.0 0.002354681811820414 0.0 0.0
-0.00019295186982988544 -0.00011628297512894514 0.0 0.002348886300399533 0.0 0.0
0.0002792059652288459 -0.0008638819280958679 0.0 0.0015583738147418036 0.0 0.0
0.00018771393588537522 -0.000667811571068877 0.0 -0.001379581376787481 0.0 0.0
-0.0002480142776920824 -7.930298853053852e-05 0.0 -0.0022439796944670465 0.0 0.0
-0.0004979146125409784 0.0002213884814343814 0.0 -0.002297998157938297 0.0 0.0
-0.0006530557097969292 0.0003447568830607928 0.0 -0.002249531185628928 0.0 0.0
-0.0008291618934542777 0.000427457886721605 0.0 -0.00227624459048123 0.0 0.0
-0.001108476045042578 0.000541575377793313 0.0 -0.002420922531710057 0.0 0.0
-0.001660153896418104 0.000834066836825631 0.0 -0.0027792582014919964 0.0 0.0
-0.002730224142805965 0.0015573583015833226 0.0 -0.003581405417610928 0.0 0.0
-0.004402339628434504 0.0028941355798934865 0.0 -0.004901859158240762 0.0 0.0
-0.00659386406283774 0.004813704958427367 0.0 -0.006619079708412745 0.0 0.0
-0.009139394299852388 0.007156799697280336 0.0 -0.008498542232598605 0.0 0.0
-0.011966675488237766 0.009818562933645136 0.0 -0.010334158275784155 0.0 0.0
-0.015113193499122213 0.012813971728811602 0.0 -0.012122154559483178 0.0 0.0
-0.018659170264708758 0.01621053724750743 0.0 -0.013955066910319558 0.0 0.0
-0.02260492211766399 0.01999574074397925 0.0 -0.01602135128861437 0.0 0.0
-0.026740438820914703 0.02395873079207922 0.0 -0.018581406648043863 0.0 0.0
-0.03057989564815239 0.027626838099082285 0.0 -0.021826485858909672 0.0 0.0
-0.033256139119777595 0.030081096456664014 0.0 -0.025167047871245463 0.0 0.0
-0.03310744499193012 0.029651804941153603 0.0 -0.0268783488484714 0.0 0.0
-0.02711962888429209 0.023057629177663408 0.0 -0.023401237654394003 0.0 0.0
-0.02711962888429191 0.02305762917766163 0.0 0.023401237654426588 0.0 0.0
-0.0331074449919256 0.029651804941149162 0.0 0.026878348848510536 0.0 0.0
-0.03325613911976509 0.03008109645665691 0.0 0.025167047871270998 0.0 0.0
-0.03057989564813278 0.027626838099068518 0.0 0.02182648585891528 0.0 0.0
-0.026740438820891874 0.023958730792057015 0.0 0.01858140664803387 0.0 0.0
-0.022604922117642506 0.019995740743957047 0.0 0.016021351288602714 0.0 0.0
-0.018659170264689162 0.016210537247487 0.0 0.013955066910307456 0.0 0.0
-0.015113193499100327 0.01281397172879073 0.0 0.01212215455947474 0.0 0.0
-0.011966675488216838 0.00981856293362715 0.0 0.010334158275770944 0.0 0.0
-0.009139394299832626 0.00715679969726124 0.0 0.008498542232580564 0.0 0.0
-0.00659386406282049 0.004813704958413378 0.0 0.006619079708396591 0.0 0.0
-0.004402339628422736 0.0028941355798823842 0.0 0.0049018591582321025 0.0 0.0
-0.0027302241427989427 0.0015573583015773274 0.0 0.0035814054176062093 0.0 0.0
-0.001660153896414135 0.0008340668368231885 0.0 0.002779258201487722 0.0 0.0
-0.001108476045040524 0.0005415753777914256 0.0 0.0024209225317080307 0.0 0.0
-0.000829161893453334 0.0004274578867210499 0.0 0.0022762445904794537 0.0 0.0
-0.0006530557097964435 0.0003447568830607928 0.0 0.0022495311856278177 0.0 0.0
-0.0004979146125405343 0.0002213884814334377 0.0 0.002297998157936021 0.0 0.0
-0.00024801427769205464 -7.930298853053852e-05 0.0 0.0022439796944655754 0.0 0.0
0.00018771393588555563 -0.0006678115710683202 0.0 0.0013795813767857878 0.0 0.0
0.00010915385638118891 -0.0004917322357267662 0.0 -0.0011964596382271209 0.0 0.0
-0.00030042158696730326 -3.568551805060993e-05 0.0 -0.002086363973153982 0.0 0.0
-0.0006123343439805307 0.000268108351004992 0.0 -0.002186464888189965 0.0 0.0
-0.000846864699495381 0.000424567019113975 0.0 -0.0021250606556034723 0.0 0.0
-0.0011131476199469914 0.00055111818447795 0.0 -0.002096103591906623 0.0 0.0
-0.001537529586675468 0.0007588982670334588 0.0 -0.002221533902443368 0.0 0.0
-0.002419057931596136 0.001320071628236219 0.0 -0.002710302343059079 0.0 0.0
-0.004034524271211565 0.0025711997317070523 0.0 -0.003786337919832905 0.0 0.0
-0.0064309499454903996 0.0046473144122132215 0.0 -0.005439582570307799 0.0 0.0
-0.009468885477133399 0.007431503099629033 0.0 -0.007455434286924301 0.0 0.0
-0.012968696371076227 0.010730981401153583 0.0 -0.009530815338574972 0.0 0.0
-0.01688460452251153 0.014465016836235911 0.0 -0.011502115052775597 0.0 0.0
-0.021269146400414468 0.018679744791270103 0.0 -0.01341520628486581 0.0 0.0
-0.02623297707657335 0.023473563908270823 0.0 -0.015394015331074096 0.0 0.0
-0.031813027620624074 0.02887242391948508 0.0 -0.01767580084496767 0.0 0.0
-0.037811720635104906 0.03466442361043942 0.0 -0.02065891145215004 0.0 0.0
-0.04358571108198178 0.0401948119577229 0.0 -0.024553263549096815 0.0 0.0
-0.04779999501072843 0.04411568115212594 0.0 -0.028684675751113886 0.0 0.0
-0.04814146615242233 0.04405114886687711 0.0 -0.030905843559261514 0.0 0.0
-0.040612370661107275 0.035889927137503275 0.0 -0.02777735164052847 0.0 0.0
-0.04061237066110475 0.035889927137498834 0.0 0.02777735164056294 0.0 0.0
-0.04814146615241459 0.04405114886686334 0.0 0.030905843559305424 0.0 0.0
-0.0477999950107114 0.0441156811521104 0.0 0.028684675751144084 0.0 0.0
-0.043585711081956136 0.04019481195769492 0.0 0.024553263549103976 0.0 0.0
-0.037811720635075596 0.034664423610411 0.0 0.020658911452143436 0.0 0.0
-0.03181302762059511 0.02887242391945577 0.0 0.017675800844956513 0.0 0.0
-0.026232977076546038 0.0234735639082424 0.0 0.01539401533106205 0.0 0.0
-0.02126914640038581 0.01867974479124035 0.0 0.013415206284856651 0.0 0.0
-0.016884604522483235 0.014465016836210154 0.0 0.01150211505275972 0.0 0.0
-0.012968696371049845 0.01073098140112938 0.0 0.00953081533855471 0.0 0.0
-0.009468885477110167 0.007431503099609493 0.0 0.0074554342869060375 0.0 0.0
-0.006430949945474204 0.004647314412201009 0.0 0.005439582570295698 0.0 0.0
-0.004034524271200782 0.0025711997316992807 0.0 0.0037863379198249114 0.0 0.0
-0.0024190579315901822 0.0013200716282331104 0.0 0.0027103023430529727 0.0 0.0
-0.0015375295866725952 0.0007588982670340139 0.0 0.0022215339024407033 0.0 0.0
-0.0011131476199456314 0.0005511181844771729 0.0 0.0020961035919047633 0.0 0.0
-0.0008468646994946594 0.0004245670191130868 0.0 0.0021250606556011964 0.0 0.0
-0.0006123343439798506 0.00026810835100488095 0.0 0.002186464888188022 0.0 0.0
-0.0003004215869670257 -3.568551805083198e-05 0.0 0.002086363973153732 0.0 0.0
0.00010915385638121666 -0.0004917322357260896 0.0 0.0011964596382270376 0.0 0.0
3.993533543975025e-05 -0.00033604012031837605 0.0 -0.0010093701441342418 0.0 0.0
-0.0003521010321497764 1.30093863106584e-05 0.0 -0.0018808304571246437 0.0 0.0
-0.0007202387422156065 0.0003131549965537106 0.0 -0.0020188431220253267 0.0 0.0
-0.001030409025896517 0.0004961000496177537 0.0 -0.0019375876799447023 0.0 0.0
-0.0013836241997298993 0.0006684777532163233 0.0 -0.0018626367667636534 0.0 0.0
-0.0020029372679203072 0.0010254734592269887 0.0 -0.002010640676554376 0.0 0.0
-0.00327199872573819 0.001943283211780722 0.0 -0.002617100300737085 0.0 0.0
-0.005460521031003668 0.003775907812084034 0.0 -0.0038742396336581275 0.0 0.0
-0.008564564328856994 0.006580970435131617 0.0 -0.005700463362083685 0.0 0.0
-0.012403962598283413 0.010177499177498106 0.0 -0.007781354249567107 0.0 0.0
-0.01684424628014572 0.014403193410688298 0.0 -0.009861782188064216 0.0 0.0
-0.02185121516455582 0.019208544847843623 0.0 -0.01185950478605824 0.0 0.0
-0.027484788641691044 0.024648995594011236 0.0 -0.013816063611505447 0.0 0.0
-0.033870495532686534 0.030844885905034314 0.0 -0.015828806495465253 0.0 0.0
-0.041092163853534064 0.03786417488547533 0.0 -0.018142304165457257 0.0 0.0
-0.048954638027801894 0.0454830218738822 0.0 -0.021173874984039665 0.0 0.0
-0.05662703549148301 0.0528473368514919 0.0 -0.02521484154610365 0.0 0.0
-0.06229337841389257 0.05812884433166143 0.0 -0.02975716406365081 0.0 0.0
-0.06287189625637395 0.05822378194378652 0.0 -0.03280082698500841 0.0 0.0
-0.05369562762036943 0.04846005985149704 0.0 -0.031777026883274384 0.0 0.0
-0.0536956276203656 0.04846005985149793 0.0 0.031777026883310244 0.0 0.0
-0.06287189625636205 0.058223781943778086 0.0 0.03280082698505432 0.0 0.0
-0.06229337841387082 0.05812884433164056 0.0 0.029757164063684116 0.0 0.0
-0.05662703549145198 0.05284733685146126 0.0 0.025214841546114253 0.0 0.0
-0.04895463802776681 0.045483021873848895 0.0 0.0211738749840355 0.0 0.0
-0.04109216385349822 0.03786417488544158 0.0 0.018142304165444878 0.0 0.0
-0.03387049553265109 0.03084488590500145 0.0 0.01582880649545043 0.0 0.0
-0.02748478864165567 0.024648995593977485 0.0 0.013816063611494678 0.0 0.0
-0.021851215164520474 0.01920854484780965 0.0 0.011859504786043307 0.0 0.0
-0.01684424628011333 0.014403193410657433 0.0 0.009861782188044843 0.0 0.0
-0.01240396259825495 0.010177499177475458 0.0 0.007781354249546291 0.0 0.0
-0.008564564328835803 0.006580970435111189 0.0 0.005700463362069641 0.0 0.0
-0.0054605210309889435 0.0037759078120718215 0.0 0.003874239633650467 0.0 0.0
-0.0032719987257297106 0.0019432832117742826 0.0 0.002617100300732478 0.0 0.0
-0.002002937267916352 0.0010254734592243242 0.0 0.00201064067655235 0.0 0.0
-0.001383624199728345 0.0006684777532162123 0.0 0.001862636766761988 0.0 0.0
-0.0010304090258953097 0.0004961000496177537 0.0 0.001937587679942926 0.0 0.0
-0.0007202387422149958 0.00031315499655343304 0.0 0.002018843122023384 0.0 0.0
-0.00035210103214917965 1.30093863106584e-05 0.0 0.0018808304571229506 0.0 0.0
3.993533543958372e-05 -0.00033604012031817135 0.0 0.0010093701441332148 0.0 0.0
-1.9978100525952502e-05 -0.00020243733505931338 0.0 -0.0008169108192523367 0.0 0.0
-0.0004028849840516935 6.461689475023569e-05 0.0 -0.0016330426846194457 0.0 0.0
-0.0008224672063327498 0.00035640723626728654 0.0 -0.0017961591790159326 0.0 0.0
-0.0012033309951335336 0.0005603636890743058 0.0 -0.0016976530433507608 0.0 0.0
-0.0016553994862722743 0.0007986277658967866 0.0 -0.0016074937604034223 0.0 0.0
-0.0025207416956411766 0.0013593554303172883 0.0 -0.00177838137411232 0.0 0.0
-0.004219062665228562 0.0027002367542006134 0.0 -0.002458760133997262 0.0 0.0
-0.006984641819710785 0.0051300540152001695 0.0 -0.00379612356213338 0.0 0.0
-0.010746364620268067 0.00861337209982227 0.0 -0.005586427944602068 0.0 0.0
-0.015365555272699172 0.012984306731729234 0.0 -0.007554609824095393 0.0 0.0
-0.020744877612379836 0.018130503682770138 0.0 -0.009545633735109471 0.0 0.0
-0.02685151868863936 0.02401313448876774 0.0 -0.011460199367371526 0.0 0.0
-0.03374758317285967 0.030691186173213758 0.0 -0.013351924585834563 0.0 0.0
-0.041560154564887014 0.03829126184680742 0.0 -0.015319653227104713 0.0 0.0
-0.05038723052088789 0.04689626485557685 0.0 -0.017467783259922598 0.0 0.0
-0.060046288284627075 0.0562788257535507 0.0 -0.020123033188373607 0.0 0.0
-0.06955831866319898 0.06542138982713519 0.0 -0.02381133371112365 0.0 0.0
-0.07662517155602827 0.07201885468324365 0.0 -0.028497096338759187 0.0 0.0
-0.07744420015338287 0.07230477307984495 0.0 -0.03296604377296214 0.0 0.0
-0.06681441204164215 0.0611150683377657 0.0 -0.03564291937446984 0.0 0.0
-0.06681441204163754 0.061115068337760814 0.0 0.035642919374505366 0.0 0.0
-0.07744420015336702 0.07230477307982675 0.0 0.03296604377300699 0.0 0.0
-0.07662517155600118 0.072018854683217 0.0 0.02849709633879277 0.0 0.0
-0.06955831866316273 0.06542138982710188 0.0 0.02381133371113392 0.0 0.0
-0.06004628828458625 0.05627882575351295 0.0 0.020123033188372108 0.0 0.0
-0.050387230520845 0.04689626485553422 0.0 0.017467783259915715 0.0 0.0
-0.0415601545648443 0.03829126184676701 0.0 0.015319653227095387 0.0 0.0
-0.03374758317281707 0.030691186173173346 0.0 0.013351924585824043 0.0 0.0
-0.0268515186885969 0.024013134488728882 0.0 0.011460199367357787 0.0 0.0
-0.02074487761234147 0.0181305036827335 0.0 0.009545633735093456 0.0 0.0
-0.015365555272665872 0.012984306731698148 0.0 0.00755460982407663 0.0 0.0
-0.010746364620242053 0.008613372099798733 0.0 0.005586427944589606 0.0 0.0
-0.006984641819692106 0.005130054015183516 0.0 0.0037961235621231937 0.0 0.0
-0.004219062665217321 0.0027002367541912875 0.0 0.002458760133991128 0.0 0.0
-0.002520741695635924 0.0013593554303135136 0.0 0.0017783813741103216 0.0 0.0
-0.0016553994862702828 0.0007986277658956764 0.0 0.0016074937604018957 0.0 0.0
-0.001203330995132361 0.0005603636890736396 0.0 0.0016976530433499004 0.0 0.0
-0.0008224672063320559 0.0003564072362679527 0.0 0.0017961591790149334 0.0 0.0
-0.00040288498405129797 6.461689475051324e-05 0.0 0.001633042684618391 0.0 0.0
-1.9978100526008014e-05 -0.00020243733505916593 0.0 0.0008169108192500885 0.0 0.0
-6.870101498507308e-05 -9.33229225191512e-05 0.0 -0.0006182147588042197 0.0 0.0
-0.00045053301644304433 0.00011624895125350587 0.0 -0.0013476263916200604 0.0 0.0
-0.0009194536554544552 0.0003975595231904272 0.0 -0.0015187934783025825 0.0 0.0
-0.001369186587249438 0.0006201344050522639 0.0 -0.0014095393141160817 0.0 0.0
-0.0019448080640743493 0.0009483578412093907 0.0 -0.0013146970979130979 0.0 0.0
-0.0031013291316082936 0.001778576153561584 0.0 -0.0015136401518545395 0.0 0.0
-0.005258313667185599 0.0035870077549362556 0.0 -0.0022358724491384208 0.0 0.0
-0.008554424229098079 0.006574174424182733 0.0 -0.0034806586769339787 0.0 0.0
-0.012941185052075865 0.0106866472491991 0.0 -0.005054170830940952 0.0 0.0
-0.018337006137837286 0.015822792281773523 0.0 -0.0068164208062657106 0.0 0.0
-0.024653009887528082 0.021886814616438377 0.0 -0.008599547658147855 0.0 0.0
-0.03186828882381709 0.028853788293180305 0.0 -0.010321009029346129 0.0 0.0
-0.04004358697101168 0.036785397597485225 0.0 -0.012050758636566128 0.0 0.0
-0.04928543535306398 0.04578555026621434 0.0 -0.013847330616007847 0.0 0.0
-0.05965659021758568 0.05591117019045999 0.0 -0.01570230227481606 0.0 0.0
-0.07096883537903925 0.0669304425355679 0.0 -0.01769073616178063 0.0 0.0
-0.08220550105871266 0.07774928476215681 0.0 -0.020416522313246532 0.0 0.0
-0.09072214607093704 0.08572292965415329 0.0 -0.024890082689959403 0.0 0.0
-0.09206022198844804 0.08646750378515611 0.0 -0.031422110768765665 0.0 0.0
-0.08032742269467001 0.07417208028576239 0.0 -0.03935979533518735 0.0 0.0
-0.08032742269466446 0.07417208028575928 0.0 0.03935979533522299 0.0 0.0
-0.09206022198842857 0.08646750378513524 0.0 0.03142211076880541 0.0 0.0
-0.09072214607090474 0.08572292965411688 0.0 0.02489008268998988 0.0 0.0
-0.0822055010586709 0.0777492847621164 0.0 0.02041652231325425 0.0 0.0
-0.07096883537899247 0.06693044253551728 0.0 0.01769073616177952 0.0 0.0
-0.05965659021753561 0.055911170190414694 0.0 0.015702302274809732 0.0 0.0
-0.04928543535301423 0.045785550266170816 0.0 0.013847330615999937 0.0 0.0
-0.04004358697096221 0.036785397597439484 0.0 0.012050758636556358 0.0 0.0
-0.031868288823767965 0.02885378829313545 0.0 0.010321009029332306 0.0 0.0
-0.024653009887483097 0.021886814616393524 0.0 0.008599547658131451 0.0 0.0
-0.018337006137799247 0.015822792281735998 0.0 0.006816420806249501 0.0 0.0
-0.012941185052045855 0.010686647249170678 0.0 0.005054170830931015 0.0 0.0
-0.00855442422907561 0.006574174424162749 0.0 0.003480658676925402 0.0 0.0
-0.005258313667171721 0.0035870077549269297 0.0 0.0022358724491324533 0.0 0.0
-0.0031013291316011188 0.001778576153556144 0.0 0.0015136401518520137 0.0 0.0
-0.0019448080640718513 0.0009483578412082805 0.0 0.0013146970979123485 0.0 0.0
-0.0013691865872483139 0.0006201344050520419 0.0 0.0014095393141160817 0.0 0.0
-0.0009194536554535393 0.000397559523189317 0.0 0.0015187934783018053 0.0 0.0
-0.0004505330164427668 0.00011624895125320056 0.0 0.0013476263916188946 0.0 0.0
-6.870101498482328e-05 -9.332292251913385e-05 0.0 0.0006182147588042752 0.0 0.0
-0.00010252371144814365 -1.1809831915010616e-05 0.0 -0.0004149472238024754 0.0 0.0
-0.0004901851998235229 0.00016423676669008458 0.0 -0.0010271142676885059 0.0 0.0
-0.001011549478453777 0.00043525664367394246 0.0 -0.0011852687184054078 0.0 0.0
-0.0015346233051549696 0.0006835699332837786 0.0 -0.0010759436886160767 0.0 0.0
-0.002266327896628506 0.0011374854931591738 0.0 -0.0009893330699080605 0.0 0.0
-0.0037599152053716667 0.002292711682380988 0.0 -0.0012169401194014051 0.0 0.0
-0.006352806631678115 0.004557915426280923 0.0 -0.0018523619669743585 0.0 0.0
-0.010133560865185187 0.00805327648979115 0.0 -0.0028568886175737163 0.0 0.0
-0.015135239417852997 0.012778441949183206 0.0 -0.004139287794435065 0.0 0.0
-0.021298381514778947 0.018668673573653205 0.0 -0.005581354523432613 0.0 0.0
-0.028551542436021232 0.025649293756371705 0.0 -0.007046075138237906 0.0 0.0
-0.036883368601700495 0.033709264810094286 0.0 -0.008457661018976603 0.0 0.0
-0.046352189635507246 0.04290640721527783 0.0 -0.009885373818102616 0.0 0.0
-0.05702917790181389 0.0533097384776573 0.0 -0.011418666528774213 0.0 0.0
-0.06888449162158586 0.06488629914988664 0.0 -0.012926216057340567 0.0 0.0
-0.08163940181772039 0.07733501311799751 0.0 -0.01409705056112931 0.0 0.0
-0.09435864681444373 0.08964558897286823 0.0 -0.015306690326438943 0.0 0.0
-0.10448013437713152 0.09914849813193749 0.0 -0.018915743281091135 0.0 0.0
-0.10689120550235123 0.10087253156720832 0.0 -0.027770351801106985 0.0 0.0
-0.09463285051612656 0.08799026807223198 0.0 -0.04263546241879307 0.0 0.0
-0.09463285051612004 0.08799026807222754 0.0 0.04263546241882121 0.0 0.0
-0.10689120550232797 0.10087253156719056 0.0 0.02777035180114007 0.0 0.0
-0.10448013437709408 0.09914849813190552 0.0 0.0189157432811195 0.0 0.0
-0.09435864681439596 0.08964558897282426 0.0 0.01530669032644455 0.0 0.0
-0.0816394018176671 0.07733501311794644 0.0 0.014097050561130586 0.0 0.0
-0.06888449162152914 0.0648862991498298 0.0 0.0129262160573404 0.0 0.0
-0.057029177901757044 0.05330973847760223 0.0 0.011418666528768606 0.0 0.0
-0.046352189635450715 0.042906407215224096 0.0 0.00988537381809479 0.0 0.0
-0.03688336860164482 0.03370926481003966 0.0 0.008457661018968249 0.0 0.0
-0.028551542435969947 0.025649293756325076 0.0 0.007046075138224833 0.0 0.0
-0.02129838151473641 0.018668673573611017 0.0 0.005581354523418486 0.0 0.0
-0.0151352394178189 0.012778441949150121 0.0 0.004139287794426932 0.0 0.0
-0.010133560865159319 0.008053276489767613 0.0 0.0028568886175649733 0.0 0.0
-0.006352806631661757 0.004557915426266046 0.0 0.0018523619669680302 0.0 0.0
-0.003759915205362164 0.0022927116823736604 0.0 0.0012169401193982132 0.0 0.0
-0.0022663278966250887 0.0011374854931559542 0.0 0.0009893330699063674 0.0 0.0
-0.0015346233051536685 0.0006835699332826684 0.0 0.0010759436886142448 0.0 0.0
-0.0010115494784528369 0.00043525664367438655 0.0 0.001185268718404353 0.0 0.0
-0.0004901851998232419 0.0001642367666904454 0.0 0.0010271142676873124 0.0 0.0
-0.00010252371144794589 -1.1809831915024493e-05 0.0 0.0004149472238016705 0.0 0.0
-0.00011500775728304213 3.8090627948628164e-05 0.0 -0.00021380829636494236 0.0 0.0
-0.0005131282142576965 0.00020277346083252823 0.0 -0.0006710702199568819 0.0 0.0
-0.0010998292888298455 0.0004697230473273972 0.0 -0.0007891070091535224 0.0 0.0
-0.0017110240445199765 0.0007575889287827486 0.0 -0.0007002825939850799 0.0 0.0
-0.0026393487722113085 0.0013911632704377563 0.0 -0.0006478225333056142 0.0 0.0
-0.004485797912892608 0.0028964503650603657 0.0 -0.0008353521748591941 0.0 0.0
-0.007463577715120517 0.005576163846086946 0.0 -0.0012853389063098852 0.0 0.0
-0.011711691296216742 0.009547131968980382 0.0 -0.001965181279104833 0.0 0.0
-0.017309739346774045 0.0148670549196952 0.0 -0.00284901493220463 0.0 0.0
-0.024231004518040528 0.021500740125690143 0.0 -0.003858581900396063 0.0 0.0
-0.03242247103934762 0.029398051008716175 0.0 -0.004882669217974478 0.0 0.0
-0.04187955262478041 0.038558682943720335 0.0 -0.005870502514192244 0.0 0.0
-0.05265287885951958 0.04903205542238398 0.0 -0.006902714896828477 0.0 0.0
-0.06475959681080298 0.06083132960263127 0.0 -0.008002933303632331 0.0 0.0
-0.0780538445749023 0.07380600761382539 0.0 -0.009019989375783077 0.0 0.0
-0.09208106170749161 0.08749994934842764 0.0 -0.009569724805247093 0.0 0.0
-0.10589219167335587 0.10093844532250928 0.0 -0.00937339765930445 0.0 0.0
-0.1174794649419989 0.11199190881764487 0.0 -0.010573397799209738 0.0 0.0
-0.1220422278865779 0.11559906240598572 0.0 -0.02066975910706792 0.0 0.0
-0.11033285661423378 0.10311754123258376 0.0 -0.044732420111479876 0.0 0.0
-0.1103328566142254 0.10311754123256733 0.0 0.04473242011150136 0.0 0.0
-0.12204222788655097 0.11559906240595019 0.0 0.020669759107094343 0.0 0.0
-0.11747946494195614 0.11199190881759469 0.0 0.010573397799229833 0.0 0.0
-0.10589219167330112 0.1009384453224551 0.0 0.00937339765930617 0.0 0.0
-0.09208106170743124 0.08749994934836902 0.0 0.009569724805245372 0.0 0.0
-0.07805384457483916 0.07380600761376455 0.0 0.009019989375783882 0.0 0.0
-0.06475959681073934 0.060831329602572204 0.0 0.008002933303629112 0.0 0.0
-0.05265287885945562 0.0490320554223187 0.0 0.006902714896820844 0.0 0.0
-0.04187955262471807 0.03855868294365772 0.0 0.005870502514188108 0.0 0.0
-0.03242247103929083 0.029398051008663995 0.0 0.004882669217965319 0.0 0.0
-0.024231004517993295 0.021500740125648843 0.0 0.003858581900385266 0.0 0.0
-0.017309739346736016 0.01486705491965945 0.0 0.0028490149321994673 0.0 0.0
-0.011711691296187685 0.009547131968952183 0.0 0.0019651812790995316 0.0 0.0
-0.007463577715101536 0.005576163846068294 0.0 0.0012853389063078868 0.0 0.0
-0.004485797912881052 0.002896450365050929 0.0 0.0008353521748570569 0.0 0.0
-0.002639348772206722 0.0013911632704336485 0.0 0.0006478225333045318 0.0 0.0
-0.0017110240445185158 0.0007575889287811943 0.0 0.000700282593985635 0.0 0.0
-0.001099829288828763 0.0004697230473267311 0.0 0.0007891070091532448 0.0 0.0
-0.0005131282142574606 0.00020277346083197312 0.0 0.0006710702199557439 0.0 0.0
-0.0001150077572829103 3.8090627948569183e-05 0.0 0.00021380829636480359 0.0 0.0
-9.464055444027841e-05 5.06355571776862e-05 0.0 -3.090925473789308e-05 0.0 0.0
-0.000504686434026208 0.0002227693805964548 0.0 -0.0002729102607706424 0.0 0.0
-0.001187811435424152 0.0005020246532441153 0.0 -0.00031589968346845687 0.0 0.0
-0.00191797980124081 0.0008634285849379308 0.0 -0.00029072059680479434 0.0 0.0
-0.0030753626182221383 0.0017099969829111883 0.0 -0.00026963948616892663 0.0 0.0
-0.005247972484031971 0.0035543793901990917 0.0 -0.000342410778764457 0.0 0.0
-0.008580252666314125 0.006616347957804303 0.0 -0.0005294865229475976 0.0 0.0
-0.0132712476931868 0.011037227743194933 0.0 -0.0008075670818904479 0.0 0.0
-0.019446826899393976 0.01693038549791126 0.0 -0.001191788038505559 0.0 0.0
-0.027114995734522945 0.024296713944850667 0.0 -0.0016474703520118483 0.0 0.0
-0.03624867770614304 0.033115309497381284 0.0 -0.002113507082272037 0.0 0.0
-0.04684492969926912 0.04338827089331865 0.0 -0.0025831567092372 0.0 0.0
-0.05891589180745227 0.05513088978174041 0.0 -0.0030686798401485804 0.0 0.0
-0.07242922010726052 0.06830391955802773 0.0 -0.0035542409788490437 0.0 0.0
-0.08713866443741 0.0826532757378895 0.0 -0.003959228842751905 0.0 0.0
-0.10237931363843383 0.09751702339744073 0.0 -0.004033277943692015 0.0 0.0
-0.11697458739139502 0.11173649075946956 0.0 -0.0033730379974401536 0.0 0.0
-0.12922509250441724 0.12360025540822672 0.0 -0.002137692283302739 0.0 0.0
-0.13622981712272575 0.129985182255278 0.0 -0.007186329631484689 0.0 0.0
-0.12916456684292915 0.12085623750303265 0.0 -0.041236330262188314 0.0 0.0
-0.12916456684291927 0.120856237503018 0.0 0.041236330262194976 0.0 0.0
-0.13622981712269572 0.12998518225524602 0.0 0.007186329631497512 0.0 0.0
-0.12922509250436853 0.12360025540818231 0.0 0.0021376922833116763 0.0 0.0
-0.11697458739133242 0.11173649075941317 0.0 0.0033730379974401814 0.0 0.0
-0.10237931363836597 0.09751702339738033 0.0 0.004033277943691849 0.0 0.0
-0.08713866443734047 0.08265327573782599 0.0 0.003959228842752599 0.0 0.0
-0.07242922010718918 0.06830391955795534 0.0 0.003554240978847295 0.0 0.0
-0.05891589180738113 0.05513088978167113 0.0 0.0030686798401467763 0.0 0.0
-0.04684492969920079 0.04338827089325359 0.0 0.0025831567092354235 0.0 0.0
-0.03624867770608042 0.033115309497320666 0.0 0.0021135070822663193 0.0 0.0
-0.027114995734471167 0.02429671394479982 0.0 0.0016474703520066858 0.0 0.0
-0.019446826899352232 0.016930385497870626 0.0 0.001191788038503283 0.0 0.0
-0.013271247693154768 0.01103722774316318 0.0 0.0008075670818868952 0.0 0.0
-0.00858025266629258 0.006616347957782764 0.0 0.0005294865229474865 0.0 0.0
-0.0052479724840184105 0.0035543793901875453 0.0 0.00034241077876312476 0.0 0.0
-0.0030753626182163686 0.0017099969829061923 0.0 0.00026963948616759437 0.0 0.0
-0.0019179798012391126 0.0008634285849362655 0.0 0.00029072059680484985 0.0 0.0
-0.0011878114354230826 0.0005020246532440042 0.0 0.0003158996834681793 0.0 0.0
-0.0005046864340255801 0.00022276938059706541 0.0 0.0002729102607697542 0.0 0.0
-9.464055444033566e-05 5.063555717769834e-05 0.0 3.0909254738586966e-05 0.0 0.0
SCALARS Statev float 8
LOOKUP_TABLE default
0.0 0.0114113232003061 0.00876320823481062 -0.009146495192401639 0.0003832869575910187 -0.004996948403812519 0.0 0.0
0.0 0.0004812289402814593 0.00031548754377493034 -0.00025757051577553783 -5.791702799939255e-05 0.0003223335022731222 0.0 0.0
0.0 3.342380937738801e-05 -4.754075056001044e-06 3.773145031477424e-06 9.809300245235895e-07 5.62033213615258e-07 0.0 0.0
0.0 0.0001719903355194275 9.735500189922898e-05 -7.599120749070983e-05 -2.136379440851925e-05 -1.3329984701056647e-05 0.0 0.0
0.0 0.0010550721088109563 0.0008039877895911831 -0.0006533817713580599 -0.00015060601823312312 -8.86189421784373e-05 0.0 0.0
0.0 0.0028892417100627446 0.002643705825666959 -0.002262111150439558 -0.000381594675227401 -0.00021689614098196848 0.0 0.0
0.0 0.006335233238288574 0.005699573634813208 -0.005126575847357232 -0.0005729977874559763 -0.000402633888106343 0.0 0.0
0.0 0.01142738231108556 0.010152315077571925 -0.009441884942576037 -0.0007104301349958809 -0.000667663547217272 0.0 0.0
0.0 0.018271424640021662 0.016093257299282616 -0.015272809317377463 -0.0008204479819051505 -0.0010325292433921614 0.0 0.0
0.0 0.026872361189311626 0.023530638283908275 -0.022604715983119892 -0.0009259223007883819 -0.0014740893724708062 0.0 0.0
0.0 0.03723373333419665 0.032449904138996837 -0.031416677063642935 -0.0010332270753539022 -0.0019380627209136668 0.0 0.0
0.0 0.04907818413080457 0.04285890339016491 -0.041715913570259 -0.0011429898199058887 -0.002412327218429474 0.0 0.0
0.0 0.06272708878943135 0.05476869719473626 -0.05351467246242686 -0.001254024732309361 -0.0028993696961784857 0.0 0.0
0.0 0.07815983065774455 0.06816342490713681 -0.0667957487675794 -0.0013676761395573266 -0.003398543535705848 0.0 0.0
0.0 0.09512024838586014 0.08287629866204303 -0.08139047775740704 -0.0014858209046359691 -0.003906234917584085 0.0 0.0
0.0 0.11309888887395428 0.0984355789044723 -0.09682761822751705 -0.001607960676955263 -0.004334900854095591 0.0 0.0
0.0 0.1310818406174576 0.11399180326061426 -0.11226137951225902 -0.0017304237483552376 -0.004493363312168154 0.0 0.0
0.0 0.1476701828459781 0.1283497929873622 -0.12650213196597176 -0.0018476610213904734 -0.0041423381996290864 0.0 0.0
0.0 0.16120289990082898 0.14006945853990216 -0.13811509788990028 -0.0019543606500018215 -0.0033483437137460017 0.0 0.0
0.0 0.16931766065750287 0.147237656228185 -0.14514985887259332 -0.002087797355591688 -0.0032156738729541405 0.0 0.0
0.0 0.16931766065749065 0.1472376562281746 -0.14514985887258242 -0.0020877973555921735 0.0032156738729595172 0.0 0.0
0.0 0.1612028999007956 0.14006945853987338 -0.13811509788987117 -0.001954360650002211 0.0033483437137635037 0.0 0.0
0.0 0.14767018284592545 0.12834979298731644 -0.1265021319659267 -0.0018476610213897368 0.004142338199636624 0.0 0.0
0.0 0.13108184061739048 0.1139918032605555 -0.11226137951220175 -0.001730423748353703 0.004493363312174078 0.0 0.0
0.0 0.11309888887388124 0.09843557890440854 -0.0968276182274545 -0.001607960676954036 0.004334900854087778 0.0 0.0
0.0 0.09512024838578487 0.08287629866197763 -0.08139047775734223 -0.0014858209046353988 0.0039062349175838407 0.0 0.0
0.0 0.07815983065766816 0.0681634249070705 -0.06679574876751365 -0.0013676761395568608 0.0033985435357050627 0.0 0.0
0.0 0.06272708878935741 0.054768697194671825 -0.053514672462363466 -0.0012540247323083588 0.002899369696178461 0.0 0.0
0.0 0.049078184130734094 0.04285890339010341 -0.041715913570198666 -0.0011429898199047388 0.0024123272184243616 0.0 0.0
0.0 0.03723373333413307 0.03244990413894111 -0.03141667706358818 -0.001033227075352925 0.0019380627209110333 0.0 0.0
0.0 0.02687236118925706 0.0235306382838608 -0.022604715983073155 -0.0009259223007876473 0.0014740893724652369 0.0 0.0
0.0 0.01827142463998005 0.016093257299245853 -0.015272809317341322 -0.0008204479819045409 0.0010325292433903302 0.0 0.0
0.0 0.01142738231105538 0.010152315077544797 -0.009441884942549559 -0.0007104301349952396 0.0006676635472150597 0.0 0.0
0.0 0.0063352332382681596 0.005699573634794513 -0.005126575847339378 -0.0005729977874551334 0.0004026338881052943 0.0 0.0
0.0 0.002889241710051355 0.002643705825656104 -0.002262111150429696 -0.00038159467522640747 0.00021689614098100807 0.0 0.0
0.0 0.0010550721088055507 0.0008039877895868226 -0.000653381771354381 -0.00015060601823244148 8.861894217793341e-05 0.0 0.0
0.0 0.00017199033551782228 9.735500189870886e-05 -7.599120749029275e-05 -2.13637944084161e-05 1.3329984700948149e-05 0.0 0.0
0.0 3.342380937687491e-05 -4.754075055922566e-06 3.7731450314146314e-06 9.80930024507978e-07 -5.620332136057866e-07 0.0 0.0
0.0 0.00048122894027936776 0.00031548754377384207 -0.00025757051577464244 -5.791702799919984e-05 -0.00032233350227169847 0.0 0.0
0.0 0.01141132320028897 0.008763208234799069 -0.009146495192389088 0.00038328695759001644 0.004996948403786524 0.0 0.0
0.0 0.008284910629324628 0.005964636521225011 -0.006448943717630197 0.0004843071964051826 -0.005664038187861121 0.0 0.0
0.0 9.735811856412316e-08 -9.785169814275069e-09 7.955171207828274e-09 1.8299986064463344e-09 -7.27040002772591e-09 0.0 0.0
0.0 9.430826945183483e-08 -1.020951514236367e-08 7.758883502814768e-09 2.450631639548195e-09 3.6392644398315674e-09 0.0 0.0
0.0 5.1251736428858386e-05 1.7507828078946535e-05 -1.3673224005790841e-05 -3.83460407315593e-06 -7.612643182956069e-06 0.0 0.0
0.0 0.0006653204736226006 0.0004602627468495591 -0.00036993419489705074 -9.032855195250831e-05 -0.00012427998148418105 0.0 0.0
0.0 0.0021536099640439765 0.001973305848284926 -0.001662380590935092 -0.00031092525734983397 -0.0004336992192098755 0.0 0.0
0.0 0.0051874649326047835 0.004666555984322543 -0.004143963759677816 -0.0005225922246447244 -0.0009099439982304733 0.0 0.0
0.0 0.009768233186506962 0.008671283571934672 -0.007994927086255715 -0.0006763564856789556 -0.001567078425645637 0.0 0.0
0.0 0.015944011557371084 0.014035606535611507 -0.013244194266410329 -0.0007914122692011757 -0.0024187566574238777 0.0 0.0
0.0 0.023677301893384566 0.020729796975799276 -0.019835260120077875 -0.0008945368557214013 -0.0034102108559313365 0.0 0.0
0.0 0.03291768696618885 0.028712404861892873 -0.027716754048280275 -0.0009956508136125806 -0.004440557124731685 0.0 0.0
0.0 0.04371427067837555 0.037988896971618696 -0.03689232475100372 -0.0010965722206149778 -0.0054506023708356536 0.0 0.0
0.0 0.05583722172523979 0.04861588553824194 -0.047417286120563666 -0.0011985994176782618 -0.006503327692864738 0.0 0.0
0.0 0.06960047911156755 0.0606061089118922 -0.05930304956641784 -0.0013030593454743358 -0.007628401131136599 0.0 0.0
0.0 0.08484386868354879 0.07382253390805293 -0.07241153641817566 -0.0014109974898772544 -0.008765465085310892 0.0 0.0
0.0 0.1010294454845034 0.08786362432855899 -0.08634157343295987 -0.0015220508955991312 -0.009734130602095662 0.0 0.0
0.0 0.11731236784631405 0.10198828213344632 -0.10035434057583442 -0.0016339415576118827 -0.010140007582084559 0.0 0.0
0.0 0.13245338175692273 0.11511634076137822 -0.1133725706814397 -0.0017437700799384922 -0.009560600484585662 0.0 0.0
0.0 0.14474713197607864 0.12579163277181438 -0.1239344371832575 -0.0018571955885569196 -0.008001492685496225 0.0 0.0
0.0 0.15208091828018688 0.13218317878063263 -0.13024103135122073 -0.001942147429411892 -0.005329535094574475 0.0 0.0
0.0 0.15208091828017908 0.13218317878062552 -0.13024103135121395 -0.0019421474294115514 0.005329535094591595 0.0 0.0
0.0 0.14474713197605382 0.1257916327717917 -0.1239344371832363 -0.0018571955885554573 0.008001492685527366 0.0 0.0
0.0 0.1324533817568776 0.11511634076133835 -0.11337257068140072 -0.001743770079937592 0.009560600484604779 0.0 0.0
0.0 0.11731236784625627 0.10198828213339581 -0.10035434057578452 -0.001633941557611201 0.010140007582094959 0.0 0.0
0.0 0.10102944548443585 0.08786362432850049 -0.08634157343290191 -0.0015220508955985737 0.009734130602088342 0.0 0.0
0.0 0.08484386868348051 0.07382253390799344 -0.07241153641811712 -0.0014109974898763075 0.008765465085308717 0.0 0.0
0.0 0.06960047911149697 0.06060610891183091 -0.059303049566357124 -0.001303059345473768 0.007628401131134238 0.0 0.0
0.0 0.05583722172516971 0.048615885538181094 -0.04741728612050324 -0.0011985994176778503 0.006503327692862262 0.0 0.0
0.0 0.043714270678309235 0.037988896971561034 -0.03689232475094654 -0.0010965722206144836 0.00545060237082806 0.0 0.0
0.0 0.03291768696612943 0.02871240486184117 -0.027716754048229195 -0.0009956508136119693 0.004440557124724372 0.0 0.0
0.0 0.023677301893337215 0.020729796975757844 -0.019835260120037085 -0.0008945368557207567 0.00341021085592172 0.0 0.0
0.0 0.015944011557333836 0.014035606535578336 -0.01324419426637781 -0.0007914122692005194 0.002418756657419331 0.0 0.0
0.0 0.009768233186479895 0.008671283571910493 -0.007994927086232301 -0.0006763564856781954 0.0015670784256409229 0.0 0.0
0.0 0.005187464932587541 0.004666555984306705 -0.004143963759662842 -0.0005225922246438641 0.000909943998227498 0.0 0.0
0.0 0.0021536099640346506 0.0019733058482765175 -0.0016623805909276432 -0.0003109252573488742 0.0004336992192079423 0.0 0.0
0.0 0.0006653204736181142 0.0004602627468463635 -0.00036993419489439255 -9.032855195197106e-05 0.0001242799814832765 0.0 0.0
0.0 5.125173642834276e-05 1.7507828079123725e-05 -1.3673224005922809e-05 -3.8346040732007734e-06 7.612643182988867e-06 0.0 0.0
0.0 9.430826938068039e-08 -1.0209515134588993e-08 7.758883496907494e-09 2.4506316376819497e-09 -3.6392644370560787e-09 0.0 0.0
0.0 9.735811846572097e-08 -9.78516980428818e-09 7.9551711997036e-09 1.8299986045861706e-09 7.270400020323914e-09 0.0 0.0
0.0 0.008284910629305428 0.005964636521212279 -0.006448943717616684 0.00048430719640440707 0.005664038187839183 0.0 0.0
0.0 0.006170459166076833 0.004196117044904309 -0.0046925634230577445 0.0004964463781534355 -0.004898898982509041 0.0 0.0
0.0 0.0 0.0 0.0 0.0 0.0 0.0 0.0
0.0 0.0 0.0 0.0 0.0 0.0 0.0 0.0
0.0 7.520439331008395e-06 3.911133413711742e-06 -3.0427663957725187e-06 -8.68367017939244e-07 -2.74141432586359e-06 0.0 0.0
0.0 0.00032455184702136154 0.0002219184902900067 -0.00017649250348702837 -4.5425986802978245e-05 -0.00010794538325542384 0.0 0.0
0.0 0.0016423946115168972 0.0013354810676114179 -0.0011076332329358798 -0.0002278478346755369 -0.0005104370151806863 0.0 0.0
0.0 0.004084702857928872 0.0036561519003386707 -0.0031959754865874997 -0.00046017641375117164 -0.0012160811916245844 0.0 0.0
0.0 0.008130368819876667 0.007189929162986934 -0.0065577474728545975 -0.0006321816901323375 -0.0022018125694435167 0.0 0.0
0.0 0.013644512686002263 0.011956765643714245 -0.0112005597304483 -0.000756205913265941 -0.003444134143163009 0.0 0.0
0.0 0.020526048818821155 0.017896524903052546 -0.017038263060232355 -0.0008582618428201877 -0.00486629568867406 0.0 0.0
0.0 0.0287224817764883 0.024944847669674756 -0.023991499468717568 -0.0009533482009571803 -0.006342889267354825 0.0 0.0
0.0 0.03814379813349847 0.03310346982355401 -0.03205718537508831 -0.0010462844484657018 -0.007792697434696962 0.0 0.0
0.0 0.049033864628669585 0.042436458496038144 -0.041297126546469 -0.0011393319495691537 -0.009269664271309881 0.0 0.0
0.0 0.061122483685857515 0.05299992542994872 -0.051765596564646264 -0.001234328865302416 -0.010868758789202994 0.0 0.0
0.0 0.07458129968754869 0.06470164453656059 -0.06336991450949685 -0.0013317300270636987 -0.012522985801166656 0.0 0.0
0.0 0.08902224114762311 0.07721623719644144 -0.07578478182384414 -0.0014314553725972559 -0.013931528959290621 0.0 0.0
0.0 0.10364460145006345 0.08992244383281317 -0.08838963381306958 -0.0015328100197435348 -0.014597457258715994 0.0 0.0
0.0 0.11730691467274815 0.1018430063148971 -0.1002053764822051 -0.001637629832691969 -0.013975940283753485 0.0 0.0
0.0 0.1284392244476302 0.11159483936901014 -0.10985681829368421 -0.0017380210753258941 -0.01161000520030774 0.0 0.0
0.0 0.13524574367063494 0.11760971437184206 -0.11580101102758367 -0.0018087033442583315 -0.006888121622017543 0.0 0.0
0.0 0.1352457436706267 0.11760971437183426 -0.11580101102757633 -0.001808703344257879 0.0068881216220444165 0.0 0.0
0.0 0.1284392244476034 0.11159483936898587 -0.10985681829366 -0.001738021075325882 0.011610005200348182 0.0 0.0
0.0 0.11730691467270676 0.1018430063148602 -0.10020537648216829 -0.0016376298326918042 0.013975940283782256 0.0 0.0
0.0 0.10364460145001378 0.08992244383276916 -0.08838963381302645 -0.0015328100197427373 0.014597457258728951 0.0 0.0
0.0 0.08902224114756667 0.07721623719639267 -0.07578478182379567 -0.0014314553725969798 0.01393152895928403 0.0 0.0
0.0 0.07458129968748833 0.06470164453650795 -0.06336991450944496 -0.001331730027063019 0.012522985801163414 0.0 0.0
0.0 0.061122483685797625 0.05299992542989621 -0.05176559656459502 -0.0012343288653011977 0.01086875878919992 0.0 0.0
0.0 0.04903386462860945 0.042436458495985714 -0.04129712654641719 -0.0011393319495685205 0.009269664271305211 0.0 0.0
0.0 0.038143798133439794 0.03310346982350339 -0.03205718537503813 -0.0010462844484652556 0.007792697434685157 0.0 0.0
0.0 0.028722481776436007 0.024944847669629157 -0.023991499468672302 -0.0009533482009568473 0.006342889267344156 0.0 0.0
0.0 0.02052604881877819 0.01789652490301496 -0.017038263060195423 -0.0008582618428195337 0.00486629568866093 0.0 0.0
0.0 0.013644512685968984 0.011956765643685016 -0.011200559730419599 -0.0007562059132654138 0.0034441341431549898 0.0 0.0
0.0 0.008130368819851668 0.0071899291629647 -0.00655774747283315 -0.0006321816901315525 0.0022018125694366585 0.0 0.0
0.0 0.004084702857912534 0.003656151900323928 -0.003195975486573749 -0.00046017641375017916 0.001216081191619799 0.0 0.0
0.0 0.0016423946115092123 0.0013354810676051456 -0.001107633232930466 -0.0002278478346746786 0.0005104370151781763 0.0 0.0
0.0 0.0003245518470191244 0.0002219184902886926 -0.00017649250348597526 -4.542598680271724e-05 0.00010794538325480338 0.0 0.0
0.0 7.5204393306235155e-06 3.911133413896128e-06 -3.0427663959146055e-06 -8.683670179815411e-07 2.741414325981939e-06 0.0 0.0
0.0 0.0 0.0 0.0 0.0 0.0 0.0 0.0
0.0 0.0 0.0 0.0 0.0 0.0 0.0 0.0
0.0 0.0061704591660601445 0.004196117044892845 -0.0046925634230455095 0.0004964463781526664 0.0048988989824906345 0.0 0.0
0.0 0.00453661131879321 0.0029486891703570934 -0.003402786800300045 0.0004540976299429503 -0.003797565458017049 0.0 0.0
0.0 0.0 0.0 0.0 0.0 0.0 0.0 0.0
0.0 0.0 0.0 0.0 0.0 0.0 0.0 0.0
0.0 1.7764958665315978e-06 -1.7819784007305854e-07 1.3787375697884427e-07 4.03240830942293e-08 1.8782013220909485e-07 0.0 0.0
0.0 0.00012974691087590538 8.15914662995883e-05 -6.4535347437749e-05 -1.7056118861839168e-05 -6.460458618734063e-05 0.0 0.0
0.0 0.0010602068683871187 0.0008160106899947411 -0.0006664559395510977 -0.0001495547504436438 -0.0004764012058456881 0.0 0.0
0.0 0.003088444722438027 0.0026824713515797155 -0.0023032485919443502 -0.00037922275963536597 -0.0013224228888672606 0.0 0.0
0.0 0.006536678460363187 0.005726313391455308 -0.005150484064570854 -0.0005758293268844539 -0.0025640543624759027 0.0 0.0
0.0 0.011366419993792601 0.009877591213338529 -0.009165674040829318 -0.0007119171725092137 -0.004100784492314541 0.0 0.0
0.0 0.0173881291775466 0.015053466730653617 -0.014237960668451734 -0.0008155060622018771 -0.0058434861847074995 0.0 0.0
0.0 0.024521964552471527 0.021168507948212133 -0.020262596180358545 -0.0009059117678535886 -0.007641747625690734 0.0 0.0
0.0 0.03273517790048521 0.02821319492494198 -0.02722161460575568 -0.0009915803191862963 -0.00941332654304053 0.0 0.0
0.0 0.042087443667012336 0.03625923823984214 -0.03518355114946114 -0.001075687090380992 -0.01122789157163335 0.0 0.0
0.0 0.052709597071756736 0.045382461300605574 -0.04422111335538065 -0.0011613479452249372 -0.013148618754133685 0.0 0.0
0.0 0.06451723691636374 0.055545401414406656 -0.05429730629707453 -0.0012480951173321178 -0.015130959441515178 0.0 0.0
0.0 0.07701219293045072 0.06651468524710195 -0.06517857580967981 -0.0013361094374221665 -0.016892906719935607 0.0 0.0
0.0 0.08998115281198679 0.07778525359361979 -0.07635792936723965 -0.001427324226380127 -0.017848123621765785 0.0 0.0
0.0 0.10223722779755576 0.08851404544072333 -0.08699203877576135 -0.0015220066649619974 -0.017266254121210748 0.0 0.0
0.0 0.11237691517461881 0.09748739174729208 -0.09587548068282076 -0.0016119110644713186 -0.014327462283560645 0.0 0.0
0.0 0.11885462605173445 0.10332113225658675 -0.10164506590279433 -0.001676066353792402 -0.008156444834986676 0.0 0.0
0.0 0.1188546260517252 0.10332113225657813 -0.10164506590278569 -0.0016760663537924857 0.00815644483502198 0.0 0.0
0.0 0.11237691517459401 0.09748739174726895 -0.09587548068279739 -0.0016119110644715448 0.0143274622836083 0.0 0.0
0.0 0.10223722779752069 0.08851404544069133 -0.08699203877572938 -0.0015220066649619226 0.017266254121242754 0.0 0.0
0.0 0.0899811528119406 0.07778525359357884 -0.0763579293671987 -0.0014273242263801375 0.017848123621780537 0.0 0.0
0.0 0.0770121929304006 0.06651468524705856 -0.06517857580963705 -0.0013361094374214823 0.01689290671992849 0.0 0.0
0.0 0.06451723691630892 0.055545401414359305 -0.05429730629702736 -0.0012480951173319257 0.015130959441508786 0.0 0.0
0.0 0.05270959707170199 0.04538246130055819 -0.044221113355333186 -0.0011613479452250019 0.013148618754127903 0.0 0.0
0.0 0.042087443666960996 0.03625923823979737 -0.03518355114941685 -0.0010756870903805152 0.011227891571626665 0.0 0.0
0.0 0.03273517790043659 0.028213194924899723 -0.02722161460571404 -0.0009915803191856817 0.009413326543027317 0.0 0.0
0.0 0.024521964552426855 0.021168507948173227 -0.02026259618032014 -0.0009059117678530999 0.0076417476256776355 0.0 0.0
0.0 0.017388129177510876 0.015053466730622859 -0.01423796066842155 -0.000815506062201301 0.005843486184692572 0.0 0.0
0.0 0.011366419993764254 0.009877591213313728 -0.009165674040805172 -0.0007119171725085493 0.004100784492305106 0.0 0.0
0.0 0.006536678460343094 0.0057263133914376325 -0.005150484064553938 -0.0005758293268836928 0.002564054362468062 0.0 0.0
0.0 0.0030884447224250964 0.0026824713515685213 -0.002303248591934151 -0.00037922275963437013 0.0013224228888621256 0.0 0.0
0.0 0.0010602068683807028 0.0008160106899901708 -0.0006664559395472892 -0.00014955475044288173 0.000476401205843041 0.0 0.0
0.0 0.00012974691087424864 8.159146629905918e-05 -6.453534743730815e-05 -1.705611886175111e-05 6.460458618686446e-05 0.0 0.0
0.0 1.7764958662467406e-06 -1.7819784004332652e-07 1.3787375695581053e-07 4.032408308752122e-08 -1.8782013217738892e-07 0.0 0.0
0.0 0.0 0.0 0.0 0.0 0.0 0.0 0.0
0.0 0.0 0.0 0.0 0.0 0.0 0.0 0.0
0.0 0.004536611318778353 0.002948689170347299 -0.0034027868002894576 0.0004540976299421581 0.0037975654580023753 0.0 0.0
0.0 0.0032155674990741695 0.002006213562910815 -0.0023864249130733464 0.00038021135016253274 -0.0027373672897824386 0.0 0.0
0.0 0.0 0.0 0.0 0.0 0.0 0.0 0.0
0.0 0.0 0.0 0.0 0.0 0.0 0.0 0.0
0.0 3.1234164431588785e-07 -2.5617850497127908e-08 2.0115826190663957e-08 5.502024306463789e-09 4.21043713021938e-08 0.0 0.0
0.0 4.526915428824017e-05 2.3070153275628214e-05 -1.830357371334774e-05 -4.766579562280489e-06 -2.8556232937989436e-05 0.0 0.0
0.0 0.0005898852894756176 0.00042855140636155313 -0.00034560570539080666 -8.294570097074647e-05 -0.00037634863836421363 0.0 0.0
0.0 0.0022608099986978014 0.0017886908860076786 -0.0015052587822238519 -0.00028343210378382693 -0.001234036334452317 0.0 0.0
0.0 0.00504806344342677 0.00429325029793521 -0.0037923187312914257 -0.0005009315666437829 -0.002613398640293103 0.0 0.0
0.0 0.009126175838877064 0.007819514064443738 -0.007164457271504457 -0.0006550567929392801 -0.004379059242478692 0.0 0.0
0.0 0.01429045592803055 0.012222018361239312 -0.011457879872079448 -0.0007641384891598647 -0.006332404456383984 0.0 0.0
0.0 0.02037822727014916 0.017403934814238884 -0.016551888072304642 -0.0008520467419342443 -0.008341038068691617 0.0 0.0
0.0 0.027327441734211262 0.023341332811742794 -0.02241027451405918 -0.0009310582976836137 -0.0103137355724075 0.0 0.0
0.0 0.035289851606022646 0.030103184238612024 -0.029096051594772302 -0.0010071326438397228 -0.012320921790825138 0.0 0.0
0.0 0.04418008733501494 0.03778758802439481 -0.03670471877701322 -0.0010828692473815894 -0.014460937283448601 0.0 0.0
0.0 0.05422722918469009 0.046400624077368724 -0.04524142996866942 -0.0011591941086992758 -0.016650163549369476 0.0 0.0
0.0 0.06521940807024579 0.05578738851581318 -0.05455090425728197 -0.001236484258531193 -0.0185955490363863 0.0 0.0
0.0 0.07634469427435207 0.06557897389696761 -0.06426364084802402 -0.0013153330489435674 -0.01979234815677703 0.0 0.0
0.0 0.08713762947695111 0.07511777973130314 -0.07371986293214068 -0.001397916799162438 -0.0193902570930363 0.0 0.0
0.0 0.09640001631779527 0.08340041913003962 -0.081921878364168 -0.0014785407658716146 -0.016238169455500148 0.0 0.0
0.0 0.10270112039753261 0.0891814286603243 -0.08764135355540205 -0.0015400751049222045 -0.009208542550429752 0.0 0.0
0.0 0.10270112039752699 0.08918142866031845 -0.08764135355539618 -0.0015400751049221948 0.009208542550466693 0.0 0.0
0.0 0.0964000163177771 0.08340041913002136 -0.08192187836414994 -0.0014785407658713728 0.016238169455549137 0.0 0.0
0.0 0.08713762947692168 0.0751177797312751 -0.07371986293211312 -0.0013979167991620006 0.019390257093070584 0.0 0.0
0.0 0.07634469427431534 0.0655789738969343 -0.06426364084799091 -0.0013153330489433972 0.01979234815679394 0.0 0.0
0.0 0.06521940807020522 0.055787388515778115 -0.05455090425724712 -0.001236484258531 0.018595549036379586 0.0 0.0
0.0 0.05422722918464644 0.04640062407733078 -0.04524142996863189 -0.001159194108698897 0.016650163549362735 0.0 0.0
0.0 0.04418008733497043 0.03778758802435591 -0.03670471877697505 -0.0010828692473808645 0.014460937283442502 0.0 0.0
0.0 0.03528985160598086 0.03010318423857525 -0.02909605159473613 -0.001007132643839111 0.012320921790818399 0.0 0.0
0.0 0.02732744173417214 0.023341332811708724 -0.02241027451402607 -0.0009310582976826378 0.01031373557239466 0.0 0.0
0.0 0.02037822727011201 0.01740393481420677 -0.016551888072273407 -0.0008520467419333701 0.008341038068676967 0.0 0.0
0.0 0.014290455927998054 0.012222018361212141 -0.011457879872053028 -0.0007641384891591111 0.006332404456365632 0.0 0.0
0.0 0.009126175838852217 0.007819514064422335 -0.007164457271483664 -0.0006550567929386664 0.004379059242467892 0.0 0.0
0.0 0.005048063443407599 0.0042932502979189865 -0.003792318731276256 -0.00050093156664273 0.0026133986402836875 0.0 0.0
0.0 0.0022608099986853236 0.0017886908859975348 -0.0015052587822149146 -0.0002834321037826211 0.0012340363344462099 0.0 0.0
0.0 0.0005898852894697725 0.0004285514063574644 -0.000345605705387436 -8.294570097002839e-05 0.0003763486383606625 0.0 0.0
0.0 4.526915428737989e-05 2.3070153275615305e-05 -1.830357371332558e-05 -4.766579562289657e-06 2.855623293790738e-05 0.0 0.0
0.0 3.1234164401444015e-07 -2.5617850471780222e-08 2.0115826170972936e-08 5.502024300809174e-09 -4.2104371261965705e-08 0.0 0.0
0.0 0.0 0.0 0.0 0.0 0.0 0.0 0.0
0.0 0.0 0.0 0.0 0.0 0.0 0.0 0.0
0.0 0.003215567499061871 0.0020062135629029844 -0.0023864249130646654 0.00038021135016167996 0.0027373672897709734 0.0 0.0
0.0 0.0021264648644707673 0.001283690131157671 -0.0015733470711102857 0.00028965693995261493 -0.0018371032613958569 0.0 0.0
0.0 0.0 0.0 0.0 0.0 0.0 0.0 0.0
0.0 0.0 0.0 0.0 0.0 0.0 0.0 0.0
0.0 7.616774122468806e-07 -5.549138125016537e-08 4.2107338484635224e-08 1.338404276552882e-08 1.233693222903045e-07 0.0 0.0
0.0 1.7961229071926012e-05 4.225543747652247e-06 -3.337631151770257e-06 -8.879125958819886e-07 -7.354941694761719e-06 0.0 0.0
0.0 0.0002680805302839683 0.0001885825324663511 -0.00015096734486390586 -3.761518760244506e-05 -0.00025314152448341283 0.0 0.0
0.0 0.0013947112083267704 0.001059685479320428 -0.0008741819209686663 -0.00018550355835176153 -0.00104546808419884 0.0 0.0
0.0 0.0036539238030162146 0.00294343328433049 -0.0025432934695478584 -0.0004001398147826324 -0.00240271364521587 0.0 0.0
0.0 0.0069877371552075985 0.005800822848569443 -0.005222117247023709 -0.0005787056015457348 -0.004239309952116728 0.0 0.0
0.0 0.011247635561253463 0.009426359050197999 -0.00872655603290876 -0.0006998030172892389 -0.006317867750630045 0.0 0.0
0.0 0.016267498694083393 0.013674361851389111 -0.012885971681220094 -0.0007883901701690116 -0.008419795844820976 0.0 0.0
0.0 0.021989919676466102 0.018511310714370684 -0.017648262961334784 -0.000863047753035906 -0.01047956334468135 0.0 0.0
0.0 0.028466470432850825 0.02399921906404028 -0.023067469997173518 -0.0009317490668667696 -0.012566332975151489 0.0 0.0
0.0 0.03582616648658397 0.030243531867830877 -0.029245405311593947 -0.000998126556236917 -0.014759674596813849 0.0 0.0
0.0 0.04415514795851607 0.03729795521662536 -0.03623365430941752 -0.0010643009072078629 -0.017019231292683627 0.0 0.0
0.0 0.053075677240045666 0.04507964516966961 -0.043949097361697734 -0.0011305478079719003 -0.019072643122384162 0.0 0.0
0.0 0.06268845860690614 0.05333224735202953 -0.052135622516694416 -0.0011966248353350965 -0.02040846545803671 0.0 0.0
0.0 0.0721403455380584 0.061631078087412104 -0.06036622753809546 -0.0012648505493166446 -0.02024938845434742 0.0 0.0
0.0 0.08039572548376869 0.06924654515350802 -0.06791092491479045 -0.001335620238717589 -0.017300812664081077 0.0 0.0
0.0 0.08661875102844777 0.07506514343591744 -0.07366806024564855 -0.0013970831902688767 -0.01005723688472131 0.0 0.0
0.0 0.08661875102844163 0.07506514343591075 -0.07366806024564215 -0.0013970831902686185 0.010057236884758111 0.0 0.0
0.0 0.0803957254837529 0.0692465451534912 -0.06791092491477371 -0.0013356202387175015 0.017300812664129087 0.0 0.0
0.0 0.07214034553803399 0.06163107808738808 -0.060366227538071124 -0.001264850549316968 0.020249388454382303 0.0 0.0
0.0 0.06268845860687552 0.053332247352001406 -0.052135622516666494 -0.001196624835334885 0.020408465458050716 0.0 0.0
0.0 0.05307567724001025 0.04507964516963877 -0.04394909736166781 -0.0011305478079709215 0.01907264312237795 0.0 0.0
0.0 0.044155147958475756 0.03729795521659078 -0.036233654309382975 -0.0010643009072077922 0.01701923129267358 0.0 0.0
0.0 0.03582616648654628 0.030243531867798174 -0.029245405311561345 -0.0009981265562368283 0.01475967459680607 0.0 0.0
0.0 0.02846647043281452 0.023999219064008766 -0.02306746999714246 -0.0009317490668663148 0.012566332975143188 0.0 0.0
0.0 0.021989919676432587 0.0185113107143421 -0.017648262961306872 -0.0008630477530352238 0.010479563344668296 0.0 0.0
0.0 0.01626749869405169 0.013674361851362376 -0.01288597168119385 -0.0007883901701685238 0.008419795844805905 0.0 0.0
0.0 0.011247635561225489 0.009426359050174927 -0.008726556032886424 -0.0006998030172885032 0.006317867750611423 0.0 0.0
0.0 0.006987737155186509 0.005800822848551644 -0.005222117247006722 -0.0005787056015449209 0.004239309952104687 0.0 0.0
0.0 0.003653923803002142 0.002943433284318973 -0.0025432934695374006 -0.0004001398147815708 0.0024027136452074117 0.0 0.0
0.0 0.0013947112083203285 0.0010596854793156903 -0.0008741819209646196 -0.00018550355835107057 0.0010454680841947962 0.0 0.0
0.0 0.00026808053028165704 0.00018858253246530597 -0.00015096734486307902 -3.761518760222692e-05 0.0002531415244820596 0.0 0.0
0.0 1.7961229071330277e-05 4.225543747701922e-06 -3.3376311518079213e-06 -8.879125958939915e-07 7.354941694848974e-06 0.0 0.0
0.0 7.616774120036076e-07 -5.54913812317514e-08 4.210733847065235e-08 1.3384042761090036e-08 -1.2336932224923908e-07 0.0 0.0
0.0 0.0 0.0 0.0 0.0 0.0 0.0 0.0
0.0 0.0 0.0 0.0 0.0 0.0 0.0 0.0
0.0 0.0021264648644612315 0.0012836901311518805 -0.0015733470711036624 0.00028965693995178216 0.0018371032613873116 0.0 0.0
0.0 0.0012901943806472532 0.0007365255654927185 -0.0009296215516557106 0.00019309598616299226 -0.0011088709398475334 0.0 0.0
0.0 2.413150468070681e-07 -3.1561199297649185e-09 2.895078666521106e-09 2.6104126324386403e-10 4.838109291425756e-08 0.0 0.0
0.0 0.0 0.0 0.0 0.0 0.0 0.0 0.0
0.0 1.343535810957597e-06 -6.745450613659108e-08 5.1836617700734505e-08 1.5617888435866596e-08 2.5068220686766373e-07 0.0 0.0
0.0 8.730100805537159e-06 2.7810570780537018e-06 -2.199808071012188e-06 -5.812490070415183e-07 -7.33459219043608e-06 0.0 0.0
0.0 0.00013474530512838968 6.319224049170744e-05 -5.049061936078522e-05 -1.2701621130922279e-05 -0.00012908716185139148 0.0 0.0
0.0 0.0007498811387863982 0.0005110486602591441 -0.00041440991275767285 -9.663874750147136e-05 -0.0007521560403518346 0.0 0.0
0.0 0.002346370582177644 0.0017590635976048926 -0.0014811946580139987 -0.0002778689395908935 -0.0019901328995062086 0.0 0.0
0.0 0.0049325457972745675 0.0038766422808749106 -0.0034066685511817745 -0.00046997372969313577 -0.003712361974148308 0.0 0.0
0.0 0.00828011686074741 0.006693205253091672 -0.006080604869773728 -0.0006126003833179427 -0.005754330997426039 0.0 0.0
0.0 0.012232578671364378 0.010005559165229296 -0.009297234019930224 -0.0007083251452990682 -0.007860281762607389 0.0 0.0
0.0 0.016712664057330594 0.013751186434890105 -0.012968476911039514 -0.0007827095238505891 -0.009895244178794688 0.0 0.0
0.0 0.02177973508651438 0.017977437422661675 -0.01713141466391876 -0.0008460227587429045 -0.011929786245038683 0.0 0.0
0.0 0.027489417585226383 0.022792906126735353 -0.021888644840162272 -0.0009042612865730765 -0.014056037377362338 0.0 0.0
0.0 0.0340049256753533 0.028280089235307726 -0.027320413228251263 -0.0009596760070564542 -0.016240297692618692 0.0 0.0
0.0 0.04123139167917383 0.03442706564685335 -0.03341068580228397 -0.001016379844569378 -0.018244127040181385 0.0 0.0
0.0 0.04888900396022706 0.041086799302780516 -0.04001680689519714 -0.0010699924075833799 -0.019654518270788512 0.0 0.0
0.0 0.05677698884269578 0.04805202689970193 -0.04693077153047659 -0.0011212553692253467 -0.01981304958718632 0.0 0.0
0.0 0.06441485918804235 0.05493407431349236 -0.05375491064448075 -0.0011791636690115961 -0.017445508301976134 0.0 0.0
0.0 0.07068594032229965 0.060837282627041224 -0.05959480722963285 -0.0012424753974083654 -0.01067871135967816 0.0 0.0
0.0 0.07068594032229386 0.06083728262703523 -0.05959480722962622 -0.0012424753974089727 0.010678711359711804 0.0 0.0
0.0 0.06441485918803096 0.05493407431347889 -0.05375491064446694 -0.001179163669011959 0.01744550830202348 0.0 0.0
0.0 0.05677698884267882 0.0480520268996834 -0.0469307715304584 -0.001121255369224978 0.01981304958722068 0.0 0.0
0.0 0.04888900396020643 0.04108679930276029 -0.04001680689517772 -0.0010699924075825917 0.019654518270802286 0.0 0.0
0.0 0.0412313916791465 0.03442706564682963 -0.03341068580226092 -0.0010163798445687136 0.018244127040174307 0.0 0.0
0.0 0.03400492567532426 0.028280089235282947 -0.027320413228227005 -0.0009596760070559399 0.0162402976926086 0.0 0.0
0.0 0.027489417585201233 0.02279290612671329 -0.021888644840140827 -0.0009042612865724672 0.014056037377356608 0.0 0.0
0.0 0.02177973508649056 0.017977437422640716 -0.01713141466389862 -0.0008460227587420908 0.011929786245032633 0.0 0.0
0.0 0.016712664057304847 0.013751186434868602 -0.012968476911018392 -0.0007827095238502032 0.009895244178781678 0.0 0.0
0.0 0.012232578671340496 0.010005559165209772 -0.009297234019911225 -0.000708325145298539 0.007860281762592666 0.0 0.0
0.0 0.008280116860725406 0.006693205253074521 -0.006080604869757243 -0.0006126003833172793 0.005754330997408361 0.0 0.0
0.0 0.0049325457972577685 0.003876642280861725 -0.0034066685511693544 -0.0004699737296923696 0.003712361974137198 0.0 0.0
0.0 0.002346370582166652 0.0017590635975965562 -0.0014811946580066669 -0.00027786893958988925 0.001990132899498244 0.0 0.0
0.0 0.00074988113878121 0.0005110486602557006 -0.00041440991275479874 -9.663874750090139e-05 0.0007521560403475211 0.0 0.0
0.0 0.0001347453051267437 6.319224049129454e-05 -5.0490619360441446e-05 -1.2701621130852992e-05 0.00012908716185045608 0.0 0.0
0.0 8.730100805277978e-06 2.7810570782239863e-06 -2.199808071147159e-06 -5.812490070768325e-07 7.334592190908595e-06 0.0 0.0
0.0 1.343535810551308e-06 -6.74545061154224e-08 5.1836617684484416e-08 1.561788843093987e-08 -2.5068220678900275e-07 0.0 0.0
0.0 0.0 0.0 0.0 0.0 0.0 0.0 0.0
0.0 2.413150465246296e-07 -3.1561199259962506e-09 2.8950786630596134e-09 2.610412629367381e-10 -4.838109285659394e-08 0.0 0.0
0.0 0.0012901943806403 0.0007365255654888955 -0.0009296215516511599 0.00019309598616226416 0.0011088709398417544 0.0 0.0
0.0 0.0006689214429258952 0.0003478516272917697 -0.0004542593005932127 0.00010640767330144301 -0.0005511602080457608 0.0 0.0
0.0 5.68229300698234e-07 -7.067340485817422e-09 9.746384288017086e-09 -2.679043802201258e-09 1.14239571365149e-07 0.0 0.0
0.0 0.0 0.0 0.0 0.0 0.0 0.0 0.0
0.0 8.694762653476193e-07 -2.987712020632065e-08 2.159330647060148e-08 8.283813735721381e-09 1.7349073420562356e-07 0.0 0.0
0.0 7.154698388074532e-06 1.483679001601481e-06 -1.1678650196314772e-06 -3.1581398197001685e-07 -6.076417714096688e-06 0.0 0.0
0.0 7.778546415430518e-05 2.6768328345923864e-05 -2.1246296968266573e-05 -5.5220313776572845e-06 -8.488711294821206e-05 0.0 0.0
0.0 0.0003589800433908852 0.00018576174787982214 -0.0001489704194953419 -3.6791328384480247e-05 -0.0004479850278529508 0.0 0.0
0.0 0.0012608288747842482 0.000814374448578691 -0.0006668789943642504 -0.0001474954542144405 -0.001402707497012934 0.0 0.0
0.0 0.003033287986682073 0.0021416839824170164 -0.0018221658024582534 -0.00031951817995876097 -0.002872400865802137 0.0 0.0
0.0 0.0053736406192919604 0.004087880120020877 -0.003607223868256447 -0.00048065625176442836 -0.004675391235974352 0.0 0.0
0.0 0.008340590005187928 0.006438775199531942 -0.005844115399493951 -0.0005946598000379899 -0.006603811772203088 0.0 0.0
0.0 0.011550463724493788 0.009098935876296975 -0.008422719453871555 -0.0006762164224254165 -0.008504716803062974 0.0 0.0
0.0 0.015172128448900654 0.012082135087607889 -0.011342103608851874 -0.0007400314787560147 -0.01038948472169505 0.0 0.0
0.0 0.019308593066057637 0.015481931535946701 -0.014688743297813148 -0.0007931882381335537 -0.012314384474163411 0.0 0.0
0.0 0.02409298695355933 0.01940004507928267 -0.018559663168560198 -0.0008403819107224729 -0.014284708582898105 0.0 0.0
0.0 0.029434593474724987 0.023888069540738122 -0.023002210757422478 -0.0008858587833156344 -0.01613166210263877 0.0 0.0
0.0 0.03533002962286244 0.028901578447988432 -0.027970330201780552 -0.0009312482462078758 -0.017467886429017542 0.0 0.0
0.0 0.041501358010561804 0.03440070250068154 -0.03343445250939073 -0.0009662499912908139 -0.017889849864344054 0.0 0.0
0.0 0.04797938972999542 0.04038283545911593 -0.039380968102213525 -0.0010018673569023853 -0.01648619407620614 0.0 0.0
0.0 0.05418514297133918 0.04635351154505711 -0.045287691346026164 -0.0010658201990309624 -0.011013196631711838 0.0 0.0
0.0 0.05418514297133848 0.04635351154505469 -0.045287691346024096 -0.001065820199030573 0.011013196631740281 0.0 0.0
0.0 0.047979389729992834 0.04038283545910907 -0.03938096810220738 -0.0010018673569016827 0.016486194076249377 0.0 0.0
0.0 0.04150135801055041 0.03440070250066742 -0.03343445250937712 -0.000966249991290291 0.017889849864375355 0.0 0.0
0.0 0.035330029622846475 0.028901578447972618 -0.027970330201765637 -0.000931248246206979 0.017467886429026597 0.0 0.0
0.0 0.02943459347470339 0.02388806954071998 -0.023002210757404794 -0.0008858587833151736 0.01613166210263115 0.0 0.0
0.0 0.024092986953536528 0.019400045079263992 -0.018559663168541768 -0.0008403819107222334 0.014284708582887178 0.0 0.0
0.0 0.01930859306603763 0.015481931535929704 -0.014688743297796358 -0.0007931882381333488 0.012314384474157513 0.0 0.0
0.0 0.015172128448882457 0.012082135087592448 -0.011342103608836543 -0.0007400314787559068 0.010389484721688616 0.0 0.0
0.0 0.011550463724475202 0.00909893587628195 -0.008422719453857138 -0.0006762164224248099 0.008504716803051439 0.0 0.0
0.0 0.00834059000517031 0.006438775199518067 -0.005844115399480764 -0.0005946598000373009 0.0066038117721903085 0.0 0.0
0.0 0.005373640619275867 0.004087880120009173 -0.003607223868245504 -0.0004806562517636685 0.0046753912359599765 0.0 0.0
0.0 0.003033287986671542 0.002141683982409167 -0.0018221658024512545 -0.00031951817995791237 0.002872400865793845 0.0 0.0
0.0 0.0012608288747780775 0.0008143744485744949 -0.0006668789943606807 -0.00014749545421381406 0.0014027074970071028 0.0 0.0
0.0 0.00035898004338816444 0.00018576174787864145 -0.00014897041949437804 -3.6791328384263474e-05 0.00044798502785048757 0.0 0.0
0.0 7.778546415308664e-05 2.6768328345818e-05 -2.1246296968185177e-05 -5.522031377632814e-06 8.488711294784029e-05 0.0 0.0
0.0 7.154698387890773e-06 1.4836790017441183e-06 -1.1678650197444227e-06 -3.1581398199968873e-07 6.076417714717067e-06 0.0 0.0
0.0 8.694762648168817e-07 -2.987712019000699e-08 2.1593306458356525e-08 8.283813731647456e-09 -1.7349073409897767e-07 0.0 0.0
0.0 0.0 0.0 0.0 0.0 0.0 0.0 0.0
0.0 5.682293000733039e-07 -7.067340481250902e-09 9.746384282047934e-09 -2.6790438007974454e-09 -1.1423957123934295e-07 0.0 0.0
0.0 0.00066892144292122 0.00034785162728962827 -0.00045425930059054187 0.00010640767330091364 0.0005511602080424388 0.0 0.0
0.0 0.00023573054213625396 0.00012074428717402085 -0.00016546711465020652 4.47228274761857e-05 -0.00020147024328973602 0.0 0.0
0.0 2.0717276247831737e-06 -6.165853434397743e-09 1.47916262852059e-08 -8.625772850807937e-09 4.367858720835785e-07 0.0 0.0
0.0 8.129603515550081e-07 -9.729788138728575e-10 -5.062304710215263e-10 1.479209284894036e-09 1.6676851108718092e-07 0.0 0.0
0.0 1.3942118126280809e-06 -1.7202479833820512e-08 1.1633862331670308e-08 5.568617502153395e-09 2.882879494068393e-07 0.0 0.0
0.0 7.389741335426411e-06 9.164627863158225e-07 -6.908401991104581e-07 -2.2562258720536872e-07 -6.6173116160978644e-06 0.0 0.0
0.0 6.460394480343661e-05 1.3004167724336448e-05 -1.0345753797163823e-05 -2.658413927172627e-06 -7.465383626893715e-05 0.0 0.0
0.0 0.00020912435369357084 6.253256621186069e-05 -5.0068387904842744e-05 -1.246417830701791e-05 -0.00028566948956235767 0.0 0.0
0.0 0.0005506468156865037 0.0002388044042051183 -0.00019155316101924306 -4.7251243185875136e-05 -0.0008058658703825129 0.0 0.0
0.0 0.0014154902109853255 0.0007632696162701517 -0.0006236493380461609 -0.000139620278223991 -0.0017949809508061407 0.0 0.0
0.0 0.0027912028799201454 0.001753360740443462 -0.0014778760615152147 -0.00027548467892824657 -0.003158463410802303 0.0 0.0
0.0 0.004536005659416363 0.00309328047483372 -0.0026893674638453643 -0.00040391301098835405 -0.004701129204714171 0.0 0.0
0.0 0.0066107134875327865 0.0046413383270113686 -0.004140351763067441 -0.0005009865639439243 -0.006293839002302436 0.0 0.0
0.0 0.008891200925011888 0.006391176572637664 -0.005814268053242118 -0.0005769085193955423 -0.007931812828629325 0.0 0.0
0.0 0.011488673827962167 0.008398763127679107 -0.00776296942594856 -0.0006357937017305425 -0.009582261489063099 0.0 0.0
0.0 0.014487154255630621 0.010751979217341452 -0.010070379300811156 -0.0006815999165302942 -0.011247830973661518 0.0 0.0
0.0 0.017966816026863543 0.013553616342275698 -0.012833913450982934 -0.0007197028912927651 -0.012856578999319008 0.0 0.0
0.0 0.02198621355649905 0.016879843998149117 -0.01612248437955015 -0.0007573596185989703 -0.014126223806581342 0.0 0.0
0.0 0.026487275260707897 0.020804070353668908 -0.02001268346319808 -0.0007913868904708364 -0.01463672953764496 0.0 0.0
0.0 0.03175186869769716 0.02557347302043141 -0.02477774503865511 -0.0007957279817762915 -0.014150395403096708 0.0 0.0
0.0 0.037736982020071426 0.03142334170493602 -0.030576891026656505 -0.0008464506782795196 -0.010848920038280554 0.0 0.0
0.0 0.037736982020072994 0.03142334170493546 -0.030576891026655645 -0.0008464506782798265 0.010848920038305097 0.0 0.0
0.0 0.03175186869769786 0.025573473020427596 -0.02477774503865111 -0.000795727981776482 0.01415039540313374 0.0 0.0
0.0 0.02648727526070241 0.020804070353660126 -0.020012683463189365 -0.0007913868904707536 0.014636729537670364 0.0 0.0
0.0 0.02198621355648827 0.016879843998138556 -0.016122484379539864 -0.0007573596185986835 0.014126223806586792 0.0 0.0
0.0 0.017966816026848062 0.013553616342264244 -0.012833913450971722 -0.0007197028912925211 0.012856578999308668 0.0 0.0
0.0 0.014487154255616964 0.010751979217331167 -0.010070379300801032 -0.0006815999165301313 0.011247830973652527 0.0 0.0
0.0 0.011488673827952465 0.008398763127671136 -0.007762969425940888 -0.0006357937017302478 0.009582261489059224 0.0 0.0
0.0 0.00889120092500161 0.006391176572629177 -0.005814268053233935 -0.0005769085193952418 0.007931812828624955 0.0 0.0
0.0 0.006610713487521841 0.004641338327003298 -0.004140351763060036 -0.0005009865639432623 0.006293839002294198 0.0 0.0
0.0 0.004536005659405175 0.0030932804748263964 -0.002689367463838586 -0.0004039130109878094 0.004701129204702796 0.0 0.0
0.0 0.0027912028799098113 0.001753360740437138 -0.0014778760615095435 -0.0002754846789275938 0.003158463410791244 0.0 0.0
0.0 0.001415490210980112 0.0007632696162669154 -0.0006236493380434261 -0.00013962027822348925 0.0017949809508004352 0.0 0.0
0.0 0.0005506468156836377 0.0002388044042039185 -0.00019155316101827642 -4.72512431856419e-05 0.0008058658703791372 0.0 0.0
0.0 0.00020912435369224692 6.253256621169044e-05 -5.006838790469869e-05 -1.2464178306991742e-05 0.00028566948956133516 0.0 0.0
0.0 6.460394480204388e-05 1.300416772418496e-05 -1.0345753797043184e-05 -2.6584139271417595e-06 7.465383626800486e-05 0.0 0.0
0.0 7.389741335178524e-06 9.164627863863012e-07 -6.90840199164426e-07 -2.2562258722187704e-07 6.617311616659203e-06 0.0 0.0
0.0 1.3942118121365584e-06 -1.7202479827439693e-08 1.1633862327329383e-08 5.568617500112952e-09 -2.8828794930130727e-07 0.0 0.0
0.0 8.12960351106587e-07 -9.729788137991681e-10 -5.062304704954294e-10 1.479209284295063e-09 -1.667685109932312e-07 0.0 0.0
0.0 2.0717276240791394e-06 -6.165853431574411e-09 1.4791626278552993e-08 -8.625772846978897e-09 -4.3678587193397695e-07 0.0 0.0
0.0 0.00023573054213354684 0.00012074428717306058 -0.00016546711464892938 4.4722827475868645e-05 0.00020147024328824966 0.0 0.0
0.0 4.806130728969884e-05 2.138075127001392e-05 -3.059761650440536e-05 9.216865234391436e-06 -3.798085131812209e-05 0.0 0.0
0.0 2.3409661729961703e-06 6.496376963596438e-10 1.3091562580591183e-08 -1.3741200276949575e-08 4.872012716183131e-07 0.0 0.0
0.0 8.28283976103979e-07 8.757322001854407e-09 -7.994197467743662e-09 -7.631245341108108e-10 1.6872916499049268e-07 0.0 0.0
0.0 1.1680163464574858e-06 -3.2595146691308838e-09 1.192345643037731e-09 2.0671690260937496e-09 -1.8626297924791356e-08 0.0 0.0
0.0 9.642400866997684e-06 1.7171798293846557e-07 -1.1294655825328913e-07 -5.8771424685182785e-08 -6.004978414547241e-06 0.0 0.0
0.0 5.996224652240872e-05 4.003789169985993e-06 -3.1234425850918262e-06 -8.803465848941554e-07 -7.838928815028849e-05 0.0 0.0
0.0 0.00017852032889438787 1.8841457711992946e-05 -1.5042319079345598e-05 -3.7991386326473688e-06 -0.0002738156283726492 0.0 0.0
0.0 0.00038918019498156717 5.049381713847045e-05 -4.050823119139765e-05 -9.985585947072743e-06 -0.0005725702782473848 0.0 0.0
0.0 0.000666165078211162 0.0001203086411728497 -9.701684258049882e-05 -2.3291798592350907e-05 -0.0010644895981077058 0.0 0.0
0.0 0.0011611193508497826 0.0002558280387135993 -0.0002072202251437588 -4.860781356984046e-05 -0.0017801320641983608 0.0 0.0
0.0 0.001760606101393989 0.00052335061593202 -0.0004219047148973133 -0.00010144590103470677 -0.0027885537379304425 0.0 0.0
0.0 0.002605246735895492 0.0008872788879825527 -0.0007186917474814985 -0.00016858714050105428 -0.003931765869396417 0.0 0.0
0.0 0.00360313915251763 0.0013396880543829544 -0.0010992395017246118 -0.00024044855265834247 -0.005224917395533901 0.0 0.0
0.0 0.00484033844281159 0.0019243021780289118 -0.0016181091332846168 -0.0003061930447442956 -0.006686077331306757 0.0 0.0
0.0 0.0063073572464971625 0.002692980795384024 -0.0023304862689489413 -0.0003624945264350835 -0.00829942663459563 0.0 0.0
0.0 0.008107188342615524 0.0037612010944243586 -0.003350982092329057 -0.0004102190020952998 -0.009958497497793055 0.0 0.0
0.0 0.010278615765198104 0.005340249739911028 -0.004886110650906318 -0.00045413908900470616 -0.011361318615604748 0.0 0.0
0.0 0.012908483637085617 0.007651953106510543 -0.007146514093550528 -0.000505439012960013 -0.011970855992729708 0.0 0.0
0.0 0.016336474226602206 0.010923572513660081 -0.01038546801699948 -0.0005381044966605987 -0.011559668472616419 0.0 0.0
0.0 0.021460084842724804 0.01598821525676778 -0.015476421955406572 -0.0005117933013612105 -0.010286801378906679 0.0 0.0
0.0 0.02146008484272513 0.015988215256766393 -0.01547642195540506 -0.0005117933013613251 0.010286801378924253 0.0 0.0
0.0 0.016336474226601342 0.010923572513655758 -0.010385468016995185 -0.0005381044966605733 0.011559668472641416 0.0 0.0
0.0 0.012908483637083426 0.007651953106505845 -0.007146514093546043 -0.0005054390129598003 0.01197085599274493 0.0 0.0
0.0 0.010278615765194229 0.0053402497399086335 -0.00488611065090407 -0.0004541390890045586 0.011361318615603438 0.0 0.0
0.0 0.008107188342609931 0.0037612010944223645 -0.0033509820923273946 -0.0004102190020949689 0.009958497497785093 0.0 0.0
0.0 0.006307357246491261 0.0026929807953817555 -0.0023304862689469625 -0.0003624945264347921 0.008299426634587558 0.0 0.0
0.0 0.004840338442808804 0.0019243021780283999 -0.0016181091332843677 -0.0003061930447440325 0.006686077331302446 0.0 0.0
0.0 0.0036031391525144464 0.0013396880543819784 -0.0010992395017239659 -0.0002404485526580122 0.005224917395529641 0.0 0.0
0.0 0.0026052467358901187 0.0008872788879813155 -0.0007186917474804495 -0.00016858714050086584 0.003931765869388451 0.0 0.0
0.0 0.001760606101389232 0.0005233506159308044 -0.0004219047148963296 -0.00010144590103447452 0.0027885537379225044 0.0 0.0
0.0 0.0011611193508452118 0.0002558280387127016 -0.00020722022514303912 -4.860781356966259e-05 0.0017801320641918522 0.0 0.0
0.0 0.0006661650782092813 0.0001203086411725006 -9.701684258025097e-05 -2.3291798592249557e-05 0.0010644895981046926 0.0 0.0
0.0 0.00038918019498040556 5.049381713829421e-05 -4.050823119126407e-05 -9.985585947030112e-06 0.0005725702782454843 0.0 0.0
0.0 0.00017852032889270847 1.884145771190882e-05 -1.504231907926526e-05 -3.799138632643552e-06 0.00027381562837137756 0.0 0.0
0.0 5.996224652146076e-05 4.003789169949028e-06 -3.1234425850600396e-06 -8.803465848889917e-07 7.838928814955959e-05 0.0 0.0
0.0 9.642400866690784e-06 1.7171798294865108e-07 -1.1294655825934955e-07 -5.877142468930486e-08 6.004978414992955e-06 0.0 0.0
0.0 1.1680163462145216e-06 -3.259514685625557e-09 1.1923456578144482e-09 2.0671690278110245e-09 1.862629851158513e-08 0.0 0.0
0.0 8.282839756553083e-07 8.757321996808003e-09 -7.99419746324245e-09 -7.631245335657651e-10 -1.687291648967851e-07 0.0 0.0
0.0 2.340966172321822e-06 6.496376968874008e-10 1.3091562575233056e-08 -1.3741200272117913e-08 -4.87201271473837e-07 0.0 0.0
0.0 4.806130728870954e-05 2.138075126994603e-05 -3.059761650429274e-05 9.216865234346658e-06 3.798085131815608e-05 0.0 0.0
0.0 2.4600582823747287e-06 1.317492555648251e-07 -1.9043688680564028e-07 5.868763124080857e-08 -2.5534987024454246e-07 0.0 0.0
0.0 1.9604915113117923e-06 2.989625317883681e-09 5.82739554438997e-09 -8.817020862268795e-09 3.0570518719828736e-07 0.0 0.0
0.0 1.3103733909494583e-06 -3.119173872800713e-08 2.4414989506111282e-08 6.7767492218971446e-09 -3.124388633404418e-07 0.0 0.0
0.0 2.466439986726192e-06 -1.4123670565440667e-07 1.1979730179127404e-07 2.143940386313271e-08 -1.566117789902958e-06 0.0 0.0
0.0 1.3193719465267823e-05 -6.817896912607028e-07 6.033404088137146e-07 7.844928244699762e-08 -1.0333329875244768e-05 0.0 0.0
0.0 6.544876526060501e-05 -5.252366418452705e-06 4.3187613547753895e-06 9.336050636773083e-07 -7.96628426505399e-05 0.0 0.0
0.0 0.00017973603880356738 -1.989432644036447e-05 1.6023109334793944e-05 3.871217105570515e-06 -0.00027599142373155094 0.0 0.0
0.0 0.00038924034652784977 -5.060618986555676e-05 4.059677413712702e-05 1.0009415728429668e-05 -0.0005738026044297838 0.0 0.0
0.0 0.0006660743352240011 -0.00012006316815978759 9.680036021704312e-05 2.3262807942744444e-05 -0.0010649435827475985 0.0 0.0
0.0 0.0011597128894583538 -0.00025519374536497327 0.0002065840279739291 4.860971739104423e-05 -0.0017786833737903692 0.0 0.0
0.0 0.0017672268448158232 -0.0005214410476113115 0.00042100835113814043 0.00010043269647317071 -0.002785499763697639 0.0 0.0
0.0 0.0026094623345236153 -0.0008961922475621876 0.0007272961838398625 0.00016889606372232524 -0.003935850834493804 0.0 0.0
0.0 0.0036284683858274626 -0.0013714221836179999 0.0011292758411742573 0.00024214634244374187 -0.005235561202088006 0.0 0.0
0.0 0.00487775640292407 -0.0019715196561195473 0.0016597270560264501 0.0003117926000930963 -0.0066941468716166155 0.0 0.0
0.0 0.0062548414834058775 -0.002630954272431106 0.002255053516622554 0.000375900755808551 -0.008298278835702916 0.0 0.0
0.0 0.007669931129330386 -0.003169342031599947 0.002736231754253366 0.0004331102773465765 -0.010009802220377489 0.0 0.0
0.0 0.008842818979111338 -0.0032923410516447755 0.002813470871867963 0.00047887017977681247 -0.011819641896966342 0.0 0.0
0.0 0.009615790202514391 -0.0027182937476405962 0.0022069405407603927 0.0005113532068802019 -0.013752556251552816 0.0 0.0
0.0 0.009920532816585009 -0.0014750045247652458 0.0010304288115755879 0.00044457571318965783 -0.01540110129008483 0.0 0.0
0.0 0.0095183446417027 0.0022238462752762634 -0.002311752663358248 8.790638808198409e-05 -0.013976636815720558 0.0 0.0
0.0 0.009518344641706995 0.00222384627527645 -0.0023117526633585437 8.790638808209614e-05 0.013976636815731813 0.0 0.0
0.0 0.00992053281658838 -0.0014750045247656626 0.001030428811576079 0.00044457571318958216 0.015401101290092563 0.0 0.0
0.0 0.009615790202512915 -0.0027182937476402905 0.0022069405407606126 0.0005113532068796766 0.013752556251554408 0.0 0.0
0.0 0.008842818979103792 -0.0032923410516410155 0.002813470871864743 0.00047887017977627183 0.011819641896959512 0.0 0.0
0.0 0.007669931129321893 -0.0031693420315955434 0.002736231754249409 0.0004331102773461322 0.01000980222036716 0.0 0.0
0.0 0.006254841483397767 -0.002630954272427062 0.0022550535166187963 0.00037590075580826415 0.008298278835693722 0.0 0.0
0.0 0.004877756402916135 -0.001971519656114644 0.0016597270560222966 0.0003117926000923471 0.006694146871610657 0.0 0.0
0.0 0.0036284683858183375 -0.001371422183612721 0.001129275841169721 0.00024214634244299922 0.005235561202079936 0.0 0.0
0.0 0.0026094623345149018 -0.0008961922475581638 0.000727296183836393 0.00016889606372177078 0.003935850834484845 0.0 0.0
0.0 0.0017672268448095379 -0.0005214410476085023 0.00042100835113583347 0.00010043269647266906 0.002785499763689126 0.0 0.0
0.0 0.0011597128894533845 -0.00025519374536361265 0.0002065840279727369 4.860971739087571e-05 0.0017786833737841153 0.0 0.0
0.0 0.0006660743352223822 -0.00012006316815930338 9.68003602166404e-05 2.326280794266298e-05 0.0010649435827454403 0.0 0.0
0.0 0.0003892403465266715 -5.060618986531409e-05 4.059677413692132e-05 1.0009415728392727e-05 0.0005738026044284179 0.0 0.0
0.0 0.00017973603880179796 -1.9894326440245623e-05 1.602310933471892e-05 3.8712171055266935e-06 0.00027599142372996166 0.0 0.0
0.0 6.544876525954601e-05 -5.252366418400887e-06 4.318761354737178e-06 9.336050636637182e-07 7.966284264982761e-05 0.0 0.0
0.0 1.3193719464850823e-05 -6.817896912954489e-07 6.033404088439925e-07 7.844928245145274e-08 1.0333329875740321e-05 0.0 0.0
0.0 2.466439986636816e-06 -1.4123670572303574e-07 1.1979730185084463e-07 2.143940387219155e-08 1.5661177906856682e-06 0.0 0.0
0.0 1.3103733906235543e-06 -3.1191738786996385e-08 2.4414989554370256e-08 6.776749232626605e-09 3.124388639463651e-07 0.0 0.0
0.0 1.960491510727627e-06 2.9896253026928946e-09 5.827395544495243e-09 -8.817020847183248e-09 -3.057051866841217e-07 0.0 0.0
0.0 2.4600582818031843e-06 1.3174925570554758e-07 -1.9043688700791715e-07 5.8687631302372724e-08 2.5534987056349076e-07 0.0 0.0
0.0 0.0 0.0 0.0 0.0 0.0 0.0 0.0
0.0 7.864401988905609e-07 5.562617747313795e-09 2.4586987983438436e-09 -8.021316545659175e-09 1.5894775584115108e-07 0.0 0.0
0.0 2.4799430744178714e-06 -8.306546253449448e-08 6.764194914529338e-08 1.542351338919697e-08 -5.685711060293409e-07 0.0 0.0
0.0 5.258943999323964e-06 -2.9295592808287333e-08 3.593527503762616e-08 -6.639682229325339e-09 -4.22430404711205e-07 0.0 0.0
0.0 1.7591808308021273e-05 -3.0482256177644523e-06 2.5491177292857065e-06 4.991078884787539e-07 -1.8611001535184484e-05 0.0 0.0
0.0 7.542084669626654e-05 -1.7329360039287124e-05 1.3941498700345641e-05 3.3878613389414504e-06 -9.206445442391173e-05 0.0 0.0
0.0 0.0002184211591597142 -6.439142443723139e-05 5.1710187928556924e-05 1.2681236508674483e-05 -0.0002910097229150658 0.0 0.0
0.0 0.0005536662926094151 -0.00023986507185594762 0.00019241198086373873 4.7453090992208933e-05 -0.0008091236139275903 0.0 0.0
0.0 0.0014129482584105402 -0.0007622280620548244 0.0006227148709691587 0.00013951319108566565 -0.0017941604857326973 0.0 0.0
0.0 0.0027881807484818485 -0.0017517357871946848 0.0014764886807820195 0.00027524710641266465 -0.0031565512581113067 0.0 0.0
0.0 0.004537858426237255 -0.003095308007166452 0.0026918354200527067 0.00040347258711374357 -0.004701573764327281 0.0 0.0
0.0 0.006625074656486429 -0.0046565104906869485 0.004156146013976131 0.0005003644767108185 -0.006293610256220276 0.0 0.0
0.0 0.008927581811774965 -0.006431784305277213 0.005855013202737935 0.0005767711025392761 -0.007917938961797722 0.0 0.0
0.0 0.011534632235017219 -0.00845078245898869 0.0078107141872828766 0.0006400682717058149 -0.009557560643419175 0.0 0.0
0.0 0.014421496189236676 -0.010674939871983757 0.009977942304000897 0.0006969975679828537 -0.011286778282916667 0.0 0.0
0.0 0.017399030775347706 -0.012910070174143853 0.012159872478677405 0.0007501976954664455 -0.013199746528512926 0.0 0.0
0.0 0.02011981844890427 -0.01477405909293086 0.0139761032475924 0.000797955845338465 -0.01535832660848507 0.0 0.0
0.0 0.021985026028344838 -0.015743074707362158 0.014909767846890229 0.0008333068604719402 -0.017666334102860223 0.0 0.0
0.0 0.02149490896928242 -0.014817982486652097 0.013890394836541092 0.0009275876501109984 -0.018583765328986805 0.0 0.0
0.0 0.016488459538265884 -0.009856469749309753 0.008865854262485356 0.0009906154868243931 -0.015970474671382323 0.0 0.0
0.0 0.016488459538273333 -0.009856469749311019 0.008865854262486459 0.0009906154868245603 0.01597047467140408 0.0 0.0
0.0 0.021494908969284084 -0.014817982486647866 0.013890394836536533 0.0009275876501113271 0.018583765329013326 0.0 0.0
0.0 0.021985026028338916 -0.015743074707353817 0.014909767846881958 0.0008333068604718557 0.01766633410287549 0.0 0.0
0.0 0.020119818448889434 -0.014774059092917867 0.013976103247579504 0.000797955845338365 0.01535832660848321 0.0 0.0
0.0 0.0173990307753299 -0.01291007017412992 0.012159872478663828 0.0007501976954660957 0.013199746528500748 0.0 0.0
0.0 0.014421496189220565 -0.010674939871971021 0.009977942303988666 0.0006969975679823528 0.0112867782829067 0.0 0.0
0.0 0.011534632235000241 -0.008450782458975608 0.007810714187269823 0.0006400682717057862 0.00955756064340856 0.0 0.0
0.0 0.008927581811758192 -0.006431784305263489 0.005855013202724367 0.000576771102539119 0.007917938961788806 0.0 0.0
0.0 0.0066250746564698055 -0.004656510490674381 0.004156146013964273 0.0005003644767101074 0.006293610256208565 0.0 0.0
0.0 0.004537858426219047 -0.003095308007153482 0.0026918354200407757 0.00040347258711270675 0.0047015737643118114 0.0 0.0
0.0 0.002788180748467265 -0.001751735787184927 0.0014764886807733496 0.0002752471064115773 0.0031565512580971206 0.0 0.0
0.0 0.0014129482584032357 -0.0007622280620498637 0.0006227148709650052 0.00013951319108485857 0.001794160485725288 0.0 0.0
0.0 0.0005536662926066513 -0.00023986507185458936 0.00019241198086265658 4.745309099193283e-05 0.0008091236139243522 0.0 0.0
0.0 0.000218421159157733 -6.439142443685632e-05 5.171018792826537e-05 1.2681236508590923e-05 0.0002910097229134294 0.0 0.0
0.0 7.542084669447948e-05 -1.7329360039113567e-05 1.3941498700203875e-05 3.3878613389096697e-06 9.206445442299147e-05 0.0 0.0
0.0 1.7591808307662565e-05 -3.048225617831001e-06 2.54911772934155e-06 4.991078884894346e-07 1.8611001535600916e-05 0.0 0.0
0.0 5.25894399903053e-06 -2.92955928638303e-08 3.5935275085772014e-08 -6.639682221937849e-09 4.2243040509927866e-07 0.0 0.0
0.0 2.4799430736926464e-06 -8.306546261247786e-08 6.764194920736991e-08 1.5423513405108032e-08 5.685711065955144e-07 0.0 0.0
0.0 7.864401982389868e-07 5.562617742716562e-09 2.4586987968030427e-09 -8.021316539519248e-09 -1.5894775570840683e-07 0.0 0.0
0.0 0.0 0.0 0.0 0.0 0.0 0.0 0.0
0.0 0.0 0.0 0.0 0.0 0.0 0.0 0.0
0.0 9.659038647247042e-07 1.536493391610939e-08 -9.441890028047111e-09 -5.923043888061976e-09 1.9697054502569396e-07 0.0 0.0
0.0 3.123797815057657e-06 1.0788026094104876e-07 -8.564980673659911e-08 -2.2230454204453356e-08 6.305005306608872e-07 0.0 0.0
0.0 7.506971568524912e-06 9.102945782561689e-08 -7.871875200106418e-08 -1.2310705824541647e-08 4.872383478967116e-07 0.0 0.0
0.0 2.4622264323784546e-05 -6.142515182935627e-06 4.972901682416826e-06 1.1696135005188175e-06 -2.213695293001004e-05 0.0 0.0
0.0 9.646428520742753e-05 -3.468985695739363e-05 2.7904289099824605e-05 6.785567857569013e-06 -0.00010778096366945341 0.0 0.0
0.0 0.00037633064369378905 -0.00019261664299071105 0.00015471486948923324 3.790177350147784e-05 -0.0004616377542827458 0.0 0.0
0.0 0.00126378031136166 -0.0008153252647736509 0.000667754346402142 0.00014757091837150886 -0.001406151561757296 0.0 0.0
0.0 0.00302817221184043 -0.002138953856503388 0.001819631185323836 0.0003193226711795515 -0.0028688074170848156 0.0 0.0
0.0 0.005371247550530948 -0.004086955388109283 0.0036063883870999167 0.0004805670010093671 -0.004673260258049554 0.0 0.0
0.0 0.008344098323380605 -0.006442227955120649 0.005847928122300463 0.0005942998328201893 -0.006604023048398316 0.0 0.0
0.0 0.011561215091952614 -0.00911121411369678 0.00843591492231983 0.0006752991913769469 -0.008494427291908035 0.0 0.0
0.0 0.015190152246611549 -0.012111898002569036 0.011372709813051413 0.0007391881895176227 -0.01033462260121553 0.0 0.0
0.0 0.019322644594383362 -0.015519636402599304 0.014723589926108354 0.0007960464764909462 -0.012205899245774218 0.0 0.0
0.0 0.02401795914250581 -0.019332551670487717 0.01847926596540539 0.0008532857050823297 -0.014281575884638915 0.0 0.0
0.0 0.028990197494710972 -0.023347174598012874 0.02243405416918065 0.000913120428832214 -0.01680642300698641 0.0 0.0
0.0 0.03385302544485533 -0.0270863326327911 0.02611369233864126 0.0009726402941498231 -0.01996801369150984 0.0 0.0
0.0 0.03728856113845736 -0.029669847588439893 0.028620869278803467 0.0010489783096364266 -0.0232148929046035 0.0 0.0
0.0 0.03755218430876925 -0.029449922478004834 0.028304692662712762 0.0011452298152920721 -0.02483597330282155 0.0 0.0
0.0 0.030346765417579614 -0.023398102355934827 0.022059324307242383 0.0013387780486924345 -0.021216296912272958 0.0 0.0
0.0 0.030346765417585447 -0.023398102355934508 0.02205932430724192 0.0013387780486925822 0.02121629691230116 0.0 0.0
0.0 0.03755218430877269 -0.029449922478001093 0.02830469266270948 0.0011452298152915994 0.02483597330285667 0.0 0.0
0.0 0.037288561138451484 -0.02966984758843 0.028620869278794012 0.0010489783096359708 0.023214892904628186 0.0 0.0
0.0 0.03385302544483788 -0.02708633263277433 0.026113692338625306 0.0009726402941490342 0.019968013691514026 0.0 0.0
0.0 0.028990197494684462 -0.023347174597990603 0.022434054169158644 0.0009131204288319631 0.016806423006976122 0.0 0.0
0.0 0.024017959142480096 -0.01933255167046665 0.01847926596538432 0.0008532857050823284 0.014281575884626559 0.0 0.0
0.0 0.019322644594359364 -0.015519636402579383 0.014723589926088809 0.0007960464764905677 0.01220589924576287 0.0 0.0
0.0 0.015190152246587239 -0.012111898002548395 0.01137270981303105 0.0007391881895173378 0.01033462260120573 0.0 0.0
0.0 0.011561215091929162 -0.009111214113677598 0.008435914922301151 0.0006752991913764463 0.008494427291894863 0.0 0.0
0.0 0.008344098323356565 -0.006442227955101855 0.005847928122282315 0.0005942998328195385 0.006604023048380508 0.0 0.0
0.0 0.005371247550511013 -0.004086955388094252 0.00360638838708564 0.000480567001008612 0.00467326025803384 0.0 0.0
0.0 0.003028172211827165 -0.0021389538564930356 0.0018196311853144395 0.00031932267117859564 0.002868807417075038 0.0 0.0
0.0 0.0012637803113546035 -0.0008153252647687356 0.000667754346398062 0.0001475709183706737 0.0014061515617510886 0.0 0.0
0.0 0.0003763306436902052 -0.00019261664298916945 0.0001547148694880109 3.790177350115851e-05 0.0004616377542796076 0.0 0.0
0.0 9.646428520610148e-05 -3.4689856957381954e-05 2.790428909981313e-05 6.785567857568775e-06 0.00010778096366926174 0.0 0.0
0.0 2.4622264322733862e-05 -6.142515182982188e-06 4.9729016824535745e-06 1.1696135005285757e-06 2.213695293017076e-05 0.0 0.0
0.0 7.506971567972139e-06 9.102945771065996e-08 -7.871875190802049e-08 -1.2310705802649568e-08 -4.872383474174592e-07 0.0 0.0
0.0 3.1237978142420583e-06 1.0788026091149483e-07 -8.564980671326711e-08 -2.2230454198221235e-08 -6.305005304893692e-07 0.0 0.0
0.0 9.659038644330307e-07 1.5364933911636078e-08 -9.441890025310556e-09 -5.923043886328447e-09 -1.969705449648645e-07 0.0 0.0
0.0 0.0 0.0 0.0 0.0 0.0 0.0 0.0
0.0 0.0 0.0 0.0 0.0 0.0 0.0 0.0
0.0 0.0 0.0 0.0 0.0 0.0 0.0 0.0
0.0 1.762862297087584e-06 7.425115861487428e-08 -6.029149643128876e-08 -1.3959662183589334e-08 3.448992119798501e-07 0.0 0.0
0.0 6.5930169894718845e-06 -3.6833125981434857e-07 3.1929323112099947e-07 4.903802869334539e-08 -1.3510068600532114e-06 0.0 0.0
0.0 3.171440439579414e-05 -9.58692478465533e-06 7.80261969746549e-06 1.7843050871898704e-06 -2.4760859529353318e-05 0.0 0.0
0.0 0.0001597828261318296 -8.348065156336971e-05 6.693667978469883e-05 1.6543971778670873e-05 -0.00016884738046426658 0.0 0.0
0.0 0.0007757944643430551 -0.0005198394785179273 0.00042238761012509414 9.745186839283338e-05 -0.0007682255052771554 0.0 0.0
0.0 0.002344729899553525 -0.0017563854240122358 0.0014789431366666478 0.0002774422873455879 -0.0019891045953023346 0.0 0.0
0.0 0.004927022602122114 -0.0038735292052681594 0.003403600619198333 0.0004699285860698267 -0.0037067911864140887 0.0 0.0
0.0 0.008277830474704042 -0.0066940991304788155 0.0060814920683938505 0.0006126070620849633 -0.0057529532585908405 0.0 0.0
0.0 0.012237320976832902 -0.010009750262829893 0.009301698009223851 0.0007080522536060407 -0.007860630706529693 0.0 0.0
0.0 0.01671509650312973 -0.013756687945477561 0.012974633227251743 0.0007820547182258152 -0.00987708044836184 0.0 0.0
0.0 0.021768934741945287 -0.017983746151678894 0.01713864231429366 0.0008451038373852287 -0.011839487421796325 0.0 0.0
0.0 0.027457268939412485 -0.022797516299535324 0.021892401412774234 0.0009051148867610943 -0.013858718024881794 0.0 0.0
0.0 0.033934964068063775 -0.02823151718945946 0.027264373690690142 0.0009671434987692989 -0.01615290694363501 0.0 0.0
0.0 0.04099873078993921 -0.03408815972843028 0.03305117504437588 0.0010369846840544027 -0.019101281428370358 0.0 0.0
0.0 0.047880958317199435 -0.03972525408922739 0.03860612550282316 0.0011191285864042154 -0.022920132087918862 0.0 0.0
0.0 0.053087491039660456 -0.04380880171947058 0.04259039270826802 0.001218409011202513 -0.02697078398811945 0.0 0.0
0.0 0.05368977811367857 -0.04401826938190926 0.042664558991849386 0.0013537103900598424 -0.02914391955163138 0.0 0.0
0.0 0.044722665266258566 -0.03638536500938816 0.0348246635718409 0.0015607014375472723 -0.02591988907468537 0.0 0.0
0.0 0.04472266526626115 -0.036385365009385294 0.03482466357183779 0.0015607014375474983 0.025919889074716554 0.0 0.0
0.0 0.05368977811367409 -0.04401826938189941 0.0426645589918392 0.0013537103900602017 0.029143919551670838 0.0 0.0
0.0 0.053087491039647224 -0.0438088017194542 0.04259039270825228 0.0012184090112019057 0.02697078398814881 0.0 0.0
0.0 0.0478809583171708 -0.039725254089201086 0.0386061255027972 0.0011191285864038708 0.022920132087923463 0.0 0.0
0.0 0.04099873078990619 -0.03408815972840161 0.03305117504434792 0.0010369846840536739 0.019101281428361993 0.0 0.0
0.0 0.033934964068029885 -0.028231517189430577 0.027264373690661783 0.0009671434987687912 0.016152906943623535 0.0 0.0
0.0 0.027457268939379983 -0.022797516299507974 0.021892401412747273 0.0009051148867607004 0.013858718024868398 0.0 0.0
0.0 0.021768934741911918 -0.01798374615165034 0.017138642314265536 0.0008451038373848065 0.01183948742178547 0.0 0.0
0.0 0.016715096503097972 -0.013756687945450707 0.012974633227225519 0.0007820547182251843 0.009877080448346811 0.0 0.0
0.0 0.012237320976802298 -0.010009750262804911 0.009301698009199548 0.0007080522536053634 0.007860630706510694 0.0 0.0
0.0 0.008277830474678016 -0.006694099130458002 0.006081492068373794 0.0006126070620842085 0.005752953258572467 0.0 0.0
0.0 0.00492702260210453 -0.003873529205254125 0.003403600619185411 0.00046992858606871455 0.0037067911864031577 0.0 0.0
0.0 0.00234472989954226 -0.0017563854240034574 0.0014789431366590115 0.0002774422873444459 0.001989104595294432 0.0 0.0
0.0 0.0007757944643371498 -0.0005198394785141416 0.0004223876101219591 9.745186839218243e-05 0.0007682255052722663 0.0 0.0
0.0 0.00015978282613004642 -8.348065156303669e-05 6.693667978442637e-05 1.654397177861032e-05 0.00016884738046356172 0.0 0.0
0.0 3.171440439490331e-05 -9.586924784732372e-06 7.802619697526835e-06 1.784305087205494e-06 2.4760859529554018e-05 0.0 0.0
0.0 6.593016988691857e-06 -3.6833125992591557e-07 3.192932312118266e-07 4.903802871408156e-08 1.3510068604195754e-06 0.0 0.0
0.0 1.7628622966370727e-06 7.425115859493936e-08 -6.029149641515662e-08 -1.3959662179784548e-08 -3.4489921188806817e-07 0.0 0.0
0.0 0.0 0.0 0.0 0.0 0.0 0.0 0.0
0.0 0.0 0.0 0.0 0.0 0.0 0.0 0.0
0.0 0.0 0.0 0.0 0.0 0.0 0.0 0.0
0.0 0.0 0.0 0.0 0.0 0.0 0.0 0.0
0.0 6.301117771691601e-07 3.177133557320747e-08 -2.5610055499987776e-08 -6.161280073216576e-09 1.139376708674144e-07 0.0 0.0
0.0 7.970808409918044e-06 5.815509169919215e-07 -4.6594831902360824e-07 -1.1560259796830223e-07 1.4720355902156086e-06 0.0 0.0
0.0 4.860827972262705e-05 -1.3125643214304856e-05 1.0586943419970004e-05 2.538699794334853e-06 -2.3671273666719278e-05 0.0 0.0
0.0 0.0003183474464336601 -0.0002117814383391617 0.00017043916497029763 4.134227336886403e-05 -0.0002865020332538363 0.0 0.0
0.0 0.0014123210984264105 -0.00106407298860155 0.0008790461315838924 0.0001850268570176573 -0.0010583693289580658 0.0 0.0
0.0 0.003649069058574998 -0.0029383545372815532 0.00253868080216587 0.00039967373511568276 -0.0023987871071691836 0.0 0.0
0.0 0.006983937659345659 -0.00579900585696815 0.005220124848923036 0.0005788810080451141 -0.004232335150050405 0.0 0.0
0.0 0.011250261197664046 -0.009429058069906104 0.008729215790584641 0.0006998422793214572 -0.00631647476800712 0.0 0.0
0.0 0.016271638584560478 -0.013678375167368579 0.012890096118070647 0.0007882790492979285 -0.008418473707119026 0.0 0.0
0.0 0.02198141230087894 -0.018507414138150772 0.0176445402172136 0.0008628739209371762 -0.010455295578255483 0.0 0.0
0.0 0.02842061019433558 -0.023973704436593864 0.02304271153796358 0.0009309928986302692 -0.012456633709209667 0.0 0.0
0.0 0.035740080113858014 -0.030199265491786045 0.02920287404319683 0.000996391448589211 -0.014508895832249444 0.0 0.0
0.0 0.04409138729470788 -0.0372624778896199 0.0361976645083922 0.0010648133812277065 -0.01683955160067279 0.0 0.0
0.0 0.053046640562669986 -0.04496461196123966 0.043818406706952875 0.0011462052542867665 -0.019846803669672623 0.0 0.0
0.0 0.06213291837876263 -0.052469075132764456 0.05121985135710208 0.0012492237756623853 -0.02382187187759709 0.0 0.0
0.0 0.06892863908432223 -0.05796552454967248 0.05658753914682042 0.001377985402852051 -0.028297631169477134 0.0 0.0
0.0 0.06972997143724781 -0.058382420994270406 0.05684331780777483 0.001539103186495543 -0.03130334385358116 0.0 0.0
0.0 0.059168117634842254 -0.049110963634136195 0.04737725000393224 0.001733713630203943 -0.030160164877954056 0.0 0.0
0.0 0.05916811763484655 -0.049110963634134856 0.047377250003930914 0.0017337136302039155 0.0301601648779887 0.0 0.0
0.0 0.06972997143724291 -0.05838242099426036 0.056843317807765095 0.0015391031864952491 0.03130334385362456 0.0 0.0
0.0 0.06892863908430269 -0.05796552454965127 0.05658753914679989 0.0013779854028513818 0.02829763116950826 0.0 0.0
0.0 0.06213291837872935 -0.05246907513273405 0.05121985135707202 0.0012492237756619924 0.023821871877604296 0.0 0.0
0.0 0.05304664056263125 -0.04496461196120602 0.043818406706919395 0.001146205254286604 0.0198468036696665 0.0 0.0
0.0 0.044091387294667495 -0.03726247788958517 0.03619766450835758 0.0010648133812276148 0.01683955160066274 0.0 0.0
0.0 0.035740080113818136 -0.030199265491751878 0.029202874043163053 0.0009963914485888268 0.01450889583223643 0.0 0.0
0.0 0.028420610194296078 -0.02397370443655969 0.02304271153792991 0.0009309928986297772 0.012456633709198493 0.0 0.0
0.0 0.021981412300838964 -0.018507414138116504 0.01764454021717979 0.0008628739209367129 0.010455295578240922 0.0 0.0
0.0 0.016271638584523365 -0.013678375167337662 0.012890096118039922 0.0007882790492977396 0.008418473707099732 0.0 0.0
0.0 0.011250261197633756 -0.009429058069880689 0.008729215790559842 0.0006998422793208538 0.006316474767988878 0.0 0.0
0.0 0.0069839376593212885 -0.005799005856947824 0.0052201248489033595 0.0005788810080444668 0.004232335150037425 0.0 0.0
0.0 0.003649069058559545 -0.002938354537268806 0.0025386808021542638 0.00039967373511454315 0.002398787107160595 0.0 0.0
0.0 0.0014123210984177028 -0.0010640729885950865 0.0008790461315784814 0.00018502685701660487 0.001058369328952363 0.0 0.0
0.0 0.0003183474464303022 -0.00021178143833746693 0.00017043916496892772 4.134227336853921e-05 0.00028650203325173877 0.0 0.0
0.0 4.860827972160129e-05 -1.3125643214388243e-05 1.0586943420028571e-05 2.538699794359571e-06 2.367127366683759e-05 0.0 0.0
0.0 7.970808409158845e-06 5.815509169319078e-07 -4.659483189760668e-07 -1.1560259795583037e-07 -1.4720355900711992e-06 0.0 0.0
0.0 6.301117768796378e-07 3.177133555832444e-08 -2.5610055487985994e-08 -6.161280070339225e-09 -1.1393767081387647e-07 0.0 0.0
0.0 0.0 0.0 0.0 0.0 0.0 0.0 0.0
0.0 0.0 0.0 0.0 0.0 0.0 0.0 0.0
0.0 0.0 0.0 0.0 0.0 0.0 0.0 0.0
0.0 0.0 0.0 0.0 0.0 0.0 0.0 0.0
0.0 9.159772724021529e-07 5.630253744311479e-08 -4.536700834069255e-08 -1.0935529102421052e-08 1.5681455061216043e-07 0.0 0.0
0.0 4.224677904890021e-06 -1.4241410098047615e-07 1.1286274634571601e-07 2.955135463480135e-08 -2.1872966054985852e-07 0.0 0.0
0.0 7.72554431471325e-05 -3.9347650956860357e-05 3.148894022196726e-05 7.858710734893112e-06 -5.157521266972843e-05 0.0 0.0
0.0 0.0006223411745658035 -0.0004526201606170622 0.0003665454346485202 8.607472596854222e-05 -0.0004140146318987188 0.0 0.0
0.0 0.0022684098824215706 -0.0017880586649254694 0.0015059292358371166 0.00028212942908835273 -0.001245397287594212 0.0 0.0
0.0 0.005042703946793691 -0.004288773908142528 0.0037879174641759546 0.0005008564439665738 -0.002605265225056317 0.0 0.0
0.0 0.009125666903746815 -0.007820011926256625 0.007164686265224147 0.000655325661032479 -0.004372498765659637 0.0 0.0
0.0 0.014294870457055808 -0.012226076883757426 0.01146190436007493 0.0007641725236824997 -0.0063315491065534454 0.0 0.0
0.0 0.0203803136974857 -0.017406409391945894 0.01655429857229447 0.000852110819651416 -0.008337267109765947 0.0 0.0
0.0 0.027306370243370525 -0.02332649136871602 0.022395177414135367 0.0009313139545806368 -0.010284309480268995 0.0 0.0
0.0 0.035210591610528946 -0.030045089135493634 0.029038521230072202 0.0010065679054214252 -0.012213189913488983 0.0 0.0
0.0 0.044041122024057744 -0.03768880886439358 0.03660977650575023 0.0010790323586433522 -0.014217609102508157 0.0 0.0
0.0 0.054141379409608 -0.04634775885531444 0.04519400599494659 0.0011537528603678365 -0.016389865581049105 0.0 0.0
0.0 0.06530505368235427 -0.05582794458629161 0.05458222523754022 0.001245719348751386 -0.01903573637326579 0.0 0.0
0.0 0.07611629496168808 -0.06514683940331183 0.06377828027256552 0.0013685591307462637 -0.022674224184437524 0.0 0.0
0.0 0.08429223996835344 -0.0720120765089701 0.07048699964092828 0.001525076868041798 -0.027296576870126328 0.0 0.0
0.0 0.08548522845982341 -0.07265306772781696 0.07095008122375496 0.0017029865040619613 -0.031703960982695734 0.0 0.0
0.0 0.07394170810354242 -0.06193325996810063 0.06004345629703904 0.001889803671061576 -0.03420856460214468 0.0 0.0
0.0 0.07394170810354234 -0.061933259968096 0.06004345629703446 0.001889803671061502 0.03420856460217882 0.0 0.0
0.0 0.08548522845980952 -0.07265306772780028 0.07095008122373814 0.001702986504062099 0.03170396098273854 0.0 0.0
0.0 0.0842922399683265 -0.07201207650894356 0.0704869996409018 0.001525076868041738 0.02729657687015769 0.0 0.0
0.0 0.0761162949616497 -0.06514683940327726 0.06377828027253145 0.0013685591307457928 0.022674224184445844 0.0 0.0
0.0 0.0653050536823096 -0.05582794458625231 0.05458222523750188 0.001245719348750408 0.01903573637326289 0.0 0.0
0.0 0.05414137940955904 -0.04634775885527162 0.045194005994904675 0.001153752860366935 0.016389865581042252 0.0 0.0
0.0 0.04404112202401017 -0.03768880886435237 0.03660977650570953 0.0010790323586428343 0.014217609102497423 0.0 0.0
0.0 0.035210591610481755 -0.03004508913545255 0.02903852123003147 0.00100656790542107 0.012213189913478206 0.0 0.0
0.0 0.027306370243324052 -0.023326491368675657 0.022395177414095586 0.0009313139545800584 0.010284309480255573 0.0 0.0
0.0 0.020380313697442632 -0.01740640939190907 0.016554298572258354 0.000852110819650713 0.008337267109747888 0.0 0.0
0.0 0.014294870457018473 -0.012226076883725663 0.011461904360043856 0.0007641725236818001 0.006331549106535595 0.0 0.0
0.0 0.009125666903718757 -0.007820011926232334 0.007164686265200759 0.0006553256610315741 0.004372498765647371 0.0 0.0
0.0 0.005042703946773648 -0.004288773908125195 0.0037879174641598187 0.0005008564439653745 0.002605265225047228 0.0 0.0
0.0 0.002268409882409594 -0.0017880586649158404 0.0015059292358286414 0.00028212942908719876 0.0012453972875879806 0.0 0.0
0.0 0.0006223411745608282 -0.00045262016061377926 0.0003665454346458261 8.60747259679531e-05 0.00041401463189591286 0.0 0.0
0.0 7.725544314591735e-05 -3.934765095680906e-05 3.148894022191347e-05 7.858710734895603e-06 5.157521266960234e-05 0.0 0.0
0.0 4.224677904511061e-06 -1.4241410113370126e-07 1.1286274646735366e-07 2.9551354666325004e-08 2.1872966083315096e-07 0.0 0.0
0.0 9.159772720464821e-07 5.630253742091469e-08 -4.5367008322703315e-08 -1.0935529098212496e-08 -1.5681455054918204e-07 0.0 0.0
0.0 0.0 0.0 0.0 0.0 0.0 0.0 0.0
0.0 0.0 0.0 0.0 0.0 0.0 0.0 0.0
0.0 0.0 0.0 0.0 0.0 0.0 0.0 0.0
0.0 0.0 0.0 0.0 0.0 0.0 0.0 0.0
0.0 0.0 0.0 0.0 0.0 0.0 0.0 0.0
0.0 4.211964592338361e-06 -8.604185794067059e-07 6.765007116858087e-07 1.8391786772091574e-07 -1.1346209837495637e-06 0.0 0.0
0.0 0.0001489701415449582 -9.271557962084906e-05 7.432646561280243e-05 1.8389114008046737e-05 -8.600355576092207e-05 0.0 0.0
0.0 0.00108059397066161 -0.0008200558880754334 0.000671936722300413 0.00014811916577502042 -0.0005071493664819693 0.0 0.0
0.0 0.0030875866646645767 -0.0026793099423721546 0.0023010358053300213 0.00037827413704213464 -0.0013279219258342436 0.0 0.0
0.0 0.006536078112466397 -0.0057256472188374225 0.005149503930644003 0.0005761432881934194 -0.0025541829429157944 0.0 0.0
0.0 0.011369752234602947 -0.009880627833268747 0.009168481560990262 0.0007121462722784828 -0.004095500030868548 0.0 0.0
0.0 0.017393339320248294 -0.015058025969183517 0.014242450043039482 0.000815575926144043 -0.005842862595964083 0.0 0.0
0.0 0.02451998894253887 -0.02116760757899596 0.02026148659562676 0.0009061209833691865 -0.007634780508906609 0.0 0.0
0.0 0.0327013751488017 -0.02818682896850661 0.027194816154969163 0.0009920128135374393 -0.009381050797985194 0.0 0.0
0.0 0.04198334842338926 -0.036175301307320565 0.03510016006755904 0.0010751412397615122 -0.011139986628680185 0.0 0.0
0.0 0.05252787964284685 -0.045236107788287294 0.04407907290632376 0.0011570348819635147 -0.01296613200030117 0.0 0.0
0.0 0.06436261485031264 -0.055429102608525294 0.05418953958898846 0.0012395630195368473 -0.014850350637457611 0.0 0.0
0.0 0.0770508904105187 -0.06655521915220164 0.06521834913774312 0.0013368700144584958 -0.01685149343802183 0.0 0.0
0.0 0.08984011350413845 -0.07757694727599145 0.0761017019086849 0.001475245367306548 -0.019546311079940065 0.0 0.0
0.0 0.09961096008186372 -0.08586406874222577 0.08420801028084017 0.00165605846138557 -0.023948484736592602 0.0 0.0
0.0 0.10144395289145391 -0.08700386034350736 0.08514953622228981 0.0018543241212175153 -0.03037471643163557 0.0 0.0
0.0 0.08910153722681263 -0.07517722535011317 0.07313437210796774 0.0020428532421454164 -0.03807570968745037 0.0 0.0
0.0 0.08910153722681284 -0.07517722535010882 0.07313437210796388 0.002042853242144969 0.038075709687484374 0.0 0.0
0.0 0.10144395289143479 -0.08700386034348712 0.08514953622227 0.0018543241212171189 0.030374716431674324 0.0 0.0
0.0 0.09961096008182697 -0.08586406874219188 0.08420801028080631 0.0016560584613854548 0.023948484736620076 0.0 0.0
0.0 0.08984011350409207 -0.0775769472759504 0.07610170190864442 0.0014752453673059624 0.019546311079947084 0.0 0.0
0.0 0.07705089041046312 -0.06655521915215337 0.06521834913769493 0.0013368700144583748 0.016851493438019484 0.0 0.0
0.0 0.06436261485025785 -0.05542910260847765 0.05418953958894138 0.0012395630195362825 0.014850350637452416 0.0 0.0
0.0 0.0525278796427932 -0.045236107788240505 0.044079072906278174 0.0011570348819622978 0.012966132000292913 0.0 0.0
0.0 0.041983348423334746 -0.036175301307273096 0.035100160067512425 0.0010751412397606817 0.011139986628670563 0.0 0.0
0.0 0.03270137514874802 -0.028186828968459688 0.02719481615492307 0.0009920128135366343 0.009381050797973356 0.0 0.0
0.0 0.02451998894248766 -0.02116760757895167 0.02026148659558293 0.0009061209833687338 0.007634780508889337 0.0 0.0
0.0 0.01739333932020535 -0.015058025969146316 0.01424245004300283 0.0008155759261434791 0.0058428625959480816 0.0 0.0
0.0 0.01136975223457045 -0.009880627833240247 0.009168481560962293 0.000712146272277952 0.004095500030858088 0.0 0.0
0.0 0.006536078112442993 -0.005725647218816726 0.005149503930624181 0.0005761432881925443 0.0025541829429072695 0.0 0.0
0.0 0.0030875866646515975 -0.002679309942360827 0.002301035805319854 0.00037827413704097254 0.0013279219258291249 0.0 0.0
0.0 0.0010805939706541824 -0.0008200558880700369 0.0006719367222958928 0.00014811916577414392 0.0005071493664788691 0.0 0.0
0.0 0.00014897014154315166 -9.271557962034916e-05 7.432646561238233e-05 1.8389114007966668e-05 8.6003555760476e-05 0.0 0.0
0.0 4.211964591845598e-06 -8.604185796106921e-07 6.765007118460009e-07 1.83917867764704e-07 1.1346209840285459e-06 0.0 0.0
0.0 0.0 0.0 0.0 0.0 0.0 0.0 0.0
0.0 0.0 0.0 0.0 0.0 0.0 0.0 0.0
0.0 0.0 0.0 0.0 0.0 0.0 0.0 0.0
0.0 0.0 0.0 0.0 0.0 0.0 0.0 0.0
0.0 0.0 0.0 0.0 0.0 0.0 0.0 0.0
0.0 0.0 0.0 0.0 0.0 0.0 0.0 0.0
0.0 4.903280001910418e-06 -1.1439967070496437e-06 9.048558975413134e-07 2.3914080950832044e-07 -1.0958726476770435e-06 0.0 0.0
0.0 0.00030414851407668933 -0.0002058410491045923 0.00016488201955603053 4.095902954856171e-05 -0.00012092582930245461 0.0 0.0
0.0 0.0016319247618867072 -0.0013230427180752457 0.0010988325321511104 0.00022421018592413524 -0.0005371942299143963 0.0 0.0
0.0 0.004084239969696317 -0.0036560662675443507 0.0031956448809322 0.0004604213866121502 -0.0012160317329136824 0.0 0.0
0.0 0.008136731380334892 -0.007194681373086768 0.006562068987028728 0.0006326123860580387 -0.002192632637288506 0.0 0.0
0.0 0.013650914446257984 -0.011962103171827084 0.011205751035462798 0.0007563521363642802 -0.0034406423122646185 0.0 0.0
0.0 0.02053084976352583 -0.01790055558207803 0.01704215660021209 0.0008583989818659335 -0.004865353226215417 0.0 0.0
0.0 0.028714787895083853 -0.024938907875935352 0.023985267165689682 0.0009536407102456713 -0.006333597688653331 0.0 0.0
0.0 0.03809832435708013 -0.033066045500855915 0.03201945315206345 0.0010465923487924598 -0.007762339499502911 0.0 0.0
0.0 0.04891528358247244 -0.04233630132312538 0.04119765631026109 0.001138645012864272 -0.00921000716180439 0.0 0.0
0.0 0.06091265493259715 -0.052821312949823944 0.051590429177694644 0.0012308837721293152 -0.010765119974159276 0.0 0.0
0.0 0.07432230008563914 -0.06448693861987476 0.06316248760745967 0.0013244510124151036 -0.01230070162066135 0.0 0.0
0.0 0.08879663871470231 -0.07704863365997063 0.07562217059327878 0.001426463066691871 -0.013502760306307598 0.0 0.0
0.0 0.10319099230092879 -0.08955294949525161 0.08799149961999318 0.0015614498752583956 -0.01471001861805698 0.0 0.0
0.0 0.11465131310494076 -0.09941572521350914 0.09764896316047784 0.001766762053031213 -0.018240708784848958 0.0 0.0
0.0 0.11768896483279023 -0.10159418561811745 0.09959765895037548 0.0019965266677419895 -0.026932200845145138 0.0 0.0
0.0 0.1052855244062669 -0.0892156289901993 0.08700959213571961 0.002206036854479663 -0.04148608338266936 0.0 0.0
0.0 0.10528552440626429 -0.08921562899019357 0.08700959213571458 0.0022060368544790637 0.04148608338269643 0.0 0.0
0.0 0.11768896483276918 -0.10159418561809656 0.09959765895035552 0.001996526667741013 0.026932200845178215 0.0 0.0
0.0 0.11465131310490242 -0.0994157252134741 0.09764896316044398 0.0017667620530300596 0.01824070878487532 0.0 0.0
0.0 0.10319099230087637 -0.08955294949520543 0.08799149961994818 0.0015614498752572785 0.014710018618062138 0.0 0.0
0.0 0.08879663871464255 -0.07704863365991829 0.07562217059322757 0.0014264630666907337 0.01350276030630742 0.0 0.0
0.0 0.07432230008557422 -0.06448693861981818 0.06316248760740376 0.0013244510124144444 0.012300701620659469 0.0 0.0
0.0 0.06091265493253302 -0.05282131294976829 0.05159042917763948 0.0012308837721287842 0.010765119974152682 0.0 0.0
0.0 0.04891528358240937 -0.04233630132307037 0.04119765631020697 0.0011386450128634139 0.00921000716179681 0.0 0.0
0.0 0.0380983243570171 -0.03306604550080113 0.03201945315200927 0.0010465923487918572 0.007762339499495131 0.0 0.0
0.0 0.028714787895028425 -0.02493890787588678 0.023985267165641852 0.0009536407102449251 0.006333597688640207 0.0 0.0
0.0 0.020530849763477972 -0.017900555582036258 0.017042156600170773 0.0008583989818654831 0.004865353226201671 0.0 0.0
0.0 0.013650914446220668 -0.011962103171794133 0.011205751035430513 0.0007563521363636242 0.003440642312255866 0.0 0.0
0.0 0.008136731380307696 -0.007194681373062539 0.006562068987005252 0.000632612386057289 0.002192632637281008 0.0 0.0
0.0 0.004084239969679488 -0.0036560662675291164 0.0031956448809181176 0.0004604213866109995 0.0012160317329085696 0.0 0.0
0.0 0.0016319247618771988 -0.0013230427180673757 0.0010988325321443487 0.00022421018592302618 0.0005371942299112379 0.0 0.0
0.0 0.0003041485140733226 -0.00020584104910257897 0.00016488201955438544 4.095902954819362e-05 0.00012092582930134607 0.0 0.0
0.0 4.9032800013618795e-06 -1.1439967072879937e-06 9.048558977285435e-07 2.391408095594584e-07 1.0958726479097678e-06 0.0 0.0
0.0 0.0 0.0 0.0 0.0 0.0 0.0 0.0
0.0 0.0 0.0 0.0 0.0 0.0 0.0 0.0
0.0 0.0 0.0 0.0 0.0 0.0 0.0 0.0
0.0 0.0 0.0 0.0 0.0 0.0 0.0 0.0
0.0 0.0 0.0 0.0 0.0 0.0 0.0 0.0
0.0 0.0 0.0 0.0 0.0 0.0 0.0 0.0
0.0 1.1912169846345452e-05 -3.0591222481510746e-06 2.456874577815719e-06 6.022476703353844e-07 -1.988726820413156e-06 0.0 0.0
0.0 0.0005796201395614236 -0.0004091350676828657 0.00033013564003787563 7.899942764499017e-05 -0.0001376606206100338 0.0 0.0
0.0 0.0021319176157192227 -0.0019505780023651236 0.001643129294347392 0.00030744870801773086 -0.00045025491565957857 0.0 0.0
0.0 0.0051937753546900355 -0.004673409403974817 0.0041495095463829 0.0005238998575919164 -0.0009062036149648122 0.0 0.0
0.0 0.009772661958812313 -0.008681860249607338 0.008005184915293038 0.0006766753343143002 -0.0015613518381348097 0.0 0.0
0.0 0.015953049992849015 -0.014042700995904822 0.01325120895955303 0.00079149203635179 -0.0024161135617302948 0.0 0.0
0.0 0.023680651789625355 -0.02073247648362963 0.019837722569525124 0.0008947539141045021 -0.0034088487620420513 0.0 0.0
0.0 0.03290340512918121 -0.02870046880502648 0.027704531588664854 0.0009959372163616408 -0.004431608374443587 0.0 0.0
0.0 0.043658827850943445 -0.037941708512645674 0.03684513651773234 0.0010965719949133149 -0.005428121152332185 0.0 0.0
0.0 0.05571113505974601 -0.04850710081888403 0.04730935557635294 0.0011977452425310693 -0.006472342875538641 0.0 0.0
0.0 0.069372200278614 -0.06040834649310594 0.05910734859908073 0.0013009978940251815 -0.007585711827820889 0.0 0.0
0.0 0.08446340086126058 -0.07349826450742078 0.07209022778535534 0.0014080367220654405 -0.008622654072436897 0.0 0.0
0.0 0.10037575280473679 -0.08732387577570479 0.08580450026944421 0.0015193755062605726 -0.009207041229230696 0.0 0.0
0.0 0.1160105074194274 -0.10093169158712884 0.09928879247201647 0.0016428991151124569 -0.009041393487249508 0.0 0.0
0.0 0.12909456282718176 -0.1122834045862913 0.11046450379342349 0.0018189007928678057 -0.010186340320220533 0.0 0.0
0.0 0.13439634713728618 -0.11651497946271809 0.11437737703576561 0.0021376024269524063 -0.020062343121986872 0.0 0.0
0.0 0.12297317526773019 -0.10462657094976513 0.10222891512791932 0.0023976558218457883 -0.043714599549636496 0.0 0.0
0.0 0.12297317526771842 -0.10462657094975336 0.10222891512790663 0.0023976558218466865 0.04371459954965593 0.0 0.0
0.0 0.1343963471372516 -0.11651497946268764 0.11437737703573408 0.0021376024269535313 0.02006234312201166 0.0 0.0
0.0 0.129094562827129 -0.11228340458624561 0.11046450379337686 0.001818900792868747 0.010186340320239186 0.0 0.0
0.0 0.11601050741936483 -0.10093169158707445 0.09928879247196248 0.0016428991151119523 0.009041393487251477 0.0 0.0
0.0 0.10037575280466834 -0.08732387577564515 0.08580450026938555 0.0015193755062595713 0.009207041229229478 0.0 0.0
0.0 0.08446340086118947 -0.07349826450735876 0.07209022778529432 0.001408036722064425 0.008622654072436215 0.0 0.0
0.0 0.06937220027854359 -0.06040834649304466 0.05910734859902037 0.0013009978940242656 0.0075857118278172654 0.0 0.0
0.0 0.05571113505967191 -0.04850710081881991 0.047309355576288965 0.0011977452425309552 0.006472342875532057 0.0 0.0
0.0 0.043658827850872356 -0.03794170851258379 0.03684513651767069 0.0010965719949130796 0.005428121152327524 0.0 0.0
0.0 0.03290340512911914 -0.02870046880497233 0.027704531588611577 0.0009959372163607363 0.004431608374434159 0.0 0.0
0.0 0.023680651789575225 -0.020732476483585623 0.019837722569482026 0.000894753914103608 0.0034088487620325793 0.0 0.0
0.0 0.015953049992808197 -0.01404270099586848 0.01325120895951734 0.000791492036351141 0.0024161135617249874 0.0 0.0
0.0 0.009772661958780949 -0.00868186024957924 0.008005184915265865 0.000676675334313372 0.0015613518381296949 0.0 0.0
0.0 0.005193775354670109 -0.004673409403956557 0.004149509546365686 0.0005238998575908696 0.000906203614961051 0.0 0.0
0.0 0.0021319176157083685 -0.0019505780023551394 0.0016431292943385252 0.0003074487080166146 0.0004502549156572657 0.0 0.0
0.0 0.0005796201395565973 -0.00040913506767946623 0.0003301356400350681 7.899942764439797e-05 0.00013766062060902755 0.0 0.0
0.0 1.1912169845655495e-05 -3.059122248404942e-06 2.4568745780141336e-06 6.022476703907609e-07 1.988726820567976e-06 0.0 0.0
0.0 0.0 0.0 0.0 0.0 0.0 0.0 0.0
0.0 0.0 0.0 0.0 0.0 0.0 0.0 0.0
0.0 0.0 0.0 0.0 0.0 0.0 0.0 0.0
0.0 0.0 0.0 0.0 0.0 0.0 0.0 0.0
0.0 0.0 0.0 0.0 0.0 0.0 0.0 0.0
0.0 0.0 0.0 0.0 0.0 0.0 0.0 0.0
0.0 4.338242351401204e-05 -2.6433597888793978e-05 2.0862540227544422e-05 5.571057661249705e-06 -7.299220390311088e-06 0.0 0.0
0.0 0.0009886673587381867 -0.0007090262734861725 0.0005767771103857673 0.00013224916310040506 -9.414178616419683e-05 0.0 0.0
0.0 0.0028648361675211007 -0.002621584147022832 0.0022405462337458247 0.0003810379132770076 -0.0002165620579826393 0.0 0.0
0.0 0.006343892608796205 -0.005715087560082559 0.00514078710577145 0.0005743004543111063 -0.0004017780251845525 0.0 0.0
0.0 0.011445891263508697 -0.010166802732373742 0.009456015627902915 0.0007107871044708227 -0.0006645348700737317 0.0 0.0
0.0 0.018282392429080658 -0.0161017324431815 0.015281230256678659 0.0008205021865028393 -0.0010301128799881669 0.0 0.0
0.0 0.026873749203450578 -0.023531503413480384 0.02260533007432042 0.0009261733391599686 -0.00147274117916768 0.0 0.0
0.0 0.037213025176699624 -0.0324320728088341 0.03139862062319149 0.0010334521856426146 -0.0019330542604607693 0.0 0.0
0.0 0.04901405230373062 -0.04280351776839867 0.041660853112697856 0.0011426646557008012 -0.0024034991745950506 0.0 0.0
0.0 0.0625951427597676 -0.05465409803522817 0.05340100707074797 0.0012530909644801825 -0.0028919969211218762 0.0 0.0
0.0 0.0779117379982481 -0.06794860855704231 0.06658148653262021 0.00136712202442208 -0.0033823490780800986 0.0 0.0
0.0 0.09460804715830244 -0.08243938630143571 0.08095186942483264 0.0014875168766030715 -0.0037972420314719775 0.0 0.0
0.0 0.11194309963516202 -0.09746466996337252 0.0958512864938228 0.0016133834695496994 -0.003891753770866354 0.0 0.0
0.0 0.12853787327063537 -0.11185764976820457 0.11011903436590416 0.0017386154023003616 -0.003266809414677897 0.0 0.0
0.0 0.14240236486700214 -0.12392061909626423 0.12205414214685492 0.001866476949409291 -0.002040107641150797 0.0 0.0
0.0 0.15032961296508937 -0.1306916379232398 0.12862105808007387 0.002070579843165909 -0.006893397359269433 0.0 0.0
0.0 0.1435414574015904 -0.12299268398461619 0.12023070157981025 0.002761982404805903 -0.04040699826881741 0.0 0.0
0.0 0.14354145740157703 -0.12299268398460428 0.12023070157979768 0.0027619824048065616 0.04040699826882446 0.0 0.0
0.0 0.15032961296505398 -0.130691637923209 0.12862105808004298 0.0020705798431659575 0.006893397359280988 0.0 0.0
0.0 0.14240236486694846 -0.1239206190962173 0.12205414214680915 0.0018664769494080666 0.0020401076411596755 0.0 0.0
0.0 0.12853787327056695 -0.11185764976814482 0.11011903436584555 0.001738615402299241 0.0032668094146773613 0.0 0.0
0.0 0.11194309963508825 -0.09746466996330834 0.09585128649375936 0.0016133834695489513 0.003891753770866424 0.0 0.0
0.0 0.0946080471582261 -0.08243938630136909 0.08095186942476716 0.001487516876601888 0.003797242031471753 0.0 0.0
0.0 0.07791173799816553 -0.06794860855697077 0.06658148653254907 0.0013671220244216825 0.003382349078078219 0.0 0.0
0.0 0.06259514275968708 -0.054654098035158166 0.053401007070678755 0.0012530909644793767 0.002891996921119725 0.0 0.0
0.0 0.04901405230365431 -0.04280351776833209 0.04166085311263242 0.001142664655699654 0.002403499174593521 0.0 0.0
0.0 0.03721302517662943 -0.032432072808772895 0.031398620623131035 0.0010334521856418658 0.001933054260455088 0.0 0.0
0.0 0.026873749203392076 -0.0235315034134296 0.022605330074270225 0.0009261733391593712 0.001472741179162931 0.0 0.0
0.0 0.01828239242903461 -0.016101732443140844 0.015281230256638662 0.0008205021865021798 0.001030112879986141 0.0 0.0
0.0 0.011445891263473833 -0.01016680273234254 0.009456015627872228 0.000710787104470309 0.0006645348700714468 0.0 0.0
0.0 0.006343892608773126 -0.005715087560061664 0.0051407871057512836 0.0005743004543103812 0.0004017780251830933 0.0 0.0
0.0 0.0028648361675083643 -0.0026215841470107483 0.0022405462337348413 0.00038103791327590616 0.00021656205798164835 0.0 0.0
0.0 0.0009886673587319646 -0.0007090262734815059 0.0005767771103818764 0.00013224916309963007 9.414178616377349e-05 0.0 0.0
0.0 4.338242351315204e-05 -2.6433597888709905e-05 2.0862540227461623e-05 5.571057661248265e-06 7.299220390227382e-06 0.0 0.0
0.0 0.0 0.0 0.0 0.0 0.0 0.0 0.0
0.0 0.0 0.0 0.0 0.0 0.0 0.0 0.0
0.0 0.0 0.0 0.0 0.0 0.0 0.0 0.0