# vtk DataFile Version 3.0
Some data
ASCII
DATASET UNSTRUCTURED_GRID
POINTS 861 float
0.0 0.0 0.0
0.4 0.0 0.0
0.8 0.0 0.0
1.2000000000000002 0.0 0.0
1.6 0.0 0.0
2.0 0.0 0.0
2.4000000000000004 0.0 0.0
2.8000000000000003 0.0 0.0
3.2 0.0 0.0
3.6 0.0 0.0
4.0 0.0 0.0
4.4 0.0 0.0
4.800000000000001 0.0 0.0
5.2 0.0 0.0
5.6000000000000005 0.0 0.0
6.0 0.0 0.0
6.4 0.0 0.0
6.800000000000001 0.0 0.0
7.2 0.0 0.0
7.6000000000000005 0.0 0.0
8.0 0.0 0.0
8.4 0.0 0.0
8.8 0.0 0.0
9.200000000000001 0.0 0.0
9.600000000000001 0.0 0.0
10.0 0.0 0.0
10.4 0.0 0.0
10.8 0.0 0.0
11.200000000000001 0.0 0.0
11.600000000000001 0.0 0.0
12.0 0.0 0.0
12.4 0.0 0.0
12.8 0.0 0.0
13.200000000000001 0.0 0.0
13.600000000000001 0.0 0.0
14.0 0.0 0.0
14.4 0.0 0.0
14.8 0.0 0.0
15.200000000000001 0.0 0.0
15.600000000000001 0.0 0.0
16.0 0.0 0.0
0.0 0.1 0.0
0.4 0.1 0.0
0.8 0.1 0.0
1.2000000000000002 0.1 0.0
1.6 0.1 0.0
2.0 0.1 0.0
2.4000000000000004 0.1 0.0
2.8000000000000003 0.1 0.0
3.2 0.1 0.0
3.6 0.1 0.0
4.0 0.1 0.0
4.4 0.1 0.0
4.800000000000001 0.1 0.0
5.2 0.1 0.0
5.6000000000000005 0.1 0.0
6.0 0.1 0.0
6.4 0.1 0.0
6.800000000000001 0.1 0.0
7.2 0.1 0.0
7.6000000000000005 0.1 0.0
8.0 0.1 0.0
8.4 0.1 0.0
8.8 0.1 0.0
9.200000000000001 0.1 0.0
9.600000000000001 0.1 0.0
10.0 0.1 0.0
10.4 0.1 0.0
10.8 0.1 0.0
11.200000000000001 0.1 0.0
11.600000000000001 0.1 0.0
12.0 0.1 0.0
12.4 0.1 0.0
12.8 0.1 0.0
13.200000000000001 0.1 0.0
13.600000000000001 0.1 0.0
14.0 0.1 0.0
14.4 0.1 0.0
14.8 0.1 0.0
15.200000000000001 0.1 0.0
15.600000000000001 0.1 0.0
16.0 0.1 0.0
0.0 0.2 0.0
0.4 0.2 0.0
0.8 0.2 0.0
1.2000000000000002 0.2 0.0
1.6 0.2 0.0
2.0 0.2 0.0
2.4000000000000004 0.2 0.0
2.8000000000000003 0.2 0.0
3.2 0.2 0.0
3.6 0.2 0.0
4.0 0.2 0.0
4.4 0.2 0.0
4.800000000000001 0.2 0.0
5.2 0.2 0.0
5.6000000000000005 0.2 0.0
6.0 0.2 0.0
6.4 0.2 0.0
6.800000000000001 0.2 0.0
7.2 0.2 0.0
7.6000000000000005 0.2 0.0
8.0 0.2 0.0
8.4 0.2 0.0
8.8 0.2 0.0
9.200000000000001 0.2 0.0
9.600000000000001 0.2 0.0
10.0 0.2 0.0
10.4 0.2 0.0
10.8 0.2 0.0
11.200000000000001 0.2 0.0
11.600000000000001 0.2 0.0
12.0 0.2 0.0
12.4 0.2 0.0
12.8 0.2 0.0
13.200000000000001 0.2 0.0
13.600000000000001 0.2 0.0
14.0 0.2 0.0
14.4 0.2 0.0
14.8 0.2 0.0
15.200000000000001 0.2 0.0
15.600000000000001 0.2 0.0
16.0 0.2 0.0
0.0 0.30000000000000004 0.0
0.4 0.30000000000000004 0.0
0.8 0.30000000000000004 0.0
1.2000000000000002 0.30000000000000004 0.0
1.6 0.30000000000000004 0.0
2.0 0.30000000000000004 0.0
2.4000000000000004 0.30000000000000004 0.0
2.8000000000000003 0.30000000000000004 0.0
3.2 0.30000000000000004 0.0
3.6 0.30000000000000004 0.0
4.0 0.30000000000000004 0.0
4.4 0.30000000000000004 0.0
4.800000000000001 0.30000000000000004 0.0
5.2 0.30000000000000004 0.0
5.6000000000000005 0.30000000000000004 0.0
6.0 0.30000000000000004 0.0
6.4 0.30000000000000004 0.0
6.800000000000001 0.30000000000000004 0.0
7.2 0.30000000000000004 0.0
7.6000000000000005 0.30000000000000004 0.0
8.0 0.30000000000000004 0.0
8.4 0.30000000000000004 0.0
8.8 0.30000000000000004 0.0
9.200000000000001 0.30000000000000004 0.0
9.600000000000001 0.30000000000000004 0.0
10.0 0.30000000000000004 0.0
10.4 0.30000000000000004 0.0
10.8 0.30000000000000004 0.0
11.200000000000001 0.30000000000000004 0.0
11.600000000000001 0.30000000000000004 0.0
12.0 0.30000000000000004 0.0
12.4 0.30000000000000004 0.0
12.8 0.30000000000000004 0.0
13.200000000000001 0.30000000000000004 0.0
13.600000000000001 0.30000000000000004 0.0
14.0 0.30000000000000004 0.0
14.4 0.30000000000000004 0.0
14.8 0.30000000000000004 0.0
15.200000000000001 0.30000000000000004 0.0
15.600000000000001 0.30000000000000004 0.0
16.0 0.30000000000000004 0.0
0.0 0.4 0.0
0.4 0.4 0.0
0.8 0.4 0.0
1.2000000000000002 0.4 0.0
1.6 0.4 0.0
2.0 0.4 0.0
2.4000000000000004 0.4 0.0
2.8000000000000003 0.4 0.0
3.2 0.4 0.0
3.6 0.4 0.0
4.0 0.4 0.0
4.4 0.4 0.0
4.800000000000001 0.4 0.0
5.2 0.4 0.0
5.6000000000000005 0.4 0.0
6.0 0.4 0.0
6.4 0.4 0.0
6.800000000000001 0.4 0.0
7.2 0.4 0.0
7.6000000000000005 0.4 0.0
8.0 0.4 0.0
8.4 0.4 0.0
8.8 0.4 0.0
9.200000000000001 0.4 0.0
9.600000000000001 0.4 0.0
10.0 0.4 0.0
10.4 0.4 0.0
10.8 0.4 0.0
11.200000000000001 0.4 0.0
11.600000000000001 0.4 0.0
12.0 0.4 0.0
12.4 0.4 0.0
12.8 0.4 0.0
13.200000000000001 0.4 0.0
13.600000000000001 0.4 0.0
14.0 0.4 0.0
14.4 0.4 0.0
14.8 0.4 0.0
15.200000000000001 0.4 0.0
15.600000000000001 0.4 0.0
16.0 0.4 0.0
0.0 0.5 0.0
0.4 0.5 0.0
0.8 0.5 0.0
1.2000000000000002 0.5 0.0
1.6 0.5 0.0
2.0 0.5 0.0
2.4000000000000004 0.5 0.0
2.8000000000000003 0.5 0.0
3.2 0.5 0.0
3.6 0.5 0.0
4.0 0.5 0.0
4.4 0.5 0.0
4.800000000000001 0.5 0.0
5.2 0.5 0.0
5.6000000000000005 0.5 0.0
6.0 0.5 0.0
6.4 0.5 0.0
6.800000000000001 0.5 0.0
7.2 0.5 0.0
7.6000000000000005 0.5 0.0
8.0 0.5 0.0
8.4 0.5 0.0
8.8 0.5 0.0
9.200000000000001 0.5 0.0
9.600000000000001 0.5 0.0
10.0 0.5 0.0
10.4 0.5 0.0
10.8 0.5 0.0
11.200000000000001 0.5 0.0
11.600000000000001 0.5 0.0
12.0 0.5 0.0
12.4 0.5 0.0
12.8 0.5 0.0
13.200000000000001 0.5 0.0
13.600000000000001 0.5 0.0
14.0 0.5 0.0
14.4 0.5 0.0
14.8 0.5 0.0
15.200000000000001 0.5 0.0
15.600000000000001 0.5 0.0
16.0 0.5 0.0
0.0 0.6000000000000001 0.0
0.4 0.6000000000000001 0.0
0.8 0.6000000000000001 0.0
1.2000000000000002 0.6000000000000001 0.0
1.6 0.6000000000000001 0.0
2.0 0.6000000000000001 0.0
2.4000000000000004 0.6000000000000001 0.0
2.8000000000000003 0.6000000000000001 0.0
3.2 0.6000000000000001 0.0
3.6 0.6000000000000001 0.0
4.0 0.6000000000000001 0.0
4.4 0.6000000000000001 0.0
4.800000000000001 0.6000000000000001 0.0
5.2 0.6000000000000001 0.0
5.6000000000000005 0.6000000000000001 0.0
6.0 0.6000000000000001 0.0
6.4 0.6000000000000001 0.0
6.800000000000001 0.6000000000000001 0.0
7.2 0.6000000000000001 0.0
7.6000000000000005 0.6000000000000001 0.0
8.0 0.6000000000000001 0.0
8.4 0.6000000000000001 0.0
8.8 0.6000000000000001 0.0
9.200000000000001 0.6000000000000001 0.0
9.600000000000001 0.6000000000000001 0.0
10.0 0.6000000000000001 0.0
10.4 0.6000000000000001 0.0
10.8 0.6000000000000001 0.0
11.200000000000001 0.6000000000000001 0.0
11.600000000000001 0.6000000000000001 0.0
12.0 0.6000000000000001 0.0
12.4 0.6000000000000001 0.0
12.8 0.6000000000000001 0.0
13.200000000000001 0.6000000000000001 0.0
13.600000000000001 0.6000000000000001 0.0
14.0 0.6000000000000001 0.0
14.4 0.6000000000000001 0.0
14.8 0.6000000000000001 0.0
15.200000000000001 0.6000000000000001 0.0
15.600000000000001 0.6000000000000001 0.0
16.0 0.6000000000000001 0.0
0.0 0.7000000000000001 0.0
0.4 0.7000000000000001 0.0
0.8 0.7000000000000001 0.0
1.2000000000000002 0.7000000000000001 0.0
1.6 0.7000000000000001 0.0
2.0 0.7000000000000001 0.0
2.4000000000000004 0.7000000000000001 0.0
2.8000000000000003 0.7000000000000001 0.0
3.2 0.7000000000000001 0.0
3.6 0.7000000000000001 0.0
4.0 0.7000000000000001 0.0
4.4 0.7000000000000001 0.0
4.800000000000001 0.7000000000000001 0.0
5.2 0.7000000000000001 0.0
5.6000000000000005 0.7000000000000001 0.0
6.0 0.7000000000000001 0.0
6.4 0.7000000000000001 0.0
6.800000000000001 0.7000000000000001 0.0
7.2 0.7000000000000001 0.0
7.6000000000000005 0.7000000000000001 0.0
8.0 0.7000000000000001 0.0
8.4 0.7000000000000001 0.0
8.8 0.7000000000000001 0.0
9.200000000000001 0.7000000000000001 0.0
9.600000000000001 0.7000000000000001 0.0
10.0 0.7000000000000001 0.0
10.4 0.7000000000000001 0.0
10.8 0.7000000000000001 0.0
11.200000000000001 0.7000000000000001 0.0
11.600000000000001 0.7000000000000001 0.0
12.0 0.7000000000000001 0.0
12.4 0.7000000000000001 0.0
12.8 0.7000000000000001 0.0
13.200000000000001 0.7000000000000001 0.0
13.600000000000001 0.7000000000000001 0.0
14.0 0.7000000000000001 0.0
14.4 0.7000000000000001 0.0
14.8 0.7000000000000001 0.0
15.200000000000001 0.7000000000000001 0.0
15.600000000000001 0.7000000000000001 0.0
16.0 0.7000000000000001 0.0
0.0 0.8 0.0
0.4 0.8 0.0
0.8 0.8 0.0
1.2000000000000002 0.8 0.0
1.6 0.8 0.0
2.0 0.8 0.0
2.4000000000000004 0.8 0.0
2.8000000000000003 0.8 0.0
3.2 0.8 0.0
3.6 0.8 0.0
4.0 0.8 0.0
4.4 0.8 0.0
4.800000000000001 0.8 0.0
5.2 0.8 0.0
5.6000000000000005 0.8 0.0
6.0 0.8 0.0
6.4 0.8 0.0
6.800000000000001 0.8 0.0
7.2 0.8 0.0
7.6000000000000005 0.8 0.0
8.0 0.8 0.0
8.4 0.8 0.0
8.8 0.8 0.0
9.200000000000001 0.8 0.0
9.600000000000001 0.8 0.0
10.0 0.8 0.0
10.4 0.8 0.0
10.8 0.8 0.0
11.200000000000001 0.8 0.0
11.600000000000001 0.8 0.0
12.0 0.8 0.0
12.4 0.8 0.0
12.8 0.8 0.0
13.200000000000001 0.8 0.0
13.600000000000001 0.8 0.0
14.0 0.8 0.0
14.4 0.8 0.0
14.8 0.8 0.0
15.200000000000001 0.8 0.0
15.600000000000001 0.8 0.0
16.0 0.8 0.0
0.0 0.9 0.0
0.4 0.9 0.0
0.8 0.9 0.0
1.2000000000000002 0.9 0.0
1.6 0.9 0.0
2.0 0.9 0.0
2.4000000000000004 0.9 0.0
2.8000000000000003 0.9 0.0
3.2 0.9 0.0
3.6 0.9 0.0
4.0 0.9 0.0
4.4 0.9 0.0
4.800000000000001 0.9 0.0
5.2 0.9 0.0
5.6000000000000005 0.9 0.0
6.0 0.9 0.0
6.4 0.9 0.0
6.800000000000001 0.9 0.0
7.2 0.9 0.0
7.6000000000000005 0.9 0.0
8.0 0.9 0.0
8.4 0.9 0.0
8.8 0.9 0.0
9.200000000000001 0.9 0.0
9.600000000000001 0.9 0.0
10.0 0.9 0.0
10.4 0.9 0.0
10.8 0.9 0.0
11.200000000000001 0.9 0.0
11.600000000000001 0.9 0.0
12.0 0.9 0.0
12.4 0.9 0.0
12.8 0.9 0.0
13.200000000000001 0.9 0.0
13.600000000000001 0.9 0.0
14.0 0.9 0.0
14.4 0.9 0.0
14.8 0.9 0.0
15.200000000000001 0.9 0.0
15.600000000000001 0.9 0.0
16.0 0.9 0.0
0.0 1.0 0.0
0.4 1.0 0.0
0.8 1.0 0.0
1.2000000000000002 1.0 0.0
1.6 1.0 0.0
2.0 1.0 0.0
2.4000000000000004 1.0 0.0
2.8000000000000003 1.0 0.0
3.2 1.0 0.0
3.6 1.0 0.0
4.0 1.0 0.0
4.4 1.0 0.0
4.800000000000001 1.0 0.0
5.2 1.0 0.0
5.6000000000000005 1.0 0.0
6.0 1.0 0.0
6.4 1.0 0.0
6.800000000000001 1.0 0.0
7.2 1.0 0.0
7.6000000000000005 1.0 0.0
8.0 1.0 0.0
8.4 1.0 0.0
8.8 1.0 0.0
9.200000000000001 1.0 0.0
9.600000000000001 1.0 0.0
10.0 1.0 0.0
10.4 1.0 0.0
10.8 1.0 0.0
11.200000000000001 1.0 0.0
11.600000000000001 1.0 0.0
12.0 1.0 0.0
12.4 1.0 0.0
12.8 1.0 0.0
13.200000000000001 1.0 0.0
13.600000000000001 1.0 0.0
14.0 1.0 0.0
14.4 1.0 0.0
14.8 1.0 0.0
15.200000000000001 1.0 0.0
15.600000000000001 1.0 0.0
16.0 1.0 0.0
0.0 1.1 0.0
0.4 1.1 0.0
0.8 1.1 0.0
1.2000000000000002 1.1 0.0
1.6 1.1 0.0
2.0 1.1 0.0
2.4000000000000004 1.1 0.0
2.8000000000000003 1.1 0.0
3.2 1.1 0.0
3.6 1.1 0.0
4.0 1.1 0.0
4.4 1.1 0.0
4.800000000000001 1.1 0.0
5.2 1.1 0.0
5.6000000000000005 1.1 0.0
6.0 1.1 0.0
6.4 1.1 0.0
6.800000000000001 1.1 0.0
7.2 1.1 0.0
7.6000000000000005 1.1 0.0
8.0 1.1 0.0
8.4 1.1 0.0
8.8 1.1 0.0
9.200000000000001 1.1 0.0
9.600000000000001 1.1 0.0
10.0 1.1 0.0
10.4 1.1 0.0
10.8 1.1 0.0
11.200000000000001 1.1 0.0
11.600000000000001 1.1 0.0
12.0 1.1 0.0
12.4 1.1 0.0
12.8 1.1 0.0
13.200000000000001 1.1 0.0
13.600000000000001 1.1 0.0
14.0 1.1 0.0
14.4 1.1 0.0
14.8 1.1 0.0
15.200000000000001 1.1 0.0
15.600000000000001 1.1 0.0
16.0 1.1 0.0
0.0 1.2000000000000002 0.0
0.4 1.2000000000000002 0.0
0.8 1.2000000000000002 0.0
1.2000000000000002 1.2000000000000002 0.0
1.6 1.2000000000000002 0.0
2.0 1.2000000000000002 0.0
2.4000000000000004 1.2000000000000002 0.0
2.8000000000000003 1.2000000000000002 0.0
3.2 1.2000000000000002 0.0
3.6 1.2000000000000002 0.0
4.0 1.2000000000000002 0.0
4.4 1.2000000000000002 0.0
4.800000000000001 1.2000000000000002 0.0
5.2 1.2000000000000002 0.0
5.6000000000000005 1.2000000000000002 0.0
6.0 1.2000000000000002 0.0
6.4 1.2000000000000002 0.0
6.800000000000001 1.2000000000000002 0.0
7.2 1.2000000000000002 0.0
7.6000000000000005 1.2000000000000002 0.0
8.0 1.2000000000000002 0.0
8.4 1.2000000000000002 0.0
8.8 1.2000000000000002 0.0
9.200000000000001 1.2000000000000002 0.0
9.600000000000001 1.2000000000000002 0.0
10.0 1.2000000000000002 0.0
10.4 1.2000000000000002 0.0
10.8 1.2000000000000002 0.0
11.200000000000001 1.2000000000000002 0.0
11.600000000000001 1.2000000000000002 0.0
12.0 1.2000000000000002 0.0
12.4 1.2000000000000002 0.0
12.8 1.2000000000000002 0.0
13.200000000000001 1.2000000000000002 0.0
13.600000000000001 1.2000000000000002 0.0
14.0 1.2000000000000002 0.0
14.4 1.2000000000000002 0.0
14.8 1.2000000000000002 0.0
15.200000000000001 1.2000000000000002 0.0
15.600000000000001 1.2000000000000002 0.0
16.0 1.2000000000000002 0.0
0.0 1.3 0.0
0.4 1.3 0.0
0.8 1.3 0.0
1.2000000000000002 1.3 0.0
1.6 1.3 0.0
2.0 1.3 0.0
2.4000000000000004 1.3 0.0
2.8000000000000003 1.3 0.0
3.2 1.3 0.0
3.6 1.3 0.0
4.0 1.3 0.0
4.4 1.3 0.0
4.800000000000001 1.3 0.0
5.2 1.3 0.0
5.6000000000000005 1.3 0.0
6.0 1.3 0.0
6.4 1.3 0.0
6.800000000000001 1.3 0.0
7.2 1.3 0.0
7.6000000000000005 1.3 0.0
8.0 1.3 0.0
8.4 1.3 0.0
8.8 1.3 0.0
9.200000000000001 1.3 0.0
9.600000000000001 1.3 0.0
10.0 1.3 0.0
10.4 1.3 0.0
10.8 1.3 0.0
11.200000000000001 1.3 0.0
11.600000000000001 1.3 0.0
12.0 1.3 0.0
12.4 1.3 0.0
12.8 1.3 0.0
13.200000000000001 1.3 0.0
13.600000000000001 1.3 0.0
14.0 1.3 0.0
14.4 1.3 0.0
14.8 1.3 0.0
15.200000000000001 1.3 0.0
15.600000000000001 1.3 0.0
16.0 1.3 0.0
0.0 1.4000000000000001 0.0
0.4 1.4000000000000001 0.0
0.8 1.4000000000000001 0.0
1.2000000000000002 1.4000000000000001 0.0
1.6 1.4000000000000001 0.0
2.0 1.4000000000000001 0.0
2.4000000000000004 1.4000000000000001 0.0
2.8000000000000003 1.4000000000000001 0.0
3.2 1.4000000000000001 0.0
3.6 1.4000000000000001 0.0
4.0 1.4000000000000001 0.0
4.4 1.4000000000000001 0.0
4.800000000000001 1.4000000000000001 0.0
5.2 1.4000000000000001 0.0
5.6000000000000005 1.4000000000000001 0.0
6.0 1.4000000000000001 0.0
6.4 1.4000000000000001 0.0
6.800000000000001 1.4000000000000001 0.0
7.2 1.4000000000000001 0.0
7.6000000000000005 1.4000000000000001 0.0
8.0 1.4000000000000001 0.0
8.4 1.4000000000000001 0.0
8.8 1.4000000000000001 0.0
9.200000000000001 1.4000000000000001 0.0
9.600000000000001 1.4000000000000001 0.0
10.0 1.4000000000000001 0.0
10.4 1.4000000000000001 0.0
10.8 1.4000000000000001 0.0
11.200000000000001 1.4000000000000001 0.0
11.600000000000001 1.4000000000000001 0.0
12.0 1.4000000000000001 0.0
12.4 1.4000000000000001 0.0
12.8 1.4000000000000001 0.0
13.200000000000001 1.4000000000000001 0.0
13.600000000000001 1.4000000000000001 0.0
14.0 1.4000000000000001 0.0
14.4 1.4000000000000001 0.0
14.8 1.4000000000000001 0.0
15.200000000000001 1.4000000000000001 0.0
15.600000000000001 1.4000000000000001 0.0
16.0 1.4000000000000001 0.0
0.0 1.5 0.0
0.4 1.5 0.0
0.8 1.5 0.0
1.2000000000000002 1.5 0.0
1.6 1.5 0.0
2.0 1.5 0.0
2.4000000000000004 1.5 0.0
2.8000000000000003 1.5 0.0
3.2 1.5 0.0
3.6 1.5 0.0
4.0 1.5 0.0
4.4 1.5 0.0
4.800000000000001 1.5 0.0
5.2 1.5 0.0
5.6000000000000005 1.5 0.0
6.0 1.5 0.0
6.4 1.5 0.0
6.800000000000001 1.5 0.0
7.2 1.5 0.0
7.6000000000000005 1.5 0.0
8.0 1.5 0.0
8.4 1.5 0.0
8.8 1.5 0.0
9.200000000000001 1.5 0.0
9.600000000000001 1.5 0.0
10.0 1.5 0.0
10.4 1.5 0.0
10.8 1.5 0.0
11.200000000000001 1.5 0.0
11.600000000000001 1.5 0.0
12.0 1.5 0.0
12.4 1.5 0.0
12.8 1.5 0.0
13.200000000000001 1.5 0.0
13.600000000000001 1.5 0.0
14.0 1.5 0.0
14.4 1.5 0.0
14.8 1.5 0.0
15.200000000000001 1.5 0.0
15.600000000000001 1.5 0.0
16.0 1.5 0.0
0.0 1.6 0.0
0.4 1.6 0.0
0.8 1.6 0.0
1.2000000000000002 1.6 0.0
1.6 1.6 0.0
2.0 1.6 0.0
2.4000000000000004 1.6 0.0
2.8000000000000003 1.6 0.0
3.2 1.6 0.0
3.6 1.6 0.0
4.0 1.6 0.0
4.4 1.6 0.0
4.800000000000001 1.6 0.0
5.2 1.6 0.0
5.6000000000000005 1.6 0.0
6.0 1.6 0.0
6.4 1.6 0.0
6.800000000000001 1.6 0.0
7.2 1.6 0.0
7.6000000000000005 1.6 0.0
8.0 1.6 0.0
8.4 1.6 0.0
8.8 1.6 0.0
9.200000000000001 1.6 0.0
9.600000000000001 1.6 0.0
10.0 1.6 0.0
10.4 1.6 0.0
10.8 1.6 0.0
11.200000000000001 1.6 0.0
11.600000000000001 1.6 0.0
12.0 1.6 0.0
12.4 1.6 0.0
12.8 1.6 0.0
13.200000000000001 1.6 0.0
13.600000000000001 1.6 0.0
14.0 1.6 0.0
14.4 1.6 0.0
14.8 1.6 0.0
15.200000000000001 1.6 0.0
15.600000000000001 1.6 0.0
16.0 1.6 0.0
0.0 1.7000000000000002 0.0
0.4 1.7000000000000002 0.0
0.8 1.7000000000000002 0.0
1.2000000000000002 1.7000000000000002 0.0
1.6 1.7000000000000002 0.0
2.0 1.7000000000000002 0.0
2.4000000000000004 1.7000000000000002 0.0
2.8000000000000003 1.7000000000000002 0.0
3.2 1.7000000000000002 0.0
3.6 1.7000000000000002 0.0
4.0 1.7000000000000002 0.0
4.4 1.7000000000000002 0.0
4.800000000000001 1.7000000000000002 0.0
5.2 1.7000000000000002 0.0
5.6000000000000005 1.7000000000000002 0.0
6.0 1.7000000000000002 0.0
6.4 1.7000000000000002 0.0
6.800000000000001 1.7000000000000002 0.0
7.2 1.7000000000000002 0.0
7.6000000000000005 1.7000000000000002 0.0
8.0 1.7000000000000002 0.0
8.4 1.7000000000000002 0.0
8.8 1.7000000000000002 0.0
9.200000000000001 1.7000000000000002 0.0
9.600000000000001 1.7000000000000002 0.0
10.0 1.7000000000000002 0.0
10.4 1.7000000000000002 0.0
10.8 1.7000000000000002 0.0
11.200000000000001 1.7000000000000002 0.0
11.600000000000001 1.7000000000000002 0.0
12.0 1.7000000000000002 0.0
12.4 1.7000000000000002 0.0
12.8 1.7000000000000002 0.0
13.200000000000001 1.7000000000000002 0.0
13.600000000000001 1.7000000000000002 0.0
14.0 1.7000000000000002 0.0
14.4 1.7000000000000002 0.0
14.8 1.7000000000000002 0.0
15.200000000000001 1.7000000000000002 0.0
15.600000000000001 1.7000000000000002 0.0
16.0 1.7000000000000002 0.0
0.0 1.8 0.0
0.4 1.8 0.0
0.8 1.8 0.0
1.2000000000000002 1.8 0.0
1.6 1.8 0.0
2.0 1.8 0.0
2.4000000000000004 1.8 0.0
2.8000000000000003 1.8 0.0
3.2 1.8 0.0
3.6 1.8 0.0
4.0 1.8 0.0
4.4 1.8 0.0
4.800000000000001 1.8 0.0
5.2 1.8 0.0
5.6000000000000005 1.8 0.0
6.0 1.8 0.0
6.4 1.8 0.0
6.800000000000001 1.8 0.0
7.2 1.8 0.0
7.6000000000000005 1.8 0.0
8.0 1.8 0.0
8.4 1.8 0.0
8.8 1.8 0.0
9.200000000000001 1.8 0.0
9.600000000000001 1.8 0.0
10.0 1.8 0.0
10.4 1.8 0.0
10.8 1.8 0.0
11.200000000000001 1.8 0.0
11.600000000000001 1.8 0.0
12.0 1.8 0.0
12.4 1.8 0.0
12.8 1.8 0.0
13.200000000000001 1.8 0.0
13.600000000000001 1.8 0.0
14.0 1.8 0.0
14.4 1.8 0.0
14.8 1.8 0.0
15.200000000000001 1.8 0.0
15.600000000000001 1.8 0.0
16.0 1.8 0.0
0.0 1.9000000000000001 0.0
0.4 1.9000000000000001 0.0
0.8 1.9000000000000001 0.0
1.2000000000000002 1.9000000000000001 0.0
1.6 1.9000000000000001 0.0
2.0 1.9000000000000001 0.0
2.4000000000000004 1.9000000000000001 0.0
2.8000000000000003 1.9000000000000001 0.0
3.2 1.9000000000000001 0.0
3.6 1.9000000000000001 0.0
4.0 1.9000000000000001 0.0
4.4 1.9000000000000001 0.0
4.800000000000001 1.9000000000000001 0.0
5.2 1.9000000000000001 0.0
5.6000000000000005 1.9000000000000001 0.0
6.0 1.9000000000000001 0.0
6.4 1.9000000000000001 0.0
6.800000000000001 1.9000000000000001 0.0
7.2 1.9000000000000001 0.0
7.6000000000000005 1.9000000000000001 0.0
8.0 1.9000000000000001 0.0
8.4 1.9000000000000001 0.0
8.8 1.9000000000000001 0.0
9.200000000000001 1.9000000000000001 0.0
9.600000000000001 1.9000000000000001 0.0
10.0 1.9000000000000001 0.0
10.4 1.9000000000000001 0.0
10.8 1.9000000000000001 0.0
11.200000000000001 1.9000000000000001 0.0
11.600000000000001 1.9000000000000001 0.0
12.0 1.9000000000000001 0.0
12.4 1.9000000000000001 0.0
12.8 1.9000000000000001 0.0
13.200000000000001 1.9000000000000001 0.0
13.600000000000001 1.9000000000000001 0.0
14.0 1.9000000000000001 0.0
14.4 1.9000000000000001 0.0
14.8 1.9000000000000001 0.0
15.200000000000001 1.9000000000000001 0.0
15.600000000000001 1.9000000000000001 0.0
16.0 1.9000000000000001 0.0
0.0 2.0 0.0
0.4 2.0 0.0
0.8 2.0 0.0
1.2000000000000002 2.0 0.0
1.6 2.0 0.0
2.0 2.0 0.0
2.4000000000000004 2.0 0.0
2.8000000000000003 2.0 0.0
3.2 2.0 0.0
3.6 2.0 0.0
4.0 2.0 0.0
4.4 2.0 0.0
4.800000000000001 2.0 0.0
5.2 2.0 0.0
5.6000000000000005 2.0 0.0
6.0 2.0 0.0
6.4 2.0 0.0
6.800000000000001 2.0 0.0
7.2 2.0 0.0
7.6000000000000005 2.0 0.0
8.0 2.0 0.0
8.4 2.0 0.0
8.8 2.0 0.0
9.200000000000001 2.0 0.0
9.600000000000001 2.0 0.0
10.0 2.0 0.0
10.4 2.0 0.0
10.8 2.0 0.0
11.200000000000001 2.0 0.0
11.600000000000001 2.0 0.0
12.0 2.0 0.0
12.4 2.0 0.0
12.8 2.0 0.0
13.200000000000001 2.0 0.0
13.600000000000001 2.0 0.0
14.0 2.0 0.0
14.4 2.0 0.0
14.8 2.0 0.0
15.200000000000001 2.0 0.0
15.600000000000001 2.0 0.0
16.0 2.0 0.0
CELLS 800 4000
4 0 1 42 41
4 1 2 43 42
4 2 3 44 43
4 3 4 45 44
4 4 5 46 45
4 5 6 47 46
4 6 7 48 47
4 7 8 49 48
4 8 9 50 49
4 9 10 51 50
4 10 11 52 51
4 11 12 53 52
4 12 13 54 53
4 13 14 55 54
4 14 15 56 55
4 15 16 57 56
4 16 17 58 57
4 17 18 59 58
4 18 19 60 59
4 19 20 61 60
4 20 21 62 61
4 21 22 63 62
4 22 23 64 63
4 23 24 65 64
4 24 25 66 65
4 25 26 67 66
4 26 27 68 67
4 27 28 69 68
4 28 29 70 69
4 29 30 71 70
4 30 31 72 71
4 31 32 73 72
4 32 33 74 73
4 33 34 75 74
4 34 35 76 75
4 35 36 77 76
4 36 37 78 77
4 37 38 79 78
4 38 39 80 79
4 39 40 81 80
4 41 42 83 82
4 42 43 84 83
4 43 44 85 84
4 44 45 86 85
4 45 46 87 86
4 46 47 88 87
4 47 48 89 88
4 48 49 90 89
4 49 50 91 90
4 50 51 92 91
4 51 52 93 92
4 52 53 94 93
4 53 54 95 94
4 54 55 96 95
4 55 56 97 96
4 56 57 98 97
4 57 58 99 98
4 58 59 100 99
4 59 60 101 100
4 60 61 102 101
4 61 62 103 102
4 62 63 104 103
4 63 64 105 104
4 64 65 106 105
4 65 66 107 106
4 66 67 108 107
4 67 68 109 108
4 68 69 110 109
4 69 70 111 110
4 70 71 112 111
4 71 72 113 112
4 72 73 114 113
4 73 74 115 114
4 74 75 116 115
4 75 76 117 116
4 76 77 118 117
4 77 78 119 118
4 78 79 120 119
4 79 80 121 120
4 80 81 122 121
4 82 83 124 123
4 83 84 125 124
4 84 85 126 125
4 85 86 127 126
4 86 87 128 127
4 87 88 129 128
4 88 89 130 129
4 89 90 131 130
4 90 91 132 131
4 91 92 133 132
4 92 93 134 133
4 93 94 135 134
4 94 95 136 135
4 95 96 137 136
4 96 97 138 137
4 97 98 139 138
4 98 99 140 139
4 99 100 141 140
4 100 101 142 141
4 101 102 143 142
4 102 103 144 143
4 103 104 145 144
4 104 105 146 145
4 105 106 147 146
4 106 107 148 147
4 107 108 149 148
4 108 109 150 149
4 109 110 151 150
4 110 111 152 151
4 111 112 153 152
4 112 113 154 153
4 113 114 155 154
4 114 115 156 155
4 115 116 157 156
4 116 117 158 157
4 117 118 159 158
4 118 119 160 159
4 119 120 161 160
4 120 121 162 161
4 121 122 163 162
4 123 124 165 164
4 124 125 166 165
4 125 126 167 166
4 126 127 168 167
4 127 128 169 168
4 128 129 170 169
4 129 130 171 170
4 130 131 172 171
4 131 132 173 172
4 132 133 174 173
4 133 134 175 174
4 134 135 176 175
4 135 136 177 176
4 136 137 178 177
4 137 138 179 178
4 138 139 180 179
4 139 140 181 180
4 140 141 182 181
4 141 142 183 182
4 142 143 184 183
4 143 144 185 184
4 144 145 186 185
4 145 146 187 186
4 146 147 188 187
4 147 148 189 188
4 148 149 190 189
4 149 150 191 190
4 150 151 192 191
4 151 152 193 192
4 152 153 194 193
4 153 154 195 194
4 154 155 196 195
4 155 156 197 196
4 156 157 198 197
4 157 158 199 198
4 158 159 200 199
4 159 160 201 200
4 160 161 202 201
4 161 162 203 202
4 162 163 204 203
4 164 165 206 205
4 165 166 207 206
4 166 167 208 207
4 167 168 209 208
4 168 169 210 209
4 169 170 211 210
4 170 171 212 211
4 171 172 213 212
4 172 173 214 213
4 173 174 215 214
4 174 175 216 215
4 175 176 217 216
4 176 177 218 217
4 177 178 219 218
4 178 179 220 219
4 179 180 221 220
4 180 181 222 221
4 181 182 223 222
4 182 183 224 223
4 183 184 225 224
4 184 185 226 225
4 185 186 227 226
4 186 187 228 227
4 187 188 229 228
4 188 189 230 229
4 189 190 231 230
4 190 191 232 231
4 191 192 233 232
4 192 193 234 233
4 193 194 235 234
4 194 195 236 235
4 195 196 237 236
4 196 197 238 237
4 197 198 239 238
4 198 199 240 239
4 199 200 241 240
4 200 201 242 241
4 201 202 243 242
4 202 203 244 243
4 203 204 245 244
4 205 206 247 246
4 206 207 248 247
4 207 208 249 248
4 208 209 250 249
4 209 210 251 250
4 210 211 252 251
4 211 212 253 252
4 212 213 254 253
4 213 214 255 254
4 214 215 256 255
4 215 216 257 256
4 216 217 258 257
4 217 218 259 258
4 218 219 260 259
4 219 220 261 260
4 220 221 262 261
4 221 222 263 262
4 222 223 264 263
4 223 224 265 264
4 224 225 266 265
4 225 226 267 266
4 226 227 268 267
4 227 228 269 268
4 228 229 270 269
4 229 230 271 270
4 230 231 272 271
4 231 232 273 272
4 232 233 274 273
4 233 234 275 274
4 234 235 276 275
4 235 236 277 276
4 236 237 278 277
4 237 238 279 278
4 238 239 280 279
4 239 240 281 280
4 240 241 282 281
4 241 242 283 282
4 242 243 284 283
4 243 244 285 284
4 244 245 286 285
4 246 247 288 287
4 247 248 289 288
4 248 249 290 289
4 249 250 291 290
4 250 251 292 291
4 251 252 293 292
4 252 253 294 293
4 253 254 295 294
4 254 255 296 295
4 255 256 297 296
4 256 257 298 297
4 257 258 299 298
4 258 259 300 299
4 259 260 301 300
4 260 261 302 301
4 261 262 303 302
4 262 263 304 303
4 263 264 305 304
4 264 265 306 305
4 265 266 307 306
4 266 267 308 307
4 267 268 309 308
4 268 269 310 309
4 269 270 311 310
4 270 271 312 311
4 271 272 313 312
4 272 273 314 313
4 273 274 315 314
4 274 275 316 315
4 275 276 317 316
4 276 277 318 317
4 277 278 319 318
4 278 279 320 319
4 279 280 321 320
4 280 281 322 321
4 281 282 323 322
4 282 283 324 323
4 283 284 325 324
4 284 285 326 325
4 285 286 327 326
4 287 288 329 328
4 288 289 330 329
4 289 290 331 330
4 290 291 332 331
4 291 292 333 332
4 292 293 334 333
4 293 294 335 334
4 294 295 336 335
4 295 296 337 336
4 296 297 338 337
4 297 298 339 338
4 298 299 340 339
4 299 300 341 340
4 300 301 342 341
4 301 302 343 342
4 302 303 344 343
4 303 304 345 344
4 304 305 346 345
4 305 306 347 346
4 306 307 348 347
4 307 308 349 348
4 308 309 350 349
4 309 310 351 350
4 310 311 352 351
4 311 312 353 352
4 312 313 354 353
4 313 314 355 354
4 314 315 356 355
4 315 316 357 356
4 316 317 358 357
4 317 318 359 358
4 318 319 360 359
4 319 320 361 360
4 320 321 362 361
4 321 322 363 362
4 322 323 364 363
4 323 324 365 364
4 324 325 366 365
4 325 326 367 366
4 326 327 368 367
4 328 329 370 369
4 329 330 371 370
4 330 331 372 371
4 331 332 373 372
4 332 333 374 373
4 333 334 375 374
4 334 335 376 375
4 335 336 377 376
4 336 337 378 377
4 337 338 379 378
4 338 339 380 379
4 339 340 381 380
4 340 341 382 381
4 341 342 383 382
4 342 343 384 383
4 343 344 385 384
4 344 345 386 385
4 345 346 387 386
4 346 347 388 387
4 347 348 389 388
4 348 349 390 389
4 349 350 391 390
4 350 351 392 391
4 351 352 393 392
4 352 353 394 393
4 353 354 395 394
4 354 355 396 395
4 355 356 397 396
4 356 357 398 397
4 357 358 399 398
4 358 359 400 399
4 359 360 401 400
4 360 361 402 401
4 361 362 403 402
4 362 363 404 403
4 363 364 405 404
4 364 365 406 405
4 365 366 407 406
4 366 367 408 407
4 367 368 409 408
4 369 370 411 410
4 370 371 412 411
4 371 372 413 412
4 372 373 414 413
4 373 374 415 414
4 374 375 416 415
4 375 376 417 416
4 376 377 418 417
4 377 378 419 418
4 378 379 420 419
4 379 380 421 420
4 380 381 422 421
4 381 382 423 422
4 382 383 424 423
4 383 384 425 424
4 384 385 426 425
4 385 386 427 426
4 386 387 428 427
4 387 388 429 428
4 388 389 430 429
4 389 390 431 430
4 390 391 432 431
4 391 392 433 432
4 392 393 434 433
4 393 394 435 434
4 394 395 436 435
4 395 396 437 436
4 396 397 438 437
4 397 398 439 438
4 398 399 440 439
4 399 400 441 440
4 400 401 442 441
4 401 402 443 442
4 402 403 444 443
4 403 404 445 444
4 404 405 446 445
4 405 406 447 446
4 406 407 448 447
4 407 408 449 448
4 408 409 450 449
4 410 411 452 451
4 411 412 453 452
4 412 413 454 453
4 413 414 455 454
4 414 415 456 455
4 415 416 457 456
4 416 417 458 457
4 417 418 459 458
4 418 419 460 459
4 419 420 461 460
4 420 421 462 461
4 421 422 463 462
4 422 423 464 463
4 423 424 465 464
4 424 425 466 465
4 425 426 467 466
4 426 427 468 467
4 427 428 469 468
4 428 429 470 469
4 429 430 471 470
4 430 431 472 471
4 431 432 473 472
4 432 433 474 473
4 433 434 475 474
4 434 435 476 475
4 435 436 477 476
4 436 437 478 477
4 437 438 479 478
4 438 439 480 479
4 439 440 481 480
4 440 441 482 481
4 441 442 483 482
4 442 443 484 483
4 443 444 485 484
4 444 445 486 485
4 445 446 487 486
4 446 447 488 487
4 447 448 489 488
4 448 449 490 489
4 449 450 491 490
4 451 452 493 492
4 452 453 494 493
4 453 454 495 494
4 454 455 496 495
4 455 456 497 496
4 456 457 498 497
4 457 458 499 498
4 458 459 500 499
4 459 460 501 500
4 460 461 502 501
4 461 462 503 502
4 462 463 504 503
4 463 464 505 504
4 464 465 506 505
4 465 466 507 506
4 466 467 508 507
4 467 468 509 508
4 468 469 510 509
4 469 470 511 510
4 470 471 512 511
4 471 472 513 512
4 472 473 514 513
4 473 474 515 514
4 474 475 516 515
4 475 476 517 516
4 476 477 518 517
4 477 478 519 518
4 478 479 520 519
4 479 480 521 520
4 480 481 522 521
4 481 482 523 522
4 482 483 524 523
4 483 484 525 524
4 484 485 526 525
4 485 486 527 526
4 486 487 528 527
4 487 488 529 528
4 488 489 530 529
4 489 490 531 530
4 490 491 532 531
4 492 493 534 533
4 493 494 535 534
4 494 495 536 535
4 495 496 537 536
4 496 497 538 537
4 497 498 539 538
4 498 499 540 539
4 499 500 541 540
4 500 501 542 541
4 501 502 543 542
4 502 503 544 543
4 503 504 545 544
4 504 505 546 545
4 505 506 547 546
4 506 507 548 547
4 507 508 549 548
4 508 509 550 549
4 509 510 551 550
4 510 511 552 551
4 511 512 553 552
4 512 513 554 553
4 513 514 555 554
4 514 515 556 555
4 515 516 557 556
4 516 517 558 557
4 517 518 559 558
4 518 519 560 559
4 519 520 561 560
4 520 521 562 561
4 521 522 563 562
4 522 523 564 563
4 523 524 565 564
4 524 525 566 565
4 525 526 567 566
4 526 527 568 567
4 527 528 569 568
4 528 529 570 569
4 529 530 571 570
4 530 531 572 571
4 531 532 573 572
4 533 534 575 574
4 534 535 576 575
4 535 536 577 576
4 536 537 578 577
4 537 538 579 578
4 538 539 580 579
4 539 540 581 580
4 540 541 582 581
4 541 542 583 582
4 542 543 584 583
4 543 544 585 584
4 544 545 586 585
4 545 546 587 586
4 546 547 588 587
4 547 548 589 588
4 548 549 590 589
4 549 550 591 590
4 550 551 592 591
4 551 552 593 592
4 552 553 594 593
4 553 554 595 594
4 554 555 596 595
4 555 556 597 596
4 556 557 598 597
4 557 558 599 598
4 558 559 600 599
4 559 560 601 600
4 560 561 602 601
4 561 562 603 602
4 562 563 604 603
4 563 564 605 604
4 564 565 606 605
4 565 566 607 606
4 566 567 608 607
4 567 568 609 608
4 568 569 610 609
4 569 570 611 610
4 570 571 612 611
4 571 572 613 612
4 572 573 614 613
4 574 575 616 615
4 575 576 617 616
4 576 577 618 617
4 577 578 619 618
4 578 579 620 619
4 579 580 621 620
4 580 581 622 621
4 581 582 623 622
4 582 583 624 623
4 583 584 625 624
4 584 585 626 625
4 585 586 627 626
4 586 587 628 627
4 587 588 629 628
4 588 589 630 629
4 589 590 631 630
4 590 591 632 631
4 591 592 633 632
4 592 593 634 633
4 593 594 635 634
4 594 595 636 635
4 595 596 637 636
4 596 597 638 637
4 597 598 639 638
4 598 599 640 639
4 599 600 641 640
4 600 601 642 641
4 601 602 643 642
4 602 603 644 643
4 603 604 645 644
4 604 605 646 645
4 605 606 647 646
4 606 607 648 647
4 607 608 649 648
4 608 609 650 649
4 609 610 651 650
4 610 611 652 651
4 611 612 653 652
4 612 613 654 653
4 613 614 655 654
4 615 616 657 656
4 616 617 658 657
4 617 618 659 658
4 618 619 660 659
4 619 620 661 660
4 620 621 662 661
4 621 622 663 662
4 622 623 664 663
4 623 624 665 664
4 624 625 666 665
4 625 626 667 666
4 626 627 668 667
4 627 628 669 668
4 628 629 670 669
4 629 630 671 670
4 630 631 672 671
4 631 632 673 672
4 632 633 674 673
4 633 634 675 674
4 634 635 676 675
4 635 636 677 676
4 636 637 678 677
4 637 638 679 678
4 638 639 680 679
4 639 640 681 680
4 640 641 682 681
4 641 642 683 682
4 642 643 684 683
4 643 644 685 684
4 644 645 686 685
4 645 646 687 686
4 646 647 688 687
4 647 648 689 688
4 648 649 690 689
4 649 650 691 690
4 650 651 692 691
4 651 652 693 692
4 652 653 694 693
4 653 654 695 694
4 654 655 696 695
4 656 657 698 697
4 657 658 699 698
4 658 659 700 699
4 659 660 701 700
4 660 661 702 701
4 661 662 703 702
4 662 663 704 703
4 663 664 705 704
4 664 665 706 705
4 665 666 707 706
4 666 667 708 707
4 667 668 709 708
4 668 669 710 709
4 669 670 711 710
4 670 671 712 711
4 671 672 713 712
4 672 673 714 713
4 673 674 715 714
4 674 675 716 715
4 675 676 717 716
4 676 677 718 717
4 677 678 719 718
4 678 679 720 719
4 679 680 721 720
4 680 681 722 721
4 681 682 723 722
4 682 683 724 723
4 683 684 725 724
4 684 685 726 725
4 685 686 727 726
4 686 687 728 727
4 687 688 729 728
4 688 689 730 729
4 689 690 731 730
4 690 691 732 731
4 691 692 733 732
4 692 693 734 733
4 693 694 735 734
4 694 695 736 735
4 695 696 737 736
4 697 698 739 738
4 698 699 740 739
4 699 700 741 740
4 700 701 742 741
4 701 702 743 742
4 702 703 744 743
4 703 704 745 744
4 704 705 746 745
4 705 706 747 746
4 706 707 748 747
4 707 708 749 748
4 708 709 750 749
4 709 710 751 750
4 710 711 752 751
4 711 712 753 752
4 712 713 754 753
4 713 714 755 754
4 714 715 756 755
4 715 716 757 756
4 716 717 758 757
4 717 718 759 758
4 718 719 760 759
4 719 720 761 760
4 720 721 762 761
4 721 722 763 762
4 722 723 764 763
4 723 724 765 764
4 724 725 766 765
4 725 726 767 766
4 726 727 768 767
4 727 728 769 768
4 728 729 770 769
4 729 730 771 770
4 730 731 772 771
4 731 732 773 772
4 732 733 774 773
4 733 734 775 774
4 734 735 776 775
4 735 736 777 776
4 736 737 778 777
4 738 739 780 779
4 739 740 781 780
4 740 741 782 781
4 741 742 783 782
4 742 743 784 783
4 743 744 785 784
4 744 745 786 785
4 745 746 787 786
4 746 747 788 787
4 747 748 789 788
4 748 749 790 789
4 749 750 791 790
4 750 751 792 791
4 751 752 793 792
4 752 753 794 793
4 753 754 795 794
4 754 755 796 795
4 755 756 797 796
4 756 757 798 797
4 757 758 799 798
4 758 759 800 799
4 759 760 801 800
4 760 761 802 801
4 761 762 803 802
4 762 763 804 803
4 763 764 805 804
4 764 765 806 805
4 765 766 807 806
4 766 767 808 807
4 767 768 809 808
4 768 769 810 809
4 769 770 811 810
4 770 771 812 811
4 771 772 813 812
4 772 773 814 813
4 773 774 815 814
4 774 775 816 815
4 775 776 817 816
4 776 777 818 817
4 777 778 819 818
4 779 780 821 820
4 780 781 822 821
4 781 782 823 822
4 782 783 824 823
4 783 784 825 824
4 784 785 826 825
4 785 786 827 826
4 786 787 828 827
4 787 788 829 828
4 788 789 830 829
4 789 790 831 830
4 790 791 832 831
4 791 792 833 832
4 792 793 834 833
4 793 794 835 834
4 794 795 836 835
4 795 796 837 836
4 796 797 838 837
4 797 798 839 838
4 798 799 840 839
4 799 800 841 840
4 800 801 842 841
4 801 802 843 842
4 802 803 844 843
4 803 804 845 844
4 804 805 846 845
4 805 806 847 846
4 806 807 848 847
4 807 808 849 848
4 808 809 850 849
4 809 810 851 850
4 810 811 852 851
4 811 812 853 852
4 812 813 854 853
4 813 814 855 854
4 814 815 856 855
4 815 816 857 856
4 816 817 858 857
4 817 818 859 858
4 818 819 860 859
CELL_TYPES 800
9
9
9
9
9
9
9
9
9
9
9
9
9
9
9
9
9
9
9
9
9
9
9
9
9
9
9
9
9
9
9
9
9
9
9
9
9
9
9
9
9
9
9
9
9
9
9
9
9
9
9
9
9
9
9
9
9
9
9
9
9
9
9
9
9
9
9
9
9
9
9
9
9
9
9
9
9
9
9
9
9
9
9
9
9
9
9
9
9
9
9
9
9
9
9
9
9
9
9
9
9
9
9
9
9
9
9
9
9
9
9
9
9
9
9
9
9
9
9
9
9
9
9
9
9
9
9
9
9
9
9
9
9
9
9
9
9
9
9
9
9
9
9
9
9
9
9
9
9
9
9
9
9
9
9
9
9
9
9
9
9
9
9
9
9
9
9
9
9
9
9
9
9
9
9
9
9
9
9
9
9
9
9
9
9
9
9
9
9
9
9
9
9
9
9
9
9
9
9
9
9
9
9
9
9
9
9
9
9
9
9
9
9
9
9
9
9
9
9
9
9
9
9
9
9
9
9
9
9
9
9
9
9
9
9
9
9
9
9
9
9
9
9
9
9
9
9
9
9
9
9
9
9
9
9
9
9
9
9
9
9
9
9
9
9
9
9
9
9
9
9
9
9
9
9
9
9
9
9
9
9
9
9
9
9
9
9
9
9
9
9
9
9
9
9
9
9
9
9
9
9
9
9
9
9
9
9
9
9
9
9
9
9
9
9
9
9
9
9
9
9
9
9
9
9
9
9
9
9
9
9
9
9
9
9
9
9
9
9
9
9
9
9
9
9
9
9
9
9
9
9
9
9
9
9
9
9
9
9
9
9
9
9
9
9
9
9
9
9
9
9
9
9
9
9
9
9
9
9
9
9
9
9
9
9
9
9
9
9
9
9
9
9
9
9
9
9
9
9
9
9
9
9
9
9
9
9
9
9
9
9
9
9
9
9
9
9
9
9
9
9
9
9
9
9
9
9
9
9
9
9
9
9
9
9
9
9
9
9
9
9
9
9
9
9
9
9
9
9
9
9
9
9
9
9
9
9
9
9
9
9
9
9
9
9
9
9
9
9
9
9
9
9
9
9
9
9
9
9
9
9
9
9
9
9
9
9
9
9
9
9
9
9
9
9
9
9
9
9
9
9
9
9
9
9
9
9
9
9
9
9
9
9
9
9
9
9
9
9
9
9
9
9
9
9
9
9
9
9
9
9
9
9
9
9
9
9
9
9
9
9
9
9
9
9
9
9
9
9
9
9
9
9
9
9
9
9
9
9
9
9
9
9
9
9
9
9
9
9
9
9
9
9
9
9
9
9
9
9
9
9
9
9
9
9
9
9
9
9
9
9
9
9
9
9
9
9
9
9
9
9
9
9
9
9
9
9
9
9
9
9
9
9
9
9
9
9
9
9
9
9
9
9
9
9
9
9
9
9
9
9
9
9
9
9
9
9
9
9
9
9
9
9
9
9
9
9
9
9
9
9
9
9
9
9
9
9
9
9
9
9
9
9
9
9
9
9
9
9
9
9
9
9
9
9
9
9
9
9
9
9
9
9
9
9
9
9
9
9
9
9
9
9
9
9
9
9
9
9
9
9
9
9
9
9
9
9
9
9
9
9
9
9
9
9
9
9
9
9
9
9
9
9
9
9
9
9
9
9
9
9
9
9
9
9
9
9
9
9
9
9
9
9
9
9
9
9
9
9
9
9
9
9
9
9
9
9
9
9
9
9
9
9
9
9
9
9
9
9
9
9
9
9
9
9
9
9
9
9
9
9
9
9
9
9
9
9
9
9
9
9
9
9
9
9
9
9
9
9
9
POINT_DATA 861
SCALARS Disp float 2
LOOKUP_TABLE default
0.0 0.0
0.0022520911682867018 -0.07652410934224584
0.0031054004649667213 -0.14850380543398126
0.003779701766239568 -0.22012445336991715
0.004559873953833252 -0.29145241703581026
0.005520946843609675 -0.3624138034161791
0.006802205106433925 -0.4328804479263773
0.008463044488313433 -0.5027237709849581
0.01058152455880743 -0.5717755027719942
0.013268566712357297 -0.6398141184634516
0.016690893846885605 -0.7065383858066876
0.021124553111221325 -0.7715195357058567
0.02700370164779067 -0.8341567122311933
0.034898114127534255 -0.8936754006849039
0.045484959421166746 -0.9491426663253748
0.05945398469450176 -0.9994788858736163
0.07735650221279336 -1.0434602676783054
0.0994220589661156 -1.079733011502365
0.1254020284065124 -1.1069189404619224
0.15451971120387464 -1.1238453703777391
0.18550149924057543 -1.12977916346798
0.21648328727727603 -1.1238453703777245
0.24560097007463672 -1.106918940461891
0.2715809395150308 -1.0797330115023198
0.29364649626834954 -1.0434602676782487
0.31154901378663796 -0.9994788858735533
0.3255180390599698 -0.9491426663253056
0.33610488435359837 -0.8936754006848302
0.3439992968333376 -0.8341567122311171
0.34987844536990265 -0.7715195357057801
0.3543121046342342 -0.7065383858066123
0.35773443176875874 -0.6398141184633794
0.3604214739223056 -0.5717755027719257
0.36253995399279665 -0.502723770984895
0.36420079337467387 -0.43288044792632
0.36548205163749625 -0.36241380341612967
0.3664431245272717 -0.2914524170357686
0.3672232967148649 -0.22012445336988432
0.36789759801613753 -0.1485038054339569
0.3687509073128171 -0.07652410934223075
0.3710029984811033 0.0
0.01911138598442048 -0.0011538992032074694
0.020548535074181785 -0.07651698818146997
0.021019397811267916 -0.14858698023196423
0.02164328814727119 -0.22019382604472643
0.02234145456939919 -0.2915373927291283
0.02319822688641912 -0.362536565887202
0.02433830024902378 -0.4330644791914986
0.025823312035223586 -0.5029800416304354
0.02771962311237203 -0.5721250521354251
0.03012045862448918 -0.6402865605748984
0.03317105902314524 -0.7071821512044285
0.03711007478281553 -0.772416367312
0.04231770387427888 -0.8354287383742475
0.04932649196622461 -0.8954761526897709
0.05876874348781226 -0.9516443276359337
0.07129488076082487 -1.0028404458318405
0.08742123437095914 -1.0477848989057557
0.10736332598676865 -1.0850260361725572
0.130908799711785 -1.113062570988639
0.15736151786236333 -1.1305982790136075
0.1855014992405737 -1.1367656029507403
0.21364148061878385 -1.1305982790135927
0.24009419876936075 -1.1130625709886073
0.2636396724943748 -1.0850260361725113
0.2835817641101816 -1.0477848989056988
0.2997081177203133 -1.002840445831777
0.3122342549933229 -0.9516443276358637
0.3216765065149071 -0.8954761526896964
0.328685294606849 -0.8354287383741705
0.33389292369830853 -0.7724163673119225
0.337831939457975 -0.7071821512043526
0.34088253985662775 -0.6402865605748256
0.3432833753687421 -0.5721250521353561
0.345179686445888 -0.5029800416303717
0.3466646982320857 -0.43306447919144087
0.34780477159468876 -0.3625365658871523
0.3486615439117079 -0.2915373927290866
0.34935971033383545 -0.22019382604469362
0.3499836006698385 -0.1485869802319398
0.3504544634069248 -0.07651698818145494
0.3518916124966847 -0.001153899203206239
0.037711407648407885 -0.0020614039001595674
0.038712588464140454 -0.07649842636253479
0.03897436869314228 -0.1486352166641407
0.0394795867109265 -0.22026010614553557
0.040102960915878845 -0.29161227053664357
0.040864760910505726 -0.36263918345474044
0.041856929501651464 -0.43321936207869965
0.04316572174453838 -0.5031984252673752
0.044840262616077854 -0.5724242121152857
0.046958589201912385 -0.6406917581150663
0.04964393112424183 -0.7077354056725993
0.053101050029134386 -0.7731874939027115
0.05765875567142037 -0.8365261511965651
0.06379278081109523 -0.8970442514675598
0.07209604743893419 -0.9538436296722835
0.08316895867786618 -1.00581964184474
0.097492509031808 -1.0516409593581257
0.1152819714066579 -1.0897679669874691
0.1363741418121328 -1.11858955336137
0.16014870346541302 -1.1366864864257777
0.18550149924057227 -1.1430738149346849
0.21085429501573127 -1.1366864864257629
0.23462885666901007 -1.118589553361338
0.255721027074483 -1.0897679669874227
0.27351048944933076 -1.0516409593580685
0.2878340398032704 -1.0058196418446759
0.2989069510421997 -0.9538436296722131
0.3072102176700356 -0.8970442514674848
0.3133442428097071 -0.8365261511964875
0.31790194845198966 -0.7731874939026334
0.32135906735687886 -0.7077354056725226
0.32404440927920536 -0.6406917581149929
0.32616273586503736 -0.5724242121152163
0.3278372767365746 -0.5031984252673112
0.3291460689794596 -0.4332193620786416
0.33013823757060407 -0.3626391834546906
0.33090003756523034 -0.29161227053660177
0.3315234117701823 -0.22026010614550273
0.33202862978796643 -0.14863521666411633
0.33229041001696846 -0.07649842636251973
0.3332915908326996 -0.0020614039001571405
0.056033457586980355 -0.002788847032146221
0.056769827923943174 -0.07649331723942616
0.05691873049995797 -0.14865884779943656
0.05730282637197728 -0.22031481883916626
0.0578401620241866 -0.291680570662789
0.0585146451993317 -0.36272427148506425
0.059365128669220155 -0.4333442328699772
0.06049306756228571 -0.5033809945655453
0.061946713595328926 -0.5726749187427053
0.06378577869202728 -0.6410323844211883
0.06611307053922803 -0.7082012357936662
0.0690994606577016 -0.7738384472458838
0.07302547841946017 -0.8374559253489544
0.07830808682646427 -0.8983830874738933
0.08547899286157273 -0.9557414723600837
0.095094500709402 -1.0084135491624222
0.10759962449881463 -1.0550227150624212
0.12321158387553649 -1.0939532323504826
0.14182234527516624 -1.1234950484315924
0.16290977486320155 -1.142114516698391
0.18550149924057113 -1.148718799005826
0.20809322361794022 -1.142114516698376
0.2291806532059742 -1.12349504843156
0.24779141460560228 -1.0939532323504357
0.2634033739823223 -1.0550227150623637
0.2759084977717329 -1.0084135491623578
0.2855240056195598 -0.9557414723600128
0.2926949116546657 -0.8983830874738177
0.2979775200616668 -0.8374559253488761
0.30190353782342244 -0.7738384472458051
0.30488992794189307 -0.7082012357935888
0.3072172197890912 -0.6410323844211145
0.30905628488578735 -0.5726749187426355
0.3105099309188286 -0.5033809945654808
0.31163786981189256 -0.4333442328699189
0.3124883532817801 -0.36272427148501435
0.3131628364569247 -0.2916805706627472
0.31370017210913365 -0.2203148188391334
0.3140842679811529 -0.14865884779941224
0.3142331705571678 -0.07649331723941101
0.3149695408941294 -0.0027888470321427525
0.07418769031179318 -0.0033749359495147957
0.07474543215304244 -0.07650495955356287
0.07483274920034223 -0.1486683549606004
0.0751118612879571 -0.22035601417802392
0.07555673213626556 -0.29173972073789145
0.07613817122875301 -0.3627986670931631
0.07686862864052893 -0.4334423775643487
0.07780887744164577 -0.5035282809138515
0.0790420501700567 -0.5728798644795484
0.08060522457394631 -0.6413113655831093
0.0825809517517873 -0.7085840250636128
0.08510892109226245 -0.7743740368750228
0.08842072192243444 -0.8382245666921166
0.09287180254354621 -0.8994995025815062
0.09893239511887796 -0.9573401721648124
0.10709470500177405 -1.0106213501018622
0.11777113332572045 -1.0579266644601073
0.13118544312155594 -1.097575931365011
0.14728560467123525 -1.127773733840012
0.16566672785180558 -1.1468837241718177
0.1855014992405701 -1.153707884516455
0.205336270629334 -1.1468837241718024
0.22371739380990294 -1.1277737338399796
0.23981755535958077 -1.097575931364964
0.2532318651554145 -1.0579266644600493
0.2639082934793592 -1.010621350101797
0.2720706033622533 -0.9573401721647412
0.27813119593758284 -0.8994995025814302
0.28258227655869206 -0.8382245666920379
0.2858940773888615 -0.7743740368749435
0.2884220467293342 -0.7085840250635351
0.2903977739071729 -0.641311365583035
0.2919609483110607 -0.5728798644794781
0.29319412103946985 -0.5035282809137868
0.2941343698405855 -0.4334423775642903
0.2948648272523607 -0.36279866709311315
0.2954462663448477 -0.2917397207378496
0.2958911371931559 -0.220356014177991
0.29617024928077074 -0.14866835496057607
0.2962575663280706 -0.07650495955354764
0.29681530816931884 -0.003374935949510462
0.09222830498948541 -0.0038462752089596657
0.09266062890471179 -0.07653141636623385
0.09271107693213429 -0.14867054662676146
0.09290345619444344 -0.2203846036087642
0.09325506283670419 -0.29178795022470727
0.09373743768596675 -0.3628629835358189
0.09435328807635454 -0.433522437706077
0.09512725779708417 -0.5036386637023241
0.09612966346462128 -0.5730416186348574
0.09742002339767464 -0.6415324639785952
0.09905088021436957 -0.70888774157248
0.10113143235605256 -0.7748003691178837
0.10384763435716433 -0.8388393421895102
0.10749242917713138 -0.9004002222468033
0.11246061592676351 -0.958646176833274
0.11918785003110681 -1.0124454375391834
0.12804120460698892 -1.0603509925665189
0.1392391531096522 -1.1006305875227556
0.15279660103116094 -1.1314191771324036
0.16844011176050844 -1.1509914140507755
0.185501499240569 -1.158043162924932
0.2025628867206289 -1.1509914140507598
0.21820639744997505 -1.1314191771323712
0.23176384537148248 -1.100630587522708
0.24296179387414427 -1.060350992566461
0.25181514845002473 -1.012445437539118
0.25854238255436635 -0.9586461768332025
0.2635105693039967 -0.9004002222467269
0.2671553641239617 -0.8388393421894311
0.2698715661250713 -0.774800369117804
0.27195211826675225 -0.708887741572402
0.2735829750834453 -0.6415324639785206
0.27487333501649713 -0.573041618634787
0.2758757406840329 -0.5036386637022592
0.2766497104047616 -0.43352243770601845
0.2772655607951489 -0.3628629835357689
0.2777479356444111 -0.29178795022466536
0.27809954228667166 -0.22038460360873124
0.27829192154898075 -0.14867054662673712
0.27834236957640324 -0.07653141636621853
0.2787746934916288 -0.003846275208954631
0.11018767109484001 -0.004224393342648413
0.11052742235829618 -0.0765697138127069
0.11055536393626815 -0.1486692695478201
0.11067585609011843 -0.2204022395993428
0.11093688062214993 -0.29182489288051383
0.11131736078260743 -0.362915489726869
0.11181233542897229 -0.4335895556391866
0.11243612689005693 -0.50372270535262
0.11322216223514915 -0.5731599032824873
0.11423329856080013 -0.641699618372342
0.11552640443408796 -0.7091178131977167
0.11717050052001361 -0.7751239453022926
0.11930931945948556 -0.8393084128711059
0.12217190637475588 -0.9010946629714235
0.12607912987155628 -0.9596660888635743
0.13139014997584456 -1.0138915483211206
0.1384314393281335 -1.0622979881685806
0.14741228584691793 -1.1031129904698476
0.15839503146499392 -1.1344231994397092
0.1712523832417588 -1.154430341286179
0.1855014992405678 -1.1617219775058238
0.19975061523937618 -1.154430341286163
0.21260796701613993 -1.1344231994396765
0.2235907126342146 -1.1031129904697998
0.2325715591529978 -1.0622979881685222
0.23961284850528522 -1.013891548321055
0.2449238686095722 -0.9596660888635026
0.2488310921063712 -0.9010946629713468
0.25169367902163986 -0.8393084128710263
0.2538324979611102 -0.7751239453022125
0.2554765940470342 -0.7091178131976383
0.2567696999203206 -0.6416996183722672
0.2577808362459703 -0.5731599032824167
0.2585668715910616 -0.5037227053525549
0.25919066305214566 -0.4335895556391281
0.2596856376985101 -0.3629154897268189
0.26006611785896727 -0.2918248928804719
0.26032714239099863 -0.22040223959930982
0.2604476345448489 -0.14866926954779572
0.26047557612282085 -0.07656971381269152
0.26081532738627644 -0.004224393342642802
0.1280930696919272 -0.004522898741999235
0.12835574104594813 -0.07661686160335882
0.12836954915270063 -0.14866657339459557
0.12842932213727168 -0.22041060166006318
0.12860404727078797 -0.29185059489575077
0.12888143820570544 -0.36295553638462547
0.12925234225748405 -0.433641898353395
0.12972326284508628 -0.5037888218915014
0.13031348722506486 -0.5732434815622262
0.13105641233118637 -0.6418155282586934
0.13201053092153972 -0.7092805154807758
0.13322883229419388 -0.775352670488601
0.13480833009531026 -0.8396415932934844
0.13691567486393993 -0.901593669857453
0.1397926171654339 -0.9604115954587179
0.1437212300027481 -1.014967517498609
0.1489699482941956 -1.0637719157709395
0.15573316641930932 -1.1050231165377258
0.16411922317596575 -1.1367773205101372
0.17413021181786495 -1.1571880236274736
0.18550149924056641 -1.1647363374893074
0.19687278666326755 -1.1571880236274577
0.20688377530516575 -1.1367773205101042
0.215269832061821 -1.1050231165376778
0.22203305018693362 -1.063771915770881
0.22728176847838008 -1.014967517498543
0.23121038131569316 -0.9604115954586461
0.23408732361718612 -0.9015936698573761
0.23619466838581465 -0.8396415932934047
0.23777416618692981 -0.7753526704885206
0.23899246755958278 -0.7092805154806973
0.23994658614993516 -0.6418155282586182
0.24068951125605584 -0.5732434815621554
0.24127973563603383 -0.5037888218914364
0.24175065622363556 -0.43364189835333644
0.24212156027541387 -0.3629555363845754
0.24239895121033117 -0.29185059489570886
0.2425736763438474 -0.22041060166003018
0.24263344932841846 -0.1486665733945712
0.24264725743517093 -0.0766168616033434
0.24290992878919143 -0.004522898741993213
0.14595466796623646 -0.0047598165974841455
0.1461586958175299 -0.07666830738702152
0.14615769091760783 -0.14866349587038208
0.14616577602124547 -0.22041112998378293
0.14625878980514667 -0.2918653981559712
0.14643311937488626 -0.3629826696567834
0.14667761517766978 -0.433679243230334
0.14699254204680648 -0.5038364121519222
0.1473882742932382 -0.5733026206352301
0.1478815480267616 -0.6418912875715612
0.14850795481979792 -0.7093828671341064
0.1493106113792673 -0.7754971977531758
0.15034691191807614 -0.839851626614937
0.15172582062184609 -0.9019121288733682
0.15360872178760443 -0.9608976704945654
0.1561936977921668 -1.0156865950662846
0.15967913507041914 -1.0647816467419384
0.16423965317048844 -1.1063635375353704
0.17001021725614981 -1.1384747792766858
0.17710377687672857 -1.1592481584381815
0.18550149924056492 -1.1670734969747292
0.19389922160440098 -1.1592481584381653
0.20099278122497902 -1.1384747792766525
0.20676334531063942 -1.1063635375353225
0.2113238634107079 -1.0647816467418798
0.21480930068895968 -1.0156865950662184
0.21739427669352127 -0.9608976704944934
0.21927717785927897 -0.9019121288732913
0.2206560865630483 -0.8398516266148571
0.2216923871018564 -0.7754971977530953
0.22249504366132505 -0.7093828671340278
0.22312145045436083 -0.6418912875714861
0.22361472418788375 -0.5733026206351592
0.22401045643431508 -0.503836412151857
0.2243253833034515 -0.43367924323027535
0.22456987910623494 -0.3629826696567333
0.2247442086759744 -0.2918653981559292
0.22483722245987559 -0.2204111299837499
0.22484530756351326 -0.14866349587035765
0.2248443026635912 -0.07666830738700604
0.22504833051488435 -0.004759816597477859
0.16377676718657108 -0.004954988750104076
0.16394223295156996 -0.07671972556349481
0.163925468053457 -0.14866018197020675
0.16388796661784216 -0.22040502083236768
0.16390378110948528 -0.2918697525148964
0.1639760368651683 -0.3629968079268686
0.1640931775975354 -0.43370099385678434
0.1642499546330656 -0.5038650544484141
0.16444799623301382 -0.5733383146842203
0.16469613659891938 -0.6419363602838148
0.16500537873750226 -0.7094403159246238
0.1654078377298251 -0.7755748256267658
0.16592180108298027 -0.8399576343895195
0.16659909458139546 -0.9020719877183057
0.16752642225853423 -0.9611479711498243
0.16880832875466167 -1.016071471859876
0.17056856513265173 -1.0653440991947114
0.1729396612924697 -1.1071463563354464
0.17610191658775248 -1.1395160920312268
0.18022007424247696 -1.1605912004290921
0.18550149924056325 -1.1687132388967378
0.19078292423864934 -1.1605912004290757
0.19490108189337352 -1.139516092031193
0.19806333718865568 -1.1071463563353983
0.2004344333484732 -1.0653440991946526
0.202194669726463 -1.0160714718598098
0.20347657622259013 -0.9611479711497519
0.20440390389972865 -0.9020719877182286
0.20508119739814373 -0.8399576343894396
0.20559516075129863 -0.7755748256266852
0.2059976197436212 -0.709440315924545
0.20630686188220393 -0.6419363602837397
0.20655500224810935 -0.5733383146841494
0.20675304384805748 -0.503865054448349
0.2069098208835876 -0.4337009938567257
0.20702696161595466 -0.3629968079268186
0.2070992173716377 -0.2918697525148544
0.2071150318632809 -0.2204050208323346
0.20707753042766608 -0.14866018197018233
0.20706076552955316 -0.0767197255634793
0.2072262312945519 -0.0049549887500976025
0.1815770147558513 -0.005113799133980003
0.18171031099948953 -0.0767691087286677
0.1816785933766759 -0.14865618459872704
0.18159940727474727 -0.22039315155137582
0.1815421263328086 -0.2918641921499104
0.181513999057126 -0.3629980370767536
0.1815036075624109 -0.43370698273017555
0.18150125973647985 -0.5038743902186005
0.18150151014648935 -0.57335024862573
0.18150207393196266 -0.6419514775342927
0.18150245192568848 -0.7094589384420834
0.18150281453360181 -0.775600369462815
0.1815031581084678 -0.8399908836436799
0.1815024452941023 -0.9021179466194345
0.18150005872945513 -0.9612147318817229
0.18150517358486198 -1.0161756826105124
0.1815540653125292 -1.0655047132785593
0.18174813658686154 -1.1074083448492364
0.18230685771169738 -1.1399352686454112
0.18348720398965904 -1.1612164010748351
0.1855014992405615 -1.169638078808233
0.18751579449146386 -1.161216401074819
0.18869614076942548 -1.1399352686453774
0.1892548618942611 -1.1074083448491885
0.1894489331685935 -1.0655047132785005
0.18949782489626094 -1.0161756826104462
0.1895029397516679 -0.9612147318816506
0.1895005531870209 -0.9021179466193574
0.18949984037265574 -0.8399908836435999
0.189500183947522 -0.7756003694627344
0.18950054655543555 -0.7094589384420046
0.18950092454916156 -0.6419514775342174
0.18950148833463507 -0.5733502486256592
0.1895017387446447 -0.5038743902185352
0.18949939091871373 -0.43370698273011693
0.18948899942399872 -0.36299803707670353
0.18946087214831622 -0.29186419214986836
0.18940359120637773 -0.22039315155134276
0.18932440510444917 -0.1486561845987026
0.18929268748163558 -0.07676910872865213
0.1894259837252737 -0.00511379913397338
0.1993654115554457 -0.005240436328660944
0.19946901436218728 -0.07681454723568536
0.19942213622062246 -0.14865112310824216
0.19930413917458195 -0.22037606473758214
0.1991772982842898 -0.291849285123601
0.19905095307858717 -0.36298657652600386
0.1989140326574228 -0.43369722560903246
0.1987526543901881 -0.50386428174193
0.19855512516366158 -0.5733384843116173
0.19830804834044322 -0.6419365708417465
0.19799953128501918 -0.7094405139258703
0.19759783926050206 -0.7755749895410108
0.19708453288763422 -0.8399575670490392
0.19640617775939861 -0.9020711534641657
0.19547409377835845 -0.9611471980537659
0.19419854684646273 -1.0160781924310611
0.19252840335729862 -1.0653800857321936
0.1905173697005136 -1.1072780912851345
0.1883711899313904 -1.1398587992341855
0.1864702509250531 -1.1612241720048666
0.18550149924055984 -1.1699462735361235
0.1845327475560665 -1.1612241720048504
0.18263180854972919 -1.1398587992341518
0.18048562878060628 -1.1072780912850868
0.17847459512382186 -1.065380085732135
0.17680445163465844 -1.0160781924309952
0.17552890470276325 -0.9611471980536936
0.1745968207217237 -0.9020711534640886
0.1739184655934889 -0.8399575670489592
0.17340515922062177 -0.7755749895409302
0.1730034671961054 -0.7094405139257915
0.17269495014068195 -0.6419365708416713
0.17244787331746408 -0.5733384843115465
0.17225034409093792 -0.5038642817418647
0.17208896582370345 -0.4336972256089739
0.17195204540253933 -0.3629865765259538
0.17182570019683696 -0.291849285123559
0.17169885930654502 -0.2203760647375491
0.17158086226050462 -0.1486511231082177
0.17153398411893986 -0.07681454723566974
0.17163758692568135 -0.005240436328654213
0.21714851038895266 -0.005338778345405671
0.21722422757006193 -0.0768545534789847
0.21716117737669383 -0.14864448834404476
0.21700637778837004 -0.22035414494837072
0.2168130788358822 -0.29182557901220585
0.2165911114596393 -0.36296277285397355
0.21632916413676914 -0.43367192258019394
0.21601043697919325 -0.5038349389473186
0.2156151474005761 -0.5733029536915747
0.2151227686789528 -0.6418916995616428
0.21449700211034936 -0.709383229254315
0.21369493664851322 -0.7754975297759964
0.21265944807217868 -0.8398516183218312
0.21128049733840554 -0.9019103832927821
0.2093932847278587 -0.9608954090402478
0.2068086088414326 -1.0156999019969137
0.20339456012641716 -1.0648616098348918
0.19915699729139685 -1.1066437016487962
0.19430121744228734 -1.1391813820126249
0.18938692444304273 -1.1606779281006419
0.1855014992405582 -1.169756251706298
0.18161607403807342 -1.1606779281006254
0.1767017810388291 -1.1391813820125913
0.17184600118972015 -1.1066437016487485
0.1676084383547011 -1.0648616098348334
0.16419438963968686 -1.0156999019968478
0.1616097137532616 -0.9608954090401757
0.1597225011427158 -0.9019103832927052
0.15834355040894388 -0.8398516183217514
0.15730806183261062 -0.7754975297759159
0.15650599637077572 -0.7093832292542365
0.1558802298021733 -0.6418916995615678
0.1553878510805508 -0.5733029536915039
0.15499256150193427 -0.5038349389472533
0.15467383434435883 -0.43367192258013537
0.15441188702148903 -0.3629627728539234
0.15418991964524648 -0.2918255790121639
0.15399662069275882 -0.22035414494833766
0.15384182110443528 -0.14864448834402028
0.1537787709110672 -0.07685455347896905
0.15385448809217642 -0.005338778345398851
0.23493150295642318 -0.005412385182684798
0.2349811206829067 -0.07688814348942555
0.23490071616025965 -0.14863569004677948
0.23471045658814504 -0.22032767894110755
0.23445352078233497 -0.29179356943197143
0.23413851365343982 -0.36292711381267434
0.2337540908572567 -0.4336314116851597
0.23328028252088384 -0.5037867883048022
0.23269041245631275 -0.5732439523731379
0.23194813930747324 -0.6418161286237765
0.23099450484970743 -0.7092810334779021
0.2297765565793806 -0.7753531760570422
0.22819792807373263 -0.8396417749995794
0.22609245910814316 -0.9015914621986182
0.2232151749962752 -0.9604077728195288
0.21928387079090034 -1.0149844726035828
0.21407667027141775 -1.063887496797029
0.20754610639670276 -1.105429124435679
0.19994308195199015 -1.1378293970537083
0.19205682663818197 -1.1594337052600878
0.18550149924055656 -1.1690646668291578
0.1789461718429311 -1.1594337052600714
0.17105991652912342 -1.1378293970536748
0.16345689208441178 -1.1054291244356313
0.15692632820969835 -1.063887496796971
0.15171912769021734 -1.0149844726035173
0.14778782348484373 -0.9604077728194569
0.14491053937297713 -0.9015914621985416
0.14280507040738932 -0.8396417749994999
0.14122644190174313 -0.775353176056962
0.140008493631418 -0.7092810334778238
0.13905485917365373 -0.6418161286237015
0.13831258602481541 -0.5732439523730671
0.13772271596024516 -0.5037867883047368
0.13724890762387296 -0.43363141168510116
0.1368644848276903 -0.3629271138126243
0.1365494776987956 -0.2917935694319295
0.1362925418929858 -0.22032767894107455
0.13610228232087143 -0.14863569004675503
0.13602187779822447 -0.07688814348940988
0.1360714955247079 -0.005412385182677915
0.2527186284306517 -0.005464658892181413
0.2527442249235331 -0.07691476917566266
0.2526455295866771 -0.14862416984210058
0.2524208172964372 -0.22029684816581868
0.2521026259438445 -0.29175379587198524
0.2516975095631961 -0.36288000978770973
0.2511935821009337 -0.43357645070705514
0.2505684042182967 -0.5037203094048465
0.2497823201052461 -0.5731604640683259
0.24877155913610963 -0.6417004144385021
0.247478640253519 -0.7091184206107233
0.24583467749495144 -0.7751245718826979
0.24369663112652862 -0.8393089521858791
0.24083857137112408 -0.9010931633692415
0.23693946061286328 -0.9596622129741418
0.23162930030622927 -1.013909243589774
0.2245888397077527 -1.0624317835672976
0.21571961207507248 -1.1036095342205607
0.20534986931397212 -1.135786115912459
0.19454356032493564 -1.1575081806072416
0.18550149924055512 -1.1678885307832634
0.17645943815617468 -1.1575081806072252
0.16565312916713887 -1.1357861159124254
0.15528338640603967 -1.1036095342205134
0.14641415877336125 -1.0624317835672397
0.13937369817488668 -1.0139092435897088
0.1340635378682543 -0.9596622129740701
0.13016442710999518 -0.9010931633691652
0.1273063673545928 -0.8393089521857999
0.12516832098617217 -0.7751245718826181
0.12352435822760674 -0.7091184206106452
0.12223143934501808 -0.6417004144384275
0.12122067837588323 -0.5731604640682552
0.1204345942628339 -0.5037203094047813
0.11980941638019771 -0.4335764507069967
0.11930548891793594 -0.3628800097876598
0.11890037253728798 -0.29175379587194333
0.11858218118469566 -0.2202968481657857
0.11835746889445604 -0.14862416984207613
0.11825877355760009 -0.07691476917564695
0.11828437005048152 -0.005464658892174483
0.27051332636257813 -0.005498974117714662
0.2705174836786961 -0.07693424933097735
0.2704001616132984 -0.1486094659506884
0.27014190621594636 -0.2202618192721766
0.26976456609873894 -0.2917066511329921
0.2692723483334996 -0.3628222732420256
0.26865303679187236 -0.4335075132295442
0.26787823204291644 -0.5036359199416558
0.26687558562124974 -0.5730422590256476
0.2655851663660175 -0.6415333938034669
0.2639542415117826 -0.7088884113624043
0.26187348216877115 -0.7748010178423931
0.25915807156472875 -0.838840419912443
0.2555207041785529 -0.9004010472901394
0.2505717395625093 -0.9586454217332032
0.24385535126579433 -1.0124617035386225
0.23496640268068703 -1.0604827177889455
0.2237553861285366 -1.1011755664596186
0.21062729802105407 -1.133049905186048
0.196956805227547 -1.1549201982609487
0.18550149924055373 -1.1662459368394995
0.17404619325356074 -1.1549201982609325
0.16037570046005453 -1.133049905186015
0.14724761235257347 -1.1011755664595713
0.13603659580042493 -1.0604827177888883
0.1271476472153198 -1.0124617035385575
0.12043125891860693 -0.9586454217331318
0.11548229430256537 -0.9004010472900635
0.11184492691639204 -0.8388404199123642
0.10912951631235225 -0.7748010178423137
0.10704875696934353 -0.7088884113623268
0.10541783211511091 -0.6415333938033927
0.1041274128598806 -0.5730422590255773
0.10312476643821557 -0.5036359199415907
0.1023499616892608 -0.4335075132294858
0.10173065014763427 -0.3628222732419757
0.1012384323823955 -0.29170665113295025
0.1008610922651885 -0.2202618192721437
0.10060283686783673 -0.14860946595066396
0.1004855148024391 -0.07693424933096163
0.10048967211855715 -0.005498974117707709
0.2883182258534136 -0.005518782545070706
0.288304257465965 -0.0769467171913146
0.28816898043077654 -0.1485912843375651
0.28787820563656713 -0.22022274251517293
0.2874435184030826 -0.29165252350714566
0.2868669063174253 -0.3627544694392937
0.2861383010787792 -0.43342625620266034
0.28519796842191614 -0.5035252228022291
0.2839640615149808 -0.5728805097201
0.28240029207339123 -0.6413123315494963
0.280424150637084 -0.7085846739263464
0.2778957751616833 -0.7743746492407025
0.27458523674300683 -0.838226436813034
0.2701444940296448 -0.8995042738150761
0.264112673077479 -0.9573463160558333
0.2559759863961254 -1.0106365065851874
0.24525016411318115 -1.0580397593530848
0.23172859494586526 -1.0981290386107312
0.21589257236866777 -1.1296269909844912
0.19938868251848202 -1.1516748224736262
0.18550149924055248 -1.1641359154704722
0.17161431596262328 -1.15167482247361
0.15511042611243858 -1.1296269909844583
0.13927440353524276 -1.0981290386106841
0.12575283436792895 -1.058039759353028
0.11502701208498713 -1.0106365065851228
0.10689032540363584 -0.9573463160557621
0.10085850445147256 -0.8995042738150008
0.09641776173811338 -0.8382264368129559
0.09310722331944002 -0.7743746492406237
0.09057884784404244 -0.7085846739262694
0.08860270640773782 -0.6413123315494225
0.08703893696615053 -0.57288050972003
0.08580503005921729 -0.5035252228021643
0.0848646974023557 -0.43342625620260206
0.08413609216371051 -0.3627544694392438
0.08355948007805386 -0.29165252350710386
0.08312479284456978 -0.22022274251514
0.08283401805036061 -0.1485912843375407
0.08269874101517234 -0.07694671719129886
0.08268477262772378 -0.005518782545063751
0.306134992685885 -0.005527679190441509
0.30610727207722355 -0.07695261359429904
0.30595632740962425 -0.14856956820164757
0.30563431234371674 -0.22017975622974698
0.30514328247149364 -0.2915916736265888
0.30448694997346243 -0.36267834757277434
0.3036432640161365 -0.4333275163561836
0.3025156030651303 -0.5033777079367063
0.3010602772693203 -0.5726754031639715
0.2992200050056749 -0.6410332673409803
0.2968919422826346 -0.7082017781341239
0.2939051524297553 -0.773839059248715
0.2899815775850841 -0.8374590184025256
0.28471215703388975 -0.8983930240518789
0.2775747853782077 -0.9557573770448056
0.2679985520389417 -1.0084313250312302
0.25546721288166113 -1.0551118854972381
0.23972884003771106 -1.0944870942595317
0.2212719555528725 -1.1255272818866011
0.20192751346081447 -1.1477599844869657
0.18550149924055126 -1.1615375558383016
0.16907548502028827 -1.14775998448695
0.1497310429282316 -1.1255272818865685
0.13127415844339493 -1.094487094259485
0.11553578559944705 -1.0551118854971815
0.10300444644216922 -1.008431325031166
0.09342821310290583 -0.9557573770447351
0.08629084144722667 -0.8983930240518039
0.08102142089603559 -0.8374590184024482
0.077097846051368 -0.7738390592486368
0.07411105619849213 -0.7082017781340475
0.0717829934754548 -0.6410332673409069
0.06994272121181214 -0.5726754031639021
0.06848739541600439 -0.5033777079366418
0.06735973446500011 -0.4333275163561255
0.06651604850767537 -0.36267834757272455
0.06585971600964484 -0.2915916736265471
0.06536868613742222 -0.22017975622971414
0.065046671071515 -0.1485695682016232
0.06489572640391587 -0.07695261359428328
0.0648680057952544 -0.005527679190434538
0.3239639966448236 -0.005529422895252999
0.32392852373839015 -0.07695273897432008
0.3237667680492169 -0.14854464181826102
0.323415050474728 -0.22013275066727847
0.3228676702298639 -0.29152486523338095
0.32213561320148 -0.36259332313791176
0.32115449412611524 -0.43320287399702745
0.31984496361866205 -0.5031947346907685
0.3181674887371045 -0.5724243383445662
0.3160474113632707 -0.6406924330443777
0.3133609611525263 -0.7077357719023872
0.30990373623239226 -0.7731882652000377
0.30535032199413265 -0.8365310838632455
0.2992321173741972 -0.8970600839986911
0.29096250055200296 -0.9538702744985934
0.279935269285594 -1.0058453668751142
0.26563775156159264 -1.0517183314406005
0.24782777144953666 -1.090283278680976
0.22689797534735537 -1.1207658187209821
0.20469019000141003 -1.1431450222978907
0.1855014992405499 -1.158404824908172
0.16631280847969013 -1.143145022297875
0.1441050231337463 -1.1207658187209502
0.12317522703156716 -1.0902832786809298
0.10536524691951371 -1.0517183314405445
0.09106772919551526 -1.0058453668750502
0.08004049792910926 -0.9538702744985236
0.07177088110691827 -0.8970600839986167
0.06565267648698654 -0.8365310838631689
0.06109926224873096 -0.7731882651999602
0.05764203732860079 -0.7077357719023115
0.0549555871178597 -0.640692433044305
0.05283550974402887 -0.5724243383444971
0.05115803486247399 -0.5031947346907045
0.04984850435502306 -0.4332028739969696
0.048867385279659815 -0.3625933231378621
0.04813532825127663 -0.29152486523333937
0.04758794800641305 -0.2201327506672457
0.04723623043192449 -0.14854464181823662
0.04707447474275134 -0.07695273897430431
0.04703900183631794 -0.005529422895246024
0.34180364649810213 -0.005527892379842272
0.3417692278805475 -0.07694842431194583
0.34160539058030287 -0.14851738104456033
0.3412259133908209 -0.22008116194152072
0.3406206274446394 -0.29145370262474773
0.33980549156760514 -0.36249275607278064
0.33867737826896205 -0.433048700875738
0.33718912991609185 -0.5029754635452707
0.3352888399448321 -0.5721246500902253
0.33288569638752613 -0.640286906619137
0.32983375103081064 -0.7071823074475925
0.3258952405253562 -0.7724175826609827
0.32069416804446177 -0.8354362256173584
0.3137033797289099 -0.895498229522296
0.30429222441072323 -0.9516810926174216
0.2918125723483569 -1.0028787391458767
0.27577002894171304 -1.0478754537149155
0.25601792376317256 -1.0855717515849224
0.23294109851537279 -1.1153829987047938
0.20788019427297333 -1.1377757245737168
0.18550149924054832 -1.1546461034234317
0.16312280420812383 -1.1377757245737012
0.13806189996572618 -1.115382998704762
0.11498507471792888 -1.0855717515848764
0.09523296953939134 -1.0478754537148602
0.07919042613275071 -1.0028787391458134
0.06671077407038767 -0.9516810926173523
0.057299618752204746 -0.8954982295222222
0.05030883043665698 -0.8354362256172827
0.045107757955767096 -0.7724175826609061
0.04116924745031687 -0.7071823074475176
0.03811730209360501 -0.640286906619065
0.03571415853630225 -0.5721246500901568
0.033813868565045514 -0.5029754635452072
0.03232562021217782 -0.4330487008756805
0.03119750691353657 -0.3624927560727312
0.030382371036503236 -0.2914537026247062
0.029777085090322224 -0.22008116194148797
0.029397607900840624 -0.14851738104453593
0.029233770600596173 -0.07694842431193008
0.02919935198304153 -0.005527892379835309
0.35964911526323257 -0.0055269105174153895
0.35962985725527574 -0.0769420141201721
0.359478554289568 -0.14848912728546798
0.3590732740033637 -0.22002473625300656
0.3584043664742118 -0.291376523497739
0.3574918175173013 -0.3623756855236157
0.35621724913247876 -0.43286407598023063
0.35455106960409466 -0.5027182351226482
0.3524276880505154 -0.5717743579490566
0.34973765220024944 -0.6398140297449403
0.3463139552141026 -0.7065383614841672
0.3418817036680798 -0.7715215643245622
0.3360114145798563 -0.8341674659490111
0.32813669212564245 -0.8937038195678756
0.31757810421623933 -0.949188454684089
0.30365671964298446 -0.9995333178975674
0.28589439108159936 -1.0435931277651593
0.2642477258546438 -1.080390421271775
0.23931550056722115 -1.1095101541772332
0.21218641244722747 -1.1316090547330635
0.18550149924054665 -1.1500000000000001
0.15881658603386611 -1.1316090547330484
0.13168749791387446 -1.109510154177202
0.10675527262645491 -1.0803904212717295
0.08510860739950289 -1.0435931277651045
0.06734627883812148 -0.9995333178975045
0.05342489426487034 -0.9491884546840206
0.04286630635547141 -0.8937038195678024
0.03499158390126213 -0.8341674659489364
0.029121294813043562 -0.7715215643244864
0.024689043267025475 -0.7065383614840932
0.02126534628088247 -0.6398140297448689
0.018575310430619957 -0.5717743579489888
0.01645192887704408 -0.5027182351225852
0.014785749348662792 -0.4328640759801736
0.013511180963842365 -0.3623756855235665
0.012598632006932842 -0.29137652349769755
0.01192972447778157 -0.22002473625297386
0.011524444191577625 -0.1484891272854436
0.011373141225870078 -0.07694201412015633
0.011353883217913247 -0.0055269105174084445
SCALARS Stress float 6
LOOKUP_TABLE default
-657.6738952363655 -1389.0026209973512 -907.7055394452732 11.8948667586709 0.0 0.0
896.8760018024074 528.2834500316208 551.321642649543 -10.313967051733858 0.0 0.0
418.82887125910446 -4.084034092263417 124.13779663860717 -27.45746760411533 0.0 0.0
411.1371531986993 21.746205858444245 129.29919743793374 -3.82138137870765 0.0 0.0
488.67786352589945 21.52881844650301 153.19302479365592 -4.961414948054529 0.0 0.0
538.2897299934216 49.033914211394574 200.32097105579905 -3.35317352003523 0.0 0.0
609.1451879364255 59.40917970478695 250.1003346922618 -4.676460237858484 0.0 0.0
677.0395978121721 92.23761801231353 311.44421452264373 -4.662868538305803 0.0 0.0
747.446488475097 131.2096119156046 377.04847248180465 -4.120833216168806 0.0 0.0
826.400304586331 179.72699645919295 450.01794676898487 -3.7158419332514043 0.0 0.0
918.0254758317399 239.77174560068988 533.3672891535862 -3.4026967057345456 0.0 0.0
1021.8953588254451 312.2667159781086 627.1847700453859 -3.521558450339824 0.0 0.0
1134.4613858442654 389.42464933213006 724.4588847482403 -3.84260939002266 0.0 0.0
1252.8078688665255 470.0830042320513 824.1352109273122 -4.246837269333568 0.0 0.0
1369.6497763622656 548.6919811011903 920.770794096892 -4.67258725064341 0.0 0.0
1479.522682419694 621.6398770889224 1010.7518941375001 -5.1590690957342265 0.0 0.0
1578.3608534468824 686.9648169790489 1091.5646120816946 -5.532659533283882 0.0 0.0
1661.6417196652974 741.8687338184262 1159.820066629265 -5.325978652781339 0.0 0.0
1724.2425979244726 782.5796997829492 1211.0577173080792 -4.23852998710092 0.0 0.0
1757.8445380294334 802.2385316261334 1237.543022292876 -3.0398160736657736 0.0 0.0
1758.8415576489808 799.4124507503304 1236.7836236739172 -1.1256773291279387e-11 0.0 0.0
1757.84453802941 802.2385316261193 1237.543022292812 3.039816073700832 0.0 0.0
1724.2425979244106 782.5796997829017 1211.0577173079603 4.238529987097063 0.0 0.0
1661.6417196651973 741.8687338183561 1159.8200666290631 5.3259786527717345 0.0 0.0
1578.3608534455664 686.9648169777299 1091.564612080577 5.532659533287992 0.0 0.0
1479.522682418798 621.6398770880394 1010.7518941367401 5.159069095760621 0.0 0.0
1369.6497763621362 548.6919811011068 920.7707940966939 4.672587250640991 0.0 0.0
1252.8078688658657 470.0830042314431 824.1352109267311 4.246837269334881 0.0 0.0
1134.4613858435337 389.42464933146 724.4588847475787 3.842609390026192 0.0 0.0
1021.8953588252361 312.2667159780132 627.1847700451333 3.521558450364907 0.0 0.0
918.0254758308281 239.77174559986048 533.3672891528036 3.4026967057296957 0.0 0.0
826.4003045862848 179.7269964593196 450.017946768844 3.7158419332715127 0.0 0.0
747.4464884744793 131.2096119151086 377.04847248125355 4.120833216146396 0.0 0.0
677.0395978119723 92.23761801232376 311.4442145223925 4.662868538334436 0.0 0.0
609.1451879362248 59.409179704782616 250.10033469202176 4.676460237872535 0.0 0.0
538.2897299932994 49.03391421157296 200.32097105568724 3.3531735200055035 0.0 0.0
488.6778635255845 21.528818446430307 153.19302479351134 4.961414948084984 0.0 0.0
411.1371531984437 21.746205858339064 129.29919743783114 3.8213813786879625 0.0 0.0
418.8288712589568 -4.084034092064288 124.13779663863642 27.457467604058163 0.0 0.0
896.8760018021931 528.2834500312196 551.3216426492039 10.313967051785937 0.0 0.0
-657.6738952344789 -1389.0026209954538 -907.7055394434973 -11.894866759192418 0.0 0.0
-828.4600529511363 -1518.1465710580537 -1010.4667641880899 16.492441939554304 0.0 0.0
593.9402554880525 318.0894431613258 344.68514240786953 -38.80097541357882 0.0 0.0
292.86409909450316 -19.26909296765461 82.09758915530017 -19.50466237712694 0.0 0.0
366.78421725171165 7.989291513388376 112.38002602082774 -14.519257051876416 0.0 0.0
433.48107607843514 7.2204965883050125 131.50138721742906 -16.58640460392794 0.0 0.0
507.2955421456017 10.649848613576513 166.6330626027021 -17.203735979376386 0.0 0.0
558.255528174188 23.976912597972557 211.16039642481022 -18.90094063447994 0.0 0.0
618.3892634194535 45.839579836200826 262.4622402943938 -18.21970271983282 0.0 0.0
676.6693756712226 71.66325574380816 315.61062864682333 -17.260782770291414 0.0 0.0
737.9917820536001 102.93285206625248 372.1236810763864 -16.636271904293793 0.0 0.0
804.6436272693873 138.97689716230036 432.3399097435726 -15.899414165432283 0.0 0.0
876.3136881219291 176.68100999701815 493.76284170241036 -15.499239768903042 0.0 0.0
946.5891620021367 213.7093019521462 551.3648622468417 -15.332912092899987 0.0 0.0
1014.6117030393907 243.78530770153395 601.3757910779808 -15.111109088657646 0.0 0.0
1073.238409581385 264.15515146259975 640.4410683092265 -15.081909089583412 0.0 0.0
1117.9417316521751 272.0866242544235 665.8885182511117 -15.197196002683997 0.0 0.0
1146.6179497277224 267.3629067068849 677.0682102293525 -15.060423986155666 0.0 0.0
1161.4203481837574 253.76067034460328 677.1586067268486 -13.89209579207095 0.0 0.0
1165.8050318216833 236.14883757994642 670.3838042263521 -11.311214750600595 0.0 0.0
1154.639457509205 210.66493689145616 652.3426909963749 -7.914352670522357 0.0 0.0
1130.019173710399 181.99734193009047 626.3315403592387 1.0172307440825534e-11 0.0 0.0
1154.639457509121 210.66493689137982 652.3426909962911 7.914352670605841 0.0 0.0
1165.8050318215217 236.14883757979283 670.3838042261754 11.311214750627293 0.0 0.0
1161.420348183863 253.76067034472885 677.1586067268339 13.892095792064193 0.0 0.0
1146.6179497272808 267.3629067064651 677.0682102288997 15.060423986157655 0.0 0.0
1117.941731651716 272.086624253996 665.8885182506914 15.197196002717865 0.0 0.0
1073.2384095811371 264.15515146238585 640.4410683089641 15.081909089600884 0.0 0.0
1014.6117030387991 243.7853077009958 601.3757910774766 15.111109088669753 0.0 0.0
946.5891620015743 213.70930195164405 551.3648622463384 15.332912092908932 0.0 0.0
876.3136881216601 176.68100999684472 493.7628417021363 15.499239768909066 0.0 0.0
804.6436272689136 138.976897161934 432.33990974312485 15.899414165412956 0.0 0.0
737.9917820535089 102.9328520663148 372.1236810762219 16.636271904298752 0.0 0.0
676.6693756708307 71.66325574355349 315.61062864645265 17.26078277027773 0.0 0.0
618.3892634191457 45.83957983606989 262.462240294102 18.219702719869346 0.0 0.0
558.2555281739902 23.97691259798374 211.1603964246105 18.900940634461612 0.0 0.0
507.2955421453331 10.64984861355358 166.63306260252585 17.203735979342113 0.0 0.0
433.4810760781123 7.220496588351177 131.50138721734453 16.586404603938263 0.0 0.0
366.7842172515226 7.989291513351528 112.38002602076241 14.51925705185301 0.0 0.0
292.8640990945612 -19.269092967535975 82.09758915535124 19.504662377083395 0.0 0.0
593.9402554878076 318.08944316100946 344.68514240757105 38.80097541360868 0.0 0.0
-828.4600529497893 -1518.146571056582 -1010.4667641866627 -16.492441939976455 0.0 0.0
-676.2137384177722 -1329.727291739432 -829.952522523944 -30.226023385940167 0.0 0.0
411.97599813065335 207.5145384327439 229.03747150509628 -94.21645869604527 0.0 0.0
216.66235181896602 13.87994476602032 69.16268897549588 -15.802791176976669 0.0 0.0
310.003347138954 -0.090975172573309 92.97578114437081 -32.56839880758861 0.0 0.0
384.1702132731245 6.5905207460500925 117.02830656612612 -36.94359106170708 0.0 0.0
474.1305318298616 5.92180074962469 146.91403887279486 -35.05739253488844 0.0 0.0
525.9302819416964 22.598995771424708 190.1870473608948 -36.54851765411775 0.0 0.0
588.0869489029363 37.03555622934981 237.0783536094131 -35.95178584483995 0.0 0.0
645.8484149610448 61.294692689724926 288.73253500771585 -34.24640641803602 0.0 0.0
705.6843347708264 89.09538860944807 342.95347849743143 -32.71911049307235 0.0 0.0
769.2219421683635 121.32892013543987 400.77568161605546 -31.466778088232168 0.0 0.0
836.4385904522675 156.85661382406465 460.7703030005586 -30.38323205767965 0.0 0.0
906.5366653199194 190.0216424913409 517.8059941469369 -29.783375377870698 0.0 0.0
970.8907582142137 218.52773024994843 566.551905925666 -29.433564783728308 0.0 0.0
1027.1718934146415 236.3901428216076 603.6873201208166 -29.401996177381054 0.0 0.0
1070.0077359928298 242.55182497044788 627.4706081285979 -29.528587231450395 0.0 0.0
1098.9104592667675 238.23767399957038 638.9444305643487 -29.052927009599923 0.0 0.0
1115.5812319526074 226.55228225255158 640.8965286838815 -26.790327657681416 0.0 0.0
1119.2523496952815 207.95047406650406 633.3111055766057 -22.237200892844825 0.0 0.0
1110.9551006687602 185.09611485530573 617.9529652916949 -15.435268577466573 0.0 0.0
1077.2993724732112 147.45460274175878 583.2506060197604 2.5208279907928954e-11 0.0 0.0
1110.9551006686409 185.09611485519758 617.9529652916211 15.435268577531852 0.0 0.0
1119.2523496953272 207.9504740665721 633.3111055765992 22.237200892907357 0.0 0.0
1115.5812319527236 226.55228225268877 640.8965286838999 26.790327657739255 0.0 0.0
1098.9104592669264 238.2376739997665 638.944430564328 29.052927009645295 0.0 0.0
1070.0077359924005 242.55182497003264 627.4706081282288 29.52858723145792 0.0 0.0
1027.1718934141288 236.3901428211277 603.6873201203485 29.40199617738861 0.0 0.0
970.8907582138341 218.52773024962644 566.5519059253336 29.433564783764876 0.0 0.0
906.5366653195961 190.02164249108878 517.8059941466191 29.783375377884845 0.0 0.0
836.4385904519683 156.85661382388048 460.7703030002669 30.383232057704262 0.0 0.0
769.2219421681032 121.32892013528276 400.775681615766 31.466778088238243 0.0 0.0
705.6843347704769 89.09538860922852 342.953478497094 32.7191104930646 0.0 0.0
645.8484149605551 61.29469268935142 288.7325350073133 34.2464064180119 0.0 0.0
588.0869489026646 37.03555622927107 237.07835360914567 35.951785844836415 0.0 0.0
525.9302819413851 22.598995771346885 190.18704736066502 36.54851765408188 0.0 0.0
474.1305318294188 5.921800749418864 146.9140388725632 35.05739253488257 0.0 0.0
384.1702132728012 6.590520746027258 117.02830656603055 36.94359106170377 0.0 0.0
310.0033471388163 -0.0909751725430128 92.97578114433934 32.56839880754432 0.0 0.0
216.66235181894055 13.8799447659083 69.16268897545467 15.802791176942838 0.0 0.0
411.97599813051966 207.51453843264807 229.03747150491498 94.21645869592673 0.0 0.0
-676.2137384165705 -1329.7272917381317 -829.9525225226485 30.226023385719174 0.0 0.0
-537.4619912762947 -1155.133310840899 -670.7719000673585 -52.20902101582766 0.0 0.0
284.860405976544 108.53727491118927 143.56491215307645 -129.58739477415958 0.0 0.0
160.25622974627765 32.265530924576964 57.75652820125635 -37.30572797502614 0.0 0.0
254.76620475892364 3.791382366005386 77.56703429704848 -47.367902732191325 0.0 0.0
334.7722563389819 2.855897494366226 101.13311014344306 -57.19990319901291 0.0 0.0
423.49767817329763 3.4331865947380984 127.46419232131586 -55.821928141819335 0.0 0.0
498.1993359059878 14.651119275080445 166.12480754265687 -56.011159498840755 0.0 0.0
551.5939700483311 27.96910403406742 209.28838854476834 -54.709107171435086 0.0 0.0
610.3298492566882 49.847501320738395 258.6361948544967 -51.47517568108984 0.0 0.0
668.9529350299376 75.13869031057298 310.86279448895954 -49.06311021243908 0.0 0.0
729.1469561974549 104.04892017945765 366.30687463582143 -46.96783848938546 0.0 0.0
794.2476322167588 135.2670509000109 424.3828112498136 -45.39240405424032 0.0 0.0
860.4859631287503 167.49761771712252 481.3690357522691 -44.15509987551907 0.0 0.0
924.3538589203512 191.78798126554048 529.1769012679408 -43.73553907000739 0.0 0.0
977.6941802720171 207.67651320355148 564.781752038487 -43.704547375174215 0.0 0.0
1019.3430569116344 213.6356983787585 588.1453751805407 -43.68278315053355 0.0 0.0
1048.9860241178706 209.74412327306388 600.1840764888709 -42.91200869331247 0.0 0.0
1066.9215169578208 199.08206654288318 603.2859578639245 -39.875822008147196 0.0 0.0
1072.2046835494418 181.60710709005113 597.1063800452448 -33.49672390425719 0.0 0.0
1064.9000464386559 159.03571693927594 582.4410999003752 -22.718932829244995 0.0 0.0
1015.8678346020497 105.77887433809126 532.8348083466491 7.792255729555109e-11 0.0 0.0
1064.9000464386545 159.03571693929507 582.4410999003934 22.718932829343892 0.0 0.0
1072.204683549411 181.6071070900482 597.106380045193 33.49672390436984 0.0 0.0
1066.921516957633 199.0820665427051 603.2859578637448 39.875822008242594 0.0 0.0
1048.9860241178037 209.74412327301957 600.1840764887053 42.91200869332667 0.0 0.0
1019.3430569114162 213.63569837857807 588.1453751803126 43.68278315053831 0.0 0.0
977.6941802716079 207.6765132031789 564.7817520381182 43.70454737521189 0.0 0.0
924.3538589202342 191.78798126549546 529.176901267816 43.735539070071255 0.0 0.0
860.4859631283089 167.49761771674198 481.3690357518846 44.15509987553787 0.0 0.0
794.2476322166278 135.2670508999929 424.3828112496506 45.392404054280696 0.0 0.0
729.1469561970109 104.04892017907949 366.3068746354169 46.96783848932944 0.0 0.0
668.9529350295803 75.13869031034591 310.86279448863183 49.063110212378625 0.0 0.0
610.3298492563465 49.84750132054616 258.6361948541986 51.47517568110619 0.0 0.0
551.5939700481108 27.969104034059175 209.28838854455583 54.709107171414566 0.0 0.0
498.1993359055856 14.651119274888291 166.1248075423939 56.01115949879445 0.0 0.0
423.4976781728453 3.43318659460407 127.46419232113436 55.82192814176801 0.0 0.0
334.7722563387135 2.855897494328536 101.13311014335453 57.19990319894285 0.0 0.0
254.76620475886457 3.7913823661214803 77.56703429706549 47.367902732129636 0.0 0.0
160.25622974623357 32.265530924466795 57.756528201210116 37.30572797493398 0.0 0.0
284.8604059764027 108.5372749111518 143.56491215294227 129.5873947739922 0.0 0.0
-537.4619912753005 -1155.133310839786 -670.7719000662622 52.20902101571598 0.0 0.0
-417.4987416841215 -995.4854485408785 -533.4089502470296 -61.40854202719065 0.0 0.0
200.0309890706863 25.348512515787633 82.53448673748105 -155.54296308251025 0.0 0.0
116.56817387036904 37.101934598387246 46.10103254062687 -65.545086130364 0.0 0.0
203.38765943691476 10.479579760929274 64.16017175935322 -64.31216225253789 0.0 0.0
283.2876571294447 3.5984012055739383 86.1087498667103 -75.17871340385419 0.0 0.0
363.3271429426709 1.0692328796783515 108.75881245563826 -78.78950924851124 0.0 0.0
457.25642759625595 2.516260699811618 138.90660451229635 -76.73960415212028 0.0 0.0
509.6464941739414 23.230845032068597 181.3382748016507 -72.55128216578537 0.0 0.0
567.9841353422579 37.6490775740683 225.33401439122485 -69.42568311867294 0.0 0.0
625.7006259971799 60.8413655782927 275.07260348925695 -65.70053087049008 0.0 0.0
684.5470402284394 86.0697896405553 327.9290470441868 -62.75420773171186 0.0 0.0
746.8579657473908 113.92737353814745 384.26633736897645 -60.436559253414046 0.0 0.0
811.5049450617392 141.61285626292636 440.14100433852207 -58.85495473408094 0.0 0.0
871.9676013448052 166.06811757032008 488.9230965868557 -58.09799769094795 0.0 0.0
924.2981001861071 179.29880160331757 523.9559516268546 -57.96561664599681 0.0 0.0
965.0481078271215 183.15109193226834 546.2912376144369 -57.822406723510824 0.0 0.0
995.3575084438124 181.01474043745088 559.645315737654 -56.684616967377195 0.0 0.0
1015.6313382938598 172.5063203869898 565.0190015831264 -53.10395244784245 0.0 0.0
1023.207635540463 156.45858758591493 560.814981251643 -45.03726559788128 0.0 0.0
1015.4994148793817 132.01249735495418 545.1788126390112 -30.357216099025386 0.0 0.0
946.9773603054095 58.854891951941546 476.7221859332328 7.524825207383401e-11 0.0 0.0
1015.4994148795579 132.01249735516154 545.1788126391785 30.357216099133815 0.0 0.0
1023.2076355398484 156.45858758531529 560.8149812511906 45.037265597984884 0.0 0.0
1015.6313382936928 172.50632038687854 565.019001582964 53.103952448000065 0.0 0.0
995.357508443514 181.01474043717764 559.6453157373453 56.684616967478945 0.0 0.0
965.0481078270799 183.15109193226345 546.2912376143562 57.82240672355304 0.0 0.0
924.2981001857921 179.298801603037 523.9559516265836 57.96561664602919 0.0 0.0
871.9676013445408 166.06811757012213 488.9230965866262 58.09799769098386 0.0 0.0
811.5049450611399 141.6128562623768 440.1410043380284 58.8549547341069 0.0 0.0
746.8579657472227 113.92737353808685 384.2663373687876 60.436559253430744 0.0 0.0
684.547040227955 86.06978964014318 327.92904704375843 62.75420773166449 0.0 0.0
625.7006259967701 60.84136557798744 275.07260348889986 65.70053087041222 0.0 0.0
567.9841353419478 37.64907757392342 225.33401439096235 69.4256831186749 0.0 0.0
509.64649417358083 23.230845031922655 181.33827480139422 72.55128216577688 0.0 0.0
457.25642759594655 2.516260699790341 138.90660451214058 76.73960415209908 0.0 0.0
363.32714294228725 1.0692328796615975 108.75881245553322 78.78950924843978 0.0 0.0
283.28765712926526 3.598401205603207 86.10874986666597 75.17871340375497 0.0 0.0
203.38765943688082 10.479579761077156 64.16017175938741 64.31216225246658 0.0 0.0
116.56817387036948 37.10193459839532 46.10103254062943 65.54508613023107 0.0 0.0
200.03098907054624 25.348512515772786 82.53448673738245 155.5429630823018 0.0 0.0
-417.49874168333673 -995.4854485399388 -533.4089502461393 61.408542027136654 0.0 0.0
-310.8673714394349 -855.3719626453218 -416.9992547163051 -73.21420120335341 0.0 0.0
132.97566923579464 -32.02205977632194 38.8932068360144 -163.02785903268867 0.0 0.0
81.19307603294972 33.79199168479637 34.49552031532382 -92.57002873334397 0.0 0.0
156.40366712319698 16.2329767682907 51.7909931674463 -82.82926820197636 0.0 0.0
231.50473286877008 5.64947837061709 71.15386440669805 -92.06770472246879 0.0 0.0
302.19388307637405 1.1444169196896286 90.99589052061499 -97.86536672188666 0.0 0.0
384.84783084562304 0.6878665854475596 115.15668492266094 -97.81745177500318 0.0 0.0
468.9806691667666 7.15531207877482 148.03753949988976 -94.69689470677159 0.0 0.0
512.6647238218613 29.82799033999709 190.3887788598617 -85.71885834856212 0.0 0.0
575.0685737675266 45.23756478948378 234.8223569542241 -83.31190527426189 0.0 0.0
632.5789532104826 67.73727433693925 284.8440361789143 -78.9908393838942 0.0 0.0
692.4177666939577 92.04527408919397 338.73723028914105 -75.86587905675108 0.0 0.0
754.7808843438611 117.04741867176597 394.17926268557187 -73.57644826076223 0.0 0.0
814.4969028377013 137.53662239561987 443.17898097278606 -72.63242353986612 0.0 0.0
865.2327367328442 150.20845800829926 479.4050920884872 -72.34692987939648 0.0 0.0
905.2851026741391 154.44764528546006 502.6396290351986 -71.66968992136779 0.0 0.0
936.6106506706934 151.07110069777352 516.0734015393349 -70.3356299837912 0.0 0.0
959.6634405250226 145.42358682534257 524.3879756657695 -66.40534530279513 0.0 0.0
970.7524695213511 132.4461251487592 523.7365628717625 -56.96124553344749 0.0 0.0
962.4006590419817 105.03222926771993 506.58570666693686 -38.731790547400905 0.0 0.0
869.6015738070474 7.091920176367125 414.80838267030555 7.965716974922543e-11 0.0 0.0
962.4006590420732 105.032229267823 506.58570666705464 38.73179054751569 0.0 0.0
970.7524695212172 132.44612514870005 523.736562871686 56.961245533590144 0.0 0.0
959.6634405249756 145.42358682531386 524.3879756657204 66.40534530292604 0.0 0.0
936.6106506702794 151.0711006973766 516.073401538986 70.33562998383691 0.0 0.0
905.2851026737274 154.4476452850749 502.63962903486646 71.6696899213839 0.0 0.0
865.2327367326432 150.20845800814715 479.4050920883168 72.34692987943095 0.0 0.0
814.4969028374455 137.53662239540634 443.1789809725498 72.63242353988511 0.0 0.0
754.7808843436741 117.0474186716744 394.1792626853807 73.57644826078594 0.0 0.0
692.4177666936789 92.04527408899234 338.7372302888873 75.8658790567346 0.0 0.0
632.5789532102369 67.73727433681644 284.8440361786657 78.99083938387442 0.0 0.0
575.0685737671006 45.237564789179906 234.82235695386683 83.31190527419982 0.0 0.0
512.6647238214887 29.827990339771087 190.38877885957564 85.71885834853707 0.0 0.0
468.9806691664821 7.155312078807125 148.03753949973878 94.69689470684037 0.0 0.0
384.8478308451524 0.6878665854165917 115.15668492252405 97.8174517749629 0.0 0.0
302.1938830761153 1.1444169197370155 90.99589052055738 97.86536672178642 0.0 0.0
231.50473286859452 5.649478370573049 71.1538644066315 92.06770472236734 0.0 0.0
156.4036671231946 16.232976768432373 51.79099316748809 82.82926820184173 0.0 0.0
81.19307603295643 33.79199168482393 34.4955203153341 92.57002873320135 0.0 0.0
132.97566923565617 -32.022059776275725 38.893206835952455 163.02785903244617 0.0 0.0
-310.86737143880833 -855.3719626445215 -416.999254715591 73.21420120338405 0.0 0.0
-223.27210396653084 -723.387512032325 -320.2101372798344 -81.33490260103738 0.0 0.0
83.7093486926383 -75.02895900432387 7.514543391823604 -166.18226154543686 0.0 0.0
52.24590907436708 26.757293082341455 23.700960647012558 -115.25354849717188 0.0 0.0
113.39616276847642 20.029068330422444 40.027569329669646 -101.1691885943159 0.0 0.0
179.725073054044 8.214853312948147 56.38882882979779 -107.4024700943029 0.0 0.0
241.3115975485172 1.6050476138257554 72.86048708516734 -114.39168873516905 0.0 0.0
308.7483836747292 -0.3164097768752181 92.14522496317548 -117.12456464978479 0.0 0.0
386.89953883920487 1.8241831213170667 117.02255895677868 -114.69722463107428 0.0 0.0
463.3885497340118 6.895163708969066 148.29126234966134 -111.85026187198403 0.0 0.0
508.5521736369513 32.674554524187116 191.26394593020203 -99.8979999020509 0.0 0.0
570.4153692222142 47.93440753019579 235.46667701643636 -96.19846138766606 0.0 0.0
628.7264695698545 68.88187207329587 285.96012243675614 -92.20342860449213 0.0 0.0
689.4129844456028 90.68416340120086 340.1537514316892 -89.02770421092089 0.0 0.0
747.6906646593465 109.28681130505369 390.5350049555119 -87.66727098292729 0.0 0.0
797.9682953390836 120.68494988324458 429.20244184791835 -86.70200391494254 0.0 0.0
838.7953382804264 122.72058621615774 453.4775872999391 -86.00332519503613 0.0 0.0
869.8808982595116 122.41915389849078 469.2268562114661 -83.76628376235887 0.0 0.0
896.7667301489985 118.53725267124273 480.61856529144205 -79.5648274422438 0.0 0.0
912.766632510003 107.94029693036158 483.9954980008039 -69.5069942488461 0.0 0.0
904.8068882088794 78.61721489499362 466.5943148848434 -48.296299193032226 0.0 0.0
781.9226518885662 -49.817090079108176 346.35302576264087 2.447642089009605e-11 0.0 0.0
904.8068882085907 78.61721489474726 466.5943148846949 48.29629919318046 0.0 0.0
912.7666325102997 107.94029693080553 483.9954980010233 69.50699424912688 0.0 0.0
896.7667301489663 118.53725267123792 480.6185652913961 79.56482744242763 0.0 0.0
869.8808982592153 122.41915389822893 469.2268562112095 83.76628376241202 0.0 0.0
838.7953382804599 122.72058621626164 453.4775872999327 86.003325195113 0.0 0.0
797.9682953389139 120.68494988313024 429.20244184778 86.70200391498244 0.0 0.0
747.6906646589845 109.28681130475965 390.53500495522326 87.6672709829902 0.0 0.0
689.4129844454945 90.68416340114248 340.1537514315705 89.02770421094374 0.0 0.0
628.7264695697302 68.88187207331421 285.9601224366184 92.20342860448349 0.0 0.0
570.4153692219472 47.93440753000092 235.46667701618887 96.19846138761683 0.0 0.0
508.5521736367639 32.674554524230835 191.263945930053 99.89799990203382 0.0 0.0
463.38854973371707 6.895163708904901 148.29126234948095 111.85026187200954 0.0 0.0
386.89953883880855 1.8241831212725077 117.02255895664314 114.69722463107907 0.0 0.0
308.7483836743273 -0.31640977701617556 92.1452249630265 117.1245646497169 0.0 0.0
241.31159754832032 1.605047613800143 72.86048708509988 114.39168873500508 0.0 0.0
179.725073053948 8.214853313009785 56.38882882978666 107.40247009415518 0.0 0.0
113.3961627684737 20.029068330540618 40.02756932970428 101.16918859415561 0.0 0.0
52.24590907432112 26.75729308228602 23.70096064698214 115.25354849700445 0.0 0.0
83.70934869241489 -75.0289590041872 7.5145433917702835 166.1822615451296 0.0 0.0
-223.27210396603206 -723.3875120316723 -320.2101372792947 81.33490260114917 0.0 0.0
-141.25804893839359 -631.538709279479 -237.42218634529598 -102.9753344137504 0.0 0.0
37.78736374010117 -95.08702619461702 -16.384610348673796 -156.7744601528456 0.0 0.0
28.093835025050108 18.38491549207576 13.943625155137754 -133.1184741678429 0.0 0.0
73.7885679485199 21.854018746971466 28.692776008647403 -117.72517083143792 0.0 0.0
128.7904607764918 10.679354462441006 41.83953888878881 -120.89981433363519 0.0 0.0
179.366284670615 3.1103823057921693 54.75787492263103 -127.6440117277448 0.0 0.0
231.79341309787767 0.4991282541633819 69.62888039235524 -132.33742302252236 0.0 0.0
292.6324653048798 -0.8813983553072933 87.19753953278045 -132.74822193788094 0.0 0.0
365.7143682066609 0.6924235880864237 110.01825516096268 -130.82337016945854 0.0 0.0
436.85716145975437 5.497086463397109 139.12506432561287 -128.1337107321957 0.0 0.0
490.3997595734666 26.053517263160412 178.67435906909478 -116.13062651718455 0.0 0.0
547.5200022620603 44.33841087531126 223.63494326092683 -109.09294107277854 0.0 0.0
608.9301213177577 62.77255469793726 274.53957049778205 -105.58028277867545 0.0 0.0
666.8260223781629 79.10899638467586 325.57964520278733 -103.39431289799607 0.0 0.0
718.2505195652361 88.56137882017931 367.705985891759 -101.77700070347845 0.0 0.0
759.5046579250682 92.10249894049433 396.60793570022753 -100.08449409292292 0.0 0.0
793.0592845078062 90.47574793194502 414.77879451634794 -97.68748479512718 0.0 0.0
822.4147724961183 89.66142361336188 429.852941189495 -92.7958829690947 0.0 0.0
844.3735130369673 84.85308178661386 439.97718683212327 -82.21101113469228 0.0 0.0
839.8726825616774 54.7300704221295 424.77690738547165 -59.58070409691455 0.0 0.0
678.3993052361438 -112.14360486891832 269.0549057457509 3.078959309732454e-11 0.0 0.0
839.8726825615663 54.73007042211384 424.77690738545664 59.580704097108175 0.0 0.0
844.3735130370542 84.85308178686213 439.9771868322064 82.21101113499347 0.0 0.0
822.4147724958165 89.66142361308201 429.8529411893002 92.79588296931735 0.0 0.0
793.0592845076566 90.47574793181529 414.7787945161625 97.68748479518912 0.0 0.0
759.5046579252622 92.10249894078872 396.6079357003615 100.08449409302669 0.0 0.0
718.2505195650458 88.56137882004342 367.70598589159124 101.77700070349117 0.0 0.0
666.8260223778273 79.10899638436592 325.5796452025122 103.39431289802864 0.0 0.0
608.9301213175338 62.77255469781772 274.5395704976148 105.58028277873406 0.0 0.0
547.5200022619174 44.33841087527221 223.63494326079467 109.09294107279598 0.0 0.0
490.39975957311214 26.053517262894122 178.6743590688265 116.1306265171434 0.0 0.0
436.8571614594739 5.497086463265916 139.12506432543566 128.1337107321944 0.0 0.0
365.71436820630953 0.6924235880547696 110.01825516083791 130.8233701694729 0.0 0.0
292.6324653045089 -0.8813983553894031 87.19753953265098 132.7482219378274 0.0 0.0
231.79341309772488 0.4991282543537783 69.62888039236844 132.33742302241947 0.0 0.0
179.36628467045853 3.1103823057225783 54.75787492256219 127.64401172758956 0.0 0.0
128.79046077647018 10.679354462520147 41.83953888880622 120.89981433347774 0.0 0.0
73.78856794857249 21.854018747110512 28.692776008704893 117.72517083128078 0.0 0.0
28.093835025069687 18.384915492129522 13.943625155159763 133.11847416765056 0.0 0.0
37.787363739980044 -95.08702619449451 -16.384610348688724 156.77446015262478 0.0 0.0
-141.25804893811497 -631.5387092789458 -237.4221863449518 102.97533441378297 0.0 0.0
-110.11181025051052 -525.4882349071977 -189.59016098758104 -105.43924120172395 0.0 0.0
8.718586376210581 -108.81195716753865 -30.177184941554152 -149.57398372811758 0.0 0.0
6.070121090142538 9.625023751630701 4.708543452531973 -146.07182632075524 0.0 0.0
37.24337236141121 22.094222985061855 17.801278603941917 -131.473496471838 0.0 0.0
78.91884835277693 12.770034848281714 27.506664960317597 -131.98118444337786 0.0 0.0
117.06368513444141 4.909163781350317 36.61415330337483 -137.85035022389255 0.0 0.0
154.2522320349584 1.0734449329512163 46.57473450907052 -143.5913293526986 0.0 0.0
196.10305082769008 -0.8385104518702975 58.31601457248418 -147.4411911777748 0.0 0.0
245.3100746184327 -0.12237659867961925 73.35823446677229 -146.567942866856 0.0 0.0
311.2713127437205 -4.30733054529174 90.75628409770798 -148.7635443949205 0.0 0.0
374.2196644994758 2.9228141145087085 116.5210070823124 -141.04327064226345 0.0 0.0
435.4732185286226 10.859218625918553 147.6279038574097 -131.98783174060833 0.0 0.0
497.1765642241104 30.937382010485965 191.2890902893304 -124.08657512455508 0.0 0.0
557.5775151856025 45.86176522334259 239.39723591428276 -120.46578080124783 0.0 0.0
611.7669625305214 55.003359581574266 284.7136815724387 -117.68633756066014 0.0 0.0
656.4510761558435 58.0258212128067 319.64550122234544 -115.09538619318869 0.0 0.0
694.0520400095934 59.04776097287926 345.16375103930994 -111.69448400948106 0.0 0.0
725.0845667321448 59.071729259590626 364.6705757882045 -106.66923450399304 0.0 0.0
754.2457603631411 57.179228785351555 381.723524527383 -95.38888352592384 0.0 0.0
762.3776910447157 33.83483062999106 377.8967145380536 -73.29512874384884 0.0 0.0
551.5612891309094 -177.74926555763875 181.08741264568027 7.674927360312722e-11 0.0 0.0
762.3776910450026 33.83483063043904 377.89671453831727 73.29512874409716 0.0 0.0
754.2457603634858 57.179228785948 381.7235245276449 95.38888352627117 0.0 0.0
725.0845667319103 59.07172925941592 364.6705757880437 106.6692345042415 0.0 0.0
694.0520400094663 59.04776097280201 345.1637510391745 111.69448400961869 0.0 0.0
656.451076155721 58.02582121270916 319.6455012222558 115.09538619325836 0.0 0.0
611.7669625305883 55.003359581760556 284.7136815724656 117.68633756068388 0.0 0.0
557.5775151855365 45.8617652233594 239.3972359142307 120.4657808013058 0.0 0.0
497.1765642240258 30.937382010561908 191.28909028927637 124.08657512466674 0.0 0.0
435.47321852837615 10.859218625756416 147.62790385723036 131.98783174063692 0.0 0.0
374.21966449930136 2.9228141146111755 116.5210070822628 141.04327064223935 0.0 0.0
311.2713127432943 -4.307330545608915 90.75628409748941 148.76354439484717 0.0 0.0
245.3100746182011 -0.12237659862923955 73.35823446672086 146.56794286683694 0.0 0.0
196.10305082758268 -0.8385104516762443 58.316014572511875 147.44119117770435 0.0 0.0
154.25223203485692 1.0734449329510043 46.574734509041114 143.59132935257173 0.0 0.0
117.06368513427955 4.909163781143601 36.61415330326383 137.85035022370153 0.0 0.0
78.91884835274551 12.770034848330138 27.506664960322688 131.98118444323921 0.0 0.0
37.24337236147393 22.094222985209694 17.80127860400508 131.4734964716771 0.0 0.0
6.070121090183299 9.625023751712897 4.708543452568859 146.07182632057115 0.0 0.0
8.718586376152718 -108.81195716747445 -30.17718494155345 149.57398372793406 0.0 0.0
-110.11181025044273 -525.4882349066778 -189.59016098740102 105.43924120168124 0.0 0.0
-91.96157535588948 -430.09104920241145 -156.07151043274547 -100.78213620025012 0.0 0.0
-8.229961497285121 -114.07161432377544 -36.76373649068499 -143.99789671007886 0.0 0.0
-14.044883144769766 2.0144485361477242 -3.607844833629268 -154.03554931456284 0.0 0.0
3.073681782830428 21.07381132132763 7.244247931247418 -141.8313010271741 0.0 0.0
30.334798269808573 14.325909215385726 13.398212245558287 -140.23470998586663 0.0 0.0
54.85958895481978 6.640471889567806 18.45419426146746 -144.89214960609254 0.0 0.0
76.20701243621748 2.146230542080098 23.496612353812736 -150.59842343365725 0.0 0.0
97.61693165370859 -0.054925504305612716 29.254474328949048 -154.539924117847 0.0 0.0
122.63578596186869 0.31080042939785457 36.84716601750982 -155.71018274524008 0.0 0.0
153.0391264480765 -0.8013694872914345 45.65140151566301 -156.32542387644048 0.0 0.0
197.13334290529212 -0.8424329404555455 58.34402690849008 -162.06621135577547 0.0 0.0
247.20701155584797 -5.145862335775661 72.77354260598324 -155.42144274301748 0.0 0.0
309.6665555499404 -5.97922471307085 92.70562953745424 -152.32169821977615 0.0 0.0
376.1748052605579 -5.896927083810894 118.06599137879286 -144.6528160473262 0.0 0.0
439.9385261714881 -2.011420837108078 150.1907850629844 -136.35172927798016 0.0 0.0
484.2314916679629 8.74522251024989 185.64372157555985 -133.0833877297815 0.0 0.0
527.2253312740967 24.025076348433167 223.1660869551154 -132.8683246492211 0.0 0.0
565.7079123068667 25.225327205320035 255.39313526028843 -128.3977486579576 0.0 0.0
601.5748805500241 17.34717766767855 280.1126137228026 -114.12532843485907 0.0 0.0
639.3701389976075 11.278928260531067 303.4834991149241 -90.80376187346931 0.0 0.0
371.6740422733223 -249.51195109950982 68.16457267332882 5.5077720162444166e-11 0.0 0.0
639.3701389974274 11.278928260484136 303.48349911489976 90.80376187373798 0.0 0.0
601.5748805504514 17.34717766833002 280.1126137230951 114.12532843521353 0.0 0.0
565.7079123066432 25.225327204967794 255.39313526013083 128.39774865815292 0.0 0.0
527.2253312743029 24.025076348795007 223.1660869552362 132.86832464935748 0.0 0.0
484.2314916676263 8.745222509799081 185.6437215753338 133.08338772973693 0.0 0.0
439.9385261715887 -2.0114208368991378 150.19078506307469 136.35172927802444 0.0 0.0
376.1748052605973 -5.896927083657464 118.06599137884085 144.65281604736808 0.0 0.0
309.66655554996964 -5.979224712899159 92.70562953750989 152.32169821987938 0.0 0.0
247.20701155568318 -5.145862335836844 72.77354260591106 155.42144274300358 0.0 0.0
197.13334290538168 -0.8424329400885036 58.344026908623164 162.06621135574255 0.0 0.0
153.0391264480522 -0.8013694871938073 45.65140151568412 156.32542387638173 0.0 0.0
122.63578596181814 0.3108004294331326 36.8471660175074 155.71018274520964 0.0 0.0
97.61693165368574 -0.054925504233954925 29.254474328963706 154.53992411778896 0.0 0.0
76.20701243612505 2.1462305419517573 23.496612353747174 150.59842343353353 0.0 0.0
54.85958895478301 6.640471889468081 18.454194261426295 144.89214960587123 0.0 0.0
30.334798269872785 14.32590921544911 13.398212245596563 140.23470998571312 0.0 0.0
3.073681782914568 21.07381132142253 7.24424793130113 141.83130102699045 0.0 0.0
-14.04488314473783 2.014448536175288 -3.60784483361177 154.03554931435417 0.0 0.0
-8.229961497280412 -114.0716143237056 -36.76373649066096 143.99789670989713 0.0 0.0
-91.96157535580556 -430.09104920196813 -156.071510432599 100.7821362001549 0.0 0.0
-75.04195369869028 -345.690827421369 -126.26586072433963 -91.84857422343497 0.0 0.0
-20.509091582147782 -113.00921697634529 -40.04923390249477 -138.0182335155081 0.0 0.0
-32.097044503741486 -3.800900566015909 -10.769727982732167 -157.43211359396736 0.0 0.0
-29.220969694459832 19.296611653516308 -2.977307412283057 -148.39589656002966 0.0 0.0
-16.935281064870537 15.233566181065566 -0.5099428909023733 -145.26495812041395 0.0 0.0
-7.058074017971444 8.21644884652618 0.34589583472030183 -148.31702775968293 0.0 0.0
-2.118099863549018 3.2413666948760174 0.33527714461975977 -153.39818166957895 0.0 0.0
-0.2608177798857305 0.7389733134387328 0.142725725928881 -156.95006429412064 0.0 0.0
0.1761637049026863 -0.11066293359693935 0.01930291293194042 -159.65417083739862 0.0 0.0
0.1959736022931331 -0.14796823011753224 0.014211798039853285 -160.04243972211052 0.0 0.0
0.11881875265168418 -0.1453176922372137 -0.005628152512720419 -164.62349844236638 0.0 0.0
0.2037859323669231 -0.1691013559464576 -0.003105951721003919 -161.19683650309676 0.0 0.0
-0.11833936198176787 0.06828949593550071 -0.012373620261403317 -159.88818038588732 0.0 0.0
-0.5230710394076397 0.6117006932705991 0.0598938137212599 -155.0252996887047 0.0 0.0
2.0506462148990607 0.725281005411686 0.8619946499668067 -150.8389840099298 0.0 0.0
19.059638357622617 -5.048776628086557 2.941824729000203 -140.11551930710226 0.0 0.0
63.7603370263533 -12.50225953221057 10.6274550497698 -129.23280492181655 0.0 0.0
134.45079843435764 -17.20980828737731 23.916885112390034 -126.71749705925788 0.0 0.0
252.52269619330434 -61.08923811212096 38.71566127000847 -124.03984897396968 0.0 0.0
369.21940814679516 -61.81223721861823 106.81484517608418 -111.96436631985549 0.0 0.0
-52.73641321515272 -363.32667953737626 -148.65444208410855 -2.0591528482327703e-11 0.0 0.0
369.2194081465347 -61.81223721900835 106.81484517584994 111.96436632003619 0.0 0.0
252.52269619342576 -61.089238112085496 38.71566127004085 124.03984897440331 0.0 0.0
134.4507984339939 -17.20980828808542 23.91688511206231 126.71749705955916 0.0 0.0
63.760337026563356 -12.502259531976673 10.62745504991419 129.23280492202161 0.0 0.0
19.05963835759235 -5.048776628400951 2.9418247288853223 140.1155193070818 0.0 0.0
2.0506462150634945 0.7252810055747556 0.8619946500700273 150.83898400993772 0.0 0.0
-0.5230710393022164 0.6117006932432378 0.059893813739059 155.02529968876084 0.0 0.0
-0.11833936174724258 0.0682894960861109 -0.012373620142753339 159.88818038599675 0.0 0.0
0.20378593259146172 -0.16910135574578522 -0.003105951590635314 161.19683650309113 0.0 0.0
0.1188187528421416 -0.14531769205730294 -0.005628152402076481 164.6234984423396 0.0 0.0
0.19597360242872952 -0.1479682300366596 0.014211798104812878 160.0424397220557 0.0 0.0
0.17616370493251843 -0.11066293373977332 0.019302912898392144 159.65417083740684 0.0 0.0
-0.26081777981456966 0.7389733134604827 0.1427257259566952 156.95006429403745 0.0 0.0
-2.1180998635224526 3.2413666948321196 0.3352771446144529 153.3981816694093 0.0 0.0
-7.05807401782418 8.216448846745562 0.3458958348304386 148.31702775949006 0.0 0.0
-16.935281064833973 15.233566180969946 -0.5099428909201205 145.26495812025408 0.0 0.0
-29.220969694348007 19.2966116535873 -2.977307412228212 148.39589655982576 0.0 0.0
-32.09704450366042 -3.8009005659311574 -10.769727982682328 157.43211359377952 0.0 0.0
-20.50909158211139 -113.00921697623707 -40.04923390245165 138.0182335153545 0.0 0.0
-75.04195369859164 -345.69082742105684 -126.26586072421468 91.84857422334143 0.0 0.0
-60.06304051566978 -272.9712057437106 -99.91027387781408 -82.90762323494819 0.0 0.0
-30.205016709937453 -106.84033718008514 -41.11360616700677 -130.29043243187377 0.0 0.0
-48.73729723512167 -8.036560297726147 -17.032498014779545 -156.83740557732898 0.0 0.0
-59.90047225337855 17.201405864691488 -12.808136306565318 -151.01471390064535 0.0 0.0
-62.92333853370806 15.45717972081534 -14.242306922553286 -146.76730215083907 0.0 0.0
-68.22713714975336 9.477843576761414 -17.631166268679948 -147.96404191322256 0.0 0.0
-80.29850495573858 4.282313156723691 -22.770113496334684 -152.01085535337367 0.0 0.0
-98.16201428877528 1.4650092691401213 -28.992000376361865 -154.80443473417907 0.0 0.0
-122.30238109178104 -0.527509441403303 -36.81155516922412 -155.66751730992752 0.0 0.0
-152.68349356924463 0.5116692506843123 -45.62941820812706 -156.28335433147708 0.0 0.0
-196.81638821366369 0.5545537321309846 -58.34587106073913 -161.9222322017754 0.0 0.0
-247.0522652217576 5.008057646669942 -72.7305737441528 -155.99480014285683 0.0 0.0
-309.92720340400655 6.056711939604066 -92.7546421034534 -152.20983090784685 0.0 0.0
-376.9104176237699 7.110288019587063 -117.81599706179242 -144.264292184635 0.0 0.0
-437.8316142364284 4.551281549252369 -148.18188421055822 -136.93765745372045 0.0 0.0
-476.1108661909592 0.18478235865211445 -175.67889533429852 -136.05316795524453 0.0 0.0
-501.81083459994034 0.6883495948474305 -191.85462204358606 -139.66456658274325 0.0 0.0
-511.51595828186146 12.720229270719898 -187.8546610815352 -145.4947680053746 0.0 0.0
-499.3633527752197 19.65490282083217 -165.02420274256727 -142.50001227417422 0.0 0.0
-323.28350912916767 -3.30090825384859 -120.7898289031036 -93.64817634595306 0.0 0.0
-507.39055481269736 -526.5845189073718 -472.39677705886703 -8.409983820456546e-11 0.0 0.0
-323.2835091288471 -3.3009082536521532 -120.78982890294832 93.64817634625537 0.0 0.0
-499.3633527754097 19.654902820576133 -165.02420274270543 142.50001227460868 0.0 0.0
-511.5159582815982 12.720229270884374 -187.85466108138033 145.4947680055256 0.0 0.0
-501.8108346002142 0.6883495943637072 -191.85462204380508 139.6645665829404 0.0 0.0
-476.11086619034313 0.1847823593613569 -175.67889533384383 136.05316795522725 0.0 0.0
-437.83161423608715 4.55128154955232 -148.18188421033656 136.93765745377345 0.0 0.0
-376.9104176236185 7.110288019425731 -117.81599706177838 144.26429218470983 0.0 0.0
-309.92720340373427 6.056711939610404 -92.75464210335689 152.20983090795872 0.0 0.0
-247.05226522127094 5.008057646884433 -72.73057374394236 155.99480014284092 0.0 0.0
-196.81638821344288 0.5545537318932459 -58.34587106073631 161.92223220174662 0.0 0.0
-152.68349356904733 0.5116692504380389 -45.62941820814189 156.28335433141882 0.0 0.0
-122.30238109155913 -0.5275094414430157 -36.8115551691703 155.6675173099523 0.0 0.0
-98.1620142885736 1.4650092692334473 -28.992000376273992 154.8044347341147 0.0 0.0
-80.29850495559157 4.282313156732768 -22.770113496288953 152.01085535321846 0.0 0.0
-68.22713714953659 9.47784357693941 -17.631166268561763 147.96404191306192 0.0 0.0
-62.92333853357895 15.457179720812434 -14.24230692251539 146.7673021506984 0.0 0.0
-59.90047225322803 17.20140586481424 -12.808136306483615 151.01471390042423 0.0 0.0
-48.73729723504059 -8.036560297649544 -17.03249801473216 156.8374055771522 0.0 0.0
-30.205016709911373 -106.84033717999387 -41.11360616697157 130.2904324317498 0.0 0.0
-60.063040515625865 -272.97120574348287 -99.91027387773259 82.90762323486125 0.0 0.0
-48.23777465174477 -209.62811663520117 -77.35976738608379 -73.767756081547 0.0 0.0
-38.19644859106542 -97.2449106491289 -40.632407772058286 -120.89276113088854 0.0 0.0
-64.41120233566534 -10.645297976210278 -22.51695958886104 -152.4304348872771 0.0 0.0
-89.21270265119264 14.910692505158979 -22.29508667481156 -149.54164690172212 0.0 0.0
-107.64891442083785 15.141207496402975 -27.744519458370608 -144.70594478355972 0.0 0.0
-128.67823489554308 10.354696450635487 -35.46636517695089 -144.15898089642081 0.0 0.0
-157.28183328983945 4.715121693519063 -45.82002900056928 -145.097755433679 0.0 0.0
-196.5365111681252 2.0805433300703173 -58.0708994628665 -147.87898527062578 0.0 0.0
-245.03439194323627 -0.09024247689175047 -73.3382070317437 -146.46962384058372 0.0 0.0
-310.99312846830577 4.015337461217303 -90.75747045965153 -148.67858402399884 0.0 0.0
-374.0787242637491 -3.0991236203104418 -116.5160512200324 -141.0501241945498 0.0 0.0
-435.37964531149214 -10.960963089741155 -147.59695553414443 -132.0879964730032 0.0 0.0
-497.17184236064503 -31.054811672215738 -191.3177911345785 -123.97515877287728 0.0 0.0
-557.5549437959965 -45.33254536446299 -239.2364371705729 -120.0144141907065 0.0 0.0
-610.3470522686835 -52.83943400749488 -283.1807387398429 -117.8721691852071 0.0 0.0
-648.9455337439693 -52.380586945672356 -313.5771865154619 -118.50140411203591 0.0 0.0
-673.7564338760865 -47.045794724128065 -329.98265226041497 -121.76823254565291 0.0 0.0
-684.6827481583455 -41.081971137759496 -335.1573346464628 -128.4562271910716 0.0 0.0
-677.3660303822712 -31.083287627748746 -324.3407610177015 -136.98115236591542 0.0 0.0
-667.9095749065895 -40.205658905406516 -315.54178032221694 -134.03011086651185 0.0 0.0
-1098.5892993856517 -721.6088661041599 -832.5665702015289 3.278088911429222e-11 0.0 0.0
-667.9095749061844 -40.20565890512303 -315.54178032206323 134.03011086680644 0.0 0.0
-677.366030382444 -31.083287628100962 -324.34076101786513 136.9811523662436 0.0 0.0
-684.6827481577471 -41.081971137199204 -335.1573346460664 128.45622719121116 0.0 0.0
-673.7564338759468 -47.04579472416678 -329.98265226033527 121.76823254584276 0.0 0.0
-648.9455337438096 -52.38058694552748 -313.5771865153379 118.50140411210666 0.0 0.0
-610.347052268323 -52.83943400718852 -283.1807387395836 117.87216918524972 0.0 0.0
-557.5549437958341 -45.33254536446611 -239.23643717046792 120.01441419074756 0.0 0.0
-497.1718423605823 -31.054811672361843 -191.31779113453896 123.97515877297056 0.0 0.0
-435.3796453111029 -10.960963089466347 -147.59695553386086 132.0879964729907 0.0 0.0
-374.0787242634482 -3.0991236204806523 -116.51605121995422 141.05012419453368 0.0 0.0
-310.9931284677477 4.0153374611855295 -90.75747045950882 148.67858402391542 0.0 0.0
-245.03439194279198 -0.0902424767525547 -73.33820703156879 146.46962384062016 0.0 0.0
-196.5365111677606 2.0805433302141747 -58.07089946271641 147.87898527052667 0.0 0.0
-157.28183328957405 4.715121693595365 -45.82002900046781 145.0977554335556 0.0 0.0
-128.67823489535232 10.354696450598768 -35.46636517690584 144.15898089625733 0.0 0.0
-107.6489144206644 15.141207496474753 -27.744519458297695 144.70594478338117 0.0 0.0
-89.2127026510809 14.910692505162022 -22.29508667477731 149.5416469015295 0.0 0.0
-64.41120233555777 -10.645297976143766 -22.516959588808692 152.43043488708653 0.0 0.0
-38.196448591045005 -97.24491064907154 -40.632407772034966 120.8927611307673 0.0 0.0
-48.23777465169934 -209.6281166350159 -77.35976738601457 73.76775608146052 0.0 0.0
-39.22684569903733 -155.14177648172708 -58.31058665422931 -64.5235044889694 0.0 0.0
-45.100766023089164 -85.49999497466504 -39.18022829932625 -109.93417790478975 0.0 0.0
-79.36666538470176 -11.68626105041148 -27.315877930533965 -144.43525112971537 0.0 0.0
-117.43859965527479 12.627799074532748 -31.444354242165566 -144.23346931394278 0.0 0.0
-151.08521802582158 14.15329795325128 -41.07456356668689 -138.61858519953196 0.0 0.0
-187.42509829303557 10.365435889922086 -53.17637511135696 -135.5084158117376 0.0 0.0
-234.60713642224954 5.418386460814106 -68.52602503909884 -135.99739759664266 0.0 0.0
-293.1264669498413 1.8916002845077498 -86.99027774439367 -133.43325687513914 0.0 0.0
-365.5196233634456 -0.844787361369951 -110.00103953464787 -130.6740941276791 0.0 0.0
-436.92468381512356 -5.665580844375842 -139.1391816173726 -128.08824981289033 0.0 0.0
-490.31313847140075 -26.209797216972753 -178.69466039008387 -116.0808286337465 0.0 0.0
-547.4670417931846 -44.40048158707542 -223.59822835820532 -109.17983347695294 0.0 0.0
-608.7363184190104 -62.77929840445151 -274.3799628193441 -105.57494380149913 0.0 0.0
-666.7833976209921 -78.96301894379512 -325.4244479942819 -102.94167043345534 0.0 0.0
-717.7398112477933 -87.54289703358839 -367.0948247307393 -101.41530252060299 0.0 0.0
-754.4711173868716 -87.79102725582973 -392.6572905437265 -102.47767695405771 0.0 0.0
-777.9146997435693 -79.98884879108175 -403.63352885295484 -106.86386960045638 0.0 0.0
-783.7449517892777 -64.26384207245081 -400.06533519229185 -114.04938830512397 0.0 0.0
-769.2951637095722 -42.84481583635703 -380.49461911417484 -122.85199412713504 0.0 0.0
-732.2627810647733 -21.2515412094295 -348.1061388719739 -126.9386271908772 0.0 0.0
-1483.7541121815366 -918.7706894631696 -1122.3321378000403 8.800427053756721e-11 0.0 0.0
-732.2627810645067 -21.251541209278244 -348.1061388718517 126.93862719110685 0.0 0.0
-769.2951637094625 -42.844815836358535 -380.49461911407883 122.85199412735417 0.0 0.0
-783.7449517887871 -64.26384207200422 -400.0653351919494 114.04938830524655 0.0 0.0
-777.9146997433583 -79.98884879092944 -403.633528852783 106.86386960054185 0.0 0.0
-754.471117386949 -87.79102725602951 -392.6572905437541 102.47767695411221 0.0 0.0
-717.7398112475421 -87.54289703341773 -367.09482473054084 101.41530252069018 0.0 0.0
-666.7833976207963 -78.96301894370878 -325.42444799414636 102.94167043349388 0.0 0.0
-608.7363184190621 -62.7792984047549 -274.37996281936887 105.57494380162048 0.0 0.0
-547.4670417925873 -44.40048158654879 -223.59822835773633 109.17983347694393 0.0 0.0
-490.3131384710796 -26.209797216832957 -178.694660389833 116.08082863369744 0.0 0.0
-436.9246838146164 -5.66558084408833 -139.13918161705615 128.0882498128685 0.0 0.0
-365.51962336282577 -0.8447873611408239 -110.00103953438526 130.67409412767202 0.0 0.0
-293.126466949373 1.8916002845324444 -86.99027774425738 133.43325687507763 0.0 0.0
-234.60713642195674 5.41838646079199 -68.52602503901876 135.99739759648824 0.0 0.0
-187.42509829281238 10.365435889856132 -53.17637511131119 135.50841581157985 0.0 0.0
-151.08521802557297 14.15329795333143 -41.07456356658899 138.61858519936283 0.0 0.0
-117.43859965513951 12.62779907449815 -31.444354242135056 144.23346931381639 0.0 0.0
-79.36666538458479 -11.686261050356732 -27.315877930482454 144.4352511295361 0.0 0.0
-45.100766023044066 -85.49999497458492 -39.180228299288686 109.93417790467056 0.0 0.0
-39.22684569901669 -155.14177648158915 -58.31058665418173 64.5235044889281 0.0 0.0
-32.726746154726705 -109.17842420902177 -42.571551109124535 -55.08912907137906 0.0 0.0
-51.200096463644826 -72.60865843145213 -37.14262646852908 -97.5056698808948 0.0 0.0
-93.70981906627637 -11.343663016264305 -31.51604462476221 -133.10549788470695 0.0 0.0
-144.67907488115108 10.327175474016478 -40.31370503581837 -134.93392940885354 0.0 0.0
-193.32352174787525 12.721577191326798 -54.16964127083009 -128.83767348954 0.0 0.0
-245.98415227754603 10.44653819252832 -70.51336111231704 -124.32459982489362 0.0 0.0
-309.64710315654753 4.807310640637058 -91.1049090075 -120.13722331781848 0.0 0.0
-386.8550741432556 -1.1773337339902472 -116.83543156163582 -115.13909733298378 0.0 0.0
-463.4429289368136 -7.025995705836287 -148.32588299887442 -111.67014145231441 0.0 0.0
-508.70517575383207 -32.897073547991454 -191.36060725363814 -99.77333317378202 0.0 0.0
-570.4982427385814 -47.99631603607598 -235.5011782048899 -96.21381406194132 0.0 0.0
-628.6306503360124 -68.8514004873296 -285.87811692295384 -92.29867110928068 0.0 0.0
-688.9735098867634 -90.46208058132507 -339.74301908284724 -89.10039908722936 0.0 0.0
-747.5356518514297 -109.33121177559048 -390.3274362163833 -87.30323921549025 0.0 0.0
-798.7618260603901 -121.23461131791922 -429.9202623672033 -85.94696499618598 0.0 0.0
-837.6835007593304 -121.61446005642092 -452.91744247818986 -87.29625539362068 0.0 0.0
-858.3968982567284 -113.06373030824061 -460.14699569853906 -91.299772886441 0.0 0.0
-857.0604808512737 -86.4266303301131 -446.97444478054547 -97.86809563718967 0.0 0.0
-827.9936601726597 -46.574515141462626 -411.73449937059127 -106.97057793100878 0.0 0.0
-766.9702431855693 0.23554051710108936 -354.72909537016886 -115.75566430145705 0.0 0.0
-1773.4183401194605 -1115.83539031914 -1366.4976508915022 6.684786058031023e-11 0.0 0.0
-766.970243185468 0.2355405170695235 -354.7290953701164 115.75566430170308 0.0 0.0
-827.9936601726668 -46.57451514154315 -411.73449937058524 106.97057793121485 0.0 0.0
-857.0604808507014 -86.42663032959413 -446.9744447801596 97.86809563729844 0.0 0.0
-858.3968982566872 -113.0637303082599 -460.1469956984908 91.29977288654537 0.0 0.0
-837.6835007587913 -121.61446005589492 -452.9174424777954 87.2962553936301 0.0 0.0
-798.7618260601346 -121.2346113177223 -429.920262366975 85.94696499622532 0.0 0.0
-747.5356518513747 -109.33121177565359 -390.3274362163204 87.30323921554887 0.0 0.0
-688.9735098866639 -90.46208058137668 -339.7430190827355 89.10039908729597 0.0 0.0
-628.630650335598 -68.85140048701221 -285.8781169225873 92.29867110925271 0.0 0.0
-570.4982427383453 -47.99631603605142 -235.5011782046721 96.2138140619426 0.0 0.0
-508.7051757534816 -32.89707354791991 -191.36060725337882 99.773333173792 0.0 0.0
-463.44292893630296 -7.025995705557808 -148.32588299855564 111.67014145233316 0.0 0.0
-386.8550741427928 -1.1773337340590602 -116.8354315615017 115.13909733299353 0.0 0.0
-309.6471031560643 4.807310640650902 -91.10490900736872 120.13722331765563 0.0 0.0
-245.98415227725235 10.446538192471865 -70.51336111224794 124.32459982476718 0.0 0.0
-193.323521747614 12.721577191365416 -54.169641270741444 128.83767348938386 0.0 0.0
-144.6790748809895 10.327175474022077 -40.31370503576766 134.93392940871485 0.0 0.0
-93.70981906615505 -11.343663016177052 -31.516044624699635 133.10549788454952 0.0 0.0
-51.200096463588594 -72.60865843136536 -37.14262646848618 97.50566988077674 0.0 0.0
-32.726746154689884 -109.17842420892191 -42.57155110908353 55.08912907137889 0.0 0.0
-28.426990818250868 -71.65953770154871 -30.025958555939866 -45.400070718994556 0.0 0.0
-56.51583811448126 -59.32878298527477 -34.7533863299268 -83.68862146595185 0.0 0.0
-107.42385503955427 -9.900877945034646 -35.19741989537667 -118.63140046167159 0.0 0.0
-171.1298181521998 8.069872145328223 -48.92312397833109 -121.86520450563482 0.0 0.0
-234.0298548118569 10.767148781927212 -67.03005840026651 -114.95149842664233 0.0 0.0
-302.6794276238852 9.488179198960344 -87.66369732651802 -108.74477020336262 0.0 0.0
-385.08269660448497 3.1577414716039875 -113.91146549447313 -101.40587893063609 0.0 0.0
-468.4536080167391 -6.829564029704015 -147.90730304923932 -95.00831061709016 0.0 0.0
-512.8683414122869 -29.946476298857256 -190.46535978618596 -85.53273765975436 0.0 0.0
-575.275094773157 -45.41007030868529 -234.94768082037382 -83.18731175154052 0.0 0.0
-632.6860865243842 -67.82683385418407 -284.9229919580676 -78.98607012138301 0.0 0.0
-692.269129729325 -91.92893290051742 -338.6015492901858 -75.96091814272332 0.0 0.0
-754.0964342159091 -116.57293198655248 -393.52844557142083 -73.67468584439244 0.0 0.0
-814.015806877021 -137.47414690994526 -442.7436621870786 -72.41415267953411 0.0 0.0
-867.2593884005848 -152.3708828462169 -481.47300345610336 -71.54504119357263 0.0 0.0
-908.3868438328709 -157.1757681088963 -505.93042773091315 -71.95479019516338 0.0 0.0
-929.0978065456934 -143.79635024874193 -509.52351845991836 -75.66149079058917 0.0 0.0
-917.7273272037837 -106.97407661536363 -485.99998387723883 -80.99983921123355 0.0 0.0
-870.2919387951002 -47.785365583652364 -433.2234388199389 -89.41388324979945 0.0 0.0
-787.6193256847971 21.74309636959878 -354.35267445955736 -103.83863868177097 0.0 0.0
-2030.246767706154 -1314.116112241692 -1593.2313218164445 -3.069544618483633e-12 0.0 0.0
-787.6193256845683 21.743096369729102 -354.3526744594287 103.83863868193527 0.0 0.0
-870.2919387952473 -47.78536558390402 -433.2234388200265 89.41388325002262 0.0 0.0
-917.7273272031184 -106.9740766147203 -485.9999838767365 80.99983921134441 0.0 0.0
-929.097806545525 -143.79635024860303 -509.52351845974056 75.66149079063383 0.0 0.0
-908.3868438325378 -157.17576810859973 -505.9304277306259 71.95479019518521 0.0 0.0
-867.259388400062 -152.3708828457109 -481.4730034557115 71.54504119355721 0.0 0.0
-814.0158068766959 -137.47414690972775 -442.74366218680206 72.41415267961814 0.0 0.0
-754.0964342156686 -116.5729319864028 -393.5284455712149 73.6746858444416 0.0 0.0
-692.2691297290326 -91.92893290034755 -338.60154928988584 75.96091814269809 0.0 0.0
-632.6860865243021 -67.82683385431429 -284.92299195792395 78.9860701213937 0.0 0.0
-575.2750947728127 -45.410070308587244 -234.9476808200924 83.1873117515394 0.0 0.0
-512.8683414119964 -29.9464762988433 -190.46535978595352 85.53273765979988 0.0 0.0
-468.453608016304 -6.829564029554324 -147.9073030489733 95.00831061709212 0.0 0.0
-385.08269660398304 3.157741471551743 -113.91146549434556 101.4058789305142 0.0 0.0
-302.679427623513 9.488179199012142 -87.66369732639191 108.74477020323967 0.0 0.0
-234.0298548115964 10.767148781878326 -67.03005840020337 114.95149842653595 0.0 0.0
-171.12981815199282 8.069872145343737 -48.923123978263874 121.86520450552202 0.0 0.0
-107.4238550394464 -9.900877944994065 -35.19741989533213 118.63140046152397 0.0 0.0
-56.51583811443342 -59.32878298523142 -34.75338632989945 83.68862146590538 0.0 0.0
-28.42699081819444 -71.65953770149959 -30.025958555908204 45.40007071897816 0.0 0.0
-25.96241812514603 -42.67078658863096 -20.589961414133093 -35.500384544286376 0.0 0.0
-60.82159222692076 -46.246905813400765 -32.12054941209645 -68.59117292159411 0.0 0.0
-120.36489506226093 -7.741274762032469 -38.43185094728802 -101.09251332260557 0.0 0.0
-196.79396736691442 5.829380547553732 -57.29157441527142 -104.9553040247591 0.0 0.0
-274.2388786844914 9.094871976689888 -79.47430174737306 -97.89362673804085 0.0 0.0
-356.6085463399527 5.802676414074403 -105.14078463576325 -88.08982631907801 0.0 0.0
-455.0375922012703 -0.32010966933862495 -137.7362994211434 -79.63913453036173 0.0 0.0
-509.22481097158385 -22.957273460315715 -181.18763056833313 -72.71021829858923 0.0 0.0
-568.2176008567612 -37.7344477664781 -225.4560150145994 -69.231755174013 0.0 0.0
-625.9241269625151 -60.98194704723193 -275.22206845932163 -65.59127962180656 0.0 0.0
-684.6275326378714 -86.11864805824725 -327.9938184202728 -62.76369916814564 0.0 0.0
-746.6392063379551 -113.72828809869549 -384.057205166302 -60.51886766966421 0.0 0.0
-810.6904954680177 -140.99377017755924 -439.3626670851154 -58.930406210638914 0.0 0.0
-871.1906661549971 -165.82157593869084 -488.2819532103279 -58.03091802003132 0.0 0.0
-926.6200946096915 -182.1173503016023 -526.4681050441362 -57.462840570737164 0.0 0.0
-971.3540114506155 -189.10417607703738 -552.663646677516 -57.34739001499256 0.0 0.0
-992.8334388297994 -177.59626450306183 -557.1092238113373 -59.43203220181039 0.0 0.0
-972.8959603557088 -130.57927500420044 -523.8391047442866 -63.51434286476393 0.0 0.0
-905.7426708786569 -48.93769850011054 -451.20664911800003 -71.38358302123399 0.0 0.0
-795.4486381492864 47.95919415792041 -346.3968261235608 -92.50548311431413 0.0 0.0
-2267.748108327792 -1511.3693801943277 -1808.9091058952515 5.53335155473178e-11 0.0 0.0
-795.4486381492073 47.959194157950755 -346.39682612352556 92.50548311445172 0.0 0.0
-905.7426708785769 -48.93769850009115 -451.2066491179182 71.38358302139152 0.0 0.0
-972.8959603552063 -130.57927500371704 -523.8391047438743 63.514342864866066 0.0 0.0
-992.8334388295301 -177.59626450283668 -557.1092238110849 59.43203220186322 0.0 0.0
-971.3540114505166 -189.10417607699443 -552.6636466773878 57.347390015069735 0.0 0.0
-926.620094609302 -182.11735030123185 -526.4681050438201 57.462840570741186 0.0 0.0
-871.1906661544843 -165.82157593824869 -488.28195320988175 58.030918020078744 0.0 0.0
-810.6904954678866 -140.99377017752678 -439.3626670849827 58.930406210693334 0.0 0.0
-746.6392063376446 -113.72828809851694 -384.0572051659955 60.51886766969283 0.0 0.0
-684.6275326375946 -86.11864805811506 -327.9938184199906 62.76369916810323 0.0 0.0
-625.9241269621155 -60.98194704701515 -275.22206845897625 65.59127962179852 0.0 0.0
-568.2176008565563 -37.734447766596375 -225.45601501441425 69.23175517410996 0.0 0.0
-509.22481097117543 -22.957273460144137 -181.18763056802965 72.71021829856603 0.0 0.0
-455.0375922008999 -0.32010966929733053 -137.73629942094706 79.63913453034375 0.0 0.0
-356.6085463393347 5.802676414211409 -105.14078463556991 88.08982631898914 0.0 0.0
-274.2388786842251 9.094871976582207 -79.47430174732949 97.89362673798081 0.0 0.0
-196.79396736674596 5.829380547493452 -57.29157441523867 104.95530402466798 0.0 0.0
-120.36489506214465 -7.74127476202921 -38.431850947252144 101.09251332249939 0.0 0.0
-60.82159222681226 -46.246905813307066 -32.12054941203579 68.59117292158322 0.0 0.0
-25.962418125087908 -42.67078658858796 -20.58996141410276 35.500384544227686 0.0 0.0
-24.796765550386638 -22.31987774389687 -14.134992988285052 -25.65246558411389 0.0 0.0
-63.60184278321074 -33.875276583430214 -29.243135809992285 -52.38691552938417 0.0 0.0
-132.25999533165216 -5.427339423358883 -41.306200426503324 -80.38386170065047 0.0 0.0
-221.70109272781897 3.875644353165694 -65.34801822087546 -84.10673811933663 0.0 0.0
-313.00246922997854 6.749108006455076 -91.70243577361046 -77.2133406560972 0.0 0.0
-414.5585937367504 2.738699449841129 -122.82588685665868 -64.8308164048307 0.0 0.0
-495.48682767924026 -13.256763732899637 -164.89271221321738 -58.08751263352371 0.0 0.0
-551.3298033341389 -27.657189343256555 -209.15944543095065 -54.762864226755916 0.0 0.0
-610.590562278497 -49.914421161150116 -258.8153648858445 -51.31437781943815 0.0 0.0
-669.1738580932013 -75.2616932188895 -311.0275525702306 -48.97735710821928 0.0 0.0
-729.1702166596642 -104.03341065034269 -366.32417274208046 -46.98586186429685 0.0 0.0
-793.9431102862727 -134.98820526826796 -424.086518752907 -45.44986657004775 0.0 0.0
-859.6981186594128 -166.91417068932762 -480.6274585954044 -44.19122465503985 0.0 0.0
-923.6005796213477 -191.5644798813475 -528.6055288321757 -43.770980472947876 0.0 0.0
-979.2835119308362 -209.94955014168318 -566.6661666704808 -43.61136146708417 0.0 0.0
-1025.3912484310463 -219.65575725400288 -594.3365294730482 -42.9833820290897 0.0 0.0
-1051.4795519331692 -211.16719751480298 -602.3534701107989 -43.20649523763518 0.0 0.0
-1029.8077343148834 -161.5244182280689 -566.3038535618311 -45.836922732866505 0.0 0.0
-942.2437297193649 -57.50706361477633 -473.14765845302844 -52.89889948223435 0.0 0.0
-789.0982909649578 84.57559198928465 -327.5120568867556 -80.36588114666557 0.0 0.0
-2490.5020918661353 -1701.412771574644 -2012.8765061375693 5.688249871127482e-11 0.0 0.0
-789.098290964916 84.57559198927041 -327.5120568867309 80.36588114677912 0.0 0.0
-942.2437297194409 -57.50706361488406 -473.14765845305766 52.898899482370986 0.0 0.0
-1029.8077343148714 -161.52441822810428 -566.3038535617516 45.83692273297635 0.0 0.0
-1051.4795519328334 -211.16719751447553 -602.3534701105228 43.20649523769059 0.0 0.0
-1025.3912484306322 -219.65575725362382 -594.3365294726888 42.98338202908579 0.0 0.0
-979.2835119307264 -209.94955014161854 -566.6661666703075 43.6113614671024 0.0 0.0
-923.600579620933 -191.56447988099458 -528.6055288317835 43.770980472959266 0.0 0.0
-859.6981186593794 -166.91417068940137 -480.62745859532936 44.19122465508303 0.0 0.0
-793.9431102857427 -134.98820526785357 -424.08651875246767 45.449866570092325 0.0 0.0
-729.170216659265 -104.03341065005951 -366.3241727417146 46.98586186429332 0.0 0.0
-669.1738580928526 -75.2616932187062 -311.0275525698935 48.97735710819205 0.0 0.0
-610.5905622780939 -49.91442116094182 -258.8153648854763 51.314377819449874 0.0 0.0
-551.3298033340332 -27.65718934341985 -209.15944543080124 54.762864226752 0.0 0.0
-495.48682767878734 -13.256763732728752 -164.8927122129228 58.08751263349831 0.0 0.0
-414.5585937362358 2.738699449916369 -122.82588685647586 64.83081640481119 0.0 0.0
-313.00246922968495 6.749108006363545 -91.70243577355446 77.21334065602734 0.0 0.0
-221.70109272763892 3.8756443530855296 -65.34801822084525 84.10673811923655 0.0 0.0
-132.2599953315023 -5.4273394232849705 -41.30620042643618 80.38386170058318 0.0 0.0
-63.60184278315177 -33.875276583378366 -29.243135809959035 52.38691552931992 0.0 0.0
-24.796765550382325 -22.319877743871192 -14.134992988276055 25.652465584116005 0.0 0.0
-23.99898859987389 -10.519554895293679 -10.35556304855027 -16.540087429375344 0.0 0.0
-63.95811447153917 -22.807013506229765 -26.029538393330675 -35.32651054927247 0.0 0.0
-142.6955269513519 -3.806701564609176 -43.95066855478834 -56.13067406191092 0.0 0.0
-245.69293336303994 3.040082105580107 -72.79756527253605 -59.01691726764373 0.0 0.0
-350.99694303980243 1.19693719850406 -104.92078533634485 -52.921727757462094 0.0 0.0
-462.18600838416836 -2.452425580534581 -142.11788089395554 -40.89721078870624 0.0 0.0
-523.7234350486318 -21.814046256981957 -189.0798068415241 -37.593997350784065 0.0 0.0
-587.9499366196986 -36.42082733647671 -236.89662558650215 -36.008886537141215 0.0 0.0
-646.1600640799873 -61.428038145651044 -288.99937302820103 -34.125144319242395 0.0 0.0
-705.8793910017512 -89.1871736756241 -343.1113710759849 -32.66470046316976 0.0 0.0
-769.1668523726635 -121.2340671658861 -400.7193209318638 -31.485551725409774 0.0 0.0
-836.0502221719302 -156.51458277736052 -460.3931997163442 -30.410449732177767 0.0 0.0
-905.9160684463884 -189.62177599908256 -517.2419790078623 -29.786860901781576 0.0 0.0
-970.4733896217563 -218.59613180511155 -566.332555946819 -29.519701508798416 0.0 0.0
-1027.6987536301585 -237.5738867046283 -604.5463465825403 -29.55979230664434 0.0 0.0
-1071.942822759192 -244.86001047752157 -629.7005723860145 -29.108556795793884 0.0 0.0
-1099.0053255678088 -237.99869515773258 -639.1026710044417 -27.827485937508783 0.0 0.0
-1096.056254935464 -207.00974948974283 -620.9374429491631 -28.65849337561157 0.0 0.0
-996.6585110967949 -88.95515122713981 -514.6667882366502 -33.540763265550304 0.0 0.0
-761.9350715951983 139.83430267578026 -290.0470147118565 -65.13522457345127 0.0 0.0
-2689.704207663547 -1871.9853720080891 -2195.542834228013 2.5977442419389263e-11 0.0 0.0
-761.9350715949649 139.8343026759926 -290.0470147116781 65.13522457353264 0.0 0.0
-996.6585110967823 -88.95515122715423 -514.666788236617 33.54076326562537 0.0 0.0
-1096.056254935186 -207.00974948949374 -620.9374429488907 28.658493375694736 0.0 0.0
-1099.005325567659 -237.99869515761287 -639.1026710042337 27.827485937589692 0.0 0.0
-1071.9428227587018 -244.86001047703596 -629.7005723855793 29.108556795754982 0.0 0.0
-1027.6987536298163 -237.57388670433528 -604.5463465821961 29.55979230663617 0.0 0.0
-970.4733896213135 -218.5961318047203 -566.332555946417 29.519701508800594 0.0 0.0
-905.9160684464047 -189.62177599920824 -517.2419790077925 29.7868609018062 0.0 0.0
-836.0502221714527 -156.5145827769931 -460.39319971591766 30.410449732206274 0.0 0.0
-769.1668523725613 -121.23406716591823 -400.71932093167095 31.485551725388543 0.0 0.0
-705.879391001333 -89.18717367535122 -343.1113710755991 32.66470046315759 0.0 0.0
-646.160064079554 -61.42803814536397 -288.9993730278042 34.12514431919831 0.0 0.0
-587.9499366194508 -36.42082733648286 -236.89662558624542 36.0088865371232 0.0 0.0
-523.7234350481833 -21.814046256793965 -189.07980684119335 37.59399735076755 0.0 0.0
-462.18600838376005 -2.4524255806720316 -142.11788089383006 40.89721078865746 0.0 0.0
-350.9969430394051 1.196937198528855 -104.92078533622504 52.92172775743716 0.0 0.0
-245.69293336279657 3.0400821055917047 -72.79756527245867 59.016917267564175 0.0 0.0
-142.69552695119424 -3.8067015645113673 -43.95066855471167 56.13067406187234 0.0 0.0
-63.95811447151833 -22.807013506265363 -26.02953839333509 35.32651054922903 0.0 0.0
-23.998988599847287 -10.519554895285138 -10.355563048539727 16.540087429393054 0.0 0.0
-21.71692844775808 -6.5464002824304615 -8.478998619056563 -9.67205678571735 0.0 0.0
-60.53332571244357 -14.157299867988012 -22.407187674129467 -17.707172805334608 0.0 0.0
-150.8186074312041 -3.631564950690977 -46.33505171456851 -27.4608334778936 0.0 0.0
-269.04135002761643 3.330521028863314 -79.73009511099555 -29.163587384551022 0.0 0.0
-395.0249040104384 -3.2216314486851343 -118.66276494592348 -25.569242354030887 0.0 0.0
-498.07641406310256 -9.775992574058737 -162.5842924210045 -19.290760981811847 0.0 0.0
-555.8777713255159 -22.507921812994855 -209.84529706524395 -19.643595015312425 0.0 0.0
-618.277533993848 -45.667819858502284 -262.6421784284267 -18.284246779305075 0.0 0.0
-677.0906017036905 -71.72652785748052 -315.87783701823537 -17.182344931185686 0.0 0.0
-738.1595293511672 -102.99661072829329 -372.2661825904128 -16.615549154261128 0.0 0.0
-804.5034431026362 -138.80438298874924 -432.2010422144984 -15.911966841751935 0.0 0.0
-875.8598912495152 -176.3013869455881 -493.32589958421875 -15.500139702750426 0.0 0.0
-946.2145621527484 -213.58696122027334 -551.066688820001 -15.316955705722169 0.0 0.0
-1014.6652908394653 -244.263059849939 -601.6253433583424 -15.189472061122013 0.0 0.0
-1072.742427264698 -264.18911326042473 -640.2735360595547 -15.271096355843442 0.0 0.0
-1114.362971813811 -269.133034202825 -662.7537182478707 -15.08851210037032 0.0 0.0
-1135.2931083652331 -256.90357957975954 -666.4494891923728 -13.864649988483528 0.0 0.0
-1141.7160295933775 -236.05333064198769 -658.168633224656 -12.98392751173878 0.0 0.0
-1122.0524748692267 -196.89698681130483 -627.9701103217583 -16.011981978618447 0.0 0.0
-740.1968148954122 188.89980191897672 -258.5336217214637 -38.74300990316569 0.0 0.0
-2772.597169056793 -1924.7249165731432 -2263.9844344710227 -1.6473933328597923e-11 0.0 0.0
-740.1968148954701 188.8998019188965 -258.53362172147285 38.743009903203784 0.0 0.0
-1122.0524748689877 -196.89698681107248 -627.9701103215839 16.011981978658802 0.0 0.0
-1141.7160295925712 -236.0533306411755 -658.1686332240005 12.983927511742873 0.0 0.0
-1135.2931083648643 -256.9035795794293 -666.4494891919804 13.864649988491944 0.0 0.0
-1114.3629718133343 -269.1330342023693 -662.7537182474307 15.088512100371368 0.0 0.0
-1072.7424272643325 -264.18911326009925 -640.27353605916 15.271096355847684 0.0 0.0
-1014.66529083875 -244.26305984927276 -601.6253433577388 15.189472061133621 0.0 0.0
-946.2145621524639 -213.5869612200845 -551.0666888196907 15.316955705741876 0.0 0.0
-875.8598912490991 -176.30138694528253 -493.3258995838341 15.50013970278512 0.0 0.0
-804.5034431025231 -138.80438298878863 -432.2010422143144 15.911966841735222 0.0 0.0
-738.1595293506407 -102.99661072790059 -372.2661825899514 16.615549154287603 0.0 0.0
-677.0906017033069 -71.72652785724952 -315.87783701785673 17.182344931144737 0.0 0.0
-618.277533993324 -45.66781985814978 -262.6421784279787 18.284246779251117 0.0 0.0
-555.877771325183 -22.50792181289107 -209.8452970649487 19.643595015302587 0.0 0.0
-498.07641406288764 -9.775992574158167 -162.5842924208535 19.290760981805896 0.0 0.0
-395.02490400997215 -3.221631448720875 -118.66276494581399 25.569242354019046 0.0 0.0
-269.0413500274418 3.3305210287822207 -79.73009511096588 29.163587384506084 0.0 0.0
-150.8186074310773 -3.631564950685992 -46.335051714528994 27.460833477858 0.0 0.0
-60.533325712393975 -14.157299867963246 -22.40718767410717 17.707172805340957 0.0 0.0
-21.716928447789186 -6.546400282481362 -8.478998619081162 9.67205678568154 0.0 0.0
-11.829202555289946 -2.9117188382296666 -4.422276418055885 -6.390104275958167 0.0 0.0
-50.00395255204639 -7.341931810811756 -17.20376530885744 -7.421324060178069 0.0 0.0
-154.71118005617217 -4.20861762329756 -47.67593930384091 -9.366582568544967 0.0 0.0
-296.4124468787376 -3.013892606117736 -89.81260254183982 -10.407781618834672 0.0 0.0
-444.9120435936882 -18.87737162434618 -138.7252535271505 -8.25856125789768 0.0 0.0
-546.1296167871216 -40.77198985770645 -194.6939861137705 -4.310474319519681 0.0 0.0
-607.3901788358198 -58.13245355906273 -249.32033582266857 -5.037188718162906 0.0 0.0
-677.8206602648523 -92.46062526444896 -312.0522775855052 -4.725414690962232 0.0 0.0
-747.9500185340117 -131.46947813552828 -377.5056748905579 -4.092097443266253 0.0 0.0
-826.6279613931215 -179.85021838942924 -450.22047199149614 -3.7255527265516655 0.0 0.0
-917.7194999118993 -239.44386268320778 -533.0746528843132 -3.420849872778396 0.0 0.0
-1021.0648185268124 -311.54056426987984 -626.3908315047549 -3.5150423989619526 0.0 0.0
-1133.8417474918388 -389.0747977239513 -723.917327071721 -3.807012455215368 0.0 0.0
-1253.2081366147584 -470.86165170220755 -824.6994168415391 -4.295268567072469 0.0 0.0
-1368.6128288381713 -548.1022619761585 -920.0780441837869 -4.887512190719711 0.0 0.0
-1466.795244194887 -609.656302411544 -998.762920997051 -5.333190325598732 0.0 0.0
-1531.288880976078 -641.557864179083 -1046.1446237763898 -5.086417099661752 0.0 0.0
-1539.974639458832 -623.993899056825 -1041.186467233352 -4.284133476080374 0.0 0.0
-1539.2293591172663 -605.0955216559173 -1029.7733610589478 -6.210093092935061 0.0 0.0
-1416.5376719362714 -470.278541512124 -913.5854124578632 -23.9827353402872 0.0 0.0
-3844.8278439406113 -2974.386689734424 -3306.409857517883 -1.8246737454319373e-11 0.0 0.0
-1416.5376719364776 -470.27854151234635 -913.5854124580252 23.98273534026879 0.0 0.0
-1539.2293591170449 -605.0955216557056 -1029.7733610587843 6.210093092965767 0.0 0.0
-1539.9746394578997 -623.9938990558991 -1041.1864672325619 4.284133476117823 0.0 0.0
-1531.2888809752908 -641.5578641783189 -1046.144623775653 5.08641709969088 0.0 0.0
-1466.7952441940147 -609.6563024106767 -998.7629209963018 5.333190325561386 0.0 0.0
-1368.6128288379618 -548.1022619760129 -920.0780441834634 4.8875121907200985 0.0 0.0
-1253.2081366136076 -470.8616517010826 -824.6994168405845 4.295268567076256 0.0 0.0
-1133.8417474911466 -389.07479772335125 -723.9173270710908 3.8070124552280227 0.0 0.0
-1021.0648185261077 -311.5405642692641 -626.390831504162 3.515042399013055 0.0 0.0
-917.7194999114886 -239.4438626829243 -533.0746528839253 3.4208498727257286 0.0 0.0
-826.6279613926828 -179.85021838913954 -450.22047199108454 3.7255527265431034 0.0 0.0
-747.9500185333451 -131.46947813500918 -377.5056748899669 4.092097443227992 0.0 0.0
-677.820660264296 -92.4606252640794 -312.0522775850134 4.725414690947336 0.0 0.0
-607.3901788354549 -58.13245355893539 -249.32033582231668 5.037188718185583 0.0 0.0
-546.1296167868034 -40.771989857682016 -194.69398611353222 4.310474319564403 0.0 0.0
-444.91204359334915 -18.87737162433873 -138.72525352701925 8.258561257854893 0.0 0.0
-296.4124468784917 -3.013892606227458 -89.81260254180438 10.407781618830345 0.0 0.0
-154.7111800560176 -4.2086176233420005 -47.67593930380786 9.366582568520698 0.0 0.0
-50.003952551938646 -7.341931810691073 -17.203765308788913 7.4213240602015365 0.0 0.0
-11.82920255533629 -2.911718838309482 -4.422276418093731 6.3901042759137905 0.0 0.0
SCALARS Strain float 6
LOOKUP_TABLE default
0.00563022792071676 -0.011538992032074737 0.0 -0.0001964135114097747 0.0 0.0
0.0038817505812084032 7.121160775873771e-05 0.0 -0.0026653177335257097 0.0 0.0
0.001909513247441083 -0.0008317479798301865 0.0 -0.0003604565715771683 0.0 0.0
0.0018180918610831644 -0.0006937267480930107 0.0 -4.990069197002846e-05 0.0 0.0
0.002176556346712635 -0.0008497569331805174 0.0 -4.588140216806887e-05 0.0 0.0
0.002802913940750842 -0.001227624710229612 0.0 -1.223818511417622e-05 0.0 0.0
0.003677622055879697 -0.0018403126512127484 0.0 -2.650803507509557e-05 0.0 0.0
0.004724149315466886 -0.0025627064547726263 0.0 -1.61430879195986e-05 0.0 0.0
0.006006902780054838 -0.003495493634309824 0.0 1.8051187529154254e-05 0.0 0.0
0.007636711610097732 -0.004724421114468714 0.0 6.531532795190357e-05 0.0 0.0
0.009819982998580043 -0.006437653977408005 0.0 0.0001698802095897972 0.0 0.0
0.012891009751131336 -0.008968316061433454 0.0 0.00033230868530994623 0.0 0.0
0.01721695127039118 -0.012720261430541897 0.0 0.00044519104107312526 0.0 0.0
0.023101572216720136 -0.018007520048668343 0.0 0.0005513357691764891 0.0 0.0
0.03069483820870944 -0.025016613105588767 0.0 0.0005834841805644441 0.0 0.0
0.03983942848953329 -0.03361559958224107 0.0 0.0005119589720680887 0.0 0.0
0.04996009283951726 -0.043246312274501986 0.0 0.00032966454572222166 0.0 0.0
0.06005690774214881 -0.052930246701922826 0.0 8.932922700923061e-05 0.0 0.0
0.06887206529719885 -0.061436305267167854 0.0 -7.273554149182619e-05 0.0 0.0
0.07512433854257894 -0.067529086358682 0.0 -0.00015721217268519893 0.0 0.0
0.07745447009175187 -0.06986439482760542 0.0 5.512083844916305e-16 0.0 0.0
0.07512433854257658 -0.06752908635867991 0.0 0.00015721217268887958 0.0 0.0
0.06887206529719356 -0.06143630526716305 0.0 7.2735541496199e-05 0.0 0.0
0.06005690774214109 -0.05293024670191586 0.0 -8.93292270076557e-05 0.0 0.0
0.04996009283950892 -0.04324631227450118 0.0 -0.00032966454572102427 0.0 0.0
0.0398394284895253 -0.03361559958223814 0.0 -0.0005119589720677211 0.0 0.0
0.030694838208700503 -0.025016613105580628 0.0 -0.0005834841805649585 0.0 0.0
0.023101572216709824 -0.018007520048661744 0.0 -0.0005513357691765993 0.0 0.0
0.0172169512703804 -0.012720261430535257 0.0 -0.0004451910410732615 0.0 0.0
0.012891009751120711 -0.00896831606142394 0.0 -0.00033230868530983434 0.0 0.0
0.009819982998570002 -0.006437653977403014 0.0 -0.0001698802095901306 0.0 0.0
0.007636711610089277 -0.0047244211144603825 0.0 -6.531532795177303e-05 0.0 0.0
0.006006902780047414 -0.003495493634305729 0.0 -1.8051187529720533e-05 0.0 0.0
0.004724149315460279 -0.0025627064547669018 0.0 1.6143087919951848e-05 0.0 0.0
0.0036776220558745014 -0.0018403126512084437 0.0 2.650803507517151e-05 0.0 0.0
0.0028029139407472876 -0.001227624710226168 0.0 1.2238185113982005e-05 0.0 0.0
0.002176556346710902 -0.0008497569331798499 0.0 4.588140216862581e-05 0.0 0.0
0.0018180918610823035 -0.0006937267480930752 0.0 4.990069196978649e-05 0.0 0.0
0.0019095132474401806 -0.0008317479798291233 0.0 0.0003604565715762435 0.0 0.0
0.003881750581207221 7.121160775801336e-05 0.0 0.002665317733523141 0.0 0.0
0.0056302279207155245 -0.01153899203206239 0.0 0.00019641351139184444 0.0 0.0
0.003592872724403255 -0.01030701950079782 0.0 0.0001493157963831959 0.0 0.0
0.002385014783559291 0.0001284148985552065 0.0 -0.0019888648066771794 0.0 0.0
0.0013684413413617529 -0.000657056150797456 0.0 -0.00025120618819277383 0.0 0.0
0.0016525709476640908 -0.000678263878092235 0.0 -0.00018859089802038902 0.0 0.0
0.001943673423934917 -0.0007992675041665791 0.0 -0.00021298999286650322 0.0 0.0
0.002496057099530736 -0.001126900192806975 0.0 -0.00018978774348249282 0.0 0.0
0.0032813564360055793 -0.0016945707616116369 0.0 -0.00028072270295392696 0.0 0.0
0.00422665357918531 -0.002373271412085213 0.0 -0.0003123298987833175 0.0 0.0
0.005371433236581982 -0.0032435467164582737 0.0 -0.000339458394226528 0.0 0.0
0.006814294888466502 -0.004388198258074022 0.0 -0.0003712613884789069 0.0 0.0
0.00873702019790793 -0.00598509932955741 0.0 -0.0003970720345957917 0.0 0.0
0.011433306063917048 -0.008339790984274334 0.0 -0.0004257493727082542 0.0 0.0
0.015270521479261358 -0.011847194826859106 0.0 -0.0005494616040650576 0.0 0.0
0.020563799516916746 -0.01684425391327895 0.0 -0.0007961531593029124 0.0 0.0
0.027460485993250353 -0.023504816734543917 0.0 -0.001149926338749965 0.0 0.0
0.0358156136039336 -0.03170377985561819 0.0 -0.001600844170455288 0.0 0.0
0.04508555653242967 -0.040903458399101755 0.0 -0.0020519538308225414 0.0 0.0
0.05435945667603231 -0.05017477742552189 0.0 -0.002297527900892853 0.0 0.0
0.062497739844493354 -0.0583530644972374 0.0 -0.002104736523211084 0.0 0.0
0.06824087441098595 -0.06420558024019188 0.0 -0.0014838286449344108 0.0 0.0
0.07034995344552575 -0.06647325733352628 0.0 2.8596916501477665e-15 0.0 0.0
0.06824087441098378 -0.06420558024019019 0.0 0.0014838286449424733 0.0 0.0
0.062497739844488656 -0.05835306449723365 0.0 0.002104736523218851 0.0 0.0
0.05435945667602603 -0.05017477742551516 0.0 0.002297527900896443 0.0 0.0
0.04508555653242317 -0.040903458399097856 0.0 0.002051953830823669 0.0 0.0
0.035815613603926676 -0.031703779855613845 0.0 0.0016008441704558095 0.0 0.0
0.02746048599324223 -0.02350481673453726 0.0 0.0011499263387501875 0.0 0.0
0.020563799516907576 -0.01684425391327302 0.0 0.0007961531593030695 0.0 0.0
0.01527052147925178 -0.011847194826852661 0.0 0.0005494616040648529 0.0 0.0
0.011433306063907567 -0.008339790984266284 0.0 0.00042574937270775697 0.0 0.0
0.008737020197899112 -0.005985099329551165 0.0 0.0003970720345948555 0.0 0.0
0.006814294888458875 -0.004388198258066783 0.0 0.00037126138847835653 0.0 0.0
0.005371433236575281 -0.003243546716453606 0.0 0.00033945839422590176 0.0 0.0
0.004226653579179525 -0.002373271412080889 0.0 0.00031232989878336 0.0 0.0
0.00328135643600096 -0.0016945707616077912 0.0 0.0002807227029533269 0.0 0.0
0.002496057099527732 -0.0011269001928049063 0.0 0.00018978774348206505 0.0 0.0
0.0019436734239333653 -0.0007992675041657493 0.0 0.0002129899928667437 0.0 0.0
0.0016525709476633461 -0.0006782638780920728 0.0 0.00018859089802008498 0.0 0.0
0.001368441341361785 -0.0006570561507970325 0.0 0.0002512061881922532 0.0 0.0
0.0023850147835577187 0.00012841489855505898 0.0 0.0019888648066735968 0.0 0.0
0.0035928727243996336 -0.010307019500785702 0.0 -0.00014931579639605714 0.0 0.0
0.002502952039331429 -0.008174739144693726 0.0 -0.0014821981431387145 0.0 0.0
0.0015787013059179972 0.00011835471021899043 0.0 -0.0021108017061695285 0.0 0.0
0.0009587478084825557 -0.00035933783736159125 0.0 -0.00020543628530069662 0.0 0.0
0.0014107402784207096 -0.0006049639721992065 0.0 -0.00042362621709813447 0.0 0.0
0.0017314677494740364 -0.000715889668303434 0.0 -0.00048030936256905903 0.0 0.0
0.0021924607322157683 -0.0009385279893112067 0.0 -0.00042677286300708204 0.0 0.0
0.0028762010425408048 -0.0013987683923927725 0.0 -0.0005649101648115452 0.0 0.0
0.0037291663930329837 -0.002004764675549584 0.0 -0.0006572849104219664 0.0 0.0
0.00474108432171751 -0.0027493330364005385 0.0 -0.0007312136448292901 0.0 0.0
0.006004585635204976 -0.0037291192314495647 0.0 -0.0008123916089514637 0.0 0.0
0.007678076034027512 -0.005095422946187793 0.0 -0.0009096121541425075 0.0 0.0
0.010018530683973176 -0.0071103996694193965 0.0 -0.0010415025305267928 0.0 0.0
0.013364663477451053 -0.010135934873534648 0.0 -0.0012820742301538689 0.0 0.0
0.018046614709392294 -0.014534673920612636 0.0 -0.0017388737934496046 0.0 0.0
0.02422022233346373 -0.0204857236207496 0.0 -0.0024179911026731274 0.0 0.0
0.031745576991092275 -0.027865516652908505 0.0 -0.0032485623644171457 0.0 0.0
0.040141265910989585 -0.03618908078332821 0.0 -0.004043455789133849 0.0 0.0
0.04860204097540594 -0.0446359808896278 0.0 -0.004444453060215753 0.0 0.0
0.05608341507344387 -0.05216238721476708 0.0 -0.0040804214809795035 0.0 0.0
0.06140919678554941 -0.05758118842391788 0.0 -0.0028640419624528083 0.0 0.0
0.06338198943789791 -0.05976598027542851 0.0 5.583424347865851e-15 0.0 0.0
0.06140919678554718 -0.05758118842391621 0.0 0.002864041962465672 0.0 0.0
0.05608341507343974 -0.05216238721476276 0.0 0.004080421480992332 0.0 0.0
0.04860204097540093 -0.044635980889622305 0.0 0.004444453060223966 0.0 0.0
0.040141265910984186 -0.036189080783322135 0.0 0.004043455789137103 0.0 0.0
0.031745576991086176 -0.027865516652904834 0.0 0.003248562364416999 0.0 0.0
0.02422022233345641 -0.020485723620745206 0.0 0.0024179911026733078 0.0 0.0
0.018046614709384172 -0.014534673920606585 0.0 0.0017388737934503047 0.0 0.0
0.013364663477442602 -0.010135934873527992 0.0 0.0012820742301533567 0.0 0.0
0.01001853068396472 -0.007110399669412487 0.0 0.0010415025305261058 0.0 0.0
0.007678076034019633 -0.005095422946181327 0.0 0.0009096121541412659 0.0 0.0
0.006004585635198057 -0.003729119231444457 0.0 0.0008123916089503476 0.0 0.0
0.004741084321711496 -0.0027493330363970573 0.0 0.0007312136448282846 0.0 0.0
0.0037291663930277344 -0.0020047646755455713 0.0 0.0006572849104208658 0.0 0.0
0.002876201042536821 -0.0013987683923900266 0.0 0.0005649101648105135 0.0 0.0
0.0021924607322135314 -0.0009385279893107288 0.0 0.0004267728630071063 0.0 0.0
0.0017314677494727742 -0.0007158896683030555 0.0 0.0004803093625690743 0.0 0.0
0.0014107402784200383 -0.0006049639721988133 0.0 0.00042362621709755453 0.0 0.0
0.0009587478084826585 -0.0003593378373620513 0.0 0.00020543628530025687 0.0 0.0
0.0015787013059164357 0.00011835471021973003 0.0 0.002110801706163964 0.0 0.0
0.0025029520393278775 -0.008174739144682582 0.0 0.0014821981431306893 0.0 0.0
0.0018409258424070402 -0.006567660246776146 0.0 -0.0018797622012734416 0.0 0.0
0.0011065911412220188 -3.26659551403995e-05 0.0 -0.002173282514603062 0.0 0.0
0.0006662480600426382 -0.00016569148229841609 0.0 -0.00048497446367533987 0.0 0.0
0.0011517894052857826 -0.00047954016244182766 0.0 -0.0006157806940375612 0.0 0.0
0.0015147735341930208 -0.0006372510062394387 0.0 -0.0007429597054389301 0.0 0.0
0.0019062083062919457 -0.0007974181921132417 0.0 -0.0007125261677487559 0.0 0.0
0.002473027953692517 -0.0011150774282450665 0.0 -0.0007624081562140086 0.0 0.0
0.0032269811576359597 -0.001649278232381625 0.0 -0.0009475788553731425 0.0 0.0
0.004115888912176965 -0.0022782618213131158 0.0 -0.0010552995496596522 0.0 0.0
0.005207946179873886 -0.0030980373402149457 0.0 -0.001174719453531724 0.0 0.0
0.006642102457092884 -0.004243096955067417 0.0 -0.0013224753931421471 0.0 0.0
0.008640509850290162 -0.005932714861556991 0.0 -0.0015290066284699214 0.0 0.0
0.011510782710953339 -0.00849207747775705 0.0 -0.0018709690299414435 0.0 0.0
0.01556689305264073 -0.012276255569733063 0.0 -0.002461825101656735 0.0 0.0
0.020983017353672192 -0.017482712462644066 0.0 -0.003356338710942561 0.0 0.0
0.027650789546552385 -0.024008541285610533 0.0 -0.0044728217583824845 0.0 0.0
0.03514635395766807 -0.03142852550990847 0.0 -0.005531482515513542 0.0 0.0
0.04277840097043952 -0.03903982188771027 0.0 -0.006073058136973944 0.0 0.0
0.049622738734581326 -0.04592090239321182 0.0 -0.005644291139373534 0.0 0.0
0.05459894245675623 -0.050986188730199604 0.0 -0.0039395662858289614 0.0 0.0
0.056479310943423434 -0.05317034790884981 0.0 8.343152557710454e-15 0.0 0.0
0.05459894245675378 -0.050986188730197106 0.0 0.003939566285846043 0.0 0.0
0.04962273873457762 -0.045920902393208285 0.0 0.005644291139389702 0.0 0.0
0.04277840097043514 -0.03903982188770697 0.0 0.006073058136984234 0.0 0.0
0.03514635395766318 -0.031428525509904125 0.0 0.005531482515516533 0.0 0.0
0.02765078954654688 -0.02400854128560624 0.0 0.004472821758382231 0.0 0.0
0.020983017353666016 -0.017482712462640212 0.0 0.0033563387109430123 0.0 0.0
0.015566893052633764 -0.012276255569726656 0.0 0.0024618251016574086 0.0 0.0
0.011510782710946028 -0.008492077477752154 0.0 0.001870969029940869 0.0 0.0
0.008640509850282972 -0.005932714861550423 0.0 0.0015290066284687725 0.0 0.0
0.006642102457086013 -0.004243096955062998 0.0 0.0013224753931396513 0.0 0.0
0.005207946179867862 -0.003098037340210746 0.0 0.0011747194535294222 0.0 0.0
0.004115888912171813 -0.002278261821309629 0.0 0.001055299549658844 0.0 0.0
0.0032269811576315375 -0.0016492782323780859 0.0 0.0009475788553716306 0.0 0.0
0.0024730279536892964 -0.0011150774282435603 0.0 0.000762408156212877 0.0 0.0
0.001906208306290087 -0.0007974181921129197 0.0 0.0007125261677482314 0.0 0.0
0.0015147735341919306 -0.0006372510062391373 0.0 0.000742959705438039 0.0 0.0
0.001151789405285285 -0.0004795401624411817 0.0 0.000615780694036757 0.0 0.0
0.0006662480600426526 -0.0001656914822988316 0.0 0.0004849744636741416 0.0 0.0
0.0011065911412205221 -3.2665955139528206e-05 0.0 0.002173282514597554 0.0 0.0
0.0018409258424038923 -0.006567660246766592 0.0 0.0018797622012676706 0.0 0.0
0.001394354603123173 -0.005287140884067233 0.0 -0.0018508219975948638 0.0 0.0
0.0008063236106863297 -0.00019049563403841948 0.0 -0.0021627688600139214 0.0 0.0
0.0004580364186433239 -5.8494136624557546e-05 0.0 -0.0008520861196947324 0.0 0.0
0.0009049786699041502 -0.00034892384798975557 0.0 -0.0008360581092829928 0.0 0.0
0.0012828874259948908 -0.0005368978095914328 0.0 -0.0009788120813360155 0.0 0.0
0.0016398706303292292 -0.000693560253773254 0.0 -0.0010143585998962162 0.0 0.0
0.0020883827661159517 -0.0008910241804992243 0.0 -0.0009712202401884894 0.0 0.0
0.0027167769119096925 -0.0012883456838943706 0.0 -0.0011259074700074073 0.0 0.0
0.003495433915375671 -0.0018334994607605683 0.0 -0.0013141064901104624 0.0 0.0
0.004423626977163245 -0.002500397787033784 0.0 -0.0014589772018438942 0.0 0.0
0.00562962064789515 -0.0034325288940687862 0.0 -0.0016392907391842534 0.0 0.0
0.007299712713308915 -0.004809609359999882 0.0 -0.0018908185438749649 0.0 0.0
0.0097036018141047 -0.006917084202778329 0.0 -0.0022960524445834463 0.0 0.0
0.013139591495554409 -0.010085673864550447 0.0 -0.002972795087534256 0.0 0.0
0.01777862807278481 -0.014523522365952255 0.0 -0.003994194074491068 0.0 0.0
0.023548422758553116 -0.020159441883805453 0.0 -0.005266368760594449 0.0 0.0
0.030113422649727356 -0.02664138752048952 0.0 -0.006485326038064309 0.0 0.0
0.036893089181893476 -0.0333867758613655 0.0 -0.007170990554302012 0.0 0.0
0.04310160591281201 -0.039620643504056 0.0 -0.006763462228534805 0.0 0.0
0.04776986821166863 -0.044384486761921936 0.0 -0.004766003859019274 0.0 0.0
0.049586928471910555 -0.04662181959552939 0.0 8.682074156829422e-15 0.0 0.0
0.047769868211665976 -0.044384486761918175 0.0 0.004766003859037223 0.0 0.0
0.043101605912808434 -0.03962064350405573 0.0 0.006763462228551861 0.0 0.0
0.0368930891818895 -0.03338677586136244 0.0 0.007170990554313823 0.0 0.0
0.03011342264972304 -0.026641387520486937 0.0 0.006485326038068588 0.0 0.0
0.02354842275854851 -0.02015944188380113 0.0 0.005266368760594638 0.0 0.0
0.017778628072779554 -0.014523522365948723 0.0 0.003994194074490861 0.0 0.0
0.013139591495548395 -0.010085673864545817 0.0 0.0029727950875342787 0.0 0.0
0.009703601814098366 -0.006917084202775273 0.0 0.0022960524445828894 0.0 0.0
0.007299712713302653 -0.004809609359994459 0.0 0.0018908185438730619 0.0 0.0
0.005629620647889227 -0.003432528894065512 0.0 0.0016392907391814759 0.0 0.0
0.004423626977158087 -0.0025003977870307723 0.0 0.0014589772018411306 0.0 0.0
0.0034954339153711773 -0.0018334994607575096 0.0 0.0013141064901091163 0.0 0.0
0.0027167769119060205 -0.0012883456838922258 0.0 0.0011259074700061854 0.0 0.0
0.002088382766113513 -0.0008910241804977578 0.0 0.000971220240187733 0.0 0.0
0.001639870630327813 -0.0006935602537728485 0.0 0.001014358599895554 0.0 0.0
0.0012828874259940327 -0.0005368978095909637 0.0 0.0009788120813347216 0.0 0.0
0.0009049786699037075 -0.0003489238479890167 0.0 0.0008360581092820654 0.0 0.0
0.0004580364186433102 -5.849413662452174e-05 0.0 0.0008520861196930042 0.0 0.0
0.0008063236106851067 -0.00019049563403770306 0.0 0.0021627688600088864 0.0 0.0
0.001394354603120565 -0.005287140884059394 0.0 0.0018508219975907076 0.0 0.0
0.0010808097880659637 -0.004247286965668088 0.0 -0.0017129489779513386 0.0 0.0
0.0006034649283111017 -0.00032377129572012746 0.0 -0.0021203882459835386 0.0 0.0
0.0003035341121645684 -4.572936098428419e-06 0.0 -0.001203410373533471 0.0 0.0
0.0006799823807123797 -0.0002311271065945114 0.0 -0.001076780486625693 0.0 0.0
0.0010424768644041373 -0.0004258607131119666 0.0 -0.0011972324793966093 0.0 0.0
0.0013727815495629314 -0.0005841131685295739 0.0 -0.0012721615824400623 0.0 0.0
0.0017372751388967603 -0.0007358903741892965 0.0 -0.0012510662659146778 0.0 0.0
0.0022204692353334334 -0.0009721221938425709 0.0 -0.0012627289189197355 0.0 0.0
0.002865957000738094 -0.0014001940146946528 0.0 -0.0014666900198766135 0.0 0.0
0.003651520937185372 -0.0019412639461629036 0.0 -0.0016672837377594196 0.0 0.0
0.004639261197972414 -0.0026689406705197424 0.0 -0.00185761801260739 0.0 0.0
0.005995942678493469 -0.0037495421363488825 0.0 -0.0021316036325320234 0.0 0.0
0.007951246026348523 -0.005419230894946124 0.0 -0.0025568287258937615 0.0 0.0
0.01076622696199897 -0.00797580194958675 0.0 -0.00325802414865673 0.0 0.0
0.014619276067469322 -0.01162958349381005 0.0 -0.004322845352083688 0.0 0.0
0.019475735850281766 -0.01635099109629216 0.0 -0.005653794796203691 0.0 0.0
0.025064128848181693 -0.021856618542366084 0.0 -0.006929907467399949 0.0 0.0
0.030944245530214985 -0.02768529552418273 0.0 -0.007701017080546508 0.0 0.0
0.03650119831357029 -0.03324732799848652 0.0 -0.007403899191231972 0.0 0.0
0.040881122761760175 -0.037733085571806865 0.0 -0.00535170529089456 0.0 0.0
0.04265346870015063 -0.0400704649468432 0.0 8.476726265360668e-15 0.0 0.0
0.04088112276175753 -0.03773308557180359 0.0 0.005351705290912041 0.0 0.0
0.036501198313567004 -0.033247327998483796 0.0 0.0074038991912495355 0.0 0.0
0.03094424553021153 -0.02768529552417949 0.0 0.007701017080557175 0.0 0.0
0.02506412884817782 -0.021856618542364554 0.0 0.006929907467403721 0.0 0.0
0.019475735850277582 -0.016350991096290245 0.0 0.005653794796203336 0.0 0.0
0.014619276067464961 -0.011629583493806746 0.0 0.004322845352083237 0.0 0.0
0.010766226961994266 -0.007975801949583463 0.0 0.003258024148656248 0.0 0.0
0.007951246026343292 -0.005419230894941832 0.0 0.002556828725892639 0.0 0.0
0.005995942678488177 -0.0037495421363450583 0.0 0.002131603632529776 0.0 0.0
0.0046392611979674874 -0.002668940670516047 0.0 0.0018576180126047164 0.0 0.0
0.003651520937181121 -0.0019412639461608254 0.0 0.0016672837377568407 0.0 0.0
0.0028659570007344777 -0.0014001940146928056 0.0 0.0014666900198747764 0.0 0.0
0.002220469235330554 -0.0009721221938404979 0.0 0.0012627289189197158 0.0 0.0
0.0017372751388949547 -0.000735890374188768 0.0 0.0012510662659145333 0.0 0.0
0.001372781549561773 -0.0005841131685289532 0.0 0.0012721615824389022 0.0 0.0
0.0010424768644034105 -0.0004258607131118122 0.0 0.0011972324793952656 0.0 0.0
0.0006799823807120925 -0.00023112710659386218 0.0 0.0010767804866239424 0.0 0.0
0.0003035341121645451 -4.572936098316085e-06 0.0 0.0012034103735316178 0.0 0.0
0.0006034649283101077 -0.0003237712957194419 0.0 0.002120388245979143 0.0 0.0
0.0010808097880638768 -0.004247286965661719 0.0 0.0017129489779488143 0.0 0.0
0.0008493781586404452 -0.0033831176651978262 0.0 -0.0015394776629372455 0.0 0.0
0.00045961605178516983 -0.0004272261856248936 0.0 -0.002080534550282939 0.0 0.0
0.00018554216477780443 1.986616082963781e-05 0.0 -0.0014982961304632343 0.0 0.0
0.00047689585735224385 -0.00012999025649510683 0.0 -0.0013151994517261068 0.0 0.0
0.0008018808656112442 -0.00031322335521766415 0.0 -0.0013966404889889693 0.0 0.0
0.00109431850852793 -0.0004627642440329093 0.0 -0.0014858258496475195 0.0 0.0
0.0013984576343118857 -0.0005973032365898265 0.0 -0.0015137486265410383 0.0 0.0
0.0017622835077210882 -0.0007507909458864865 0.0 -0.0014829093141153565 0.0 0.0
0.0022464645884289884 -0.0010093146368437029 0.0 -0.0015520224724348342 0.0 0.0
0.0028803027486735064 -0.0014153214004908243 0.0 -0.0017654427264783682 0.0 0.0
0.0036715024490168663 -0.0019638695414791727 0.0 -0.0019821551265876746 0.0 0.0
0.0047286437817469894 -0.0027615068535871753 0.0 -0.0022512499010300733 0.0 0.0
0.006251757318427832 -0.004011255519870843 0.0 -0.0026599183956840227 0.0 0.0
0.008462263015088432 -0.005967238053248606 0.0 -0.0033308665565429142 0.0 0.0
0.01152280450136087 -0.008827093127220378 0.0 -0.004336100493769617 0.0 0.0
0.015440386820721533 -0.012610399797128491 0.0 -0.005622974273051097 0.0 0.0
0.02002766983884168 -0.017104616022102746 0.0 -0.006883084249875169 0.0 0.0
0.02495449017107549 -0.021962645074852134 0.0 -0.007686447540625665 0.0 0.0
0.029800121743551004 -0.026790716888668666 0.0 -0.007533577796390044 0.0 0.0
0.033883084719467355 -0.03098304788348992 0.0 -0.005672972295861235 0.0 0.0
0.03562278999702181 -0.0334658728218776 0.0 6.429318882839041e-15 0.0 0.0
0.03388308471946516 -0.030983047883489108 0.0 0.005672972295877588 0.0 0.0
0.029800121743548035 -0.02679071688866376 0.0 0.007533577796407332 0.0 0.0
0.024954490171072347 -0.02196264507484915 0.0 0.007686447540635466 0.0 0.0
0.02002766983883829 -0.017104616022100977 0.0 0.006883084249877934 0.0 0.0
0.01544038682071799 -0.012610399797124673 0.0 0.005622974273051199 0.0 0.0
0.011522804501357441 -0.008827093127217786 0.0 0.004336100493769321 0.0 0.0
0.008462263015084572 -0.005967238053246634 0.0 0.0033308665565429593 0.0 0.0
0.006251757318423686 -0.004011255519867273 0.0 0.002659918395682715 0.0 0.0
0.004728643781742905 -0.0027615068535835796 0.0 0.0022512499010277917 0.0 0.0
0.0036715024490131185 -0.001963869541476843 0.0 0.0019821551265845672 0.0 0.0
0.002880302748670169 -0.0014153214004880735 0.0 0.0017654427264763325 0.0 0.0
0.0022464645884262596 -0.001009314636842053 0.0 0.0015520224724339536 0.0 0.0
0.0017622835077192337 -0.0007507909458857852 0.0 0.0014829093141153625 0.0 0.0
0.0013984576343106343 -0.0005973032365899583 0.0 0.001513748626540729 0.0 0.0
0.0010943185085270694 -0.0004627642440326289 0.0 0.0014858258496454123 0.0 0.0
0.0008018808656106697 -0.0003132233552171808 0.0 0.0013966404889870052 0.0 0.0
0.0004768958573520012 -0.00012999025649456386 0.0 0.0013151994517240227 0.0 0.0
0.00018554216477770333 1.9866160829475262e-05 0.0 0.0014982961304610576 0.0 0.0
0.00045961605178432426 -0.00042722618562432825 0.0 0.002080534550279562 0.0 0.0
0.0008493781586389095 -0.0033831176651929087 0.0 0.0015394776629358673 0.0 0.0
0.0006566783850523168 -0.002677116274178653 0.0 -0.0013999227964166044 0.0 0.0
0.0003455993259667859 -0.0004929678715731654 0.0 -0.0020232260195768683 0.0 0.0
9.197636415443027e-05 2.8868387190097017e-05 0.0 -0.0017305401641819571 0.0 0.0
0.0002931226476091711 -4.445192220089356e-05 0.0 -0.0015304272208086934 0.0 0.0
0.0005651450855421826 -0.0002025263772867394 0.0 -0.001571622490719202 0.0 0.0
0.0008103687333700815 -0.0003358996495720049 0.0 -0.0016603363606611118 0.0 0.0
0.0010522807992260482 -0.0004484379557372555 0.0 -0.001715208140107261 0.0 0.0
0.0013264312094759996 -0.0005685339965112933 0.0 -0.0017199032272910346 0.0 0.0
0.001666436857625098 -0.0007135867637136781 0.0 -0.0017028226685446577 0.0 0.0
0.0021213046205935545 -0.0009583459960960253 0.0 -0.0018050450683795803 0.0 0.0
0.0027155249537593423 -0.001325269681947898 0.0 -0.0020136758588346726 0.0 0.0
0.0034972489672131443 -0.001866262254416547 0.0 -0.0022507929696172512 0.0 0.0
0.004608553212182564 -0.00271606871915561 0.0 -0.002613286918112039 0.0 0.0
0.006230358837654536 -0.0040873295097232825 0.0 -0.0031929314710911288 0.0 0.0
0.008506943923510247 -0.006157908154955895 0.0 -0.004069349971204536 0.0 0.0
0.01147166391095215 -0.008975233725820573 0.0 -0.0051826613086658055 0.0 0.0
0.015014920520701473 -0.012418292866789278 0.0 -0.006331020087467307 0.0 0.0
0.018936593602212684 -0.016252735327614728 0.0 -0.0071199193061442425 0.0 0.0
0.022996306748194556 -0.02025789918488315 0.0 -0.0071302049064051005 0.0 0.0
0.02672784508075086 -0.024089085760012303 0.0 -0.005691803049113777 0.0 0.0
0.028428218556753284 -0.026757597344527328 0.0 5.4411770228357526e-15 0.0 0.0
0.026727845080749137 -0.024089085760010856 0.0 0.005691803049128282 0.0 0.0
0.022996306748191763 -0.020257899184879514 0.0 0.007130204906420117 0.0 0.0
0.018936593602209825 -0.016252735327613444 0.0 0.007119919306153367 0.0 0.0
0.015014920520698874 -0.012418292866787597 0.0 0.006331020087468928 0.0 0.0
0.01147166391094945 -0.008975233725816623 0.0 0.005182661308665728 0.0 0.0
0.00850694392350758 -0.006157908154954221 0.0 0.0040693499712038984 0.0 0.0
0.00623035883765192 -0.004087329509722506 0.0 0.0031929314710909045 0.0 0.0
0.004608553212179636 -0.0027160687191537013 0.0 0.002613286918111474 0.0 0.0
0.0034972489672101836 -0.0018662622544142133 0.0 0.0022507929696156097 0.0 0.0
0.0027155249537566713 -0.0013252696819470058 0.0 0.0020136758588323277 0.0 0.0
0.002121304620591296 -0.0009583459960949452 0.0 0.0018050450683783337 0.0 0.0
0.001666436857623341 -0.0007135867637129362 0.0 0.0017028226685444551 0.0 0.0
0.001326431209474611 -0.00056853399651107 0.0 0.0017199032272906469 0.0 0.0
0.0010522807992250202 -0.0004484379557361261 0.0 0.0017152081401060372 0.0 0.0
0.0008103687333694849 -0.0003358996495719982 0.0 0.0016603363606590316 0.0 0.0
0.0005651450855419323 -0.00020252637728633926 0.0 0.0015716224907171613 0.0 0.0
0.00029312264760913943 -4.445192220036349e-05 0.0 0.00153042722080665 0.0 0.0
9.197636415441451e-05 2.886838719030345e-05 0.0 0.0017305401641794574 0.0 0.0
0.00034559932596623787 -0.0004929678715726444 0.0 0.002023226019574367 0.0 0.0
0.000656678385051264 -0.0026771162741752886 0.0 0.0013999227964155523 0.0 0.0
0.0005100696282336244 -0.0021604500405242033 0.0 -0.0013527395006240357 0.0 0.0
0.00025377868921421605 -0.0005143198006799805 0.0 -0.0019471395630133552 0.0 0.0
8.850254644468675e-06 3.195712194414177e-05 0.0 -0.0018989337421698184 0.0 0.0
0.0001263736094235504 2.7904138477279586e-05 0.0 -0.001709155454133894 0.0 0.0
0.0003341791920509858 -9.578809572823323e-05 0.0 -0.0017157553977639125 0.0 0.0
0.0005235317156539001 -0.0002063577112155669 0.0 -0.0017943130456394424 0.0 0.0
0.0006992783399002831 -0.00029547751694632276 0.0 -0.0018630014186667813 0.0 0.0
0.0008883238944605165 -0.0003811627845639085 0.0 -0.0018957628162235714 0.0 0.0
0.0011112574749438848 -0.00047416560997083385 0.0 -0.0018960492348039167 0.0 0.0
0.0013996006581996835 -0.0006041601256074102 0.0 -0.0019016867849305005 0.0 0.0
0.001786329190632169 -0.0007990022192395747 0.0 -0.0020331486472055923 0.0 0.0
0.002298696372847812 -0.0011107756908239096 0.0 -0.002190922172882159 0.0 0.0
0.0030190115532235124 -0.0015802054801756576 0.0 -0.0024513089618906025 0.0 0.0
0.004077262336910386 -0.0023915893042639295 0.0 -0.002890456262257913 0.0 0.0
0.0055848464629009035 -0.0036818784555318314 0.0 -0.003549057275643912 0.0 0.0
0.007588016603518412 -0.005519771806336421 0.0 -0.004419476549648404 0.0 0.0
0.010057444222902086 -0.007860917118858519 0.0 -0.005353093894076204 0.0 0.0
0.01291385273216333 -0.010616198988603446 0.0 -0.0060839413026319705 0.0 0.0
0.016080154632800152 -0.013693857605448398 0.0 -0.006192309069579988 0.0 0.0
0.01936410248051892 -0.017015884008093403 0.0 -0.005299084999493819 0.0 0.0
0.020994305909590547 -0.019884507037152645 0.0 4.5792362957097765e-15 0.0 0.0
0.0193641024805176 -0.01701588400809008 0.0 0.005299084999505122 0.0 0.0
0.01608015463279804 -0.013693857605443881 0.0 0.00619230906959271 0.0 0.0
0.01291385273216113 -0.010616198988602383 0.0 0.006083941302639801 0.0 0.0
0.01005744422290032 -0.007860917118857438 0.0 0.005353093894078008 0.0 0.0
0.0075880166035166945 -0.005519771806335321 0.0 0.004419476549647784 0.0 0.0
0.005584846462899119 -0.0036818784555294895 0.0 0.0035490572756434286 0.0 0.0
0.004077262336908785 -0.0023915893042625314 0.0 0.002890456262258347 0.0 0.0
0.00301901155322179 -0.0015802054801740608 0.0 0.002451308961890695 0.0 0.0
0.002298696372845936 -0.0011107756908232097 0.0 0.0021909221728810178 0.0 0.0
0.0017863291906305247 -0.0007990022192381744 0.0 0.0020331486472039647 0.0 0.0
0.0013996006581983682 -0.0006041601256080182 0.0 0.0019016867849293829 0.0 0.0
0.0011112574749427733 -0.0004741656099701879 0.0 0.0018960492348037376 0.0 0.0
0.0008883238944596999 -0.0003811627845628632 0.0 0.001895762816222836 0.0 0.0
0.0006992783398998442 -0.0002954775169461461 0.0 0.0018630014186652604 0.0 0.0
0.0005235317156535578 -0.00020635771121618363 0.0 0.0017943130456369136 0.0 0.0
0.0003341791920507483 -9.578809572795159e-05 0.0 0.0017157553977621095 0.0 0.0
0.00012637360942354742 2.790413847782996e-05 0.0 0.0017091554541318024 0.0 0.0
8.850254644493881e-06 3.1957121944436244e-05 0.0 0.0018989337421674254 0.0 0.0
0.00025377868921385235 -0.0005143198006796029 0.0 0.0019471395630110164 0.0 0.0
0.0005100696282328804 -0.0021604500405219243 0.0 0.001352739500623483 0.0 0.0
0.0004136644124971762 -0.0017699126824792695 0.0 -0.001300108085402598 0.0 0.0
0.00018587608360740008 -0.0005040067082308913 0.0 -0.0018734156153301079 0.0 0.0
-6.783291715976388e-05 3.6556358275261266e-05 0.0 -0.002002106790750674 0.0 0.0
-2.7108679964710414e-05 8.989216203552138e-05 0.0 -0.0018438069133532632 0.0 0.0
0.00011008780915762685 6.030030303878331e-06 0.0 -0.0018230512298162663 0.0 0.0
0.00023674561006260673 -7.683709985089659e-05 0.0 -0.0018846532661613807 0.0 0.0
0.00034239720987161383 -0.00013869749920739316 0.0 -0.0019553462282262683 0.0 0.0
0.00044352329434803903 -0.00018989033339133495 0.0 -0.002003062585928147 0.0 0.0
0.0005577274573172037 -0.00023813995249965083 0.0 -0.00202295302799506 0.0 0.0
0.0006967281306105096 -0.0003009498136576132 0.0 -0.0020248720244990417 0.0 0.0
0.0008896264136321048 -0.00038035653988545144 0.0 -0.0020755961492359668 0.0 0.0
0.0011455279318474997 -0.0005158585481953888 0.0 -0.0021856323094471943 0.0 0.0
0.0014890710644629565 -0.0006962851437143084 0.0 -0.0023402216624663474 0.0 0.0
0.0020057764694424492 -0.0010290887303313688 0.0 -0.0026047975890998894 0.0 0.0
0.0027615427165827927 -0.0015853069357880637 0.0 -0.003042670467709763 0.0 0.0
0.0038026785926468833 -0.0024454377211393374 0.0 -0.003687781092633117 0.0 0.0
0.005164165672260023 -0.0036153326831047336 0.0 -0.004468954383912682 0.0 0.0
0.006916689318875947 -0.005224036569330995 0.0 -0.005172573963779098 0.0 0.0
0.009100516187509072 -0.007302446843628062 0.0 -0.005322852839319758 0.0 0.0
0.011749478316013497 -0.009841213183267366 0.0 -0.004579298017236776 0.0 0.0
0.01320356249521549 -0.012822909167521206 0.0 3.198396408832238e-15 0.0 0.0
0.01174947831601283 -0.009841213183267207 0.0 0.004579298017245038 0.0 0.0
0.009100516187507986 -0.007302446843624233 0.0 0.005322852839328998 0.0 0.0
0.006916689318874607 -0.005224036569331121 0.0 0.005172573963783716 0.0 0.0
0.005164165672259117 -0.003615332683102448 0.0 0.004468954383913004 0.0 0.0
0.0038026785926461803 -0.002445437721140664 0.0 0.0036877810926321903 0.0 0.0
0.0027615427165820767 -0.001585306935786547 0.0 0.0030426704677095316 0.0 0.0
0.0020057764694420012 -0.0010290887303304398 0.0 0.0026047975891001786 0.0 0.0
0.0014890710644624642 -0.0006962851437133038 0.0 0.002340221662466581 0.0 0.0
0.0011455279318468201 -0.0005158585481953051 0.0 0.0021856323094462103 0.0 0.0
0.0008896264136316268 -0.00038035653988379407 0.0 0.0020755961492346597 0.0 0.0
0.0006967281306101893 -0.0003009498136571042 0.0 0.002024872024498143 0.0 0.0
0.0005577274573169571 -0.00023813995249943968 0.0 0.002022953027995003 0.0 0.0
0.0004435232943477979 -0.00018989033339096668 0.0 0.0020030625859274267 0.0 0.0
0.0003423972098714555 -0.00013869749920780751 0.0 0.0019553462282248025 0.0 0.0
0.00023674561006262982 -7.683709985127499e-05 0.0 0.001884653266158459 0.0 0.0
0.0001100878091577954 6.030030304041518e-06 0.0 0.0018230512298142705 0.0 0.0
-2.710867996451265e-05 8.989216203578914e-05 0.0 0.0018438069133508758 0.0 0.0
-6.783291715967217e-05 3.655635827532354e-05 0.0 0.0020021067907480573 0.0 0.0
0.00018587608360726583 -0.00050400670823056 0.0 0.0018734156153276888 0.0 0.0
0.00041366441249683823 -0.0017699126824775836 0.0 0.0013001080854015896 0.0 0.0
0.0003332406090955191 -0.0014272378927843172 0.0 -0.0011950521423460519 0.0 0.0
0.00012697327603073603 -0.0004741083609527117 0.0 -0.0017940747778470924 0.0 0.0
-0.0001386296559278327 4.529430982285352e-05 0.0 -0.0020467126925578453 0.0 0.0
-0.0001705838048341491 0.00014478047392769592 0.0 -0.0019291466552803856 0.0 0.0
-0.00010676027202660601 0.00010233695647719128 0.0 -0.0018885210326996184 0.0 0.0
-4.814846299713048e-05 5.115700432368056e-05 0.0 -0.0019289071582370512 0.0 0.0
-1.5924150807696136e-05 1.8841238759589595e-05 0.0 -0.001991166127871572 0.0 0.0
-2.621769901949547e-06 3.863532420913371e-06 0.0 -0.002040583583830646 0.0 0.0
1.0177443535262657e-06 -8.481369850509399e-07 0.0 -0.0020607144913763844 0.0 0.0
1.1772239989024403e-06 -1.0527896584715728e-06 0.0 -0.0020763035628223857 0.0 0.0
9.257520489177511e-07 -9.900062331142197e-07 0.0 -0.002090352173068156 0.0 0.0
8.827284741126662e-07 -8.195712247137163e-07 0.0 -0.002214923848610716 0.0 0.0
-4.615493743838426e-07 3.3670240176858946e-07 0.0 -0.0023333124225046304 0.0 0.0
-3.874223765841262e-06 4.171270701009742e-06 0.0 -0.0024943944075381886 0.0 0.0
3.410363449567774e-06 3.865480290987297e-06 0.0 -0.002833812389726642 0.0 0.0
6.750822884259969e-05 -3.360285592552754e-05 0.0 -0.0034113862870403834 0.0 0.0
0.000303703752499428 -0.0001799326874116029 0.0 -0.004241636675170592 0.0 0.0
0.0009409904989601866 -0.0006586747484414463 0.0 -0.005149652168345274 0.0 0.0
0.002173834253496821 -0.0017135360147944375 0.0 -0.005913703563808711 0.0 0.0
0.003993301911080114 -0.003164857878871594 0.0 -0.005877629290646062 0.0 0.0
0.005035738127256021 -0.006165173196929296 0.0 3.045523902511782e-15 0.0 0.0
0.003993301911079933 -0.0031648578788731813 0.0 0.0058776292906550925 0.0 0.0
0.0021738342534964906 -0.0017135360147937278 0.0 0.005913703563816559 0.0 0.0
0.0009409904989599662 -0.0006586747484440247 0.0 0.005149652168349485 0.0 0.0
0.00030370375249977257 -0.0001799326874107715 0.0 0.004241636675171058 0.0 0.0
6.750822884301591e-05 -3.360285592686241e-05 0.0 0.003411386287039686 0.0 0.0
3.410363449957897e-06 3.8654802914585865e-06 0.0 0.0028338123897266804 0.0 0.0
-3.874223765159461e-06 4.171270700519507e-06 0.0 0.0024943944075388343 0.0 0.0
-4.6154937360381337e-07 3.3670240199603474e-07 0.0 0.002333312422505007 0.0 0.0
8.827284747445121e-07 -8.195712242343973e-07 0.0 0.0022149238486098713 0.0 0.0
9.257520494301722e-07 -9.900062326647061e-07 0.0 0.0020903521730672977 0.0 0.0
1.1772239993637819e-06 -1.0527896583699796e-06 0.0 0.0020763035628218415 0.0 0.0
1.0177443539360128e-06 -8.481369857537164e-07 0.0 0.0020607144913765674 0.0 0.0
-2.6217699016675255e-06 3.86353242087272e-06 0.0 0.0020405835838296625 0.0 0.0
-1.5924150807490816e-05 1.884123875933907e-05 0.0 0.0019911661278695066 0.0 0.0
-4.814846299689059e-05 5.115700432439425e-05 0.0 0.001928907158234568 0.0 0.0
-0.00010676027202625248 0.00010233695647668414 0.0 0.0018885210326975215 0.0 0.0
-0.00017058380483377865 0.00014478047392780085 0.0 0.0019291466552777345 0.0 0.0
-0.00013862965592762916 4.5294309823081345e-05 0.0 0.0020467126925553776 0.0 0.0
0.0001269732760306936 -0.0004741083609522939 0.0 0.0017940747778451083 0.0 0.0
0.0003332406090953369 -0.0014272378927830634 0.0 0.0011950521423447968 0.0 0.0
0.000259007016853938 -0.0011248960571283273 0.0 -0.0010777991020543267 0.0 0.0
7.090583147095055e-05 -0.0004272237515850094 0.0 -0.001693775621614359 0.0 0.0
-0.0002060939845066629 5.848127341140808e-05 0.0 -0.002038976877281503 0.0 0.0
-0.00030604742041585815 0.00019503301502535333 0.0 -0.0019628499510848042 0.0 0.0
-0.00031648261999350205 0.00019306568852260988 0.0 -0.0019083772201591177 0.0 0.0
-0.000329082033583741 0.00017632111390039712 0.0 -0.001924363594222673 0.0 0.0
-0.0003728733604988315 0.00017530074990813234 0.0 -0.0019693486481164413 0.0 0.0
-0.00044863436720152846 0.0001972563564095343 0.0 -0.0020056871646638896 0.0 0.0
-0.0005557575621811107 0.00023647467077629386 0.0 -0.0020221751043367747 0.0 0.0
-0.0006944923483029966 0.00029888986324962157 0.0 -0.002024063282865648 0.0 0.0
-0.0008877613499264051 0.0003785459388418612 0.0 -0.002075272450776067 0.0 0.0
-0.0011437479967311886 0.0005141984340927074 0.0 -0.0021857058294041747 0.0 0.0
-0.0014895768763793274 0.0006963266092436153 0.0 -0.0023387550853889694 0.0 0.0
-0.0020130488865947255 0.0010378166332627747 0.0 -0.0025967785343923625 0.0 0.0
-0.0027595386411698704 0.0015966142073744023 0.0 -0.0030426687166016505 0.0 0.0
-0.003682113026324812 0.0023789030679916006 0.0 -0.003773933315181442 0.0 0.0
-0.00460147143243643 0.003215517218339073 0.0 -0.004797399498151811 0.0 0.0
-0.005196516782385275 0.0038232160021999164 0.0 -0.006054088354813369 0.0 0.0
-0.005058898469325615 0.003769433163931705 0.0 -0.007460802246715302 0.0 0.0
-0.003587113363538205 0.002692364870965964 0.0 -0.008110740610503608 0.0 0.0
-0.002421879211233254 -0.0005908644903246177 0.0 3.44732922763491e-15 0.0 0.0
-0.0035871133635382753 0.0026923648709673807 0.0 0.008110740610512368 0.0 0.0
-0.005058898469325225 0.0037694331639301464 0.0 0.0074608022467227576 0.0 0.0
-0.00519651678238418 0.0038232160021999893 0.0 0.006054088354816398 0.0 0.0
-0.004601471432434846 0.0032155172183355334 0.0 0.004797399498152736 0.0 0.0
-0.003682113026323255 0.002378903067993604 0.0 0.0037739333151811565 0.0 0.0
-0.0027595386411684193 0.0015966142073746757 0.0 0.003042668716601642 0.0 0.0
-0.0020130488865929747 0.0010378166332610322 0.0 0.0025967785343927155 0.0 0.0
-0.0014895768763774264 0.0006963266092424644 0.0 0.0023387550853889516 0.0 0.0
-0.0011437479967293723 0.0005141984340927145 0.0 0.0021857058294030463 0.0 0.0
-0.0008877613499247718 0.0003785459388401998 0.0 0.0020752724507747625 0.0 0.0
-0.0006944923483016146 0.0002988898632481119 0.0 0.002024063282864937 0.0 0.0
-0.000555757562180058 0.000236474670775713 0.0 0.002022175104337283 0.0 0.0
-0.00044863436720080595 0.00019725635640957764 0.0 0.002005687164663171 0.0 0.0
-0.0003728733604982032 0.0001753007499079076 0.0 0.0019693486481146237 0.0 0.0
-0.00032908203358310984 0.00017632111390079186 0.0 0.001924363594220662 0.0 0.0
-0.00031648261999291176 0.00019306568852234786 0.0 0.0019083772201573057 0.0 0.0
-0.0003060474204154211 0.00019503301502562622 0.0 0.0019628499510820074 0.0 0.0
-0.00020609398450644053 5.848127341159591e-05 0.0 0.0020389768772791812 0.0 0.0
7.090583147089128e-05 -0.000427223751584645 0.0 0.0016937756216127472 0.0 0.0
0.00025900701685369374 -0.0011248960571273764 0.0 0.0010777991020531964 0.0 0.0
0.00018929295277320352 -0.0008597442701192631 0.0 -0.000958980829060111 0.0 0.0
1.5833734676453627e-05 -0.00036798126870095886 0.0 -0.001571605894701552 0.0 0.0
-0.0002723122271148823 7.716530731340897e-05 0.0 -0.0019815896385468016 0.0 0.0
-0.0004351231760144946 0.00024192898237280418 0.0 -0.0019447762673857096 0.0 0.0
-0.0005190829109133673 0.0002785784581477563 0.0 -0.0018796723917774874 0.0 0.0
-0.0006048933738913239 0.0002973135666476068 0.0 -0.001870126585721632 0.0 0.0
-0.0007258431005575776 0.0003290696193637981 0.0 -0.0018899166175118717 0.0 0.0
-0.0008925209202412835 0.00038746718563944073 0.0 -0.001900648235747308 0.0 0.0
-0.00110958537530055 0.0004726596923968065 0.0 -0.001894514304649281 0.0 0.0
-0.0013976816127834312 0.0006022110898499513 0.0 -0.0018998896182752206 0.0 0.0
-0.0017847900380494565 0.0007974022398412723 0.0 -0.002032419944500718 0.0 0.0
-0.0022969425477133024 0.0011090674198425464 0.0 -0.002191899740002851 0.0 0.0
-0.003018049137634594 0.001578960247299715 0.0 -0.0024490909654899208 0.0 0.0
-0.004082704180400002 0.0023984563277379355 0.0 -0.0028733316542983458 0.0 0.0
-0.005589860621216173 0.0036971261711841296 0.0 -0.0035314922905809354 0.0 0.0
-0.007498405751801881 0.005468599137391669 0.0 -0.004531131271116899 0.0 0.0
-0.009564514437544611 0.007462944675823353 0.0 -0.005938414994257 0.0 0.0
-0.011366678355162231 0.009244834247277102 0.0 -0.007756031741220609 0.0 0.0
-0.012212591060442672 0.010147010902387224 0.0 -0.009683322961808013 0.0 0.0
-0.010999647752161475 0.00895233372389305 0.0 -0.01028570855144664 0.0 0.0
-0.00971356300621163 0.004408033534828946 0.0 4.325099306479174e-15 0.0 0.0
-0.010999647752161336 0.008952333723894588 0.0 0.010285708551456258 0.0 0.0
-0.012212591060441608 0.010147010902384786 0.0 0.00968332296181727 0.0 0.0
-0.011366678355160004 0.009244834247277975 0.0 0.007756031741225081 0.0 0.0
-0.009564514437541576 0.007462944675820675 0.0 0.0059384149942586645 0.0 0.0
-0.007498405751799357 0.005468599137390005 0.0 0.004531131271116803 0.0 0.0
-0.005589860621213839 0.00369712617118365 0.0 0.0035314922905802923 0.0 0.0
-0.004082704180397152 0.002398456327735614 0.0 0.002873331654297747 0.0 0.0
-0.0030180491376314697 0.0015789602472965035 0.0 0.0024490909654889224 0.0 0.0
-0.002296942547710224 0.0011090674198413633 0.0 0.0021918997400005172 0.0 0.0
-0.00178479003804665 0.000797402239838884 0.0 0.002032419944498557 0.0 0.0
-0.001397681612781155 0.0006022110898490133 0.0 0.0018998896182744482 0.0 0.0
-0.0011095853752987907 0.0004726596923965641 0.0 0.0018945143046496006 0.0 0.0
-0.0008925209202399515 0.0003874671856394258 0.0 0.0019006482357462177 0.0 0.0
-0.0007258431005565451 0.0003290696193636518 0.0 0.0018899166175103863 0.0 0.0
-0.0006048933738904153 0.0002973135666470963 0.0 0.001870126585719666 0.0 0.0
-0.0005190829109127378 0.00027857845814776314 0.0 0.0018796723917752795 0.0 0.0
-0.00043512317601399433 0.00024192898237260203 0.0 0.0019447762673832363 0.0 0.0
-0.0002723122271145198 7.716530731349935e-05 0.0 0.0019815896385443044 0.0 0.0
1.5833734676434705e-05 -0.00036798126870073796 0.0 0.001571605894699975 0.0 0.0
0.00018929295277304894 -0.0008597442701185086 0.0 0.0009589808290589865 0.0 0.0
0.000124044316208748 -0.0006294027338787357 0.0 -0.0008388055583566022 0.0 0.0
-3.848349520445894e-05 -0.0003010784833897021 0.0 -0.0014291443127622664 0.0 0.0
-0.00033833011845209066 0.00010159250972079622 0.0 -0.0018776582646863002 0.0 0.0
-0.0005589942224058618 0.0002864839127600466 0.0 -0.0018751516911536203 0.0 0.0
-0.0007149286683815572 0.0003589157011030427 0.0 -0.0018015580496466995 0.0 0.0
-0.0008742874063478187 0.00041381533131887787 0.0 -0.0017653122987012525 0.0 0.0
-0.0010727889156949353 0.00047735936569386636 0.0 -0.001752503294337231 0.0 0.0
-0.0013295980011799212 0.0005731477123604666 0.0 -0.0017258396644555952 0.0 0.0
-0.0016651790167632329 0.0007124481162443061 0.0 -0.001700811875367981 0.0 0.0
-0.0021198845082566428 0.0009564256157028989 0.0 -0.0018023990951712369 0.0 0.0
-0.0027144784101158187 0.0013240432179589029 0.0 -0.0020131185757339166 0.0 0.0
-0.0034957209699684934 0.0018647894664915628 0.0 -0.0022522226699053824 0.0 0.0
-0.004605121839046796 0.0027133306797611834 0.0 -0.0026119424052199404 0.0 0.0
-0.006228441346821838 0.004086099617703697 0.0 -0.0031671271113442676 0.0 0.0
-0.008510735396553537 0.006165980330529297 0.0 -0.004010383581182991 0.0 0.0
-0.011423130906071818 0.008953292035698956 0.0 -0.005246197647892054 0.0 0.0
-0.014672205492746983 0.01214913133797177 0.0 -0.007084416883442181 0.0 0.0
-0.017666985399284484 0.015170837141176438 0.0 -0.00961430140247098 0.0 0.0
-0.019361599698150975 0.01697633050083077 0.0 -0.012262466672087366 0.0 0.0
-0.018051978389292025 0.01584873746699968 0.0 -0.013260907809847627 0.0 0.0
-0.016388318494063615 0.009338604615174106 0.0 4.741432940713608e-15 0.0 0.0
-0.01805197838929144 0.015848737467000166 0.0 0.013260907809860119 0.0 0.0
-0.0193615996981492 0.016976330500829404 0.0 0.012262466672098977 0.0 0.0
-0.017666985399281344 0.015170837141175866 0.0 0.009614301402477017 0.0 0.0
-0.014672205492743055 0.012149131337968912 0.0 0.007084416883442829 0.0 0.0
-0.011423130906068238 0.008953292035694779 0.0 0.005246197647891491 0.0 0.0
-0.008510735396550256 0.006165980330527251 0.0 0.004010383581183011 0.0 0.0
-0.006228441346818069 0.004086099617700766 0.0 0.00316712711134331 0.0 0.0
-0.004605121839042501 0.0027133306797561285 0.0 0.002611942405219325 0.0 0.0
-0.0034957209699641315 0.0018647894664903866 0.0 0.002252222669903014 0.0 0.0
-0.002714478410111779 0.0013240432179562874 0.0 0.002013118575730558 0.0 0.0
-0.002119884508253255 0.0009564256157017334 0.0 0.001802399095169349 0.0 0.0
-0.0016651790167607132 0.0007124481162440096 0.0 0.0017008118753675987 0.0 0.0
-0.0013295980011780923 0.0005731477123598965 0.0 0.0017258396644553053 0.0 0.0
-0.0010727889156935799 0.0004773593656932126 0.0 0.0017525032943352722 0.0 0.0
-0.0008742874063467081 0.0004138153313181731 0.0 0.0017653122986993116 0.0 0.0
-0.000714928668380601 0.00035891570110293993 0.0 0.0018015580496445827 0.0 0.0
-0.0005589942224051712 0.00028648391275961835 0.0 0.0018751516911519458 0.0 0.0
-0.0003383301184516652 0.00010159250972081722 0.0 0.0018776582646839696 0.0 0.0
-3.848349520440999e-05 -0.00030107848338942547 0.0 0.001429144312760717 0.0 0.0
0.00012404431620857283 -0.0006294027338781481 0.0 0.0008388055583560652 0.0 0.0
6.399123220358593e-05 -0.00043294467514933216 0.0 -0.0007161586779279279 0.0 0.0
-9.137355496825232e-05 -0.00023052920775899977 0.0 -0.0012675737084516323 0.0 0.0
-0.0004042595338698422 0.00013112048045523634 0.0 -0.0017303714725011906 0.0 0.0
-0.0006786295535406796 0.00032929834465477337 0.0 -0.0017547843983489154 0.0 0.0
-0.000904134666551443 0.0004345914948966857 0.0 -0.0016737254453437535 0.0 0.0
-0.0011363048036385564 0.0005242028532438868 0.0 -0.001609145143538141 0.0 0.0
-0.0014113816811242577 0.0006194922780774369 0.0 -0.001555644848342721 0.0 0.0
-0.0017640774946094833 0.0007543418157317202 0.0 -0.0014902690914247766 0.0 0.0
-0.002246056352733781 0.001008466737450732 0.0 -0.001549265467384433 0.0 0.0
-0.002879599814658784 0.00141367410154786 0.0 -0.0017623103852752182 0.0 0.0
-0.0036711020514477027 0.001963110577488608 0.0 -0.001981513494868637 0.0 0.0
-0.00472751140873801 0.0027607910732454174 0.0 -0.00225353652199184 0.0 0.0
-0.0062451326547842 0.004006775435682326 0.0 -0.002660021903198511 0.0 0.0
-0.008446463142081655 0.005952074542394845 0.0 -0.0033003506332797226 0.0 0.0
-0.011511588831118505 0.008811755431627476 0.0 -0.004237277444495414 0.0 0.0
-0.015438276131388217 0.012613845324800343 0.0 -0.005604560866974795 0.0 0.0
-0.019887110288945953 0.017023895040418936 0.0 -0.007676701242136416 0.0 0.0
-0.024048712992225715 0.021267789880301848 0.0 -0.010646516772282098 0.0 0.0
-0.026470064687671033 0.0238974593383016 0.0 -0.013952227638031518 0.0 0.0
-0.02481046259177124 0.02256753499569396 0.0 -0.015628125641680486 0.0 0.0
-0.02260515271095119 0.014093649948290987 0.0 6.1118644867352856e-15 0.0 0.0
-0.024810462591770298 0.022567534995693254 0.0 0.015628125641695908 0.0 0.0
-0.02647006468766877 0.023897459338299155 0.0 0.013952227638045381 0.0 0.0
-0.024048712992222006 0.021267789880301084 0.0 0.010646516772290593 0.0 0.0
-0.01988711028894127 0.017023895040414405 0.0 0.007676701242139006 0.0 0.0
-0.015438276131383724 0.01261384532479876 0.0 0.00560456086697429 0.0 0.0
-0.01151158883111437 0.008811755431624697 0.0 0.0042372774444949775 0.0 0.0
-0.008446463142076883 0.005952074542390182 0.0 0.0033003506332786444 0.0 0.0
-0.0062451326547787655 0.004006775435677212 0.0 0.002660021903197452 0.0 0.0
-0.004727511408732595 0.0027607910732421995 0.0 0.002253536521988931 0.0 0.0
-0.0036711020514426304 0.001963110577484493 0.0 0.001981513494865784 0.0 0.0
-0.0028795998146543835 0.0014136741015448218 0.0 0.0017623103852732313 0.0 0.0
-0.0022460563527302245 0.0010084667374493919 0.0 0.001549265467383272 0.0 0.0
-0.0017640774946069025 0.0007543418157301956 0.0 0.0014902690914246482 0.0 0.0
-0.001411381681122454 0.0006194922780768899 0.0 0.0015556448483412702 0.0 0.0
-0.0011363048036371584 0.0005242028532431014 0.0 0.0016091451435365702 0.0 0.0
-0.0009041346665503644 0.0004345914948963845 0.0 0.0016737254453418424 0.0 0.0
-0.0006786295535399416 0.00032929834465447136 0.0 0.0017547843983470699 0.0 0.0
-0.00040425953386946043 0.00013112048045539677 0.0 0.0017303714724991436 0.0 0.0
-9.137355496816571e-05 -0.00023052920775871463 0.0 0.0012675737084500978 0.0 0.0
6.399123220355873e-05 -0.00043294467514894954 0.0 0.0007161586779279255 0.0 0.0
1.0393290294978514e-05 -0.0002706182644464575 0.0 -0.0005902009193469291 0.0 0.0
-0.000141455936599604 -0.00015974007825976172 0.0 -0.0010879520790573745 0.0 0.0
-0.00046947182843715455 0.00016442752267722312 0.0 -0.0015422082060017302 0.0 0.0
-0.0007944943931993608 0.0003705282532289554 0.0 -0.0015845397772297509 0.0 0.0
-0.0010869473530584783 0.0005063618241980861 0.0 -0.0014961051661207321 0.0 0.0
-0.0013894116335832001 0.0006277017420803139 0.0 -0.0014040938495441069 0.0 0.0
-0.0017426453632288512 0.0007509725219741429 0.0 -0.0012934634853104092 0.0 0.0
-0.002221813963278249 0.0009754330130868842 0.0 -0.0012706112270318673 0.0 0.0
-0.002866332096123753 0.001399771741129093 0.0 -0.001463135278590037 0.0 0.0
-0.003651680136833961 0.001940414445029528 0.0 -0.0016640257345374965 0.0 0.0
-0.004639605246557879 0.0026687334218846053 0.0 -0.001856978130832698 0.0 0.0
-0.005995212433817303 0.0037496132099772463 0.0 -0.002134522353889161 0.0 0.0
-0.007940972487772868 0.005412576864225099 0.0 -0.002557008727291567 0.0 0.0
-0.010732915002774308 0.00794444777082622 0.0 -0.0032266389833464533 0.0 0.0
-0.014581691140948178 0.01157948459154236 0.0 -0.004209757987525757 0.0 0.0
-0.019506671102277787 0.016363685022932423 0.0 -0.005563189620197376 0.0 0.0
-0.025124956421572153 0.02196012107106344 0.0 -0.007585706624102561 0.0 0.0
-0.030423880824541186 0.02740247804914841 0.0 -0.010664069892413879 0.0 0.0
-0.03349822612623697 0.03079562463983959 0.0 -0.014467274478184512 0.0 0.0
-0.031407248475625475 0.02916679066807598 0.0 -0.017269428599082582 0.0 0.0
-0.028638264967482924 0.018763076563954324 0.0 6.439727223694902e-15 0.0 0.0
-0.03140724847562401 0.02916679066807546 0.0 0.01726942859909862 0.0 0.0
-0.03349822612623411 0.030795624639835734 0.0 0.014467274478200016 0.0 0.0
-0.03042388082453702 0.027402478049147878 0.0 0.010664069892423753 0.0 0.0
-0.025124956421567122 0.021960121071059383 0.0 0.00758570662410544 0.0 0.0
-0.01950667110227254 0.01636368502292901 0.0 0.005563189620197745 0.0 0.0
-0.014581691140943008 0.011579484591540049 0.0 0.004209757987524807 0.0 0.0
-0.010732915002768628 0.007944447770822176 0.0 0.003226638983346415 0.0 0.0
-0.007940972487766413 0.005412576864219841 0.0 0.002557008727290367 0.0 0.0
-0.005995212433810635 0.0037496132099721037 0.0 0.0021345223538863024 0.0 0.0
-0.0046396052465516695 0.0026687334218785867 0.0 0.0018569781308299714 0.0 0.0
-0.0036516801368286656 0.0019404144450256783 0.0 0.0016640257345353583 0.0 0.0
-0.002866332096119177 0.0013997717411255905 0.0 0.001463135278588799 0.0 0.0
-0.00222181396327473 0.000975433013085066 0.0 0.001270611227030746 0.0 0.0
-0.0017426453632266138 0.0007509725219730603 0.0 0.0012934634853091842 0.0 0.0
-0.0013894116335816354 0.0006277017420798502 0.0 0.0014040938495425929 0.0 0.0
-0.001086947353057211 0.0005063618241973677 0.0 0.0014961051661194077 0.0 0.0
-0.0007944943931984382 0.0003705282532286122 0.0 0.0015845397772282566 0.0 0.0
-0.00046947182843674277 0.00016442752267719742 0.0 0.0015422082059998114 0.0 0.0
-0.00014145593659947082 -0.0001597400782596578 0.0 0.00108795207905677 0.0 0.0
1.0393290295139462e-05 -0.000270618264446344 0.0 0.0005902009193467161 0.0 0.0
-3.492096862158409e-05 -0.00014352536363423612 0.0 -0.00046150499907572304 0.0 0.0
-0.00018655677829635807 -9.182131660847796e-05 0.0 -0.0008916852479807233 0.0 0.0
-0.0005325647867473239 0.00019948874520416102 0.0 -0.0013142026731938722 0.0 0.0
-0.0009068275346174447 0.0004103152121481802 0.0 -0.0013645183231239277 0.0 0.0
-0.0012641241489272507 0.0005748875320169019 0.0 -0.0012710767913774955 0.0 0.0
-0.00163152165537918 0.0007196283462558973 0.0 -0.001144157669579626 0.0 0.0
-0.0020861723693864566 0.0008999843668029528 0.0 -0.0010123055823487597 0.0 0.0
-0.0027177994547479475 0.0012910600247474813 0.0 -0.0011309617857306281 0.0 0.0
-0.0034970954356560767 0.001834279308380398 0.0 -0.0013104276937310213 0.0 0.0
-0.004424888597371021 0.0025006323124328825 0.0 -0.0014560120595206829 0.0 0.0
-0.005630646139634924 0.0034331661414021414 0.0 -0.001639393259747974 0.0 0.0
-0.007298642367596447 0.00480979296839054 0.0 -0.0018938523034389687 0.0 0.0
-0.009689101415048116 0.0069070075495867335 0.0 -0.0022945006161904933 0.0 0.0
-0.013090704581909878 0.01004011619130184 0.0 -0.002942584776814801 0.0 0.0
-0.01771063454189927 0.01444022344198841 0.0 -0.0039000618841477028 0.0 0.0
-0.0235781362053722 0.020151892536961858 0.0 -0.005150800255827878 0.0 0.0
-0.030309239312825087 0.02685416145853667 0.0 -0.006861614027058996 0.0 0.0
-0.03669698968064167 0.033442361000433296 0.0 -0.009616769993385255 0.0 0.0
-0.040424890534229034 0.037613116497235526 0.0 -0.013708942169526754 0.0 0.0
-0.03798884141014414 0.03580106886991427 0.0 -0.018282614441138902 0.0 0.0
-0.03471795819482346 0.023541905005988698 0.0 7.495740139695783e-15 0.0 0.0
-0.03798884141014237 0.035801068869912786 0.0 0.018282614441155056 0.0 0.0
-0.04042489053422569 0.0376131164972325 0.0 0.013708942169542649 0.0 0.0
-0.03669698968063709 0.03344236100043151 0.0 0.009616769993395238 0.0 0.0
-0.030309239312819546 0.026854161458532626 0.0 0.006861614027062242 0.0 0.0
-0.023578136205366366 0.020151892536956574 0.0 0.005150800255829586 0.0 0.0
-0.01771063454189321 0.014440223441984496 0.0 0.0039000618841473315 0.0 0.0
-0.0130907045819031 0.010040116191297875 0.0 0.0029425847768145396 0.0 0.0
-0.009689101415040684 0.006907007549579888 0.0 0.002294500616189537 0.0 0.0
-0.007298642367588681 0.004809792968384368 0.0 0.0018938523034372282 0.0 0.0
-0.005630646139627756 0.003433166141396357 0.0 0.001639393259744938 0.0 0.0
-0.004424888597364881 0.002500632312428665 0.0 0.0014560120595187081 0.0 0.0
-0.003497095435650675 0.001834279308375541 0.0 0.0013104276937307001 0.0 0.0
-0.002717799454743552 0.0012910600247448536 0.0 0.0011309617857289405 0.0 0.0
-0.002086172369383467 0.0008999843668011783 0.0 0.0010123055823478286 0.0 0.0
-0.0016315216553772906 0.000719628346255904 0.0 0.0011441576695790474 0.0 0.0
-0.0012641241489259084 0.0005748875320159636 0.0 0.0012710767913768108 0.0 0.0
-0.0009068275346165544 0.000410315212147572 0.0 0.0013645183231227296 0.0 0.0
-0.0005325647867468012 0.0001994887452039491 0.0 0.0013142026731924918 0.0 0.0
-0.00018655677829604702 -9.182131660826332e-05 0.0 0.0008916852479805817 0.0 0.0
-3.49209686214035e-05 -0.0001435253636341538 0.0 0.0004615049990749598 0.0 0.0
-6.930152165366031e-05 -5.3201750911476826e-05 0.0 -0.00033348205259348064 0.0 0.0
-0.00022333159532592002 -3.010891502734652e-05 0.0 -0.0006810299018819945 0.0 0.0
-0.0005911996668834675 0.0002332125965204388 0.0 -0.001044990202108456 0.0 0.0
-0.0010163061726632722 0.0004499592394722145 0.0 -0.0010934075903725102 0.0 0.0
-0.0014342029628178622 0.000638291368823594 0.0 -0.0010024800448779232 0.0 0.0
-0.0018750230691963747 0.0008057315069092381 0.0 -0.0008262689917202605 0.0 0.0
-0.0024641836354151515 0.0011169110281644362 0.0 -0.0007932352182350083 0.0 0.0
-0.0032287334335203074 0.001652440557303615 0.0 -0.0009498825260057134 0.0 0.0
-0.004119497574319303 0.0022808568776683186 0.0 -0.001052313144724255 0.0 0.0
-0.005210418733357163 0.0030994925255925197 0.0 -0.0011723722632932842 0.0 0.0
-0.0066435657198995225 0.004244510119795345 0.0 -0.0013231873074567115 0.0 0.0
-0.008637955871938087 0.005931920203323191 0.0 -0.00153174498195701 0.0 0.0
-0.011491244244831897 0.008476764748943605 0.0 -0.001867029748325826 0.0 0.0
-0.015508490258595489 0.01222094908192574 0.0 -0.0024348315800882046 0.0 0.0
-0.020892006243685153 0.017380207786199153 0.0 -0.0032987388515696415 0.0 0.0
-0.027634465620683286 0.023955698550367083 0.0 -0.004396721118197946 0.0 0.0
-0.03533714000153828 0.031607139562420734 0.0 -0.005631774293319274 0.0 0.0
-0.04274407166098579 0.03922879964877621 0.0 -0.007523362968346509 0.0 0.0
-0.04725165822112073 0.044305861317546366 0.0 -0.01156409789085442 0.0 0.0
-0.0447130703904016 0.04264900087867674 0.0 -0.018505305024985663 0.0 0.0
-0.04106503555065782 0.028655452811501128 0.0 6.71511457550622e-15 0.0 0.0
-0.044713070390399526 0.04264900087867477 0.0 0.01850530502500073 0.0 0.0
-0.04725165822111667 0.04430586131754191 0.0 0.011564097890869795 0.0 0.0
-0.042744071660980744 0.039228799648771254 0.0 0.007523362968355811 0.0 0.0
-0.03533714000153215 0.03160713956241648 0.0 0.005631774293322896 0.0 0.0
-0.027634465620676528 0.02395569855036262 0.0 0.0043967211181987235 0.0 0.0
-0.020892006243678173 0.017380207786192876 0.0 0.003298738851569772 0.0 0.0
-0.015508490258587825 0.012220949081920392 0.0 0.002434831580087321 0.0 0.0
-0.011491244244823362 0.008476764748935143 0.0 0.0018670297483250513 0.0 0.0
-0.008637955871929339 0.005931920203317207 0.0 0.001531744981956057 0.0 0.0
-0.0066435657198915055 0.004244510119789424 0.0 0.0013231873074546208 0.0 0.0
-0.0052104187333499785 0.0030994925255870744 0.0 0.0011723722632910913 0.0 0.0
-0.004119497574313011 0.002280856877663984 0.0 0.0010523131447230589 0.0 0.0
-0.0032287334335150374 0.0016524405572985277 0.0 0.0009498825260041521 0.0 0.0
-0.0024641836354113047 0.0011169110281624263 0.0 0.000793235218233996 0.0 0.0
-0.001875023069194123 0.0008057315069085327 0.0 0.0008262689917201876 0.0 0.0
-0.0014342029628164358 0.000638291368822684 0.0 0.0010024800448770839 0.0 0.0
-0.0010163061726622907 0.0004499592394714934 0.0 0.0010934075903711994 0.0 0.0
-0.0005911996668829298 0.00023321259652048286 0.0 0.0010449902021075813 0.0 0.0
-0.00022333159532575276 -3.0108915027225604e-05 0.0 0.000681029901881159 0.0 0.0
-6.930152165369078e-05 -5.3201750911368385e-05 0.0 0.00033348205259350807 0.0 0.0
-8.868226608360353e-05 -1.0659470038321707e-06 0.0 -0.00021502113658187951 0.0 0.0
-0.0002465357445083552 2.094641176615593e-05 0.0 -0.0004592446371405421 0.0 0.0
-0.0006418415795776634 0.0002609357854361645 0.0 -0.0007296987628048422 0.0 0.0
-0.0011238722741912807 0.000492971441131289 0.0 -0.000767274033379371 0.0 0.0
-0.001599296591560092 0.0006898550092048054 0.0 -0.0006889907225628844 0.0 0.0
-0.0021414701296859013 0.000927957499968584 0.0 -0.000504802983844751 0.0 0.0
-0.002863311978522443 0.0013940774022281677 0.0 -0.0005811931769431005 0.0 0.0
-0.0037337567362634343 0.0020112219571780782 0.0 -0.0006591961796161321 0.0 0.0
-0.0047469403192391445 0.0027537653687314647 0.0 -0.0007293095644526472 0.0 0.0
-0.006008159480722679 0.003731803609215956 0.0 -0.0008108350380202647 0.0 0.0
-0.007679593913598116 0.005097353432657293 0.0 -0.0009107464536949405 0.0 0.0
-0.010013298947992137 0.00710738293866087 0.0 -0.001043699473067977 0.0 0.0
-0.013339523572743863 0.010113963925837188 0.0 -0.0012768212014284137 0.0 0.0
-0.017984776802662174 0.014473972647914793 0.0 -0.001717874819084572 0.0 0.0
-0.02412106011075408 0.020381422136919417 0.0 -0.0023944084329512124 0.0 0.0
-0.0316559362380129 0.02776292942676742 0.0 -0.003239969630433503 0.0 0.0
-0.040134372295071545 0.036182158911611584 0.0 -0.004033309457067435 0.0 0.0
-0.0484247202677965 0.044576713373047784 0.0 -0.004863940473169495 0.0 0.0
-0.053921976810158236 0.05072141590903705 0.0 -0.007731464708641734 0.0 0.0
-0.05174559513350692 0.04992129956624437 0.0 -0.017285353673192987 0.0 0.0
-0.04797172690214996 0.03445726207435062 0.0 5.201568342716456e-15 0.0 0.0
-0.05174559513350447 0.04992129956624318 0.0 0.017285353673205262 0.0 0.0
-0.05392197681015372 0.050721415909032626 0.0 0.007731464708654491 0.0 0.0
-0.04842472026779073 0.044576713373043586 0.0 0.004863940473177162 0.0 0.0
-0.0401343722950649 0.03618215891160591 0.0 0.004033309457070953 0.0 0.0
-0.031655936238005555 0.02776292942676293 0.0 0.0032399696304336078 0.0 0.0
-0.0241210601107462 0.020381422136913498 0.0 0.0023944084329510645 0.0 0.0
-0.017984776802653403 0.014473972647908503 0.0 0.0017178748190839793 0.0 0.0
-0.01333952357273413 0.01011396392582732 0.0 0.001276821201427796 0.0 0.0
-0.010013298947982191 0.007107382938653463 0.0 0.0010436994730673806 0.0 0.0
-0.007679593913589097 0.005097353432648796 0.0 0.0009107464536928075 0.0 0.0
-0.006008159480714898 0.0037318036092103303 0.0 0.0008108350380188728 0.0 0.0
-0.004746940319232125 0.002753765368726681 0.0 0.0007293095644510463 0.0 0.0
-0.00373375673625725 0.002011221957172891 0.0 0.0006591961796148448 0.0 0.0
-0.0028633119785177225 0.0013940774022253807 0.0 0.0005811931769421633 0.0 0.0
-0.0021414701296830385 0.0009279574999665145 0.0 0.0005048029838442871 0.0 0.0
-0.0015992965915584592 0.0006898550092042563 0.0 0.0006889907225626433 0.0 0.0
-0.001123872274190177 0.0004929714411308494 0.0 0.0007672740333783179 0.0 0.0
-0.0006418415795771365 0.00026093578543630194 0.0 0.0007296987628043403 0.0 0.0
-0.00024653574450819087 2.094641176595327e-05 0.0 0.00045924463713997737 0.0 0.0
-8.868226608349918e-05 -1.0659470038451616e-06 0.0 0.00021502113658210966 0.0 0.0
-8.604654388655989e-05 1.2561889188069652e-05 0.0 -0.00012573673821432557 0.0 0.0
-0.00024781989724904165 5.36242707399195e-05 0.0 -0.00023019324646934982 0.0 0.0
-0.0006791431121581311 0.0002775726639652039 0.0 -0.00035699083521261685 0.0 0.0
-0.001230953919579256 0.0005400720713597584 0.0 -0.000379284332055621 0.0 0.0
-0.001775527279019716 0.0007417086782096221 0.0 -0.000331011442334875 0.0 0.0
-0.002429061469596686 0.001088188071480354 0.0 -0.00021272623463087072 0.0 0.0
-0.003270452064391646 0.0016939900839841359 0.0 -0.0002896093087944259 0.0 0.0
-0.004235672905162397 0.0023824978406008423 0.0 -0.00031440659094626765 0.0 0.0
-0.005379291910707126 0.0032499019775483117 0.0 -0.00033830727527844765 0.0 0.0
-0.0068188611425268695 0.0043920164971871225 0.0 -0.0003708675118148934 0.0 0.0
-0.008738069827712434 0.0059870520911006605 0.0 -0.0003983747444259567 0.0 0.0
-0.011424478732936115 0.008333504377377475 0.0 -0.00042756053376940834 0.0 0.0
-0.01523982599555787 0.011818089571171827 0.0 -0.0005453456480232224 0.0 0.0
-0.020502429542173194 0.01678132215407771 0.0 -0.0007832099928528045 0.0 0.0
-0.027363509225691272 0.02340909907252191 0.0 -0.0011476187082940245 0.0 0.0
-0.035652744336262684 0.03156024488773364 0.0 -0.0016356995849150934 0.0 0.0
-0.04474331073148032 0.0406260183772056 0.0 -0.0020830679487733434 0.0 0.0
-0.05353616303292534 0.049464287046005306 0.0 -0.0022846592118124062 0.0 0.0
-0.06017216186274907 0.056278322718744486 0.0 -0.0031673401366639755 0.0 0.0
-0.059299499093530654 0.0576798378241349 0.0 -0.011597768669210232 0.0 0.0
-0.055946737581061924 0.04202412454085996 0.0 2.942091015256665e-15 0.0 0.0
-0.059299499093527656 0.05767983782413154 0.0 0.011597768669216803 0.0 0.0
-0.06017216186274376 0.05627832271874046 0.0 0.0031673401366716907 0.0 0.0
-0.05353616303291857 0.049464287046003065 0.0 0.0022846592118158362 0.0 0.0
-0.04474331073147273 0.040626018377200174 0.0 0.002083067948774425 0.0 0.0
-0.03565274433625462 0.03156024488772834 0.0 0.0016356995849160579 0.0 0.0
-0.027363509225682436 0.023409099072515274 0.0 0.0011476187082940705 0.0 0.0
-0.02050242954216339 0.016781322154071854 0.0 0.0007832099928527954 0.0 0.0
-0.015239825995547095 0.011818089571162609 0.0 0.0005453456480230751 0.0 0.0
-0.011424478732925146 0.008333504377368711 0.0 0.00042756053376938574 0.0 0.0
-0.008738069827702623 0.005987052091091366 0.0 0.0003983747444250023 0.0 0.0
-0.0068188611425182765 0.004392016497181291 0.0 0.0003708675118145742 0.0 0.0
-0.005379291910699368 0.0032499019775425425 0.0 0.00033830727527720515 0.0 0.0
-0.004235672905155526 0.0023824978405966196 0.0 0.0003144065909450866 0.0 0.0
-0.00327045206438619 0.0016939900839801434 0.0 0.0002896093087937962 0.0 0.0
-0.002429061469593245 0.0010881880714774467 0.0 0.00021272623463074674 0.0 0.0
-0.0017755272790179358 0.0007417086782089209 0.0 0.00033101144233485194 0.0 0.0
-0.0012309539195782715 0.0005400720713590203 0.0 0.00037928433205502575 0.0 0.0
-0.0006791431121575643 0.0002775726639649794 0.0 0.000356990835212154 0.0 0.0
-0.0002478198972488643 5.3624270739935476e-05 0.0 0.00023019324646943252 0.0 0.0
-8.604654388660215e-05 1.2561889187898717e-05 0.0 0.00012573673821386004 0.0 0.0
-4.814501989202143e-05 9.818624268870416e-06 0.0 -8.307135558745619e-05 0.0 0.0
-0.00021320121708072817 6.410191773729697e-05 0.0 -9.647721278231497e-05 0.0 0.0
-0.0006957290648901531 0.0002825375909235318 0.0 -0.00012176557339108454 0.0 0.0
-0.001342734769195258 0.0005642568851418677 0.0 -0.00013563913991023575 0.0 0.0
-0.001976820607577952 0.000771791270087582 0.0 -0.00010129629253671088 0.0 0.0
-0.002733896677166348 0.0011707054916491504 0.0 3.8188938480997e-06 0.0 0.0
-0.003675934891508381 0.0018462489550732783 0.0 -2.947836362256109e-05 0.0 0.0
-0.004736951352454277 0.0025722842262246625 0.0 -1.8455581004029947e-05 0.0 0.0
-0.006016771754806504 0.0035029214116863087 0.0 1.8737778967747734e-05 0.0 0.0
-0.007642166045515977 0.004728768741967881 0.0 6.455370834525329e-05 0.0 0.0
-0.009819935665212002 0.006439459634253161 0.0 0.0001676236083919166 0.0 0.0
-0.012878175792807827 0.008960183364204928 0.0 0.0003282508461820222 0.0 0.0
-0.017181264428046676 0.012687596683471646 0.0 0.00044464629980378394 0.0 0.0
-0.02304163795452118 0.01794409954420416 0.0 0.0005568880484785538 0.0 0.0
-0.030599965603322545 0.024926379333326282 0.0 0.0005719251430463053 0.0 0.0
-0.03960464141829998 0.03345421248309303 0.0 0.0004356315949378604 0.0 0.0
-0.049261242235425745 0.042823259497562625 0.0 0.00017224218110433592 0.0 0.0
-0.05822361314297268 0.051813303131474656 0.0 -9.826210037935327e-05 0.0 0.0
-0.0650766417592703 0.05872844527560602 0.0 -0.0002792713081266004 0.0 0.0
-0.06726750165834314 0.06166669840653058 0.0 -0.007550125535917666 0.0 0.0
-0.06671228301670176 0.04646103423431593 0.0 1.949829186997931e-15 0.0 0.0
-0.06726750165834011 0.06166669840652641 0.0 0.007550125535920546 0.0 0.0
-0.06507664175926395 0.05872844527560087 0.0 0.00027927130813126203 0.0 0.0
-0.058223613142964474 0.051813303131471755 0.0 9.826210038176453e-05 0.0 0.0
-0.0492612422354168 0.04282325949755826 0.0 -0.00017224218110356918 0.0 0.0
-0.039604641418290704 0.03345421248308869 0.0 -0.00043563159493758066 0.0 0.0
-0.03059996560331256 0.024926379333317674 0.0 -0.0005719251430462307 0.0 0.0
-0.02304163795451028 0.017944099544199742 0.0 -0.0005568880484784567 0.0 0.0
-0.01718126442803483 0.012687596683463661 0.0 -0.00044464629980375207 0.0 0.0
-0.012878175792795824 0.008960183364196753 0.0 -0.00032825084618153737 0.0 0.0
-0.009819935665201375 0.006439459634244701 0.0 -0.00016762360839261622 0.0 0.0
-0.007642166045506884 0.004728768741961069 0.0 -6.455370834575159e-05 0.0 0.0
-0.006016771754797977 0.003502921411681335 0.0 -1.8737778968879316e-05 0.0 0.0
-0.004736951352446446 0.0025722842262196665 0.0 1.8455581003731032e-05 0.0 0.0
-0.0036759348915021486 0.0018462489550687359 0.0 2.9478363622801023e-05 0.0 0.0
-0.002733896677162446 0.0011707054916464102 0.0 -3.818893847244318e-06 0.0 0.0
-0.00197682060757599 0.0007717912700865761 0.0 0.00010129629253628552 0.0 0.0
-0.001342734769194017 0.0005642568851409694 0.0 0.0001356391399101777 0.0 0.0
-0.0006957290648893629 0.0002825375909230281 0.0 0.0001217655733907691 0.0 0.0
-0.0002132012170804732 6.410191773763597e-05 0.0 9.647721278262e-05 0.0 0.0
-4.814501989207664e-05 9.81862426859762e-06 0.0 8.307135558687927e-05 0.0 0.0
SCALARS Statev float 8
LOOKUP_TABLE default
0.0 0.00732612514704856 0.00547353515623465 -0.006942048079110436 0.0014685129228757918 -0.0003510467792724965 0.0 0.0
0.0 0.0016025247774401185 0.001016778211218112 -0.00039790917572144103 -0.0006188690354966726 -0.00253123616185317 0.0 0.0
0.0 -2.4811995753368727e-05 -4.550465034923503e-06 3.122192477698142e-06 1.4282725572257803e-06 -3.5094927236690637e-06 0.0 0.0
0.0 7.149623777442509e-05 -1.102579996576422e-05 8.196748569717583e-06 2.829051396046456e-06 -2.2273404682893211e-07 0.0 0.0
0.0 0.00028550423196322956 -4.750206056624368e-06 5.405307066300821e-06 -6.551010096761316e-07 1.861699215664005e-05 0.0 0.0
0.0 0.0003848694510505533 0.00048549761868452396 -0.00036487822971275317 -0.00012061938897177096 3.135307064628177e-05 0.0 0.0
0.0 0.0011801178148122381 0.0010961603877931428 -0.000848490265793652 -0.00024767012199949034 3.428594801706468e-05 0.0 0.0
0.0 0.002072729252452747 0.0019444740752084617 -0.0015411688263319693 -0.00040330524887649083 4.447420307837675e-05 0.0 0.0
0.0 0.003246066822833252 0.0030320574642754674 -0.0024647992524524957 -0.0005672582118229707 7.162201933934875e-05 0.0 0.0
0.0 0.004857440733517895 0.004449327502008342 -0.0037084287197317036 -0.0007408987822766384 0.00011362127308417188 0.0 0.0
0.0 0.007128659403240933 0.006389564171552755 -0.005459423557933465 -0.0009301406136192862 0.00021411526676434593 0.0 0.0
0.0 0.010121234949283183 0.009190710186039352 -0.00805602944801775 -0.0011346807380215992 0.00037808894516436393 0.0 0.0
0.0 0.014619892433774085 0.013215469642290409 -0.011879004271313791 -0.0013364653709766082 0.0004951449631434197 0.0 0.0
0.0 0.020921692211560157 0.018778860195126548 -0.017242520450137844 -0.0015363397449886951 0.0006065446536778255 0.0 0.0
0.0 0.029223122921248096 0.026050783489695244 -0.02432444215540598 -0.001726341334289276 0.0006442278148228079 0.0 0.0
0.0 0.03939969446804669 0.03489040273427445 -0.03298838710284989 -0.0019020156314245769 0.0005790268703126339 0.0 0.0
0.0 0.050762716718892986 0.04473608271587397 -0.04267624816110435 -0.002059834554769578 0.00040158911965491146 0.0 0.0
0.0 0.062158674847309595 0.054601232344493836 -0.05240739769157311 -0.002193834652920742 0.00015856694949538874 0.0 0.0
0.0 0.07214638091311502 0.06324130843321302 -0.06094625329323379 -0.0022950551399792633 -1.7634651659514857e-05 0.0 0.0
0.0 0.07905913997920673 0.06939478818331028 -0.06704719767632919 -0.002347590506981031 -0.00011769456372754446 0.0 0.0
0.0 0.08157821901151006 0.07171455641514335 -0.06936801930937274 -0.002346537105770619 6.960577947356938e-16 0.0 0.0
0.0 0.07905913997920445 0.06939478818330791 -0.06704719767632715 -0.0023475905069807674 0.00011769456373076758 0.0 0.0
0.0 0.07214638091310908 0.0632413084332078 -0.060946253293229 -0.002295055139978833 1.7634651663937968e-05 0.0 0.0
0.0 0.062158674847301164 0.05460123234448623 -0.05240739769156626 -0.002193834652919986 -0.00015856694949368936 0.0 0.0
0.0 0.05076271671888759 0.044736082715868555 -0.04267624816110061 -0.002059834554767941 -0.0004015891196537673 0.0 0.0
0.0 0.03939969446804045 0.03489040273426848 -0.03298838710284504 -0.0019020156314234439 -0.0005790268703126093 0.0 0.0
0.0 0.029223122921238444 0.026050783489686518 -0.024324442155397925 -0.0017263413342886043 -0.0006442278148232918 0.0 0.0
0.0 0.020921692211550564 0.01877886019511776 -0.017242520450130062 -0.0015363397449876931 -0.0006065446536779526 0.0 0.0
0.0 0.014619892433764149 0.01321546964228129 -0.01187900427130589 -0.0013364653709754023 -0.0004951449631436025 0.0 0.0
0.0 0.010121234949272036 0.00919071018602925 -0.00805602944800845 -0.0011346807380207932 -0.00037808894516457795 0.0 0.0
0.0 0.007128659403232609 0.006389564171544853 -0.005459423557926868 -0.0009301406136179833 -0.00021411526676461652 0.0 0.0
0.0 0.0048574407335086785 0.004449327502000099 -0.003708428719724286 -0.0007408987822758138 -0.00011362127308430275 0.0 0.0
0.0 0.0032460668228273164 0.00303205746426956 -0.002464799252447674 -0.0005672582118218858 -7.162201933962368e-05 0.0 0.0
0.0 0.002072729252446904 0.0019444740752024912 -0.0015411688263269727 -0.00040330524887551814 -4.4474203078395796e-05 0.0 0.0
0.0 0.0011801178148084471 0.0010961603877885843 -0.000848490265789987 -0.00024767012199859733 -3.4285948017171385e-05 0.0 0.0
0.0 0.00038486945104831277 0.00048549761868168064 -0.00036487822971055327 -0.00012061938897112746 -3.135307064608957e-05 0.0 0.0
0.0 0.0002855042319616482 -4.750206057108027e-06 5.405307066642157e-06 -6.551010095346836e-07 -1.861699215647896e-05 0.0 0.0
0.0 7.149623777388238e-05 -1.1025799965659802e-05 8.196748569641746e-06 2.8290513960185217e-06 2.2273404684293704e-07 0.0 0.0
0.0 -2.4811995753623128e-05 -4.5504650347435085e-06 3.1221924775874034e-06 1.428272557156111e-06 3.5094927234873688e-06 0.0 0.0
0.0 0.0016025247774371578 0.001016778211216891 -0.0003979091757209886 -0.0006188690354959008 0.0025312361618499233 0.0 0.0
0.0 0.00732612514704054 0.005473535156229493 -0.006942048079102086 0.001468512922872588 0.0003510467792613459 0.0 0.0
0.0 0.005727694508994358 0.003942252986289719 -0.005474676871216386 0.001532423884926664 -6.508594883100958e-05 0.0 0.0
0.0 0.0005853867644289538 0.00040947538447282003 -5.4094220407539294e-05 -0.00035538116406528023 -0.0014844521263006544 0.0 0.0
0.0 1.5319477317164204e-05 -1.636409829294079e-06 1.7318464155221605e-06 -9.543658622826576e-08 2.3544227098765334e-06 0.0 0.0
0.0 7.467978065355359e-06 -7.961622931434474e-07 5.360292496322876e-07 2.6013304351136995e-07 1.594436540044148e-07 0.0 0.0
0.0 8.132550484376175e-05 -1.5649130748657763e-05 1.210370783569212e-05 3.5454229129648583e-06 2.6332669845600158e-06 0.0 0.0
0.0 0.0004052549100671417 0.00022550375562714565 -0.00016925652875240198 -5.6247226874743444e-05 3.3860824249400305e-05 0.0 0.0
0.0 0.0008984001322538773 0.0008427847586688126 -0.0006603314377030024 -0.00018245332096580996 -3.5010474705687735e-05 0.0 0.0
0.0 0.0017219223673931858 0.0015971599922839342 -0.0012811920556954465 -0.0003159679365884878 -7.547376342549082e-05 0.0 0.0
0.0 0.0027956393369310125 0.0025689971848118164 -0.002113442988700246 -0.0004555541961115712 -0.00011506821821273972 0.0 0.0
0.0 0.004198919488125004 0.003836920777912458 -0.003237689323710305 -0.0005992314542021535 -0.00015498985372308736 0.0 0.0
0.0 0.006168497895668003 0.0055707772719198025 -0.0048245085098494725 -0.0007462687620703319 -0.00019037965044517197 0.0 0.0
0.0 0.00914502664113357 0.008057403400856545 -0.007168081239522915 -0.0008893221613336319 -0.00022425925571251446 0.0 0.0
0.0 0.012997722439337882 0.011685186915549152 -0.010668810300246367 -0.0010163766153027836 -0.0003501337468573575 0.0 0.0
0.0 0.018821053203938835 0.016758482649889068 -0.01563919921061056 -0.0011192834392785172 -0.0005997087411503629 0.0 0.0
0.0 0.02651145436020258 0.023451188275001172 -0.022255073275020992 -0.0011961149999801563 -0.0009538615205853797 0.0 0.0
0.0 0.03594989974742619 0.031632867659431026 -0.030388467602035382 -0.001244400057395661 -0.0014032806224203967 0.0 0.0
0.0 0.04654685740696047 0.04076911345919542 -0.03950474369270057 -0.001264369766494851 -0.001856168319002518 0.0 0.0
0.0 0.05724343410581327 0.04994873385072071 -0.04868571234487899 -0.0012630215058417023 -0.0021169306555959295 0.0 0.0
0.0 0.06665896144725164 0.05802851364809438 -0.056779525431065084 -0.0012489882170293163 -0.001957690731453276 0.0 0.0
0.0 0.07338022823284616 0.06376218856527167 -0.06254843170189081 -0.0012137568633808834 -0.0013809420602176204 0.0 0.0
0.0 0.0759849998070912 0.06591235090040777 -0.06474871797207227 -0.00116363292833546 2.727635825539032e-15 0.0 0.0
0.0 0.07338022823284401 0.06376218856526969 -0.06254843170188897 -0.001213756863380705 0.001380942060224597 0.0 0.0
0.0 0.06665896144724674 0.05802851364808999 -0.05677952543106107 -0.0012489882170289054 0.0019576907314606965 0.0 0.0
0.0 0.05724343410580586 0.049948733850714064 -0.048685712344872775 -0.0012630215058412827 0.0021169306555996084 0.0 0.0
0.0 0.04654685740695444 0.0407691134591898 -0.03950474369269591 -0.0012643697664938796 0.0018561683190036194 0.0 0.0
0.0 0.035949899747419856 0.03163286765942513 -0.030388467602030206 -0.0012444000573948893 0.0014032806224204774 0.0 0.0
0.0 0.026511454360194114 0.02345118827499357 -0.022255073275014036 -0.0011961149999795357 0.0009538615205853764 0.0 0.0
0.0 0.01882105320393028 0.016758482649881293 -0.01563919921060359 -0.0011192834392776915 0.0005997087411503622 0.0 0.0
0.0 0.012997722439328792 0.011685186915540878 -0.010668810300239015 -0.0010163766153018648 0.0003501337468570368 0.0 0.0
0.0 0.009145026641124156 0.008057403400847738 -0.007168081239514814 -0.0008893221613329245 0.00022425925571193907 0.0 0.0
0.0 0.006168497895659663 0.005570777271912131 -0.004824508509842776 -0.000746268762069353 0.00019037965044448694 0.0 0.0
0.0 0.004198919488117559 0.003836920777905137 -0.0032376893237037606 -0.0005992314542013742 0.00015498985372247283 0.0 0.0
0.0 0.0027956393369257095 0.002568997184806137 -0.0021134429886954494 -0.00045555419611068715 0.00011506821821229126 0.0 0.0
0.0 0.001721922367388539 0.001597159992279054 -0.0012811920556913667 -0.00031596793658768675 7.54737634250586e-05 0.0 0.0
0.0 0.0008984001322504721 0.0008427847586649009 -0.000660331437699809 -0.00018245332096509186 3.501047470532581e-05 0.0 0.0
0.0 0.0004052549100645072 0.00022550375562518544 -0.00016925652875088586 -5.624722687429968e-05 -3.386082424938243e-05 0.0 0.0
0.0 8.132550484279615e-05 -1.5649130748652098e-05 1.2103707835679961e-05 3.5454229129722685e-06 -2.6332669844536377e-06 0.0 0.0
0.0 7.467978065023354e-06 -7.961622930962181e-07 5.360292495970548e-07 2.601330434990899e-07 -1.5944365400420054e-07 0.0 0.0
0.0 1.5319477317123144e-05 -1.6364098292977148e-06 1.7318464155159045e-06 -9.543658621842395e-08 -2.354422709830916e-06 0.0 0.0
0.0 0.0005853867644264575 0.00040947538447155086 -5.4094220406921176e-05 -0.0003553811640646294 0.001484452126296684 0.0 0.0
0.0 0.005727694508985799 0.003942252986283713 -0.00547467687120747 0.0015324238849237564 6.508594882363658e-05 0.0 0.0
0.0 0.003932669598689786 0.002644501010025226 -0.003785352077409141 0.0011408510673839138 -0.0010892598391214928 0.0 0.0
0.0 0.0003152450894868807 0.00017364933017149025 4.230222250889532e-05 -0.0002159515526803855 -0.0008859877431209402 0.0 0.0
0.0 0.0 0.0 0.0 0.0 0.0 0.0 0.0
0.0 1.6196987412902269e-07 5.07516836358892e-08 -4.040391135278601e-08 -1.0347772283147763e-08 -2.370325994826249e-07 0.0 0.0
0.0 3.0061725682641564e-05 -3.9550759233222635e-06 2.955507725191543e-06 9.995681981314912e-07 -4.267876686694318e-08 0.0 0.0
0.0 0.00024041102114222095 5.1061832500089316e-05 -3.657013700534559e-05 -1.4491695494744877e-05 2.897323994646757e-05 0.0 0.0
0.0 0.0005474035156376124 0.0005657286975308015 -0.00043758737729600897 -0.00012814132023479223 -8.977943530801419e-05 0.0 0.0
0.0 0.0012952459664674503 0.0011999025132764457 -0.000952194502927809 -0.00024770801034863647 -0.00018991169443904703 0.0 0.0
0.0 0.0021837405330675267 0.0020368830884584465 -0.0016539350748960217 -0.000382948013562425 -0.0002860103613948218 0.0 0.0
0.0 0.0034252743296879448 0.003124237262011164 -0.0026016394545944187 -0.0005225978074167465 -0.0003870431725415234 0.0 0.0
0.0 0.005131589731853638 0.004615123225812938 -0.003947071111188365 -0.0006680521146245725 -0.000500544038995489 0.0 0.0
0.0 0.007491767831463833 0.006762778106948775 -0.005948869398360482 -0.0008139087085882942 -0.0006465205137769572 0.0 0.0
0.0 0.011246864219918119 0.009893721605808871 -0.00894952909679107 -0.000944192509017795 -0.0008948903502415496 0.0 0.0
0.0 0.016113764736441688 0.014369780372584646 -0.01332114857565256 -0.0010486317969320865 -0.0013562374512611371 0.0 0.0
0.0 0.02300390520343995 0.020344479060804155 -0.019221385514554448 -0.0011230935462497088 -0.002035765152367174 0.0 0.0
0.0 0.031496476093302715 0.027700571960776695 -0.026532058261578607 -0.0011685136991980729 -0.00286469073040829 0.0 0.0
0.0 0.04105968348092598 0.03596248677150162 -0.034773486818579384 -0.001188999952922237 -0.0036657677380090505 0.0 0.0
0.0 0.05075082611413146 0.04432530803204755 -0.04313402565993581 -0.0011912823721116693 -0.004096178800665894 0.0 0.0
0.0 0.059384499926286465 0.05174904569443214 -0.050573294402191764 -0.0011757512922403505 -0.0037913378693725207 0.0 0.0
0.0 0.06558801410471023 0.05705899490242611 -0.05591330689925372 -0.0011456880031723762 -0.0026633834709457425 0.0 0.0
0.0 0.06803917824315667 0.05909155038867414 -0.05801242832139786 -0.001079122067276347 5.255778451340731e-15 0.0 0.0
0.0 0.06558801410470845 0.057058994902424214 -0.05591330689925181 -0.001145688003172349 0.002663383470957759 0.0 0.0
0.0 0.059384499926281815 0.05174904569442786 -0.05057329440218772 -0.0011757512922401462 0.0037913378693845375 0.0 0.0
0.0 0.05075082611412554 0.04432530803204221 -0.04313402565993082 -0.0011912823721113822 0.0040961788006733555 0.0 0.0
0.0 0.04105968348091933 0.03596248677149569 -0.0347734868185741 -0.0011889999529216015 0.0036657677380117146 0.0 0.0
0.0 0.03149647609329712 0.02770057196077156 -0.026532058261574062 -0.0011685136991974943 0.002864690730408047 0.0 0.0
0.0 0.02300390520343327 0.020344479060797976 -0.019221385514549123 -0.0011230935462488588 0.002035765152367256 0.0 0.0
0.0 0.01611376473643371 0.014369780372577443 -0.013321148575645966 -0.0010486317969314776 0.001356237451261362 0.0 0.0
0.0 0.011246864219909888 0.009893721605801185 -0.00894952909678411 -0.0009441925090170679 0.0008948903502408535 0.0 0.0
0.0 0.0074917678314553714 0.0067627781069411015 -0.005948869398353535 -0.0008139087085875623 0.0006465205137759502 0.0 0.0
0.0 0.005131589731846589 0.004615123225805691 -0.0039470711111819394 -0.000668052114623751 0.0005005440389941685 0.0 0.0
0.0 0.0034252743296821816 0.0031242372620051556 -0.002601639454589243 -0.0005225978074159116 0.0003870431725405078 0.0 0.0
0.0 0.002183740533062919 0.0020368830884537185 -0.0016539350748920123 -0.0003829480135617068 0.00028601036139413007 0.0 0.0
0.0 0.0012952459664635006 0.0011999025132720365 -0.0009521945029242112 -0.00024770801034782494 0.00018991169443799232 0.0 0.0
0.0 0.0005474035156348369 0.0005657286975279128 -0.0004375873772936855 -0.00012814132023422712 8.977943530744933e-05 0.0 0.0
0.0 0.00024041102114069718 5.106183249941006e-05 -3.657013700485024e-05 -1.449169549455959e-05 -2.8973239946367024e-05 0.0 0.0
0.0 3.0061725681773427e-05 -3.955075923145973e-06 2.9555077250559913e-06 9.995681980900972e-07 4.267876692523453e-08 0.0 0.0
0.0 1.6196987402351605e-07 5.0751683652012e-08 -4.040391136506354e-08 -1.0347772286923351e-08 2.370325994783513e-07 0.0 0.0
0.0 0.0 0.0 0.0 0.0 0.0 0.0 0.0
0.0 0.0003152450894848464 0.00017364933017018213 4.230222250964139e-05 -0.00021595155267982357 0.0008859877431169162 0.0 0.0
0.0 0.003932669598681649 0.0026445010100195616 -0.00378535207740075 0.0011408510673811883 0.0010892598391163398 0.0 0.0
0.0 0.002755660209923283 0.0017893779824261278 -0.002604344529587131 0.0008149665471610026 -0.001201044928067682 0.0 0.0
0.0 0.000115593929974805 6.0442391935697827e-05 6.728564749808471e-05 -0.00012772803943378243 -0.0004886463825389872 0.0 0.0
0.0 0.0 0.0 0.0 0.0 0.0 0.0 0.0
0.0 2.7969504051437723e-08 -3.993514254552682e-09 2.784312103542317e-09 1.2092021510114187e-09 2.0414809259877924e-09 0.0 0.0
0.0 2.0582009981205472e-05 -3.104236045174635e-06 2.3275560123677335e-06 7.766800328068346e-07 6.390361482379574e-07 0.0 0.0
0.0 5.429148156548652e-05 -1.4934016200461565e-05 1.1858680654987831e-05 3.0753355454743356e-06 1.3158898094895434e-05 0.0 0.0
0.0 0.0004063145348521656 0.0002531951643891833 -0.0001918468094475017 -6.134835494168219e-05 -3.426308272907876e-05 0.0 0.0
0.0 0.0008957957560871069 0.0008248975462625572 -0.000647800214662313 -0.0001770973316002439 -0.00023636046214448655 0.0 0.0
0.0 0.001653574138421235 0.0015269652101563749 -0.00122405026175003 -0.00030291494840634396 -0.0003861222658054844 0.0 0.0
0.0 0.0026846720350673326 0.002442183731923496 -0.0020040071974894644 -0.00043817653443403135 -0.0005368990207700156 0.0 0.0
0.0 0.004060766515060819 0.0037019013683285288 -0.003120160809714792 -0.0005817405586137382 -0.0007118934927801358 0.0 0.0
0.0 0.006166704559656068 0.005508746482431104 -0.004781104450857189 -0.0007276420315739138 -0.0009389053757647974 0.0 0.0
0.0 0.00907406271279774 0.008181652875513675 -0.007316783068021132 -0.0008648698074925367 -0.0012969527315596962 0.0 0.0
0.0 0.013726284196864178 0.012026571081839191 -0.01105489933577833 -0.0009716717460608671 -0.0018932630937466383 0.0 0.0
0.0 0.019654583620400304 0.017253233850175163 -0.016207381130196066 -0.0010458527199790823 -0.0027881795950652965 0.0 0.0
0.0 0.026990095842068663 0.023756745872333153 -0.022665487129366065 -0.0010912587429671142 -0.0039049455774255487 0.0 0.0
0.0 0.03559160601611582 0.03111631613672162 -0.030003490975363672 -0.0011128251613579535 -0.00497362640250048 0.0 0.0
0.0 0.044328783762292885 0.03864734542226061 -0.037529921008192066 -0.0011174244140685675 -0.00555467245086803 0.0 0.0
0.0 0.05217999821201595 0.04542978554753708 -0.044324971333270055 -0.0011048142142669867 -0.005208833728618191 0.0 0.0
0.0 0.057898844730522384 0.0503866574498224 -0.04931035559538745 -0.001076301854434979 -0.0036442201590487764 0.0 0.0
0.0 0.06028320088463521 0.052357892294440274 -0.05137618831611721 -0.0009817039783230346 7.329640366871004e-15 0.0 0.0
0.0 0.057898844730520184 0.05038665744982006 -0.04931035559538501 -0.0010763018544350414 0.0036442201590645715 0.0 0.0
0.0 0.052179998212012114 0.045429785547533436 -0.04432497133326662 -0.0011048142142667753 0.005208833728632894 0.0 0.0
0.0 0.044328783762288694 0.03864734542225666 -0.03752992100818845 -0.001117424414068217 0.00555467245087708 0.0 0.0
0.0 0.035591606016110465 0.031116316136716768 -0.03000349097535946 -0.0011128251613572921 0.004973626402503286 0.0 0.0
0.0 0.026990095842063168 0.023756745872328136 -0.022665487129361547 -0.0010912587429665723 0.0039049455774252334 0.0 0.0
0.0 0.019654583620394628 0.01725323385016992 -0.016207381130191517 -0.0010458527199784112 0.0027881795950652575 0.0 0.0
0.0 0.013726284196856954 0.01202657108183256 -0.011054899335772061 -0.0009716717460604855 0.0018932630937464829 0.0 0.0
0.0 0.009074062712790815 0.008181652875507421 -0.007316783068015576 -0.000864869807491847 0.0012969527315588767 0.0 0.0
0.0 0.006166704559649346 0.005508746482424294 -0.004781104450850971 -0.0007276420315733224 0.000938905375763123 0.0 0.0
0.0 0.004060766515055034 0.0037019013683227023 -0.0031201608097097544 -0.0005817405586129485 0.0007118934927783684 0.0 0.0
0.0 0.0026846720350622577 0.0024421837319184283 -0.0020040071974851584 -0.0004381765344332703 0.0005368990207685001 0.0 0.0
0.0 0.0016535741384176052 0.001526965210152197 -0.0012240502617465428 -0.00030291494840565424 0.0003861222658044634 0.0 0.0
0.0 0.0008957957560834035 0.0008248975462589068 -0.000647800214659382 -0.0001770973315995246 0.00023636046214324145 0.0 0.0
0.0 0.0004063145348496004 0.0002531951643872919 -0.0001918468094460326 -6.13483549412589e-05 3.4263082728549055e-05 0.0 0.0
0.0 5.4291481564326324e-05 -1.4934016200532016e-05 1.1858680655029449e-05 3.0753355455022957e-06 -1.3158898094753056e-05 0.0 0.0
0.0 2.0582009980724127e-05 -3.104236045112055e-06 2.3275560123219874e-06 7.766800327901583e-07 -6.390361482181891e-07 0.0 0.0
0.0 2.7969504081147853e-08 -3.993514257424873e-09 2.7843121058454295e-09 1.209202151577698e-09 -2.0414809282561615e-09 0.0 0.0
0.0 0.0 0.0 0.0 0.0 0.0 0.0 0.0
0.0 0.00011559392997298254 6.0442391934650196e-05 6.728564749872975e-05 -0.00012772803943337984 0.0004886463825356548 0.0 0.0
0.0 0.0027556602099170825 0.0017893779824213235 -0.0026043445295800068 0.0008149665471586819 0.0012010449280633626 0.0 0.0
0.0 0.0017828525865563904 0.0011885067133619188 -0.001736075179259568 0.0005475684658976487 -0.0010525109512413853 0.0 0.0
0.0 0.00015973142814287457 -3.200683578719873e-05 0.00010661001709489327 -7.46031813076944e-05 -0.0001407103399412878 0.0 0.0
0.0 0.0 0.0 0.0 0.0 0.0 0.0 0.0
0.0 0.0 0.0 0.0 0.0 0.0 0.0 0.0
0.0 -7.737691250357112e-06 1.0098669560937012e-06 -7.952051250701086e-07 -2.1466183102365516e-07 -1.4888070859109598e-06 0.0 0.0
0.0 6.090791077371365e-05 -1.2023016381150349e-05 9.222514925818043e-06 2.800501455332505e-06 9.905020334429638e-06 0.0 0.0
0.0 0.0002442017687284902 1.4234925952834405e-05 -9.360935835454088e-06 -4.87399011738056e-06 2.6394613789074306e-05 0.0 0.0
0.0 0.0005392800719026331 0.00047539812079056486 -0.00036802275559132564 -0.0001073753651992388 -0.00018274080185219733 0.0 0.0
0.0 0.0011635774816714803 0.0010499878766123214 -0.0008317676240306854 -0.0002182202525816353 -0.0004115726095677142 0.0 0.0
0.0 0.001969983564147019 0.0017989948007786681 -0.0014534447706955928 -0.0003455500300830756 -0.0006048703005275231 0.0 0.0
0.0 0.003117372587493608 0.0028278837017800657 -0.002344163711362623 -0.00048371999041744177 -0.0008234860386719991 0.0 0.0
0.0 0.004819309370411896 0.004312713450932645 -0.0036825597730160676 -0.0006301536779165747 -0.0011051432735805825 0.0 0.0
0.0 0.00744651559967564 0.006518707879698177 -0.005747679559992569 -0.0007710283197056118 -0.001530938033040393 0.0 0.0
0.0 0.010973441471086155 0.009762240310066148 -0.008874678405504556 -0.0008875619045615908 -0.0022175211175519327 0.0 0.0
0.0 0.016236991084667952 0.014212019701699538 -0.0132476352962494 -0.0009643844054501357 -0.003240641058093109 0.0 0.0
0.0 0.022839338848887898 0.019817345713737566 -0.018808188325304457 -0.0010091573884330998 -0.004514677473188807 0.0 0.0
0.0 0.03015316271390071 0.026247625191770953 -0.025213956986404565 -0.0010336682053663758 -0.005748426017488405 0.0 0.0
0.0 0.03787300927198672 0.03292122047337935 -0.03187833195348498 -0.0010428885198943568 -0.006480639172480063 0.0 0.0
0.0 0.04497291578286969 0.03906147808836604 -0.0380269025167974 -0.001034575571568649 -0.006177977775762351 0.0 0.0
0.0 0.05032783207072656 0.04370815810226266 -0.042703531907419115 -0.0010046261948435514 -0.004371360049731945 0.0 0.0
0.0 0.05270240381161558 0.04565540728721126 -0.04478054473593114 -0.000874862551280138 7.702172233337023e-15 0.0 0.0
0.0 0.05032783207072372 0.043708158102259705 -0.04270353190741588 -0.0010046261948438134 0.0043713600497484835 0.0 0.0
0.0 0.0449729157828681 0.03906147808836396 -0.03802690251679577 -0.0010345755715682088 0.006177977775778056 0.0 0.0
0.0 0.037873009271983185 0.032921220473375805 -0.03187833195348184 -0.001042888519893963 0.006480639172489821 0.0 0.0
0.0 0.030153162713896734 0.026247625191767255 -0.025213956986401543 -0.0010336682053656893 0.005748426017491362 0.0 0.0
0.0 0.02283933884888295 0.01981734571373304 -0.01880818832530029 -0.001009157388432766 0.0045146774731884476 0.0 0.0
0.0 0.016236991084663047 0.014212019701695023 -0.013247635296245345 -0.0009643844054496746 0.00324064105809248 0.0 0.0
0.0 0.010973441471080338 0.009762240310060817 -0.008874678405499676 -0.0008875619045611372 0.0022175211175514886 0.0 0.0
0.0 0.007446515599670991 0.006518707879693273 -0.005747679559988404 -0.0007710283197048673 0.0015309380330394997 0.0 0.0
0.0 0.004819309370405907 0.004312713450926852 -0.003682559773010878 -0.0006301536779159742 0.0011051432735784614 0.0 0.0
0.0 0.0031173725874886313 0.0028278837017753043 -0.002344163711358658 -0.0004837199904166456 0.0008234860386698375 0.0 0.0
0.0 0.0019699835641431287 0.0017989948007745677 -0.0014534447706922048 -0.000345550030082363 0.0006048703005257717 0.0 0.0
0.0 0.0011635774816677793 0.0010499878766087665 -0.0008317676240277613 -0.0002182202525810048 0.00041157260956634274 0.0 0.0
0.0 0.0005392800719001131 0.00047539812078809283 -0.00036802275558937695 -0.00010737536519871614 0.00018274080185108624 0.0 0.0
0.0 0.00024420176872614696 1.4234925951676295e-05 -9.360935834578859e-06 -4.8739901170974044e-06 -2.639461378955499e-05 0.0 0.0
0.0 6.090791077298269e-05 -1.2023016380830823e-05 9.222514925574059e-06 2.800501455256927e-06 -9.90502033416314e-06 0.0 0.0
0.0 -7.737691250485663e-06 1.009866956110036e-06 -7.952051250828789e-07 -2.1466183102719435e-07 1.4888070859070433e-06 0.0 0.0
0.0 0.0 0.0 0.0 0.0 0.0 0.0 0.0
0.0 0.0 0.0 0.0 0.0 0.0 0.0 0.0
0.0 0.00015973142814051784 -3.200683578789191e-05 0.00010661001709532598 -7.460318130743372e-05 0.00014071033993896283 0.0 0.0
0.0 0.0017828525865514525 0.0011885067133581317 -0.0017360751792539152 0.000547568465895784 0.001052510951237931 0.0 0.0
0.0 0.0011657205009956055 0.0007265898192206984 -0.0010622270916750883 0.00033563727245439017 -0.0007611643623077447 0.0 0.0
0.0 -2.4643804820857536e-05 -5.110669727833321e-05 9.414231726919581e-05 -4.303561999086287e-05 -1.0260785585859077e-06 0.0 0.0
0.0 0.0 0.0 0.0 0.0 0.0 0.0 0.0
0.0 0.0 0.0 0.0 0.0 0.0 0.0 0.0
0.0 -1.932854331056878e-06 1.5821422625931317e-07 -1.202090518498264e-07 -3.8005174409474386e-08 -3.5231800451442257e-07 0.0 0.0
0.0 7.167139771717074e-06 2.2595341518082346e-08 -5.059273253861289e-08 2.799739102041995e-08 8.818494446461491e-08 0.0 0.0
0.0 6.9615349664994294e-06 -1.3197188069192138e-05 1.0677066535891517e-05 2.52012153330094e-06 2.0560607160363662e-05 0.0 0.0
0.0 0.00044060812021166977 0.0001083551668675963 -8.237144123646059e-05 -2.5983725631136594e-05 -3.166928773170514e-05 0.0 0.0
0.0 0.0006138885789194659 0.0006329585354285752 -0.0004947537123720538 -0.00013820482305652103 -0.0003523448613453059 0.0 0.0
0.0 0.0013508784272894879 0.0011962679509633016 -0.0009526153740276966 -0.00024365257693560537 -0.0005842289691940149 0.0 0.0
0.0 0.002224924691326408 0.002005238397693782 -0.001631492558120343 -0.00037374583957343885 -0.0008307371006167654 0.0 0.0
0.0 0.0035364509490576645 0.0031800276015911838 -0.002663036011320205 -0.0005169915902709784 -0.0011453472047942591 0.0 0.0
0.0 0.005557455390331911 0.004944181626665224 -0.004281027767760803 -0.000663153858904419 -0.0016003348985038526 0.0 0.0
0.0 0.008679023438518412 0.0075648158528630735 -0.006776971235849121 -0.000787844617013949 -0.0023138026426384713 0.0 0.0
0.0 0.012907817271886144 0.011237532708950275 -0.010363669040619552 -0.0008738636683307207 -0.0033823352636515335 0.0 0.0
0.0 0.018256700712986698 0.015934941248392058 -0.015011342225155455 -0.0009235990232365948 -0.0047220888272259095 0.0 0.0
0.0 0.02490028735972594 0.02138179234818389 -0.02043294796753991 -0.0009488443806439744 -0.006015544277610663 0.0 0.0
0.0 0.031503853332743526 0.02715064567132654 -0.026186336334023258 -0.0009643093373033006 -0.006837747591610171 0.0 0.0
0.0 0.03764387770268118 0.032631709997994314 -0.03166782507564066 -0.0009638849223536472 -0.006663402999297157 0.0 0.0
0.0 0.04271309217492399 0.036986546370452254 -0.03605476716958208 -0.0009317792008701315 -0.0048481920137783486 0.0 0.0
0.0 0.04513226712992125 0.038938311285385406 -0.038179309613009 -0.0007590016723764069 7.442397392809497e-15 0.0 0.0
0.0 0.042713092174921446 0.03698654637044948 -0.036054767169579005 -0.0009317792008704287 0.004848192013794336 0.0 0.0
0.0 0.03764387770267886 0.03263170999799149 -0.03166782507563794 -0.0009638849223535541 0.006663402999312863 0.0 0.0
0.0 0.031503853332739994 0.027150645671323193 -0.026186336334020018 -0.0009643093373031687 0.0068377475916191355 0.0 0.0
0.0 0.024900287359722804 0.021381792348180967 -0.020432947967537536 -0.0009488443806434459 0.00601554427761384 0.0 0.0
0.0 0.01825670071298337 0.015934941248388856 -0.015011342225152728 -0.0009235990232361292 0.004722088827225345 0.0 0.0
0.0 0.012907817271881884 0.01123753270894644 -0.010363669040616039 -0.0008738636683303986 0.003382335263650636 0.0 0.0
0.0 0.008679023438514333 0.007564815852858977 -0.006776971235845501 -0.0007878446170134715 0.002313802642637741 0.0 0.0
0.0 0.0055574553903268405 0.004944181626660505 -0.004281027767756623 -0.0006631538589038813 0.0016003348985024221 0.0 0.0
0.0 0.0035364509490529265 0.0031800276015866 -0.0026630360113161704 -0.0005169915902704296 0.0011453472047922267 0.0 0.0
0.0 0.0022249246913219937 0.002005238397689525 -0.001631492558116776 -0.00037374583957274827 0.0008307371006143487 0.0 0.0
0.0 0.0013508784272862513 0.0011962679509601878 -0.0009526153740252743 -0.0002436525769349138 0.0005842289691922427 0.0 0.0
0.0 0.0006138885789175653 0.000632958535426054 -0.0004947537123700647 -0.00013820482305598893 0.00035234486134379456 0.0 0.0
0.0 0.0004406081202088195 0.0001083551668659624 -8.237144123520246e-05 -2.5983725630760182e-05 3.1669287730791075e-05 0.0 0.0
0.0 6.961534965747347e-06 -1.3197188068896246e-05 1.0677066535663633e-05 2.5201215332331122e-06 -2.0560607159984337e-05 0.0 0.0
0.0 7.167139770644506e-06 2.2595341637195163e-08 -5.0592732629081406e-08 2.799739099170775e-08 -8.818494432084679e-08 0.0 0.0
0.0 -1.9328543309110656e-06 1.5821422624477898e-07 -1.20209051838583e-07 -3.8005174406152786e-08 3.5231800448983585e-07 0.0 0.0
0.0 0.0 0.0 0.0 0.0 0.0 0.0 0.0
0.0 0.0 0.0 0.0 0.0 0.0 0.0 0.0
0.0 -2.4643804822558405e-05 -5.11066972786581e-05 9.414231726934981e-05 -4.3035619990691724e-05 1.0260785573432074e-06 0.0 0.0
0.0 0.0011657205009923126 0.0007265898192177496 -0.001062227091670711 0.00033563727245296043 0.000761164362304822 0.0 0.0
0.0 0.0005673149912978618 0.00040034220450486046 -0.0005814034669057494 0.00018106126240088842 -0.0004821239291237596 0.0 0.0
0.0 -3.6137035802690195e-05 -6.02023150967721e-05 8.47544475234185e-05 -2.455213242664633e-05 7.983484980774035e-05 0.0 0.0
0.0 0.0 0.0 0.0 0.0 0.0 0.0 0.0
0.0 0.0 0.0 0.0 0.0 0.0 0.0 0.0
0.0 -2.2690207998078864e-06 1.6102355514303578e-07 -1.2676895664225512e-07 -3.42545985007835e-08 -4.083777630317215e-07 0.0 0.0
0.0 -1.631523645797654e-06 -5.411771661662969e-07 4.686448484887027e-07 7.253231767759012e-08 1.2661039096786345e-06 0.0 0.0
0.0 3.9760253354144595e-05 -7.541061282310188e-06 5.6192252514066585e-06 1.921836030903584e-06 8.870713906163797e-06 0.0 0.0
0.0 3.408881837806596e-05 6.055926642207404e-06 -4.02871479909655e-06 -2.0272118431106154e-06 8.154606088608909e-06 0.0 0.0
0.0 0.0005540367594038907 0.00016230147884687508 -0.000126270737263039 -3.6030741583835984e-05 -9.79690680990412e-05 0.0 0.0
0.0 0.0006869732946287843 0.0006734496311703332 -0.0005289699937610302 -0.00014447963740930279 -0.0004667687277517068 0.0 0.0
0.0 0.0014334330120374062 0.001244527229725744 -0.0009947185097721766 -0.00024980871995356694 -0.0007315751285480157 0.0 0.0
0.0 0.0024074393692262684 0.0021172744256627947 -0.0017338863259437382 -0.0003833880997190554 -0.0010526053291716755 0.0 0.0
0.0 0.003912218135546087 0.0034509492684491527 -0.002920326233060909 -0.0005306230353882408 -0.0015025582409420504 0.0 0.0
0.0 0.0062535142984365705 0.005473542416182546 -0.004806333605351586 -0.0006672088108309595 -0.0021911920337648596 0.0 0.0
0.0 0.009584051435765035 0.008357794112262201 -0.007589761770856097 -0.0007680323414061001 -0.003208974442875364 0.0 0.0
0.0 0.014245521995747749 0.012110707389593545 -0.011285593339838735 -0.0008251140497548198 -0.00450493104551563 0.0 0.0
0.0 0.019121982604467815 0.016565734362709056 -0.01570805015988873 -0.0008576842028203277 -0.005794122560964506 0.0 0.0
0.0 0.02492283660473889 0.02136939024727452 -0.020489253395047695 -0.0008801368522268481 -0.0066521047838764965 0.0 0.0
0.0 0.030562045037794083 0.026124192273397746 -0.025235275177554268 -0.0008889170958434729 -0.006629986871155047 0.0 0.0
0.0 0.035161246704989296 0.03017686757309272 -0.029319032153324306 -0.0008578354197684083 -0.005045120406351816 0.0 0.0
0.0 0.03769452685426 0.03215798064110428 -0.031524373855005255 -0.0006336067860990175 6.1135992102112624e-15 0.0 0.0
0.0 0.03516124670498872 0.03017686757309138 -0.029319032153322922 -0.0008578354197684677 0.005045120406366242 0.0 0.0
0.0 0.03056204503779085 0.02612419227339428 -0.025235275177550802 -0.0008889170958434593 0.006629986871168681 0.0 0.0
0.0 0.024922836604735703 0.02136939024727147 -0.02048925339504479 -0.0008801368522266739 0.006652104783883905 0.0 0.0
0.0 0.01912198260446487 0.01656573436270637 -0.01570805015988648 -0.0008576842028198804 0.005794122560966577 0.0 0.0
0.0 0.014245521995743603 0.01211070738958998 -0.011285593339835392 -0.0008251140497545817 0.004504931045514729 0.0 0.0
0.0 0.009584051435762067 0.008357794112259235 -0.007589761770853397 -0.0007680323414058338 0.0032089744428745494 0.0 0.0
0.0 0.006253514298433574 0.005473542416179625 -0.004806333605349123 -0.0006672088108305009 0.002191192033764086 0.0 0.0
0.0 0.003912218135541691 0.003450949268445286 -0.0029203262330573885 -0.000530623035387897 0.0015025582409404466 0.0 0.0
0.0 0.0024074393692222838 0.002117274425659155 -0.0017338863259406287 -0.000383388099718526 0.0010526053291695062 0.0 0.0
0.0 0.0014334330120339002 0.001244527229722666 -0.0009947185097696433 -0.0002498087199530225 0.0007315751285455486 0.0 0.0
0.0 0.0006869732946263155 0.0006734496311677752 -0.000528969993759002 -0.00014447963740877323 0.00046676872774989225 0.0 0.0
0.0 0.0005540367594009891 0.00016230147884525233 -0.00012627073726178024 -3.603074158347184e-05 9.796906809782946e-05 0.0 0.0
0.0 3.4088818377194194e-05 6.055926642064307e-06 -4.028714798970066e-06 -2.0272118430942635e-06 -8.154606088665352e-06 0.0 0.0
0.0 3.976025335379414e-05 -7.541061281986958e-06 5.619225251153104e-06 1.9218360308341157e-06 -8.87071390559109e-06 0.0 0.0
0.0 -1.6315236464516811e-06 -5.411771661814495e-07 4.686448485004385e-07 7.253231768108315e-08 -1.26610390965394e-06 0.0 0.0
0.0 -2.2690207995827993e-06 1.610235551245103e-07 -1.2676895662781551e-07 -3.4254598496730556e-08 4.0837776298745094e-07 0.0 0.0
0.0 0.0 0.0 0.0 0.0 0.0 0.0 0.0
0.0 0.0 0.0 0.0 0.0 0.0 0.0 0.0
0.0 -3.6137035802911827e-05 -6.020231509637559e-05 8.475444752288547e-05 -2.4552132426509857e-05 -7.98348498071228e-05 0.0 0.0
0.0 0.0005673149912950821 0.0004003422045026198 -0.0005814034669025369 0.0001810612623999169 0.00048212392912092846 0.0 0.0
0.0 0.0004711998643695081 5.952728630712219e-05 -8.744308070679167e-05 2.7915794399671068e-05 -6.124344903784896e-05 0.0 0.0
0.0 -5.264771745169278e-05 -1.0544947548656133e-05 1.4571389487060706e-05 -4.026441938404787e-06 1.484196241012453e-05 0.0 0.0
0.0 0.0 0.0 0.0 0.0 0.0 0.0 0.0
0.0 0.0 0.0 0.0 0.0 0.0 0.0 0.0
0.0 4.00680740973987e-07 -2.8878313431516147e-08 2.1849898976480034e-08 7.028414455033885e-09 7.50956180555359e-08 0.0 0.0
0.0 -4.9528567392169534e-06 3.396958596413283e-07 -2.653217110967951e-07 -7.437414854451654e-08 -9.642082004293217e-07 0.0 0.0
0.0 4.8542358207429605e-06 -1.4942532935622784e-06 1.1998432272769412e-06 2.9441006628530603e-07 5.178359185529929e-06 0.0 0.0
0.0 -1.430078343578352e-05 -7.256905282189835e-06 5.618002521733564e-06 1.6389027604563885e-06 5.823657901418055e-06 0.0 0.0
0.0 5.734062629770497e-05 3.931034715367049e-06 -3.4499466026749955e-06 -4.810881126925344e-07 -2.118856341696622e-06 0.0 0.0
0.0 0.0005051615190382975 0.00015395203947829764 -0.00012185808973496021 -3.209394974333726e-05 -0.00013930682886103583 0.0 0.0
0.0 0.0007612993158377761 0.0005706179703903908 -0.00045192609029985777 -0.00011869188009053316 -0.0005039777141112734 0.0 0.0
0.0 0.0013604614631298041 0.0011616089871072002 -0.0009312218905086223 -0.00023038709659857696 -0.0008325847356711304 0.0 0.0
0.0 0.002423276191324393 0.0020698707933873546 -0.0017047269549219871 -0.00036514383846536806 -0.0012407432419892582 0.0 0.0
0.0 0.004067320941102309 0.003503261688144917 -0.0029942659902752362 -0.0005089956978696791 -0.0018488054034171797 0.0 0.0
0.0 0.006611388332423181 0.005600092372751973 -0.0049717802908713 -0.0006283120818806717 -0.0027462489620593143 0.0 0.0
0.0 0.009896397321824771 0.008407206273287893 -0.007701577330085104 -0.0007056289432027939 -0.0038815628854578085 0.0 0.0
0.0 0.014109701998120271 0.011807505911834881 -0.011058914487912776 -0.000748591423922113 -0.00506108278513065 0.0 0.0
0.0 0.01850998154425735 0.015603791286936376 -0.01482264087515312 -0.0007811504117832548 -0.005913572827546011 0.0 0.0
0.0 0.022914658870010454 0.01956168458593783 -0.018755638544012583 -0.000806046041925244 -0.006061461761654101 0.0 0.0
0.0 0.027271440806712094 0.023247742134653873 -0.022465761727202226 -0.0007819804074516481 -0.004917253895853887 0.0 0.0
0.0 0.030001757072645983 0.02527158898188782 -0.0247756980037099 -0.0004958909781779165 5.040239059450613e-15 0.0 0.0
0.0 0.027271440806711747 0.023247742134652662 -0.022465761727200894 -0.0007819804074517639 0.004917253895865877 0.0 0.0
0.0 0.022914658870008126 0.019561684585935095 -0.018755638544009925 -0.0008060460419251583 0.006061461761665202 0.0 0.0
0.0 0.018509981544255292 0.015603791286934322 -0.014822640875151179 -0.0007811504117831543 0.005913572827552242 0.0 0.0
0.0 0.014109701998117598 0.011807505911832557 -0.011058914487910946 -0.0007485914239216049 0.005061082785131467 0.0 0.0
0.0 0.009896397321821121 0.008407206273284867 -0.007701577330082131 -0.0007056289432027307 0.0038815628854563813 0.0 0.0
0.0 0.006611388332420936 0.0056000923727498025 -0.004971780290869483 -0.0006283120818803223 0.0027462489620585138 0.0 0.0
0.0 0.0040673209411002265 0.0035032616881430986 -0.0029942659902738268 -0.000508995697869272 0.001848805403416532 0.0 0.0
0.0 0.0024232761913219477 0.002069870793385115 -0.0017047269549200668 -0.00036514383846504686 0.0012407432419879307 0.0 0.0
0.0 0.0013604614631269932 0.0011616089871046961 -0.0009312218905065066 -0.00023038709659818903 0.000832584735669262 0.0 0.0
0.0 0.0007612993158358036 0.0005706179703886915 -0.0004519260902985686 -0.00011869188009012314 0.000503977714109464 0.0 0.0
0.0 0.0005051615190363107 0.00015395203947697885 -0.00012185808973391035 -3.209394974306871e-05 0.00013930682885980616 0.0 0.0
0.0 5.734062629670385e-05 3.931034715131831e-06 -3.4499466024886834e-06 -4.810881126431433e-07 2.1188563413079457e-06 0.0 0.0
0.0 -1.4300783436098564e-05 -7.256905282041235e-06 5.618002521616785e-06 1.6389027604244058e-06 -5.823657901109186e-06 0.0 0.0
0.0 4.854235820090171e-06 -1.4942532935205707e-06 1.199843227244887e-06 2.9441006627561285e-07 -5.178359185415354e-06 0.0 0.0
0.0 -4.952856738941776e-06 3.3969585961934373e-07 -2.653217110800664e-07 -7.437414853926553e-08 9.642082003680188e-07 0.0 0.0
0.0 4.006807409407356e-07 -2.8878313428910534e-08 2.1849898974519844e-08 7.028414454393015e-09 -7.509561804869276e-08 0.0 0.0
0.0 0.0 0.0 0.0 0.0 0.0 0.0 0.0
0.0 0.0 0.0 0.0 0.0 0.0 0.0 0.0
0.0 -5.264771745184944e-05 -1.0544947548437118e-05 1.4571389486765056e-05 -4.026441938328058e-06 -1.4841962409755287e-05 0.0 0.0
0.0 0.0004711998643663729 5.952728630599287e-05 -8.744308070515989e-05 2.7915794399168035e-05 6.124344903637309e-05 0.0 0.0
0.0 5.581634976744367e-05 -1.1988914355991132e-05 1.7438177154648127e-05 -5.449262798656886e-06 1.7970634998375966e-05 0.0 0.0
0.0 -8.863802095187662e-06 1.702044169523854e-06 -2.4479126903025013e-06 7.458685207786311e-07 -2.677774547826679e-06 0.0 0.0
0.0 0.0 0.0 0.0 0.0 0.0 0.0 0.0
0.0 0.0 0.0 0.0 0.0 0.0 0.0 0.0
0.0 0.0 0.0 0.0 0.0 0.0 0.0 0.0
0.0 -9.072168349631247e-06 4.982656087807946e-07 -3.867724655941964e-07 -1.1149314318659192e-07 -2.2584927288381657e-06 0.0 0.0
0.0 1.84732233157953e-05 -5.105511114764384e-07 3.957082049645343e-07 1.1484290651188996e-07 3.685862918300668e-06 0.0 0.0
0.0 4.4803090526143396e-05 -5.975103497013045e-06 4.658365795704364e-06 1.3167377013086943e-06 2.0972669087502114e-05 0.0 0.0
0.0 2.214819381289595e-05 -5.439111346139997e-06 4.44873665037177e-06 9.903746957681476e-07 9.334022465211021e-06 0.0 0.0
0.0 0.00010355715762328568 -2.708247519029462e-05 2.0417922381191243e-05 6.6645528091032075e-06 3.2239292203466055e-05 0.0 0.0
0.0 0.0001610910451244896 9.439659993002137e-05 -7.75052824394358e-05 -1.6891317490585385e-05 -0.0001995861288561672 0.0 0.0
0.0 0.0005198836534714164 0.0003590609639296906 -0.00029042010037445387 -6.864086355523679e-05 -0.00047508036025425125 0.0 0.0
0.0 0.0011211271893369614 0.0008664684405526842 -0.0007021939084579261 -0.00016427453209475745 -0.0008381834852713864 0.0 0.0
0.0 0.002114323397169042 0.0017172632626888107 -0.001425436003730815 -0.00029182725895799587 -0.001324401111841691 0.0 0.0
0.0 0.0037281627208976768 0.0030355872119793145 -0.0026121742872852634 -0.0004234129246940506 -0.00201913488735533 0.0 0.0
0.0 0.006023662306294089 0.004872268206391924 -0.004345756046333171 -0.0005265121600587527 -0.002923236529136951 0.0 0.0
0.0 0.008894816570473123 0.0071935012908724005 -0.006597332237149561 -0.0005961690537228413 -0.0039010656019529515 0.0 0.0
0.0 0.012052043359605236 0.009924043356074297 -0.009276924921120876 -0.0006471184349534195 -0.004697241254080059 0.0 0.0
0.0 0.015580655623641413 0.012967279960953551 -0.012275799822039368 -0.0006914801389141759 -0.004952253583742978 0.0 0.0
0.0 0.019507741263721855 0.016169811343047413 -0.015474646552869207 -0.0006951647901782079 -0.004346248325823785 0.0 0.0
0.0 0.022142039486276268 0.018241506684568063 -0.017896787656699567 -0.0003447190278684956 3.582854499195598e-15 0.0 0.0
0.0 0.01950774126372097 0.016169811343045716 -0.015474646552867294 -0.0006951647901784241 0.00434624832583186 0.0 0.0
0.0 0.015580655623639191 0.012967279960950998 -0.012275799822036927 -0.0006914801389140744 0.004952253583751185 0.0 0.0
0.0 0.012052043359603384 0.009924043356072767 -0.00927692492111953 -0.0006471184349532298 0.00469724125408466 0.0 0.0
0.0 0.008894816570471389 0.007193501290870955 -0.0065973322371484875 -0.00059616905372247 0.0039010656019529653 0.0 0.0
0.0 0.006023662306292236 0.004872268206390538 -0.004345756046331902 -0.0005265121600586342 0.0029232365291354248 0.0 0.0
0.0 0.0037281627208954316 0.0030355872119775165 -0.0026121742872837112 -0.00042341292469380494 0.002019134887354538 0.0 0.0
0.0 0.0021143233971678307 0.001717263262687487 -0.0014254360037296771 -0.0002918272589578099 0.0013244011118413725 0.0 0.0
0.0 0.0011211271893358755 0.0008664684405514176 -0.0007021939084569173 -0.00016427453209450047 0.0008381834852700277 0.0 0.0
0.0 0.000519883653469946 0.00035906096392853505 -0.000290420100373582 -6.864086355495307e-05 0.00047508036025273716 0.0 0.0
0.0 0.0001610910451231712 9.439659992932957e-05 -7.750528243888422e-05 -1.6891317490445245e-05 0.0001995861288548529 0.0 0.0
0.0 0.00010355715762264402 -2.708247519028314e-05 2.0417922381201943e-05 6.66455280908105e-06 -3.223929220363023e-05 0.0 0.0
0.0 2.2148193812361083e-05 -5.439111346094714e-06 4.448736650341069e-06 9.903746957533927e-07 -9.33402246514207e-06 0.0 0.0
0.0 4.480309052581468e-05 -5.9751034969600125e-06 4.658365795659818e-06 1.3167377013002055e-06 -2.0972669087320547e-05 0.0 0.0
0.0 1.847322331533479e-05 -5.105511114521095e-07 3.957082049459113e-07 1.1484290650626915e-07 -3.685862918171591e-06 0.0 0.0
0.0 -9.072168349471412e-06 4.982656087711078e-07 -3.8677246558664767e-07 -1.1149314318447623e-07 2.2584927287928677e-06 0.0 0.0
0.0 0.0 0.0 0.0 0.0 0.0 0.0 0.0
0.0 0.0 0.0 0.0 0.0 0.0 0.0 0.0
0.0 0.0 0.0 0.0 0.0 0.0 0.0 0.0
0.0 -8.863802095335413e-06 1.702044169546893e-06 -2.447912690331555e-06 7.458685207846881e-07 2.6777745478733673e-06 0.0 0.0
0.0 5.581634976608942e-05 -1.1988914356023904e-05 1.7438177154699372e-05 -5.449262798675754e-06 -1.7970634998373517e-05 0.0 0.0
0.0 6.826823162242884e-05 -5.7715501761118105e-06 8.492934849836048e-06 -2.7213846737240947e-06 1.0059685200653578e-05 0.0 0.0
0.0 -9.59913169528575e-06 7.728648721350623e-07 -1.1391835939692354e-06 3.6631872183415395e-07 -1.442958099082624e-06 0.0 0.0
0.0 1.6903313841367508e-06 1.4041178626305554e-09 5.0236269240751465e-09 -6.427744786705188e-09 3.5535033864256705e-07 0.0 0.0
0.0 0.0 0.0 0.0 0.0 0.0 0.0 0.0
0.0 0.0 0.0 0.0 0.0 0.0 0.0 0.0
0.0 -4.350528690094716e-06 8.966451506068893e-08 -6.878447430476709e-08 -2.0880040755924507e-08 -1.0553212821774312e-06 0.0 0.0
0.0 1.0245710281972232e-05 -1.7358796563429243e-07 1.267852672516477e-07 4.6802698382662727e-08 2.433276411275923e-06 0.0 0.0
0.0 1.1958783470246758e-05 -7.620406835389276e-07 6.914031041796257e-07 7.063757935926027e-08 5.956427603864314e-06 0.0 0.0
0.0 2.1789988996079565e-05 2.8547717822163784e-07 -4.695266775723191e-07 1.8404949935071682e-07 1.2793476930620867e-06 0.0 0.0
0.0 8.142281069210686e-06 -1.192453587315721e-06 1.0928257244532989e-06 9.96278628625161e-08 7.3584858946839865e-06 0.0 0.0
0.0 0.00013158429401417509 -9.787909942304235e-06 7.071679537499643e-06 2.716230404804505e-06 3.1264598389114244e-05 0.0 0.0
0.0 0.00011478074499918393 1.0934394473571342e-05 -1.015840527376373e-05 -7.759891998078617e-07 -0.00016515355378796646 0.0 0.0
0.0 0.00024167002093451452 7.082789394982915e-05 -6.28307425178621e-05 -7.997151431966936e-06 -0.00036003958560925725 0.0 0.0
0.0 0.0006158084332120731 0.00029315603958213215 -0.00025824289995328805 -3.491313962884384e-05 -0.0007243109804846483 0.0 0.0
0.0 0.0013043895351931589 0.0007841191320641664 -0.0006900558647508146 -9.4063267313352e-05 -0.0012700979870960217 0.0 0.0
0.0 0.0024936613832859987 0.0016731045504357832 -0.0014843510138253027 -0.00018875353661048025 -0.0019576970521459577 0.0 0.0
0.0 0.004153352781724436 0.002898825760844862 -0.002609870937503081 -0.0002889548233417823 -0.0027416661634728084 0.0 0.0
0.0 0.0063389417685337625 0.004509077451040028 -0.0041185116340068635 -0.0003905658170331627 -0.003503403231225649 0.0 0.0
0.0 0.008840835607086425 0.006538831471844671 -0.0060666514905572165 -0.00047217998128745893 -0.003839223569666592 0.0 0.0
0.0 0.011603198224817228 0.009024771262088642 -0.008483327367401226 -0.0005414438946874129 -0.003398849112881676 0.0 0.0
0.0 0.014846917778132653 0.011073171216209609 -0.010915591489603678 -0.00015757972660592552 2.482389294122811e-15 0.0 0.0
0.0 0.01160319822481854 0.009024771262088766 -0.008483327367401138 -0.0005414438946876317 0.003398849112886443 0.0 0.0
0.0 0.008840835607084629 0.006538831471842864 -0.006066651490555566 -0.0004721799812873033 0.0038392235696712218 0.0 0.0
0.0 0.006338941768532321 0.00450907745103904 -0.004118511634005798 -0.00039056581703323794 0.0035034032312277284 0.0 0.0
0.0 0.004153352781722112 0.002898825760843648 -0.002609870937502114 -0.00028895482334153423 0.0027416661634713556 0.0 0.0
0.0 0.0024936613832861752 0.0016731045504357498 -0.0014843510138252201 -0.00018875353661053116 0.001957697052145609 0.0 0.0
0.0 0.0013043895351920636 0.0007841191320633965 -0.0006900558647500567 -9.406326731333931e-05 0.0012700979870952144 0.0 0.0
0.0 0.0006158084332116369 0.0002931560395817899 -0.0002582428999529953 -3.491313962879469e-05 0.0007243109804843928 0.0 0.0
0.0 0.00024167002093381494 7.08278939495324e-05 -6.283074251758878e-05 -7.997151431943714e-06 0.00036003958560814963 0.0 0.0
0.0 0.00011478074499846828 1.0934394473515431e-05 -1.0158405273729544e-05 -7.759891997858198e-07 0.00016515355378716296 0.0 0.0
0.0 0.0001315842940132158 -9.787909942479725e-06 7.071679537655754e-06 2.7162304048239256e-06 -3.126459838999279e-05 0.0 0.0
0.0 8.14228106945256e-06 -1.1924535873361676e-06 1.0928257244692796e-06 9.962786286687153e-08 -7.358485894819518e-06 0.0 0.0
0.0 2.1789988995890524e-05 2.8547717827711934e-07 -4.695266776170095e-07 1.8404949933993777e-07 -1.2793476927214196e-06 0.0 0.0
0.0 1.1958783469982406e-05 -7.620406835363719e-07 6.91403104177256e-07 7.063757935911106e-08 -5.956427603829192e-06 0.0 0.0
0.0 1.0245710281448204e-05 -1.7358796562138627e-07 1.2678526724200202e-07 4.680269837932477e-08 -2.4332764111328903e-06 0.0 0.0
0.0 -4.35052868993081e-06 8.966451505636322e-08 -6.878447430147904e-08 -2.0880040754868512e-08 1.0553212821323173e-06 0.0 0.0
0.0 0.0 0.0 0.0 0.0 0.0 0.0 0.0
0.0 0.0 0.0 0.0 0.0 0.0 0.0 0.0
0.0 1.690331383703001e-06 1.4041178622619178e-09 5.023626922704755e-09 -6.427744784966377e-09 -3.553503385472155e-07 0.0 0.0
0.0 -9.599131694985572e-06 7.728648721181144e-07 -1.1391835939439258e-06 3.6631872182576806e-07 1.4429580990262488e-06 0.0 0.0
0.0 6.82682316210558e-05 -5.771550175984572e-06 8.492934849649873e-06 -2.721384673664979e-06 -1.0059685200423491e-05 0.0 0.0
0.0 -6.689162529516124e-06 5.153453704076518e-07 -7.454773120171686e-07 2.3013194160944292e-07 -1.0206774413974182e-06 0.0 0.0
0.0 1.0175381820571315e-06 -6.89423767850747e-08 1.0023570205081176e-07 -3.129332526572712e-08 1.6225785451259157e-07 0.0 0.0
0.0 -4.5292292932042414e-07 -3.7623224736997133e-10 -1.3460767773811802e-09 1.7223090247510138e-09 -9.52158362694018e-08 0.0 0.0
0.0 0.0 0.0 0.0 0.0 0.0 0.0 0.0
0.0 -3.8981014119609586e-07 1.5682329915048197e-09 1.2896382040935836e-09 -2.8578711956001793e-09 -7.657713423740639e-08 0.0 0.0
0.0 -2.9006235300965383e-06 -1.4575885403520627e-08 6.492816172937077e-09 8.083069230588986e-09 -7.857973611735071e-07 0.0 0.0
0.0 1.2196517218122843e-05 3.131426929266121e-08 -3.982879318435302e-08 8.514523891697174e-09 3.0102338329546878e-06 0.0 0.0
0.0 1.1056211720641032e-06 4.867556530467994e-09 -8.47222721556892e-09 3.604670685109691e-09 -2.3274800707773495e-07 0.0 0.0
0.0 4.1755066318320724e-05 -1.1420198464801927e-10 -1.6223903142997723e-09 1.7365922989040105e-09 1.4789729509797927e-05 0.0 0.0
0.0 9.305974100183883e-06 -3.278660679722417e-09 2.3295926155781742e-09 9.4906806413609e-10 4.248153565050718e-06 0.0 0.0
0.0 7.322998387708106e-05 1.0523951853433491e-07 -9.363187171967004e-08 -1.1607646814663815e-08 4.9753306682606654e-05 0.0 0.0
0.0 7.279191640410982e-05 -3.9451214922314333e-07 3.2695552598747644e-07 6.755662323567197e-08 -0.00011936497407045744 0.0 0.0
0.0 0.00014736910230585883 2.1402124903600683e-07 -2.0081455127365072e-07 -1.3206697762370078e-08 -0.0002547660774880955 0.0 0.0
0.0 0.0002686637158714904 -2.514768083152682e-07 4.180013961271021e-07 -1.6652458781185154e-07 -0.00047906551158502687 0.0 0.0
0.0 0.00048415480335979236 -4.4619541418596785e-06 4.608036561227523e-06 -1.460824193678766e-07 -0.0008729055975975548 0.0 0.0
0.0 0.000718973743877738 -3.095039079414296e-05 2.4643221844839842e-05 6.307168949303108e-06 -0.0015898845360480525 0.0 0.0
0.0 0.001228786916202324 -1.7910139355999528e-05 -5.839701636365296e-06 2.374984099236502e-05 -0.0025616102111869765 0.0 0.0
0.0 0.0022072706773628246 0.00027879712202591754 -0.0003350741816844382 5.627705965852022e-05 -0.003502324706574922 0.0 0.0
0.0 0.003583210498632367 0.0008776604072671306 -0.0009712322880388634 9.357188077173276e-05 -0.004301185527147104 0.0 0.0
0.0 0.005409206526427527 0.0022147087822823367 -0.002141745312794184 -7.29634694881554e-05 -0.0044220925284879425 0.0 0.0
0.0 0.009589909689510076 0.004531448510899558 -0.004650626082191306 0.0001191775712917495 3.311803956074222e-15 0.0 0.0
0.0 0.005409206526430725 0.0022147087822825223 -0.002141745312794563 -7.296346948796028e-05 0.004422092528494622 0.0 0.0
0.0 0.0035832104986321008 0.0008776604072662945 -0.0009712322880381007 9.35718807718063e-05 0.004301185527149317 0.0 0.0
0.0 0.002207270677363003 0.0002787971220259621 -0.00033507418168451323 5.6277059658551215e-05 0.0035023247065752144 0.0 0.0
0.0 0.0012287869162007897 -1.791013935613763e-05 -5.8397016361718475e-06 2.3749840992309062e-05 0.002561610211184777 0.0 0.0
0.0 0.0007189737438774676 -3.095039079421938e-05 2.4643221844858904e-05 6.307168949360557e-06 0.0015898845360476231 0.0 0.0
0.0 0.0004841548033597805 -4.461954141892445e-06 4.60803656128523e-06 -1.46082419392798e-07 0.0008729055975974901 0.0 0.0
0.0 0.0002686637158715111 -2.5147680817484686e-07 4.1800139595862037e-07 -1.665245877837447e-07 0.00047906551158494355 0.0 0.0
0.0 0.00014736910230544296 2.1402124904739095e-07 -2.0081455126948247e-07 -1.3206697777901698e-08 0.0002547660774870496 0.0 0.0
0.0 7.279191640389579e-05 -3.9451214921742925e-07 3.269555259957202e-07 6.755662322169127e-08 0.00011936497406968589 0.0 0.0
0.0 7.322998387627554e-05 1.0523951853039917e-07 -9.363187171806322e-08 -1.1607646812360256e-08 -4.9753306683116425e-05 0.0 0.0
0.0 9.305974100264528e-06 -3.278660677695811e-09 2.329592613653292e-09 9.490680640670568e-10 -4.248153564882846e-06 0.0 0.0
0.0 4.175506631814013e-05 -1.1420198870848347e-10 -1.6223903084783067e-09 1.7365922971609292e-09 -1.4789729509721613e-05 0.0 0.0
0.0 1.1056211717037572e-06 4.867556531128216e-09 -8.472227216487646e-09 3.604670685373889e-09 2.3274800717603577e-07 0.0 0.0
0.0 1.2196517217618462e-05 3.13142692912894e-08 -3.982879318352939e-08 8.514523892241475e-09 -3.010233832814609e-06 0.0 0.0
0.0 -2.9006235302388864e-06 -1.4575885405683906e-08 6.492816175801071e-09 8.083069229880167e-09 7.857973611973085e-07 0.0 0.0
0.0 -3.898101411136551e-07 1.5682329921880742e-09 1.2896382032569285e-09 -2.8578711954445622e-09 7.657713421874861e-08 0.0 0.0
0.0 0.0 0.0 0.0 0.0 0.0 0.0 0.0
0.0 -4.529229292042015e-07 -3.7623224727119537e-10 -1.3460767770139854e-09 1.7223090242851018e-09 9.521583624385247e-08 0.0 0.0
0.0 1.017538181995694e-06 -6.894237678247954e-08 1.0023570204692175e-07 -3.1293325264433286e-08 -1.6225785450050726e-07 0.0 0.0
0.0 -6.689162529289989e-06 5.153453703880834e-07 -7.454773119888672e-07 2.301319416007173e-07 1.0206774413583178e-06 0.0 0.0
0.0 0.0 0.0 0.0 0.0 0.0 0.0 0.0
0.0 0.0 0.0 0.0 0.0 0.0 0.0 0.0
0.0 -4.400089850961602e-07 -1.1085799813028664e-08 9.382025187014373e-09 1.70377462601291e-09 -9.060477622646326e-08 0.0 0.0
0.0 1.6194030495014154e-06 4.4845188223872524e-08 -3.692713801987262e-08 -7.918050203993747e-09 3.4132962358470897e-07 0.0 0.0
0.0 -1.6049026996002582e-06 -4.361812756853604e-08 3.132173414119934e-08 1.229639342733991e-08 -4.0229219820945263e-07 0.0 0.0
0.0 -2.49720434533152e-06 -1.7633187285197221e-07 1.4444088894009927e-07 3.1890983911848076e-08 -8.31049350779347e-07 0.0 0.0
0.0 2.6018566111253775e-05 8.874637704448903e-07 -7.137435535959846e-07 -1.7372021684890654e-07 6.792471477416699e-06 0.0 0.0
0.0 1.5068043712566131e-05 8.852175815153815e-07 -7.997119338720377e-07 -8.550564764338284e-08 6.770486880438971e-06 0.0 0.0
0.0 2.2133305939316083e-05 -2.542536381467561e-07 4.413135918026651e-07 -1.8705995365580192e-07 1.5026206922831702e-06 0.0 0.0
0.0 7.850572164978656e-06 1.2484961070623649e-06 -1.1378506698574102e-06 -1.1064543720499467e-07 7.620323443555147e-06 0.0 0.0
0.0 0.0001288270994175985 9.633615149001469e-06 -6.970218730398076e-06 -2.663396418603484e-06 2.971656784701359e-05 0.0 0.0
0.0 0.00012271415524762157 -1.0070444768624623e-05 9.483887410492231e-06 5.865573581325693e-07 -0.0001577734275470357 0.0 0.0
0.0 0.00024255667373774252 -6.998775460506853e-05 6.202028128440497e-05 7.967473320663357e-06 -0.0003600272835869604 0.0 0.0
0.0 0.0006240344150778111 -0.00029455536203918384 0.0002601755711364959 3.437979090268788e-05 -0.000721342735992107 0.0 0.0
0.0 0.0012987676346083205 -0.0007858264739796872 0.0006948375519576601 9.098892202202743e-05 -0.001262479169703285 0.0 0.0
0.0 0.0023785034863477135 -0.0015647998648334843 0.0014002945139104529 0.00016450535092303175 -0.002005242131763263 0.0 0.0
0.0 0.0035746853029856216 -0.002379166668109836 0.002171577285399546 0.0002075893827102912 -0.002981760132576149 0.0 0.0
0.0 0.004725201212913528 -0.0029016386386921888 0.0027105589268012213 0.00019107971189096356 -0.004162656370743499 0.0 0.0
0.0 0.005063106638890961 -0.0027801356553321197 0.0026745773165508637 0.00010555833878125542 -0.005608302087151035 0.0 0.0
0.0 0.004637283302363143 -0.0021568319236277937 0.0020427594051868002 0.00011407251844099366 -0.006893314318006217 0.0 0.0
0.0 0.008920895061429401 -0.001383398381119125 0.0005723771064048944 0.0008110212747142316 4.539554496196807e-15 0.0 0.0
0.0 0.004637283302367212 -0.0021568319236289395 0.002042759405187948 0.00011407251844099307 0.006893314318011047 0.0 0.0
0.0 0.005063106638890316 -0.0027801356553313703 0.0026745773165500943 0.0001055583387812768 0.005608302087152844 0.0 0.0
0.0 0.004725201212912899 -0.002901638638691933 0.0027105589268011008 0.00019107971189083107 0.004162656370744565 0.0 0.0
0.0 0.003574685302982778 -0.002379166668107936 0.0021715772853976864 0.00020758938271024982 0.0029817601325745104 0.0 0.0
0.0 0.002378503486347993 -0.0015647998648332627 0.0014002945139105166 0.00016450535092274622 0.0020052421317632027 0.0 0.0
0.0 0.001298767634607724 -0.0007858264739791596 0.0006948375519572784 9.098892202188079e-05 0.0012624791697025866 0.0 0.0
0.0 0.0006240344150764079 -0.0002945553620384107 0.0002601755711358082 3.437979090260259e-05 0.000721342735991488 0.0 0.0
0.0 0.00024255667373624068 -6.998775460437407e-05 6.202028128377547e-05 7.967473320598515e-06 0.0003600272835854887 0.0 0.0
0.0 0.00012271415524680375 -1.0070444768604254e-05 9.483887410472227e-06 5.865573581318705e-07 0.00015777342754611434 0.0 0.0
0.0 0.0001288270994164688 9.633615149178341e-06 -6.97021873053526e-06 -2.663396418642882e-06 -2.9716567847943486e-05 0.0 0.0
0.0 7.850572165120063e-06 1.2484961070665187e-06 -1.137850669862098e-06 -1.106454372044346e-07 -7.620323443506966e-06 0.0 0.0
0.0 2.2133305939228344e-05 -2.542536381822237e-07 4.4131359183394933e-07 -1.8705995365172004e-07 -1.5026206920971072e-06 0.0 0.0
0.0 1.5068043712109584e-05 8.852175815011992e-07 -7.997119338609612e-07 -8.550564764025898e-08 -6.7704868803198046e-06 0.0 0.0
0.0 2.601856611057787e-05 8.87463770420462e-07 -7.137435535770495e-07 -1.7372021684342375e-07 -6.792471477216642e-06 0.0 0.0
0.0 -2.497204345732415e-06 -1.7633187286029646e-07 1.4444088894724497e-07 3.189098391306514e-08 8.310493508575193e-07 0.0 0.0
0.0 -1.6049026997092063e-06 -4.361812757138857e-08 3.13217341441996e-08 1.2296393427191526e-08 4.0229219822684126e-07 0.0 0.0
0.0 1.6194030491605202e-06 4.4845188215053595e-08 -3.6927138012442115e-08 -7.918050202610813e-09 -3.4132962350808325e-07 0.0 0.0
0.0 -4.400089849850923e-07 -1.1085799810147175e-08 9.382025184550396e-09 1.7037746255962362e-09 9.060477620194166e-08 0.0 0.0
0.0 0.0 0.0 0.0 0.0 0.0 0.0 0.0
0.0 0.0 0.0 0.0 0.0 0.0 0.0 0.0
0.0 0.0 0.0 0.0 0.0 0.0 0.0 0.0
0.0 0.0 0.0 0.0 0.0 0.0 0.0 0.0
0.0 2.425730682119908e-08 3.982158373341205e-10 -4.4569232913688354e-10 4.74764918033864e-11 6.014987800764494e-09 0.0 0.0
0.0 -3.3058234895786685e-06 -1.3625401301032802e-07 1.1383585800296631e-07 2.2418155007353638e-08 -7.348576633217354e-07 0.0 0.0
0.0 6.939413693331901e-06 2.566932478706198e-07 -2.177301530713073e-07 -3.8963094799286765e-08 1.5048904087892627e-06 0.0 0.0
0.0 1.690702464335916e-05 8.302974969186489e-07 -6.768157143116402e-07 -1.5348178260704522e-07 3.94016593183917e-06 0.0 0.0
0.0 -9.516237584973608e-06 -1.091295068955446e-06 8.412174605896799e-07 2.5007760836584203e-07 -3.645796874045396e-06 0.0 0.0
0.0 5.0225069721585175e-05 6.17610140014827e-06 -4.846646957398486e-06 -1.3294544427498048e-06 2.1778572770827977e-05 0.0 0.0
0.0 2.2087894434093065e-05 5.443910152678368e-06 -4.4479936812047455e-06 -9.959164714735844e-07 9.590805278307727e-06 0.0 0.0
0.0 0.00010158149628610832 2.7170830060446442e-05 -2.0491495848071198e-05 -6.679334212374987e-06 3.293197403676445e-05 0.0 0.0
0.0 0.00015940202674570618 -9.381917899122519e-05 7.700569471715259e-05 1.681348427407277e-05 -0.0001987683299715705 0.0 0.0
0.0 0.0005188245099020302 -0.0003578811990916694 0.0002894073340227968 6.847386506887201e-05 -0.00047475578585380937 0.0 0.0
0.0 0.0011216461428205245 -0.00086574883004156 0.0007014998554179581 0.00016424897462360164 -0.0008374139014425159 0.0 0.0
0.0 0.0021200366560829107 -0.0017217829352225728 0.0014299319831103969 0.0002918509521121756 -0.0013131442698191616 0.0 0.0
0.0 0.00373236925923264 -0.003042155618993762 0.0026210316547088156 0.00042112396428494744 -0.0019991540911732416 0.0 0.0
0.0 0.005939591344132372 -0.004802614743273734 0.004286717991730884 0.0005158967515428477 -0.002990613017660431 0.0 0.0
0.0 0.0084118516577585 -0.006761274938640992 0.00619256502023924 0.0005687099184017536 -0.004355427971163514 0.0 0.0
0.0 0.010488352235530608 -0.008507623573046835 0.007920483978758684 0.0005871395942881566 -0.006086100787736677 0.0 0.0
0.0 0.011911967109644352 -0.009358896981499491 0.00879986715342601 0.0005590298280734781 -0.007902567981051111 0.0 0.0
0.0 0.011351378920203745 -0.008193721036469962 0.007678184985576871 0.0005155360508930911 -0.008543317110181987 0.0 0.0
0.0 0.011409175709458862 -0.006551879663741906 0.005119344060968974 0.0014325356027729281 3.8998752144303594e-15 0.0 0.0
0.0 0.011351378920206566 -0.008193721036471192 0.007678184985577831 0.0005155360508933551 0.008543317110187777 0.0 0.0
0.0 0.011911967109643824 -0.009358896981498336 0.00879986715342483 0.0005590298280735088 0.007902567981056102 0.0 0.0
0.0 0.01048835223552993 -0.008507623573046163 0.007920483978758247 0.0005871395942879125 0.006086100787739335 0.0 0.0
0.0 0.008411851657755638 -0.00676127493863859 0.006192565020237083 0.000568709918401506 0.004355427971162707 0.0 0.0
0.0 0.00593959134412991 -0.004802614743271604 0.004286717991728919 0.000515896751542684 0.0029906130176594165 0.0 0.0
0.0 0.0037323692592308513 -0.003042155618992382 0.0026210316547077314 0.00042112396428465096 0.001999154091172046 0.0 0.0
0.0 0.002120036656080632 -0.0017217829352203808 0.001429931983108491 0.00029185095211188935 0.0013131442698180286 0.0 0.0
0.0 0.0011216461428176032 -0.0008657488300389097 0.0007014998554156306 0.0001642489746232789 0.0008374139014403056 0.0 0.0
0.0 0.0005188245098998083 -0.00035788119908969996 0.0002894073340212493 6.847386506845068e-05 0.00047475578585163826 0.0 0.0
0.0 0.00015940202674374394 -9.381917899006193e-05 7.700569471618379e-05 1.6813484273878075e-05 0.0001987683299696195 0.0 0.0
0.0 0.0001015814962848378 2.717083006009832e-05 -2.0491495847799293e-05 -6.679334212299003e-06 -3.293197403645238e-05 0.0 0.0
0.0 2.208789443358728e-05 5.443910152687104e-06 -4.447993681214116e-06 -9.959164714728278e-07 -9.590805278460933e-06 0.0 0.0
0.0 5.022506972126246e-05 6.17610140009828e-06 -4.8466469573606195e-06 -1.3294544427375944e-06 -2.1778572770629622e-05 0.0 0.0
0.0 -9.516237585467073e-06 -1.091295068983445e-06 8.41217460612266e-07 2.500776083711337e-07 3.645796874163467e-06 0.0 0.0
0.0 1.6907024642783286e-05 8.302974968858689e-07 -6.768157142847567e-07 -1.534817826011506e-07 -3.940165931679167e-06 0.0 0.0
0.0 6.939413692862606e-06 2.566932478499369e-07 -2.1773015305387495e-07 -3.896309479599238e-08 -1.5048904086759496e-06 0.0 0.0
0.0 -3.305823489790843e-06 -1.3625401301287958e-07 1.1383585800462458e-07 2.2418155008238635e-08 7.348576633520793e-07 0.0 0.0
0.0 2.4257306926088718e-08 3.9821584031916306e-10 -4.4569233149582563e-10 4.747649117695073e-11 -6.014987820882599e-09 0.0 0.0
0.0 0.0 0.0 0.0 0.0 0.0 0.0 0.0
0.0 0.0 0.0 0.0 0.0 0.0 0.0 0.0
0.0 0.0 0.0 0.0 0.0 0.0 0.0 0.0
0.0 0.0 0.0 0.0 0.0 0.0 0.0 0.0
0.0 0.0 0.0 0.0 0.0 0.0 0.0 0.0
0.0 -6.224588966762957e-07 -2.6056880937195595e-08 2.048654122238914e-08 5.5703397148058194e-09 -1.1659007236443026e-07 0.0 0.0
0.0 2.3140902412834673e-06 1.1552332739743595e-07 -9.046105197643214e-08 -2.5062275420996453e-08 4.835579472159823e-07 0.0 0.0
0.0 -1.3824094971065692e-05 -1.3783237147932538e-06 1.0859417626785995e-06 2.9238195211461845e-07 -3.702893148663573e-06 0.0 0.0
0.0 4.682308328552102e-05 5.585308548885572e-06 -4.432308802226589e-06 -1.1529997466589552e-06 1.546287441912432e-05 0.0 0.0
0.0 -9.88256887272375e-06 8.386317379456725e-06 -6.485406103424677e-06 -1.9009112760319769e-06 8.792674921213831e-06 0.0 0.0
0.0 5.6891059493641995e-05 -3.849640290031739e-06 3.391058704015492e-06 4.585815860161301e-07 -2.048651708152567e-06 0.0 0.0
0.0 0.0005035012722712349 -0.0001524682328736481 0.00012065772177603406 3.181051109761416e-05 -0.00013725184760366232 0.0 0.0
0.0 0.0007561139165543104 -0.0005702694041693991 0.00045158050575154 0.000118688898417859 -0.000504067803495212 0.0 0.0
0.0 0.0013596486042420646 -0.0011603838259204922 0.0009301939691998549 0.0002301898567206368 -0.0008328848347049942 0.0 0.0
0.0 0.0024210875191746184 -0.0020671791387874366 0.0017025527499259095 0.0003646263888615273 -0.0012394681358004506 0.0 0.0
0.0 0.0040642135597832914 -0.0035011055591239906 0.002992602943999761 0.0005085026151242284 -0.0018288853957093487 0.0 0.0
0.0 0.006606424574112267 -0.005603992922961062 0.004976442861729441 0.0006275500612316246 -0.002691984648415152 0.0 0.0
0.0 0.009840018976725956 -0.008371447795836795 0.007671554560082209 0.0006998932357545812 -0.003913987847489304 0.0 0.0
0.0 0.013792054083947862 -0.011508065560495193 0.010776753239032388 0.0007313123214627985 -0.005695186578636249 0.0 0.0
0.0 0.017375537999185293 -0.014444754406235211 0.013716440921066341 0.0007283134851688669 -0.00813165935450437 0.0 0.0
0.0 0.019677153760868246 -0.016150133032028915 0.015465869905776931 0.0006842631262519801 -0.01066539074843461 0.0 0.0
0.0 0.018630556999494337 -0.01494470100409027 0.014334441793141701 0.0006102592109485651 -0.011610705656366224 0.0 0.0
0.0 0.016762498817962164 -0.01203120217405075 0.010023328687517593 0.0020078734865331435 3.597816489175898e-15 0.0 0.0
0.0 0.018630556999496877 -0.014944701004090604 0.014334441793142019 0.000610259210948581 0.01161070565637573 0.0 0.0
0.0 0.019677153760868305 -0.016150133032027534 0.015465869905775882 0.000684263126251663 0.010665390748443372 0.0 0.0
0.0 0.017375537999183552 -0.014444754406233334 0.01371644092106478 0.0007283134851685595 0.00813165935450881 0.0 0.0
0.0 0.013792054083943905 -0.011508065560491833 0.010776753239029345 0.0007313123214624832 0.005695186578635783 0.0 0.0
0.0 0.00984001897672199 -0.008371447795833167 0.007671554560078867 0.0006998932357543032 0.003913987847488032 0.0 0.0
0.0 0.006606424574109568 -0.00560399292295848 0.004976442861727214 0.0006275500612312641 0.0026919846484140374 0.0 0.0
0.0 0.004064213559779562 -0.0035011055591208685 0.0029926029439968954 0.0005085026151239745 0.001828885395707889 0.0 0.0
0.0 0.0024210875191700548 -0.002067179138783376 0.0017025527499222558 0.0003646263888611198 0.0012394681357982581 0.0 0.0
0.0 0.001359648604239151 -0.0011603838259176228 0.000930193969197645 0.00023018985671997746 0.0008328848347027427 0.0 0.0
0.0 0.0007561139165507564 -0.0005702694041663796 0.0004515805057490831 0.00011868889841729616 0.0005040678034924915 0.0 0.0
0.0 0.000503501272268399 -0.0001524682328718899 0.00012065772177466627 3.181051109722389e-05 0.00013725184760205833 0.0 0.0
0.0 5.689105949270129e-05 -3.8496402898735505e-06 3.391058703897187e-06 4.5858158597632845e-07 2.0486517078629053e-06 0.0 0.0
0.0 -9.88256887344027e-06 8.38631737918466e-06 -6.485406103211204e-06 -1.900911275973635e-06 -8.792674920703892e-06 0.0 0.0
0.0 4.682308328462903e-05 5.585308548863937e-06 -4.4323088022106625e-06 -1.1529997466531794e-06 -1.5462874419074917e-05 0.0 0.0
0.0 -1.3824094971556639e-05 -1.3783237148286403e-06 1.085941762707033e-06 2.923819521215926e-07 3.702893148773363e-06 0.0 0.0
0.0 2.3140902408674115e-06 1.15523327377649e-07 -9.046105196029126e-08 -2.5062275417359505e-08 -4.835579471334804e-07 0.0 0.0
0.0 -6.224588965160051e-07 -2.6056880929040137e-08 2.0486541215793e-08 5.5703397132478885e-09 1.1659007233299889e-07 0.0 0.0
0.0 0.0 0.0 0.0 0.0 0.0 0.0 0.0
0.0 0.0 0.0 0.0 0.0 0.0 0.0 0.0
0.0 0.0 0.0 0.0 0.0 0.0 0.0 0.0
0.0 0.0 0.0 0.0 0.0 0.0 0.0 0.0
0.0 0.0 0.0 0.0 0.0 0.0 0.0 0.0
0.0 0.0 0.0 0.0 0.0 0.0 0.0 0.0
0.0 -3.216566219922162e-06 -2.1397347762671908e-07 1.7329740923679004e-07 4.067606838992204e-08 -6.433160338192215e-07 0.0 0.0
0.0 5.968070654938176e-06 3.10846068678393e-07 -2.5613558800617143e-07 -5.471048067218412e-08 1.1643100202671114e-06 0.0 0.0
0.0 3.178417239408351e-05 3.5157233694908544e-06 -2.7761078035495787e-06 -7.396155659413135e-07 7.074654185475928e-06 0.0 0.0
0.0 1.8308332078338286e-05 7.407437108185079e-06 -5.672293371819626e-06 -1.7351437363654684e-06 6.139054788919362e-06 0.0 0.0
0.0 4.061002770861288e-05 -6.821271836644514e-06 4.6927258443342715e-06 2.128545992310347e-06 6.539173904012333e-06 0.0 0.0
0.0 0.0005532249733467633 -0.00016186952610677832 0.0001259434980763812 3.592602803039713e-05 -9.755362850434563e-05 0.0 0.0
0.0 0.0006847968866297513 -0.0006724604570920674 0.0005280607947766123 0.00014439966231545535 -0.00046525705401605173 0.0 0.0
0.0 0.0014333256761640707 -0.0012438570791162458 0.0009940930262537818 0.0002497640528624639 -0.0007307339120633994 0.0 0.0
0.0 0.0024068163375517548 -0.0021164524331733713 0.001733284924793616 0.0003831675083797565 -0.0010536537975711906 0.0 0.0
0.0 0.003907491395851776 -0.003445572754846641 0.0029160110451345355 0.0005295617097121037 -0.0015017167150645284 0.0 0.0
0.0 0.006236462353124352 -0.005458272854812467 0.004791935969171079 0.0006663368856413867 -0.0021654085234783485 0.0 0.0
0.0 0.009557818969433828 -0.008344512011344236 0.00757490535557568 0.0007696066557685528 -0.003119966899544995 0.0 0.0
0.0 0.014219205389338277 -0.012111656481393483 0.011286016210226167 0.000825640271167322 -0.004469709546857724 0.0 0.0
0.0 0.01900933095338557 -0.016454941886672486 0.01561139785102724 0.0008435440356452421 -0.0064898041946126845 0.0 0.0
0.0 0.024197961305887306 -0.02056351220063533 0.019743870643504684 0.000819641557130647 -0.009374231528998632 0.0 0.0
0.0 0.027578530333695686 -0.023017559908575815 0.02227073967469403 0.0007468202338817729 -0.012561610124928404 0.0 0.0
0.0 0.02619284320341463 -0.021507351708122992 0.020883808285274842 0.0006235434228481424 -0.014123302005761545 0.0 0.0
0.0 0.02243514151397653 -0.017461560572169847 0.014962952913370242 0.00249860765879961 5.245803791353865e-15 0.0 0.0
0.0 0.02619284320341647 -0.021507351708122527 0.020883808285274533 0.0006235434228479843 0.014123302005773764 0.0 0.0
0.0 0.027578530333694663 -0.023017559908573626 0.022270739674692 0.000746820233881612 0.012561610124939589 0.0 0.0
0.0 0.024197961305885543 -0.020563512200633127 0.019743870643502765 0.000819641557130355 0.009374231529005711 0.0 0.0
0.0 0.0190093309533805 -0.016454941886667955 0.015611397851022932 0.0008435440356450338 0.006489804194613914 0.0 0.0
0.0 0.014219205389334882 -0.012111656481390305 0.011286016210223354 0.0008256402711669478 0.004469709546857097 0.0 0.0
0.0 0.009557818969430223 -0.008344512011340743 0.007574905355572646 0.0007696066557680902 0.003119966899544048 0.0 0.0
0.0 0.00623646235311952 -0.005458272854807968 0.004791935969166907 0.0006663368856410594 0.002165408523476509 0.0 0.0
0.0 0.003907491395846184 -0.0034455727548416137 0.0029160110451299966 0.0005295617097116165 0.001501716715062604 0.0 0.0
0.0 0.0024068163375473494 -0.002116452433169003 0.0017332849247899823 0.00038316750837902135 0.001053653797568646 0.0 0.0
0.0 0.0014333256761593191 -0.0012438570791119892 0.000994093026250224 0.00024976405286176556 0.0007307339120605305 0.0 0.0
0.0 0.0006847968866269035 -0.0006724604570889229 0.0005280607947741306 0.00014439966231479182 0.00046525705401393466 0.0 0.0
0.0 0.0005532249733431702 -0.00016186952610487996 0.0001259434980748928 3.592602802998694e-05 9.755362850294091e-05 0.0 0.0
0.0 4.0610027707096185e-05 -6.82127183627985e-06 4.692725844049149e-06 2.1285459922308343e-06 -6.539173904267683e-06 0.0 0.0
0.0 1.830833207769977e-05 7.40743710779079e-06 -5.672293371514139e-06 -1.735143736276353e-06 -6.139054788253061e-06 0.0 0.0
0.0 3.178417239323263e-05 3.515723369439709e-06 -2.7761078035085133e-06 -7.396155659310667e-07 -7.07465418540305e-06 0.0 0.0
0.0 5.9680706544040476e-06 3.1084606864117153e-07 -2.5613558797568295e-07 -5.471048066549119e-08 -1.1643100201481985e-06 0.0 0.0
0.0 -3.2165662197370074e-06 -2.139734776125392e-07 1.732974092253024e-07 4.0676068387236426e-08 6.43316033777429e-07 0.0 0.0
0.0 0.0 0.0 0.0 0.0 0.0 0.0 0.0
0.0 0.0 0.0 0.0 0.0 0.0 0.0 0.0
0.0 0.0 0.0 0.0 0.0 0.0 0.0 0.0
0.0 0.0 0.0 0.0 0.0 0.0 0.0 0.0
0.0 0.0 0.0 0.0 0.0 0.0 0.0 0.0
0.0 0.0 0.0 0.0 0.0 0.0 0.0 0.0
0.0 -1.649479723669036e-06 -1.2518018786631028e-07 9.947930651809292e-08 2.5700881348227217e-08 -2.9211865649805987e-07 0.0 0.0
0.0 -8.999289752316268e-06 -1.1924434267032006e-06 9.362104702650559e-07 2.5623295643807844e-07 -1.7356865743816101e-06 0.0 0.0
0.0 6.0366682754344216e-05 6.722227344889802e-06 -5.253841340092653e-06 -1.4683860047970724e-06 9.588163099607564e-06 0.0 0.0
0.0 2.3235145298441387e-05 1.6637533759270137e-05 -1.3307428532314355e-05 -3.3301052269558375e-06 2.481294078786024e-05 0.0 0.0
0.0 0.0004479731123271454 -0.00011165122381296778 8.503946663643642e-05 2.6611757176532007e-05 -3.550318900969516e-05 0.0 0.0
0.0 0.0006143090374008197 -0.000632608143189884 0.0004945035708256701 0.00013810457236421357 -0.0003512096890132302 0.0 0.0
0.0 0.0013497435793520256 -0.0011958412896617648 0.0009521306331826586 0.00024371065647910565 -0.0005825906817674694 0.0 0.0
0.0 0.002224670703808092 -0.0020052995526543345 0.0016314539734318485 0.0003738455792224862 -0.0008301592192547185 0.0 0.0
0.0 0.0035362746224964245 -0.003179662508456733 0.0026629518559505663 0.0005167106525061656 -0.0011470304180337574 0.0 0.0
0.0 0.005549062408524848 -0.00493564238303028 0.004274004204476868 0.0006616381785534115 -0.0015992378113144654 0.0 0.0
0.0 0.008643324127192918 -0.0075331626820347415 0.006746679301779797 0.0007864833802549442 -0.002285254998512509 0.0 0.0
0.0 0.012850230073935457 -0.011196160028398735 0.010318240417988414 0.0008779196104103151 -0.003279672452009313 0.0 0.0
0.0 0.01825797362934655 -0.015959396176873145 0.015028087956131224 0.0009313082207419147 -0.004627777347660251 0.0 0.0
0.0 0.024985255839298774 -0.021459447191906678 0.02052117083479873 0.0009382763571079398 -0.0066021072438249 0.0 0.0
0.0 0.031175295813586558 -0.026724705279261178 0.025831757465603695 0.0008929478136574734 -0.009611071982667842 0.0 0.0
0.0 0.03496867349645085 -0.029868279638866856 0.029079278401335285 0.0007890012375315658 -0.01330489399593712 0.0 0.0
0.0 0.03344133483947458 -0.027968066214336434 0.02734511718601145 0.0006229490283249902 -0.015919526296219563 0.0 0.0
0.0 0.028647108910375318 -0.02284805228003935 0.019898439990878883 0.0029496122891604533 6.482227948856334e-15 0.0 0.0
0.0 0.03344133483947604 -0.027968066214335723 0.027345117186010817 0.0006229490283248846 0.015919526296233465 0.0 0.0
0.0 0.034968673496448915 -0.029868279638863765 0.029079278401332335 0.000789001237531406 0.01330489399594972 0.0 0.0
0.0 0.031175295813584483 -0.02672470527925861 0.02583175746560169 0.0008929478136569236 0.009611071982676274 0.0 0.0
0.0 0.024985255839293716 -0.021459447191902 0.020521170834794503 0.0009382763571075095 0.006602107243827199 0.0 0.0
0.0 0.018257973629341572 -0.015959396176868687 0.015028087956127256 0.0009313082207414231 0.004627777347660338 0.0 0.0
0.0 0.01285023007393116 -0.011196160028394835 0.010318240417984945 0.000877919610409898 0.003279672452008563 0.0 0.0
0.0 0.008643324127188141 -0.007533162682029943 0.0067466793017755666 0.0007864833802543746 0.002285254998511379 0.0 0.0
0.0 0.005549062408518693 -0.0049356423830245 0.0042740042044715305 0.0006616381785529681 0.001599237811312627 0.0 0.0
0.0 0.003536274622490192 -0.003179662508450823 0.0026629518559454645 0.0005167106525053596 0.0011470304180312267 0.0 0.0
0.0 0.0022246707038019705 -0.0020052995526485154 0.0016314539734268191 0.0003738455792216949 0.0008301592192518533 0.0 0.0
0.0 0.0013497435793476528 -0.0011958412896576193 0.0009521306331792575 0.00024371065647836175 0.0005825906817653459 0.0 0.0
0.0 0.0006143090373979184 -0.0006326081431863903 0.0004945035708228819 0.00013810457236350832 0.00035120968901140035 0.0 0.0
0.0 0.0004479731123237063 -0.00011165122381100081 8.503946663492144e-05 2.6611757176079204e-05 3.550318900854835e-05 0.0 0.0
0.0 2.3235145297681385e-05 1.6637533759110336e-05 -1.33074285321911e-05 -3.3301052269189835e-06 -2.4812940787500318e-05 0.0 0.0
0.0 6.036668275319042e-05 6.722227344859887e-06 -5.253841340067921e-06 -1.4683860047918077e-06 -9.588163099522918e-06 0.0 0.0
0.0 -8.99928975259802e-06 -1.1924434267164742e-06 9.362104702765909e-07 2.5623295643988077e-07 1.7356865744407089e-06 0.0 0.0
0.0 -1.6494797235226471e-06 -1.251801878543305e-07 9.947930650851927e-08 2.5700881345804934e-08 2.921186564701545e-07 0.0 0.0
0.0 0.0 0.0 0.0 0.0 0.0 0.0 0.0
0.0 0.0 0.0 0.0 0.0 0.0 0.0 0.0
0.0 0.0 0.0 0.0 0.0 0.0 0.0 0.0
0.0 0.0 0.0 0.0 0.0 0.0 0.0 0.0
0.0 0.0 0.0 0.0 0.0 0.0 0.0 0.0
0.0 0.0 0.0 0.0 0.0 0.0 0.0 0.0
0.0 -6.149311365606021e-07 -5.098858444880653e-08 3.999673713281368e-08 1.0991847316001779e-08 -9.937080205927389e-08 0.0 0.0
0.0 1.3078904047456199e-05 1.5010998391811832e-06 -1.1565985143441664e-06 -3.445013248369854e-07 1.540356217035284e-06 0.0 0.0
0.0 -1.7393628255225476e-05 2.5139139880494685e-06 -2.0090322780485995e-06 -5.048817100008749e-07 1.0100725683881853e-06 0.0 0.0
0.0 0.00027198430679356746 -1.806902201582801e-05 1.2424077716025179e-05 5.64494429980353e-06 2.300316654594283e-05 0.0 0.0
0.0 0.0005424867721662006 -0.0004778927559330013 0.0003702277297391847 0.00010766502619381623 -0.000185728947848968 0.0 0.0
0.0 0.0011653208660784404 -0.0010507931255438864 0.000832441123405748 0.00021835200213813814 -0.00041041487646885225 0.0 0.0
0.0 0.00197048204138514 -0.0017995739858182747 0.0014538227545362874 0.00034575123128198753 -0.0006033254244371978 0.0 0.0
0.0 0.003118131571756518 -0.0028286771761633464 0.0023448273551061613 0.0004838498210571863 -0.0008234651705620803 0.0 0.0
0.0 0.004819052174334521 -0.004312124575804169 0.003682389791627631 0.0006297347841765345 -0.001107107023733333 0.0 0.0
0.0 0.007433290350699635 -0.006506183593602041 0.005736896656644832 0.0007692869369572117 -0.0015284053354521876 0.0 0.0
0.0 0.01092045201914219 -0.009715906544858419 0.008830015141947308 0.0008858914029111085 -0.0021881828425543938 0.0 0.0
0.0 0.016148285966381445 -0.014140412251869416 0.013171177894015677 0.0009692343578537406 -0.0031530449567281193 0.0 0.0
0.0 0.022836092870360803 -0.019834017882250955 0.01881138693015485 0.001022630952096101 -0.004405284185632973 0.0 0.0
0.0 0.03036403269811735 -0.026447130351147694 0.025417228787090268 0.0010299015640573954 -0.006088997608435461 0.0 0.0
0.0 0.03783688696234134 -0.03281413744848585 0.03185015477780432 0.0009639826706815698 -0.00879108353614332 0.0 0.0
0.0 0.04258224472230899 -0.0366463937012629 0.03582238100974108 0.000824012691521849 -0.01278095559025071 0.0 0.0
0.0 0.04062698292575158 -0.03445925466734617 0.0338485047027154 0.0006107499646307549 -0.01708004316065282 0.0 0.0
0.0 0.034673538825848095 -0.028359635382318865 0.024983766085625775 0.0033758692966930764 6.777130939772391e-15 0.0 0.0
0.0 0.040626982925751974 -0.03445925466734469 0.03384850470271394 0.000610749964630743 0.017080043160667184 0.0 0.0
0.0 0.0425822447223068 -0.03664639370125981 0.0358223810097382 0.000824012691521589 0.01278095559026456 0.0 0.0
0.0 0.03783688696233812 -0.03281413744848244 0.03185015477780147 0.0009639826706809863 0.008791083536151977 0.0 0.0
0.0 0.03036403269811206 -0.02644713035114278 0.025417228787085883 0.0010299015640568745 0.00608899760843802 0.0 0.0
0.0 0.02283609287035464 -0.01983401788224535 0.018811386930149682 0.0010226309520956723 0.004405284185633681 0.0 0.0
0.0 0.016148285966375815 -0.014140412251864272 0.013171177894010972 0.0009692343578532996 0.0031530449567276964 0.0 0.0
0.0 0.010920452019136353 -0.009715906544852873 0.008830015141942569 0.0008858914029103101 0.0021881828425535156 0.0 0.0
0.0 0.007433290350692342 -0.006506183593595017 0.00573689665663822 0.0007692869369567944 0.0015284053354505235 0.0 0.0
0.0 0.004819052174327458 -0.004312124575797228 0.003682389791621492 0.0006297347841757359 0.0011071070237312216 0.0 0.0
0.0 0.0031181315717498256 -0.002828677176156942 0.0023448273551005543 0.0004838498210563884 0.0008234651705595959 0.0 0.0
0.0 0.001970482041380209 -0.0017995739858132893 0.0014538227545321041 0.00034575123128118517 0.0006033254244353272 0.0 0.0
0.0 0.0011653208660734426 -0.0010507931255394102 0.0008324411234020682 0.00021835200213734244 0.000410414876467271 0.0 0.0
0.0 0.0005424867721631467 -0.00047789275592993524 0.00037022772973676656 0.0001076650261931689 0.00018572894784758183 0.0 0.0
0.0 0.0002719843067904576 -1.806902201433377e-05 1.2424077714894275e-05 5.644944299439802e-06 -2.3003166546640286e-05 0.0 0.0
0.0 -1.7393628256025702e-05 2.5139139873450226e-06 -2.0090322775097976e-06 -5.048817098352561e-07 -1.0100725678114658e-06 0.0 0.0
0.0 1.3078904046712707e-05 1.5010998390960144e-06 -1.156598514279488e-06 -3.445013248166125e-07 -1.5403562169396447e-06 0.0 0.0
0.0 -6.149311364870354e-07 -5.0988584442294546e-08 3.9996737127679096e-08 1.0991847314612155e-08 9.937080204580687e-08 0.0 0.0
0.0 0.0 0.0 0.0 0.0 0.0 0.0 0.0
0.0 0.0 0.0 0.0 0.0 0.0 0.0 0.0
0.0 0.0 0.0 0.0 0.0 0.0 0.0 0.0
0.0 0.0 0.0 0.0 0.0 0.0 0.0 0.0
0.0 0.0 0.0 0.0 0.0 0.0 0.0 0.0
0.0 0.0 0.0 0.0 0.0 0.0 0.0 0.0
0.0 -1.2741394624156704e-07 -9.269825741843089e-09 7.351283344344203e-09 1.918542397498814e-09 -1.9994821134365284e-08 0.0 0.0
0.0 2.3321811914098395e-05 3.3793916812977177e-06 -2.511528714064827e-06 -8.678629672328382e-07 1.2933836513402003e-06 0.0 0.0
0.0 7.04922422021044e-05 1.763911837715193e-05 -1.4038711230081425e-05 -3.6004071470705223e-06 1.653162154253843e-05 0.0 0.0
0.0 0.0004100056459928825 -0.00025397371093812543 0.00019262553699024787 6.134817394787716e-05 -3.8097553999200015e-05 0.0 0.0
0.0 0.0008999978779931157 -0.0008273093690109236 0.000649992630872263 0.00017731673813866015 -0.00023796529105788648 0.0 0.0
0.0 0.0016572640713164403 -0.0015296394419973085 0.0012263200927275562 0.00030331934926975155 -0.00038522623307155887 0.0 0.0
0.0 0.0026868349897510866 -0.0024439833115748374 0.002005498875691821 0.00043848443588301723 -0.000535666620886433 0.0 0.0
0.0 0.004062416297195285 -0.003703251011689835 0.0031214355889444406 0.0005818154227453924 -0.0007123711032208524 0.0 0.0
0.0 0.006165079153871477 -0.005506852406538485 0.004779816786105761 0.0007270356204327242 -0.0009408967165463892 0.0 0.0
0.0 0.009054574809854232 -0.008164066095461931 0.007300847236508017 0.0008632188589539115 -0.0012925438278103079 0.0 0.0
0.0 0.01366173103748627 -0.011970742373559037 0.011000462318652194 0.000970280054906836 -0.0018658088339398825 0.0 0.0
0.0 0.019544662004641555 -0.01716051225924922 0.01611103101900559 0.001049481240243625 -0.002731791152497547 0.0 0.0
0.0 0.026948577085154735 -0.023728497808618625 0.022624385669780953 0.0011041121388376677 -0.0038379371518197803 0.0 0.0
0.0 0.03578242249100777 -0.03130002324331081 0.030182226016928798 0.001117797226382036 -0.005070089855230017 0.0 0.0
0.0 0.04438781030119246 -0.03868677539709621 0.03764225435810148 0.0010445210389947268 -0.006927482972819244 0.0 0.0
0.0 0.04999044485338195 -0.0433364216556256 0.042470309553361674 0.0008661121022639307 -0.010876412197585375 0.0 0.0
0.0 0.04810768687045684 -0.041131983632923017 0.04055120739695274 0.0005807762359702679 -0.017460548570079015 0.0 0.0
0.0 0.041472974557407484 -0.034183959007895455 0.030407448772368784 0.0037765102355266753 5.9782907790850714e-15 0.0 0.0
0.0 0.048107686870456474 -0.04113198363292113 0.04055120739695095 0.0005807762359701862 0.01746054857009261 0.0 0.0
0.0 0.049990444853378085 -0.04333642165562139 0.04247030955335759 0.0008661121022638006 0.010876412197598974 0.0 0.0
0.0 0.04438781030118701 -0.038686775397091165 0.03764225435809683 0.0010445210389942946 0.006927482972827116 0.0 0.0
0.0 0.03578242249100187 -0.03130002324330548 0.03018222601692383 0.0011177972263816517 0.005070089855232921 0.0 0.0
0.0 0.026948577085148386 -0.02372849780861283 0.02262438566977576 0.0011041121388370603 0.0038379371518206078 0.0 0.0
0.0 0.019544662004634023 -0.01716051225924243 0.016111031018999418 0.0010494812402430203 0.002731791152497441 0.0 0.0
0.0 0.013661731037479152 -0.01197074237355233 0.011000462318646292 0.0009702800549060266 0.0018658088339388503 0.0 0.0
0.0 0.00905457480984484 -0.008164066095453561 0.007300847236500086 0.0008632188589534755 0.0012925438278089717 0.0 0.0
0.0 0.006165079153864165 -0.005506852406531104 0.00477981678609916 0.0007270356204319438 0.0009408967165448569 0.0 0.0
0.0 0.004062416297188303 -0.0037032510116828416 0.0031214355889382533 0.0005818154227445869 0.0007123711032188077 0.0 0.0
0.0 0.002686834989744652 -0.002443983311568616 0.0020054988756864874 0.00043848443588212943 0.0005356666208845946 0.0 0.0
0.0 0.0016572640713120174 -0.0015296394419921674 0.0012263200927233378 0.0003033193492688281 0.0003852262330702103 0.0 0.0
0.0 0.0008999978779886312 -0.0008273093690062025 0.0006499926308683753 0.00017731673813782696 0.00023796529105637608 0.0 0.0
0.0 0.0004100056459898486 -0.00025397371093584546 0.00019262553698850494 6.134817394733982e-05 3.8097553998518e-05 0.0 0.0
0.0 7.049224220051586e-05 1.76391183772162e-05 -1.4038711230116446e-05 -3.600407147099856e-06 -1.653162154235771e-05 0.0 0.0
0.0 2.332181191337698e-05 3.3793916812023257e-06 -2.5115287139925853e-06 -8.678629672096622e-07 -1.2933836512714225e-06 0.0 0.0
0.0 -1.2741394617107857e-07 -9.269825735924185e-09 7.351283339679626e-09 1.9185423962452566e-09 1.999482112423785e-08 0.0 0.0
0.0 0.0 0.0 0.0 0.0 0.0 0.0 0.0
0.0 0.0 0.0 0.0 0.0 0.0 0.0 0.0
0.0 0.0 0.0 0.0 0.0 0.0 0.0 0.0
0.0 0.0 0.0 0.0 0.0 0.0 0.0 0.0
0.0 0.0 0.0 0.0 0.0 0.0 0.0 0.0
0.0 0.0 0.0 0.0 0.0 0.0 0.0 0.0
0.0 -5.313513054606831e-07 -4.38321265148681e-08 3.5282650024392564e-08 8.549476490475142e-09 -5.410890000251522e-08 0.0 0.0
0.0 1.7410600382114061e-06 1.0235143215875649e-07 -6.269351935672342e-09 -9.608208022319607e-08 -1.0082617158773155e-06 0.0 0.0
0.0 0.00022917699505135955 -4.739554747679467e-05 3.376379395407118e-05 1.3631753522723397e-05 2.6860756408430053e-05 0.0 0.0
0.0 0.0005412059400707255 -0.000561035582927043 0.0004339427706778436 0.00012709281224919977 -9.247121138290759e-05 0.0 0.0
0.0 0.0013086886007078124 -0.0012039832325494086 0.0009560562505511603 0.00024792698199824746 -0.0001910806546332963 0.0 0.0
0.0 0.0021885773011221933 -0.0020417811155999848 0.0016581664037974375 0.00038361471180254844 -0.00028568268830249583 0.0 0.0
0.0 0.0034291450961760604 -0.0031272103428413357 0.002604253334477472 0.0005229570083638617 -0.0003861939319990576 0.0 0.0
0.0 0.005133755863759242 -0.004616689733881426 0.003948694508529932 0.0006679952253514952 -0.0005014342812646134 0.0 0.0
0.0 0.007487374918406274 -0.006758409510873046 0.00594529071971526 0.0008131187911577858 -0.0006483636265496664 0.0 0.0
0.0 0.011220375457728042 -0.009870238863022336 0.008927335734651223 0.0009429031283711043 -0.0008895920097052533 0.0 0.0
0.0 0.01604429027775732 -0.014309802886181288 0.013261744388587487 0.0010480584975937938 -0.0013341186994701927 0.0 0.0
0.0 0.022889767921265087 -0.020245746692534032 0.01912092392012351 0.0011248227724105218 -0.0020101311329648367 0.0 0.0
0.0 0.03139010644556463 -0.027608062998512234 0.026434764386437215 0.0011732986120750032 -0.002861558392088183 0.0 0.0
0.0 0.04104446347118587 -0.03595499771647576 0.034764990392541856 0.001190007323933896 -0.0036715521398798206 0.0 0.0
0.0 0.050558605944464284 -0.04418635978177754 0.04303627157366956 0.0011500882081080053 -0.004491380059286544 0.0 0.0
0.0 0.057242174024463896 -0.04984411716386995 0.0488992037161726 0.0009449134476973494 -0.007295434786189582 0.0 0.0
0.0 0.05596544843065197 -0.048161238843585044 0.0476441549234049 0.0005170839201801554 -0.01643859575373813 0.0 0.0
0.0 0.04899566410024608 -0.040624498173186384 0.03648931837155373 0.0041351798016326085 4.8650319883769555e-15 0.0 0.0
0.0 0.05596544843065118 -0.048161238843583164 0.047644154923403244 0.0005170839201799318 0.016438595753749338 0.0 0.0
0.0 0.057242174024459316 -0.04984411716386547 0.048899203716168294 0.0009449134476971807 0.007295434786201361 0.0 0.0
0.0 0.050558605944458636 -0.04418635978177238 0.04303627157366495 0.001150088208107435 0.00449138005929313 0.0 0.0
0.0 0.04104446347117888 -0.03595499771646937 0.03476499039253612 0.0011900073239332614 0.0036715521398822865 0.0 0.0
0.0 0.03139010644555775 -0.027608062998505975 0.02643476438643169 0.0011732986120742905 0.0028615583920887926 0.0 0.0
0.0 0.022889767921257288 -0.020245746692526913 0.019120923920117158 0.0011248227724097535 0.0020101311329647933 0.0 0.0
0.0 0.016044290277748733 -0.014309802886173548 0.013261744388580512 0.0010480584975930335 0.0013341186994695713 0.0 0.0
0.0 0.0112203754577174 -0.009870238863012611 0.008927335734642064 0.0009429031283705426 0.0008895920097043151 0.0 0.0
0.0 0.0074873749183966 -0.006758409510864295 0.005945290719707373 0.0008131187911569198 0.0006483636265486988 0.0 0.0
0.0 0.005133755863750455 -0.004616689733872675 0.00394869450852204 0.0006679952253506363 0.0005014342812627562 0.0 0.0
0.0 0.0034291450961697906 -0.0031272103428346574 0.002604253334471688 0.000522957008362969 0.0003861939319978241 0.0 0.0
0.0 0.0021885773011168065 -0.0020417811155941075 0.0016581664037924639 0.0003836147118016437 0.00028568268830146833 0.0 0.0
0.0 0.0013086886007026698 -0.0012039832325440876 0.0009560562505467612 0.0002479269819973268 0.00019108065463224318 0.0 0.0
0.0 0.0005412059400675733 -0.0005610355829237866 0.00043394277067528557 0.0001270928122485009 9.247121138218514e-05 0.0 0.0
0.0 0.00022917699504939942 -4.739554747599176e-05 3.3763793953489496e-05 1.3631753522502536e-05 -2.6860756408259992e-05 0.0 0.0
0.0 1.7410600369717933e-06 1.0235143202221801e-07 -6.269351832825919e-09 -9.60820801892075e-08 1.0082617159601515e-06 0.0 0.0
0.0 -5.313513052673641e-07 -4.3832126494357e-08 3.5282650008205195e-08 8.549476486145046e-09 5.410889998344652e-08 0.0 0.0
0.0 0.0 0.0 0.0 0.0 0.0 0.0 0.0
0.0 0.0 0.0 0.0 0.0 0.0 0.0 0.0
0.0 0.0 0.0 0.0 0.0 0.0 0.0 0.0
0.0 0.0 0.0 0.0 0.0 0.0 0.0 0.0
0.0 0.0 0.0 0.0 0.0 0.0 0.0 0.0
0.0 0.0 0.0 0.0 0.0 0.0 0.0 0.0
0.0 -2.9527184606225605e-06 -3.46530564372322e-07 2.622985075240372e-07 8.42320568482473e-08 -1.5769605645781266e-07 0.0 0.0
0.0 5.564175429692569e-05 1.677064644056339e-05 -1.2714667981495028e-05 -4.055978459068089e-06 1.3887082675265523e-06 0.0 0.0
0.0 0.00032390302724805777 -0.00019721982677376745 0.0001460769746244871 5.114285214928059e-05 3.805365813268318e-05 0.0 0.0
0.0 0.0008859806072172914 -0.0008395930360814245 0.0006579450904629706 0.00018164794561845366 -3.4242573595364276e-05 0.0 0.0
0.0 0.001720330590109372 -0.0016067502326235516 0.0012894573712599426 0.00031729286136360864 -7.671138281530163e-05 0.0 0.0
0.0 0.0028088179892980054 -0.002575245449502246 0.0021190819587528246 0.00045616349074942053 -0.00011493679117303363 0.0 0.0
0.0 0.004204198222120869 -0.003840957685749091 0.0032413609829162185 0.0005995967028328732 -0.0001548653728094989 0.0 0.0
0.0 0.0061705039901093755 -0.005572060750004122 0.004826017278068703 0.0007460434719354138 -0.00019151917548318158 0.0 0.0
0.0 0.00913679299526158 -0.00804962020648325 0.007161232625854816 0.0008883875806284396 -0.00022605871763365268 0.0 0.0
0.0 0.012963861908568299 -0.011655733659854544 0.010640102500814071 0.0010156311590404736 -0.00034622522384883414 0.0 0.0
0.0 0.01875066374805562 -0.016697935692788286 0.015578201502030691 0.001119734190757606 -0.0005857468560582181 0.0 0.0
0.0 0.02640357369738685 -0.023356491063347744 0.022160520693837654 0.0011959703695100885 -0.0009490944556680608 0.0 0.0
0.0 0.03577658656802733 -0.03147875960586966 0.030240235023655235 0.0012385245822143988 -0.0014395489276102795 0.0 0.0
0.0 0.04617643325461908 -0.04045187479281235 0.03920792237876799 0.0012439524140443752 -0.0019028274989230586 0.0 0.0
0.0 0.05629840773306094 -0.04916891583075841 0.04794472670498818 0.0012241891257702322 -0.002115868154159803 0.0 0.0
0.0 0.0639752711488483 -0.055799200134102535 0.054637773775014525 0.0011614263590879936 -0.002959184370941936 0.0 0.0
0.0 0.06438835823699984 -0.05570296574875733 0.055237243159614695 0.000465722589142665 -0.011094109540469079 0.0 0.0
0.0 0.05800365852981219 -0.04836681576234421 0.044092876718433954 0.004273939043910211 3.1502578323738817e-15 0.0 0.0
0.0 0.06438835823699668 -0.05570296574875417 0.05523724315961162 0.0004657225891425043 0.011094109540475156 0.0 0.0
0.0 0.06397527114884302 -0.055799200134097796 0.05463777377500995 0.0011614263590878295 0.0029591843709491257 0.0 0.0
0.0 0.05629840773305563 -0.04916891583075349 0.04794472670498409 0.0012241891257693826 0.0021158681541631795 0.0 0.0
0.0 0.04617643325461181 -0.04045187479280553 0.03920792237876206 0.0012439524140434623 0.0019028274989240296 0.0 0.0
0.0 0.03577658656801965 -0.031478759605862654 0.030240235023649052 0.001238524582213598 0.0014395489276112295 0.0 0.0
0.0 0.02640357369737803 -0.023356491063339667 0.022160520693830524 0.001195970369509153 0.0009490944556680505 0.0 0.0
0.0 0.018750663748046705 -0.016697935692780157 0.015578201502023487 0.0011197341907566599 0.0005857468560580583 0.0 0.0
0.0 0.01296386190855707 -0.011655733659844437 0.010640102500804804 0.0010156311590396314 0.0003462252238484307 0.0 0.0
0.0 0.009136792995250905 -0.008049620206473323 0.0071612326258457225 0.0008883875806275977 0.00022605871763317943 0.0 0.0
0.0 0.006170503990098907 -0.0055720607499946595 0.004826017278060053 0.0007460434719346044 0.0001915191754824443 0.0 0.0
0.0 0.004204198222113568 -0.003840957685741852 0.0032413609829099054 0.0005995967028319454 0.00015486537280883536 0.0 0.0
0.0 0.0028088179892916034 -0.0025752454494954937 0.0021190819587470445 0.000456163490748449 0.00011493679117232356 0.0 0.0
0.0 0.0017203305901042855 -0.0016067502326180972 0.001289457371255414 0.00031729286136268316 7.671138281482211e-05 0.0 0.0
0.0 0.0008859806072134263 -0.000839593036077035 0.0006579450904594021 0.00018164794561763257 3.424257359486265e-05 0.0 0.0
0.0 0.00032390302724494817 -0.0001972198267713246 0.0001460769746226257 5.11428521486989e-05 -3.805365813273002e-05 0.0 0.0
0.0 5.564175429615233e-05 1.6770646440123247e-05 -1.2714667981153918e-05 -4.055978458969678e-06 -1.3887082673956562e-06 0.0 0.0
0.0 -2.9527184603589143e-06 -3.465305643372757e-07 2.622985074974165e-07 8.4232056839863e-08 1.5769605644659365e-07 0.0 0.0
0.0 0.0 0.0 0.0 0.0 0.0 0.0 0.0
0.0 0.0 0.0 0.0 0.0 0.0 0.0 0.0
0.0 0.0 0.0 0.0 0.0 0.0 0.0 0.0
0.0 0.0 0.0 0.0 0.0 0.0 0.0 0.0
0.0 0.0 0.0 0.0 0.0 0.0 0.0 0.0
0.0 0.0 0.0 0.0 0.0 0.0 0.0 0.0
0.0 1.7636623207809426e-06 8.772247649397419e-08 -1.1225958409810134e-08 -7.649651808398215e-08 -3.3797886538503865e-07 0.0 0.0
0.0 0.00013922062194844052 1.1335672663244149e-05 -9.277817471945075e-06 -2.0578551912990636e-06 6.065003815959012e-06 0.0 0.0
0.0 0.0005225144939183001 -0.0003564475571879547 0.0002633300365863446 9.31175206016102e-05 5.985506000185547e-05 0.0 0.0
0.0 0.0011647713020151152 -0.0011001631814018785 0.0008518454508808592 0.00024831773052101907 3.600508971355674e-05 0.0 0.0
0.0 0.002089983214607037 -0.0019546174054049454 0.001549777945771371 0.00040483945963357387 4.297480997847902e-05 0.0 0.0
0.0 0.003256917277906467 -0.0030404843916755748 0.0024720852622270957 0.0005683991294484796 7.193504573020898e-05 0.0 0.0
0.0 0.0048636539367588215 -0.004454132274121757 0.003712747183838101 0.0007413850902836551 0.00011298589379042504 0.0 0.0
0.0 0.007129935655631756 -0.006390115939003786 0.00546048771847488 0.0009296282205289054 0.0002120946567380354 0.0 0.0
0.0 0.010109327100881534 -0.009179748793835716 0.008046702710506977 0.0011330460833287367 0.0003739463973685274 0.0 0.0
0.0 0.014581228912276693 -0.01318154387778099 0.011846332060246066 0.0013352118175349206 0.0004941374617215839 0.0 0.0
0.0 0.020852111602775055 -0.01871893887426301 0.01718154647253075 0.0015373924017322476 0.0006127265398504955 0.0 0.0
0.0 0.029116483397902106 -0.025959171918371604 0.024233854333674133 0.0017253175846974392 0.0006354628015256616 0.0 0.0
0.0 0.039165761958483154 -0.034683294032438444 0.032804156747362846 0.0018791372850756089 0.0005049630691706438 0.0 0.0
0.0 0.050096032268043655 -0.04413635156247857 0.042164898561329336 0.0019714530011492076 0.00023836560339993932 0.0 0.0
0.0 0.0604104459684989 -0.053021510495113784 0.0510615309667205 0.0019599795283932763 -4.256836519030832e-05 0.0 0.0
0.0 0.0682442294398525 -0.05983279828775628 0.05790041880362129 0.0019323794841349631 -0.00019854009791844384 0.0 0.0
0.0 0.07066037881002944 -0.06226060922961677 0.060522906487499986 0.001737702742116723 -0.007238349976493932 0.0 0.0
0.0 0.06745497576222045 -0.05690933861787715 0.050606111130800324 0.0063032274870768665 2.192690473634684e-15 0.0 0.0
0.0 0.07066037881002538 -0.06226060922961328 0.06052290648749639 0.0017377027421168897 0.007238349976497051 0.0 0.0
0.0 0.0682442294398458 -0.05983279828775046 0.057900418803615655 0.0019323794841347955 0.00019854009792270606 0.0 0.0
0.0 0.06041044596849242 -0.05302151049510767 0.051061530966715556 0.0019599795283921106 4.2568365192233e-05 0.0 0.0
0.0 0.05009603226803606 -0.044136351562471296 0.042164898561323445 0.0019714530011478515 -0.000238365603399549 0.0 0.0
0.0 0.03916576195847532 -0.03468329403243109 0.0328041567473566 0.0018791372850744726 -0.0005049630691698788 0.0 0.0
0.0 0.029116483397891604 -0.025959171918361966 0.024233854333665598 0.0017253175846963552 -0.0006354628015255918 0.0 0.0
0.0 0.020852111602766194 -0.018718938874254742 0.017181546472523863 0.001537392401730888 -0.000612726539850447 0.0 0.0
0.0 0.014581228912265563 -0.01318154387777076 0.011846332060237061 0.001335211817533707 -0.0004941374617217164 0.0 0.0
0.0 0.0101093271008702 -0.009179748793825425 0.00804670271049767 0.0011330460833277522 -0.00037394639736870717 0.0 0.0
0.0 0.0071299356556213875 -0.006390115938994206 0.005460487718466202 0.0009296282205280071 -0.00021209465673805057 0.0 0.0
0.0 0.004863653936749908 -0.004454132274113806 0.003712747183831115 0.0007413850902826893 -0.0001129858937908121 0.0 0.0
0.0 0.003256917277899476 -0.0030404843916687157 0.002472085262221413 0.0005683991294473034 -7.193504573084329e-05 0.0 0.0
0.0 0.0020899832146007878 -0.001954617405398606 0.0015497779457661 0.0004048394596325045 -4.297480997858446e-05 0.0 0.0
0.0 0.0011647713020105082 -0.001100163181396753 0.0008518454508767559 0.00024831773051999824 -3.6005089713611545e-05 0.0 0.0
0.0 0.0005225144939151754 -0.00035644755718524973 0.00026333003658431694 9.311752060093311e-05 -5.985506000158159e-05 0.0 0.0
0.0 0.00013922062194699405 1.1335672663718867e-05 -9.277817472282867e-06 -2.057855191435512e-06 -6.0650038158280945e-06 0.0 0.0
0.0 1.7636623200280421e-06 8.77224763944313e-08 -1.1225958337534084e-08 -7.649651805697673e-08 3.3797886538320207e-07 0.0 0.0
0.0 0.0 0.0 0.0 0.0 0.0 0.0 0.0
0.0 0.0 0.0 0.0 0.0 0.0 0.0 0.0
0.0 0.0 0.0 0.0 0.0 0.0 0.0 0.0
SCALARS Wm float 4
LOOKUP_TABLE default
5.483507634078665 1.7452283869422789 1.654706008968674 2.0835732381677117
1.8050975809237204 1.121661646156111 0.25306559000298945 0.43037034476461977
0.35251427605656116 0.35459758010202397 -0.0006221576566737951 -0.0014611463887889233
0.36824638095548473 0.37163294119203594 -0.0004873687015177926 -0.002899191535033343
0.5312830924803575 0.5301851549173623 0.002459827114730732 -0.0013618895517354677
0.8327119080366081 0.6273678836027189 0.05331030971914245 0.1520337147147471
1.316825185930371 0.8011430719051733 0.1714837336585552 0.3441983803666418
1.9435593686428425 0.9738344306204502 0.3518761451719235 0.6178487928504696
2.76309711467802 1.173920759354515 0.6185929569761986 0.9705833983473062
3.8825894173629054 1.4255129862875955 1.021058157989957 1.436018273085355
5.479381610050913 1.7603810537110702 1.6399389932720745 2.0790615630677696
7.7823948201144475 2.2071204068515855 2.559697785203027 3.0155766280598364
11.212232598467883 2.777048643500943 4.059284687898576 4.375899267068366
16.10619128680407 3.4826331514427036 6.351912583895389 6.271645551465977
22.679196013676965 4.277054803634007 9.648471916861652 8.753669293181295
30.857715178786275 5.061799159881036 14.025934050611218 11.769981968294008
40.08019677075481 5.684987143898207 19.24228287886722 15.152926747989373
49.331390495373384 6.005181535581124 24.778026774356416 18.548182185435845
57.38486257758164 6.014470931069168 29.844340520143795 21.526051126368692
62.92069680586802 5.798954393138102 33.457420056787356 23.66432235594257
64.82396940875432 5.532653864868112 34.797543104855265 24.493772439030977
62.920696805866186 5.798954393138234 33.45742005678609 23.664322355941845
57.38486257757695 6.014470931069316 29.844340520140708 21.526051126366912
49.331390495366946 6.005181535581419 24.778026774352224 18.54818218543332
40.080196770742226 5.6849871438898845 19.242282878864664 15.152926747987685
30.857715178775702 5.061799159875125 14.025934050608436 11.76998196829215
22.679196013669397 4.277054803633357 9.64847191685768 8.753669293178348
16.106191286794736 3.4826331514399325 6.351912583891722 6.271645551463091
11.212232598458417 2.777048643497944 4.0592846878951026 4.37589926706537
7.782394820106429 2.207120406850506 2.559697785199471 3.0155766280564507
5.479381610042961 1.760381053708111 1.639938993269637 2.079061563065211
3.8825894173572895 1.4255129862871003 1.0210581579875435 1.4360182730826452
2.763097114673081 1.1739207593529077 0.6185929569747646 0.970583398345409
1.943559368638922 0.9738344306197091 0.351876145170666 0.6178487928485473
1.316825185927596 0.801143071904586 0.17148373365784275 0.3441983803651675
0.8327119080348644 0.6273678836022281 0.053310309718987293 0.15203371471364896
0.5312830924794913 0.530185154916715 0.0024598271146607947 -0.0013618895518843913
0.36824638095511764 0.37163294119163415 -0.0004873687015116937 -0.002899191535004801
0.3525142760563329 0.3545975801017171 -0.000622157656654145 -0.0014611463887299163
1.8050975809229644 1.1216616461566764 0.25306559000247203 0.43037034476381475
5.483507634066744 1.7452283869351743 1.6547060089663128 2.0835732381652576
5.916580986287126 3.0402011443220984 1.2185638819441236 1.6578159600209044
0.4574802962852054 0.21790025926079562 0.0626896077873007 0.17689042923710932
0.18457317186260017 0.18487588524998227 5.5326437845938995e-06 -0.0003082460311667444
0.3015267459069654 0.3017655547483757 -9.213948674856948e-06 -0.00022959489273551763
0.4235436013679408 0.42940411804861595 -0.0015135516325803272 -0.0043469650480947
0.6855267801519048 0.5886423070623452 0.027460737206339462 0.06942373588322023
1.0903927013037957 0.7036549273041647 0.12109560922954885 0.26564216477008235
1.635659611721559 0.8486854775954931 0.27707601774979773 0.5098981163762679
2.341099287523389 1.0038201368928825 0.5109406679728563 0.8263384826576505
3.279534972758553 1.1846945681448742 0.8508067082712426 1.2440336963424359
4.606310480590553 1.407388761207402 1.37611728438277 1.8228044350003798
6.589081846726336 1.6898671584560692 2.238762967172038 2.660451721098229
9.435481226784859 2.030878339284874 3.5075809997367617 3.8970218877632226
13.642188618540484 2.437177821871037 5.566977614929488 5.638033181739955
19.366436991352984 2.8804374402024178 8.537559148665984 7.948440402484581
26.553840238277644 3.285981267560756 12.490708037258015 10.777150933458863
34.74225013328217 3.5523587936096948 17.264298816614744 13.925592523057725
43.06975981583553 3.6109118279535353 22.359879755489157 17.098968232392824
50.41076063208865 3.4666757348570965 27.041818570392213 19.90226632683936
55.56043611170142 3.1790049237147047 30.487914193798485 21.893516994188232
57.42995363620113 2.926304578161607 31.844746694568876 22.65890236347063
55.56043611169931 3.1790049237142592 30.487914193797415 21.893516994187646
50.41076063208375 3.4666757348561346 27.041818570389736 19.902266326837893
43.0697598158303 3.6109118279542423 22.35987975548549 17.098968232390593
34.742250133277224 3.5523587936093732 17.264298816611966 13.925592523055878
26.553840238271675 3.285981267559441 12.490708037255263 10.777150933456983
19.366436991345857 2.8804374402012645 8.53755914866256 7.948440402482038
13.642188618532662 2.4371778218689566 5.566977614926314 5.638033181737393
9.435481226777103 2.0308783392829377 3.5075809997336798 3.8970218877604834
6.589081846719328 1.68986715845497 2.2387629671690785 2.660451721095277
4.606310480584337 1.4073887612060452 1.3761172843804348 1.8228044349978572
3.2795349727536927 1.1846945681443684 0.8508067082692979 1.244033696340026
2.3410992875192997 1.0038201368919 0.5109406679715942 0.8263384826558053
1.6356596117181708 0.8486854775946362 0.2770760177488302 0.5098981163747037
1.0903927013014176 0.703654927303597 0.12109560922905288 0.26564216476876756
0.6855267801503622 0.5886423070616779 0.02746073720602828 0.06942373588265645
0.4235436013672553 0.42940411804792744 -0.001513551632579569 -0.004346965048092641
0.3015267459066875 0.3017655547480833 -9.21394867310587e-06 -0.00022959489272272572
0.1845731718626068 0.18487588524999443 5.532643782797519e-06 -0.0003082460311704453
0.45748029628448406 0.21790025926117926 0.06268960778688262 0.17689042923642212
5.916580986275868 3.0402011443157884 1.2185638819417801 1.6578159600182996
4.3549780839902645 2.4353009640591767 0.762920197903169 1.1567569220279181
0.19484406387870584 0.07736444746973521 0.022639973167751293 0.09483964324121905
0.11295101663631343 0.11295101663631343 0.0 0.0
0.2245644830413336 0.22454021809463362 1.0145746364015119e-05 1.4119200336005697e-05
0.3432639925587212 0.3442196068823019 -6.0764571905631586e-05 -0.0008948497516751508
0.5459628793847695 0.5238547826521728 0.006808391163199581 0.015299705569397035
0.8805026483848308 0.6323790026053828 0.07017055278144445 0.17795309299800371
1.3528575418454676 0.7775453963976098 0.19218227615885702 0.38312986928900084
1.9532387858266296 0.922268184456573 0.3758399749565375 0.6551306264135193
2.7600294170465407 1.0894833260348982 0.6584672197319968 1.0120788712796451
3.8872354207978352 1.2904480876901783 1.0898933711598866 1.50689396194777
5.526108865459383 1.537355901211415 1.7590611586349043 2.2296918056130646
8.049305092695793 1.8495188219644139 2.907248639244624 3.2925376314867547
11.630849658027246 2.21297553918937 4.586871081303309 4.831003037534568
16.65201880784433 2.6060367773286153 7.1539081637771345 6.892073866738586
23.001468908926952 2.970705037433911 10.590850146997917 9.439913724495122
30.282979716910635 3.2287571479544903 14.739680067317432 12.314542501638714
37.74472330222007 3.318332581160262 19.21849758206367 15.207893138996146
44.38111210489028 3.2126187674568922 23.39868694104139 17.769806396391992
49.077927962804 2.9775095353876906 26.505513135965785 19.594905291450523
50.76762619862279 2.6957691501583536 27.744929427629337 20.3269276208351
49.077927962802256 2.9775095353874104 26.50551313596489 19.59490529144997
44.381112104887656 3.212618767457986 23.398686941039088 17.769806396390596
37.744723302215675 3.3183325811604356 19.218497582060973 15.207893138994253
30.28297971690616 3.2287571479549895 14.739680067314392 12.314542501636769
23.001468908921087 2.970705037432095 10.590850146995562 9.439913724493428
16.65201880783799 2.606036777326902 7.153908163774524 6.892073866736564
11.630849658020708 2.2129755391880748 4.586871081300462 4.831003037532171
8.049305092689426 1.8495188219633407 2.907248639241911 3.292537631484175
5.5261088654534465 1.5373559012105125 1.7590611586324232 2.229691805610511
3.8872354207924764 1.2904480876892055 1.0898933711579117 1.506893961945358
2.7600294170421837 1.08948332603394 0.6584672197305595 1.0120788712776836
1.9532387858229052 0.9222681844553927 0.375839974955539 0.6551306264119731
1.3528575418425914 0.7775453963969534 0.192182276158144 0.38312986928749415
0.8805026483827469 0.6323790026046437 0.07017055278108221 0.177953092997021
0.5459628793836776 0.523854782651368 0.006808391163123975 0.015299705569185685
0.343263992558206 0.34421960688172987 -6.076457189568812e-05 -0.0008948497516282392
0.2245644830411015 0.22454021809439667 1.0145746364596143e-05 1.4119200340271062e-05
0.11295101663625032 0.11295101663625032 0.0 0.0
0.19484406387815445 0.07736444747023336 0.02263997316742375 0.09483964324049743
4.354978083980481 2.4353009640540213 0.7629201979010967 1.156756922025363
3.2160337128170577 1.915683733048188 0.48649048053345345 0.8138594992354167
0.10106911303651508 0.06052205216088588 -0.000997588650025331 0.04154464952565451
0.07870759553389362 0.07870759553389362 0.0 0.0
0.16165544186226954 0.16165655409273202 -2.0746257414353945e-07 -9.047678883628789e-07
0.27739455373454835 0.27845714876857114 -0.00014481743657183328 -0.0009177775974510144
0.4273572642238811 0.43355790400511185 -0.0018840952732840555 -0.00431654450794672
0.6951865814021237 0.5865225403537114 0.028843409296526828 0.07982063175188521
1.084803747801239 0.701715899661284 0.11915451074687146 0.26393333739308344
1.594493880602954 0.8380629508288163 0.26303252265018656 0.49339840712395133
2.2680032095117966 0.9908154725207483 0.4844254012916247 0.7927623356994237
3.1938161253084507 1.168037122624362 0.8165583101403092 1.2092206925437785
4.578111381877679 1.3912205170376966 1.3719448689962377 1.8149459958437455
6.625328286240903 1.662159491622433 2.240452373869226 2.7227164207492422
9.764536870158635 1.9888222303995986 3.7362388265620146 4.039475813197019
14.053293211869306 2.338299865057306 5.86672039215309 5.848272954658904
19.51439972736148 2.664070288290814 8.74118028337556 8.1091491556951
25.9177543778482 2.9134183458360368 12.33848807701271 10.665847954999453
32.542721589284284 3.0315745539374346 16.22692847583826 13.284218559508586
38.50482852243129 2.9765239176924423 19.88424803733052 15.644056567408336
42.788236048398716 2.7831065450704178 22.640295262484116 17.364834240844186
44.34214408890133 2.4527758342556227 23.82677039888736 18.062597855758344
42.78823604839747 2.783106545070897 22.64029526248305 17.364834240843518
38.50482852242722 2.9765239176913316 19.884248037328682 15.644056567407215
32.54272158928003 3.031574553936369 16.226928475836328 13.284218559507321
25.91775437784352 2.9134183458352876 12.338488077010378 10.665847954997854
19.514399727358068 2.6640702882912635 8.741180283373332 8.109149155693466
14.053293211864313 2.3382998650561513 5.86672039215096 5.848272954657201
9.764536870153481 1.988822230399184 3.736238826559518 4.0394758131947786
6.625328286235064 1.662159491620816 2.240452373867105 2.7227164207471435
4.57811138187291 1.3912205170371805 1.3719448689942688 1.8149459958414615
3.1938161253037793 1.1680371226231356 0.8165583101388112 1.2092206925418323
2.2680032095080738 0.9908154725198581 0.4844254012904441 0.7927623356977708
1.5944938806001696 0.8380629508281613 0.26303252264945554 0.49339840712255273
1.0848037477988366 0.7017158996606725 0.11915451074626245 0.26393333739190217
0.6951865814004332 0.5865225403528957 0.028843409296248616 0.07982063175128866
0.42735726422302506 0.43355790400428584 -0.0018840952732912864 -0.004316544507969493
0.27739455373412214 0.2784571487681227 -0.00014481743656939486 -0.0009177775974311826
0.16165544186210176 0.16165655409256524 -2.0746257418463764e-07 -9.047678893264398e-07
0.07870759553380748 0.07870759553380748 0.0 0.0
0.10106911303586726 0.0605220521610766 -0.0009975886502635424 0.04154464952505413
3.216033712809572 1.9156837330443932 0.4864904805319603 0.8138594992332191
2.334225494760247 1.4817705850786353 0.29280639095602984 0.5596485187255823
0.09700171727553047 0.11335956980437101 -0.0063059151135123155 -0.010051937415328352
0.07034160467955453 0.07034160467955453 0.0 0.0
0.1208793424722132 0.1208793424722132 0.0 0.0
0.22099207888341957 0.2205708188762919 6.726871533102752e-05 0.0003539912917965725
0.3414782012191708 0.3461006717478747 -0.0007863798060644541 -0.0038360907226393697
0.5322658509332063 0.5241553835912208 0.004381144752567127 0.0037293225894183997
0.834833998871052 0.6223444449125983 0.05959964071970973 0.15288991323874407
1.2566509039618141 0.7483003654640547 0.16592702042607074 0.3424235180716889
1.8025300872233854 0.8854902613154592 0.3287788699490492 0.5882609559588763
2.5584610825124585 1.0452003843512898 0.5856713035536387 0.9275893946075299
3.6720783913898716 1.240773433428003 1.008051758039941 1.4232531999219284
5.384421947345556 1.4828229879208592 1.730614235632985 2.170984723791711
7.884263201637388 1.7646040774988414 2.8349906904871083 3.2846684336514373
11.514416115477035 2.0691812589656102 4.620317760523554 4.824917095987876
16.213029416489643 2.3644025230564973 7.071720818503385 6.776906074929768
21.656143050034675 2.6062822840962996 10.025316695604051 9.024544070334317
27.429221626858244 2.7499311949029535 13.333603796167926 11.34568663578736
32.74727016648852 2.748816238647159 16.524696975869507 13.473756951971842
36.68660827077052 2.592743743373516 19.015755129550563 15.078109397846443
38.137804733540555 2.2051922924800533 20.142319139713518 15.790293301346988
36.686608270769966 2.5927437433751535 19.015755129549202 15.078109397845612
32.747270166485116 2.7488162386449466 16.52469697586879 13.473756951971378
27.429221626855494 2.7499311949028433 13.333603796166358 11.345686635786297
21.656143050030334 2.6062822840948225 10.025316695602383 9.024544070333132
16.213029416485103 2.3644025230554115 7.071720818501442 6.776906074928245
11.514416115472716 2.0691812589645475 4.620317760521795 4.824917095986372
7.884263201632872 1.764604077498001 2.834990690485227 3.284668433649642
5.384421947340922 1.4828229879192727 1.7306142356315393 2.170984723790107
3.6720783913856505 1.2407734334273668 1.0080517580383233 1.4232531999199602
2.558461082508529 1.0452003843501503 0.5856713035524455 0.9275893946059343
1.8025300872201824 0.8854902613144437 0.3287788699482054 0.5882609559575335
1.256650903959212 0.7483003654632985 0.16592702042542498 0.34242351807048854
0.8348339988691702 0.6223444449118908 0.0595996407193472 0.1528899132379318
0.5322658509319864 0.5241553835905284 0.004381144752403497 0.003729322589054709
0.3414782012185847 0.346100671747152 -0.000786379806033607 -0.0038360907225336587
0.22099207888306852 0.2205708188759372 6.726871533108478e-05 0.0003539912918002479
0.12087934247205262 0.12087934247205262 0.0 0.0
0.07034160467941881 0.07034160467941881 0.0 0.0
0.09700171727481242 0.11335956980424136 -0.0063059151137298056 -0.010051937415699357
2.3342254947546466 1.4817705850759118 0.2928063909549394 0.5596485187237965
1.6683437358133377 1.1561866251459334 0.1629152174110286 0.3492418932563759
0.10222179794314094 0.13764394455704804 -0.013357309496566527 -0.022064837117340502
0.0795201150259142 0.0795201150259142 0.0 0.0
0.10097182940045756 0.10097182940045756 0.0 0.0
0.17741162492454027 0.17733402843515322 7.669628395727339e-06 6.992686099134184e-05
0.27424170554325106 0.2742180098842108 5.118713936264583e-05 -2.749148032229516e-05
0.4008636838507871 0.40816553655441123 -0.0023748505594169264 -0.004927002144207299
0.6235355429315442 0.5689488109284067 0.019681224147546108 0.03490550785559129
0.9326837808540893 0.6388899636661854 0.08546266739473252 0.20833114979317122
1.3754309312790551 0.7768325005896648 0.20044406889786875 0.3981543617915215
1.964282463392939 0.9163687167302055 0.38317049798123504 0.6647432486814983
2.827999352783162 1.085643028919897 0.6860937706622755 1.0562625532009902
4.154137347069021 1.295118525115757 1.206542221636114 1.652476600317151
6.1979567374627775 1.5420784631448319 2.1026467766543786 2.553231497663568
9.09815819868121 1.8096277677233146 3.458476637740513 3.83005379321738
12.900435524158292 2.065835821074623 5.3625013837808515 5.472098319302816
17.548212917629186 2.29510616708817 7.878816677108647 7.374290073432371
22.445506868166504 2.4691803540209043 10.581357906162363 9.394968607983238
27.06387409426716 2.523349709586644 13.23817002384347 11.302354360837047
30.70080985800855 2.405702813544035 15.498066649725457 12.797040394739057
32.079217369777076 1.9552344768617589 16.603015928230942 13.52096696468437
30.700809858006473 2.405702813543858 15.498066649724302 12.797040394738316
27.06387409426708 2.523349709588295 13.238170023842446 11.302354360836341
22.445506868163452 2.4691803540203683 10.581357906160871 9.394968607982223
17.54821291762622 2.2951061670873663 7.878816677107407 7.374290073431447
12.900435524154785 2.0658358210733963 5.362501383779623 5.472098319301765
9.098158198678082 1.8096277677229324 3.4584766377390643 3.830053793216085
6.197956737459487 1.542078463144185 2.102646776653092 2.5532314976622095
4.154137347065647 1.2951185251153619 1.2065422216347284 1.6524766003155575
2.827999352779586 1.085643028919064 0.6860937706610979 1.056262553199425
1.9642824633899378 0.9163687167296318 0.3831704979802659 0.66474324868004
1.3754309312765571 0.7768325005888124 0.20044406889726496 0.3981543617904799
0.932683780852261 0.6388899636655492 0.08546266739438509 0.20833114979232656
0.6235355429301266 0.5689488109278091 0.019681224147265128 0.03490550785505224
0.40086368384996596 0.4081655365534528 -0.0023748505593784155 -0.004927002144108438
0.2742417055427717 0.27421800988368844 5.1187139365547534e-05 -2.7491480282172897e-05
0.17741162492423412 0.1773340284348533 7.669628394994188e-06 6.992686098583603e-05
0.10097182940025774 0.10097182940025774 0.0 0.0
0.0795201150257382 0.0795201150257382 0.0 0.0
0.1022217979424517 0.13764394455665113 -0.013357309496655605 -0.022064837117543843
1.6683437358093844 1.1561866251440638 0.16291521741034581 0.34924189325497484
1.1528225251742914 0.8837775558224168 0.07386529958759429 0.19517966976428008
0.12397842339421367 0.16470583902002608 -0.011269302002198318 -0.02945811362361405
0.09775648552526289 0.09775648552526289 0.0 0.0
0.09739624794017294 0.09739624794017294 0.0 0.0
0.14826740961984597 0.1481804780367249 7.866491329758677e-06 7.906509179129297e-05
0.22000519318095235 0.2203191195021174 -2.4594094280023393e-05 -0.00028933222688501143
0.30984573858597997 0.3133158499448566 -0.0007468631386795688 -0.0027232482201970743
0.4371250119957031 0.43751217747545096 -0.002008782360894863 0.0016216168811470553
0.6700588220317842 0.58408401165724 0.03064592719806556 0.055328883176478744
0.9715200139144274 0.6471446954947848 0.09517002665325631 0.22920529176638646
1.4218815673318381 0.7818419336376684 0.21645338113561363 0.4235862525585563
2.062298267577735 0.9265191466056372 0.4210904183914833 0.7146887025806152
3.045206202670281 1.104431327832 0.7752820327716203 1.1654928420666608
4.57228620130703 1.3155476049531871 1.3963883193123288 1.8603502770415141
6.801031747495044 1.5427777411229155 2.3899058092723755 2.868348197099752
9.86456522568137 1.7773283518558567 3.8988342570029504 4.188402616822564
13.426799987704651 1.984612824784858 5.680702749844906 5.761484413074885
17.505773106203872 2.17209938456617 7.900203796048179 7.433469925589517
21.56281331300102 2.2902469976571775 10.183883245847484 9.088683069496353
24.85728883659678 2.223563311130069 12.142147175141725 10.491578350324984
26.20031068322387 1.7075758438509223 13.246497488258482 11.24623735111447
24.857288836594947 2.223563311128678 12.142147175141467 10.491578350324806
21.562813312999438 2.290246997657886 10.183883245846125 9.088683069495428
17.50577310620177 2.1720993845662693 7.9002037960469025 7.433469925588595
13.426799987702585 1.9846128247847745 5.6807027498438085 5.761484413074005
9.864565225679272 1.7773283518563805 3.8988342570015257 4.1884026168213655
6.801031747492548 1.5427777411223813 2.389905809271418 2.8683481970987468
4.572286201304242 1.3155476049522161 1.396388319311464 1.86035027704056
3.0452062026673605 1.1044313278315456 0.7752820327705107 1.1654928420653032
2.0622982675753403 0.926519146605386 0.42109041839059635 0.7146887025793575
1.4218815673292875 0.7818419336369018 0.21645338113493245 0.4235862525574534
0.9715200139127573 0.6471446954944169 0.09517002665282946 0.2292052917655107
0.6700588220303205 0.5840840116566332 0.030645927197753307 0.05532888317593408
0.4371250119948926 0.4375121774747185 -0.002008782360926234 0.0016216168811004027
0.3098457385855095 0.3133158499442326 -0.0007468631386608293 -0.0027232482200621856
0.22000519318047554 0.22031911950164068 -2.459409427860655e-05 -0.000289332226886559
0.14826740961953233 0.14818047803642106 7.866491328616307e-06 7.90650917826556e-05
0.09739624793993326 0.09739624793993326 0.0 0.0
0.09775648552500708 0.09775648552500708 0.0 0.0
0.12397842339371809 0.1647058390192498 -0.011269302002120209 -0.029458113623411487
1.1528225251715116 0.8837775558212055 0.07386529958715361 0.1951796697631522
0.7983007397993357 0.7526952969766643 0.016097602769327275 0.029507840053344503
0.13930058477251944 0.14712459629749525 -0.002452493189357663 -0.005371518335618155
0.11893678733987553 0.11893678733987553 0.0 0.0
0.10486726970050554 0.10486726970050554 0.0 0.0
0.13242015855452405 0.13243601424855847 -1.552368679381478e-06 -1.4303325355042678e-05
0.18063374190601653 0.18044650241909185 1.8628531426728607e-05 0.0001686109554979959
0.23968639740490702 0.240810160686264 -0.0001778331743332333 -0.0009459301070237307
0.3157568219346355 0.3191917512575704 -0.0010735638682600828 -0.002361365454674786
0.4309762422244029 0.43051678770962737 -0.0015645672700918532 0.0020240217848673694
0.645339920665511 0.5601730549700297 0.02904076136043546 0.05612610433504617
0.9332733323621459 0.6390533356725175 0.0887753615354837 0.20544463515414485
1.3670594259742357 0.7528865728404233 0.20550644884208716 0.4086664042917253
2.0437362275053386 0.9037512698316816 0.42211562862917357 0.7178693290444838
3.103975615085708 1.0788060613615063 0.8127073978726406 1.2124621558515614
4.715447507114013 1.275110645699183 1.4908351759939658 1.9495016854208647
6.9010455629014675 1.4751118904520628 2.47838529799715 2.9475483744522553
9.685937101698386 1.6732116287990193 3.860060660536076 4.152664812363294
12.787367928072706 1.8661214872734724 5.421766341093531 5.499480099705696
16.016787808085194 2.026029729389431 7.114556725745948 6.876201352949819
19.022791076522495 2.032270103881274 8.841137448653125 8.149383523988101
20.371383773817865 1.4571049356832813 9.970215212109466 8.944063626025113
19.02279107652331 2.032270103882304 8.84113744865299 8.149383523988014
16.016787808084143 2.026029729389967 7.114556725745028 6.876201352949149
12.787367928069475 1.8661214872716092 5.421766341092775 5.499480099705089
9.68593710169655 1.6732116287989052 3.860060660535141 4.152664812362502
6.901045562899233 1.4751118904520668 2.4783852979959877 2.9475483744511775
4.715447507112359 1.275110645698901 1.4908351759933118 1.9495016854201463
3.1039756150841624 1.078806061361075 0.8127073978721239 1.2124621558509632
2.0437362275035413 0.9037512698312431 0.4221156286286163 0.7178693290436821
1.367059425972275 0.7528865728399308 0.2055064488415267 0.4086664042908171
0.9332733323606184 0.6390533356719477 0.08877536153519339 0.20544463515347736
0.6453399206642907 0.5601730549695157 0.029040761360169646 0.05612610433460537
0.4309762422236805 0.43051678770904744 -0.0015645672701283752 0.0020240217847613574
0.3157568219341642 0.31919175125701177 -0.00107356386823476 -0.0023613654546128645
0.23968639740445766 0.24081016068579103 -0.00017783317433034813 -0.0009459301070029361
0.18063374190564246 0.18044650241873034 1.8628531425078996e-05 0.00016861095548703948
0.13242015855423742 0.13243601424827037 -1.5523686792083362e-06 -1.4303325353756484e-05
0.10486726970026597 0.10486726970026597 0.0 0.0
0.11893678733955113 0.11893678733955113 0.0 0.0
0.139300584772164 0.14712459629698943 -0.002452493189315685 -0.005371518335509748
0.7983007397975195 0.7526952969756433 0.01609760276907742 0.02950784005279886
0.5503821865423391 0.5575179532035104 -0.00162329572636971 -0.0055124709348017015
0.14862112564327035 0.1476076355921003 0.00022460142014017593 0.0007888886310298712
0.13853185680790253 0.13853185680790253 0.0 0.0
0.11846249762512989 0.11846249762512989 0.0 0.0
0.1275753447778665 0.1275753447778665 0.0 0.0
0.15564921927230468 0.15521449435363152 5.8123222030219445e-05 0.0003766016966429744
0.19051912993793788 0.1911477022987533 -6.019102744238584e-05 -0.0005683813333730742
0.2318628120829172 0.23652118507394904 -0.0008191666609308164 -0.0038392063301009613
0.28536856043583725 0.28844519650709827 -0.0009607160227059022 -0.002115920048555169
0.37405735376012506 0.38600759158476666 -0.0023891590790654604 -0.009561078745576112
0.528569006336244 0.46780128118800396 0.01387256253701776 0.04689516261122241
0.7717976036429643 0.5687624425249307 0.05546403229827876 0.14757112881975493
1.1657286991888607 0.6812839804763461 0.15558711564848487 0.32885760306402934
1.8039980071236497 0.8202254057107422 0.35304338933822244 0.6307292120746846
2.8052969599459265 0.9795135566273045 0.7225801454566027 1.1032032578620186
4.238415295715405 1.1496415928354384 1.3203021808846227 1.7684715219953442
6.1010282056914615 1.3337162868835293 2.155146985716053 2.6121649330918784
8.28752539352203 1.5155805196908565 3.1789599391390215 3.592984934692152
10.760208525720534 1.7073431260539624 4.387676165566932 4.665189234099643
13.397115076197156 1.8224854515279003 5.795440759404624 5.779188865264631
14.707093002495016 1.2151069885745571 6.818683710848217 6.673302303072241
13.397115076197414 1.8224854515287776 5.795440759404275 5.779188865264359
10.760208525720886 1.707343126055753 4.38767616556614 4.665189234098991
8.287525393521795 1.5155805196916514 3.1789599391384447 3.592984934691697
6.101028205690174 1.3337162868833303 2.1551469857155046 2.61216493309134
4.23841529571375 1.1496415928348427 1.320302180884102 1.7684715219948046
2.8052969599451014 0.9795135566276251 0.7225801454560664 1.1032032578614095
1.8039980071230213 0.8202254057108092 0.35304338933795876 0.6307292120742536
1.1657286991879474 0.6812839804761932 0.1555871156482424 0.3288576030635117
0.771797603641966 0.5687624425246269 0.05546403229805623 0.14757112881928305
0.5285690063353291 0.4678012811875623 0.013872562536870681 0.04689516261089611
0.37405735375959526 0.3860075915842711 -0.0023891590790755908 -0.009561078745600252
0.2853685604354752 0.2884451965067167 -0.0009607160227013009 -0.0021159200485402216
0.2318628120826386 0.23652118507362516 -0.0008191666609207573 -0.003839206330065858
0.19051912993757936 0.19114770229836955 -6.019102743876383e-05 -0.0005683813333514712
0.1556492192718998 0.15521449435323584 5.8123222028765327e-05 0.0003766016966351834
0.12757534477760693 0.12757534477760693 0.0 0.0
0.11846249762486363 0.11846249762486363 0.0 0.0
0.13853185680755653 0.13853185680755653 0.0 0.0
0.148621125642932 0.1476076355917469 0.00022460142014173632 0.000788888631043367
0.5503821865412833 0.5575179532024875 -0.0016232957263780461 -0.005512470934826217
0.39216517095818465 0.3953793537586464 -0.0004254878218320704 -0.002788694978629746
0.1495194077380298 0.1490723347539806 5.8204424952654365e-05 0.00038886855909652613
0.15306784699653167 0.15312925468746372 -4.477960232600502e-06 -5.692973069946251e-05
0.1341182288050004 0.1341182288050004 0.0 0.0
0.13105945377974795 0.13105945377974795 0.0 0.0
0.14412100526759755 0.14393696919615057 2.115468895025668e-05 0.0001628813824967075
0.16241469735267391 0.16284226492006623 -4.630670229204104e-05 -0.00038126086510026667
0.18120457822208094 0.18230671412951288 -0.00014628903584250992 -0.0009558468715894318
0.20098421639404443 0.2012641055970952 -0.00013860314846391635 -0.00014128605458680937
0.22500620300841684 0.2268643203347082 -0.0008444195364645242 -0.0010136977898268272
0.27648644770315745 0.2820749647416734 6.724481167638804e-05 -0.005655761850192327
0.35359987909257895 0.32148295901170054 0.007017528652375065 0.025099391428503485
0.49143817255574207 0.40566190338373026 0.021084112943906885 0.06469215622810494
0.7491519599921868 0.5075223646337224 0.07219370660104146 0.1694358887574229
1.2021304531179444 0.6318818830640915 0.1924140834197099 0.3778344866341429
1.9150626397068666 0.7447131117868919 0.4325920745011601 0.7377574534188147
2.941054292621811 0.8886510233429913 0.8222164957496558 1.2301867735291636
4.3252628362111905 1.068303919479453 1.4051560416904851 1.8518028750412519
5.965804227496631 1.2423496150448479 2.135825012271512 2.5876296001802706
7.948788860989313 1.4800815203870246 3.0225433298373763 3.446164010764908
9.535430758389504 0.9816256663946579 4.131604550260262 4.422200541734584
7.948788860987773 1.4800815203847146 3.0225433298377746 3.4461640107652864
5.965804227495759 1.2423496150450193 2.1358250122709665 2.587629600179774
4.325262836208866 1.0683039194779171 1.405156041690068 1.8518028750408784
2.9410542926214496 0.888651023343783 0.8222164957490974 1.2301867735285699
1.9150626397062362 0.7447131117863031 0.43259207450116693 0.7377574534187659
1.2021304531173251 0.6318818830639961 0.1924140834195 0.3778344866338291
0.7491519599919461 0.5075223646336947 0.0721937066009709 0.16943588875728008
0.4914381725554833 0.4056619033837992 0.021084112943797043 0.064692156227887
0.3535998790920665 0.3214829590113814 0.007017528652298433 0.025099391428386637
0.27648644770277697 0.28207496474152466 6.724481160824062e-05 -0.005655761850355966
0.22500620300833463 0.22686432033464962 -0.000844419536462755 -0.001013697789852223
0.20098421639396385 0.20126410559694416 -0.00013860314845244728 -0.00014128605452781435
0.18120457822189961 0.1823067141293257 -0.0001462890358412257 -0.0009558468715849052
0.16241469735241132 0.16284226491977777 -4.630670228850972e-05 -0.00038126086507791286
0.14412100526719313 0.1439369691957543 2.1154688949125435e-05 0.00016288138248967592
0.13105945377946696 0.13105945377946696 0.0 0.0
0.13411822880466118 0.13411822880466118 0.0 0.0
0.15306784699613332 0.15312925468704883 -4.477960231111202e-06 -5.692973068440256e-05
0.14951940773767153 0.1490723347536369 5.8204424950729946e-05 0.0003888685590838928
0.39216517095745335 0.3953793537578396 -0.0004254878218206849 -0.002788694978565569
0.2708760816034377 0.27058196114625066 3.468133051275908e-05 0.000259439126674249
0.14422613979732005 0.1442699533406556 -4.967920331320769e-06 -3.884562300420696e-05
0.16125257160044973 0.1612361174592554 1.1998658280639866e-06 1.525427536624227e-05
0.14874802218873048 0.14874802218873048 0.0 0.0
0.14027290856580962 0.14026013197022516 6.810858863399355e-07 1.209550969809921e-05
0.14472731432586 0.1445899253539833 1.886872788932011e-05 0.00011852024398739514
0.15481620819436032 0.15534137288046873 -6.0640637655165915e-05 -0.0004645240484532017
0.16497812993985667 0.1648918117231439 3.361288076499162e-05 5.270533594773432e-05
0.17225567040080683 0.17504263358520197 -0.0004592773013716508 -0.002327685883023498
0.17966013359697205 0.1805071522475187 -0.0002457948975397746 -0.0006012237530069345
0.18751098198270094 0.1974645396198955 -0.0019551977050271297 -0.007998359932167394
0.21400949673414799 0.1882707200185675 0.005497514761008794 0.02024126195457163
0.2438221057609867 0.18642977316892773 0.013594605297716864 0.04379772729434209
0.2866951888675812 0.1724659712427718 0.0316818710271281 0.08254734659768138
0.37093800865171056 0.16601633902759844 0.06745551608325377 0.13746615354085856
0.5364303964551581 0.19746952575879018 0.11953823162504622 0.21942263907132126
0.839491037260716 0.2521676631223131 0.2216454836608354 0.3656778904775676
1.341109417133316 0.26238414987867803 0.4219537538029218 0.6567715134517162
2.1564822070495824 0.36986317734377333 0.7420683637432778 1.0445506659625308
3.577944018211244 0.8130325565013148 1.1733846722655452 1.5915267894443843
5.900292950965428 0.7425054880467659 2.323127568220821 2.834659894697843
3.5779440182139144 0.8130325565020843 1.1733846722665275 1.591526789445304
2.1564822070488057 0.3698631773431219 0.7420683637432212 1.0445506659624622
1.3411094171336182 0.2623841498789114 0.4219537538029414 0.6567715134517653
0.8394910372591908 0.25216766312148026 0.22164548366052483 0.3656778904771862
0.5364303964554423 0.19746952575916452 0.11953823162500604 0.21942263907127177
0.3709380086518356 0.1660163390277225 0.06745551608325143 0.13746615354086172
0.28669518886765766 0.17246597124285995 0.03168187102712744 0.0825473465976704
0.2438221057608181 0.18642977316900403 0.013594605297652865 0.04379772729416115
0.2140094967340797 0.18827072001865944 0.00549751476105257 0.020241261954367724
0.18751098198235144 0.19746453961968127 -0.001955197705089183 -0.007998359932240635
0.1796601335969012 0.18050715224740632 -0.00024579489752799206 -0.0006012237529771413
0.17225567040076395 0.17504263358514396 -0.0004592773013687158 -0.0023276858830113497
0.16497812993966723 0.16489181172293793 3.361288076722627e-05 5.270533596211092e-05
0.15481620819398792 0.15534137288007124 -6.064063765172492e-05 -0.00046452404843158086
0.14472731432550512 0.14458992535362453 1.8868727889387588e-05 0.00011852024399121333
0.1402729085654843 0.14026013196990306 6.810858860207993e-07 1.2095509695195655e-05
0.14874802218832128 0.14874802218832128 0.0 0.0
0.16125257160005887 0.16123611745886904 1.1998658276649306e-06 1.5254275362206976e-05
0.1442261397970055 0.14426995334033826 -4.967920330997609e-06 -3.884562300179854e-05
0.270876081602928 0.27058196114575245 3.4681330511145066e-05 0.00025943912666434273
0.18109179672088838 0.18109179672088838 0.0 0.0
0.13228177638204516 0.13228177638204516 0.0 0.0
0.16296038386740347 0.16294434043093203 1.2014672014379978e-06 1.484196927002156e-05
0.16034840876783527 0.1604093159494551 -5.057614811564122e-06 -5.584956680824057e-05
0.15307713481552737 0.15300482788614173 9.060783415055109e-06 6.324614597056148e-05
0.15610056193811267 0.15593765249127595 2.972100390691209e-05 0.00013318844292978442
0.16726904740562215 0.16852715742368657 -0.00016797845079625826 -0.0010901315672681702
0.18230367034396586 0.18355275322847142 -0.00016863405862948492 -0.001080448825876127
0.2007011030189911 0.20101995240399267 -0.00014120683479082588 -0.00017764255021075282
0.2245111577335116 0.22643913947887168 -0.0008606485321315903 -0.0010673332132285845
0.27578801766195227 0.28124388989658033 -0.00019485193271312593 -0.0052610203019148975
0.35416797910521153 0.32293029976154636 0.007878437118643274 0.023359242225021865
0.49192402554196824 0.4063267894124615 0.021061666569898968 0.06453556955960779
0.7519482089109552 0.5097604642705776 0.07258721909044277 0.16960052554993477
1.1955133705300736 0.6276328538651537 0.191767442678625 0.376113073986294
1.8336467150636002 0.7239587730309773 0.4102550872388533 0.6994328547937694
2.5635057579067437 0.808871835034161 0.6919060115264031 1.0627279113461794
3.202872222979903 0.857101656065115 0.9936386991653527 1.3521318677494343
3.473312874283229 0.8524869934308138 1.1418850047748763 1.4789408760775387
2.973508171322856 0.4582411716010063 1.1174938778574053 1.3977731218644445
5.911923983788455 1.2713436501367696 2.0394803551550615 2.6010999784966238
2.9735081713253004 0.45824117160113303 1.1174938778585428 1.3977731218656226
3.473312874282871 0.8524869934307655 1.1418850047747537 1.4789408760773517
3.202872222980356 0.8571016560658055 0.9936386991652334 1.3521318677493177
2.5635057579052667 0.8088718350342298 0.6919060115257001 1.062727911345337
1.8336467150635003 0.7239587730308564 0.41025508723890797 0.6994328547937366
1.1955133705293093 0.6276328538647551 0.19176744267848664 0.37611307398606786
0.7519482089102596 0.5097604642703445 0.07258721909025026 0.1696005255496648
0.4919240255410381 0.4063267894120779 0.021061666569708374 0.06453556955925185
0.35416797910441117 0.32293029976091164 0.007878437118571507 0.023359242224928085
0.2757880176612814 0.28124388989616367 -0.000194851932788074 -0.005261020302094128
0.22451115773322677 0.2264391394785726 -0.0008606485321214582 -0.0010673332132244452
0.20070110301896527 0.20101995240392478 -0.0001412068347823891 -0.00017764255017712369
0.18230367034369385 0.18355275322817835 -0.00016863405862614474 -0.0010804488258583489
0.16726904740529128 0.16852715742331684 -0.0001679784507901299 -0.0010901315672354752
0.15610056193777316 0.1559376524909234 2.9721003907639913e-05 0.00013318844294204826
0.15307713481522314 0.15300482788583453 9.060783415092512e-06 6.324614597352813e-05
0.1603484087673815 0.16040931594898764 -5.057614810145878e-06 -5.5849566796017266e-05
0.16296038386703066 0.16294434043056352 1.2014672010038667e-06 1.4841969266097111e-05
0.13228177638179173 0.13228177638179173 0.0 0.0
0.1810917967205653 0.1810917967205653 0.0 0.0
0.11669372520336556 0.11669372520336556 0.0 0.0
0.11577660306693438 0.11577660306693438 0.0 0.0
0.1583605915295582 0.1583616469417465 -1.5872048611607424e-07 -8.966917022036144e-07
0.16798652218718774 0.16785041588704286 1.4381037043207741e-05 0.00012172526310166582
0.16790028104833193 0.16817719554457433 -2.658144819851299e-05 -0.00025033304804387285
0.17732905459338 0.17807645481183537 -8.906184876859221e-05 -0.0006583383696868605
0.19913012164063146 0.19829767431543252 0.00015563187350258644 0.0006768154516963082
0.2337647989790294 0.2386068543897434 -0.0008585243090249257 -0.003983531101689011
0.28488374315753506 0.28799217492499357 -0.0009582399856974836 -0.0021501917817609594
0.37315979786714526 0.38527268066075515 -0.0024469082493028317 -0.009665974544307083
0.5277786749385234 0.4674047962844355 0.013742814009327772 0.04663106464476028
0.7711730949571284 0.5686562616216564 0.05529302622059164 0.14722380711488026
1.1658076662347951 0.6813965293066592 0.15564349882105472 0.328767638107081
1.8063310958002345 0.820406311397627 0.3541618019479853 0.6317629824546221
2.8027065459446225 0.9767233604592402 0.7232577131107496 1.102725472374632
4.167561078163734 1.1296888553773032 1.2965998464335815 1.7412723763528497
5.74907354489809 1.2662901675333509 2.010541044450518 2.4722423329142225
7.227106151889009 1.3829605020272755 2.6842925250784564 3.159853124783278
8.166053473780966 1.4344534263158168 3.152791166057613 3.578808881407534
7.754535046587776 1.4561889177228071 2.994042572923187 3.304303555941782
9.139549231412119 2.7447609621655227 2.9621047506154543 3.4326835186311393
7.754535046588153 1.4561889177213396 2.994042572924154 3.304303555942659
8.16605347378139 1.4344534263165363 3.152791166057458 3.578808881407398
7.227106151887313 1.3829605020259528 2.6842925250782304 3.1598531247831323
5.749073544897044 1.2662901675340343 2.0105410444496523 2.4722423329133556
4.167561078160266 1.1296888553752908 1.296599846432873 1.7412723763521005
2.802706545943087 0.976723360458655 0.7232577131103128 1.102725472374119
1.8063310957988372 0.8204063113974824 0.3541618019474723 0.6317629824538824
1.1658076662329613 0.6813965293064037 0.15564349882048595 0.32876763810607135
0.7711730949555529 0.5686562616211666 0.05529302622025861 0.14722380711412741
0.5277786749371296 0.4674047962837624 0.013742814009098403 0.04663106464426882
0.3731597978664026 0.38527268065986986 -0.002446908249265626 -0.00966597454420172
0.284883743157059 0.28799217492455026 -0.0009582399857028984 -0.0021501917817883477
0.23376479897856822 0.23860685438923274 -0.0008585243090136745 -0.0039835311016508355
0.19913012164022192 0.19829767431500325 0.00015563187350449957 0.0006768154517141222
0.17732905459295117 0.1780764548113751 -8.906184876391693e-05 -0.0006583383696600243
0.16790028104793675 0.1681771955441579 -2.6581448195931356e-05 -0.00025033304802520766
0.16798652218676502 0.16785041588661523 1.4381037042789124e-05 0.00012172526310695234
0.15836059152915027 0.1583616469413422 -1.5872048629690463e-07 -8.96691705598639e-07
0.11577660306671134 0.11577660306671134 0.0 0.0
0.11669372520314043 0.11669372520314043 0.0 0.0
0.07192868783552314 0.07192868783552314 0.0 0.0
0.09697404679165147 0.09697404679165147 0.0 0.0
0.1483587901131088 0.1483587901131088 0.0 0.0
0.17152472637932578 0.17150370801399462 1.312231872496221e-06 1.9706133458684192e-05
0.18409445228214016 0.18418600045095512 -8.726735944573644e-06 -8.282143287035757e-05
0.20754267933726125 0.20672280116517056 0.00012877833447787925 0.0006910998376127807
0.2505716106371801 0.2540552135739016 -0.0005431052405345325 -0.0029404976961870137
0.31810303787290023 0.3221913101231094 -0.00116655004564281 -0.00292172220456629
0.4303956781393822 0.4299797300952979 -0.0015689607362508109 0.001984908780335034
0.6444873261176945 0.5600833629747071 0.02904410725941562 0.05535985588357168
0.932213092059424 0.6386162374980406 0.08758468120297005 0.206012173358413
1.366437135647481 0.7527946574596825 0.20532251903559456 0.4083199591522037
2.0422203856962877 0.9033367078592246 0.42166495411316207 0.7172187237239018
3.101820332550241 1.078416069856842 0.8119838139032767 1.2114204487901223
4.71059436629125 1.2736391550655255 1.4893790217323648 1.9475761894933594
6.84840893511427 1.4586930066350428 2.4602282156877013 2.929487712791526
9.429454089403713 1.6225917664207756 3.75052680909475 4.056335513888188
11.906285234350937 1.7325034524214689 5.010952709779561 5.162829072149906
13.479020178807938 1.7264042209709989 5.880780289861389 5.871835667975555
12.703694447753747 1.5942255074105187 5.529133424855803 5.580335515487425
14.196572772385762 4.394990605916288 4.805308631670727 4.996273534798743
12.703694447754899 1.5942255074099492 5.529133424856771 5.58033551548818
13.479020178808632 1.726404220971687 5.880780289861402 5.871835667975544
11.906285234348722 1.7325034524203855 5.0109527097789375 5.162829072149399
9.429454089399535 1.622591766419129 3.750526809093379 4.056335513887025
6.848408935113113 1.4586930066363726 2.460228215686452 2.92948771279029
4.7105943662887135 1.2736391550646617 1.4893790217315719 1.9475761894924801
3.1018203325477485 1.0784160698563678 0.8119838139023389 1.211420448789042
2.0422203856937777 0.9033367078591594 0.421664954112139 0.717218723722479
1.3664371356447944 0.7527946574586044 0.2053225190350081 0.408319959151182
0.9322130920571049 0.6386162374973844 0.08758468120247899 0.2060121733572418
0.6444873261159441 0.5600833629738939 0.029044107259063288 0.05535985588298713
0.4303956781383936 0.42997973009440704 -0.001568960736277002 0.0019849087802635565
0.3181030378722136 0.32219131012227653 -0.0011665500456095076 -0.0029217222044534037
0.25057161063656463 0.2540552135732735 -0.0005431052405318938 -0.002940497696177026
0.20754267933678294 0.20672280116467198 0.0001287783344792723 0.0006910998376316824
0.18409445228169527 0.18418600045049455 -8.726735943247965e-06 -8.282143285599838e-05
0.17152472637899702 0.17150370801367176 1.3122318719763397e-06 1.970613345325599e-05
0.1483587901127367 0.1483587901127367 0.0 0.0
0.09697404679143755 0.09697404679143755 0.0 0.0
0.07192868783540944 0.07192868783540944 0.0 0.0
0.042046417618983624 0.042046417618983624 0.0 0.0
0.07773223133943044 0.07773223133943044 0.0 0.0
0.13437556301188017 0.13437556301188017 0.0 0.0
0.17159707809230496 0.1714655915424351 1.3736583309134642e-05 0.00011774996656073778
0.2016503042157317 0.20188110828235672 -1.9411429853041333e-05 -0.00021139263677199293
0.2468837589389708 0.24862091896230584 -0.00022967820951317838 -0.0015074818138219232
0.3198751064196845 0.3229696296123173 -0.000676538362575545 -0.002417984830057179
0.439485729848186 0.43924114775189427 -0.0017442385154509171 0.001988820611742606
0.669677277335135 0.5839514060966106 0.03054135308830927 0.05518451815021518
0.970800807732759 0.6471314886822586 0.0947844138880711 0.2288849051624292
1.4216030859083975 0.781951565725735 0.2164983534636997 0.4231531667189629
2.0618073276141136 0.9263636169495589 0.4209520948699104 0.7144916157946448
3.0413279527571806 1.1032071190173915 0.7741202743506328 1.164000559389157
4.5606389570340635 1.3139351359863587 1.3916556472396684 1.855048173808035
6.785859375560973 1.5436775875355522 2.3817772553339567 2.860404532691464
9.846691394242484 1.775704662230617 3.8899334158874597 4.181053316124407
13.31841797010316 1.952802135281269 5.637905723946041 5.727710110875853
16.853743411078497 2.0237812327324036 7.612771387699555 7.2171907906465425
19.055791283792665 1.9052931630682441 8.963075924359272 8.18742219636514
17.900628381037713 1.663942635090438 8.42851580644206 7.808169939505207
19.63496140293252 5.981604672512364 6.929574839503891 6.723781890916268
17.90062838103793 1.66394263508935 8.428515806442828 7.808169939505753
19.055791283791095 1.9052931630673697 8.96307592435886 8.187422196364869
16.853743411076263 2.0237812327313733 7.612771387698853 7.217190790646035
13.318417970100006 1.9528021352815372 5.63790572394416 5.727710110874313
9.846691394238768 1.7757046622291426 3.8899334158862646 4.18105331612336
6.785859375558164 1.543677587535072 2.3817772553328007 2.8604045326902923
4.56063895703089 1.3139351359861111 1.391655647238279 1.8550481738064988
3.0413279527539054 1.1032071190172341 0.7741202743492392 1.1640005593874319
2.061807327610591 0.9263636169485523 0.4209520948688976 0.714491615793142
1.4216030859053044 0.7819515657250492 0.21649835346277282 0.423153166717482
0.9708008077304757 0.647131488681545 0.09478441388758047 0.22888490516135043
0.669677277333212 0.583951406095704 0.030541353087930198 0.055184518149578116
0.43948572984709805 0.43924114775098444 -0.001744238515502404 0.0019888206116160105
0.3198751064189004 0.32296962961133324 -0.0006765383625381796 -0.0024179848298947148
0.24688375893840786 0.24862091896172211 -0.00022967820950980299 -0.0015074818138044494
0.2016503042152601 0.20188110828186084 -1.941142985004195e-05 -0.0002113926367506531
0.17159707809194055 0.17146559154207947 1.3736583307990824e-05 0.00011774996655311035
0.13437556301156792 0.13437556301156792 0.0 0.0
0.07773223133924315 0.07773223133924315 0.0 0.0
0.042046417618943704 0.042046417618943704 0.0 0.0
0.02313365022101214 0.02313365022101214 0.0 0.0
0.05952086607696174 0.05952086607696174 0.0 0.0
0.11807720415900187 0.11807720415900187 0.0 0.0
0.16945046170597577 0.1693863749774328 6.040838194752111e-06 5.804589034815593e-05
0.22122356656427097 0.22071725342925935 8.349646639151287e-05 0.0004228166686201657
0.29536814207652645 0.2982117128614095 -0.000372394402020045 -0.002471176382863054
0.40889403803398666 0.4176404164417991 -0.002700892795078948 -0.006045485612733374
0.6255365747589892 0.5692067852453757 0.020219275408238938 0.03611051410537432
0.9328491669877399 0.6391520026192069 0.08553128989433167 0.20816587447420162
1.3752274655066143 0.777031316678593 0.2002426789963012 0.3979534698317203
1.9643792735668324 0.9165487807142995 0.3831222581626301 0.6647082346899027
2.827637805869398 1.085353633266729 0.6860559666232687 1.0562282059794001
4.146994751031313 1.2928546769811091 1.2042495461312923 1.6498905279189107
6.172159991966046 1.5379690508464798 2.091776116656373 2.5424148244631963
9.065748916361525 1.8134262715402718 3.439383083034019 3.8129395617872346
12.922455017650295 2.086512888054067 5.362980457548065 5.472961672048161
17.60211849958839 2.2894771533217284 7.912189753235884 7.400451593030778
22.03323950716407 2.2970748404192323 10.440841740179666 9.295322926565177
24.59701694965345 2.0157167926484285 12.07354245306379 10.507757703941234
23.140209262479654 1.7201487077642228 11.432950252694553 9.987110302020874
25.55872301845989 7.653273952045805 9.398366137028471 8.507082929385607
23.14020926248119 1.7201487077646616 11.432950252695207 9.987110302021328
24.597016949653202 2.015716792649606 12.07354245306294 10.507757703940655
22.033239507160776 2.297074840417449 10.440841740178781 9.295322926564545
17.602118499584467 2.2894771533213363 7.912189753233864 7.400451593029271
12.922455017645976 2.0865128880530497 5.362980457546239 5.472961672046682
9.065748916357478 1.813426271539007 3.4393830830325554 3.8129395617859165
6.172159991962374 1.5379690508458725 2.0917761166548736 2.542414824461628
4.1469947510269165 1.292854676980419 1.2042495461295843 1.6498905279169147
2.827637805865079 1.0853536332659472 0.6860559666217245 1.0562282059774066
1.964379273563038 0.9165487807138346 0.38312225816128237 0.6647082346879216
1.3752274655036731 0.7770313166778273 0.20024267899548398 0.39795346983036145
0.9328491669854131 0.6391520026185655 0.08553128989381752 0.20816587447303025
0.625536574757181 0.5692067852445403 0.02021927540790152 0.036110514104739276
0.4088940380329078 0.417640416440635 -0.0027008927950509117 -0.006045485612676126
0.2953681420758862 0.29821171286075443 -0.00037239440201992073 -0.0024711763828482777
0.22122356656379877 0.22071725342877802 8.349646639200584e-05 0.00042281666862868585
0.16945046170562375 0.16938637497708703 6.040838194052553e-06 5.804589034264557e-05
0.11807720415871649 0.11807720415871649 0.0 0.0
0.05952086607689139 0.05952086607689139 0.0 0.0
0.023133650220990426 0.023133650220990426 0.0 0.0
0.011969395260750564 0.011969395260750564 0.0 0.0
0.0434724212479394 0.0434724212479394 0.0 0.0
0.1011880000560184 0.1011880000560184 0.0 0.0
0.16679144729318673 0.16676812318658976 2.1108035710053216e-06 2.1213303025969397e-05
0.24470346040261007 0.24527282091493585 -6.249772402601061e-05 -0.0005068627882997186
0.3514870070509007 0.3525828909149272 -0.00033861895278941676 -0.0007572649112370004
0.5362609680770067 0.526157868030486 0.005107543468545528 0.004995556577975253
0.8363217559841373 0.6224126692900214 0.05991844032928391 0.15399064636483206
1.2575515528306134 0.7486998477964761 0.1663095254997936 0.3425421795343434
1.8030879860099995 0.8858330671541126 0.32888303834324734 0.5883718805126397
2.55907107876644 1.0453926880205038 0.5858548551844079 0.9278235355615287
3.671382357065621 1.240242450831981 1.0079839064392848 1.423155999794353
5.37327655134535 1.4796002693517112 1.7267129143328923 2.1669633676607467
7.844499989973157 1.7578903246007322 2.817884822208229 3.268724843164197
11.460530150865091 2.0732242964802214 4.588835574382584 4.79847028000229
16.253453330193267 2.405498375165955 7.0710528270371835 6.776902127990122
21.835950623781535 2.634041254745845 10.113237949732115 9.08867141930357
27.20237147545097 2.5526449091594863 13.315346023926127 11.334380542365365
30.28859581636746 2.1016088881568056 15.431337337190673 12.755649591019985
28.501628155706058 1.7489526526349068 14.572916370373548 12.179759132697601
31.78350131069439 9.429967748217363 11.947821522418199 10.405712040058837
28.50162815570449 1.7489526526330579 14.572916370373727 12.179759132697706
30.28859581636597 2.1016088881568997 15.431337337189696 12.755649591019374
27.20237147544635 2.5526449091572525 13.315346023924695 11.3343805423644
21.835950623777723 2.6340412547458505 10.113237949729884 9.08867141930199
16.253453330188194 2.4054983751651537 7.0710528270347766 6.776902127988258
11.460530150860215 2.0732242964791046 4.588835574380558 4.798470280000551
7.844499989967731 1.7578903245990223 2.817884822206329 3.268724843162378
5.373276551340076 1.4796002693510413 1.7267129143306745 2.166963367658359
3.6713823570605326 1.240242450831155 1.007983906437369 1.423155999792009
2.559071078761924 1.045392688019734 0.585854855182804 0.9278235355593851
1.8030879860063853 0.8858330671531908 0.3288830383421954 0.5883718805109998
1.2575515528276593 0.7486998477958806 0.16630952549889944 0.3425421795328787
0.8363217559818165 0.6224126692891535 0.059918440328839 0.1539906463638239
0.5362609680755197 0.5261578680296831 0.005107543468335153 0.004995556577501703
0.35148700705011465 0.3525828909138618 -0.00033861895273244903 -0.0007572649110148806
0.24470346040215557 0.2452728209144474 -6.249772402212159e-05 -0.0005068627882696413
0.1667914472928671 0.1667681231862732 2.110803570645265e-06 2.1213303023224848e-05
0.10118800005581813 0.10118800005581813 0.0 0.0
0.04347242124790081 0.04347242124790081 0.0 0.0
0.011969395260714274 0.011969395260714274 0.0 0.0
0.005935828942130688 0.005935828942130688 0.0 0.0
0.03037249318805142 0.03037249318805142 0.0 0.0
0.08540519785071687 0.08540519785071687 0.0 0.0
0.165976029379599 0.16597172203137245 2.114467178404433e-07 4.095901508737948e-06
0.2732372427916791 0.2743787695654106 -0.00014537852861014984 -0.0009961482451213163
0.4241647075627143 0.4315098941485751 -0.00211055770379624 -0.005234628882064432
0.6944076689358745 0.5852144339258036 0.02896709473591853 0.08022614027415209
1.086654094631313 0.7019506741778808 0.11995725839881562 0.2647461620546168
1.596580795959136 0.8385888948882018 0.26373296717201106 0.49425893389892295
2.269435045273976 0.991243298978697 0.4848934177790982 0.7932983285161812
3.194763429336212 1.1681288344267176 0.816966254189616 1.2096683407198776
4.5761715277890165 1.3902732002311853 1.3714790056074415 1.814419321950391
6.609584921486233 1.6583017324378535 2.234436484758941 2.716846704289436
9.715642265208588 1.9813102103013422 3.714161468448289 4.020170586458957
13.980410327132493 2.3391204034535296 5.825771983465825 5.815517940213135
19.52758277774429 2.7059243020953048 8.724914963398078 8.09674351225091
26.11556344307232 2.9696952661575526 12.42244993975313 10.723418237161635
32.384453082123265 2.8307365959219504 16.252588812019763 13.301127674181535
36.02292421672933 2.197383227155687 18.835281840689532 14.990259148884116
34.119164204401336 1.7212799574582234 17.982983785167775 14.414900461775341
38.676182916179215 11.310894559603238 14.942632409282812 12.422655947293158
34.1191642044017 1.7212799574588238 17.98298378516766 14.414900461775215
36.022924216725954 2.1973832271553286 18.83528184068768 14.990259148882942
32.38445308211847 2.830736595921247 16.25258881201727 13.301127674179956
26.115563443067558 2.969695266157104 12.422449939750564 10.723418237159878
19.527582777738534 2.7059243020940236 8.724914963395506 8.096743512249015
13.98041032712714 2.3391204034532915 5.825771983462995 5.815517940210856
9.715642265202774 1.9813102103002143 3.714161468445825 4.020170586456736
6.6095849214800655 1.6583017324374165 2.2344364847560616 2.7168467042865863
4.576171527783081 1.3902732002298428 1.3714790056053103 1.8144193219479283
3.194763429330875 1.1681288344255194 0.816966254187807 1.2096683407175481
2.269435045269496 0.9912432989777501 0.4848934177776122 0.7932983285141332
1.5965807959556586 0.8385888948873426 0.2637329671711196 0.49425893389719655
1.0866540946284728 0.7019506741773385 0.11995725839813179 0.26474616205300233
0.6944076689339165 0.585214433924899 0.0289670947355659 0.08022614027345168
0.4241647075616991 0.431509894147588 -0.0021105577038030834 -0.005234628882085946
0.2732372427911598 0.27437876956485485 -0.0001453785286055991 -0.0009961482450894816
0.16597602937924974 0.1659717220310257 2.114467176569359e-07 4.0959015064148964e-06
0.08540519785057038 0.08540519785057038 0.0 0.0
0.030372493187983407 0.030372493187983407 0.0 0.0
0.005935828942125464 0.005935828942125464 0.0 0.0
0.0029572866050810577 0.0029572866050810577 0.0 0.0
0.020548945503109383 0.020548945503109383 0.0 0.0
0.07252792735404728 0.07252792735404728 0.0 0.0
0.17010841698346188 0.17009231961480323 4.0469344068072654e-07 1.569267521795589e-05
0.308794982999977 0.30862767947920633 7.106107546048254e-05 9.62424453101656e-05
0.5283137922913184 0.5078791543997553 0.0063532791185350575 0.01408135877302798
0.8764766394058886 0.6302898289520622 0.06883341178301106 0.17735339867081515
1.3570015427977047 0.7781626682292252 0.19461687752287668 0.3842219970456027
1.9566007091287507 0.922912032028266 0.3769530461812811 0.6567356309192035
2.7623208964999346 1.0899353875267364 0.6593491131558153 1.013036395817382
3.888200053078197 1.2903176541379178 1.0904423008432484 1.5074400980970317
5.521914984223085 1.5358484621709867 1.7577516895007053 2.228314832551393
8.028645163993849 1.8455258367415628 2.898585918080122 3.2845334091721643
11.579103837206546 2.2068294408419034 4.562125718426008 4.810148677938636
16.57127121109613 2.603785743452262 7.109627325495143 6.8578581421487215
22.94044297884195 2.985652695687173 10.546816047843132 9.407974235311652
30.2997280631588 3.2559709972340496 14.737512883222431 12.306244182702317
37.452576027291634 3.1747847359210675 19.119187588676354 15.15860370269422
41.82582026276539 2.3606470092488996 22.343033401958916 17.122139851557563
40.04667159039658 1.5770639122500527 21.735833090226446 16.733774587920088
46.295738946021295 13.2228835234908 18.384059526386828 14.688795896143649
40.0466715903947 1.577063912248841 21.73583309022602 16.733774587919836
41.825820262762974 2.3606470092500778 22.343033401956696 17.1221398515562
37.452576027287236 3.1747847359210373 19.119187588673686 15.158603702692526
30.299728063153328 3.255970997233833 14.737512883219278 12.306244182700226
22.940442978834493 2.9856526956847005 10.54681604784022 9.407974235309581
16.571271211090053 2.6037857434515694 7.1096273254921005 6.857858142146379
11.579103837199444 2.2068294408404534 4.562125718422939 4.810148677936052
8.028645163986836 1.8455258367413405 2.898585918076626 3.284533409168869
5.521914984215777 1.535848462169443 1.7577516894978609 2.228314832548473
3.888200053072122 1.2903176541372074 1.0904423008408077 1.5074400980941078
2.762320896495174 1.0899353875257358 0.6593491131542386 1.0130363958151996
1.9566007091245208 0.9229120320271388 0.37695304618009734 0.656735630917284
1.357001542794352 0.7781626682285663 0.19461687752190487 0.384221997043881
0.8764766394034096 0.6302898289511033 0.06883341178266916 0.17735339866963673
0.5283137922899132 0.5078791543986902 0.006353279118434783 0.01408135877278797
0.3087949829993661 0.3086276794785584 7.106107546255667e-05 9.624244534508151e-05
0.17010841698310822 0.17009231961445684 4.0469344003625814e-07 1.5692675211357453e-05
0.07252792735392667 0.07252792735392667 0.0 0.0
0.02054894550306866 0.02054894550306866 0.0 0.0
0.0029572866050864566 0.0029572866050864566 0.0 0.0
0.0014021388470487695 0.0014021388470487695 0.0 0.0
0.013731639486878174 0.013731639486878174 0.0 0.0
0.06486814234729332 0.06486814234729332 0.0 0.0
0.1833637741206635 0.18325040472465054 1.0257752203621907e-05 0.00010311164380930957
0.3620398885479587 0.36808855393554774 -0.0013350905515675548 -0.0047135748360215045
0.6549733313387184 0.5721009661534024 0.02235100812729881 0.06052135705801711
1.0848857274955248 0.7008984553159973 0.1193793593019384 0.2646079128775891
1.6389838321326495 0.8486254610807861 0.27725062853715404 0.5131077425147095
2.3468636415115722 1.0049015276381306 0.5135205273448363 0.8284415865286057
3.2825800649173864 1.1851206480908254 0.8520871444525758 1.245372272373985
4.6068566895003915 1.4069377087543637 1.3766391092765038 1.8232798714695237
6.581786979471708 1.6877385376284484 2.2361639655288577 2.657884476314403
9.410203207798936 2.027217489672963 3.496131327756051 3.8868543903699226
13.591813666994597 2.4339722617267325 5.540931870168033 5.616909535099834
19.28600548887767 2.875817582251447 8.49444440973637 7.915743496889855
26.404180688297078 3.2626521601353184 12.415692351395325 10.725836176766432
34.37817658344168 3.4658472667683777 17.09143029310622 13.820899023567073
42.14891828450779 3.4234303392116496 21.901504087345188 16.82398385795097
47.66404918613071 2.8763793504734614 25.684517031484894 19.103152804172353
46.33603025969506 1.253141320794583 25.890496012186425 19.19239292671404
54.5748932807648 14.495257105598524 22.738459937372806 17.341176237793498
46.33603025969204 1.2531413207940485 25.890496012184833 19.19239292671314
47.66404918612568 2.876379350472679 25.68451703148225 19.103152804170758
42.14891828450001 3.423430339207974 21.901504087342627 16.823983857949404
34.378176583435796 3.4658472667680993 17.09143029310286 13.820899023564847
26.40418068828985 3.2626521601337206 12.415692351391984 10.725836176764142
19.28600548886991 2.875817582249915 8.494444409732793 7.915743496887206
13.591813666986637 2.4339722617247577 5.540931870164718 5.616909535097164
9.41020320779082 2.027217489672007 3.4961313277522605 3.886854390366554
6.581786979463739 1.6877385376271494 2.236163965525511 2.6578844763110783
4.606856689493688 1.406937708753749 1.3766391092735768 1.8232798714663634
3.282580064911712 1.185120648089419 0.8520871444506722 1.2453722723716203
2.346863641506847 1.0049015276371271 0.5135205273433144 0.8284415865264053
1.6389838321286614 0.8486254610795892 0.2772506285361225 0.5131077425129494
1.0848857274926507 0.7008984553151674 0.11937935930134953 0.26460791287613417
0.6549733313370201 0.5721009661527727 0.0223510081269645 0.06052135705728293
0.36203988854721736 0.3680885539346235 -0.0013350905515203489 -0.004713574835885958
0.1833637741203541 0.18325040472435247 1.0257752202302023e-05 0.00010311164379930111
0.06486814234718818 0.06486814234718818 0.0 0.0
0.013731639486853851 0.013731639486853851 0.0 0.0
0.0014021388470466913 0.0014021388470466913 0.0 0.0
0.0002890238030144335 0.0002890238030144335 0.0 0.0
0.009438185340120355 0.009438185340120355 0.0 0.0
0.06559737051673672 0.06559737051673672 0.0 0.0
0.2122389783755133 0.2122506829359686 1.2232754315538418e-05 -2.3937314770830303e-05
0.44426071031757897 0.44820730195079966 -0.0006981212719952455 -0.0032484703612255944
0.8116508771442114 0.6561507206447807 0.045865225630166775 0.10963493086926389
1.3131911600706894 0.7980942624019393 0.1691331304386216 0.3459637672301285
1.9523407500603729 0.9759313770141875 0.3552106295948662 0.6211987434513195
2.7696183561563483 1.1751779587097069 0.6210813462033776 0.9733590512432634
3.886276539964462 1.4260445909886041 1.022616985215292 1.4376149637605646
5.478637362610818 1.7590889899451476 1.6402453549618183 2.0793030177038503
7.770663587459573 2.202799436747719 2.5558893670284224 3.011974783683432
11.182367937073943 2.7722622477222263 4.045811392544731 4.364294296806982
16.05962805363212 3.4833678457633583 6.325499713977347 6.25076049389142
22.592440528014365 4.265408973129676 9.603570184573673 8.723461370311023
30.566634239947543 4.941981427757841 13.921890588924132 11.702762223265573
39.14376193302833 5.258433791263825 18.92742423612717 14.957903905637341
46.9456321880984 5.003389320486376 23.910983774037724 18.0312590935743
52.89738193629693 4.685090232081834 27.843133790753637 20.369157913461468
51.667116076990034 1.4249604123603898 29.074272421684633 21.167883242944995
78.24367779996955 30.775676315491467 27.42757714450745 20.040424339970617
51.66711607698797 1.424960412361651 29.074272421682572 21.16788324294374
52.89738193629107 4.685090232081341 27.843133790750226 20.36915791345949
46.945632188087416 5.003389320480634 23.91098377403449 18.031259093572313
39.14376193301868 5.258433791260011 18.92742423612358 14.957903905635069
30.566634239936604 4.941981427752761 13.921890588920633 11.702762223263218
22.59244052800607 4.265408973128894 9.603570184569342 8.723461370307831
16.05962805362073 3.483367845758013 6.325499713973972 6.250760493888741
11.182367937063542 2.772262247719059 4.045811392540854 4.364294296803628
7.770663587449707 2.2027994367449066 2.555889367024809 3.0119747836799933
5.478637362602938 1.7590889899434838 1.6402453549587834 2.0793030177006693
3.8862765399580934 1.4260445909871589 1.0226169852129745 1.437614963757961
2.769618356150688 1.1751779587079323 0.6210813462016984 0.9733590512410579
1.9523407500555656 0.9759313770127657 0.3552106295935226 0.6211987434492774
1.3131911600672652 0.7980942624010039 0.16913313043781658 0.3459637672284449
0.8116508771421854 0.6561507206439707 0.04586522562981285 0.10963493086840165
0.44426071031667946 0.44820730195009706 -0.0006981212720495865 -0.0032484703613678873
0.2122389783751339 0.2122506829355586 1.2232754318796459e-05 -2.3937314743519196e-05
0.06559737051659993 0.06559737051659993 0.0 0.0
0.009438185340096796 0.009438185340096796 0.0 0.0
0.00028902380301253257 0.00028902380301253257 0.0 0.0
CELL_DATA 800
SCALARS Stress float 6
LOOKUP_TABLE default
97.0778856900171 -476.5090522269794 -181.73877826204472 -94.71420111747405 0.0 0.0
401.952259027831 88.55439453408019 146.96677452406618 76.33449795112074 0.0 0.0
349.614655173287 -18.693672618126776 99.08010876164292 -11.308506340160058 0.0 0.0
409.8360696448516 4.403440205396594 123.85120090736312 -8.820963017948372 0.0 0.0
477.36832439856175 -6.086354479431429 145.52587347612337 -10.797308121753959 0.0 0.0
537.6281200334624 15.124651701541508 193.59515379754623 -9.192537291188183 0.0 0.0
594.363860292915 30.361417004997932 240.67692625530884 -9.199675900952574 0.0 0.0
650.5500325319531 52.98693984680712 291.1574726270205 -9.116415813639932 0.0 0.0
705.779986619739 77.53107812880377 341.6337890988855 -8.948263382520294 0.0 0.0
761.1778192513145 102.74340776887547 391.13970825077627 -8.898115220084886 0.0 0.0
817.0101391545186 126.50961264017454 437.9096284986062 -8.80678626329579 0.0 0.0
873.944586620366 150.5699305467199 482.57712735986354 -8.765697534911393 0.0 0.0
933.555180189743 173.6798539902809 525.3199533229736 -8.837009160163841 0.0 0.0
995.9513593352905 197.76254887106154 568.4383127416996 -9.013841446025326 0.0 0.0
1061.5093465715981 225.5036038190832 614.4104691194794 -9.283796287700639 0.0 0.0
1129.8940007106685 258.3939849383471 664.2785054311505 -9.390232695731326 0.0 0.0
1198.4223569542967 295.6951170700636 716.5230125769122 -8.871166144844626 0.0 0.0
1261.6547558819661 333.56569138003215 766.543538848751 -7.499644094046764 0.0 0.0
1313.7102064120572 367.40159881644274 809.0408807718236 -5.748315626420714 0.0 0.0
1356.1452372880497 400.3610294999193 846.2293209593839 -4.88282490211926 0.0 0.0
1356.1452372883246 400.3610295002002 846.2293209595687 4.882824902146747 0.0 0.0
1313.7102064120431 367.40159881644246 809.0408807717685 5.748315626470504 0.0 0.0
1261.6547558818124 333.5656913798964 766.5435388485619 7.49964409404683 0.0 0.0
1198.4223569536439 295.69511706942274 716.5230125763203 8.871166144855616 0.0 0.0
1129.8940007098145 258.39398493750036 664.2785054304159 9.390232695709344 0.0 0.0
1061.5093465711961 225.503603818713 614.4104691191002 9.28379628772665 0.0 0.0
995.9513593349739 197.7625488707916 568.4383127413789 9.01384144601259 0.0 0.0
933.555180189178 173.67985398977783 525.3199533224711 8.837009160203188 0.0 0.0
873.9445866198631 150.56993054629697 482.57712735939805 8.765697534913734 0.0 0.0
817.0101391540875 126.50961263984723 437.90962849820596 8.806786263329155 0.0 0.0
761.1778192508774 102.74340776856047 391.1397082503763 8.898115220054368 0.0 0.0
705.7799866194727 77.5310781286737 341.6337890986063 8.948263382542443 0.0 0.0
650.5500325315782 52.986939846588754 291.1574726266615 9.116415813635914 0.0 0.0
594.3638602928046 30.361417005102453 240.67692625513644 9.199675900998624 0.0 0.0
537.628120033304 15.12465170163618 193.59515379738536 9.192537291179509 0.0 0.0
477.36832439839264 -6.086354479326038 145.52587347604805 10.797308121767454 0.0 0.0
409.8360696445809 4.4034402053643 123.85120090727659 8.820963017930344 0.0 0.0
349.6146551731947 -18.693672618033837 99.08010876164666 11.308506340125945 0.0 0.0
401.95225902777463 88.55439453408667 146.96677452404498 -76.33449795103344 0.0 0.0
97.07788569062284 -476.50905222641023 -181.7387782615114 94.7142011171491 0.0 0.0
14.683041211408664 -497.8688879303204 -215.21515738974009 -132.11522602816322 0.0 0.0
229.4425674865418 65.72306382246961 88.54968939270341 25.89564761845793 0.0 0.0
313.9211577252431 8.695295084868368 96.78493584303344 -6.40937615752709 0.0 0.0
363.9112631319938 0.12810201069718102 109.02875597153692 -29.363625456080033 0.0 0.0
443.9980310213319 -6.759019232661594 130.63024535635316 -30.37627282253299 0.0 0.0
506.48231584648727 9.769417567303815 172.6483508315331 -27.610479017534846 0.0 0.0
568.6652298224217 24.97919456544639 219.3167834389891 -27.47268001091765 0.0 0.0
624.7271091435886 45.19398616381363 268.00233062130144 -26.370600896448167 0.0 0.0
678.6650626335982 67.72514842937434 317.19230008549675 -25.352169500909145 0.0 0.0
732.1860645729978 90.89590916719945 365.7519560293134 -24.655377043335697 0.0 0.0
786.077557007117 113.19595163272587 412.3580095064431 -24.07399934288366 0.0 0.0
841.6531492016584 134.04630564348724 456.2862211753471 -23.575581242680187 0.0 0.0
898.0974212716757 154.83778599609053 497.54406222855846 -23.322430391840303 0.0 0.0
957.5277533919618 176.40302139487616 538.5160332575886 -23.478122963945754 0.0 0.0
1020.1300234415412 201.2165118436958 581.8136615564504 -23.832184540530623 0.0 0.0
1084.631067835112 230.4172053684807 628.0005411699202 -23.820263800066996 0.0 0.0
1148.5132292832968 263.12339846341905 675.6064482096879 -22.513637220967716 0.0 0.0
1207.851101873458 296.8774809541668 721.5160296222505 -19.495718019051626 0.0 0.0
1259.8940571432197 330.4208726921495 763.7604853236516 -15.325663690356757 0.0 0.0
1294.3508597407672 354.712182850953 792.8741879778408 -9.275843705576852 0.0 0.0
1294.3508597405037 354.712182850687 792.874187977618 9.275843705616118 0.0 0.0
1259.894057143019 330.420872691962 763.7604853234703 15.325663690411465 0.0 0.0
1207.851101873454 296.87748095418283 721.5160296221761 19.49571801908248 0.0 0.0
1148.5132292834467 263.1233984635944 675.6064482096864 22.51363722097306 0.0 0.0
1084.6310678351117 230.41720536851494 628.0005411698055 23.820263800112862 0.0 0.0
1020.1300234413043 201.21651184349508 581.8136615561921 23.832184540569667 0.0 0.0
957.5277533913359 176.4030213942873 538.5160332570438 23.478122963950838 0.0 0.0
898.0974212711512 154.837785995626 497.54406222810536 23.322430391864962 0.0 0.0
841.6531492012517 134.0463056431571 456.2862211749596 23.575581242665464 0.0 0.0
786.0775570067194 113.19595163243642 412.3580095060649 24.073999342881102 0.0 0.0
732.1860645728133 90.89590916714796 365.7519560290708 24.655377043299197 0.0 0.0
678.665062633308 67.72514842922341 317.192300085197 25.352169500914975 0.0 0.0
624.7271091432095 45.19398616358837 268.0023306209673 26.3706008964508 0.0 0.0
568.6652298221126 24.979194565324768 219.31678343871556 27.47268001090326 0.0 0.0
506.48231584612927 9.769417567165208 172.64835083128804 27.610479017510436 0.0 0.0
443.99803102097843 -6.759019232674123 130.63024535623592 30.376272822527497 0.0 0.0
363.9112631317523 0.12810201073917238 109.0287559714815 29.36362545602981 0.0 0.0
313.9211577251754 8.695295084882051 96.78493584301724 6.409376157540967 0.0 0.0
229.44256748666191 65.72306382253635 88.54968939275948 -25.89564761852305 0.0 0.0
14.683041211829021 -497.86888792985616 -215.21515738931276 132.11522602798024 0.0 0.0
-18.28405464426382 -489.0670417383865 -212.5144553777821 -146.02960751388653 0.0 0.0
127.52478311873341 34.29961893305321 48.54732061553598 -28.453441840651536 0.0 0.0
254.08996545702968 22.80357978208803 83.06806357173531 -20.23602400564189 0.0 0.0
319.67826161471896 1.7976851697700444 96.43566450126472 -45.792251985103626 0.0 0.0
396.39798498793726 -0.4962367741289271 118.30484172064777 -50.63771433411843 0.0 0.0
477.08398148356974 0.2110851117975514 149.46541754773213 -49.37334925046419 0.0 0.0
537.4715995059789 20.556932590053037 196.32820425518338 -45.818158477913585 0.0 0.0
593.33520032584 36.634446787863396 241.9573542766596 -43.985517807401564 0.0 0.0
647.5060239514146 57.55399197035984 289.97745180764366 -41.97440735849704 0.0 0.0
700.0224723719087 78.92632339691883 337.80624221527785 -40.40315460723137 0.0 0.0
752.2746376188301 99.05130221265745 383.90853917433304 -39.277593516450324 0.0 0.0
804.9738142231812 118.06633660220484 427.4682377982447 -38.30705286662494 0.0 0.0
860.0537770468511 135.774493571674 468.0422992487803 -37.81498164354675 0.0 0.0
916.8426865345191 155.2333278323571 507.5851646413398 -37.90127676967743 0.0 0.0
975.9658385051271 176.95062627021898 547.9704507451031 -38.32673269622503 0.0 0.0
1036.4085245886386 202.09676234264074 590.2584977208951 -38.16664789097419 0.0 0.0
1095.4754326380526 229.87018974363 632.9903040781819 -36.224696022106386 0.0 0.0
1151.7080337852324 260.1759664141299 675.5472949007755 -31.846154247728006 0.0 0.0
1200.648520138469 289.91170349093596 714.3709451025438 -24.790773369362018 0.0 0.0
1232.1842015653751 310.3492697095661 740.2557646697209 -13.467547974592382 0.0 0.0
1232.1842015652014 310.34926970940217 740.2557646695853 13.46754797468704 0.0 0.0
1200.6485201386736 289.911703491165 714.3709451027013 24.790773369466024 0.0 0.0
1151.7080337853595 260.17596641429043 675.5472949008321 31.846154247855175 0.0 0.0
1095.4754326380203 229.87018974362923 632.9903040780681 36.22469602215759 0.0 0.0
1036.4085245883039 202.09676234232649 590.2584977205693 38.1666478909803 0.0 0.0
975.9658385045244 176.95062626963545 547.970450744587 38.32673269622403 0.0 0.0
916.8426865341506 155.23332783203202 507.58516464099534 37.90127676971053 0.0 0.0
860.0537770466244 135.7744935715245 468.0422992485511 37.81498164360352 0.0 0.0
804.973814223033 118.06633660215313 427.4682377980577 38.30705286662743 0.0 0.0
752.2746376185237 99.05130221247039 383.90853917404394 39.27759351650853 0.0 0.0
700.0224723715805 78.9263233966931 337.80624221497146 40.403154607170606 0.0 0.0
647.5060239508687 57.5539919699243 289.9774518071989 41.97440735849083 0.0 0.0
593.3352003254433 36.63444678761545 241.95735427631718 43.98551780736888 0.0 0.0
537.4715995056863 20.5569325900006 196.3282042549509 45.81815847791681 0.0 0.0
477.0839814831726 0.2110851116350414 149.46541754750567 49.37334925045789 0.0 0.0
396.3979849875785 -0.49623677421057266 118.30484172052174 50.637714334099485 0.0 0.0
319.67826161445845 1.7976851696698422 96.43566450115782 45.79225198503799 0.0 0.0
254.0899654569559 22.803579782013696 83.06806357169086 20.23602400559492 0.0 0.0
127.52478311885139 34.29961893316477 48.547320615604846 28.45344184050529 0.0 0.0
-18.284054643917784 -489.06704173796453 -212.51445537739244 146.02960751374957 0.0 0.0
-25.130395570969533 -466.83250315325995 -193.54506865643202 -149.10487323975832 0.0 0.0
67.2953682497901 5.599690458106243 21.8685176123689 -74.08021626094066 0.0 0.0
193.94354409525238 27.401628764450024 66.40355185791071 -43.40536458623043 0.0 0.0
272.658679620327 6.584034166805493 83.77281413613974 -62.215218389922676 0.0 0.0
346.23038477417373 0.8980273997694381 103.95879709319262 -71.64995541131556 0.0 0.0
430.6092442494101 -2.7428187719477695 128.87086938690635 -71.89169908664503 0.0 0.0
497.4064412146748 12.497247923189455 169.13601303184964 -65.05775804634118 0.0 0.0
556.1716133578675 28.641385460719583 213.86851421678293 -62.62221999229145 0.0 0.0
610.5487262802953 46.68155539788799 259.3521592788659 -59.013721680004025 0.0 0.0
662.6536756739911 66.25925998192685 306.0478753260678 -56.42976961103223 0.0 0.0
713.8803231337399 84.6930781228123 351.9540128721834 -54.57581313835787 0.0 0.0
765.520541067028 101.66170134975876 395.876946787003 -53.064587916732 0.0 0.0
817.7551001493476 117.12612087645957 436.0332946085274 -52.32740765949479 0.0 0.0
872.9740537000717 134.0311110139687 474.89418595671464 -52.44341671556078 0.0 0.0
929.3032188666132 152.6241014211255 512.9569009940191 -52.78648377246465 0.0 0.0
984.6512001929493 173.5807187644018 550.862309076294 -52.40307043171299 0.0 0.0
1039.205813800743 196.57771526455352 589.0136732462531 -50.05494374016237 0.0 0.0
1091.4716510573528 222.16330907971388 627.2308258104556 -44.46263974193849 0.0 0.0
1137.6226330104566 247.8105445866682 662.680098166149 -34.44996517852501 0.0 0.0
1168.1592366050952 265.71139766262 686.956759427156 -17.94422992754506 0.0 0.0
1168.1592366052312 265.7113976627762 686.9567594272514 17.94422992765361 0.0 0.0
1137.622633010046 247.81054458628194 662.6800981658067 34.44996517865094 0.0 0.0
1091.4716510568953 222.16330907928102 627.2308258100855 44.46263974205745 0.0 0.0
1039.2058138003822 196.57771526421672 589.0136732459312 50.05494374022052 0.0 0.0
984.65120019317 173.58071876466147 550.8623090763501 52.40307043173354 0.0 0.0
929.3032188666524 152.62410142122064 512.9569009939836 52.7864837725444 0.0 0.0
872.9740536998345 134.0311110137851 474.89418595649215 52.44341671560146 0.0 0.0
817.7551001489242 117.12612087610447 436.03329460818645 52.327407659539176 0.0 0.0
765.5205410665578 101.66170134935771 395.87694678660165 53.0645879167531 0.0 0.0
713.8803231333884 84.69307812256964 351.9540128718553 54.57581313836518 0.0 0.0
662.6536756735532 66.25925998156598 306.0478753256645 56.42976961090969 0.0 0.0
610.5487262802312 46.68155539801037 259.3521592787435 59.013721680032006 0.0 0.0
556.1716133576593 28.64138546073849 213.86851421658696 62.62221999230745 0.0 0.0
497.4064412141882 12.497247922897461 169.1360130315214 65.05775804631777 0.0 0.0
430.60924424894534 -2.7428187721256103 128.87086938669714 71.89169908656278 0.0 0.0
346.23038477392856 0.8980273998326469 103.9587970931438 71.6499554112197 0.0 0.0
272.65867962018797 6.584034166904512 83.77281413612774 62.21521838982234 0.0 0.0
193.94354409523822 27.40162876449887 66.40355185792113 43.40536458613329 0.0 0.0
67.29536824988497 5.599690458226207 21.868517612433354 74.08021626076984 0.0 0.0
-25.130395570743786 -466.83250315289007 -193.54506865611233 149.1048732396471 0.0 0.0
-20.717542404155864 -436.73261438027157 -168.24892570791906 -147.6070729196479 0.0 0.0
29.83527774382322 -18.69529726588238 3.3419941433822515 -108.5026667038029 0.0 0.0
140.91664839673814 26.567468102631338 50.24523494981083 -69.42554291467698 0.0 0.0
223.7267030438022 11.466479814256317 70.55795485741754 -79.55295654910577 0.0 0.0
293.30162071749857 1.7639001150633888 88.45336908209487 -90.87420056345988 0.0 0.0
371.05868142885924 -1.1414847401780348 110.58371870322169 -93.66014842792417 0.0 0.0
451.0779030739712 3.2707797315818348 140.93056784591585 -88.50392439495634 0.0 0.0
512.9771516186738 20.818356786505507 183.09862960848793 -80.77636970527614 0.0 0.0
565.9338964598223 35.22369012022873 225.16999702252986 -77.18270853674167 0.0 0.0
618.8740491689673 53.03940654821839 270.1642799854597 -73.1634826267541 0.0 0.0
669.9689588549859 69.73880960380296 315.496278569664 -70.292563448835 0.0 0.0
720.3610285220125 84.75537687402442 359.61601352012457 -68.05374925511857 0.0 0.0
771.7869742657346 98.41596805504179 400.9813016271869 -67.02499937733386 0.0 0.0
823.9596120855966 112.96401411504417 439.2526175047593 -67.01494259870312 0.0 0.0
877.1558126845147 128.34762098927052 475.231293893817 -67.27903863325189 0.0 0.0
929.7766170863111 145.14680828290602 510.1520276919563 -66.68521415703027 0.0 0.0
978.8700932569345 163.07067663695895 543.2600062772426 -63.93446083674018 0.0 0.0
1026.2992883683223 183.0764196703407 576.3815861137143 -57.35035774580169 0.0 0.0
1069.918933158046 204.2260474518383 608.4182847149069 -44.60794083176568 0.0 0.0
1100.7127226085076 220.02455642447035 631.94129539582 -23.019233518344492 0.0 0.0
1100.7127226087223 220.0245564247104 631.9412953960136 23.01923351847006 0.0 0.0
1069.918933157796 204.22604745161047 608.4182847147783 44.60794083187025 0.0 0.0
1026.299288367932 183.07641966998904 576.3815861134175 57.35035774595903 0.0 0.0
978.8700932568147 163.07067663689065 543.2600062770945 63.9344608368544 0.0 0.0
929.776617085678 145.14680828229294 510.15202769144486 66.6852141570643 0.0 0.0
877.1558126840788 128.34762098886148 475.23129389346013 67.2790386332674 0.0 0.0
823.9596120853904 112.96401411488708 439.252617504562 67.01494259873226 0.0 0.0
771.7869742652051 98.41596805456511 400.98130162676006 67.02499937736889 0.0 0.0
720.3610285216885 84.75537687378338 359.6160135198206 68.05374925511526 0.0 0.0
669.9689588547393 69.7388096036686 315.4962785694213 70.29256344882698 0.0 0.0
618.8740491684266 53.03940654773694 270.16427998500933 73.16348262664468 0.0 0.0
565.9338964593128 35.223690119798995 225.1699970221265 77.18270853669634 0.0 0.0
512.9771516181378 20.81835678613806 183.09862960811972 80.77636970527743 0.0 0.0
451.0779030737284 3.270779731740099 140.93056784583396 88.50392439500757 0.0 0.0
371.0586814285992 -1.1414847400025057 110.58371870319502 93.66014842784728 0.0 0.0
293.3016207172593 1.7639001150542937 88.45336908202236 90.8742005633783 0.0 0.0
223.72670304370226 11.466479814298886 70.55795485740032 79.5529565490364 0.0 0.0
140.91664839672308 26.567468102679776 50.24523494982084 69.42554291454567 0.0 0.0
29.835277743895148 -18.695297265766154 3.341994143438698 108.5026667035798 0.0 0.0
-20.717542404001556 -436.73261437991187 -168.24892570764382 147.60707291953258 0.0 0.0
-13.87981394230276 -401.9704071096726 -142.64174267591488 -143.84222887747646 0.0 0.0
5.023212854866581 -38.528917053040615 -10.05171125945221 -134.07347738153126 0.0 0.0
95.8554314167879 23.104073203630936 35.687851386125644 -94.2576379125127 0.0 0.0
174.6862722799917 14.889010773664964 56.87258491609698 -97.03165121455193 0.0 0.0
238.9223277648514 3.9275353971482874 72.81240077125523 -107.69958154536738 0.0 0.0
304.81965129120414 -0.8052942089203328 91.19098048908715 -113.19158088731898 0.0 0.0
380.10458063371266 0.49234236666823783 115.10485712011773 -111.39198213225086 0.0 0.0
453.80348768477586 9.965857496795328 148.1905428971438 -102.97871343253186 0.0 0.0
513.1494794991606 24.003846415780252 187.6842323332348 -96.05566930896111 0.0 0.0
565.9043588346342 39.07228066858195 229.434994276963 -91.30951161277693 0.0 0.0
617.0862650189508 53.77414038213336 272.9252127402166 -86.88503762453004 0.0 0.0
668.0313724723375 67.32508164645512 317.4144687347588 -83.7288500080278 0.0 0.0
718.5771715343558 79.50779393652371 360.25010351236244 -82.06099286312173 0.0 0.0
769.6998051094467 91.79388238016968 399.7558292294526 -81.90051684827728 0.0 0.0
820.2196244725096 103.93076823292168 434.7014570949799 -81.94024044326902 0.0 0.0
867.9900854666619 117.07651209625226 466.3198975471236 -80.93015682226641 0.0 0.0
913.2374427337853 129.68526092355157 495.3278118635544 -77.91967969484665 0.0 0.0
955.5713748137384 143.0672391343802 522.9192122978434 -70.56356137187032 0.0 0.0
995.8927865239518 158.93161956754514 550.840803455623 -55.49744555987583 0.0 0.0
1027.9810313025475 172.60609449284235 574.1230077596372 -29.034776893635325 0.0 0.0
1027.9810313025741 172.60609449288825 574.1230077596726 29.034776893761933 0.0 0.0
995.8927865241499 158.93161956779304 550.8408034557661 55.49744556002639 0.0 0.0
955.5713748137368 143.06723913448914 522.9192122978803 70.56356137215201 0.0 0.0
913.2374427335968 129.68526092338965 495.3278118634351 77.91967969490662 0.0 0.0
867.9900854663088 117.07651209592211 466.31989754685475 80.93015682228783 0.0 0.0
820.21962447246 103.93076823291577 434.70145709489634 81.94024044330183 0.0 0.0
769.6998051091142 91.79388237988876 399.75582922919057 81.90051684832103 0.0 0.0
718.5771715343308 79.50779393659177 360.25010351229565 82.06099286315632 0.0 0.0
668.0313724721589 67.32508164636424 317.41446873458415 83.72885000801834 0.0 0.0
617.0862650187139 53.77414038202184 272.9252127399923 86.88503762452888 0.0 0.0
565.9043588344609 39.07228066856424 229.43499427678108 91.30951161273367 0.0 0.0
513.1494794988956 24.003846415755547 187.68423233303858 96.05566930900339 0.0 0.0
453.80348768455406 9.965857496894323 148.19054289703257 102.9787134325812 0.0 0.0
380.1045806332647 0.4923423664926849 115.10485711992087 111.39198213228258 0.0 0.0
304.8196512908594 -0.8052942090318655 91.19098048895884 113.19158088720707 0.0 0.0
238.92232776468722 3.9275353972334734 72.8124007712337 107.69958154521802 0.0 0.0
174.6862722799275 14.88901077374115 56.87258491610059 97.03165121438967 0.0 0.0
95.85543141680017 23.1040732037094 35.687851386152865 94.25763791233337 0.0 0.0
5.023212854892203 -38.528917052959486 -10.051711259420184 134.07347738133376 0.0 0.0
-13.879813942227141 -401.97040710927575 -142.64174267568518 143.84222887737124 0.0 0.0
-8.790992759459542 -361.1743468210301 -117.65349950319012 -136.1780532147471 0.0 0.0
-11.594800771995368 -53.817153547772854 -19.623586295930462 -151.85114519348315 0.0 0.0
57.397359567254064 18.37259641248637 22.730986793922128 -115.99935217763232 0.0 0.0
126.99417054549325 16.993022588329033 43.196157940146676 -113.47266670130008 0.0 0.0
183.50016124204166 6.35233436235214 56.945256521381005 -122.21254474470389 0.0 0.0
238.4779827269398 0.22466062018165228 71.49811308025065 -129.67472347154708 0.0 0.0
299.75260509199813 -1.3205883707359813 89.61488098326599 -131.54621688640444 0.0 0.0
369.3073102059518 2.7627991459620516 113.8551722667952 -126.98118721259034 0.0 0.0
439.96416627073967 11.890655214957922 145.7131581470141 -118.14812916312263 0.0 0.0
499.3830925127264 24.97502378661542 183.62674995020757 -111.04947166872091 0.0 0.0
550.7640479181254 36.681578043753866 222.98411223160394 -105.57661716660687 0.0 0.0
603.5765048826347 49.01607356320124 266.59136270445003 -100.81964715133483 0.0 0.0
655.2060089364593 59.726915174132714 310.8061073068606 -98.06581983002253 0.0 0.0
705.6723774065358 70.43343375205482 352.71410984238105 -97.28323120260293 0.0 0.0
753.5305499385341 79.48818071731267 388.0624262656445 -96.85869491073528 0.0 0.0
799.0571793707068 88.87101318822825 418.5846351578165 -95.49898552536212 0.0 0.0
839.4229516727427 96.66119372012112 443.82208144957065 -91.88855524970772 0.0 0.0
875.9956658971546 103.06512456956273 465.8228479758293 -84.00963416375515 0.0 0.0
913.0993409002551 111.38239831301054 488.7224931448775 -67.44820206528675 0.0 0.0
947.8443667041611 122.54360829499818 512.2583514997816 -36.54385017837008 0.0 0.0
947.8443667036288 122.54360829446446 512.2583514994233 36.54385017849394 0.0 0.0
913.0993409001898 111.38239831302467 488.72249314482815 67.44820206552728 0.0 0.0
875.9956658970542 103.06512456962082 465.8228479757552 84.00963416409525 0.0 0.0
839.4229516729808 96.66119372044034 443.8220814496876 91.88855524981602 0.0 0.0
799.0571793706158 88.8710131881842 418.584635157717 95.49898552542722 0.0 0.0
753.5305499384027 79.48818071724668 388.06242626552563 96.85869491077759 0.0 0.0
705.6723774063968 70.43343375199083 352.71410984225867 97.28323120267554 0.0 0.0
655.2060089361111 59.72691517385288 310.80610730659697 98.06581983007737 0.0 0.0
603.5765048824203 49.01607356305744 266.5913627042395 100.81964715131176 0.0 0.0
550.7640479178475 36.68157804358433 222.98411223137475 105.5766171665736 0.0 0.0
499.3830925126074 24.97502378664291 183.62674995008044 111.04947166864292 0.0 0.0
439.9641662703656 11.890655214833096 145.7131581468089 118.14812916317138 0.0 0.0
369.30731020548797 2.7627991457528225 113.8551722665835 126.98118721261665 0.0 0.0
299.7526050916456 -1.3205883708146908 89.61488098313872 131.54621688637152 0.0 0.0
238.47798272671292 0.22466062012704313 71.49811308016783 129.67472347136476 0.0 0.0
183.5001612418836 6.35233436228793 56.94525652131527 122.212544744511 0.0 0.0
126.99417054548633 16.993022588448063 43.196157940180306 113.47266670115916 0.0 0.0
57.39735956726821 18.37259641252293 22.73098679393734 115.99935217745511 0.0 0.0
-11.594800772008448 -53.81715354775711 -19.623586295929663 151.85114519328994 0.0 0.0
-8.790992759451068 -361.17434682068165 -117.65349950303269 136.17805321462956 0.0 0.0
-9.343011194730037 -320.8370216454339 -99.04206170737942 -129.28073752248739 0.0 0.0
-23.595993537398897 -63.26450211958079 -26.058148697093905 -161.58789698474757 0.0 0.0
24.307549201223345 13.218840310098146 11.257916853396447 -133.96920993695224 0.0 0.0
81.25929878078315 17.9775193234453 29.771045431268533 -127.83420524478673 0.0 0.0
127.82717038747144 8.698971508555573 40.9578425688081 -134.28059380084767 0.0 0.0
170.07158820507837 1.8324949190105668 51.52545323487934 -142.14211532988426 0.0 0.0
215.40833135769944 -0.9593580335480756 64.36784373821192 -146.7211018648545 0.0 0.0
268.81884904950357 -0.3772856475693822 80.95799454239919 -146.89121237938343 0.0 0.0
331.3633277910095 2.02517621153043 101.9898060958689 -142.83754699991616 0.0 0.0
399.59719888292614 11.211074289285076 131.7426759505162 -134.39687059903326 0.0 0.0
462.37396075066545 18.608419802223075 164.91903226108954 -128.64962791295542 0.0 0.0
516.158694743405 28.791722979904684 203.52207966127486 -120.99302622940831 0.0 0.0
571.1280956932453 39.171904590773465 247.37757654673842 -116.35392470211683 0.0 0.0
623.8498537679694 48.09964407954266 291.61753977808667 -114.04265842754023 0.0 0.0
672.4129890059278 55.10747424342386 330.59105411533676 -112.56741857457718 0.0 0.0
715.0385956373395 60.390953996511456 361.39633474275087 -110.42300419512114 0.0 0.0
752.7550459375287 63.66551564920654 385.53465754394097 -106.22988401914922 0.0 0.0
785.1050163511018 63.96294224757904 404.1206573669857 -97.4181645141355 0.0 0.0
815.2074969588773 61.802908809522876 419.34831513903526 -80.25211351756099 0.0 0.0
852.3734476805898 68.0952291996415 441.9266993814231 -46.24945179779547 0.0 0.0
852.3734476807856 68.09522919987832 441.9266993815658 46.249451797953384 0.0 0.0
815.2074969589434 61.802908809695865 419.34831513914565 80.2521135178126 0.0 0.0
785.1050163507631 63.96294224738641 404.12065736683564 97.41816451443671 0.0 0.0
752.7550459373272 63.665515649051855 385.5346575437891 106.22988401924485 0.0 0.0
715.0385956370587 60.390953996254865 361.3963347425019 110.42300419516694 0.0 0.0
672.4129890060703 55.10747424366487 330.5910541154188 112.56741857463126 0.0 0.0
623.8498537678736 48.09964407952733 291.61753977799646 114.04265842761092 0.0 0.0
571.1280956927601 39.17190459029719 247.37757654638574 116.35392470215953 0.0 0.0
516.1586947431952 28.79172297985345 203.5220796611336 120.99302622946293 0.0 0.0
462.3739607503653 18.608419802043848 164.91903226087862 128.64962791293982 0.0 0.0
399.597198882436 11.21107428884914 131.74267595020385 134.39687059899094 0.0 0.0
331.3633277906523 2.0251762114006135 101.98980609571056 142.83754699994358 0.0 0.0
268.81884904932343 -0.3772856474347668 80.95799454237863 146.89121237933333 0.0 0.0
215.4083313575795 -0.9593580333295568 64.36784373824173 146.72110186477175 0.0 0.0
170.07158820502923 1.8324949191787026 51.52545323491648 142.14211532972553 0.0 0.0
127.82717038738764 8.698971508580664 40.95784256879049 134.2805938007057 0.0 0.0
81.25929878082906 17.977519323580875 29.771045431322975 127.83420524461592 0.0 0.0
24.307549201295668 13.218840310263346 11.257916853467703 133.96920993675903 0.0 0.0
-23.595993537329242 -63.26450211940759 -26.058148697021046 161.58789698457892 0.0 0.0
-9.343011194772238 -320.8370216451445 -99.04206170729215 129.28073752237225 0.0 0.0
-17.68785837897139 -278.9904091840329 -88.86404498735877 -120.44887325763823 0.0 0.0
-33.73268758752029 -67.31870819458439 -30.315418734631404 -166.38344331881507 0.0 0.0
-4.463351190070304 8.442136952150806 1.1936357286241512 -147.36558132483415 0.0 0.0
37.63728070624065 18.058606555403138 16.708766178493132 -139.44925490152812 0.0 0.0
72.31662162658661 10.671267498827326 24.89636673762418 -143.52805137519323 0.0 0.0
101.10338042543091 3.7682197588102913 31.428992946250318 -150.97513098364493 0.0 0.0
129.8700588225979 0.04663389575586607 38.91594034285796 -157.16916619412206 0.0 0.0
162.23423409976067 -0.5934681557018275 48.62702433801016 -159.63267702305114 0.0 0.0
201.67602791802713 -0.8400454403223887 60.630926555722006 -160.40124675875484 0.0 0.0
248.8473622723775 2.243237008688207 77.3862260533508 -157.02404673319495 0.0 0.0
309.4821125434121 6.249514545607772 99.77393251262984 -153.13650221068724 0.0 0.0
374.3855809150228 8.952052811128654 126.48817831990581 -148.2752555821243 0.0 0.0
440.6807158611916 16.967172468602815 162.8119392358676 -141.33698603958754 0.0 0.0
501.12998427364215 24.821920092815844 205.04237195312226 -134.8565249960172 0.0 0.0
553.2069375311638 29.598095223106114 246.0529080507664 -130.22864584779512 0.0 0.0
597.2157344414171 32.0733798325539 280.93380496635405 -126.26340290004131 0.0 0.0
632.9211392805454 29.64171050087289 306.51793052573726 -121.07385069928665 0.0 0.0
668.2785421666864 25.937384467519365 328.4672999129872 -110.99640304943712 0.0 0.0
694.5560782205895 12.363494769216906 339.51686044510586 -93.2143503929587 0.0 0.0
730.5103953233238 5.749301004488601 356.24762257544353 -58.90987216602113 0.0 0.0
730.5103953232544 5.749301004467526 356.2476225754031 58.909872166216054 0.0 0.0
694.5560782211794 12.363494770022584 339.51686044551093 93.21435039334085 0.0 0.0
668.2785421671429 25.937384468305325 328.46729991333166 110.99640304986318 0.0 0.0
632.9211392803985 29.641710500843942 306.5179305256597 121.07385069946008 0.0 0.0
597.2157344413288 32.07337983252019 280.93380496628765 126.26340290008528 0.0 0.0
553.2069375311169 29.59809522307922 246.0529080507017 130.22864584779995 0.0 0.0
501.12998427376556 24.82192009309401 205.04237195321673 134.85652499610495 0.0 0.0
440.6807158611734 16.967172468718537 162.811939235881 141.33698603968605 0.0 0.0
374.3855809149622 8.952052811310054 126.48817831991332 148.27525558218122 0.0 0.0
309.4821125432393 6.249514545661848 99.77393251257509 153.13650221066052 0.0 0.0
248.8473622723042 2.24323700881609 77.3862260533552 157.02404673312654 0.0 0.0
201.67602791789105 -0.8400454403055084 60.63092655568161 160.40124675876967 0.0 0.0
162.23423409970326 -0.593468155525251 48.627024338047136 159.63267702300664 0.0 0.0
129.87005882246865 0.046633895703170225 38.91594034280404 157.16916619406277 0.0 0.0
101.1033804252317 3.7682197584110537 31.42899294607161 150.9751309834213 0.0 0.0
72.31662162647854 10.671267498671197 24.896366737544913 143.52805137500428 0.0 0.0
37.637280706320986 18.05860655552297 16.708766178553184 139.449254901368 0.0 0.0
-4.463351190021731 8.442136952214323 1.1936357286577772 147.3655813246612 0.0 0.0
-33.732687587521895 -67.31870819460948 -30.31541873463941 166.383443318608 0.0 0.0
-17.687858378989308 -278.99040918379245 -88.86404498729556 120.44887325753277 0.0 0.0
-19.487472256774115 -237.28456129106291 -76.98558367602921 -110.3423539646389 0.0 0.0
-42.50046051396989 -68.08934620577739 -33.176253092314276 -167.5837632264711 0.0 0.0
-30.116006401235744 4.529021950651147 -7.676095335175379 -156.1097975301556 0.0 0.0
-3.899490400673379 17.48224694687376 4.074826963860114 -147.75276539898346 0.0 0.0
17.349708712278602 12.195166482240218 8.863462558355643 -149.58371900877574 0.0 0.0
31.78264406705185 5.664318674235879 11.22625260078536 -155.96755035729092 0.0 0.0
43.16482258881592 1.6180943857563124 13.423730081098837 -162.24640290818064 0.0 0.0
54.59465746964554 -0.13521929551571255 16.298788809219566 -167.24617657161616 0.0 0.0
68.0089554682106 -0.48357003593091896 20.286729210393727 -169.05707177551633 0.0 0.0
84.19485329556966 -0.35971582934077073 25.32802538266409 -170.83548271407335 0.0 0.0
106.36415957052608 1.5357018685644155 33.447754936811165 -167.07333884560268 0.0 0.0
131.30352416053182 1.1973801678558118 41.95820016122899 -167.61037162340048 0.0 0.0
166.2176487513882 3.4729324793570076 55.151958077411294 -166.04716877702882 0.0 0.0
215.72578783548542 6.271649073556375 74.29167582954211 -161.37216546996046 0.0 0.0
271.3567753889182 7.074421728515677 98.52844125423711 -153.85574211359048 0.0 0.0
330.4933596263083 7.836262013368504 130.31335818501142 -145.67991484157935 0.0 0.0
390.6198977808107 -4.020163216076128 160.12341768403687 -136.67261678031366 0.0 0.0
447.2379749719904 -15.727001943509933 191.18646960936755 -126.50704401585126 0.0 0.0
506.0861326727269 -29.178715551963677 223.7143909891437 -105.27883366568076 0.0 0.0
533.3268246083936 -73.56746177312291 224.9643996876156 -72.40309671223295 0.0 0.0
533.326824607855 -73.56746177367862 224.96439968726608 72.4030967124879 0.0 0.0
506.0861326727043 -29.17871555190648 223.71439098913265 105.27883366603487 0.0 0.0
447.2379749715956 -15.727001943837365 191.18646960912912 126.5070440161134 0.0 0.0
390.61989778068363 -4.020163216320661 160.12341768391556 136.67261678039137 0.0 0.0
330.4933596264302 7.836262013557388 130.31335818511732 145.67991484159074 0.0 0.0
271.35677538878673 7.074421728295498 98.5284412541308 153.85574211359776 0.0 0.0
215.72578783544606 6.271649073440411 74.29167582949975 161.3721654700035 0.0 0.0
166.21764875150672 3.4729324795252428 55.15195807748537 166.04716877713068 0.0 0.0
131.3035241605732 1.1973801679297154 41.9582001612629 167.6103716234058 0.0 0.0
106.36415957057162 1.5357018686722999 33.44775493685204 167.07333884560035 0.0 0.0
84.19485329573578 -0.35971582901427634 25.32802538280987 170.83548271398897 0.0 0.0
68.00895546826686 -0.4835700358371531 20.286729210437983 169.0570717755337 0.0 0.0
54.59465746970232 -0.1352192954179836 16.298788809266277 167.24617657156966 0.0 0.0
43.164822588857135 1.61809438587248 13.423730081146152 162.24640290806508 0.0 0.0
31.78264406709182 5.6643186742784355 11.2262526008104 155.96755035706684 0.0 0.0
17.34970871234906 12.195166482319214 8.863462558400482 149.58371900858998 0.0 0.0
-3.8994904005895794 17.482246946891372 4.074826963890537 147.75276539879127 0.0 0.0
-30.11600640116182 4.52902195071333 -7.676095335134546 156.10979752991648 0.0 0.0
-42.50046051391008 -68.0893462056876 -33.17625309226958 167.5837632262718 0.0 0.0
-19.487472256730957 -237.28456129080848 -76.98558367594168 110.34235396450354 0.0 0.0
-19.548801332913836 -197.47223540487352 -65.10631102133621 -100.09806274457274 0.0 0.0
-49.74493024242562 -65.68960365640575 -34.63036016964941 -164.87181884989405 0.0 0.0
-53.58184540584381 1.3751478794085514 -15.662009257930574 -160.46246219845696 0.0 0.0
-43.50609347977658 16.51259741310621 -8.09804882000111 -152.3697672394306 0.0 0.0
-36.7924831776218 13.230449676581985 -7.064324716893536 -152.28779645283848 0.0 0.0
-37.38014175832352 7.3515492874161295 -8.997175221521147 -157.0637295289621 0.0 0.0
-43.68092917574312 3.160139556829278 -12.144024075695254 -162.52733772551858 0.0 0.0
-53.90628209870982 1.094065872856441 -15.80506713909964 -167.26511562234748 0.0 0.0
-67.49326136047398 0.28967004262272233 -20.189540625516248 -169.01545596665045 0.0 0.0
-83.93718209867428 0.02792070281206005 -25.349630267274406 -170.82919293010056 0.0 0.0
-106.13703468956601 -1.7640391916001548 -33.41871645332004 -167.10763495178017 0.0 0.0
-130.91922203660408 -1.1362315456762868 -41.80500405692875 -167.59165421120957 0.0 0.0
-166.37884301187063 -2.815680821217473 -54.948565518312705 -165.91241602649308 0.0 0.0
-217.50725346666303 -5.923824546670794 -74.79555497683197 -161.1711711147894 0.0 0.0
-270.564427164323 -10.716154561881709 -100.17944755891475 -154.83364825136977 0.0 0.0
-311.85319406812573 -18.508087333419226 -127.6267549920855 -149.94701173939126 0.0 0.0
-325.60479691493737 -27.35996676427778 -145.4339491848688 -147.94570807312755 0.0 0.0
-287.5175592012821 -44.42066073459865 -143.41599442489218 -148.3753857962766 0.0 0.0
-152.82889091986786 -41.3119415216519 -84.48341980794623 -141.99115670532393 0.0 0.0
48.76802519487792 -146.07826686115106 -39.13917413287547 -96.44388890682569 0.0 0.0
48.76802519482038 -146.0782668612294 -39.139174132958516 96.44388890711366 0.0 0.0
-152.82889091994403 -41.311941521859424 -84.4834198080095 141.9911567057534 0.0 0.0
-287.5175592013399 -44.42066073475965 -143.4159944249506 148.37538579652664 0.0 0.0
-325.60479691498927 -27.3599667646179 -145.4339491849662 147.94570807327938 0.0 0.0
-311.85319406802614 -18.508087333509955 -127.62675499206658 149.94701173942738 0.0 0.0
-270.56442716417644 -10.716154561808626 -100.17944755884295 154.83364825141555 0.0 0.0
-217.5072534663817 -5.923824546479413 -74.79555497668366 161.17117111484842 0.0 0.0
-166.37884301167142 -2.815680821391714 -54.9485655182995 165.9124160266295 0.0 0.0
-130.91922203618307 -1.136231545267563 -41.80500405667598 167.59165421122293 0.0 0.0
-106.13703468921213 -1.7640391913403146 -33.41871645312536 167.10763495177332 0.0 0.0
-83.93718209852442 0.027920702696547117 -25.34963026726021 170.82919293002237 0.0 0.0
-67.49326136037982 0.2896700423974945 -20.189540625555203 169.015455966667 0.0 0.0
-53.90628209858639 1.094065872834212 -15.805067139069001 167.2651156223369 0.0 0.0
-43.68092917566295 3.16013955681334 -12.144024075676203 162.527337725371 0.0 0.0
-37.380141758240256 7.351549287389267 -8.997175221504689 157.06372952874295 0.0 0.0
-36.79248317752922 13.23044967655901 -7.064324716872932 152.28779645266872 0.0 0.0
-43.50609347966049 16.512597413131566 -8.098048819958674 152.3697672392598 0.0 0.0
-53.5818454057512 1.37514787947874 -15.662009257881737 160.46246219824346 0.0 0.0
-49.74493024237385 -65.68960365633475 -34.63036016961258 164.87181884974035 0.0 0.0
-19.548801332892857 -197.47223540470006 -65.10631102127786 100.0980627444788 0.0 0.0
-19.468231037158994 -160.37458258083612 -53.952844085398524 -90.06133414201238 0.0 0.0
-56.24788912277826 -60.77819325255348 -35.107824712599516 -158.60512325315096 0.0 0.0
-75.33727098635192 -0.9030904421467736 -22.871151527143464 -160.54461895268753 0.0 0.0
-81.44137482107017 15.265695396746146 -19.846970796849565 -153.20645602612925 0.0 0.0
-89.84568702593802 13.74552155240022 -22.82073967873363 -151.127858526173 0.0 0.0
-105.99702024102154 8.65315470243164 -29.181722310869027 -154.0040814142094 0.0 0.0
-130.27460072663263 4.492317790003021 -37.6690489451444 -158.10977437638408 0.0 0.0
-161.6184397408411 1.4661053405743933 -48.17588217963379 -159.67177987153897 0.0 0.0
-201.25220870579244 0.6512041901184142 -60.55396064487071 -160.2867848790358 0.0 0.0
-248.62520889565485 -2.5143899298334613 -77.39778704421266 -156.98199084109868 0.0 0.0
-309.2518456876973 -6.46880101335617 -99.76669084532182 -153.173350352722 0.0 0.0
-374.10864579335083 -8.988762002210498 -126.37820489957507 -148.3203367920547 0.0 0.0
-440.44346356955424 -16.1962402431948 -162.37921346394526 -141.0301721487863 0.0 0.0
-501.38224208060103 -24.25307172959263 -205.02709367764464 -134.46441149557248 0.0 0.0
-555.0931023758677 -33.35807912154439 -248.98946079072164 -131.7648687125291 0.0 0.0
-601.0217109750167 -45.25893868569382 -289.4236493285175 -132.4469993291242 0.0 0.0
-637.9754385596217 -61.74862135637366 -323.4849133619738 -137.0554130224028 0.0 0.0
-662.3306745389668 -85.080999824103 -349.2959422849837 -147.341982462047 0.0 0.0
-685.8300054298807 -133.79769702554648 -380.73948656960124 -157.6806202070764 0.0 0.0
-645.5877634534596 -176.40722947520564 -371.20122630704793 -150.5110245355783 0.0 0.0
-645.5877634531346 -176.40722947495374 -371.2012263069064 150.5110245358522 0.0 0.0
-685.8300054297463 -133.7976970255802 -380.7394865696216 157.68062020740444 0.0 0.0
-662.330674538789 -85.08099982403623 -349.2959422849235 147.3419824621882 0.0 0.0
-637.9754385593152 -61.74862135607734 -323.48491336177415 137.05541302250347 0.0 0.0
-601.021710974556 -45.25893868535188 -289.4236493282449 132.44699932920201 0.0 0.0
-555.0931023753733 -33.35807912098987 -248.98946079034815 131.76486871253303 0.0 0.0
-501.3822420804668 -24.25307172959023 -205.0270936775383 134.46441149561292 0.0 0.0
-440.44346356932635 -16.196240243255662 -162.3792134638382 141.03017214890372 0.0 0.0
-374.10864579304695 -8.988762002276305 -126.37820489946616 148.32033679205855 0.0 0.0
-309.2518456873885 -6.468801013595858 -99.7666908452868 153.17335035272316 0.0 0.0
-248.6252088954514 -2.5143899302108457 -77.3977870442504 156.98199084106298 0.0 0.0
-201.25220870540556 0.6512041902276611 -60.55396064471804 160.28678487907882 0.0 0.0
-161.6184397404846 1.4661053408016342 -48.17588217945769 159.67177987152536 0.0 0.0
-130.27460072642583 4.492317790026473 -37.66904894507629 158.10977437627298 0.0 0.0
-105.99702024078533 8.653154702564542 -29.181722310759334 154.0040814140695 0.0 0.0
-89.84568702569292 13.745521552574703 -22.8207396786085 151.12785852601235 0.0 0.0
-81.44137482089812 15.265695396884055 -19.846970796757088 153.20645602593726 0.0 0.0
-75.33727098618665 -0.9030904420180326 -22.871151527055837 160.54461895245294 0.0 0.0
-56.247889122711264 -60.77819325245768 -35.10782471255068 158.60512325299192 0.0 0.0
-19.468231037137038 -160.37458258069591 -53.95284408534988 90.06133414191952 0.0 0.0
-19.664318244722928 -126.2262987202332 -43.76718508948684 -79.99910760177839 0.0 0.0
-62.58094087562965 -54.06404408468785 -34.99349548809524 -149.20709968959153 0.0 0.0
-95.7808879196018 -2.29696896727305 -29.423357066062444 -156.45915050870678 0.0 0.0
-117.83322495438529 13.818973587902352 -31.193503825740052 -150.0354879874455 0.0 0.0
-141.73596257751092 13.695946689738483 -38.397495989509565 -146.22071058732573 0.0 0.0
-173.80363554574058 9.481640430517448 -49.23448845955097 -146.91532240639197 0.0 0.0
-215.59751236677636 5.079480602763601 -63.162808077161344 -148.1358770081573 0.0 0.0
-268.3356791262958 1.0836314576592834 -80.59282694069616 -146.93633634516414 0.0 0.0
-331.08362115987063 -2.1974271814228477 -101.94572994012876 -142.6468070492997 0.0 0.0
-399.4970487042974 -11.443240691409189 -131.76856638701167 -134.31438776937313 0.0 0.0
-462.3660428962656 -18.8086114337166 -164.96018985420508 -128.69617991520934 0.0 0.0
-516.0399943369646 -28.84851442904706 -203.4420644579686 -121.08080009472171 0.0 0.0
-570.5888523840915 -38.48740882966265 -246.77500984822166 -116.08792164147783 0.0 0.0
-623.3210910936459 -47.14447003637192 -290.95160317220876 -113.47820374773464 0.0 0.0
-674.1730427995112 -57.66370904284926 -332.9867704081411 -113.39999797168427 0.0 0.0
-721.5576546244349 -71.73417953623621 -371.13285941622553 -115.45166250873854 0.0 0.0
-763.8170581949005 -89.77561226416788 -404.7608956757783 -121.19255936580107 0.0 0.0
-806.2649192767544 -122.83092024557114 -441.2514140315588 -131.7120613896542 0.0 0.0
-850.151045500921 -175.36410838049233 -484.3080431002878 -143.11782817210775 0.0 0.0
-892.0041847620893 -258.3466656528765 -535.6002304179088 -144.48534333174626 0.0 0.0
-892.0041847622426 -258.3466656532144 -535.6002304181013 144.48534333199376 0.0 0.0
-850.1510455007297 -175.36410838048482 -484.3080431002272 143.11782817239322 0.0 0.0
-806.264919276598 -122.83092024556929 -441.251414031453 131.7120613898722 0.0 0.0
-763.817058194264 -89.7756122636264 -404.76089567532375 121.19255936593031 0.0 0.0
-721.557654624554 -71.73417953646815 -371.1328594162503 115.45166250882214 0.0 0.0
-674.173042799586 -57.66370904306901 -332.98677040819746 113.39999797178453 0.0 0.0
-623.3210910934321 -47.14447003623688 -290.9516031720583 113.4782037477606 0.0 0.0
-570.5888523838781 -38.487408829595836 -246.77500984807182 116.08792164154508 0.0 0.0
-516.0399943367739 -28.848514429080893 -203.44206445783766 121.08080009475978 0.0 0.0
-462.36604289580487 -18.808611433449123 -164.96018985388895 128.69617991515773 0.0 0.0
-399.4970487037667 -11.443240691217477 -131.7685663867417 134.31438776929878 0.0 0.0
-331.083621159284 -2.1974271811967334 -101.94572993986947 142.64680704932368 0.0 0.0
-268.3356791258858 1.0836314577671389 -80.59282694053402 146.93633634515595 0.0 0.0
-215.597512366409 5.079480602901956 -63.16280807701125 148.1358770079953 0.0 0.0
-173.80363554553304 9.48164043046592 -49.23448845950575 146.91532240620452 0.0 0.0
-141.73596257733217 13.695946689638088 -38.397495989487304 146.2207105871302 0.0 0.0
-117.83322495428493 13.818973587818654 -31.193503825735924 150.0354879872705 0.0 0.0
-95.78088791949504 -2.2969689673371003 -29.42335706604964 156.45915050851465 0.0 0.0
-62.5809408755776 -54.06404408466249 -34.99349548807203 149.20709968941435 0.0 0.0
-19.664318244721855 -126.22629872014889 -43.767185089461215 79.99910760169831 0.0 0.0
-20.20640448317468 -95.36252031006053 -34.67067743797056 -69.70670488481669 0.0 0.0
-68.98869207789932 -46.16601260285758 -34.54641140422706 -137.04582265541296 0.0 0.0
-115.22073446480655 -2.840776344522527 -35.41845324279872 -148.45871915457224 0.0 0.0
-152.86247168865367 12.127969498096865 -42.20913362367565 -142.8565009290358 0.0 0.0
-192.3541290916795 13.186302569907566 -53.71540456601896 -137.41461157102594 0.0 0.0
-240.19919257849142 9.367416852439256 -69.22462812963965 -135.43971895293924 0.0 0.0
-299.59891362851477 4.815572245419059 -88.48335034763953 -133.29485085645254 0.0 0.0
-369.11167697833184 -2.3044898369551428 -113.63718227906278 -126.93857306211436 0.0 0.0
-439.9295361381637 -12.00625676422971 -145.70430561679578 -117.94051568205265 0.0 0.0
-499.41144129806185 -25.176461817943967 -183.6903034740998 -110.93396325722459 0.0 0.0
-550.8083861073903 -36.81290993963126 -223.030493204145 -105.63120834733472 0.0 0.0
-603.5717251014366 -49.176813127841896 -266.6057879535073 -100.95581840887286 0.0 0.0
-654.744411552776 -59.33047047437134 -310.3264609016915 -97.90882662969354 0.0 0.0
-704.7033548462301 -69.24112221340806 -351.6556298613516 -96.54158216677344 0.0 0.0
-754.3008665321499 -80.50431674834039 -389.13798873584875 -96.91031375264052 0.0 0.0
-804.5279324177386 -96.83578036368611 -426.0688770921492 -99.39606568537644 0.0 0.0
-853.8111827412722 -119.50708078487003 -463.29281647149566 -104.5175934325513 0.0 0.0
-908.092508088213 -159.50515233129715 -508.2034522950871 -114.57330601483181 0.0 0.0
-969.7863525023729 -225.15881121103234 -565.8930403258285 -126.29016892860503 0.0 0.0
-1034.2565544282745 -322.9530787949904 -637.0064211785669 -130.0208543348742 0.0 0.0
-1034.256554428327 -322.9530787952387 -637.0064211786504 130.02085433515353 0.0 0.0
-969.7863525020898 -225.15881121088958 -565.8930403256511 126.29016892884911 0.0 0.0
-908.0925080877087 -159.50515233082945 -508.20345229473907 114.573306014923 0.0 0.0
-853.8111827409718 -119.50708078462284 -463.292816471275 104.51759343264092 0.0 0.0
-804.5279324175605 -96.83578036356536 -426.06887709202545 99.3960656854159 0.0 0.0
-754.3008665318005 -80.5043167480325 -389.137988735579 96.91031375268875 0.0 0.0
-704.7033548461997 -69.24112221348756 -351.655629861302 96.54158216683747 0.0 0.0
-654.7444115526464 -59.3304704744057 -310.3264609015581 97.90882662979581 0.0 0.0
-603.5717251011308 -49.17681312770641 -266.60578795324784 100.95581840892078 0.0 0.0
-550.8083861070274 -36.81290993944141 -223.03049320384437 105.6312083473172 0.0 0.0
-499.41144129755844 -25.1764618176102 -183.6903034737366 110.93396325716577 0.0 0.0
-439.9295361375888 -12.006256763977868 -145.70430561648465 117.94051568210006 0.0 0.0
-369.11167697782923 -2.3044898369041467 -113.63718227887742 126.93857306215688 0.0 0.0
-299.59891362813653 4.815572245336354 -88.48335034755347 133.2948508563884 0.0 0.0
-240.1991925781382 9.367416852517499 -69.22462812951603 135.4397189527737 0.0 0.0
-192.354129091363 13.186302570024505 -53.71540456589035 137.4146115708916 0.0 0.0
-152.86247168840634 12.127969498221372 -42.209133623565265 142.85650092887627 0.0 0.0
-115.22073446465335 -2.840776344456872 -35.418453242733065 148.45871915441745 0.0 0.0
-68.9886920778015 -46.16601260274855 -34.54641140416501 137.04582265526992 0.0 0.0
-20.20640448315063 -95.36252030995281 -34.670677437931026 69.7067048847772 0.0 0.0
-21.022495537474107 -68.12544407424859 -26.744381883516805 -58.99603349862828 0.0 0.0
-75.45370108684497 -37.5859421169269 -33.91189296113156 -122.40905375111322 0.0 0.0
-133.8452111775012 -2.7108212142507497 -40.96680971752557 -136.74498660426363 0.0 0.0
-186.74280038573866 10.363852216145894 -52.89413886734243 -131.7992631691656 0.0 0.0
-241.84357829330224 12.050824803851313 -68.8378759970409 -124.86149549757317 0.0 0.0
-305.48935446281257 8.94983058881342 -88.79979556923499 -120.09117754495382 0.0 0.0
-379.58361425345754 2.0817538185542306 -114.16993255647661 -112.9881853673567 0.0 0.0
-453.73695234888373 -9.658376914418797 -148.07499026286965 -102.92936373029778 0.0 0.0
-513.298955125255 -24.128460630603676 -187.74603019095775 -95.81096930955403 0.0 0.0
-566.0635087315961 -39.227840552671566 -229.5362778461731 -91.20650018202537 0.0 0.0
-617.1617475456825 -53.88926736856438 -272.9920770134736 -86.92624509375607 0.0 0.0
-668.1222771197162 -67.55888749222622 -317.51365882649327 -83.8925291850833 0.0 0.0
-718.3843515401293 -79.53808123129845 -360.09864937031125 -82.02568530123355 0.0 0.0
-768.505826262673 -90.65015290913189 -398.622829666913 -81.14137372653296 0.0 0.0
-819.1359051715765 -102.88146277656395 -433.7472789199395 -81.40184998397316 0.0 0.0
-871.7593048059514 -121.68756326263131 -470.9192979125671 -83.45684072203258 0.0 0.0
-929.1049979134527 -149.53323649220994 -513.9305328776203 -87.6008103939032 0.0 0.0
-994.6742080810567 -197.495226843532 -568.5286395564942 -96.22301669147487 0.0 0.0
-1071.0928811678355 -276.3702184915317 -640.0553326713903 -109.21954596799847 0.0 0.0
-1139.3270605079178 -379.16041081672364 -715.9262231431692 -119.37812835175836 0.0 0.0
-1139.327060507872 -379.160410816724 -715.9262231431574 119.37812835188984 0.0 0.0
-1071.0928811678086 -276.37021849161573 -640.0553326713859 109.21954596821458 0.0 0.0
-994.6742080810437 -197.4952268436163 -568.5286395564731 96.2230166916504 0.0 0.0
-929.1049979130307 -149.53323649183693 -513.9305328773199 87.60081039398739 0.0 0.0
-871.7593048056312 -121.68756326233084 -470.9192979123219 83.45684072202661 0.0 0.0
-819.1359051712113 -102.8814627762296 -433.7472789196356 81.40184998397713 0.0 0.0
-768.5058262623561 -90.65015290885435 -398.62282966663395 81.14137372654187 0.0 0.0
-718.3843515400409 -79.53808123134786 -360.09864937023053 82.02568530132558 0.0 0.0
-668.1222771193709 -67.55888749199019 -317.5136588261916 83.89252918506234 0.0 0.0
-617.1617475452833 -53.889267368297155 -272.99207701312173 86.92624509372126 0.0 0.0
-566.0635087314415 -39.22784055276437 -229.53627784599377 91.20650018201329 0.0 0.0
-513.2989551250253 -24.128460630726778 -187.74603019079035 95.81096930964317 0.0 0.0
-453.7369523484448 -9.658376914357644 -148.07499026263596 102.92936373032067 0.0 0.0
-379.58361425297824 2.0817538186277433 -114.16993255629396 112.98818536730293 0.0 0.0
-305.48935446244104 8.9498305887677 -88.79979556914274 120.09117754479378 0.0 0.0
-241.8435782930756 12.050824803683636 -68.83787599702522 124.86149549741114 0.0 0.0
-186.74280038551402 10.363852216118584 -52.8941388672848 131.79926316898994 0.0 0.0
-133.84521117735414 -2.7108212142243335 -40.96680971747353 136.74498660408855 0.0 0.0
-75.45370108678372 -37.58594211686405 -33.911892961094324 122.40905375095629 0.0 0.0
-21.022495537435844 -68.12544407419846 -26.744381883490288 58.99603349858238 0.0 0.0
-21.922738059334336 -44.86390718290487 -20.035993572671757 -47.74199491242026 0.0 0.0
-81.71291685916424 -28.740972295647147 -33.13616674644341 -105.52051413204033 0.0 0.0
-151.73610093299385 -2.1084716888835766 -46.15337178656322 -121.47486025962705 0.0 0.0
-219.5462262510374 8.379720719720208 -63.33963152580607 -116.73220617659157 0.0 0.0
-289.73137882887045 10.276521737306986 -83.73522827296375 -108.31767854346415 0.0 0.0
-368.5473711325516 6.963966200437129 -108.21250869931501 -100.33180497142908 0.0 0.0
-450.1048130765654 -1.7065429577292646 -140.26410682617473 -89.92099776728976 0.0 0.0
-513.0141496016176 -20.64475368459145 -183.07081465412244 -80.60403297864507 0.0 0.0
-566.169991560472 -35.36568862632715 -225.3033565311793 -76.93367872568648 0.0 0.0
-619.0094304006016 -53.14363072099195 -270.2641453957104 -73.07987633284071 0.0 0.0
-670.0488492770238 -69.8279196307405 -315.5673982281468 -70.33702178109455 0.0 0.0
-720.5234094500892 -85.03644783160513 -359.7790291690046 -68.20361448752931 0.0 0.0
-771.8946379619225 -98.84864194840459 -401.18409612086907 -67.09125156657946 0.0 0.0
-822.8003314749953 -112.15992667037177 -438.3328409028709 -66.46801748104777 0.0 0.0
-874.3513088072608 -125.5685927161598 -472.4953827571535 -66.37338131809541 0.0 0.0
-931.1130812550925 -146.29819099141545 -511.4320470465933 -67.6785761462943 0.0 0.0
-994.5020557068865 -179.71023241479492 -559.938074674376 -70.31451035073249 0.0 0.0
-1069.7436751788932 -235.39214403945223 -623.828232595778 -77.14474693148703 0.0 0.0
-1157.4286396755865 -324.48380532223075 -706.351735111728 -92.56456820097111 0.0 0.0
-1229.8553637280693 -433.5161868346643 -787.1913491399999 -112.43196960468028 0.0 0.0
-1229.8553637276755 -433.5161868342992 -787.1913491397618 112.43196960479204 0.0 0.0
-1157.4286396751218 -324.4838053218279 -706.3517351113969 92.56456820115329 0.0 0.0
-1069.7436751785435 -235.39214403916418 -623.8282325954865 77.14474693163802 0.0 0.0
-994.502055706722 -179.7102324146678 -559.9380746741919 70.31451035078518 0.0 0.0
-931.1130812547602 -146.2981909911375 -511.43204704626953 67.67857614637217 0.0 0.0
-874.3513088068137 -125.56859271575645 -472.4953827568147 66.37338131814971 0.0 0.0
-822.8003314743664 -112.15992666976511 -438.33284090239283 66.46801748104753 0.0 0.0
-771.8946379614928 -98.84864194807047 -401.1840961205058 67.09125156665988 0.0 0.0
-720.5234094499206 -85.03644783156312 -359.77902916879725 68.20361448754352 0.0 0.0
-670.0488492767896 -69.82791963067154 -315.5673982278938 70.33702178109304 0.0 0.0
-619.0094304003198 -53.14363072086909 -270.26414539543845 73.07987633279427 0.0 0.0
-566.1699915601374 -35.36568862623137 -225.3033565309037 76.93367872574949 0.0 0.0
-513.0141496012591 -20.644753684570382 -183.07081465387907 80.60403297871046 0.0 0.0
-450.10481307617135 -1.7065429577404951 -140.26410682599044 89.92099776727818 0.0 0.0
-368.5473711320492 6.963966200533555 -108.21250869914189 100.33180497130925 0.0 0.0
-289.73137882849727 10.276521737389217 -83.73522827283114 108.31767854337772 0.0 0.0
-219.54622625076212 8.379720719770305 -63.33963152570992 116.73220617651131 0.0 0.0
-151.73610093285723 -2.10847168889212 -46.153371786524794 121.47486025952563 0.0 0.0
-81.71291685908645 -28.74097229561686 -33.136166746410986 105.5205141319923 0.0 0.0
-21.922738059272916 -44.863907182850525 -20.035993572637032 47.741994912414924 0.0 0.0
-22.56440158815805 -25.926554917183083 -14.547286951602338 -35.93685338287108 0.0 0.0
-87.19784251523637 -19.986182030592126 -32.155207363748545 -86.54571088214252 0.0 0.0
-168.89903676425735 -1.2837395544693617 -51.05483289561801 -102.67610208830283 0.0 0.0
-251.64159328589028 6.268599651095551 -73.6097824753213 -97.9108773770867 0.0 0.0
-336.5603443555535 7.056075105186892 -98.65672786438893 -87.75736657165795 0.0 0.0
-426.11489480665057 6.916759352294855 -126.32957953806057 -78.03328103942987 0.0 0.0
-496.5653367506815 -11.641019983915793 -168.6528681848138 -66.00741759268357 0.0 0.0
-556.4873596427851 -28.69536900872542 -214.03415643633775 -62.33482697644231 0.0 0.0
-610.7913397812289 -46.7895826089552 -259.5182317707263 -58.79843368548196 0.0 0.0
-662.7648452339989 -66.32162349703282 -306.14112901529245 -56.37172395180811 0.0 0.0
-713.9637326914261 -84.77093909712792 -352.02919786157423 -54.61377235068877 0.0 0.0
-765.7291653455723 -101.97954416730464 -396.0910738393558 -53.17450974787487 0.0 0.0
-818.0071387279579 -117.75208302708738 -436.4223843286437 -52.45296640480311 0.0 0.0
-872.1381918800768 -133.7510922535573 -474.3841602087792 -52.23333630083192 0.0 0.0
-926.0058581976245 -149.49759819202413 -509.77014403497986 -51.83488064547342 0.0 0.0
-983.0197219402837 -171.3511779377864 -548.7164757525295 -51.92178658318254 0.0 0.0
-1052.1214256665141 -208.92018992735552 -601.8766238321418 -53.00775327995342 0.0 0.0
-1135.17453355167 -270.327087777974 -673.4316697190118 -57.80561817107873 0.0 0.0
-1233.6031267629778 -368.7269973801365 -766.5096283831524 -75.85753523396976 0.0 0.0
-1315.2934166989362 -490.07397461652977 -857.3869979774994 -107.84539657335769 0.0 0.0
-1315.2934166993705 -490.0739746170501 -857.3869979777826 107.84539657348766 0.0 0.0
-1233.6031267630258 -368.72699738024835 -766.5096283831407 75.85753523413018 0.0 0.0
-1135.1745335514809 -270.3270877778249 -673.4316697188392 57.80561817120058 0.0 0.0
-1052.121425666271 -208.92018992715205 -601.8766238319345 53.007753280042365 0.0 0.0
-983.0197219398485 -171.3511779373707 -548.7164757521825 51.92178658318018 0.0 0.0
-926.0058581976782 -149.49759819213784 -509.77014403492996 51.83488064552063 0.0 0.0
-872.1381918797669 -133.75109225329547 -474.3841602084736 52.233336300844016 0.0 0.0
-818.0071387275366 -117.75208302674442 -436.4223843282852 52.452966404865265 0.0 0.0
-765.7291653453728 -101.97954416722312 -396.09107383916114 53.17450974791481 0.0 0.0
-713.9637326909667 -84.77093909680029 -352.02919786117957 54.613772350704934 0.0 0.0
-662.7648452336582 -66.32162349683226 -306.1411290149591 56.37172395175425 0.0 0.0
-610.7913397809486 -46.78958260887685 -259.5182317704449 58.79843368550847 0.0 0.0
-556.4873596424753 -28.695369008688058 -214.0341564360691 62.33482697650446 0.0 0.0
-496.56533675027407 -11.64101998380851 -168.65286818454283 66.00741759267812 0.0 0.0
-426.1148948061681 6.916759352353617 -126.32957953787505 78.0332810394118 0.0 0.0
-336.5603443552017 7.056075105128288 -98.65672786430748 87.75736657158312 0.0 0.0
-251.6415932856678 6.2685996509738136 -73.6097824752919 97.91087737699704 0.0 0.0
-168.899036764147 -1.283739554562369 -51.054832895612805 102.67610208818112 0.0 0.0
-87.19784251512175 -19.98618203053995 -32.15520736369851 86.54571088207953 0.0 0.0
-22.564401588109874 -25.926554917099146 -14.547286951562706 35.936853382814505 0.0 0.0
-22.34536652184653 -11.630525028606778 -10.19276746513599 -23.771923317640717 0.0 0.0
-90.92742581833865 -11.715046927085353 -30.792741823627196 -65.58540848582257 0.0 0.0
-185.23774675548108 -0.34151140612508435 -55.67377744848184 -80.15209564436208 0.0 0.0
-283.8210000138746 3.454488065482815 -84.10492204049277 -75.3485447720536 0.0 0.0
-381.0191437269596 5.198938799324913 -112.34117890587268 -64.22815480517548 0.0 0.0
-472.06427918696653 2.554060922976751 -146.82594212100207 -54.07609266395704 0.0 0.0
-537.3683203391806 -20.535882977515154 -196.30144548529614 -46.12039755477987 0.0 0.0
-593.8092714380201 -36.80578203123402 -242.29020652752718 -43.697765147831205 0.0 0.0
-647.708914437048 -57.61502842756729 -290.1467905403722 -41.82403706926727 0.0 0.0
-700.1175487420737 -78.96047435259004 -337.8912396728685 -40.36250996401251 0.0 0.0
-752.3699463409364 -99.1395380037952 -383.99904775394174 -39.30229155096381 0.0 0.0
-805.1866597139164 -118.40190103212498 -427.70814619221017 -38.375275692155476 0.0 0.0
-860.276969616446 -136.37608692000657 -468.42619424956445 -37.954664052844855 0.0 0.0
-916.4095967666724 -155.39991146285365 -507.4517919433839 -37.961800929816306 0.0 0.0
-973.6701825028542 -175.00819094139618 -545.835249281962 -37.64454545696283 0.0 0.0
-1033.5178461074568 -198.8335839396824 -586.9035888703871 -36.71604951792753 0.0 0.0
-1101.207576620262 -234.87286136963255 -638.2160715299507 -36.044746884732675 0.0 0.0
-1189.121462464343 -299.61079299686054 -714.7462509889148 -38.323597915466905 0.0 0.0
-1300.617438699342 -408.07157433084524 -820.3897489863182 -57.802348741946034 0.0 0.0
-1404.2084814846237 -553.0146392829201 -932.7346944226877 -104.232292529343 0.0 0.0
-1404.2084814845039 -553.0146392828501 -932.7346944226204 104.23229252944195 0.0 0.0
-1300.6174386994517 -408.071574330997 -820.3897489863687 57.80234874207764 0.0 0.0
-1189.1214624644936 -299.6107929970447 -714.7462509889622 38.32359791554186 0.0 0.0
-1101.2075766203059 -234.87286136971778 -638.2160715299146 36.044746884837835 0.0 0.0
-1033.5178461068908 -198.8335839391402 -586.9035888699145 36.716049517938 0.0 0.0
-973.6701825025932 -175.00819094116315 -545.8352492816869 37.64454545694382 0.0 0.0
-916.4095967663496 -155.39991146258052 -507.4517919430534 37.96180092981582 0.0 0.0
-860.276969616136 -136.3760869197693 -468.42619424926033 37.95466405285236 0.0 0.0
-805.1866597135319 -118.40190103184517 -427.7081461918634 38.37527569217575 0.0 0.0
-752.3699463404165 -99.139538003396 -383.99904775350507 39.30229155099582 0.0 0.0
-700.1175487417671 -78.96047435242556 -337.8912396725563 40.362509963990135 0.0 0.0
-647.7089144365609 -57.61502842722805 -290.1467905399466 41.824037069233995 0.0 0.0
-593.8092714377591 -36.80578203120226 -242.29020652725671 43.69776514784563 0.0 0.0
-537.3683203389694 -20.53588297761915 -196.3014454851041 46.120397554788255 0.0 0.0
-472.0642791864606 2.554060923179173 -146.82594212071749 54.07609266395035 0.0 0.0
-381.01914372660474 5.198938799177327 -112.34117890581808 64.22815480510964 0.0 0.0
-283.82100001355263 3.4544880655547403 -84.10492204037577 75.34854477198206 0.0 0.0
-185.23774675528242 -0.3415114060582294 -55.673777448402184 80.15209564427242 0.0 0.0
-90.92742581824885 -11.715046927016367 -30.792741823579554 65.58540848575745 0.0 0.0
-22.345366521842056 -11.630525028610581 -10.192767465135791 23.771923317646056 0.0 0.0
-20.148968004653742 -2.211999710810753 -6.708290314639348 -11.772310521865338 0.0 0.0
-91.357966010849 -4.45513260361921 -28.743929584340457 -42.649315729070395 0.0 0.0
-200.58506511029472 0.68277369828626 -59.97068742360253 -53.264226659852724 0.0 0.0
-317.21104943395153 -0.9199179999755449 -95.40706599222851 -49.015830230996784 0.0 0.0
-423.86709669268504 9.74740806934362 -123.55169285217289 -40.46199294307907 0.0 0.0
-502.8597436165718 -8.22290410125715 -170.33711998543546 -29.87180784298465 0.0 0.0
-569.4088180169927 -25.698856199691047 -219.8934465174358 -27.32435633954404 0.0 0.0
-624.9751945492351 -45.350234854143665 -268.37910401059224 -26.225645782583843 0.0 0.0
-678.8529612891043 -67.76309949509854 -317.36032222414485 -25.247521636748644 0.0 0.0
-732.2711985306452 -90.91473143870614 -365.83409960431015 -24.630698062363273 0.0 0.0
-786.1871991980295 -113.30988307550336 -412.4700740948133 -24.082555633787802 0.0 0.0
-841.823006044827 -134.3647726691055 -456.51445840188774 -23.611995482371643 0.0 0.0
-898.2048941780888 -155.3133528117441 -497.82053198417714 -23.446901752796162 0.0 0.0
-957.4276859532404 -176.82639204760704 -538.6376158199107 -23.621251964276528 0.0 0.0
-1019.6371672286891 -201.1887712373899 -581.4521159953306 -23.493130255517457 0.0 0.0
-1083.164766632681 -229.15689608118848 -626.4529066340374 -22.229706734282193 0.0 0.0
-1149.477269003037 -264.5108984839129 -676.3030847893469 -20.52591724606214 0.0 0.0
-1220.5673102097537 -311.57834216766554 -736.1249107558328 -19.125901895709173 0.0 0.0
-1356.955657808709 -439.79985627480164 -865.8811277266091 -36.09710045600076 0.0 0.0
-1506.9218405178574 -630.3630570208444 -1022.2832009791681 -99.37983017191559 0.0 0.0
-1506.9218405176139 -630.3630570205918 -1022.2832009789768 99.37983017193307 0.0 0.0
-1356.9556578084275 -439.79985627453505 -865.881127726356 36.09710045606123 0.0 0.0
-1220.5673102091191 -311.5783421670368 -736.1249107553123 19.125901895751678 0.0 0.0
-1149.4772690027653 -264.5108984836622 -676.3030847890478 20.525917246066463 0.0 0.0
-1083.1647666323563 -229.15689608089826 -626.4529066336908 22.22970673433204 0.0 0.0
-1019.6371672283256 -201.18877123705602 -581.452115994966 23.493130255493195 0.0 0.0
-957.4276859528654 -176.8263920472799 -538.6376158195496 23.6212519642869 0.0 0.0
-898.2048941777972 -155.31335281152639 -497.82053198386654 23.44690175279181 0.0 0.0
-841.8230060447038 -134.36477266910046 -456.5144584016839 23.61199548240575 0.0 0.0
-786.1871991978069 -113.30988307541972 -412.4700740945438 24.082555633780462 0.0 0.0
-732.2711985305069 -90.91473143871337 -365.83409960410785 24.630698062325067 0.0 0.0
-678.8529612886839 -67.76309949482882 -317.3603222237539 25.247521636755778 0.0 0.0
-624.9751945487983 -45.35023485388018 -268.3791040102039 26.22564578253371 0.0 0.0
-569.4088180164912 -25.698856199386675 -219.89344651702322 27.32435633950998 0.0 0.0
-502.85974361628973 -8.222904101296145 -170.3371199852362 29.871807842942392 0.0 0.0
-423.8670966923391 9.747408069158276 -123.55169285211824 40.46199294307061 0.0 0.0
-317.2110494336712 -0.919918000011883 -95.40706599215767 49.01583023095446 0.0 0.0
-200.58506511010663 0.6827736983119745 -59.970687423538386 53.264226659771595 0.0 0.0
-91.35796601077848 -4.455132603610338 -28.74392958431664 42.649315729037305 0.0 0.0
-20.14896800466315 -2.211999710855389 -6.70829031465556 11.772310521862135 0.0 0.0
-13.799602315996994 2.20902120590063 -3.4771743330289087 -1.0810553293415344 0.0 0.0
-86.05838708046379 1.2100878073697103 -25.45448978192822 -17.393996340020266 0.0 0.0
-215.24754608293807 0.805389707904947 -64.33264691250993 -20.89351704488173 0.0 0.0
-352.00814173068693 -3.7155016863742403 -106.63523985893572 -19.25913722370068 0.0 0.0
-465.9117492401158 9.5214865549653 -137.7885680961968 -14.682123824476207 0.0 0.0
-537.3476660201183 -16.827630647598514 -193.26214381755986 -8.923522255826928 0.0 0.0
-594.8248554368853 -30.761512440893963 -241.297762581737 -9.173799900097098 0.0 0.0
-651.1152017707971 -53.21775093658708 -291.6603408392337 -9.053464030997034 0.0 0.0
-705.9578172286532 -77.54899730979702 -341.8077767804132 -8.897192048850538 0.0 0.0
-761.2525940753565 -102.75363813979581 -391.21313801871344 -8.883239121313558 0.0 0.0
-817.1255838106644 -126.6499167956097 -438.04003195254336 -8.802614492597197 0.0 0.0
-874.0417534375397 -150.84881121456112 -482.76540412734073 -8.783687087256826 0.0 0.0
-933.5395199574161 -174.0116323905284 -525.4690218366641 -8.910861123529447 0.0 0.0
-996.2009325321217 -198.43498978856573 -568.8338755404939 -9.086170553139024 0.0 0.0
-1062.6697035058917 -227.15691801942276 -615.6733216328545 -9.06110660483558 0.0 0.0
-1131.553864553941 -260.935659367798 -666.1874609325328 -8.351316219081518 0.0 0.0
-1198.9862860407159 -298.30975397297414 -717.7948061621323 -6.716539177373482 0.0 0.0
-1262.2076794446011 -338.8220347717356 -769.1897685275005 -4.42460732552741 0.0 0.0
-1318.1473848638575 -381.22914889171545 -820.5827722056927 -6.702868919631599 0.0 0.0
-1679.632486567326 -773.7878663421103 -1179.4016363199028 -85.00536887681986 0.0 0.0
-1679.6324865676931 -773.787866342488 -1179.4016363201777 85.00536887682135 0.0 0.0
-1318.1473848637575 -381.22914889162354 -820.5827722056262 6.702868919664209 0.0 0.0
-1262.2076794440402 -338.8220347711829 -769.1897685270353 4.424607325562371 0.0 0.0
-1198.9862860402059 -298.3097539724824 -717.7948061616657 6.716539177360721 0.0 0.0
-1131.5538645531494 -260.93565936702663 -666.1874609318438 8.351316219123985 0.0 0.0
-1062.6697035054472 -227.156918019009 -615.673321632404 9.061106604797224 0.0 0.0
-996.200932531422 -198.43498978790697 -568.8338755398645 9.086170553166676 0.0 0.0
-933.5395199565822 -174.01163238975022 -525.4690218359564 8.910861123510681 0.0 0.0
-874.0417534368811 -150.84881121399454 -482.7654041267878 8.783687087318746 0.0 0.0
-817.125583810122 -126.6499167951824 -438.04003195207844 8.802614492593158 0.0 0.0
-761.2525940749978 -102.75363813957321 -391.2131380183805 8.883239121316134 0.0 0.0
-705.957817228188 -77.54899730947137 -341.80777677999606 8.89719204885694 0.0 0.0
-651.1152017702633 -53.217750936215424 -291.6603408387656 9.053464030970256 0.0 0.0
-594.824855436479 -30.76151244070112 -241.2977625813595 9.173799900080231 0.0 0.0
-537.347666019833 -16.827630647580204 -193.26214381731128 8.923522255860522 0.0 0.0
-465.9117492397812 9.521486554924023 -137.78856809607225 14.682123824477843 0.0 0.0
-352.0081417304305 -3.715501686517103 -106.63523985890554 19.259137223662 0.0 0.0
-215.24754608278494 0.8053897078241761 -64.33264691248822 20.89351704484543 0.0 0.0
-86.0583870803479 1.2100878073919286 -25.45448978188679 17.393996340011725 0.0 0.0
-13.799602316002831 2.2090212059114718 -3.477174333027407 1.0810553293415341 0.0 0.0
SCALARS Strain float 6
LOOKUP_TABLE default
0.004611550322560005 -0.005733890212158019 0.0 -0.0028198484490575965 0.0 0.0
0.0016552150422076868 -0.00038026818603573154 0.0 0.0009900960831942807 0.0 0.0
0.0016227395465951474 -0.0007627373639615409 0.0 -0.00014644854920846384 0.0 0.0
0.0018479232621521086 -0.0007717418406368859 0.0 -0.00011357795488095568 0.0 0.0
0.0022723065084954428 -0.001038690821704935 0.0 -0.00015639613117622575 0.0 0.0
0.0030266645317861326 -0.0015339686807210318 0.0 -0.0001763213411217629 0.0 0.0
0.0039323139600991415 -0.0022015095529926976 0.0 -0.00021679342439694105 0.0 0.0
0.00501848893455305 -0.0030291000445414884 0.0 -0.0002540973626583426 0.0 0.0
0.006359847082083764 -0.004109957374388906 0.0 -0.00030020283518097934 0.0 0.0
0.008091159416480462 -0.0055810375459385275 0.0 -0.00036453702400023047 0.0 0.0
0.010465843780007504 -0.007702985019420905 0.0 -0.0004407732691563693 0.0 0.0
0.013858472035040877 -0.010844288745986974 0.0 -0.0005643149940680048 0.0 0.0
0.018629000714611647 -0.015363890739605646 0.0 -0.0007457281356496315 0.0 0.0
0.025036371019025217 -0.02151206657712912 0.0 -0.0009834912066130214 0.0 0.0
0.03311895318293456 -0.02931610634391424 0.0 -0.0012920215153423426 0.0 0.0
0.04253608891053231 -0.03843095592837198 0.0 -0.0016291524758106496 0.0 0.0
0.05250956046141459 -0.04808827948821204 0.0 -0.0018623554694821298 0.0 0.0
0.06190680395676648 -0.05718327598454498 0.0 -0.0017878880899211136 0.0 0.0
0.06946300118492564 -0.06448269581292498 0.0 -0.0013347826071750668 0.0 0.0
0.07390221176863918 -0.06869674059314446 0.0 -0.0009173629917822168 0.0 0.0
0.0739022117686384 -0.06869674059314224 0.0 0.0009173629917841319 0.0 0.0
0.06946300118492194 -0.06448269581292143 0.0 0.0013347826071826718 0.0 0.0
0.06190680395676022 -0.05718327598453965 0.0 0.0017878880899244165 0.0 0.0
0.052509560461406826 -0.04808827948820804 0.0 0.001862355469484378 0.0 0.0
0.04253608891052521 -0.03843095592836976 0.0 0.0016291524758084153 0.0 0.0
0.03311895318292671 -0.029316106343908688 0.0 0.0012920215153432446 0.0 0.0
0.02503637101901597 -0.02151206657712168 0.0 0.0009834912066126744 0.0 0.0
0.0186290007146014 -0.01536389073959854 0.0 0.0007457281356502143 0.0 0.0
0.013858472035030767 -0.010844288745979647 0.0 0.0005643149940675329 0.0 0.0
0.010465843779997527 -0.007702985019413244 0.0 0.0004407732691565358 0.0 0.0
0.008091159416471608 -0.005581037545931977 0.0 0.00036453702399893984 0.0 0.0
0.006359847082076528 -0.004109957374383022 0.0 0.0003002028351812569 0.0 0.0
0.00501848893454615 -0.0030291000445364924 0.0 0.0002540973626577736 0.0 0.0
0.003932313960093678 -0.0022015095529875905 0.0 0.00021679342439739901 0.0 0.0
0.0030266645317817975 -0.001533968680717146 0.0 0.00017632134112136044 0.0 0.0
0.0022723065084932215 -0.0010386908217029922 0.0 0.00015639613117623963 0.0 0.0
0.0018479232621510244 -0.0007717418406365806 0.0 0.00011357795488073363 0.0 0.0
0.0016227395465946287 -0.0007627373639610135 0.0 0.00014644854920803363 0.0 0.0
0.0016552150422073642 -0.0003802681860355511 0.0 -0.0009900960831930317 0.0 0.0
0.00461155032255757 -0.005733890212152168 0.0 0.002819848449045509 0.0 0.0
0.003047912381867343 -0.0044447143900846475 0.0 -0.0034297640310667343 0.0 0.0
0.0009158037076099496 -0.0001483730662065197 0.0 0.0003366434190399531 0.0 0.0
0.001411385442234363 -0.000572582664928073 0.0 -8.332189004785218e-05 0.0 0.0
0.001651925783850438 -0.0007057895416219817 0.0 -0.0003806392937125147 0.0 0.0
0.002023215389558514 -0.000887476875268467 0.0 -0.00039240574238186277 0.0 0.0
0.0026653024421879872 -0.0012875022736973385 0.0 -0.0004592985267481142 0.0 0.0
0.003492255036358395 -0.0018663326207046804 0.0 -0.0005630872248031105 0.0 0.0
0.004463564935859896 -0.0025877180840024883 0.0 -0.0006482506260220566 0.0 0.0
0.005648952622439595 -0.0035217876001426562 0.0 -0.0007424676434221456 0.0 0.0
0.0071699279012318855 -0.004792260041692864 0.0 -0.0008690343412300072 0.0 0.0
0.009245168330703553 -0.006621905294410979 0.0 -0.0010386436850270964 0.0 0.0
0.012206668417186666 -0.009342697065145678 0.0 -0.0012786502278246542 0.0 0.0
0.01642851653952574 -0.01332755800053309 0.0 -0.00167019002308684 0.0 0.0
0.0221818976867833 -0.01883700407069444 0.0 -0.002241477458645544 0.0 0.0
0.029498810639930782 -0.0258924902462474 0.0 -0.0029582536196381126 0.0 0.0
0.03806237995509509 -0.03417628232634806 0.0 -0.0037304503446750487 0.0 0.0
0.04716444248832416 -0.04298995633641134 0.0 -0.0042605807164905335 0.0 0.0
0.0557970551631141 -0.05134456593821435 0.0 -0.004152713886293069 0.0 0.0
0.06278409975482312 -0.05807594892450507 0.0 -0.003278162844732979 0.0 0.0
0.06686597144171225 -0.06198209698057311 0.0 -0.0017573875423085028 0.0 0.0
0.06686597144171141 -0.061982096980573775 0.0 0.001757387542317107 0.0 0.0
0.06278409975481955 -0.05807594892450263 0.0 0.0032781628447464684 0.0 0.0
0.055797055163108865 -0.05134456593820924 0.0 0.004152713886301895 0.0 0.0
0.04716444248831812 -0.04298995633640468 0.0 0.004260580716494766 0.0 0.0
0.03806237995508917 -0.03417628232634229 0.0 0.003730450344674563 0.0 0.0
0.02949881063992363 -0.02589249024624163 0.0 0.002958253619639195 0.0 0.0
0.022181897686775004 -0.018837004070689667 0.0 0.0022414774586457797 0.0 0.0
0.016428516539516755 -0.013327558000526984 0.0 0.0016701900230873534 0.0 0.0
0.012206668417177644 -0.009342697065138905 0.0 0.0012786502278236411 0.0 0.0
0.00924516833069465 -0.006621905294404207 0.0 0.0010386436850262082 0.0 0.0
0.007169927901224046 -0.004792260041685981 0.0 0.0008690343412280088 0.0 0.0
0.005648952622432896 -0.003521787600137438 0.0 0.0007424676434217292 0.0 0.0
0.0044635649358539115 -0.0025877180839983804 0.0 0.0006482506260211962 0.0 0.0
0.003492255036353323 -0.0018663326207010167 0.0 0.0005630872248022084 0.0 0.0
0.00266530244218445 -0.0012875022736952846 0.0 0.0004592985267471844 0.0 0.0
0.0020232153895567706 -0.0008874768752676898 0.0 0.0003924057423817101 0.0 0.0
0.001651925783849345 -0.0007057895416213988 0.0 0.0003806392937118902 0.0 0.0
0.0014113854422340283 -0.0005725826649278787 0.0 8.332189004803259e-05 0.0 0.0
0.0009158037076103659 -0.0001483730662064503 0.0 -0.00033664341904079964 0.0 0.0
0.0030479123818637627 -0.004444714390078442 0.0 0.0034297640310572836 0.0 0.0
0.002171938940869235 -0.0036116700443901 0.0 -0.003280418845193145 0.0 0.0
0.0005133535062707834 -9.2610060936138e-05 0.0 -0.00036989474392847 0.0 0.0
0.0011116423622544135 -0.0003917191446327073 0.0 -0.0002630683120733446 0.0 0.0
0.0014508873214520764 -0.0006150640988805689 0.0 -0.0005951914216208998 0.0 0.0
0.0017953539622149826 -0.0007669407823460705 0.0 -0.0006528401897965552 0.0 0.0
0.0023033150762927397 -0.001049794108006541 0.0 -0.0007097577291167723 0.0 0.0
0.003045913919940583 -0.0015372004472381517 0.0 -0.0008420561787245984 0.0 0.0
0.003910233630728361 -0.0021663796279476344 0.0 -0.0009806547963461254 0.0 0.0
0.004946739603166113 -0.002956664667707276 0.0 -0.0011130622509997468 0.0 0.0
0.0062657922119127435 -0.0040322821359445316 0.0 -0.001283979137008423 0.0 0.0
0.00805438627920765 -0.005583917321196008 0.0 -0.0015238743851450631 0.0 0.0
0.010604654255055686 -0.007903637477808423 0.0 -0.00186950236312039 0.0 0.0
0.014270791933348698 -0.011343050793614085 0.0 -0.00239643417787265 0.0 0.0
0.019342715828684316 -0.016183393470667884 0.0 -0.003205946673604812 0.0 0.0
0.025860523858451608 -0.022458750027410712 0.0 -0.004267673947622216 0.0 0.0
0.03353584267919305 -0.029878315109888698 0.0 -0.00537481677401859 0.0 0.0
0.0417517771894646 -0.03783510533654488 0.0 -0.0061382664673297616 0.0 0.0
0.04962866475638084 -0.04545380216618056 0.0 -0.006065173409203262 0.0 0.0
0.056077489051644364 -0.05166762671418046 0.0 -0.004849127359898259 0.0 0.0
0.05993065019066127 -0.05536507171877192 0.0 -0.002434156531490733 0.0 0.0
0.05993065019066006 -0.0553650717187717 0.0 0.002434156531504167 0.0 0.0
0.0560774890516409 -0.051667626714175796 0.0 0.004849127359916439 0.0 0.0
0.04962866475637643 -0.04545380216617545 0.0 0.006065173409216529 0.0 0.0
0.04175177718945966 -0.03783510533654022 0.0 0.006138266467336839 0.0 0.0
0.03353584267918777 -0.029878315109885367 0.0 0.005374816774018298 0.0 0.0
0.025860523858445325 -0.022458750027407826 0.0 0.004267673947622452 0.0 0.0
0.019342715828677137 -0.016183393470662777 0.0 0.003205946673605631 0.0 0.0
0.014270791933340826 -0.011343050793607423 0.0 0.0023964341778733023 0.0 0.0
0.010604654255047807 -0.007903637477801317 0.0 0.0018695023631188357 0.0 0.0
0.008054386279199868 -0.005583917321189791 0.0 0.0015238743851445913 0.0 0.0
0.006265792211905805 -0.0040322821359393135 0.0 0.0012839791370055642 0.0 0.0
0.004946739603160152 -0.0029566646677041675 0.0 0.0011130622509987753 0.0 0.0
0.003910233630723167 -0.0021663796279444147 0.0 0.0009806547963445433 0.0 0.0
0.003045913919936097 -0.001537200447234821 0.0 0.0008420561787235159 0.0 0.0
0.0023033150762900023 -0.0010497941080053752 0.0 0.0007097577291160645 0.0 0.0
0.0017953539622136278 -0.0007669407823458485 0.0 0.0006528401897963748 0.0 0.0
0.0014508873214511137 -0.0006150640988805411 0.0 0.0005951914216200671 0.0 0.0
0.0011116423622542226 -0.0003917191446329016 0.0 0.00026306831207273396 0.0 0.0
0.0005133535062711025 -9.261006093586044e-05 0.0 0.00036989474392656874 0.0 0.0
0.0021719389408658696 -0.003611670044384419 0.0 0.003280418845185054 0.0 0.0
0.001617640222765105 -0.0029886561575264287 0.0 -0.0028939324945995437 0.0 0.0
0.0002952745291432378 -0.00010574737650270727 0.0 -0.0009630428113922285 0.0 0.0
0.0008290099495427208 -0.0002535125001074945 0.0 -0.0005642697396209956 0.0 0.0
0.0012277581256472173 -0.0005017270698006726 0.0 -0.0008087978390689948 0.0 0.0
0.001569902834540702 -0.0006677284160064301 0.0 -0.0009278282644322178 0.0 0.0
0.0019761761020804756 -0.0008627015123517379 0.0 -0.0009444598164726481 0.0 0.0
0.0025852346177279925 -0.0012271552133885644 0.0 -0.0010567820529943928 0.0 0.0
0.003358523451817662 -0.0017611604257469216 0.0 -0.0012511524081318809 0.0 0.0
0.004252799375734976 -0.002419634493820877 0.0 -0.0014122961943209 0.0 0.0
0.005378773781302155 -0.0033088521593381826 0.0 -0.0016152530938355752 0.0 0.0
0.006892949323685879 -0.004591894495428406 0.0 -0.0018973208439338196 0.0 0.0
0.009047273239913198 -0.006521154861505618 0.0 -0.0023114902125298403 0.0 0.0
0.012167111285144847 -0.009425282253876177 0.0 -0.002957826417629497 0.0 0.0
0.016539373263050286 -0.01357557456170877 0.0 -0.003913228214935047 0.0 0.0
0.022222272163406713 -0.019032503720843197 0.0 -0.005173535675848967 0.0 0.0
0.02897694014169878 -0.025558751685631487 0.0 -0.006534534726415714 0.0 0.0
0.03628283646569663 -0.03263324206107354 0.0 -0.007497889876580094 0.0 0.0
0.04338865368663632 -0.03950692211474127 0.0 -0.007488929984696191 0.0 0.0
0.04933569096075701 -0.045239464409230434 0.0 -0.006060761324889946 0.0 0.0
0.05303311970766782 -0.04879146492027808 0.0 -0.0030007883720751805 0.0 0.0
0.05303311970766615 -0.04879146492027564 0.0 0.0030007883720920836 0.0 0.0
0.049335690960753596 -0.045239464409229324 0.0 0.006060761324910707 0.0 0.0
0.043388653686632465 -0.03950692211473994 0.0 0.007488929984710901 0.0 0.0
0.036282836465692164 -0.0326332420610711 0.0 0.0074978898765870605 0.0 0.0
0.02897694014169408 -0.025558751685625714 0.0 0.006534534726415575 0.0 0.0
0.022222272163401363 -0.019032503720837646 0.0 0.005173535675849827 0.0 0.0
0.01653937326304422 -0.013575574561703996 0.0 0.003913228214935338 0.0 0.0
0.01216711128513795 -0.009425282253871514 0.0 0.0029578264176297053 0.0 0.0
0.009047273239906437 -0.006521154861501399 0.0 0.0023114902125286885 0.0 0.0
0.006892949323679148 -0.004591894495423521 0.0 0.001897320843932182 0.0 0.0
0.005378773781296087 -0.003308852159334519 0.0 0.0016152530938315923 0.0 0.0
0.0042527993757298516 -0.002419634493815881 0.0 0.0014122961943198176 0.0 0.0
0.003358523451813117 -0.0017611604257431468 0.0 0.0012511524081304792 0.0 0.0
0.0025852346177244467 -0.001227155213387232 0.0 0.0010567820529930605 0.0 0.0
0.0019761761020783836 -0.0008627015123513493 0.0 0.0009444598164713158 0.0 0.0
0.0015699028345395744 -0.0006677284160057639 0.0 0.0009278282644310659 0.0 0.0
0.0012277581256463915 -0.000501727069799951 0.0 0.0008087978390676903 0.0 0.0
0.0008290099495425612 -0.0002535125001072447 0.0 0.0005642697396197327 0.0 0.0
0.00029527452914343555 -0.00010574737650234645 0.0 0.000963042811390008 0.0 0.0
0.0016176402227622427 -0.0029886561575217354 0.0 0.002893932494593257 0.0 0.0
0.0012375821955945693 -0.0024889803605792626 0.0 -0.0024898988048448895 0.0 0.0
0.0001722063434028663 -0.0001432423941602201 0.0 -0.0014105346671494379 0.0 0.0
0.0005893641874050275 -0.00015390548450666675 0.0 -0.0009025320578908008 0.0 0.0
0.0009955968632115002 -0.00038409458778054795 0.0 -0.001034188435138375 0.0 0.0
0.0013297674271875205 -0.0005627296473582066 0.0 -0.0011794887947172011 0.0 0.0
0.0016828847527046303 -0.0007218829219208245 0.0 -0.0012093263366077384 0.0 0.0
0.0021427731523080834 -0.0009522146510051455 0.0 -0.0012374627258673887 0.0 0.0
0.0027944729949350468 -0.001360684718907712 0.0 -0.0014132048727728969 0.0 0.0
0.0035669179211787125 -0.0019142627539735502 0.0 -0.0016408724676588854 0.0 0.0
0.0045082299931698995 -0.0026240745217646078 0.0 -0.0018612849114325591 0.0 0.0
0.0057606518526976645 -0.003650243758640759 0.0 -0.0021661005641552405 0.0 0.0
0.007535003539104707 -0.005205538701272383 0.0 -0.0026147601183003216 0.0 0.0
0.010119844301348511 -0.007577475813452583 0.0 -0.0033070745917780503 0.0 0.0
0.013785974156204871 -0.01103362166879407 0.0 -0.0043640430048677015 0.0 0.0
0.018611929984049265 -0.015650460528914056 0.0 -0.0057437191176072655 0.0 0.0
0.02441222862478562 -0.021242077718663266 0.0 -0.007197505178969665 0.0 0.0
0.030765322873123425 -0.02739492132078114 0.0 -0.00829217097960172 0.0 0.0
0.03707201183898502 -0.03350049725068027 0.0 -0.0084094583657017 0.0 0.0
0.04253079238739727 -0.03876566585674768 0.0 -0.0069308827195797285 0.0 0.0
0.04612019858603153 -0.04221484143717391 0.0 -0.0034779669799834267 0.0 0.0
0.0461201985860297 -0.0422148414371708 0.0 0.0034779669800001356 0.0 0.0
0.04253079238739384 -0.03876566585674546 0.0 0.006930882719598824 0.0 0.0
0.03707201183898163 -0.03350049725067894 0.0 0.008409458365717742 0.0 0.0
0.030765322873119415 -0.02739492132077781 0.0 0.00829217097960916 0.0 0.0
0.02441222862478143 -0.0212420777186626 0.0 0.007197505178970498 0.0 0.0
0.018611929984044637 -0.015650460528911836 0.0 0.005743719117607182 0.0 0.0
0.013785974156199865 -0.011033621668790183 0.0 0.004364043004867646 0.0 0.0
0.01011984430134276 -0.007577475813449697 0.0 0.0033070745917778144 0.0 0.0
0.007535003539098861 -0.005205538701268275 0.0 0.0026147601182985036 0.0 0.0
0.005760651852691978 -0.003650243758636318 0.0 0.002166100564152784 0.0 0.0
0.0045082299931647335 -0.0026240745217623873 0.0 0.0018612849114285623 0.0 0.0
0.003566917921174473 -0.0019142627539719959 0.0 0.0016408724676568454 0.0 0.0
0.0027944729949311714 -0.0013606847189063798 0.0 0.0014132048727715785 0.0 0.0
0.002142773152305419 -0.000952214651002814 0.0 0.0012374627258670834 0.0 0.0
0.001682884752703076 -0.0007218829219194922 0.0 0.0012093263366066975 0.0 0.0
0.00132976742718649 -0.000562729647357818 0.0 0.001179488794716202 0.0 0.0
0.0009955968632109624 -0.00038409458778015937 0.0 0.001034188435137473 0.0 0.0
0.0005893641874048644 -0.00015390548450641695 0.0 0.0009025320578890939 0.0 0.0
0.00017220634340296692 -0.00014324239415983153 0.0 0.0014105346671465374 0.0 0.0
0.00123758219559221 -0.002488980360575325 0.0 0.0024898988048400045 0.0 0.0
0.0009650939733532038 -0.0020820779008089846 0.0 -0.0021572792394709828 0.0 0.0
9.798700674307215e-05 -0.00018510183765832466 0.0 -0.0017429552059599063 0.0 0.0
0.0003910892701993046 -8.179455818621562e-05 0.0 -0.0012253492928626653 0.0 0.0
0.0007657889678653156 -0.00027289323192580817 0.0 -0.001261411465789175 0.0 0.0
0.0010785687621500603 -0.0004472442342835503 0.0 -0.0013983332864016262 0.0 0.0
0.0013885312959408015 -0.0005981206207980594 0.0 -0.0014720478569274498 0.0 0.0
0.0017472014772678436 -0.0007557979170268458 0.0 -0.0014721374091481443 0.0 0.0
0.0022355512657866693 -0.0010116314896292389 0.0 -0.0015433517604977048 0.0 0.0
0.0028768703233804094 -0.0014271952068840577 0.0 -0.0017593308737239716 0.0 0.0
0.003654953362478463 -0.0019861300949181038 0.0 -0.002022843609855371 0.0 0.0
0.004655810284510807 -0.002768239048228205 0.0 -0.002325487644077348 0.0 0.0
0.006068776175729651 -0.003963234330022547 0.0 -0.002775534469138502 0.0 0.0
0.008134227169046708 -0.005817557031080223 0.0 -0.003478101197284811 0.0 0.0
0.011094262808040697 -0.008571763774602559 0.0 -0.004531769886191056 0.0 0.0
0.015047817760789492 -0.012330114061188668 0.0 -0.005926830756667112 0.0 0.0
0.019868304910213803 -0.016965531919993726 0.0 -0.00742732026408241 0.0 0.0
0.02522349377680959 -0.022146992745767813 0.0 -0.008551409279828337 0.0 0.0
0.030675241924480907 -0.027432126271988988 0.0 -0.008765682368893662 0.0 0.0
0.035626078132640404 -0.032214747713546155 0.0 -0.0074207138806357265 0.0 0.0
0.03913812934858711 -0.035588709081477043 0.0 -0.0038678739610060464 0.0 0.0
0.03913812934858532 -0.035588709081475045 0.0 0.0038678739610217006 0.0 0.0
0.035626078132637365 -0.032214747713541936 0.0 0.007420713880654656 0.0 0.0
0.030675241924477653 -0.027432126271985435 0.0 0.008765682368909927 0.0 0.0
0.025223493776806216 -0.02214699274576537 0.0 0.008551409279834471 0.0 0.0
0.019868304910209904 -0.016965531919991728 0.0 0.007427320264082604 0.0 0.0
0.015047817760785662 -0.012330114061185116 0.0 0.005926830756666668 0.0 0.0
0.011094262808036728 -0.008571763774600338 0.0 0.004531769886191084 0.0 0.0
0.008134227169042108 -0.005817557031075671 0.0 0.0034781011972841724 0.0 0.0
0.006068776175724877 -0.003963234330018661 0.0 0.002775534469136365 0.0 0.0
0.0046558102845062205 -0.002768239048224763 0.0 0.002325487644075225 0.0 0.0
0.0036549533624743863 -0.001986130094914773 0.0 0.0020228436098520264 0.0 0.0
0.0028768703233768844 -0.0014271952068815041 0.0 0.0017593308737228197 0.0 0.0
0.0022355512657838694 -0.0010116314896269074 0.0 0.001543351760496886 0.0 0.0
0.001747201477265925 -0.0007557979170265683 0.0 0.0014721374091481998 0.0 0.0
0.0013885312959396323 -0.0005981206207980594 0.0 0.0014720478569263118 0.0 0.0
0.001078568762149193 -0.0004472442342828842 0.0 0.0013983332863997805 0.0 0.0
0.0007657889678648749 -0.0002728932319253363 0.0 0.0012614114657870656 0.0 0.0
0.00039108927019920747 -8.179455818588255e-05 0.0 0.0012253492928603338 0.0 0.0
9.798700674303051e-05 -0.00018510183765800547 0.0 0.0017429552059573389 0.0 0.0
0.0009650939733514136 -0.00208207790080579 0.0 0.002157279239467791 0.0 0.0
0.0007530282718463815 -0.001728265950013741 0.0 -0.0018805177405767787 0.0 0.0
5.2187105905578124e-05 -0.00022225818713697554 0.0 -0.001974064887515281 0.0 0.0
0.0002253314230266576 -2.8329537479332423e-05 0.0 -0.0015079915783092201 0.0 0.0
0.0005446870819347527 -0.0001703203797868147 0.0 -0.001475144667116901 0.0 0.0
0.000822338869218682 -0.0003287433649671323 0.0 -0.0015882025603571326 0.0 0.0
0.0010823483726793356 -0.00046194685982459127 0.0 -0.001680113593309801 0.0 0.0
0.0013683900608586 -0.0005922962654495434 0.0 -0.0017143776467190286 0.0 0.0
0.0017203246563384997 -0.0007484740931010814 0.0 -0.0017225172760147178 0.0 0.0
0.002192576789715593 -0.0009974408304501692 0.0 -0.0018175084313926393 0.0 0.0
0.0028090305795514733 -0.0013930608470523742 0.0 -0.0020677762701316327 0.0 0.0
0.0035779968232247453 -0.0019571373468377784 0.0 -0.002385567582341125 0.0 0.0
0.00464789592573539 -0.002809528043434817 0.0 -0.0028050259170961656 0.0 0.0
0.00621241460487499 -0.0041609365420400835 0.0 -0.0034590127053139297 0.0 0.0
0.008480207247867966 -0.00622256740586602 0.0 -0.004450410451461467 0.0 0.0
0.011549541177003138 -0.009107378863160154 0.0 -0.005753890267891193 0.0 0.0
0.015362509554670528 -0.012749483899237024 0.0 -0.007165602684909594 0.0 0.0
0.01968008080487263 -0.01692026835118776 0.0 -0.00828580614279903 0.0 0.0
0.02421100296841553 -0.021321235691530438 0.0 -0.00860515476102508 0.0 0.0
0.02858542552333003 -0.025559017058613742 0.0 -0.007512204769367953 0.0 0.0
0.03202550427688818 -0.028860211623890297 0.0 -0.004160794721324579 0.0 0.0
0.03202550427688689 -0.02886021162389185 0.0 0.004160794721338151 0.0 0.0
0.028585425523327386 -0.0255590170586113 0.0 0.007512204769385966 0.0 0.0
0.024211002968412415 -0.02132123569152755 0.0 0.008605154761039902 0.0 0.0
0.019680080804869764 -0.016920268351183543 0.0 0.008285806142804025 0.0 0.0
0.015362509554667399 -0.01274948389923436 0.0 0.007165602684909844 0.0 0.0
0.011549541177000064 -0.009107378863157711 0.0 0.005753890267890915 0.0 0.0
0.008480207247864982 -0.006222567405863688 0.0 0.0044504104514615506 0.0 0.0
0.006212414604871541 -0.004160936542038418 0.0 0.0034590127053139574 0.0 0.0
0.00464789592573181 -0.0028095280434323744 0.0 0.002805025917093973 0.0 0.0
0.0035779968232212828 -0.001957137346835669 0.0 0.002385567582338377 0.0 0.0
0.0028090305795484827 -0.0013930608470498207 0.0 0.0020677762701279967 0.0 0.0
0.0021925767897129633 -0.000997440830448948 0.0 0.001817508431392001 0.0 0.0
0.0017203246563366192 -0.0007484740931009704 0.0 0.0017225172760147178 0.0 0.0
0.0013683900608572053 -0.0005922962654492658 0.0 0.0017143776467187094 0.0 0.0
0.0010823483726784405 -0.00046194685982442474 0.0 0.0016801135933075112 0.0 0.0
0.0008223388692181061 -0.0003287433649671323 0.0 0.0015882025603546762 0.0 0.0
0.000544687081934489 -0.00017032037978625958 0.0 0.0014751446671150692 0.0 0.0
0.00022533142302665066 -2.8329537479193645e-05 0.0 0.0015079915783069164 0.0 0.0
5.218710590548792e-05 -0.0002222581871368784 0.0 0.001974064887512769 0.0 0.0
0.000753028271845077 -0.0017282659500114077 0.0 0.001880517740574475 0.0 0.0
0.0005833740066429755 -0.0014418181957380621 0.0 -0.0016803018341661063 0.0 0.0
1.6004008538017533e-05 -0.00024184129724616477 0.0 -0.0021006426608017187 0.0 0.0
8.482261026087484e-05 1.2746002468561057e-05 0.0 -0.0017415997291803792 0.0 0.0
0.000334673646771845 -7.665791970085101e-05 0.0 -0.0016618446681822274 0.0 0.0
0.0005646506308213117 -0.00020968266189164142 0.0 -0.0017456477194110198 0.0 0.0
0.0007692498182026719 -0.00032239074548473523 0.0 -0.001843898981067238 0.0 0.0
0.0009823093209236633 -0.0004246756867989365 0.0 -0.0019073549650886062 0.0 0.0
0.0012324457830128546 -0.000533646667124188 0.0 -0.0019307538430730908 0.0 0.0
0.0015452485495561288 -0.000674491929359311 0.0 -0.0019512782222550484 0.0 0.0
0.0019756567292371074 -0.0008905548309916522 0.0 -0.002082910511617353 0.0 0.0
0.0025261974151544117 -0.0012343945895264552 0.0 -0.002337092116960232 0.0 0.0
0.0032697479249065436 -0.0017728029301373738 0.0 -0.0027023850441091346 0.0 0.0
0.0043578168404995316 -0.0026424616868380157 0.0 -0.003272085624639709 0.0 0.0
0.005949804334065396 -0.004022670258814198 0.0 -0.0041230821276943275 0.0 0.0
0.00814198605234575 -0.00602576301761637 0.0 -0.005238196206566903 0.0 0.0
0.010917694462124802 -0.0086440426933716 0.0 -0.006466039606768892 0.0 0.0
0.014154670281478737 -0.011750759843217384 0.0 -0.007462996813259043 0.0 0.0
0.017695776052897266 -0.015189398820965927 0.0 -0.007844402985342475 0.0 0.0
0.02138068532809744 -0.018787967886282564 0.0 -0.00715730715330154 0.0 0.0
0.024711262233172347 -0.021986471480649028 0.0 -0.004349240203666088 0.0 0.0
0.024711262233171494 -0.02198647148064703 0.0 0.004349240203676774 0.0 0.0
0.02138068532809525 -0.018787967886279677 0.0 0.007157307153316472 0.0 0.0
0.017695776052894567 -0.015189398820964595 0.0 0.00784440298535452 0.0 0.0
0.014154670281476392 -0.011750759843216052 0.0 0.007462996813263095 0.0 0.0
0.01091769446212279 -0.008644042693371157 0.0 0.0064660396067684756 0.0 0.0
0.008141986052343349 -0.0060257630176130395 0.0 0.00523819620656607 0.0 0.0
0.005949804334063329 -0.004022670258812533 0.0 0.004123082127694633 0.0 0.0
0.004357816840497346 -0.00264246168683846 0.0 0.0032720856246401253 0.0 0.0
0.0032697479249040734 -0.0017728029301357084 0.0 0.0027023850441083297 0.0 0.0
0.0025261974151520317 -0.001234394589525456 0.0 0.0023370921169584002 0.0 0.0
0.0019756567292351854 -0.0008905548309922073 0.0 0.00208291051161566 0.0 0.0
0.0015452485495545051 -0.000674491929358978 0.0 0.0019512782222548264 0.0 0.0
0.0012324457830116126 -0.0005336466671230777 0.0 0.0019307538430720361 0.0 0.0
0.0009823093209226988 -0.0004246756867977153 0.0 0.0019073549650875654 0.0 0.0
0.0007692498182021515 -0.00032239074548390256 0.0 0.001843898981065295 0.0 0.0
0.0005646506308208815 -0.00020968266189136386 0.0 0.001745647719409174 0.0 0.0
0.0003346736467717895 -7.665791970032365e-05 0.0 0.001661844668180007 0.0 0.0
8.482261026088178e-05 1.274600246917168e-05 0.0 0.0017415997291778673 0.0 0.0
1.6004008537996717e-05 -0.0002418412972455125 0.0 0.002100642660799526 0.0 0.0
0.0005833740066420665 -0.0014418181957364844 0.0 0.0016803018341644549 0.0 0.0
0.00046186702036538074 -0.0012329516454661071 0.0 -0.0015633527317868157 0.0 0.0
-2.2212247543777763e-05 -0.00024052138148969449 0.0 -0.002162984763144596 0.0 0.0
-3.6770414971513954e-05 4.711525795292326e-05 0.0 -0.001915752557222844 0.0 0.0
0.00013603534443035886 8.773962449915018e-06 0.0 -0.0018128403137198656 0.0 0.0
0.00030823165677825587 -9.246314505217956e-05 0.0 -0.001865864667877512 0.0 0.0
0.0004520456689382432 -0.0001794444826772601 0.0 -0.0019585498285947106 0.0 0.0
0.0005896298808336434 -0.0002519646147112198 0.0 -0.0020366618608989723 0.0 0.0
0.0007422173079748989 -0.00032168172741076084 0.0 -0.00208866326871876 0.0 0.0
0.0009267676242861872 -0.0004038338062193336 0.0 -0.0021118381102401274 0.0 0.0
0.001169561164524012 -0.0005126075138551789 0.0 -0.0021843565548821386 0.0 0.0
0.0015063944397402593 -0.0006753833205369597 0.0 -0.0023377990602037324 0.0 0.0
0.0019378298649550471 -0.0009181782408629324 0.0 -0.0025609694533339222 0.0 0.0
0.002570252752731407 -0.0013293330976000828 0.0 -0.0029777538617541677 0.0 0.0
0.0035127860536214098 -0.0020507975009822488 0.0 -0.0036220341634993214 0.0 0.0
0.004833603125862292 -0.003175887244252218 0.0 -0.004478874435090513 0.0 0.0
0.006557092070303 -0.00473664623182235 0.0 -0.005439293639473958 0.0 0.0
0.008664517824859094 -0.006726356264244782 0.0 -0.00628299399663948 0.0 0.0
0.011166024226180182 -0.009120657773085794 0.0 -0.006642684528449988 0.0 0.0
0.014014646594129043 -0.011921773727259222 0.0 -0.006270625962446125 0.0 0.0
0.017098934202403375 -0.014913919564596867 0.0 -0.004352734426508104 0.0 0.0
0.017098934202402674 -0.014913919564596423 0.0 0.004352734426515875 0.0 0.0
0.014014646594127766 -0.011921773727254337 0.0 0.006270625962458559 0.0 0.0
0.011166024226178246 -0.009120657773080687 0.0 0.006642684528460063 0.0 0.0
0.008664517824857478 -0.006726356264243671 0.0 0.006282993996642894 0.0 0.0
0.006557092070301959 -0.004736646231821684 0.0 0.005439293639473347 0.0 0.0
0.004833603125860904 -0.0031758872442511077 0.0 0.004478874435089597 0.0 0.0
0.0035127860536202926 -0.0020507975009801394 0.0 0.003622034163499599 0.0 0.0
0.002570252752730519 -0.0013293330975989726 0.0 0.0029777538617550003 0.0 0.0
0.0019378298649537495 -0.0009181782408613781 0.0 0.002560969453333367 0.0 0.0
0.0015063944397390241 -0.0006753833205360715 0.0 0.0023377990602022614 0.0 0.0
0.0011695611645231307 -0.0005126075138541797 0.0 0.0021843565548801402 0.0 0.0
0.0009267676242854239 -0.00040383380621888953 0.0 0.0021118381102399053 0.0 0.0
0.000742217307974323 -0.00032168172740987266 0.0 0.0020886632687183437 0.0 0.0
0.0005896298808331715 -0.0002519646147112198 0.0 0.0020366618608982784 0.0 0.0
0.0004520456689381322 -0.0001794444826787034 0.0 0.001958549828591921 0.0 0.0
0.0003082316567780685 -9.246314505267916e-05 0.0 0.0018658646678750557 0.0 0.0
0.0001360353444304907 8.773962450303596e-06 0.0 0.001812840313717784 0.0 0.0
-3.677041497141681e-05 4.711525795311755e-05 0.0 0.0019157525572205958 0.0 0.0
-2.221224754373613e-05 -0.0002405213814898055 0.0 0.0021629847631419036 0.0 0.0
0.0004618670203648742 -0.001232951645465029 0.0 0.0015633527317855112 0.0 0.0
0.0003734525107963599 -0.0010409677452440924 0.0 -0.0014334299240989085 0.0 0.0
-6.060315115821724e-05 -0.00022692896846590593 0.0 -0.0021783984902715853 0.0 0.0
-0.00014585942192939239 7.933326235787241e-05 0.0 -0.0020294273678920227 0.0 0.0
-5.1833062869467705e-05 8.71482298895887e-05 0.0 -0.0019207859501867847 0.0 0.0
5.5160600000499216e-05 2.1656075505249728e-05 0.0 -0.0019445883471140846 0.0 0.0
0.00013343654706498426 -3.609011638083803e-05 0.0 -0.0020244536950057707 0.0 0.0
0.0001930365119989369 -7.662321788759474e-05 0.0 -0.002105659758619677 0.0 0.0
0.00024786501244716125 -0.00010634855848046243 0.0 -0.0021623032192205904 0.0 0.0
0.0003108801892235877 -0.0001352559599382408 0.0 -0.002201836902602311 0.0 0.0
0.00038702516538585 -0.00016869883968806398 0.0 -0.0022492180796019334 0.0 0.0
0.000503527000295198 -0.00022083176754339462 0.0 -0.0023846759437772813 0.0 0.0
0.0006428836600264401 -0.00029396545104720673 0.0 -0.002584984533202106 0.0 0.0
0.0008457258550621516 -0.00039604077644583846 0.0 -0.0028782316897038585 0.0 0.0
0.0011561763906144593 -0.0005635981651372912 0.0 -0.003331024949120298 0.0 0.0
0.00160877668941789 -0.0008548574126745478 0.0 -0.00400315779294555 0.0 0.0
0.002261410132071602 -0.0013241241724222252 0.0 -0.0048403474532139334 0.0 0.0
0.0032064592926878757 -0.0021130129881903326 0.0 -0.00566248351791851 0.0 0.0
0.00465122052514827 -0.003405825639872573 0.0 -0.006053742273260526 0.0 0.0
0.006623129915857638 -0.0052218862996378235 0.0 -0.005584946678476588 0.0 0.0
0.009119650311235981 -0.007750202786190208 0.0 -0.004343996515402904 0.0 0.0
0.009119650311235537 -0.00775020278619265 0.0 0.004343996515408927 0.0 0.0
0.006623129915857243 -0.005221886299637379 0.0 0.005584946678487329 0.0 0.0
0.004651220525147236 -0.003405825639873461 0.0 0.006053742273266771 0.0 0.0
0.0032064592926873345 -0.0021130129881907767 0.0 0.005662483517920314 0.0 0.0
0.0022614101320715466 -0.001324124172421337 0.0 0.004840347453212573 0.0 0.0
0.0016087766894176403 -0.000854857412675214 0.0 0.004003157792945106 0.0 0.0
0.0011561763906143968 -0.0005635981651376243 0.0 0.003331024949120548 0.0 0.0
0.0008457258550624291 -0.00039604077644539437 0.0 0.0028782316897049964 0.0 0.0
0.0006428836600264054 -0.00029396545104687366 0.0 0.0025849845332013843 0.0 0.0
0.0005035270002951425 -0.00022083176754295053 0.0 0.0023846759437764764 0.0 0.0
0.00038702516538590553 -0.00016869883968684274 0.0 0.0022492180796002126 0.0 0.0
0.0003108801892236432 -0.00013525595993790773 0.0 0.0022018369026023665 0.0 0.0
0.00024786501244723064 -0.00010634855848012936 0.0 0.0021623032192200353 0.0 0.0
0.0001930365119989022 -7.662321788715065e-05 0.0 0.0021056597586182474 0.0 0.0
0.00013343654706508834 -3.609011638072701e-05 0.0 0.002024453695002995 0.0 0.0
5.516060000066575e-05 2.1656075505471772e-05 0.0 0.0019445883471116698 0.0 0.0
-5.183306286912076e-05 8.714822988950544e-05 0.0 0.0019207859501842867 0.0 0.0
-0.00014585942192917728 7.933326235801119e-05 0.0 0.002029427367888914 0.0 0.0
-6.0603151158120094e-05 -0.0002269289684656145 0.0 0.0021783984902690456 0.0 0.0
0.0003734525107960823 -0.0010409677452430446 0.0 0.0014334299240971876 0.0 0.0
0.0002961238129747454 -0.0008603785084929927 0.0 -0.0013012748156794457 0.0 0.0
-9.824470547304537e-05 -0.00020188508266391625 0.0 -0.002143333645048623 0.0 0.0
-0.000246478934961436 0.00011074152139270432 0.0 -0.0020860120085799405 0.0 0.0
-0.00023015229028854056 0.00015996920051519758 0.0 -0.0019808069741125978 0.0 0.0
-0.00019309060173156034 0.00013183788529569362 0.0 -0.001978290546846076 0.0 0.0
-0.00018413989484931947 0.00010608835946446238 0.0 -0.002037597838197819 0.0 0.0
-0.00020465761645719477 9.932798906797657e-05 0.0 -0.0021089807830524526 0.0 0.0
-0.0002465985206462698 0.00010936395391636378 0.0 -0.0021625278666186354 0.0 0.0
-0.00030814129718132605 0.00013335503329459097 0.0 -0.002201197170101088 0.0 0.0
-0.00038517382712278253 0.00016665604379650922 0.0 -0.002248986150837129 0.0 0.0
-0.0005016617707547105 0.0002190221900857381 0.0 -0.0023843628636852077 0.0 0.0
-0.0006412034975023656 0.0002934825822239473 0.0 -0.0025843670807833286 0.0 0.0
-0.0008488349282513366 0.0004005487495485349 0.0 -0.0028752755162875787 0.0 0.0
-0.0011680881821092143 0.0005716349161288825 0.0 -0.003327199743863085 0.0 0.0
-0.0015880400956110666 0.0008251200370408274 0.0 -0.004027889830085729 0.0 0.0
-0.0020265647018711253 0.001110588629083864 0.0 -0.004950098429623351 0.0 0.0
-0.0022712029780658782 0.0012744055523377096 0.0 -0.006034190612415086 0.0 0.0
-0.0019843233053592133 0.0010336148766376674 0.0 -0.007216713014806975 0.0 0.0
-0.0009007409104695788 0.0003434924059706468 0.0 -0.008071235724695619 0.0 0.0
0.0013069294580114882 -0.001579828289609786 0.0 -0.0065144894038564605 0.0 0.0
0.001306929458011273 -0.001579828289610008 0.0 0.00651448940386376 0.0 0.0
-0.0009007409104696065 0.00034349240596998065 0.0 0.008071235724706693 0.0 0.0
-0.0019843233053591022 0.0010336148766370012 0.0 0.0072167130148122205 0.0 0.0
-0.0022712029780650803 0.0012744055523359332 0.0 0.006034190612417278 0.0 0.0
-0.0020265647018699595 0.0011105886290827538 0.0 0.004950098429622379 0.0 0.0
-0.0015880400956102617 0.0008251200370406053 0.0 0.004027889830085618 0.0 0.0
-0.0011680881821081943 0.0005716349161291046 0.0 0.003327199743863446 0.0 0.0
-0.000848834928249928 0.00040054874954720265 0.0 0.002875275516289133 0.0 0.0
-0.0006412034975010888 0.0002934825822248355 0.0 0.002584367080782718 0.0 0.0
-0.0005016617707535379 0.00021902219008618218 0.0 0.0023843628636843472 0.0 0.0
-0.0003851738271217972 0.00016665604379562104 0.0 0.0022489861508353526 0.0 0.0
-0.0003081412971804448 0.00013335503329336973 0.0 0.002201197170101199 0.0 0.0
-0.00024659852064567306 0.00010936395391603071 0.0 0.002162527866618552 0.0 0.0
-0.0002046576164568062 9.932798906775453e-05 0.0 0.0021089807830506346 0.0 0.0
-0.0001841398948488962 0.00010608835946418482 0.0 0.0020375978381950988 0.0 0.0
-0.00019309060173110237 0.00013183788529541607 0.0 0.0019782905468439804 0.0 0.0
-0.00023015229028806178 0.00015996920051508656 0.0 0.0019808069741103773 0.0 0.0
-0.00024647893496115153 0.0001107415213928431 0.0 0.002086012008577165 0.0 0.0
-9.824470547294822e-05 -0.0002018850826636942 0.0 0.0021433336450466245 0.0 0.0
0.0002961238129745025 -0.0008603785084922442 0.0 0.0013012748156782245 0.0 0.0
0.00022414998481355697 -0.0006917413002203443 0.0 -0.001170797343846161 0.0 0.0
-0.00013741041866616177 -0.0001668573955097008 0.0 -0.0020618666022909626 0.0 0.0
-0.0003409957929553925 0.00014277276704410813 0.0 -0.0020868489427851578 0.0 0.0
-0.00040017480347498413 0.0002281295030326369 0.0 -0.001990722235414799 0.0 0.0
-0.0004353907274318933 0.00023754891712735038 0.0 -0.001963411891990327 0.0 0.0
-0.0004985846800431709 0.00024553350434425303 0.0 -0.0019982992095685104 0.0 0.0
-0.0006001317810132439 0.0002732291172496959 0.0 -0.002048020283270127 0.0 0.0
-0.0007410235064295723 0.0003243670732697712 0.0 -0.0020887475128306965 0.0 0.0
-0.0009243194310520828 0.0004020095007309932 0.0 -0.002109827623125865 0.0 0.0
-0.0011678545300343457 0.0005107797582949436 0.0 -0.0021833851517961134 0.0 0.0
-0.0015046968579415301 0.0006737221828487794 0.0 -0.0023381291043205743 0.0 0.0
-0.0019359936865029556 0.0009170424611126826 0.0 -0.002560769704551047 0.0 0.0
-0.0025716323275109462 0.0013335944929575572 0.0 -0.002969265414839689 0.0 0.0
-0.0035241207394837645 0.0020627959245080874 0.0 -0.0036087852787969887 0.0 0.0
-0.0048252785229022654 0.003150397238325997 0.0 -0.00452309444510085 0.0 0.0
-0.00635524025522443 0.0044838316572459735 0.0 -0.00569840760344581 0.0 0.0
-0.0078107456147566146 0.005764327668200675 0.0 -0.007071199908547626 0.0 0.0
-0.00875244952279089 0.006559034289494781 0.0 -0.00854970988219858 0.0 0.0
-0.008519040006977403 0.006118305628927345 0.0 -0.009343893428939293 0.0 0.0
-0.0060677211087222654 0.0036813286702508385 0.0 -0.007667163831201279 0.0 0.0
-0.0060677211087226054 0.003681328670252615 0.0 0.007667163831208773 0.0 0.0
-0.008519040006977022 0.006118305628927123 0.0 0.009343893428949895 0.0 0.0
-0.008752449522789835 0.0065590342894943365 0.0 0.008549709882203826 0.0 0.0
-0.0078107456147543455 0.005764327668200009 0.0 0.007071199908549403 0.0 0.0
-0.006355240255222057 0.0044838316572457515 0.0 0.005698407603445255 0.0 0.0
-0.004825278522900531 0.0031503972383271073 0.0 0.004523094445100767 0.0 0.0
-0.0035241207394817245 0.002062795924506533 0.0 0.0036087852787963504 0.0 0.0
-0.0025716323275083997 0.0013335944929555588 0.0 0.002969265414840161 0.0 0.0
-0.0019359936865004854 0.0009170424611109063 0.0 0.002560769704549465 0.0 0.0
-0.0015046968579391015 0.0006737221828465589 0.0 0.0023381291043191588 0.0 0.0
-0.0011678545300323265 0.0005107797582925011 0.0 0.0021833851517944203 0.0 0.0
-0.0009243194310504521 0.0004020095007306601 0.0 0.0021098276231261426 0.0 0.0
-0.0007410235064283857 0.0003243670732701043 0.0 0.002088747512830502 0.0 0.0
-0.0006001317810123696 0.00027322911724941834 0.0 0.002048020283268795 0.0 0.0
-0.0004985846800423799 0.00024553350434441956 0.0 0.001998299209566845 0.0 0.0
-0.00043539072743113694 0.00023754891712768345 0.0 0.0019634118919883564 0.0 0.0
-0.00040017480347448453 0.00022812950303294222 0.0 0.0019907222354123982 0.0 0.0
-0.0003409957929549068 0.00014277276704438568 0.0 0.0020868489427822295 0.0 0.0
-0.0001374104186660438 -0.0001668573955093955 0.0 0.002061866602288895 0.0 0.0
0.0002241499848133835 -0.0006917413002197493 0.0 0.0011707973438449537 0.0 0.0
0.0001566686344909654 -0.0005359842385998514 0.0 -0.001039988398823119 0.0 0.0
-0.00017931839501897362 -0.00012395856587785192 0.0 -0.00193969229596469 0.0 0.0
-0.0004313239505480057 0.00017632152264213108 0.0 -0.0020339689566131886 0.0 0.0
-0.000562793447872377 0.00029237793748793095 0.0 -0.001949051962234799 0.0 0.0
-0.0006712181314225685 0.00033834310766800435 0.0 -0.0018992020768217738 0.0 0.0
-0.0008079626488165653 0.00038084968166701705 0.0 -0.001905164926941899 0.0 0.0
-0.0009906693674359285 0.0004433076877535802 0.0 -0.0019241299225684488 0.0 0.0
-0.0012314495539852768 0.0005357598047666112 0.0 -0.0019309205286039688 0.0 0.0
-0.0015433148380785133 0.0006728612815156687 0.0 -0.0019479742295979985 0.0 0.0
-0.001974251282961567 0.0008888335713961304 0.0 -0.002081176344104846 0.0 0.0
-0.0025250171652037023 0.0012327474768353275 0.0 -0.0023374405248997032 0.0 0.0
-0.0032676463524781013 0.00177098520603014 0.0 -0.002702859698358373 0.0 0.0
-0.0043555246242033135 0.002643822082079361 0.0 -0.0032583563560292794 0.0 0.0
-0.005955620903018537 0.004032786574414082 0.0 -0.004082410269700354 0.0 0.0
-0.008144975114751186 0.006015328070250181 0.0 -0.00524072983647883 0.0 0.0
-0.01077656154312253 0.008447712155968734 0.0 -0.006794054566938407 0.0 0.0
-0.013460158387169067 0.010943451254899372 0.0 -0.008798553064160525 0.0 0.0
-0.015573505367277626 0.012832810860169852 0.0 -0.011017573152278942 0.0 0.0
-0.016000685391315994 0.01298103899735259 0.0 -0.0123172343437854 0.0 0.0
-0.013050940750137498 0.009679038588471744 0.0 -0.01003709549271986 0.0 0.0
-0.013050940750137754 0.009679038588470634 0.0 0.010037095492728798 0.0 0.0
-0.01600068539131503 0.012981038997352146 0.0 0.012317234343798417 0.0 0.0
-0.015573505367275767 0.01283281086016852 0.0 0.01101757315228763 0.0 0.0
-0.013460158387165577 0.01094345125489915 0.0 0.008798553064163467 0.0 0.0
-0.01077656154311906 0.008447712155964515 0.0 0.006794054566937907 0.0 0.0
-0.008144975114748557 0.00601532807024685 0.0 0.005240729836478525 0.0 0.0
-0.005955620903015539 0.004032786574412084 0.0 0.0040824102696993825 0.0 0.0
-0.0043555246241996776 0.0026438220820765856 0.0 0.0032583563560288353 0.0 0.0
-0.0032676463524743057 0.0017709852060269204 0.0 0.002702859698356319 0.0 0.0
-0.0025250171652000594 0.0012327474768337732 0.0 0.0023374405248966224 0.0 0.0
-0.0019742512829583614 0.0008888335713949091 0.0 0.0020811763441019593 0.0 0.0
-0.0015433148380760361 0.0006728612815153356 0.0 0.001947974229597721 0.0 0.0
-0.0012314495539834727 0.0005357598047661671 0.0 0.0019309205286034692 0.0 0.0
-0.0009906693674345615 0.0004433076877535247 0.0 0.0019241299225664504 0.0 0.0
-0.0008079626488155522 0.0003808496816664064 0.0 0.0019051649269395815 0.0 0.0
-0.0006712181314215901 0.0003383431076672272 0.0 0.001899202076819359 0.0 0.0
-0.0005627934478717803 0.00029237793748737584 0.0 0.001949051962232634 0.0 0.0
-0.0004313239505473951 0.00017632152264163148 0.0 0.0020339689566106905 0.0 0.0
-0.00017931839501878627 -0.00012395856587783805 0.0 0.0019396922959623863 0.0 0.0
0.00015666863449080581 -0.0005359842385994698 0.0 0.0010399883988220782 0.0 0.0
9.401777420617319e-05 -0.0003944969786685848 0.0 -0.000906187163502617 0.0 0.0
-0.00022387482437886963 -7.552740779109834e-05 0.0 -0.0017815956945203687 0.0 0.0
-0.0005187148279430509 0.00021175489983879525 0.0 -0.0019299633490094392 0.0 0.0
-0.0007189089480034855 0.00035302167637502047 0.0 -0.0018562183972792023 0.0 0.0
-0.0009001543869295026 0.00043438792475392063 0.0 -0.0017841925142048076 0.0 0.0
-0.0011104378230568646 0.0005103250153454808 0.0 -0.0017584877226220208 0.0 0.0
-0.0013737327737623206 0.0006071993903008499 0.0 -0.0017359794413428359 0.0 0.0
-0.001719942722027079 0.0007498360238383794 0.0 -0.001721501683037835 0.0 0.0
-0.00219129264746995 0.0009960124504315715 0.0 -0.0018135208881697173 0.0 0.0
-0.002808191675445479 0.0013916352622652672 0.0 -0.0020658626206934705 0.0 0.0
-0.0035773887861180326 0.0019560852076156987 0.0 -0.0023865857169809157 0.0 0.0
-0.004645843592588461 0.0028071349402228885 0.0 -0.002807104215313605 0.0 0.0
-0.0062044109012425325 0.004155608215384854 0.0 -0.0034432963991168908 0.0 0.0
-0.008470493587660971 0.00621929337381899 0.0 -0.0043797108844185195 0.0 0.0
-0.011551830640011064 0.009103944295978383 0.0 -0.005681087340023067 0.0 0.0
-0.01530957639744894 0.012654711217701786 0.0 -0.0074939604553924954 0.0 0.0
-0.019249739384243986 0.01637651722424871 0.0 -0.009970847291367574 0.0 0.0
-0.022465959007266216 0.019314356781837017 0.0 -0.01281960268565066 0.0 0.0
-0.0233657053785558 0.019844028970477323 0.0 -0.014690360882774589 0.0 0.0
-0.01949673560250747 0.015508303493703801 0.0 -0.012580471247603697 0.0 0.0
-0.01949673560250735 0.015508303493702913 0.0 0.01258047124761641 0.0 0.0
-0.02336570537855437 0.0198440289704771 0.0 0.014690360882790798 0.0 0.0
-0.022465959007263572 0.019314356781837017 0.0 0.012819602685660958 0.0 0.0
-0.019249739384239788 0.016376517224246046 0.0 0.009970847291371515 0.0 0.0
-0.015309576397444534 0.012654711217698233 0.0 0.007493960455391913 0.0 0.0
-0.011551830640007435 0.009103944295976607 0.0 0.005681087340023205 0.0 0.0
-0.008470493587657196 0.006219293373815216 0.0 0.004379710884417853 0.0 0.0
-0.006204410901237745 0.004155608215380524 0.0 0.0034432963991167242 0.0 0.0
-0.004645843592583507 0.0028071349402193357 0.0 0.002807104215311884 0.0 0.0
-0.003577388786113217 0.00195608520761259 0.0 0.0023865857169778626 0.0 0.0
-0.0028081916754411906 0.0013916352622633799 0.0 0.002065862620690112 0.0 0.0
-0.002191292647466453 0.0009960124504303502 0.0 0.0018135208881688292 0.0 0.0
-0.0017199427220244909 0.0007498360238372692 0.0 0.0017215016830377794 0.0 0.0
-0.0013737327737605026 0.0006071993902997952 0.0 0.0017359794413421142 0.0 0.0
-0.0011104378230555323 0.0005103250153452588 0.0 0.0017584877226201612 0.0 0.0
-0.000900154386928323 0.0004343879247538651 0.0 0.0017841925142031562 0.0 0.0
-0.000718908948002632 0.0003530216763751315 0.0 0.0018562183972772317 0.0 0.0
-0.0005187148279424819 0.00021175489983879525 0.0 0.001929963349007427 0.0 0.0
-0.00022387482437863718 -7.552740779079303e-05 0.0 0.001781595694518509 0.0 0.0
9.401777420607257e-05 -0.0003944969786681416 0.0 0.0009061871635021035 0.0 0.0
3.719226124927755e-05 -0.0002689769042397566 0.0 -0.0007669484354821676 0.0 0.0
-0.00027002175281713725 -2.3881319512669696e-05 0.0 -0.0015913176987644717 0.0 0.0
-0.0006037096094898414 0.00024866392527128633 0.0 -0.0017776848258554273 0.0 0.0
-0.000869414337250185 0.00041086816317631447 0.0 -0.0017120790867095337 0.0 0.0
-0.001121667682359731 0.0005244064233867474 0.0 -0.0016184004049578093 0.0 0.0
-0.0014040487548620528 0.0006333701159755845 0.0 -0.0015556338273688408 0.0 0.0
-0.001749978289491111 0.0007666347035083509 0.0 -0.0014939191845862038 0.0 0.0
-0.002235913168396636 0.0010129725293442915 0.0 -0.0015426504812215691 0.0 0.0
-0.002876475280460894 0.0014261283885672604 0.0 -0.0017544927054362336 0.0 0.0
-0.0036548046710318527 0.0019851494167709705 0.0 -0.002020237223090998 0.0 0.0
-0.00465590262697374 0.0027678164431182983 0.0 -0.0023264175295376333 0.0 0.0
-0.006066821215581608 0.0039604315687047364 0.0 -0.002778502406439176 0.0 0.0
-0.00811928392697546 0.00580324176269198 0.0 -0.0034631819731784086 0.0 0.0
-0.011060094217880484 0.008544536600203045 0.0 -0.004444721274581093 0.0 0.0
-0.01503318575418619 0.012321656460450026 0.0 -0.005787490980259324 0.0 0.0
-0.019911761479479782 0.01698302914751748 0.0 -0.007661373122311049 0.0 0.0
-0.025100305231038296 0.021915167696471727 0.0 -0.010271564022927643 0.0 0.0
-0.029372288585728587 0.025850892436766415 0.0 -0.013497636720178952 0.0 0.0
-0.030596002228179396 0.02662096536351788 0.0 -0.01603707916363789 0.0 0.0
-0.025621708839217328 0.021152881450281713 0.0 -0.015066386430166445 0.0 0.0
-0.025621708839216786 0.02115288145028127 0.0 0.015066386430179712 0.0 0.0
-0.03059600222817751 0.02662096536351588 0.0 0.016037079163655155 0.0 0.0
-0.02937228858572536 0.025850892436763084 0.0 0.013497636720191691 0.0 0.0
-0.02510030523103366 0.021915167696469284 0.0 0.010271564022933194 0.0 0.0
-0.019911761479474717 0.01698302914751415 0.0 0.0076613731223111325 0.0 0.0
-0.01503318575418152 0.012321656460447361 0.0 0.005787490980258908 0.0 0.0
-0.011060094217875849 0.008544536600200159 0.0 0.004444721274580024 0.0 0.0
-0.00811928392696967 0.0058032417626864286 0.0 0.003463181973178256 0.0 0.0
-0.006066821215575512 0.003960431568700407 0.0 0.002778502406436692 0.0 0.0
-0.004655902626967707 0.0027678164431143015 0.0 0.002326417529534386 0.0 0.0
-0.0036548046710265965 0.0019851494167661965 0.0 0.002020237223087612 0.0 0.0
-0.00287647528045646 0.0014261283885633746 0.0 0.00175449270543529 0.0 0.0
-0.002235913168392948 0.001012972529342071 0.0 0.0015426504812202785 0.0 0.0
-0.0017499782894886962 0.0007666347035074073 0.0 0.0014939191845849686 0.0 0.0
-0.001404048754860384 0.0006333701159747518 0.0 0.0015556338273669257 0.0 0.0
-0.001121667682358416 0.0005244064233855816 0.0 0.001618400404955797 0.0 0.0
-0.0008694143372491477 0.0004108681631757871 0.0 0.0017120790867073549 0.0 0.0
-0.0006037096094892239 0.0002486639252711198 0.0 0.0017776848258531514 0.0 0.0
-0.0002700217528169811 -2.3881319512503163e-05 0.0 0.0015913176987624317 0.0 0.0
3.7192261249353875e-05 -0.0002689769042396031 0.0 0.0007669484354815709 0.0 0.0
-1.2263839163306756e-05 -0.0001613814384665152 0.0 -0.0006206459338614634 0.0 0.0
-0.0003157488757326854 2.856876393017571e-05 0.0 -0.0013717666837165243 0.0 0.0
-0.0006862877394517991 0.0002862918506349177 0.0 -0.0015791731833751516 0.0 0.0
-0.0010150341883649605 0.0004660219142507138 0.0 -0.0015170074411629958 0.0 0.0
-0.0013360373136207387 0.0006096571428916842 0.0 -0.0014044086101304698 0.0 0.0
-0.0016848959753416326 0.0007453041480787737 0.0 -0.0012971720844441592 0.0 0.0
-0.0021439217572736813 0.000959770831552742 0.0 -0.0012592133100679248 0.0 0.0
-0.002795691660752525 0.0013622322248718621 0.0 -0.0014109711386745827 0.0 0.0
-0.0035677358710273083 0.0019140577975913509 0.0 -0.0016356877534950687 0.0 0.0
-0.004508832863177659 0.0026239984501430502 0.0 -0.0018590257563586843 0.0 0.0
-0.005761418523015108 0.003650530188743284 0.0 -0.0021672166518633684 0.0 0.0
-0.007532436278398599 0.0052017585054972 0.0 -0.0026166961970257863 0.0 0.0
-0.010097637624422368 0.007553782872359971 0.0 -0.003293305327823237 0.0 0.0
-0.013725981960261813 0.010979395762165334 0.0 -0.004284404024468391 0.0 0.0
-0.018566343722585643 0.015621513154024491 0.0 -0.0055752471919633395 0.0 0.0
-0.02451846358506439 0.02134077694647818 0.0 -0.007258350958649518 0.0 0.0
-0.030915732149332853 0.02744743142374073 0.0 -0.009692808661285024 0.0 0.0
-0.03620513835585001 0.03234721025222176 0.0 -0.013022948050525063 0.0 0.0
-0.037717978304616005 0.03334144994439692 0.0 -0.016411897512300794 0.0 0.0
-0.03167811158115361 0.02677698578174814 0.0 -0.017574153014577654 0.0 0.0
-0.03167811158115273 0.026776985781749252 0.0 0.01757415301459303 0.0 0.0
-0.037717978304613625 0.03334144994439692 0.0 0.016411897512319362 0.0 0.0
-0.036205138355846156 0.03234721025221976 0.0 0.013022948050539163 0.0 0.0
-0.030915732149327906 0.027447431423736735 0.0 0.00969280866129038 0.0 0.0
-0.024518463585058742 0.021340776946474405 0.0 0.0072583509586515715 0.0 0.0
-0.018566343722580154 0.015621513154021383 0.0 0.0055752471919642 0.0 0.0
-0.01372598196025605 0.010979395762163002 0.0 0.004284404024467517 0.0 0.0
-0.010097637624415668 0.00755378287235553 0.0 0.003293305327823376 0.0 0.0
-0.007532436278391435 0.005201758505490872 0.0 0.0026166961970239405 0.0 0.0
-0.005761418523007888 0.0036505301887371777 0.0 0.0021672166518604957 0.0 0.0
-0.004508832863171532 0.0026239984501382763 0.0 0.001859025756355312 0.0 0.0
-0.0035677358710220104 0.001914057797587465 0.0 0.0016356877534940972 0.0 0.0
-0.002795691660747838 0.0013622322248684204 0.0 0.0014109711386736529 0.0 0.0
-0.0021439217572704374 0.0009597708315506326 0.0 0.0012592133100666064 0.0 0.0
-0.0016848959753396446 0.0007453041480783296 0.0 0.0012971720844426465 0.0 0.0
-0.001336037313619285 0.0006096571428914066 0.0 0.0014044086101294706 0.0 0.0
-0.0010150341883638399 0.00046602191425043626 0.0 0.0015170074411620244 0.0 0.0
-0.0006862877394511607 0.0002862918506346124 0.0 0.0015791731833738332 0.0 0.0
-0.0003157488757323905 2.8568763930161833e-05 0.0 0.0013717666837158998 0.0 0.0
-1.2263839163133283e-05 -0.0001613814384663877 0.0 0.000620645933861394 0.0 0.0
-5.211124513761212e-05 -7.396524177627484e-05 0.0 -0.00046717909397732404 0.0 0.0
-0.0003577771284846709 7.909866466551674e-05 0.0 -0.0011250942414678528 0.0 0.0
-0.0007659873251461558 0.0003235121067174662 0.0 -0.0013347893271479366 0.0 0.0
-0.0011571463821345995 0.0005191808299143674 0.0 -0.0012727691082153048 0.0 0.0
-0.0015411807296105556 0.0006848587353810442 0.0 -0.0011367362256766433 0.0 0.0
-0.001965363994964997 0.0008743085649801641 0.0 -0.0010261614664978935 0.0 0.0
-0.0025849920098365703 0.0012312735599977476 0.0 -0.0010734598222571085 0.0 0.0
-0.0033615408784316986 0.0017631071082560013 0.0 -0.0012469756936522303 0.0 0.0
-0.004255052131543702 0.00242085382322188 0.0 -0.0014074640748909517 0.0 0.0
-0.005380255199184503 0.003309800003691854 0.0 -0.0016135435733209413 0.0 0.0
-0.006893956660349976 0.004592428921049718 0.0 -0.0018982259680710711 0.0 0.0
-0.009042641579184565 0.006515042012480099 0.0 -0.002311092856931596 0.0 0.0
-0.012137704080695436 0.009393340868528055 0.0 -0.0029447840826332394 0.0 0.0
-0.016461490759809932 0.013500943871125104 0.0 -0.0038591175172367764 0.0 0.0
-0.022141150025774506 0.018970602824925242 0.0 -0.005031783426999115 0.0 0.0
-0.02907145180028098 0.025665277049019775 0.0 -0.006406694485900477 0.0 0.0
-0.03657492751408238 0.03284909103523037 0.0 -0.008244140723295657 0.0 0.0
-0.042866133827545054 0.038708267245447736 0.0 -0.01127453362078415 0.0 0.0
-0.04481041492780467 0.04007273542275214 0.0 -0.015759596979188717 0.0 0.0
-0.03789149687274106 0.03256598809415512 0.0 -0.020104175723571538 0.0 0.0
-0.0378914968727402 0.03256598809415179 0.0 0.020104175723586 0.0 0.0
-0.04481041492780165 0.040072735422748806 0.0 0.015759596979206675 0.0 0.0
-0.04286613382754071 0.038708267245444405 0.0 0.01127453362079811 0.0 0.0
-0.03657492751407711 0.032849091035226374 0.0 0.008244140723301277 0.0 0.0
-0.029071451800274584 0.025665277049015778 0.0 0.006406694485901962 0.0 0.0
-0.0221411500257683 0.018970602824918803 0.0 0.005031783427000225 0.0 0.0
-0.016461490759803066 0.013500943871119997 0.0 0.0038591175172363323 0.0 0.0
-0.012137704080687858 0.009393340868522726 0.0 0.002944784082632962 0.0 0.0
-0.009042641579176176 0.0065150420124726605 0.0 0.002311092856930666 0.0 0.0
-0.00689395666034184 0.004592428921043945 0.0 0.0018982259680688923 0.0 0.0
-0.005380255199177425 0.003309800003686525 0.0 0.001613543573317916 0.0 0.0
-0.0042550521315374255 0.002420853823216884 0.0 0.001407464074889675 0.0 0.0
-0.003361540878426248 0.0017631071082517824 0.0 0.0012469756936513837 0.0 0.0
-0.002584992009832334 0.001231273559995083 0.0 0.001073459822255568 0.0 0.0
-0.001965363994962433 0.0008743085649790538 0.0 0.0010261614664972413 0.0 0.0
-0.0015411807296089736 0.0006848587353802116 0.0 0.0011367362256758107 0.0 0.0
-0.0011571463821333679 0.000519180829913396 0.0 0.0012727691082141668 0.0 0.0
-0.0007659873251454723 0.00032351210671682784 0.0 0.0013347893271463546 0.0 0.0
-0.0003577771284842511 7.909866466553062e-05 0.0 0.001125094241467034 0.0 0.0
-5.2111245137556605e-05 -7.396524177598687e-05 0.0 0.0004671790939765885 0.0 0.0
-7.899189386861849e-05 -9.345424162560123e-06 0.0 -0.0003090350031293293 0.0 0.0
-0.0003908754459656244 0.00012400501682752196 0.0 -0.0008526103103156935 0.0 0.0
-0.0008421658004954952 0.000359659729275319 0.0 -0.0010419772433767072 0.0 0.0
-0.0012980126463590508 0.0005690697783812815 0.0 -0.0009794105067729292 0.0 0.0
-0.0017354869080188906 0.0007591641403518756 0.0 -0.000828659881456556 0.0 0.0
-0.002281006290863391 0.001048333970093407 0.0 -0.0007739328631747866 0.0 0.0
-0.0030464893230742196 0.0015380780254702353 0.0 -0.0008496120252775574 0.0 0.0
-0.003916000846709511 0.0021701903267159484 0.0 -0.000976263494748747 0.0 0.0
-0.004950437046848916 0.00295949558003894 0.0 -0.0011093594691256592 0.0 0.0
-0.0062681411672309145 0.00403420264169585 0.0 -0.0012826859265037405 0.0 0.0
-0.00805501846626673 0.005584001402069383 0.0 -0.001524204652657818 0.0 0.0
-0.01059623635366351 0.007893642939787004 0.0 -0.0018668312128452824 0.0 0.0
-0.01423453146391225 0.011304372962340214 0.0 -0.0023852334842185963 0.0 0.0
-0.019258735597345422 0.016100212996999597 0.0 -0.0031798017955230184 0.0 0.0
-0.025754330757093782 0.022365303511641343 0.0 -0.004189138351444299 0.0 0.0
-0.03353607110160234 0.029897561063767286 0.0 -0.005155626656448753 0.0 0.0
-0.04193544119500746 0.03798684817596776 0.0 -0.006077844544550182 0.0 0.0
-0.04923335073377484 0.0448263937208746 0.0 -0.008278653552302062 0.0 0.0
-0.051940284297504156 0.046882126773471144 0.0 -0.013821401046199139 0.0 0.0
-0.04451838122640437 0.0387384655960239 0.0 -0.02248333474905037 0.0 0.0
-0.04451838122640342 0.03873846559602345 0.0 0.022483334749063444 0.0 0.0
-0.05194028429750057 0.046882126773466926 0.0 0.013821401046215764 0.0 0.0
-0.049233350733769825 0.04482639372086883 0.0 0.008278653552314386 0.0 0.0
-0.041935441195001644 0.03798684817596176 0.0 0.0060778445445555385 0.0 0.0
-0.03353607110159541 0.02989756106376351 0.0 0.005155626656450585 0.0 0.0
-0.025754330757086684 0.022365303511635792 0.0 0.004189138351444369 0.0 0.0
-0.01925873559733768 0.016100212996993712 0.0 0.0031798017955225605 0.0 0.0
-0.01423453146390355 0.01130437296233322 0.0 0.002385233484217583 0.0 0.0
-0.010596236353653938 0.007893642939779455 0.0 0.0018668312128444497 0.0 0.0
-0.00805501846625758 0.005584001402062944 0.0 0.0015242046526562636 0.0 0.0
-0.00626814116722302 0.004034202641689522 0.0 0.0012826859265013674 0.0 0.0
-0.0049504370468418605 0.002959495580034388 0.0 0.0011093594691238273 0.0 0.0
-0.003916000846703278 0.0021701903267108413 0.0 0.0009762634947477478 0.0 0.0
-0.0030464893230690137 0.0015380780254656279 0.0 0.0008496120252762113 0.0 0.0
-0.002281006290860017 0.0010483339700920191 0.0 0.0007739328631739401 0.0 0.0
-0.0017354869080171455 0.0007591641403506544 0.0 0.0008286598814558066 0.0 0.0
-0.0012980126463577515 0.0005690697783810039 0.0 0.0009794105067720271 0.0 0.0
-0.0008421658004947215 0.0003596597292752357 0.0 0.0010419772433755414 0.0 0.0
-0.0003908754459653503 0.00012400501682766074 0.0 0.0008526103103148469 0.0 0.0
-7.899189386859073e-05 -9.345424162586144e-06 0.0 0.0003090350031293987 0.0 0.0
-8.736440498509357e-05 2.9225888924885868e-05 0.0 -0.00015304003678424938 0.0 0.0
-0.00040699123677230553 0.00015787718037468812 0.0 -0.0005544411044779152 0.0 0.0
-0.0009139934549634993 0.00039424749729227715 0.0 -0.0006924349465780855 0.0 0.0
-0.0014408327388070463 0.0006137566719547349 0.0 -0.0006367184073201582 0.0 0.0
-0.0019339911317727415 0.0008586483688217128 0.0 -0.0005202112862012359 0.0 0.0
-0.002636540467509857 0.0012737009321033277 0.0 -0.0004930570327315448 0.0 0.0
-0.0034972235754042597 0.00186722133393602 0.0 -0.0005630270027093404 0.0 0.0
-0.0044722060660215696 0.002594796999193627 0.0 -0.0006459002226537613 0.0 0.0
-0.0056540261639247 0.0035260733979080028 0.0 -0.0007397578759890389 0.0 0.0
-0.007172994459324844 0.00479495440017752 0.0 -0.0008680500953828774 0.0 0.0
-0.009244669281985668 0.006620734969248976 0.0 -0.0010382397825597078 0.0 0.0
-0.012193108398942581 0.00932770392471094 0.0 -0.0012750753080142396 0.0 0.0
-0.01638624116935916 0.013283563611411142 0.0 -0.0016632130252700883 0.0 0.0
-0.02210096517547616 0.01875518178783464 0.0 -0.002236385926620482 0.0 0.0
-0.029383604160969162 0.02577904805204634 0.0 -0.002930789023804281 0.0 0.0
-0.037925076413306405 0.03404752727461058 0.0 -0.0035391967037399774 0.0 0.0
-0.04695260661324545 0.04277202410869285 0.0 -0.0037144079191965274 0.0 0.0
-0.05500827668747637 0.050471735561209874 0.0 -0.0042008565415807275 0.0 0.0
-0.05908586198543092 0.05376058870181066 0.0 -0.009799274609385789 0.0 0.0
-0.05195923224160663 0.045640096044570866 0.0 -0.024212705467186818 0.0 0.0
-0.05195923224160524 0.045640096044570866 0.0 0.024212705467194867 0.0 0.0
-0.059085861985426855 0.05376058870180822 0.0 0.00979927460939789 0.0 0.0
-0.05500827668747061 0.050471735561207653 0.0 0.0042008565415908306 0.0 0.0
-0.046952606613238704 0.042772024108687745 0.0 0.0037144079191984425 0.0 0.0
-0.037925076413298925 0.03404752727460503 0.0 0.0035391967037420036 0.0 0.0
-0.029383604160961262 0.025779048052040565 0.0 0.0029307890238039896 0.0 0.0
-0.02210096517546737 0.01875518178782798 0.0 0.002236385926620732 0.0 0.0
-0.01638624116934942 0.013283563611403038 0.0 0.0016632130252693667 0.0 0.0
-0.012193108398931816 0.009327703924700836 0.0 0.0012750753080144756 0.0 0.0
-0.009244669281975525 0.006620734969239983 0.0 0.0010382397825582923 0.0 0.0
-0.007172994459316184 0.0047949544001695266 0.0 0.0008680500953807679 0.0 0.0
-0.005654026163916985 0.0035260733979024517 0.0 0.0007397578759885115 0.0 0.0
-0.0044722060660145075 0.002594796999188742 0.0 0.000645900222652207 0.0 0.0
-0.0034972235753982697 0.0018672213339324673 0.0 0.0005630270027079942 0.0 0.0
-0.0026365404675056416 0.001273700932099997 0.0 0.000493057032730157 0.0 0.0
-0.001933991131770646 0.0008586483688200475 0.0 0.0005202112862010416 0.0 0.0
-0.0014408327388057505 0.0006137566719540688 0.0 0.0006367184073196447 0.0 0.0
-0.0009139934549626935 0.00039424749729202735 0.0 0.0006924349465770308 0.0 0.0
-0.00040699123677200195 0.00015787718037459098 0.0 0.000554441104477485 0.0 0.0
-8.736440498504933e-05 2.922588892470112e-05 0.0 0.00015304003678420774 0.0 0.0
-6.709578188929255e-05 3.6960271003042e-05 0.0 -1.4053719281439947e-05 0.0 0.0
-0.0003939253324404812 0.00017331975433043656 0.0 -0.00022612195242026345 0.0 0.0
-0.000980946844607783 0.0004233972380326967 0.0 -0.0002716157215834625 0.0 0.0
-0.0015927418441667313 0.0006680240776147373 0.0 -0.00024991169937266244 0.0 0.0
-0.002159606042430956 0.0009712483808682615 0.0 -0.00019744444604333222 0.0 0.0
-0.0030033521043320577 0.001508477223361504 0.0 -0.00017443500839989245 0.0 0.0
-0.003943034851567939 0.002209266590648906 0.0 -0.00021709950733996008 0.0 0.0
-0.005029589406048723 0.003037602818955487 0.0 -0.00025269774577296733 0.0 0.0
-0.006366474259464891 0.004115845076827163 0.0 -0.0002983908139608249 0.0 0.0
-0.008094552928577955 0.005584114188110223 0.0 -0.00036386572952623597 0.0 0.0
-0.010463452564346512 0.007699821499228876 0.0 -0.00043976093715331066 0.0 0.0
-0.01383920196139743 0.010823890023838545 0.0 -0.0005621323354395857 0.0 0.0
-0.018581888462207125 0.015315848113837904 0.0 -0.0007451522441167535 0.0 0.0
-0.024962179034487275 0.021435239438764908 0.0 -0.0009884117529305458 0.0 0.0
-0.033001295794526556 0.029190295908210206 0.0 -0.001278001676698448 0.0 0.0
-0.04225608996003612 0.03813873599032758 0.0 -0.0014781083732186007 0.0 0.0
-0.05174846300686996 0.04731828131451832 0.0 -0.0013461680639896834 0.0 0.0
-0.06001131316902805 0.05527087420354038 0.0 -0.0006427043150639133 0.0 0.0
-0.06523749045299132 0.060197571841068775 0.0 -0.0022114319004288285 0.0 0.0
-0.0613295102988825 0.054063866320423815 0.0 -0.022545564274552315 0.0 0.0
-0.0613295102988812 0.054063866320420484 0.0 0.022545564274555674 0.0 0.0
-0.06523749045298657 0.06019757184106456 0.0 0.002211431900434685 0.0 0.0
-0.06001131316902114 0.0552708742035366 0.0 0.0006427043150690342 0.0 0.0
-0.051748463006861915 0.04731828131451321 0.0 0.0013461680639888784 0.0 0.0
-0.04225608996002763 0.03813873599032358 0.0 0.0014781083732200717 0.0 0.0
-0.03300129579451771 0.02919029590820399 0.0 0.0012780016766980248 0.0 0.0
-0.0249621790344773 0.021435239438758913 0.0 0.0009884117529312952 0.0 0.0
-0.018581888462196376 0.015315848113831798 0.0 0.0007451522441160041 0.0 0.0
-0.013839201961385548 0.010823890023830218 0.0 0.0005621323354407098 0.0 0.0
-0.010463452564335427 0.00769982149922066 0.0 0.00043976093715250575 0.0 0.0
-0.008094552928568578 0.0055841141881026735 0.0 0.00036386572952573637 0.0 0.0
-0.00636647425945659 0.004115845076821278 0.0 0.0002983908139605196 0.0 0.0
-0.005029589406040758 0.003037602818950269 0.0 0.0002526977457721624 0.0 0.0
-0.003943034851561212 0.0022092665906441322 0.0 0.00021709950733934946 0.0 0.0
-0.0030033521043271233 0.0015084772233576738 0.0 0.0001744350084000451 0.0 0.0
-0.002159606042428566 0.0009712483808667072 0.0 0.00019744444604320732 0.0 0.0
-0.0015927418441653613 0.0006680240776136548 0.0 0.0002499116993721767 0.0 0.0
-0.0009809468446069286 0.00042339723803203055 0.0 0.00027161572158299063 0.0 0.0
-0.00039392533243999724 0.00017331975433031166 0.0 0.00022612195242015243 0.0 0.0
-6.709578188934025e-05 3.6960271003102715e-05 0.0 1.4053719281439947e-05 0.0 0.0
SCALARS Statev float 8
LOOKUP_TABLE default
0.0 0.004328113615293899 0.0031387891483763827 -0.003478336289881163 0.0003395471415047802 -0.0015885638345304338 0.0 0.0
0.0 7.589720721266785e-05 -1.264499344249073e-06 3.3839162171325553e-07 9.261077225358976e-07 -2.252390170289055e-06 0.0 0.0
0.0 3.342380937747103e-05 -4.754075056013673e-06 3.773145031487882e-06 9.80930024525693e-07 5.620332136169097e-07 0.0 0.0
0.0 5.964197818941148e-05 -8.875124403010095e-06 6.7718641644531875e-06 2.1032602385566872e-06 1.0945643523731552e-06 0.0 0.0
0.0 0.0002936048339685353 9.462416499767172e-05 -7.39177524957504e-05 -2.0706412501921416e-05 -1.6031125593424288e-05 0.0 0.0
0.0 0.0006990597868138401 0.0006516036398674519 -0.0005127570284822265 -0.00013884661138522536 -5.681835633631651e-05 0.0 0.0
0.0 0.0014715110699849835 0.0013670521735250274 -0.0011007554581953518 -0.0002662967153296751 -9.719763768455757e-05 0.0 0.0
0.0 0.0024743607260250917 0.002281955390604026 -0.0018814734860370637 -0.0004004819045669625 -0.00013558395708102348 0.0 0.0
0.0 0.0037974714894141704 0.003459694449826603 -0.0029264921014549887 -0.0005332023483716137 -0.00018387541120821555 0.0 0.0
0.0 0.005596319213335578 0.005026094994253366 -0.004366278293529769 -0.0006598167007235967 -0.00024886152613912696 0.0 0.0
0.0 0.00818318353876519 0.007227421945943081 -0.0064531534311420904 -0.0007742685148009912 -0.000326285047733524 0.0 0.0
0.0 0.011706776309052445 0.010438469688798921 -0.00956235582775023 -0.0008761138610486891 -0.0004503609261141566 0.0 0.0
0.0 0.016879337335162302 0.015009724524632813 -0.014043977309287975 -0.0009657472153448322 -0.0006308470165675015 0.0 0.0
0.0 0.02400031161917153 0.021205915514767904 -0.02015429481336894 -0.0010516207013989704 -0.000866311267814692 0.0 0.0
0.0 0.033054508637240534 0.02907127755948442 -0.02792974463947304 -0.001141532920011376 -0.0011713321636022344 0.0 0.0
0.0 0.04369010162047156 0.038270627642533216 -0.03703166709385099 -0.0012389605486822293 -0.0015070794507661424 0.0 0.0
0.0 0.05498870526173348 0.04803577587111357 -0.04669433701926554 -0.0013414388518480209 -0.0017470303095991494 0.0 0.0
0.0 0.06564262852325933 0.057248694022699824 -0.055808806999349064 -0.0014398870233507581 -0.0016903927166985056 0.0 0.0
0.0 0.0742067638427744 0.06465911387224775 -0.06313557717623137 -0.0015235366960163685 -0.0012600545040315975 0.0 0.0
0.0 0.079057522453582 0.06899137110788787 -0.0673949839032729 -0.0015963872046149661 -0.0008538862680546665 0.0 0.0
0.0 0.0790575224535803 0.06899137110788642 -0.0673949839032714 -0.001596387204615057 0.0008538862680562242 0.0 0.0
0.0 0.07420676384277022 0.06465911387224402 -0.06313557717622793 -0.001523536696016114 0.0012600545040385553 0.0 0.0
0.0 0.06564262852325267 0.05724869402269385 -0.055808806999343576 -0.001439887023350247 0.0016903927167018077 0.0 0.0
0.0 0.054988705261726764 0.048035775871107224 -0.04669433701926021 -0.001341438851847002 0.001747030309601255 0.0 0.0
0.0 0.043690101620466215 0.03827062764252801 -0.03703166709384692 -0.001238960548681107 0.001507079450764194 0.0 0.0
0.0 0.0330545086372329 0.029071277559477447 -0.02792974463946681 -0.0011415329200106376 0.0011713321636027982 0.0 0.0
0.0 0.024000311619162024 0.02120591551475936 -0.020154294813361107 -0.0010516207013982466 0.0008663112678145107 0.0 0.0
0.0 0.01687933733515245 0.015009724524623881 -0.014043977309279955 -0.0009657472153439216 0.000630847016567573 0.0 0.0
0.0 0.011706776309042684 0.010438469688789993 -0.009562355827742241 -0.0008761138610477503 0.0004503609261136544 0.0 0.0
0.0 0.00818318353875567 0.007227421945934169 -0.0064531534311340405 -0.0007742685148001277 0.0003262850477332568 0.0 0.0
0.0 0.005596319213327123 0.005026094994245625 -0.004366278293522899 -0.0006598167007227247 0.00024886152613823304 0.0 0.0
0.0 0.003797471489407612 0.0034596944498200845 -0.0029264921014492723 -0.0005332023483708124 0.00018387541120820514 0.0 0.0
0.0 0.002474360726019476 0.0022819553905981346 -0.0018814734860320768 -0.000400481904566057 0.0001355839570805067 0.0 0.0
0.0 0.0014715110699803512 0.0013670521735200136 -0.0011007554581911913 -0.0002662967153288219 9.719763768441689e-05 0.0 0.0
0.0 0.000699059786810586 0.0006516036398638097 -0.0005127570284792929 -0.00013884661138451667 5.6818356336026804e-05 0.0 0.0
0.0 0.00029360483396648223 9.462416499634137e-05 -7.391775249470109e-05 -2.070641250164052e-05 1.603112559326272e-05 0.0 0.0
0.0 5.964197818879073e-05 -8.875124402918782e-06 6.771864164384042e-06 2.103260238534788e-06 -1.0945643523608391e-06 0.0 0.0
0.0 3.342380937689642e-05 -4.754075055925718e-06 3.7731450314176655e-06 9.80930024508012e-07 -5.620332136036602e-07 0.0 0.0
0.0 7.589720721200665e-05 -1.2644993443115477e-06 3.383916217447696e-07 9.261077225670143e-07 2.2523901704029716e-06 0.0 0.0
0.0 0.004328113615288107 0.0031387891483725732 -0.00347833628987645 0.00033954714150387594 0.0015885638345225707 0.0 0.0
0.0 0.0027930774653564332 0.001904871107830209 -0.0022561681247005427 0.0003512970168703329 -0.0017122660927006124 0.0 0.0
0.0 0.0 0.0 0.0 0.0 0.0 0.0 0.0
0.0 0.0 0.0 0.0 0.0 0.0 0.0 0.0
0.0 2.818381018083203e-05 -3.89524483617999e-06 2.9799769798284316e-06 9.152678563517335e-07 1.0878372165257407e-06 0.0 0.0
0.0 0.00015776573037133012 -1.0967926362608091e-05 8.260635461368419e-06 2.707290901239559e-06 2.485804311066097e-06 0.0 0.0
0.0 0.0004338394121531176 0.00040651751555380593 -0.000317653361516827 -8.88641540369789e-05 -0.00010036229952016121 0.0 0.0
0.0 0.0010963737451582614 0.0010153728542529401 -0.0008092555736397964 -0.00020611728061314347 -0.00020594238466118103 0.0 0.0
0.0 0.0019651606281837547 0.0018097238653196261 -0.0014745938551742215 -0.0003351300101454043 -0.0003054328143682304 0.0 0.0
0.0 0.0030955770716820617 0.002833003482043911 -0.0023666272982108857 -0.0004663761838330252 -0.00041288943991032664 0.0 0.0
0.0 0.004629141904092863 0.004193969376161667 -0.003599832556625395 -0.0005941368195362715 -0.0005485144396666432 0.0 0.0
0.0 0.0068189066131676326 0.006103111487376722 -0.005390231702804269 -0.0007128797845724517 -0.0007256816935696087 0.0 0.0
0.0 0.010087978994294873 0.008883901461406624 -0.008066019537797606 -0.0008178819236090172 -0.0009721676716698118 0.0 0.0
0.0 0.01458110365726666 0.012916602205504335 -0.012008284705263193 -0.0009083175002411435 -0.0013669984279929162 0.0 0.0
0.0 0.020899060774009225 0.018466637501802188 -0.017474953497694498 -0.0009916840041076856 -0.001936261860114249 0.0 0.0
0.0 0.029082045162777806 0.025572705782823293 -0.024495657277968895 -0.0010770485048543967 -0.0026484352206112144 0.0 0.0
0.0 0.038703001437460915 0.033926851235727126 -0.03275942093968292 -0.0011674302960442123 -0.0034207869152741775 0.0 0.0
0.0 0.04896955340830397 0.04282997111191734 -0.04156939381248896 -0.0012605772994283661 -0.003967903432617954 0.0 0.0
0.0 0.058737904771704985 0.051285389919611436 -0.049934902645741616 -0.0013504872738698162 -0.003899269552045398 0.0 0.0
0.0 0.06663081332064964 0.05812590150613072 -0.05669257147426551 -0.0014333300318652043 -0.0030789292167583415 0.0 0.0
0.0 0.07122498830568688 0.06211559669925161 -0.060624820323249964 -0.0014907763760016244 -0.0016368015741360037 0.0 0.0
0.0 0.0712249883056868 0.06211559669925136 -0.060624820323250034 -0.0014907763760013046 0.0016368015741440975 0.0 0.0
0.0 0.06663081332064638 0.058125901506127606 -0.0566925714742627 -0.001433330031864881 0.0030789292167711195 0.0 0.0
0.0 0.05873790477169926 0.05128538991960613 -0.04993490264573671 -0.0013504872738694259 0.003899269552053823 0.0 0.0
0.0 0.048969553408296874 0.04282997111191081 -0.04156939381248295 -0.0012605772994278709 0.003967903432622117 0.0 0.0
0.0 0.038703001437454226 0.03392685123572109 -0.032759420939677486 -0.001167430296043588 0.003420786915273096 0.0 0.0
0.0 0.029082045162770485 0.02557270578281664 -0.024495657277962858 -0.0010770485048537616 0.0026484352206117895 0.0 0.0
0.0 0.020899060774001773 0.01846663750179532 -0.017474953497688534 -0.0009916840041067842 0.0019362618601144188 0.0 0.0
0.0 0.014581103657258194 0.012916602205496595 -0.01200828470525623 -0.0009083175002403611 0.001366998427993109 0.0 0.0
0.0 0.010087978994286349 0.00888390146139856 -0.008066019537790374 -0.0008178819236081851 0.0009721676716689901 0.0 0.0
0.0 0.006818906613159129 0.006103111487368805 -0.0053902317027972125 -0.0007128797845715911 0.0007256816935687538 0.0 0.0
0.0 0.0046291419040852605 0.004193969376154308 -0.003599832556618894 -0.0005941368195354124 0.0005485144396651193 0.0 0.0
0.0 0.003095577071676385 0.002833003482037986 -0.0023666272982057978 -0.000466376183832188 0.0004128894399098346 0.0 0.0
0.0 0.0019651606281789018 0.0018097238653146971 -0.0014745938551700573 -0.0003351300101446398 0.00030543281436733584 0.0 0.0
0.0 0.001096373745154654 0.0010153728542488206 -0.0008092555736363985 -0.0002061172806124221 0.00020594238466046602 0.0 0.0
0.0 0.0004338394121507831 0.0004065175155514832 -0.0003176533615149847 -8.886415403649845e-05 0.00010036229951954874 0.0 0.0
0.0 0.00015776573037003505 -1.0967926362779243e-05 8.26063546150232e-06 2.707290901276942e-06 -2.4858043111473618e-06 0.0 0.0
0.0 2.8183810180206067e-05 -3.895244836085688e-06 2.979976979756023e-06 9.152678563296789e-07 -1.0878372164973423e-06 0.0 0.0
0.0 0.0 0.0 0.0 0.0 0.0 0.0 0.0
0.0 0.0 0.0 0.0 0.0 0.0 0.0 0.0
0.0 0.0027930774653496145 0.0019048711078258644 -0.002256168124695388 0.00035129701686952323 0.0017122660926935406 0.0 0.0
0.0 0.0019071286031631105 0.0012109869684163012 -0.001512532600731236 0.00030154563231493496 -0.0013820339475126195 0.0 0.0
0.0 0.0 0.0 0.0 0.0 0.0 0.0 0.0
0.0 0.0 0.0 0.0 0.0 0.0 0.0 0.0
0.0 1.4183303336775373e-06 -1.539621149661279e-07 1.1836444455633038e-07 3.5597670409800244e-08 1.0785418544746333e-07 0.0 0.0
0.0 6.980170519968023e-05 -9.923055304925273e-06 7.594641587451511e-06 2.328413717473512e-06 5.450096546984325e-06 0.0 0.0
0.0 0.00032668355259273907 0.00014240992286418535 -0.00011102543501857595 -3.138448784560973e-05 -6.790418886073791e-05 0.0 0.0
0.0 0.0007471649437825975 0.0006838836276785425 -0.0005392854045466735 -0.00014459822313186893 -0.0002464201185117217 0.0 0.0
0.0 0.0014833018742490382 0.0013614453306959452 -0.001096613029983202 -0.000264832300712743 -0.00040884306484990506 0.0 0.0
0.0 0.0024458306082498133 0.0022305066490760452 -0.001838209413920488 -0.0003922972351555569 -0.0005673949553392851 0.0 0.0
0.0 0.003740346338383846 0.0033907786984714947 -0.002870170681048346 -0.0005206080174231481 -0.0007587381271144151 0.0 0.0
0.0 0.00561144348162068 0.005017452853193986 -0.004374899067069551 -0.0006425537861244343 -0.001013265669431209 0.0 0.0
0.0 0.008310436095124543 0.0073980870455404545 -0.006645306082787308 -0.0007527809627531446 -0.0013715106758542658 0.0 0.0
0.0 0.012405886774620591 0.010876248237345124 -0.010029779147029008 -0.0008464690903161145 -0.0019048394165065421 0.0 0.0
0.0 0.017906076993582428 0.015752730134722264 -0.014822918333065881 -0.0009298118016563848 -0.002713230075599006 0.0 0.0
0.0 0.025134287078540977 0.022068076281448953 -0.02105759872488646 -0.0010104775565624971 -0.003769426422571291 0.0 0.0
0.0 0.033759522276379884 0.029542332946345163 -0.0284487983881376 -0.0010935345582075567 -0.0048786503514359255 0.0 0.0
0.0 0.043004009168878 0.03756869076700705 -0.03639175768018868 -0.001176933086818386 -0.005667345419042379 0.0 0.0
0.0 0.051844290338827995 0.04527370947942704 -0.0440137990052222 -0.001259910474204834 -0.0056511734039827975 0.0 0.0
0.0 0.05906204602544054 0.051580670423842234 -0.050244656033773615 -0.001336014390068612 -0.004526847306096552 0.0 0.0
0.0 0.06335374144974391 0.055345636734403326 -0.0539581581179671 -0.0013874786164361933 -0.0022590784078210325 0.0 0.0
0.0 0.06335374144974329 0.055345636734402535 -0.053958158117966525 -0.001387478616436022 0.0022590784078332354 0.0 0.0
0.0 0.05906204602543638 0.05158067042383833 -0.05024465603376956 -0.0013360143900687485 0.00452684730611338 0.0 0.0
0.0 0.051844290338823026 0.04527370947942232 -0.04401379900521761 -0.0012599104742046859 0.0056511734039944115 0.0 0.0
0.0 0.04300400916887283 0.03756869076700211 -0.03639175768018424 -0.0011769330868178663 0.00566734541904879 0.0 0.0
0.0 0.03375952227637497 0.029542332946340597 -0.02844879838813369 -0.0010935345582069008 0.004878650351435554 0.0 0.0
0.0 0.025134287078535704 0.022068076281444034 -0.021057598724882335 -0.0010104775565616955 0.00376942642257154 0.0 0.0
0.0 0.017906076993575534 0.015752730134715925 -0.01482291833306022 -0.000929811801655703 0.0027132300755993936 0.0 0.0
0.0 0.012405886774612703 0.010876248237337818 -0.010029779147022282 -0.0008464690903155319 0.0019048394165064567 0.0 0.0
0.0 0.008310436095116292 0.007398087045532958 -0.0066453060827804476 -0.0007527809627525095 0.0013715106758526792 0.0 0.0
0.0 0.005611443481613657 0.0050174528531870205 -0.004374899067063292 -0.0006425537861237286 0.0010132656694299804 0.0 0.0
0.0 0.003740346338377805 0.003390778698465398 -0.002870170681042951 -0.0005206080174224468 0.0007587381271123464 0.0 0.0
0.0 0.0024458306082453447 0.0022305066490714938 -0.0018382094139166878 -0.0003922972351548054 0.0005673949553383945 0.0 0.0
0.0 0.001483301874245155 0.0013614453306918495 -0.0010966130299798515 -0.0002648323007119979 0.000408843064848748 0.0 0.0
0.0 0.0007471649437791445 0.0006838836276750927 -0.0005392854045438685 -0.00014459822313122429 0.0002464201185105974 0.0 0.0
0.0 0.00032668355259063886 0.00014240992286285013 -0.00011102543501753304 -3.138448784531695e-05 6.790418886011196e-05 0.0 0.0
0.0 6.980170519877595e-05 -9.923055304797832e-06 7.5946415873546394e-06 2.3284137174430674e-06 -5.450096546918415e-06 0.0 0.0
0.0 1.418330333417905e-06 -1.539621149372118e-07 1.1836444453399425e-07 3.5597670403225686e-08 -1.078541854267823e-07 0.0 0.0
0.0 0.0 0.0 0.0 0.0 0.0 0.0 0.0
0.0 0.0 0.0 0.0 0.0 0.0 0.0 0.0
0.0 0.001907128603157541 0.001210986968412423 -0.0015125326007265616 0.00030154563231413883 0.0013820339475063095 0.0 0.0
0.0 0.0012725486189128746 0.0007527258429054146 -0.000982506838101231 0.00022978099519581601 -0.0009555691424826857 0.0 0.0
0.0 0.0 0.0 0.0 0.0 0.0 0.0 0.0
0.0 0.0 0.0 0.0 0.0 0.0 0.0 0.0
0.0 0.0 0.0 0.0 0.0 0.0 0.0 0.0
0.0 3.091413199917303e-05 -3.963852590723633e-06 3.0652197957721597e-06 8.986327949515943e-07 3.6211559148845185e-06 0.0 0.0
0.0 0.0001557655114737793 1.2321956755862811e-05 -9.767248037524362e-06 -2.55470871833827e-06 -9.8677283462626e-06 0.0 0.0
0.0 0.00046915971551736977 0.0003706523030871772 -0.0002898277716347252 -8.082453145245206e-05 -0.0002110311983919575 0.0 0.0
0.0 0.0010408134608257253 0.0009414302345445781 -0.0007493071616885439 -0.00019212307285603408 -0.00043706354823209206 0.0 0.0
0.0 0.0018352358713063072 0.0016591063163486305 -0.0013481909424715754 -0.00031091537387705485 -0.0006451178124808476 0.0 0.0
0.0 0.0028971673801055616 0.0026239661058941916 -0.002187096132747729 -0.0004368699731464624 -0.0008816660888921564 0.0 0.0
0.0 0.004437945648662228 0.003978518344509673 -0.0034166083820335825 -0.0005619099624760886 -0.0011878352731351674 0.0 0.0
0.0 0.006732952960709802 0.005965978506783201 -0.005287367136473365 -0.0006786113703098351 -0.0016216505696123244 0.0 0.0
0.0 0.01013450229889703 0.008908074907625588 -0.008130230266121662 -0.0007778446415039262 -0.002277570118056065 0.0 0.0
0.0 0.015009994809307507 0.013087890940005953 -0.012223927757293435 -0.0008639631827125128 -0.0032314637976327567 0.0 0.0
0.0 0.021398381389272678 0.018574127572696365 -0.017632234048157877 -0.0009418935245384875 -0.004487311386806927 0.0 0.0
0.0 0.02881445293953388 0.025140348682495074 -0.02412338501554963 -0.0010169636669454434 -0.005853294810803445 0.0 0.0
0.0 0.03703237287145676 0.03226519447945913 -0.031173801406825817 -0.0010913930726333212 -0.006847175607957983 0.0 0.0
0.0 0.044985530741060153 0.03920538663368481 -0.03803968494483813 -0.0011657016888466788 -0.0069109156680509905 0.0 0.0
0.0 0.05158341153068201 0.04501331375983395 -0.04377806303539887 -0.001235250724435058 -0.00561291177756912 0.0 0.0
0.0 0.055638449471131696 0.048621325760277 -0.047337347914542804 -0.0012839778457342077 -0.0027675133830170947 0.0 0.0
0.0 0.05563844947112968 0.04862132576027504 -0.0473373479145408 -0.0012839778457342458 0.0027675133830325866 0.0 0.0
0.0 0.05158341153068016 0.0450133137598315 -0.043778063035396955 -0.0012352507244345419 0.0056129117775882455 0.0 0.0
0.0 0.044985530741057884 0.03920538663368204 -0.03803968494483587 -0.0011657016888461632 0.0069109156680641545 0.0 0.0
0.0 0.037032372871453265 0.03226519447945547 -0.031173801406822715 -0.0010913930726327576 0.006847175607964193 0.0 0.0
0.0 0.02881445293952796 0.025140348682489745 -0.024123385015544743 -0.001016963666945004 0.0058532948108030395 0.0 0.0
0.0 0.021398381389266623 0.018574127572690904 -0.017632234048152798 -0.0009418935245381084 0.004487311386806751 0.0 0.0
0.0 0.015009994809301541 0.013087890940000464 -0.01222392775728843 -0.0008639631827120317 0.003231463797632519 0.0 0.0
0.0 0.010134502298890818 0.008908074907619764 -0.00813023026611637 -0.0007778446415033896 0.002277570118055696 0.0 0.0
0.0 0.006732952960704314 0.005965978506777587 -0.005287367136468449 -0.0006786113703091355 0.0016216505696108983 0.0 0.0
0.0 0.0044379456486564545 0.003978518344503844 -0.0034166083820285032 -0.0005619099624753397 0.0011878352731334346 0.0 0.0
0.0 0.002897167380100497 0.0026239661058891665 -0.0021870961327435223 -0.000436869973145644 0.0008816660888897663 0.0 0.0
0.0 0.0018352358713018433 0.001659106316343826 -0.0013481909424674706 -0.00031091537387635516 0.0006451178124794015 0.0 0.0
0.0 0.0010408134608220158 0.0009414302345408079 -0.0007493071616854699 -0.0001921230728553381 0.00043706354823048235 0.0 0.0
0.0 0.0004691597155150236 0.00037065230308513367 -0.000289827771633155 -8.082453145197856e-05 0.00021103119839092942 0.0 0.0
0.0 0.00015576551147228676 1.2321956755513996e-05 -9.767248037257556e-06 -2.5547087182561647e-06 9.867728345999661e-06 0.0 0.0
0.0 3.091413199829632e-05 -3.96385259060396e-06 3.0652197956813065e-06 8.986327949227772e-07 -3.621155914790049e-06 0.0 0.0
0.0 0.0 0.0 0.0 0.0 0.0 0.0 0.0
0.0 0.0 0.0 0.0 0.0 0.0 0.0 0.0
0.0 0.0 0.0 0.0 0.0 0.0 0.0 0.0
0.0 0.0012725486189079608 0.0007527258429024581 -0.0009825068380975692 0.000229780995195111 0.0009555691424778445 0.0 0.0
0.0 0.0007969584609160297 0.0004336975974830628 -0.0005887669908460172 0.00015506939336295427 -0.0005710068568894671 0.0 0.0
0.0 0.0 0.0 0.0 0.0 0.0 0.0 0.0
0.0 0.0 0.0 0.0 0.0 0.0 0.0 0.0
0.0 0.0 0.0 0.0 0.0 0.0 0.0 0.0
0.0 1.2143276688027321e-05 -1.414772604235126e-06 1.0833367658665578e-06 3.314358383685867e-07 1.8758126077771184e-06 0.0 0.0
0.0 7.250247456184612e-05 -8.245303495100507e-06 6.288101978187011e-06 1.957201516913333e-06 8.25559295527587e-06 0.0 0.0
0.0 0.0003100140392819631 0.00010368565830447382 -8.055584328322411e-05 -2.312981502124971e-05 -8.691170873295628e-05 0.0 0.0
0.0 0.0006742244603168556 0.0005354627164341679 -0.0004206628309994971 -0.00011479988543467077 -0.00036311206660430715 0.0 0.0
0.0 0.001273833286476462 0.0011278389695937388 -0.0009037253643511656 -0.00022411360524257282 -0.0006374972566812435 0.0 0.0
0.0 0.002120520914645772 0.0018986652771255806 -0.0015557140607740595 -0.00034295121635152033 -0.0009101596372847557 0.0 0.0
0.0 0.003356641259801387 0.0029886596906829356 -0.002520739950522799 -0.0004679197401601368 -0.0012522972393203856 0.0 0.0
0.0 0.005202391995543956 0.004599755482085868 -0.0040093500225793 -0.0005904054595065678 -0.00173006137798378 0.0 0.0
0.0 0.008054847001217473 0.007010005334543182 -0.00631040323988841 -0.0006996020946547703 -0.00243574959987271 0.0 0.0
0.0 0.01203639671552365 0.010494501043206594 -0.009703623394983757 -0.0007908776482228358 -0.0034928487510845615 0.0 0.0
0.0 0.01746256272698573 0.015131519292951324 -0.014263617973992912 -0.0008679013189584076 -0.004869091615374991 0.0 0.0
0.0 0.024100882587300282 0.020746293793316356 -0.019807918792910394 -0.0009383750004059557 -0.006330597394928273 0.0 0.0
0.0 0.031101794188808558 0.026930468431210053 -0.02592707955466467 -0.0010033888765453728 -0.007461022988724099 0.0 0.0
0.0 0.03807621935701996 0.03307970240581949 -0.032011858037308924 -0.001067844368510577 -0.007663903715006277 0.0 0.0
0.0 0.0440862137806156 0.03840016421985716 -0.03726929026719744 -0.0011308739526597088 -0.006350979488766775 0.0 0.0
0.0 0.04796896892142091 0.04189458375071943 -0.04071598319228977 -0.0011786005584296336 -0.0031787169442449486 0.0 0.0
0.0 0.04796896892141851 0.041894583750717175 -0.04071598319228725 -0.00117860055842992 0.003178716944260025 0.0 0.0
0.0 0.04408621378061328 0.03840016421985444 -0.03726929026719465 -0.0011308739526597826 0.006350979488784511 0.0 0.0
0.0 0.0380762193570183 0.03307970240581708 -0.032011858037306856 -0.001067844368510206 0.007663903715020275 0.0 0.0
0.0 0.03110179418880494 0.026930468431206316 -0.0259270795546614 -0.0010033888765449144 0.007461022988730052 0.0 0.0
0.0 0.02410088258729762 0.020746293793313646 -0.019807918792908382 -0.0009383750004052682 0.006330597394928662 0.0 0.0
0.0 0.017462562726981934 0.015131519292947725 -0.014263617973989834 -0.0008679013189578907 0.004869091615374706 0.0 0.0
0.0 0.012036396715518819 0.010494501043202084 -0.00970362339497969 -0.0007908776482223941 0.0034928487510841265 0.0 0.0
0.0 0.008054847001213084 0.007010005334538721 -0.006310403239884575 -0.0006996020946541449 0.002435749599872019 0.0 0.0
0.0 0.005202391995538813 0.0045997554820808246 -0.004009350022574928 -0.0005904054595058958 0.001730061377982005 0.0 0.0
0.0 0.0033566412597960606 0.0029886596906779166 -0.00252073995051842 -0.000467919740159495 0.0012522972393180334 0.0 0.0
0.0 0.0021205209146418174 0.00189866527712172 -0.0015557140607709184 -0.00034295121635080156 0.0009101596372821815 0.0 0.0
0.0 0.0012738332864736747 0.0011278389695907973 -0.0009037253643488321 -0.000224113605241965 0.000637497256679793 0.0 0.0
0.0 0.0006742244603141774 0.0005354627164318688 -0.00042066283099768384 -0.00011479988543418486 0.0003631120666029718 0.0 0.0
0.0 0.00031001403927956994 0.00010368565830313781 -8.055584328217101e-05 -2.31298150209671e-05 8.691170873198492e-05 0.0 0.0
0.0 7.250247456071384e-05 -8.245303495131158e-06 6.288101978211532e-06 1.9572015169198368e-06 -8.255592955317037e-06 0.0 0.0
0.0 1.2143276687644073e-05 -1.414772604191538e-06 1.08333676583293e-06 3.314358383585568e-07 -1.875812607715943e-06 0.0 0.0
0.0 0.0 0.0 0.0 0.0 0.0 0.0 0.0
0.0 0.0 0.0 0.0 0.0 0.0 0.0 0.0
0.0 0.0 0.0 0.0 0.0 0.0 0.0 0.0
0.0 0.0007969584609120918 0.0004336975974808844 -0.0005887669908432336 0.00015506939336234918 0.000571006856886081 0.0 0.0
0.0 0.000433030622795974 0.00021757481838633635 -0.00030700820018794803 8.94333818016116e-05 -0.00028733026406378866 0.0 0.0
0.0 0.0 0.0 0.0 0.0 0.0 0.0 0.0
0.0 0.0 0.0 0.0 0.0 0.0 0.0 0.0
0.0 0.0 0.0 0.0 0.0 0.0 0.0 0.0
0.0 1.0042081989539105e-05 -9.329724215915323e-07 7.201815348681859e-07 2.1279088672333964e-07 1.7612736881498078e-06 0.0 0.0
0.0 1.7649088560287213e-05 1.1568905031007536e-08 -7.820208302082556e-08 6.663317798985635e-08 -5.573053923030373e-07 0.0 0.0
0.0 0.0001239881760445635 2.0074373329458843e-05 -1.544547222944145e-05 -4.6289011000172515e-06 -2.4041641428883257e-05 0.0 0.0
0.0 0.0003773151745603082 0.00020376842795369836 -0.00015846973124033608 -4.5298696713362396e-05 -0.00020462848587479067 0.0 0.0
0.0 0.0008024189553907835 0.0006286550440081288 -0.0004959638712143658 -0.00013269117279376296 -0.000510607172707477 0.0 0.0
0.0 0.0014231792489951631 0.0012281924807236093 -0.0009884824685936176 -0.00023971001212999102 -0.0008358199588892708 0.0 0.0
0.0 0.0023466791990665167 0.0020604279890995775 -0.0017020925335001207 -0.00035833545559945675 -0.0011959821549584575 0.0 0.0
0.0 0.003785818910613317 0.0033057286389397843 -0.002821690976444178 -0.00048403766249560524 -0.0016870594190341406 0.0 0.0
0.0 0.006000142055378008 0.0052009781575482585 -0.004596855088192764 -0.000604123069355493 -0.0024113082900642283 0.0 0.0
0.0 0.009276913860373222 0.007983088349907895 -0.007276549734995058 -0.0007065386149128386 -0.0034670631671634513 0.0 0.0
0.0 0.013768690288064635 0.011754667976418796 -0.010967386280002043 -0.0007872816964167525 -0.004861607630904615 0.0 0.0
0.0 0.01906638774594132 0.01640344909734556 -0.01554944950595431 -0.000853999591391247 -0.006375228225392946 0.0 0.0
0.0 0.02518265828663046 0.021594826172321318 -0.02068257116848956 -0.0009122550038317673 -0.007538453443795331 0.0 0.0
0.0 0.03128194544843545 0.026896364727560552 -0.025929726586993516 -0.0009666381405670397 -0.007848356071059348 0.0 0.0
0.0 0.036520115115166035 0.031711272834555396 -0.030689305426414515 -0.00102196740814087 -0.006699247088357341 0.0 0.0
0.0 0.04026055388719191 0.03511831784545309 -0.03404858349534798 -0.0010697343501051017 -0.0034904218613887867 0.0 0.0
0.0 0.040260553887190215 0.03511831784545129 -0.03404858349534612 -0.0010697343501051694 0.0034904218614027955 0.0 0.0
0.0 0.036520115115163065 0.031711272834551954 -0.030689305426411025 -0.0010219674081409164 0.006699247088374312 0.0 0.0
0.0 0.03128194544843302 0.02689636472755752 -0.025929726586990456 -0.0009666381405670628 0.007848356071071951 0.0 0.0
0.0 0.025182658286627742 0.02159482617231847 -0.02068257116848677 -0.0009122550038316959 0.007538453443800685 0.0 0.0
0.0 0.019066387745938072 0.016403449097342527 -0.015549449505951593 -0.0008539995913909278 0.0063752282253928625 0.0 0.0
0.0 0.013768690288060607 0.01175466797641508 -0.01096738627999866 -0.0007872816964164183 0.004861607630903745 0.0 0.0
0.0 0.009276913860370042 0.007983088349904776 -0.007276549734992325 -0.0007065386149124487 0.0034670631671629105 0.0 0.0
0.0 0.0060001420553732025 0.0052009781575437855 -0.00459685508818869 -0.0006041230693550948 0.00241130829006314 0.0 0.0
0.0 0.003785818910608656 0.003305728638935505 -0.0028216909764403678 -0.0004840376624951365 0.0016870594190321266 0.0 0.0
0.0 0.002346679199062307 0.0020604279890956718 -0.0017020925334968132 -0.0003583354555988577 0.0011959821549563493 0.0 0.0
0.0 0.0014231792489912505 0.0012281924807200995 -0.0009884824685907313 -0.0002397100121293679 0.0008358199588864887 0.0 0.0
0.0 0.0008024189553879639 0.0006286550440055969 -0.0004959638712123805 -0.00013269117279321612 0.0005106071727057755 0.0 0.0
0.0 0.00037731517455811625 0.00020376842795198944 -0.0001584697312389991 -4.52986967129905e-05 0.00020462848587333033 0.0 0.0
0.0 0.00012398817604363928 2.0074373329221908e-05 -1.5445472229253448e-05 -4.628901099968416e-06 2.4041641428526147e-05 0.0 0.0
0.0 1.7649088559719684e-05 1.1568905225892453e-08 -7.820208317281842e-08 6.663317794696292e-08 5.573053926198611e-07 0.0 0.0
0.0 1.0042081989046382e-05 -9.329724215423734e-07 7.201815348297952e-07 2.1279088671252578e-07 -1.761273688053899e-06 0.0 0.0
0.0 0.0 0.0 0.0 0.0 0.0 0.0 0.0
0.0 0.0 0.0 0.0 0.0 0.0 0.0 0.0
0.0 0.0 0.0 0.0 0.0 0.0 0.0 0.0
0.0 0.00043303062279348225 0.00021757481838510797 -0.0003070082001862798 8.94333818011717e-05 0.0002873302640619649 0.0 0.0
0.0 0.00021192790442933193 7.874146615734897e-05 -0.00011206095430256477 3.331948814521618e-05 -0.0001102030487850662 0.0 0.0
0.0 0.0 0.0 0.0 0.0 0.0 0.0 0.0
0.0 0.0 0.0 0.0 0.0 0.0 0.0 0.0
0.0 0.0 0.0 0.0 0.0 0.0 0.0 0.0
0.0 2.9907217658585273e-06 -2.155506659266339e-07 1.6308986624094133e-07 5.2460799685675945e-08 5.605213240180933e-07 0.0 0.0
0.0 2.658242930864141e-05 -2.457380404714994e-06 1.8939807852861015e-06 5.63399619428864e-07 5.6578118203109945e-06 0.0 0.0
0.0 5.1050882813838905e-05 2.0684743174039725e-06 -1.6420944829672591e-06 -4.263798344367328e-07 -4.276827195770747e-06 0.0 0.0
0.0 0.00016829551929676973 4.871506242787633e-05 -3.754436512177116e-05 -1.1170697306105213e-05 -7.176184225104336e-05 0.0 0.0
0.0 0.0004118080989672149 0.00022916167840485255 -0.00017837811989832811 -5.0783558506524216e-05 -0.00028158275227204517 0.0 0.0
0.0 0.0008154409512195286 0.0006250177775930754 -0.0004934212022910504 -0.00013159657530202509 -0.0006241331384382609 0.0 0.0
0.0 0.0014531958543853346 0.001213675119047155 -0.0009799229968319538 -0.00023375212221520103 -0.0010130715591752356 0.0 0.0
0.0 0.002478036764113732 0.002103424555723693 -0.0017493566098701959 -0.00035406794585349634 -0.0014943705041288126 0.0 0.0
0.0 0.004128241090142813 0.0034921840939141835 -0.0030105529435457677 -0.00048163115036841514 -0.0021841570475236364 0.0 0.0
0.0 0.0065817161912552 0.00558656667622694 -0.004987154843752918 -0.0005994118324740192 -0.0031857284458276292 0.0 0.0
0.0 0.010033534545712116 0.008483214337784904 -0.007792430302440451 -0.0006907840353444524 -0.004494727234051634 0.0 0.0
0.0 0.014350815620016994 0.01212840713033606 -0.01136737624338538 -0.0007610308869506799 -0.005924115873079887 0.0 0.0
0.0 0.019159002787618513 0.016293690959263453 -0.015478706770104898 -0.0008149841891585577 -0.007091254924552829 0.0 0.0
0.0 0.024176524308196567 0.020684356597747845 -0.01982383354356878 -0.0008605230541790705 -0.007513029516896263 0.0 0.0
0.0 0.02900184751812502 0.024920086156015583 -0.024013196299111098 -0.0009068898569044891 -0.006635378142519225 0.0 0.0
0.0 0.032668686785779215 0.02823848538305955 -0.027282775588059374 -0.00095570979500017 -0.003685724669005768 0.0 0.0
0.0 0.032668686785779694 0.02823848538305958 -0.027282775588059596 -0.000955709794999977 0.00368572466901773 0.0 0.0
0.0 0.029001847518123406 0.024920086156013217 -0.024013196299108898 -0.0009068898569043189 0.006635378142534112 0.0 0.0
0.0 0.02417652430819471 0.02068435659774521 -0.01982383354356644 -0.0008605230541787641 0.007513029516906663 0.0 0.0
0.0 0.0191590027876152 0.016293690959260053 -0.015478706770101743 -0.0008149841891583068 0.007091254924556417 0.0 0.0
0.0 0.014350815620013741 0.012128407130333172 -0.011367376243382781 -0.0007610308869503855 0.00592411587307929 0.0 0.0
0.0 0.010033534545709202 0.008483214337782208 -0.007792430302438052 -0.0006907840353441542 0.004494727234050807 0.0 0.0
0.0 0.00658171619125252 0.005586566676224373 -0.00498715484375066 -0.0005994118324737125 0.0031857284458267684 0.0 0.0
0.0 0.004128241090140189 0.0034921840939116607 -0.0030105529435436205 -0.0004816311503680391 0.0021841570475229517 0.0 0.0
0.0 0.002478036764110549 0.0021034245557206535 -0.0017493566098676723 -0.00035406794585298096 0.00149437050412692 0.0 0.0
0.0 0.0014531958543823665 0.0012136751190444835 -0.0009799229968297572 -0.00023375212221472596 0.0010130715591729201 0.0 0.0
0.0 0.0008154409512165084 0.0006250177775905307 -0.0004934212022890037 -0.00013159657530152695 0.0006241331384356386 0.0 0.0
0.0 0.00041180809896548397 0.00022916167840359808 -0.00017837811989735174 -5.078355850624641e-05 0.00028158275227077297 0.0 0.0
0.0 0.00016829551929580547 4.871506242768387e-05 -3.7544365121627355e-05 -1.1170697306056392e-05 7.176184225070155e-05 0.0 0.0
0.0 5.105088281316311e-05 2.0684743174634216e-06 -1.6420944830159694e-06 -4.2637983444733045e-07 4.276827195879435e-06 0.0 0.0
0.0 2.6582429308295138e-05 -2.4573804046819166e-06 1.8939807852611378e-06 5.633996194208481e-07 -5.657811820230416e-06 0.0 0.0
0.0 2.9907217656103365e-06 -2.155506659071854e-07 1.6308986622631032e-07 5.246079968089243e-08 -5.605213239670155e-07 0.0 0.0
0.0 0.0 0.0 0.0 0.0 0.0 0.0 0.0
0.0 0.0 0.0 0.0 0.0 0.0 0.0 0.0
0.0 0.0 0.0 0.0 0.0 0.0 0.0 0.0
0.0 0.0002119279044275167 7.874146615676103e-05 -0.00011206095430172542 3.331948814496457e-05 0.00011020304878429076 0.0 0.0
0.0 8.102458769143168e-05 2.7043758740583854e-07 -2.1069686405701634e-07 -5.974072334870214e-08 3.477536262296857e-07 0.0 0.0
0.0 0.0 0.0 0.0 0.0 0.0 0.0 0.0
0.0 0.0 0.0 0.0 0.0 0.0 0.0 0.0
0.0 0.0 0.0 0.0 0.0 0.0 0.0 0.0
0.0 0.0 0.0 0.0 0.0 0.0 0.0 0.0
0.0 1.7011890293375043e-05 -1.0712005918851233e-06 8.42342080148463e-07 2.2885851173667705e-07 3.948518221257476e-06 0.0 0.0
0.0 2.7737450707799755e-05 3.8039269216161384e-07 -2.1463398732911314e-07 -1.6575870483247402e-07 1.935915450187553e-08 0.0 0.0
0.0 6.578282408903794e-05 9.22260110758155e-06 -7.0949734984869855e-06 -2.127627609094771e-06 -2.116808214110628e-05 0.0 0.0
0.0 0.00020147246991668452 4.4454384062180284e-05 -3.4588109586645634e-05 -9.866274475534688e-06 -9.439011125613817e-05 0.0 0.0
0.0 0.0003178527204937799 0.00019210136018217873 -0.00014960039018791424 -4.250096999426429e-05 -0.00033575119382992083 0.0 0.0
0.0 0.0007416240708591851 0.0004896187894960535 -0.0003864971990199382 -0.00010312159047611512 -0.0006646469540918115 0.0 0.0
0.0 0.0013416167784405092 0.0010374251551512872 -0.0008372403834298774 -0.0002001847717214098 -0.0011294757031268265 0.0 0.0
0.0 0.0023904993600554272 0.0019320005837395724 -0.0016105627014319074 -0.00032143788230766404 -0.0017594846035121903 0.0 0.0
0.0 0.00408528457685218 0.003340130841011993 -0.0028899673888928275 -0.00045016345211916535 -0.002640527568136304 0.0 0.0
0.0 0.006567785092009797 0.005358468899854251 -0.004796794324151593 -0.0005616745757026566 -0.0037748197650974 0.0 0.0
0.0 0.009697491482331476 0.007975182417046998 -0.007331345067784023 -0.0006438373492629777 -0.005030540552232317 0.0 0.0
0.0 0.013388936484491954 0.011064695311580814 -0.010361652866241211 -0.0007030424453396021 -0.006082008321010103 0.0 0.0
0.0 0.01722645569788507 0.014472376370563603 -0.013725375021626691 -0.0007470013489369078 -0.006577966846658713 0.0 0.0
0.0 0.021126640189826917 0.018026374679225892 -0.01724514871218331 -0.0007812259670425766 -0.0061140296775732475 0.0 0.0
0.0 0.024562333042368385 0.021214427887640993 -0.020385497406054217 -0.0008289304815867688 -0.003747997330294747 0.0 0.0
0.0 0.02456233304236733 0.021214427887639734 -0.020385497406052895 -0.0008289304815868334 0.00374799733030338 0.0 0.0
0.0 0.021126640189825564 0.018026374679223793 -0.017245148712181024 -0.0007812259670427695 0.006114029677584908 0.0 0.0
0.0 0.017226455697884287 0.014472376370562085 -0.01372537502162513 -0.0007470013489369542 0.006577966846666844 0.0 0.0
0.0 0.013388936484490377 0.011064695311579017 -0.010361652866239638 -0.0007030424453393771 0.006082008321012912 0.0 0.0
0.0 0.009697491482329935 0.007975182417045631 -0.00733134506778309 -0.0006438373492625391 0.005030540552231306 0.0 0.0
0.0 0.006567785092006613 0.005358468899851622 -0.00479679432414913 -0.0005616745757024911 0.003774819765095864 0.0 0.0
0.0 0.004085284576850369 0.0033401308410102464 -0.0028899673888913647 -0.0004501634521188812 0.0026405275681356906 0.0 0.0
0.0 0.0023904993600545746 0.0019320005837385695 -0.0016105627014312272 -0.00032143788230734285 0.0017594846035120513 0.0 0.0
0.0 0.001341616778438368 0.0010374251551495779 -0.0008372403834284827 -0.00020018477172109524 0.0011294757031253115 0.0 0.0
0.0 0.0007416240708572181 0.0004896187894945888 -0.00038649719901880943 -0.00010312159047577954 0.0006646469540901825 0.0 0.0
0.0 0.0003178527204927878 0.00019210136018158488 -0.00014960039018749335 -4.25009699940917e-05 0.0003357511938287778 0.0 0.0
0.0 0.00020147246991593202 4.445438406191051e-05 -3.458810958643689e-05 -9.866274475473535e-06 9.439011125556018e-05 0.0 0.0
0.0 6.578282408841331e-05 9.222601107410921e-06 -7.0949734983508165e-06 -2.1276276090600863e-06 2.1168082140703054e-05 0.0 0.0
0.0 2.7737450707471116e-05 3.8039269216943026e-07 -2.1463398733567976e-07 -1.6575870483375055e-07 -1.9359154467393665e-08 0.0 0.0
0.0 1.701189029290454e-05 -1.0712005918517917e-06 8.423420801224218e-07 2.2885851172940093e-07 -3.9485182211370824e-06 0.0 0.0
0.0 0.0 0.0 0.0 0.0 0.0 0.0 0.0
0.0 0.0 0.0 0.0 0.0 0.0 0.0 0.0
0.0 0.0 0.0 0.0 0.0 0.0 0.0 0.0
0.0 0.0 0.0 0.0 0.0 0.0 0.0 0.0
0.0 8.102458769011478e-05 2.7043758727279825e-07 -2.1069686385851634e-07 -5.974072341427235e-08 -3.477536263843635e-07 0.0 0.0
0.0 1.7453561703749313e-05 -1.4753689968497317e-06 2.1725454045623146e-06 -6.971764077126284e-07 2.482620562481138e-06 0.0 0.0
0.0 0.0 0.0 0.0 0.0 0.0 0.0 0.0
0.0 0.0 0.0 0.0 0.0 0.0 0.0 0.0
0.0 0.0 0.0 0.0 0.0 0.0 0.0 0.0
0.0 0.0 0.0 0.0 0.0 0.0 0.0 0.0
0.0 1.669848219011466e-05 -6.754141313205313e-07 5.129785862102976e-07 1.624355451102145e-07 4.126874192673731e-06 0.0 0.0
0.0 2.565979989433878e-05 -1.2765519214255931e-06 9.81214558184713e-07 2.953373632408789e-07 6.537299624614174e-06 0.0 0.0
0.0 2.2146755781179578e-05 3.096471749557975e-06 -2.4224989755954767e-06 -6.739727739625428e-07 -1.34384674190952e-05 0.0 0.0
0.0 7.854081087083737e-05 8.07380636915084e-06 -6.173147307098001e-06 -1.9006590620529065e-06 -2.6621902376314016e-05 0.0 0.0
0.0 0.00015581580798874157 4.476854775518288e-05 -3.447331641002755e-05 -1.029523134515546e-05 -0.0001430439473506044 0.0 0.0
0.0 0.0002480382834908092 0.00011801904761055516 -9.274682568093573e-05 -2.5272221929619465e-05 -0.0003470245314647982 0.0 0.0
0.0 0.0005242851882121594 0.0002690623070764847 -0.00021162786606618295 -5.743444101030192e-05 -0.0006333911307663065 0.0 0.0
0.0 0.0010216998975015757 0.000636517840982155 -0.0005089299772975082 -0.00012758786368464656 -0.0011403730432395297 0.0 0.0
0.0 0.0019560664673710015 0.001351932570322106 -0.0011156485671061816 -0.00023628400321592445 -0.0018688993385510978 0.0 0.0
0.0 0.003392734421746834 0.002481044943117281 -0.0021249879519948532 -0.00035605699112242723 -0.0027859020390691765 0.0 0.0
0.0 0.005331333231708497 0.004040524175294277 -0.003579788821873463 -0.0004607353534208142 -0.0037978694017734207 0.0 0.0
0.0 0.007758813095367859 0.006004151589996282 -0.005465406212039722 -0.000538745377956559 -0.0047090339375487535 0.0 0.0
0.0 0.010521305401346125 0.00835623854191751 -0.007755225932303881 -0.0006010126096136278 -0.005199731288807305 0.0 0.0
0.0 0.013568557484109695 0.01106968673584758 -0.010432481793106765 -0.0006372049427408195 -0.005058839407337662 0.0 0.0
0.0 0.01662924809703224 0.013989377611156656 -0.013312529042771158 -0.0006768485683854993 -0.003586906088349829 0.0 0.0
0.0 0.016629248097032145 0.013989377611156208 -0.013312529042770773 -0.0006768485683854328 0.0035869060883550663 0.0 0.0
0.0 0.013568557484107742 0.01106968673584517 -0.010432481793104414 -0.0006372049427407515 0.005058839407345128 0.0 0.0
0.0 0.010521305401343918 0.008356238541914987 -0.007755225932301502 -0.0006010126096134858 0.005199731288811842 0.0 0.0
0.0 0.007758813095366831 0.00600415158999524 -0.005465406212038804 -0.0005387453779564347 0.004709033937549912 0.0 0.0
0.0 0.005331333231707442 0.004040524175293527 -0.003579788821872861 -0.0004607353534206651 0.0037978694017722385 0.0 0.0
0.0 0.0033927344217453406 0.00248104494311599 -0.002124987951993776 -0.0003560569911222143 0.0027859020390681977 0.0 0.0
0.0 0.0019560664673696155 0.0013519325703209304 -0.001115648567105136 -0.0002362840032157943 0.0018688993385502348 0.0 0.0
0.0 0.0010216998975009625 0.0006365178409815511 -0.0005089299772969838 -0.00012758786368456725 0.0011403730432390817 0.0 0.0
0.0 0.0005242851882112452 0.0002690623070757735 -0.00021162786606561526 -5.7434441010158194e-05 0.0006333911307650115 0.0 0.0
0.0 0.0002480382834898192 0.00011801904761018313 -9.274682568065932e-05 -2.5272221929523767e-05 0.00034702453146367453 0.0 0.0
0.0 0.00015581580798768526 4.4768547754866545e-05 -3.447331640977106e-05 -1.0295231345095587e-05 0.00014304394734949532 0.0 0.0
0.0 7.854081087061527e-05 8.073806369032853e-06 -6.173147307003077e-06 -1.900659062029798e-06 2.662190237589978e-05 0.0 0.0
0.0 2.2146755780936652e-05 3.0964717495894865e-06 -2.4224989756208306e-06 -6.739727739686784e-07 1.3438467419257561e-05 0.0 0.0
0.0 2.5659799894061404e-05 -1.2765519214109056e-06 9.812145581733674e-07 2.953373632375001e-07 -6.5372996245374225e-06 0.0 0.0
0.0 1.6698482189689227e-05 -6.754141313023855e-07 5.129785861963078e-07 1.6243554510606457e-07 -4.126874192556078e-06 0.0 0.0
0.0 0.0 0.0 0.0 0.0 0.0 0.0 0.0
0.0 0.0 0.0 0.0 0.0 0.0 0.0 0.0
0.0 0.0 0.0 0.0 0.0 0.0 0.0 0.0
0.0 0.0 0.0 0.0 0.0 0.0 0.0 0.0
0.0 1.7453561703325207e-05 -1.4753689968113136e-06 2.1725454045062258e-06 -6.971764076948689e-07 -2.482620562415128e-06 0.0 0.0
0.0 6.68916252951612e-06 -5.153453704076516e-07 7.454773120171683e-07 -2.301319416094428e-07 1.0206774413974177e-06 0.0 0.0
0.0 9.058458586408483e-07 7.524644947399427e-10 2.6921535547623604e-09 -3.4446180495020276e-09 1.904316725388036e-07 0.0 0.0
0.0 0.0 0.0 0.0 0.0 0.0 0.0 0.0
0.0 0.0 0.0 0.0 0.0 0.0 0.0 0.0
0.0 0.0 0.0 0.0 0.0 0.0 0.0 0.0
0.0 1.2649162497041946e-05 -1.40816357743154e-07 1.0163524973838207e-07 3.9181108004787066e-08 3.1244596390112657e-06 0.0 0.0
0.0 1.4176057102563801e-05 -2.2486424485998372e-07 1.691391884958289e-07 5.572505636415627e-08 3.543479186671418e-06 0.0 0.0
0.0 4.344045398856406e-05 -8.629206305107163e-07 6.677074154137937e-07 1.9521321509690724e-07 1.1897076210419883e-05 0.0 0.0
0.0 3.81834746296437e-05 5.40150644228898e-07 -3.945827406797386e-07 -1.4556790354913362e-07 -4.094969520598629e-06 0.0 0.0
0.0 0.00010095547446850416 3.503363237986682e-06 -2.6159425240095138e-06 -8.874207139771439e-07 -2.8356804318979967e-05 0.0 0.0
0.0 0.00013031880788182172 2.4181387650630926e-05 -1.879240512521084e-05 -5.388982525420083e-06 -0.00021272253878444614 0.0 0.0
0.0 0.00024497750077840134 5.109940971740819e-05 -4.005976540384462e-05 -1.1039644313563549e-05 -0.0004060497020978996 0.0 0.0
0.0 0.000437548004635797 0.00010257494714036295 -8.135102859942428e-05 -2.122391854093868e-05 -0.000719618495602484 0.0 0.0
0.0 0.0007682624676341623 0.00019839243879167973 -0.00015993021500753177 -3.846222378414795e-05 -0.0012331867980108122 0.0 0.0
0.0 0.0012928292548540295 0.000410397106947428 -0.0003354016963523933 -7.499541059503464e-05 -0.0020030331454688735 0.0 0.0
0.0 0.002093385432242744 0.0008161677642376303 -0.0006720954057720883 -0.00014407235846554184 -0.002946508560273402 0.0 0.0
0.0 0.003158847702181017 0.0014875146854857633 -0.0012667971989126807 -0.00022071748657308247 -0.003885739499774432 0.0 0.0
0.0 0.004651229909442156 0.0026782198517871043 -0.0023695539632829863 -0.00030866588850411724 -0.00440915070105446 0.0 0.0
0.0 0.0065313602456266336 0.004384502765649774 -0.003981291936385199 -0.0004032108292645739 -0.004216321840822738 0.0 0.0
0.0 0.008875095624312037 0.006680111595065752 -0.00624492864088058 -0.00043518295418517173 -0.003402756258143876 0.0 0.0
0.0 0.008875095624313547 0.006680111595066643 -0.0062449286408815755 -0.0004351829541850658 0.003402756258146584 0.0 0.0
0.0 0.00653136024562756 0.00438450276564956 -0.0039812919363850915 -0.0004032108292644667 0.004216321840828876 0.0 0.0
0.0 0.004651229909442935 0.0026782198517871954 -0.002369553963283187 -0.00030866588850400834 0.004409150701057297 0.0 0.0
0.0 0.003158847702180657 0.0014875146854853086 -0.0012667971989122747 -0.00022071748657303354 0.003885739499775226 0.0 0.0
0.0 0.0020933854322418574 0.0008161677642374074 -0.0006720954057718028 -0.00014407235846560532 0.002946508560271894 0.0 0.0
0.0 0.0012928292548536006 0.00041039710694734584 -0.0003354016963523152 -7.49954105950306e-05 0.002003033145468335 0.0 0.0
0.0 0.0007682624676339176 0.00019839243879157678 -0.00015993021500740768 -3.8462223784169105e-05 0.0012331867980105023 0.0 0.0
0.0 0.0004375480046356825 0.00010257494714041144 -8.135102859953248e-05 -2.1223918540878937e-05 0.0007196184956022978 0.0 0.0
0.0 0.0002449775007779545 5.1099409717328214e-05 -4.005976540376808e-05 -1.103964431356014e-05 0.0004060497020971091 0.0 0.0
0.0 0.00013031880788139227 2.418138765057093e-05 -1.8792405125176542e-05 -5.388982525394386e-06 0.00021272253878367202 0.0 0.0
0.0 0.00010095547446778403 3.5033632379200346e-06 -2.6159425239529006e-06 -8.874207139671216e-07 2.835680431835603e-05 0.0 0.0
0.0 3.818347462951975e-05 5.401506442100757e-07 -3.9458274066470166e-07 -1.4556790354537057e-07 4.0949695204285785e-06 0.0 0.0
0.0 4.3440453988372724e-05 -8.6292063050855e-07 6.677074154134513e-07 1.952132150950957e-07 -1.1897076210370125e-05 0.0 0.0
0.0 1.417605710230505e-05 -2.248642448555074e-07 1.6913918849185627e-07 5.57250563636424e-08 -3.5434791865988037e-06 0.0 0.0
0.0 1.2649162496547092e-05 -1.4081635773750347e-07 1.0163524973413121e-07 3.9181108003369014e-08 -3.12445963887376e-06 0.0 0.0
0.0 0.0 0.0 0.0 0.0 0.0 0.0 0.0
0.0 0.0 0.0 0.0 0.0 0.0 0.0 0.0
0.0 0.0 0.0 0.0 0.0 0.0 0.0 0.0
0.0 9.058458584084025e-07 7.524644945423904e-10 2.6921535540279696e-09 -3.444618048570202e-09 -1.9043167248770486e-07 0.0 0.0
0.0 6.689162529289989e-06 -5.153453703880834e-07 7.454773119888672e-07 -2.301319416007173e-07 -1.0206774413583178e-06 0.0 0.0
0.0 0.0 0.0 0.0 0.0 0.0 0.0 0.0
0.0 0.0 0.0 0.0 0.0 0.0 0.0 0.0
0.0 0.0 0.0 0.0 0.0 0.0 0.0 0.0
0.0 0.0 0.0 0.0 0.0 0.0 0.0 0.0
0.0 6.329568722991083e-06 1.2100159608131477e-07 -9.957492898929318e-08 -2.142666709203334e-08 1.4508070408241616e-06 0.0 0.0
0.0 1.6603222805849884e-05 2.923750411405768e-07 -2.3536244238526396e-07 -5.7012598755332366e-08 4.230645678688613e-06 0.0 0.0
0.0 1.535707491913172e-05 2.712026432218339e-07 -2.1013859332736445e-07 -6.106404989446863e-08 3.874607379288849e-06 0.0 0.0
0.0 4.3532176182915576e-05 8.663879479145466e-07 -6.733993046326267e-07 -1.929886432818682e-07 1.1918636471881699e-05 0.0 0.0
0.0 3.7968563685208915e-05 -5.247962532963821e-07 3.824801024920261e-07 1.4231615080436015e-07 -3.996242534632107e-06 0.0 0.0
0.0 0.00010073048787671577 -3.470480976104638e-06 2.586221733525912e-06 8.842592425787144e-07 -2.8206642745821736e-05 0.0 0.0
0.0 0.00013109081721723124 -2.3750730774260835e-05 1.8508759329409835e-05 5.2419714448509786e-06 -0.0002119636093120656 0.0 0.0
0.0 0.0002448589572036398 -5.101924072325271e-05 4.007740081202949e-05 1.0941839911223222e-05 -0.000405675576037604 0.0 0.0
0.0 0.00043719950562388194 -0.0001035870827012787 8.26360408593473e-05 2.0951041841931392e-05 -0.0007184141079431687 0.0 0.0
0.0 0.0007705430054592821 -0.00020163098406115318 0.00016279982619699402 3.8831157864159145e-05 -0.001231974519370823 0.0 0.0
0.0 0.0012933918406760553 -0.0004015613629706462 0.0003225849977653793 7.897636520526674e-05 -0.002015052402817922 0.0 0.0
0.0 0.0020449350370383393 -0.0006865009950187535 0.0005439091421606434 0.00014259185285811016 -0.003000787277011264 0.0 0.0
0.0 0.002837012815292083 -0.0009023698674149109 0.0007046472670093893 0.0001977226004055213 -0.004110896407464427 0.0 0.0
0.0 0.003549198415847069 -0.0008284904920920386 0.0006093178498713992 0.0002191726422206397 -0.005287832999455379 0.0 0.0
0.0 0.0038445073907339236 -0.0003252894978646367 0.00019408364748718518 0.00013120585037745158 -0.0062253506875264075 0.0 0.0
0.0 0.0035824249275619845 0.0007852631705460585 -0.0008349936787110269 4.973050816496779e-05 -0.0052607188480677265 0.0 0.0
0.0 0.0035824249275633103 0.0007852631705458892 -0.0008349936787110683 4.9730508165179234e-05 0.005260718848071283 0.0 0.0
0.0 0.003844507390736619 -0.0003252894978646897 0.00019408364748734754 0.00013120585037734234 0.006225350687531899 0.0 0.0
0.0 0.0035491984158477277 -0.0008284904920919682 0.0006093178498713639 0.00021917264222060388 0.005287832999457374 0.0 0.0
0.0 0.002837012815291815 -0.00090236986741451 0.0007046472670090894 0.00019772260040542037 0.004110896407464646 0.0 0.0
0.0 0.0020449350370373267 -0.0006865009950181933 0.0005439091421601645 0.0001425918528580288 0.0030007872770098235 0.0 0.0
0.0 0.0012933918406755121 -0.0004015613629703567 0.00032258499776511944 7.897636520523721e-05 0.002015052402817216 0.0 0.0
0.0 0.0007705430054589773 -0.0002016309840610302 0.00016279982619690352 3.883115786412667e-05 0.0012319745193704165 0.0 0.0
0.0 0.00043719950562371573 -0.00010358708270110777 8.26360408592049e-05 2.0951041841902843e-05 0.0007184141079429496 0.0 0.0
0.0 0.0002448589572031673 -5.101924072308874e-05 4.007740081188473e-05 1.0941839911203986e-05 0.00040567557603681984 0.0 0.0
0.0 0.00013109081721694585 -2.3750730774175654e-05 1.85087593293775e-05 5.241971444798152e-06 0.00021196360931129387 0.0 0.0
0.0 0.00010073048787596396 -3.4704809760206008e-06 2.586221733461382e-06 8.842592425592696e-07 2.8206642745061632e-05 0.0 0.0
0.0 3.796856368501373e-05 -5.247962532822783e-07 3.8248010247975085e-07 1.423161508025265e-07 3.996242534528176e-06 0.0 0.0
0.0 4.353217618270295e-05 8.663879479066889e-07 -6.733993046234226e-07 -1.9298864328323552e-07 -1.1918636471827977e-05 0.0 0.0
0.0 1.5357074918777994e-05 2.712026432142856e-07 -2.1013859332089264e-07 -6.106404989340121e-08 -3.874607379188645e-06 0.0 0.0
0.0 1.660322280540092e-05 2.923750411319481e-07 -2.353624423789323e-07 -5.7012598753028695e-08 -4.230645678559954e-06 0.0 0.0
0.0 6.329568722541222e-06 1.2100159607286122e-07 -9.95749289822081e-08 -2.1426667090650783e-08 -1.4508070407127971e-06 0.0 0.0
0.0 0.0 0.0 0.0 0.0 0.0 0.0 0.0
0.0 0.0 0.0 0.0 0.0 0.0 0.0 0.0
0.0 0.0 0.0 0.0 0.0 0.0 0.0 0.0
0.0 0.0 0.0 0.0 0.0 0.0 0.0 0.0
0.0 0.0 0.0 0.0 0.0 0.0 0.0 0.0
0.0 0.0 0.0 0.0 0.0 0.0 0.0 0.0
0.0 1.1358547083792243e-06 2.9199022431756486e-08 -2.4414515401068504e-08 -4.784507030685914e-09 2.3110359978051093e-07 0.0 0.0
0.0 4.433390297601944e-06 1.6015753021163607e-07 -1.3149237797341269e-07 -2.8665152238211024e-08 9.616929248813422e-07 0.0 0.0
0.0 5.593573495796702e-06 2.2488050829672393e-07 -1.783306916581879e-07 -4.6549816638530954e-08 1.2502688499216848e-06 0.0 0.0
0.0 1.5193019753149584e-05 6.075697492807933e-07 -5.003829957410301e-07 -1.0718675353973588e-07 3.7538488162118154e-06 0.0 0.0
0.0 2.8874588975334116e-05 1.4761258872071086e-06 -1.1479462079847123e-06 -3.281796792223996e-07 7.406783622865839e-06 0.0 0.0
0.0 2.2275802867134404e-05 -2.99597298395595e-06 2.3450636861869774e-06 6.50909297768971e-07 -1.3014374500689907e-05 0.0 0.0
0.0 7.778818345557943e-05 -7.912522205248942e-06 6.0442257544063926e-06 1.868296450842593e-06 -2.6099419698399605e-05 0.0 0.0
0.0 0.00015485868669520757 -4.4596751017140646e-05 3.4317214034309675e-05 1.027953698283094e-05 -0.00014261927086183055 0.0 0.0
0.0 0.0002475617441492404 -0.00011779086729106047 9.253838311603156e-05 2.5252484175028932e-05 -0.0003468755497351886 0.0 0.0
0.0 0.0005233116136062602 -0.00026850090788887993 0.00021125599508434637 5.724491280453351e-05 -0.0006326053262543358 0.0 0.0
0.0 0.0010218686824543864 -0.000637278190223885 0.0005103416786232819 0.00012693651160060283 -0.001135873176905467 0.0 0.0
0.0 0.001965026361706453 -0.0013611297771916153 0.0011244472795186823 0.00023668249767293286 -0.0018607479293545465 0.0 0.0
0.0 0.003396344580980233 -0.002473334320891326 0.0021110637891838353 0.00036227053170749036 -0.002810151151837972 0.0 0.0
0.0 0.005186677715915966 -0.0038521555823706633 0.0033744583102191415 0.000477697272151522 -0.003976596612167195 0.0 0.0
0.0 0.007042146592501322 -0.005198718724036027 0.004630880247100151 0.0005678384769358763 -0.005289479539256389 0.0 0.0
0.0 0.008458052541192125 -0.006092361563259685 0.00546699936337937 0.000625362199880314 -0.006634264110191969 0.0 0.0
0.0 0.008520124452818684 -0.005861695755220721 0.005187439876055855 0.0006742558791648658 -0.0072940453662473 0.0 0.0
0.0 0.006157035117157506 -0.0036611949751283474 0.0030381813329861057 0.000623013642142242 -0.005710520512238762 0.0 0.0
0.0 0.006157035117160306 -0.0036611949751297226 0.003038181332987322 0.0006230136421423996 0.005710520512242695 0.0 0.0
0.0 0.008520124452820715 -0.005861695755221093 0.005187439876055972 0.0006742558791651184 0.0072940453662536375 0.0 0.0
0.0 0.00845805254119239 -0.006092361563259329 0.005466999363378949 0.0006253621998803798 0.00663426411019538 0.0 0.0
0.0 0.007042146592499674 -0.0051987187240345465 0.004630880247098762 0.0005678384769357822 0.005289479539256858 0.0 0.0
0.0 0.00518667771591458 -0.003852155582369672 0.0033744583102183097 0.0004776972721513628 0.003976596612165628 0.0 0.0
0.0 0.003396344580979754 -0.002473334320890671 0.0021110637891834745 0.0003622705317071961 0.0028101511518378378 0.0 0.0
0.0 0.001965026361704381 -0.0013611297771900829 0.0011244472795174764 0.00023668249767260587 0.0018607479293533823 0.0 0.0
0.0 0.0010218686824526525 -0.0006372781902224088 0.0005103416786220905 0.0001269365116003182 0.001135873176904413 0.0 0.0
0.0 0.0005233116136042882 -0.00026850090788786425 0.00021125599508351817 5.724491280434594e-05 0.0006326053262527037 0.0 0.0
0.0 0.000247561744147862 -0.00011779086729048283 9.253838311552528e-05 2.52524841749575e-05 0.00034687554973375777 0.0 0.0
0.0 0.00015485868669379727 -4.4596751016761365e-05 3.4317214034002656e-05 1.0279536982758771e-05 0.0001426192708606015 0.0 0.0
0.0 7.778818345514164e-05 -7.91252220515984e-06 6.0442257543364674e-06 1.8682964508233806e-06 2.6099419698117774e-05 0.0 0.0
0.0 2.2275802866975775e-05 -2.9959729839466293e-06 2.345063686182685e-06 6.509092977639743e-07 1.3014374500672424e-05 0.0 0.0
0.0 2.887458897492783e-05 1.4761258871847999e-06 -1.147946207967182e-06 -3.281796792175629e-07 -7.406783622754122e-06 0.0 0.0
0.0 1.519301975257843e-05 6.07569749254635e-07 -5.003829957201351e-07 -1.0718675353450862e-07 -3.753848816058526e-06 0.0 0.0
0.0 5.593573495293337e-06 2.2488050827704833e-07 -1.7833069164221596e-07 -4.654981663483093e-08 -1.2502688498043295e-06 0.0 0.0
0.0 4.433390297185643e-06 1.6015753019653384e-07 -1.314923779608683e-07 -2.86651522356573e-08 -9.616929247861855e-07 0.0 0.0
0.0 1.1358547077892155e-06 2.9199022415728776e-08 -2.4414515387892006e-08 -4.78450702783608e-09 -2.3110359965855258e-07 0.0 0.0
0.0 0.0 0.0 0.0 0.0 0.0 0.0 0.0
0.0 0.0 0.0 0.0 0.0 0.0 0.0 0.0
0.0 0.0 0.0 0.0 0.0 0.0 0.0 0.0
0.0 0.0 0.0 0.0 0.0 0.0 0.0 0.0
0.0 0.0 0.0 0.0 0.0 0.0 0.0 0.0
0.0 6.590687281837416e-06 3.10881542792901e-07 -2.570236217687858e-07 -5.385792102411917e-08 1.409381601992583e-06 0.0 0.0
0.0 7.627299154539806e-06 4.0935751532963017e-07 -3.3681363121879136e-07 -7.254388411084961e-08 1.667160813460528e-06 0.0 0.0
0.0 2.0386492939198233e-05 1.4262568685873572e-06 -1.1157064935075056e-06 -3.1055037507982356e-07 4.73426434119655e-06 0.0 0.0
0.0 3.1528024428753474e-05 1.9320318635662334e-07 -2.3019592614430517e-07 3.699273978768913e-08 1.6364785375961357e-06 0.0 0.0
0.0 6.634744410346531e-05 -9.03495157835285e-06 6.948888377826835e-06 2.0860632005260046e-06 -2.0748156116834977e-05 0.0 0.0
0.0 0.0001994325167959721 -4.411146796148732e-05 3.43043907727838e-05 9.807077188703615e-06 -9.356573795710244e-05 0.0 0.0
0.0 0.00031611517038100857 -0.00019158375005771147 0.00014915135221621283 4.243239784149854e-05 -0.0003350893031029955 0.0 0.0
0.0 0.0007404121378823781 -0.0004888401526542568 0.00038580118487820456 0.00010303896777605225 -0.0006643901860019819 0.0 0.0
0.0 0.0013403504498267305 -0.0010358822491238014 0.0008360046899829756 0.0001998775591408256 -0.001128809297126991 0.0 0.0
0.0 0.002386769704402925 -0.0019304739902996826 0.001610213332879205 0.0003202606574204773 -0.0017492133746900675 0.0 0.0
0.0 0.00408427749490989 -0.003346159557363178 0.0028970998831971597 0.0004490596741660173 -0.002607193620979804 0.0 0.0
0.0 0.006567291578014993 -0.005360085619930116 0.004792906895652949 0.000567178724277165 -0.0037665298628469343 0.0 0.0
0.0 0.009593802944721236 -0.007833073828429049 0.007167347282588924 0.0006657265458401213 -0.005293182954324805 0.0 0.0
0.0 0.012852593204635377 -0.010382877858104485 0.009639462385414193 0.0007434154726902887 -0.007223049792405111 0.0 0.0
0.0 0.015378780876386267 -0.01238830427230955 0.011575690961435237 0.0008126133108743059 -0.009305316354213439 0.0 0.0
0.0 0.016110684627915692 -0.01273943839103256 0.011856170906353238 0.0008832674846793194 -0.010456702577547999 0.0 0.0
0.0 0.01244726039441603 -0.00978184017043323 0.00882936529396613 0.0009524748764670961 -0.00815878602940716 0.0 0.0
0.0 0.012447260394417478 -0.009781840170433515 0.00882936529396619 0.0009524748764673208 0.00815878602941288 0.0 0.0
0.0 0.016110684627917555 -0.01273943839103245 0.011856170906353134 0.0008832674846793148 0.010456702577557306 0.0 0.0
0.0 0.015378780876386122 -0.01238830427230831 0.01157569096143429 0.0008126133108740143 0.00930531635421929 0.0 0.0
0.0 0.012852593204633753 -0.010382877858102681 0.009639462385412901 0.0007434154726897831 0.007223049792406373 0.0 0.0
0.0 0.00959380294471702 -0.007833073828425368 0.0071673472825856495 0.0006657265458397186 0.00529318295432322 0.0 0.0
0.0 0.006567291578011961 -0.005360085619927526 0.00479290689565052 0.0005671787242770049 0.0037665298628453262 0.0 0.0
0.0 0.0040842774949071715 -0.003346159557360821 0.002897099883195033 0.0004490596741657878 0.0026071936209784946 0.0 0.0
0.0 0.0023867697043998964 -0.0019304739902967884 0.00161021333287664 0.0003202606574201483 0.0017492133746887493 0.0 0.0
0.0 0.0013403504498234044 -0.001035882249120814 0.0008360046899804078 0.00019987755914040617 0.001128809297124442 0.0 0.0
0.0 0.0007404121378792609 -0.0004888401526520422 0.00038580118487647824 0.00010303896777556383 0.0006643901859995718 0.0 0.0
0.0 0.00031611517037887654 -0.00019158375005646642 0.00014915135221523398 4.2432397841232346e-05 0.0003350893031010752 0.0 0.0
0.0 0.00019943251679484616 -4.4111467961215105e-05 3.4304390772589054e-05 9.807077188626165e-06 9.356573795651303e-05 0.0 0.0
0.0 6.63474441028713e-05 -9.03495157819389e-06 6.948888377701704e-06 2.086063200492131e-06 2.0748156116441855e-05 0.0 0.0
0.0 3.15280244283663e-05 1.9320318631964506e-07 -2.3019592611543638e-07 3.699273979574198e-08 -1.6364785374887654e-06 0.0 0.0
0.0 2.0386492938733195e-05 1.4262568685531833e-06 -1.1157064934812938e-06 -3.1055037507188146e-07 -4.73426434107734e-06 0.0 0.0
0.0 7.627299153988424e-06 4.0935751529703973e-07 -3.3681363119245467e-07 -7.254388410461007e-08 -1.6671608133338516e-06 0.0 0.0
0.0 6.590687281367154e-06 3.108815427685181e-07 -2.5702362174870477e-07 -5.385792101978286e-08 -1.40938160188229e-06 0.0 0.0
0.0 0.0 0.0 0.0 0.0 0.0 0.0 0.0
0.0 0.0 0.0 0.0 0.0 0.0 0.0 0.0
0.0 0.0 0.0 0.0 0.0 0.0 0.0 0.0
0.0 0.0 0.0 0.0 0.0 0.0 0.0 0.0
0.0 0.0 0.0 0.0 0.0 0.0 0.0 0.0
0.0 0.0 0.0 0.0 0.0 0.0 0.0 0.0
0.0 4.567888438524369e-06 2.816642514147399e-07 -2.2557908395780664e-07 -5.608516745694391e-08 9.161147982631984e-07 0.0 0.0
0.0 1.0652708672248226e-05 8.226055347280341e-07 -6.478885821649108e-07 -1.7471695256313932e-07 2.1974362185297753e-06 0.0 0.0
0.0 2.124208630398204e-05 7.723229197919849e-07 -6.477999789120494e-07 -1.2452294087990355e-07 2.228623766189351e-06 0.0 0.0
0.0 6.25738623194568e-05 -1.2398727730772303e-06 9.98133109523202e-07 2.4173966355410496e-07 -3.146380208952769e-06 0.0 0.0
0.0 0.00016900614339486643 -4.829684530944679e-05 3.723518413706325e-05 1.1061661172383574e-05 -7.130023323034834e-05 0.0 0.0
0.0 0.0004095269878134383 -0.0002282108103506698 0.00017759297162028094 5.0617838730388934e-05 -0.000280294184303033 0.0 0.0
0.0 0.0008116745953434647 -0.0006244346168932349 0.0004928649541967446 0.00013156966269649027 -0.0006237210983495507 0.0 0.0
0.0 0.0014526733360629503 -0.001213111960296745 0.000979391438346552 0.00023372052195019265 -0.0010133800084655645 0.0 0.0
0.0 0.0024764531235456325 -0.0021016588687033013 0.0017477527362796822 0.00035390613242361853 -0.0014946785759982577 0.0 0.0
0.0 0.004118631430091467 -0.0034851742405427465 0.003004654259075009 0.00048051998146773683 -0.0021704816529308744 0.0 0.0
0.0 0.006562093512360085 -0.0055783219415419605 0.004980960507824659 0.0005973614337173008 -0.003124670316250465 0.0 0.0
0.0 0.01002085064723961 -0.008484789765576598 0.007791307596818087 0.0006934821687585085 -0.00442125326123874 0.0 0.0
0.0 0.014327858305342025 -0.012071293721544 0.011292994905255385 0.0007782988162886089 -0.006201811601482602 0.0 0.0
0.0 0.018889340872038238 -0.015854883316422173 0.01499839662935391 0.0008564866870682652 -0.008612118576744406 0.0 0.0
0.0 0.022730166868683167 -0.018927059373764727 0.017987438602918553 0.0009396207708461703 -0.011330149707457849 0.0 0.0
0.0 0.02387555749929062 -0.019703351393349226 0.018666303937290185 0.001037047456059035 -0.013048588686702722 0.0 0.0
0.0 0.0191446537381816 -0.015765392080326433 0.014616174424268491 0.0011492176560579373 -0.010890200141250334 0.0 0.0
0.0 0.01914465373818345 -0.015765392080326547 0.01461617442426864 0.0011492176560579039 0.010890200141259413 0.0 0.0
0.0 0.023875557499292543 -0.01970335139334873 0.01866630393728994 0.0010370474560587861 0.01304858868671576 0.0 0.0
0.0 0.022730166868683278 -0.01892705937376338 0.017987438602917495 0.0009396207708458884 0.011330149707466958 0.0 0.0
0.0 0.018889340872034987 -0.015854883316418773 0.014998396629350787 0.0008564866870679833 0.008612118576747183 0.0 0.0
0.0 0.014327858305337667 -0.012071293721540118 0.011292994905251682 0.0007782988162884388 0.006201811601481505 0.0 0.0
0.0 0.010020850647236776 -0.00848478976557385 0.007791307596815701 0.0006934821687581456 0.0044212532612382515 0.0 0.0
0.0 0.006562093512356153 -0.005578321941538383 0.004980960507821401 0.0005973614337169794 0.0031246703162489658 0.0 0.0
0.0 0.004118631430086816 -0.0034851742405384582 0.003004654259071246 0.0004805199814672126 0.0021704816529293787 0.0 0.0
0.0 0.002476453123541462 -0.002101658868699284 0.0017477527362763 0.00035390613242298357 0.001494678575995914 0.0 0.0
0.0 0.001452673336058941 -0.001213111960293008 0.0009793914383434896 0.00023372052194951869 0.0010133800084627391 0.0 0.0
0.0 0.0008116745953400375 -0.0006244346168904184 0.0004928649541944883 0.00013156966269593011 0.0006237210983469569 0.0 0.0
0.0 0.00040952698781121597 -0.00022821081034920285 0.00017759297161912957 5.061783873007329e-05 0.0002802941843015284 0.0 0.0
0.0 0.00016900614339359837 -4.829684530901713e-05 3.72351841367301e-05 1.1061661172287087e-05 7.130023322973972e-05 0.0 0.0
0.0 6.257386231834153e-05 -1.239872773145486e-06 9.981331095784385e-07 2.4173966356713487e-07 3.1463802090649862e-06 0.0 0.0
0.0 2.1242086303584384e-05 7.723229196608329e-07 -6.477999788099886e-07 -1.245229408508034e-07 -2.2286237658969163e-06 0.0 0.0
0.0 1.0652708671817191e-05 8.226055346933095e-07 -6.478885821374208e-07 -1.7471695255591085e-07 -2.197436218434703e-06 0.0 0.0
0.0 4.567888438027894e-06 2.8166425138388424e-07 -2.2557908393276395e-07 -5.608516745111872e-08 -9.161147981597317e-07 0.0 0.0
0.0 0.0 0.0 0.0 0.0 0.0 0.0 0.0
0.0 0.0 0.0 0.0 0.0 0.0 0.0 0.0
0.0 0.0 0.0 0.0 0.0 0.0 0.0 0.0
0.0 0.0 0.0 0.0 0.0 0.0 0.0 0.0
0.0 0.0 0.0 0.0 0.0 0.0 0.0 0.0
0.0 0.0 0.0 0.0 0.0 0.0 0.0 0.0
0.0 6.934682311029604e-06 5.04234701713622e-07 -4.0650678403662876e-07 -9.772791767698894e-08 1.3113344896194137e-06 0.0 0.0
0.0 2.402638926355761e-05 2.3696323169957966e-06 -1.8698820680238612e-06 -4.997502489718492e-07 4.7990365106419856e-06 0.0 0.0
0.0 3.3037143833661204e-05 3.62306998137784e-06 -2.8127620165539856e-06 -8.103079648237687e-07 5.551480715558944e-06 0.0 0.0
0.0 0.00013408661319421307 -2.019248633070672e-05 1.559561420067861e-05 4.59687213002819e-06 -2.507277481056655e-05 0.0 0.0
0.0 0.00037861565510758093 -0.00020382845741814996 0.00015854649999875548 4.528195741939451e-05 -0.000204568752727698 0.0 0.0
0.0 0.0008006553321177406 -0.0006277922410669608 0.0004952032137459598 0.00013258902732100084 -0.0005089501044120312 0.0 0.0
0.0 0.0014221727068297449 -0.0012276333049721388 0.0009878889396676745 0.00023974436530446405 -0.0008345527207246682 0.0 0.0
0.0 0.0023466374328044172 -0.0020604159058183846 0.0017020320431223863 0.0003583838626959976 -0.0011963763433188045 0.0 0.0
0.0 0.003783928438210824 -0.003303818649461107 0.0028197721022465536 0.00048404654721455304 -0.0016878995270330932 0.0 0.0
0.0 0.005982632059001347 -0.005186817265177227 0.004583207667482811 0.0006036095976944149 -0.0023968480642623724 0.0 0.0
0.0 0.00923149176168736 -0.007951474560431186 0.0072470943808543254 0.0007043801795768578 -0.0033898834161361644 0.0 0.0
0.0 0.013736500683983176 -0.011742449340873063 0.010956738998195572 0.0007857103426774873 -0.004729266930467674 0.0 0.0
0.0 0.019130834275458093 -0.01644187524721282 0.015577449059752859 0.0008644261874599618 -0.006576434192924626 0.0 0.0
0.0 0.02520202961173882 -0.021449975895525775 0.020498280582746168 0.0009516953127796078 -0.009132753487806901 0.0 0.0
0.0 0.030235693760831742 -0.02554795334492334 0.02449356429952775 0.0010543890453955885 -0.012246737503189779 0.0 0.0
0.0 0.03167993660088288 -0.026615176149084603 0.0254360941352167 0.0011790820138679009 -0.01461722506605391 0.0 0.0
0.0 0.02581680581233963 -0.02156770348761758 0.0202658035788887 0.0013018999087288834 -0.013514470761593587 0.0 0.0
0.0 0.02581680581234127 -0.021567703487617246 0.020265803578888346 0.0013018999087288932 0.013514470761605144 0.0 0.0
0.0 0.03167993660088325 -0.026615176149082966 0.02543609413521517 0.0011790820138677933 0.014617225066068365 0.0 0.0
0.0 0.030235693760829692 -0.025547953344920278 0.02449356429952489 0.0010543890453953758 0.012246737503200236 0.0 0.0
0.0 0.025202029611735476 -0.021449975895522243 0.020498280582742945 0.0009516953127792984 0.009132753487811358 0.0 0.0
0.0 0.019130834275453458 -0.01644187524720854 0.015577449059748876 0.0008644261874596664 0.006576434192924786 0.0 0.0
0.0 0.013736500683979178 -0.011742449340869262 0.01095673899819224 0.0007857103426770167 0.004729266930467205 0.0 0.0
0.0 0.009231491761683315 -0.0079514745604273 0.007247094380850945 0.0007043801795763541 0.0033898834161349796 0.0 0.0
0.0 0.005982632058995638 -0.005186817265171831 0.00458320766747776 0.0006036095976940693 0.0023968480642610236 0.0 0.0
0.0 0.0037839284382052245 -0.003303818649455931 0.002819772102242014 0.0004840465472139167 0.0016878995270308815 0.0 0.0
0.0 0.002346637432799025 -0.0020604159058134185 0.0017020320431181796 0.0003583838626952382 0.0011963763433160096 0.0 0.0
0.0 0.0014221727068247647 -0.0012276333049675257 0.0009878889396638655 0.00023974436530365995 0.0008345527207214395 0.0 0.0
0.0 0.0008006553321140142 -0.0006277922410636091 0.0004952032137432852 0.0001325890273203237 0.0005089501044099287 0.0 0.0
0.0 0.0003786156551047343 -0.0002038284574162141 0.00015854649999723808 4.5281957418976215e-05 0.0002045687527261097 0.0 0.0
0.0 0.00013408661319269882 -2.0192486330304315e-05 1.559561420036035e-05 4.596872129944156e-06 2.5072774810030276e-05 0.0 0.0
0.0 3.3037143832663454e-05 3.6230699812587325e-06 -2.8127620164623418e-06 -8.103079647962714e-07 -5.5514807153935185e-06 0.0 0.0
0.0 2.4026389263126097e-05 2.3696323169496722e-06 -1.8698820679877623e-06 -4.997502489618451e-07 -4.799036510547863e-06 0.0 0.0
0.0 6.934682310525032e-06 5.04234701673154e-07 -4.065067840040159e-07 -9.772791766911185e-08 -1.311334489514374e-06 0.0 0.0
0.0 0.0 0.0 0.0 0.0 0.0 0.0 0.0
0.0 0.0 0.0 0.0 0.0 0.0 0.0 0.0
0.0 0.0 0.0 0.0 0.0 0.0 0.0 0.0
0.0 0.0 0.0 0.0 0.0 0.0 0.0 0.0
0.0 0.0 0.0 0.0 0.0 0.0 0.0 0.0
0.0 0.0 0.0 0.0 0.0 0.0 0.0 0.0
0.0 3.200659700653277e-06 2.5707668109785343e-07 -2.0547601315242337e-07 -5.1600667945449464e-08 5.112391326946205e-07 0.0 0.0
0.0 2.212019960558938e-05 2.4315207201286043e-06 -1.9253764476021e-06 -5.061442725264499e-07 3.7212109345641876e-06 0.0 0.0
0.0 7.452045217229873e-05 5.968066572808418e-06 -4.655502671211753e-06 -1.3125639015965257e-06 7.141380184418771e-06 0.0 0.0
0.0 0.0003191928462842788 -0.00010635366656670998 8.275016648727818e-05 2.360350007943172e-05 -9.024033909315785e-05 0.0 0.0
0.0 0.000675724174802873 -0.000536194265252508 0.00042132854691120946 0.00011486571834129886 -0.00036311870995219697 0.0 0.0
0.0 0.001273487007306152 -0.0011278894809612077 0.0009036762185855097 0.00022421326237569776 -0.0006355499300611444 0.0 0.0
0.0 0.0021205326783979447 -0.0018988973753497037 0.001555806240053542 0.00034309113529616176 -0.0009089873640317549 0.0 0.0
0.0 0.003357335608783151 -0.0029892672534183188 0.0025212454156392306 0.00046802183777908764 -0.0012528353687091393 0.0 0.0
0.0 0.005199249350531022 -0.0045970424466490675 0.0040064870867265855 0.0005905553599224819 -0.0017300492086879053 0.0 0.0
0.0 0.008028428938356535 -0.0069882135417166655 0.006288407980977806 0.0006998055607388552 -0.002421119057457704 0.0 0.0
0.0 0.011964671345528144 -0.010437719454246699 0.009648495636950393 0.0007892238172963041 -0.00342031979721477 0.0 0.0
0.0 0.017402835338151863 -0.015091683141759309 0.014229086080258668 0.0008625970615006367 -0.004712393234828099 0.0 0.0
0.0 0.02421813372562681 -0.02084949353584594 0.019908450208982728 0.0009410433268632046 -0.006378529468747692 0.0 0.0
0.0 0.03135241664961078 -0.027052694331432176 0.02601432239024281 0.0010383719411893582 -0.0087787200267255 0.0 0.0
0.0 0.03736929822732145 -0.03214525054490838 0.030983813110757014 0.0011614374341513724 -0.012020066340415731 0.0 0.0
0.0 0.03920557877683124 -0.03347708841688901 0.0321681984088271 0.0013088900080619143 -0.015208558125688169 0.0 0.0
0.0 0.03261051830934166 -0.02735989606647526 0.02591899664661936 0.0014408994198558994 -0.016112537409716812 0.0 0.0
0.0 0.03261051830934419 -0.02735989606647545 0.025918996646619594 0.0014408994198558478 0.016112537409730735 0.0 0.0
0.0 0.039205578776832194 -0.03347708841688785 0.03216819840882627 0.00130889000806156 0.01520855812570437 0.0 0.0
0.0 0.0373692982273196 -0.03214525054490541 0.030983813110754536 0.0011614374341508713 0.012020066340427868 0.0 0.0
0.0 0.0313524166496062 -0.027052694331427582 0.026014322390238702 0.0010383719411888748 0.008778720026730174 0.0 0.0
0.0 0.024218133725621635 -0.02084949353584105 0.019908450208978547 0.0009410433268625013 0.006378529468748733 0.0 0.0
0.0 0.017402835338147127 -0.015091683141754943 0.014229086080254723 0.0008625970615002186 0.004712393234828253 0.0 0.0
0.0 0.01196467134552364 -0.010437719454242454 0.009648495636946688 0.000789223817295767 0.003420319797213899 0.0 0.0
0.0 0.008028428938350912 -0.0069882135417110676 0.006288407980972885 0.0006998055607381841 0.0024211190574567974 0.0 0.0
0.0 0.005199249350524044 -0.004597042446642373 0.004006487086720611 0.0005905553599217612 0.0017300492086858748 0.0 0.0
0.0 0.003357335608776336 -0.0029892672534117875 0.0025212454156335103 0.00046802183777827736 0.0012528353687062863 0.0 0.0
0.0 0.0021205326783924456 -0.0018988973753443937 0.0015558062400489845 0.0003430911352954091 0.0009089873640289864 0.0 0.0
0.0 0.0012734870073020286 -0.001127889480957026 0.0009036762185820604 0.00022421326237496547 0.0006355499300593539 0.0 0.0
0.0 0.0006757241747991883 -0.0005361942652492168 0.0004213285469085653 0.00011486571834065139 0.00036311870995041687 0.0 0.0
0.0 0.00031919284628144145 -0.00010635366656517682 8.275016648609246e-05 2.3603500079084416e-05 9.024033909199006e-05 0.0 0.0
0.0 7.452045217127041e-05 5.968066572689043e-06 -4.655502671124813e-06 -1.3125639015639856e-06 -7.141380184373937e-06 0.0 0.0
0.0 2.2120199604808598e-05 2.4315207200384364e-06 -1.925376447532067e-06 -5.061442725063104e-07 -3.7212109344398105e-06 0.0 0.0
0.0 3.200659700228882e-06 2.570766810613841e-07 -2.0547601312327432e-07 -5.1600667938105344e-08 -5.112391326224368e-07 0.0 0.0
0.0 0.0 0.0 0.0 0.0 0.0 0.0 0.0
0.0 0.0 0.0 0.0 0.0 0.0 0.0 0.0
0.0 0.0 0.0 0.0 0.0 0.0 0.0 0.0
0.0 0.0 0.0 0.0 0.0 0.0 0.0 0.0
0.0 0.0 0.0 0.0 0.0 0.0 0.0 0.0
0.0 0.0 0.0 0.0 0.0 0.0 0.0 0.0
0.0 5.626850791712976e-07 4.981005851317951e-08 -3.923198292759632e-08 -1.0578075585582832e-08 7.22976868224096e-08 0.0 0.0
0.0 3.3624237427715145e-05 4.220013028408844e-06 -3.2472484748037782e-06 -9.727645536051238e-07 4.109539754910055e-06 0.0 0.0
0.0 0.00016828277404456782 -1.3908751210392644e-05 1.1058056701623126e-05 2.850694508769431e-06 -1.1728812985305363e-05 0.0 0.0
0.0 0.00047335400598420656 -0.00037260615833625664 0.00029165135251408365 8.095480582217305e-05 -0.00021536339355222203 0.0 0.0
0.0 0.001043916666075483 -0.0009431983683853675 0.0007508016791809441 0.00019239668920442308 -0.0004366229429584802 0.0 0.0
0.0 0.0018370283201127682 -0.0016605571542070794 0.0013493373789387234 0.00031121977526835554 -0.0006430844369796863 0.0 0.0
0.0 0.002898450796762489 -0.002625125101782996 0.002188049159803081 0.00043707594197991485 -0.0008807111619474359 0.0 0.0
0.0 0.004438940558284699 -0.0039793382023308975 0.0034172942207058576 0.0005620439816250403 -0.001188246927512117 0.0 0.0
0.0 0.006727048516157014 -0.005961101679466695 0.005282209374539231 0.0006788923049274637 -0.0016198242302092225 0.0 0.0
0.0 0.01009944279662152 -0.008878930088089243 0.00810045699907859 0.0007784730890106508 -0.002262895519370799 0.0 0.0
0.0 0.014920477494070182 -0.013013002679103054 0.012149915804259608 0.0008630868748434449 -0.0031800841453259615 0.0 0.0
0.0 0.02130587142036511 -0.01850002234812689 0.017564426812536456 0.0009355955355904264 -0.00435792997860796 0.0 0.0
0.0 0.02891658308297002 -0.025236454671115034 0.024224428642169487 0.0010120260289455426 -0.005731711260319104 0.0 0.0
0.0 0.037371448277091435 -0.03253051560638905 0.03141269491061917 0.0011178206957699055 -0.0075550399306562625 0.0 0.0
0.0 0.04450099904402975 -0.038605899296032184 0.037346993379431585 0.0012589059166005937 -0.010523060584560127 0.0 0.0
0.0 0.04681922049384953 -0.040345254232634714 0.038916201276933626 0.0014290529557010913 -0.014773449021147111 0.0 0.0
0.0 0.03948105964892147 -0.03333622124813742 0.03175733734522312 0.0015788839029142988 -0.018702185568117886 0.0 0.0
0.0 0.03948105964892153 -0.0333362212481356 0.031757337345221306 0.001578883902914282 0.01870218556813066 0.0 0.0
0.0 0.046819220493847784 -0.040345254232631605 0.038916201276930795 0.0014290529557007927 0.014773449021162982 0.0 0.0
0.0 0.044500999044026435 -0.0386058992960283 0.037346993379428046 0.0012589059166002378 0.010523060584572502 0.0 0.0
0.0 0.037371448277086536 -0.03253051560638438 0.031412694910614825 0.0011178206957695382 0.007555039930660726 0.0 0.0
0.0 0.0289165830829642 -0.02523645467110967 0.024224428642164585 0.001012026028945084 0.00573171126032062 0.0 0.0
0.0 0.02130587142035814 -0.01850002234812051 0.01756442681253058 0.0009355955355899259 0.004357929978608456 0.0 0.0
0.0 0.014920477494063555 -0.013013002679096886 0.012149915804254114 0.0008630868748427748 0.00318008414532536 0.0 0.0
0.0 0.01009944279661459 -0.00887893008808272 0.008100456999072716 0.0007784730890100051 0.0022628955193697135 0.0 0.0
0.0 0.006727048516148874 -0.005961101679458888 0.005282209374531975 0.0006788923049269119 0.0016198242302077736 0.0 0.0
0.0 0.004438940558277758 -0.003979338202323976 0.003417294220699727 0.0005620439816242477 0.001188246927509728 0.0 0.0
0.0 0.0028984507967561883 -0.002625125101776821 0.0021880491597977606 0.00043707594197905984 0.0008807111619451108 0.0 0.0
0.0 0.001837028320107631 -0.0016605571542016645 0.001349337378934178 0.00031121977526748617 0.0006430844369780649 0.0 0.0
0.0 0.0010439166660713795 -0.0009431983683810068 0.0007508016791774061 0.00019239668920360053 0.00043662294295682575 0.0 0.0
0.0 0.0004733540059809866 -0.00037260615833349073 0.00029165135251190034 8.095480582159047e-05 0.00021536339355075236 0.0 0.0
0.0 0.00016828277404253042 -1.390875120987489e-05 1.1058056701221106e-05 2.850694508653744e-06 1.1728812984887791e-05 0.0 0.0
0.0 3.3624237426677116e-05 4.220013028266174e-06 -3.247248474693658e-06 -9.72764553572584e-07 -4.109539754769875e-06 0.0 0.0
0.0 5.62685078962591e-07 4.981005849409321e-08 -3.923198291257816e-08 -1.0578075581514308e-08 -7.22976867946734e-08 0.0 0.0
0.0 0.0 0.0 0.0 0.0 0.0 0.0 0.0
0.0 0.0 0.0 0.0 0.0 0.0 0.0 0.0
0.0 0.0 0.0 0.0 0.0 0.0 0.0 0.0
0.0 0.0 0.0 0.0 0.0 0.0 0.0 0.0
0.0 0.0 0.0 0.0 0.0 0.0 0.0 0.0
0.0 0.0 0.0 0.0 0.0 0.0 0.0 0.0
0.0 1.1489386621954427e-06 1.1670274780742801e-07 -9.154502768360933e-08 -2.5157720123817856e-08 1.2057526376752907e-07 0.0 0.0
0.0 6.436331433646125e-05 8.895450456086003e-06 -6.871037593997346e-06 -2.02441286208858e-06 6.306131010725169e-06 0.0 0.0
0.0 0.00032104429799188815 -0.00013709271672559612 0.0001072283335165703 2.986438320902574e-05 -7.094365854334503e-05 0.0 0.0
0.0 0.0007481289600658785 -0.0006849037140725333 0.0005402527916210961 0.00014465092245143714 -0.00025004685706541915 0.0 0.0
0.0 0.0014893824778959921 -0.0013655984723575524 0.0011000700199237977 0.00026552845243375486 -0.0004081925478269412 0.0 0.0
0.0 0.0024495449257018274 -0.002233535203115585 0.0018407871647106466 0.00039274803840493836 -0.0005656469872251846 0.0 0.0
0.0 0.00374292249377528 -0.0033928309945587343 0.0028719918308363866 0.000520839163722347 -0.000757973296971578 0.0 0.0
0.0 0.005612027091234189 -0.005017876613198654 0.004375145600946042 0.0006427310122526116 -0.0010132748624952883 0.0 0.0
0.0 0.008300066717266325 -0.007389468125930431 0.00663631023608844 0.0007531578898419889 -0.0013679526288472611 0.0 0.0
0.0 0.012363359895761145 -0.010840350037584379 0.009993198651141231 0.0008471513864431437 -0.001891822851531613 0.0 0.0
0.0 0.017811049967703774 -0.015670965168621417 0.014741420471248781 0.0009295446973726308 -0.002686298383435407 0.0 0.0
0.0 0.025017280496271343 -0.021967245004914548 0.0209610863186711 0.0010061586862434352 -0.0036997592605037826 0.0 0.0
0.0 0.03375452040378854 -0.02954708763028016 0.02846109683099893 0.0010859907992812276 -0.004678318012715695 0.0 0.0
0.0 0.043180606756907804 -0.03773903671125552 0.0365520770105906 0.001186959700664912 -0.005609262835048657 0.0 0.0
0.0 0.0513616846613439 -0.04480927898743179 0.043468646115679015 0.001340632871752769 -0.007780446779400992 0.0 0.0
0.0 0.05450351560655769 -0.047279889088983194 0.04574097386359688 0.0015389152253863108 -0.01306997051255384 0.0 0.0
0.0 0.04693308721964323 -0.03972596281953966 0.03799812402857753 0.0017278387909621237 -0.021128314946168913 0.0 0.0
0.0 0.0469330872196444 -0.0397259628195391 0.03799812402857702 0.0017278387909620712 0.0211283149461807 0.0 0.0
0.0 0.054503515606554594 -0.047279889088979364 0.04574097386359318 0.0015389152253861712 0.013069970512568755 0.0 0.0
0.0 0.051361684661338336 -0.04480927898742637 0.04346864611567387 0.001340632871752504 0.007780446779412342 0.0 0.0
0.0 0.043180606756901274 -0.03773903671124956 0.03655207701058502 0.0011869597006645383 0.005609262835052647 0.0 0.0
0.0 0.03375452040378252 -0.02954708763027454 0.028461096830994008 0.001085990799280526 0.00467831801271739 0.0 0.0
0.0 0.02501728049626414 -0.021967245004907994 0.02096108631866519 0.0010061586862428003 0.003699759260504099 0.0 0.0
0.0 0.01781104996769609 -0.01567096516861438 0.014741420471242512 0.0009295446973718721 0.002686298383434955 0.0 0.0
0.0 0.012363359895752478 -0.010840350037576415 0.009993198651133973 0.0008471513864424442 0.0018918228515305024 0.0 0.0
0.0 0.00830006671725694 -0.007389468125921842 0.0066363102360805885 0.0007531578898412517 0.001367952628846165 0.0 0.0
0.0 0.005612027091226309 -0.005017876613190849 0.004375145600939041 0.0006427310122518067 0.0010132748624933179 0.0 0.0
0.0 0.003742922493768305 -0.0033928309945516566 0.002871991830830164 0.0005208391637214927 0.0007579732969694955 0.0 0.0
0.0 0.002449544925696214 -0.0022335352031098176 0.001840787164705767 0.0003927480384040498 0.0005656469872237853 0.0 0.0
0.0 0.001489382477890852 -0.0013655984723521708 0.001100070019919329 0.00026552845243284163 0.0004081925478257546 0.0 0.0
0.0 0.0007481289600615548 -0.0006849037140682511 0.0005402527916176134 0.00014465092245063762 0.00025004685706396393 0.0 0.0
0.0 0.0003210442979893189 -0.00013709271672402153 0.00010722833351535623 2.986438320866545e-05 7.094365854258547e-05 0.0 0.0
0.0 6.436331433524684e-05 8.895450455917108e-06 -6.8710375938664015e-06 -2.024412862050632e-06 -6.306131010618698e-06 0.0 0.0
0.0 1.1489386619426641e-06 1.1670274778037547e-07 -9.154502766237707e-08 -2.515772011799043e-08 -1.2057526373960747e-07 0.0 0.0
0.0 0.0 0.0 0.0 0.0 0.0 0.0 0.0
0.0 0.0 0.0 0.0 0.0 0.0 0.0 0.0
0.0 0.0 0.0 0.0 0.0 0.0 0.0 0.0
0.0 0.0 0.0 0.0 0.0 0.0 0.0 0.0
0.0 0.0 0.0 0.0 0.0 0.0 0.0 0.0
0.0 0.0 0.0 0.0 0.0 0.0 0.0 0.0
0.0 6.045045006529798e-06 7.320323744054415e-07 -5.709111846573905e-07 -1.6112118974801157e-07 4.873856828000473e-07 0.0 0.0
0.0 0.00012023478444005015 1.4637924516440067e-05 -1.1216855842292254e-05 -3.4210686741476487e-06 5.794622058791986e-06 0.0 0.0
0.0 0.0004185816228851071 -0.0003900817855570365 0.0003050201572066026 8.506162835043393e-05 -0.0001047235307727443 0.0 0.0
0.0 0.0010987353131663613 -0.0010185679393949869 0.0008117622181328326 0.00020680572126215372 -0.0002078103702952679 0.0 0.0
0.0 0.0019665672683181552 -0.001817924101572498 0.0014815167256246047 0.0003364073759478934 -0.00030496682748017145 0.0 0.0
0.0 0.0031014008179937992 -0.002837446490058043 0.002370568970113622 0.0004668775199444201 -0.0004115400947113065 0.0 0.0
0.0 0.0046327301154500955 -0.004196761713236142 0.0036023701101686183 0.000594391603067524 -0.0005478510205721549 0.0 0.0
0.0 0.0068181769078811145 -0.006102403221750995 0.005389298474687229 0.0007131047470637674 -0.0007251665593204664 0.0 0.0
0.0 0.010071912477567632 -0.008870312215324937 0.008052021591386394 0.0008182906239385403 -0.0009681193667434084 0.0 0.0
0.0 0.014532302214794558 -0.012874917525662598 0.011966092236226463 0.0009088252894361363 -0.001358403302483738 0.0 0.0
0.0 0.02080752535650488 -0.018387022757511237 0.01739521579541295 0.0009918069620982828 -0.001929309651084887 0.0 0.0
0.0 0.028951793419920716 -0.025459379655674796 0.02438335798339726 0.0010760216722775346 -0.0026253783304825543 0.0 0.0
0.0 0.03854020473521128 -0.03379266728421584 0.03262888524511644 0.001163782039099383 -0.003250210516194309 0.0 0.0
0.0 0.04867958311386565 -0.04261644124314015 0.04135590807042384 0.0012605331727163099 -0.0034475709949977193 0.0 0.0
0.0 0.05772880932699433 -0.05047699501581285 0.049094588940599815 0.001382406075213036 -0.003952219816936508 0.0 0.0
0.0 0.0623200859461597 -0.054259605172389494 0.05262533280488169 0.0016342723675077792 -0.009330012303457778 0.0 0.0
0.0 0.05524019171913502 -0.04690359242601736 0.044998103767429555 0.0019054886585877886 -0.022920767674951915 0.0 0.0
0.0 0.055240191719135266 -0.04690359242601652 0.04499810376742894 0.0019054886585875759 0.022920767674959736 0.0 0.0
0.0 0.062320085946156574 -0.05425960517238605 0.052625332804878716 0.001634272367507337 0.009330012303469094 0.0 0.0
0.0 0.05772880932698997 -0.05047699501580853 0.04909458894059619 0.0013824060752123286 0.003952219816946058 0.0 0.0
0.0 0.04867958311385894 -0.04261644124313394 0.041355908070418335 0.0012605331727155984 0.0034475709949995785 0.0 0.0
0.0 0.03854020473520388 -0.03379266728420903 0.03262888524511045 0.0011637820390985722 0.003250210516195687 0.0 0.0
0.0 0.028951793419912872 -0.025459379655667663 0.024383357983390908 0.0010760216722767574 0.002625378330482578 0.0 0.0
0.0 0.0208075253564961 -0.01838702275750329 0.017395215795405754 0.0009918069620975304 0.0019293096510850025 0.0 0.0
0.0 0.014532302214784543 -0.012874917525653524 0.011966092236218175 0.0009088252894353475 0.001358403302483073 0.0 0.0
0.0 0.010071912477556302 -0.008870312215314473 0.008052021591376756 0.0008182906239377134 0.0009681193667432008 0.0 0.0
0.0 0.006818176907870708 -0.006102403221741435 0.005389298474678556 0.0007131047470628794 0.0007251665593191463 0.0 0.0
0.0 0.004632730115441445 -0.004196761713227881 0.0036023701101611707 0.0005943916030667089 0.000547851020570542 0.0 0.0
0.0 0.0031014008179875707 -0.002837446490051439 0.002370568970107939 0.00046687751994350024 0.0004115400947106864 0.0 0.0
0.0 0.0019665672683124866 -0.0018179241015666417 0.0014815167256196397 0.0003364073759470018 0.0003049668274792688 0.0 0.0
0.0 0.001098735313162147 -0.001018567939390429 0.0008117622181291293 0.00020680572126129958 0.00020781037029436446 0.0 0.0
0.0 0.0004185816228820784 -0.00039008178555399145 0.00030502015720418893 8.506162834980241e-05 0.00010472353077190586 0.0 0.0
0.0 0.00012023478443870015 1.4637924516609531e-05 -1.1216855842429794e-05 -3.421068674179882e-06 -5.794622058876332e-06 0.0 0.0
0.0 6.0450450061054435e-06 7.320323743512644e-07 -5.70911184615012e-07 -1.611211897362353e-07 -4.873856827632469e-07 0.0 0.0
0.0 0.0 0.0 0.0 0.0 0.0 0.0 0.0
0.0 0.0 0.0 0.0 0.0 0.0 0.0 0.0
0.0 0.0 0.0 0.0 0.0 0.0 0.0 0.0
0.0 0.0 0.0 0.0 0.0 0.0 0.0 0.0
0.0 0.0 0.0 0.0 0.0 0.0 0.0 0.0
0.0 0.0 0.0 0.0 0.0 0.0 0.0 0.0
0.0 1.3057732419334775e-05 1.7727521687385542e-06 -1.3634863378254154e-06 -4.0926583091313135e-07 4.570845354463775e-07 0.0 0.0
0.0 0.0002519081484507956 -2.2447918542223714e-05 1.8090472088966024e-05 4.357446453258166e-06 -6.57683632514155e-06 0.0 0.0
0.0 0.0006780189495172184 -0.000631748435929204 0.0004967006618429796 0.00013504777408622427 -5.842921907414239e-05 0.0 0.0
0.0 0.0014733829155329549 -0.001376999486917459 0.0011088902258254427 0.00026810926109201627 -9.784010863869778e-05 0.0 0.0
0.0 0.0024864957949891223 -0.0022913305348584686 0.0018895282597233764 0.0004018022751350924 -0.00013500271337000587 0.0 0.0
0.0 0.0038053793982713658 -0.0034657203344569407 0.002931941672362549 0.0005337786620943909 -0.0001827273173257679 0.0 0.0
0.0 0.005600454753638709 -0.0050292401224389365 0.0043691837806680974 0.000660056341770839 -0.0002483836209491597 0.0 0.0
0.0 0.00818028426971924 -0.00722485956841542 0.006450322659562113 0.0007745369088533059 -0.0003253269487495471 0.0 0.0
0.0 0.01168432752852109 -0.010419414517222583 0.00954292334356403 0.0008764911736585526 -0.000447944403305247 0.0 0.0
0.0 0.016825558668061878 -0.014963411843760831 0.013997393463099427 0.0009660183806614036 -0.0006293110495108707 0.0 0.0
0.0 0.023915310483450875 -0.021132077669820257 0.020079862175598814 0.0010522154942214392 -0.0008702915357397385 0.0 0.0
0.0 0.032914091459809086 -0.028952192636475513 0.0278085659605992 0.001143626675876301 -0.0011602072908355856 0.0 0.0
0.0 0.04334529236692745 -0.03798900531771691 0.036746802298936856 0.0012422030187800557 -0.0013695412623705408 0.0 0.0
0.0 0.05406609411977021 -0.04727768841686904 0.04593465844607891 0.001343029970790127 -0.0012588530546838279 0.0 0.0
0.0 0.06335745207850307 -0.0553622924767539 0.053917888205440904 0.0014444042713129977 -0.000585184419832057 0.0 0.0
0.0 0.06929924331384922 -0.06044947141031814 0.05889562234992303 0.0015538490603951047 -0.0021242946044736175 0.0 0.0
0.0 0.06522442911376167 -0.05586113212003889 0.05364425446780352 0.0022168776522353602 -0.021440494479153655 0.0 0.0
0.0 0.06522442911375954 -0.05586113212003674 0.05364425446780112 0.0022168776522356174 0.021440494479156996 0.0 0.0
0.0 0.06929924331384404 -0.060449471410313656 0.0588956223499186 0.00155384906039506 0.0021242946044790502 0.0 0.0
0.0 0.06335745207849691 -0.055362292476748266 0.05391788820543591 0.0014444042713123422 0.0005851844198367234 0.0 0.0
0.0 0.05406609411976274 -0.04727768841686211 0.045934658446072814 0.0013430299707892963 0.001258853054683189 0.0 0.0
0.0 0.04334529236692033 -0.037989005317710184 0.03674680229893123 0.0012422030187789553 0.0013695412623714598 0.0 0.0
0.0 0.03291409145980048 -0.028952192636467592 0.02780856596059226 0.0011436266758753366 0.001160207290835661 0.0 0.0
0.0 0.02391531048344176 -0.021132077669811847 0.020079862175591517 0.0010522154942203294 0.0008702915357401284 0.0 0.0
0.0 0.01682555866805229 -0.014963411843752026 0.013997393463091742 0.0009660183806602833 0.0006293110495103652 0.0 0.0
0.0 0.011684327528509805 -0.010419414517212316 0.009542923343554688 0.0008764911736576259 0.00044794440330556617 0.0 0.0
0.0 0.00818028426970882 -0.007224859568405707 0.006450322659553272 0.0007745369088524362 0.0003253269487487947 0.0 0.0
0.0 0.005600454753629414 -0.005029240122430519 0.0043691837806604725 0.0006600563417700461 0.00024838362094862663 0.0 0.0
0.0 0.003805379398264222 -0.0034657203344498513 0.0029319416723563594 0.0005337786620934915 0.0001827273173253794 0.0 0.0
0.0 0.0024864957949828352 -0.002291330534851913 0.001889528259717803 0.0004018022751341101 0.00013500271336954912 0.0 0.0
0.0 0.0014733829155277227 -0.0013769994869119078 0.0011088902258208802 0.0002681092610910275 9.784010863830644e-05 0.0 0.0
0.0 0.0006780189495137294 -0.0006317484359252954 0.0004967006618398586 0.00013504777408543682 5.842921907385835e-05 0.0 0.0
0.0 0.00025190814844870446 -2.244791854138208e-05 1.809047208830694e-05 4.357446453075496e-06 6.5768363249953445e-06 0.0 0.0
0.0 1.3057732418754222e-05 1.7727521686575363e-06 -1.363486337763767e-06 -4.0926583089372275e-07 -4.570845354293567e-07 0.0 0.0
0.0 0.0 0.0 0.0 0.0 0.0 0.0 0.0
0.0 0.0 0.0 0.0 0.0 0.0 0.0 0.0
0.0 0.0 0.0 0.0 0.0 0.0 0.0 0.0