# vtk DataFile Version 3.0
Some data
ASCII
DATASET UNSTRUCTURED_GRID
POINTS 861 float
0.0 0.0 0.0
0.4 0.0 0.0
0.8 0.0 0.0
1.2000000000000002 0.0 0.0
1.6 0.0 0.0
2.0 0.0 0.0
2.4000000000000004 0.0 0.0
2.8000000000000003 0.0 0.0
3.2 0.0 0.0
3.6 0.0 0.0
4.0 0.0 0.0
4.4 0.0 0.0
4.800000000000001 0.0 0.0
5.2 0.0 0.0
5.6000000000000005 0.0 0.0
6.0 0.0 0.0
6.4 0.0 0.0
6.800000000000001 0.0 0.0
7.2 0.0 0.0
7.6000000000000005 0.0 0.0
8.0 0.0 0.0
8.4 0.0 0.0
8.8 0.0 0.0
9.200000000000001 0.0 0.0
9.600000000000001 0.0 0.0
10.0 0.0 0.0
10.4 0.0 0.0
10.8 0.0 0.0
11.200000000000001 0.0 0.0
11.600000000000001 0.0 0.0
12.0 0.0 0.0
12.4 0.0 0.0
12.8 0.0 0.0
13.200000000000001 0.0 0.0
13.600000000000001 0.0 0.0
14.0 0.0 0.0
14.4 0.0 0.0
14.8 0.0 0.0
15.200000000000001 0.0 0.0
15.600000000000001 0.0 0.0
16.0 0.0 0.0
0.0 0.1 0.0
0.4 0.1 0.0
0.8 0.1 0.0
1.2000000000000002 0.1 0.0
1.6 0.1 0.0
2.0 0.1 0.0
2.4000000000000004 0.1 0.0
2.8000000000000003 0.1 0.0
3.2 0.1 0.0
3.6 0.1 0.0
4.0 0.1 0.0
4.4 0.1 0.0
4.800000000000001 0.1 0.0
5.2 0.1 0.0
5.6000000000000005 0.1 0.0
6.0 0.1 0.0
6.4 0.1 0.0
6.800000000000001 0.1 0.0
7.2 0.1 0.0
7.6000000000000005 0.1 0.0
8.0 0.1 0.0
8.4 0.1 0.0
8.8 0.1 0.0
9.200000000000001 0.1 0.0
9.600000000000001 0.1 0.0
10.0 0.1 0.0
10.4 0.1 0.0
10.8 0.1 0.0
11.200000000000001 0.1 0.0
11.600000000000001 0.1 0.0
12.0 0.1 0.0
12.4 0.1 0.0
12.8 0.1 0.0
13.200000000000001 0.1 0.0
13.600000000000001 0.1 0.0
14.0 0.1 0.0
14.4 0.1 0.0
14.8 0.1 0.0
15.200000000000001 0.1 0.0
15.600000000000001 0.1 0.0
16.0 0.1 0.0
0.0 0.2 0.0
0.4 0.2 0.0
0.8 0.2 0.0
1.2000000000000002 0.2 0.0
1.6 0.2 0.0
2.0 0.2 0.0
2.4000000000000004 0.2 0.0
2.8000000000000003 0.2 0.0
3.2 0.2 0.0
3.6 0.2 0.0
4.0 0.2 0.0
4.4 0.2 0.0
4.800000000000001 0.2 0.0
5.2 0.2 0.0
5.6000000000000005 0.2 0.0
6.0 0.2 0.0
6.4 0.2 0.0
6.800000000000001 0.2 0.0
7.2 0.2 0.0
7.6000000000000005 0.2 0.0
8.0 0.2 0.0
8.4 0.2 0.0
8.8 0.2 0.0
9.200000000000001 0.2 0.0
9.600000000000001 0.2 0.0
10.0 0.2 0.0
10.4 0.2 0.0
10.8 0.2 0.0
11.200000000000001 0.2 0.0
11.600000000000001 0.2 0.0
12.0 0.2 0.0
12.4 0.2 0.0
12.8 0.2 0.0
13.200000000000001 0.2 0.0
13.600000000000001 0.2 0.0
14.0 0.2 0.0
14.4 0.2 0.0
14.8 0.2 0.0
15.200000000000001 0.2 0.0
15.600000000000001 0.2 0.0
16.0 0.2 0.0
0.0 0.30000000000000004 0.0
0.4 0.30000000000000004 0.0
0.8 0.30000000000000004 0.0
1.2000000000000002 0.30000000000000004 0.0
1.6 0.30000000000000004 0.0
2.0 0.30000000000000004 0.0
2.4000000000000004 0.30000000000000004 0.0
2.8000000000000003 0.30000000000000004 0.0
3.2 0.30000000000000004 0.0
3.6 0.30000000000000004 0.0
4.0 0.30000000000000004 0.0
4.4 0.30000000000000004 0.0
4.800000000000001 0.30000000000000004 0.0
5.2 0.30000000000000004 0.0
5.6000000000000005 0.30000000000000004 0.0
6.0 0.30000000000000004 0.0
6.4 0.30000000000000004 0.0
6.800000000000001 0.30000000000000004 0.0
7.2 0.30000000000000004 0.0
7.6000000000000005 0.30000000000000004 0.0
8.0 0.30000000000000004 0.0
8.4 0.30000000000000004 0.0
8.8 0.30000000000000004 0.0
9.200000000000001 0.30000000000000004 0.0
9.600000000000001 0.30000000000000004 0.0
10.0 0.30000000000000004 0.0
10.4 0.30000000000000004 0.0
10.8 0.30000000000000004 0.0
11.200000000000001 0.30000000000000004 0.0
11.600000000000001 0.30000000000000004 0.0
12.0 0.30000000000000004 0.0
12.4 0.30000000000000004 0.0
12.8 0.30000000000000004 0.0
13.200000000000001 0.30000000000000004 0.0
13.600000000000001 0.30000000000000004 0.0
14.0 0.30000000000000004 0.0
14.4 0.30000000000000004 0.0
14.8 0.30000000000000004 0.0
15.200000000000001 0.30000000000000004 0.0
15.600000000000001 0.30000000000000004 0.0
16.0 0.30000000000000004 0.0
0.0 0.4 0.0
0.4 0.4 0.0
0.8 0.4 0.0
1.2000000000000002 0.4 0.0
1.6 0.4 0.0
2.0 0.4 0.0
2.4000000000000004 0.4 0.0
2.8000000000000003 0.4 0.0
3.2 0.4 0.0
3.6 0.4 0.0
4.0 0.4 0.0
4.4 0.4 0.0
4.800000000000001 0.4 0.0
5.2 0.4 0.0
5.6000000000000005 0.4 0.0
6.0 0.4 0.0
6.4 0.4 0.0
6.800000000000001 0.4 0.0
7.2 0.4 0.0
7.6000000000000005 0.4 0.0
8.0 0.4 0.0
8.4 0.4 0.0
8.8 0.4 0.0
9.200000000000001 0.4 0.0
9.600000000000001 0.4 0.0
10.0 0.4 0.0
10.4 0.4 0.0
10.8 0.4 0.0
11.200000000000001 0.4 0.0
11.600000000000001 0.4 0.0
12.0 0.4 0.0
12.4 0.4 0.0
12.8 0.4 0.0
13.200000000000001 0.4 0.0
13.600000000000001 0.4 0.0
14.0 0.4 0.0
14.4 0.4 0.0
14.8 0.4 0.0
15.200000000000001 0.4 0.0
15.600000000000001 0.4 0.0
16.0 0.4 0.0
0.0 0.5 0.0
0.4 0.5 0.0
0.8 0.5 0.0
1.2000000000000002 0.5 0.0
1.6 0.5 0.0
2.0 0.5 0.0
2.4000000000000004 0.5 0.0
2.8000000000000003 0.5 0.0
3.2 0.5 0.0
3.6 0.5 0.0
4.0 0.5 0.0
4.4 0.5 0.0
4.800000000000001 0.5 0.0
5.2 0.5 0.0
5.6000000000000005 0.5 0.0
6.0 0.5 0.0
6.4 0.5 0.0
6.800000000000001 0.5 0.0
7.2 0.5 0.0
7.6000000000000005 0.5 0.0
8.0 0.5 0.0
8.4 0.5 0.0
8.8 0.5 0.0
9.200000000000001 0.5 0.0
9.600000000000001 0.5 0.0
10.0 0.5 0.0
10.4 0.5 0.0
10.8 0.5 0.0
11.200000000000001 0.5 0.0
11.600000000000001 0.5 0.0
12.0 0.5 0.0
12.4 0.5 0.0
12.8 0.5 0.0
13.200000000000001 0.5 0.0
13.600000000000001 0.5 0.0
14.0 0.5 0.0
14.4 0.5 0.0
14.8 0.5 0.0
15.200000000000001 0.5 0.0
15.600000000000001 0.5 0.0
16.0 0.5 0.0
0.0 0.6000000000000001 0.0
0.4 0.6000000000000001 0.0
0.8 0.6000000000000001 0.0
1.2000000000000002 0.6000000000000001 0.0
1.6 0.6000000000000001 0.0
2.0 0.6000000000000001 0.0
2.4000000000000004 0.6000000000000001 0.0
2.8000000000000003 0.6000000000000001 0.0
3.2 0.6000000000000001 0.0
3.6 0.6000000000000001 0.0
4.0 0.6000000000000001 0.0
4.4 0.6000000000000001 0.0
4.800000000000001 0.6000000000000001 0.0
5.2 0.6000000000000001 0.0
5.6000000000000005 0.6000000000000001 0.0
6.0 0.6000000000000001 0.0
6.4 0.6000000000000001 0.0
6.800000000000001 0.6000000000000001 0.0
7.2 0.6000000000000001 0.0
7.6000000000000005 0.6000000000000001 0.0
8.0 0.6000000000000001 0.0
8.4 0.6000000000000001 0.0
8.8 0.6000000000000001 0.0
9.200000000000001 0.6000000000000001 0.0
9.600000000000001 0.6000000000000001 0.0
10.0 0.6000000000000001 0.0
10.4 0.6000000000000001 0.0
10.8 0.6000000000000001 0.0
11.200000000000001 0.6000000000000001 0.0
11.600000000000001 0.6000000000000001 0.0
12.0 0.6000000000000001 0.0
12.4 0.6000000000000001 0.0
12.8 0.6000000000000001 0.0
13.200000000000001 0.6000000000000001 0.0
13.600000000000001 0.6000000000000001 0.0
14.0 0.6000000000000001 0.0
14.4 0.6000000000000001 0.0
14.8 0.6000000000000001 0.0
15.200000000000001 0.6000000000000001 0.0
15.600000000000001 0.6000000000000001 0.0
16.0 0.6000000000000001 0.0
0.0 0.7000000000000001 0.0
0.4 0.7000000000000001 0.0
0.8 0.7000000000000001 0.0
1.2000000000000002 0.7000000000000001 0.0
1.6 0.7000000000000001 0.0
2.0 0.7000000000000001 0.0
2.4000000000000004 0.7000000000000001 0.0
2.8000000000000003 0.7000000000000001 0.0
3.2 0.7000000000000001 0.0
3.6 0.7000000000000001 0.0
4.0 0.7000000000000001 0.0
4.4 0.7000000000000001 0.0
4.800000000000001 0.7000000000000001 0.0
5.2 0.7000000000000001 0.0
5.6000000000000005 0.7000000000000001 0.0
6.0 0.7000000000000001 0.0
6.4 0.7000000000000001 0.0
6.800000000000001 0.7000000000000001 0.0
7.2 0.7000000000000001 0.0
7.6000000000000005 0.7000000000000001 0.0
8.0 0.7000000000000001 0.0
8.4 0.7000000000000001 0.0
8.8 0.7000000000000001 0.0
9.200000000000001 0.7000000000000001 0.0
9.600000000000001 0.7000000000000001 0.0
10.0 0.7000000000000001 0.0
10.4 0.7000000000000001 0.0
10.8 0.7000000000000001 0.0
11.200000000000001 0.7000000000000001 0.0
11.600000000000001 0.7000000000000001 0.0
12.0 0.7000000000000001 0.0
12.4 0.7000000000000001 0.0
12.8 0.7000000000000001 0.0
13.200000000000001 0.7000000000000001 0.0
13.600000000000001 0.7000000000000001 0.0
14.0 0.7000000000000001 0.0
14.4 0.7000000000000001 0.0
14.8 0.7000000000000001 0.0
15.200000000000001 0.7000000000000001 0.0
15.600000000000001 0.7000000000000001 0.0
16.0 0.7000000000000001 0.0
0.0 0.8 0.0
0.4 0.8 0.0
0.8 0.8 0.0
1.2000000000000002 0.8 0.0
1.6 0.8 0.0
2.0 0.8 0.0
2.4000000000000004 0.8 0.0
2.8000000000000003 0.8 0.0
3.2 0.8 0.0
3.6 0.8 0.0
4.0 0.8 0.0
4.4 0.8 0.0
4.800000000000001 0.8 0.0
5.2 0.8 0.0
5.6000000000000005 0.8 0.0
6.0 0.8 0.0
6.4 0.8 0.0
6.800000000000001 0.8 0.0
7.2 0.8 0.0
7.6000000000000005 0.8 0.0
8.0 0.8 0.0
8.4 0.8 0.0
8.8 0.8 0.0
9.200000000000001 0.8 0.0
9.600000000000001 0.8 0.0
10.0 0.8 0.0
10.4 0.8 0.0
10.8 0.8 0.0
11.200000000000001 0.8 0.0
11.600000000000001 0.8 0.0
12.0 0.8 0.0
12.4 0.8 0.0
12.8 0.8 0.0
13.200000000000001 0.8 0.0
13.600000000000001 0.8 0.0
14.0 0.8 0.0
14.4 0.8 0.0
14.8 0.8 0.0
15.200000000000001 0.8 0.0
15.600000000000001 0.8 0.0
16.0 0.8 0.0
0.0 0.9 0.0
0.4 0.9 0.0
0.8 0.9 0.0
1.2000000000000002 0.9 0.0
1.6 0.9 0.0
2.0 0.9 0.0
2.4000000000000004 0.9 0.0
2.8000000000000003 0.9 0.0
3.2 0.9 0.0
3.6 0.9 0.0
4.0 0.9 0.0
4.4 0.9 0.0
4.800000000000001 0.9 0.0
5.2 0.9 0.0
5.6000000000000005 0.9 0.0
6.0 0.9 0.0
6.4 0.9 0.0
6.800000000000001 0.9 0.0
7.2 0.9 0.0
7.6000000000000005 0.9 0.0
8.0 0.9 0.0
8.4 0.9 0.0
8.8 0.9 0.0
9.200000000000001 0.9 0.0
9.600000000000001 0.9 0.0
10.0 0.9 0.0
10.4 0.9 0.0
10.8 0.9 0.0
11.200000000000001 0.9 0.0
11.600000000000001 0.9 0.0
12.0 0.9 0.0
12.4 0.9 0.0
12.8 0.9 0.0
13.200000000000001 0.9 0.0
13.600000000000001 0.9 0.0
14.0 0.9 0.0
14.4 0.9 0.0
14.8 0.9 0.0
15.200000000000001 0.9 0.0
15.600000000000001 0.9 0.0
16.0 0.9 0.0
0.0 1.0 0.0
0.4 1.0 0.0
0.8 1.0 0.0
1.2000000000000002 1.0 0.0
1.6 1.0 0.0
2.0 1.0 0.0
2.4000000000000004 1.0 0.0
2.8000000000000003 1.0 0.0
3.2 1.0 0.0
3.6 1.0 0.0
4.0 1.0 0.0
4.4 1.0 0.0
4.800000000000001 1.0 0.0
5.2 1.0 0.0
5.6000000000000005 1.0 0.0
6.0 1.0 0.0
6.4 1.0 0.0
6.800000000000001 1.0 0.0
7.2 1.0 0.0
7.6000000000000005 1.0 0.0
8.0 1.0 0.0
8.4 1.0 0.0
8.8 1.0 0.0
9.200000000000001 1.0 0.0
9.600000000000001 1.0 0.0
10.0 1.0 0.0
10.4 1.0 0.0
10.8 1.0 0.0
11.200000000000001 1.0 0.0
11.600000000000001 1.0 0.0
12.0 1.0 0.0
12.4 1.0 0.0
12.8 1.0 0.0
13.200000000000001 1.0 0.0
13.600000000000001 1.0 0.0
14.0 1.0 0.0
14.4 1.0 0.0
14.8 1.0 0.0
15.200000000000001 1.0 0.0
15.600000000000001 1.0 0.0
16.0 1.0 0.0
0.0 1.1 0.0
0.4 1.1 0.0
0.8 1.1 0.0
1.2000000000000002 1.1 0.0
1.6 1.1 0.0
2.0 1.1 0.0
2.4000000000000004 1.1 0.0
2.8000000000000003 1.1 0.0
3.2 1.1 0.0
3.6 1.1 0.0
4.0 1.1 0.0
4.4 1.1 0.0
4.800000000000001 1.1 0.0
5.2 1.1 0.0
5.6000000000000005 1.1 0.0
6.0 1.1 0.0
6.4 1.1 0.0
6.800000000000001 1.1 0.0
7.2 1.1 0.0
7.6000000000000005 1.1 0.0
8.0 1.1 0.0
8.4 1.1 0.0
8.8 1.1 0.0
9.200000000000001 1.1 0.0
9.600000000000001 1.1 0.0
10.0 1.1 0.0
10.4 1.1 0.0
10.8 1.1 0.0
11.200000000000001 1.1 0.0
11.600000000000001 1.1 0.0
12.0 1.1 0.0
12.4 1.1 0.0
12.8 1.1 0.0
13.200000000000001 1.1 0.0
13.600000000000001 1.1 0.0
14.0 1.1 0.0
14.4 1.1 0.0
14.8 1.1 0.0
15.200000000000001 1.1 0.0
15.600000000000001 1.1 0.0
16.0 1.1 0.0
0.0 1.2000000000000002 0.0
0.4 1.2000000000000002 0.0
0.8 1.2000000000000002 0.0
1.2000000000000002 1.2000000000000002 0.0
1.6 1.2000000000000002 0.0
2.0 1.2000000000000002 0.0
2.4000000000000004 1.2000000000000002 0.0
2.8000000000000003 1.2000000000000002 0.0
3.2 1.2000000000000002 0.0
3.6 1.2000000000000002 0.0
4.0 1.2000000000000002 0.0
4.4 1.2000000000000002 0.0
4.800000000000001 1.2000000000000002 0.0
5.2 1.2000000000000002 0.0
5.6000000000000005 1.2000000000000002 0.0
6.0 1.2000000000000002 0.0
6.4 1.2000000000000002 0.0
6.800000000000001 1.2000000000000002 0.0
7.2 1.2000000000000002 0.0
7.6000000000000005 1.2000000000000002 0.0
8.0 1.2000000000000002 0.0
8.4 1.2000000000000002 0.0
8.8 1.2000000000000002 0.0
9.200000000000001 1.2000000000000002 0.0
9.600000000000001 1.2000000000000002 0.0
10.0 1.2000000000000002 0.0
10.4 1.2000000000000002 0.0
10.8 1.2000000000000002 0.0
11.200000000000001 1.2000000000000002 0.0
11.600000000000001 1.2000000000000002 0.0
12.0 1.2000000000000002 0.0
12.4 1.2000000000000002 0.0
12.8 1.2000000000000002 0.0
13.200000000000001 1.2000000000000002 0.0
13.600000000000001 1.2000000000000002 0.0
14.0 1.2000000000000002 0.0
14.4 1.2000000000000002 0.0
14.8 1.2000000000000002 0.0
15.200000000000001 1.2000000000000002 0.0
15.600000000000001 1.2000000000000002 0.0
16.0 1.2000000000000002 0.0
0.0 1.3 0.0
0.4 1.3 0.0
0.8 1.3 0.0
1.2000000000000002 1.3 0.0
1.6 1.3 0.0
2.0 1.3 0.0
2.4000000000000004 1.3 0.0
2.8000000000000003 1.3 0.0
3.2 1.3 0.0
3.6 1.3 0.0
4.0 1.3 0.0
4.4 1.3 0.0
4.800000000000001 1.3 0.0
5.2 1.3 0.0
5.6000000000000005 1.3 0.0
6.0 1.3 0.0
6.4 1.3 0.0
6.800000000000001 1.3 0.0
7.2 1.3 0.0
7.6000000000000005 1.3 0.0
8.0 1.3 0.0
8.4 1.3 0.0
8.8 1.3 0.0
9.200000000000001 1.3 0.0
9.600000000000001 1.3 0.0
10.0 1.3 0.0
10.4 1.3 0.0
10.8 1.3 0.0
11.200000000000001 1.3 0.0
11.600000000000001 1.3 0.0
12.0 1.3 0.0
12.4 1.3 0.0
12.8 1.3 0.0
13.200000000000001 1.3 0.0
13.600000000000001 1.3 0.0
14.0 1.3 0.0
14.4 1.3 0.0
14.8 1.3 0.0
15.200000000000001 1.3 0.0
15.600000000000001 1.3 0.0
16.0 1.3 0.0
0.0 1.4000000000000001 0.0
0.4 1.4000000000000001 0.0
0.8 1.4000000000000001 0.0
1.2000000000000002 1.4000000000000001 0.0
1.6 1.4000000000000001 0.0
2.0 1.4000000000000001 0.0
2.4000000000000004 1.4000000000000001 0.0
2.8000000000000003 1.4000000000000001 0.0
3.2 1.4000000000000001 0.0
3.6 1.4000000000000001 0.0
4.0 1.4000000000000001 0.0
4.4 1.4000000000000001 0.0
4.800000000000001 1.4000000000000001 0.0
5.2 1.4000000000000001 0.0
5.6000000000000005 1.4000000000000001 0.0
6.0 1.4000000000000001 0.0
6.4 1.4000000000000001 0.0
6.800000000000001 1.4000000000000001 0.0
7.2 1.4000000000000001 0.0
7.6000000000000005 1.4000000000000001 0.0
8.0 1.4000000000000001 0.0
8.4 1.4000000000000001 0.0
8.8 1.4000000000000001 0.0
9.200000000000001 1.4000000000000001 0.0
9.600000000000001 1.4000000000000001 0.0
10.0 1.4000000000000001 0.0
10.4 1.4000000000000001 0.0
10.8 1.4000000000000001 0.0
11.200000000000001 1.4000000000000001 0.0
11.600000000000001 1.4000000000000001 0.0
12.0 1.4000000000000001 0.0
12.4 1.4000000000000001 0.0
12.8 1.4000000000000001 0.0
13.200000000000001 1.4000000000000001 0.0
13.600000000000001 1.4000000000000001 0.0
14.0 1.4000000000000001 0.0
14.4 1.4000000000000001 0.0
14.8 1.4000000000000001 0.0
15.200000000000001 1.4000000000000001 0.0
15.600000000000001 1.4000000000000001 0.0
16.0 1.4000000000000001 0.0
0.0 1.5 0.0
0.4 1.5 0.0
0.8 1.5 0.0
1.2000000000000002 1.5 0.0
1.6 1.5 0.0
2.0 1.5 0.0
2.4000000000000004 1.5 0.0
2.8000000000000003 1.5 0.0
3.2 1.5 0.0
3.6 1.5 0.0
4.0 1.5 0.0
4.4 1.5 0.0
4.800000000000001 1.5 0.0
5.2 1.5 0.0
5.6000000000000005 1.5 0.0
6.0 1.5 0.0
6.4 1.5 0.0
6.800000000000001 1.5 0.0
7.2 1.5 0.0
7.6000000000000005 1.5 0.0
8.0 1.5 0.0
8.4 1.5 0.0
8.8 1.5 0.0
9.200000000000001 1.5 0.0
9.600000000000001 1.5 0.0
10.0 1.5 0.0
10.4 1.5 0.0
10.8 1.5 0.0
11.200000000000001 1.5 0.0
11.600000000000001 1.5 0.0
12.0 1.5 0.0
12.4 1.5 0.0
12.8 1.5 0.0
13.200000000000001 1.5 0.0
13.600000000000001 1.5 0.0
14.0 1.5 0.0
14.4 1.5 0.0
14.8 1.5 0.0
15.200000000000001 1.5 0.0
15.600000000000001 1.5 0.0
16.0 1.5 0.0
0.0 1.6 0.0
0.4 1.6 0.0
0.8 1.6 0.0
1.2000000000000002 1.6 0.0
1.6 1.6 0.0
2.0 1.6 0.0
2.4000000000000004 1.6 0.0
2.8000000000000003 1.6 0.0
3.2 1.6 0.0
3.6 1.6 0.0
4.0 1.6 0.0
4.4 1.6 0.0
4.800000000000001 1.6 0.0
5.2 1.6 0.0
5.6000000000000005 1.6 0.0
6.0 1.6 0.0
6.4 1.6 0.0
6.800000000000001 1.6 0.0
7.2 1.6 0.0
7.6000000000000005 1.6 0.0
8.0 1.6 0.0
8.4 1.6 0.0
8.8 1.6 0.0
9.200000000000001 1.6 0.0
9.600000000000001 1.6 0.0
10.0 1.6 0.0
10.4 1.6 0.0
10.8 1.6 0.0
11.200000000000001 1.6 0.0
11.600000000000001 1.6 0.0
12.0 1.6 0.0
12.4 1.6 0.0
12.8 1.6 0.0
13.200000000000001 1.6 0.0
13.600000000000001 1.6 0.0
14.0 1.6 0.0
14.4 1.6 0.0
14.8 1.6 0.0
15.200000000000001 1.6 0.0
15.600000000000001 1.6 0.0
16.0 1.6 0.0
0.0 1.7000000000000002 0.0
0.4 1.7000000000000002 0.0
0.8 1.7000000000000002 0.0
1.2000000000000002 1.7000000000000002 0.0
1.6 1.7000000000000002 0.0
2.0 1.7000000000000002 0.0
2.4000000000000004 1.7000000000000002 0.0
2.8000000000000003 1.7000000000000002 0.0
3.2 1.7000000000000002 0.0
3.6 1.7000000000000002 0.0
4.0 1.7000000000000002 0.0
4.4 1.7000000000000002 0.0
4.800000000000001 1.7000000000000002 0.0
5.2 1.7000000000000002 0.0
5.6000000000000005 1.7000000000000002 0.0
6.0 1.7000000000000002 0.0
6.4 1.7000000000000002 0.0
6.800000000000001 1.7000000000000002 0.0
7.2 1.7000000000000002 0.0
7.6000000000000005 1.7000000000000002 0.0
8.0 1.7000000000000002 0.0
8.4 1.7000000000000002 0.0
8.8 1.7000000000000002 0.0
9.200000000000001 1.7000000000000002 0.0
9.600000000000001 1.7000000000000002 0.0
10.0 1.7000000000000002 0.0
10.4 1.7000000000000002 0.0
10.8 1.7000000000000002 0.0
11.200000000000001 1.7000000000000002 0.0
11.600000000000001 1.7000000000000002 0.0
12.0 1.7000000000000002 0.0
12.4 1.7000000000000002 0.0
12.8 1.7000000000000002 0.0
13.200000000000001 1.7000000000000002 0.0
13.600000000000001 1.7000000000000002 0.0
14.0 1.7000000000000002 0.0
14.4 1.7000000000000002 0.0
14.8 1.7000000000000002 0.0
15.200000000000001 1.7000000000000002 0.0
15.600000000000001 1.7000000000000002 0.0
16.0 1.7000000000000002 0.0
0.0 1.8 0.0
0.4 1.8 0.0
0.8 1.8 0.0
1.2000000000000002 1.8 0.0
1.6 1.8 0.0
2.0 1.8 0.0
2.4000000000000004 1.8 0.0
2.8000000000000003 1.8 0.0
3.2 1.8 0.0
3.6 1.8 0.0
4.0 1.8 0.0
4.4 1.8 0.0
4.800000000000001 1.8 0.0
5.2 1.8 0.0
5.6000000000000005 1.8 0.0
6.0 1.8 0.0
6.4 1.8 0.0
6.800000000000001 1.8 0.0
7.2 1.8 0.0
7.6000000000000005 1.8 0.0
8.0 1.8 0.0
8.4 1.8 0.0
8.8 1.8 0.0
9.200000000000001 1.8 0.0
9.600000000000001 1.8 0.0
10.0 1.8 0.0
10.4 1.8 0.0
10.8 1.8 0.0
11.200000000000001 1.8 0.0
11.600000000000001 1.8 0.0
12.0 1.8 0.0
12.4 1.8 0.0
12.8 1.8 0.0
13.200000000000001 1.8 0.0
13.600000000000001 1.8 0.0
14.0 1.8 0.0
14.4 1.8 0.0
14.8 1.8 0.0
15.200000000000001 1.8 0.0
15.600000000000001 1.8 0.0
16.0 1.8 0.0
0.0 1.9000000000000001 0.0
0.4 1.9000000000000001 0.0
0.8 1.9000000000000001 0.0
1.2000000000000002 1.9000000000000001 0.0
1.6 1.9000000000000001 0.0
2.0 1.9000000000000001 0.0
2.4000000000000004 1.9000000000000001 0.0
2.8000000000000003 1.9000000000000001 0.0
3.2 1.9000000000000001 0.0
3.6 1.9000000000000001 0.0
4.0 1.9000000000000001 0.0
4.4 1.9000000000000001 0.0
4.800000000000001 1.9000000000000001 0.0
5.2 1.9000000000000001 0.0
5.6000000000000005 1.9000000000000001 0.0
6.0 1.9000000000000001 0.0
6.4 1.9000000000000001 0.0
6.800000000000001 1.9000000000000001 0.0
7.2 1.9000000000000001 0.0
7.6000000000000005 1.9000000000000001 0.0
8.0 1.9000000000000001 0.0
8.4 1.9000000000000001 0.0
8.8 1.9000000000000001 0.0
9.200000000000001 1.9000000000000001 0.0
9.600000000000001 1.9000000000000001 0.0
10.0 1.9000000000000001 0.0
10.4 1.9000000000000001 0.0
10.8 1.9000000000000001 0.0
11.200000000000001 1.9000000000000001 0.0
11.600000000000001 1.9000000000000001 0.0
12.0 1.9000000000000001 0.0
12.4 1.9000000000000001 0.0
12.8 1.9000000000000001 0.0
13.200000000000001 1.9000000000000001 0.0
13.600000000000001 1.9000000000000001 0.0
14.0 1.9000000000000001 0.0
14.4 1.9000000000000001 0.0
14.8 1.9000000000000001 0.0
15.200000000000001 1.9000000000000001 0.0
15.600000000000001 1.9000000000000001 0.0
16.0 1.9000000000000001 0.0
0.0 2.0 0.0
0.4 2.0 0.0
0.8 2.0 0.0
1.2000000000000002 2.0 0.0
1.6 2.0 0.0
2.0 2.0 0.0
2.4000000000000004 2.0 0.0
2.8000000000000003 2.0 0.0
3.2 2.0 0.0
3.6 2.0 0.0
4.0 2.0 0.0
4.4 2.0 0.0
4.800000000000001 2.0 0.0
5.2 2.0 0.0
5.6000000000000005 2.0 0.0
6.0 2.0 0.0
6.4 2.0 0.0
6.800000000000001 2.0 0.0
7.2 2.0 0.0
7.6000000000000005 2.0 0.0
8.0 2.0 0.0
8.4 2.0 0.0
8.8 2.0 0.0
9.200000000000001 2.0 0.0
9.600000000000001 2.0 0.0
10.0 2.0 0.0
10.4 2.0 0.0
10.8 2.0 0.0
11.200000000000001 2.0 0.0
11.600000000000001 2.0 0.0
12.0 2.0 0.0
12.4 2.0 0.0
12.8 2.0 0.0
13.200000000000001 2.0 0.0
13.600000000000001 2.0 0.0
14.0 2.0 0.0
14.4 2.0 0.0
14.8 2.0 0.0
15.200000000000001 2.0 0.0
15.600000000000001 2.0 0.0
16.0 2.0 0.0
CELLS 800 4000
4 0 1 42 41
4 1 2 43 42
4 2 3 44 43
4 3 4 45 44
4 4 5 46 45
4 5 6 47 46
4 6 7 48 47
4 7 8 49 48
4 8 9 50 49
4 9 10 51 50
4 10 11 52 51
4 11 12 53 52
4 12 13 54 53
4 13 14 55 54
4 14 15 56 55
4 15 16 57 56
4 16 17 58 57
4 17 18 59 58
4 18 19 60 59
4 19 20 61 60
4 20 21 62 61
4 21 22 63 62
4 22 23 64 63
4 23 24 65 64
4 24 25 66 65
4 25 26 67 66
4 26 27 68 67
4 27 28 69 68
4 28 29 70 69
4 29 30 71 70
4 30 31 72 71
4 31 32 73 72
4 32 33 74 73
4 33 34 75 74
4 34 35 76 75
4 35 36 77 76
4 36 37 78 77
4 37 38 79 78
4 38 39 80 79
4 39 40 81 80
4 41 42 83 82
4 42 43 84 83
4 43 44 85 84
4 44 45 86 85
4 45 46 87 86
4 46 47 88 87
4 47 48 89 88
4 48 49 90 89
4 49 50 91 90
4 50 51 92 91
4 51 52 93 92
4 52 53 94 93
4 53 54 95 94
4 54 55 96 95
4 55 56 97 96
4 56 57 98 97
4 57 58 99 98
4 58 59 100 99
4 59 60 101 100
4 60 61 102 101
4 61 62 103 102
4 62 63 104 103
4 63 64 105 104
4 64 65 106 105
4 65 66 107 106
4 66 67 108 107
4 67 68 109 108
4 68 69 110 109
4 69 70 111 110
4 70 71 112 111
4 71 72 113 112
4 72 73 114 113
4 73 74 115 114
4 74 75 116 115
4 75 76 117 116
4 76 77 118 117
4 77 78 119 118
4 78 79 120 119
4 79 80 121 120
4 80 81 122 121
4 82 83 124 123
4 83 84 125 124
4 84 85 126 125
4 85 86 127 126
4 86 87 128 127
4 87 88 129 128
4 88 89 130 129
4 89 90 131 130
4 90 91 132 131
4 91 92 133 132
4 92 93 134 133
4 93 94 135 134
4 94 95 136 135
4 95 96 137 136
4 96 97 138 137
4 97 98 139 138
4 98 99 140 139
4 99 100 141 140
4 100 101 142 141
4 101 102 143 142
4 102 103 144 143
4 103 104 145 144
4 104 105 146 145
4 105 106 147 146
4 106 107 148 147
4 107 108 149 148
4 108 109 150 149
4 109 110 151 150
4 110 111 152 151
4 111 112 153 152
4 112 113 154 153
4 113 114 155 154
4 114 115 156 155
4 115 116 157 156
4 116 117 158 157
4 117 118 159 158
4 118 119 160 159
4 119 120 161 160
4 120 121 162 161
4 121 122 163 162
4 123 124 165 164
4 124 125 166 165
4 125 126 167 166
4 126 127 168 167
4 127 128 169 168
4 128 129 170 169
4 129 130 171 170
4 130 131 172 171
4 131 132 173 172
4 132 133 174 173
4 133 134 175 174
4 134 135 176 175
4 135 136 177 176
4 136 137 178 177
4 137 138 179 178
4 138 139 180 179
4 139 140 181 180
4 140 141 182 181
4 141 142 183 182
4 142 143 184 183
4 143 144 185 184
4 144 145 186 185
4 145 146 187 186
4 146 147 188 187
4 147 148 189 188
4 148 149 190 189
4 149 150 191 190
4 150 151 192 191
4 151 152 193 192
4 152 153 194 193
4 153 154 195 194
4 154 155 196 195
4 155 156 197 196
4 156 157 198 197
4 157 158 199 198
4 158 159 200 199
4 159 160 201 200
4 160 161 202 201
4 161 162 203 202
4 162 163 204 203
4 164 165 206 205
4 165 166 207 206
4 166 167 208 207
4 167 168 209 208
4 168 169 210 209
4 169 170 211 210
4 170 171 212 211
4 171 172 213 212
4 172 173 214 213
4 173 174 215 214
4 174 175 216 215
4 175 176 217 216
4 176 177 218 217
4 177 178 219 218
4 178 179 220 219
4 179 180 221 220
4 180 181 222 221
4 181 182 223 222
4 182 183 224 223
4 183 184 225 224
4 184 185 226 225
4 185 186 227 226
4 186 187 228 227
4 187 188 229 228
4 188 189 230 229
4 189 190 231 230
4 190 191 232 231
4 191 192 233 232
4 192 193 234 233
4 193 194 235 234
4 194 195 236 235
4 195 196 237 236
4 196 197 238 237
4 197 198 239 238
4 198 199 240 239
4 199 200 241 240
4 200 201 242 241
4 201 202 243 242
4 202 203 244 243
4 203 204 245 244
4 205 206 247 246
4 206 207 248 247
4 207 208 249 248
4 208 209 250 249
4 209 210 251 250
4 210 211 252 251
4 211 212 253 252
4 212 213 254 253
4 213 214 255 254
4 214 215 256 255
4 215 216 257 256
4 216 217 258 257
4 217 218 259 258
4 218 219 260 259
4 219 220 261 260
4 220 221 262 261
4 221 222 263 262
4 222 223 264 263
4 223 224 265 264
4 224 225 266 265
4 225 226 267 266
4 226 227 268 267
4 227 228 269 268
4 228 229 270 269
4 229 230 271 270
4 230 231 272 271
4 231 232 273 272
4 232 233 274 273
4 233 234 275 274
4 234 235 276 275
4 235 236 277 276
4 236 237 278 277
4 237 238 279 278
4 238 239 280 279
4 239 240 281 280
4 240 241 282 281
4 241 242 283 282
4 242 243 284 283
4 243 244 285 284
4 244 245 286 285
4 246 247 288 287
4 247 248 289 288
4 248 249 290 289
4 249 250 291 290
4 250 251 292 291
4 251 252 293 292
4 252 253 294 293
4 253 254 295 294
4 254 255 296 295
4 255 256 297 296
4 256 257 298 297
4 257 258 299 298
4 258 259 300 299
4 259 260 301 300
4 260 261 302 301
4 261 262 303 302
4 262 263 304 303
4 263 264 305 304
4 264 265 306 305
4 265 266 307 306
4 266 267 308 307
4 267 268 309 308
4 268 269 310 309
4 269 270 311 310
4 270 271 312 311
4 271 272 313 312
4 272 273 314 313
4 273 274 315 314
4 274 275 316 315
4 275 276 317 316
4 276 277 318 317
4 277 278 319 318
4 278 279 320 319
4 279 280 321 320
4 280 281 322 321
4 281 282 323 322
4 282 283 324 323
4 283 284 325 324
4 284 285 326 325
4 285 286 327 326
4 287 288 329 328
4 288 289 330 329
4 289 290 331 330
4 290 291 332 331
4 291 292 333 332
4 292 293 334 333
4 293 294 335 334
4 294 295 336 335
4 295 296 337 336
4 296 297 338 337
4 297 298 339 338
4 298 299 340 339
4 299 300 341 340
4 300 301 342 341
4 301 302 343 342
4 302 303 344 343
4 303 304 345 344
4 304 305 346 345
4 305 306 347 346
4 306 307 348 347
4 307 308 349 348
4 308 309 350 349
4 309 310 351 350
4 310 311 352 351
4 311 312 353 352
4 312 313 354 353
4 313 314 355 354
4 314 315 356 355
4 315 316 357 356
4 316 317 358 357
4 317 318 359 358
4 318 319 360 359
4 319 320 361 360
4 320 321 362 361
4 321 322 363 362
4 322 323 364 363
4 323 324 365 364
4 324 325 366 365
4 325 326 367 366
4 326 327 368 367
4 328 329 370 369
4 329 330 371 370
4 330 331 372 371
4 331 332 373 372
4 332 333 374 373
4 333 334 375 374
4 334 335 376 375
4 335 336 377 376
4 336 337 378 377
4 337 338 379 378
4 338 339 380 379
4 339 340 381 380
4 340 341 382 381
4 341 342 383 382
4 342 343 384 383
4 343 344 385 384
4 344 345 386 385
4 345 346 387 386
4 346 347 388 387
4 347 348 389 388
4 348 349 390 389
4 349 350 391 390
4 350 351 392 391
4 351 352 393 392
4 352 353 394 393
4 353 354 395 394
4 354 355 396 395
4 355 356 397 396
4 356 357 398 397
4 357 358 399 398
4 358 359 400 399
4 359 360 401 400
4 360 361 402 401
4 361 362 403 402
4 362 363 404 403
4 363 364 405 404
4 364 365 406 405
4 365 366 407 406
4 366 367 408 407
4 367 368 409 408
4 369 370 411 410
4 370 371 412 411
4 371 372 413 412
4 372 373 414 413
4 373 374 415 414
4 374 375 416 415
4 375 376 417 416
4 376 377 418 417
4 377 378 419 418
4 378 379 420 419
4 379 380 421 420
4 380 381 422 421
4 381 382 423 422
4 382 383 424 423
4 383 384 425 424
4 384 385 426 425
4 385 386 427 426
4 386 387 428 427
4 387 388 429 428
4 388 389 430 429
4 389 390 431 430
4 390 391 432 431
4 391 392 433 432
4 392 393 434 433
4 393 394 435 434
4 394 395 436 435
4 395 396 437 436
4 396 397 438 437
4 397 398 439 438
4 398 399 440 439
4 399 400 441 440
4 400 401 442 441
4 401 402 443 442
4 402 403 444 443
4 403 404 445 444
4 404 405 446 445
4 405 406 447 446
4 406 407 448 447
4 407 408 449 448
4 408 409 450 449
4 410 411 452 451
4 411 412 453 452
4 412 413 454 453
4 413 414 455 454
4 414 415 456 455
4 415 416 457 456
4 416 417 458 457
4 417 418 459 458
4 418 419 460 459
4 419 420 461 460
4 420 421 462 461
4 421 422 463 462
4 422 423 464 463
4 423 424 465 464
4 424 425 466 465
4 425 426 467 466
4 426 427 468 467
4 427 428 469 468
4 428 429 470 469
4 429 430 471 470
4 430 431 472 471
4 431 432 473 472
4 432 433 474 473
4 433 434 475 474
4 434 435 476 475
4 435 436 477 476
4 436 437 478 477
4 437 438 479 478
4 438 439 480 479
4 439 440 481 480
4 440 441 482 481
4 441 442 483 482
4 442 443 484 483
4 443 444 485 484
4 444 445 486 485
4 445 446 487 486
4 446 447 488 487
4 447 448 489 488
4 448 449 490 489
4 449 450 491 490
4 451 452 493 492
4 452 453 494 493
4 453 454 495 494
4 454 455 496 495
4 455 456 497 496
4 456 457 498 497
4 457 458 499 498
4 458 459 500 499
4 459 460 501 500
4 460 461 502 501
4 461 462 503 502
4 462 463 504 503
4 463 464 505 504
4 464 465 506 505
4 465 466 507 506
4 466 467 508 507
4 467 468 509 508
4 468 469 510 509
4 469 470 511 510
4 470 471 512 511
4 471 472 513 512
4 472 473 514 513
4 473 474 515 514
4 474 475 516 515
4 475 476 517 516
4 476 477 518 517
4 477 478 519 518
4 478 479 520 519
4 479 480 521 520
4 480 481 522 521
4 481 482 523 522
4 482 483 524 523
4 483 484 525 524
4 484 485 526 525
4 485 486 527 526
4 486 487 528 527
4 487 488 529 528
4 488 489 530 529
4 489 490 531 530
4 490 491 532 531
4 492 493 534 533
4 493 494 535 534
4 494 495 536 535
4 495 496 537 536
4 496 497 538 537
4 497 498 539 538
4 498 499 540 539
4 499 500 541 540
4 500 501 542 541
4 501 502 543 542
4 502 503 544 543
4 503 504 545 544
4 504 505 546 545
4 505 506 547 546
4 506 507 548 547
4 507 508 549 548
4 508 509 550 549
4 509 510 551 550
4 510 511 552 551
4 511 512 553 552
4 512 513 554 553
4 513 514 555 554
4 514 515 556 555
4 515 516 557 556
4 516 517 558 557
4 517 518 559 558
4 518 519 560 559
4 519 520 561 560
4 520 521 562 561
4 521 522 563 562
4 522 523 564 563
4 523 524 565 564
4 524 525 566 565
4 525 526 567 566
4 526 527 568 567
4 527 528 569 568
4 528 529 570 569
4 529 530 571 570
4 530 531 572 571
4 531 532 573 572
4 533 534 575 574
4 534 535 576 575
4 535 536 577 576
4 536 537 578 577
4 537 538 579 578
4 538 539 580 579
4 539 540 581 580
4 540 541 582 581
4 541 542 583 582
4 542 543 584 583
4 543 544 585 584
4 544 545 586 585
4 545 546 587 586
4 546 547 588 587
4 547 548 589 588
4 548 549 590 589
4 549 550 591 590
4 550 551 592 591
4 551 552 593 592
4 552 553 594 593
4 553 554 595 594
4 554 555 596 595
4 555 556 597 596
4 556 557 598 597
4 557 558 599 598
4 558 559 600 599
4 559 560 601 600
4 560 561 602 601
4 561 562 603 602
4 562 563 604 603
4 563 564 605 604
4 564 565 606 605
4 565 566 607 606
4 566 567 608 607
4 567 568 609 608
4 568 569 610 609
4 569 570 611 610
4 570 571 612 611
4 571 572 613 612
4 572 573 614 613
4 574 575 616 615
4 575 576 617 616
4 576 577 618 617
4 577 578 619 618
4 578 579 620 619
4 579 580 621 620
4 580 581 622 621
4 581 582 623 622
4 582 583 624 623
4 583 584 625 624
4 584 585 626 625
4 585 586 627 626
4 586 587 628 627
4 587 588 629 628
4 588 589 630 629
4 589 590 631 630
4 590 591 632 631
4 591 592 633 632
4 592 593 634 633
4 593 594 635 634
4 594 595 636 635
4 595 596 637 636
4 596 597 638 637
4 597 598 639 638
4 598 599 640 639
4 599 600 641 640
4 600 601 642 641
4 601 602 643 642
4 602 603 644 643
4 603 604 645 644
4 604 605 646 645
4 605 606 647 646
4 606 607 648 647
4 607 608 649 648
4 608 609 650 649
4 609 610 651 650
4 610 611 652 651
4 611 612 653 652
4 612 613 654 653
4 613 614 655 654
4 615 616 657 656
4 616 617 658 657
4 617 618 659 658
4 618 619 660 659
4 619 620 661 660
4 620 621 662 661
4 621 622 663 662
4 622 623 664 663
4 623 624 665 664
4 624 625 666 665
4 625 626 667 666
4 626 627 668 667
4 627 628 669 668
4 628 629 670 669
4 629 630 671 670
4 630 631 672 671
4 631 632 673 672
4 632 633 674 673
4 633 634 675 674
4 634 635 676 675
4 635 636 677 676
4 636 637 678 677
4 637 638 679 678
4 638 639 680 679
4 639 640 681 680
4 640 641 682 681
4 641 642 683 682
4 642 643 684 683
4 643 644 685 684
4 644 645 686 685
4 645 646 687 686
4 646 647 688 687
4 647 648 689 688
4 648 649 690 689
4 649 650 691 690
4 650 651 692 691
4 651 652 693 692
4 652 653 694 693
4 653 654 695 694
4 654 655 696 695
4 656 657 698 697
4 657 658 699 698
4 658 659 700 699
4 659 660 701 700
4 660 661 702 701
4 661 662 703 702
4 662 663 704 703
4 663 664 705 704
4 664 665 706 705
4 665 666 707 706
4 666 667 708 707
4 667 668 709 708
4 668 669 710 709
4 669 670 711 710
4 670 671 712 711
4 671 672 713 712
4 672 673 714 713
4 673 674 715 714
4 674 675 716 715
4 675 676 717 716
4 676 677 718 717
4 677 678 719 718
4 678 679 720 719
4 679 680 721 720
4 680 681 722 721
4 681 682 723 722
4 682 683 724 723
4 683 684 725 724
4 684 685 726 725
4 685 686 727 726
4 686 687 728 727
4 687 688 729 728
4 688 689 730 729
4 689 690 731 730
4 690 691 732 731
4 691 692 733 732
4 692 693 734 733
4 693 694 735 734
4 694 695 736 735
4 695 696 737 736
4 697 698 739 738
4 698 699 740 739
4 699 700 741 740
4 700 701 742 741
4 701 702 743 742
4 702 703 744 743
4 703 704 745 744
4 704 705 746 745
4 705 706 747 746
4 706 707 748 747
4 707 708 749 748
4 708 709 750 749
4 709 710 751 750
4 710 711 752 751
4 711 712 753 752
4 712 713 754 753
4 713 714 755 754
4 714 715 756 755
4 715 716 757 756
4 716 717 758 757
4 717 718 759 758
4 718 719 760 759
4 719 720 761 760
4 720 721 762 761
4 721 722 763 762
4 722 723 764 763
4 723 724 765 764
4 724 725 766 765
4 725 726 767 766
4 726 727 768 767
4 727 728 769 768
4 728 729 770 769
4 729 730 771 770
4 730 731 772 771
4 731 732 773 772
4 732 733 774 773
4 733 734 775 774
4 734 735 776 775
4 735 736 777 776
4 736 737 778 777
4 738 739 780 779
4 739 740 781 780
4 740 741 782 781
4 741 742 783 782
4 742 743 784 783
4 743 744 785 784
4 744 745 786 785
4 745 746 787 786
4 746 747 788 787
4 747 748 789 788
4 748 749 790 789
4 749 750 791 790
4 750 751 792 791
4 751 752 793 792
4 752 753 794 793
4 753 754 795 794
4 754 755 796 795
4 755 756 797 796
4 756 757 798 797
4 757 758 799 798
4 758 759 800 799
4 759 760 801 800
4 760 761 802 801
4 761 762 803 802
4 762 763 804 803
4 763 764 805 804
4 764 765 806 805
4 765 766 807 806
4 766 767 808 807
4 767 768 809 808
4 768 769 810 809
4 769 770 811 810
4 770 771 812 811
4 771 772 813 812
4 772 773 814 813
4 773 774 815 814
4 774 775 816 815
4 775 776 817 816
4 776 777 818 817
4 777 778 819 818
4 779 780 821 820
4 780 781 822 821
4 781 782 823 822
4 782 783 824 823
4 783 784 825 824
4 784 785 826 825
4 785 786 827 826
4 786 787 828 827
4 787 788 829 828
4 788 789 830 829
4 789 790 831 830
4 790 791 832 831
4 791 792 833 832
4 792 793 834 833
4 793 794 835 834
4 794 795 836 835
4 795 796 837 836
4 796 797 838 837
4 797 798 839 838
4 798 799 840 839
4 799 800 841 840
4 800 801 842 841
4 801 802 843 842
4 802 803 844 843
4 803 804 845 844
4 804 805 846 845
4 805 806 847 846
4 806 807 848 847
4 807 808 849 848
4 808 809 850 849
4 809 810 851 850
4 810 811 852 851
4 811 812 853 852
4 812 813 854 853
4 813 814 855 854
4 814 815 856 855
4 815 816 857 856
4 816 817 858 857
4 817 818 859 858
4 818 819 860 859
CELL_TYPES 800
9
9
9
9
9
9
9
9
9
9
9
9
9
9
9
9
9
9
9
9
9
9
9
9
9
9
9
9
9
9
9
9
9
9
9
9
9
9
9
9
9
9
9
9
9
9
9
9
9
9
9
9
9
9
9
9
9
9
9
9
9
9
9
9
9
9
9
9
9
9
9
9
9
9
9
9
9
9
9
9
9
9
9
9
9
9
9
9
9
9
9
9
9
9
9
9
9
9
9
9
9
9
9
9
9
9
9
9
9
9
9
9
9
9
9
9
9
9
9
9
9
9
9
9
9
9
9
9
9
9
9
9
9
9
9
9
9
9
9
9
9
9
9
9
9
9
9
9
9
9
9
9
9
9
9
9
9
9
9
9
9
9
9
9
9
9
9
9
9
9
9
9
9
9
9
9
9
9
9
9
9
9
9
9
9
9
9
9
9
9
9
9
9
9
9
9
9
9
9
9
9
9
9
9
9
9
9
9
9
9
9
9
9
9
9
9
9
9
9
9
9
9
9
9
9
9
9
9
9
9
9
9
9
9
9
9
9
9
9
9
9
9
9
9
9
9
9
9
9
9
9
9
9
9
9
9
9
9
9
9
9
9
9
9
9
9
9
9
9
9
9
9
9
9
9
9
9
9
9
9
9
9
9
9
9
9
9
9
9
9
9
9
9
9
9
9
9
9
9
9
9
9
9
9
9
9
9
9
9
9
9
9
9
9
9
9
9
9
9
9
9
9
9
9
9
9
9
9
9
9
9
9
9
9
9
9
9
9
9
9
9
9
9
9
9
9
9
9
9
9
9
9
9
9
9
9
9
9
9
9
9
9
9
9
9
9
9
9
9
9
9
9
9
9
9
9
9
9
9
9
9
9
9
9
9
9
9
9
9
9
9
9
9
9
9
9
9
9
9
9
9
9
9
9
9
9
9
9
9
9
9
9
9
9
9
9
9
9
9
9
9
9
9
9
9
9
9
9
9
9
9
9
9
9
9
9
9
9
9
9
9
9
9
9
9
9
9
9
9
9
9
9
9
9
9
9
9
9
9
9
9
9
9
9
9
9
9
9
9
9
9
9
9
9
9
9
9
9
9
9
9
9
9
9
9
9
9
9
9
9
9
9
9
9
9
9
9
9
9
9
9
9
9
9
9
9
9
9
9
9
9
9
9
9
9
9
9
9
9
9
9
9
9
9
9
9
9
9
9
9
9
9
9
9
9
9
9
9
9
9
9
9
9
9
9
9
9
9
9
9
9
9
9
9
9
9
9
9
9
9
9
9
9
9
9
9
9
9
9
9
9
9
9
9
9
9
9
9
9
9
9
9
9
9
9
9
9
9
9
9
9
9
9
9
9
9
9
9
9
9
9
9
9
9
9
9
9
9
9
9
9
9
9
9
9
9
9
9
9
9
9
9
9
9
9
9
9
9
9
9
9
9
9
9
9
9
9
9
9
9
9
9
9
9
9
9
9
9
9
9
9
9
9
9
9
9
9
9
9
9
9
9
9
9
9
9
9
9
9
9
9
9
9
9
9
9
9
9
9
9
9
9
9
9
9
9
9
9
9
9
9
9
9
9
9
9
9
9
9
9
9
9
9
9
9
9
9
9
9
9
9
9
9
9
9
9
9
9
9
9
9
9
9
9
9
9
9
9
9
9
9
9
9
9
9
9
9
9
9
9
9
9
9
9
9
9
9
9
9
9
9
9
9
9
9
9
9
9
9
9
9
9
9
9
9
9
9
9
9
9
9
9
9
9
9
9
9
9
9
9
9
9
9
9
9
9
9
9
9
9
9
9
9
9
9
9
9
9
9
9
POINT_DATA 861
SCALARS Disp float 2
LOOKUP_TABLE default
0.0 0.0
0.005728326069797861 -0.2426478422586879
0.007036310921757891 -0.4761971595227314
0.007817700850633665 -0.7087183841551312
0.008822016477381261 -0.9408798963675418
0.010433534511920372 -1.1722832028713506
0.013251041097721244 -1.4023994216536009
0.0180017991384816 -1.630563424677244
0.025540847178245858 -1.8559447305036103
0.03680034773047586 -2.0774641491458605
0.05271286016220782 -2.2936670683443343
0.07416210575799262 -2.5026440778233625
0.10196011080970872 -2.7020528791758363
0.13683869503388968 -2.889227369637011
0.17944757598321923 -3.06125899922945
0.23028757143923503 -3.215059786914955
0.28958812478874774 -3.347441588088112
0.35715851267023935 -3.4552452333463037
0.43225899198567885 -3.53555570986143
0.5135453800119796 -3.585947750796569
0.5988761323048164 -3.604766845748381
0.6842068845976484 -3.585947750796455
0.7654932726239315 -3.535555709861201
0.840593751939341 -3.4552452333459716
0.9081641398207948 -3.3474415880876967
0.9674646931702676 -3.2150597869144812
1.0183046886262426 -3.06125899922893
1.0609135695755316 -2.889227369636461
1.0957921537996718 -2.7020528791752723
1.1235901588513486 -2.502644077822804
1.1450394044470986 -2.2936670683437947
1.1609519168788023 -2.077464149145353
1.1722114174310103 -1.8559447305031411
1.179750465470758 -1.6305634246768206
1.1845012235115069 -1.4023994216532274
1.1873187300973007 -1.172283202871034
1.188930248131837 -0.9408798963672825
1.1899345637585836 -0.7087183841549328
1.1907159536874592 -0.47619715952259234
1.192023938539418 -0.24264784225861083
1.1977522646092125 0.0
0.06052591110245977 -0.0023885439473304354
0.0645260872141825 -0.2429050087869845
0.06521019294920576 -0.47625900346544203
0.06590344948554266 -0.7088073415652208
0.06678539404449428 -0.9410220942580652
0.06815659233902298 -1.1725956536581454
0.07058012806014438 -1.4030461317766385
0.07474294111412151 -1.6317401118602284
0.08144835896407551 -1.85787003059665
0.09154787855442895 -2.080360780121241
0.10587366508194457 -2.2977482226363373
0.12519893842653934 -2.5081075620266464
0.15023849541776552 -2.709080903998356
0.18165805450032685 -2.8979860992897426
0.2200514522678989 -3.0718912807882077
0.2658859813516292 -3.227662159796252
0.31939179996762057 -3.3620304615783856
0.3804295374249862 -3.4717222226240945
0.44836796441992294 -3.553679771918005
0.5219375915584318 -3.605310624032183
0.5988761323048024 -3.624640869976667
0.6758146730511685 -3.6053106240320667
0.749384300189661 -3.55367977191777
0.8173227271845713 -3.4717222226237547
0.878360464641904 -3.362030461577961
0.9318662832578599 -3.2276621597957686
0.9777008123415534 -3.071891280787679
1.0160942101090888 -2.8979860992891826
1.0475137691916134 -2.709080903997783
1.0725533261828044 -2.5081075620260784
1.0918785995273679 -2.29774822263579
1.1062043860548578 -2.0803607801207273
1.116303905645191 -1.8578700305961764
1.1230093234951302 -1.6317401118598016
1.127172136549097 -1.403046131776263
1.1295956722702125 -1.172595653657828
1.1309668705647387 -0.9410220942578058
1.1318488151236896 -0.7088073415650225
1.1325420716600265 -0.476259003465303
1.1332261773950498 -0.2429050087869071
1.137226353506767 -0.0023885439473279005
0.12008035969092394 -0.004283385464502344
0.12301153908511096 -0.2430323210848824
0.12340394307907891 -0.4762921577469263
0.12396965614854023 -0.7088857318415214
0.12473878916755766 -0.9411358378038771
0.1258941239985616 -1.1728428772751844
0.12793285737558344 -1.403581389515719
0.13151047560985882 -1.6327487895086603
0.1373680396932135 -1.8595553787108288
0.14627918852291688 -2.0829239645257296
0.15898029449433487 -2.3013769611503343
0.17614383219516438 -2.512973862880166
0.19838974150114294 -2.715345706796085
0.22630497068124228 -2.9058005158907805
0.2604317972040556 -3.081386622394292
0.3012042701463949 -3.238930604815642
0.3488629164486502 -3.3750960478677023
0.40333639209481037 -3.486507832229962
0.46409489953615424 -3.5699724894445652
0.5299381646882096 -3.622698632185509
0.598876132304789 -3.642490814454913
0.6678140999213639 -3.6226986321853905
0.7336573650734043 -3.569972489444325
0.794415872514725 -3.4865078322296155
0.8488893481608566 -3.37509604786727
0.8965479944630805 -3.23893060481515
0.9373204674053867 -3.081386622393754
0.9714472939281674 -2.905800515890212
0.999362523108234 -2.715345706795503
1.0216084324141819 -2.512973862879591
1.0387719701149833 -2.301376961149781
1.0514730760863784 -2.082923964525211
1.0603842249160638 -1.859555378710351
1.066241788999405 -1.632748789508231
1.069819407233671 -1.403581389515342
1.0718581406106882 -1.172842877274866
1.0730134754416902 -0.9411358378036174
1.0737826084607072 -0.7088857318413229
1.0743483215301686 -0.47629215774678724
1.0747407255241366 -0.24303232108480463
1.077671904918318 -0.004283385464497057
0.17912272233017312 -0.005805671386990418
0.18133627496957955 -0.24311905842283174
0.18157569374321578 -0.4763105129415856
0.1820183373447926 -0.7089492852497048
0.1826771377086661 -0.9412289391640608
0.18364273438041298 -1.1730327303443926
0.18531899840807547 -1.404009018799472
0.18831821046455635 -1.633590603108172
0.19332317802642376 -1.8609977322812754
0.20102930343316297 -2.085147953989168
0.2120818038305773 -2.3045462208125365
0.22705660638552266 -2.517236514460191
0.24648312815690704 -2.7208407872619444
0.27086822613236733 -2.9126617252840434
0.3006906079700779 -3.089734331523117
0.336358176502821 -3.2488538350137617
0.3781257855768585 -3.386628456115969
0.4259893326417107 -3.499595293022499
0.47952749333690226 -3.584427276220191
0.5377187337934912 -3.638154626460337
0.5988761323047758 -3.658413131494318
0.6600335308160565 -3.6381546264602163
0.7182247712726321 -3.584427276219946
0.771762931967803 -3.499595293022147
0.8196264790326304 -3.3866284561155293
0.8613940881066404 -3.2488538350132625
0.8970616566393546 -3.0897343315225716
0.9268840384770364 -2.912661725283468
0.9512691364524679 -2.7208407872613556
0.9706956582238254 -2.5172365144596087
0.9856704607787464 -2.3045462208119774
0.9967229611761409 -2.0851479539886446
1.004429086582864 -1.860997732280794
1.0094340541447193 -1.63359060310774
1.0124332662011926 -1.4040090187990932
1.014109530228851 -1.1730327303440735
1.0150751269005966 -0.9412289391638009
1.0157339272644699 -0.7089492852495063
1.0161765708660468 -0.47631051294144655
1.016415989639683 -0.2431190584227536
1.0186295422790845 -0.005805671386982659
0.23787268350090718 -0.007035336618102281
0.23955053583515537 -0.24318672882386846
0.23970677073790853 -0.47632106350090714
0.24004559120081317 -0.7089986213288748
0.24059687999120494 -0.9413051911158146
0.24139453154516985 -1.1731768367463453
0.24274514228152239 -1.4043368610687346
0.24517915676117158 -1.6342684028673033
0.24933729339785368 -1.8621973200365705
0.2558334215935203 -2.0870302710733117
0.2652258004273721 -2.3072525907761627
0.2779985817850287 -2.5208916146179985
0.29459024221939695 -2.7255623415398844
0.3154285073329072 -2.918565581456709
0.34093215130510357 -3.0969281570266878
0.3714692304548476 -3.2574236944500985
0.40730577570766757 -3.3966177299746274
0.44850687405767586 -3.5109728298814984
0.49479054175115356 -3.5970448931399046
0.5453697332301553 -3.6517107104072295
0.598876132304763 -3.6724610557684194
0.6523825313793671 -3.651710710407107
0.7029617228583567 -3.597044893139656
0.7492453905518164 -3.5109728298811405
0.7904464889018036 -3.3966177299741824
0.8262830341545996 -3.2574236944495922
0.8568201133043185 -3.0969281570261358
0.88232375727649 -2.918565581456127
0.903162022389976 -2.72556234153929
0.9197536828243211 -2.5208916146174105
0.9325264641819571 -2.3072525907755983
0.9419188430157919 -2.0870302710727837
0.9484149712114447 -1.8621973200360862
0.9525731078481162 -1.6342684028668695
0.9550071223277593 -1.4043368610683549
0.9563577330641088 -1.173176836746026
0.9571553846180727 -0.9413051911155548
0.9577066734084643 -0.7089986213286763
0.958045493871369 -0.47632106350076814
0.9582017287741221 -0.24318672882379003
0.9598795811083662 -0.007035336618092369
0.29642943824994844 -0.008022753678890661
0.2976875692701978 -0.24324268454665343
0.29779539907256125 -0.4763285536208535
0.2980484837218434 -0.7090351608544054
0.29849423801797986 -0.9413674281066052
0.29914342513802217 -1.1732853589270462
0.30020382193175926 -1.4045780494648932
0.3021128764229011 -1.6347879732028066
0.3054340558405166 -1.863157061758336
0.3107269226231442 -2.088571957407806
0.31846011637603605 -2.309495779391991
0.32902903851055726 -2.5239387726824036
0.34278485052116286 -2.729509792043724
0.3600748982717251 -2.9235111705969894
0.38125319447941414 -3.102967078990997
0.4066545409049254 -3.2646364598566384
0.43653777766497937 -3.405054642098913
0.47102579676857526 -3.5206285396064882
0.5100049749252068 -3.607822134808743
0.5529650980140236 -3.663382831223219
0.59887613230475 -3.684666098051886
0.6447871665954732 -3.6633828312230943
0.6877472896842792 -3.607822134808491
0.7267264678408957 -3.520628539606126
0.7612144869444738 -3.405054642098463
0.7910977237045075 -3.264636459856127
0.8164990701299973 -3.102967078990439
0.8376773663376658 -2.9235111705964014
0.8549674140882079 -2.729509792043124
0.8687232260987944 -2.5239387726818103
0.8792921482332986 -2.3094957793914226
0.8870253419861763 -2.088571957407274
0.8923182087687921 -1.8631570617578488
0.895639388186399 -1.6347879732023711
0.8975484426775361 -1.4045780494645128
0.898608839471271 -1.173285358926727
0.8992580265913127 -0.9413674281063454
0.8997037808874491 -0.7090351608542069
0.8999568655367312 -0.47632855362071447
0.9000646953390946 -0.2432426845465748
0.9013228263593407 -0.008022753678878882
0.35484519622451427 -0.008806474584837012
0.35577027137358735 -0.24328970884321727
0.3558466575518083 -0.47633538560433425
0.35602677525417886 -0.7090603406669161
0.3563684266266299 -0.9414170230124365
0.35688222887680715 -1.173366629870264
0.35768581478098027 -1.4047481574024039
0.35911690011011493 -1.635163653330728
0.3616413256644569 -1.86388318972449
0.3657461091220449 -2.0897773077299586
0.3718336040116733 -2.311279174491107
0.3802096520343312 -2.5263809768593366
0.39114051391812105 -2.7326863878683345
0.4048947299092091 -2.9275018100866683
0.4217613648818131 -3.1078534068949737
0.44203078422781544 -3.270492974344836
0.46595364118636856 -3.4119346125919265
0.4936958684200948 -3.528550668721142
0.5253030568385058 -3.6167475441767913
0.5605790938782776 -3.673170471293922
0.5988761323047367 -3.6950417307467656
0.6371731707311934 -3.6731704712937954
0.6724492077709562 -3.616747544176537
0.7040563961893548 -3.528550668720776
0.7317986234230662 -3.4119346125914722
0.7557214803816029 -3.2704929743443194
0.7759908997275877 -3.1078534068944115
0.7928575347001754 -2.927501810086076
0.8066117506912477 -2.7326863878677305
0.8175426125750225 -2.5263809768587393
0.8259186605976668 -2.311279174490535
0.8320061554872837 -2.0897773077294244
0.8361109389448622 -1.863883189724001
0.8386353644991978 -1.6351636533302913
0.840066449828329 -1.4047481574020229
0.8408700357325006 -1.1733666298699448
0.8413838379826777 -0.9414170230121767
0.8417254893551285 -0.7090603406667175
0.841905607057499 -0.4763353856041952
0.8419819932357198 -0.2432897088431384
0.8429070683847903 -0.008806474584823734
0.413154939602121 -0.009417447170326753
0.4138157589097469 -0.24332995367340596
0.41386789021657194 -0.47634206928611234
0.4139822535170715 -0.7090754751868393
0.41422136854151126 -0.9414537631480301
0.4146038900012385 -1.1734270015735493
0.41518564684402554 -1.4048616628411035
0.41618630518276595 -1.6354147429613228
0.4179712566268239 -1.864390649639595
0.4209313307929027 -2.0906549233482385
0.4253974948763993 -2.3126097924770845
0.43160250798052824 -2.5282250271504565
0.4397334375016447 -2.7350995577288177
0.4499794110101584 -2.9305452483125496
0.46255982443864724 -3.1115944277973253
0.47771975798138006 -3.2749983509153933
0.4956939398250477 -3.4172582831851677
0.516670184483012 -3.5347299920774526
0.5408282003368039 -3.623801248205188
0.5682959562036928 -3.681055007302172
0.5988761323047233 -3.7035830220868355
0.629456308405752 -3.681055007302044
0.6569240642726336 -3.623801248204931
0.6810820801264158 -3.534729992077084
0.7020583247843687 -3.4172582831847103
0.7200325066280235 -3.2749983509148732
0.7351924401707429 -3.11159442779676
0.7477728535992197 -2.930545248311954
0.7580188271077224 -2.7350995577282107
0.7661497566288278 -2.5282250271498565
0.7723547697329463 -2.3126097924765103
0.7768209338164344 -2.090654923347702
0.7797810079825064 -1.8643906496391043
0.7815659594265599 -1.6354147429608854
0.7825666177652979 -1.4048616628407222
0.7831483746080841 -1.17342700157323
0.783530896067811 -0.9414537631477701
0.7837700110922508 -0.7090754751866408
0.7838843743927503 -0.4763420692859732
0.7839365056995752 -0.243329953673327
0.7845973250071991 -0.009417447170312272
0.47137993547528784 -0.009884850293510834
0.4718399916012282 -0.24336531536095626
0.4718658476452149 -0.47634779454346954
0.47191806769702194 -0.7090816079372766
0.4720572886211991 -0.9414769695742006
0.4723055069933777 -1.1734694952654672
0.47268838806282215 -1.40493364202664
0.47331507394277544 -1.6355638802088845
0.47442695481267755 -1.8647030824704707
0.47630968846261973 -2.091222679013313
0.47920473211877485 -2.313500273371272
0.48327691866331 -2.529482680118755
0.48864327161688814 -2.736761680886709
0.49542159196940067 -2.932654725860559
0.5037589443376254 -3.114202618705672
0.5138435227994687 -3.2781630520908
0.5258928359976014 -3.4210336387755182
0.5401177554117944 -3.5391629967680283
0.5567548196168494 -3.6289569357952165
0.5762212583122331 -3.68699743211714
0.5988761323047095 -3.7102644585349225
0.6215310062971843 -3.6869974321170114
0.6409974449925634 -3.6289569357949585
0.6576345091976113 -3.539162996767657
0.6718594286117962 -3.4210336387750586
0.68390874180992 -3.278163052090277
0.6939933202717544 -3.1142026187051037
0.7023306726399715 -2.932654725859962
0.7091089929924772 -2.736761680886099
0.7144753459460483 -2.529482680118153
0.7185475324905765 -2.3135002733706957
0.7214425761467261 -2.091222679012775
0.7233253097966644 -1.8647030824699793
0.7244371906665636 -1.6355638802084465
0.7250638765465156 -1.4049336420262588
0.7254467576159596 -1.1734694952651479
0.7256949759881381 -0.9414769695739407
0.7258341969123152 -0.709081607937078
0.7258864169641223 -0.47634779454333037
0.7259122730081088 -0.24336531536087724
0.7263723291340479 -0.009884850293495402
0.5295350468495963 -0.010238152744588558
0.5298520034299092 -0.24339823304221275
0.5298467401515923 -0.4763508061671904
0.5298383063293948 -0.7090795045486581
0.529880564863605 -0.9414865009778168
0.529991146466303 -1.173493579924958
0.5301798000363885 -1.4049749047438758
0.5304845313706468 -1.6356379651770379
0.5310030042091402 -1.864854444055224
0.5318961271926412 -2.091511951797885
0.5332970096580871 -2.3139760016803104
0.5352981738807094 -2.530175396164457
0.5379500712437378 -2.73769317364842
0.5413098997985485 -2.933851726380911
0.5454576006043778 -3.1156993907496804
0.5505139130258133 -3.280005106037469
0.556663102871755 -3.423275453870098
0.5641532360590236 -3.5418616242124603
0.5732748191100704 -3.6321944953376013
0.5845172312239133 -3.6909350541568786
0.598876132304695 -3.7150310821532866
0.613235033385476 -3.690935054156749
0.6244774454993168 -3.632194495337342
0.6335990285503592 -3.5418616242120877
0.641089161737623 -3.423275453869636
0.6472383515835604 -3.2800051060369446
0.6522946640049919 -3.11569939074911
0.6564423648108179 -2.933851726380312
0.6598021933656262 -2.737693173647809
0.6624540907286514 -2.5301753961638536
0.6644552549512704 -2.3139760016797326
0.6658561374167143 -2.091511951797346
0.6667492604002139 -1.8648544440547319
0.667267733238706 -1.6356379651765993
0.6675724645729637 -1.4049749047434943
0.6677611181430492 -1.1734935799246384
0.6678716997457471 -0.9414865009775569
0.6679139582799574 -0.7090795045484595
0.6679055244577597 -0.47635080616705117
0.6679002611794427 -0.24339823304213376
0.6682172177597548 -0.010238152744572453
0.5876371243326125 -0.010502767740770419
0.5878533861030517 -0.24343142164326712
0.5878155907226076 -0.4763493606525435
0.5877474829163571 -0.7090696624553364
0.5876953255133885 -0.9414825198648045
0.5876687349054831 -1.173498445976329
0.5876586159625674 -1.4049879031114418
0.5876552355779989 -1.635660731114985
0.5876542477605241 -1.8648949615822956
0.5876542594879313 -2.0915853069050176
0.587654428391189 -2.3140972079694353
0.5876535399105798 -2.5303566494758165
0.5876462751473347 -2.737944754646405
0.58762939473145 -2.934184999390885
0.587614032989953 -3.1161317848414014
0.5876574396473249 -3.2805669280903733
0.587908016619381 -3.4240189452383945
0.5886558040408051 -3.5428632634164945
0.5903148320076423 -3.6335455959106504
0.5933460847556078 -3.692810724752948
0.5988761323046801 -3.7177918892754853
0.6044061798537527 -3.692810724752819
0.6074374326017176 -3.6335455959103906
0.6090964605685536 -3.542863263416121
0.6098442479899774 -3.4240189452379326
0.6100948249620344 -3.2805669280898484
0.6101382316194066 -3.116131784840831
0.6101228698779108 -2.9341849993902853
0.6101059894620278 -2.7379447546457945
0.6100987246987841 -2.5303566494752125
0.6100978362181758 -2.314097207968857
0.6100980051214346 -2.0915853069044785
0.6100980168488424 -1.8648949615818038
0.6100970290313676 -1.6356607311145464
0.6100936486467993 -1.4049879031110604
0.6100835297038837 -1.1734984459760094
0.6100569390959784 -0.9414825198645446
0.6100047816930098 -0.7090696624551378
0.6099366738867594 -0.47634936065240424
0.6098988785063152 -0.24343142164318818
0.610115140276754 -0.010502767740753862
0.6456972107126527 -0.010703224336939885
0.6458439783634097 -0.24346478778493005
0.6457765442970425 -0.47634304195811134
0.6456505526065355 -0.7090522504397196
0.6455067205446403 -0.9414654445656463
0.6453451317203607 -1.1734839232624912
0.6451368961512076 -1.4049723451695173
0.6448254050412745 -1.6356373205107857
0.6443051314693575 -1.8648543319043291
0.6434123304841208 -2.091511974936999
0.6420121934094041 -2.3139760184296487
0.6400079842089822 -2.5301735544290476
0.6373407888989681 -2.7376875031913253
0.6339478450394005 -2.933842902135812
0.6297729080656045 -3.1157008400313364
0.6248083656218856 -3.280060534560919
0.6191534140550649 -3.4234808283941796
0.6130803099400765 -3.542379445684154
0.6070358205682398 -3.633209576013143
0.6016675995833876 -3.6927393703161564
0.5988761323046651 -3.718649295126877
0.5960846650259417 -3.6927393703160267
0.5907164440410898 -3.633209576012883
0.5846719546692565 -3.542379445683781
0.5785988505542735 -3.423480828393719
0.5729438989874587 -3.280060534560394
0.567979356543745 -3.1157008400307675
0.5638044195699542 -2.9338429021352135
0.5604114757103924 -2.7376875031907155
0.5577442804003845 -2.5301735544284445
0.5557400711999676 -2.313976018429071
0.5543399341252554 -2.0915119749364606
0.5534471331400214 -1.8648543319038373
0.5529268595681057 -1.6356373205103474
0.5526153684581735 -1.4049723451691358
0.5524071328890209 -1.1734839232621717
0.5522455440647414 -0.9414654445653865
0.5521017120028465 -0.7090522504395209
0.5519757203123395 -0.47634304195797206
0.5519082862459723 -0.24346478778485112
0.5520550538967292 -0.010703224336923112
0.7037279532877445 -0.010856675709992622
0.7038274354220456 -0.2434964072338125
0.703733487774115 -0.4763322615966691
0.7035526890807088 -0.7090274653204417
0.7033206076522733 -0.941435881592462
0.703027477128447 -1.1734504486133193
0.7026259851703774 -1.4049284552693604
0.7019930300724792 -1.635562438903438
0.700880446174262 -1.8647029177956385
0.698999042191451 -2.0912229073685267
0.6961042127651388 -2.313499961739206
0.6920281309515672 -2.5294786567677665
0.6866481405295634 -2.7367500922942485
0.6798420346598664 -2.932637288992287
0.6714846161219007 -3.114206714679442
0.6614928829779274 -3.2782765703760353
0.6499105465157041 -3.421443797012089
0.6369814294441716 -3.540176676379821
0.6232180101750203 -3.6309847983202728
0.6097450323716412 -3.6908321219747156
0.5988761323046504 -3.7177755845577
0.5880072322376594 -3.6908321219745863
0.5745342544342824 -3.6309847983200134
0.5607708351651374 -3.540176676379449
0.5478417180936146 -3.4214437970116296
0.5362593816314017 -3.278276570375513
0.5262676484874386 -3.1142067146788746
0.5179102299494822 -2.9326372889916907
0.5111041240797952 -2.7367500922936405
0.5057241336578012 -2.529478656767165
0.501648051844239 -2.3134999617386294
0.4987532224179345 -2.0912229073679893
0.49687181843512873 -1.864702917795147
0.49575923453691484 -1.6355624389029997
0.4951262794390183 -1.404928455268979
0.49472478748094934 -1.173450448613
0.49443165695712327 -0.9414358815922024
0.49419957552868804 -0.7090274653202431
0.49401877683528195 -0.4763322615965297
0.4939248291873515 -0.24349640723373359
0.4940243113216525 -0.010856675709975666
0.7617464911950498 -0.010971198669028685
0.7618088505766942 -0.2435246688032606
0.7616912198480527 -0.4763174307799998
0.7614591675021393 -0.708995702687087
0.7611425344731912 -0.9413945969074746
0.7607234167020264 -1.1733990992587724
0.7601247678657638 -1.4048533680311341
0.7591194934250981 -1.6354126713007053
0.7573363239342221 -1.8643908306490005
0.7543777502385294 -2.0906553308108835
0.749910737197702 -2.312608885017722
0.7437016309902965 -2.5282190201772825
0.7355620408240875 -2.735083565236351
0.7253018866472304 -2.93052195652117
0.7127172520473831 -3.111602800089573
0.6976402248509649 -3.2751638143948028
0.6800374049523931 -3.4178462425788427
0.6601375872768169 -3.5361866618483617
0.6386533450832345 -3.62682569409347
0.6171415904400119 -3.6869632614608303
0.5988761323046362 -3.71521691006277
0.5806106741692612 -3.6869632614607006
0.5590989195260426 -3.626825694093212
0.5376146773324689 -3.5361866618479922
0.5177148596569066 -3.417846242578387
0.5001120397583488 -3.275163814394283
0.4850350125619452 -3.111602800089008
0.4724503779621117 -2.930521956520576
0.46219022378526897 -2.7350835652357457
0.4540506336190737 -2.528219020176684
0.4478415274116812 -2.312608885017149
0.44337451437086495 -2.0906553308103484
0.4404159406751801 -1.8643908306485104
0.43863277118430904 -1.6354126713002675
0.43762749674364637 -1.404853368030753
0.4370288479073847 -1.173399099258453
0.4366097301362203 -0.9413945969072149
0.4362930971072725 -0.7089957026868884
0.4360610447613594 -0.47631743077986044
0.43594341403271797 -0.24352466880318172
0.4360057734143623 -0.010971198669011556
0.8197640114190227 -0.011052863177626823
0.8197945472869537 -0.24354810529855095
0.8196545830477392 -0.47629880065453356
0.8193745526867527 -0.7089574880525392
0.8189775383119224 -0.9413426011342699
0.8184376499574677 -1.1733302364738574
0.8176197102242795 -1.4047366683282922
0.8161885262878545 -1.6351617957183602
0.813667071930323 -1.8638839711604922
0.8095631027326178 -2.089777660251736
0.8034735228498373 -2.3112774302161725
0.7950940453129842 -2.526373605035794
0.7841624334569828 -2.732668917405982
0.7704153727652943 -2.927478077131805
0.7535698158704747 -3.107868662157719
0.7333643817838703 -3.270696123398224
0.7096784248819492 -3.4126541959556
0.682762499873945 -3.5303868581925566
0.6535639664724281 -3.6207253370499917
0.6242253904100981 -3.681206542428312
0.5988761323046221 -3.711057361996584
0.5735268741991478 -3.681206542428183
0.5441882981368242 -3.6207253370497354
0.5149897647353189 -3.5303868581921902
0.4880738397273312 -3.4126541959551484
0.4643878828254285 -3.270696123397709
0.4441824487388426 -3.107868662157158
0.42733689184404117 -2.927478077131215
0.4135898311523712 -2.732668917405381
0.4026582192963876 -2.526373605035199
0.3942787417595511 -2.3112774302156027
0.38818916187678476 -2.0897776602512037
0.38408519267909 -1.8638839711600037
0.3815637383215655 -1.6351617957179232
0.38013255438514476 -1.4047366683279117
0.37931461465195826 -1.1733302364735383
0.3787747262975041 -0.9413426011340102
0.3783777119226741 -0.7089574880523406
0.3780976815616879 -0.4762988006543942
0.37795771732247346 -0.24354810529847204
0.37798825319040436 -0.011052863177609567
0.8777877952972788 -0.011107231133156814
0.8777906140175268 -0.2435655944950838
0.8776288114426635 -0.4762764452611732
0.8773038149826607 -0.7089133662240411
0.8768317290207608 -0.9412812203992249
0.8761686916483573 -1.1732415350861185
0.8751004556132082 -1.4045644084210223
0.87319354411785 -1.6347870478491606
0.8698753661742126 -1.8631583581028779
0.8645820889332 -2.0885719490880525
0.8568459663216978 -2.309493090973244
0.8462752328042973 -2.5239310052992896
0.8325284071708714 -2.7294947088165706
0.8152705329066054 -2.9234943424774325
0.7941446022482735 -3.102993122534149
0.7687950759813689 -3.264860737474187
0.7390269306150613 -3.4058566799610404
0.7051180240611145 -3.5227728199480244
0.6682839992060587 -3.6127049019343023
0.6312537428053899 -3.673607315261194
0.5988761323046083 -3.705314828744626
0.5664985218038291 -3.673607315261066
0.5294682654031689 -3.6127049019340487
0.49263424054812816 -3.522772819947662
0.4587253339942004 -3.4058566799605936
0.42895718862791493 -3.2648607374736773
0.40360766236103285 -3.1029931225335923
0.3824817317027234 -2.9234943424768476
0.3652238574384796 -2.7294947088159747
0.3514770318050762 -2.523931005298699
0.3409062982876954 -2.309493090972678
0.33317017567621054 -2.088571949087523
0.32787689843521084 -1.8631583581023916
0.32455872049158246 -1.6347870478487252
0.3226518089962301 -1.4045644084206421
0.3215835729610833 -1.1732415350857992
0.3209205355886807 -0.9412812203989652
0.32044844962678115 -0.7089133662238425
0.3201234531667786 -0.47627644526103385
0.31996165059191534 -0.24356559449500492
0.3199644693121633 -0.011107231133139463
0.9358229123617977 -0.011139654740689653
0.9358022783085168 -0.24357650307672615
0.9356193353087648 -0.4762503103886956
0.935251874254837 -0.7088640112699643
0.9347080141325769 -0.9412108926847993
0.933911198233259 -1.1731274538177692
0.9325604076686004 -1.4043224562796777
0.930129603485743 -1.6342685046391343
0.9259728873340728 -1.862198825064874
0.9194750505660061 -2.0870296286881636
0.9100795085333977 -2.30724906007007
0.8973078550207523 -2.5208847356690036
0.8807353753661842 -2.7255536743188618
0.8599518138626963 -2.9185632443290825
0.8345334376250163 -3.0969711224501353
0.8040638949954787 -3.2576595236666455
0.7682781339607265 -3.397462103922068
0.7274711017939057 -3.513359829903647
0.6831020152511899 -3.602785009355654
0.6384027437376745 -3.6641695230730273
0.5988761323045947 -3.6979600704615487
0.5593495208715183 -3.664169523072901
0.5146502493580138 -3.602785009355403
0.47028116281531546 -3.5133598299032887
0.42947413064851714 -3.397462103921627
0.3936883696137906 -3.2576595236661414
0.36321882698427954 -3.096971122449585
0.3378004507466262 -2.918563244328504
0.3170168892431645 -2.7255536743182716
0.30044440958862245 -2.5208847356684188
0.28767275607600057 -2.307249060069509
0.278277214043412 -2.0870296286876378
0.27177937727536094 -1.8621988250643906
0.2676226611237017 -1.6342685046387007
0.2651918569408516 -1.4043224562792984
0.26384106637619636 -1.1731274538174503
0.2630442504768796 -0.9412108926845396
0.2625003903546199 -0.7088640112697657
0.26213292930069226 -0.47625031038855625
0.2619499863009404 -0.24357650307664733
0.2619293522476596 -0.011139654740672288
0.9938726431362069 -0.011155458468294367
0.9938338479204407 -0.24358070431946893
0.9936316385129559 -0.4762203912531737
0.9932239601077582 -0.7088100315365675
0.9926088984609663 -0.9411312982432792
0.991660997481561 -1.1729810305155541
0.9899908638102172 -1.4039950577152598
0.9869933170555708 -1.6335912213006398
0.9819874114671473 -1.8609990162919157
0.9742783482345257 -2.0851465030449394
0.9632233309580398 -2.3045422261878215
0.948253804398085 -2.517232060275983
0.9288558424607305 -2.720841978357468
0.9045414103164828 -2.912679979517484
0.8748334644222296 -3.089802940687898
0.8392849068557435 -3.2491062242550006
0.7976108415525371 -3.387499432688426
0.750086428866647 -3.502179773548442
0.6982901935316113 -3.5909752868586198
0.6458342844193876 -3.6528594473346017
0.598876132304581 -3.6889251123541396
0.551917980189779 -3.6528594473344773
0.4994620710775681 -3.5909752868583724
0.44766583574255253 -3.5021797735480886
0.40014142305668865 -3.3874994326879913
0.35846735775351146 -3.249106224254504
0.32291880018705577 -3.089802940687355
0.2932108542928333 -2.912679979516912
0.26889642214861603 -2.7208419783568853
0.24949846021129124 -2.5172320602754046
0.23452893365136346 -2.3045422261872663
0.2234739163749002 -2.085146503044418
0.21576485314229635 -1.8609990162914358
0.210758947553886 -1.6335912213002084
0.20776140079924835 -1.4039950577148819
0.2060912671279088 -1.1729810305152355
0.20514336614850517 -0.9411312982430198
0.20452830450171372 -0.708810031536369
0.20412062609651624 -0.47622039125303445
0.20391841668903166 -0.24358070431939008
0.2038796214732654 -0.011155458468277016
1.0519383571816932 -0.011160034357321822
1.0518886274839019 -0.24357865500337167
1.0516716030573376 -0.47618684594741273
1.0512254466170934 -0.7087520137601004
1.0505348325411108 -0.9410401087747228
1.049412265894095 -1.172792766608154
1.0473826962401909 -1.4035680488369684
1.0438038308260473 -1.6327491190364787
1.0379425227123766 -1.8595559655379796
1.0290275870178474 -2.0829216716444656
1.0163254218060715 -2.30137314420034
0.9991720097243932 -2.5129734605155947
0.9769624554913474 -2.7153592854427715
0.949127501661122 -2.9058432962485674
0.9151372312686844 -3.0814905820439242
0.8745591124439042 -3.2392214624744127
0.8271641857302671 -3.3760192598103576
0.7732072017685864 -3.489284213894296
0.7141358902086345 -3.577277713194579
0.6537564737691247 -3.63960613507001
0.5988761323045673 -3.678094487766207
0.5439957908400148 -3.6396061350698874
0.4836163744005204 -3.5772777131943365
0.42454506284059196 -3.489284213893949
0.37058807887894085 -3.3760192598099295
0.3231931521653371 -3.239221462473924
0.28261503334059096 -3.0814905820433887
0.24862476294818803 -2.905843296248004
0.2207898091179973 -2.7153592854421964
0.198580254884985 -2.512973460515024
0.18142684280333693 -2.3013731441997916
0.16872467759158627 -2.0829216716439496
0.15980974189707686 -1.8595559655375036
0.15394843378342124 -1.63274911903605
0.15036956836928783 -1.4035680488365918
0.14833999871538925 -1.172792766607836
0.14721743206837545 -0.9410401087744634
0.14652681799239348 -0.7087520137599018
0.1460806615521494 -0.4761868459472735
0.1458636371255854 -0.24357865500329282
0.14581390742779451 -0.011160034357304486
1.1100188741609398 -0.011158847761945373
1.1099688367223572 -0.24357158903546888
1.1097460516499482 -0.4761502737681042
1.1092620010235363 -0.7086898176604145
1.1084839624570648 -0.940933657688054
1.1071559281029815 -1.1725499216256576
1.104741712123723 -1.4030329119225442
1.1005735113313961 -1.631739214460937
1.0938619567030408 -1.8578695039227746
1.0837582333304172 -2.080357745947003
1.069433300077216 -2.2977453807455723
1.05012299818677 -2.5081127517931883
1.0251260086281764 -2.7091086076609114
0.9937928560050869 -2.8980557707039853
0.9555544392816079 -3.0720398581083432
0.9099963582943597 -3.2280244259206534
0.8570044374894151 -3.3630769136839844
0.7969537897905947 -3.4747656344006685
0.7310568757595981 -3.5617147541881438
0.6625087771204994 -3.6242870003015777
0.5988761323045532 -3.665277617826321
0.5352434874886131 -3.6242870003014582
0.46669538884953177 -3.5617147541879057
0.4007984748185622 -3.474765634400328
0.3407478271197749 -3.3630769136835648
0.287755906314868 -3.2280244259201734
0.24219782532765793 -3.0720398581078165
0.2039594086042175 -2.8980557707034302
0.17262625598116663 -2.7091086076603452
0.14762926642261048 -2.5081127517926256
0.12831896453219774 -2.2977453807450305
0.11399403127902423 -2.080357745946493
0.10389030790642281 -1.8578695039223032
0.09717875327808438 -1.6317392144605112
0.09301055248576864 -1.4030329119221696
0.09059633650651701 -1.1725499216253406
0.08926830215243635 -0.9409336576877948
0.0884902635859656 -0.708689817660216
0.08800621295955419 -0.47615027376796504
0.08778342788714541 -0.2435715890353901
0.08773339044856275 -0.011158847761928022
1.1681091304966487 -0.011157255488800238
1.1680755020632139 -0.24356205607346076
1.1678639747564887 -0.476111931612172
1.1673389904547644 -0.7086218046728651
1.1664509523047246 -0.9408045112032065
1.1648885085751446 -1.1722434318954518
1.162075972790467 -1.402385094864147
1.1573161469970865 -1.6305605886810814
1.149769299453615 -1.8559427869371035
1.1385054766099876 -2.0774605510592905
1.1225957776384365 -2.2936660020195188
1.101165662840109 -2.502656191251568
1.073415457899559 -2.7020960473919184
1.0386297750878724 -2.8893260128718588
0.9961975029402023 -3.06146170781718
0.9457202584406846 -3.215529662919124
0.8871964185881296 -3.348707755430747
0.8212373602836898 -3.4587271653419647
0.7492142444261878 -3.5444557269707055
0.6733262693859587 -3.6067599443710963
0.5988761323045387 -3.649999999999995
0.5244259952231255 -3.6067599443709795
0.44853802018291594 -3.5444557269704737
0.3765149043254452 -3.458727165341632
0.31055584602104275 -3.3487077554303375
0.2520320061685296 -3.215529662918654
0.20155476166905412 -3.0614617078166635
0.15912248952142705 -2.889326012871313
0.12433680670978287 -2.702096047391363
0.09658660176927389 -2.502656191251014
0.07515648697098314 -2.2936660020189854
0.05924678799946246 -2.0774605510587865
0.04798296515585876 -1.8559427869366372
0.04043611761240612 -1.6305605886806593
0.03567629181903799 -1.4023850948637746
0.032863756034367975 -1.172243431895136
0.03130131230479127 -0.9408045112029476
0.030413274154752423 -0.7086218046726666
0.029888289853028834 -0.476111931612033
0.029676762546303772 -0.24356205607338202
0.02964313411286906 -0.01115725548878288
SCALARS Stress float 6
LOOKUP_TABLE default
-1219.7909106033585 -2019.295526928117 -1543.2257118732923 -24.798685300297524 0.0 0.0
1336.2142942343964 783.0891691996937 992.5582211815133 -21.51488847241511 0.0 0.0
601.9649392416911 153.1404867572272 241.53409847018142 -40.60408430954805 0.0 0.0
486.16977449307393 26.75332647235741 158.3558208510229 -1.6679970077713613 0.0 0.0
607.2569514690948 74.33664447230606 242.31298974569538 2.316104370751267 0.0 0.0
721.8781179559705 122.12840364709064 361.8799321344678 1.7908962171352605 0.0 0.0
845.5936460011263 171.44510761320402 479.5760227971476 0.6580077813488487 0.0 0.0
971.4478837746896 237.30219377006304 588.9428078616343 -0.7224375139303919 0.0 0.0
1105.7444191179325 317.25567190715043 699.5923137703875 -2.3149415753570266 0.0 0.0
1255.99160900306 417.7122358251283 825.6493932477212 -4.0351161874819415 0.0 0.0
1427.5061297551842 543.5648685312732 974.256308895036 -5.692829367530173 0.0 0.0
1620.4825129911846 695.3430138119521 1146.2851114640669 -7.021088840623895 0.0 0.0
1829.9404475228996 866.6015967126813 1336.202140602073 -7.841373766178432 0.0 0.0
2048.8662141060395 1050.1455359606168 1537.005719721869 -8.471202886579938 0.0 0.0
2268.0817910799033 1236.633391856926 1739.4247766155484 -8.884252886797515 0.0 0.0
2477.1600614985246 1415.7179033758457 1933.1006320973765 -9.019355359994734 0.0 0.0
2665.3337739973736 1577.0903209310497 2107.546723081586 -8.71350589173375 0.0 0.0
2821.7042813600265 1710.4484133321273 2252.192914437128 -7.886275680906186 0.0 0.0
2943.439407168503 1813.6111116973834 2364.431286847707 -6.769000145562962 0.0 0.0
3016.745036905838 1873.6733414048497 2430.9281430825195 -8.284842611718558 0.0 0.0
3008.013010672854 1863.5611955329985 2421.745018404324 -6.395950435944542e-11 0.0 0.0
3016.745036903878 1873.6733414028952 2430.92814308115 8.284842611686866 0.0 0.0
2943.439407167646 1813.611111696602 2364.4312868470406 6.7690001456372535 0.0 0.0
2821.70428135744 1710.4484133295914 2252.1929144351043 7.886275680807001 0.0 0.0
2665.3337739969475 1577.0903209307583 2107.5467230810737 8.713505891726575 0.0 0.0
2477.160061497196 1415.7179033746531 1933.1006320961408 9.019355359944196 0.0 0.0
2268.081791076977 1236.633391854125 1739.424776613212 8.884252886830936 0.0 0.0
2048.866214105091 1050.1455359598622 1537.0057197209264 8.471202886490358 0.0 0.0
1829.9404475202878 866.6015967102485 1336.2021405999803 7.841373766118121 0.0 0.0
1620.4825129914598 695.3430138124759 1146.2851114641815 7.021088840508867 0.0 0.0
1427.5061297549546 543.5648685313027 974.2563088946243 5.69282936766513 0.0 0.0
1255.9916090020395 417.7122358243651 825.6493932468412 4.0351161874800106 0.0 0.0
1105.7444191179602 317.25567190744687 699.5923137702247 2.3149415753921776 0.0 0.0
971.44788377405 237.30219376972138 588.9428078610847 0.722437513668071 0.0 0.0
845.5936460006549 171.44510761303147 479.57602279663865 -0.6580077813104399 0.0 0.0
721.8781179552893 122.12840364673863 361.87993213383396 -1.7908962171095588 0.0 0.0
607.2569514684155 74.33664447181982 242.31298974518248 -2.316104370956042 0.0 0.0
486.16977449282416 26.753326472329896 158.35582085092437 1.6679970077818442 0.0 0.0
601.9649392413247 153.14048675704908 241.53409846997306 40.604084309600275 0.0 0.0
1336.2142942341402 783.0891691993791 992.5582211810622 21.514888472383085 0.0 0.0
-1219.7909106005602 -2019.295526925297 -1543.2257118705302 24.798685299878947 0.0 0.0
-1553.5292104246407 -2324.135236946711 -1830.5790742310603 -26.20753042052508 0.0 0.0
911.3274099788486 432.8122651493305 622.339413601853 -29.71502936302727 0.0 0.0
419.86512160948365 60.69725417510765 142.7934833280691 -34.82828699356251 0.0 0.0
428.8775189311649 5.303340735956617 131.95060891280576 -15.841535437863213 0.0 0.0
539.4026169878736 33.055479856576156 195.9025957421146 -16.189497153656564 0.0 0.0
638.8602431676612 47.13725395584106 286.52525307296554 -21.506672269309018 0.0 0.0
723.7278208081397 64.50082957712995 373.31967875547565 -23.354999408753482 0.0 0.0
805.3951122329012 84.50791040901005 439.32921377444234 -23.807664708333007 0.0 0.0
880.7246167515044 104.8371609433292 490.9036044496506 -24.336010662258634 0.0 0.0
951.8241533729856 126.37340509337173 538.0803155312175 -25.0264390007385 0.0 0.0
1021.2108986379371 150.75995157916566 585.2095548513513 -25.39322292689303 0.0 0.0
1090.6725470526123 178.84062323727753 634.0431475890699 -25.353520217463767 0.0 0.0
1159.6772451911354 210.71017474933788 684.4910755552112 -24.933256469355566 0.0 0.0
1225.6040343372872 241.68795492748254 732.9404076460687 -24.333122132715378 0.0 0.0
1282.79745311583 266.6079591523492 773.9909576910582 -23.587608642571926 0.0 0.0
1326.683124574755 280.910141090714 803.0792949438172 -22.489743084154103 0.0 0.0
1354.2685203828933 281.92785109060736 817.3767253989047 -20.7894076783822 0.0 0.0
1365.7732915802096 270.44883726615024 817.3834446979944 -18.46665600805351 0.0 0.0
1357.3468504631946 243.46339779170802 799.7746273111013 -16.084202777944455 0.0 0.0
1293.4779234362638 166.74859513055108 730.1749371336584 -16.017909103649966 0.0 0.0
1184.3907130791558 56.97689204412554 621.8865615052857 -2.106759211528697e-12 0.0 0.0
1293.477923435196 166.74859512951483 730.174937132906 16.017909103616855 0.0 0.0
1357.3468504632208 243.46339779179544 799.7746273110099 16.08420277802855 0.0 0.0
1365.7732915792214 270.4488372652636 817.3834446973879 18.466656008074295 0.0 0.0
1354.2685203833719 281.92785109119825 817.3767253993516 20.789407678499707 0.0 0.0
1326.6831245750031 280.91014109110006 803.0792949438672 22.4897430841528 0.0 0.0
1282.7974531148059 266.6079591514887 773.9909576903542 23.587608642559097 0.0 0.0
1225.6040343371892 241.68795492755328 732.9404076459106 24.333122132714188 0.0 0.0
1159.6772451904485 210.71017474883473 684.491075554736 24.933256469190763 0.0 0.0
1090.6725470518202 178.84062323670264 634.0431475886083 25.353520217311356 0.0 0.0
1021.2108986377029 150.75995157916364 585.2095548512173 25.393222926941768 0.0 0.0
951.8241533717393 126.37340509235736 538.080315530415 25.02643900062231 0.0 0.0
880.7246167517316 104.8371609438336 490.90360444974226 24.336010662353075 0.0 0.0
805.3951122322305 84.50791040857641 439.3292137739568 23.807664708151897 0.0 0.0
723.7278208076406 64.50082957691023 373.3196787550543 23.35499940871489 0.0 0.0
638.8602431673658 47.137253955874634 286.52525307261226 21.506672269245733 0.0 0.0
539.4026169874908 33.05547985654082 195.90259574185046 16.189497153544448 0.0 0.0
428.8775189310119 5.3033407361012985 131.95060891280306 15.841535437926964 0.0 0.0
419.8651216095643 60.69725417531484 142.79348332815874 34.828286993576505 0.0 0.0
911.327409978353 432.8122651488767 622.3394136012289 29.715029362931315 0.0 0.0
-1553.5292104226414 -2324.1352369446467 -1830.579074228947 26.2075304200823 0.0 0.0
-1297.6573971995208 -2033.583344363184 -1547.603614853456 -64.50571815158446 0.0 0.0
721.8399587888272 342.14320925988767 478.13235993015263 -98.00179144817218 0.0 0.0
292.6188931707594 68.94427786810108 108.4863032453034 -37.66906473999043 0.0 0.0
367.86139332534066 0.9965494885571018 110.56165127541865 -37.28476346018226 0.0 0.0
494.2712686971872 23.626048980438945 167.78282359643492 -38.57693397544959 0.0 0.0
605.6561236384705 42.00682500493467 255.9379657550619 -41.134736174830934 0.0 0.0
694.2340867008659 59.95518943796577 348.8129238380249 -43.476589475559244 0.0 0.0
776.3580309602421 76.37770333399104 418.0250943660608 -44.462702958306814 0.0 0.0
849.1121881270848 93.41869566232693 468.66047530832265 -45.646941917565904 0.0 0.0
916.424659692533 110.97498697351476 512.3249342185985 -46.71768660566076 0.0 0.0
982.1832714318911 132.14471554239591 556.078867682916 -46.96525953926248 0.0 0.0
1048.2930461886745 158.0706451333645 602.1596040720024 -46.40510595544649 0.0 0.0
1114.5140293898303 186.81696432547727 649.6724011110348 -45.47315757712436 0.0 0.0
1176.7851798355016 215.34183153376608 695.0928171997502 -44.27589358837488 0.0 0.0
1231.7524419653957 238.5228717238398 734.1600147572959 -42.800166531329445 0.0 0.0
1274.973983227739 252.5314933462107 762.756007522769 -40.780868668045144 0.0 0.0
1303.9574987700223 255.10264164327495 778.5297333885635 -37.85587096250466 0.0 0.0
1315.358700223142 243.47585958530016 778.4788738706981 -34.116486780180495 0.0 0.0
1297.9101206773485 207.43665170641188 752.0003430259256 -30.35381863180654 0.0 0.0
1261.0804177124794 157.97239193229206 709.2116003657491 -27.421075263552982 0.0 0.0
1131.845592326511 28.65419630044532 581.3059379665058 6.219025294740277e-12 0.0 0.0
1261.0804177126347 157.97239193248632 709.2116003659064 27.4210752636559 0.0 0.0
1297.9101206781793 207.436651707296 752.0003430263864 30.353818631864705 0.0 0.0
1315.358700222375 243.47585958461167 778.4788738702291 34.11648678013793 0.0 0.0
1303.95749877049 255.1026416438808 778.5297333888899 37.855870962597166 0.0 0.0
1274.9739832280577 252.53149334664656 762.756007523018 40.780868668113825 0.0 0.0
1231.7524419656302 238.522871724242 734.1600147574153 42.800166531344416 0.0 0.0
1176.7851798346114 215.34183153304022 695.092817199092 44.27589358840698 0.0 0.0
1114.514029390613 186.81696432644463 649.6724011115989 45.47315757710757 0.0 0.0
1048.2930461876158 158.07064513250967 602.1596040712551 46.40510595528794 0.0 0.0
982.1832714314235 132.14471554214563 556.0788676826094 46.96525953913576 0.0 0.0
916.4246596908429 110.97498697206589 512.3249342175051 46.7176866056236 0.0 0.0
849.1121881266141 93.41869566212773 468.66047530799517 45.64694191771197 0.0 0.0
776.3580309594839 76.37770333349752 418.02509436553146 44.46270295816811 0.0 0.0
694.234086700569 59.95518943800404 348.8129238376827 43.47658947559681 0.0 0.0
605.6561236384001 42.0068250051938 255.93796575484225 41.13473617475066 0.0 0.0
494.2712686970209 23.626048980664994 167.78282359636026 38.576933975442586 0.0 0.0
367.86139332535504 0.9965494888502822 110.56165127552384 37.28476346024991 0.0 0.0
292.6188931709583 68.94427786827578 108.48630324541591 37.66906474000565 0.0 0.0
721.8399587883007 342.14320925953496 478.1323599295408 98.0017914479141 0.0 0.0
-1297.6573971975824 -2033.5833443611236 -1547.6036148513415 64.50571815129754 0.0 0.0
-1059.8129492356336 -1765.1024404412487 -1288.0216950648446 -78.07990558100747 0.0 0.0
550.3240566311035 246.19190418943032 350.5718248659504 -145.34353419094109 0.0 0.0
212.86382590003907 59.46278914301211 81.69798451291535 -59.51117226486066 0.0 0.0
305.9384188344213 6.589966989693067 93.65037419872466 -59.241404801844794 0.0 0.0
438.98778842951594 13.114416753509332 139.76266223577923 -63.322189343144586 0.0 0.0
559.7615123653618 35.462102274664005 221.04064458909733 -62.15752720520258 0.0 0.0
661.6223768076452 53.3814237520624 318.4898694912836 -64.94614792572276 0.0 0.0
742.4098429387785 68.41899829910582 392.7500236227552 -65.37125792039359 0.0 0.0
813.4271442697335 82.2116501819851 443.9409965735755 -66.64359549758102 0.0 0.0
877.3403561200779 96.17892631916146 484.85547620302845 -67.70282721405675 0.0 0.0
939.1429496133585 113.84922523179563 524.9981058087138 -67.62659756283409 0.0 0.0
1002.0012494168266 136.58420082606688 567.8629091312379 -66.64859270370962 0.0 0.0
1064.7810211370627 163.24887643379805 612.6455847083927 -65.20196074481055 0.0 0.0
1123.975183044673 188.24978955901628 654.7859958078409 -63.53894134403234 0.0 0.0
1176.3014621968377 209.50922169752184 691.5717166493868 -61.40883821356058 0.0 0.0
1219.5909710243534 224.15326315942286 720.5176839131188 -58.557098022865546 0.0 0.0
1249.858608847946 227.8821476931438 737.5265629532133 -54.771316566767695 0.0 0.0
1260.8773453040785 215.64927367509597 737.0466022067574 -50.100391439065646 0.0 0.0
1249.0125705541157 184.88740652722566 715.9665044328385 -44.65013160975478 0.0 0.0
1226.5433125431439 149.11711571565445 687.0433723609291 -37.43498573865986 0.0 0.0
1045.190145379793 -31.984490312345272 507.93920026883677 -3.836753137420601e-11 0.0 0.0
1226.5433125431064 149.1171157156791 687.043372360955 37.43498573886297 0.0 0.0
1249.0125705540704 184.88740652720537 715.9665044328295 44.65013160984174 0.0 0.0
1260.8773453041977 215.64927367535003 737.0466022069592 50.100391439140004 0.0 0.0
1249.8586088475902 227.8821476928844 737.5265629528578 54.77131656687002 0.0 0.0
1219.5909710245332 224.15326315974704 720.5176839133754 58.5570980228771 0.0 0.0
1176.3014621964876 209.50922169730677 691.5717166491021 61.408838213609 0.0 0.0
1123.975183043511 188.24978955802482 654.785995807013 63.538941343989116 0.0 0.0
1064.7810211366357 163.24887643357272 612.645584708139 65.20196074494775 0.0 0.0
1002.001249417077 136.58420082653151 567.8629091314524 66.64859270371795 0.0 0.0
939.142949613812 113.84922523246111 524.9981058090123 67.62659756271094 0.0 0.0
877.3403561190507 96.17892631842281 484.85547620232677 67.70282721409825 0.0 0.0
813.4271442687368 82.2116501812524 443.94099657292804 66.64359549766353 0.0 0.0
742.409842938497 68.41899829910191 392.75002362249074 65.3712579202709 0.0 0.0
661.6223768070766 53.3814237518032 318.4898694907762 64.94614792578606 0.0 0.0
559.7615123649172 35.462102274497326 221.0406445886923 62.157527205147524 0.0 0.0
438.98778842907296 13.114416753416627 139.76266223558875 63.32218934303928 0.0 0.0
305.93841883444645 6.589966989795972 93.65037419875983 59.24140480181018 0.0 0.0
212.86382590002512 59.46278914294776 81.69798451289188 59.51117226472141 0.0 0.0
550.3240566305209 246.19190418918672 350.5718248654246 145.34353419069703 0.0 0.0
-1059.8129492338385 -1765.1024404392952 -1288.0216950629078 78.07990558088687 0.0 0.0
-853.3089541569863 -1532.0283488800324 -1060.0530089033734 -76.94008300823702 0.0 0.0
423.74404702181164 162.25978450235564 251.2353820473531 -177.161803751898 0.0 0.0
156.19708694181446 47.11668641693663 60.9941320076253 -89.71838342540698 0.0 0.0
249.9969453442856 12.791260543539282 78.8410656707316 -83.02911452640676 0.0 0.0
374.3657019315799 7.573540875240227 114.92611605496215 -88.81152367774622 0.0 0.0
505.29337382010505 23.142766266486635 182.65633472762647 -87.59729885713453 0.0 0.0
617.2034223571858 45.42441479940669 280.18625929227727 -86.61946530449057 0.0 0.0
702.633088903907 61.22124080906681 362.8148814074606 -86.69520697259985 0.0 0.0
772.9375122725672 71.56819055071298 416.086124743248 -87.28387874199838 0.0 0.0
833.6373701737066 81.75042487055052 454.92055181119554 -87.93948756811254 0.0 0.0
891.9262115396639 95.69045423320217 491.7120052833154 -87.41584504837888 0.0 0.0
950.999767787993 115.07784518088472 531.0529515135264 -85.99060671540309 0.0 0.0
1010.419705993091 138.30773784613766 572.4640691375054 -84.20932710696259 0.0 0.0
1066.3318215740867 161.5972848686963 612.150789758647 -82.06265188082854 0.0 0.0
1116.3848206494406 180.53827858312636 646.6601822827537 -79.3451506114843 0.0 0.0
1158.6289297007227 193.8955626895064 674.4286520198714 -75.88062783252253 0.0 0.0
1190.4128618791483 199.504478449643 693.1449540797561 -71.53552042827029 0.0 0.0
1206.069793929461 191.62727807164327 697.1652452044123 -66.18581970983269 0.0 0.0
1201.6128384021104 167.46478408133086 683.0628889359731 -58.87626214409689 0.0 0.0
1185.9155012712301 136.96452121542828 660.1021663158266 -47.71867855290477 0.0 0.0
940.3893554522405 -107.89012101766397 418.08321490138553 1.1157297308272973e-11 0.0 0.0
1185.9155012709903 136.9645212152495 660.1021663157953 47.7186785530528 0.0 0.0
1201.612838401195 167.46478408045772 683.0628889353828 58.876262144143766 0.0 0.0
1206.06979392987 191.6272780721615 697.165245204814 66.18581970996166 0.0 0.0
1190.4128618780455 199.5044784486567 693.144954078883 71.53552042836259 0.0 0.0
1158.6289297010599 193.8955626899876 674.428652020211 75.88062783261515 0.0 0.0
1116.384820648045 180.53827858179488 646.6601822817745 79.34515061134752 0.0 0.0
1066.331821574179 161.59728486891314 612.1507897586705 82.06265188070213 0.0 0.0
1010.4197059917516 138.30773784494716 572.4640691366218 84.20932710687933 0.0 0.0
950.99976778826 115.0778451814227 531.0529515136668 85.99060671543833 0.0 0.0
891.9262115396141 95.69045423339125 491.71200528327654 87.4158450484563 0.0 0.0
833.6373701737141 81.75042487087572 454.9205518112172 87.93948756822144 0.0 0.0
772.9375122720297 71.56819055042567 416.08612474286775 87.28387874193587 0.0 0.0
702.633088903604 61.22124080902918 362.8148814071415 86.69520697249865 0.0 0.0
617.203422356178 45.42441479861926 280.1862592914726 86.619465304375 0.0 0.0
505.2933738194356 23.1427662660255 182.65633472713426 87.59729885706925 0.0 0.0
374.36570193114073 7.573540875085834 114.92611605479436 88.81152367765569 0.0 0.0
249.9969453443054 12.791260543592141 78.84106567074843 83.0291145262975 0.0 0.0
156.1970869418525 47.11668641691747 60.99413200763097 89.71838342520336 0.0 0.0
423.7440470213238 162.2597845021802 251.23538204692545 177.1618037517453 0.0 0.0
-853.3089541554534 -1532.0283488783552 -1060.053008901666 76.940083008111 0.0 0.0
-671.810237064049 -1325.9670677685224 -857.403836692617 -73.42037720001248 0.0 0.0
324.21512730728807 97.11610396549246 174.9442344882659 -195.66990351458293 0.0 0.0
113.19884232663547 32.77521437394106 43.79221701017296 -118.55087039934398 0.0 0.0
199.57015141318558 17.717020493610164 65.18882387644983 -107.12083523065428 0.0 0.0
306.2742911448322 5.51777321555569 92.96657919700382 -113.64420624410239 0.0 0.0
436.0062107043995 12.616973547658272 145.38395206252304 -113.91347580999461 0.0 0.0
556.0304559745396 36.711322995018264 234.92443990684365 -109.6857025648895 0.0 0.0
655.3509263619619 51.35452904783753 324.0645790010958 -109.11625106207252 0.0 0.0
724.662597841354 61.43192952744411 383.0101279843316 -107.51055428926568 0.0 0.0
784.5240181168259 67.50521234556803 421.66696261949977 -107.44068885125284 0.0 0.0
839.276325279383 77.64669168705566 455.44012530611906 -106.31382233436197 0.0 0.0
894.615069618793 93.62293389474445 491.3152338444149 -104.39941099547008 0.0 0.0
950.2916040335812 113.85460434925378 529.4003212225489 -102.26078347732084 0.0 0.0
1002.8134736883596 133.64577057018408 565.6841547495368 -99.84565590390105 0.0 0.0
1050.2965066139955 150.80265329943987 598.0528151233009 -96.68105282300506 0.0 0.0
1091.2752674594642 163.50068403337775 624.8888026398927 -92.58408441532139 0.0 0.0
1124.825165718648 170.07233418813254 644.9308716282848 -87.93219620624726 0.0 0.0
1147.5432012542344 169.0106584151526 655.8473288637872 -82.2179654342812 0.0 0.0
1152.117595076816 152.98107938881498 650.3370117230448 -73.4796430661603 0.0 0.0
1140.5219498979304 124.23715222272101 630.3120433628488 -59.00236165735462 0.0 0.0
818.9131183281398 -195.88499111197035 314.07729032504744 -4.654232554912596e-11 0.0 0.0
1140.52194989856 124.23715222345052 630.3120433633992 59.00236165753556 0.0 0.0
1152.1175950757495 152.98107938778372 650.3370117223631 73.47964306619558 0.0 0.0
1147.5432012538115 169.010658414857 655.8473288635347 82.217965434459 0.0 0.0
1124.8251657173835 170.07233418693698 644.9308716273763 87.93219620629972 0.0 0.0
1091.2752674600183 163.5006840340863 624.8888026403164 92.58408441539099 0.0 0.0
1050.2965066130075 150.8026532985738 598.0528151225792 96.68105282296351 0.0 0.0
1002.813473688621 133.6457705706416 565.6841547497019 99.84565590399588 0.0 0.0
950.2916040331933 113.85460434909561 529.4003212223399 102.26078347737253 0.0 0.0
894.6150696188688 93.62293389502568 491.31523384440754 104.39941099551028 0.0 0.0
839.2763252787188 77.64669168666785 455.4401253055684 106.31382233443225 0.0 0.0
784.5240181163124 67.50521234527558 421.6669626192257 107.4406888513111 0.0 0.0
724.6625978406606 61.43192952682145 383.01012798381004 107.51055428897106 0.0 0.0
655.3509263620699 51.35452904837237 324.0645790010422 109.11625106206763 0.0 0.0
556.0304559741023 36.71132299489623 234.92443990642153 109.68570256484938 0.0 0.0
436.00621070392344 12.616973547380244 145.38395206219332 113.91347580982386 0.0 0.0
306.27429114450115 5.517773215539143 92.96657919692474 113.6442062440064 0.0 0.0
199.5701514131354 17.717020493613614 65.18882387643599 107.12083523048645 0.0 0.0
113.19884232668855 32.77521437411676 43.792217010241586 118.5508703991756 0.0 0.0
324.2151273068395 97.1161039652959 174.9442344878918 195.66990351438648 0.0 0.0
-671.8102370627041 -1325.967067767013 -857.4038366910879 73.42037719987609 0.0 0.0
-515.0461613242139 -1137.8280435374515 -677.5155873873443 -70.40149767288311 0.0 0.0
245.525736806978 45.63802934390359 116.5767465266364 -207.05298832089812 0.0 0.0
78.52645276203111 18.80117487683439 29.19813458378821 -142.37636195934263 0.0 0.0
152.33355287406954 20.988579066783192 51.99770873821873 -129.47127973137168 0.0 0.0
239.02672076553353 6.41092191047865 73.38326790460945 -135.41088593092348 0.0 0.0
356.5243328885872 2.614286726249604 110.12236059598712 -142.47404443702786 0.0 0.0
481.03692854231195 22.932881957001435 183.66626979253357 -136.27759841663325 0.0 0.0
588.6566777548235 42.40344392132799 274.2097842059384 -131.2746335986019 0.0 0.0
669.5870005841056 48.3781227035233 341.3208060217027 -129.25590735785315 0.0 0.0
726.5925766415526 53.49073366994895 382.6758056157136 -126.07061967362525 0.0 0.0
779.7974473986864 59.798605645380626 415.0855544021478 -124.2323339284798 0.0 0.0
831.4133420500052 72.14241367466747 447.62676567153414 -121.8432897333123 0.0 0.0
882.9103193625886 88.86247274453305 481.9866669577153 -119.36246841799381 0.0 0.0
931.7637054228948 105.93946411351111 515.1343938708911 -116.71292540720572 0.0 0.0
976.187578775194 120.65318519672968 544.8211693360515 -113.33567439880837 0.0 0.0
1015.2196801918518 130.7865390913 569.4388241772665 -108.9558206435518 0.0 0.0
1050.175189701999 139.95215672018122 591.4475581166593 -103.65611813064965 0.0 0.0
1081.9803109685995 146.9362610023527 610.8370332041314 -97.92950792195182 0.0 0.0
1098.000022396975 140.42766469478013 615.8047331609616 -88.83847682598719 0.0 0.0
1090.7379274267819 113.1914660108273 598.8025755743652 -72.07132182803261 0.0 0.0
678.9060594895361 -295.31182205238827 195.39370826290485 8.552802910344326e-11 0.0 0.0
1090.737927427108 113.19146601120642 598.8025755746196 72.07132182812657 0.0 0.0
1098.0000223963532 140.4276646942091 615.804733160579 88.83847682608501 0.0 0.0
1081.9803109680088 146.93626100181515 610.8370332036856 97.9295079219786 0.0 0.0
1050.1751897010677 139.95215671936958 591.4475581159933 103.65611813066205 0.0 0.0
1015.219680192306 130.78653909187267 569.4388241776459 108.95582064363013 0.0 0.0
976.187578774408 120.65318519602542 544.8211693355081 113.33567439874264 0.0 0.0
931.763705422462 105.9394641132332 515.1343938705968 116.71292540728389 0.0 0.0
882.9103193621427 88.86247274433043 481.98666695741986 119.36246841808119 0.0 0.0
831.4133420493936 72.14241367412394 447.6267656711073 121.84328973325714 0.0 0.0
779.7974473980718 59.79860564484271 415.08555440166424 124.2323339283009 0.0 0.0
726.5925766406774 53.49073366916597 382.67580561515774 126.07061967341573 0.0 0.0
669.5870005832154 48.378122702816356 341.32080602101894 129.25590735770584 0.0 0.0
588.6566777546255 42.40344392159898 274.20978420575085 131.27463359871965 0.0 0.0
481.03692854181725 22.932881956793587 183.6662697921406 136.27759841659505 0.0 0.0
356.52433288825205 2.6142867262155383 110.1223605958384 142.47404443682143 0.0 0.0
239.02672076563027 6.410921910947154 73.38326790478058 135.41088593075662 0.0 0.0
152.33355287383569 20.988579066356646 51.997708738020215 129.47127973122522 0.0 0.0
78.52645276201103 18.801174876913183 29.198134583805984 142.37636195919998 0.0 0.0
245.525736806601 45.638029343741294 116.57674652634967 207.0529883207131 0.0 0.0
-515.0461613230393 -1137.8280435360693 -677.5155873860097 70.40149767278412 0.0 0.0
-376.9342227656609 -974.1895041948709 -518.7914101917149 -75.78404242958607 0.0 0.0
178.69393523173872 6.713747552395157 71.17015690026133 -210.13066917118437 0.0 0.0
48.86962075525539 7.3126344545229065 16.85452653002383 -160.4258962639145 0.0 0.0
106.68485023615928 22.357005875360315 38.71392107452927 -148.6897680850763 0.0 0.0
175.12521832201494 8.561657659727343 54.969522212675685 -154.32636092167937 0.0 0.0
267.22066028255523 -1.1864613909006212 79.47625217163692 -167.29456260555165 0.0 0.0
385.7739800296215 8.456926879228574 131.06702095508882 -165.0294708567712 0.0 0.0
501.3892928170287 27.983540778607416 211.06608526215996 -155.1544248062768 0.0 0.0
593.3052095904533 37.10541816540159 285.498513628557 -149.5560987462447 0.0 0.0
657.9798236459475 36.861523936556246 333.129350015892 -145.37226874008755 0.0 0.0
708.9146936951668 41.206263759752474 366.6175843995428 -141.07209958804935 0.0 0.0
757.5538877112806 50.78910641567035 397.3629981046168 -138.07049263350868 0.0 0.0
805.0921279802935 63.93212329279821 428.30759630932954 -135.25079666628872 0.0 0.0
849.2949726339803 77.43275438545396 457.4746738816571 -132.46297358337293 0.0 0.0
890.6160911891172 89.64632738366484 484.42491169427035 -129.20513555283932 0.0 0.0
927.3716278501086 98.74362740450172 507.5124963365504 -124.73564389743521 0.0 0.0
961.8856409398139 106.09730930415867 528.4681542955085 -118.96868562232085 0.0 0.0
1001.7063732946833 120.84568891307681 555.5406404236588 -112.92897036623044 0.0 0.0
1034.826833789514 130.6425754860665 577.1588700873785 -104.7707921587914 0.0 0.0
1036.6476171180282 108.41870245696907 567.4891023287031 -87.89823980253452 0.0 0.0
514.6842189718735 -405.8194210092315 59.53585793356384 2.8390800821398443e-10 0.0 0.0
1036.6476171178506 108.41870245682566 567.4891023286145 87.89823980265385 0.0 0.0
1034.8268337889579 130.64257548557302 577.1588700870445 104.77079215894321 0.0 0.0
1001.7063732949845 120.8456889136196 555.5406404238382 112.92897036647173 0.0 0.0
961.8856409399959 106.0973093043919 528.4681542955105 118.96868562238988 0.0 0.0
927.3716278501346 98.74362740474496 507.512496336613 124.73564389749036 0.0 0.0
890.6160911889322 89.64632738361577 484.4249116940768 129.2051355528495 0.0 0.0
849.294972632647 77.43275438410899 457.4746738807548 132.46297358328056 0.0 0.0
805.0921279807504 63.93212329368998 428.3075963096019 135.25079666650015 0.0 0.0
757.553887710641 50.78910641515632 397.3629981041967 138.07049263356396 0.0 0.0
708.914693694776 41.2062637595175 366.6175843992281 141.0720995879318 0.0 0.0
657.9798236456595 36.86152393646806 333.12935001572765 145.37226873999174 0.0 0.0
593.3052095897395 37.10541816497433 285.4985136280194 149.5560987463243 0.0 0.0
501.3892928164571 27.98354077835804 211.0660852616964 155.15442480616872 0.0 0.0
385.7739800290014 8.456926878775276 131.06702095466127 165.02947085672272 0.0 0.0
267.2206602822764 -1.1864613906591366 79.47625217164286 167.29456260528102 0.0 0.0
175.12521832189077 8.561657659578307 54.96952221259239 154.3263609215304 0.0 0.0
106.68485023609043 22.35700587530579 38.71392107449288 148.689768084896 0.0 0.0
48.869620755172726 7.312634454533367 16.854526530002076 160.42589626372984 0.0 0.0
178.69393523130074 6.713747552225032 71.17015689999793 210.13066917109438 0.0 0.0
-376.9342227648703 -974.1895041937435 -518.7914101906861 75.78404242963245 0.0 0.0
-270.6242504967904 -816.7523841922757 -389.31714353998683 -82.1320979417424 0.0 0.0
121.37804961782712 -24.874879138649117 36.49351370827865 -206.85920478656217 0.0 0.0
21.235277381228585 -0.5018220869670537 6.221901881502325 -173.20366903552983 0.0 0.0
62.110518596580015 22.182041090048127 25.284645756517005 -163.9952607039202 0.0 0.0
111.7853550698225 11.588222014017823 36.93140867218101 -169.16071192027007 0.0 0.0
175.3635590147108 0.25004914955732904 52.377664328825325 -185.1938480968479 0.0 0.0
268.56891144551344 -2.529812919770079 81.8354879170559 -195.2676825414879 0.0 0.0
383.8904763251647 7.6955311259043295 136.96267192055615 -184.73758215641868 0.0 0.0
487.0166707176859 18.92797976339044 206.20338534925543 -170.2688410047353 0.0 0.0
561.8108861229414 20.161936185271102 261.5668698856749 -162.1673230527309 0.0 0.0
616.2651418668095 22.081925713965408 300.6487997861047 -156.16455051929927 0.0 0.0
663.2735893971587 28.251766924025283 331.63929499864577 -152.58120234986643 0.0 0.0
707.0078070200921 38.64593508576658 360.72727519435347 -149.49628251298475 0.0 0.0
746.2764969029658 48.58249663598936 386.2412860186862 -146.6592084111782 0.0 0.0
783.2277490413862 58.11521057702343 409.95642828602917 -143.8158732951316 0.0 0.0
818.3896548564062 66.35795063498668 432.04687680159526 -139.98048479017834 0.0 0.0
852.377919103571 73.18421121428977 452.90654006098936 -134.13178608320646 0.0 0.0
892.790610014342 86.93995884152773 479.92885565226646 -126.98164596340554 0.0 0.0
946.548103512724 114.64261131485145 520.3807669129087 -120.48392088162967 0.0 0.0
975.3232886489294 114.54109908887224 535.838905405565 -108.08731092455841 0.0 0.0
317.2535977072229 -523.288353147741 -95.5229200908495 1.5591083979415998e-10 0.0 0.0
975.3232886497104 114.54109908976707 535.8389054061765 108.08731092473988 0.0 0.0
946.5481035118423 114.64261131422407 520.380766912324 120.48392088193472 0.0 0.0
892.7906100156454 86.93995884313443 479.9288556532292 126.98164596389282 0.0 0.0
852.3779191038825 73.1842112147032 452.9065400611267 134.13178608322448 0.0 0.0
818.3896548574653 66.35795063626001 432.0468768023598 139.98048479028898 0.0 0.0
783.2277490420655 58.11521057795346 409.9564282864299 143.8158732952533 0.0 0.0
746.2764969022692 48.58249663537829 386.2412860181388 146.65920841102115 0.0 0.0
707.007807020561 38.64593508646612 360.72727519469106 149.4962825132098 0.0 0.0
663.2735893971001 28.25176692407605 331.63929499859387 152.58120234976445 0.0 0.0
616.2651418671862 22.081925714603983 300.6487997862782 156.164550519261 0.0 0.0
561.810886123305 20.161936186065724 261.5668698858844 162.16732305271694 0.0 0.0
487.0166707174597 18.927979763705252 206.20338534908592 170.26884100483971 0.0 0.0
383.8904763250795 7.6955311264145765 136.96267192053386 184.73758215649505 0.0 0.0
268.5689114449234 -2.529812920042934 81.83548791678061 195.2676825413865 0.0 0.0
175.36355901440612 0.2500491494435324 52.37766432872111 185.19384809649765 0.0 0.0
111.78535506957924 11.588222013590524 36.9314086719873 169.1607119200847 0.0 0.0
62.11051859661241 22.182041090166194 25.284645756559915 163.99526070383908 0.0 0.0
21.235277381331347 -0.5018220866613952 6.2219018816241265 173.20366903523578 0.0 0.0
121.37804961746234 -24.874879138845774 36.49351370806134 206.85920478642262 0.0 0.0
-270.62425049613745 -816.7523841912747 -389.3171435391677 82.13209794177263 0.0 0.0
-185.6827831416761 -678.0342442101733 -284.8808654059716 -96.43711597121693 0.0 0.0
69.73764106673484 -49.36261637441895 9.167583278011428 -197.56558035128114 0.0 0.0
-5.515898330065913 -4.0774640343079716 -2.882598142330105 -180.90702635309006 0.0 0.0
18.280978009669614 20.954111713051216 11.76906013577579 -174.77785677537113 0.0 0.0
48.34481684119596 14.482780659310698 18.821761557415968 -179.63198345451156 0.0 0.0
84.58588220759222 3.6977679988786747 26.361555628953916 -197.1614692289335 0.0 0.0
134.8751868173478 -2.0349012842924203 39.872567677472354 -213.57864067438464 0.0 0.0
214.1460534846167 -5.743430881920459 63.97272011609992 -216.13969426588343 0.0 0.0
316.15205334899366 -12.39086956288246 98.788425398082 -201.88018084166467 0.0 0.0
405.1392054046172 -16.360857263055145 138.40532818732015 -180.65908745411252 0.0 0.0
465.3870785066979 -8.663864038195943 177.21947016515844 -167.89427358733943 0.0 0.0
510.7042028692839 1.912581030342949 210.6233144791 -162.99887449046605 0.0 0.0
549.2151599651979 10.921626719331954 239.50751272393197 -161.55552831488603 0.0 0.0
583.0560494330527 19.019867664244934 264.4461074882018 -160.63968876591218 0.0 0.0
614.8291701069114 27.005131970469208 287.7586256407588 -159.74631621998634 0.0 0.0
647.5263596411708 34.84698383303099 311.37557470107294 -158.13738352595388 0.0 0.0
683.1355839620792 41.87200312621265 336.3031514791693 -153.55373152100714 0.0 0.0
721.9082952595658 47.68654846981433 362.0611840523541 -145.34157951861363 0.0 0.0
780.9266762991208 71.27766719240768 403.64234597957386 -137.43077772130582 0.0 0.0
870.111670270661 121.62234305482852 475.85514379417066 -134.8817762966826 0.0 0.0
53.43091585881125 -642.028203839455 -281.3532124492199 1.0516032489249483e-12 0.0 0.0
870.1116702708522 121.62234305503168 475.85514379451354 134.88177629685754 0.0 0.0
780.926676298845 71.27766719217252 403.6423459793948 137.4307777215551 0.0 0.0
721.908295259111 47.68654846931309 362.06118405220434 145.34157951881446 0.0 0.0
683.1355839622524 41.87200312653296 336.3031514791756 153.55373152118727 0.0 0.0
647.5263596417988 34.84698383377322 311.3755747015985 158.1373835260173 0.0 0.0
614.8291701067519 27.005131970322502 287.75862564074686 159.74631622009764 0.0 0.0
583.056049433456 19.01986766479508 264.4461074884662 160.63968876593992 0.0 0.0
549.2151599645817 10.921626718676862 239.5075127235375 161.55552831491303 0.0 0.0
510.7042028694528 1.912581030752932 210.6233144792063 162.99887449048728 0.0 0.0
465.3870785076203 -8.663864036823188 177.21947016575697 167.8942735874577 0.0 0.0
405.1392054049488 -16.360857262352397 138.40532818759732 180.65908745412355 0.0 0.0
316.15205334891687 -12.39086956246197 98.78842539815993 201.88018084179242 0.0 0.0
214.14605348447964 -5.743430881448391 63.972720116183254 216.1396942659259 0.0 0.0
134.87518681720107 -2.0349012840734697 39.87256767750292 213.5786406742356 0.0 0.0
84.58588220756289 3.697767998831935 26.36155562893024 197.16146922867682 0.0 0.0
48.344816841323386 14.482780659488848 18.821761557509493 179.63198345423888 0.0 0.0
18.280978009625123 20.954111712929173 11.769060135726301 174.77785677506668 0.0 0.0
-5.515898329978529 -4.077464033957115 -2.8825981422017994 180.907026352841 0.0 0.0
69.73764106638588 -49.362616374667866 9.16758327780937 197.56558035106886 0.0 0.0
-185.68278314122617 -678.0342442093387 -284.88086540539956 96.43711597123655 0.0 0.0
-131.7940241757546 -550.1233177252864 -210.43442592830604 -108.90665050582251 0.0 0.0
23.200597598882524 -66.0054364702761 -12.040524175094935 -182.1394088450158 0.0 0.0
-31.17756689549857 -4.812168186295819 -10.789233904554 -184.73861410982238 0.0 0.0
-24.73450709851717 19.329670074744335 -1.625646391966508 -181.08134570634974 0.0 0.0
-14.328113354009377 16.961863396878897 0.7897735875213825 -185.248349041744 0.0 0.0
-6.654164922037863 7.570898925833422 0.2814528996865442 -201.55068566409534 0.0 0.0
-2.8430383258125502 1.2749913374937702 -0.47009679335654386 -219.18571815305563 0.0 0.0
-0.9397383259685554 0.08611505140651321 -0.26483737195934864 -222.68045490358543 0.0 0.0
-0.22472685703083783 -0.026094301205805692 -0.07885789690425682 -214.4955150908014 0.0 0.0
0.039676157997732275 -0.00213456855743388 0.017504792391370927 -208.37868088068652 0.0 0.0
-0.35295922418360703 0.005548500241509657 -0.14419846722489638 -207.0608332627631 0.0 0.0
-0.8394613566069751 0.15965453883428893 0.18836793216388514 -196.81390731211104 0.0 0.0
-1.9776393418880218 0.7188146082634006 0.3442305137424313 -187.0514636675902 0.0 0.0
-0.9937172989127703 2.063555844423618 0.839425838126985 -179.70349962454793 0.0 0.0
6.334633294917722 5.547337828571742 2.022897158506609 -174.51361910587946 0.0 0.0
27.482109328258616 12.260671941245391 5.425678499018147 -170.08352989893496 0.0 0.0
72.8148764479493 24.23340678786684 13.49315248398247 -164.8447374667952 0.0 0.0
158.273369495043 33.05836201137514 18.374206924465497 -155.78638202324785 0.0 0.0
373.9276085508633 -12.7384003814187 32.53454972852903 -149.75513536389226 0.0 0.0
588.4010400178987 21.775876484043913 229.84537095355913 -194.01900406492 0.0 0.0
-597.9334931717154 -876.1504625052908 -658.8890419587628 -4.7066350816749036e-11 0.0 0.0
588.4010400177235 21.77587648393623 229.84537095352218 194.0190040648018 0.0 0.0
373.9276085506024 -12.738400382123842 32.534549728114754 149.7551353645669 0.0 0.0
158.27336949382905 33.05836200987612 18.374206923425888 155.78638202365977 0.0 0.0
72.81487644807044 24.23340678793511 13.493152484050327 164.84473746716515 0.0 0.0
27.48210932832886 12.260671941320837 5.425678499036309 170.08352989889954 0.0 0.0
6.334633294135173 5.547337827179476 2.022897157805275 174.51361910591214 0.0 0.0
-0.9937172986750085 2.063555844715772 0.8394258382467115 179.70349962467515 0.0 0.0
-1.9776393416547222 0.7188146080670634 0.344230513717676 187.05146366760832 0.0 0.0
-0.8394613561860638 0.15965453896559367 0.18836793231496785 196.8139073123192 0.0 0.0
-0.352959223417848 0.005548500944357215 -0.14419846679632897 207.06083326267105 0.0 0.0
0.03967615794887536 -0.0021345699180663757 0.01750479194742738 208.3786808803947 0.0 0.0
-0.22472685685463034 -0.026094301175250578 -0.07885789684782019 214.49551509087917 0.0 0.0
-0.939738326045326 0.08611505120807328 -0.26483737203787694 222.68045490359114 0.0 0.0
-2.8430383257845193 1.2749913374838377 -0.47009679335198795 219.18571815289596 0.0 0.0
-6.654164921765867 7.5708989262126725 0.2814528998831256 201.5506856638516 0.0 0.0
-14.328113354054558 16.96186339659043 0.7897735874209433 185.24834904144697 0.0 0.0
-24.73450709833668 19.329670075051038 -1.625646391821848 181.0813457060646 0.0 0.0
-31.177566895454657 -4.812168186204701 -10.789233904512342 184.7386141097045 0.0 0.0
23.200597598685217 -66.00543647026765 -12.040524175163096 182.13940884469798 0.0 0.0
-131.79402417553945 -550.1233177246085 -210.43442592800798 108.90665050591421 0.0 0.0
-105.22084698460633 -434.293969607065 -161.79554301754393 -111.73474350815636 0.0 0.0
-10.821574982045934 -76.00510953774818 -26.053801600172914 -167.68330819647701 0.0 0.0
-55.24280883185181 -4.862207872223075 -18.038441656080103 -184.13289930251344 0.0 0.0
-66.4467684682667 17.876644223467178 -14.576883769862913 -182.69318599222203 0.0 0.0
-75.84294447410707 18.69653941020306 -17.14596793919834 -185.472901442784 0.0 0.0
-96.75577041963575 11.221227115219273 -25.612295066826263 -198.92329632934383 0.0 0.0
-140.2389241560297 4.723063378279493 -40.69370844730149 -214.84824119006265 0.0 0.0
-215.50365314959683 5.826388667404295 -64.44513280683228 -216.4305267296565 0.0 0.0
-316.3231938157787 12.207774153356155 -98.94671191589806 -201.90848247871847 0.0 0.0
-405.08199086599075 16.365295312293714 -138.37075068927575 -180.62610391211754 0.0 0.0
-465.85677973814563 8.615717748771843 -177.35978439840744 -167.91524558105957 0.0 0.0
-511.31588395081997 -1.9243971869954493 -211.40576776087136 -162.89123869127954 0.0 0.0
-550.4117808197379 -10.000716021664445 -240.5186037559493 -160.972053890786 0.0 0.0
-582.5847817290411 -15.03857837744502 -263.0261642528002 -159.80958306437225 0.0 0.0
-605.8021916993384 -16.49423422828214 -277.2028051209306 -159.86191099497503 0.0 0.0
-617.8827691205091 -12.949252439707465 -280.45744918310686 -161.95518218871092 0.0 0.0
-617.0153246115992 -4.4540885479378005 -270.6948222080463 -166.5364144319358 0.0 0.0
-610.3625768959819 2.5903673630666617 -249.25612804885932 -176.18366344446585 0.0 0.0
-590.8406711696177 50.18442642631233 -190.29375224240056 -190.088923033019 0.0 0.0
-322.6833893268531 152.17204726765578 17.2131229073578 -148.7754204333507 0.0 0.0
-1154.431922168816 -1129.9704818957453 -1164.169899875948 -2.403481857982115e-10 0.0 0.0
-322.6833893269562 152.1720472676051 17.21312290722281 148.77542043415838 0.0 0.0
-590.8406711697344 50.18442642592359 -190.293752242534 190.08892303329785 0.0 0.0
-610.3625768956582 2.5903673632625015 -249.25612804848683 176.18366344457542 0.0 0.0
-617.015324610249 -4.4540885466427795 -270.69482220720136 166.5364144319047 0.0 0.0
-617.8827691200431 -12.949252439051506 -280.4574491827071 161.95518218866206 0.0 0.0
-605.8021916994397 -16.49423422887802 -277.20280512094325 159.8619109949025 0.0 0.0
-582.5847817291592 -15.03857837760156 -263.02616425281997 159.8095830644589 0.0 0.0
-550.4117808186431 -10.000716020732472 -240.5186037552358 160.97205389064501 0.0 0.0
-511.31588395102983 -1.9243971875222918 -211.40576776094545 162.89123869133454 0.0 0.0
-465.85677973775915 8.615717749031983 -177.35978439803745 167.91524558108685 0.0 0.0
-405.0819908658762 16.36529531175917 -138.37075068921789 180.6261039121166 0.0 0.0
-316.3231938149646 12.207774153968813 -98.9467119154123 201.90848247871818 0.0 0.0
-215.50365314925057 5.826388667031539 -64.44513280681747 216.43052672967423 0.0 0.0
-140.23892415572513 4.723063378072068 -40.69370844728117 214.84824118995382 0.0 0.0
-96.75577041953699 11.221227115026148 -25.61229506686015 198.92329632902906 0.0 0.0
-75.84294447403423 18.69653940997145 -17.14596793924962 185.4729014426088 0.0 0.0
-66.44676846808517 17.8766442236346 -14.576883769761988 182.69318599202222 0.0 0.0
-55.24280883184295 -4.862207872201658 -18.038441656073513 184.13289930235837 0.0 0.0
-10.82157498206916 -76.00510953770464 -26.05380160016372 167.68330819637598 0.0 0.0
-105.22084698463217 -434.29396960652383 -161.79554301743656 111.73474350803954 0.0 0.0
-87.64650143003459 -332.0304252835957 -125.90623563205745 -104.0648577269958 0.0 0.0
-32.6845567515395 -79.81357175549728 -33.74536333777135 -155.4139147715419 0.0 0.0
-77.73016036610281 -5.115145315574394 -24.843212374888154 -180.18884885663485 0.0 0.0
-106.2583757151411 16.518981101158182 -26.94129995554214 -179.42825154818047 0.0 0.0
-136.20701747136775 19.887528700121706 -34.81883596332715 -181.40658294693654 0.0 0.0
-185.52726713015016 14.5353074574368 -51.087082215704 -190.88821417113047 0.0 0.0
-270.6501276603491 4.1474098216297985 -82.583846183286 -194.7021597419079 0.0 0.0
-384.13872857619026 -7.906793930098878 -137.2933248649922 -185.22969665543957 0.0 0.0
-487.0394538493547 -19.144801182900878 -206.30503228887198 -170.36676371908695 0.0 0.0
-561.7579591282699 -20.20686991317065 -261.57073637274704 -162.14571198665445 0.0 0.0
-616.2683683237002 -22.04340563262697 -300.6742211542933 -156.10577810054156 0.0 0.0
-663.6605434773047 -28.16753087235186 -331.88144347336396 -152.17732448072448 0.0 0.0
-707.6255163409813 -37.965169574165785 -360.8746089622531 -148.43995886631643 0.0 0.0
-745.0367381061777 -45.437820584149236 -384.3641594935069 -145.35005971838407 0.0 0.0
-773.9752042435732 -48.32213382529899 -400.82260873439765 -144.10001510722088 0.0 0.0
-790.813535736607 -43.93039358908081 -407.2491592585669 -145.2866800129663 0.0 0.0
-795.4363003294983 -33.63179421563626 -404.1258257093164 -149.20761783500978 0.0 0.0
-787.9911833980417 -19.91838187825155 -392.96605817168665 -155.84394262201855 0.0 0.0
-740.7355440191803 24.987285618960414 -347.2951127488862 -163.64365047499908 0.0 0.0
-635.303073073235 114.60219385758421 -252.70065144985847 -171.15725006847262 0.0 0.0
-1934.576014139469 -1425.8712529281495 -1644.715156402647 -1.063824583980022e-10 0.0 0.0
-635.3030730726606 114.60219385783901 -252.70065144951863 171.15725006869354 0.0 0.0
-740.7355440194722 24.987285618494 -347.2951127491366 163.64365047542668 0.0 0.0
-787.9911833969392 -19.91838187736286 -392.9660581709427 155.8439426221359 0.0 0.0
-795.4363003295525 -33.63179421583544 -404.1258257095327 149.2076178353392 0.0 0.0
-790.8135357357772 -43.93039358825371 -407.24915925795165 145.28668001285934 0.0 0.0
-773.9752042430375 -48.322133824847114 -400.8226087339784 144.10001510714088 0.0 0.0
-745.0367381056371 -45.43782058377185 -384.3641594931355 145.35005971839445 0.0 0.0
-707.6255163403054 -37.9651695736307 -360.8746089618552 148.43995886633928 0.0 0.0
-663.6605434770443 -28.167530872389847 -331.88144347310316 152.17732448069833 0.0 0.0
-616.2683683233672 -22.043405632405747 -300.6742211540803 156.10577810045902 0.0 0.0
-561.7579591281881 -20.206869913396854 -261.57073637261726 162.14571198648275 0.0 0.0
-487.03945384881325 -19.144801182809093 -206.3050322884624 170.36676371916494 0.0 0.0
-384.1387285753541 -7.90679392978508 -137.29332486450258 185.22969665554288 0.0 0.0
-270.6501276597905 4.147409821667601 -82.58384618307849 194.70215974189077 0.0 0.0
-185.52726712972287 14.535307457598908 -51.087082215544086 190.88821417077224 0.0 0.0
-136.2070174711726 19.887528700163514 -34.81883596326346 181.40658294678823 0.0 0.0
-106.258375714983 16.518981101217282 -26.941299955481437 179.42825154792916 0.0 0.0
-77.73016036602799 -5.115145315633404 -24.84321237488587 180.18884885658514 0.0 0.0
-32.68455675153226 -79.81357175554369 -33.74536333778232 155.4139147714752 0.0 0.0
-87.64650142986557 -332.03042528313534 -125.90623563186664 104.06485772689038 0.0 0.0
-71.21241675904912 -246.1102309563171 -95.19679431460986 -92.56805224527912 0.0 0.0
-48.42675405515757 -77.56599736025667 -37.79700230394264 -142.09658401944554 0.0 0.0
-98.41147222650882 -5.36497789230883 -31.123116139274966 -171.89203198543268 0.0 0.0
-144.45947917037307 15.211392164296969 -38.73710252608 -172.34369920654737 0.0 0.0
-194.14415343035031 19.727776993159775 -52.2267281531145 -170.92252939071295 0.0 0.0
-270.6080944470564 13.10313687476286 -78.06882341604108 -171.56767460880832 0.0 0.0
-386.07898916610986 -6.047276236053616 -130.8584300073252 -167.71748038107543 0.0 0.0
-501.5306227920392 -28.393027025276556 -211.24584470136335 -155.77986756321198 0.0 0.0
-593.2888058816761 -37.34259094470442 -285.5915069134699 -149.60371485785024 0.0 0.0
-657.9115003159541 -36.8411663911755 -333.1212516422519 -145.38358887494263 0.0 0.0
-708.7526823874082 -41.016268423242664 -366.47677175039155 -141.00651060381475 0.0 0.0
-757.5713402456975 -50.474708916818614 -397.2598544157315 -137.6134702332376 0.0 0.0
-805.3758069413809 -63.31041649372058 -428.2167703155071 -133.99148980986197 0.0 0.0
-848.5210742288724 -75.26338557506496 -456.1788744304169 -130.73026160240144 0.0 0.0
-883.674199620599 -82.20527006801677 -477.5278486715445 -129.16384582903396 0.0 0.0
-905.5329693089898 -80.48132670194278 -487.77269382937794 -130.57929799249865 0.0 0.0
-911.9480297470308 -68.25381566087378 -484.9439972120212 -135.2481437222946 0.0 0.0
-892.8640629748534 -37.519051728740976 -460.10883536230654 -141.3834899670416 0.0 0.0
-838.6084318493374 19.795966458127722 -405.032381908488 -146.34477009991332 0.0 0.0
-689.3044472687061 157.6977236846821 -265.20239703043154 -148.86258229913153 0.0 0.0
-2379.5510704000753 -1662.2514762197538 -1994.4637198078851 6.687628228974063e-11 0.0 0.0
-689.3044472679372 157.69772368547433 -265.20239702990847 148.86258229926585 0.0 0.0
-838.608431849366 19.79596645777758 -405.03238190850186 146.34477010018696 0.0 0.0
-892.864062973989 -37.51905172794129 -460.1088353617271 141.38348996720376 0.0 0.0
-911.9480297478283 -68.25381566202192 -484.9439972125984 135.24814372251794 0.0 0.0
-905.532969309058 -80.48132670203756 -487.77269382940773 130.579297992516 0.0 0.0
-883.6741996197036 -82.20527006729765 -477.52784867090946 129.16384582889387 0.0 0.0
-848.521074227821 -75.26338557414624 -456.1788744297139 130.7302616025 0.0 0.0
-805.3758069414456 -63.31041649407638 -428.21677031559216 133.9914898099654 0.0 0.0
-757.5713402447117 -50.47470891600161 -397.25985441507004 137.61347023320064 0.0 0.0
-708.7526823881901 -41.016268424337156 -366.47677175096067 141.00651060385417 0.0 0.0
-657.9115003159338 -36.8411663915206 -333.1212516422006 145.38358887485825 0.0 0.0
-593.2888058812462 -37.342590944688716 -285.59150691307326 149.6037148578833 0.0 0.0
-501.5306227912845 -28.39302702493633 -211.24584470080154 155.7798675632325 0.0 0.0
-386.0789891658727 -6.047276236364373 -130.85843000719802 167.71748038105858 0.0 0.0
-270.60809444638846 13.103136875318537 -78.06882341568303 171.56767460860164 0.0 0.0
-194.1441534301441 19.72777699298691 -52.22672815311645 170.92252939055 0.0 0.0
-144.45947917016974 15.211392164327926 -38.73710252601721 172.34369920636365 0.0 0.0
-98.41147222644163 -5.364977892384808 -31.123116139276497 171.89203198537217 0.0 0.0
-48.42675405514503 -77.56599736027559 -37.79700230394546 142.09658401926447 0.0 0.0
-71.21241675893177 -246.11023095591705 -95.19679431445464 92.56805224512235 0.0 0.0
-57.92727973576475 -174.3122013462524 -69.67184432460513 -79.35267624345826 0.0 0.0
-60.437399282269 -70.87551260464153 -39.394049723428495 -126.81390482556361 0.0 0.0
-117.71716981911358 -5.388789965887696 -36.926868274237414 -159.56227083223246 0.0 0.0
-180.424782514666 13.24778262424497 -50.13480238031484 -160.18308690084856 0.0 0.0
-250.9862094565407 18.391525986223776 -69.52825170835578 -156.43545415540223 0.0 0.0
-354.8870322382202 8.00495135110948 -107.85004225527686 -149.36175417840076 0.0 0.0
-478.62153524099426 -21.697582474480214 -182.9841505125635 -137.22278571282183 0.0 0.0
-588.8313406988549 -43.08808439080121 -274.42087977200356 -131.60016758090686 0.0 0.0
-669.6388957978398 -48.59163994941099 -341.47782096952005 -129.28939803950658 0.0 0.0
-726.4900156082335 -53.40202718511701 -382.6218254327355 -126.08860614012472 0.0 0.0
-779.4820951480995 -59.41878430951259 -414.7748966180836 -124.17183759032113 0.0 0.0
-830.9139072040895 -71.42313612362129 -447.0566322239565 -121.38188385313681 0.0 0.0
-882.605090488064 -87.99041595524476 -481.43378641212973 -118.08634625459747 0.0 0.0
-931.7065614947503 -104.95761888242859 -514.686701847151 -114.83377006222297 0.0 0.0
-973.3504480973438 -117.388380140625 -541.9366465936002 -112.96252395883731 0.0 0.0
-1000.3218678944322 -118.11714005434808 -555.9880583406557 -114.24661876321292 0.0 0.0
-1002.8816325532282 -100.64688962244185 -548.7411270202944 -118.48113589220672 0.0 0.0
-971.7934110307622 -54.67266524182665 -510.46567883605053 -123.90652479228527 0.0 0.0
-890.1339331772342 33.101107760305155 -426.680191568381 -127.07301232700749 0.0 0.0
-720.2915453176616 193.90782795639268 -263.6471384258658 -127.04897597214938 0.0 0.0
-2730.1890186871788 -1904.3159167785955 -2296.8644010167905 1.1245759878875106e-10 0.0 0.0
-720.2915453177034 193.90782795634448 -263.6471384258074 127.04897597223155 0.0 0.0
-890.1339331766653 33.10110776086147 -426.6801915679973 127.07301232691738 0.0 0.0
-971.7934110304334 -54.672665241599645 -510.4656788358073 123.90652479240629 0.0 0.0
-1002.8816325535364 -100.6468896228466 -548.7411270206351 118.48113589215902 0.0 0.0
-1000.321867894897 -118.11714005511539 -555.9880583410081 114.2466187634484 0.0 0.0
-973.3504480961262 -117.38838013946484 -541.9366465927308 112.96252395881982 0.0 0.0
-931.7065614945637 -104.95761888238971 -514.6867018469461 114.83377006221568 0.0 0.0
-882.6050904882037 -87.99041595557112 -481.4337864123075 118.08634625448187 0.0 0.0
-830.9139072032624 -71.42313612299952 -447.0566322234534 121.38188385315155 0.0 0.0
-779.4820951479953 -59.41878430971411 -414.77489661803 124.17183759035255 0.0 0.0
-726.49001560758 -53.402027184695626 -382.6218254322962 126.08860613999802 0.0 0.0
-669.6388957972523 -48.59163994911992 -341.4778209690817 129.28939803949143 0.0 0.0
-588.8313406980172 -43.08808439029866 -274.4208797713326 131.6001675808674 0.0 0.0
-478.6215352407126 -21.697582474735874 -182.98415051230108 137.22278571277164 0.0 0.0
-354.88703223742596 8.00495135175815 -107.85004225481032 149.36175417829676 0.0 0.0
-250.98620945626442 18.39152598601543 -69.52825170836394 156.43545415531105 0.0 0.0
-180.42478251443538 13.24778262434832 -50.13480238022075 160.18308690079215 0.0 0.0
-117.7171698189748 -5.388789965744352 -36.92686827415121 159.56227083216797 0.0 0.0
-60.437399282257296 -70.87551260464032 -39.39404972342462 126.81390482542855 0.0 0.0
-57.92727973566723 -174.31220134594068 -69.67184432448236 79.3526762432711 0.0 0.0
-48.17484006170569 -116.02170405153318 -49.258963233971656 -65.49259161098567 0.0 0.0
-69.88751540435456 -61.15814195923259 -39.31369720907614 -109.45096555417351 0.0 0.0
-135.8507069161014 -4.936673950108462 -42.2363513301361 -143.1491777262033 0.0 0.0
-214.57351076296283 11.074818209100426 -60.98586469825323 -144.07312529977708 0.0 0.0
-305.7189571440053 13.465003208492163 -87.92700632748023 -135.24786905222717 0.0 0.0
-430.6837888934266 -2.76281354145814 -141.64263706456288 -122.21095551783694 0.0 0.0
-554.6460517141243 -35.47617787522434 -233.81485544119724 -111.01102087336407 0.0 0.0
-655.8059258249709 -52.1507046215282 -324.49657086198977 -109.2473901258795 0.0 0.0
-724.6783815875518 -61.50963389742614 -383.10623587608166 -107.54134791011968 0.0 0.0
-784.3831584289643 -67.35339321037962 -421.559447250609 -107.46400805006381 0.0 0.0
-838.7917335623936 -77.10279560155269 -454.9651861442991 -106.23249939480638 0.0 0.0
-893.5819419939988 -92.46130698466236 -490.2578033122236 -103.94692698971241 0.0 0.0
-949.1708078407396 -112.48828551973962 -528.1706248957108 -101.13158983370646 0.0 0.0
-1003.2300729442235 -133.6690549289556 -565.8969419445516 -98.18521325523673 0.0 0.0
-1051.7796241214403 -152.03953000141283 -599.492155189677 -96.06423190300912 0.0 0.0
-1083.108677198642 -156.3643675529603 -617.5723970601202 -96.41125808918568 0.0 0.0
-1081.6358772464223 -131.56462898981496 -604.7268600901145 -99.99308440829867 0.0 0.0
-1032.5519220023377 -66.27406459464297 -547.9354217555532 -104.63043727633845 0.0 0.0
-924.8814081488059 48.16937184697716 -437.64451268132507 -107.20844277090453 0.0 0.0
-744.439927812346 219.87170329955592 -262.80020068029694 -109.08300227393663 0.0 0.0
-3030.127859064182 -2133.2259168844585 -2565.430512439408 7.951683755891281e-11 0.0 0.0
-744.4399278124679 219.87170329931743 -262.80020068031683 109.08300227411718 0.0 0.0
-924.8814081479823 48.16937184772651 -437.644512680814 107.20844277101313 0.0 0.0
-1032.5519220016163 -66.27406459403582 -547.9354217550808 104.63043727646512 0.0 0.0
-1081.635877247312 -131.56462899087825 -604.7268600908335 99.99308440842698 0.0 0.0
-1083.1086771985536 -156.3643675530239 -617.5723970599931 96.41125808932067 0.0 0.0
-1051.7796241211472 -152.0395300013089 -599.4921551894515 96.06423190304739 0.0 0.0
-1003.230072944758 -133.66905492967746 -565.8969419447776 98.18521325534333 0.0 0.0
-949.1708078402189 -112.48828551943974 -528.1706248955319 101.13158983363572 0.0 0.0
-893.5819419937665 -92.46130698464125 -490.25780331210126 103.94692698976363 0.0 0.0
-838.7917335618373 -77.10279560115276 -454.9651861439786 106.23249939466656 0.0 0.0
-784.3831584278666 -67.35339320945636 -421.55944724991065 107.4640080498255 0.0 0.0
-724.6783815871563 -61.509633897389676 -383.1062358757911 107.54134791022784 0.0 0.0
-655.8059258238497 -52.150704620619486 -324.4965708611214 109.24739012574477 0.0 0.0
-554.6460517136868 -35.47617787524608 -233.8148554407643 111.01102087338064 0.0 0.0
-430.6837888927163 -2.762813541003567 -141.64263706412856 122.21095551779891 0.0 0.0
-305.71895714355566 13.465003208499853 -87.92700632735861 135.24786905206898 0.0 0.0
-214.5735107626652 11.07481820940394 -60.985864698074145 144.07312529980973 0.0 0.0
-135.85070691601567 -4.936673950094139 -42.23635133010473 143.14917772614666 0.0 0.0
-69.88751540432504 -61.15814195927958 -39.313697209081376 109.45096555409836 0.0 0.0
-48.174840061603405 -116.02170405138584 -49.25896323389676 65.49259161094223 0.0 0.0
-41.71176767223682 -70.87354343924791 -33.775593333445414 -51.37551118858864 0.0 0.0
-77.22871460823717 -49.702223167415085 -38.07928133269568 -90.16538811072006 0.0 0.0
-152.89187813473933 -3.9289926768552514 -47.04664273978931 -122.709614826975 0.0 0.0
-247.29774912309998 7.840594718570348 -71.78186202884768 -123.26962603431453 0.0 0.0
-362.8753782270274 7.412242992851876 -107.65398838794937 -111.3267413279601 0.0 0.0
-493.2547162764305 -18.74415464137749 -178.99374265673734 -92.13616910136473 0.0 0.0
-616.3154904348083 -44.64460423901887 -279.1598581174301 -87.37413542740664 0.0 0.0
-702.9081557661004 -61.63899635245702 -363.08668566008527 -86.68309675161596 0.0 0.0
-772.9730811105164 -71.60390405187135 -416.16406226734824 -87.30909759774075 0.0 0.0
-833.4509550430669 -81.53789120884667 -454.7577963885816 -87.96673386422553 0.0 0.0
-891.2738281474619 -94.98811177591004 -491.0733123024716 -87.30889841176243 0.0 0.0
-949.5397920927201 -113.57283472340897 -529.6080444254478 -85.56327691517984 0.0 0.0
-1008.5772067012183 -136.4853175025918 -570.6370518242724 -83.34076373562475 0.0 0.0
-1066.3759800692737 -161.72643321385053 -612.201275074521 -80.8908685974533 0.0 0.0
-1119.9934644847513 -184.1905364937871 -650.310675404731 -78.6352142891688 0.0 0.0
-1157.1617372208054 -192.72864711965528 -673.391357874472 -77.82601485796054 0.0 0.0
-1153.8313699832152 -165.1891184451665 -658.3570810174438 -79.9046684951707 0.0 0.0
-1087.6210242389316 -81.14911967043219 -583.6880505954924 -84.08463314376478 0.0 0.0
-954.9998744565777 59.09930907306365 -447.78553055364296 -88.19858707028489 0.0 0.0
-759.3855587104367 245.31166133559555 -257.4331277647485 -93.98382002166065 0.0 0.0
-3290.3063642411034 -2341.1216135080404 -2802.5453373858377 4.526157226791838e-11 0.0 0.0
-759.3855587100954 245.31166133579543 -257.43312776448175 93.98382002191138 0.0 0.0
-954.9998744559268 59.09930907369296 -447.7855305531631 88.19858707038232 0.0 0.0
-1087.6210242375819 -81.14911966910321 -583.6880505946349 84.08463314356965 0.0 0.0
-1153.8313699831845 -165.18911844530064 -658.3570810175559 79.90466849528958 0.0 0.0
-1157.161737221251 -192.72864712026035 -673.391357874683 77.82601485807331 0.0 0.0
-1119.9934644848963 -184.19053649411285 -650.3106754048356 78.63521428921584 0.0 0.0
-1066.3759800695661 -161.7264332143849 -612.2012750746175 80.89086859751359 0.0 0.0
-1008.5772067012568 -136.48531750285963 -570.6370518244354 83.34076373577786 0.0 0.0
-949.5397920926006 -113.57283472349478 -529.6080444253635 85.56327691509718 0.0 0.0
-891.2738281477801 -94.9881117764973 -491.073312302693 87.30889841170816 0.0 0.0
-833.4509550415133 -81.53789120744892 -454.7577963875727 87.96673386403745 0.0 0.0
-772.973081110495 -71.60390405215672 -416.16406226730044 87.30909759772527 0.0 0.0
-702.9081557649594 -61.63899635159446 -363.0866856592466 86.68309675153819 0.0 0.0
-616.3154904343511 -44.644604238947394 -279.1598581169497 87.37413542738109 0.0 0.0
-493.25471627569414 -18.744154640988306 -178.99374265623777 92.13616910131168 0.0 0.0
-362.87537822662745 7.412242992745942 -107.65398838785225 111.32674132783757 0.0 0.0
-247.29774912293672 7.840594718467804 -71.78186202883133 123.26962603428282 0.0 0.0
-152.89187813464275 -3.928992676910561 -47.04664273977699 122.70961482684885 0.0 0.0
-77.22871460816731 -49.702223167369766 -38.07928133266112 90.16538811062466 0.0 0.0
-41.711767672190675 -70.87354343924731 -33.77559333343139 51.375511188550625 0.0 0.0
-37.869635591999746 -38.62502693740467 -22.94839875882132 -37.37619449689402 0.0 0.0
-82.34882127425445 -37.657106530225704 -36.001778341344036 -69.18616185961261 0.0 0.0
-168.63565025638692 -2.5324462663283924 -51.350683196696565 -98.10058983974697 0.0 0.0
-279.95115679238006 3.559477266148238 -82.82707830743256 -98.00054834184752 0.0 0.0
-417.2316849993082 -2.5709842721196283 -130.089196910562 -82.3463279862411 0.0 0.0
-552.541315239201 -30.505572843621355 -216.50674459759614 -66.83548181282983 0.0 0.0
-660.6263259125191 -52.937757248395165 -317.71757630922957 -65.14631091465893 0.0 0.0
-742.4731123967854 -68.44459117376843 -392.77600420949193 -65.2911949341936 0.0 0.0
-813.4783473485171 -82.22243491254358 -444.00591365644425 -66.66512980615784 0.0 0.0
-877.1066907337197 -95.91201829016191 -484.63899992385234 -67.72858379923255 0.0 0.0
-938.3313318964604 -113.01127475662196 -524.2076167968894 -67.50088007870617 0.0 0.0
-1000.3202823342059 -134.9409269659273 -566.2312179954823 -66.27907246498178 0.0 0.0
-1062.5430625064705 -161.21472653739704 -610.5163217315593 -64.62941120732073 0.0 0.0
-1122.8201803262436 -187.48812289093632 -653.807769557561 -62.89846099361187 0.0 0.0
-1178.2971903055181 -211.89867998146548 -693.7677771484208 -60.85191277593687 0.0 0.0
-1220.994724985844 -225.77736618976908 -722.2142217998228 -58.86721184333409 0.0 0.0
-1224.7488336834467 -203.7162959452225 -713.4733342809855 -58.853358220402754 0.0 0.0
-1148.99846313772 -108.73612563414866 -628.6304009284175 -62.61535142889897 0.0 0.0
-987.3970344353268 61.27241365696722 -463.2252560717983 -69.51986972813465 0.0 0.0
-761.4809722398202 278.1339746280807 -241.97126173900176 -80.30373892255452 0.0 0.0
-3511.0095679848746 -2518.6418282003456 -3004.082008967873 9.22000253922306e-11 0.0 0.0
-761.4809722386162 278.1339746292401 -241.97126173812137 80.3037389226156 0.0 0.0
-987.397034435228 61.27241365698286 -463.2252560717688 69.51986972822506 0.0 0.0
-1148.9984631375808 -108.736125634042 -628.6304009283504 62.61535142887907 0.0 0.0
-1224.748833682155 -203.71629594401116 -713.4733342802697 58.85335822028108 0.0 0.0
-1220.9947249868462 -225.77736619095046 -722.214221800423 58.86721184338746 0.0 0.0
-1178.2971903046096 -211.89867998074018 -693.7677771478634 60.85191277604756 0.0 0.0
-1122.820180326631 -187.4881228914869 -653.8077695577958 62.89846099363539 0.0 0.0
-1062.5430625061715 -161.21472653737152 -610.5163217313823 64.62941120740476 0.0 0.0
-1000.320282334006 -134.9409269659893 -566.2312179953774 66.27907246509449 0.0 0.0
-938.3313318967132 -113.01127475715191 -524.207616797074 67.50088007874143 0.0 0.0
-877.1066907329438 -95.912018289634 -484.6389999233407 67.72858379918371 0.0 0.0
-813.4783473480369 -82.22243491232365 -444.0059136561 66.66512980600903 0.0 0.0
-742.473112395844 -68.44459117311669 -392.7760042088247 65.29119493416228 0.0 0.0
-660.6263259119705 -52.937757248219384 -317.71757630869746 65.1463109146395 0.0 0.0
-552.5413152384555 -30.50557284313673 -216.50674459700872 66.83548181275394 0.0 0.0
-417.231684998902 -2.5709842721436087 -130.0891969103933 82.34632798612657 0.0 0.0
-279.9511567921199 3.559477266150759 -82.82707830738136 98.00054834168955 0.0 0.0
-168.63565025637465 -2.5324462665615473 -51.35068319676252 98.10058983961918 0.0 0.0
-82.34882127414063 -37.6571065301447 -36.001778341285615 69.1861618594586 0.0 0.0
-37.86963559199605 -38.62502693742561 -22.948398758826503 37.37619449692059 0.0 0.0
-35.42727369674935 -18.907615816188134 -16.300466853881247 -24.26126857385374 0.0 0.0
-84.51420492741158 -26.203577935882265 -33.21533485898816 -46.813113694722986 0.0 0.0
-182.73347340509847 -1.2621643499304014 -55.198691326508644 -68.81790468825861 0.0 0.0
-314.05579021452877 -1.447716504361281 -94.44337554050894 -67.77157434982082 0.0 0.0
-467.4256067316119 -15.83443786109977 -155.87651921829286 -51.78091595639066 0.0 0.0
-600.0258777200427 -39.77426959858191 -252.51281601517746 -43.71178354535991 0.0 0.0
-693.0358363991273 -59.027105622699686 -347.84449371881715 -43.440508020584105 0.0 0.0
-776.2269656767554 -76.07218325198824 -417.7922066976491 -44.36850390626274 0.0 0.0
-849.1926463493535 -93.43778883436858 -468.7410220897165 -45.670472625622715 0.0 0.0
-916.122689451909 -110.6379766205748 -512.0346555269399 -46.73344974082646 0.0 0.0
-981.2416137598641 -131.2116839920473 -555.1689050345633 -46.84438816731549 0.0 0.0
-1046.5822276304598 -156.47275401642932 -600.5277580698839 -46.13198232247556 0.0 0.0
-1112.1539918900876 -184.7596594545155 -647.4771468069013 -45.16107144955905 0.0 0.0
-1174.1903263809643 -213.2766249508498 -692.7761540881826 -44.028099125488154 0.0 0.0
-1229.101318790522 -236.54789601996387 -731.8875970632914 -42.51189302507668 0.0 0.0
-1270.7250009001991 -248.96159874928756 -758.9710259926394 -40.26177357198189 0.0 0.0
-1287.032033786193 -239.15719929160716 -762.4574278925152 -38.190973120138224 0.0 0.0
-1236.7049049305126 -168.25087874847827 -702.3810479067712 -40.00971163432819 0.0 0.0
-1041.0113011713693 37.71427250053384 -502.0762948018521 -49.59971749457097 0.0 0.0
-737.5325094877961 333.59812703426326 -202.29672502797922 -66.8877294216385 0.0 0.0
-3678.59044740129 -2648.3644071108274 -3154.7356566353546 -5.483613563228573e-12 0.0 0.0
-737.5325094872455 333.598127034788 -202.2967250275775 66.88772942166581 0.0 0.0
-1041.0113011712297 37.71427250059562 -502.076294801867 49.59971749462168 0.0 0.0
-1236.704904930436 -168.2508787485387 -702.3810479067373 40.00971163452438 0.0 0.0
-1287.0320337853734 -239.1571992908312 -762.4574278919941 38.1909731200287 0.0 0.0
-1270.7250009000454 -248.96159874933448 -758.9710259924317 40.26177357197662 0.0 0.0
-1229.1013187900035 -236.5478960195715 -731.887597062928 42.511893025160695 0.0 0.0
-1174.1903263800632 -213.2766249501308 -692.7761540874714 44.02809912538487 0.0 0.0
-1112.1539918896215 -184.75965945424707 -647.4771468066793 45.16107144958537 0.0 0.0
-1046.5822276300305 -156.47275401625913 -600.5277580695869 46.13198232252037 0.0 0.0
-981.2416137593447 -131.2116839918246 -555.1689050342545 46.844388167441096 0.0 0.0
-916.1226894516918 -110.63797662060117 -512.0346555267935 46.733449740729625 0.0 0.0
-849.1926463482846 -93.43778883357221 -468.7410220890016 45.67047262556354 0.0 0.0
-776.226965675984 -76.07218325149458 -417.7922066970975 44.36850390615093 0.0 0.0
-693.0358363985257 -59.02710562242644 -347.8444937182597 43.44050802057028 0.0 0.0
-600.0258777196452 -39.77426959848639 -252.51281601472627 43.71178354513882 0.0 0.0
-467.4256067311029 -15.83443786096119 -155.87651921803177 51.7809159563258 0.0 0.0
-314.055790214143 -1.4477165040957363 -94.44337554033406 67.77157434963715 0.0 0.0
-182.7334734049885 -1.2621643500487376 -55.19869132651117 68.81790468841656 0.0 0.0
-84.51420492717303 -26.20357793589404 -33.215334858920116 46.81311369467237 0.0 0.0
-35.427273696377206 -18.907615816029065 -16.300466853721883 24.261268573848216 0.0 0.0
-32.075851821972215 -10.69309196590922 -12.830683136364428 -13.691277617761845 0.0 0.0
-82.238962404274 -17.00468728218991 -29.77309490593917 -23.454585472192967 0.0 0.0
-194.65758984884386 -1.1012360442914635 -58.72764776794058 -33.53286810948232 0.0 0.0
-350.064924685641 -6.271823710492145 -106.94627906782709 -32.05849321313301 0.0 0.0
-517.0153692815569 -26.81168653603236 -183.47459073873344 -23.2449548249138 0.0 0.0
-634.536014352722 -46.60075866682182 -284.4329035637629 -22.43926299664529 0.0 0.0
-721.979238012424 -62.86543262227317 -371.78087955270456 -23.291490036739773 0.0 0.0
-805.1915507891792 -84.23252328316227 -439.097175361054 -23.766116505257813 0.0 0.0
-880.8271694310947 -104.81269951141003 -490.96237947882497 -24.35517031389599 0.0 0.0
-951.4415247038378 -125.95981604943599 -537.7075874496954 -25.027161490724733 0.0 0.0
-1020.1769956111541 -149.7710248642597 -584.2184922508478 -25.310548255339555 0.0 0.0
-1089.0255246165716 -177.36163049209722 -632.4968404752101 -25.202531755042692 0.0 0.0
-1157.2850320879782 -208.6640960659845 -682.2946082634936 -24.809719233892054 0.0 0.0
-1221.5695769915956 -238.21870086886926 -729.2341219738553 -24.28000378178545 0.0 0.0
-1274.7535790703275 -259.41092234975713 -766.4610009229382 -23.44797384777041 0.0 0.0
-1310.5148625446107 -266.02709183197584 -787.710277523229 -21.839098309550195 0.0 0.0
-1326.2380554654355 -256.0024337683999 -790.6038765919031 -19.31869601957116 0.0 0.0
-1320.654165289169 -229.329169459571 -774.6213655590287 -18.154457121424997 0.0 0.0
-1209.8529828141986 -105.3791763917886 -657.9351999191933 -25.82420018781064 0.0 0.0
-716.1617632124746 384.9259903817681 -166.25213928720825 -50.122918221125886 0.0 0.0
-3636.825439748366 -2570.6699787713455 -3097.0911858797676 8.345324431502377e-12 0.0 0.0
-716.1617632117241 384.92599038245316 -166.25213928662032 50.122918221186865 0.0 0.0
-1209.85298281418 -105.37917639184755 -657.9351999193223 25.824200187934323 0.0 0.0
-1320.6541652887718 -229.329169459252 -774.6213655588389 18.15445712156835 0.0 0.0
-1326.238055466488 -256.00243376955564 -790.603876592641 19.318696019480402 0.0 0.0
-1310.5148625432441 -266.02709183076723 -787.7102775222419 21.839098309529923 0.0 0.0
-1274.7535790702639 -259.4109223498496 -766.4610009228461 23.447973847846754 0.0 0.0
-1221.5695769901283 -238.21870086756587 -729.2341219727856 24.280003781735232 0.0 0.0
-1157.2850320890177 -208.66409606725063 -682.2946082642396 24.809719233904637 0.0 0.0
-1089.0255246149989 -177.361630490781 -632.4968404741618 25.202531755110346 0.0 0.0
-1020.1769956112632 -149.7710248646222 -584.2184922508567 25.310548255415355 0.0 0.0
-951.4415247032665 -125.95981604913487 -537.7075874492845 25.02716149071796 0.0 0.0
-880.8271694307481 -104.8126995113899 -490.9623794785754 24.355170313982303 0.0 0.0
-805.1915507888261 -84.23252328309668 -439.09717536076386 23.766116505297596 0.0 0.0
-721.9792380117515 -62.86543262193261 -371.78087955216006 23.29149003678903 0.0 0.0
-634.5360143525801 -46.600758667040196 -284.4329035634674 22.439262996498847 0.0 0.0
-517.0153692810675 -26.811686535949868 -183.47459073841807 23.24495482490567 0.0 0.0
-350.06492468510754 -6.2718237102915495 -106.9462790676238 32.05849321296576 0.0 0.0
-194.65758984881234 -1.1012360445466913 -58.7276477680077 33.53286810977473 0.0 0.0
-82.23896240436483 -17.004687282328916 -29.77309490600811 23.454585472163743 0.0 0.0
-32.07585182201116 -10.69309196588702 -12.830683136369451 13.691277617642475 0.0 0.0
-20.79728425977309 -5.4136204077191445 -7.863271400247669 -8.418315735578748 0.0 0.0
-71.5047640830197 -9.693334039793244 -24.35942943684388 -9.745518895935989 0.0 0.0
-203.6235344602513 -2.9987544780130335 -61.98668668147929 -11.188821834361155 0.0 0.0
-393.7981364099271 -22.772208123680077 -126.5037500720299 -8.143174401613575 0.0 0.0
-585.3162918070972 -70.43430595726691 -230.06815276045782 -0.2309776606136822 0.0 0.0
-724.0879156571663 -118.3214306726382 -359.50419905235754 1.3137022909606593 0.0 0.0
-844.5162009335282 -170.48185415073064 -478.6426392167019 0.7198841331582564 0.0 0.0
-971.8504995388065 -237.47437477827384 -589.2170619382766 -0.7190179903226657 0.0 0.0
-1105.9503741593364 -317.3596911222378 -699.7739982983405 -2.3377908355401456 0.0 0.0
-1255.3649408944166 -417.0598057611522 -825.0519492676335 -4.05088678613879 0.0 0.0
-1425.8497094968716 -541.9749860558481 -972.6652803525309 -5.669940225700067 0.0 0.0
-1617.974019204004 -693.0288464872441 -1143.8942630057472 -6.974043581156163 0.0 0.0
-1826.2125425543036 -863.228428539115 -1332.6875290891587 -7.846088201329474 0.0 0.0
-2040.679448628283 -1042.529576943953 -1529.2236633906573 -8.56028261258914 0.0 0.0
-2245.358754771228 -1214.8563545664188 -1717.4813393389559 -8.929510525625645 0.0 0.0
-2418.0695929388457 -1358.3203874315293 -1875.4727320293787 -8.671077555879187 0.0 0.0
-2532.126210273405 -1447.005393490267 -1976.8884781691545 -7.354597514017023 0.0 0.0
-2572.6841746958194 -1466.9367459786781 -2006.8926370198485 -5.661451582767867 0.0 0.0
-2614.692875138784 -1494.3422836641073 -2040.2605650881874 -11.66427349196962 0.0 0.0
-2675.222525439995 -1553.3875186446671 -2097.4303795391656 -39.68095165064291 0.0 0.0
-6113.326011718743 -5019.288479615597 -5541.9677288073435 1.255671122635249e-10 0.0 0.0
-2675.222525437597 -1553.3875186422747 -2097.4303795373617 39.680951650573654 0.0 0.0
-2614.692875138281 -1494.3422836636691 -2040.2605650877729 11.66427349207796 0.0 0.0
-2572.6841746956297 -1466.9367459785753 -2006.8926370195488 5.661451582774895 0.0 0.0
-2532.1262102746 -1447.0053934916107 -1976.8884781696875 7.354597513948654 0.0 0.0
-2418.0695929367666 -1358.3203874295807 -1875.4727320277007 8.671077555841652 0.0 0.0
-2245.358754769703 -1214.8563545650645 -1717.481339337708 8.929510525708118 0.0 0.0
-2040.6794486273152 -1042.5295769431525 -1529.2236633897096 8.560282612701876 0.0 0.0
-1826.212542554704 -863.2284285397966 -1332.6875290890794 7.846088201405415 0.0 0.0
-1617.9740192013057 -693.0288464847335 -1143.894263003803 6.974043581257156 0.0 0.0
-1425.8497094977772 -541.9749860570623 -972.6652803528259 5.669940225616315 0.0 0.0
-1255.3649408936226 -417.05980576063854 -825.051949266883 4.05088678643985 0.0 0.0
-1105.9503741590013 -317.3596911222229 -699.7739982979693 2.337790835551349 0.0 0.0
-971.8504995386108 -237.4743747783927 -589.2170619379615 0.7190179904622376 0.0 0.0
-844.5162009323398 -170.48185414984295 -478.6426392157997 -0.7198841330379793 0.0 0.0
-724.0879156571061 -118.32143067298088 -359.5041990520508 -1.313702290971257 0.0 0.0
-585.316291806723 -70.43430595728627 -230.0681527601256 0.23097766061221847 0.0 0.0
-393.79813640930695 -22.772208123275 -126.50375007171094 8.143174401426453 0.0 0.0
-203.62353446023366 -2.9987544785875606 -61.98668668164636 11.188821834478048 0.0 0.0
-71.50476408290145 -9.69333403973409 -24.359429436790663 9.745518895763087 0.0 0.0
-20.797284259719838 -5.413620407664607 -7.863271400215335 8.418315735457732 0.0 0.0
SCALARS Strain float 6
LOOKUP_TABLE default
0.01432081517449467 -0.023885439473304224 0.0 -0.0013604946221220716 0.0 0.0
0.00879538865219737 -0.00257166528296616 0.0 -0.007268837959567827 0.0 0.0
0.0026117184760447547 -0.0006184394271065549 0.0 -0.0008493570960753624 0.0 0.0
0.00223213194452921 -0.0008895741008963015 0.0 4.06529307693969e-06 0.0 0.0
0.0032697920766083834 -0.0014219789052341923 0.0 0.0001777522758559874 0.0 0.0
0.005536280775424977 -0.0031245078679499223 0.0 0.0003311716634523468 0.0 0.0
0.009460330783201534 -0.0064671012303785715 0.0 0.0004405923668643402 0.0 0.0
0.015362257600655786 -0.011766871829843008 0.0 0.0004797836938873752 0.0 0.0
0.023498185739992836 -0.019253000930401887 0.0 0.0004492122725264697 0.0 0.0
0.03396501622995247 -0.028966309753800684 0.0 0.0003223859386265379 0.0 0.0
0.04670219753439596 -0.040811542920032945 0.0 0.00013313835049056093 0.0 0.0
0.06155906330937615 -0.05463484203284166 0.0 -0.00011393685390986743 0.0 0.0
0.07834573659487135 -0.07028024822519599 0.0 -0.0004452686864927293 0.0 0.0
0.09685933146688827 -0.08758729652731102 0.0 -0.0008140554026456058 0.0 0.0
0.11681109550668192 -0.10632281558757709 0.0 -0.0012517587506334672 0.0 0.0
0.13767568600691077 -0.1260237288129673 0.0 -0.0017441369493847018 0.0 0.0
0.15858867653875525 -0.1458887349027352 0.0 -0.0021950562504567347 0.0 0.0
0.17833858399616379 -0.1647698927779052 0.0 -0.002432404669179474 0.0 0.0
0.19548358417717515 -0.1812406205657479 0.0 -0.002288422470389506 0.0 0.0
0.20827142539892224 -0.19362873235613592 0.0 -0.002591804394167422 0.0 0.0
0.2133268807320865 -0.19874024228286613 0.0 1.9350840374521283e-15 0.0 0.0
0.20827142539889382 -0.19362873235611794 0.0 0.0025918043941752043 0.0 0.0
0.19548358417711573 -0.1812406205656931 0.0 0.002288422470398335 0.0 0.0
0.17833858399607921 -0.16476989277783488 0.0 0.0024324046691825644 0.0 0.0
0.15858867653865852 -0.14588873490264107 0.0 0.0021950562504549718 0.0 0.0
0.13767568600680996 -0.12602372881287396 0.0 0.001744136949379975 0.0 0.0
0.11681109550657987 -0.10632281558749115 0.0 0.0012517587506331194 0.0 0.0
0.09685933146678657 -0.08758729652721486 0.0 0.0008140554026434639 0.0 0.0
0.07834573659477122 -0.07028024822511011 0.0 0.00044526868648895896 0.0 0.0
0.06155906330928358 -0.054634842032747294 0.0 0.00011393685390365333 0.0 0.0
0.04670219753431744 -0.04081154291995566 0.0 -0.00013313835049176656 0.0 0.0
0.03396501622988998 -0.02896630975374353 0.0 -0.00032238593862818636 0.0 0.0
0.023498185739944707 -0.019253000930353415 0.0 -0.00044921227252654435 0.0 0.0
0.015362257600620398 -0.011766871829810689 0.0 -0.00047978369389111255 0.0 0.0
0.009460330783178109 -0.006467101230357451 0.0 -0.00044059236686360917 0.0 0.0
0.00553628077541213 -0.003124507867940405 0.0 -0.000331171663451122 0.0 0.0
0.0032697920766035092 -0.0014219789052326728 0.0 -0.0001777522758580373 0.0 0.0
0.0022321319445279667 -0.0008895741008958086 0.0 -4.065293076644329e-06 0.0 0.0
0.002611718476042915 -0.0006184394271062195 0.0 0.0008493570960748055 0.0 0.0
0.008795388652191604 -0.0025716652829624355 0.0 0.007268837959557803 0.0 0.0
0.014320815174486275 -0.02388543947327906 0.0 0.001360494622076415 0.0 0.0
0.01000044027930682 -0.02141692732251166 0.0 -0.0008893636445155 0.0 0.0
0.005855352308432469 -0.0019223941309723996 0.0 -0.005922009321074041 0.0 0.0
0.0017217028392002003 -0.0004749911209748792 0.0 -0.0005397551861899984 0.0 0.0
0.0019690013691106537 -0.0008367384319507989 0.0 -0.00019408700124590563 0.0 0.0
0.0028164285668503923 -0.0012797071816772624 0.0 -0.0001515266652737034 0.0 0.0
0.0047434175195626375 -0.0027983720191697035 0.0 -0.0002270994650102504 0.0 0.0
0.00823293596887317 -0.005909839310591676 0.0 -0.0005214913632925407 0.0 0.0
0.01358528862991392 -0.010926824157081223 0.0 -0.0009864911681283658 0.0 0.0
0.021006171800384287 -0.01805324103609532 0.0 -0.0016398727514275711 0.0 0.0
0.03053163264733632 -0.02729907689934115 0.0 -0.0024535360874044735 0.0 0.0
0.042063824840137994 -0.038549464030001125 0.0 -0.0033463057211218015 0.0 0.0
0.0554560379197762 -0.05164892528401829 0.0 -0.004257219516664227 0.0 0.0
0.07057389509223443 -0.06646413810124299 0.0 -0.005200018121699454 0.0 0.0
0.0872661960626668 -0.08286573126884514 0.0 -0.00618159275055203 0.0 0.0
0.10528490856412812 -0.10063811582420952 0.0 -0.007173969528955166 0.0 0.0
0.12417543462465215 -0.11935408950343365 0.0 -0.008090482451923217 0.0 0.0
0.14317944509169603 -0.13827229889795112 0.0 -0.008701120235290431 0.0 0.0
0.1612202055653779 -0.15631299441828927 0.0 -0.008672240801668497 0.0 0.0
0.1768850676668069 -0.17208389791567497 0.0 -0.007805964007733024 0.0 0.0
0.18813520985609958 -0.18375440694469858 0.0 -0.00673744919217855 0.0 0.0
0.1923463518659211 -0.18861984353266398 0.0 7.889522368742519e-15 0.0 0.0
0.18813520985607302 -0.1837544069446777 0.0 0.006737449192198247 0.0 0.0
0.17688506766675366 -0.17208389791562148 0.0 0.007805964007754862 0.0 0.0
0.16122020556530386 -0.15631299441822014 0.0 0.008672240801680678 0.0 0.0
0.14317944509161068 -0.1382722988978629 0.0 0.008701120235292625 0.0 0.0
0.12417543462456176 -0.1193540895033415 0.0 0.008090482451917843 0.0 0.0
0.10528490856403597 -0.10063811582412273 0.0 0.007173969528952765 0.0 0.0
0.08726619606257502 -0.08286573126875363 0.0 0.006181592750548517 0.0 0.0
0.07057389509214453 -0.0664641381011565 0.0 0.0052000181216911995 0.0 0.0
0.05545603791969291 -0.05164892528393867 0.0 0.004257219516655402 0.0 0.0
0.042063824840066544 -0.038549464029930404 0.0 0.0033463057211140113 0.0 0.0
0.030531632647278963 -0.0272990768992899 0.0 0.002453536087397389 0.0 0.0
0.021006171800340537 -0.01805324103604992 0.0 0.0016398727514246613 0.0 0.0
0.013585288629882598 -0.010926824157053087 0.0 0.0009864911681225948 0.0 0.0
0.00823293596885303 -0.005909839310573811 0.0 0.0005214913632899149 0.0 0.0
0.00474341751955202 -0.002798372019160313 0.0 0.00022709946500902684 0.0 0.0
0.0028164285668462593 -0.0012797071816744953 0.0 0.00015152666527250456 0.0 0.0
0.0019690013691097503 -0.0008367384319499175 0.0 0.00019408700124687252 0.0 0.0
0.0017217028392004178 -0.000474991120974342 0.0 0.000539755186189878 0.0 0.0
0.005855352308425634 -0.0019223941309687164 0.0 0.005922009321061081 0.0 0.0
0.01000044027929281 -0.021416927322485298 0.0 0.0008893636444795067 0.0 0.0
0.00732794848546753 -0.017085637198299856 0.0 -0.0038882829123834733 0.0 0.0
0.004154479235193705 -0.0010702481792359724 0.0 -0.005960026576044897 0.0 0.0
0.0011976463292865975 -0.0002575473807182693 0.0 -0.0004892594757484746 0.0 0.0
0.001668557610598438 -0.000709718422419805 0.0 -0.00048016077493886783 0.0 0.0
0.002405584812526692 -0.001034224529978569 0.0 -0.0004877134712198205 0.0 0.0
0.003992585260032228 -0.0021853834312352926 0.0 -0.0006262294328523285 0.0 0.0
0.007020439514121573 -0.004814435114167861 0.0 -0.0011880385521895406 0.0 0.0
0.011793977897037601 -0.009252456239717004 0.0 -0.0020911397417130106 0.0 0.0
0.018460891141322572 -0.015638508423127088 0.0 -0.0033448734595953843 0.0 0.0
0.02701531850140172 -0.023935869339632446 0.0 -0.0048698536557121395 0.0 0.0
0.03733080459030937 -0.033989990880994914 0.0 -0.006521679199882307 0.0 0.0
0.049261808758510044 -0.04564476216772195 0.0 -0.008172592262271423 0.0 0.0
0.06270142310759735 -0.05879941631794469 0.0 -0.009810152567560808 0.0 0.0
0.0775525696286409 -0.07337812997150282 0.0 -0.011500286337556767 0.0 0.0
0.09362412433144085 -0.08921525367454794 0.0 -0.013216832645182268 0.0 0.0
0.11053889905574321 -0.10595837608754967 0.0 -0.014775806085804227 0.0 0.0
0.1276651524355192 -0.12298997268791556 0.0 -0.015801606221710368 0.0 0.0
0.14403997885938 -0.1393653519920218 0.0 -0.015796575887456206 0.0 0.0
0.15825221574174905 -0.15373752151092956 0.0 -0.014440855359537956 0.0 0.0
0.16847654096079365 -0.16422001214077236 0.0 -0.011742195087638022 0.0 0.0
0.17234491904144308 -0.16886130758825618 0.0 1.5008827514151335e-14 0.0 0.0
0.16847654096076906 -0.16422001214074697 0.0 0.01174219508767535 0.0 0.0
0.15825221574170142 -0.1537375215108778 0.0 0.014440855359574876 0.0 0.0
0.14403997885931538 -0.1393653519919608 0.0 0.01579657588747584 0.0 0.0
0.1276651524354446 -0.12298997268783812 0.0 0.01580160622171368 0.0 0.0
0.11053889905566266 -0.10595837608746723 0.0 0.01477580608579757 0.0 0.0
0.09362412433135847 -0.08921525367446388 0.0 0.01321683264517777 0.0 0.0
0.07755256962855933 -0.07337812997142582 0.0 0.011500286337552037 0.0 0.0
0.06270142310751815 -0.05879941631786084 0.0 0.00981015256755013 0.0 0.0
0.049261808758436665 -0.04564476216765381 0.0 0.008172592262257774 0.0 0.0
0.0373308045902457 -0.03398999088093334 0.0 0.006521679199868038 0.0 0.0
0.02701531850135033 -0.02393586933958948 0.0 0.004869853655701741 0.0 0.0
0.018460891141283096 -0.015638508423089628 0.0 0.0033448734595896102 0.0 0.0
0.011793977897009148 -0.00925245623969211 0.0 0.0020911397417050976 0.0 0.0
0.007020439514103826 -0.004814435114151318 0.0 0.0011880385521865246 0.0 0.0
0.0039925852600239675 -0.0021853834312270935 0.0 0.0006262294328501347 0.0 0.0
0.002405584812523975 -0.0010342245299758818 0.0 0.00048771347121982366 0.0 0.0
0.0016685576105981786 -0.0007097184224187207 0.0 0.00048016077493984893 0.0 0.0
0.001197646329287166 -0.00025754738071786604 0.0 0.0004892594757486719 0.0 0.0
0.004154479235187115 -0.001070248179232357 0.0 0.005960026576027891 0.0 0.0
0.007327948485453667 -0.01708563719827377 0.0 0.003888282912360039 0.0 0.0
0.005533881598516089 -0.013759755767999558 0.0 -0.00432184853968728 0.0 0.0
0.003066214266303306 -0.000772038694930333 0.0 -0.005436068193022104 0.0 0.0
0.0008525779690163045 -0.00014452876990437105 0.0 -0.0007736452394431888 0.0 0.0
0.0013768049568128851 -0.0005644474367672071 0.0 -0.0007683575167293687 0.0 0.0
0.002030496294525454 -0.0008467665596878441 0.0 -0.000813852250123469 0.0 0.0
0.0033023258742617364 -0.0016697973558034887 0.0 -0.0009730618112227792 0.0 0.0
0.005844345105179201 -0.0037773577650772215 0.0 -0.0016359164250295214 0.0 0.0
0.010005224522935337 -0.0075980667932140505 0.0 -0.0028924860956905827 0.0 0.0
0.015888866210758287 -0.013209706628707693 0.0 -0.00460042007804477 0.0 0.0
0.023448282255191938 -0.020531532737907393 0.0 -0.00666444531105965 0.0 0.0
0.03253412869044964 -0.029378148129141857 0.0 -0.008883170923592776 0.0 0.0
0.04300165540791222 -0.03958875868916397 0.0 -0.011094460112438502 0.0 0.0
0.05476452468355589 -0.0510831737189974 0.0 -0.013279009938546117 0.0 0.0
0.06775934976646363 -0.06382532782964055 0.0 -0.01549924706814107 0.0 0.0
0.08186243796306725 -0.07770767316197967 0.0 -0.017738366656908745 0.0 0.0
0.09679397200847585 -0.09246544817228204 0.0 -0.019792854198801647 0.0 0.0
0.11203894517361197 -0.10760841053462328 0.0 -0.02121252621583446 0.0 0.0
0.12675213470005456 -0.1223249882576826 0.0 -0.02139611531595051 0.0 0.0
0.1396617514397257 -0.1353620184766974 0.0 -0.01972095572230141 0.0 0.0
0.14918579870984205 -0.14506039110860297 0.0 -0.01532447638292979 0.0 0.0
0.15289349627820678 -0.149851206567534 0.0 2.0714333026639054e-14 0.0 0.0
0.14918579870982027 -0.1450603911085809 0.0 0.015324476382981674 0.0 0.0
0.1396617514396831 -0.13536201847665486 0.0 0.019720955722349096 0.0 0.0
0.1267521346999979 -0.12232498825762486 0.0 0.021396115315977935 0.0 0.0
0.11203894517354668 -0.10760841053456002 0.0 0.02121252621583986 0.0 0.0
0.09679397200840514 -0.09246544817220974 0.0 0.019792854198792675 0.0 0.0
0.08186243796299482 -0.0777076731619091 0.0 0.017738366656902708 0.0 0.0
0.0677593497663918 -0.06382532782957473 0.0 0.015499247068133267 0.0 0.0
0.054764524683486596 -0.05108317371892984 0.0 0.013279009938536278 0.0 0.0
0.043001655407848324 -0.03958875868909825 0.0 0.011094460112420471 0.0 0.0
0.032534128690394404 -0.029378148129083813 0.0 0.00888317092357482 0.0 0.0
0.023448282255147133 -0.02053153273786753 0.0 0.006664445311046317 0.0 0.0
0.01588886621072305 -0.013209706628677213 0.0 0.004600420078035877 0.0 0.0
0.010005224522910645 -0.007598066793190458 0.0 0.002892486095680651 0.0 0.0
0.005844345105164678 -0.0037773577650653655 0.0 0.001635916425026038 0.0 0.0
0.0033023258742549554 -0.0016697973557987414 0.0 0.0009730618112208163 0.0 0.0
0.00203049629452326 -0.0008467665596871035 0.0 0.0008138522501223377 0.0 0.0
0.0013768049568127366 -0.0005644474367667319 0.0 0.0007683575167288806 0.0 0.0
0.0008525779690163665 -0.00014452876990463668 0.0 0.0007736452394413781 0.0 0.0
0.003066214266297192 -0.0007720386949269282 0.0 0.005436068193007623 0.0 0.0
0.005533881598504447 -0.013759755767976533 0.0 0.004321848539671764 0.0 0.0
0.004194630835620393 -0.011085411459501173 0.0 -0.003844900915539084 0.0 0.0
0.002292609046251626 -0.0006181306191085844 0.0 -0.004850687100414791 0.0 0.0
0.0006188192070722293 -9.020339633947651e-05 0.0 -0.0011663389845302907 0.0 0.0
0.0011126365666204987 -0.00042937802350338555 0.0 -0.0010794276333801348 0.0 0.0
0.0016861754304458498 -0.0006924447127222848 0.0 -0.001137267725269147 0.0 0.0
0.002685327862896818 -0.0012631429132683816 0.0 -0.0012861336531033501 0.0 0.0
0.00473078152000216 -0.0028451533271044178 0.0 -0.0019403400327781643 0.0 0.0
0.008240188895414096 -0.0059868504731732325 0.0 -0.0033522439180713017 0.0 0.0
0.013317831040435867 -0.01079664738530281 0.0 -0.005397946187045964 0.0 0.0
0.019860633786897994 -0.017120017093187074 0.0 -0.007830992474584136 0.0 0.0
0.02770645023938543 -0.024747792897273076 0.0 -0.010435116703564512 0.0 0.0
0.03670555224003102 -0.03351129111106618 0.0 -0.013025027829478186 0.0 0.0
0.04678740693484813 -0.043345023908894664 0.0 -0.015583846727109336 0.0 0.0
0.057927386357133334 -0.05424722656473045 0.0 -0.018173908661716063 0.0 0.0
0.0700509039024256 -0.0661637373393949 0.0 -0.020759708695056563 0.0 0.0
0.08296703050320502 -0.07891312421438476 0.0 -0.02313014417440214 0.0 0.0
0.09629705450353515 -0.09213092991471805 0.0 -0.024876458848644995 0.0 0.0
0.10935595755435741 -0.10516623291994642 0.0 -0.025351633322273043 0.0 0.0
0.1210785739655992 -0.11697429294276032 0.0 -0.023534942715640862 0.0 0.0
0.130106988192012 -0.12614102381440692 0.0 -0.018038382182981184 0.0 0.0
0.1337659976865149 -0.131264832787843 0.0 2.3875866561606784e-14 0.0 0.0
0.13010698819199187 -0.12614102381438774 0.0 0.018038382183037917 0.0 0.0
0.12107857396556163 -0.11697429294272746 0.0 0.02353494271569423 0.0 0.0
0.10935595755430848 -0.10516623291989485 0.0 0.02535163332230609 0.0 0.0
0.09629705450347878 -0.09213092991466759 0.0 0.024876458848651622 0.0 0.0
0.08296703050314357 -0.07891312421432099 0.0 0.02313014417439334 0.0 0.0
0.07005090390236297 -0.06616373733933972 0.0 0.0207597086950454 0.0 0.0
0.057927386357071994 -0.05424722656466842 0.0 0.01817390866170439 0.0 0.0
0.046787406934788923 -0.04334502390884221 0.0 0.015583846727095927 0.0 0.0
0.03670555223997636 -0.03351129111100965 0.0 0.01302502782945874 0.0 0.0
0.02770645023933852 -0.02474779289722596 0.0 0.010435116703545343 0.0 0.0
0.019860633786859393 -0.017120017093147772 0.0 0.00783099247456787 0.0 0.0
0.013317831040405312 -0.010796647385274662 0.0 0.005397946187032762 0.0 0.0
0.00824018889539337 -0.00598685047315382 0.0 0.0033522439180609914 0.0 0.0
0.0047307815199907274 -0.002845153327098187 0.0 0.0019403400327729693 0.0 0.0
0.0026853278628917077 -0.0012631429132665163 0.0 0.001286133653101361 0.0 0.0
0.001686175430444423 -0.0006924447127223809 0.0 0.0011372677252685327 0.0 0.0
0.001112636566620384 -0.0004293780235030916 0.0 0.0010794276333785761 0.0 0.0
0.0006188192070724398 -9.020339633963782e-05 0.0 0.001166338984527644 0.0 0.0
0.002292609046246669 -0.0006181306191058078 0.0 0.00485068710040342 0.0 0.0
0.004194630835610238 -0.011085411459481198 0.0 0.0038449009155274113 0.0 0.0
0.003145327550623417 -0.0088556898336738 0.0 -0.003187263551371722 0.0 0.0
0.001707451028266071 -0.0005149000967439773 0.0 -0.004283572235293833 0.0 0.0
0.00045114306455700654 -7.16105171355073e-05 0.0 -0.0015411613151914718 0.0 0.0
0.0008735486817732674 -0.0003085966902067762 0.0 -0.0013926728403614174 0.0 0.0
0.0013686767702235168 -0.0005591594831087331 0.0 -0.0014550144136767915 0.0 0.0
0.0021369798922242686 -0.000948965619595107 0.0 -0.0015747900396735164 0.0 0.0
0.00371181410609868 -0.002056481668345877 0.0 -0.0021749053474107503 0.0 0.0
0.006537792385946715 -0.004476252317124918 0.0 -0.0035350486220868975 0.0 0.0
0.010767557750304005 -0.008429348439597749 0.0 -0.005709818923233466 0.0 0.0
0.016282575669399398 -0.013735183283235605 0.0 -0.008359959399446382 0.0 0.0
0.02287764485926633 -0.020132918574721208 0.0 -0.011169501171740865 0.0 0.0
0.030405917681408573 -0.02744681120669265 0.0 -0.01396216456815354 0.0 0.0
0.0388073247014599 -0.035620231642249145 0.0 -0.016714138899611986 0.0 0.0
0.04808542994781411 -0.04468114314979797 0.0 -0.019490495802581404 0.0 0.0
0.058224553291500405 -0.05462624934142693 0.0 -0.02226054369101398 0.0 0.0
0.06910572898195655 -0.06534639947369104 0.0 -0.024801685020055687 0.0 0.0
0.08046406982956221 -0.07658441308649201 0.0 -0.026750772293806718 0.0 0.0
0.0918339965752843 -0.08788919419821797 0.0 -0.027514394075191913 0.0 0.0
0.10242412655681046 -0.09851325518443317 0.0 -0.025880289084152408 0.0 0.0
0.11108894672442926 -0.10729880443346217 0.0 -0.020008150813318082 0.0 0.0
0.11477758572681229 -0.11290337489172983 0.0 2.3874999199868796e-14 0.0 0.0
0.11108894672441155 -0.10729880443344082 0.0 0.020008150813375446 0.0 0.0
0.10242412655677806 -0.09851325518440639 0.0 0.025880289084207996 0.0 0.0
0.09183399657524333 -0.08788919419817884 0.0 0.027514394075227565 0.0 0.0
0.08046406982951491 -0.07658441308645152 0.0 0.026750772293813133 0.0 0.0
0.06910572898190442 -0.06534639947363564 0.0 0.024801685020046156 0.0 0.0
0.0582245532914477 -0.054626249341379364 0.0 0.02226054369100244 0.0 0.0
0.048085429947763055 -0.04468114314974515 0.0 0.019490495802570968 0.0 0.0
0.03880732470141079 -0.035620231642201516 0.0 0.016714138899599176 0.0 0.0
0.030405917681363595 -0.027446811206646986 0.0 0.013962164568135073 0.0 0.0
0.022877644859227414 -0.0201329185746855 0.0 0.011169501171720178 0.0 0.0
0.016282575669366816 -0.013735183283205173 0.0 0.008359959399428019 0.0 0.0
0.010767557750278258 -0.008429348439575681 0.0 0.005709818923215511 0.0 0.0
0.0065377923859298165 -0.004476252317106846 0.0 0.0035350486220773417 0.0 0.0
0.003711814106090109 -0.00205648166833927 0.0 0.0021749053474058753 0.0 0.0
0.0021369798922208478 -0.000948965619593853 0.0 0.0015747900396702028 0.0 0.0
0.001368676770222532 -0.0005591594831086017 0.0 0.001455014413676142 0.0 0.0
0.0008735486817730351 -0.00030859669020666516 0.0 0.0013926728403592344 0.0 0.0
0.00045114306455690527 -7.161051713481143e-05 0.0 0.0015411613151892823 0.0 0.0
0.0017074510282619327 -0.0005149000967418775 0.0 0.004283572235283384 0.0 0.0
0.0031453275506152893 -0.008855689833656902 0.0 0.0031872635513629224 0.0 0.0
0.00231268787268268 -0.006973467457180704 0.0 -0.0025805788850879487 0.0 0.0
0.0012518266591174797 -0.0004363456337624428 0.0 -0.003770190576626302 0.0 0.0
0.00032062985073935327 -6.757832629404584e-05 0.0 -0.0018508340595700468 0.0 0.0
0.0006522113435269678 -0.00020157166216882495 0.0 -0.0016831977839875673 0.0 0.0
0.0010693170282853224 -0.0004316752071240791 0.0 -0.0017472088865282368 0.0 0.0
0.0016467351929379524 -0.0007082132325163045 0.0 -0.0018615936713778825 0.0 0.0
0.0027933390416346924 -0.0014180668810509988 0.0 -0.0023371547642488406 0.0 0.0
0.004944388604345724 -0.0031338487925815428 0.0 -0.0035516466032831946 0.0 0.0
0.008286511264912406 -0.006167939406293745 0.0 -0.005581064067501804 0.0 0.0
0.012740347934020506 -0.010414829702166076 0.0 -0.008222940109479689 0.0 0.0
0.018079428640357834 -0.01557006542546541 0.0 -0.011067693909905852 0.0 0.0
0.024133637383059566 -0.02143127234026717 0.0 -0.013891669371679244 0.0 0.0
0.030856347343597323 -0.027948828425467614 0.0 -0.01665810663175635 0.0 0.0
0.03827606370461507 -0.035170388577800506 0.0 -0.01943621009113295 0.0 0.0
0.04642006789825797 -0.04313674403164199 0.0 -0.022205805526543936 0.0 0.0
0.05524034538069435 -0.051809455293773544 0.0 -0.024775421738917714 0.0 0.0
0.064581355240349 -0.06101820543127136 0.0 -0.02679130717004079 0.0 0.0
0.07418676956517145 -0.07050726235482113 0.0 -0.02779422590889795 0.0 0.0
0.08360403182272856 -0.0798955669822232 0.0 -0.026658626157989695 0.0 0.0
0.09196634433278866 -0.08836088039476474 0.0 -0.021213442264122914 0.0 0.0
0.09574259606614478 -0.0945846201747447 0.0 2.4496030204268493e-14 0.0 0.0
0.0919663443327743 -0.0883608803947485 0.0 0.021213442264178574 0.0 0.0
0.08360403182270176 -0.07989556698219952 0.0 0.02665862615804629 0.0 0.0
0.07418676956513753 -0.07050726235479053 0.0 0.027794225908930832 0.0 0.0
0.06458135524031006 -0.061018205431237205 0.0 0.02679130717004563 0.0 0.0
0.055240345380651895 -0.05180945529372827 0.0 0.024775421738905814 0.0 0.0
0.04642006789821558 -0.043136744031603676 0.0 0.02220580552653222 0.0 0.0
0.03827606370457492 -0.03517038857776236 0.0 0.019436210091122473 0.0 0.0
0.030856347343558722 -0.027948828425430953 0.0 0.016658106631744867 0.0 0.0
0.02413363738302384 -0.02143127234023461 0.0 0.013891669371660247 0.0 0.0
0.018079428640326647 -0.015570065425437495 0.0 0.011067693909881257 0.0 0.0
0.012740347933994223 -0.010414829702144225 0.0 0.008222940109458102 0.0 0.0
0.008286511264892646 -0.006167939406278536 0.0 0.005581064067487761 0.0 0.0
0.004944388604333562 -0.0031338487925696083 0.0 0.0035516466032769122 0.0 0.0
0.0027933390416285497 -0.0014180668810470456 0.0 0.0023371547642443537 0.0 0.0
0.0016467351929358792 -0.0007082132325152674 0.0 0.0018615936713746932 0.0 0.0
0.0010693170282848996 -0.00043167520712218324 0.0 0.0017472088865262579 0.0 0.0
0.0006522113435267277 -0.00020157166217030237 0.0 0.0016831977839856373 0.0 0.0
0.00032062985073911225 -6.757832629365182e-05 0.0 0.001850834059568264 0.0 0.0
0.001251826659114348 -0.000436345633760964 0.0 0.0037701905766179085 0.0 0.0
0.0023126878726767264 -0.006973467457166962 0.0 0.002580578885081675 0.0 0.0
0.001652048269064728 -0.005391878543369223 0.0 -0.002107570003829804 0.0 0.0
0.000891188268063667 -0.00037803258869487663 0.0 -0.0033071765065276356 0.0 0.0
0.00020811825915581752 -6.204469567621323e-05 0.0 -0.0020859514247584627 0.0 0.0
0.00044184790617420174 -0.00010633635180210404 0.0 -0.001933155113181644 0.0 0.0
0.0007770456052086874 -0.0002997328088198512 0.0 -0.0019950980105410236 0.0 0.0
0.0012053478781427842 -0.0005143269760162005 0.0 -0.002143484033488546 0.0 0.0
0.001978018976909352 -0.0009274231211814736 0.0 -0.0024718103255074444 0.0 0.0
0.0034820122284979975 -0.002001134390782404 0.0 -0.0034203643348120405 0.0 0.0
0.005931282012670944 -0.004099463729902118 0.0 -0.005122079742540951 0.0 0.0
0.009282797811969234 -0.007226856416772431 0.0 -0.007456031843987946 0.0 0.0
0.013338971484531925 -0.011105494400822992 0.0 -0.01010698921726452 0.0 0.0
0.01791992828155675 -0.015508516297093624 0.0 -0.01277587341977177 0.0 0.0
0.022971128787037748 -0.02037646509187288 0.0 -0.01538648795878077 0.0 0.0
0.028532983671253266 -0.02576457886945107 0.0 -0.017984277284677268 0.0 0.0
0.034675433714027135 -0.03174605905349303 0.0 -0.020578480974493107 0.0 0.0
0.041417644233000546 -0.0383503887298182 0.0 -0.02301612637653688 0.0 0.0
0.04868803312703994 -0.045495130917960966 0.0 -0.024968577396410358 0.0 0.0
0.05641782563969537 -0.053061640234432515 0.0 -0.02606927131652683 0.0 0.0
0.06453221465085092 -0.06104695809212497 0.0 -0.025647455139181725 0.0 0.0
0.0725599149598993 -0.06913480411609192 0.0 -0.021516395182281902 0.0 0.0
0.07645044025257411 -0.07611363894078177 0.0 2.4391079433971896e-14 0.0 0.0
0.07255991495988787 -0.0691348041160812 0.0 0.021516395182335078 0.0 0.0
0.06453221465082987 -0.06104695809210675 0.0 0.025647455139236684 0.0 0.0
0.05641782563966897 -0.053061640234404094 0.0 0.02606927131655941 0.0 0.0
0.04868803312700986 -0.045495130917930025 0.0 0.0249685773964128 0.0 0.0
0.04141764423296801 -0.038350388729785086 0.0 0.023016126376523775 0.0 0.0
0.03467543371399524 -0.031746059053461964 0.0 0.02057848097448154 0.0 0.0
0.028532983671224414 -0.0257645788694294 0.0 0.017984277284667838 0.0 0.0
0.022971128787010246 -0.02037646509184214 0.0 0.015386487958770945 0.0 0.0
0.017919928281529895 -0.015508516297069907 0.0 0.012775873419755678 0.0 0.0
0.01333897148450821 -0.01110549440080115 0.0 0.010106989217242393 0.0 0.0
0.009282797811950055 -0.007226856416754343 0.0 0.0074560318439694795 0.0 0.0
0.005931282012656864 -0.0040994637298914 0.0 0.0051220797425321 0.0 0.0
0.003482012228489422 -0.0020011343907763977 0.0 0.003420364334804451 0.0 0.0
0.0019780189769052128 -0.0009274231211803365 0.0 0.002471810325503587 0.0 0.0
0.0012053478781414372 -0.0005143269760149167 0.0 0.0021434840334860804 0.0 0.0
0.0007770456052083846 -0.0002997328088202615 0.0 0.001995098010538918 0.0 0.0
0.0004418479061740042 -0.00010633635180222593 0.0 0.0019331551131794309 0.0 0.0
0.0002081182591554482 -6.204469567603184e-05 0.0 0.0020859514247566478 0.0 0.0
0.0008911882680610055 -0.0003780325886939583 0.0 0.0033071765065222124 0.0 0.0
0.0016520482690598598 -0.005391878543358461 0.0 0.002107570003826609 0.0 0.0
0.0011501403148509771 -0.004103527871309084 0.0 -0.0018006264312373649 0.0 0.0
0.0006073902124088404 -0.0003413968440339275 0.0 -0.002897457711636624 0.0 0.0
9.759511974213715e-05 -4.368440539060942e-05 0.0 -0.0022511160452992557 0.0 0.0
0.00023930121998027773 -2.0146809093987355e-05 0.0 -0.002131204726796934 0.0 0.0
0.0004842991204447543 -0.00016368914893271163 0.0 -0.0021888775497695017 0.0 0.0
0.0007888743020288766 -0.0003328917570426896 0.0 -0.002384558240226438 0.0 0.0
0.0012619586867472015 -0.000566209513861603 0.0 -0.002647215217456096 0.0 0.0
0.0021732084373192696 -0.001116111078576019 0.0 -0.0032206696153844437 0.0 0.0
0.0037432681498053445 -0.002318972078144679 0.0 -0.004414760593953939 0.0 0.0
0.005972221632621558 -0.004285142248233784 0.0 -0.006172506627308392 0.0 0.0
0.008709037750862895 -0.006831046016129135 0.0 -0.008327427473362955 0.0 0.0
0.011798174372641638 -0.009751845070001972 0.0 -0.010598429893389234 0.0 0.0
0.015180841632613334 -0.012968079598012905 0.0 -0.012881888466788864 0.0 0.0
0.018894590900921503 -0.016532390341806227 0.0 -0.015148728331754624 0.0 0.0
0.02302741353758488 -0.020524814761776002 0.0 -0.01739652695914932 0.0 0.0
0.02766736457497003 -0.025033775610384053 0.0 -0.019567999865142096 0.0 0.0
0.032842790765407234 -0.030085853424649492 0.0 -0.021404115612998806 0.0 0.0
0.038577479524059995 -0.03565816067504379 0.0 -0.022488863394564546 0.0 0.0
0.04512937862554849 -0.04196623566206749 0.0 -0.02255995032005721 0.0 0.0
0.05265164085982534 -0.04940023427353862 0.0 -0.020528028323529988 0.0 0.0
0.05663718498118893 -0.057240300332251734 0.0 2.031968343585433e-14 0.0 0.0
0.05265164085981727 -0.049400234273525946 0.0 0.020528028323575094 0.0 0.0
0.045129378625533775 -0.04196623566205696 0.0 0.022559950320109504 0.0 0.0
0.038577479524040864 -0.03565816067501683 0.0 0.022488863394592783 0.0 0.0
0.03284279076538568 -0.03008585342462626 0.0 0.021404115612995694 0.0 0.0
0.027667364574947614 -0.025033775610355417 0.0 0.019567999865128426 0.0 0.0
0.02302741353756424 -0.02052481476175135 0.0 0.01739652695913834 0.0 0.0
0.018894590900903306 -0.016532390341791745 0.0 0.015148728331746457 0.0 0.0
0.015180841632595848 -0.01296807959799241 0.0 0.012881888466780693 0.0 0.0
0.011798174372624077 -0.009751845069984532 0.0 0.010598429893372174 0.0 0.0
0.008709037750847248 -0.006831046016111105 0.0 0.008327427473344022 0.0 0.0
0.005972221632609849 -0.00428514224821934 0.0 0.006172506627294801 0.0 0.0
0.0037432681497968877 -0.002318972078136385 0.0 0.004414760593948097 0.0 0.0
0.0021732084373139557 -0.0011161110785698992 0.0 0.0032206696153792964 0.0 0.0
0.0012619586867447172 -0.0005662095138613948 0.0 0.0026472152174537933 0.0 0.0
0.0007888743020281182 -0.0003328917570429765 0.0 0.0023845582402237135 0.0 0.0
0.0004842991204446128 -0.0001636891489342986 0.0 0.002188877549768373 0.0 0.0
0.00023930121998015397 -2.0146809093476872e-05 0.0 0.0021312047267954244 0.0 0.0
9.759511974202766e-05 -4.36844053894395e-05 0.0 0.002251116045296058 0.0 0.0
0.0006073902124071239 -0.0003413968440337677 0.0 0.0028974577116324157 0.0 0.0
0.001150140314847843 -0.004103527871301005 0.0 0.0018006264312347984 0.0 0.0
0.0007923914507823355 -0.003089587236297978 0.0 -0.0016142564574373346 0.0 0.0
0.0003896166274949219 -0.0003305314115542672 0.0 -0.002573844269134474 0.0 0.0
-1.712137564312103e-05 -7.83054537028695e-06 0.0 -0.002352873996093231 0.0 0.0
4.228089001587212e-05 5.972740970112115e-05 0.0 -0.0022725424166070663 0.0 0.0
0.0001910501711350644 -2.775145301921913e-05 0.0 -0.0023274097594280056 0.0 0.0
0.0003740439659793412 -0.00014475355430849156 0.0 -0.002544365147046388 0.0 0.0
0.0006167311304299523 -0.00027130542400889674 0.0 -0.0028293420663729743 0.0 0.0
0.0010290052159395596 -0.0004842545305019674 0.0 -0.003148615963067448 0.0 0.0
0.0017644947774930091 -0.0009593955591246223 0.0 -0.00370601853682586 0.0 0.0
0.0028675068111836894 -0.001813139458525925 0.0 -0.00467909190480067 0.0 0.0
0.0042525583600851015 -0.0029846729908177775 0.0 -0.006080824096144299 0.0 0.0
0.005816326982063353 -0.004369846785305904 0.0 -0.0077633587237886555 0.0 0.0
0.007514657397298789 -0.005915368798481859 0.0 -0.009580395118334062 0.0 0.0
0.009384411700799854 -0.007651367651628854 0.0 -0.011468757566328983 0.0 0.0
0.011505016534081144 -0.009645830678644867 0.0 -0.013416281309059575 0.0 0.0
0.0140068778342217 -0.012019379997871145 0.0 -0.015400494661241944 0.0 0.0
0.017049153791512776 -0.01492653231437786 0.0 -0.01724474460984024 0.0 0.0
0.020764645297894003 -0.018501333242330532 0.0 -0.018458558689326564 0.0 0.0
0.025454993956112098 -0.022943300577169916 0.0 -0.01854172547655803 0.0 0.0
0.03200164149328094 -0.029066463179041567 0.0 -0.01792160130273427 0.0 0.0
0.03589725270195352 -0.037637153702813224 0.0 1.5138064413111607e-14 0.0 0.0
0.0320016414932773 -0.029066463179036543 0.0 0.017921601302772584 0.0 0.0
0.02545499395610416 -0.02294330057716335 0.0 0.018541725476597482 0.0 0.0
0.02076464529788287 -0.018501333242321612 0.0 0.018458558689343606 0.0 0.0
0.01704915379150147 -0.014926532314365568 0.0 0.017244744609834328 0.0 0.0
0.014006877834211163 -0.012019379997856827 0.0 0.015400494661229752 0.0 0.0
0.011505016534071953 -0.009645830678636311 0.0 0.013416281309051929 0.0 0.0
0.009384411700792971 -0.007651367651619544 0.0 0.01146875756632229 0.0 0.0
0.007514657397291908 -0.005915368798478317 0.0 0.009580395118326849 0.0 0.0
0.0058163269820553 -0.0043698467852964756 0.0 0.007763358723775874 0.0 0.0
0.004252558360078788 -0.002984672990805679 0.0 0.006080824096132075 0.0 0.0
0.00286750681117938 -0.0018131394585189935 0.0 0.00467909190479239 0.0 0.0
0.0017644947774896663 -0.000959395559120436 0.0 0.0037060185368226126 0.0 0.0
0.0010290052159373474 -0.0004842545304989183 0.0 0.003148615963065266 0.0 0.0
0.0006167311304290367 -0.0002713054240077756 0.0 0.0028293420663716364 0.0 0.0
0.0003740439659793098 -0.00014475355430865956 0.0 0.0025443651470433678 0.0 0.0
0.00019105017113531695 -2.7751453018673463e-05 0.0 0.0023274097594252175 0.0 0.0
4.228089001589106e-05 5.972740970067015e-05 0.0 0.0022725424166040835 0.0 0.0
-1.7121375643398956e-05 -7.830545368875937e-06 0.0 0.002352873996090952 0.0 0.0
0.0003896166274938548 -0.0003305314115548 0.0 0.0025738442691309246 0.0 0.0
0.0007923914507804505 -0.00308958723629238 0.0 0.0016142564574353913 0.0 0.0
0.0005406544260978716 -0.002325357961756566 0.0 -0.0015108154409596676 0.0 0.0
0.00022308298749378294 -0.00033277371358676 0.0 -0.002348366472214444 0.0 0.0
-0.00013237898336819655 3.882104539549973e-05 0.0 -0.002398780287835682 0.0 0.0
-0.00015033151152369278 0.0001362705446922141 0.0 -0.002355217629622834 0.0 0.0
-9.84350135925126e-05 0.00010528206085329438 0.0 -0.0024052009960643037 0.0 0.0
-4.588693852650678e-05 4.828331233347104e-05 0.0 -0.0026118027880077184 0.0 0.0
-1.6874159355210615e-05 1.2797871791859958e-05 0.0 -0.0029173758492242823 0.0 0.0
-5.460252554036622e-06 3.223331260993936e-06 0.0 -0.0031794547354282465 0.0 0.0
-1.2201125844841804e-06 5.60754474202482e-07 0.0 -0.0033950834364538073 0.0 0.0
2.2578833121320724e-07 -1.1569556755005824e-07 0.0 -0.003921791526527041 0.0 0.0
-8.994716892856726e-07 -8.374669304819153e-08 0.0 -0.004888259456913342 0.0 0.0
-1.0191554817834468e-05 9.2086770466172e-06 0.0 -0.006260381704848587 0.0 0.0
-3.018147391210704e-05 2.8352285472343832e-05 0.0 -0.007831849117683972 0.0 0.0
-4.030269672707478e-05 4.4121225494351103e-05 0.0 -0.00954406153948653 0.0 0.0
3.505614484355913e-05 -7.246408279567413e-06 0.0 -0.011400873568227301 0.0 0.0
0.00036747953678484876 -0.0002771426172478061 0.0 -0.013386687515880175 0.0 0.0
0.0012479554918501867 -0.0010268726204105873 0.0 -0.015418863241100205 0.0 0.0
0.003008519235326689 -0.0025891073584649272 0.0 -0.01727294393505534 0.0 0.0
0.00586285089350325 -0.0050754033777073 0.0 -0.018629319379719463 0.0 0.0
0.010701625371297086 -0.009021580796386082 0.0 -0.019556024908672073 0.0 0.0
0.013825118872681102 -0.018091064867952644 0.0 1.1020698242880655e-14 0.0 0.0
0.010701625371296819 -0.009021580796386446 0.0 0.019556024908697227 0.0 0.0
0.005862850893501045 -0.005075403377707864 0.0 0.018629319379736674 0.0 0.0
0.003008519235324708 -0.002589107358470448 0.0 0.017272943935058127 0.0 0.0
0.0012479554918508355 -0.0010268726204107222 0.0 0.0154188632410928 0.0 0.0
0.00036747953678642334 -0.0002771426172490517 0.0 0.013386687515868759 0.0 0.0
3.505614484548727e-05 -7.246408287247684e-06 0.0 0.011400873568219439 0.0 0.0
-4.0302696723537893e-05 4.412122549211407e-05 0.0 0.009544061539477991 0.0 0.0
-3.0181473908265713e-05 2.8352285468525e-05 0.0 0.007831849117673116 0.0 0.0
-1.0191554814976511e-05 9.208677045165344e-06 0.0 0.006260381704838561 0.0 0.0
-8.994716868514761e-07 -8.374669168838516e-08 0.0 0.004888259456903361 0.0 0.0
2.2578833312882985e-07 -1.1569557317233769e-07 0.0 0.00392179152652119 0.0 0.0
-1.2201125837903181e-06 5.607544740347423e-07 0.0 0.003395083436453286 0.0 0.0
-5.4602525539561335e-06 3.2233312602059006e-06 0.0 0.003179454735426143 0.0 0.0
-1.6874159355094876e-05 1.2797871791789545e-05 0.0 0.0029173758492218554 0.0 0.0
-4.5886938525989246e-05 4.828331233464908e-05 0.0 0.0026118027880048106 0.0 0.0
-9.843501359218089e-05 0.00010528206085209452 0.0 0.002405200996061163 0.0 0.0
-0.00015033151152353132 0.00013627054469331638 0.0 0.002355217629620043 0.0 0.0
-0.0001323789833681559 3.8821045395812495e-05 0.0 0.002398780287833667 0.0 0.0
0.00022308298749324081 -0.000332773713586732 0.0 0.0023483664722116155 0.0 0.0
0.0005406544260970773 -0.0023253579617533893 0.0 0.001510815440960154 0.0 0.0
0.00036691912689253874 -0.0017695398461109691 0.0 -0.0014497638443157703 0.0 0.0
9.91669804872436e-05 -0.0003249279527271777 0.0 -0.002179525431494953 0.0 0.0
-0.000241782196092782 8.549527937247197e-05 0.0 -0.0023948430609495 0.0 0.0
-0.00033727969050289814 0.0002109856744735733 0.0 -0.002376972437660259 0.0 0.0
-0.00038177610771868945 0.00023319136171248478 0.0 -0.0024131803340400088 0.0 0.0
-0.0004622804917908573 0.0002399868150483717 0.0 -0.002589914640019235 0.0 0.0
-0.0006496583488577466 0.00029723921040764316 0.0 -0.0028549005213180934 0.0 0.0
-0.0010397058523126488 0.0004914610577345989 0.0 -0.0031635109461136007 0.0 0.0
-0.0017663431964419648 0.0009602189332853241 0.0 -0.0037123259640773126 0.0 0.0
-0.0028661725749416925 0.0018119976824557474 0.0 -0.004678194639051023 0.0 0.0
-0.004255432843923275 0.0029862311511477096 0.0 -0.006078052495312198 0.0 0.0
-0.005839255638044986 0.004389963540247611 0.0 -0.007766400747158788 0.0 0.0
-0.007575173961977004 0.005973311760782297 0.0 -0.009577357722312387 0.0 0.0
-0.009459851041704437 0.007738551992985867 0.0 -0.01145347140793378 0.0 0.0
-0.011424349271893838 0.009625350809796734 0.0 -0.013419124871645668 0.0 0.0
-0.013274367513174588 0.011451788571687941 0.0 -0.015547768800541432 0.0 0.0
-0.014660069602261176 0.01287574113152602 0.0 -0.017885989422427695 0.0 0.0
-0.015146991858531026 0.013432935183367481 0.0 -0.020532807506871163 0.0 0.0
-0.01426588794586095 0.012803987951889534 0.0 -0.02343401495311315 0.0 0.0
-0.010199610329468322 0.009893013891164645 0.0 -0.02480491081199906 0.0 0.0
-0.006978668196807217 8.15235889261932e-05 0.0 1.327323667643654e-14 0.0 0.0
-0.010199610329469148 0.009893013891164891 0.0 0.02480491081202635 0.0 0.0
-0.014265887945856613 0.012803987951883918 0.0 0.02343401495313116 0.0 0.0
-0.015146991858520219 0.013432935183358453 0.0 0.020532807506873346 0.0 0.0
-0.014660069602247118 0.012875741131518941 0.0 0.017885989422419406 0.0 0.0
-0.013274367513160645 0.011451788571677043 0.0 0.015547768800525621 0.0 0.0
-0.011424349271880704 0.009625350809782177 0.0 0.013419124871634602 0.0 0.0
-0.009459851041690752 0.00773855199297159 0.0 0.011453471407923136 0.0 0.0
-0.007575173961962082 0.005973311760772859 0.0 0.009577357722298672 0.0 0.0
-0.005839255638031058 0.00438996354023206 0.0 0.007766400747142452 0.0 0.0
-0.004255432843911291 0.00298623115113776 0.0 0.006078052495297852 0.0 0.0
-0.0028661725749326893 0.00181199768244602 0.0 0.004678194639041042 0.0 0.0
-0.001766343196437239 0.0009602189332844223 0.0 0.003712325964072718 0.0 0.0
-0.0010397058523100152 0.0004914610577319421 0.0 0.003163510946111884 0.0 0.0
-0.000649658348856109 0.0002972392104062404 0.0 0.002854900521316796 0.0 0.0
-0.0004622804917901091 0.00023998681504736708 0.0 0.002589914640015904 0.0 0.0
-0.0003817761077180331 0.00023319136171140827 0.0 0.0024131803340388383 0.0 0.0
-0.0003372796905024994 0.00021098567447407437 0.0 0.0023769724376586135 0.0 0.0
-0.00024178219609279625 8.549527937255991e-05 0.0 0.0023948430609481526 0.0 0.0
9.916698048694579e-05 -0.00032492795272682086 0.0 0.0021795254314935187 0.0 0.0
0.00036691912689191516 -0.0017695398461091008 0.0 0.0014497638443152626 0.0 0.0
0.00024870533575269935 -0.0013398716604440752 0.0 -0.0013529263975641849 0.0 0.0
6.918107963051633e-06 -0.0002994050916526679 0.0 -0.0020201212919225852 0.0 0.0
-0.00034343292667116305 0.00012805589055803229 0.0 -0.0023404448532344645 0.0 0.0
-0.0005161001523020885 0.00028273876316303823 0.0 -0.0023364505167219503 0.0 0.0
-0.0006565149403271748 0.0003542382908580286 0.0 -0.0023496594733420375 0.0 0.0
-0.0008682781023700288 0.000424120018593194 0.0 -0.002474292187793965 0.0 0.0
-0.001293058819960009 0.0005948856919159983 0.0 -0.0027006292898675613 0.0 0.0
-0.002181923745144393 0.0011232460504018295 0.0 -0.003247636238729326 0.0 0.0
-0.003742484851285288 0.0023175062766430323 0.0 -0.004419623257037282 0.0 0.0
-0.0059702917614041845 0.004283220630575807 0.0 -0.0061692061574173855 0.0 0.0
-0.00871363904985481 0.006835667059633571 0.0 -0.008326967807560332 0.0 0.0
-0.011820090294469308 0.009772671258823272 0.0 -0.010594429287231585 0.0 0.0
-0.01523262036462603 0.01301968977487122 0.0 -0.012842030655054055 0.0 0.0
-0.01895440550957821 0.016604728073210544 0.0 -0.015050569942343776 0.0 0.0
-0.022936439602423697 0.020490199708817155 0.0 -0.017327381820792874 0.0 0.0
-0.026967587007745736 0.024483600830577202 0.0 -0.019887056770412276 0.0 0.0
-0.03063931691719464 0.02817292907668574 0.0 -0.022955178018089422 0.0 0.0
-0.03336567042585472 0.030963919178958764 0.0 -0.026639864951526208 0.0 0.0
-0.03404549634066288 0.031919409598364666 0.0 -0.03023168441864523 0.0 0.0
-0.03042734733796229 0.02888054427663126 0.0 -0.031118528513662425 0.0 0.0
-0.027172250167477402 0.01716192532053684 0.0 1.6055733131903338e-14 0.0 0.0
-0.030427347337959883 0.028880544276631226 0.0 0.031118528513706223 0.0 0.0
-0.03404549634065238 0.03191940959835214 0.0 0.030231684418684728 0.0 0.0
-0.03336567042583483 0.030963919178944352 0.0 0.026639864951541373 0.0 0.0
-0.030639316917169618 0.028172929076659768 0.0 0.02295517801808613 0.0 0.0
-0.02696758700772 0.02448360083055604 0.0 0.019887056770394984 0.0 0.0
-0.02293643960239941 0.0204901997087957 0.0 0.017327381820778004 0.0 0.0
-0.018954405509554326 0.01660472807318922 0.0 0.015050569942331282 0.0 0.0
-0.015232620364601285 0.013019689774849704 0.0 0.01284203065503995 0.0 0.0
-0.011820090294445293 0.009772671258800218 0.0 0.010594429287210372 0.0 0.0
-0.008713639049833456 0.00683566705961375 0.0 0.008326967807538322 0.0 0.0
-0.0059702917613878885 0.004283220630559483 0.0 0.006169206157399922 0.0 0.0
-0.003742484851274543 0.0023175062766343717 0.0 0.004419623257029732 0.0 0.0
-0.002181923745137997 0.0011232460503987128 0.0 0.0032476362387260723 0.0 0.0
-0.0012930588199568471 0.0005948856919144439 0.0 0.0027006292898654727 0.0 0.0
-0.0008682781023687742 0.0004241200185934378 0.0 0.0024742921877904315 0.0 0.0
-0.0006565149403265684 0.00035423829085802326 0.0 0.002349659473341127 0.0 0.0
-0.0005161001523016084 0.000282738763163114 0.0 0.002336450516719558 0.0 0.0
-0.00034343292667070985 0.00012805589055761527 0.0 0.0023404448532341636 0.0 0.0
6.918107963185745e-06 -0.0002994050916529023 0.0 0.002020121291921555 0.0 0.0
0.00024870533575254697 -0.0013398716604422825 0.0 0.0013529263975627615 0.0 0.0
0.00015589845411114473 -0.0009809373381710971 0.0 -0.0012033846791886286 0.0 0.0
-6.908918374640049e-05 -0.00025849032369231335 0.0 -0.0018472308141733 0.0 0.0
-0.00043710384319370875 0.0001673047106775235 0.0 -0.0022333159866612697 0.0 0.0
-0.0006858567185768931 0.0003498863395125806 0.0 -0.002237139629123361 0.0 0.0
-0.0009196885001412937 0.0004664022909606834 0.0 -0.0022195924163615124 0.0 0.0
-0.001272208259284312 0.0006010606973076429 0.0 -0.002272599759469963 0.0 0.0
-0.0020049040961602426 0.0009589347053412648 0.0 -0.0025483397829054585 0.0 0.0
-0.0034855549144269674 0.002003215925389608 0.0 -0.0034443471954556234 0.0 0.0
-0.0059271789832107446 0.004094733175731044 0.0 -0.005120195607417573 0.0 0.0
-0.009281983420649991 0.007226235583951236 0.0 -0.007452265255068487 0.0 0.0
-0.013345149060290874 0.01111265761516877 0.0 -0.010108061284505435 0.0 0.0
-0.017935870467017948 0.015525258659861447 0.0 -0.012763778466200543 0.0 0.0
-0.02299968042883263 0.02040587444133143 0.0 -0.015307205792761437 0.0 0.0
-0.02855598597088055 0.02579605930241181 0.0 -0.017782353039386918 0.0 0.0
-0.03457707724533184 0.03169026260861155 0.0 -0.020376323599171495 0.0 0.0
-0.04084980886873763 0.03790223488905697 0.0 -0.023446809081874166 0.0 0.0
-0.046878296967685126 0.04394800528244524 0.0 -0.02743916748572244 0.0 0.0
-0.05173007483644831 0.04894909093631649 0.0 -0.03231896224441638 0.0 0.0
-0.05374499604600627 0.05129730635140682 0.0 -0.036740968028546976 0.0 0.0
-0.049721515973247976 0.04812789773201906 0.0 -0.03808722976934045 0.0 0.0
-0.045663645338438606 0.03359111280558319 0.0 2.0847906734289268e-14 0.0 0.0
-0.049721515973241995 0.04812789773201729 0.0 0.03808722976938958 0.0 0.0
-0.05374499604599048 0.051297306351390244 0.0 0.036740968028594674 0.0 0.0
-0.05173007483642012 0.04894909093629279 0.0 0.0323189622444388 0.0 0.0
-0.046878296967649995 0.043948005282405125 0.0 0.027439167485720298 0.0 0.0
-0.04084980886870171 0.03790223488902069 0.0 0.023446809081857704 0.0 0.0
-0.034577077245296434 0.03169026260858059 0.0 0.020376323599153725 0.0 0.0
-0.028555985970845292 0.0257960593023819 0.0 0.01778235303937398 0.0 0.0
-0.022999680428797506 0.020405874441295265 0.0 0.015307205792745575 0.0 0.0
-0.017935870466984746 0.015525258659833178 0.0 0.012763778466178804 0.0 0.0
-0.01334514906026103 0.01111265761513404 0.0 0.010108061284480203 0.0 0.0
-0.009281983420626411 0.007226235583927102 0.0 0.0074522652550486745 0.0 0.0
-0.005927178983194862 0.004094733175716843 0.0 0.005120195607406875 0.0 0.0
-0.0034855549144170344 0.00200321592538299 0.0 0.003444347195448662 0.0 0.0
-0.002004904096155299 0.0009589347053364284 0.0 0.0025483397829007236 0.0 0.0
-0.0012722082592826144 0.0006010606973091084 0.0 0.0022725997594680997 0.0 0.0
-0.0009196885001403247 0.0004664022909597773 0.0 0.0022195924163603323 0.0 0.0
-0.0006858567185762134 0.0003498863395124953 0.0 0.002237139629121955 0.0 0.0
-0.0004371038431932216 0.00016730471067701575 0.0 0.0022333159866603086 0.0 0.0
-6.908918374630772e-05 -0.00025849032369242454 0.0 0.0018472308141710024 0.0 0.0
0.0001558984541108986 -0.0009809373381695057 0.0 0.0012033846791865905 0.0 0.0
7.633966982746261e-05 -0.0006801623206407073 0.0 -0.0010315847911649574 0.0 0.0
-0.00013678546410446064 -0.00020462845911621745 0.0 -0.0016486046419691399 0.0 0.0
-0.0005249932502512255 0.00020492759413274806 0.0 -0.0020737704694300993 0.0 0.0
-0.0008463059197709637 0.0004116823152294917 0.0 -0.0020815131970620547 0.0 0.0
-0.0011711284116062376 0.0005668825412488916 0.0 -0.0020199627887987227 0.0 0.0
-0.001697285109553658 0.0007878208632688827 0.0 -0.0020162092608715836 0.0 0.0
-0.0028114045870166375 0.001444798050560562 0.0 -0.0024110103184061538 0.0 0.0
-0.0049407978674457865 0.0031281172577224663 0.0 -0.0035638750764895952 0.0 0.0
-0.008281779444045878 0.006162362730612336 0.0 -0.005574619466766614 0.0 0.0
-0.012741936350607098 0.010416908614154934 0.0 -0.008220130346247086 0.0 0.0
-0.01808632177454195 0.015578970222390558 0.0 -0.011068785360091404 0.0 0.0
-0.024138861741068246 0.02144007438996489 0.0 -0.013871349917257112 0.0 0.0
-0.030848340684612598 0.027944282098901735 0.0 -0.016548758386093793 0.0 0.0
-0.038240771983135184 0.03513807021868651 0.0 -0.019156449642796072 0.0 0.0
-0.046313738726780115 0.043048387777116955 0.0 -0.02188580682857135 0.0 0.0
-0.054864238735656726 0.05151538460307787 0.0 -0.025207661595330257 0.0 0.0
-0.06325235238740642 0.05994781308901441 0.0 -0.029665790179572944 0.0 0.0
-0.07014307301190134 0.06706920950168412 0.0 -0.03518674244650194 0.0 0.0
-0.07317138682980866 0.07060396079583801 0.0 -0.04037133468057403 0.0 0.0
-0.06835979270975763 0.0667797309981834 0.0 -0.042354269356351046 0.0 0.0
-0.06337314526368795 0.04951040659072268 0.0 2.1305873731947145e-14 0.0 0.0
-0.06835979270974736 0.06677973099817305 0.0 0.042354269356399826 0.0 0.0
-0.07317138682978629 0.0706039607958186 0.0 0.040371334680620756 0.0 0.0
-0.07014307301186641 0.06706920950165057 0.0 0.03518674244652966 0.0 0.0
-0.06325235238736314 0.059947813088969126 0.0 0.029665790179570134 0.0 0.0
-0.05486423873561075 0.05151538460302866 0.0 0.02520766159531883 0.0 0.0
-0.04631373872673411 0.04304838777707747 0.0 0.021885806828554906 0.0 0.0
-0.038240771983089346 0.03513807021864155 0.0 0.019156449642779284 0.0 0.0
-0.03084834068456696 0.027944282098854786 0.0 0.01654875838607315 0.0 0.0
-0.024138861741025242 0.021440074389925796 0.0 0.013871349917235543 0.0 0.0
-0.018086321774503637 0.015578970222352172 0.0 0.011068785360065756 0.0 0.0
-0.01274193635057624 0.010416908614127108 0.0 0.0082201303462251 0.0 0.0
-0.008281779444024067 0.006162362730593158 0.0 0.005574619466752961 0.0 0.0
-0.004940797867431616 0.0031281172577123178 0.0 0.003563875076480443 0.0 0.0
-0.0028114045870090737 0.0014447980505535758 0.0 0.002411010318400214 0.0 0.0
-0.001697285109550866 0.0007878208632699095 0.0 0.0020162092608702227 0.0 0.0
-0.0011711284116052063 0.0005668825412479804 0.0 0.002019962788798908 0.0 0.0
-0.0008463059197702591 0.0004116823152296434 0.0 0.002081513197061975 0.0 0.0
-0.0005249932502508301 0.0002049275941330893 0.0 0.0020737704694290767 0.0 0.0
-0.00013678546410440963 -0.0002046284591162349 0.0 0.001648604641967384 0.0 0.0
7.63396698272984e-05 -0.0006801623206394792 0.0 0.001031584791162524 0.0 0.0
7.046800619728783e-06 -0.00043395781531414997 0.0 -0.000851403690942814 0.0 0.0
-0.00019872981826930976 -0.00014198889087601687 0.0 -0.0014228625522042558 0.0 0.0
-0.0006084987935826353 0.00024245132918994318 0.0 -0.001860953356068029 0.0 0.0
-0.0009963530273783868 0.00046738391287415586 0.0 -0.0018693610821419165 0.0 0.0
-0.0014189041678792898 0.000658542247353303 0.0 -0.0017578319743247136 0.0 0.0
-0.0021640917594406687 0.001013913280441773 0.0 -0.0017362436482894084 0.0 0.0
-0.0037189344131339525 0.002071060243072862 0.0 -0.0022284037321978786 0.0 0.0
-0.006531361798744402 0.004466455396127426 0.0 -0.0035370511128771337 0.0 0.0
-0.010764318980812565 0.008425730478090449 0.0 -0.005702049529864254 0.0 0.0
-0.016286749815643407 0.013740157817863502 0.0 -0.00835867692101623 0.0 0.0
-0.022883570161128384 0.020141850730511886 0.0 -0.011168891846244316 0.0 0.0
-0.030396948938532994 0.027444346833951236 0.0 -0.013932973765317538 0.0 0.0
-0.038755874872114696 0.035576215435602285 0.0 -0.0165894619266707 0.0 0.0
-0.047979756153247385 0.04457416401361197 0.0 -0.0191908116599634 0.0 0.0
-0.05809432115654578 0.054487698537920695 0.0 -0.02188988497323521 0.0 0.0
-0.06889708954151533 0.0651829986578919 0.0 -0.025081880725571416 0.0 0.0
-0.07959631490031796 0.07596046016766522 0.0 -0.029391557698409274 0.0 0.0
-0.08842866426125313 0.0851351414445479 0.0 -0.035017267866773845 0.0 0.0
-0.0923303515696556 0.08970163847168926 0.0 -0.0408528752476528 0.0 0.0
-0.08675983362681305 0.08518509677642691 0.0 -0.04487564187502234 0.0 0.0
-0.08094402625195102 0.06548645767517487 0.0 2.2594773274597912e-14 0.0 0.0
-0.08675983362679922 0.08518509677641234 0.0 0.04487564187507312 0.0 0.0
-0.09233035156962634 0.08970163847166418 0.0 0.040852875247703375 0.0 0.0
-0.0884286642612107 0.08513514144450923 0.0 0.035017267866802565 0.0 0.0
-0.07959631490026661 0.07596046016760848 0.0 0.029391557698410252 0.0 0.0
-0.06889708954145957 0.06518299865783647 0.0 0.025081880725562115 0.0 0.0
-0.05809432115648931 0.05448769853786552 0.0 0.021889884973221974 0.0 0.0
-0.04797975615319144 0.04457416401355297 0.0 0.019190811659948192 0.0 0.0
-0.03875587487205899 0.03557621543554859 0.0 0.016589461926653126 0.0 0.0
-0.03039694893848032 0.02744434683389929 0.0 0.0139329737652953 0.0 0.0
-0.022883570161082188 0.02014185073046824 0.0 0.011168891846217392 0.0 0.0
-0.01628674981560573 0.013740157817831266 0.0 0.008358676920993357 0.0 0.0
-0.01076431898078508 0.008425730478064407 0.0 0.005702049529851511 0.0 0.0
-0.006531361798725868 0.004466455396114686 0.0 0.00353705111286654 0.0 0.0
-0.0037189344131238573 0.0020710602430644622 0.0 0.002228403732193105 0.0 0.0
-0.0021640917594366537 0.0010139132804409556 0.0 0.0017362436482877795 0.0 0.0
-0.0014189041678776717 0.0006585422473528426 0.0 0.0017578319743235048 0.0 0.0
-0.0009963530273776552 0.0004673839128749844 0.0 0.0018693610821425674 0.0 0.0
-0.0006084987935822411 0.00024245132918981188 0.0 0.0018609533560671834 0.0 0.0
-0.00019872981826908376 -0.0001419888908762883 0.0 0.0014228625522032785 0.0 0.0
7.046800619906827e-06 -0.0004339578153136788 0.0 0.0008514036909422493 0.0 0.0
-5.1585133202144154e-05 -0.0002411366756877162 0.0 -0.0006678816454516525 0.0 0.0
-0.0002544713162910198 -7.554912192567617e-05 0.0 -0.0011721500454393607 0.0 0.0
-0.0006880050670998611 0.0002802700399970933 0.0 -0.0015952498900871667 0.0 0.0
-0.0011391514702350793 0.0005166734373683242 0.0 -0.0016000022446423841 0.0 0.0
-0.001675845026972636 0.0007496107797283859 0.0 -0.0014434559837297966 0.0 0.0
-0.002684508079970717 0.0013025228528216258 0.0 -0.0014279253275799465 0.0 0.0
-0.004726993434394907 0.0028467535288123915 0.0 -0.001974272541662177 0.0 0.0
-0.008234400418159425 0.005979132742602137 0.0 -0.0033465962928925434 0.0 0.0
-0.013318191149671105 0.01079670905481163 0.0 -0.005391178596613134 0.0 0.0
-0.019866723500843994 0.017127230215563023 0.0 -0.007831497249867108 0.0 0.0
-0.027708994431567324 0.024754323927115626 0.0 -0.010432060544342373 0.0 0.0
-0.03668016645901694 0.03349472511653377 0.0 -0.01298790984205174 0.0 0.0
-0.04669505144757001 0.043263652295513794 0.0 -0.01546095937580368 0.0 0.0
-0.057752422176459706 0.054071814799744405 0.0 -0.017917423114706565 0.0 0.0
-0.06985989858402208 0.06595090923125568 0.0 -0.020426038302173717 0.0 0.0
-0.08281912958036232 0.07877256609593226 0.0 -0.023164572468042877 0.0 0.0
-0.095740991501966 0.09178623636307424 0.0 -0.026705828108872603 0.0 0.0
-0.10647014838692058 0.10296523199791098 0.0 -0.031811607764320626 0.0 0.0
-0.11133544757028896 0.10864807537841441 0.0 -0.0384811448339632 0.0 0.0
-0.10528235368324404 0.10373933963296482 0.0 -0.04606611831238096 0.0 0.0
-0.0988165285826952 0.08194858195242526 0.0 2.1597307275911248e-14 0.0 0.0
-0.1052823536832259 0.10373933963294824 0.0 0.04606611831243198 0.0 0.0
-0.1113354475702536 0.10864807537838264 0.0 0.038481144834011445 0.0 0.0
-0.10647014838687092 0.10296523199786826 0.0 0.03181160776434228 0.0 0.0
-0.09574099150190615 0.09178623636301407 0.0 0.02670582810887613 0.0 0.0
-0.08281912958029702 0.07877256609586458 0.0 0.0231645724680358 0.0 0.0
-0.06985989858395553 0.06595090923118781 0.0 0.020426038302161786 0.0 0.0
-0.05775242217639391 0.05407181479967675 0.0 0.01791742311469221 0.0 0.0
-0.046695051447504694 0.0432636522954476 0.0 0.01546095937578916 0.0 0.0
-0.036680166458954895 0.03349472511647198 0.0 0.012987909842029303 0.0 0.0
-0.027708994431513145 0.024754323927059237 0.0 0.0104320605443175 0.0 0.0
-0.01986672350079954 0.017127230215526458 0.0 0.007831497249846555 0.0 0.0
-0.013318191149637816 0.010796709054777915 0.0 0.005391178596598986 0.0 0.0
-0.008234400418136676 0.0059791327425850775 0.0 0.0033465962928830185 0.0 0.0
-0.004726993434381755 0.002846753528801257 0.0 0.00197427254165654 0.0 0.0
-0.002684508079964989 0.0013025228528191484 0.0 0.0014279253275777672 0.0 0.0
-0.001675845026970562 0.0007496107797270943 0.0 0.0014434559837284884 0.0 0.0
-0.001139151470234163 0.0005166734373675619 0.0 0.0016000022446420227 0.0 0.0
-0.0006880050670993155 0.0002802700399966547 0.0 0.0015952498900855302 0.0 0.0
-0.0002544713162907902 -7.55491219256062e-05 0.0 0.001172150045438121 0.0 0.0
-5.1585133201935276e-05 -0.00024113667568780354 0.0 0.0006678816454511581 0.0 0.0
-9.698803941565976e-05 -0.0001018980831607918 0.0 -0.0004858905284596222 0.0 0.0
-0.0003012557790639177 -1.0759633227730772e-05 0.0 -0.000899420104174964 0.0 0.0
-0.0007623597658531429 0.00031732220641431916 0.0 -0.001275320278510123 0.0 0.0
-0.001278425064986844 0.0005599875493195152 0.0 -0.0012707719263510807 0.0 0.0
-0.0019537032827465226 0.0008539195503825434 0.0 -0.001079656681064042 0.0 0.0
-0.003272543313436457 0.0016734360480756194 0.0 -0.0010743610357966135 0.0 0.0
-0.005834600532487624 0.0037720372135473332 0.0 -0.0016512956234039171 0.0 0.0
-0.010004315428837418 0.0075969280132773265 0.0 -0.0028838115192982893 0.0 0.0
-0.015893711026306573 0.01321429763447156 0.0 -0.00459592528885563 0.0 0.0
-0.023455100636384472 0.02053978521848899 0.0 -0.0066663301106764895 0.0 0.0
-0.03253067979555086 0.029379579348650903 0.0 -0.00887738017543518 0.0 0.0
-0.042959360621636654 0.03955637576704542 0.0 -0.011053916693852797 0.0 0.0
-0.05464049260200282 0.050971944380452036 0.0 -0.013174498426061068 0.0 0.0
-0.06752797254812612 0.06359974040257653 0.0 -0.015322763920909102 0.0 0.0
-0.08157062932592428 0.07740270203105344 0.0 -0.017513837703555194 0.0 0.0
-0.09652827858711575 0.09219030596116501 0.0 -0.019644527758533405 0.0 0.0
-0.11149809748637055 0.10721422055855126 0.0 -0.021911677769099035 0.0 0.0
-0.12415081002615716 0.12037808004675654 0.0 -0.025664317839338556 0.0 0.0
-0.13031518055907412 0.12753648080537383 0.0 -0.033180217445475925 0.0 0.0
-0.12426757653378803 0.12281694001508678 0.0 -0.045668631712150076 0.0 0.0
-0.11739538028701096 0.09932791347670468 0.0 1.9139204110452113e-14 0.0 0.0
-0.12426757653376604 0.12281694001507104 0.0 0.045668631712192355 0.0 0.0
-0.13031518055903318 0.1275364808053331 0.0 0.03318021744551804 0.0 0.0
-0.12415081002609936 0.12037808004669937 0.0 0.02566431783935808 0.0 0.0
-0.11149809748630136 0.10721422055848845 0.0 0.02191167776909983 0.0 0.0
-0.09652827858704127 0.0921903059610848 0.0 0.019644527758529012 0.0 0.0
-0.08157062932584765 0.07740270203098122 0.0 0.01751383770354742 0.0 0.0
-0.0675279725480497 0.06359974040249781 0.0 0.01532276392089742 0.0 0.0
-0.05464049260192769 0.050971944380377894 0.0 0.013174498426049513 0.0 0.0
-0.0429593606215658 0.03955637576697509 0.0 0.011053916693837504 0.0 0.0
-0.0325306797954889 0.029379579348586995 0.0 0.008877380175415017 0.0 0.0
-0.0234551006363339 0.020539785218442054 0.0 0.006666330110659646 0.0 0.0
-0.015893711026267722 0.013214297634434796 0.0 0.004595925288841748 0.0 0.0
-0.010004315428809966 0.0075969280132544 0.0 0.0028838115192896855 0.0 0.0
-0.005834600532471524 0.003772037213533747 0.0 0.001651295623399047 0.0 0.0
-0.0032725433134290017 0.0016734360480717984 0.0 0.0010743610357940418 0.0 0.0
-0.001953703282743832 0.0008539195503809539 0.0 0.0010796566810625458 0.0 0.0
-0.0012784250649861828 0.0005599875493194815 0.0 0.0012707719263495335 0.0 0.0
-0.0007623597658526252 0.00031732220641322785 0.0 0.0012753202785084467 0.0 0.0
-0.00030125577906355786 -1.0759633227584132e-05 0.0 0.0008994201041729613 0.0 0.0
-9.698803941560209e-05 -0.00010189808316089433 0.0 0.00048589052845996757 0.0 0.0
-0.00012432424447864272 -1.6946468254994773e-05 0.0 -0.00031539649146009876 0.0 0.0
-0.0003334426554447524 4.557642000018826e-05 0.0 -0.000608570478031399 0.0 0.0
-0.0008289760835108338 0.00035058742534775856 0.0 -0.0008946327609473622 0.0 0.0
-0.001420963145283455 0.0006010693807646565 0.0 -0.0008763739552486338 0.0 0.0
-0.002266475903747707 0.0009882027761256974 0.0 -0.0006756210795742061 0.0 0.0
-0.00394017037614999 0.0021555444494823837 0.0 -0.0006852719707069416 0.0 0.0
-0.007010543835059691 0.004810728963578404 0.0 -0.0011911989678745243 0.0 0.0
-0.011800216909767805 0.009260034198515033 0.0 -0.0020839244971390214 0.0 0.0
-0.018470304760249922 0.01564756184570304 0.0 -0.003342964580515787 0.0 0.0
-0.027021376132881143 0.023943785489682314 0.0 -0.004872047848493501 0.0 0.0
-0.037319471616817465 0.03398422721124451 0.0 -0.006514890493028894 0.0 0.0
-0.049203707893404974 0.04559654241397139 0.0 -0.00813670760961501 0.0 0.0
-0.06255563507908898 0.05866685348278597 0.0 -0.00973646382898635 0.0 0.0
-0.07728153027832899 0.07312104406748897 0.0 -0.011406892308421884 0.0 0.0
-0.09321048652152253 0.08881541289777498 0.0 -0.013117833485415491 0.0 0.0
-0.10996630692302165 0.10540899167173737 0.0 -0.014603590014961412 0.0 0.0
-0.1266898883441471 0.12211259502220659 0.0 -0.015610459590464452 0.0 0.0
-0.14128536940204056 0.13707069573886901 0.0 -0.017236262110538463 0.0 0.0
-0.14931340999932702 0.14630266335238148 0.0 -0.02406899032970836 0.0 0.0
-0.1440746973800843 0.1428622351651211 0.0 -0.0426485047089767 0.0 0.0
-0.13720085366138768 0.11823747263909265 0.0 1.296879270640261e-14 0.0 0.0
-0.14407469738005846 0.14286223516509833 0.0 0.04264850470900878 0.0 0.0
-0.14931340999927856 0.14630266335233374 0.0 0.0240689903297419 0.0 0.0
-0.14128536940197461 0.13707069573880312 0.0 0.017236262110557423 0.0 0.0
-0.12668988834406864 0.12211259502213243 0.0 0.015610459590462849 0.0 0.0
-0.10996630692293734 0.10540899167165378 0.0 0.014603590014958735 0.0 0.0
-0.09321048652143622 0.08881541289769124 0.0 0.013117833485411366 0.0 0.0
-0.0772815302782421 0.07312104406740683 0.0 0.011406892308412074 0.0 0.0
-0.06255563507900386 0.0586668534827027 0.0 0.009736463828978517 0.0 0.0
-0.049203707893325545 0.0455965424138937 0.0 0.008136707609603673 0.0 0.0
-0.03731947161674848 0.03398422721117764 0.0 0.006514890493015712 0.0 0.0
-0.027021376132825074 0.023943785489626897 0.0 0.004872047848479789 0.0 0.0
-0.01847030476020628 0.015647561845664574 0.0 0.0033429645805067793 0.0 0.0
-0.011800216909736242 0.009260034198487083 0.0 0.002083924497131047 0.0 0.0
-0.007010543835039996 0.004810728963561578 0.0 0.0011911989678704293 0.0 0.0
-0.003940170376140493 0.002155544449474775 0.0 0.0006852719707027954 0.0 0.0
-0.002266475903744742 0.0009882027761245497 0.0 0.0006756210795736805 0.0 0.0
-0.0014209631452825919 0.0006010693807654461 0.0 0.0008763739552464119 0.0 0.0
-0.0008289760835101027 0.0003505874253470058 0.0 0.0008946327609494153 0.0 0.0
-0.0003334426554436439 4.557641999966955e-05 0.0 0.0006085704780307409 0.0 0.0
-0.00012432424447725966 -1.6946468254996677e-05 0.0 0.0003153964914600268 0.0 0.0
-0.00012509359645645059 1.389434260795885e-05 0.0 -0.00017798660903090398 0.0 0.0
-0.00034102813873917645 8.29946495543702e-05 0.0 -0.0003049096111385086 0.0 0.0
-0.0008835446235258716 0.0003745716762037194 0.0 -0.0004359272854232703 0.0 0.0
-0.0015776114911043955 0.0006510454361764749 0.0 -0.0004115107115827434 0.0 0.0
-0.002632591150693739 0.0011779878575810933 0.0 -0.0002445311384840176 0.0 0.0
-0.004677812916677131 0.0027466735635105154 0.0 -0.0002428543878651151 0.0 0.0
-0.008228020964481561 0.005914769864106759 0.0 -0.0005202332927161609 0.0 0.0
-0.013599694275852874 0.010942651776986067 0.0 -0.0009841591450925602 0.0 0.0
-0.0210190975012238 0.018065893004381148 0.0 -0.0016392806513887423 0.0 0.0
-0.030535820782281196 0.027305602925875257 0.0 -0.0024553980677964097 0.0 0.0
-0.04204404392955925 0.03853571090410674 0.0 -0.003341978145905169 0.0 0.0
-0.055384114311299734 0.051586346320132 0.0 -0.004235768065593132 0.0 0.0
-0.0704126777271037 0.0663161902542687 0.0 -0.005163761597437356 0.0 0.0
-0.08696446168321051 0.08258641688354182 0.0 -0.006152695925538977 0.0 0.0
-0.10474562213840921 0.10014437113372321 0.0 -0.007159460663244949 0.0 0.0
-0.12318750224024105 0.11845899777644125 0.0 -0.007990589485648021 0.0 0.0
-0.14130321062970605 0.13655752189805465 0.0 -0.008265346310704863 0.0 0.0
-0.15743445216227123 0.15278524276165578 0.0 -0.008146508054681603 0.0 0.0
-0.16805626583761923 0.1641099311193686 0.0 -0.011509936288369604 0.0 0.0
-0.16522592931880642 0.16423095349457062 0.0 -0.031604601463551506 0.0 0.0
-0.15908161203985804 0.1404724388310591 0.0 6.194697532713178e-15 0.0 0.0
-0.16522592931877655 0.16423095349454478 0.0 0.03160460146357202 0.0 0.0
-0.16805626583756364 0.1641099311193129 0.0 0.011509936288390563 0.0 0.0
-0.1574344521621961 0.1527852427615823 0.0 0.008146508054692119 0.0 0.0
-0.14130321062961773 0.13655752189796036 0.0 0.008265346310702417 0.0 0.0
-0.1231875022401463 0.11845899777635369 0.0 0.007990589485647591 0.0 0.0
-0.10474562213831314 0.10014437113362727 0.0 0.007159460663243685 0.0 0.0
-0.08696446168311427 0.08258641688345324 0.0 0.006152695925533429 0.0 0.0
-0.07041267772700889 0.06631619025416785 0.0 0.005163761597432782 0.0 0.0
-0.055384114311211145 0.051586346320051275 0.0 0.004235768065587783 0.0 0.0
-0.04204404392948289 0.03853571090402943 0.0 0.0033419781458973825 0.0 0.0
-0.030535820782218632 0.027305602925815273 0.0 0.002455398067789168 0.0 0.0
-0.02101909750117479 0.018065893004333346 0.0 0.00163928065138551 0.0 0.0
-0.013599694275817685 0.01094265177695231 0.0 0.0009841591450897576 0.0 0.0
-0.008228020964459208 0.005914769864087518 0.0 0.0005202332927145327 0.0 0.0
-0.004677812916665368 0.0027466735634991916 0.0 0.0002428543878627655 0.0 0.0
-0.0026325911506892667 0.0011779878575783962 0.0 0.0002445311384844087 0.0 0.0
-0.0015776114911026998 0.0006510454361766539 0.0 0.00041151071158066415 0.0 0.0
-0.0008835446235252303 0.00037457167620249664 0.0 0.0004359272854270714 0.0 0.0
-0.0003410281387393186 8.299464955391478e-05 0.0 0.00030490961113812873 0.0 0.0
-0.00012509359645667108 1.389434260813581e-05 0.0 0.0001779866090293522 0.0 0.0
-8.407108358691521e-05 1.5922731451435405e-05 0.0 -0.00010943810456252371 0.0 0.0
-0.0003064446752001428 9.532962008082913e-05 0.0 -0.00012669174564716783 0.0 0.0
-0.000920639510562018 0.00038342155932253073 0.0 -0.00014545468384669508 0.0 0.0
-0.0017662780647052 0.0006801298754939253 0.0 -9.583017651115744e-05 0.0 0.0
-0.003063102349524922 0.0012914648484752779 0.0 0.00014286444836662842 0.0 0.0
-0.005468724392822329 0.0030648973020580015 0.0 0.0003500751454578677 0.0 0.0
-0.009465451972573246 0.006478170583971325 0.0 0.0004461606854048852 0.0 0.0
-0.01538334167106533 0.01178625779855461 0.0 0.00047924156570989477 0.0 0.0
-0.023513337983873936 0.019267169856714075 0.0 0.000448474532983045 0.0 0.0
-0.033966902268973254 0.028971948877126806 0.0 0.0003184139426869424 0.0 0.0
-0.04667476721234815 0.04079378726053764 0.0 0.00013022537185981018 0.0 0.0
-0.061475399673596845 0.05456560541620282 0.0 -0.00011091018210588818 0.0 0.0
-0.07816985969029555 0.07012560268993041 0.0 -0.0004427843115361249 0.0 0.0
-0.09652244369919596 0.08729757832127023 0.0 -0.0008378847037216024 0.0 0.0
-0.11613689580898477 0.10578150291163142 0.0 -0.0013239259731359972 0.0 0.0
-0.13625135544009073 0.12494763001529138 0.0 -0.00181855805370729 0.0 0.0
-0.1556036226962433 0.14369158253237746 0.0 -0.0020770670414040973 0.0 0.0
-0.1724777177024269 0.16038469058703805 0.0 -0.001849259493997328 0.0 0.0
-0.18488886362216356 0.17259027217438147 0.0 -0.0034672871205159977 0.0 0.0
-0.18792264015206145 0.1752705593048137 0.0 -0.023755418632017862 0.0 0.0
-0.1861253427035416 0.1527761782632579 0.0 1.5126788710517758e-15 0.0 0.0
-0.18792264015202811 0.17527055930479354 0.0 0.02375541863202392 0.0 0.0
-0.1848888636221003 0.17259027217432088 0.0 0.0034672871205249835 0.0 0.0
-0.17247771770234147 0.1603846905869541 0.0 0.0018492594939986118 0.0 0.0
-0.15560362269614447 0.14369158253227246 0.0 0.002077067041400201 0.0 0.0
-0.1362513554399858 0.12494763001519747 0.0 0.0018185580537073108 0.0 0.0
-0.11613689580887807 0.10578150291153299 0.0 0.0013239259731356087 0.0 0.0
-0.09652244369908915 0.08729757832116866 0.0 0.0008378847037204193 0.0 0.0
-0.07816985969019151 0.07012560268982442 0.0 0.00044278431153549 0.0 0.0
-0.06147539967349968 0.05456560541611993 0.0 0.00011091018210460882 0.0 0.0
-0.04667476721226434 0.04079378726044901 0.0 -0.00013022537186338935 0.0 0.0
-0.03396690226890543 0.02897194887706313 0.0 -0.00031841394268488765 0.0 0.0
-0.0235133379838204 0.019267169856662016 0.0 -0.0004484745329838397 0.0 0.0
-0.015383341671025928 0.011786257798515993 0.0 -0.0004792415657076132 0.0 0.0
-0.009465451972547688 0.006478170583951717 0.0 -0.00044616068540307536 0.0 0.0
-0.005468724392808417 0.0030648973020441428 0.0 -0.00035007514545666054 0.0 0.0
-0.003063102349519432 0.0012914648484711622 0.0 -0.0001428644483656231 0.0 0.0
-0.0017662780647030502 0.0006801298754944645 0.0 9.583017650883113e-05 0.0 0.0
-0.0009206395105608174 0.0003834215593198822 0.0 0.0001454546838482146 0.0 0.0
-0.0003064446751997202 9.532962008086771e-05 0.0 0.00012669174564492014 0.0 0.0
-8.40710835867793e-05 1.592273145157972e-05 0.0 0.00010943810456095052 0.0 0.0
SCALARS Statev float 8
LOOKUP_TABLE default
0.0 0.01879031046704018 0.015075987869309346 -0.017933486772378607 0.00285749890306925 -0.0010381117132182028 0.0 0.0
0.0 0.006475645219289784 0.0047777882665971955 -0.0029939523558407634 -0.001783835910756431 -0.006989144409426431 0.0 0.0
0.0 0.0001427446393051123 0.00019390565767741198 -0.00011889330432488177 -7.501235335253029e-05 -0.0003215040000512378 0.0 0.0
0.0 0.00016383401854724338 7.89467930489106e-05 -5.6552340241943096e-05 -2.2394452806967712e-05 2.574925417796736e-05 0.0 0.0
0.0 0.0010265089167612762 0.0007084817705899131 -0.0005193072157735369 -0.0001891745548163757 0.00014764291903622095 0.0 0.0
0.0 0.002691847019569844 0.002652902689317461 -0.0021095128110497166 -0.0005433898782677477 0.0003078900126295883 0.0 0.0
0.0 0.006776293608627148 0.006208894248811429 -0.005336572265247179 -0.0008723219835642427 0.000432038265706805 0.0 0.0
0.0 0.013019399180348534 0.01174438568422988 -0.010612796761238837 -0.001131588922991043 0.0004891753815684703 0.0 0.0
0.0 0.021848479163999755 0.019494735622919476 -0.018131274190605152 -0.001363461432314313 0.00047930651300611115 0.0 0.0
0.0 0.0333957872783192 0.029550100628546447 -0.027932409429550158 -0.0016176911989963239 0.000374842449063803 0.0 0.0
0.0 0.047571741173401516 0.04184139865175951 -0.03992672360471398 -0.0019146750470454953 0.00020714513226845319 0.0 0.0
0.0 0.06387195175036016 0.056219092932334236 -0.05396140566521854 -0.0022576872671156295 -2.2662698981756923e-05 0.0 0.0
0.0 0.08244447858911746 0.07250023996322899 -0.06986404232657194 -0.002636197636656998 -0.00034333082753240955 0.0 0.0
0.0 0.10301162592104261 0.09049572727988178 -0.08745921630637225 -0.0030365109735093626 -0.0007039297651200678 0.0 0.0
0.0 0.12526741160119728 0.10993477380399107 -0.10649472269531851 -0.0034400511086724967 -0.0011362634631051013 0.0 0.0
0.0 0.148676241334103 0.13031311350262798 -0.1264869272894527 -0.003826186213175329 -0.00162688532970477 0.0 0.0
0.0 0.17223294795148988 0.15078896323478733 -0.14661486576177207 -0.0041740974730152995 -0.0020817806738641963 0.0 0.0
0.0 0.19455477299707408 0.1701740245810175 -0.1657112890508701 -0.004462735530147411 -0.002329883085327695 0.0 0.0
0.0 0.21397175173964353 0.18703345073915037 -0.18234687008321046 -0.0046865806559397045 -0.0022004254684971887 0.0 0.0
0.0 0.22826974606843684 0.19964460244112414 -0.19482558929317767 -0.004819013147946561 -0.0024841014402150778 0.0 0.0
0.0 0.23430917276558855 0.20471477499962826 -0.19991341121691533 -0.004801363782712844 2.766016582445019e-15 0.0 0.0
0.0 0.22826974606840997 0.1996446024411005 -0.19482558929315485 -0.004819013147945596 0.0024841014402232735 0.0 0.0
0.0 0.21397175173957814 0.187033450739093 -0.18234687008315403 -0.004686580655938832 0.0022004254685050557 0.0 0.0
0.0 0.1945547729969849 0.1701740245809391 -0.16571128905079408 -0.004462735530144976 0.002329883085332076 0.0 0.0
0.0 0.17223294795137947 0.15078896323469151 -0.14661486576167782 -0.004174097473013809 0.002081780673862525 0.0 0.0
0.0 0.14867624133399177 0.13031311350253014 -0.12648692728935723 -0.0038261862131729308 0.0016268853297006988 0.0 0.0
0.0 0.12526741160108898 0.10993477380389605 -0.10649472269522647 -0.00344005110866941 0.0011362634631043173 0.0 0.0
0.0 0.1030116259209287 0.09049572727978232 -0.08745921630627516 -0.0030365109735072033 0.0007039297651190895 0.0 0.0
0.0 0.08244447858901029 0.07250023996313512 -0.06986404232648097 -0.0026361976366540965 0.0003433308275294232 0.0 0.0
0.0 0.0638719517502532 0.05621909293224127 -0.05396140566512619 -0.0022576872671150046 2.2662698977038258e-05 0.0 0.0
0.0 0.04757174117331239 0.04184139865168156 -0.03992672360463782 -0.0019146750470437348 -0.00020714513227141382 0.0 0.0
0.0 0.03339578727825087 0.029550100628486595 -0.027932409429492024 -0.0016176911989946006 -0.00037484244906542635 0.0 0.0
0.0 0.0218484791639452 0.019494735622871417 -0.01813127419055837 -0.001363461432313012 -0.00047930651300664284 0.0 0.0
0.0 0.013019399180311227 0.011744385684196359 -0.010612796761206593 -0.0011315889229897664 -0.0004891753815687978 0.0 0.0
0.0 0.006776293608603396 0.006208894248789342 -0.00533657226522667 -0.0008723219835626636 -0.00043203826570657365 0.0 0.0
0.0 0.002691847019558928 0.002652902689306542 -0.002109512811040414 -0.0005433898782661284 -0.0003078900126286977 0.0 0.0
0.0 0.0010265089167570132 0.0007084817705869347 -0.0005193072157713747 -0.00018917455481555907 -0.00014764291903560876 0.0 0.0
0.0 0.0001638340185462025 7.89467930487268e-05 -5.655234024183523e-05 -2.239445280689101e-05 -2.5749254177808257e-05 0.0 0.0
0.0 0.00014274463930432344 0.00019390565767682356 -0.00011889330432451817 -7.501235335230471e-05 0.00032150400005000207 0.0 0.0
0.0 0.006475645219278991 0.004777788266591562 -0.002993952355836527 -0.0017838359107550331 0.006989144409416821 0.0 0.0
0.0 0.0187903104670192 0.015075987869295334 -0.01793348677235921 0.0028574989030638646 0.0010381117131779889 0.0 0.0
0.0 0.015358502240403542 0.011536014864663368 -0.01487241356476165 0.0033363987000982723 -0.0005486657490486748 0.0 0.0
0.0 0.004012278846553792 0.002881442776665001 -0.001785955221348001 -0.0010954875553169964 -0.005535713939354687 0.0 0.0
0.0 -7.91725475369402e-05 -7.238666259245286e-05 6.551051555591141e-05 6.876147036541476e-06 -8.698745527368582e-05 0.0 0.0
0.0 3.901353795613773e-05 3.0494698927972596e-05 -2.2012943864625942e-05 -8.481755063346661e-06 1.1852959446316257e-05 0.0 0.0
0.0 0.0005751837480112232 0.0004628525953090594 -0.0003420267618651608 -0.00012082583344389832 5.8936797723832005e-05 0.0 0.0
0.0 0.002346366619745761 0.002049610064267541 -0.0016459800445879687 -0.0004036300196795744 5.2487274490766895e-05 0.0 0.0
0.0 0.005765855463272611 0.005271027627331379 -0.004586772209131903 -0.000684255418199474 -0.00021787637097874573 0.0 0.0
0.0 0.011558919289728374 0.010344068755024596 -0.009482277220115255 -0.0008617915349093451 -0.0006769915269200368 0.0 0.0
0.0 0.019797392863086415 0.017496159864716237 -0.016519984509010224 -0.000976175355706003 -0.0013235046128182092 0.0 0.0
0.0 0.030493697137389118 0.026769192461408277 -0.025696087221451704 -0.0010731052399565507 -0.002128192380394873 0.0 0.0
0.0 0.04356122616636214 0.03806172460659408 -0.03689363310766302 -0.001168091498931102 -0.003016193823072191 0.0 0.0
0.0 0.05892393957293406 0.05122200084075266 -0.049956054858242165 -0.0012659459825105155 -0.003927623753837198 0.0 0.0
0.0 0.07583832100990265 0.06611831074173559 -0.06475143649387015 -0.0013668742478653456 -0.004875885787597832 0.0 0.0
0.0 0.09487289289758391 0.0826001184348407 -0.08113635438050752 -0.0014637640543331903 -0.005865262162826728 0.0 0.0
0.0 0.11545726500168979 0.10043181967381407 -0.09888597300376092 -0.0015458466700530235 -0.006867330616601734 0.0 0.0
0.0 0.1371114440677484 0.11916800315583015 -0.11756399657960936 -0.001604006576220882 -0.007798115791829214 0.0 0.0
0.0 0.15899328217236977 0.13805705935451584 -0.13642447028473143 -0.0016325890697842732 -0.008430857935471462 0.0 0.0
0.0 0.17985030604127664 0.15602308753042307 -0.15439050350020275 -0.0016325840302204324 -0.008432174273563804 0.0 0.0
0.0 0.19800730838145614 0.17166319045214515 -0.1700655326879721 -0.0015976577641731548 -0.0075968693716197515 0.0 0.0
0.0 0.21126730040776126 0.18301320553731457 -0.18155267062949648 -0.0014605349078180702 -0.0065292163738311015 0.0 0.0
0.0 0.2169749748343517 0.18744269348084944 -0.18619531208100795 -0.0012473813998415057 7.917277944358148e-15 0.0 0.0
0.0 0.21126730040773453 0.18301320553729067 -0.1815526706294731 -0.0014605349078174634 0.0065292163738512226 0.0 0.0
0.0 0.19800730838139485 0.1716631904520918 -0.17006553268791913 -0.0015976577641725258 0.007596869371640488 0.0 0.0
0.0 0.179850306041194 0.1560230875303517 -0.1543905035001315 -0.0016325840302202094 0.008432174273575711 0.0 0.0
0.0 0.15899328217226935 0.13805705935442963 -0.13642447028464486 -0.001632589069784903 0.008430857935472127 0.0 0.0
0.0 0.13711144406764353 0.11916800315573922 -0.11756399657951869 -0.001604006576220183 0.0077981157918238595 0.0 0.0
0.0 0.11545726500158714 0.1004318196737247 -0.09888597300367244 -0.00154584667005233 0.006867330616599495 0.0 0.0
0.0 0.09487289289747845 0.08260011843474925 -0.08113635438041675 -0.0014637640543324372 0.005865262162823234 0.0 0.0
0.0 0.07583832100980105 0.06611831074164765 -0.06475143649378289 -0.0013668742478647558 0.004875885787591718 0.0 0.0
0.0 0.058923939572840936 0.051222000840671786 -0.04995605485816153 -0.0012659459825102568 0.003927623753830356 0.0 0.0
0.0 0.043561226166280546 0.03806172460652361 -0.036893633107592846 -0.0011680914989307865 0.0030161938230637685 0.0 0.0
0.0 0.030493697137327812 0.026769192461354424 -0.025696087221398455 -0.0010731052399559312 0.002128192380389299 0.0 0.0
0.0 0.019797392863036722 0.017496159864672237 -0.016519984508966877 -0.0009761753557053643 0.0013235046128140717 0.0 0.0
0.0 0.011558919289695569 0.010344068754995245 -0.00948227722008669 -0.0008617915349085734 0.0006769915269166198 0.0 0.0
0.0 0.005765855463252223 0.0052710276273127705 -0.00458677220911432 -0.0006842554181984455 0.0002178763709766214 0.0 0.0
0.0 0.0023463666197348332 0.0020496100642579214 -0.001645980044579719 -0.00040363001967820057 -5.2487274491167766e-05 0.0 0.0
0.0 0.000575183748007516 0.0004628525953063932 -0.0003420267618631879 -0.00012082583344320523 -5.893679772357331e-05 0.0 0.0
0.0 3.9013537955486385e-05 3.0494698928047667e-05 -2.2012943864701853e-05 -8.48175506334568e-06 -1.1852959446178074e-05 0.0 0.0
0.0 -7.917254753700537e-05 -7.23866625921938e-05 6.55105155556684e-05 6.876147036525205e-06 8.698745527338338e-05 0.0 0.0
0.0 0.004012278846542962 0.0028814427766590284 -0.0017859552213437262 -0.0010954875553153011 0.005535713939342974 0.0 0.0
0.0 0.01535850224038036 0.01153601486464563 -0.014872413564739445 0.003336398700093804 0.0005486657490184363 0.0 0.0
0.0 0.01148559218591025 0.008444455032640174 -0.0111856119945634 0.0027411569619232245 -0.003049708576412875 0.0 0.0
0.0 0.002786596500919875 0.0017756927950346299 -0.0009810057474569406 -0.0007946870475776915 -0.004686003287218658 0.0 0.0
0.0 -2.2421654896236453e-07 6.977351029069834e-07 -6.109754346805746e-07 -8.675966822640478e-08 4.3836587140110195e-07 0.0 0.0
0.0 -1.5207612645733117e-06 -3.412054882301502e-06 2.9333970385481982e-06 4.786578437531734e-07 4.541150043501567e-06 0.0 0.0
0.0 0.0002578290616775839 0.000221341777906066 -0.0001592736364403306 -6.206814146573553e-05 1.3786670461024217e-05 0.0 0.0
0.0 0.0016759848756494177 0.0014112218279798705 -0.0011030264221696675 -0.00030819540581020205 -9.147786257952627e-05 0.0 0.0
0.0 0.004480324546697783 0.004162421250531228 -0.003549640545549353 -0.0006127807049818771 -0.0006228428890072701 0.0 0.0
0.0 0.009664509557308285 0.008653791938786468 -0.007842770068397509 -0.0008110218703889541 -0.001513124603255023 0.0 0.0
0.0 0.01703183388447504 0.015058448957143122 -0.014128942906285608 -0.000929506050857496 -0.0027514632146670276 0.0 0.0
0.0 0.026695110624666087 0.02336814508472722 -0.022347619883633322 -0.0010205252010939219 -0.0042625237298385505 0.0 0.0
0.0 0.03841954905217723 0.03345222360798787 -0.032343321250034675 -0.0011089023579531503 -0.005911130825871891 0.0 0.0
0.0 0.05191347531670159 0.045160688901374736 -0.04395943641799777 -0.0012012524833769527 -0.007569325884850616 0.0 0.0
0.0 0.0673988820315806 0.05838358700880297 -0.05708722149382077 -0.0012963655149822138 -0.009219001519058193 0.0 0.0
0.0 0.08407319365210059 0.0730342957025637 -0.07164702213361877 -0.0013872735689448505 -0.010924699720907895 0.0 0.0
0.0 0.10245768068223507 0.08892438645133557 -0.08745899934808306 -0.0014653871032526253 -0.012660430480274987 0.0 0.0
0.0 0.12184535750464699 0.10568696039090798 -0.10416443856815494 -0.001522521822752921 -0.014245654793119638 0.0 0.0
0.0 0.1415262285778228 0.12269581350421686 -0.12114175504789401 -0.0015540584563228717 -0.015309479899197813 0.0 0.0
0.0 0.16038282936154288 0.1389961174584483 -0.13744197492880755 -0.0015541425296408294 -0.015353061559313862 0.0 0.0
0.0 0.17685065604113703 0.15320182063046084 -0.15169983907390666 -0.001501981556553988 -0.014046255717324468 0.0 0.0
0.0 0.18880587890619163 0.1634719148606783 -0.16205443607331652 -0.0014174787873615885 -0.011385721109211834 0.0 0.0
0.0 0.1941870678086556 0.16760063128121097 -0.16643485127431887 -0.001165780006892095 1.492989759599439e-14 0.0 0.0
0.0 0.1888058789061643 0.16347191486065343 -0.1620544360732916 -0.00141747878736185 0.01138572110924782 0.0 0.0
0.0 0.1768506560410803 0.15320182063041102 -0.15169983907385742 -0.0015019815565537212 0.014046255717360626 0.0 0.0
0.0 0.16038282936147077 0.13899611745838578 -0.13744197492874496 -0.0015541425296406672 0.015353061559334054 0.0 0.0
0.0 0.14152622857773456 0.12269581350414137 -0.12114175504781845 -0.0015540584563228936 0.01530947989919992 0.0 0.0
0.0 0.12184535750455333 0.10568696039082688 -0.1041644385680739 -0.0015225218227530345 0.014245654793112088 0.0 0.0
0.0 0.1024576806821394 0.08892438645125281 -0.08745899934800054 -0.0014653871032522686 0.012660430480270289 0.0 0.0
0.0 0.08407319365200945 0.07303429570248444 -0.07164702213354049 -0.0013872735689439831 0.010924699720902747 0.0 0.0
0.0 0.06739888203148661 0.058383587008722156 -0.057087221493739744 -0.0012963655149824086 0.00921900151904773 0.0 0.0
0.0 0.051913475316620175 0.04516068890130424 -0.04395943641792806 -0.0012012524833760882 0.007569325884839034 0.0 0.0
0.0 0.03841954905210586 0.03345222360792572 -0.032343321249973016 -0.0011089023579526932 0.005911130825859274 0.0 0.0
0.0 0.026695110624613102 0.023368145084680478 -0.022347619883587293 -0.0010205252010931608 0.004262523729828633 0.0 0.0
0.0 0.017031833884431902 0.015058448957105213 -0.014128942906248353 -0.0009295060508568626 0.002751463214659355 0.0 0.0
0.0 0.009664509557278458 0.008653791938760275 -0.007842770068372074 -0.0008110218703881854 0.0015131246032489122 0.0 0.0
0.0 0.004480324546679613 0.004162421250514511 -0.00354964054553396 -0.0006127807049805537 0.0006228428890037658 0.0 0.0
0.0 0.0016759848756402395 0.0014112218279720202 -0.0011030264221631983 -0.00030819540580882116 9.147786257837605e-05 0.0 0.0
0.0 0.0002578290616750317 0.00022134177790440737 -0.00015927363643913507 -6.206814146527241e-05 -1.378667046093001e-05 0.0 0.0
0.0 -1.5207612644532287e-06 -3.4120548820348752e-06 2.9333970383463194e-06 4.78657843688587e-07 -4.541150043399926e-06 0.0 0.0
0.0 -2.242165488852424e-07 6.977351029121641e-07 -6.10975434683701e-07 -8.675966822846377e-08 -4.3836587140160297e-07 0.0 0.0
0.0 0.0027865965009107496 0.0017756927950292253 -0.0009810057474532693 -0.0007946870475759513 0.004686003287205009 0.0 0.0
0.0 0.011485592185886956 0.008444455032622882 -0.011185611994541536 0.00274115696191865 0.0030497085763931723 0.0 0.0
0.0 0.008729673773259613 0.006253260141435119 -0.008455995532244033 0.002202735390808899 -0.003306809767134182 0.0 0.0
0.0 0.0020207351795889124 0.0012097395767308595 -0.0006516543936319038 -0.0005580851830989512 -0.003546602248539869 0.0 0.0
0.0 0.0 0.0 0.0 0.0 0.0 0.0 0.0
0.0 -2.337637343127889e-06 -2.5266255765948574e-06 1.985917834046601e-06 5.407077425482541e-07 1.7807456946137985e-06 0.0 0.0
0.0 8.751976946164502e-05 6.487297086180699e-05 -4.42129674574482e-05 -2.0660003404358354e-05 9.336211337410778e-06 0.0 0.0
0.0 0.001003303608139902 0.0008882724327305692 -0.0006759046317451196 -0.00021236780098544836 -0.00016501395755514568 0.0 0.0
0.0 0.0035068497038563354 0.003094040161005993 -0.0025740965143891395 -0.0005199436466168564 -0.0007916165019951258 0.0 0.0
0.0 0.0078196233177298 0.006984928841124234 -0.006237421984867279 -0.0007475068562569493 -0.0020426597427254654 0.0 0.0
0.0 0.01433928513068422 0.012610959459542964 -0.011734712668352658 -0.0008762467911903002 -0.0037340533365762167 0.0 0.0
0.0 0.022893146653942608 0.019933132078374834 -0.018969133621018548 -0.0009639984573562828 -0.005784308557276911 0.0 0.0
0.0 0.03319016239304341 0.028796684938943603 -0.027751182672167734 -0.0010455022667758386 -0.008004025155275932 0.0 0.0
0.0 0.045181107989732724 0.039048319825764025 -0.03791688345547221 -0.0011314363702918497 -0.010228028407290273 0.0 0.0
0.0 0.05845902801060293 0.05060446126958385 -0.04938327819239819 -0.0012211830771856733 -0.012431384448863578 0.0 0.0
0.0 0.07353814515117309 0.06340402752929054 -0.06209843500915685 -0.0013055925201336698 -0.014673240830668644 0.0 0.0
0.0 0.08957749079395978 0.07733255205960342 -0.07595340950219795 -0.0013791425574053956 -0.016940051760132458 0.0 0.0
0.0 0.10650942052422685 0.09211302357396291 -0.09067605150567294 -0.0014369720682899303 -0.019031611924504404 0.0 0.0
0.0 0.12408838556369708 0.10723776519534177 -0.10576674351538723 -0.0014710216799544316 -0.020500499100466474 0.0 0.0
0.0 0.14101928640351563 0.121876791787357 -0.12040634870479179 -0.001470443082565026 -0.020744810227242654 0.0 0.0
0.0 0.15589938281109617 0.1347679694533952 -0.13333898689685306 -0.0014289825565421811 -0.0191405040113746 0.0 0.0
0.0 0.16687418619946193 0.14430732287924125 -0.14293559665982514 -0.0013717262194164474 -0.014837821568327214 0.0 0.0
0.0 0.17225758443400122 0.14838147761624257 -0.14736159009749933 -0.001019887518743014 2.1212198664244397e-14 0.0 0.0
0.0 0.1668741861994392 0.14430732287921968 -0.14293559665980327 -0.0013717262194165962 0.014837821568376453 0.0 0.0
0.0 0.15589938281104856 0.1347679694533528 -0.13333898689681056 -0.0014289825565422343 0.019140504011421155 0.0 0.0
0.0 0.141019286403451 0.12187679178730043 -0.12040634870473488 -0.0014704430825654756 0.020744810227269116 0.0 0.0
0.0 0.12408838556362242 0.10723776519527735 -0.10576674351532374 -0.001471021679953577 0.020500499100470547 0.0 0.0
0.0 0.10650942052414467 0.09211302357389217 -0.09067605150560164 -0.001436972068290459 0.01903161192449527 0.0 0.0
0.0 0.08957749079387771 0.07733255205953199 -0.07595340950212726 -0.0013791425574048188 0.01694005176012579 0.0 0.0
0.0 0.07353814515109441 0.0634040275292218 -0.062098435009089056 -0.0013055925201327604 0.014673240830661405 0.0 0.0
0.0 0.05845902801052375 0.05060446126951599 -0.049383278192330536 -0.0012211830771853833 0.012431384448851956 0.0 0.0
0.0 0.04518110798965848 0.039048319825699916 -0.03791688345540812 -0.0011314363702918495 0.010228028407272136 0.0 0.0
0.0 0.03319016239297852 0.02879668493888755 -0.027751182672111886 -0.0010455022667756522 0.00800402515525958 0.0 0.0
0.0 0.02289314665389466 0.019933132078333013 -0.018969133620977578 -0.000963998457355425 0.00578430855726304 0.0 0.0
0.0 0.01433928513064702 0.012610959459510643 -0.011734712668320981 -0.0008762467911896559 0.003734053336566252 0.0 0.0
0.0 0.007819623317703465 0.006984928841100549 -0.006237421984844487 -0.0007475068562560557 0.0020426597427171287 0.0 0.0
0.0 0.0035068497038410317 0.0030940401609931643 -0.0025740965143776036 -0.0005199436466155617 0.0007916165019908189 0.0 0.0
0.0 0.0010033036081330848 0.0008882724327251548 -0.0006759046317408145 -0.0002123678009843401 0.00016501395755389836 0.0 0.0
0.0 8.751976946050608e-05 6.48729708614038e-05 -4.421296745719427e-05 -2.06600034042095e-05 -9.336211337172822e-06 0.0 0.0
0.0 -2.3376373435707815e-06 -2.5266255766619763e-06 1.985917834097656e-06 5.407077425643394e-07 -1.780745694651585e-06 0.0 0.0
0.0 0.0 0.0 0.0 0.0 0.0 0.0 0.0
0.0 0.0020207351795814227 0.0012097395767265045 -0.0006516543936289437 -0.0005580851830975619 0.003546602248528562 0.0 0.0
0.0 0.008729673773240628 0.006253260141420332 -0.008455995532225178 0.002202735390804841 0.0033068097671202354 0.0 0.0
0.0 0.006419673668021517 0.004573053569730215 -0.006295312659691549 0.001722259089961339 -0.002844679836432002 0.0 0.0
0.0 0.0016141169461291924 0.0007941315609671313 -0.00041696039801661583 -0.0003771711629505149 -0.0025475836516401186 0.0 0.0
0.0 0.0 0.0 0.0 0.0 0.0 0.0 0.0
0.0 -3.291647197518026e-07 1.0032922047696584e-07 -7.730969855621546e-08 -2.3019521920749146e-08 -4.914453684733109e-08 0.0 0.0
0.0 -1.3441722347239187e-05 -1.9035938167465646e-06 3.6253098813272033e-06 -1.7217160645806345e-06 1.7282082541553858e-05 0.0 0.0
0.0 0.0005647262525524251 0.00046755964528746196 -0.0003469321817792175 -0.00012062746350824483 -0.00014736876796060135 0.0 0.0
0.0 0.0025647769224568765 0.002133180419353758 -0.0017261908786272563 -0.0004069895407264977 -0.0008142869838197868 0.0 0.0
0.0 0.006059727948698476 0.0053630776342193515 -0.004694784721751515 -0.0006682929124678423 -0.0022252062274275035 0.0 0.0
0.0 0.011689094489957114 0.010184624952013971 -0.009370952882532653 -0.00081367206948132 -0.004263255763399984 0.0 0.0
0.0 0.01908951582720318 0.016497453401052072 -0.01559593233456247 -0.0009015210664895925 -0.006687779136198671 0.0 0.0
0.0 0.02804830844487878 0.024127922870961892 -0.023150787843204623 -0.0009771350277572779 -0.009298710717935586 0.0 0.0
0.0 0.03836647647707285 0.032919749596132676 -0.03186360125801833 -0.0010561483381143163 -0.011907149942177947 0.0 0.0
0.0 0.050009645058744334 0.042801466115358136 -0.04166223693542944 -0.0011392291799286846 -0.014489125474718818 0.0 0.0
0.0 0.06256421820772975 0.05375634936120392 -0.05253748907207484 -0.0012188602891290603 -0.017107094187265297 0.0 0.0
0.0 0.07657867499957322 0.0657097774904772 -0.06442186122791224 -0.0012879162625649187 -0.01972822173710726 0.0 0.0
0.0 0.09149766005171771 0.07847637217676548 -0.07713301565525141 -0.0013433565215140125 -0.02214369601257934 0.0 0.0
0.0 0.10664691164001468 0.09168396434293351 -0.09030311558302791 -0.0013808487599055949 -0.02394649708307748 0.0 0.0
0.0 0.12161764305486755 0.10465879736962413 -0.10326951675160384 -0.0013892806180204047 -0.02449121766604522 0.0 0.0
0.0 0.13506276401184042 0.1163463012831146 -0.11498460327215981 -0.0013616980109547037 -0.022769551307767602 0.0 0.0
0.0 0.1453682350528169 0.12537301071695273 -0.12405681991910347 -0.001316190797849145 -0.017418039361793414 0.0 0.0
0.0 0.15095157686984753 0.1295293405500793 -0.12868767332722422 -0.0008416672228550633 2.374229285395657e-14 0.0 0.0
0.0 0.14536823505279756 0.12537301071693352 -0.12405681991908378 -0.0013161907978496172 0.017418039361848228 0.0 0.0
0.0 0.1350627640118025 0.11634630128307942 -0.11498460327212486 -0.001361698010954435 0.02276955130782036 0.0 0.0
0.0 0.12161764305481136 0.10465879736957462 -0.10326951675155364 -0.0013892806180210249 0.02449121766607659 0.0 0.0
0.0 0.10664691163995287 0.09168396434287987 -0.09030311558297549 -0.0013808487599043615 0.02394649708308291 0.0 0.0
0.0 0.09149766005164586 0.07847637217670354 -0.07713301565518904 -0.0013433565215144846 0.022143696012569342 0.0 0.0
0.0 0.07657867499950519 0.0657097774904181 -0.06442186122785394 -0.0012879162625641122 0.019728221737097887 0.0 0.0
0.0 0.06256421820765876 0.053756349361142465 -0.05253748907201372 -0.0012188602891287149 0.01710709418725526 0.0 0.0
0.0 0.05000964505868015 0.04280146611530252 -0.041662236935374394 -0.001139229179928061 0.014489125474706497 0.0 0.0
0.0 0.03836647647700891 0.032919749596077685 -0.03186360125796387 -0.0010561483381138102 0.01190714994215804 0.0 0.0
0.0 0.02804830844482426 0.02412792287091545 -0.023150787843158594 -0.0009771350277568752 0.009298710717915411 0.0 0.0
0.0 0.01908951582715856 0.016497453401013964 -0.015595932334524753 -0.0009015210664892017 0.00668777913618099 0.0 0.0
0.0 0.011689094489923786 0.010184624951985105 -0.009370952882504443 -0.000813672069480656 0.004263255763387596 0.0 0.0
0.0 0.006059727948675875 0.005363077634199603 -0.004694784721732847 -0.0006682929124667574 0.0022252062274185085 0.0 0.0
0.0 0.0025647769224458813 0.0021331804193449747 -0.0017261908786198076 -0.00040698954072516746 0.0008142869838160939 0.0 0.0
0.0 0.0005647262525479427 0.0004675596452842687 -0.00034693218177678865 -0.00012062746350747982 0.000147368767959461 0.0 0.0
0.0 -1.3441722347496512e-05 -1.9035938164609493e-06 3.6253098810926857e-06 -1.7217160646317708e-06 -1.72820825409912e-05 0.0 0.0
0.0 -3.291647196424546e-07 1.0032922036729605e-07 -7.730969847152337e-08 -2.3019521895779147e-08 4.914453670919329e-08 0.0 0.0
0.0 0.0 0.0 0.0 0.0 0.0 0.0 0.0
0.0 0.0016141169461221937 0.0007941315609637082 -0.0004169603980143349 -0.00037717116294937127 0.0025475836516307315 0.0 0.0
0.0 0.0064196736680052855 0.004573053569717474 -0.006295312659675101 0.0017222590899576178 0.0028446798364219683 0.0 0.0
0.0 0.00468604732275219 0.0032293223792519525 -0.004519675605466185 0.0012903532262142285 -0.002232798647771559 0.0 0.0
0.0 0.0009905802980624309 0.0004944658994102681 -0.000251741573878109 -0.00024272432553215884 -0.0017398634896042553 0.0 0.0
0.0 0.0 0.0 0.0 0.0 0.0 0.0 0.0
0.0 -3.956520184868113e-07 5.669126242953915e-08 -4.332974037387541e-08 -1.3361522055663767e-08 -1.0198236291203565e-07 0.0 0.0
0.0 -1.957283919725917e-05 -1.496815688180516e-05 1.211295632624253e-05 2.8552005555626414e-06 2.236026749653946e-05 0.0 0.0
0.0 0.0002106152865919167 0.0001939502271175429 -0.0001399652431830145 -5.3984983934528455e-05 -9.391485414358625e-05 0.0 0.0
0.0 0.001514684515101106 0.0013391154705787746 -0.0010536059394988936 -0.00028550953107988166 -0.0007489912140671866 0.0 0.0
0.0 0.004682299428337046 0.0038241664162103057 -0.003263901704319519 -0.0005602647118907798 -0.002116537358279955 0.0 0.0
0.0 0.008977740941871417 0.007810907847364901 -0.007074998998496442 -0.0007359088488684609 -0.0043121817174730116 0.0 0.0
0.0 0.015370113180839098 0.013093713841262863 -0.012263422873858957 -0.0008302909674039075 -0.006963230444380093 0.0 0.0
0.0 0.02291979623967621 0.019480893458359187 -0.018579077357278234 -0.0009018161010809379 -0.00978742148139416 0.0 0.0
0.0 0.031560867764483594 0.026810249584923347 -0.025836030420971563 -0.0009742191639517679 -0.01260497222521243 0.0 0.0
0.0 0.041221073846592376 0.03502074906964969 -0.03396996677611122 -0.0010507822935384924 -0.01538474871440681 0.0 0.0
0.0 0.05198739029168479 0.04412035746735189 -0.042996625559992036 -0.001123731907359868 -0.018192502275830698 0.0 0.0
0.0 0.06361255885913297 0.05409635396106455 -0.05290773862531819 -0.001188615335746352 -0.021003690004314908 0.0 0.0
0.0 0.0759974344821045 0.06483193687466912 -0.0635896567887089 -0.0012422800859602004 -0.023598091922656505 0.0 0.0
0.0 0.08933276820520171 0.0760624488096936 -0.07478014070141227 -0.0012823081082812536 -0.025607653743125503 0.0 0.0
0.0 0.10226056535667852 0.08733356754993153 -0.0860291616951167 -0.0013044058548148563 -0.02644556052454626 0.0 0.0
0.0 0.11414933911886499 0.09786851571809417 -0.09657447867117747 -0.0012940370469167778 -0.024925053724292327 0.0 0.0
0.0 0.12400233663927195 0.10651816076831798 -0.10526373920468461 -0.0012544215636332685 -0.01924112011177247 0.0 0.0
0.0 0.12997285862379074 0.11086030858399123 -0.11022446432319019 -0.000635844260800983 2.448215241646068e-14 0.0 0.0
0.0 0.12400233663925397 0.10651816076829901 -0.10526373920466514 -0.0012544215636339808 0.019241120111827482 0.0 0.0
0.0 0.11414933911883468 0.09786851571806454 -0.09657447867114814 -0.001294037046916518 0.024925053724347453 0.0 0.0
0.0 0.10226056535663469 0.08733356754989187 -0.0860291616950771 -0.0013044058548146702 0.0264455605245796 0.0 0.0
0.0 0.08933276820515065 0.07606244880964946 -0.07478014070136906 -0.0012823081082804014 0.02560765374313123 0.0 0.0
0.0 0.07599743448204263 0.06483193687461597 -0.06358965678865557 -0.0012422800859604242 0.023598091922646083 0.0 0.0
0.0 0.06361255885907524 0.05409635396101439 -0.052907738625268846 -0.0011886153357455256 0.021003690004303917 0.0 0.0
0.0 0.05198739029162555 0.044120357467300475 -0.042996625559940875 -0.0011237319073596156 0.018192502275819027 0.0 0.0
0.0 0.04122107384653641 0.03502074906960198 -0.0339699667760637 -0.0010507822935382665 0.015384748714393335 0.0 0.0
0.0 0.03156086776443079 0.0268102495848784 -0.025836030420927192 -0.0009742191639511953 0.012604972225193441 0.0 0.0
0.0 0.02291979623963207 0.019480893458322174 -0.018579077357242412 -0.0009018161010797631 0.009787421481372557 0.0 0.0
0.0 0.015370113180802562 0.013093713841232004 -0.012263422873828244 -0.0008302909674037473 0.006963230444360977 0.0 0.0
0.0 0.008977740941843611 0.007810907847340903 -0.007074998998473082 -0.0007359088488678273 0.0043121817174588874 0.0 0.0
0.0 0.004682299428316407 0.003824166416193589 -0.00326390170430404 -0.0005602647118895474 0.0021165373582704614 0.0 0.0
0.0 0.0015146845150920513 0.0013391154705715755 -0.001053605939492966 -0.00028550953107861016 0.0007489912140628333 0.0 0.0
0.0 0.00021061528658896075 0.0001939502271155907 -0.0001399652431815795 -5.398498393401123e-05 9.391485414249243e-05 0.0 0.0
0.0 -1.9572839197624747e-05 -1.4968156881278021e-05 1.2112956325841419e-05 2.8552005554365813e-06 -2.236026749594139e-05 0.0 0.0
0.0 -3.956520183206541e-07 5.6691262432719234e-08 -4.3329740376236135e-08 -1.3361522056479979e-08 1.0198236291056294e-07 0.0 0.0
0.0 0.0 0.0 0.0 0.0 0.0 0.0 0.0
0.0 0.0009905802980565146 0.0004944658994075167 -0.0002517415738762602 -0.00024272432553125618 0.0017398634895963595 0.0 0.0
0.0 0.0046860473227390955 0.003229322379241659 -0.004519675605452526 0.001290353226210864 0.0022327986477645332 0.0 0.0
0.0 0.0031230000615776908 0.002164903232916557 -0.0030731698625607834 0.0009082666296442236 -0.0016653594153404673 0.0 0.0
0.0 0.0006150397163521876 0.00026752013888839963 -0.0001213820554815391 -0.00014613808340685968 -0.0010785017284546269 0.0 0.0
0.0 2.9041076945466384e-07 -3.4488798683329004e-09 2.6803405111441826e-09 7.685393571887485e-10 5.864590140692222e-08 0.0 0.0
0.0 -3.9933846218285653e-07 2.3010864123224606e-08 -1.7665084308602554e-08 -5.345779814626124e-09 -7.114747973550936e-08 0.0 0.0
0.0 -8.852797042495292e-06 -6.12529081971291e-06 4.885166328742102e-06 1.2401244909708525e-06 1.3132630573768091e-05 0.0 0.0
0.0 3.550204884511419e-05 3.3218499478371585e-05 -2.131462592069102e-05 -1.1903873557680506e-05 -9.431093696519718e-06 0.0 0.0
0.0 0.0008574567632473873 0.0006980531265474355 -0.0005356764933337379 -0.00016237663321369783 -0.0005655459848326077 0.0 0.0
0.0 0.0029318052816315414 0.002476025057762504 -0.00205156631924704 -0.0004244587385154641 -0.0018450763665013694 0.0 0.0
0.0 0.006920944378895783 0.005523124655079719 -0.004893468309902649 -0.0006296563451770701 -0.003900737271849712 0.0 0.0
0.0 0.011582693886264182 0.009761634859741236 -0.009018380797129922 -0.0007432540626113157 -0.006584022053722561 0.0 0.0
0.0 0.017860925034845633 0.014892767643435695 -0.014076733950991066 -0.0008160336924446387 -0.009452673568835614 0.0 0.0
0.0 0.024861187515626815 0.02075622444182884 -0.0198734242470582 -0.0008828001947706617 -0.012307706605146185 0.0 0.0
0.0 0.032617018737547146 0.02729806945633775 -0.026345795309709815 -0.0009522741466278951 -0.015106394542322432 0.0 0.0
0.0 0.04120171229275722 0.034548855964477196 -0.033529738749427385 -0.0010191172150498477 -0.017918942060839275 0.0 0.0
0.0 0.05058506859137995 0.042537341536181175 -0.04145849683545877 -0.0010788447007223727 -0.020732441759359427 0.0 0.0
0.0 0.061025123748856554 0.05121458502463794 -0.05008640023267638 -0.0011281847919616043 -0.02335899607055154 0.0 0.0
0.0 0.07142052357460968 0.060427578864094264 -0.05925553209314427 -0.0011720467709500277 -0.025443777634342343 0.0 0.0
0.0 0.08260168175352664 0.06991352795163816 -0.06870271764357379 -0.0012108103080642292 -0.026521142305912578 0.0 0.0
0.0 0.09343910060265967 0.07924838030752729 -0.07802699817236021 -0.0012213821351671778 -0.025503725959251863 0.0 0.0
0.0 0.10276125033001554 0.08758064575803255 -0.08639252697031716 -0.001188118787715412 -0.02027651508035848 0.0 0.0
0.0 0.10934549047393503 0.09219818859801288 -0.09179661141285408 -0.0004015771851588035 2.337886828573943e-14 0.0 0.0
0.0 0.10276125033000322 0.08758064575801751 -0.08639252697030195 -0.0011881187877156262 0.020276515080412925 0.0 0.0
0.0 0.0934391006026352 0.07924838030750221 -0.07802699817233516 -0.0012213821351670523 0.02550372595930718 0.0 0.0
0.0 0.08260168175349193 0.06991352795160574 -0.06870271764354205 -0.0012108103080636925 0.0265211423059451 0.0 0.0
0.0 0.07142052357456717 0.06042757886405776 -0.05925553209310845 -0.0011720467709493095 0.025443777634347017 0.0 0.0
0.0 0.06102512374880544 0.05121458502459464 -0.0500864002326327 -0.001128184791961961 0.023358996070538623 0.0 0.0
0.0 0.05058506859133382 0.042537341536140846 -0.041458496835418926 -0.0010788447007218911 0.020732441759348567 0.0 0.0
0.0 0.04120171229271215 0.03454885596443836 -0.03352973874938892 -0.0010191172150494417 0.017918942060827777 0.0 0.0
0.0 0.032617018737503375 0.02729806945630063 -0.026345795309673258 -0.0009522741466273899 0.015106394542309814 0.0 0.0
0.0 0.024861187515585723 0.020756224441794723 -0.019873424247024478 -0.0008828001947702593 0.012307706605127903 0.0 0.0
0.0 0.01786092503480917 0.014892767643406048 -0.014076733950962105 -0.0008160336924439501 0.009452673568813344 0.0 0.0
0.0 0.011582693886235038 0.00976163485971732 -0.0090183807971063 -0.0007432540626110244 0.006584022053703695 0.0 0.0
0.0 0.00692094437887354 0.005523124655062321 -0.0048934683098862675 -0.0006296563451760475 0.0039007372718375846 0.0 0.0
0.0 0.002931805281617799 0.002476025057751458 -0.002051566319237039 -0.00042445873851441743 0.0018450763664935557 0.0 0.0
0.0 0.0008574567632407431 0.0006980531265428641 -0.0005356764933300769 -0.00016237663321278664 0.0005655459848286177 0.0 0.0
0.0 3.550204884353417e-05 3.321849947770029e-05 -2.131462592020967e-05 -1.1903873557490776e-05 9.431093696015229e-06 0.0 0.0
0.0 -8.852797043310076e-06 -6.125290819660421e-06 4.885166328697133e-06 1.2401244909632873e-06 -1.3132630573578185e-05 0.0 0.0
0.0 -3.9933846203843063e-07 2.3010864114477826e-08 -1.766508430182229e-08 -5.345779812654833e-09 7.114747970917023e-08 0.0 0.0
0.0 2.9041076910978675e-07 -3.44887986405181e-09 2.6803405077244864e-09 7.685393563274542e-10 -5.8645901335916544e-08 0.0 0.0
0.0 0.000615039716347505 0.0002675201388864792 -0.00012138205548024435 -0.0001461380834062349 0.0010785017284486386 0.0 0.0
0.0 0.0031230000615677447 0.0021649032329088057 -0.0030731698625501894 0.0009082666296413857 0.0016653594153354823 0.0 0.0
0.0 0.0023481298047055526 0.0012972480113131542 -0.0018645194718309324 0.0005672714605177774 -0.001122377452245185 0.0 0.0
0.0 0.0002365140880101016 0.00011454444858395832 -3.6805188258852495e-05 -7.773926032510595e-05 -0.00057547780730224 0.0 0.0
0.0 5.010420036625762e-07 2.089685636063014e-08 -2.164702090893245e-08 7.501645483029683e-10 -4.147733275738899e-07 0.0 0.0
0.0 -7.158787878970405e-07 3.00454182397493e-08 -2.322421287283008e-08 -6.821205366919502e-09 -1.8812807565200013e-07 0.0 0.0
0.0 -5.630075297558648e-06 -3.2837165927830333e-06 2.6010136835480955e-06 6.827029092349429e-07 1.1144681440807933e-05 0.0 0.0
0.0 -2.180037299453249e-05 -1.3320737098888507e-05 1.1650699619591012e-05 1.670037479297458e-06 3.1345280383626106e-05 0.0 0.0
0.0 0.00034978361718811664 0.0002584349985127201 -0.00019444625410055107 -6.39887444121688e-05 -0.00032642720436941853 0.0 0.0
0.0 0.0016573791278767858 0.0013336402034740036 -0.0010723690275566578 -0.0002612711759173457 -0.0014033568123304415 0.0 0.0
0.0 0.0043150636102450195 0.0034486618624096146 -0.0029667852359006107 -0.0004818766265090025 -0.0031778504588397707 0.0 0.0
0.0 0.008400633682478162 0.006547885004668165 -0.0059245002759624535 -0.0006233847287057042 -0.005566192350366806 0.0 0.0
0.0 0.012899522374536565 0.010406133788295035 -0.00969822730247969 -0.0007079064858153357 -0.00827305192261988 0.0 0.0
0.0 0.018186345437569716 0.01480438699978078 -0.014030086500448131 -0.000774300499332658 -0.010980957015536155 0.0 0.0
0.0 0.0241089018913797 0.019684027726539464 -0.01884602612190243 -0.0008380016046370103 -0.01362822760211902 0.0 0.0
0.0 0.03059046195216349 0.025088869950484028 -0.024191588171604876 -0.0008972817788791345 -0.016262258628093426 0.0 0.0
0.0 0.03784199390292336 0.031083460116698453 -0.030131729186086278 -0.0009517309306121794 -0.018898814212306193 0.0 0.0
0.0 0.0456569286254863 0.03769017027936159 -0.03669178068056071 -0.000998389598800837 -0.02139456300587022 0.0 0.0
0.0 0.054244824837230844 0.044830453117740365 -0.043790086771628774 -0.001040366346111584 -0.023421984483320182 0.0 0.0
0.0 0.0630085668708886 0.05242387326722705 -0.05132999815842038 -0.0010938751088066536 -0.024601194701765836 0.0 0.0
0.0 0.07200761215966571 0.06041978265026352 -0.059282192413739956 -0.0011375902365235223 -0.024285434841117438 0.0 0.0
0.0 0.08110497362272406 0.06839053858148766 -0.06727069254920666 -0.0011198460322810204 -0.020373718064848955 0.0 0.0
0.0 0.08861169920718458 0.07335759381310125 -0.07322321172037745 -0.0001343820927238563 2.0703057324045204e-14 0.0 0.0
0.0 0.08110497362271771 0.06839053858147677 -0.06727069254919563 -0.0011198460322810583 0.020373718064900584 0.0 0.0
0.0 0.07200761215964874 0.06041978265024401 -0.0592821924137206 -0.0011375902365234265 0.024285434841170423 0.0 0.0
0.0 0.06300856687086015 0.05242387326720022 -0.051329998158393945 -0.0010938751088062873 0.024601194701795275 0.0 0.0
0.0 0.05424482483719467 0.04483045311770972 -0.04379008677159873 -0.0010403663461109717 0.02342198448332173 0.0 0.0
0.0 0.04565692862544759 0.037690170279329395 -0.03669178068052869 -0.0009983895988007465 0.021394563005856404 0.0 0.0
0.0 0.03784199390288686 0.031083460116667114 -0.030131729186055535 -0.0009517309306115629 0.018898814212294494 0.0 0.0
0.0 0.030590461952133566 0.025088869950458483 -0.02419158817157984 -0.0008972817788786413 0.016262258628085186 0.0 0.0
0.0 0.024108901891346044 0.019684027726511424 -0.018846026121875064 -0.0008380016046363491 0.01362822760210644 0.0 0.0
0.0 0.01818634543753918 0.01480438699975572 -0.014030086500423434 -0.0007743004993322878 0.010980957015519344 0.0 0.0
0.0 0.012899522374507675 0.01040613378827245 -0.009698227302457733 -0.0007079064858147005 0.008273051922599282 0.0 0.0
0.0 0.00840063368245457 0.006547885004650051 -0.005924500275944602 -0.0006233847287054475 0.005566192350349589 0.0 0.0
0.0 0.0043150636102296785 0.0034486618623976568 -0.002966785235889634 -0.00048187662650802645 0.003177850458829885 0.0 0.0
0.0 0.0016573791278679828 0.0013336402034672178 -0.0010723690275509577 -0.00026127117591625946 0.0014033568123242577 0.0 0.0
0.0 0.0003497836171844865 0.0002584349985103612 -0.00019444625409871936 -6.39887444116416e-05 0.00032642720436619097 0.0 0.0
0.0 -2.180037299513898e-05 -1.3320737098469171e-05 1.1650699619257755e-05 1.6700374792114605e-06 -3.1345280382572044e-05 0.0 0.0
0.0 -5.6300752980730495e-06 -3.2837165928132554e-06 2.6010136835716138e-06 6.827029092416339e-07 -1.1144681440977643e-05 0.0 0.0
0.0 -7.158787882281787e-07 3.00454182499873e-08 -2.3224212879872476e-08 -6.821205370114724e-09 1.881280757825569e-07 0.0 0.0
0.0 5.01042003476404e-07 2.0896856387731928e-08 -2.16470209364581e-08 7.50164548726591e-10 4.147733281598393e-07 0.0 0.0
0.0 0.00023651408800731086 0.00011454444858283614 -3.680518825813528e-05 -7.773926032470096e-05 0.000575477807297985 0.0 0.0
0.0 0.0023481298046964067 0.0012972480113075677 -0.001864519471823078 0.0005672714605155099 0.0011223774522413877 0.0 0.0
0.0 0.0011759692500541992 0.0006941572757365355 -0.0010096780414028705 0.0003155207656663352 -0.0007329091579947139 0.0 0.0
0.0 6.327074882291138e-05 1.7927916174149464e-05 1.978489664847685e-05 -3.771281282262636e-05 -0.00020828804941131604 0.0 0.0
0.0 1.9741457422109756e-06 -1.1474722028770668e-09 1.0473938322209985e-08 -9.326466119332005e-09 5.316521626318083e-07 0.0 0.0
0.0 1.531911707618595e-06 -5.1342732774718276e-08 3.573198541755989e-08 1.5610747357158247e-08 7.336623540282569e-07 0.0 0.0
0.0 -5.856248723975631e-06 -1.8482088750599556e-06 1.4448866102045066e-06 4.0332226485544885e-07 1.0211705194009134e-05 0.0 0.0
0.0 -2.3027989889661998e-05 -9.001922827103363e-06 7.469832224827912e-06 1.5320906022754595e-06 2.2961785032585205e-05 0.0 0.0
0.0 9.72736862267978e-05 3.807264201556324e-05 -2.795385021889874e-05 -1.0118791796664571e-05 -0.00010873534441675383 0.0 0.0
0.0 0.0007758620634362187 0.0004707433602631365 -0.00037330901183695974 -9.743434842617724e-05 -0.0008190810473510014 0.0 0.0
0.0 0.002292620801946956 0.0016458818438858836 -0.0013737818928612196 -0.0002720999510246627 -0.00220126566089238 0.0 0.0
0.0 0.004879973895496109 0.0035857604111132696 -0.003150885295147215 -0.00043487511596605586 -0.004064331427622892 0.0 0.0
0.0 0.007973324188216942 0.006111808129778953 -0.005566084732219592 -0.0005457233975593614 -0.006297288316612062 0.0 0.0
0.0 0.011692114508784785 0.00902164301853985 -0.008400734578028392 -0.0006209084405114531 -0.008614874262840973 0.0 0.0
0.0 0.01573768865086956 0.01224486241293305 -0.011559706650120068 -0.0006851557628129798 -0.010938436794120062 0.0 0.0
0.0 0.02017295977197787 0.015815444090388684 -0.015076526150603696 -0.0007389179397849988 -0.013242158622409305 0.0 0.0
0.0 0.02515076056385851 0.019813382250672532 -0.01902561454867 -0.0007877677020025317 -0.015526920606312607 0.0 0.0
0.0 0.030746674665407484 0.024323023541842865 -0.023489910566071973 -0.0008331129757708877 -0.017748253562869777 0.0 0.0
0.0 0.03689465913335586 0.029370037296802303 -0.0284938477919741 -0.0008761895048281552 -0.019660402393917125 0.0 0.0
0.0 0.0433667904008223 0.034963829695728976 -0.03403378127075151 -0.0009300484249775289 -0.020838101997040278 0.0 0.0
0.0 0.05069284326576166 0.04134917317532653 -0.0403390554130033 -0.0010101177623231799 -0.02099365934859602 0.0 0.0
0.0 0.059344175868609725 0.04875059442332235 -0.04770619647790124 -0.0010443979454211238 -0.019122893281510716 0.0 0.0
0.0 0.06785900779821674 0.05412270008279494 -0.05429126255008847 0.00016856246729347115 1.8290924330699454e-14 0.0 0.0
0.0 0.0593441758686055 0.04875059442331264 -0.04770619647789095 -0.0010443979454216662 0.019122893281553473 0.0 0.0
0.0 0.05069284326575382 0.0413491731753144 -0.04033905541299184 -0.0010101177623225207 0.020993659348644347 0.0 0.0
0.0 0.04336679040079777 0.034963829695707195 -0.034033781270729174 -0.0009300484249779757 0.02083810199706218 0.0 0.0
0.0 0.036894659133327734 0.029370037296780015 -0.02849384779195227 -0.0008761895048277553 0.019660402393913767 0.0 0.0
0.0 0.03074667466537663 0.024323023541818214 -0.02348991056604698 -0.0008331129757712116 0.017748253562854668 0.0 0.0
0.0 0.02515076056383155 0.01981338225065049 -0.019025614548648373 -0.0007877677020021213 0.015526920606300048 0.0 0.0
0.0 0.020172959771958463 0.015815444090372232 -0.015076526150588025 -0.0007389179397842224 0.01324215862240318 0.0 0.0
0.0 0.01573768865084657 0.012244862412914777 -0.01155970665010186 -0.0006851557628129152 0.010938436794108964 0.0 0.0
0.0 0.011692114508761543 0.009021643018522587 -0.008400734578011371 -0.0006209084405112052 0.008614874262825239 0.0 0.0
0.0 0.00797332418819514 0.006111808129762639 -0.00556608473220393 -0.0005457233975587057 0.00629728831659363 0.0 0.0
0.0 0.00487997389547946 0.0035857604111012497 -0.0031508852951358845 -0.0004348751159653658 0.004064331427609481 0.0 0.0
0.0 0.0022926208019373034 0.0016458818438787757 -0.0013737818928550932 -0.00027209995102368226 0.0022012656608851803 0.0 0.0
0.0 0.0007758620634298034 0.00047074336025898034 -0.0003733090118335521 -9.743434842542819e-05 0.0008190810473448604 0.0 0.0
0.0 9.727368622444306e-05 3.8072642015206695e-05 -2.7953850218624133e-05 -1.0118791796582514e-05 0.00010873534441576912 0.0 0.0
0.0 -2.3027989889777818e-05 -9.001922826665541e-06 7.469832224496599e-06 1.5320906021689116e-06 -2.2961785030756078e-05 0.0 0.0
0.0 -5.856248723794791e-06 -1.8482088749167429e-06 1.4448866100986317e-06 4.0332226481812175e-07 -1.0211705192728425e-05 0.0 0.0
0.0 1.5319117069210196e-06 -5.1342732818970546e-08 3.573198545061548e-08 1.561074736835591e-08 -7.33662354483921e-07 0.0 0.0
0.0 1.974145742151407e-06 -1.1474721849577928e-09 1.0473938300663832e-08 -9.326466115705647e-09 -5.316521620069712e-07 0.0 0.0
0.0 6.327074882036269e-05 1.7927916173635383e-05 1.978489664874665e-05 -3.771281282238194e-05 0.00020828804940892148 0.0 0.0
0.0 0.0011759692500476647 0.000694157275732867 -0.0010096780413975874 0.0003155207656647203 0.0007329091579917545 0.0 0.0
0.0 0.0005375272113858972 0.00027643270206649897 -0.00040526148806858264 0.00012882878600208373 -0.00036057394981151426 0.0 0.0
0.0 -2.8461984308179825e-05 -1.9364127483363634e-05 3.46395068349469e-05 -1.5275379351583287e-05 -5.491724567818997e-06 0.0 0.0
0.0 1.999173869060837e-06 1.8022742251428124e-08 -4.096990734112236e-08 2.2947165089695154e-08 -1.0826535030596358e-06 0.0 0.0
0.0 4.4946407130617774e-07 -3.924225923544815e-08 3.190835403317046e-08 7.333905202275618e-09 -4.3027852724159716e-07 0.0 0.0
0.0 -4.4167272519546005e-06 -7.170997458253645e-07 5.845112821452508e-07 1.3258846368012167e-07 7.806025480645249e-06 0.0 0.0
0.0 -8.575611551148435e-06 -3.7964596168709913e-06 3.1787624519342047e-06 6.176971649367579e-07 1.8733952929748258e-05 0.0 0.0
0.0 4.2704758766634765e-05 -8.883040670168422e-07 9.907141547955882e-07 -1.024100877787061e-07 -5.2819737605973814e-05 0.0 0.0
0.0 0.00022383416841551616 4.561888236774554e-05 -3.8359215691290244e-05 -7.2596666764553615e-06 -0.0003387999376109633 0.0 0.0
0.0 0.0007661993265763846 0.0003133308445008399 -0.0002750304931895964 -3.830035131124304e-05 -0.0010815761858842185 0.0 0.0
0.0 0.001904319424787205 0.0010248774905469997 -0.0009160183718227434 -0.00010885911872425753 -0.0023305237678972078 0.0 0.0
0.0 0.0037263575818967296 0.002178456376742055 -0.0019774438476190138 -0.0002010125291230392 -0.0038981985395088875 0.0 0.0
0.0 0.00562522312037479 0.0035816098109810977 -0.0032974184144350426 -0.0002841913965460592 -0.005644373355412594 0.0 0.0
0.0 0.007881220504238387 0.005144225306637694 -0.004786892923044824 -0.0003573323835928651 -0.00748017325024054 0.0 0.0
0.0 0.01041806179756486 0.00689433041636326 -0.006475213754568197 -0.0004191166617950623 -0.009380441612372127 0.0 0.0
0.0 0.013252833374328215 0.00890301631996343 -0.008426974644875709 -0.00047604167508772305 -0.01133957919819975 0.0 0.0
0.0 0.016532298609953134 0.011288579873817 -0.010755262015522935 -0.0005333178582940621 -0.013344708675404542 0.0 0.0
0.0 0.020427267506596493 0.01420073860361045 -0.01360673422684705 -0.000594004376763409 -0.015248546100067147 0.0 0.0
0.0 0.024983615823170158 0.017769725420379426 -0.01711381176571172 -0.0006559136546677004 -0.01656911815558459 0.0 0.0
0.0 0.030214787438028422 0.022262740594374466 -0.02152283537971391 -0.0007399052146605764 -0.01675512536618106 0.0 0.0
0.0 0.037207229723462534 0.028547299372201133 -0.027655624673218464 -0.000891674698982619 -0.01616813821087739 0.0 0.0
0.0 0.04810800892574172 0.03424502599822646 -0.03476889612850157 0.0005238701302751334 1.511984981661385e-14 0.0 0.0
0.0 0.03720722972346617 0.028547299372197354 -0.027655624673213648 -0.000891674698983741 0.016168138210913438 0.0 0.0
0.0 0.030214787438024474 0.022262740594367288 -0.02152283537970685 -0.0007399052146604467 0.016755125366217268 0.0 0.0
0.0 0.024983615823157248 0.017769725420369597 -0.017113811765701203 -0.0006559136546683852 0.016569118155599014 0.0 0.0
0.0 0.020427267506577276 0.01420073860359877 -0.013606734226836087 -0.0005940043767627 0.01524854610005889 0.0 0.0
0.0 0.016532298609935818 0.011288579873805224 -0.010755262015510596 -0.0005333178582946352 0.01334470867539153 0.0 0.0
0.0 0.013252833374316217 0.008903016319954795 -0.008426974644866676 -0.00047604167508812274 0.011339579198190662 0.0 0.0
0.0 0.01041806179755293 0.006894330416355583 -0.006475213754560637 -0.00041911666179495464 0.009380441612365072 0.0 0.0
0.0 0.007881220504228929 0.005144225306632321 -0.004786892923039523 -0.0003573323835927997 0.00748017325023298 0.0 0.0
0.0 0.005625223120361277 0.003581609810972975 -0.00329741841442725 -0.00028419139654572295 0.005644373355399539 0.0 0.0
0.0 0.0037263575818834295 0.002178456376734087 -0.0019774438476114972 -0.00020101252912258896 0.003898198539495124 0.0 0.0
0.0 0.0019043194247788777 0.001024877490542503 -0.000916018371818412 -0.00010885911872409205 0.002330523767888784 0.0 0.0
0.0 0.0007661993265723303 0.00031333084449862897 -0.00027503049318751096 -3.830035131111726e-05 0.001081576185879311 0.0 0.0
0.0 0.00022383416841329884 4.56188823670513e-05 -3.835921569068194e-05 -7.259666676369481e-06 0.000338799937608229 0.0 0.0
0.0 4.270475876603919e-05 -8.883040668242947e-07 9.90714154647616e-07 -1.0241008782330009e-07 5.281973760657349e-05 0.0 0.0
0.0 -8.575611552281323e-06 -3.7964596168614533e-06 3.1787624519204417e-06 6.176971649410101e-07 -1.873395292943279e-05 0.0 0.0
0.0 -4.4167272519779955e-06 -7.170997458024696e-07 5.845112821315956e-07 1.325884636708707e-07 -7.806025479887629e-06 0.0 0.0
0.0 4.4946407146156096e-07 -3.9242259251331326e-08 3.190835405141802e-08 7.333905199914081e-09 4.302785282163017e-07 0.0 0.0
0.0 1.999173868884333e-06 1.8022742255313438e-08 -4.096990736085292e-08 2.29471651055357e-08 1.0826535040195124e-06 0.0 0.0
0.0 -2.846198430924381e-05 -1.9364127483362303e-05 3.4639506834832246e-05 -1.527537935146987e-05 5.4917245670293685e-06 0.0 0.0
0.0 0.0005375272113816108 0.00027643270206447406 -0.0004052614880656254 0.00012882878600115074 0.000360573949809316 0.0 0.0
0.0 0.0001021528490633627 5.878793149625579e-05 -8.808404828622472e-05 2.9296116789968882e-05 -9.502898438397476e-05 0.0 0.0
0.0 -1.7621867021769798e-05 -9.988941468686085e-06 1.3993578900301771e-05 -4.004637431615673e-06 1.9445842770762524e-05 0.0 0.0
0.0 2.7746945771601943e-06 1.0674797302157485e-07 -6.831487310000192e-08 -3.843309992157832e-08 2.8216955920095593e-06 0.0 0.0
0.0 1.9591347285635554e-06 -1.0294050694013561e-07 8.196408276686858e-08 2.097642417327042e-08 -1.1601354402882992e-06 0.0 0.0
0.0 -1.9763041434412202e-06 -1.669913458652958e-07 1.6523421916792397e-07 1.7571266973707815e-09 3.027541478368501e-06 0.0 0.0
0.0 -1.1646020468767435e-07 -8.375861780375558e-07 8.697496707769316e-07 -3.216349273937623e-08 8.356125625521646e-06 0.0 0.0
0.0 5.300207799777481e-05 -1.4516259099420443e-06 1.453212425637475e-06 -1.5865156954447088e-09 -6.796151323455874e-05 0.0 0.0
0.0 0.0001660211828150918 -1.029644405023135e-06 9.858924570695162e-07 4.3751947953663146e-08 -0.0002846088216816353 0.0 0.0
0.0 0.00039544091159164044 -2.53906596495106e-07 2.3584884932877244e-07 1.80577471663268e-08 -0.0006066417402733884 0.0 0.0
0.0 0.0006516129686506396 5.046287697558734e-08 -1.9251299179308845e-08 -3.121157779645129e-08 -0.0012128686750781156 0.0 0.0
0.0 0.001166750946271963 6.573494811568407e-07 -8.572257313681767e-07 1.998762502113699e-07 -0.0021964686244974204 0.0 0.0
0.0 0.001874202121205743 -5.47221432830214e-06 7.433764215781038e-06 -1.9615498874786134e-06 -0.0037018009097911433 0.0 0.0
0.0 0.002947824578625562 -1.8698709519658022e-05 2.2308099188808443e-05 -3.6093896691492144e-06 -0.005400180090005297 0.0 0.0
0.0 0.00420143443227034 -3.097963770868435e-05 3.357200908105345e-05 -2.5923713723683957e-06 -0.007207916044367405 0.0 0.0
0.0 0.0056115795737623105 1.4738330849587995e-05 -2.2446801742288846e-05 7.708470892701095e-06 -0.009132196519850864 0.0 0.0
0.0 0.007142268388085898 0.00025659851580395047 -0.0002890842952131175 3.2485779409165285e-05 -0.011175601627194017 0.0 0.0
0.0 0.008842934466826095 0.0009404709485182147 -0.0010185776109520252 7.810666243381214e-05 -0.013275881654031875 0.0 0.0
0.0 0.010647063702601704 0.0022943012412552357 -0.0024894278038925417 0.00019512656263729936 -0.015247720968753115 0.0 0.0
0.0 0.013156831464592985 0.004022907074769599 -0.004402018138381118 0.00037911106361152155 -0.01668250261998886 0.0 0.0
0.0 0.01915219626758157 0.008137052042363998 -0.007903090562349115 -0.00023396148001488185 -0.017033777855828117 0.0 0.0
0.0 0.03392023881494262 0.014512227081843599 -0.015595546358121909 0.0010833192762783044 1.1630453544686503e-14 0.0 0.0
0.0 0.01915219626759058 0.008137052042364387 -0.007903090562349259 -0.00023396148001512138 0.017033777855854804 0.0 0.0
0.0 0.013156831464587921 0.004022907074767019 -0.00440201813837917 0.0003791110636121442 0.016682502619997305 0.0 0.0
0.0 0.010647063702592413 0.002294301241255516 -0.0024894278038939447 0.0001951265626384287 0.01524772096875055 0.0 0.0
0.0 0.008842934466815184 0.0009404709485184616 -0.0010185776109522162 7.810666243375673e-05 0.013275881654019656 0.0 0.0
0.0 0.007142268388079344 0.0002565985158053158 -0.00028908429521460764 3.248577940929292e-05 0.011175601627183063 0.0 0.0
0.0 0.005611579573754332 1.4738330852288309e-05 -2.2446801745234298e-05 7.708470892945474e-06 0.00913219651984258 0.0 0.0
0.0 0.004201434432262661 -3.097963770571906e-05 3.3572009077892785e-05 -2.592371372172345e-06 0.007207916044357214 0.0 0.0
0.0 0.0029478245786181676 -1.8698709517314845e-05 2.2308099186284366e-05 -3.609389668969806e-06 0.0054001800899942075 0.0 0.0
0.0 0.0018742021211961678 -5.4722143271256725e-06 7.4337642145310616e-06 -1.9615498874057144e-06 0.0037018009097784118 0.0 0.0
0.0 0.0011667509462667785 6.573494814599294e-07 -8.572257317312218e-07 1.9987625027139403e-07 0.0021964686244886366 0.0 0.0
0.0 0.0006516129686481346 5.046287642852603e-08 -1.9251298737537118e-08 -3.121157769090421e-08 0.0012128686750760588 0.0 0.0
0.0 0.00039544091159055434 -2.539065965517429e-07 2.3584884935735472e-07 1.8057747194259407e-08 0.000606641740271856 0.0 0.0
0.0 0.00016602118281385534 -1.0296444049741667e-06 9.85892457040674e-07 4.375194793349402e-08 0.000284608821679458 0.0 0.0
0.0 5.300207799659035e-05 -1.4516259099745246e-06 1.4532124256656205e-06 -1.5865156910772547e-09 6.796151323420794e-05 0.0 0.0
0.0 -1.1646020586258111e-07 -8.375861780161869e-07 8.697496707616047e-07 -3.216349274542378e-08 -8.356125625259702e-06 0.0 0.0
0.0 -1.97630414344397e-06 -1.6699134589103175e-07 1.652342191919382e-07 1.7571266990970359e-09 -3.027541477646925e-06 0.0 0.0
0.0 1.9591347285386047e-06 -1.0294050700411108e-07 8.196408282335288e-08 2.09764241807573e-08 1.1601354412035624e-06 0.0 0.0
0.0 2.7746945764451155e-06 1.0674797304182657e-07 -6.831487311449305e-08 -3.843309992732366e-08 -2.8216955924914245e-06 0.0 0.0
0.0 -1.7621867021745455e-05 -9.988941468331415e-06 1.3993578899889608e-05 -4.004637431558204e-06 -1.944584276945889e-05 0.0 0.0
0.0 0.00010215284906168921 5.878793149585024e-05 -8.808404828566849e-05 2.9296116789818344e-05 9.502898438326914e-05 0.0 0.0
0.0 1.724492162726249e-06 -1.1109071213428977e-06 1.4054169211301491e-06 -2.945097997872665e-07 2.7878212902624504e-06 0.0 0.0
0.0 -7.265443386491655e-07 1.8648869059162026e-07 -2.1546991176505348e-07 2.8981221173435747e-08 3.575750592488219e-07 0.0 0.0
0.0 6.009002776931171e-07 8.08737740223675e-08 -1.1555699831053289e-07 3.4683224288164876e-08 -1.1153700168257913e-06 0.0 0.0
0.0 2.906302935284291e-06 -9.620748115825489e-08 6.697499904296516e-08 2.9232482115288812e-08 -1.961019761372111e-06 0.0 0.0
0.0 1.6666086211184579e-06 -2.3552814164711366e-07 2.2529604151140482e-07 1.0232100135709065e-08 -2.032615283816223e-06 0.0 0.0
0.0 -7.006941294408187e-07 -8.82416200888717e-08 3.285812425823165e-07 -2.4033962249340304e-07 -3.9117877377654944e-06 0.0 0.0
0.0 6.795453721830186e-05 -2.419695681131167e-06 2.2249446112489513e-06 1.9475106988215123e-07 -6.18733858472786e-05 0.0 0.0
0.0 0.00023659015374450179 -5.011570277380615e-05 4.240593546293345e-05 7.70976731087265e-06 -0.0003499140986280659 0.0 0.0
0.0 0.0007695930847716281 -0.00031483563400688385 0.00027627520392102767 3.8560430085856655e-05 -0.0010875156918539722 0.0 0.0
0.0 0.0019021781153498857 -0.0010237708036772118 0.0009149920935613784 0.00010877871011583329 -0.0023300552881934944 0.0 0.0
0.0 0.003738270397417964 -0.0021792650452069984 0.0019783277161990204 0.00020093732900797626 -0.003895154302758424 0.0 0.0
0.0 0.005659372029384834 -0.003602671465712688 0.0033155030486150495 0.000287168417097634 -0.005648814644172153 0.0 0.0
0.0 0.007942460318198612 -0.005198894037544734 0.00483691976402709 0.00036197427351764325 -0.0074847210217321705 0.0 0.0
0.0 0.010488343016734972 -0.0069640242470046 0.006545328465900328 0.0004186957811042719 -0.009375946828096943 0.0 0.0
0.0 0.01314432660292899 -0.00883588387242097 0.00838331448570774 0.00045256938671322215 -0.011340920028710996 0.0 0.0
0.0 0.015780454032109353 -0.010625063720006264 0.010169024506431054 0.00045603921357520954 -0.013442351432088193 0.0 0.0
0.0 0.01801997355628241 -0.011987716345337157 0.011566446354036237 0.00042126999130092556 -0.015721016034812525 0.0 0.0
0.0 0.01965017815295058 -0.012465177615079804 0.012130555289134887 0.00033462232594492423 -0.01824241988209311 0.0 0.0
0.0 0.019770245915668314 -0.01152184857873699 0.011381364184639942 0.00014048439409704506 -0.0209628589536839 0.0 0.0
0.0 0.016114331540183706 -0.008332115627571534 0.008673948255197125 -0.0003418326276255852 -0.022870830346365507 0.0 0.0
0.0 0.03268314644455896 -0.004647719158620675 0.0022534732653377728 0.002394245893282897 1.6400943103622723e-14 0.0 0.0
0.0 0.016114331540190274 -0.008332115627572122 0.00867394825519726 -0.00034183262762514123 0.022870830346382293 0.0 0.0
0.0 0.019770245915665223 -0.011521848578732853 0.011381364184635893 0.00014048439409695355 0.020962858953698288 0.0 0.0
0.0 0.019650178152937056 -0.012465177615069763 0.012130555289125922 0.00033462232594384073 0.018242419882093866 0.0 0.0
0.0 0.018019973556267454 -0.011987716345326638 0.011566446354025983 0.0004212699913006693 0.015721016034804646 0.0 0.0
0.0 0.015780454032090604 -0.010625063719993066 0.010169024506418173 0.00045603921357489365 0.013442351432073013 0.0 0.0
0.0 0.013144326602913665 -0.008835883872408237 0.00838331448569599 0.0004525693867122396 0.011340920028700869 0.0 0.0
0.0 0.010488343016716912 -0.006964024246990588 0.006545328465886628 0.00041869578110395936 0.009375946828085171 0.0 0.0
0.0 0.007942460318182 -0.005198894037532816 0.0048369197640157026 0.0003619742735171154 0.007484721021720283 0.0 0.0
0.0 0.005659372029364591 -0.0036026714656986094 0.0033155030486017086 0.0002871684170968992 0.005648814644155101 0.0 0.0
0.0 0.003738270397400881 -0.0021792650451960037 0.001978327716188906 0.00020093732900709692 0.003895154302743723 0.0 0.0
0.0 0.0019021781153380673 -0.0010237708036694958 0.0009149920935545828 0.00010877871011491397 0.002330055288183527 0.0 0.0
0.0 0.0007695930847673265 -0.0003148356340045805 0.0002762752039190128 3.85604300855677e-05 0.0010875156918493838 0.0 0.0
0.0 0.00023659015374264243 -5.0115702773441035e-05 4.240593546268226e-05 7.709767310758821e-06 0.0003499140986261201 0.0 0.0
0.0 6.79545372171247e-05 -2.4196956812969797e-06 2.224944611370741e-06 1.9475106992622638e-07 6.187338584739636e-05 0.0 0.0
0.0 -7.006941302547888e-07 -8.824162017513809e-08 3.285812426406136e-07 -2.4033962246547446e-07 3.911787738525999e-06 0.0 0.0
0.0 1.6666086205879872e-06 -2.3552814177924768e-07 2.2529604162527477e-07 1.0232100153962877e-08 2.0326152849238828e-06 0.0 0.0
0.0 2.9063029348144098e-06 -9.620748126477843e-08 6.697499913065099e-08 2.923248213412829e-08 1.9610197623248984e-06 0.0 0.0
0.0 6.009002773178345e-07 8.08737740058032e-08 -1.1555699830646655e-07 3.46832243006588e-08 1.1153700174937837e-06 0.0 0.0
0.0 -7.265443385934064e-07 1.8648869048899954e-07 -2.154699116468872e-07 2.8981221157886578e-08 -3.575750593685845e-07 0.0 0.0
0.0 1.7244921613069512e-06 -1.1109071208644698e-06 1.405416920415422e-06 -2.9450979955093667e-07 -2.7878212892515318e-06 0.0 0.0
0.0 -5.791226492451871e-07 3.285152939261595e-08 -4.863961923435168e-08 1.5788089841737027e-08 -8.324711323925468e-08 0.0 0.0
0.0 1.1318704871214428e-06 2.4890808462751897e-09 1.7886990852122394e-08 -2.0376071698402378e-08 2.59600107460289e-07 0.0 0.0
0.0 -5.067852631549877e-07 2.8033862365717333e-07 -2.2844197558214946e-07 -5.1896648075032976e-08 2.0101819017877895e-06 0.0 0.0
0.0 1.6559620859364361e-06 -4.4175200795881723e-07 3.443441512224769e-07 9.740785673632865e-08 -3.883246595603338e-06 0.0 0.0
0.0 3.7492324591399715e-06 2.1231861348553772e-06 -1.7381327946221356e-06 -3.850533402331791e-07 8.626104968137779e-06 0.0 0.0
0.0 1.541778837689414e-05 4.530571143321501e-06 -3.4780427127713577e-06 -1.0525284305501512e-06 7.254596430730727e-06 0.0 0.0
0.0 0.00011347420957004004 -5.746283620074799e-05 4.429768204239689e-05 1.3165154158351156e-05 -0.0001695012132227577 0.0 0.0
0.0 0.0007946968346965906 -0.0004790302804560771 0.0003806319398905499 9.839834056552703e-05 -0.0008396501822086125 0.0 0.0
0.0 0.0022928047870420186 -0.0016454623322461734 0.0013732135533501958 0.00027224877889597663 -0.00220485532868915 0.0 0.0
0.0 0.0048766003692369345 -0.0035841683751917123 0.0031492619368901358 0.0004349064383015746 -0.004061311901590878 0.0 0.0
0.0 0.00797807861674807 -0.00611637364841669 0.005570470203579715 0.000545903444836976 -0.006297592692253294 0.0 0.0
0.0 0.011715844912983464 -0.009041861038601355 0.008420195932759028 0.0006216651058423355 -0.008616124068982167 0.0 0.0
0.0 0.01578701448535471 -0.012292752450725752 0.011606765434787196 0.0006859870159385449 -0.010912311189791942 0.0 0.0
0.0 0.020217747984569795 -0.015873924789163812 0.01513781582973176 0.0007361089594320446 -0.013161019166004779 0.0 0.0
0.0 0.025033473366214153 -0.019740280695045378 0.018969613658476693 0.0007706670365686798 -0.015454081624398996 0.0 0.0
0.0 0.03002645924764297 -0.02369028865833417 0.02290615875602985 0.0007841299023043024 -0.01799832993024371 0.0 0.0
0.0 0.034716963095423235 -0.027318771845434582 0.026541744858705703 0.0007770269867288801 -0.021015478986234293 0.0 0.0
0.0 0.03831480063528357 -0.03004504116893942 0.02929207522599542 0.0007529659429439937 -0.024613893697439968 0.0 0.0
0.0 0.040133426820335584 -0.030825280361261878 0.03016242718511776 0.0006628531761441014 -0.028104316962470247 0.0 0.0
0.0 0.03732770710316079 -0.027457979658984527 0.026975527720558702 0.0004824519384258162 -0.02889348426277229 0.0 0.0
0.0 0.04011824513683284 -0.022105249710776254 0.018922344829364425 0.003182904881411808 1.7446981359636737e-14 0.0 0.0
0.0 0.03732770710317146 -0.027457979658984097 0.02697552772055876 0.0004824519384253608 0.028893484262813202 0.0 0.0
0.0 0.04013342682032938 -0.030825280361250987 0.030162427185106755 0.0006628531761442164 0.028104316962504178 0.0 0.0
0.0 0.038314800635265434 -0.03004504116892259 0.029292075225979347 0.0007529659429432613 0.0246138936974536 0.0 0.0
0.0 0.03471696309539224 -0.0273187718454099 0.026541744858680324 0.0007770269867295807 0.021015478986226716 0.0 0.0
0.0 0.030026459247613706 -0.023690288658310413 0.022906158756006708 0.0007841299023037116 0.017998329930227815 0.0 0.0
0.0 0.025033473366186186 -0.01974028069502247 0.018969613658454412 0.000770667036568065 0.015454081624385173 0.0 0.0
0.0 0.020217747984543774 -0.0158739247891415 0.015137815829709926 0.0007361089594315642 0.013161019165992155 0.0 0.0
0.0 0.015787014485326194 -0.01229275245070299 0.011606765434764615 0.000685987015938372 0.01091231118977754 0.0 0.0
0.0 0.011715844912953487 -0.00904186103857831 0.008420195932736943 0.0006216651058413653 0.008616124068961293 0.0 0.0
0.0 0.007978078616721354 -0.006116373648396349 0.005570470203559608 0.000545903444836742 0.006297592692232353 0.0 0.0
0.0 0.004876600369215976 -0.003584168375175968 0.00314926193687526 0.00043490643830070957 0.004061311901575644 0.0 0.0
0.0 0.0022928047870302147 -0.0016454623322373827 0.0013732135533425036 0.0002722487788948787 0.0022048553286805874 0.0 0.0
0.0 0.000794696834691406 -0.00047903028045265787 0.0003806319398878532 9.839834056480412e-05 0.0008396501822040144 0.0 0.0
0.0 0.00011347420956721812 -5.746283620001068e-05 4.429768204180259e-05 1.3165154158208094e-05 0.00016950121322089283 0.0 0.0
0.0 1.5417788376461192e-05 4.530571142922597e-06 -3.478042712457184e-06 -1.0525284304655182e-06 -7.254596429608405e-06 0.0 0.0
0.0 3.749232458386117e-06 2.1231861346447295e-06 -1.7381327944484617e-06 -3.8505334019625877e-07 -8.626104967120016e-06 0.0 0.0
0.0 1.6559620856931824e-06 -4.4175200808951436e-07 3.4434415133093794e-07 9.74078567585822e-08 3.883246596478735e-06 0.0 0.0
0.0 -5.067852638425765e-07 2.8033862365124103e-07 -2.2844197558852277e-07 -5.189664806271352e-08 -2.0101819014424897e-06 0.0 0.0
0.0 1.1318704867673684e-06 2.489080858052637e-09 1.7886990844237653e-08 -2.0376071702291904e-08 -2.59600107621967e-07 0.0 0.0
0.0 -5.791226488939735e-07 3.285152937202806e-08 -4.863961920387383e-08 1.57880898318369e-08 8.324711318699175e-08 0.0 0.0
0.0 0.0 0.0 0.0 0.0 0.0 0.0 0.0
0.0 1.2793262250216665e-07 8.703308849541075e-11 4.028570319636627e-09 -4.115603408136257e-09 2.4778079492361678e-08 0.0 0.0
0.0 7.193377104905811e-07 2.2137689145964035e-07 -1.7228240960801016e-07 -4.90944818516234e-08 1.2804291493559267e-06 0.0 0.0
0.0 7.951079797431615e-07 1.1521117322980304e-06 -9.654938535838543e-07 -1.866178787141763e-07 3.3284605617552344e-06 0.0 0.0
0.0 1.951470434101853e-06 2.2838402705259636e-06 -1.7929163803126855e-06 -4.909238902133138e-07 2.4004657177564082e-06 0.0 0.0
0.0 1.5109824594351585e-05 -1.6616316860947963e-05 1.2529636139182592e-05 4.086680721765427e-06 -4.221998955545488e-05 0.0 0.0
0.0 0.00042858942955433454 -0.0002798677096947608 0.00021376495776138007 6.610275193338056e-05 -0.00036801253795147706 0.0 0.0
0.0 0.0016737446874285288 -0.001337360108056731 0.0010760163592758868 0.00026134374878084325 -0.0014192089171338677 0.0 0.0
0.0 0.0043109261976544055 -0.0034451361005896253 0.0029631256612618452 0.00048201043932777896 -0.00317534731426552 0.0 0.0
0.0 0.00839968185635534 -0.006547369546120361 0.005923892287969805 0.0006234772581505648 -0.005562278599694232 0.0 0.0
0.0 0.012902714744473614 -0.010412625208614282 0.009704894776078284 0.0007077304325359818 -0.008274976646655842 0.0 0.0
0.0 0.01820418076108546 -0.014819615610788282 0.014045385412453395 0.0007742301983348842 -0.010974803353168456 0.0 0.0
0.0 0.024130002954204293 -0.019710092174339573 0.018872037657914703 0.0008380545164248833 -0.01356531642523323 0.0 0.0
0.0 0.030583641007615493 -0.025110543989744417 0.0242153263072982 0.0008952176824461781 -0.0160828596385557 0.0 0.0
0.0 0.037692721777121886 -0.030998305925338192 0.030059485886513408 0.0009388200388247995 -0.018697193603394047 0.0 0.0
0.0 0.045064207315789834 -0.03717452505298966 0.03621468302785913 0.0009598420251304908 -0.02174927820797169 0.0 0.0
0.0 0.052558182634301634 -0.04314835353825932 0.04219393632031104 0.0009544172179482492 -0.025680941617332604 0.0 0.0
0.0 0.058733656870654044 -0.04801219635221061 0.047107226847454456 0.0009049695047561415 -0.03048097687484484 0.0 0.0
0.0 0.06190143743529948 -0.0501298085099351 0.04933286529847944 0.0007969432114556262 -0.0348384860172481 0.0 0.0
0.0 0.05828741824892301 -0.046436250746923056 0.04590764884714693 0.0005286018997761216 -0.036152016199451756 0.0 0.0
0.0 0.055773348902716804 -0.03925096278047968 0.035341348001370024 0.0039096147791096835 1.99779429110869e-14 0.0 0.0
0.0 0.05828741824892881 -0.046436250746918976 0.04590764884714314 0.0005286018997758485 0.036152016199499114 0.0 0.0
0.0 0.06190143743528961 -0.05012980850991973 0.049332865298464576 0.0007969432114551262 0.03483848601729224 0.0 0.0
0.0 0.05873365687062679 -0.04801219635218468 0.047107226847428914 0.0009049695047557407 0.030480976874865142 0.0 0.0
0.0 0.05255818263425847 -0.04314835353822279 0.042193936320274586 0.0009544172179482165 0.025680941617327563 0.0 0.0
0.0 0.04506420731574657 -0.037174525052953586 0.03621468302782317 0.0009598420251303953 0.02174927820795499 0.0 0.0
0.0 0.03769272177708251 -0.030998305925305215 0.030059485886481177 0.0009388200388240459 0.018697193603378105 0.0 0.0
0.0 0.030583641007577475 -0.02511054398971197 0.024215326307266333 0.0008952176824456193 0.01608285963854148 0.0 0.0
0.0 0.024130002954162212 -0.019710092174304774 0.01887203765788009 0.0008380545164246776 0.013565316425216021 0.0 0.0
0.0 0.018204180761047472 -0.014819615610757793 0.014045385412423509 0.0007742301983342804 0.010974803353147196 0.0 0.0
0.0 0.012902714744434104 -0.010412625208583024 0.009704894776047001 0.0007077304325360124 0.008274976646630097 0.0 0.0
0.0 0.008399681856326334 -0.0065473695460973235 0.005923892287947504 0.0006234772581498207 0.005562278599675517 0.0 0.0
0.0 0.0043109261976360565 -0.003445136100575275 0.002963125661248807 0.00048201043932646415 0.0031753473142543927 0.0 0.0
0.0 0.0016737446874186095 -0.0013373601080492183 0.001076016359269542 0.00026134374877967643 0.0014192089171266395 0.0 0.0
0.0 0.0004285894295486939 -0.00027986770969127834 0.00021376495775864412 6.610275193263441e-05 0.00036801253794696136 0.0 0.0
0.0 1.5109824593641277e-05 -1.661631686121855e-05 1.2529636139408336e-05 4.086680721810204e-06 4.22199895562784e-05 0.0 0.0
0.0 1.951470433852185e-06 2.2838402702013836e-06 -1.7929163800479174e-06 -4.909238901534615e-07 -2.400465716817387e-06 0.0 0.0
0.0 7.951079791752504e-07 1.1521117321012528e-06 -9.654938534246682e-07 -1.8661787867658325e-07 -3.3284605607720147e-06 0.0 0.0
0.0 7.193377099821378e-07 2.2137689149451736e-07 -1.7228240963739574e-07 -4.9094481857128224e-08 -1.280429149529398e-06 0.0 0.0
0.0 1.2793262222365965e-07 8.703308583074716e-11 4.028570317766604e-09 -4.115603403594462e-09 -2.4778079435018216e-08 0.0 0.0
0.0 0.0 0.0 0.0 0.0 0.0 0.0 0.0
0.0 0.0 0.0 0.0 0.0 0.0 0.0 0.0
0.0 -1.2025212151614905e-07 -2.8111852206668733e-09 1.9303984439410896e-09 8.807867767261456e-10 -2.3879236813071873e-08 0.0 0.0
0.0 -2.0751366834054438e-07 1.1911148415469697e-07 -9.451317783995818e-08 -2.459830631474173e-08 5.390513889229389e-07 0.0 0.0
0.0 -2.4388701007729417e-06 4.874631682618309e-07 -3.959752342043717e-07 -9.148793405744926e-08 8.669326489770548e-07 0.0 0.0
0.0 -9.504448494860823e-07 7.097547093268452e-06 -5.8467804295718986e-06 -1.250766663696544e-06 1.3698115221505876e-05 0.0 0.0
0.0 0.0001293277874798262 -7.261758471880807e-05 5.3690494773089716e-05 1.8927089945718263e-05 -7.450645655237393e-05 0.0 0.0
0.0 0.0008803668685429015 -0.0007253195102922314 0.0005608774343026262 0.00016444207598960566 -0.0006271141041394693 0.0 0.0
0.0 0.0029368051903878993 -0.002472904610195721 0.0020486793489701855 0.0004242252612255339 -0.0018530728979378056 0.0 0.0
0.0 0.006914784202640856 -0.005518689156435073 0.00488864585520835 0.0006300433012267243 -0.0038938572922530275 0.0 0.0
0.0 0.011583374309574415 -0.00976352205149271 0.009020250988519062 0.0007432710629736515 -0.006580978466425461 0.0 0.0
0.0 0.017870888307668933 -0.014900201820192843 0.014084678656288842 0.0008155231639039998 -0.009454551471417227 0.0 0.0
0.0 0.024867545088759945 -0.020762011857569165 0.019880234261440928 0.0008817775961282163 -0.012293385427166332 0.0 0.0
0.0 0.032597941490385335 -0.02728945153572334 0.026338175863327658 0.0009512756723956849 -0.01501363588478403 0.0 0.0
0.0 0.04112561056967485 -0.034511705656755806 0.033493268418085795 0.001018437238669987 -0.01766361063198718 0.0 0.0
0.0 0.0504096218913632 -0.04243597402639475 0.041362399035783676 0.0010735749906110488 -0.02041729401710647 0.0 0.0
0.0 0.0606188758046367 -0.05087378719377707 0.04977150541399698 0.0011022817797801078 -0.023722455551408488 0.0 0.0
0.0 0.07025133561369136 -0.05921202624960439 0.05812361339776635 0.0010884128518379669 -0.028125535412974256 0.0 0.0
0.0 0.07900380043460485 -0.06613181347286434 0.06511918419309301 0.0010126292797713707 -0.03357595762420223 0.0 0.0
0.0 0.08356694542108278 -0.0693110857896346 0.06846323406991806 0.0008478517197165114 -0.03871938552032291 0.0 0.0
0.0 0.07902395463566848 -0.06486294394887354 0.06433428383278614 0.0005286601160874264 -0.040702632668713115 0.0 0.0
0.0 0.07295345953367213 -0.056023970646945136 0.051491406045059696 0.004532564601885289 1.984697128865065e-14 0.0 0.0
0.0 0.07902395463566568 -0.06486294394886304 0.06433428383277608 0.0005286601160869988 0.04070263266876081 0.0 0.0
0.0 0.08356694542106562 -0.06931108578961365 0.06846323406989731 0.0008478517197162817 0.038719385520370825 0.0 0.0
0.0 0.07900380043456869 -0.06613181347283034 0.06511918419305922 0.001012629279770987 0.03357595762422838 0.0 0.0
0.0 0.07025133561364028 -0.059212026249560706 0.0581236133977221 0.0010884128518386007 0.02812553541297206 0.0 0.0
0.0 0.06061887580458188 -0.05087378719373045 0.04977150541395037 0.0011022817797800217 0.023722455551394007 0.0 0.0
0.0 0.050409621891313074 -0.04243597402635177 0.041362399035741515 0.0010735749906102673 0.020417294017090255 0.0 0.0
0.0 0.041125610569622155 -0.03451170565671052 0.03349326841804123 0.0010184372386692992 0.017663610631970476 0.0 0.0
0.0 0.032597941490330976 -0.02728945153567777 0.026338175863281882 0.0009512756723958748 0.01501363588476488 0.0 0.0
0.0 0.024867545088711467 -0.020762011857528608 0.019880234261400717 0.0008817775961278741 0.012293385427144574 0.0 0.0
0.0 0.017870888307623525 -0.014900201820155282 0.014084678656251712 0.0008155231639035871 0.00945455147139117 0.0 0.0
0.0 0.011583374309539879 -0.00976352205146383 0.00902025098849077 0.0007432710629730675 0.006580978466405126 0.0 0.0
0.0 0.006914784202615355 -0.005518689156415105 0.004888645855189257 0.00063004330122585 0.003893857292239573 0.0 0.0
0.0 0.0029368051903729516 -0.0024729046101839764 0.0020486793489597867 0.00042422526122418917 0.0018530728979291664 0.0 0.0
0.0 0.000880366868534358 -0.0007253195102860662 0.000560877434297734 0.0001644420759883327 0.0006271141041341825 0.0 0.0
0.0 0.00012932778747828944 -7.261758471831427e-05 5.369049477276435e-05 1.8927089945549967e-05 7.450645655236444e-05 0.0 0.0
0.0 -9.504448497037825e-07 7.097547092593044e-06 -5.846780429039459e-06 -1.2507666635535697e-06 -1.369811522013618e-05 0.0 0.0
0.0 -2.438870101063033e-06 4.874631681092017e-07 -3.95975234082343e-07 -9.14879340268421e-08 -8.669326483226867e-07 0.0 0.0
0.0 -2.075136684917244e-07 1.1911148420057287e-07 -9.451317787789404e-08 -2.4598306322675998e-08 -5.390513891070355e-07 0.0 0.0
0.0 -1.2025212151506954e-07 -2.8111852205958148e-09 1.930398443898689e-09 8.807867766964716e-10 2.387923681280424e-08 0.0 0.0
0.0 0.0 0.0 0.0 0.0 0.0 0.0 0.0
0.0 0.0 0.0 0.0 0.0 0.0 0.0 0.0
0.0 0.0 0.0 0.0 0.0 0.0 0.0 0.0
0.0 -3.267194044995263e-07 -4.7969224950712195e-09 4.111571129294727e-09 6.853513657751261e-10 -1.4045627386747075e-08 0.0 0.0
0.0 -1.7711886750845627e-06 1.6479567026977044e-06 -1.3292413631703234e-06 -3.18715339527356e-07 3.58954675518595e-06 0.0 0.0
0.0 -7.886610859062742e-06 -2.002386837745539e-06 7.482861036140212e-07 1.2541007341315e-06 3.903233542395114e-07 0.0 0.0
0.0 0.00032049638735339104 -0.00022728099088256708 0.0001692377092120796 5.804328167048742e-05 -0.00014750122655752816 0.0 0.0
0.0 0.0015558398665641154 -0.001349640704537965 0.0010657497717160012 0.0002838909328219633 -0.0007852604608441449 0.0 0.0
0.0 0.004679283111687006 -0.003817303082844825 0.0032567551742046265 0.0005605479086402004 -0.0021168350412407006 0.0 0.0
0.0 0.008974073711350053 -0.007807850877535068 0.00707160172138213 0.0007362491561529415 -0.0043040120070326985 0.0 0.0
0.0 0.015374481924132696 -0.01309820328419007 0.012268010875396041 0.0008301924087940294 -0.006961644816365397 0.0 0.0
0.0 0.022928094209241075 -0.01948771346593519 0.018586729328959613 0.0009009841369755766 -0.009787869354111835 0.0 0.0
0.0 0.03155196080130357 -0.026803117894008334 0.025830893750915213 0.0009722241430931257 -0.012581663714451276 0.0 0.0
0.0 0.04115569328136978 -0.03497100919853418 0.0339226447140963 0.0010483644844378349 -0.015274751258832509 0.0 0.0
0.0 0.05183547962463081 -0.044012954783836544 0.0428888187659236 0.0011241360179129905 -0.017914403887645317 0.0 0.0
0.0 0.06340556017673556 -0.05396272056372521 0.05277098851896109 0.0011917320447641054 -0.02064104995849609 0.0 0.0
0.0 0.07575276843172152 -0.06464245130244173 0.06341379888426855 0.0012286524181731988 -0.02382853437041199 0.0 0.0
0.0 0.0885981686509076 -0.07529257274770572 0.0740887392066095 0.0012038335410962159 -0.0280916476011014 0.0 0.0
0.0 0.0992375405895437 -0.08418721888076675 0.08309578075188429 0.0010914381288822958 -0.03365707218218143 0.0 0.0
0.0 0.10443474614154863 -0.0882901572401631 0.08741700273120918 0.0008731545089538822 -0.03945916549163104 0.0 0.0
0.0 0.0993816405816921 -0.08310202673382244 0.08257487806719016 0.0005271486666322993 -0.043457562845461165 0.0 0.0
0.0 0.09142257280970156 -0.07284137160061589 0.06775924970234178 0.005082121898274085 2.1553939189011828e-14 0.0 0.0
0.0 0.0993816405816839 -0.08310202673380836 0.08257487806717659 0.0005271486666318592 0.0434575628455096 0.0 0.0
0.0 0.10443474614152363 -0.08829015724013606 0.08741700273118237 0.0008731545089536865 0.03945916549168021 0.0 0.0
0.0 0.09923754058949968 -0.0841872188807263 0.08309578075184436 0.0010914381288819263 0.033657072182208515 0.0 0.0
0.0 0.08859816865084591 -0.07529257274765264 0.07408873920655563 0.0012038335410968829 0.0280916476011007 0.0 0.0
0.0 0.07575276843165732 -0.06464245130238633 0.06341379888421377 0.0012286524181726005 0.02382853437040094 0.0 0.0
0.0 0.06340556017667104 -0.053962720563669714 0.05277098851890616 0.001191732044763573 0.020641049958482365 0.0 0.0
0.0 0.05183547962456479 -0.04401295478377932 0.04288881876586705 0.001124136017912235 0.017914403887628733 0.0 0.0
0.0 0.04115569328130676 -0.034971009198480354 0.03392264471404216 0.0010483644844381716 0.015274751258815857 0.0 0.0
0.0 0.03155196080124224 -0.026803117893956604 0.025830893750863698 0.000972224143092895 0.012581663714428374 0.0 0.0
0.0 0.022928094209187927 -0.019487713465890705 0.01858672932891528 0.000900984136975408 0.009787869354086726 0.0 0.0
0.0 0.015374481924091549 -0.013098203284155452 0.012268010875361885 0.0008301924087935687 0.006961644816345626 0.0 0.0
0.0 0.008974073711320588 -0.007807850877509069 0.007071601721356933 0.0007362491561521376 0.004304012007018548 0.0 0.0
0.0 0.004679283111667499 -0.0038173030828292298 0.0032567551741903267 0.0005605479086389037 0.002116835041231858 0.0 0.0
0.0 0.0015558398665536024 -0.001349640704529439 0.0010657497717090157 0.0002838909328204223 0.0007852604608391567 0.0 0.0
0.0 0.0003204963873500143 -0.00022728099088076988 0.00016923770921070623 5.80432816700633e-05 0.000147501226556394 0.0 0.0
0.0 -7.886610859393107e-06 -2.0023868381811706e-06 7.482861039718041e-07 1.2541007342093293e-06 -3.903233533918673e-07 0.0 0.0
0.0 -1.7711886757232376e-06 1.647956702665401e-06 -1.329241363144275e-06 -3.1871533952112036e-07 -3.5895467549587838e-06 0.0 0.0
0.0 -3.267194043729421e-07 -4.7969224608037654e-09 4.111571101938442e-09 6.853513588658626e-10 1.4045627277122268e-08 0.0 0.0
0.0 0.0 0.0 0.0 0.0 0.0 0.0 0.0
0.0 0.0 0.0 0.0 0.0 0.0 0.0 0.0
0.0 0.0 0.0 0.0 0.0 0.0 0.0 0.0
0.0 0.0 0.0 0.0 0.0 0.0 0.0 0.0
0.0 -1.4540377758426309e-07 -9.12955113141702e-09 7.222069576636487e-09 1.9074815547816038e-09 -2.4897336491865533e-08 0.0 0.0
0.0 -3.3332740763073577e-06 1.4253744150050701e-06 -1.1489529524490252e-06 -2.7642146255607257e-07 2.5028938037039105e-06 0.0 0.0
0.0 2.8355133215909565e-05 -1.1830753930145169e-05 6.7555148416614555e-06 5.075239088483804e-06 3.791653533683793e-06 0.0 0.0
0.0 0.0005407573069607682 -0.0005148413445357371 0.0003878709376287615 0.00012697040690697503 -0.00023015512926220476 0.0 0.0
0.0 0.0025927445212814365 -0.002131122675755538 0.0017267635271791286 0.00040435914857640977 -0.0008384087811058899 0.0 0.0
0.0 0.006053296291516858 -0.005356948162347735 0.004688335462225143 0.0006686127001225906 -0.0022197160351215364 0.0 0.0
0.0 0.011689421852884744 -0.010184977693597351 0.009371022860004189 0.0008139548335931595 -0.004256160327842505 0.0 0.0
0.0 0.019097006967519346 -0.016503912257024803 0.01560260654445978 0.000901305712565038 -0.006687929709632176 0.0 0.0
0.0 0.028053284486790044 -0.024131717426947585 0.02315574377532028 0.0009759736516273002 -0.00929704486498946 0.0 0.0
0.0 0.03833987238514336 -0.03289723881727663 0.031843867535373556 0.0010533712819030473 -0.0118755872421544 0.0 0.0
0.0 0.04990159132508611 -0.04271284896805422 0.04157725749523852 0.0011355914728156465 -0.014377529447240555 0.0 0.0
0.0 0.062344440688000005 -0.0535814338385459 0.052362581083097964 0.0012188527554479185 -0.01686584182293967 0.0 0.0
0.0 0.07631439241806014 -0.06551168307944613 0.0642164057038904 0.001295277375555848 -0.019403780516414514 0.0 0.0
0.0 0.09129441749003132 -0.07833250090174947 0.07699037968888761 0.0013421212128616692 -0.02215283427488939 0.0 0.0
0.0 0.10615556092513373 -0.09120715395124382 0.0898938992787991 0.0013132546724446475 -0.025667067418435385 0.0 0.0
0.0 0.11896018729930673 -0.10202929902112481 0.10086401398401151 0.0011652850371134166 -0.03071850753345168 0.0 0.0
0.0 0.12545565967633565 -0.10714347753022695 0.10624840072553376 0.0008950768046929447 -0.03733456320204948 0.0 0.0
0.0 0.11987869647258736 -0.10150360808933556 0.10098755329657406 0.0005160547927614814 -0.04484432865209935 0.0 0.0
0.0 0.11037359730352193 -0.09008049718783048 0.08451491246752504 0.005565584720305472 2.1007501294079134e-14 0.0 0.0
0.0 0.11987869647257458 -0.10150360808931845 0.10098755329655741 0.0005160547927609586 0.04484432865214714 0.0 0.0
0.0 0.1254556596763017 -0.10714347753019314 0.10624840072550051 0.0008950768046924662 0.037334563202096466 0.0 0.0
0.0 0.11896018729925482 -0.10202929902107861 0.10086401398396547 0.0011652850371131468 0.030718507533475867 0.0 0.0
0.0 0.10615556092506519 -0.0912071539511845 0.0898938992787395 0.0013132546724450515 0.02566706741843737 0.0 0.0
0.0 0.0912944174899551 -0.07833250090168321 0.076990379688822 0.0013421212128611475 0.022152834274880847 0.0 0.0
0.0 0.07631439241798252 -0.06551168307937945 0.06421640570382377 0.0012952773755556635 0.019403780516401983 0.0 0.0
0.0 0.062344440687923275 -0.05358143383847959 0.05236258108303239 0.001218852755447162 0.016865841822924527 0.0 0.0
0.0 0.049901591325010916 -0.04271284896798937 0.04157725749517336 0.001135591472816003 0.014377529447224048 0.0 0.0
0.0 0.03833987238507152 -0.032897238817215194 0.0318438675353125 0.0010533712819026746 0.011875587242133036 0.0 0.0
0.0 0.028053284486726112 -0.02413171742689303 0.023155743775266014 0.0009759736516270489 0.009297044864965295 0.0 0.0
0.0 0.01909700696747265 -0.016503912256984506 0.015602606544420068 0.0009013057125644198 0.006687929709614068 0.0 0.0
0.0 0.011689421852846986 -0.010184977693564528 0.00937102285997201 0.0008139548335925246 0.004256160327828558 0.0 0.0
0.0 0.006053296291494328 -0.0053569481623281425 0.004688335462206739 0.0006686127001214027 0.002219716035113022 0.0 0.0
0.0 0.0025927445212668133 -0.0021311226757438446 0.0017267635271690427 0.00040435914857480076 0.0008384087811005858 0.0 0.0
0.0 0.0005407573069560172 -0.000514841344532358 0.00038787093762619203 0.00012697040690616524 0.00023015512926071596 0.0 0.0
0.0 2.8355133214758796e-05 -1.183075393008425e-05 6.755514841645042e-06 5.075239088439329e-06 -3.7916535334000896e-06 0.0 0.0
0.0 -3.3332740763442557e-06 1.4253744149758795e-06 -1.1489529524291028e-06 -2.764214625467774e-07 -2.5028938036543786e-06 0.0 0.0
0.0 -1.4540377760687656e-07 -9.129551133026106e-09 7.222069577956299e-09 1.907481555070548e-09 2.4897336495308385e-08 0.0 0.0
0.0 0.0 0.0 0.0 0.0 0.0 0.0 0.0
0.0 0.0 0.0 0.0 0.0 0.0 0.0 0.0
0.0 0.0 0.0 0.0 0.0 0.0 0.0 0.0
0.0 0.0 0.0 0.0 0.0 0.0 0.0 0.0
0.0 -8.449213319138698e-08 -6.2087657459101835e-09 4.937566336019683e-09 1.2711994098909265e-09 -1.2610593412718111e-08 0.0 0.0
0.0 -3.632399913423385e-06 2.4293174131300947e-06 -1.9771896609449975e-06 -4.5212775218509026e-07 3.2352020929368933e-06 0.0 0.0
0.0 9.481086295644726e-05 -6.65351295240045e-05 4.579314887833633e-05 2.074198064566833e-05 -9.154417242907872e-06 0.0 0.0
0.0 0.001021183579421581 -0.0008803552134022774 0.0006723918225385301 0.00020796339086374678 -0.00020549977222982587 0.0 0.0
0.0 0.003506603854183443 -0.0030874519032614654 0.0025692101464566863 0.0005182417568047766 -0.0008043935815133507 0.0 0.0
0.0 0.007819643553811565 -0.006983780759928383 0.006236277294236755 0.0007475034656916291 -0.0020350259851537717 0.0 0.0
0.0 0.014344789620154685 -0.01261566181241747 0.011739183417526835 0.0008764783948906304 -0.0037292786013755786 0.0 0.0
0.0 0.022902083392130523 -0.01994039371003689 0.018976726773953442 0.0009636669360834399 -0.005785858521286467 0.0 0.0
0.0 0.03318887830321536 -0.028794851473398823 0.027750827299393988 0.001044024174004822 -0.007999868734411998 0.0 0.0
0.0 0.04513606258373236 -0.03900951742740774 0.03788125315138053 0.001128264276027212 -0.010192288751808037 0.0 0.0
0.0 0.058318418689986884 -0.050485373861873885 0.04926842893678197 0.0012169449250919952 -0.0123343160803659 0.0 0.0
0.0 0.07326695618080573 -0.06317581548516765 0.06187223909220552 0.0013035763929620352 -0.014505083927992143 0.0 0.0
0.0 0.0892213303905095 -0.0770376430600915 0.07565409797977986 0.001383545080311629 -0.016722762837468014 0.0 0.0
0.0 0.10617335634325159 -0.09184529234417094 0.09040437937193535 0.0014409129722356947 -0.018879254004570065 0.0 0.0
0.0 0.12351214236108113 -0.10675013776329262 0.1053254687863307 0.0014246689769619228 -0.0211465841122338 0.0 0.0
0.0 0.13843301971932925 -0.11951186750031242 0.11825531737882806 0.0012565501214842857 -0.024850318270762863 0.0 0.0
0.0 0.14638101976914464 -0.12598112465051972 0.1250541853013283 0.0009269393491914528 -0.032276459139010186 0.0 0.0
0.0 0.14106034700566536 -0.12040592760325527 0.11992109179097812 0.0004848358122773995 -0.044624683106156866 0.0 0.0
0.0 0.13084370871971118 -0.10812441820283894 0.1021484852522773 0.005975932950561536 1.7950918529408e-14 0.0 0.0
0.0 0.14106034700564882 -0.12040592760323628 0.11992109179095975 0.00048483581227654277 0.044624683106198354 0.0 0.0
0.0 0.14638101976910065 -0.12598112465047923 0.1250541853012877 0.0009269393491914762 0.03227645913905111 0.0 0.0
0.0 0.13843301971926344 -0.11951186750025504 0.11825531737877065 0.001256550121484319 0.024850318270782643 0.0 0.0
0.0 0.12351214236100529 -0.10675013776322703 0.10532546878626485 0.001424668976962099 0.02114658411223617 0.0 0.0
0.0 0.10617335634316283 -0.09184529234409408 0.09040437937185868 0.001440912972235421 0.01887925400456497 0.0 0.0
0.0 0.08922133039042376 -0.07703764306001752 0.07565409797970622 0.0013835450803112936 0.016722762837458802 0.0 0.0
0.0 0.07326695618071652 -0.06317581548509046 0.06187223909212862 0.0013035763929618023 0.014505083927980158 0.0 0.0
0.0 0.058318418689901265 -0.05048537386179995 0.04926842893670842 0.0012169449250915966 0.01233431608035325 0.0 0.0
0.0 0.04513606258365171 -0.03900951742733781 0.03788125315131097 0.001128264276026894 0.010192288751791276 0.0 0.0
0.0 0.03318887830314316 -0.02879485147333667 0.027750827299332072 0.0010440241740045733 0.007999868734391378 0.0 0.0
0.0 0.022902083392074783 -0.01994039370998864 0.0189767267739058 0.0009636669360828365 0.0057858585212702575 0.0 0.0
0.0 0.014344789620112063 -0.01261566181238017 0.011739183417490206 0.0008764783948899598 0.0037292786013636303 0.0 0.0
0.0 0.007819643553783923 -0.0069837807599036576 0.006236277294212982 0.0007475034656906827 0.0020350259851455747 0.0 0.0
0.0 0.0035066038541666125 -0.003087451903247047 0.002569210146443842 0.000518241756803203 0.0008043935815087333 0.0 0.0
0.0 0.0010211835794146226 -0.0008803552133969418 0.000672391822534286 0.00020796339086265518 0.00020549977222824038 0.0 0.0
0.0 9.481086295465646e-05 -6.653512952312706e-05 4.579314887772889e-05 2.074198064539818e-05 9.154417242900323e-06 0.0 0.0
0.0 -3.6323999136956793e-06 2.4293174125711118e-06 -1.9771896605242326e-06 -4.5212775204686947e-07 -3.235202092430165e-06 0.0 0.0
0.0 -8.449213308768496e-08 -6.208765738185114e-09 4.937566329875185e-09 1.2711994083088753e-09 1.2610593397016244e-08 0.0 0.0
0.0 0.0 0.0 0.0 0.0 0.0 0.0 0.0
0.0 0.0 0.0 0.0 0.0 0.0 0.0 0.0
0.0 0.0 0.0 0.0 0.0 0.0 0.0 0.0
0.0 0.0 0.0 0.0 0.0 0.0 0.0 0.0
0.0 0.0 0.0 0.0 0.0 0.0 0.0 0.0
0.0 -5.619293566992914e-06 5.479167721883858e-06 -4.4407853460935445e-06 -1.0383823757903328e-06 4.656511299036826e-06 0.0 0.0
0.0 0.0001893350567624051 -0.00018691430570873618 0.00013242177650633913 5.449252920239696e-05 -2.46917214112766e-06 0.0 0.0
0.0 0.0016366549721514015 -0.001378471615970414 0.0010756077568724635 0.0003028638590979502 -0.00011701878461726273 0.0 0.0
0.0 0.0044741445701236785 -0.0041556720520763285 0.003544543996514983 0.0006111280555613454 -0.0006264723636069309 0.0 0.0
0.0 0.009680417331203724 -0.008659878666308483 0.007849366356213366 0.00081051231009513 -0.0015071339463576057 0.0 0.0
0.0 0.017041457886422782 -0.01506760974488928 0.014137850287216274 0.0009297594576730004 -0.0027492484363826914 0.0 0.0
0.0 0.026703768685814654 -0.023374771633842877 0.02235473935531692 0.001020032278525975 -0.0042645130018627575 0.0 0.0
0.0 0.038409844921783065 -0.03344283443155805 0.03233566985301309 0.0011071645785449501 -0.005905913446853792 0.0 0.0
0.0 0.05185114601206696 -0.04510629752338215 0.04390824120550302 0.0011980563178790866 -0.007536991839422825 0.0 0.0
0.0 0.06723644103287689 -0.05824322032903066 0.05695120507201308 0.0012920152570176026 -0.009149369900142083 0.0 0.0
0.0 0.08376740936100878 -0.07276965781498271 0.07138697747153949 0.0013826803434431924 -0.010834527019790534 0.0 0.0
0.0 0.10198868632179839 -0.08851763316719477 0.08705666900409408 0.001460964163100729 -0.012565178876089496 0.0 0.0
0.0 0.12119014872473802 -0.10512458085563353 0.10360925562514456 0.0015153252304889674 -0.014080186958525642 0.0 0.0
0.0 0.14041406829139233 -0.12175715011599234 0.12023414682614657 0.001523003289845878 -0.015113976939902657 0.0 0.0
0.0 0.15736606501283312 -0.1364077927673709 0.1350033212033555 0.00140447156401537 -0.016716135859292196 0.0 0.0
0.0 0.16738381574970437 -0.1448048965269222 0.14379946059591897 0.0010054359310030078 -0.023424194002278947 0.0 0.0
0.0 0.16321495439852837 -0.14019008272963593 0.1397845006781761 0.0004055820514595971 -0.041778964226495394 0.0 0.0
0.0 0.15297079524707421 -0.12751255152000052 0.12122930551859183 0.0062832460014086 1.3034712198489729e-14 0.0 0.0
0.0 0.1632149543985034 -0.1401900827296114 0.13978450067815215 0.00040558205145920087 0.04177896422652712 0.0 0.0
0.0 0.16738381574965075 -0.14480489652687428 0.1437994605958711 0.0010054359310033847 0.023424194002311813 0.0 0.0
0.0 0.1573660650127572 -0.13640779276730527 0.13500332120329012 0.001404471564015223 0.016716135859308603 0.0 0.0
0.0 0.14041406829130423 -0.12175715011591604 0.12023414682607055 0.0015230032898456637 0.015113976939902475 0.0 0.0
0.0 0.12119014872464158 -0.10512458085554979 0.10360925562506175 0.0015153252304880886 0.014080186958523035 0.0 0.0
0.0 0.10198868632170043 -0.08851763316710994 0.08705666900400971 0.0014609641631002778 0.012565178876084278 0.0 0.0
0.0 0.08376740936091148 -0.0727696578148982 0.07138697747145618 0.0013826803434420659 0.010834527019782068 0.0 0.0
0.0 0.06723644103278029 -0.058243220328947146 0.0569512050719295 0.0012920152570175957 0.009149369900133904 0.0 0.0
0.0 0.051851146011976684 -0.04510629752330416 0.04390824120542557 0.0011980563178785007 0.007536991839410908 0.0 0.0
0.0 0.03840984492170617 -0.033442834431490875 0.03233566985294635 0.001107164578544519 0.005905913446838978 0.0 0.0
0.0 0.026703768685751736 -0.02337477163378772 0.022354739355262186 0.001020032278525528 0.004264513001850302 0.0 0.0
0.0 0.017041457886377023 -0.015067609744848715 0.014137850287176512 0.0009297594576722225 0.0027492484363744523 0.0 0.0
0.0 0.009680417331170919 -0.008659878666279212 0.007849366356184936 0.0008105123100942706 0.0015071339463510846 0.0 0.0
0.0 0.0044741445701040545 -0.004155672052058398 0.0035445439964985333 0.00061112805555987 0.0006264723636030156 0.0 0.0
0.0 0.0016366549721416347 -0.0013784716159620845 0.0010756077568656493 0.0003028638590964335 0.00011701878461599057 0.0 0.0
0.0 0.00018933505676034315 -0.00018691430570771708 0.00013242177650565372 5.4492529202063e-05 2.46917214144514e-06 0.0 0.0
0.0 -5.6192935669181036e-06 5.479167721478308e-06 -4.440785345790652e-06 -1.0383823756876798e-06 -4.656511298871161e-06 0.0 0.0
0.0 0.0 0.0 0.0 0.0 0.0 0.0 0.0
0.0 0.0 0.0 0.0 0.0 0.0 0.0 0.0
0.0 0.0 0.0 0.0 0.0 0.0 0.0 0.0
0.0 0.0 0.0 0.0 0.0 0.0 0.0 0.0
0.0 0.0 0.0 0.0 0.0 0.0 0.0 0.0
0.0 0.0 0.0 0.0 0.0 0.0 0.0 0.0
0.0 -4.502270709990885e-06 2.8859781563304394e-06 -3.1122509012664104e-06 2.2627274493598165e-07 5.249700187985704e-06 0.0 0.0
0.0 0.00044255784028527387 -0.0003629437201981033 0.00026131135023081957 0.0001016323699672835 5.7653274239861836e-05 0.0 0.0
0.0 0.002243742159988621 -0.002001683338259398 0.0016012239799698975 0.0004004593582894995 4.8856031091273674e-05 0.0 0.0
0.0 0.005757850148813488 -0.005270094242681905 0.004588456850870431 0.0006816373918114776 -0.00021744392223854383 0.0 0.0
0.0 0.011564068381110782 -0.010358731069873303 0.00949738130417653 0.0008613497656967576 -0.0006751996305242088 0.0 0.0
0.0 0.019817850593744184 -0.017508624272553674 0.01653227217857332 0.0009763520939803678 -0.0013226634373080946 0.0 0.0
0.0 0.030500558082685064 -0.026774114264010704 0.02570167833789214 0.001072435926118567 -0.0021300449684169883 0.0 0.0
0.0 0.043542282478754225 -0.03804414322717615 0.03687797279663504 0.001166170430541119 -0.0030129410185857543 0.0 0.0
0.0 0.058846462974893606 -0.05115377439466784 0.04989087092495481 0.001262903469713048 -0.003908135152777575 0.0 0.0
0.0 0.07566000508087659 -0.06596269062315802 0.0646001412740714 0.0013625493490865238 -0.00484123524739676 0.0 0.0
0.0 0.09453922047545861 -0.0823077930325166 0.08085130483943795 0.0014564881930785793 -0.005837055876375765 0.0 0.0
0.0 0.11486533590186143 -0.09991066212796659 0.09837960387548209 0.0015310582524845641 -0.006854637003223936 0.0 0.0
0.0 0.13602488348711683 -0.11821553398155078 0.11664179552549937 0.0015737384560512672 -0.00770668120762387 0.0 0.0
0.0 0.15688762733123215 -0.1362419298179193 0.13466227116881058 0.0015796586491087622 -0.008014203262450437 0.0 0.0
0.0 0.17550485354010922 -0.1523371071383533 0.1507889753126813 0.0015481318256720337 -0.00791050011210308 0.0 0.0
0.0 0.18803976619848306 -0.16315197248801475 0.16183514472722746 0.001316827760786986 -0.011174221685928071 0.0 0.0
0.0 0.18677888965407569 -0.16131710972610222 0.16098270268891227 0.0003344070371899815 -0.030953003526676865 0.0 0.0
0.0 0.17800891326886853 -0.1493991265880929 0.14322491378647365 0.0061742128016192745 6.094083571106523e-15 0.0 0.0
0.0 0.18677888965404552 -0.16131710972607421 0.160982702688885 0.00033440703718919503 0.030953003526696585 0.0 0.0
0.0 0.1880397661984195 -0.16315197248795948 0.16183514472717186 0.001316827760787569 0.011174221685947417 0.0 0.0
0.0 0.17550485354002343 -0.1523371071382794 0.15078897531260715 0.0015481318256721599 0.007910500112111729 0.0 0.0
0.0 0.15688762733112685 -0.1362419298178286 0.1346622711687195 0.001579658649109139 0.008014203262449173 0.0 0.0
0.0 0.13602488348701217 -0.11821553398145962 0.11664179552540929 0.001573738456050193 0.007706681207623701 0.0 0.0
0.0 0.11486533590175087 -0.09991066212787086 0.09837960387538686 0.0015310582524840604 0.006854637003221678 0.0 0.0
0.0 0.09453922047535228 -0.08230779303242416 0.08085130483934667 0.001456488193077387 0.005837055876370869 0.0 0.0
0.0 0.07566000508076431 -0.06596269062306104 0.06460014127397422 0.0013625493490867955 0.004841235247392021 0.0 0.0
0.0 0.0588464629747967 -0.051153774394583566 0.04989087092487144 0.0012629034697121393 0.003908135152771348 0.0 0.0
0.0 0.043542282478666164 -0.0380441432270998 0.036877972796559355 0.0011661704305404562 0.0030129410185769827 0.0 0.0
0.0 0.030500558082615856 -0.026774114263949936 0.025701678337832122 0.001072435926117821 0.002130044968409834 0.0 0.0
0.0 0.019817850593690383 -0.01750862427250599 0.01653227217852631 0.0009763520939796696 0.0013226634373037396 0.0 0.0
0.0 0.011564068381072835 -0.01035873106983935 0.009497381304143404 0.0008613497656959361 0.0006751996305208891 0.0 0.0
0.0 0.005757850148791318 -0.005270094242661587 0.004588456850851313 0.000681637391810274 0.00021744392223627546 0.0 0.0
0.0 0.0022437421599759335 -0.0020016833382482295 0.0016012239799603214 0.00040045935828790676 -4.885603109171953e-05 0.0 0.0
0.0 0.00044255784028150914 -0.0003629437201954819 0.0002613113502289175 0.00010163236996656433 -5.765327423936495e-05 0.0 0.0
0.0 -4.502270710108904e-06 2.88597815596503e-06 -3.112250900985456e-06 2.2627274502049733e-07 -5.249700187890708e-06 0.0 0.0
0.0 0.0 0.0 0.0 0.0 0.0 0.0 0.0
0.0 0.0 0.0 0.0 0.0 0.0 0.0 0.0
0.0 0.0 0.0 0.0 0.0 0.0 0.0 0.0
0.0 0.0 0.0 0.0 0.0 0.0 0.0 0.0
0.0 0.0 0.0 0.0 0.0 0.0 0.0 0.0
0.0 0.0 0.0 0.0 0.0 0.0 0.0 0.0
0.0 2.2495701887998176e-05 -2.1201319949128656e-05 1.3538086389390187e-05 7.663233559738559e-06 1.0031090709818987e-05 0.0 0.0
0.0 0.0007569291456188391 -0.0005872745785660228 0.00042055971141028017 0.00016671486715574266 0.0001458671579546062 0.0 0.0
0.0 0.0028708823591380656 -0.0025650232591239914 0.002031116283356907 0.0005339069757670815 0.0003329970156753792 0.0 0.0
0.0 0.006766005470479005 -0.006216557707956753 0.005345841594499634 0.0008707161134571214 0.0004368021916738281 0.0 0.0
0.0 0.013048289285844544 -0.011764126328446122 0.010632028330230355 0.0011320979982157634 0.0004885887995840893 0.0 0.0
0.0 0.021866704088022246 -0.019509286647208118 0.018145381753638754 0.0013639048935693418 0.00047886581384506705 0.0 0.0
0.0 0.03340083392586801 -0.029553245197044352 0.02793662257068949 0.0016166226263548153 0.000371075470906747 0.0 0.0
0.0 0.04754608741931224 -0.041817479064476366 0.03990588970604279 0.0019115893584335747 0.00020393459479391054 0.0 0.0
0.0 0.06378396517943093 -0.05614091424181632 0.05388794722532443 0.002252967016491865 -2.0247615550858696e-05 0.0 0.0
0.0 0.08225445042477747 -0.07233267091396645 0.06970339472516081 0.0026292761888056667 -0.00034078516491884044 0.0 0.0
0.0 0.10265180328243897 -0.09017667631655646 0.08715537153796159 0.003021304778594934 -0.000726601029757943 0.0 0.0
0.0 0.12456645271886282 -0.10930860857598668 0.10591152454329823 0.0033970840326883103 -0.0012078423363028647 0.0 0.0
0.0 0.1472260034275712 -0.12901169715458788 0.1252989184649967 0.003712778689591331 -0.0017058340454808585 0.0 0.0
0.0 0.1692133530249507 -0.14807883245236542 0.14416308746716494 0.003915744985200266 -0.0019814572737218723 0.0 0.0
0.0 0.18855259498677673 -0.1648250409034456 0.16085000909935793 0.003975031804087498 -0.0017756606234213494 0.0 0.0
0.0 0.2025291965426009 -0.17711730351959803 0.17307955343236156 0.0040377500872365996 -0.0033156515651203942 0.0 0.0
0.0 0.20527766028109296 -0.1800227543721372 0.1758785175405683 0.004144236831568834 -0.023239566260559504 0.0 0.0
0.0 0.20113902141183712 -0.17140059695758225 0.16038968005054674 0.01101091690703521 -1.1102230246251565e-16 0.0 0.0
0.0 0.20527766028106256 -0.18002275437210954 0.17587851754054248 0.004144236831567001 0.02323956626056646 0.0 0.0
0.0 0.2025291965425294 -0.17711730351953606 0.1730795534323002 0.00403775008723594 0.003315651565127968 0.0 0.0
0.0 0.18855259498667853 -0.1648250409033605 0.16085000909927422 0.003975031804086435 0.0017756606234225376 0.0 0.0
0.0 0.16921335302483365 -0.1480788324522634 0.14416308746706408 0.003915744985199123 0.0019814572737188695 0.0 0.0
0.0 0.14722600342745673 -0.12901169715448788 0.12529891846489868 0.003712778689588984 0.001705834045481372 0.0 0.0
0.0 0.12456645271874514 -0.10930860857588373 0.10591152454319722 0.003397084032686389 0.0012078423363014023 0.0 0.0
0.0 0.10265180328231906 -0.09017667631645186 0.08715537153785888 0.0030213047785928463 0.000726601029755294 0.0 0.0
0.0 0.0822544504246571 -0.07233267091386131 0.06970339472505772 0.0026292761888036475 0.0003407851649172202 0.0 0.0
0.0 0.06378396517932731 -0.056140914241725966 0.05388794722523593 0.0022529670164899572 2.024761554826702e-05 0.0 0.0
0.0 0.0475460874192138 -0.04181747906439028 0.03990588970595842 0.0019115893584318719 -0.0002039345947964016 0.0 0.0
0.0 0.03340083392579281 -0.0295532451969786 0.02793662257062557 0.0016166226263530236 -0.00037107547090860617 0.0 0.0
0.0 0.021866704087962666 -0.019509286647155684 0.01814538175358768 0.0013639048935680104 -0.0004788658138460077 0.0 0.0
0.0 0.013048289285801403 -0.011764126328407402 0.010632028330193095 0.001132097998214302 -0.0004885887995836223 0.0 0.0
0.0 0.00676600547045476 -0.0062165577079344525 0.005345841594478722 0.0008707161134557247 -0.00043680219167358154 0.0 0.0
0.0 0.0028708823591236643 -0.002565023259110433 0.002031116283345311 0.0005339069757651233 -0.0003329970156740343 0.0 0.0
0.0 0.0007569291456136054 -0.0005872745785619345 0.000420559711407321 0.0001667148671546144 -0.00014586715795358195 0.0 0.0
0.0 2.2495701887651062e-05 -2.120131994899456e-05 1.3538086389312833e-05 7.663233559681718e-06 -1.0031090709712754e-05 0.0 0.0
0.0 0.0 0.0 0.0 0.0 0.0 0.0 0.0
0.0 0.0 0.0 0.0 0.0 0.0 0.0 0.0
0.0 0.0 0.0 0.0 0.0 0.0 0.0 0.0
SCALARS Wm float 4
LOOKUP_TABLE default
13.050045104743138 2.031131980525552 5.496110296608272 5.5228028276093095
6.594858767213286 3.1534607059943554 1.5493207768265462 1.8920772843923856
0.7437467720562095 0.6844591102802361 0.009765490463161358 0.049522171312812065
0.5519130911562493 0.5176671697277476 0.009444283022161238 0.024801638406340545
1.1424171083141268 0.7974066603712398 0.12407190301570008 0.22093854492718604
2.5162176682761035 1.1659099179784453 0.5061813140576491 0.8441264362400089
5.26344225759701 1.6839009547502457 1.5564966203483548 2.0230446824984103
9.764172856653413 2.3406390910456163 3.5217098048546167 3.901823960753176
16.46116869588191 3.1857033334260922 6.724210904399606 6.551254458056206
25.66989209394052 4.250331341205878 11.422111151995036 9.997449600739607
37.524868926959265 5.551219613891934 17.76174242086826 14.211906892199067
51.91057543473199 7.086754324528211 25.683104931881815 19.140716178321988
68.89292147724339 8.833018417243974 35.336700636783426 24.723202423215966
88.33619607248066 10.763602373414457 46.67404257707192 30.898551121994263
109.89958029258537 12.73228380822331 59.60042144233867 37.56687504202333
132.88129819215624 14.491519161467641 73.83692280133533 44.55285622935328
156.07080450920301 15.751607418909968 88.72530120221901 51.59389588807405
177.8811832010257 16.301474862615866 103.31280769143171 58.26690064697806
196.62991296655082 16.20854763783611 116.34782381248968 64.07354151622522
209.80456162434996 15.237457960590344 126.13972973690083 68.42737392685866
214.04164174754982 13.402651446206324 130.32606566347425 70.31292463786933
209.804561624304 15.237457960570692 126.13972973688226 68.42737392685109
196.6299129664922 16.208547637842035 116.34782381244482 64.07354151620525
177.88118320092065 16.30147486259703 103.31280769137237 58.2669006469512
156.0708045090972 15.751607418908268 88.72530120214807 51.59389588804081
132.88129819204227 14.491519161456017 73.83692280126618 44.5528562293201
109.8995802924608 12.732283808195833 59.60042144227434 37.56687504199061
88.33619607237786 10.76360237341044 46.67404257700747 30.89855112195996
68.89292147713039 8.833018417220627 35.336700636726036 24.723202423183753
51.91057543464144 7.086754324523579 25.683104931827998 19.140716178289892
37.524868926886114 5.551219613887171 17.7617424208266 14.211906892172319
25.66989209388347 4.250331341198461 11.422111151965854 9.997449600719165
16.46116869584234 3.1857033334239944 6.7242109043786185 6.5512544580397325
9.764172856626313 2.3406390910425467 3.521709804841994 3.9018239607417717
5.26344225757982 1.6839009547472887 1.5564966203415178 2.023044682491014
2.5162176682675876 1.1659099179760137 0.5061813140553384 0.8441264362362343
1.142417108310875 0.7974066603695197 0.12407190301509179 0.22093854492626358
0.5519130911556301 0.5176671697272337 0.009444283022115831 0.024801638406280687
0.7437467720552753 0.6844591102794827 0.009765490463120405 0.049522171312671594
6.594858767208239 3.153460705995716 1.549320776823406 1.892077284389114
13.050045104713993 2.0311319805105095 5.496110296600489 5.522802827603011
15.613906136048778 6.7911210882466895 4.275788633764236 4.546996414037846
2.676653562706713 0.5876370839440203 0.8835048590166831 1.2055116197460087
0.2758119785643212 0.32109368799584853 -0.0151196486358116 -0.030162060795715706
0.42814930899365355 0.4167344337262756 0.002183351930223224 0.009231523337154577
0.8605029949911164 0.6516749758209996 0.06501788182683697 0.14381013734328027
2.008400309154969 0.9614858438637706 0.39515749251179716 0.6517569727794013
4.317894298436509 1.3219242995384815 1.270096988200143 1.725873010697883
8.260792038335277 1.768723012731278 3.031096624583116 3.4609724010208818
14.161530288863448 2.294481824640904 5.940236162838555 5.926812301383991
22.220651931517484 2.896171882080896 10.192085149344088 9.13239490009249
32.5196088585352 3.563215645072989 15.91584665547831 13.040546557983893
45.10247310375664 4.30568925651585 23.202729181404713 17.594054665836072
59.71613641256237 5.131417263032769 31.83558298452032 22.749136165009286
76.57354048131972 6.007270071649426 42.11275148946459 28.45351892020573
95.32363532424915 6.871335621856346 53.82018773359389 34.63211196879897
115.43306481651551 7.59361886590322 66.71391132503865 41.12553462557358
135.96383905237673 8.018722057101586 80.28568597371958 47.65943102155558
155.57746916835768 8.038669061506322 93.65786923938036 53.880930867470994
172.48397513723796 7.563568505923775 105.61374475536644 59.30666187594764
184.4360039323075 6.654978760516148 114.52150416816477 63.25952100362668
188.9748171044271 5.619273890295767 118.39976840441742 64.955774809714
184.43600393228527 6.654978760519743 114.52150416814672 63.25952100361881
172.48397513718757 7.563568505932899 105.61374475532553 59.30666187592922
155.5774691682828 8.038669061509907 93.65786923932652 53.88093086744644
135.9638390522824 8.018722057100781 80.28568597365611 47.65943102152548
115.43306481642593 7.593618865908865 66.71391132497479 41.125534625542244
95.32363532415599 6.871335621853981 53.82018773353398 34.632111968768015
76.57354048122997 6.00727007164976 42.11275148940602 28.453518920174183
59.71613641247582 5.13141726303008 31.835582984467035 22.749136164978673
45.102473103671855 4.305689256505074 23.202729181358766 17.594054665808
32.519608858468686 3.5632156450682344 15.915846655441046 13.040546557959399
22.2206519314653 2.8961718820728954 10.19208514931843 9.132394900073969
14.161530288827178 2.294481824638542 5.940236162819844 5.92681230136878
8.260792038311365 1.7687230127281992 3.0310966245723536 3.4609724010108156
4.317894298422046 1.321924299535907 1.2700969881945658 1.7258730106915707
2.0084003091481475 0.9614858438623863 0.39515749250945886 0.6517569727763035
0.8605029949888024 0.6516749758199871 0.06501788182636184 0.14381013734245354
0.42814930899326054 0.4167344337258724 0.0021833519302086315 0.00923152333717956
0.2758119785646642 0.3210936879960039 -0.015119648635739924 -0.03016206079559968
2.67665356269912 0.5876370839426076 0.8835048590136614 1.2055116197428515
15.613906136022111 6.791121088235176 4.2757886337560835 4.546996414030834
11.808585950880728 5.4077614726271275 2.978236570625903 3.422587907627693
1.6665040223652878 0.24117303071994353 0.5899161403470858 0.8354148512982591
0.17242491372850866 0.17214414197348732 4.0383726014040766e-05 0.00024038802900723706
0.3172257100753652 0.31905679539225745 -0.000574682045735289 -0.001256403271156992
0.6501378125263154 0.5585995804284323 0.023949702384424964 0.0675885297134581
1.561930437184117 0.8611302772487472 0.25483143378128886 0.44596872615408156
3.4967496993524554 1.2065773279409775 0.9323465434047853 1.3578258280066917
6.9352383390678165 1.6209071331321516 2.4204421114350048 2.893889094500661
12.120798711753004 2.0908639186704163 4.920424916756284 5.109509876326305
19.232007618690673 2.6121298129999952 8.626921293043528 7.992956512647151
28.275138691906708 3.1850601607500635 13.596876836609805 11.493201694546837
39.194583083494976 3.821358437541832 19.817092431917743 15.556132214035394
52.1257363775999 4.540971632428974 27.446684025519886 20.138080719651057
66.75383084945231 5.328148042592389 36.206909108444925 25.21877369841496
83.20196890287676 6.117798059179361 46.35602425933364 30.728146584363735
100.92828199158079 6.821468531660678 57.562300490943755 36.54451296897635
119.15612724046558 7.307421517494635 69.3942724859065 42.45443323706446
136.65924713329878 7.41949538080989 81.14233964211012 48.09741211037876
151.73685107094332 7.032980985023973 91.69430787360423 53.00956221231512
162.4222332832179 6.343412231124196 99.51865525635834 56.560165795735294
166.30378028672393 5.06030132185268 103.07228358460796 58.17119538026334
162.42223328319824 6.343412231130917 99.51865525634032 56.56016579572686
151.73685107090017 7.032980985034742 91.6943078735674 53.009562212298
136.6592471332271 7.419495380805592 81.14233964206453 48.09741211035698
119.15612724038448 7.307421517494178 69.39427248585241 42.45443323703788
100.92828199149805 6.82146853166141 57.56230049088835 36.54451296894834
83.2019689027932 6.117798059178428 46.35602425927955 30.72814658433522
66.75383084936809 5.328148042584675 36.20690910839583 25.218773698387515
52.12573637752373 4.540971632428882 27.446684025471985 20.138080719622856
39.19458308343233 3.8213584375424228 19.817092431878944 15.556132214010981
28.275138691849662 3.185060160746392 13.596876836578144 11.493201694525135
19.23200761864522 2.612129812992152 8.62692129302207 7.992956512630996
12.120798711720184 2.090863918666357 4.920424916740679 5.109509876313151
6.93523833904688 1.6209071331295453 2.420442111425702 2.8938890944916347
3.4967496993404446 1.206577327939327 0.9323465434001581 1.3578258280009594
1.5619304371788456 0.861130277247769 0.25483143377952616 0.4459687261515502
0.6501378125248816 0.5585995804277689 0.023949702384167347 0.06758852971294547
0.3172257100752876 0.31905679539207504 -0.0005746820457152858 -0.0012564032710721718
0.1724249137286604 0.17214414197363773 4.0383726013749115e-05 0.0002403880290088913
1.666504022359367 0.2411730307192654 0.5899161403446417 0.8354148512954582
11.808585950855202 5.407761472616418 2.9782365706182192 3.422587907620569
8.931141794997455 4.212457888620845 2.1126493075602344 2.606034598816377
1.1209792308239657 0.112708716656807 0.3951832217203425 0.6130872924468141
0.12076052784027469 0.12076052784027469 0.0 0.0
0.23718688012896877 0.23818321034425377 -0.00013400340369853732 -0.0008623268115864244
0.4892955373276831 0.46607990021540213 0.00455936542191386 0.018656271690367307
1.16269461292747 0.7452192029851112 0.13708731164386254 0.28038809829849654
2.7658786150668457 1.0928981005000165 0.6630021027052166 1.0099784118616122
5.6639266061703495 1.4690058445425171 1.8538534032921583 2.341067358335675
10.149495315793839 1.8873005722130203 3.963125209583298 4.299069533997517
16.30763604360968 2.3370211740129028 7.115381320683626 6.855233548913154
24.0950866831015 2.8228637269292274 11.324265362352376 9.9479575938199
33.53575851662282 3.3692521251264362 16.647313452018995 13.519192939477394
44.5168817137681 3.989693888570716 22.989041126671154 17.538146698526237
57.26836021715879 4.67964135539137 30.60573553778878 21.982983323978637
71.40883402795959 5.407951563690055 39.175786153680235 26.82509631058932
86.72007402871913 6.095905075961592 48.65927390790514 31.96489504485239
102.72863063585585 6.629812237541323 58.88399402020293 37.214824378111594
118.22116184558321 6.846008245465525 69.08384967634217 42.291303923775494
131.68020239674496 6.620266451460052 78.30013717629377 46.75979876899115
141.37138498934175 6.069315407060398 85.2447127395536 50.05735684272777
144.9012925289184 4.535307204187078 88.71115122201779 51.654834102713444
141.37138498931762 6.069315407057391 85.24471273953907 50.05735684272116
131.68020239669335 6.620266451452921 78.30013717626376 46.75979876897671
118.22116184553789 6.846008245479178 69.08384967630246 42.29130392375624
102.72863063577736 6.629812237529693 58.88399402015866 37.214824378089
86.7200740286525 6.095905075966566 48.659273907858186 31.964895044827788
71.40883402788288 5.407951563683134 39.17578615363527 26.825096310564433
57.268360217091974 4.679641355389362 30.605735537747726 21.98298332395489
44.516881713694794 3.989693888560011 22.98904112663223 17.538146698502544
33.53575851656368 3.369252125124116 16.647313451984704 13.519192939454861
24.095086683054024 2.822863726929185 11.324265362324663 9.947957593800185
16.30763604357402 2.3370211740104474 7.115381320664959 6.855233548898604
10.149495315766343 1.8873005722096843 3.963125209570427 4.299069533986234
5.663926606151525 1.4690058445397283 1.853853403284396 2.3410673583273973
2.765878615056687 1.0928981004978122 0.6630021027015697 1.009978411857305
1.1626946129233042 0.7452192029838249 0.13708731164272017 0.2803880982967593
0.4892955373265744 0.4660799002144757 0.0045593654218354825 0.018656271690263106
0.23718688012883402 0.23818321034414444 -0.0001340034037007335 -0.0008623268116097198
0.12076052784017775 0.12076052784017775 0.0 0.0
1.1209792308196131 0.11270871665659105 0.3951832217184423 0.6130872924445804
8.931141794976245 4.212457888611633 2.1126493075543618 2.606034598810252
6.6587562076474045 3.258288441764562 1.4497895767250528 1.950678189157793
0.8207136606888217 0.11263182052347212 0.2818187466335299 0.42626309353181924
0.10994538825756069 0.10994538825756069 0.0 0.0
0.18993864142244016 0.189901541769666 6.589439492725108e-06 3.0510213281421066e-05
0.3699097805157402 0.3744866277583804 -0.0025207299761613824 -0.0020561172664786765
0.8492970189011516 0.6404971010353914 0.06138018814646091 0.14741972971929895
2.0988542981182032 0.958926538753933 0.44002185461931304 0.6999059047449586
4.466329736154638 1.3149583468929325 1.342356308906415 1.80901508035529
8.247371281622293 1.6837006089304065 3.0636247635309 3.5000459091609866
13.459763355496232 2.0693209040163394 5.666385810459292 5.7240566410206055
20.058450635810512 2.4810314027265545 9.170630150840125 8.406789082243819
27.99558526590618 2.9416359862777464 13.566621704727824 11.487327574900602
37.305617606757956 3.4759771786173475 18.88977522730991 14.939865200830708
47.85930360214015 4.082193831286972 25.015252283839196 18.761857487013962
59.86019278673536 4.732525077239336 32.20028405315573 22.927383656340286
72.98853702900692 5.396964283877534 40.21720926156365 27.374363483565723
86.67461863485069 5.981087592033278 48.720905449686484 31.972625593130893
100.2108395540891 6.324395042496855 57.4174173278038 36.46902718378846
112.22655312485811 6.270186739115567 65.45571068668754 40.50065569905503
121.1830585629057 5.838664556559221 71.75422518211798 43.59016882422843
124.51379880035068 4.034048225228778 75.21476477599361 45.2649857991284
121.18305856289444 5.838664556565623 71.7542251821062 43.590168824222594
112.22655312482286 6.270186739114849 65.45571068666446 40.50065569904353
100.2108395540339 6.324395042492031 57.417417327770536 36.469027183771345
86.67461863479241 5.981087592028748 48.72090544965113 31.97262559311255
72.98853702894228 5.39696428387419 40.21720926152404 27.37436348354403
59.86019278667287 4.732525077232999 32.20028405311996 22.92738365631994
47.85930360208382 4.082193831287432 25.015252283803697 18.761857486992678
37.30561760670432 3.4759771786135074 18.88977522727949 14.9398652008113
27.995585265856178 2.941635986275528 13.56662170469948 11.48732757488117
20.058450635766857 2.4810314027218188 9.170630150817775 8.40678908222726
13.459763355466496 2.0693209040166365 5.6663858104427325 5.724056641007127
8.247371281600097 1.6837006089293376 3.0636247635199947 3.5000459091507627
4.466329736139329 1.3149583468907755 1.3423563089001282 1.8090150803484257
2.0988542981108766 0.9589265387518878 0.4400218546169818 0.6999059047420076
0.8492970188981794 0.6404971010340528 0.061380188145851965 0.1474197297182745
0.3699097805150766 0.3744866277575801 -0.002520729976150152 -0.0020561172663533735
0.18993864142225164 0.189901541769523 6.589439488950623e-06 3.0510213239683138e-05
0.10994538825739744 0.10994538825739744 0.0 0.0
0.8207136606852632 0.11263182052325568 0.281818746631977 0.42626309353003217
6.658756207630608 3.258288441757673 1.449789576720381 1.9506781891525522
4.873290793945191 2.498954317592748 0.969012849800308 1.4053236265521358
0.5818901895295496 0.143285394832713 0.156090241514979 0.282514553181858
0.12407671476011088 0.12407671476011088 0.0 0.0
0.16812118762206282 0.1680950603604889 1.9734968741964398e-06 2.4153764699717313e-05
0.2934819484945592 0.30153385910715813 -0.001890273414839703 -0.006161637197759154
0.6064434409447532 0.5288688242268571 0.01617247529510894 0.06140214142278742
1.4885019323442863 0.8094941175703669 0.2317050695416143 0.447302745232304
3.402497715455247 1.15093717310976 0.9441547609186972 1.30740578142679
6.408905971669755 1.4787764792300415 2.2126648241571902 2.717464668282526
10.726651234142386 1.8097052906704791 4.3130729805121995 4.603872962959702
16.147680913856803 2.154822963498693 7.119728256465095 6.873129693893013
22.63146601951677 2.5419534198713998 10.626000545890093 9.463512053755279
30.18542035944575 2.9952737925644133 14.838642106213635 12.3515044606677
38.89620646966139 3.52089420337015 19.829609877032173 15.545702389259077
48.67499321167419 4.11144343752581 25.522103319432205 19.04144645471616
59.42577020808338 4.727334348353056 31.904145330052142 22.79429052967821
71.06712469851858 5.336496032819709 39.02662477611019 26.70400388958866
82.66456012673243 5.8255410804390415 46.21707193735603 30.62194710893733
93.26695865758442 5.964374841485108 53.0486305169011 34.25395329919819
101.66705125843879 5.652820623200613 58.83046163418311 37.18376900105505
104.93097484508917 3.5643695721403557 62.39350238759742 38.97310288535139
101.66705125843069 5.652820623208866 58.830461634172366 37.18376900104943
93.26695865754976 5.964374841477442 53.04863051688342 34.25395329918896
82.66456012669533 5.825541080439725 46.217071937331184 30.62194710892442
71.0671246984665 5.336496032810806 39.02662477608224 26.70400388957344
59.42577020803783 4.72733434835872 31.904145330019677 22.79429052965948
48.674993211625846 4.11144343752377 25.522103319403175 19.041446454698896
38.89620646961225 3.520894203367311 19.829609877003822 15.545702389241104
30.18542035940297 2.9952737925636854 14.83864210618844 12.35150446065085
22.631466019475514 2.5419534198684253 10.626000545867825 9.463512053739272
16.147680913824573 2.154822963496988 7.119728256447945 6.873129693879649
10.72665123411412 1.80970529066622 4.313072980499353 4.603872962948547
6.408905971649592 1.4787764792271438 2.2126648241485527 2.7174646682738963
3.4024977154434324 1.1509371731090998 0.9441547609134221 1.307405781420911
1.488501932338845 0.8094941175691162 0.23170506953990527 0.4473027452298235
0.6064434409428019 0.5288688242258396 0.016172475294809883 0.06140214142215246
0.29348194849417625 0.3015338591065395 -0.0018902734147984582 -0.006161637197564882
0.16812118762175038 0.16809506036017552 1.9734968741876967e-06 2.415376470069291e-05
0.12407671475986765 0.12407671475986765 0.0 0.0
0.581890189526655 0.14328539483249872 0.1560902415137922 0.2825145531803643
4.873290793931959 2.498954317587227 0.9690128497968404 1.4053236265478932
3.4419141962564015 1.8877710143158009 0.592238248566025 0.9619049333745766
0.43471284087522716 0.18735605061623212 0.08155746887566587 0.16579932138332895
0.14902878965624797 0.14903898750848707 -5.595583971474408e-07 -9.638293841952227e-06
0.16411404120711193 0.1640997551909949 9.176681420014073e-07 1.3368347975063384e-05
0.2478787571665195 0.2516239907006303 -0.0007484939775825744 -0.0029967395565282666
0.4402440845876446 0.43326524172656483 -0.0021807156204835124 0.009159558481563279
1.0210147494304422 0.6712899303498132 0.1066499740909437 0.24307484498968518
2.3638392879172265 0.9601478444842242 0.5327542733805782 0.8709371700524245
4.789998228189832 1.274314224070016 1.5502985903762778 1.965385413743539
8.086029965806018 1.5531813755256085 3.0349636809637244 3.4978849093166837
12.398451711387331 1.84323641206885 5.20344348918604 5.351771810132439
17.494677008733213 2.1659914566881153 7.877944272210269 7.450741279834827
23.391186655195046 2.5469830371547624 11.067328989182911 9.776874628857373
30.170380449113477 2.9995665294653393 14.826041032875022 12.344772886773121
37.85943122635058 3.520967763807203 19.169833500434365 15.168629962109007
46.53303270420308 4.096319214335055 24.21444945967185 18.222264030196158
55.67249808012754 4.702533342808124 29.518937871725257 21.451026865594187
65.43830129120676 5.305301724827592 35.39589891563023 24.73710065074891
74.90845535677497 5.672649930996234 41.28403111697658 27.951774308802186
82.79609343849015 5.520227276621983 46.50431744547924 30.77154871638893
86.14266420957718 3.1403714388271347 50.260792270922245 32.74150049982775
82.7960934384773 5.520227276619914 46.504317445472225 30.77154871638514
74.9084553567596 5.672649931001702 41.28403111696302 27.951774308794935
65.43830129117154 5.30530172482145 35.39589891561159 24.737100650738462
55.67249808009297 4.7025333428082945 29.518937871703283 21.45102686558141
46.53303270415919 4.0963192143319 24.21444945964638 18.22226403018091
37.8594312263096 3.520967763802185 19.16983350041242 15.168629962095016
30.170380449073967 2.999566529459749 14.826041032854693 12.344772886759525
23.391186655159405 2.5469830371509743 11.067328989164283 9.776874628844155
17.494677008700773 2.1659914566843734 7.877944272193948 7.4507412798224575
12.398451711360014 1.8432364120659435 5.203443489172728 5.351771810121348
8.086029965785812 1.553181375523761 3.0349636809541685 3.4978849093078814
4.789998228174548 1.2743142240673124 1.5502985903700064 1.9653854137372306
2.363839287908528 0.9601478444826502 0.5327542733774001 0.8709371700484778
1.021014749426443 0.6712899303485224 0.10664997408989468 0.24307484498802653
0.4402440845863369 0.43326524172555586 -0.0021807156205568084 0.00915955848133811
0.24787875716623023 0.25162399070029556 -0.0007484939775706968 -0.0029967395564946936
0.1641140412067713 0.1640997551906596 9.176681415783688e-07 1.336834797013782e-05
0.14902878965602054 0.14903898750824732 -5.595583963068968e-07 -9.638293830423766e-06
0.43471284087319284 0.18735605061607283 0.08155746887487428 0.16579932138224543
3.4419141962463367 1.887771014311391 0.5922382485636389 0.9619049333713077
2.402674484303878 1.4400421589475918 0.37004360246458073 0.5925887228917057
0.31901116954305375 0.21368367332569732 0.024149716133723017 0.08117778008363323
0.17518492700946411 0.17510484208951393 7.540433088153141e-06 7.254448686204085e-05
0.17153526840586242 0.1715004784078104 2.629553648440591e-06 3.2160444403629866e-05
0.22294765891817436 0.22560973251929634 -0.00047249429738843425 -0.002189579303733492
0.3402623301200713 0.35197635720455983 -0.004820575822162322 -0.006893451262326458
0.6657261625133519 0.5357316868281099 0.02962956605984921 0.10036490962539273
1.5272391624466164 0.769974459088342 0.25665927381078496 0.5006054295474891
3.1810711277685337 1.0375242404519465 0.8644765023648522 1.2790703849517364
5.709295826282041 1.2960518632093687 1.9884887657168098 2.424755197355863
8.83491919270706 1.5371202868385734 3.450935794264854 3.846863111603634
12.586929265267779 1.8055655668334105 5.32499242436025 5.4563712740741215
16.924628608002525 2.1230515202757605 7.578077903195261 7.223499184531506
21.886379988278893 2.5041377517059624 10.212876428979163 9.16936580759377
27.607121491005465 2.9652293351901413 13.323229975247049 11.318662180568273
34.022261257075726 3.49200544415265 16.85456135923373 13.675694453689358
41.16366541878138 4.066247312926853 20.904228669922876 16.193189435931636
48.79000110056303 4.735513191703611 25.20544578428855 18.849042124570886
56.76891038535841 5.348319033162609 29.816518706181363 21.604072646014423
64.33725009651401 5.44100240789879 34.59682498057125 24.299422708043974
67.95754437375874 2.7756018299771257 38.654909888656064 26.52703265512554
64.33725009651101 5.441002407900883 34.596824980567824 24.29942270804228
56.76891038533473 5.34831903315305 29.816518706172427 21.60407264600926
48.79000110055081 4.735513191714233 25.205445784274303 18.8490421245623
41.163665418752785 4.066247312926658 20.904228669905358 16.19318943592077
34.022261257046694 3.4920054441531123 16.85456135921584 13.675694453677737
27.607121490981513 2.965229335193292 13.323229975230957 11.318662180557276
21.8863799882498 2.504137751698394 10.212876428966633 9.169365807584768
16.924628607984026 2.123051520280638 7.578077903182014 7.223499184521367
12.586929265245708 1.8055655668319026 5.324992424349021 5.456371274064777
8.834919192687972 1.5371202868379559 3.450935794255162 3.8468631115948533
5.709295826266737 1.2960518632080344 1.9884887657097408 2.424755197348963
3.1810711277584143 1.0375242404501166 0.8644765023609853 1.2790703849473115
1.5272391624411783 0.7699744590871304 0.2566592738090621 0.5006054295449855
0.6657261625108402 0.5357316868270099 0.029629566059398132 0.10036490962443226
0.3402623301192512 0.35197635720347575 -0.00482057582212177 -0.006893451262103084
0.22294765891772014 0.2256097325188697 -0.00047249429738322607 -0.0021895793037663407
0.17153526840557556 0.17150047840750005 2.629553649391879e-06 3.216044442610818e-05
0.17518492700916613 0.17510484208910643 7.540433096542111e-06 7.254448696311987e-05
0.3190111695417854 0.21368367332557092 0.02414971613330987 0.08117778008290438
2.4026744842967926 1.440042158944725 0.37004360246274665 0.5925887228893214
1.562783175019204 1.0664713518145565 0.16532167706097076 0.3309901461436763
0.24931840326004368 0.22646197488789277 0.0011394353746517535 0.021716992997499285
0.1973071337776037 0.1974022711555907 -9.477407242681107e-06 -8.565997074424358e-05
0.18532653108185976 0.18546292256646646 -1.1922462567572166e-05 -0.0001244690220391979
0.21188621291695028 0.21417244424140205 -0.00042728914716123716 -0.0018589421772905474
0.28686104127608086 0.2946230912730452 -0.0029345179280867366 -0.0048275320688775745
0.4464654943415696 0.4232240545674458 0.00029479879408871815 0.022946640980034894
0.8890768958934107 0.5888216401536415 0.08748628959473018 0.21276896614503935
1.851167796637341 0.7892392822759332 0.3830936675402513 0.6788348468211556
3.4303293573616185 1.0017839754062083 1.0035309203343536 1.4250144616210563
5.490319169049617 1.207906962216112 1.8903683932688156 2.3920438135646913
7.987431340757892 1.4338677000896343 3.054875415228383 3.4986882254398743
10.85253218419163 1.6979246610060748 4.440834457644572 4.713773065540982
14.125760663244828 2.012495213256194 6.064987527913691 6.048277922074948
17.927386326473915 2.4045584387003576 7.992870176538122 7.529957711235429
22.345448448076773 2.8866341498049812 10.273451653282324 9.185362644989475
27.34601736035033 3.4326689484126085 12.901239350272212 11.012109061665512
32.84240322244948 4.043153442086622 15.811849152673823 12.987400627689041
39.28365762999214 4.863769570818391 19.22105070817575 15.198837350997993
46.533524333382175 5.4160120478396525 23.387408909417456 17.730103376125044
50.59511970857587 2.5222910510594625 27.684441318832135 20.38838733868427
46.53352433338699 5.416012047847766 23.387408909415363 17.73010337612386
39.283657629987914 4.863769570820335 19.221050708171983 15.198837350995584
32.84240322243016 4.043153442085817 15.811849152662552 12.987400627681778
27.34601736033004 3.43266894841316 12.90123935025984 11.012109061657032
22.34544844806029 2.8866341498106314 10.273451653269413 9.18536264498025
17.92738632645412 2.404558438699311 7.992870176527425 7.5299577112273814
14.125760663233706 2.0124952132581555 6.064987527906416 6.048277922069138
10.852532184171457 1.6979246610012695 4.440834457636303 4.713773065533883
7.98743134074349 1.4338677000897124 3.0548754152207698 3.498688225433012
5.490319169035884 1.2079069622156624 1.8903683932622377 2.3920438135579847
3.4303293573536235 1.0017839754072557 1.0035309203300604 1.425014461616307
1.8511677966326516 0.7892392822760079 0.38309366753822066 0.6788348468184242
0.8890768958901631 0.5888216401531605 0.0874862895937244 0.2127689661432781
0.44646549434031313 0.42322405456653933 0.000294798793959437 0.022946640979814446
0.2868610412753939 0.29462309127195774 -0.0029345179280289234 -0.004827532068534757
0.2118862129167718 0.2141724442409737 -0.0004272891471371608 -0.0018589421770648185
0.18532653108158306 0.1854629225662794 -1.1922462575111196e-05 -0.00012446902212121324
0.19730713377704898 0.19740227115492248 -9.47740723641454e-06 -8.565997063705073e-05
0.2493184032592299 0.22646197488764916 0.0011394353744565429 0.021716992997124124
1.5627831750142263 1.0664713518123408 0.16532167705985928 0.33099014614202643
0.9971028374447071 0.8001016522932569 0.05810527733687539 0.13889590781457514
0.20672942441469733 0.2193873982784951 -0.0054094784935457595 -0.007248495370252042
0.21314908759742657 0.21293018348476042 2.8333540515050054e-05 0.00019057057215109263
0.201582615873981 0.20150000552456715 7.879096660147848e-06 7.473125275369937e-05
0.21288919187097285 0.2146413830029967 -0.00038486811347716426 -0.0013673230185466824
0.2619081018222459 0.267212271009866 -0.001906134757948283 -0.003398034429671786
0.3456057336414481 0.3369719961038824 -0.00014085320329628015 0.00877459074086201
0.4902680039002368 0.41353081849456813 0.01624974863827102 0.06048743676739759
0.8373765513189284 0.5223092743132285 0.09307834318699333 0.22198893381870632
1.5251349662360905 0.6576918598523029 0.3063922401758117 0.5610508662079757
2.583880445453715 0.8023853983608661 0.713615177820036 1.0678798692728122
3.861373509023265 0.9618809799629572 1.221057556542366 1.6784349725179415
5.386281674847796 1.1572546633792682 1.8718478700545575 2.35717914141397
7.169187029259258 1.3998671801146083 2.6579316708428826 3.1113881783017705
9.267944367746876 1.710018275280544 3.595494440491692 3.962431651974639
11.813028826405882 2.1214141774573965 4.741519346455621 4.95009530249286
14.923343678800768 2.639942892319969 6.171285988325118 6.1121147981556785
18.55969748764865 3.1836868108148852 7.930815938135299 7.445194738698477
22.90840579335608 3.866013636299774 10.042584237956575 8.999807919099727
29.295834848407747 5.1330294496547815 13.03544758130649 11.127357817446484
34.90529816225546 2.522935133286269 17.98183697523104 14.400526053738147
29.29583484839547 5.1330294496399755 13.035447581307992 11.1273578174475
22.908405793351204 3.8660136362977093 10.042584237954904 8.999807919098592
18.559697487624405 3.1836868107997662 7.930815938130028 7.445194738694617
14.923343678784363 2.6399428923165797 6.17128598831777 6.112114798150017
11.813028826385608 2.121414177448668 4.741519346449336 4.950095302487601
9.267944367733719 1.7100182752752018 3.595494440487581 3.9624316519709364
7.169187029250487 1.3998671801130391 2.6579316708391034 3.111388178298343
5.3862816748409355 1.1572546633781622 1.8718478700516652 2.3571791414111067
3.861373509015115 0.9618809799626388 1.221057556538586 1.6784349725138896
2.583880445447663 0.8023853983620678 0.7136151778167564 1.0678798692688396
1.5251349662312528 0.6576918598513316 0.3063922401741604 0.5610508662057608
0.8373765513166213 0.522309274312798 0.09307834318630506 0.22198893381751783
0.4902680038991278 0.4135308184942154 0.01624974863804994 0.06048743676686255
0.34560573364101954 0.33697199610335266 -0.0001408532033073083 0.008774590740974107
0.26190810182169666 0.2672122710092544 -0.0019061347579362427 -0.0033980344296216133
0.21288919187047148 0.21464138300234503 -0.000384868113456754 -0.0013673230184167405
0.2015826158734814 0.201500005523882 7.879096677685756e-06 7.473125292174945e-05
0.2131490875969907 0.21293018348414022 2.8333540534857808e-05 0.0001905705723155959
0.20672942441417316 0.21938739827806852 -0.005409478493554462 -0.007248495370340895
0.997102837441639 0.8001016522917106 0.058105277336325874 0.13889590781360206
0.6236576288729115 0.5843356694751097 0.007643216229569098 0.031678743168232805
0.1879658450703472 0.19496681649794 -0.0013865558328252133 -0.0056144155947676685
0.222565317668749 0.22310557586363122 -6.129137993985382e-05 -0.0004789668149423159
0.21763797312093655 0.21740648351653652 2.5547369029283265e-05 0.0002059422353706869
0.22369908137561884 0.22450301982513735 -0.0002835417005098212 -0.0005203967490085486
0.2589329443083911 0.2617585486696825 -0.001399608123801877 -0.0014259962374896227
0.32062386579583 0.3068835035333799 0.0019122659546494494 0.011828096307800785
0.3750161107287011 0.3102729711135574 0.015605566932909024 0.04913757268223471
0.4215789184023725 0.2709088837267543 0.04746896002477289 0.10320107465084533
0.5353744816695278 0.2441604027576158 0.09985628261527361 0.19135779629663877
0.8099952713563542 0.28200222555711774 0.20890713734293548 0.3190859084563011
1.232629758327885 0.30538640761899205 0.3673222505165619 0.5599211001923317
1.8089200273622676 0.30806342728981295 0.6188553655152566 0.8820012345571976
2.522673092029366 0.3263865634545987 0.9417486450090637 1.2545378835657048
3.3929694263776273 0.3788627743443215 1.3381166771087822 1.675989974924523
4.423425631414681 0.4862141520367948 1.795466125009027 2.1417453543688607
5.665660401589911 0.672347856678731 2.346385345309777 2.6469271996014037
7.106318557663538 0.9244035819268728 2.9937650970361487 3.1881498787005165
9.145669135452414 1.3497102703654495 3.8795006592064865 3.9164582058804784
14.463323357977647 3.0896237653152734 5.658927352803322 5.714772239859052
24.19337754608128 2.6949460528006988 11.36477845349645 10.133653039784138
14.463323357991742 3.0896237653235232 5.6589273528067014 5.714772239861521
9.145669135448134 1.3497102703638633 3.879500659205049 3.9164582058792266
7.1063185576606855 0.9244035819293425 2.9937650970332683 3.188149878698075
5.665660401582565 0.6723478566780884 2.3463853453061807 2.646927199598293
4.423425631412853 0.4862141520392643 1.79546612500689 2.1417453543666998
3.392969426371915 0.37886277434285176 1.3381166771066635 1.6759899749223992
2.5226730920247427 0.3263865634542293 0.9417486450070482 1.2545378835634662
1.808920027359029 0.30806342729061176 0.6188553655133123 0.8820012345551045
1.232629758322835 0.3053864076180854 0.3673222505147059 0.5599211001900435
0.8099952713514984 0.2820022255542779 0.20890713734190314 0.31908590845531676
0.5353744816682453 0.24416040275658982 0.09985628261515811 0.19135779629649796
0.4215789184024643 0.2709088837272481 0.04746896002461817 0.10320107465059766
0.37501611072810853 0.3102729711135276 0.0156055669327228 0.049137572681858296
0.3206238657951862 0.3068835035328688 0.0019122659545820044 0.011828096307735457
0.25893294430777514 0.2617585486690218 -0.001399608123796602 -0.001425996237450111
0.22369908137498534 0.22450301982436366 -0.000283541700494216 -0.0005203967488841043
0.21763797312047378 0.21740648351589406 2.5547369050601864e-05 0.00020594223552901608
0.22256531766836565 0.22310557586334295 -6.129137994933914e-05 -0.00047896681502785385
0.18796584506998057 0.19496681649725567 -0.0013865558327753747 -0.005614415594499799
0.6236576288715171 0.5843356694740732 0.007643216229438677 0.03167874316800548
0.40231892389626606 0.40316801852057976 -0.0002122011549784181 -0.0006368934693353398
0.1770162230430333 0.17704498657426426 1.2491472966294906e-05 -4.125500419727241e-05
0.2259120972351309 0.225719564492888 5.486384348525752e-06 0.00018704635789446917
0.23133791775189033 0.23096087616133737 3.415782200413127e-05 0.00034288376854874737
0.24054520878316338 0.2403394619179422 -0.00015417902100494643 0.000359925886226189
0.2789216665792689 0.2793962484464448 -0.0011306173972558359 0.0006560355300800128
0.35662059843276994 0.34461436636442616 0.0014087469451434164 0.010597485123200596
0.4959645924563418 0.4154031601592547 0.017735583029288335 0.06282584926779863
0.8391218225148012 0.5222315463204843 0.09377983186390552 0.22311044433041122
1.5241218446314069 0.65728086516588 0.30607502184172525 0.5607659576238008
2.5872607706792055 0.8041641865567405 0.7147672502552941 1.0683293338671727
3.8801728337559878 0.9650210499508398 1.2300205679823173 1.68513121582283
5.426645340652549 1.1628637889419937 1.8892113692429278 2.3745701824676266
7.210431411505773 1.4010564875935858 2.679568383275779 3.129806540636406
9.172733659043342 1.6801249439047665 3.562999626117685 3.9296090890208863
11.21001630203429 2.002057938782956 4.487463987186472 4.720494376064865
13.061653321048885 2.3486115157099503 5.315699227630464 5.39734257770847
14.540446743270504 2.756249229669822 5.954433214577478 5.829764299023202
15.060377660111827 3.0429455827024854 6.126313667246217 5.891118410163127
12.152262909882435 2.037893455002318 5.274308528083003 4.840060926797106
24.50298287368321 4.284477076285378 10.488332775638048 9.730173021759773
12.15226290988113 2.037893454995379 5.274308528086166 4.840060926799582
15.060377660110612 3.0429455827035694 6.126313667244863 5.891118410162189
14.540446743263386 2.7562492296720817 5.954433214572191 5.829764299019104
13.061653321039909 2.3486115157112 5.315699227624836 5.397342577703878
11.210016302017355 2.002057938778388 4.487463987179761 4.720494376059201
9.172733659036597 1.6801249439081922 3.5629996261124233 3.9296090890159845
7.210431411492206 1.4010564875912106 2.6795683832699506 3.1298065406310456
5.426645340641291 1.1628637889408278 1.8892113692378696 2.374570182462594
3.8801728337423067 0.9650210499488915 1.230020567976652 1.6851312158167635
2.587260770670426 0.804164186556803 0.7147672502512338 1.0683293338623883
1.5241218446258513 0.6572808651657208 0.30607502183949986 0.560765957620631
0.8391218225120063 0.5222315463194938 0.09377983186324598 0.22311044432926666
0.49596459245538776 0.41540316015883366 0.01773558302911839 0.06282584926743569
0.3566205984322209 0.344614366363878 0.0014087469451102563 0.010597485123232405
0.27892166657843837 0.2793962484454948 -0.0011306173972661043 0.0006560355302097833
0.24054520878291957 0.24033946191747751 -0.0001541790209773918 0.00035992588641961445
0.23133791775154525 0.23096087616080896 3.415782202152506e-05 0.0003428837687150144
0.22591209723489292 0.2257195644925284 5.4863843556822535e-06 0.00018704635800875918
0.17701622304282785 0.17704498657410483 1.2491472958226732e-05 -4.125500423513971e-05
0.40231892389555535 0.4031680185195594 -0.00021220115494500954 -0.0006368934690591471
0.2603319759791331 0.2603112368490109 1.3476233019465938e-06 1.9391506820260498e-05
0.16325505294195497 0.16330121928455582 -2.471830215743486e-06 -4.36945123851436e-05
0.22282356819037577 0.22323757881824202 -5.5095034046787715e-05 -0.0003589155938195088
0.24101535452969283 0.24027273599373844 6.251255682559133e-05 0.0006801059791289014
0.2617423991624478 0.2638996634005882 -0.0005470663303155668 -0.0016101979078247716
0.3201043292133441 0.3231978042470906 -0.0014284302349811832 -0.0016650447987655909
0.46377985941275157 0.4246803837499727 0.003924540566334834 0.03517493509644396
0.897463260641461 0.5896987257470583 0.09055230680974474 0.217212228084658
1.851335783281878 0.7889751645847829 0.38323749344403063 0.6791231252530638
3.4287770399259765 1.0017103582727027 1.002694071182754 1.4243726104705192
5.494142755002257 1.2086728838805119 1.891785414815018 2.393684456306726
8.004674541997668 1.4362887886701774 3.0625966867623697 3.5057890665651197
10.88729257298445 1.7007684631070252 4.458199953171402 4.728324156706027
14.149462839066125 2.0064432757904624 6.081986080797521 6.061033482478133
17.80080887097554 2.3604357402720106 7.9473412036489925 7.493031927054541
21.697422412970184 2.7528321542310676 9.977270246724318 8.967320012014786
25.518583951709758 3.1861579172918733 11.968658187476155 10.363767846941734
28.77618313961832 3.6850314970674027 13.58337150444218 11.507780138108728
30.37150212965059 3.9019069596431777 14.424356499348084 12.045238670659323
28.18025804850963 3.8129930544423694 13.270088330404498 11.097176663662761
34.681975869829444 8.339178373605609 14.297411564480464 12.045385931743342
28.18025804852323 3.8129930544478725 13.270088330409434 11.097176663665921
30.371502129641776 3.9019069596390428 14.42435649934524 12.04523867065749
28.77618313960125 3.685031497063865 13.583371504434044 11.507780138103346
25.518583951668628 3.186157917273534 11.968658187462632 10.36376784693245
21.69742241294825 2.752832154230147 9.977270246712132 8.967320012005978
17.800808870952146 2.3604357402681773 7.947341203637847 7.493031927046125
14.149462839050056 2.0064432757921917 6.081986080787685 6.061033482470178
10.887292572960531 1.7007684631018438 4.4581999531612455 4.728324156697445
8.004674541979867 1.4362887886711402 3.0625966867525456 3.5057890665561815
5.494142754983366 1.2086728838777705 1.8917854148069715 2.393684456298624
3.4287770399129056 1.0017103582710651 1.0026940711773056 1.4243726104645358
1.851335783274438 0.7889751645831972 0.38323749344151425 0.6791231252497254
0.8974632606382957 0.5896987257460853 0.09055230680894866 0.21721222808326196
0.46377985941123023 0.4246803837490797 0.003924540566121491 0.035174935096029314
0.320104329212498 0.3231978042459758 -0.0014284302349397199 -0.0016650447985381727
0.2617423991622059 0.26389966340012116 -0.0005470663302751929 -0.0016101979076400658
0.24101535452921002 0.2402727359930861 6.251255683950016e-05 0.0006801059792844299
0.22282356819028848 0.22323757881809367 -5.5095034043042826e-05 -0.00035891559376212867
0.16325505294184825 0.16330121928447922 -2.4718302173980843e-06 -4.3694512413577056e-05
0.26033197597851276 0.26031123684840357 1.3476233008971399e-06 1.9391506808273514e-05
0.16118876817686414 0.16118876817686414 0.0 0.0
0.14436097485855173 0.14436527909030228 -1.4328105404036436e-07 -4.160950696500454e-06
0.2128853888995304 0.21314872770855894 -3.3015854529101276e-05 -0.0002303229544994629
0.24690547407167596 0.24772984946768734 -0.00015442144811704745 -0.0006699539478944809
0.28659271369953576 0.2877493065129653 -0.00045628205362478676 -0.0007003107598046977
0.3802092465651136 0.3726099347851534 -0.0014987969212249324 0.009098108701185315
0.692302338274699 0.543672849612899 0.03796027337093481 0.11066921529086507
1.5333230277851995 0.7704824959836849 0.25956271078724324 0.5032778210142718
3.1788257105605746 1.037514595214925 0.8633864330274947 1.2779246823181527
5.709023722573458 1.296385042296615 1.988437645056344 2.4242010352205012
8.839277587758952 1.5376498535636793 3.451683827854746 3.8499439063405303
12.599799627173482 1.8066129716600319 5.331567567312236 5.4616190882012186
16.939363332398607 2.1229467575299577 7.586581593293771 7.229834981574877
21.8705475515187 2.4929831705937113 10.210354927746327 9.16720945317866
27.44657105414693 2.915210914067544 13.257915829617138 11.273444310462231
33.45096372966752 3.372051367741557 16.582180976257746 13.49673138566821
39.64016424394218 3.855912196315721 20.09808892248342 15.686163125143043
44.89477532701937 4.224368826887383 23.10015344896386 17.57025305116814
47.55286440738382 4.3035295506610804 24.710227336451364 18.53910752027137
44.27992985523941 3.8020107537135845 23.000556771967062 17.47736232955876
49.659027223731876 11.307800699027993 21.65173697796101 16.69948954674288
44.279929855234755 3.8020107537042858 23.000556771969965 17.477362329560492
47.55286440738146 4.303529550666694 24.710227336446394 18.539107520268395
44.89477532699154 4.224368826881206 23.100153448950365 17.570253051159973
39.64016424391886 3.855912196326015 20.098088922462743 15.6861631251301
33.4509637296237 3.3720513677307107 16.582180976237755 13.496731385655236
27.446571054116376 2.915210914066153 13.25791582959981 11.27344431045041
21.870547551484304 2.4929831705866405 10.2103549277304 9.167209453167263
16.939363332367897 2.1229467575284624 7.586581593277176 7.229834981562256
12.599799627144257 1.8066129716561268 5.331567567298279 5.4616190881898445
8.839277587732989 1.537649853562855 3.4516838278414315 3.849943906328702
5.709023722556066 1.296385042296393 1.988437645047668 2.4242010352120036
3.1788257105498974 1.0375145952140707 0.8633864330229064 1.2779246823129204
1.5333230277785896 0.7704824959818541 0.25956271078529025 0.503277821011445
0.6923023382715863 0.5436728496118755 0.03796027337022907 0.11066921528948166
0.38020924656429544 0.3726099347841542 -0.001498796921206287 0.009098108701347446
0.2865927136990989 0.28774930651231334 -0.00045628205360132034 -0.0007003107596132769
0.24690547407131838 0.2477298494671259 -0.0001544214480917024 -0.0006699539477157609
0.21288538889932712 0.21314872770839383 -3.301585453445799e-05 -0.0002303229545322682
0.144360974858253 0.14436527908999353 -1.432810533475878e-07 -4.1609506871892085e-06
0.1611887681763507 0.1611887681763507 0.0 0.0
0.09442401315700863 0.09442401315700863 0.0 0.0
0.12101095723327313 0.12100673115954569 2.3276924337965782e-07 3.99330448403657e-06
0.19710052862735705 0.19721545021431733 -1.4007873331705508e-05 -0.00010091371362862074
0.2493569457265531 0.24966448884835923 -9.219233611526706e-05 -0.00021535078569088058
0.3141537196796126 0.31870529600413755 -0.0013048065454822867 -0.003246769779042633
0.48466290280431684 0.45288443494208036 0.005379406502445203 0.02639906135979134
1.038123507091382 0.6682314135437868 0.11327393269608443 0.2566181608515105
2.364963639964085 0.9606102807053741 0.5335043639999866 0.8708489952587245
4.787013696919306 1.2748692022830794 1.54850806685595 1.9636364277802774
8.08730172252185 1.5537369094992095 3.035143345599436 3.4984214674232055
12.404722495675333 1.8431989639671333 5.207163752515982 5.354359779192214
17.49726805053304 2.164057626405201 7.8805720298159345 7.4526383943119034
23.371183248263257 2.5406179355240357 11.059488201727197 9.771077111012044
30.09760666951107 2.983725984900641 14.792125285831455 12.32175539877896
37.688698830822965 3.4858811557615725 19.086895826880124 15.115921848181273
46.1359917299052 4.021959784830155 24.01309637385153 18.100935571223538
54.49548466413615 4.478587888284098 28.916604291420732 21.100292484431318
61.82539970353019 4.681841205806253 33.48463682890306 23.658921668820852
65.30626455416889 4.391083311736347 35.93125746333916 24.98392377909337
61.10415947969448 3.884563890737597 33.562140362118676 23.657455226838206
66.39509056803584 14.203747491379165 30.312136210637668 21.879206866018983
61.10415947968855 3.8845638907339675 33.56214036211721 23.657455226837364
65.30626455414983 4.39108331173168 35.931257463329885 24.98392377908827
61.82539970349899 4.681841205805079 33.484636828883815 23.65892166881006
54.4954846640874 4.478587888277062 28.91660429139442 21.10029248441592
46.135991729865644 4.021959784834237 24.013096373824347 18.10093557120707
37.688698830778776 3.4858811557563434 19.08689582685634 15.115921848166103
30.0976066694681 2.9837259848973097 14.792125285807684 12.32175539876309
23.371183248222874 2.5406179355230964 11.059488201704088 9.771077110995682
17.497268050496242 2.164057626402422 7.880572029796659 7.452638394297163
12.404722495646336 1.84319896396855 5.20716375249942 5.354359779178364
8.087301722497237 1.5537369094964422 3.0351433455880885 3.4984214674127068
4.78701369690193 1.2748692022801043 1.5485080668487732 1.9636364277730534
2.3649636399544116 0.9606102807033187 0.5335043639965936 0.8708489952544998
1.0381235070866337 0.6682314135426234 0.11327393269470425 0.2566181608493056
0.48466290280313173 0.45288443494106856 0.005379406502396713 0.026399061359666555
0.3141537196793473 0.3187052960034973 -0.0013048065454252904 -0.003246769778724721
0.24935694572641676 0.2496644888480909 -9.219233610518115e-05 -0.00021535078556899067
0.19710052862713298 0.19721545021413253 -1.4007873336033628e-05 -0.00010091371366353995
0.12101095723304578 0.12100673115931845 2.3276924336996675e-07 3.9933044839934034e-06
0.09442401315663046 0.09442401315663046 0.0 0.0
0.05203252594524253 0.05203252594524253 0.0 0.0
0.09589559140035826 0.09589559140035826 0.0 0.0
0.17696936170929942 0.17696739501223427 -2.8983288879232313e-07 2.256529953974631e-06
0.2492061190914232 0.2501886847722318 -0.00016750320217801128 -0.0008150624786306129
0.3486037070361291 0.34976355644677076 -0.0015609248375865518 0.0004010754269447802
0.6432918924100675 0.5417991943863087 0.025795059134239295 0.07569763888951934
1.5012696614176408 0.8094404135908708 0.23810501452221944 0.45372423330455103
3.4003697518642806 1.1520606272878156 0.9428127489352518 1.3054963756412121
6.40731979998042 1.4797249730257476 2.21152173164038 2.7160730953142935
10.730193736325674 1.8102437289487965 4.314627013748133 4.605322993628741
16.15242218892282 2.153769242152566 7.122992758070281 6.875660188699975
22.618647499191518 2.5354280932774533 10.622360696771988 9.460858709142085
30.12052330292633 2.9792724295940918 14.809428571677234 12.331822301654997
38.759094614314684 3.50163463060643 19.757437929600634 15.500022054107623
48.5039033135982 4.105798658769628 25.418596483820032 18.979508171008543
59.19838507997521 4.701549178313209 31.775464061025772 22.721371840636234
70.21693948003717 5.107398108191678 38.62524626309849 26.484295108747
79.26756819755536 5.038205921960607 44.51539984706726 29.713962428527502
83.21208272915246 4.384948350032062 47.479590027327774 31.3475443517926
78.52073579916195 4.08716669773136 44.66443394134532 29.769135160085266
84.64854860006358 17.12211586018288 40.18682855412469 27.339604185756023
78.52073579915482 4.087166697731313 44.664433941340725 29.769135160082794
83.21208272912935 4.384948350030599 47.479590027313556 31.347544351785167
79.26756819751841 5.038205921961785 44.515399847042474 29.713962428514172
70.21693947998878 5.107398108195543 38.625246263064746 26.4842951087285
59.19838507992006 4.701549178310983 31.775464060992142 22.721371840616975
48.50390331353823 4.105798658761564 25.41859648378758 18.97950817098906
38.759094614261926 3.501634630605125 19.757437929569086 15.500022054087735
30.120523302879064 2.9792724295942614 14.809428571648848 12.331822301635963
22.618647499143968 2.535428093274315 10.622360696746096 9.460858709123547
16.15242218888148 2.1537692421480057 7.122992758049588 6.87566018868389
10.730193736295224 1.810243728945177 4.314627013733703 4.605322993616342
6.407319799959698 1.4797249730234068 2.2115217316312576 2.7160730953050325
3.400369751850987 1.152060627284942 0.9428127489302945 1.3054963756357507
1.5012696614110723 0.8094404135892406 0.23810501452019942 0.45372423330163336
0.6432918924078916 0.5417991943850607 0.025795059133913882 0.07569763888891705
0.3486037070354602 0.3497635564458734 -0.0015609248375575869 0.00040107542714452795
0.24920611909134516 0.2501886847721147 -0.00016750320217508925 -0.0008150624785944959
0.17696936170911073 0.17696739501206926 -2.898328910626144e-07 2.2565299325497456e-06
0.09589559140025483 0.09589559140025483 0.0 0.0
0.052032525945135834 0.052032525945135834 0.0 0.0
0.026886320877053345 0.026886320877053345 0.0 0.0
0.07187447356108977 0.07187447356108977 0.0 0.0
0.15489104126438244 0.1548858546571823 3.2864464628742965e-07 4.857962553844154e-06
0.24869722897759483 0.24947177608332896 -0.00014181848040615313 -0.0006327286253279054
0.4023721728052896 0.4001545126466738 -0.0006503247658751186 0.0028679849244908264
0.8579776693105243 0.6267920977773054 0.06452843455037847 0.16665713698283996
2.103740405309744 0.9591449002892933 0.4433680213103736 0.7012274837100769
4.4639091970120415 1.316328730897775 1.3403561004020115 1.8072243657122538
8.248282146662232 1.684756271826767 3.063786160675132 3.4997397141603326
13.465073102000472 2.0696319157772765 5.669175976442299 5.726265209780903
20.05927486190592 2.478283587671182 9.172702903780655 8.408288370454084
27.964039016765543 2.9297766984941083 13.554935741278275 11.479326576993174
37.19646455005723 3.4502181217397285 18.83885088844449 14.907395539873011
47.659429468052025 4.057863798932566 24.905688350527605 18.695877318591858
59.656269116563536 4.746308296825835 32.06169811994566 22.84826269979203
72.8378116975202 5.417541786534469 40.10591023464542 27.314359676340302
86.00936585146714 5.743238224845312 48.44004123493851 31.826086391683308
96.8673160634014 5.344282208889956 55.85171292750731 35.67132092700417
101.69755386460614 4.3870748044765175 59.69285452132601 37.61762453880366
96.7249790415892 4.333744508152727 56.43604199799154 35.95519253544494
104.02270482532641 20.033151129542983 50.87401451125511 33.11553918452834
96.72497904157557 4.333744508150318 56.43604199798399 35.95519253544119
101.69755386456958 4.387074804470684 59.692854521305684 37.61762453879322
96.86731606335104 5.344282208885552 55.85171292747679 35.671320926988685
86.00936585141113 5.743238224849037 48.44004123489937 31.826086391662727
72.83781169745313 5.417541786532393 40.10591023460337 27.314359676317345
59.656269116499004 4.746308296825306 32.061698119904904 22.84826269976879
47.65942946799431 4.05786379893623 24.905688350489285 18.695877318568787
37.19646454999273 3.4502181217336685 18.838850888408835 14.907395539850215
27.964039016711702 2.9297766984938125 13.554935741246455 11.479326576971426
20.05927486185974 2.47828358767061 9.172702903754459 8.408288370434661
13.465073101964453 2.069631915772797 5.669175976424926 5.726265209766737
8.248282146634718 1.6847562718232616 3.0637861606627883 3.4997397141486677
4.463909196996083 1.316328730894861 1.340356100395724 1.8072243657054994
2.103740405300672 0.9591449002872909 0.44336802130724806 0.7012274837061307
0.8579776693073163 0.6267920977758631 0.06452843454972301 0.1666571369817308
0.40237217280429943 0.40015451264569246 -0.0006503247658914932 0.0028679849244983985
0.24869722897731114 0.24947177608303397 -0.00014181848040710767 -0.0006327286253156697
0.154891041264093 0.15488585465689209 3.286446463313423e-07 4.857962554588966e-06
0.07187447356095435 0.07187447356095435 0.0 0.0
0.026886320877029062 0.026886320877029062 0.0 0.0
0.013175250926558154 0.013175250926558154 0.0 0.0
0.05121412999418452 0.05121412999418452 0.0 0.0
0.13362114142961273 0.13361820230583193 1.4049774413010274e-07 2.79862603667179e-06
0.25164556157975226 0.2528096590489666 -0.00020735710638055695 -0.0009567403628337992
0.4826597053974913 0.4578141859687562 0.004912852470444428 0.01993266695829091
1.1589619388747958 0.7408862805889495 0.1381017398063236 0.2799739184795234
2.7645174108735837 1.0928524775357844 0.6624622319302977 1.0092027014075018
5.664590160412624 1.470033216628199 1.853931311145764 2.340625632638659
10.153767921957051 1.8883003121258612 3.9649932654395865 4.300474344391608
16.313312562588344 2.3366681345010374 7.118842844208129 6.857801583879169
24.089064923187188 2.8178058705392384 11.323733839763516 9.947525212884441
33.48482972038817 3.3525993161375927 16.626589871624724 13.50564053262586
44.37337481639415 3.95741534479946 22.920018790767138 17.49594068082756
57.01258820406005 4.646123958814594 30.464777158663676 21.901687086581774
71.10951241126652 5.409536663038326 38.98150711295043 26.718468635277766
86.45291592933275 6.120723685007137 48.46806765186098 31.86412459246465
101.97233963970855 6.387111908966185 58.542950922809844 37.04227680793254
114.70954418101363 5.693498546857034 67.50142221325842 41.51462342089818
120.6925287235743 4.423063037576883 72.36210178589471 43.90736390010269
115.99952482073851 4.563782195311585 69.13512643355661 42.300616191870326
125.0502528919866 22.889374602752476 62.92730392306366 39.23357436617047
115.99952482072126 4.5637821953094395 69.1351264335465 42.30061619186539
120.69252872353218 4.423063037575092 72.36210178586748 43.90736390008958
114.70954418094347 5.693498546846698 67.50142221321822 41.51462342087853
101.97233963963602 6.387111908961269 58.54295092276499 37.042276807909765
86.45291592925592 6.120723685007402 48.46806765181036 31.864124592438113
71.10951241119066 5.409536663035042 38.98150711290358 26.718468635252062
57.012588203982105 4.64612395880999 30.464777158617206 21.901687086554904
44.37337481632928 3.957415344802314 22.92001879072511 17.49594068080185
33.48482972032285 3.352599316134072 16.62658987158746 13.505640532601317
24.089064923132412 2.817805870537165 11.323733839732686 9.94752521286257
16.313312562545608 2.336668134496842 7.118842844186428 6.85780158386233
10.153767921927283 1.8883003121238533 3.964993265424832 4.300474344378599
5.664590160392133 1.470033216624495 1.8539313111377187 2.3406256326299206
2.7645174108625956 1.092852477533626 0.662462231926281 1.0092027014026894
1.1589619388701262 0.7408862805871429 0.13810173980519147 0.27997391847779124
0.482659705396152 0.4578141859677926 0.004912852470322328 0.019932666958036766
0.25164556157939927 0.25280965904840624 -0.00020735710636835523 -0.0009567403626384889
0.133621141429369 0.13361820230559188 1.4049774391209618e-07 2.7986260332292525e-06
0.0512141299939911 0.0512141299939911 0.0 0.0
0.013175250926564925 0.013175250926564925 0.0 0.0
0.006374523876176261 0.006374523876176261 0.0 0.0
0.03530978289070766 0.03530978289070766 0.0 0.0
0.11623227969379533 0.11623227969379533 0.0 0.0
0.2643410106065678 0.2667135042047851 -0.0004495966271791715 -0.001922896971038078
0.5991211767977637 0.5246324213499888 0.017794467686196462 0.05669428776157853
1.5398996847403044 0.8557102850020077 0.2478681597138952 0.4363212400244013
3.4942210094939217 1.2066620076537435 0.9303276842064815 1.357231317633693
6.942689998497586 1.621613470461442 2.4253557672282677 2.8957207608078765
12.127955086345672 2.0914043385732883 4.923999777432449 5.112550970339933
19.2364239915142 2.6107020784360375 8.630371680575191 7.995350232502984
28.260098391565307 3.1773531013066383 13.592558348623918 11.49018694163474
39.12603820282995 3.8013195854577386 19.7873440889066 15.537374528465618
51.95900376245877 4.505773782098563 27.363939225884934 20.089290754475243
66.45289485014354 5.283456433676837 36.04241256317475 25.127025853291943
82.75002607318788 6.071362788357172 46.09119062020383 30.58747266462686
100.27373061748459 6.749277600229446 57.17653261136481 36.34792040589032
117.85060963606597 7.015974787527039 68.71758068603393 42.11705416250499
132.65343549435232 6.223527814206525 79.2291499455665 47.20075773457932
140.2389966995533 4.479039008623743 85.59541696912864 50.16454072180093
136.58452271337364 4.710990054234572 82.96497297688717 48.90855968225182
147.92909362926738 25.56914090144274 76.47908706805676 45.88086565976781
136.58452271332953 4.7109900542134024 82.96497297687137 48.90855968224467
140.2389966995025 4.479039008623899 85.59541696909406 50.16454072178458
132.65343549429397 6.223527814218623 79.2291499455189 47.20075773455645
117.85060963597093 7.0159747875124605 68.71758068597994 42.11705416247855
100.2737306174068 6.749277600237336 57.17653261130796 36.34792040586148
82.75002607309555 6.0713627883496875 46.091190620148424 30.58747266459747
66.45289485006683 5.283456433681692 36.042412563122454 25.127025853262708
51.959003762371 4.505773782089009 27.363939225835754 20.08929075444623
39.126038202758664 3.801319585456721 19.787344088863478 15.537374528438477
28.260098391505167 3.1773531013040786 13.592558348589778 11.490186941611313
19.236423991466854 2.6107020784333317 8.6303716805497 7.995350232483822
12.12795508631102 2.0914043385692405 4.923999777415888 5.112550970325891
6.942689998473649 1.621613470457923 2.4253557672179533 2.8957207607977717
3.494221009480432 1.2066620076513879 0.9303276842015824 1.3572313176274626
1.5398996847341124 0.8557102850003595 0.24786815971203474 0.4363212400217185
0.5991211767962489 0.5246324213489609 0.017794467686010194 0.05669428776127774
0.26434101060610055 0.26671350420416906 -0.00044959662715942847 -0.0019228969709091169
0.1162322796937743 0.1162322796937743 0.0 0.0
0.03530978289057116 0.03530978289057116 0.0 0.0
0.00637452387613949 0.00637452387613949 0.0 0.0
0.0030254659468448644 0.0030254659468448644 0.0 0.0
0.024407730229632676 0.024407730229632676 0.0 0.0
0.10688718519762613 0.10688718519762613 0.0 0.0
0.2969103219574496 0.2987868061290593 -0.0007262729420844961 -0.0011502112295253821
0.7757450256339056 0.6158208081104254 0.04836287116538385 0.11156134635809596
1.9721574696265014 0.956556270141644 0.37912468259491333 0.6364765168899442
4.316048237887281 1.3216572598032228 1.2682279163192622 1.7261630617647954
8.267778210581296 1.7684622766867775 3.033111644016786 3.466204289877729
14.17295383948494 2.294463712761426 5.947391036379736 5.931099090343781
22.222507199410327 2.893413292612783 10.194885675358512 9.134208231439034
32.494732018373504 3.5528547844441762 15.907139979044684 13.03473725488464
45.01877170228025 4.283560504653379 23.164496543935627 17.570714653691226
59.532686089772746 5.095049813178266 31.742004490836315 22.695631785758216
76.23023516332738 5.949162546973213 41.927663075578145 28.353409540776006
94.68687341482638 6.756876393006335 53.47579763542181 34.45419938639822
114.18579999184686 7.331641458382664 66.053913929607 40.800244603857166
133.4535008605447 7.461876347644791 78.9574546454646 47.034169867435345
150.31821919014936 6.893179924407448 90.83921634858248 52.585822917159454
160.14014357717343 4.812312409112053 99.00544939873899 56.322381769322355
158.66700395906366 4.574800338912676 98.18269154187645 55.90951207827452
172.97363707585558 27.16147338879391 92.47011469714195 53.34204898991966
158.66700395903757 4.574800338915577 98.18269154185656 55.909512078265365
160.14014357711258 4.812312409112652 99.00544939869707 56.32238176930282
150.31821919005907 6.893179924398539 90.83921634852686 52.58582291713368
133.45350086044826 7.46187634764609 78.95745464539829 47.03416986740382
114.185799991745 7.331641458376015 66.0539139295434 40.80024460382565
94.6868734147305 6.756876393007993 53.47579763535745 34.454199386365055
76.23023516322411 5.949162546960784 41.927663075519135 28.35340954074416
59.53268608968168 5.0950498131798465 31.74200449077737 22.695631785724462
45.01877170219632 4.283560504646331 23.16449654388791 17.57071465366208
32.494732018299786 3.5528547844371903 15.907139979004425 13.034737254858168
22.222507199356308 2.893413292608721 10.194885675329527 9.134208231418054
14.17295383944476 2.294463712757965 5.9473910363594715 5.931099090327321
8.267778210553864 1.7684622766834694 3.0331116440043435 3.4662042898660514
4.316048237871742 1.3216572598006258 1.2682279163132186 1.7261630617578991
1.9721574696189055 0.9565562701403534 0.3791246825922024 0.6364765168863497
0.7757450256315217 0.61582080810932 0.048362871164913335 0.11156134635728847
0.29691032195674183 0.29878680612822095 -0.0007262729420691396 -0.0011502112294099838
0.10688718519759802 0.10688718519759802 0.0 0.0
0.024407730229656765 0.024407730229656765 0.0 0.0
0.0030254659468305608 0.0030254659468305608 0.0 0.0
0.00093741699639716 0.00093741699639716 0.0 0.0
0.017858631795932466 0.017858631795932466 0.0 0.0
0.1120766950464985 0.1120766950464985 0.0 0.0
0.367414993899469 0.3601954311367733 0.0009695714055352111 0.006249991357160572
1.0287868284704915 0.7544377798190816 0.09229532852323527 0.18205372012817492
2.5147251518732756 1.1835628086042578 0.5170188469054394 0.8141434963635763
5.2638198547585375 1.683503459196151 1.5539888251658276 2.02632757039656
9.780604422391356 2.34089963029766 3.531040207242983 3.908664584850713
16.4721778162246 3.1848320167164452 6.731103300105168 6.556242499402994
25.666736257090122 4.243871676096615 11.424168157805893 9.998696423187601
37.48650739546454 5.53277544714097 17.74966235868852 14.20406958963507
51.80571731287834 7.052620803785392 25.638805626396227 19.114290882696725
68.6755468902004 8.774551277761377 35.234807948516114 24.666187663922884
87.88942250132109 10.62865246937599 46.47017783636422 30.790592195580885
108.89920657821315 12.358189967738792 59.18264687609782 37.35836973437651
130.59905004503537 13.540844799402786 72.93746131975475 44.120743925877825
151.20331045913247 13.724679497934037 86.78562918494156 50.69300177625685
168.67294907875385 12.853629761523631 99.34551802662341 56.47380129060682
180.81971851239382 11.540155967482892 108.62504108787674 60.654521457034264
176.6947029810024 4.679658340624798 110.46201815132655 61.55302648905101
245.35249622230478 77.53256813597639 107.67526824021641 60.144659846112056
176.6947029809446 4.679658340596564 110.46201815130618 61.55302648904184
180.81971851233084 11.540155967489085 108.62504108782873 60.65452145701299
168.67294907866133 12.85362976152548 99.34551802655892 56.4738012905771
151.20331045905203 13.724679497964111 86.78562918486651 50.69300177622147
130.59905004491176 13.54084479938415 72.93746131968373 44.120743925843755
108.89920657809859 12.358189967729754 59.18264687602776 37.358369734341125
87.88942250120985 10.628652469368472 46.47017783629628 30.790592195545138
68.67554689010335 8.774551277764768 35.23480794845176 24.666187663886863
51.80571731277465 7.052620803764829 25.638805626344187 19.1142908826656
37.48650739538797 5.532775447139956 17.749662358642524 14.204069589605496
25.666736257030195 4.243871676091304 11.424168157773783 9.99869642316511
16.472177816180057 3.184832016712814 6.731103300082248 6.556242499385
9.78060442236062 2.3408996302946847 3.5310402072283944 3.908664584837542
5.263819854739534 1.6835034591915519 1.5539888251589251 2.026327570389058
2.5147251518644005 1.183562808603095 0.5170188469022141 0.8141434963590917
1.0287868284674055 0.7544377798180475 0.09229532852245305 0.18205372012690485
0.3674149938985355 0.3601954311358878 0.0009695714055263137 0.006249991357121194
0.11207669504622123 0.11207669504622123 0.0 0.0
0.017858631795881062 0.017858631795881062 0.0 0.0
0.000937416996379602 0.000937416996379602 0.0 0.0
CELL_DATA 800
SCALARS Stress float 6
LOOKUP_TABLE default
166.41857530723848 -518.517391418356 -181.86350950615025 -109.63468468444829 0.0 0.0
402.07602737188625 -70.49143885566552 115.94585083028258 55.666338288818835 0.0 0.0
410.0058684165423 9.107089092705344 125.53770124786953 -3.027856665563294 0.0 0.0
469.2251240571089 -13.710991362145265 145.51023183422123 -15.015978266246282 0.0 0.0
545.9604129366296 -19.544090221284574 201.15968965617063 -11.635899296000868 0.0 0.0
619.5844471870327 -14.936524065583466 273.1012441228329 -10.187543629129015 0.0 0.0
690.9048750635161 -8.582262178074323 330.16605627040127 -10.728003345796656 0.0 0.0
762.8509263188182 5.660073551723556 379.31199114187694 -12.37014401588018 0.0 0.0
837.3358250123348 27.90849400884015 429.31559904286337 -14.064040045471543 0.0 0.0
914.2090879723119 57.214596569337075 483.04999652916496 -15.210311631048247 0.0 0.0
991.8390905741825 91.30791438889513 539.3310945556434 -15.69101458574825 0.0 0.0
1068.8569788921875 128.89789614189164 596.948837295322 -15.6333467376379 0.0 0.0
1145.3156793013359 168.7935635870485 655.3441356993021 -15.428127188463911 0.0 0.0
1222.060469905191 211.5791541831987 715.2565452522983 -15.125993040084554 0.0 0.0
1299.6863508602228 257.91271936322 777.3426669819804 -14.594216428122603 0.0 0.0
1377.5121550849708 307.314992041201 841.0394023892761 -13.64063976080402 0.0 0.0
1453.1723100786728 357.97749693248153 904.2716096148965 -12.122426892247239 0.0 0.0
1524.0062331533222 407.9560947200171 964.7257801989014 -10.27167788742224 0.0 0.0
1588.9036318424423 457.0696947017514 1021.6979209901599 -9.500591220893448 0.0 0.0
1679.5493067917741 539.0364502422318 1107.4787327203655 -14.829529789653376 0.0 0.0
1679.5493067910788 539.0364502415354 1107.4787327198685 14.829529789581251 0.0 0.0
1588.9036318417122 457.06969470105844 1021.6979209896583 9.500591220888513 0.0 0.0
1524.0062331517336 407.95609471850315 964.7257801977473 10.271677887444927 0.0 0.0
1453.1723100771935 357.9774969310992 904.2716096137576 12.122426892189427 0.0 0.0
1377.5121550844517 307.31499204080785 841.0394023888457 13.640639760785206 0.0 0.0
1299.686350859 257.912719362128 777.3426669810873 14.594216428083472 0.0 0.0
1222.0604699043326 211.57915418251082 715.256545251636 15.125993040060736 0.0 0.0
1145.3156792997895 168.79356358568202 655.3441356981 15.428127188405847 0.0 0.0
1068.856978891678 128.8978961415944 596.9488372950026 15.63334673745994 0.0 0.0
991.8390905747627 91.3079143897188 539.331094556052 15.691014585811454 0.0 0.0
914.2090879724 57.21459656968429 483.0499965291618 15.210311631061565 0.0 0.0
837.3358250123293 27.908494009101474 429.3155990428131 14.06404004548714 0.0 0.0
762.8509263189571 5.660073552145505 379.31199114193527 12.370144015742476 0.0 0.0
690.9048750631274 -8.582262178196942 330.1660562701108 10.728003345712029 0.0 0.0
619.5844471867919 -14.93652406552328 273.10124412259967 10.187543629094156 0.0 0.0
545.9604129362166 -19.544090221439106 201.15968965586183 11.635899295944979 0.0 0.0
469.2251240569528 -13.710991362041705 145.5102318341679 15.015978266122293 0.0 0.0
410.00586841655934 9.107089092873926 125.53770124792838 3.027856665600993 0.0 0.0
402.0760273719609 -70.49143885552127 115.94585083031536 -55.66633828870877 0.0 0.0
166.41857530780646 -518.5173914178216 -181.86350950561982 109.63468468411673 0.0 0.0
66.02348331698218 -546.4968079311102 -242.81402186673836 -157.82025514724293 0.0 0.0
269.050905994309 -60.17205957066045 62.77328574028814 9.684546115768745 0.0 0.0
359.3366012683175 31.42773411285249 117.2302737806944 -9.815696088819536 0.0 0.0
433.57647712821336 -11.708235822304157 129.72068964327877 -35.14855943958893 0.0 0.0
517.8635572823847 -19.923070033649154 178.72480908184926 -33.15669041772559 0.0 0.0
595.9482830327642 -15.834953842134041 252.60146685034397 -30.153049834601365 0.0 0.0
670.955700555337 -9.166119778624541 316.14150559987354 -31.06064295957483 0.0 0.0
743.8905484432021 4.798495955840629 368.11025739194974 -33.54118068178593 0.0 0.0
817.0902904598361 25.686123679405398 417.56005172838604 -36.1182313506354 0.0 0.0
890.9089148206103 52.38731014812484 468.7042906524372 -37.53239271002389 0.0 0.0
964.0966128022702 82.79065764148439 521.0212141557149 -37.65967910788158 0.0 0.0
1036.188518690177 115.63030586209648 573.838483078948 -37.03795365343613 0.0 0.0
1107.4723828338063 151.2105884661166 627.511195945784 -36.17189054231633 0.0 0.0
1178.8756220452794 189.39101968637158 682.4780219538249 -35.160634642100504 0.0 0.0
1250.6263918410652 230.32893786401115 738.9543729032232 -33.766001472186346 0.0 0.0
1322.2398134723812 273.8503162966524 796.6221723680504 -31.59126610440481 0.0 0.0
1392.6017098313505 319.31525925618223 854.6014826556004 -28.487001451043806 0.0 0.0
1460.7859060429146 366.62531521903 912.3549703451977 -25.18561623239629 0.0 0.0
1532.446358728724 422.7172318952233 976.0798912614292 -23.235515735139046 0.0 0.0
1585.8402317738207 467.20928276274424 1024.8866333763976 -22.441887211969537 0.0 0.0
1585.840231774065 467.20928276301936 1024.8866333765618 22.441887212075287 0.0 0.0
1532.4463587291646 422.71723189571327 976.0798912615991 23.235515735225512 0.0 0.0
1460.7859060425935 366.62531521878174 912.354970344839 25.18561623241234 0.0 0.0
1392.6017098311313 319.31525925606786 854.60148265541 28.487001451136564 0.0 0.0
1322.239813472937 273.8503162973472 796.6221723683122 31.591266104543607 0.0 0.0
1250.6263918410577 230.3289378641573 738.9543729031491 33.76600147218015 0.0 0.0
1178.8756220456332 189.3910196868946 682.4780219540071 35.16063464215247 0.0 0.0
1107.4723828335684 151.21058846606567 627.5111959455767 36.17189054225015 0.0 0.0
1036.1885186892648 115.63030586136207 573.8384830782481 37.03795365325712 0.0 0.0
964.0966128003662 82.7906576397873 521.0212141544032 37.6596791078171 0.0 0.0
890.9089148189315 52.3873101466456 468.70429065137967 37.532392709850185 0.0 0.0
817.0902904591144 25.686123678936298 417.5600517279281 36.118231350671536 0.0 0.0
743.8905484426813 4.7984959555898 368.11025739160425 33.54118068177961 0.0 0.0
670.955700554412 -9.166119779299947 316.14150559925304 31.060642959442603 0.0 0.0
595.9482830323191 -15.834953842293082 252.6014668499701 30.153049834506593 0.0 0.0
517.8635572824058 -19.923070033272737 178.72480908181956 33.156690417745594 0.0 0.0
433.5764771282524 -11.70823582182168 129.72068964340582 35.148559439624805 0.0 0.0
359.33660126851436 31.42773411319236 117.23027378085854 9.815696088864861 0.0 0.0
269.05090599470566 -60.17205956995453 62.77328574062193 -9.684546115919924 0.0 0.0
66.02348331728629 -546.4968079308464 -242.8140218664364 157.82025514694703 0.0 0.0
13.74314810697959 -554.5250417333185 -266.31873647124064 -172.7172402168058 0.0 0.0
152.0023549002266 -50.342433184197624 30.49797651480869 -44.74471022848114 0.0 0.0
292.09583957470966 35.174477572939495 98.18109514429473 -33.71336164973512 0.0 0.0
387.5316047431463 -2.86418816099004 116.15402680711881 -55.0498676829349 0.0 0.0
480.7574271058145 -18.681814484387324 156.12050311819675 -56.826881627174515 0.0 0.0
568.8192391184914 -18.208564501289825 227.5568209078006 -51.87312536480639 0.0 0.0
646.9037314005084 -8.911047102339296 298.9190392628675 -51.736310067022714 0.0 0.0
720.5421674483378 4.022540700145392 354.0996452203065 -54.61208526887735 0.0 0.0
792.7871621393662 23.528173013164235 403.6234779116362 -57.66711836379183 0.0 0.0
863.4724650438067 47.30785631391555 452.1008450614486 -59.08538199780686 0.0 0.0
932.3843143013173 73.83657741247754 500.4636625780548 -58.82355217087783 0.0 0.0
999.5392322954901 102.5813508201373 548.8187255241621 -57.65662250182261 0.0 0.0
1065.9145495177406 133.38451627084288 597.6807586296904 -56.28442752736778 0.0 0.0
1131.787345015011 166.69194158583835 647.4796335069293 -54.61560847026725 0.0 0.0
1197.4766521202332 202.03920720918222 698.1617452351062 -52.399057498576866 0.0 0.0
1262.9684813212648 239.56040187550389 749.7846110189985 -49.240449147466045 0.0 0.0
1328.3287167692974 279.93401133650434 802.7038642694941 -45.05015570760243 0.0 0.0
1395.1373160752744 325.7031721439262 858.9581767082179 -40.553574420481254 0.0 0.0
1458.089330185684 372.67614101857 913.8479080631481 -35.716966343237246 0.0 0.0
1502.7824910221816 407.516462763765 953.5265905466647 -28.930323151723822 0.0 0.0
1502.7824910222387 407.5164627638144 953.5265905467029 28.930323151726892 0.0 0.0
1458.0893301859546 372.6761410189128 913.8479080634335 35.71696634342794 0.0 0.0
1395.1373160750732 325.7031721437957 858.9581767080435 40.55357442047142 0.0 0.0
1328.3287167683245 279.93401133563555 802.7038642687024 45.0501557076753 0.0 0.0
1262.9684813217764 239.5604018761552 749.7846110193511 49.24044914754969 0.0 0.0
1197.4766521195918 202.03920720868058 698.1617452345981 52.39905749862926 0.0 0.0
1131.7873450143152 166.6919415853149 647.4796335063777 54.615608470337186 0.0 0.0
1065.9145495170394 133.38451627033788 597.6807586292176 56.284427527453786 0.0 0.0
999.5392322962615 102.58135082112804 548.8187255246646 57.656622501801145 0.0 0.0
932.3843143011638 73.8365774125333 500.46366257788424 58.823552170745046 0.0 0.0
863.4724650429625 47.307856313268985 452.10084506084695 59.08538199772302 0.0 0.0
792.7871621384385 23.528173012546333 403.6234779110234 57.667118364009404 0.0 0.0
720.5421674476947 4.022540699767447 354.09964521987774 54.61208526876993 0.0 0.0
646.9037314006295 -8.911047101869741 298.91903926285295 51.73631006708769 0.0 0.0
568.8192391186203 -18.208564500734763 227.55682090778663 51.873125364920305 0.0 0.0
480.75742710574406 -18.681814484121293 156.12050311814346 56.82688162708355 0.0 0.0
387.5316047429437 -2.864188160853087 116.15402680710818 55.049867682892916 0.0 0.0
292.0958395748975 35.17447757309322 98.1810951443972 33.71336164978636 0.0 0.0
152.0023549004588 -50.342433183634505 30.497976515047284 44.7447102282719 0.0 0.0
13.743148107184766 -554.5250417330851 -266.3187364709895 172.71724021662246 0.0 0.0
-6.028535841704638 -542.5496329355254 -262.63280306014997 -174.81235775767942 0.0 0.0
88.02520242435891 -48.23201254146475 11.937956964868246 -90.81132256906807 0.0 0.0
228.44273026305262 32.094534407716374 78.16117940123068 -65.67372434936367 0.0 0.0
334.64427035771996 5.58154796019949 102.10982578830914 -76.68189634283048 0.0 0.0
433.93920649904345 -16.462475958036443 133.65752626293374 -82.79268706535277 0.0 0.0
531.4571534310063 -18.758212628172704 199.22610866877568 -75.49926465586648 0.0 0.0
616.1022134022021 -9.923326380858661 275.48262707524077 -73.1451488041141 0.0 0.0
692.6003580502214 3.850720574301988 337.02025940376245 -75.68351427135349 0.0 0.0
763.6205623888206 21.21334176020723 386.8124987593527 -78.67844557757675 0.0 0.0
831.3908574573306 42.005791248573544 432.93525141084683 -79.87795404453543 0.0 0.0
896.2308482632088 64.76510549932716 477.5686880290556 -79.19101607204416 0.0 0.0
958.8311809833504 89.28742927884748 521.6091789643767 -77.56833838601125 0.0 0.0
1019.9306529540625 115.54264038503791 565.6025107550286 -75.6849645090685 0.0 0.0
1080.5339945758076 143.76394656602295 610.2639994599357 -73.4641457276805 0.0 0.0
1140.2698501884497 173.31517209364773 655.107429504398 -70.55267470407193 0.0 0.0
1199.3794101640783 204.82886310155436 700.5549435329701 -66.63889380481899 0.0 0.0
1259.8328859211674 240.08649190503132 748.4572123176308 -61.7364092302857 0.0 0.0
1321.4420975621406 280.08039260161064 799.2358059718651 -55.892888370736195 0.0 0.0
1378.8365568584527 320.39289076557867 848.0383456048619 -47.93358647416479 0.0 0.0
1420.4971148456643 350.50663641593866 883.8491874360026 -35.77369298183858 0.0 0.0
1420.4971148453462 350.50663641564165 883.849187435692 35.773692981940926 0.0 0.0
1378.836556857546 320.3928907647277 848.0383456041669 47.93358647429367 0.0 0.0
1321.4420975617957 280.08039260133523 799.2358059716734 55.89288837075604 0.0 0.0
1259.8328859206094 240.0864919046079 748.4572123172375 61.73640923046549 0.0 0.0
1199.3794101638514 204.8288631014451 700.55494353275 66.63889380482779 0.0 0.0
1140.269850188329 173.31517209367746 655.1074295043102 70.55267470409292 0.0 0.0
1080.5339945750468 143.7639465653728 610.2639994593249 73.46414572755177 0.0 0.0
1019.9306529527178 115.54264038384545 565.6025107540622 75.68496450906405 0.0 0.0
958.8311809822096 89.28742927788053 521.6091789636164 77.56833838595364 0.0 0.0
896.2308482635686 64.76510549993637 477.5686880293663 79.19101607207068 0.0 0.0
831.3908574580214 42.00579124952097 432.9352514112716 79.87795404452945 0.0 0.0
763.6205623879064 21.213341759563747 386.81249875872106 78.67844557761119 0.0 0.0
692.6003580491066 3.8507205734268553 337.0202594029976 75.68351427123662 0.0 0.0
616.1022134016104 -9.923326381141422 275.48262707480245 73.14514880417967 0.0 0.0
531.457153430142 -18.758212628761825 199.22610866816146 75.49926465585511 0.0 0.0
433.93920649845336 -16.46247595841875 133.6575262626087 82.79268706524175 0.0 0.0
334.64427035744006 5.581547960001445 102.10982578817652 76.6818963426757 0.0 0.0
228.44273026314443 32.09453440773133 78.16117940126273 65.67372434916726 0.0 0.0
88.0252024244662 -48.23201254115036 11.93795696499475 90.81132256876919 0.0 0.0
-6.028535841620311 -542.5496329352166 -262.63280305989156 174.8123577576222 0.0 0.0
-10.51475958155271 -518.9375943968308 -243.9900083940116 -172.3301866865109 0.0 0.0
52.26455880001539 -47.32160966960514 1.482884739123075 -126.6881415825222 0.0 0.0
173.79711728765352 26.100253038657904 59.96921109789341 -97.89246526801756 0.0 0.0
278.5331698639379 10.8539648410502 86.82350357200735 -99.77457115811188 0.0 0.0
376.57124116327736 -11.751243699539708 112.55624506169401 -108.82478601713346 0.0 0.0
482.99064719851765 -18.7077820456879 168.32039900408438 -102.31545310742445 0.0 0.0
577.9142886961413 -11.315440452861186 245.92242934670185 -96.24497130955874 0.0 0.0
658.3397109840573 3.21027298967989 314.7424067901792 -96.79314096947078 0.0 0.0
728.965973130951 18.993310727866763 366.59243692501053 -99.18278291447186 0.0 0.0
794.0049539737056 36.51013327681037 410.7804036579649 -99.9631667116817 0.0 0.0
855.1107066645087 55.570515174952305 452.01676018788106 -98.78748270534898 0.0 0.0
913.0379429719907 75.87696587143843 491.7339486533397 -96.71539756812977 0.0 0.0
969.1091295980559 97.50968645111912 530.9776136958687 -94.46729729063169 0.0 0.0
1023.9864025920123 120.66496336537384 570.2834849987702 -91.69338847952943 0.0 0.0
1077.9871866776098 144.74862579541053 609.561744938582 -88.17157137434161 0.0 0.0
1131.391008009117 170.14353402391126 649.1353889490081 -83.7951929735999 0.0 0.0
1185.1327755314767 198.66920045899045 690.3418093253044 -78.35477326385252 0.0 0.0
1240.597325723629 231.7175779868522 734.5852680367284 -71.32874591346285 0.0 0.0
1293.9800269105426 266.21296576583006 778.4724001415591 -60.573886200552174 0.0 0.0
1335.8396814662678 293.9653903162947 813.1830329109407 -43.56025312347895 0.0 0.0
1335.839681466914 293.96539031695744 813.1830329114721 43.56025312355657 0.0 0.0
1293.9800269099223 266.21296576528755 778.4724001412617 60.57388620068781 0.0 0.0
1240.5973257234364 231.71757798672206 734.585268036589 71.32874591350956 0.0 0.0
1185.1327755304749 198.66920045808718 690.3418093245264 78.35477326394272 0.0 0.0
1131.3910080083233 170.14353402324815 649.1353889484774 83.79519297368253 0.0 0.0
1077.9871866767626 144.74862579469016 609.5617449380316 88.17157137432106 0.0 0.0
1023.986402591364 120.6649633648365 570.2834849983535 91.69338847945542 0.0 0.0
969.1091295978351 97.50968645105391 530.9776136957149 94.4672972905921 0.0 0.0
913.0379429716799 75.87696587134508 491.73394865306267 96.71539756815906 0.0 0.0
855.1107066641532 55.57051517489336 452.01676018750993 98.78748270552478 0.0 0.0
794.0049539734449 36.510133276876985 410.7804036577468 99.9631667118607 0.0 0.0
728.9659731315093 18.993310728758686 366.5924369253886 99.1827829145009 0.0 0.0
658.3397109836712 3.210272989505029 314.7424067898736 96.79314096927911 0.0 0.0
577.914288695755 -11.315440452985186 245.92242934634453 96.24497130945517 0.0 0.0
482.9906471979973 -18.70778204592699 168.32039900370546 102.31545310732511 0.0 0.0
376.5712411628627 -11.751243699692704 112.55624506151236 108.82478601697701 0.0 0.0
278.5331698638033 10.853964840993067 86.8235035719562 99.77457115798093 0.0 0.0
173.79711728770528 26.100253038728894 59.96921109793024 97.89246526786809 0.0 0.0
52.264558800175514 -47.3216096692315 1.4828847392832039 126.68814158235996 0.0 0.0
-10.514759581436692 -518.9375943965731 -243.99000839375293 172.33018668637465 0.0 0.0
-8.098110056142957 -487.5145937074182 -216.74644668538605 -168.6250167790048 0.0 0.0
30.924831901723802 -45.92922593725352 -4.501318210658915 -153.43302930493653 0.0 0.0
127.32090911883117 19.3883061152816 44.01276457023383 -126.28483171194932 0.0 0.0
221.86643353978127 12.899507591904339 70.42580588092213 -122.99927797105458 0.0 0.0
312.0997343538241 -5.409805600850881 93.01380501164651 -132.79059312089936 0.0 0.0
418.4062970013301 -17.613050598585442 135.74873796948617 -131.7400531065748 0.0 0.0
525.3089088978899 -11.655553404127032 209.4638685980537 -122.05468344101254 0.0 0.0
613.8203966349374 1.2625006276200779 283.8999750215684 -118.80599556948145 0.0 0.0
687.1901389738359 16.431119609419547 341.21442078470807 -119.44311540579548 0.0 0.0
750.2057858429226 30.993731743468274 384.86733081710304 -119.3488690371188 0.0 0.0
807.5290599176831 46.169977524164594 422.9091206719701 -117.6363814010765 0.0 0.0
861.0971001383514 62.41939319412265 458.65468680560895 -115.14110221060696 0.0 0.0
911.9326244494964 79.51212868919534 493.13179966928186 -112.5116892981732 0.0 0.0
961.2105719438387 97.38940372071164 527.0635278785869 -109.42540518936138 0.0 0.0
1009.830420563228 116.23056170812791 561.0616444886022 -105.42082998637144 0.0 0.0
1056.9849724747874 135.90598468918662 594.7051639375688 -100.47359780569236 0.0 0.0
1103.567447901592 156.6041473640395 628.4833463929028 -94.74492603250717 0.0 0.0
1151.7256937330737 181.09311773342142 664.8140911808123 -87.05902494188295 0.0 0.0
1201.420457157577 209.67971413361226 703.8763121979832 -74.17085887394177 0.0 0.0
1245.9841472257829 236.47470441143207 739.4046826483994 -52.92389224135214 0.0 0.0
1245.9841472259573 236.47470441159933 739.4046826484016 52.92389224134724 0.0 0.0
1201.4204571565979 209.67971413272414 703.87631219726 74.17085887413191 0.0 0.0
1151.7256937319535 181.09311773236925 664.8140911800356 87.05902494199512 0.0 0.0
1103.5674479005934 156.60414736315994 628.4833463922462 94.7449260326085 0.0 0.0
1056.9849724748647 135.90598468937122 594.7051639375331 100.47359780572418 0.0 0.0
1009.8304205630214 116.23056170806399 561.0616444884118 105.42082998640433 0.0 0.0
961.2105719434733 97.38940372051488 527.0635278782554 109.42540518944438 0.0 0.0
911.9326244496708 79.51212868956895 493.1317996693743 112.51168929822325 0.0 0.0
861.0971001380025 62.41939319400382 458.65468680537384 115.14110221067095 0.0 0.0
807.529059917456 46.16997752406655 422.9091206717389 117.6363814009599 0.0 0.0
750.2057858419507 30.993731742648166 384.86733081639574 119.34886903701033 0.0 0.0
687.1901389725047 16.431119608109697 341.2144207837623 119.44311540546963 0.0 0.0
613.8203966345923 1.2625006274957258 283.8999750212195 118.80599556936336 0.0 0.0
525.3089088979887 -11.655553403488042 209.46386859807234 122.0546834411393 0.0 0.0
418.4062970011586 -17.613050598343825 135.74873796939528 131.74005310645546 0.0 0.0
312.09973435358023 -5.409805600877515 93.01380501156997 132.7905931207103 0.0 0.0
221.86643353962967 12.899507591771979 70.42580588083835 122.9992779709165 0.0 0.0
127.32090911886694 19.38830611544333 44.012764570293065 126.28483171174861 0.0 0.0
30.924831901822554 -45.92922593693059 -4.501318210532412 153.43302930467178 0.0 0.0
-8.098110055959523 -487.5145937070898 -216.74644668507645 168.62501677885487 0.0 0.0
-2.544352524429783 -449.8651921860102 -184.44995904877123 -165.09399212318485 0.0 0.0
16.178171665056468 -44.63810407027327 -8.53791935792627 -172.2116240499734 0.0 0.0
86.5167595998874 13.102565431677842 29.885797509469572 -149.1843512195437 0.0 0.0
165.53292146410928 13.925142260839237 53.83429553979737 -144.37405205580995 0.0 0.0
243.82552105359682 -0.029239214308408812 73.62643965357475 -153.86950545963327 0.0 0.0
340.2776345265003 -13.574657066724667 104.44338442809149 -160.95045639492545 0.0 0.0
454.0639836524273 -12.040968645647318 166.32910418002558 -151.65245658630832 0.0 0.0
554.6027465358007 -0.4375178851598065 242.82153110039087 -142.85101917725072 0.0 0.0
633.5819961851068 12.783946429804063 306.4812387142813 -140.00956013548904 0.0 0.0
697.2373061430384 25.27761111783608 352.93793029908903 -138.25970314412456 0.0 0.0
751.1633995329319 36.57740052848767 388.7517114364041 -135.76696009572998 0.0 0.0
800.5505782677569 48.99209503193885 421.0265757586715 -132.8418047424598 0.0 0.0
846.1957778086924 61.52295670520341 450.8794868268724 -129.8855407980567 0.0 0.0
889.5357303539583 74.2915091120735 479.43019063587235 -126.58625368141324 0.0 0.0
932.104794522291 87.58119625540724 507.6658824099811 -122.33690807693709 0.0 0.0
974.5250403119369 102.09666863954209 536.4096329408369 -116.87379454585023 0.0 0.0
1013.592572051981 115.20788644065199 562.759599935621 -110.63651211250681 0.0 0.0
1052.2874258605448 129.2158401686637 589.1809423299218 -102.94958853185248 0.0 0.0
1097.5286394012796 149.7898121639356 621.9520234826326 -89.26299182172038 0.0 0.0
1147.3041292919524 176.47438314548955 659.9121964448276 -64.80570078994114 0.0 0.0
1147.3041292921973 176.47438314586037 659.9121964449561 64.80570079021754 0.0 0.0
1097.528639401115 149.7898121638409 621.9520234825881 89.26299182186963 0.0 0.0
1052.2874258602014 129.21584016839574 589.1809423296521 102.94958853188456 0.0 0.0
1013.5925720512727 115.20788644000521 562.7595999350503 110.63651211253614 0.0 0.0
974.5250403120083 102.09666863974337 536.4096329408396 116.87379454590095 0.0 0.0
932.104794521618 87.5811962548687 507.66588240957134 122.3369080769491 0.0 0.0
889.5357303525749 74.29150911074115 479.4301906350044 126.58625368136146 0.0 0.0
846.1957778079684 61.522956704587955 450.8794868263372 129.8855407980441 0.0 0.0
800.5505782666039 48.99209503111456 421.0265757578929 132.8418047427091 0.0 0.0
751.1633995321143 36.577400527792165 388.75171143583646 135.76696009562505 0.0 0.0
697.2373061421608 25.277611117009656 352.93793029849456 138.25970314392194 0.0 0.0
633.5819961846412 12.783946429571756 306.4812387139542 140.00956013544277 0.0 0.0
554.6027465350775 -0.437517885621034 242.82153109984756 142.85101917720647 0.0 0.0
454.0639836514832 -12.040968646259994 166.3291041794311 151.6524565863504 0.0 0.0
340.27763452602494 -13.574657066915226 104.44338442784831 160.9504563947811 0.0 0.0
243.8255210537032 -0.02923921380554706 73.62643965375652 153.86950545936043 0.0 0.0
165.53292146411192 13.925142260990663 53.834295539844575 144.37405205564167 0.0 0.0
86.51675959968885 13.10256543129994 29.88579750929663 149.1843512194156 0.0 0.0
16.178171664987794 -44.63810407021522 -8.537919357929514 172.21162404991213 0.0 0.0
-2.5443525244008214 -449.86519218572516 -184.44995904852834 165.0939921231059 0.0 0.0
2.6006469848920233 -407.43156070633006 -151.5339671356192 -162.54379308839725 0.0 0.0
2.5404467150356136 -44.06033194850551 -12.455382777953421 -183.23354285977982 0.0 0.0
49.22163751283666 8.062961546064752 17.184976646422882 -166.56114017205152 0.0 0.0
110.39638853941007 15.074364429938125 37.641273397157946 -162.17412457227883 0.0 0.0
173.30537478627616 3.3643630136822074 53.292361920572255 -172.42954334348298 0.0 0.0
248.54420905013797 -6.9052182593168965 75.07751071725855 -184.58886733450595 0.0 0.0
355.60748425570915 -10.314562552347082 119.0061322337994 -184.1464923962375 0.0 0.0
470.32109305980015 -2.1682321780933513 188.4421392501972 -171.24579270065476 0.0 0.0
560.8265479719984 8.589558962357886 256.86753820362367 -162.1975352619165 0.0 0.0
627.6545668194328 18.78123616583499 308.727636142919 -157.1273242810692 0.0 0.0
680.6097738922682 26.723072630834206 345.5822776773672 -153.47422182073515 0.0 0.0
725.672067000683 35.38294625703593 375.3062179514428 -149.89767087868128 0.0 0.0
766.141238334023 43.807516814859376 401.233143241403 -146.5412149283894 0.0 0.0
803.3920113103686 51.48625723898311 424.55421350525785 -143.1490265219914 0.0 0.0
839.5979861011859 59.065317444431656 446.9264899297974 -139.0181850297041 0.0 0.0
876.5268001774176 67.91503000647039 470.1006565469044 -133.1884443732194 0.0 0.0
911.7094497661204 76.00818453060886 492.10920848477804 -126.04076002944498 0.0 0.0
939.5698902028826 78.18084609283358 507.4435989714036 -118.46926115642809 0.0 0.0
974.7564289586585 85.40347080219189 528.4306891652454 -105.96742723745149 0.0 0.0
1031.4759159310336 111.49039963917242 569.2868352338503 -80.56824314676915 0.0 0.0
1031.475915931017 111.4903996393233 569.286835233874 80.56824314715875 0.0 0.0
974.7564289582502 85.40347080189161 528.4306891649671 105.96742723766405 0.0 0.0
939.5698902028503 78.18084609296369 507.44359897133086 118.46926115675868 0.0 0.0
911.709449766968 76.00818453179352 492.1092084853434 126.04076002976785 0.0 0.0
876.5268001775067 67.91503000664787 470.10065654690305 133.18844437320064 0.0 0.0
839.5979861015568 59.06531744501984 446.92648992996124 139.0181850297912 0.0 0.0
803.3920113102027 51.48625723902663 424.5542135051 143.1490265220633 0.0 0.0
766.1412383339892 43.80751681488246 401.2331432413158 146.5412149283732 0.0 0.0
725.6720670012344 35.38294625792335 375.30621795182657 149.8976708787993 0.0 0.0
680.6097738919899 26.7230726306545 345.5822776771288 153.47422182059506 0.0 0.0
627.6545668198091 18.781236166521566 308.72763614310315 157.12732428106423 0.0 0.0
560.8265479713717 8.589558961975449 256.86753820317705 162.19753526194415 0.0 0.0
470.32109305906295 -2.168232178586827 188.44213924965135 171.24579270057276 0.0 0.0
355.6074842553739 -10.314562552144134 119.00613223366803 184.14649239622668 0.0 0.0
248.54420904984497 -6.905218259288942 75.07751071716285 184.58886733424333 0.0 0.0
173.30537478596978 3.364363013148375 53.29236192032306 172.42954334333191 0.0 0.0
110.39638853933138 15.074364429870107 37.64127339711729 162.1741245720524 0.0 0.0
49.221637512984884 8.062961546471252 17.18497664658981 166.56114017185004 0.0 0.0
2.5404467149859657 -44.060331948406755 -12.455382777940068 183.23354285960326 0.0 0.0
2.6006469848667706 -407.431560705997 -151.53396713540684 162.54379308836252 0.0 0.0
3.403005577786665 -360.971165248055 -122.34922975698227 -159.23190743524412 0.0 0.0
-13.797940416238053 -45.39713215407454 -17.757711329637477 -188.7965304896153 0.0 0.0
14.211906297042587 5.0927651927247 5.791134260327112 -178.66154322033748 0.0 0.0
56.78227935836639 16.180695086928733 21.89164955253581 -175.75013092237458 0.0 0.0
100.70855997560213 6.999052283999916 32.50221427118843 -186.36724281957478 0.0 0.0
150.082152517669 -1.8795358148886856 45.63809118799409 -202.22463599557085 0.0 0.0
226.44535859560665 -4.415483774945507 71.73667058940399 -211.4662457320596 0.0 0.0
337.58812666958073 -2.010486452193426 119.77704526258195 -204.87576954687603 0.0 0.0
445.9955773704457 4.798224193169048 182.53067102363696 -189.4302220837337 0.0 0.0
523.1394740461203 11.078153174005173 238.23346475372614 -177.69484481017594 0.0 0.0
577.7041862747427 17.01550801685677 280.0136483310407 -171.09859634759152 0.0 0.0
619.4954736033627 21.444495730694555 309.9444600124711 -166.56461445812423 0.0 0.0
654.9522574132263 26.118242153284854 334.03936235181726 -162.63117135129238 0.0 0.0
685.9244621078162 29.317003996781608 353.4853567787906 -159.00323842892342 0.0 0.0
714.7949939098868 31.0934285818295 370.10340286278483 -155.06962747004255 0.0 0.0
744.7788099109531 32.97706999323526 386.63591952037 -149.712624647498 0.0 0.0
778.4724018499612 36.70124099278155 405.627885540359 -141.60253410072303 0.0 0.0
805.5683167611343 34.39991415159042 418.7188371078076 -132.54266392558486 0.0 0.0
820.5234303286544 16.94916573209585 417.6052043964593 -123.18681996711312 0.0 0.0
881.5279161166811 35.47019472894536 455.99716468458047 -102.531276138337 0.0 0.0
881.5279161164481 35.47019472875871 455.9971646845362 102.53127613846608 0.0 0.0
820.5234303295265 16.94916573316766 417.6052043971244 123.18681996747969 0.0 0.0
805.5683167615248 34.39991415225529 418.71883710810846 132.54266392589938 0.0 0.0
778.4724018510548 36.70124099416125 405.62788554112456 141.60253410091332 0.0 0.0
744.7788099118969 32.977069994348625 386.6359195210713 149.71262464758547 0.0 0.0
714.7949939104852 31.093428582654496 370.1034028632771 155.0696274701645 0.0 0.0
685.9244621081393 29.317003997371074 353.4853567790211 159.00323842894772 0.0 0.0
654.952257413634 26.118242153977675 334.0393623521061 162.63117135148303 0.0 0.0
619.4954736032548 21.444495730704503 309.94446001233433 166.564614458088 0.0 0.0
577.7041862748691 17.0155080171821 280.01364833107516 171.09859634754457 0.0 0.0
523.1394740468148 11.078153174992828 238.2334647540842 177.69484481012483 0.0 0.0
445.99557737121853 4.798224194856331 182.53067102421622 189.43022208396337 0.0 0.0
337.58812666966065 -2.0104864511346996 119.77704526280343 204.87576954702467 0.0 0.0
226.44535859521542 -4.415483774899733 71.73667058927757 211.4662457320166 0.0 0.0
150.0821525173611 -1.8795358151683068 45.63809118781837 202.22463599535126 0.0 0.0
100.70855997556242 6.999052283845678 32.50221427113258 186.36724281942634 0.0 0.0
56.78227935834543 16.180695086904517 21.89164955252548 175.75013092216867 0.0 0.0
14.211906296974176 5.092765192622054 5.791134260276122 178.66154322014341 0.0 0.0
-13.797940416242122 -45.39713215395193 -17.75771132960336 188.79653048939497 0.0 0.0
3.403005577783855 -360.97116524775686 -122.34922975680401 159.23190743508374 0.0 0.0
-1.457759141289042 -311.29486840838126 -98.49489632083557 -152.75112522963718 0.0 0.0
-32.80423980316055 -48.942550525750235 -24.522587415542084 -191.3001465358042 0.0 0.0
-19.235207574268514 4.144082787179537 -4.528373071538839 -186.07724824294948 0.0 0.0
4.655195358433101 17.165230174640516 6.550797328044079 -184.5371903291893 0.0 0.0
27.607552960410473 11.022432749231417 11.652040138791328 -194.6726592675316 0.0 0.0
48.387789264286425 2.798510879516707 15.73679449458771 -212.14958937582932 0.0 0.0
75.67228698085361 -0.5581713951464904 23.819464187032064 -227.2694015140462 0.0 0.0
123.82657312945638 0.6531712804391532 40.73973118023536 -231.26827065125957 0.0 0.0
199.52792526254336 4.279774724012157 69.71990882004235 -220.18000208151074 0.0 0.0
277.68957104497287 6.468026518910619 105.09601723167026 -204.28311440052425 0.0 0.0
342.94343870228795 8.590304446529778 142.48959439887622 -191.58930814378002 0.0 0.0
388.83557291942094 8.663493187602725 173.31053539581504 -183.6607504219954 0.0 0.0
420.2783722091495 9.362197352275459 197.56699736976088 -177.82325242195276 0.0 0.0
444.68978920176323 7.852198160520857 216.0021736093484 -173.30262738201802 0.0 0.0
467.3474134960546 3.9626839435378542 230.47396525215763 -169.28323147863472 0.0 0.0
494.46846730761223 -1.8458419833184507 243.94808292299126 -164.93605995477543 0.0 0.0
531.1871184937129 -6.240735485154431 260.92756659863 -158.0879406532059 0.0 0.0
578.0649226952428 -6.473850199937516 284.44137097600037 -146.8349363371456 0.0 0.0
602.3166461076771 -33.146841944087754 284.94281167010354 -135.29683767977124 0.0 0.0
634.1297292548533 -72.88376424622527 278.1526329800492 -130.14646217246957 0.0 0.0
634.1297292540845 -72.88376424702977 278.1526329795546 130.14646217264823 0.0 0.0
602.3166461071115 -33.14684194480873 284.94281166971484 135.29683768004475 0.0 0.0
578.0649226938054 -6.473850201620024 284.44137097501255 146.83493633740093 0.0 0.0
531.1871184929271 -6.240735486268221 260.927566597989 158.08794065332768 0.0 0.0
494.46846730718255 -1.845841983637598 243.9480829226307 164.9360599548862 0.0 0.0
467.34741349547227 3.962683942907887 230.47396525174702 169.28323147864916 0.0 0.0
444.689789201408 7.852198159851767 216.00217360904043 173.30262738206994 0.0 0.0
420.2783722091994 9.362197352295183 197.56699736974744 177.82325242203297 0.0 0.0
388.83557291965224 8.663493187899562 173.31053539591161 183.66075042206637 0.0 0.0
342.9434387024609 8.590304447211786 142.48959439903436 191.58930814380454 0.0 0.0
277.6895710454655 6.468026519939599 105.09601723207767 204.28311440049424 0.0 0.0
199.52792526218641 4.279774723589508 69.71990881978111 220.18000208159424 0.0 0.0
123.82657312917573 0.6531712803131455 40.739731180100755 231.26827065125397 0.0 0.0
75.67228698075212 -0.5581713949516054 23.81946418706357 227.26940151394336 0.0 0.0
48.387789264451236 2.798510879875735 15.736794494743881 212.1495893756472 0.0 0.0
27.607552960696957 11.022432749671065 11.652040139008886 194.6726592672498 0.0 0.0
4.655195358528747 17.16523017480086 6.550797328121161 184.53719032878774 0.0 0.0
-19.235207574167074 4.144082787388027 -4.528373071446313 186.0772482426655 0.0 0.0
-32.80423980320216 -48.94255052571796 -24.52258741554662 191.3001465356658 0.0 0.0
-1.4577591413894133 -311.29486840810097 -98.49489632074925 152.75112522946495 0.0 0.0
-13.419066738702941 -261.39377313590336 -82.8506164588449 -142.32691139867887 0.0 0.0
-51.01372475123634 -51.59011074337763 -30.783186839324962 -191.30730344729773 0.0 0.0
-51.56704864569717 3.8956296038308307 -14.313991309151216 -189.36840820042696 0.0 0.0
-45.90823004537935 18.022938960581207 -8.38983751748573 -188.3318824829226 0.0 0.0
-44.61971987094327 14.979494583184241 -8.976887337835063 -196.8520955800962 0.0 0.0
-54.314261372659665 7.503299005961256 -14.458968270371667 -213.13143164727418 0.0 0.0
-78.05137093634104 2.636844093956448 -23.95879191179103 -227.38342378342108 0.0 0.0
-124.57558789777602 -0.2477410711054766 -40.86433398659832 -231.4360133413077 0.0 0.0
-199.3753589122455 -4.098639832661792 -69.61517243452843 -220.2613548501315 0.0 0.0
-277.4572366368866 -6.270674122678749 -104.94842688902861 -204.2593433321526 0.0 0.0
-343.1289029991884 -7.332970838344899 -142.01271041831106 -191.47088720113732 0.0 0.0
-390.3527140522515 -7.0159012392596765 -173.30267587399143 -183.20515706444417 0.0 0.0
-424.5359407586068 -9.010151472970918 -199.2223045462037 -177.31131088434677 0.0 0.0
-451.0448309335716 -13.778565487045569 -221.50813779392732 -173.64105591452133 0.0 0.0
-469.37900151323794 -22.20587515350178 -240.77914100129303 -172.11185661484097 0.0 0.0
-476.75140939483447 -33.50790503719546 -256.1988731217852 -172.29205635734345 0.0 0.0
-464.00632469115016 -45.311265526184826 -264.1689018734671 -172.77916748162173 0.0 0.0
-401.91020184167377 -40.32857648236501 -249.08052517908152 -172.74565630254082 0.0 0.0
-219.30746862068287 -36.259646849470414 -186.6021968357409 -175.56166235479037 0.0 0.0
-9.68403852272931 -175.5030357166269 -68.32879329057478 -161.36487123172236 0.0 0.0
-9.684038522830178 -175.50303571675704 -68.32879329068004 161.36487123215207 0.0 0.0
-219.30746862054644 -36.259646849202454 -186.60219683566012 175.56166235526075 0.0 0.0
-401.9102018420564 -40.32857648302874 -249.0805251794223 172.7456563027946 0.0 0.0
-464.00632469074 -45.31126552591718 -264.16890187320047 172.7791674817577 0.0 0.0
-476.7514093947581 -33.50790503750284 -256.19887312176365 172.29205635731404 0.0 0.0
-469.37900151363897 -22.20587515387041 -240.77914100143843 172.1118566147621 0.0 0.0
-451.04483093357993 -13.778565487599934 -221.50813779400417 173.6410559146318 0.0 0.0
-424.5359407580553 -9.010151472574762 -199.22230454583402 177.3113108842548 0.0 0.0
-390.35271405178565 -7.015901239446194 -173.3026758737714 183.20515706452457 0.0 0.0
-343.12890299907025 -7.332970839205913 -142.0127104183597 191.47088720111165 0.0 0.0
-277.45723663626427 -6.270674123033217 -104.94842688881067 204.25934333206786 0.0 0.0
-199.37535891201003 -4.098639833428329 -69.61517243463584 220.2613548502381 0.0 0.0
-124.57558789750897 -0.2477410710856205 -40.86433398649668 231.4360133412626 0.0 0.0
-78.05137093634536 2.6368440934394597 -23.95879191193584 227.3834237832479 0.0 0.0
-54.31426137256096 7.503299005860892 -14.458968270370013 213.13143164705028 0.0 0.0
-44.61971987088706 14.97949458306378 -8.976887337854059 196.85209557981432 0.0 0.0
-45.90823004532491 18.02293896047426 -8.389837517502606 188.33188248273834 0.0 0.0
-51.56704864558143 3.89562960398423 -14.313991309073412 189.36840820027237 0.0 0.0
-51.013724751284435 -51.59011074342346 -30.78318683935595 191.3073034470993 0.0 0.0
-13.419066738785958 -261.39377313558305 -82.85061645879424 142.3269113985151 0.0 0.0
-23.89405014045774 -213.6244858553941 -71.2524031807872 -129.28490717204843 0.0 0.0
-66.32558473769369 -51.333706090449056 -35.30199920840067 -187.66410234300358 0.0 0.0
-82.60431540762048 3.5253109580028426 -23.75128369567981 -188.75754916049056 0.0 0.0
-94.86815907177663 18.698000858627488 -22.9055420881024 -187.26031104770516 0.0 0.0
-115.23826469272653 18.088201722790892 -29.45547370632518 -192.64620857725396 0.0 0.0
-154.99930457065847 11.689242199414606 -44.358268820859536 -204.58597273887497 0.0 0.0
-227.98468682003102 6.41001454054234 -71.77543885334813 -212.41939061437319 0.0 0.0
-337.3778234555138 2.3180486880090037 -119.73685397059174 -205.29961801424767 0.0 0.0
-445.6427654342616 -4.66791816098408 -182.3632285279645 -189.58148281830418 0.0 0.0
-522.8246963932756 -10.746551084118302 -237.97216837851064 -177.65977233809394 0.0 0.0
-577.2884988926282 -16.064174288031197 -279.44333125527214 -170.8451131180993 0.0 0.0
-619.4675779880349 -19.976390761535356 -309.275717867555 -165.82300775063476 0.0 0.0
-656.5487013367849 -25.763136945811937 -334.534141004666 -161.54304275426296 0.0 0.0
-690.9854898524352 -34.27160073325369 -358.11886571720885 -158.92366099875528 0.0 0.0
-723.7527733266711 -46.701991598594304 -381.99363543879076 -158.72019271055154 0.0 0.0
-753.0770736067559 -62.27732008028542 -405.46170703133487 -160.9581613689885 0.0 0.0
-774.0335270869754 -77.945577668825 -424.90742076053317 -166.01196677511635 0.0 0.0
-782.834515674612 -91.18677215179156 -437.05411978286145 -173.99454340367757 0.0 0.0
-817.6166808010762 -145.39239113846114 -482.6750849282405 -183.07598127460824 0.0 0.0
-822.486975072333 -232.4302943627134 -530.4150450915561 -202.1171243431718 0.0 0.0
-822.4869750725886 -232.43029436276143 -530.4150450917286 202.11712434334044 0.0 0.0
-817.616680800896 -145.39239113864394 -482.67508492829415 183.07598127508032 0.0 0.0
-782.8345156739152 -91.18677215121858 -437.0541197824273 173.9945434038522 0.0 0.0
-774.0335270852953 -77.94557766728516 -424.9074207594088 166.0119667752395 0.0 0.0
-753.0770736059173 -62.2773200793371 -405.4617070307505 160.95816136889923 0.0 0.0
-723.7527733261345 -46.70199159804568 -381.99363543842526 158.72019271044462 0.0 0.0
-690.9854898523824 -34.27160073340234 -358.11886571720777 158.92366099888898 0.0 0.0
-656.548701336035 -25.763136945242834 -334.534141004165 161.5430427542687 0.0 0.0
-619.4675779876413 -19.976390761288023 -309.2757178672363 165.8230077505696 0.0 0.0
-577.2884988925817 -16.064174288329653 -279.4433312552016 170.84511311809405 0.0 0.0
-522.824696392491 -10.746551083401219 -237.97216837786095 177.65977233782814 0.0 0.0
-445.6427654333526 -4.667918160265263 -182.36322852731698 189.58148281825072 0.0 0.0
-337.3778234547617 2.3180486883343185 -119.73685397015645 205.29961801430744 0.0 0.0
-227.98468681936356 6.410014540572671 -71.77543885311604 212.41939061440883 0.0 0.0
-154.99930457044803 11.689242199215165 -44.35826882085666 204.58597273868784 0.0 0.0
-115.23826469265705 18.088201722656166 -29.455473706343184 192.64620857710725 0.0 0.0
-94.86815907158005 18.69800085868974 -22.905542088028167 187.2603110475512 0.0 0.0
-82.60431540754377 3.5253109579928954 -23.751283695663325 188.75754916031457 0.0 0.0
-66.32558473757794 -51.33370609029307 -35.30199920832547 187.66410234292843 0.0 0.0
-23.894050140478996 -213.62448585524658 -71.25240318075129 129.28490717195473 0.0 0.0
-27.909794720723077 -168.86741585191794 -59.033163171792296 -114.74898175347978 0.0 0.0
-78.95599793327416 -48.59487881710287 -38.26249055419934 -180.0267767418848 0.0 0.0
-111.97986912884646 3.1108371307058977 -32.67924251680317 -184.06599773018672 0.0 0.0
-142.10761165142011 18.85002192329174 -37.07065028134349 -181.1893141415498 0.0 0.0
-183.70793039681024 19.88812548536765 -49.750280622730585 -182.60530666178232 0.0 0.0
-250.9688122490067 15.6990403262969 -73.72674260237127 -188.1306485830512 0.0 0.0
-355.0440466129076 11.992200907942587 -118.70451350037459 -185.44864389403057 0.0 0.0
-469.57544354534866 2.4807842653780483 -188.1143354767829 -171.81209500621208 0.0 0.0
-560.5933269342403 -8.505678190741726 -256.7277832366723 -162.25217898111015 0.0 0.0
-627.4376590524625 -18.538601137918548 -308.5420839549704 -157.10314685117703 0.0 0.0
-680.2879910693638 -26.03670805969628 -345.13453406277404 -153.2294279484209 0.0 0.0
-725.495794849587 -34.188388467368924 -374.64456336214306 -149.03019655612792 0.0 0.0
-767.1141545132306 -43.28547458897553 -401.364077456956 -145.0240921996623 0.0 0.0
-807.4365600330186 -55.09842536105933 -428.13057327305376 -142.32498218942848 0.0 0.0
-847.9310917110131 -71.40222688854695 -456.9654663905969 -142.1552865139772 0.0 0.0
-886.6791615589436 -91.45395407179629 -486.8135736693752 -145.1334974658286 0.0 0.0
-920.9560751011172 -113.01435701030087 -515.1913730688386 -150.99134849990836 0.0 0.0
-959.4330628015409 -146.15085821586305 -551.4075975372342 -157.4394676166034 0.0 0.0
-1002.4351774209986 -195.30073234589406 -597.8100176397088 -163.2984291452887 0.0 0.0
-1098.4662930030267 -329.5670236676235 -712.1030377685994 -171.01888866355577 0.0 0.0
-1098.4662930026125 -329.56702366726586 -712.1030377683485 171.01888866374372 0.0 0.0
-1002.4351774200805 -195.3007323449941 -597.8100176390635 163.29842914545807 0.0 0.0
-959.4330628013461 -146.15085821594184 -551.4075975371134 157.4394676168716 0.0 0.0
-920.9560751014344 -113.01435701087405 -515.1913730690428 150.99134850018447 0.0 0.0
-886.6791615590548 -91.45395407230697 -486.81357366940085 145.13349746603242 0.0 0.0
-847.9310917105638 -71.40222688809027 -456.9654663902344 142.15528651377232 0.0 0.0
-807.436560031967 -55.09842536014885 -428.13057327234634 142.3249821894576 0.0 0.0
-767.1141545126502 -43.28547458854921 -401.3640774565615 145.02409219968723 0.0 0.0
-725.4957948489379 -34.18838846701419 -374.6445633616802 149.0301965562079 0.0 0.0
-680.2879910688384 -26.03670805941969 -345.13453406239984 153.22942794838764 0.0 0.0
-627.4376590528941 -18.538601138608122 -308.54208395520334 157.10314685104558 0.0 0.0
-560.5933269344299 -8.505678191509958 -256.7277832367833 162.2521789812646 0.0 0.0
-469.5754435447813 2.480784265428991 -188.11433547639487 171.81209500627838 0.0 0.0
-355.0440466121203 11.992200908205247 -118.70451349993948 185.4486438940061 0.0 0.0
-250.9688122485655 15.699040326528806 -73.72674260214919 188.13064858280353 0.0 0.0
-183.7079303964444 19.888125485739184 -49.75028062251038 182.6053066615703 0.0 0.0
-142.10761165118333 18.850021923442537 -37.07065028123144 181.18931414134605 0.0 0.0
-111.97986912871893 3.1108371307056264 -32.67924251677087 184.06599773002608 0.0 0.0
-78.9559979332597 -48.594878817292624 -38.26249055425302 180.0267767418162 0.0 0.0
-27.909794720699654 -168.86741585175653 -59.03316317173685 114.74898175334313 0.0 0.0
-29.372370174714316 -128.08376731500852 -47.23684124691684 -99.60043444481657 0.0 0.0
-89.46483129170252 -43.622327555893605 -39.92562062300316 -168.00756738215483 0.0 0.0
-139.50517620984516 2.6350108235731513 -41.06962639108193 -175.11328325592046 0.0 0.0
-187.4713144850331 17.968043158179565 -51.00033665319849 -170.32038888092723 0.0 0.0
-248.85147910238067 20.985768601753307 -69.36672271281827 -167.32859723413372 0.0 0.0
-338.7701323353937 20.408524848487446 -103.10002902734959 -165.04628464957304 0.0 0.0
-452.2789133419517 13.775742176235354 -165.34510154790317 -153.3309363316502 0.0 0.0
-554.1319375445354 0.5961192407632083 -242.51640981814285 -143.12863068921192 0.0 0.0
-633.5164272332838 -12.791120888073138 -306.4566411133909 -140.00993572917486 0.0 0.0
-697.1089662816058 -25.12460955826269 -352.8235996721844 -138.24705859446266 0.0 0.0
-751.0227835556955 -36.169689643224686 -388.4975093660751 -135.5331942544658 0.0 0.0
-800.503516814445 -48.21676612510031 -420.6235512988973 -131.93557202218898 0.0 0.0
-846.6449040485634 -60.83049891434567 -450.7158405447292 -128.12634058448057 0.0 0.0
-891.6785031206135 -75.95225727948144 -481.19562072072176 -125.25074895457496 0.0 0.0
-937.3940455319548 -95.5042369188258 -514.0676983565986 -124.97965226256376 0.0 0.0
-984.5327328700105 -120.99276842945892 -550.6159494555493 -128.10392334574868 0.0 0.0
-1033.949567628067 -154.12528207464422 -592.138629917443 -133.56204740881856 0.0 0.0
-1087.4839564018519 -197.8705265983628 -640.9785157275705 -138.68594309013451 0.0 0.0
-1158.1878415950662 -268.8864040456058 -711.6922553374152 -140.18151313525107 0.0 0.0
-1254.0343306016339 -392.9871720766565 -821.5084010930798 -142.42321678098358 0.0 0.0
-1254.0343306015254 -392.98717207664805 -821.5084010930904 142.4232167811296 0.0 0.0
-1158.1878415947212 -268.886404045294 -711.692255337179 140.18151313527764 0.0 0.0
-1087.483956402072 -197.8705265987603 -640.9785157276569 138.68594309033284 0.0 0.0
-1033.9495676268807 -154.12528207350127 -592.1386299165956 133.5620474087478 0.0 0.0
-984.5327328700182 -120.9927684296241 -550.6159494555267 128.10392334586382 0.0 0.0
-937.3940455321624 -95.50423691926713 -514.0676983567912 124.97965226266214 0.0 0.0
-891.6785031198863 -75.95225727888969 -481.1956207202526 125.25074895458535 0.0 0.0
-846.6449040481648 -60.830498914068045 -450.7158405444162 128.12634058439235 0.0 0.0
-800.5035168142276 -48.21676612514143 -420.6235512987696 131.93557202223766 0.0 0.0
-751.0227835559049 -36.169689643690255 -388.49750936621115 135.53319425446273 0.0 0.0
-697.1089662814885 -25.124609558406476 -352.8235996720871 138.24705859434798 0.0 0.0
-633.5164272326413 -12.791120887751335 -306.45664111294735 140.00993572917028 0.0 0.0
-554.131937543804 0.596119241227683 -242.51640981756208 143.12863068915894 0.0 0.0
-452.27891334159494 13.775742176005869 -165.34510154766252 153.33093633167357 0.0 0.0
-338.7701323353654 20.408524847834595 -103.10002902746743 165.0462846495049 0.0 0.0
-248.85147910203855 20.985768601799574 -69.36672271271402 167.32859723402578 0.0 0.0
-187.47131448488366 17.968043158018652 -51.00033665320784 170.32038888084548 0.0 0.0
-139.505176209714 2.6350108235003304 -41.06962639107086 175.1132832557994 0.0 0.0
-89.46483129157292 -43.62232755577755 -39.925620622929635 168.00756738198197 0.0 0.0
-29.372370174680754 -128.08376731480922 -47.23684124684698 99.60043444457315 0.0 0.0
-30.230947476059885 -91.92002371263828 -36.64529135660945 -84.05798533974631 0.0 0.0
-98.74871810649627 -36.97341014727508 -40.71663847613139 -151.95823270009754 0.0 0.0
-165.25493319754852 2.218866622221154 -48.91264189695689 -161.68337262683963 0.0 0.0
-231.16152222624143 16.300665715062294 -64.5704450876605 -155.14034340676574 0.0 0.0
-310.67000436948916 22.410627444838 -88.36389540168342 -147.80432716843177 0.0 0.0
-415.2002273526874 22.82482657623457 -134.08121691166446 -136.4840933151534 0.0 0.0
-523.6518769684592 13.11211786934296 -208.25044459169453 -123.03334421457433 0.0 0.0
-613.7236580071849 -1.3296562668518277 -283.8145569220196 -118.84838256055507 0.0 0.0
-687.216854073266 -16.4851325168016 -341.266484364466 -119.44195082835063 0.0 0.0
-750.1875060164459 -30.919634950938104 -384.8309014290559 -119.33750158941072 0.0 0.0
-807.6026959173269 -46.04869719289265 -422.88306721749785 -117.40092638304415 0.0 0.0
-861.2678332950786 -62.13550808943397 -458.5992747175711 -114.28318074529614 0.0 0.0
-911.8282161217264 -78.71227471418499 -492.6857471753743 -110.79941891859855 0.0 0.0
-960.8231282428137 -96.69086419581271 -526.4800334242502 -107.90967675934694 0.0 0.0
-1011.5888367442761 -119.52775654335284 -563.4197586382617 -107.25258653038378 0.0 0.0
-1067.3325003480006 -151.73488173773706 -607.491739065631 -109.80092350449456 0.0 0.0
-1130.153107257243 -195.54791832243598 -660.9331029092026 -114.66669764701511 0.0 0.0
-1202.1189154516048 -255.24314839384735 -726.8034459581676 -118.41844496100869 0.0 0.0
-1284.8504720794083 -337.3359814005616 -809.1781288753007 -118.84398758658884 0.0 0.0
-1369.6890782792134 -448.1339957374721 -907.0687572028164 -122.1051694681811 0.0 0.0
-1369.6890782797298 -448.13399573808414 -907.0687572031645 122.10516946833289 0.0 0.0
-1284.8504720799287 -337.3359814011488 -809.1781288757197 118.84398758662735 0.0 0.0
-1202.118915451352 -255.24314839368228 -726.8034459580617 118.41844496116293 0.0 0.0
-1130.1531072571165 -195.54791832246312 -660.9331029090935 114.66669764711318 0.0 0.0
-1067.3325003479335 -151.73488173782766 -607.4917390655653 109.80092350458524 0.0 0.0
-1011.5888367437523 -119.52775654299029 -563.419758637878 107.25258653042894 0.0 0.0
-960.8231282423536 -96.69086419554873 -526.4800334238895 107.90967675943884 0.0 0.0
-911.8282161219755 -78.71227471459774 -492.6857471755294 110.79941891849481 0.0 0.0
-861.2678332945011 -62.13550808908514 -458.59927471722585 114.28318074536084 0.0 0.0
-807.6026959157798 -46.04869719153622 -422.88306721646757 117.4009263829821 0.0 0.0
-750.1875060154255 -30.919634950075455 -384.8309014283668 119.33750158922803 0.0 0.0
-687.216854072559 -16.485132516379753 -341.2664843640064 119.44195082836022 0.0 0.0
-613.7236580067857 -1.3296562668176257 -283.8145569217184 118.84838256058399 0.0 0.0
-523.6518769677397 13.112117869750978 -208.25044459109492 123.03334421447002 0.0 0.0
-415.200227352055 22.824826576529667 -134.0812169112875 136.48409331509288 0.0 0.0
-310.67000436889197 22.410627445260374 -88.3638954013845 147.80432716830322 0.0 0.0
-231.16152222585484 16.300665715403106 -64.57044508745122 155.1403434066957 0.0 0.0
-165.25493319729873 2.218866622423755 -48.912641896826436 161.6833726268063 0.0 0.0
-98.748718106405 -36.97341014721156 -40.71663847608495 151.9582327000506 0.0 0.0
-30.230947476017583 -91.92002371255381 -36.64529135657141 84.05798533965239 0.0 0.0
-30.994884679471767 -60.90131230789851 -27.568859096211078 -68.0852188392798 0.0 0.0
-107.23574674439107 -29.22598944506671 -40.93852085683733 -132.29860093209544 0.0 0.0
-189.4954253356361 1.7542200076345908 -56.320174492579966 -143.88603294869756 0.0 0.0
-272.1142925063697 13.983045731642322 -77.62838456946274 -135.60112376511506 0.0 0.0
-367.94982303044145 24.009995491042137 -107.44601034905227 -124.01268203707454 0.0 0.0
-478.36726395706273 22.61614995700908 -166.0569866452732 -106.62593285269764 0.0 0.0
-576.9671358791712 12.154183185774926 -245.02096776475378 -96.54805349777698 0.0 0.0
-658.4283413979714 -3.3649599351087147 -314.8248881590341 -96.71814715803657 0.0 0.0
-729.0522409477534 -19.075202260438303 -366.68521773439375 -99.19334400886466 0.0 0.0
-794.0774741102438 -36.5174525317274 -410.817218269405 -99.93733808273672 0.0 0.0
-855.3623109075652 -55.68970568586295 -452.188543535051 -98.54318428382751 0.0 0.0
-913.3568251091447 -75.99636400645747 -491.9522958932779 -95.98576794835888 0.0 0.0
-968.5329709421951 -96.7086790419043 -530.3240897152203 -93.09068909002693 0.0 0.0
-1021.5106001180302 -118.13604265375614 -567.7995863255101 -90.26219314519172 0.0 0.0
-1076.5219142596698 -144.02703838504175 -608.3343787422446 -88.90361684019173 0.0 0.0
-1140.3577288977126 -182.0849655086359 -659.274189969495 -90.45026362430224 0.0 0.0
-1216.1727921945114 -237.48184873781787 -724.8918511728075 -94.3371577477927 0.0 0.0
-1303.1143802445804 -311.31739028872073 -805.3062955080958 -97.93848726363743 0.0 0.0
-1392.3152280758031 -400.08722649557427 -894.340574753895 -100.15886138065473 0.0 0.0
-1470.606697104236 -503.02869430572423 -985.1271391441338 -106.95915806357092 0.0 0.0
-1470.6066971037708 -503.02869430531337 -985.1271391438103 106.95915806369956 0.0 0.0
-1392.3152280756003 -400.0872264955139 -894.340574753804 100.15886138093748 0.0 0.0
-1303.1143802433446 -311.3173902875634 -805.3062955072132 97.93848726365565 0.0 0.0
-1216.1727921940053 -237.4818487373865 -724.8918511723105 94.33715774781857 0.0 0.0
-1140.3577288980973 -182.08496550922126 -659.2741899696967 90.45026362452465 0.0 0.0
-1076.5219142596454 -144.02703838518522 -608.3343787421377 88.90361684022736 0.0 0.0
-1021.5106001189386 -118.13604265487587 -567.799586326043 90.26219314527316 0.0 0.0
-968.5329709417338 -96.70867904167189 -530.3240897148985 93.09068909014215 0.0 0.0
-913.3568251090169 -75.99636400660306 -491.9522958932798 95.98576794842667 0.0 0.0
-855.3623109077678 -55.68970568628262 -452.18854353521306 98.54318428372305 0.0 0.0
-794.0774741093605 -36.51745253102179 -410.8172182688545 99.93733808253454 0.0 0.0
-729.0522409466813 -19.07520225957163 -366.68521773368286 99.19334400875799 0.0 0.0
-658.4283413973491 -3.364959934753589 -314.82488815855413 96.71814715793155 0.0 0.0
-576.9671358782638 12.15418318638094 -245.0209677640538 96.54805349771777 0.0 0.0
-478.36726395678164 22.616149956831745 -166.05698664507824 106.62593285272807 0.0 0.0
-367.949823030189 24.009995490736053 -107.44601034903326 124.01268203698928 0.0 0.0
-272.1142925059664 13.983045731931625 -77.62838456926711 135.6011237650662 0.0 0.0
-189.49542533553233 1.75422000755283 -56.320174492574196 143.88603294867136 0.0 0.0
-107.23574674438626 -29.225989445162256 -40.93852085686455 132.29860093201006 0.0 0.0
-30.99488467942853 -60.90131230790438 -27.56885909619987 68.08521883924992 0.0 0.0
-31.541563822128182 -35.50129696497586 -20.11285823613121 -51.62429248841608 0.0 0.0
-114.78135275527339 -20.930587687390393 -40.71358213279913 -109.42336357848521 0.0 0.0
-212.462957834422 1.1433438831898197 -63.39537570560569 -121.71203011196178 0.0 0.0
-312.0258125566257 11.914649837068108 -90.27950564551831 -112.46854329601153 0.0 0.0
-421.97922161256366 24.49589618212327 -127.92036443406593 -96.53148915607979 0.0 0.0
-528.2027831852477 21.54666136201624 -196.86685909595988 -78.36097640980644 0.0 0.0
-615.9014240035182 10.081029669786744 -275.1941843254865 -72.96867841658403 0.0 0.0
-692.752364690549 -3.9907334274744812 -337.1652108084726 -75.58604772699252 0.0 0.0
-763.7470587395785 -21.306780618217815 -386.92262061747317 -78.69106529612577 0.0 0.0
-831.5485123363319 -42.100842486089164 -433.05139967946104 -79.83423964553585 0.0 0.0
-896.568594933907 -65.03745051775411 -477.8583117497141 -78.94777533270333 0.0 0.0
-959.1161833339152 -89.58135672791803 -521.9000688518067 -77.01853191186785 0.0 0.0
-1019.1025512571925 -114.8585132872303 -564.883032808812 -74.78052053045158 0.0 0.0
-1077.3292093335388 -140.79096920794098 -607.2147193263776 -72.34868984897558 0.0 0.0
-1136.4096207362254 -169.83656524943564 -651.3635018244925 -70.24876666742905 0.0 0.0
-1204.6990181971778 -211.50898340024048 -706.2568464109156 -70.10181237218077 0.0 0.0
-1291.6577919605886 -276.5170032401974 -782.1592656256934 -73.028739667272 0.0 0.0
-1391.4155265863135 -362.42997538965903 -875.0335410217122 -77.6562687771392 0.0 0.0
-1489.4189598472622 -460.10466864698856 -972.9686739423089 -83.28353258678314 0.0 0.0
-1566.765499898449 -561.2167973832476 -1062.4103055611838 -94.74304792329276 0.0 0.0
-1566.7654998984349 -561.2167973833062 -1062.4103055612427 94.74304792347411 0.0 0.0
-1489.4189598468479 -460.10466864669775 -972.9686739420149 83.2835325870011 0.0 0.0
-1391.415526585017 -362.4299753884127 -875.0335410207808 77.65626877709103 0.0 0.0
-1291.6577919596557 -276.5170032393096 -782.1592656251465 73.02873966716875 0.0 0.0
-1204.699018196649 -211.508983399822 -706.2568464105609 70.10181237214431 0.0 0.0
-1136.4096207361931 -169.83656524956172 -651.3635018244502 70.2487666674889 0.0 0.0
-1077.3292093335713 -140.79096920817923 -607.2147193263958 72.34868984907651 0.0 0.0
-1019.1025512574043 -114.85851328765564 -564.8830328088891 74.78052053050422 0.0 0.0
-959.1161833341481 -89.5813567284342 -521.900068851918 77.01853191199355 0.0 0.0
-896.568594933454 -65.03745051754109 -477.8583117493489 78.94777533265834 0.0 0.0
-831.5485123360883 -42.100842486143335 -433.0513996792462 79.83423964560046 0.0 0.0
-763.7470587385313 -21.30678061740319 -386.92262061675285 78.6910652960008 0.0 0.0
-692.7523646904201 -3.990733427658398 -337.1652108083477 75.58604772699013 0.0 0.0
-615.9014240026789 10.081029670290004 -275.19418432486435 72.96867841655057 0.0 0.0
-528.2027831846613 21.5466613622589 -196.86685909552918 78.36097640981583 0.0 0.0
-421.9792216120523 24.49589618227352 -127.9203644338011 96.53148915594434 0.0 0.0
-312.0258125565244 11.914649836691705 -90.2795056456144 112.46854329589334 0.0 0.0
-212.46295783439803 1.1433438829287903 -63.39537570567743 121.71203011182698 0.0 0.0
-114.78135275514609 -20.930587687360237 -40.713582132751895 109.42336357836137 0.0 0.0
-31.541563822063864 -35.501296964914744 -20.11285823609358 51.62429248834776 0.0 0.0
-31.249676445487513 -16.169172246082415 -14.225654607470975 -34.79731359946358 0.0 0.0
-120.55295077136788 -12.550581255539477 -39.931059608072204 -83.54821599756337 0.0 0.0
-234.52341016137206 0.10873875296133217 -70.32440142252322 -95.09652703978325 0.0 0.0
-351.6811711883302 11.220346714226714 -102.568389701252 -85.70852611424937 0.0 0.0
-469.34442414631104 23.793322520001595 -149.8577249952865 -67.15150964111027 0.0 0.0
-567.1642438769547 19.10031158580071 -226.0686817600549 -53.170206073128554 0.0 0.0
-647.1111991145328 8.726401005777547 -299.094951253418 -51.45217616725424 0.0 0.0
-720.7299657244696 -4.138560168751255 -354.25749267302365 -54.513764878592895 0.0 0.0
-792.9333744394629 -23.62330845364758 -403.73726055099644 -57.67604915197415 0.0 0.0
-863.6908493946348 -47.48031152532616 -452.28442435546333 -59.03026661782598 0.0 0.0
-932.7005382378939 -74.15944010704627 -500.77230300149836 -58.61146439778963 0.0 0.0
-999.6374240805119 -102.83191392831097 -548.9965807794297 -57.29916373629537 0.0 0.0
-1065.047016553122 -132.8678273336782 -597.0109311263764 -55.80342790028391 0.0 0.0
-1129.1499462751967 -164.52582752102106 -645.1046231605103 -53.933326428265886 0.0 0.0
-1193.4908605953037 -198.5052538195825 -694.3755687222533 -51.53823750090258 0.0 0.0
-1263.8092386259407 -241.17242811694936 -750.8016971423345 -49.63206156004482 0.0 0.0
-1352.2478468128643 -306.6960591214021 -827.5976682607393 -50.958672166905345 0.0 0.0
-1467.268352170232 -406.912883222089 -935.2022785074194 -56.93369959459319 0.0 0.0
-1579.5984953991237 -518.1337109661808 -1047.1314418884494 -67.02906366420764 0.0 0.0
-1666.5453751305463 -627.266533686416 -1145.4044469753458 -84.0715362762028 0.0 0.0
-1666.5453751297823 -627.2665336856919 -1145.4044469748364 84.07153627625004 0.0 0.0
-1579.598495397581 -518.133710964655 -1047.1314418873258 67.02906366419367 0.0 0.0
-1467.2683521707297 -406.91288322269565 -935.2022785076947 56.93369959475649 0.0 0.0
-1352.2478468118675 -306.69605912051577 -827.5976682600169 50.95867216693096 0.0 0.0
-1263.809238625979 -241.1724281170833 -750.8016971422846 49.632061559889166 0.0 0.0
-1193.4908605950784 -198.50525381954319 -694.3755687220881 51.53823750110396 0.0 0.0
-1129.1499462749964 -164.52582752098243 -645.1046231603805 53.93332642823061 0.0 0.0
-1065.0470165528313 -132.8678273335767 -597.0109311261841 55.803427900302665 0.0 0.0
-999.6374240797493 -102.83191392778141 -548.9965807789047 57.299163736333426 0.0 0.0
-932.7005382379118 -74.1594401073599 -500.77230300155105 58.61146439793494 0.0 0.0
-863.6908493946412 -47.4803115256334 -452.28442435550016 59.03026661789458 0.0 0.0
-792.9333744389734 -23.62330845340979 -403.7372605506903 57.67604915185818 0.0 0.0
-720.7299657233409 -4.138560167865734 -354.25749267228395 54.51376487842931 0.0 0.0
-647.1111991140413 8.726401005956376 -299.0949512530225 51.452176167176106 0.0 0.0
-567.1642438763804 19.10031158604435 -226.06868175957175 53.170206073063284 0.0 0.0
-469.34442414598334 23.79332251998896 -149.85772499508138 67.15150964095861 0.0 0.0
-351.6811711878976 11.22034671447107 -102.56838970107202 85.70852611413844 0.0 0.0
-234.52341016124265 0.10873875296800861 -70.32440142248238 95.09652703962526 0.0 0.0
-120.55295077129287 -12.550581255702543 -39.93105960809862 83.54821599732853 0.0 0.0
-31.24967644531818 -16.169172246039583 -14.225654607407325 34.79731359945931 0.0 0.0
-28.814384387834462 -3.280271024201745 -9.628396623610861 -18.120870073549206 0.0 0.0
-122.8369579940325 -4.690402644353247 -38.25820819151571 -54.63888003966509 0.0 0.0
-256.06875570481736 -1.2071821214064773 -77.18278134786716 -63.528818152307316 0.0 0.0
-392.8178926066411 11.896184057183774 -115.36822709805733 -55.41856410847128 0.0 0.0
-508.50133472830873 22.649540146390017 -172.53365819243828 -38.87199909246054 0.0 0.0
-595.6972883931953 15.454536717971052 -252.16852675009022 -30.507233501810088 0.0 0.0
-671.4441638428658 8.768477274375485 -316.63696756077206 -30.82931570179864 0.0 0.0
-744.0208895027266 -4.881650399105325 -368.22119699798697 -33.454451487566615 0.0 0.0
-817.2436558235754 -25.7778252103911 -417.67215426854165 -36.12153355192902 0.0 0.0
-891.1596634395028 -52.61866032135967 -468.935336274866 -37.48023597379785 0.0 0.0
-964.3062819407284 -83.07218157360293 -521.2623261298061 -37.51378208371166 0.0 0.0
-1036.0600826597183 -115.73447168863976 -573.8290547587746 -36.853408486449005 0.0 0.0
-1106.7111176328463 -150.87804379554353 -626.9690557886704 -35.9694126904175 0.0 0.0
-1177.4264853310283 -188.5486503767985 -681.33061133298 -34.800808335318905 0.0 0.0
-1248.8551134150637 -229.3241305890479 -737.5444151628508 -32.898160892983945 0.0 0.0
-1321.9116790155754 -274.65373243977564 -796.7575873255896 -30.148768660590726 0.0 0.0
-1403.3916580554246 -332.6988533162282 -866.365226440823 -28.907346667717636 0.0 0.0
-1511.19425123778 -424.2746114094995 -965.8258815383009 -34.45417463749327 0.0 0.0
-1670.5888047521184 -580.2257622758925 -1123.6479199312676 -49.59443739219271 0.0 0.0
-1779.363037962213 -708.6600494892587 -1242.5815670673828 -73.9702863500471 0.0 0.0
-1779.363037962432 -708.6600494894774 -1242.5815670674722 73.97028635004656 0.0 0.0
-1670.588804751705 -580.2257622755565 -1123.6479199310045 49.59443739231443 0.0 0.0
-1511.194251236734 -424.27461140852955 -965.8258815375935 34.454174637594946 0.0 0.0
-1403.391658054069 -332.6988533149828 -866.3652264398125 28.90734666776035 0.0 0.0
-1321.9116790154071 -274.65373243971135 -796.7575873253564 30.148768660385365 0.0 0.0
-1248.8551134142049 -229.3241305883626 -737.5444151620567 32.89816089318076 0.0 0.0
-1177.4264853298466 -188.54865037578057 -681.3306113320732 34.80080833525746 0.0 0.0
-1106.7111176314597 -150.8780437943348 -626.9690557876629 35.96941269033772 0.0 0.0
-1036.0600826594116 -115.73447168856163 -573.8290547585257 36.85340848645673 0.0 0.0
-964.3062819392762 -83.07218157239446 -521.2623261287449 37.51378208372409 0.0 0.0
-891.1596634384315 -52.618660320550774 -468.93533627413177 37.4802359737126 0.0 0.0
-817.2436558230359 -25.777825210100403 -417.672154268148 36.121533551798926 0.0 0.0
-744.0208895017912 -4.881650398479941 -368.22119699736453 33.454451487590575 0.0 0.0
-671.4441638422742 8.768477274667966 -316.6369675603179 30.829315701693247 0.0 0.0
-595.6972883928005 15.454536718011287 -252.16852674972498 30.507233501749127 0.0 0.0
-508.5013347280178 22.649540146385927 -172.53365819221136 38.87199909235473 0.0 0.0
-392.81789260622185 11.896184057167474 -115.36822709795199 55.41856410842057 0.0 0.0
-256.06875570457754 -1.207182121279299 -77.18278134775706 63.52881815237136 0.0 0.0
-122.83695799401595 -4.690402644492558 -38.25820819155254 54.63888003987859 0.0 0.0
-28.814384387738652 -3.2802710242308355 -9.628396623590845 18.12087007360899 0.0 0.0
-21.738378955915568 2.9090850114548004 -5.64878818333823 -2.8706876847690745 0.0 0.0
-118.54255955071484 1.8060656215120048 -35.02094817876085 -22.135238630453056 0.0 0.0
-278.22032572953935 -2.363498409795131 -84.17514724180035 -25.939115569827674 0.0 0.0
-433.0111954094634 14.04709581118369 -129.43516722928516 -22.338634082482102 0.0 0.0
-541.459980592548 20.189720833823028 -196.1880048975479 -13.229855302701953 0.0 0.0
-620.5266245436086 13.524074196715198 -273.9503306054363 -10.149603238369878 0.0 0.0
-691.4063862244872 8.164841303791178 -330.66797551508716 -10.617294333078345 0.0 0.0
-763.0233038219499 -5.697442293031813 -379.4236974598755 -12.316152991924046 0.0 0.0
-837.4970808331963 -28.006230139355182 -429.43339072447634 -14.053399855943614 0.0 0.0
-914.4535698771608 -57.46664032368798 -483.2908958526067 -15.181584387210478 0.0 0.0
-991.9252041448019 -91.51098142941947 -539.4760757242905 -15.637313588327752 0.0 0.0
-1068.553879358782 -128.86179519080451 -596.7788608819365 -15.58196532714007 0.0 0.0
-1144.7728116540818 -168.69310528423514 -655.0109769965604 -15.350895283664624 0.0 0.0
-1221.9031424865373 -212.0973317174201 -715.4097620390431 -14.86631196568739 0.0 0.0
-1300.7682689883688 -260.09498017225326 -778.9319483368942 -13.844688204982806 0.0 0.0
-1380.4395163977345 -312.2189351929898 -844.88882243066 -11.959494951374179 0.0 0.0
-1458.542411053613 -367.08959605862145 -911.3659650703098 -9.427481397239331 0.0 0.0
-1540.272010744437 -431.672901785734 -984.3330774270447 -10.510476574144295 0.0 0.0
-1661.0039529643332 -545.2018063895048 -1101.1324204274333 -26.355273509451173 0.0 0.0
-1981.668006802281 -879.3149908098404 -1429.071296222229 -61.09818716403062 0.0 0.0
-1981.6680068019648 -879.314990809571 -1429.0712962220912 61.098187164088266 0.0 0.0
-1661.0039529633366 -545.2018063885533 -1101.1324204267335 26.35527350951766 0.0 0.0
-1540.27201074414 -431.67290178552355 -984.3330774267929 10.510476574252618 0.0 0.0
-1458.5424110552624 -367.0895960603915 -911.3659650713549 9.427481397225822 0.0 0.0
-1380.4395163969878 -312.21893519236795 -844.8888224301156 11.959494951314698 0.0 0.0
-1300.7682689877724 -260.09498017180465 -778.9319483364927 13.844688205048339 0.0 0.0
-1221.9031424860323 -212.09733171709055 -715.4097620386534 14.866311965788803 0.0 0.0
-1144.772811654199 -168.6931052845644 -655.0109769965412 15.35089528365755 0.0 0.0
-1068.5538793579844 -128.86179519023966 -596.7788608813356 15.581965327297194 0.0 0.0
-991.9252041446211 -91.51098142951385 -539.4760757241024 15.637313588356871 0.0 0.0
-914.4535698778122 -57.46664032461497 -483.29089585295253 15.181584387369202 0.0 0.0
-837.4970808330413 -28.006230139508716 -429.43339072433065 14.053399856056416 0.0 0.0
-763.0233038218996 -5.697442293302643 -379.42369745983024 12.316152992098143 0.0 0.0
-691.4063862242274 8.164841303738143 -330.6679755149047 10.61729433312019 0.0 0.0
-620.526624543538 13.52407419640003 -273.9503306052997 10.14960323843496 0.0 0.0
-541.4599805925951 20.18972083337768 -196.18800489750265 13.229855302660592 0.0 0.0
-433.01119540908996 14.047095811185267 -129.43516722915365 22.338634082419407 0.0 0.0
-278.22032572920824 -2.363498409824029 -84.17514724170968 25.939115569827678 0.0 0.0
-118.54255955077535 1.8060656211688642 -35.02094817888194 22.135238630376193 0.0 0.0
-21.7383789559119 2.9090850114491285 -5.648788183338831 2.870687684611082 0.0 0.0
SCALARS Strain float 6
LOOKUP_TABLE default
0.012160627726900738 -0.013228552378135278 0.0 -0.007337022638705448 0.0 0.0
0.002490113233729104 -0.0015950523550360973 0.0 0.001229075931036272 0.0 0.0
0.001843308081515848 -0.0007540067640016135 0.0 -3.8800103438707545e-05 0.0 0.0
0.002357825232124012 -0.001155776503065642 0.0 -0.00022470012145853202 0.0 0.0
0.0037283954113347707 -0.002273243386591739 0.0 -0.00028890540878317994 0.0 0.0
0.006551302883652849 -0.004795804549164284 0.0 -0.0004476471783002034 0.0 0.0
0.011141963868421858 -0.009116986530110172 0.0 -0.0007213341937261086 0.0 0.0
0.017805582362147833 -0.01550993638012299 0.0 -0.0011457618961371319 0.0 0.0
0.026698775178229273 -0.02410965534210119 0.0 -0.0017374971596373356 0.0 0.0
0.0377978736990595 -0.03488892633691787 0.0 -0.002446273423513945 0.0 0.0
0.05096814867547443 -0.04772319247643697 0.0 -0.003182248145253641 0.0 0.0
0.06604695255367787 -0.06245754512901902 0.0 -0.0039015927722117483 0.0 0.0
0.08287267913342786 -0.07893377237625243 0.0 -0.004610886818232213 0.0 0.0
0.10125284839612714 -0.0969550560574457 0.0 -0.005304835108046108 0.0 0.0
0.12084315567468282 -0.11617327220027196 0.0 -0.0059531523815676834 0.0 0.0
0.14100796495687995 -0.1359562318578491 0.0 -0.006427203237777568 0.0 0.0
0.16076015667357121 -0.15532931384031912 0.0 -0.0064957582117771695 0.0 0.0
0.17879863288797035 -0.17300525667182587 0.0 -0.005935046316341341 0.0 0.0
0.19357001895601167 -0.18743467646094292 0.0 -0.005022696408164884 0.0 0.0
0.20283661629901004 -0.19618448731950133 0.0 -0.005725618388179976 0.0 0.0
0.20283661629899744 -0.19618448731949245 0.0 0.0057256183881873035 0.0 0.0
0.19357001895596923 -0.18743467646090428 0.0 0.0050226964081862 0.0 0.0
0.1787986328879001 -0.17300525667176414 0.0 0.00593504631635422 0.0 0.0
0.16076015667348287 -0.15532931384023874 0.0 0.006495758211783165 0.0 0.0
0.1410079649567862 -0.13595623185775807 0.0 0.006427203237767465 0.0 0.0
0.1208431556745854 -0.11617327220018092 0.0 0.005953152381566018 0.0 0.0
0.10125284839603033 -0.09695505605735333 0.0 0.00530483510804558 0.0 0.0
0.08287267913333118 -0.07893377237616406 0.0 0.004610886818230853 0.0 0.0
0.06604695255358456 -0.06245754512892798 0.0 0.0039015927722014787 0.0 0.0
0.0509681486753919 -0.04772319247635082 0.0 0.0031822481452493667 0.0 0.0
0.03779787369899196 -0.03488892633684948 0.0 0.0024462734235052297 0.0 0.0
0.026698775178176815 -0.02410965534204834 0.0 0.0017374971596350597 0.0 0.0
0.01780558236210844 -0.015509936380082356 0.0 0.0011457618961314697 0.0 0.0
0.011141963868394722 -0.009116986530084636 0.0 0.0007213341937233331 0.0 0.0
0.006551302883636478 -0.004795804549148741 0.0 0.00044764717829809397 0.0 0.0
0.0037283954113278006 -0.002273243386586521 0.0 0.00028890540878168114 0.0 0.0
0.002357825232122135 -0.0011557765030639766 0.0 0.00022470012145670015 0.0 0.0
0.001843308081515671 -0.0007540067640009473 0.0 3.8800103439207145e-05 0.0 0.0
0.0024901132337277754 -0.0015950523550342655 0.0 -0.0012290759310328858 0.0 0.0
0.012160627726889528 -0.013228552378120803 0.0 0.007337022638671142 0.0 0.0
0.008664194382387178 -0.010110769075348913 0.0 -0.008882248278079541 0.0 0.0
0.0013456371612389911 -0.0008023328969111176 0.0 0.0001287208283813901 0.0 0.0
0.0015737120072478045 -0.0005577227889240755 0.0 -0.00012760627861341245 0.0 0.0
0.002063846972461293 -0.0009606691105629173 0.0 -0.0004830643886952757 0.0 0.0
0.0031581664069157828 -0.0018048358142546128 0.0 -0.0006461146762243297 0.0 0.0
0.005577836372679071 -0.003912406780597122 0.0 -0.001034933073895905 0.0 0.0
0.009675539110315656 -0.007719676937562481 0.0 -0.001725406039782218 0.0 0.0
0.01570372741663586 -0.013470128813053872 0.0 -0.002734558798861142 0.0 0.0
0.023763335525071004 -0.021242662593335737 0.0 -0.004069215686234917 0.0 0.0
0.03378361562366703 -0.03095961459242469 0.0 -0.005610852020235757 0.0 0.0
0.04561101380678033 -0.042475196837581386 0.0 -0.0071876854950989055 0.0 0.0
0.059106832871505935 -0.055655518256243486 0.0 -0.00870078309952338 0.0 0.0
0.07416848532832584 -0.07039609699383442 0.0 -0.010209194161138746 0.0 0.0
0.09065028036298184 -0.08654879103561086 0.0 -0.011727804417110188 0.0 0.0
0.10825875253258711 -0.10381893312737045 0.0 -0.013150408132131197 0.0 0.0
0.12645558114780825 -0.12167015654353408 0.0 -0.014220154663765638 0.0 0.0
0.14438901637940696 -0.13925597947592072 0.0 -0.01448957600569134 0.0 0.0
0.16087116804535084 -0.15539163566213654 0.0 -0.013608809205364836 0.0 0.0
0.17426611536320508 -0.16840362839943435 0.0 -0.01180870233885678 0.0 0.0
0.1823456354536881 -0.17618976315786217 0.0 -0.008900169618537679 0.0 0.0
0.18234563545367607 -0.17618976315784884 0.0 0.008900169618563436 0.0 0.0
0.17426611536316597 -0.16840362839939305 0.0 0.011808702338897081 0.0 0.0
0.16087116804528903 -0.1553916356620766 0.0 0.013608809205391204 0.0 0.0
0.14438901637933013 -0.13925597947584478 0.0 0.014489576005704885 0.0 0.0
0.1264555811477252 -0.12167015654344793 0.0 0.014220154663757367 0.0 0.0
0.10825875253249928 -0.10381893312728252 0.0 0.013150408132126756 0.0 0.0
0.09065028036289516 -0.08654879103552204 0.0 0.011727804417106857 0.0 0.0
0.07416848532823916 -0.07039609699374871 0.0 0.010209194161132307 0.0 0.0
0.05910683287142354 -0.05565551825616577 0.0 0.008700783099508946 0.0 0.0
0.045611013806706124 -0.04247519683751699 0.0 0.007187685495088636 0.0 0.0
0.03378361562360621 -0.030959614592372287 0.0 0.005610852020220158 0.0 0.0
0.0237633355250233 -0.021242662593291328 0.0 0.004069215686229033 0.0 0.0
0.01570372741660031 -0.013470128813020565 0.0 0.002734558798854092 0.0 0.0
0.009675539110291231 -0.007719676937542497 0.0 0.0017254060397764448 0.0 0.0
0.005577836372665568 -0.0039124067805855756 0.0 0.0010349330738920193 0.0 0.0
0.003158166406910301 -0.0018048358142483956 0.0 0.000646114676223275 0.0 0.0
0.002063846972459815 -0.0009606691105601417 0.0 0.0004830643886954422 0.0 0.0
0.001573712007248096 -0.0005577227889229652 0.0 0.00012760627861402307 0.0 0.0
0.0013456371612394769 -0.0008023328969087307 0.0 -0.0001287208283833885 0.0 0.0
0.008664194382373314 -0.010110769075333311 0.0 0.008882248278049842 0.0 0.0
0.006430915041991801 -0.008045116302186961 0.0 -0.00824241070168813 0.0 0.0
0.0007897784595052165 -0.0005254626630435411 0.0 -0.0005816812329702548 0.0 0.0
0.001260445838797697 -0.000409543014213809 0.0 -0.00043827370144655653 0.0 0.0
0.0017849167286136253 -0.0007832738418350749 0.0 -0.0007270511590858897 0.0 0.0
0.002651164378438535 -0.0014147721469592867 0.0 -0.0009537436997500426 0.0 0.0
0.004643746755855431 -0.0030874117648054256 0.0 -0.0014697437978003491 0.0 0.0
0.008221037863445316 -0.006347214416323244 0.0 -0.002466850941103993 0.0 0.0
0.01357816455652762 -0.011420835849790034 0.0 -0.00395278202955146 0.0 0.0
0.020771592795553226 -0.01833171516942489 0.0 -0.005872243186210324 0.0 0.0
0.029692007961040406 -0.026966245628202046 0.0 -0.008055958077524739 0.0 0.0
0.040172925319718576 -0.03715955621113487 0.0 -0.010287576588854042 0.0 0.0
0.05209053884670368 -0.048788660229424075 0.0 -0.012439341666479142 0.0 0.0
0.06537540894444956 -0.06178144929561302 0.0 -0.014561473361547839 0.0 0.0
0.07993651045065499 -0.07604459261043939 0.0 -0.016713059842494882 0.0 0.0
0.09555005184385312 -0.09135469663472406 0.0 -0.018765771777752405 0.0 0.0
0.11178281922036594 -0.10727819223193436 0.0 -0.020341202769661892 0.0 0.0
0.12792127838876519 -0.12309934520401455 0.0 -0.020894228210443566 0.0 0.0
0.14287083517066934 -0.13771123784081452 0.0 -0.01994312877712834 0.0 0.0
0.15504313201080536 -0.14955390525227052 0.0 -0.017001051696214464 0.0 0.0
0.16261920765983037 -0.15689155657116505 0.0 -0.011160513602889388 0.0 0.0
0.16261920765981952 -0.15689155657115395 0.0 0.01116051360292769 0.0 0.0
0.15504313201076975 -0.14955390525223322 0.0 0.017001051696271863 0.0 0.0
0.1428708351706147 -0.13771123784076078 0.0 0.019943128777165087 0.0 0.0
0.12792127838869854 -0.12309934520395327 0.0 0.020894228210462162 0.0 0.0
0.1117828192202926 -0.10727819223185797 0.0 0.02034120276965279 0.0 0.0
0.09555005184377519 -0.09135469663464946 0.0 0.018765771777747853 0.0 0.0
0.07993651045057812 -0.07604459261036611 0.0 0.01671305984249083 0.0 0.0
0.06537540894437296 -0.06178144929553975 0.0 0.01456147336154312 0.0 0.0
0.052090538846631784 -0.04878866022934769 0.0 0.012439341666461434 0.0 0.0
0.04017292531965322 -0.03715955621107003 0.0 0.010287576588837055 0.0 0.0
0.02969200796098692 -0.026966245628152752 0.0 0.00805595807750581 0.0 0.0
0.020771592795510496 -0.018331715169386475 0.0 0.005872243186202497 0.0 0.0
0.013578164556495631 -0.011420835849760946 0.0 0.003952782029540469 0.0 0.0
0.008221037863424263 -0.006347214416301039 0.0 0.002466850941098553 0.0 0.0
0.004643746755844336 -0.003087411764792991 0.0 0.001469743797797518 0.0 0.0
0.0026511643784344896 -0.0014147721469549568 0.0 0.0009537436997472115 0.0 0.0
0.0017849167286125844 -0.0007832738418341867 0.0 0.0007270511590853901 0.0 0.0
0.001260445838798252 -0.00040954301421347594 0.0 0.00043827370144722266 0.0 0.0
0.0007897784595051749 -0.0005254626630414316 0.0 0.0005816812329675347 0.0 0.0
0.006430915041979013 -0.008045116302172795 0.0 0.008242410701664427 0.0 0.0
0.004864256217068236 -0.006486678160742998 0.0 -0.0070098638704600424 0.0 0.0
0.0004945670954866893 -0.00039110480179116447 0.0 -0.001180547193397885 0.0 0.0
0.0009768300806018426 -0.00029943319245784306 0.0 -0.0008537584165417278 0.0 0.0
0.0015126114428315462 -0.0006279401546190888 0.0 -0.00099779893382268 0.0 0.0
0.00220406028213975 -0.0011017917685318679 0.0 -0.0012365987770993625 0.0 0.0
0.003783593455018802 -0.002359743356075583 0.0 -0.0017806857808164156 0.0 0.0
0.006791533170162581 -0.005028210141969414 0.0 -0.002955956783774971 0.0 0.0
0.011453880248186846 -0.009386937572130272 0.0 -0.004794749587737512 0.0 0.0
0.017752817003007307 -0.01540952419719055 0.0 -0.007137798271855955 0.0 0.0
0.025556099039082653 -0.02294343523884912 0.0 -0.009785159372014185 0.0 0.0
0.03468447989075241 -0.031807350607169216 0.0 -0.012481786880357837 0.0 0.0
0.045022727757190795 -0.04188327217873766 0.0 -0.015098302344569658 0.0 0.0
0.0565292038612132 -0.05312705225302494 0.0 -0.017693246108505922 0.0 0.0
0.06915753226238375 -0.0654884083811802 0.0 -0.020284854583488 0.0 0.0
0.08275580960310906 -0.07881842469953604 0.0 -0.022755814707308863 0.0 0.0
0.09700519290857175 -0.0927956664749745 0.0 -0.02475560036924157 0.0 0.0
0.11133080676857535 -0.10683405358828768 0.0 -0.0256647632828797 0.0 0.0
0.12477728548583664 -0.11997576889356543 0.0 -0.024727108919040397 0.0 0.0
0.13596303991948824 -0.13086850433303043 0.0 -0.02092122012976183 0.0 0.0
0.1433297469823658 -0.13802004110497057 0.0 -0.013006065810706291 0.0 0.0
0.1433297469823559 -0.13802004110496258 0.0 0.013006065810756584 0.0 0.0
0.1359630399194563 -0.13086850433300334 0.0 0.02092122012982678 0.0 0.0
0.12477728548578848 -0.1199757688935188 0.0 0.02472710891908414 0.0 0.0
0.111330806768518 -0.10683405358823306 0.0 0.02566476328290135 0.0 0.0
0.09700519290850754 -0.09279566647491144 0.0 0.024755600369231634 0.0 0.0
0.08275580960304119 -0.07881842469946854 0.0 0.022755814707299815 0.0 0.0
0.06915753226231663 -0.06548840838111714 0.0 0.020284854583478507 0.0 0.0
0.056529203861147154 -0.05312705225296588 0.0 0.017693246108496985 0.0 0.0
0.045022727757128234 -0.04188327217868082 0.0 0.015098302344550785 0.0 0.0
0.03468447989069634 -0.031807350607110596 0.0 0.012481786880338408 0.0 0.0
0.02555609903903658 -0.022943435238798937 0.0 0.009785159371991647 0.0 0.0
0.01775281700296985 -0.015409524197157465 0.0 0.007137798271843354 0.0 0.0
0.011453880248158466 -0.009386937572107401 0.0 0.0047947495877248 0.0 0.0
0.006791533170145525 -0.005028210141954981 0.0 0.0029559567837688094 0.0 0.0
0.0037835934550097816 -0.002359743356070698 0.0 0.0017806857808125853 0.0 0.0
0.0022040602821369326 -0.0011017917685316458 0.0 0.001236598777097253 0.0 0.0
0.0015126114428308801 -0.0006279401546196439 0.0 0.0009977989338209037 0.0 0.0
0.0009768300806022312 -0.0002994331924579541 0.0 0.0008537584165391743 0.0 0.0
0.0004945670954865644 -0.0003911048017899432 0.0 0.0011805471933939993 0.0 0.0
0.004864256217057272 -0.00648667816073073 0.0 0.007009863870443389 0.0 0.0
0.0036699791931218972 -0.005216863917866688 0.0 -0.0057452129214926595 0.0 0.0
0.00033008088139580005 -0.0003172292136567334 0.0 -0.0016469458405727888 0.0 0.0
0.0007398813902334406 -0.00022014822738503081 0.0 -0.0012726020484842282 0.0 0.0
0.0012463038581603109 -0.0004938825816063197 0.0 -0.0012972935598986601 0.0 0.0
0.0018085483425090143 -0.0008537958574581506 0.0 -0.0015057124655785126 0.0 0.0
0.0030137594126120326 -0.0017485528842982045 0.0 -0.0020280273598485277 0.0 0.0
0.005428836213488816 -0.0038037936583088516 0.0 -0.0032148353607706626 0.0 0.0
0.009349145067872003 -0.007396560286344167 0.0 -0.005220096634033999 0.0 0.0
0.014736243722867831 -0.012507140281300178 0.0 -0.007858490996329681 0.0 0.0
0.02140696573342954 -0.01892437475161257 0.0 -0.010793592217356374 0.0 0.0
0.029177129365222237 -0.026451733401167576 0.0 -0.01377865804434647 0.0 0.0
0.037934340556217375 -0.03497304284122382 0.0 -0.016676857717535076 0.0 0.0
0.04766039108009067 -0.04446519822060058 0.0 -0.019550776884693533 0.0 0.0
0.058352425224856744 -0.05492255552294445 0.0 -0.02243593438934066 0.0 0.0
0.06992303196906925 -0.06625843685424604 0.0 -0.02517437973937381 0.0 0.0
0.08214972751609231 -0.07824838765412823 0.0 -0.027428710171555404 0.0 0.0
0.09461139681700505 -0.09046310924637346 0.0 -0.028656623427000705 0.0 0.0
0.10657855731263663 -0.10216475696914218 0.0 -0.027915293651062822 0.0 0.0
0.11692414320977304 -0.11224681242413714 0.0 -0.023734152312643753 0.0 0.0
0.12427179170666816 -0.11938581549728111 0.0 -0.014565191318045234 0.0 0.0
0.124271791706659 -0.11938581549726823 0.0 0.014565191318095638 0.0 0.0
0.11692414320974434 -0.11224681242411139 0.0 0.023734152312711365 0.0 0.0
0.10657855731259527 -0.10216475696910177 0.0 0.027915293651110895 0.0 0.0
0.09461139681695657 -0.09046310924633039 0.0 0.02865662342702402 0.0 0.0
0.08214972751603719 -0.07824838765407716 0.0 0.027428710171549353 0.0 0.0
0.06992303196901084 -0.06625843685419186 0.0 0.025174379739362873 0.0 0.0
0.05835242522479983 -0.054922555522890715 0.0 0.02243593438933078 0.0 0.0
0.0476603910800352 -0.044465198220545954 0.0 0.01955077688468243 0.0 0.0
0.037934340556164514 -0.03497304284117231 0.0 0.016676857717516702 0.0 0.0
0.029177129365175386 -0.02645173340112228 0.0 0.013778658044326875 0.0 0.0
0.021406965733390515 -0.01892437475157438 0.0 0.010793592217334336 0.0 0.0
0.014736243722835746 -0.012507140281264428 0.0 0.007858490996313139 0.0 0.0
0.009349145067847842 -0.0073965602863217406 0.0 0.005220096634017957 0.0 0.0
0.005428836213475313 -0.0038037936582970833 0.0 0.0032148353607618363 0.0 0.0
0.003013759412605538 -0.0017485528842939857 0.0 0.0020280273598431986 0.0 0.0
0.0018085483425070714 -0.0008537958574577065 0.0 0.001505712465575959 0.0 0.0
0.0012463038581599362 -0.0004938825816064307 0.0 0.0012972935598971613 0.0 0.0
0.0007398813902335377 -0.00022014822738480877 0.0 0.0012726020484822853 0.0 0.0
0.00033008088139580005 -0.0003172292136553456 0.0 0.0016469458405706794 0.0 0.0
0.0036699791931127934 -0.005216863917856321 0.0 0.0057452129214778935 0.0 0.0
0.0027290077116530337 -0.004153726012550929 0.0 -0.0046366560179023075 0.0 0.0
0.00023026997573048769 -0.00026928140022286495 0.0 -0.0019946293809641746 0.0 0.0
0.0005415029395658827 -0.00016005897995718943 0.0 -0.0016417028122553412 0.0 0.0
0.0009842570857343663 -0.0003738735917091507 0.0 -0.0015987862922235974 0.0 0.0
0.0014537367127744616 -0.0006543292452452221 0.0 -0.0017694603606614456 0.0 0.0
0.002329978372387756 -0.0012568944036432939 0.0 -0.0022387896474537206 0.0 0.0
0.004175174775345611 -0.002728940327161977 0.0 -0.0033516919006227885 0.0 0.0
0.007307006214946843 -0.00550904047037859 0.0 -0.005304313630843882 0.0 0.0
0.01174706280026959 -0.009657391441533658 0.0 -0.008003985454468676 0.0 0.0
0.017275860803150273 -0.014943727106343285 0.0 -0.011068740258978249 0.0 0.0
0.023681212696473844 -0.021127996380246206 0.0 -0.014160488776245761 0.0 0.0
0.03085834236799427 -0.028094000007718112 0.0 -0.017164153359238266 0.0 0.0
0.03880532967706295 -0.035836176571447 0.0 -0.020143525792288952 0.0 0.0
0.04755616397536626 -0.044384836968279995 0.0 -0.023119371303476244 0.0 0.0
0.05708845721439211 -0.05371421196087223 0.0 -0.025964116767935363 0.0 0.0
0.06725761714825876 -0.06368242490605569 0.0 -0.028364241390309963 0.0 0.0
0.07778780792165249 -0.07401049803833537 0.0 -0.02980776618144465 0.0 0.0
0.08823295821880325 -0.08423769241350865 0.0 -0.029397320498287804 0.0 0.0
0.09779520016073576 -0.09356524719375736 0.0 -0.025419140526743433 0.0 0.0
0.10526009089648222 -0.10081636382791093 0.0 -0.015873178530685594 0.0 0.0
0.10526009089647487 -0.10081636382790293 0.0 0.015873178530736443 0.0 0.0
0.09779520016071094 -0.09356524719373782 0.0 0.025419140526812267 0.0 0.0
0.08823295821876892 -0.08423769241348023 0.0 0.029397320498338098 0.0 0.0
0.07778780792161186 -0.07401049803829984 0.0 0.029807766181466522 0.0 0.0
0.06725761714821307 -0.0636824249060095 0.0 0.02836424139030147 0.0 0.0
0.057088457214343274 -0.053714211960824265 0.0 0.02596411676792354 0.0 0.0
0.04755616397532006 -0.044384836968235586 0.0 0.023119371303466862 0.0 0.0
0.038805329677018024 -0.03583617657140081 0.0 0.02014352579227785 0.0 0.0
0.03085834236795157 -0.02809400000767681 0.0 0.017164153359220613 0.0 0.0
0.02368121269643586 -0.021127996380209346 0.0 0.01416048877622289 0.0 0.0
0.017275860803118187 -0.014943727106316196 0.0 0.011068740258952214 0.0 0.0
0.011747062800242875 -0.009657391441514118 0.0 0.008003985454448692 0.0 0.0
0.007307006214928108 -0.005509040470361493 0.0 0.005304313630829338 0.0 0.0
0.004175174775335355 -0.002728940327150209 0.0 0.0033516919006161827 0.0 0.0
0.0023299783723832734 -0.001256894403638853 0.0 0.0022387896474480584 0.0 0.0
0.0014537367127734346 -0.000654329245244889 0.0 0.0017694603606589476 0.0 0.0
0.0009842570857339639 -0.00037387359170948375 0.0 0.0015987862922218765 0.0 0.0
0.00054150293956573 -0.0001600589799565233 0.0 0.0016417028122527322 0.0 0.0
0.00023026997573030727 -0.0002692814002215882 0.0 0.001994629380960733 0.0 0.0
0.002729007711646053 -0.004153726012542304 0.0 0.004636656017890151 0.0 0.0
0.001982368070873722 -0.0032560870783921447 0.0 -0.0037185213829926678 0.0 0.0
0.0001606468563074559 -0.00023464255983374205 0.0 -0.0022386394626626727 0.0 0.0
0.00036810125358771595 -0.00010909100850564624 0.0 -0.001939396565854068 0.0 0.0
0.0007259579961134549 -0.000259373277583963 0.0 -0.0018766119945186621 0.0 0.0
0.0011204046373805843 -0.00048555919439485784 0.0 -0.002030541407620101 0.0 0.0
0.0017316784337001873 -0.0008693857099244529 0.0 -0.0024127700622339487 0.0 0.0
0.0030396795848438574 -0.0018229753464702458 0.0 -0.0033645343821978035 0.0 0.0
0.005386721247999868 -0.003792747728497803 0.0 -0.00512262366495253 0.0 0.0
0.008831072029583525 -0.0069253776669251366 0.0 -0.00762222647651617 0.0 0.0
0.013192073716406225 -0.011041168021286296 0.0 -0.010575357184574752 0.0 0.0
0.018226326408483554 -0.015873341385487905 0.0 -0.01361256224738594 0.0 0.0
0.02382723925613281 -0.02128610075801607 0.0 -0.016546029335595125 0.0 0.0
0.030000236874502276 -0.027283040431820726 0.0 -0.019438367580218052 0.0 0.0
0.03680881050136606 -0.033922295641162226 0.0 -0.022335267077434107 0.0 0.0
0.04428669111091904 -0.0412319873645437 0.0 -0.02511719665791934 0.0 0.0
0.05237129850277583 -0.04914523581899122 0.0 -0.027480601184862286 0.0 0.0
0.06089808986461312 -0.057514969747756606 0.0 -0.0290366327688939 0.0 0.0
0.06970650534025369 -0.06616513692353543 0.0 -0.029087866673154328 0.0 0.0
0.07842974113332576 -0.07469120018323006 0.0 -0.02588582864907718 0.0 0.0
0.08609651815936226 -0.08212913674159772 0.0 -0.01691478116987588 0.0 0.0
0.08609651815935665 -0.08212913674159061 0.0 0.016914781169927617 0.0 0.0
0.07842974113330553 -0.07469120018321052 0.0 0.02588582864914435 0.0 0.0
0.06970650534022621 -0.06616513692350967 0.0 0.029087866673202067 0.0 0.0
0.06089808986458037 -0.05751496974772774 0.0 0.029036632768914883 0.0 0.0
0.052371298502739555 -0.04914523581895436 0.0 0.027480601184852516 0.0 0.0
0.044286691110880294 -0.04123198736450817 0.0 0.02511719665790546 0.0 0.0
0.03680881050133045 -0.033922295641133804 0.0 0.022335267077424725 0.0 0.0
0.03000023687446876 -0.027283040431790972 0.0 0.019438367580208005 0.0 0.0
0.023827239256100197 -0.02128610075798898 0.0 0.016546029335581913 0.0 0.0
0.018226326408453647 -0.015873341385462147 0.0 0.013612562247363291 0.0 0.0
0.013192073716381203 -0.011041168021265868 0.0 0.010575357184548495 0.0 0.0
0.008831072029563042 -0.006925377666906707 0.0 0.007622226476499683 0.0 0.0
0.00538672124798642 -0.003792747728487811 0.0 0.005122623664941317 0.0 0.0
0.0030396795848364466 -0.0018229753464671372 0.0 0.003364534382193307 0.0 0.0
0.001731678433697259 -0.0008693857099233426 0.0 0.0024127700622297854 0.0 0.0
0.001120404637380057 -0.0004855591943927484 0.0 0.002030541407616493 0.0 0.0
0.0007259579961131912 -0.00025937327758329687 0.0 0.0018766119945165527 0.0 0.0
0.0003681012535875494 -0.0001090910085069785 0.0 0.0019393965658524026 0.0 0.0
0.00016064685630703956 -0.00023464255983335347 0.0 0.0022386394626620065 0.0 0.0
0.001982368070868268 -0.003256087078385577 0.0 0.0037185213829843966 0.0 0.0
0.0014010942919578384 -0.0025138240536719536 0.0 -0.0029950716399150257 0.0 0.0
9.748418851464324e-05 -0.0002054347245374899 0.0 -0.0023822928934032483 0.0 0.0
0.00020822919038329668 -5.929003897264806e-05 0.0 -0.002165166075200342 0.0 0.0
0.00047291993577118496 -0.0001466958830381726 0.0 -0.0021083906994517343 0.0 0.0
0.0007884247898822666 -0.0003285005904412053 0.0 -0.00226951978684653 0.0 0.0
0.0012057973902894203 -0.0005723643872732609 0.0 -0.0026017189812290176 0.0 0.0
0.002034180273367159 -0.0011055821654928355 0.0 -0.0033215979840492404 0.0 0.0
0.0036210403924500922 -0.0023078503921862836 0.0 -0.004721551445507344 0.0 0.0
0.006053509770026166 -0.004400942479750203 0.0 -0.0068095585365029465 0.0 0.0
0.009201509674564623 -0.007291182796308249 0.0 -0.009362604798043406 0.0 0.0
0.012846499560830171 -0.01074066931242923 0.0 -0.012088812150281014 0.0 0.0
0.01687160309336816 -0.014598880630949829 0.0 -0.01477069019276711 0.0 0.0
0.021280367326282856 -0.018858003529502287 0.0 -0.01741334407454942 0.0 0.0
0.026147207245891868 -0.023588342281782637 0.0 -0.02003983612125937 0.0 0.0
0.03155564000572017 -0.028864460418769333 0.0 -0.02259102204366148 0.0 0.0
0.03752936880225047 -0.03470028382878887 0.0 -0.02479984373990518 0.0 0.0
0.04400145509019665 -0.04104180140463365 0.0 -0.026268998099312713 0.0 0.0
0.050993850073558555 -0.0479434614030243 0.0 -0.026710542899515022 0.0 0.0
0.05866774320284082 -0.05549056202498859 0.0 -0.02485821233070551 0.0 0.0
0.0665438126168838 -0.06311930631527574 0.0 -0.01761729096042397 0.0 0.0
0.06654381261687928 -0.06311930631527085 0.0 0.01761729096047171 0.0 0.0
0.05866774320282592 -0.05549056202497571 0.0 0.024858212330767904 0.0 0.0
0.05099385007353774 -0.04794346140300343 0.0 0.026710542899563317 0.0 0.0
0.04400145509017209 -0.041041801404603895 0.0 0.02626899809932981 0.0 0.0
0.03752936880222346 -0.034700283828761336 0.0 0.02479984373989297 0.0 0.0
0.03155564000569219 -0.028864460418739135 0.0 0.0225910220436476 0.0 0.0
0.026147207245867304 -0.023588342281758656 0.0 0.020039836121249932 0.0 0.0
0.021280367326260458 -0.018858003529480083 0.0 0.01741334407454187 0.0 0.0
0.016871603093345594 -0.014598880630923627 0.0 0.014770690192751013 0.0 0.0
0.012846499560808355 -0.010740669312408802 0.0 0.012088812150260142 0.0 0.0
0.009201509674547137 -0.007291182796288265 0.0 0.009362604798021312 0.0 0.0
0.006053509770012816 -0.004400942479739767 0.0 0.006809558536490845 0.0 0.0
0.0036210403924409884 -0.0023078503921807325 0.0 0.004721551445497796 0.0 0.0
0.0020341802733624126 -0.0011055821654886167 0.0 0.0033215979840434673 0.0 0.0
0.0012057973902875885 -0.0005723643872721507 0.0 0.002601718981224077 0.0 0.0
0.0007884247898819752 -0.00032850059044309265 0.0 0.0022695197868448647 0.0 0.0
0.0004729199357710323 -0.00014669588303839465 0.0 0.0021083906994493473 0.0 0.0
0.00020822919038318566 -5.929003897109375e-05 0.0 0.002165166075197844 0.0 0.0
9.748418851426854e-05 -0.0002054347245369903 0.0 0.0023822928934019716 0.0 0.0
0.0014010942919538694 -0.0025138240536669437 0.0 0.0029950716399096966 0.0 0.0
0.0009712658828166243 -0.0019311006616711257 0.0 -0.002465065691389934 0.0 0.0
2.5740957087100336e-05 -0.0001796465248870005 0.0 -0.0024542937090720196 0.0 0.0
5.473278701192963e-05 -4.541175511740825e-06 0.0 -0.0023224840253422974 0.0 0.0
0.0002268493229842239 -3.714007498856198e-05 0.0 -0.0022853732087103062 0.0 0.0
0.0004484999685955282 -0.0001680803155339472 0.0 -0.0024549272213539863 0.0 0.0
0.0007144182994126003 -0.00032673688363105136 0.0 -0.0027965822426546105 0.0 0.0
0.0011642715177645202 -0.0005767384269443898 0.0 -0.003312276262069702 0.0 0.0
0.0020379421354943528 -0.0011272327645344138 0.0 -0.004217067303045996 0.0 0.0
0.0034698207918040513 -0.002203171846629548 0.0 -0.005658939724457912 0.0 0.0
0.005369907652001238 -0.003825005468053533 0.0 -0.007533473953812653 0.0 0.0
0.00759168845894681 -0.005842221773701528 0.0 -0.00965958775597775 0.0 0.0
0.01002281289575821 -0.00812104403706515 0.0 -0.011855698593650543 0.0 0.0
0.012672686134153954 -0.010642466410317297 0.0 -0.014088959852940008 0.0 0.0
0.015606316467567494 -0.013468862821800709 0.0 -0.016309626037852132 0.0 0.0
0.0189261136040986 -0.01669412995338959 0.0 -0.018487453375661822 0.0 0.0
0.02274812880509311 -0.020419345206244 0.0 -0.02047288264419178 0.0 0.0
0.027143815751826866 -0.024702212695060677 0.0 -0.021865672811676062 0.0 0.0
0.032198309070127135 -0.02968093493408608 0.0 -0.022381111988161062 0.0 0.0
0.038386063511533425 -0.03587590791061901 0.0 -0.021896456901995487 0.0 0.0
0.04626721884157281 -0.043521228290512415 0.0 -0.01772395345940958 0.0 0.0
0.046267218841569674 -0.043521228290510194 0.0 0.017723953459447328 0.0 0.0
0.038386063511524904 -0.03587590791060524 0.0 0.021896456902050332 0.0 0.0
0.03219830907011298 -0.029680934934069203 0.0 0.022381111988201585 0.0 0.0
0.027143815751810713 -0.02470221269503803 0.0 0.021865672811685388 0.0 0.0
0.02274812880507643 -0.020419345206221795 0.0 0.020472882644178347 0.0 0.0
0.018926113604082445 -0.016694129953369607 0.0 0.018487453375648943 0.0 0.0
0.015606316467553782 -0.013468862821784722 0.0 0.016309626037843805 0.0 0.0
0.012672686134142519 -0.010642466410303086 0.0 0.0140889598529359 0.0 0.0
0.010022812895745303 -0.008121044037052716 0.0 0.011855698593637332 0.0 0.0
0.007591688458934015 -0.005842221773687761 0.0 0.009659587755959875 0.0 0.0
0.005369907651991995 -0.00382500546804021 0.0 0.007533473953794112 0.0 0.0
0.0034698207917972512 -0.0022031718466166694 0.0 0.005658939724449641 0.0 0.0
0.0020379421354893013 -0.0011272327645266422 0.0 0.004217067303040334 0.0 0.0
0.0011642715177620222 -0.0005767384269428355 0.0 0.003312276262066538 0.0 0.0
0.0007144182994117398 -0.0003267368836317175 0.0 0.002796582242651391 0.0 0.0
0.00044849996859569474 -0.00016808031553461333 0.0 0.002454927221352432 0.0 0.0
0.0002268493229842239 -3.7140074988673e-05 0.0 0.002285373208708419 0.0 0.0
5.473278701181861e-05 -4.541175512073892e-06 0.0 0.0023224840253402435 0.0 0.0
2.5740957086850536e-05 -0.0001796465248864454 0.0 0.002454293709069577 0.0 0.0
0.0009712658828141818 -0.001931100661667736 0.0 0.002465065691384938 0.0 0.0
0.0006665229384401616 -0.0014890179861811736 0.0 -0.002093616969357115 0.0 0.0
-5.382332345141294e-05 -0.00015871543203749283 0.0 -0.0024869739470284036 0.0 0.0
-9.567703555993234e-05 5.64380398426767e-05 0.0 -0.002421114440436911 0.0 0.0
-1.237358594791127e-05 6.911603167014668e-05 0.0 -0.0024051311145538157 0.0 0.0
0.0001049887434904917 -4.424691793625257e-06 0.0 -0.0025670108785131873 0.0 0.0
0.0002231682839623772 -8.932209468559549e-05 0.0 -0.00293145561574204 0.0 0.0
0.00037668868711235315 -0.00017882152756687475 0.0 -0.003422259878225198 0.0 0.0
0.0006468562762731722 -0.0003164173250929103 0.0 -0.003953647888189804 0.0 0.0
0.0011164183886353818 -0.0005693631710221858 0.0 -0.004637937098358691 0.0 0.0
0.0017513142108795399 -0.0009728069812884321 0.0 -0.00564218354159407 0.0 0.0
0.0025003446775163085 -0.0015122980024209198 0.0 -0.007009621173298397 0.0 0.0
0.003305790749729226 -0.002164171546723548 0.0 -0.008624503650852655 0.0 0.0
0.004178685173657493 -0.0029242700397951182 0.0 -0.010420002663721672 0.0 0.0
0.005165423830415322 -0.0038283355084720583 0.0 -0.012363425681723106 0.0 0.0
0.006374648848509301 -0.004971080723125798 0.0 -0.014426278135518111 0.0 0.0
0.007999708522497206 -0.006526567106002634 0.0 -0.01646075438012362 0.0 0.0
0.010297400760865882 -0.0087256528616515 0.0 -0.018050702003539754 0.0 0.0
0.013475763772355015 -0.0117636988854124 0.0 -0.01855610012735409 0.0 0.0
0.017842081077260402 -0.016133855845593015 0.0 -0.018162777430636323 0.0 0.0
0.024861185787317608 -0.023182388591340253 0.0 -0.017202222990284066 0.0 0.0
0.024861185787317025 -0.023182388591343805 0.0 0.017202222990313376 0.0 0.0
0.017842081077257044 -0.016133855845593015 0.0 0.018162777430680732 0.0 0.0
0.013475763772348132 -0.011763698885413731 0.0 0.018556100127380182 0.0 0.0
0.010297400760859471 -0.008725652861650168 0.0 0.018050702003543084 0.0 0.0
0.007999708522492766 -0.006526567106000414 0.0 0.016460754380112075 0.0 0.0
0.0063746488485047215 -0.004971080723124466 0.0 0.014426278135507564 0.0 0.0
0.005165423830412658 -0.0038283355084720583 0.0 0.012363425681716778 0.0 0.0
0.0041786851736567154 -0.00292427003979423 0.0 0.010420002663715566 0.0 0.0
0.0033057907497269223 -0.002164171546719995 0.0 0.008624503650842996 0.0 0.0
0.0025003446775134497 -0.0015122980024160348 0.0 0.007009621173287628 0.0 0.0
0.001751314210878513 -0.0009728069812835471 0.0 0.005642183541584078 0.0 0.0
0.0011164183886339663 -0.0005693631710228519 0.0 0.004637937098354583 0.0 0.0
0.0006468562762718677 -0.0003164173250926883 0.0 0.003953647888186973 0.0 0.0
0.0003766886871114927 -0.00017882152756576453 0.0 0.003422259878223033 0.0 0.0
0.00022316828396240496 -8.932209468426322e-05 0.0 0.002931455615738987 0.0 0.0
0.00010498874349093579 -4.424691792181967e-06 0.0 0.0025670108785094126 0.0 0.0
-1.2373585947800247e-05 6.91160316707018e-05 0.0 0.0024051311145492082 0.0 0.0
-9.567703555990459e-05 5.643803984345386e-05 0.0 0.0024211144404339136 0.0 0.0
-5.382332345166274e-05 -0.0001587154320372708 0.0 0.0024869739470270713 0.0 0.0
0.0006665229384386906 -0.00148901798617917 0.0 0.002093616969354284 0.0 0.0
0.00045378677649521304 -0.0011691136891621157 0.0 -0.0018593784861185014 0.0 0.0
-0.00013153680851415994 -0.00013523723615371797 0.0 -0.0024875123041087077 0.0 0.0
-0.0002426243709467979 0.00011865355024476276 0.0 -0.002466771532435519 0.0 0.0
-0.0002449868310797909 0.00017243657387522315 0.0 -0.0024602408120932284 0.0 0.0
-0.0002352242902313728 0.00015799006498018464 0.0 -0.0026040467798159606 0.0 0.0
-0.0002729431400859128 0.00015040327881177262 0.0 -0.002948963785084857 0.0 0.0
-0.00039358936812700085 0.00019484273061864954 0.0 -0.0034300059214366074 0.0 0.0
-0.0006515767367397396 0.00032020141082877984 0.0 -0.003958786465523001 0.0 0.0
-0.0011159865722867868 0.000569808229927915 0.0 -0.004640211919125448 0.0 0.0
-0.0017499602143238036 0.0009726075390266153 0.0 -0.005640750624311686 0.0 0.0
-0.0025063721012888174 0.0015214229327771278 0.0 -0.007010175299137611 0.0 0.0
-0.0033430750915739438 0.0022017325092429374 0.0 -0.008632777165903827 0.0 0.0
-0.004262280344315195 0.0029967435507596285 0.0 -0.010429734313290195 0.0 0.0
-0.00523787339411641 0.0038652103256873183 0.0 -0.012369277264543066 0.0 0.0
-0.006151419732933899 0.0046866916975978334 0.0 -0.014444541972131963 0.0 0.0
-0.0067554682434558255 0.005222551868348191 0.0 -0.01660877167537944 0.0 0.0
-0.006656645866955135 0.0051096728827735305 0.0 -0.018829152660315707 0.0 0.0
-0.00548182675624917 0.004099188149242927 0.0 -0.02116310622958706 0.0 0.0
-0.0029212102961084785 0.0020368716714966872 0.0 -0.023281136989752538 0.0 0.0
0.0034232253379372357 -0.003930257072997101 0.0 -0.022006287527748136 0.0 0.0
0.0034232253379365696 -0.003930257072997101 0.0 0.022006287527766344 0.0 0.0
-0.0029212102961088393 0.0020368716714980195 0.0 0.02328113698977119 0.0 0.0
-0.005481826756246616 0.004099188149237598 0.0 0.02116310622959039 0.0 0.0
-0.006656645866948807 0.00510967288276909 0.0 0.018829152660307158 0.0 0.0
-0.00675546824344736 0.005222551868339309 0.0 0.01660877167536423 0.0 0.0
-0.006151419732926849 0.004686691697588952 0.0 0.014444541972118197 0.0 0.0
-0.005237873394108361 0.0038652103256779924 0.0 0.012369277264534184 0.0 0.0
-0.0042622803443058965 0.002996743550752967 0.0 0.010429734313278316 0.0 0.0
-0.003343075091564507 0.0022017325092344997 0.0 0.008632777165891503 0.0 0.0
-0.0025063721012815177 0.001521422932768246 0.0 0.007010175299124288 0.0 0.0
-0.0017499602143166149 0.0009726075390203981 0.0 0.005640750624298918 0.0 0.0
-0.0011159865722829565 0.000569808229922808 0.0 0.004640211919121506 0.0 0.0
-0.0006515767367380743 0.00032020141082789166 0.0 0.003958786465519393 0.0 0.0
-0.0003935893681258906 0.00019484273061620705 0.0 0.0034300059214322776 0.0 0.0
-0.00027294314008524667 0.0001504032788111065 0.0 0.002948963785081138 0.0 0.0
-0.0002352242902308732 0.0001579900649795185 0.0 0.002604046779812186 0.0 0.0
-0.0002449868310793746 0.00017243657387466804 0.0 0.0024602408120912855 0.0 0.0
-0.00024262437094665912 0.00011865355024531787 0.0 0.002466771532434575 0.0 0.0
-0.00013153680851429872 -0.000135237236153829 0.0 0.0024875123041065983 0.0 0.0
0.00045378677649451915 -0.0011691136891608458 0.0 0.0018593784861171136 0.0 0.0
0.0003078122313225906 -0.0009253541096758688 0.0 -0.0016806205461233903 0.0 0.0
-0.00020172714287233773 -0.0001041954372007492 0.0 -0.00244063299150421 0.0 0.0
-0.00038348797989165573 0.00017782740360106075 0.0 -0.002460115500495963 0.0 0.0
-0.0004698918629133242 0.00027174046231082105 0.0 -0.0024468950884012353 0.0 0.0
-0.0005683991851325176 0.00031518811177999595 0.0 -0.002560144568530376 0.0 0.0
-0.0007621594090283512 0.0003868227466441443 0.0 -0.002850863567552042 0.0 0.0
-0.0011805577597893968 0.0005938575375237232 0.0 -0.0033401284673097997 0.0 0.0
-0.002041071837667663 0.0011314785801914695 0.0 -0.004232164176633912 0.0 0.0
-0.003467756210059625 0.0022024083858132038 0.0 -0.005661908695774098 0.0 0.0
-0.005368708126286231 0.0038256212945744217 0.0 -0.007532717013837731 0.0 0.0
-0.007600363767491791 0.0058547717586199255 0.0 -0.009659458293350798 0.0 0.0
-0.010058982165022518 0.008161542791788268 0.0 -0.011844238495048565 0.0 0.0
-0.012748812161580553 0.010715120203006023 0.0 -0.0140455382978516 0.0 0.0
-0.015665444389702132 0.013498692477096341 0.0 -0.01625471609453999 0.0 0.0
-0.018695344484615323 0.0163904476838872 0.0 -0.018555810721029742 0.0 0.0
-0.021546610036304953 0.019104977834868198 0.0 -0.021026151503237056 0.0 0.0
-0.023752776483150995 0.021199003432118335 0.0 -0.023748110998459304 0.0 0.0
-0.024759885801234865 0.022137734986016344 0.0 -0.026631269782422806 0.0 0.0
-0.023551498485289007 0.020660130171553437 0.0 -0.027923285471648795 0.0 0.0
-0.017075459182141567 0.013904794553088351 0.0 -0.025679570300936483 0.0 0.0
-0.017075459182142955 0.013904794553088795 0.0 0.025679570300969234 0.0 0.0
-0.02355149848528601 0.02066013017155033 0.0 0.027923285471697534 0.0 0.0
-0.02475988580122304 0.022137734986007906 0.0 0.026631269782449674 0.0 0.0
-0.023752776483132093 0.02119900343210812 0.0 0.02374811099846097 0.0 0.0
-0.021546610036284664 0.019104977834852654 0.0 0.021026151503222512 0.0 0.0
-0.018695344484595977 0.016390447683870768 0.0 0.018555810721013644 0.0 0.0
-0.01566544438968412 0.013498692477078134 0.0 0.016254716094529442 0.0 0.0
-0.01274881216156093 0.010715120202990036 0.0 0.014045538297841276 0.0 0.0
-0.010058982165002395 0.00816154279177006 0.0 0.011844238495030912 0.0 0.0
-0.007600363767473944 0.005854771758601718 0.0 0.009659458293328926 0.0 0.0
-0.005368708126270827 0.0038256212945633195 0.0 0.007532717013815415 0.0 0.0
-0.003467756210049744 0.0022024083858078747 0.0 0.005661908695763107 0.0 0.0
-0.002041071837661973 0.001131478580188805 0.0 0.004232164176628694 0.0 0.0
-0.0011805577597859829 0.0005938575375221689 0.0 0.0033401284673086895 0.0 0.0
-0.0007621594090269912 0.000386822746642812 0.0 0.0028508635675493776 0.0 0.0
-0.000568399185131907 0.0003151881117792188 0.0 0.0025601445685282664 0.0 0.0
-0.00046989186291265805 0.00027174046231082105 0.0 0.0024468950883999585 0.0 0.0
-0.00038348797989137817 0.00017782740360094973 0.0 0.0024601155004944086 0.0 0.0
-0.00020172714287214344 -0.0001041954372002496 0.0 0.002440632991504099 0.0 0.0
0.0003078122313222298 -0.0009253541096751836 0.0 0.0016806205461222246 0.0 0.0
0.00020230189493194994 -0.0007139226424208167 0.0 -0.0014917367627952371 0.0 0.0
-0.00026447297071527376 -6.715376389387906e-05 0.0 -0.002340034281562875 0.0 0.0
-0.0005160637991495631 0.00023296725011967556 0.0 -0.002395792061733737 0.0 0.0
-0.0006858930717294487 0.00036523659171050493 0.0 -0.0023671119037683708 0.0 0.0
-0.0008903103687390723 0.00046317019767072587 0.0 -0.002434504742707677 0.0 0.0
-0.0012501759929152978 0.0006321829638651355 0.0 -0.0026917329406745405 0.0 0.0
-0.0020477869232050083 0.0011242742047943288 0.0 -0.0033653783895348233 0.0 0.0
-0.003619691736366365 0.002309273746852858 0.0 -0.004736592237723658 0.0 0.0
-0.006049972098129575 0.004398318521406264 0.0 -0.00680768313327168 0.0 0.0
-0.009202303083924473 0.0072932663956337684 0.0 -0.009362098323690171 0.0 0.0
-0.012856485026221165 0.010753566559837502 0.0 -0.012085915378687861 0.0 0.0
-0.016899475735266123 0.014630818241907928 0.0 -0.01473297406567109 0.0 0.0
-0.021332825058192534 0.018909297645074208 0.0 -0.017288223569130623 0.0 0.0
-0.026177566422266207 0.023596235304931934 0.0 -0.01985039700521607 0.0 0.0
-0.031335950425489395 0.02858335285550906 0.0 -0.022638698509680255 0.0 0.0
-0.03648144545099394 0.03355155207239369 0.0 -0.02594106697648446 0.0 0.0
-0.04103616843388577 0.037937844823525246 0.0 -0.029926541949891305 0.0 0.0
-0.04405957682841721 0.04074559379130793 0.0 -0.03385147902765251 0.0 0.0
-0.043730915558251926 0.040139823703438715 0.0 -0.03582164889432993 0.0 0.0
-0.03641794775295834 0.03213767504407983 0.0 -0.032013598639372476 0.0 0.0
-0.03641794775295762 0.03213767504408116 0.0 0.03201359863941644 0.0 0.0
-0.04373091555824432 0.04013982370343605 0.0 0.03582164889438655 0.0 0.0
-0.04405957682839856 0.040745593791289725 0.0 0.033851479027689035 0.0 0.0
-0.04103616843385638 0.037937844823493716 0.0 0.02992654194989841 0.0 0.0
-0.03648144545096324 0.03355155207236171 0.0 0.025941066976472027 0.0 0.0
-0.03133595042545842 0.028583352855480637 0.0 0.022638698509660715 0.0 0.0
-0.026177566422237328 0.023596235304908397 0.0 0.01985039700520036 0.0 0.0
-0.02133282505816221 0.018909297645046674 0.0 0.017288223569118577 0.0 0.0
-0.01689947573523655 0.014630818241881283 0.0 0.01473297406565266 0.0 0.0
-0.012856485026193507 0.010753566559812189 0.0 0.012085915378663659 0.0 0.0
-0.009202303083900978 0.007293266395607567 0.0 0.009362098323663692 0.0 0.0
-0.006049972098113282 0.004398318521387834 0.0 0.006807683133258524 0.0 0.0
-0.003619691736356137 0.0023092737468446423 0.0 0.004736592237714943 0.0 0.0
-0.00204778692319893 0.0011242742047912202 0.0 0.0033653783895287726 0.0 0.0
-0.0012501759929132855 0.0006321829638649135 0.0 0.0026917329406697665 0.0 0.0
-0.0008903103687381564 0.00046317019767172507 0.0 0.0024345047427050126 0.0 0.0
-0.0006858930717287826 0.000365236591710838 0.0 0.0023671119037662613 0.0 0.0
-0.0005160637991491329 0.00023296725011956454 0.0 0.002395792061732571 0.0 0.0
-0.00026447297071484355 -6.715376389476724e-05 0.0 0.002340034281562098 0.0 0.0
0.00020230189493174178 -0.000713922642420128 0.0 0.0014917367627934608 0.0 0.0
0.00011611906196931643 -0.0005255050194425959 0.0 -0.0012948056477826153 0.0 0.0
-0.0003219937098201675 -2.403184912103118e-05 0.0 -0.0021840221161715245 0.0 0.0
-0.0006401033836248016 0.0002842238000700936 0.0 -0.0022774572098651635 0.0 0.0
-0.0008920592547230488 0.00045105203876294464 0.0 -0.0022280640109242356 0.0 0.0
-0.0011987576570244851 0.0006042927905975937 0.0 -0.0022439866427431676 0.0 0.0
-0.001770735711813548 0.0009278124387850362 0.0 -0.0025299977137094865 0.0 0.0
-0.003045572971363375 0.0018378764259361358 0.0 -0.0034106622181876434 0.0 0.0
-0.005380779810509356 0.003788675354265525 0.0 -0.0051265141937471 0.0 0.0
-0.008828178616747256 0.006922650238277761 0.0 -0.0076172341154615575 0.0 0.0
-0.01319574115450986 0.011045626803485753 0.0 -0.010575964482974931 0.0 0.0
-0.018235729680323026 0.015884349715193036 0.0 -0.013606887599861173 0.0 0.0
-0.023839002527763192 0.021300314859286296 0.0 -0.01648578700865566 0.0 0.0
-0.03000901858568203 0.027292636098666723 0.0 -0.019240045008505846 0.0 0.0
-0.03678773936833368 0.03389008660609205 0.0 -0.02200903603711868 0.0 0.0
-0.04410307660377824 0.04100914464216343 0.0 -0.02510199065218388 0.0 0.0
-0.05161097100061615 0.04829868809910609 0.0 -0.028974741614461452 0.0 0.0
-0.058519678354475385 0.054959251395235054 0.0 -0.0337616892496726 0.0 0.0
-0.06335346949387424 0.05950080349641862 0.0 -0.03854421894657101 0.0 0.0
-0.06356291338194064 0.05928538037998443 0.0 -0.040801359135702486 0.0 0.0
-0.05451839530106489 0.04958133549352217 0.0 -0.03721158536240432 0.0 0.0
-0.05451839530106162 0.04958133549351906 0.0 0.03721158536245084 0.0 0.0
-0.06356291338192774 0.05928538037997333 0.0 0.04080135913576044 0.0 0.0
-0.06335346949384899 0.059500803496391974 0.0 0.03854421894661375 0.0 0.0
-0.0585196783544375 0.05495925139520352 0.0 0.03376168924968126 0.0 0.0
-0.05161097100057559 0.048298688099065235 0.0 0.028974741614451183 0.0 0.0
-0.04410307660373683 0.041009144642120354 0.0 0.02510199065216745 0.0 0.0
-0.03678773936829369 0.033890086606055636 0.0 0.02200903603710197 0.0 0.0
-0.030009018585640937 0.027292636098627643 0.0 0.019240045008489415 0.0 0.0
-0.023839002527723502 0.021300314859247216 0.0 0.01648578700863479 0.0 0.0
-0.018235729680286458 0.015884349715154844 0.0 0.013606887599834139 0.0 0.0
-0.013195741154478191 0.011045626803454223 0.0 0.010575964482946232 0.0 0.0
-0.008828178616724455 0.006922650238257777 0.0 0.007617234115445071 0.0 0.0
-0.005380779810494479 0.0037886753542542007 0.0 0.0051265141937351655 0.0 0.0
-0.003045572971354202 0.001837876425927698 0.0 0.0034106622181790947 0.0 0.0
-0.001770735711810148 0.0009278124387801512 0.0 0.0025299977137048235 0.0 0.0
-0.0011987576570232777 0.0006042927905973716 0.0 0.002243986642742335 0.0 0.0
-0.0008920592547222023 0.00045105203876205646 0.0 0.0022280640109236804 0.0 0.0
-0.0006401033836242187 0.00028422380006964953 0.0 0.002277457209864331 0.0 0.0
-0.0003219937098198067 -2.4031849120753623e-05 0.0 0.002184022116169304 0.0 0.0
0.0001161190619690805 -0.0005255050194417545 0.0 0.0012948056477794512 0.0 0.0
4.1693235223572156e-05 -0.00035928576031418746 0.0 -0.0010927538094167022 0.0 0.0
-0.0003772085175973716 2.433098413756607e-05 0.0 -0.001975457025101268 0.0 0.0
-0.0007562835262365508 0.0003323861092919822 0.0 -0.0021020569969287806 0.0 0.0
-0.0010863754209128051 0.0005275128177151256 0.0 -0.002023944047410464 0.0 0.0
-0.0015036571585726743 0.0007504106139200051 0.0 -0.0020087755344597724 0.0 0.0
-0.0023577197104216185 0.0013048064750453836 0.0 -0.0023526960875804304 0.0 0.0
-0.004172619289728896 0.0027350388823472738 0.0 -0.0033808924281371056 0.0 0.0
-0.007299540376461244 0.0055018046340691296 0.0 -0.005300296750384181 0.0 0.0
-0.011746558048397193 0.009656621106488128 0.0 -0.007997697873162957 0.0 0.0
-0.017282128117853318 0.01495025203306044 0.0 -0.01106899144982032 0.0 0.0
-0.02368776381781701 0.021134694897161577 0.0 -0.014149456616213918 0.0 0.0
-0.030848046861784162 0.028084041629580003 0.0 -0.017087963833326558 0.0 0.0
-0.038756168694943055 0.035789716218920464 0.0 -0.019905322457356323 0.0 0.0
-0.04746435944143951 0.04429637138971376 0.0 -0.022711973757737813 0.0 0.0
-0.05694370044188632 0.053554627738034544 0.0 -0.025841442349191057 0.0 0.0
-0.06681762783528566 0.06316450959298292 0.0 -0.02979651915223147 0.0 0.0
-0.07603103945243864 0.07205777119546086 0.0 -0.034790853178516934 0.0 0.0
-0.08254069782071574 0.0781723668011085 0.0 -0.039960416450640524 0.0 0.0
-0.08296104057874845 0.07809831141403789 0.0 -0.04298759773690286 0.0 0.0
-0.07215858575782222 0.06670880209538321 0.0 -0.041806154338239865 0.0 0.0
-0.07215858575781678 0.06670880209537478 0.0 0.041806154338287604 0.0 0.0
-0.08296104057872974 0.07809831141401613 0.0 0.04298759773695959 0.0 0.0
-0.0825406978206828 0.07817236680107653 0.0 0.039960416450685377 0.0 0.0
-0.0760310394523943 0.0720577711954169 0.0 0.034790853178529535 0.0 0.0
-0.06681762783523541 0.06316450959293274 0.0 0.029796519152222756 0.0 0.0
-0.056943700441834916 0.053554627737985694 0.0 0.025841442349178068 0.0 0.0
-0.04746435944138849 0.04429637138966491 0.0 0.022711973757721438 0.0 0.0
-0.038756168694892276 0.03578971621886806 0.0 0.019905322457338448 0.0 0.0
-0.030848046861733674 0.02808404162953204 0.0 0.017087963833306463 0.0 0.0
-0.02368776381777185 0.021134694897124273 0.0 0.014149456616187273 0.0 0.0
-0.017282128117813975 0.014950252033026246 0.0 0.011068991449791732 0.0 0.0
-0.011746558048368036 0.009656621106462149 0.0 0.007997697873146192 0.0 0.0
-0.0072995403764411215 0.005501804634050478 0.0 0.00530029675037158 0.0 0.0
-0.004172619289716337 0.00273503888233817 0.0 0.003380892428126947 0.0 0.0
-0.002357719710416567 0.0013048064750429411 0.0 0.0023526960875761005 0.0 0.0
-0.0015036571585709257 0.0007504106139208933 0.0 0.0020087755344583846 0.0 0.0
-0.0010863754209119308 0.0005275128177161248 0.0 0.002023944047410131 0.0 0.0
-0.0007562835262359402 0.0003323861092925373 0.0 0.002102056996928836 0.0 0.0
-0.0003772085175970802 2.4330984137677092e-05 0.0 0.0019754570251006576 0.0 0.0
4.169323522359991e-05 -0.0003592857603138856 0.0 0.001092753809415481 0.0 0.0
-2.2269166291194464e-05 -0.0002166609458759683 0.0 -0.0008851078449106375 0.0 0.0
-0.0004309319682690993 7.613145417650902e-05 0.0 -0.001719881812117241 0.0 0.0
-0.0008655718924133193 0.0003774491327721563 0.0 -0.0018703616137824564 0.0 0.0
-0.0012699326052001414 0.000598413342511761 0.0 -0.0017716975675616253 0.0 0.0
-0.0018248165896518342 0.0009220449138749309 0.0 -0.001752136291241324 0.0 0.0
-0.003023783249759604 0.0017801670484689502 0.0 -0.002135051544545963 0.0 0.0
-0.005422144597769268 0.0038024767568529683 0.0 -0.0032308026180684624 0.0 0.0
-0.009343617619134575 0.0073903812401503455 0.0 -0.005209135710556145 0.0 0.0
-0.014738892511349161 0.01250926718946399 0.0 -0.007853079297248933 0.0 0.0
-0.021414580805138278 0.018931756515315534 0.0 -0.010793197361343432 0.0 0.0
-0.029177983787557427 0.026451502667300453 0.0 -0.013761165265451014 0.0 0.0
-0.03789913160999256 0.034936520639974766 0.0 -0.016592850650084756 0.0 0.0
-0.047551794709692174 0.04436066323029353 0.0 -0.01932025883183519 0.0 0.0
-0.058180383620014875 0.05476549116182028 0.0 -0.022032741058045202 0.0 0.0
-0.06977383612055305 0.06611606945777915 0.0 -0.024906748241422694 0.0 0.0
-0.08194238300132459 0.07797894923257287 0.0 -0.028398041628968862 0.0 0.0
-0.09339492340095928 0.08903783041674895 0.0 -0.032995927068421804 0.0 0.0
-0.10150388924721437 0.09666441311513152 0.0 -0.03834110790824441 0.0 0.0
-0.10216190989273011 0.09678842383407948 0.0 -0.04302357391825373 0.0 0.0
-0.08988027741732693 0.08396275235621875 0.0 -0.0461275714285877 0.0 0.0
-0.08988027741731927 0.08396275235621342 0.0 0.046127571428637215 0.0 0.0
-0.10216190989270582 0.09678842383405595 0.0 0.04302357391831513 0.0 0.0
-0.10150388924717406 0.09666441311509777 0.0 0.03834110790828765 0.0 0.0
-0.09339492340090755 0.0890378304167001 0.0 0.03299592706843346 0.0 0.0
-0.0819423830012652 0.07797894923251114 0.0 0.028398041628965087 0.0 0.0
-0.06977383612049139 0.06611606945771742 0.0 0.024906748241413645 0.0 0.0
-0.058180383619953396 0.054765491161753665 0.0 0.022032741058029826 0.0 0.0
-0.047551794709631987 0.04436066323023535 0.0 0.01932025883182159 0.0 0.0
-0.03789913160993175 0.034936520639913926 0.0 0.01659285065006605 0.0 0.0
-0.02917798378750347 0.02645150266724494 0.0 0.013761165265422315 0.0 0.0
-0.02141458080509183 0.018931756515273346 0.0 0.010793197361315232 0.0 0.0
-0.01473889251131344 0.01250926718943357 0.0 0.00785307929723128 0.0 0.0
-0.009343617619109457 0.007390381240128141 0.0 0.00520913571054199 0.0 0.0
-0.005422144597753073 0.0038024767568412 0.0 0.0032308026180592475 0.0 0.0
-0.003023783249752568 0.001780167048462511 0.0 0.002135051544541633 0.0 0.0
-0.001824816589649128 0.0009220449138721554 0.0 0.0017521362912389926 0.0 0.0
-0.0012699326051991422 0.0005984133425125382 0.0 0.0017716975675615143 0.0 0.0
-0.0008655718924127087 0.0003774491327716012 0.0 0.0018703616137821788 0.0 0.0
-0.00043093196826889113 7.613145417606493e-05 0.0 0.0017198818121161308 0.0 0.0
-2.2269166290986298e-05 -0.00021666094587607931 0.0 0.000885107844910249 0.0 0.0
-7.428658630898033e-05 -0.0001000248517374902 0.0 -0.000671115802349409 0.0 0.0
-0.0004814405090460827 0.0001285894638951568 0.0 -0.0014225037265203078 0.0 0.0
-0.0009689243239069945 0.0004194943445933186 0.0 -0.0015822311702686775 0.0 0.0
-0.0014486522113149047 0.0006678708745847528 0.0 -0.001470334245381788 0.0 0.0
-0.0021808960984041614 0.0011300887186751485 0.0 -0.0014544488731002003 0.0 0.0
-0.0037761552950029698 0.0023691093331645874 0.0 -0.0018600101274236502 0.0 0.0
-0.0067854386718795845 0.00502340951456115 0.0 -0.0029569163738241144 0.0 0.0
-0.011453277175117293 0.009385460557264302 0.0 -0.00478145575675859 0.0 0.0
-0.017758625000860395 0.015414672080909853 0.0 -0.007133753962421274 0.0 0.0
-0.02556319913636801 0.022949797627364266 0.0 -0.00978334269017822 0.0 0.0
-0.034676475090750114 0.03179754637634735 0.0 -0.0124580280989951 0.0 0.0
-0.04496305198990336 0.04182185677207606 0.0 -0.01501648855478499 0.0 0.0
-0.05637249205966938 0.052974803864962894 0.0 -0.017509146221133087 0.0 0.0
-0.06890790266491648 0.06525723286918073 0.0 -0.01996543285933483 0.0 0.0
-0.08252262524502982 0.07860740586940951 0.0 -0.022384412692125766 0.0 0.0
-0.0968247829224482 0.09257985322643147 0.0 -0.024976138600683484 0.0 0.0
-0.11041430606588837 0.10571363794423538 0.0 -0.028482410229234145 0.0 0.0
-0.12020665234718939 0.11494889426119403 0.0 -0.03375833918691762 0.0 0.0
-0.1214439757821737 0.11559899117730055 0.0 -0.04098724793102182 0.0 0.0
-0.10810595443485838 0.10172516922917252 0.0 -0.05016256210157688 0.0 0.0
-0.1081059544348478 0.10172516922916186 0.0 0.05016256210162373 0.0 0.0
-0.12144397578214411 0.11559899117727301 0.0 0.04098724793107855 0.0 0.0
-0.12020665234714262 0.11494889426115407 0.0 0.03375833918695442 0.0 0.0
-0.11041430606582762 0.10571363794417943 0.0 0.028482410229241695 0.0 0.0
-0.09682478292237987 0.09257985322636575 0.0 0.024976138600679265 0.0 0.0
-0.08252262524495843 0.07860740586933801 0.0 0.02238441269211766 0.0 0.0
-0.0689079026648447 0.06525723286910834 0.0 0.01996543285932223 0.0 0.0
-0.05637249205959885 0.05297480386489095 0.0 0.017509146221119154 0.0 0.0
-0.044963051989833525 0.04182185677200456 0.0 0.015016488554768725 0.0 0.0
-0.03467647509068721 0.03179754637628651 0.0 0.012458028098970453 0.0 0.0
-0.025563199136314836 0.022949797627311863 0.0 0.009783342690155572 0.0 0.0
-0.01775862500081859 0.015414672080873215 0.0 0.0071337539624053425 0.0 0.0
-0.011453277175086957 0.009385460557234104 0.0 0.004781455756745989 0.0 0.0
-0.00678543867185967 0.005023409514545163 0.0 0.0029569163738157322 0.0 0.0
-0.0037761552949935676 0.002369109333157704 0.0 0.0018600101274193759 0.0 0.0
-0.0021808960984004214 0.001130088718673261 0.0 0.0014544488730970362 0.0 0.0
-0.0014486522113139819 0.0006678708745830875 0.0 0.0014703342453806223 0.0 0.0
-0.0009689243239063908 0.00041949434459209733 0.0 0.0015822311702669567 0.0 0.0
-0.0004814405090455623 0.00012858946389504577 0.0 0.001422503726518698 0.0 0.0
-7.428658630880686e-05 -0.00010002485173733755 0.0 0.0006711158023485209 0.0 0.0
-0.00011065614194710749 -1.2632864650974351e-05 0.0 -0.0004523650767930265 0.0 0.0
-0.0005240422925614219 0.0001779731092914627 0.0 -0.001086126807968324 0.0 0.0
-0.0010672935568025177 0.0004578154111406496 0.0 -0.0012362548515171823 0.0 0.0
-0.0016320946534678638 0.0007460362251171526 0.0 -0.0011245992042686614 0.0 0.0
-0.002588084533026447 0.0013972668797832544 0.0 -0.0011169751687406526 0.0 0.0
-0.0046246291565600894 0.0030763639284576705 0.0 -0.0015211325731115943 0.0 0.0
-0.008220515210987267 0.006345555712262918 0.0 -0.002459811228860964 0.0 0.0
-0.01358401712761792 0.011425765090485429 0.0 -0.003940176787441685 0.0 0.0
-0.02077999865893848 0.018339410772050257 0.0 -0.0058697409316321725 0.0 0.0
-0.029696478110327107 0.026969566939776257 0.0 -0.008052346466678406 0.0 0.0
-0.04015367330204117 0.03713840873934826 0.0 -0.01026120713256884 0.0 0.0
-0.052009395213000464 0.04870646337542395 0.0 -0.012370586976201858 0.0 0.0
-0.06518673246809131 0.06159688091806492 0.0 -0.01443899308098473 0.0 0.0
-0.07962277035836365 0.07574520956445019 0.0 -0.016513517751744256 0.0 0.0
-0.09515834548908306 0.09098560212280882 0.0 -0.01840284282391147 0.0 0.0
-0.1113362400210543 0.10682467329328382 0.0 -0.019851008382259616 0.0 0.0
-0.12685174580946332 0.12187866266107328 0.0 -0.021561033281596753 0.0 0.0
-0.1385844336187345 0.1329656665909349 0.0 -0.026153917868262266 0.0 0.0
-0.14104415693966674 0.1347544296431593 0.0 -0.0364262978054648 0.0 0.0
-0.1272981169742055 0.12041968426262084 0.0 -0.05358157539605268 0.0 0.0
-0.12729811697419302 0.1204196842626124 0.0 0.053581575396087766 0.0 0.0
-0.1410441569396314 0.13475442964313222 0.0 0.036426297805510766 0.0 0.0
-0.1385844336186803 0.13296566659087805 0.0 0.026153917868297738 0.0 0.0
-0.12685174580939362 0.12187866266100889 0.0 0.021561033281603637 0.0 0.0
-0.11133624002097636 0.10682467329320566 0.0 0.01985100838225562 0.0 0.0
-0.09515834548900223 0.09098560212272888 0.0 0.018402842823909804 0.0 0.0
-0.07962277035828165 0.07574520956436892 0.0 0.016513517751734264 0.0 0.0
-0.06518673246801013 0.061596880917984986 0.0 0.014438993080974377 0.0 0.0
-0.05200939521292135 0.04870646337534845 0.0 0.012370586976191311 0.0 0.0
-0.04015367330196997 0.03713840873927632 0.0 0.01026120713255152 0.0 0.0
-0.029696478110267405 0.02696956693971586 0.0 0.008052346466659865 0.0 0.0
-0.020779998658891553 0.018339410772005404 0.0 0.005869740931617684 0.0 0.0
-0.013584017127582435 0.011425765090455453 0.0 0.00394017678742975 0.0 0.0
-0.008220515210963814 0.006345555712241602 0.0 0.0024598112288526375 0.0 0.0
-0.004624629156547717 0.0030763639284479005 0.0 0.0015211325731066538 0.0 0.0
-0.0025880845330217422 0.0013972668797795906 0.0 0.0011169751687368779 0.0 0.0
-0.001632094653466816 0.0007460362251178188 0.0 0.0011245992042676067 0.0 0.0
-0.0010672935568019418 0.00045781541114042756 0.0 0.0012362548515151284 0.0 0.0
-0.0005240422925607627 0.00017797310929057453 0.0 0.0010861268079652708 0.0 0.0
-0.00011065614194642054 -1.263286465110966e-05 0.0 0.000452365076792971 0.0 0.0
-0.0001247089204674534 4.126281639615925e-05 0.0 -0.0002355713109561397 0.0 0.0
-0.000549761873716359 0.00021819073605655603 0.0 -0.0007103054405156461 0.0 0.0
-0.0011627588333201766 0.0004938413949719944 0.0 -0.0008258746359799951 0.0 0.0
-0.0018358158030676308 0.0008432359317726013 0.0 -0.0007364971908437878 0.0 0.0
-0.0030632512513738552 0.001746480345825141 0.0 -0.0007471915895927994 0.0 0.0
-0.005554732041453181 0.0038899094846025495 0.0 -0.001059450195032785 0.0 0.0
-0.00968383275808804 0.007725207449829519 0.0 -0.0017157339779744207 0.0 0.0
-0.015716078427532643 0.01348183095373301 0.0 -0.0027258474741092553 0.0 0.0
-0.02377332383394115 0.021251936563336127 0.0 -0.004067033647223883 0.0 0.0
-0.03378387308122127 0.03095844576114981 0.0 -0.005606261274483382 0.0 0.0
-0.045579642465155557 0.04244236088586728 0.0 -0.0071652755359821185 0.0 0.0
-0.05900817973954925 0.05555693252133498 0.0 -0.008654392997596405 0.0 0.0
-0.0739601330666434 0.07019101663220928 0.0 -0.010144429907118946 0.0 0.0
-0.09028585889489604 0.08619124740081441 0.0 -0.011626404715202265 0.0 0.0
-0.10767024976503564 0.1032388024467017 0.0 -0.012872040986603328 0.0 0.0
-0.12548355939822695 0.12069691340066502 0.0 -0.013425368326077214 0.0 0.0
-0.14250953957562612 0.1373046281000012 0.0 -0.013257894594995823 0.0 0.0
-0.1562102819886856 0.15040769250031438 0.0 -0.015340405994838546 0.0 0.0
-0.1611593938482606 0.15441046887434196 0.0 -0.02775939047438991 0.0 0.0
-0.14814123285063013 0.14068002354159237 0.0 -0.055587196019373786 0.0 0.0
-0.14814123285061556 0.14068002354157683 0.0 0.05558719601939821 0.0 0.0
-0.16115939384821945 0.15441046887430288 0.0 0.027759390474427548 0.0 0.0
-0.15621028198862275 0.1504076925002571 0.0 0.015340405994865414 0.0 0.0
-0.14250953957554785 0.13730462809993016 0.0 0.013257894594999597 0.0 0.0
-0.1254835593981385 0.12069691340057753 0.0 0.01342536832607144 0.0 0.0
-0.10767024976494524 0.10323880244661598 0.0 0.012872040986605215 0.0 0.0
-0.09028585889480414 0.0861912474007287 0.0 0.011626404715195854 0.0 0.0
-0.07396013306655225 0.07019101663212535 0.0 0.010144429907110675 0.0 0.0
-0.05900817973946051 0.05555693252124749 0.0 0.008654392997588939 0.0 0.0
-0.045579642465076176 0.04244236088579534 0.0 0.007165275535968296 0.0 0.0
-0.03378387308115519 0.03095844576108897 0.0 0.005606261274468505 0.0 0.0
-0.02377332383388852 0.021251936563285945 0.0 0.004067033647214335 0.0 0.0
-0.01571607842749254 0.01348183095369726 0.0 0.002725847474103038 0.0 0.0
-0.009683832758061388 0.007725207449805538 0.0 0.001715733977968037 0.0 0.0
-0.005554732041437811 0.0038899094845887827 0.0 0.0010594501950288437 0.0 0.0
-0.0030632512513680543 0.001746480345820367 0.0 0.0007471915895900239 0.0 0.0
-0.0018358158030659481 0.0008432359317719351 0.0 0.0007364971908432327 0.0 0.0
-0.0011627588333193335 0.0004938413949721054 0.0 0.0008258746359808278 0.0 0.0
-0.000549761873716012 0.0002181907360558899 0.0 0.0007103054405184217 0.0 0.0
-0.00012470892046696075 4.126281639584006e-05 0.0 0.00023557131095691686 0.0 0.0
-0.0001045823400217527 5.5626175766154695e-05 0.0 -3.731893990199797e-05 0.0 0.0
-0.000542890473917701 0.00023937558970177353 0.0 -0.0002877581021958897 0.0 0.0
-0.001261293660170304 0.000531775717408034 0.0 -0.0003372085024077598 0.0 0.0
-0.00208259589563925 0.0009857973619841198 0.0 -0.0003132868030346625 0.0 0.0
-0.0036130976045793406 0.002178181075266794 0.0 -0.00032112918819482417 0.0 0.0
-0.0065334397049200965 0.004771533943015438 0.0 -0.00044661088743919164 0.0 0.0
-0.011160033232134658 0.009132214191263088 0.0 -0.0007177637819860139 0.0 0.0
-0.017823002714783542 0.01552671382763382 0.0 -0.0011407175659994828 0.0 0.0
-0.02670943277031418 0.024119559366920118 0.0 -0.0017345775322937795 0.0 0.0
-0.03779329028094025 0.03488286806883334 0.0 -0.0024427529945414417 0.0 0.0
-0.05092552086096713 0.0476796963383701 0.0 -0.003171239276780091 0.0 0.0
-0.06593399312392939 0.06234560405306633 0.0 -0.0038840703864813086 0.0 0.0
-0.0826485442934699 0.07871159050560017 0.0 -0.00458956888292672 0.0 0.0
-0.10083836108893668 0.09653954061645065 0.0 -0.005249814230198768 0.0 0.0
-0.12004415685845735 0.11536456646346238 0.0 -0.00573083461821966 0.0 0.0
-0.1393947008218745 0.13431960627383166 0.0 -0.005708819118492858 0.0 0.0
-0.15751213250407495 0.15203813655970988 0.0 -0.0047574053258280236 0.0 0.0
-0.17240003736062326 0.16648748138070868 0.0 -0.0036424059718457302 0.0 0.0
-0.18054509209915956 0.1739304157395969 0.0 -0.011221274732034714 0.0 0.0
-0.17260347737170834 0.16402336878403956 0.0 -0.05120088011482804 0.0 0.0
-0.17260347737169138 0.16402336878402402 0.0 0.05120088011483703 0.0 0.0
-0.1805450920991134 0.17393041573955603 0.0 0.011221274732054642 0.0 0.0
-0.1724000373605506 0.16648748138063763 0.0 0.0036424059718593305 0.0 0.0
-0.15751213250398705 0.15203813655961307 0.0 0.004757405325825137 0.0 0.0
-0.1393947008217752 0.13431960627373618 0.0 0.005708819118490638 0.0 0.0
-0.12004415685835688 0.11536456646336468 0.0 0.005730834618220909 0.0 0.0
-0.10083836108883434 0.09653954061635073 0.0 0.005249814230197547 0.0 0.0
-0.08264854429336911 0.07871159050549847 0.0 0.004589568882922779 0.0 0.0
-0.06593399312383133 0.06234560405297218 0.0 0.003884070386481475 0.0 0.0
-0.050925520860879536 0.04767969633828306 0.0 0.0031712392767737074 0.0 0.0
-0.03779329028086771 0.034882868068756956 0.0 0.0024427529945363347 0.0 0.0
-0.026709432770256378 0.02411955936686261 0.0 0.0017345775322922252 0.0 0.0
-0.01782300271473882 0.015526713827588745 0.0 0.0011407175659984836 0.0 0.0
-0.01116003323210479 0.009132214191234 0.0 0.0007177637819844596 0.0 0.0
-0.006533439704902107 0.00477153394299723 0.0 0.00044661088743869204 0.0 0.0
-0.0036130976045716853 0.0021781810752582453 0.0 0.0003211291881936029 0.0 0.0
-0.0020825958956370155 0.0009857973619828986 0.0 0.0003132868030336633 0.0 0.0
-0.001261293660168741 0.0005317757174072568 0.0 0.0003372085024077598 0.0 0.0
-0.0005428904739173072 0.00023937558970033024 0.0 0.0002877581021948905 0.0 0.0
-0.00010458234002172495 5.5626175766121735e-05 0.0 3.731893989994406e-05 0.0 0.0
SCALARS Statev float 8
LOOKUP_TABLE default
0.0 0.01328492717375093 0.010277963498977784 -0.010659132822341865 0.00038116932336407493 -0.005911771737807621 0.0 0.0
0.0 0.0007740738223706084 0.0005479147148315985 -0.00046556234345451655 -8.235237137708187e-05 0.0005054135332816271 0.0 0.0
0.0 3.342380937738801e-05 -4.754075056001044e-06 3.773145031477424e-06 9.809300245235895e-07 5.62033213615258e-07 0.0 0.0
0.0 0.00029130221941352507 0.0002093984725465813 -0.00016511851241792047 -4.4279960128660795e-05 -2.9492403997330355e-05 0.0 0.0
0.0 0.0015658393128635687 0.0012710167458039514 -0.0010548427815961158 -0.0002161739642078357 -0.00013763871793516866 0.0 0.0
0.0 0.0042404197638214805 0.0038406277278035597 -0.0033820933918715683 -0.0004585343359319908 -0.00031520911112152615 0.0 0.0
0.0 0.009173213435432669 0.008169815184242767 -0.007542468822218923 -0.0006273463620238438 -0.0005818701502307521 0.0 0.0
0.0 0.016529056086663593 0.014568785827594143 -0.013824992371690565 -0.0007437934559035722 -0.0009849500239306895 0.0 0.0
0.0 0.02648633997173517 0.02319793219274515 -0.02234922067606259 -0.0008487115166825549 -0.0015546646390462056 0.0 0.0
0.0 0.03902142674988958 0.03403722514884569 -0.03307911069301234 -0.0009581144558333515 -0.0022485393723103175 0.0 0.0
0.0 0.05400549532192402 0.04695491173602032 -0.0458829767706867 -0.0010719349653336011 -0.002978264955638914 0.0 0.0
0.0 0.07096833943815797 0.06179143775937276 -0.060603325885447215 -0.0011881118739254922 -0.0036983592646224555 0.0 0.0
0.0 0.09002862595863423 0.0783823072858507 -0.07707675047168672 -0.001305556814163934 -0.004410321164782182 0.0 0.0
0.0 0.11095882050003518 0.09653279959575443 -0.09510697630562547 -0.0014258232901289076 -0.005108197198525008 0.0 0.0
0.0 0.13329638497161034 0.11589760699989951 -0.11434729227032475 -0.0015503147295747382 -0.00576342756800209 0.0 0.0
0.0 0.156343932759328 0.1358429357731008 -0.13416497948184375 -0.001677956291257124 -0.006249874920887116 0.0 0.0
0.0 0.17893466318905418 0.15538766878299892 -0.15358303544544116 -0.0018046333375577516 -0.006338166662177956 0.0 0.0
0.0 0.1995552289677814 0.1732376245345821 -0.17131193912539763 -0.0019256854091844974 -0.005801514503804853 0.0 0.0
0.0 0.21642240657679057 0.18784365222033733 -0.18580412260520277 -0.0020395296151345097 -0.004899188722293269 0.0 0.0
0.0 0.22673271626054847 0.19690864253949505 -0.19469912751144428 -0.00220951502805082 -0.005532834500914483 0.0 0.0
0.0 0.22673271626053618 0.19690864253948415 -0.1946991275114337 -0.002209515028050421 0.005532834500922747 0.0 0.0
0.0 0.21642240657674405 0.18784365222029675 -0.1858041226051625 -0.0020395296151341363 0.0048991887223146496 0.0 0.0
0.0 0.19955522896770528 0.1732376245345158 -0.17131193912533244 -0.0019256854091833817 0.005801514503817436 0.0 0.0
0.0 0.17893466318895712 0.15538766878291418 -0.1535830354453578 -0.0018046333375563487 0.006338166662184702 0.0 0.0
0.0 0.15634393275922157 0.13584293577300843 -0.13416497948175216 -0.0016779562912563398 0.006249874920877257 0.0 0.0
0.0 0.13329638497150195 0.11589760699980522 -0.11434729227023144 -0.0015503147295737449 0.0057634275680009325 0.0 0.0
0.0 0.11095882049992642 0.09653279959565988 -0.09510697630553193 -0.0014258232901279149 0.0051081971985247904 0.0 0.0
0.0 0.09002862595852786 0.07838230728575792 -0.07707675047159564 -0.0013055568141622932 0.0044103211647815764 0.0 0.0
0.0 0.07096833943805211 0.061791437759281066 -0.06060332588535593 -0.0011881118739251043 0.0036983592646144996 0.0 0.0
0.0 0.05400549532182766 0.046954911735936744 -0.045882976770603184 -0.0010719349653335382 0.0029782649556338177 0.0 0.0
0.0 0.039021426749811766 0.03403722514877823 -0.03307911069294556 -0.0009581144558326829 0.002248539372301429 0.0 0.0
0.0 0.02648633997167585 0.02319793219269304 -0.022349220676011135 -0.0008487115166819195 0.0015546646390437269 0.0 0.0
0.0 0.016529056086619184 0.014568785827554775 -0.013824992371651745 -0.0007437934559030222 0.0009849500239268176 0.0 0.0
0.0 0.009173213435403914 0.008169815184216955 -0.007542468822193794 -0.0006273463620231583 0.0005818701502290766 0.0 0.0
0.0 0.00424041976380473 0.0038406277277881337 -0.0033820933918570373 -0.0004585343359310955 0.0003152091111198699 0.0 0.0
0.0 0.0015658393128567228 0.0012710167457983515 -0.0010548427815912078 -0.00021617396420714295 0.0001376387179343964 0.0 0.0
0.0 0.0002913022194113755 0.0002093984725455602 -0.0001651185124170871 -4.4279960128473045e-05 2.9492403997110334e-05 0.0 0.0
0.0 3.342380937687491e-05 -4.754075055922566e-06 3.7731450314146314e-06 9.80930024507978e-07 -5.620332136057866e-07 0.0 0.0
0.0 0.0007740738223679728 0.0005479147148301621 -0.00046556234345324494 -8.235237137691751e-05 -0.0005054135332796719 0.0 0.0
0.0 0.013284927173732256 0.010277963498965334 -0.010659132822328414 0.0003811693233630763 0.005911771737777624 0.0 0.0
0.0 0.00986060518311409 0.007150110721105494 -0.007643470843517996 0.0004933601224125 -0.006830584961165382 0.0 0.0
0.0 6.78947124370067e-06 4.284470521887552e-06 -3.736311455919653e-06 -5.481590659679047e-07 2.8217288763963968e-06 0.0 0.0
0.0 4.976138034805662e-07 1.6012746537281083e-08 -1.1146914820148081e-08 -4.865831717135736e-09 -2.22945875848813e-09 0.0 0.0
0.0 0.00011087903030845839 7.298326755168837e-05 -5.718218129415842e-05 -1.5801086257530202e-05 -2.6133115980619537e-05 0.0 0.0
0.0 0.0010442412783369733 0.000807051229076159 -0.0006603379145400161 -0.0001467133145361431 -0.00021507770079389702 0.0 0.0
0.0 0.0032570049617489604 0.0029532447270275647 -0.0025604073865617897 -0.00039283734046577465 -0.0006429434260460873 0.0 0.0
0.0 0.007618533104994507 0.006781223686270844 -0.006193200529436542 -0.0005880231568342988 -0.0013216176813077452 0.0 0.0
0.0 0.014254336446453896 0.012543637804441534 -0.011826120084080348 -0.0007175177203611847 -0.002298523449997925 0.0 0.0
0.0 0.02326306276474982 0.02034275333588351 -0.019519117698450432 -0.0008236356374330681 -0.003599678678676657 0.0 0.0
0.0 0.03456393711634137 0.03011070845076482 -0.02918213133495574 -0.000928577115809083 -0.005122930915005446 0.0 0.0
0.0 0.04798105860833151 0.041696248550464776 -0.04066147338535183 -0.0010347751651129426 -0.006698109666696444 0.0 0.0
0.0 0.06339609173565708 0.054960093461466616 -0.053818629282900286 -0.0011414641785663297 -0.008219289702028709 0.0 0.0
0.0 0.08039515009878484 0.06979920609077465 -0.06854967456799563 -0.0012495315227790365 -0.009738959584088634 0.0 0.0
0.0 0.09910457226122955 0.08606370581521575 -0.08470371566804406 -0.0013599901471716479 -0.011270716166762883 0.0 0.0
0.0 0.11918145007484869 0.10345954553953264 -0.10198620666957407 -0.0014733388699585018 -0.012711450112992776 0.0 0.0
0.0 0.13992937759050667 0.12145009081344339 -0.11986111514625669 -0.001588975667186702 -0.013809468204408376 0.0 0.0
0.0 0.16037817602212456 0.1391868829431179 -0.1374817509834712 -0.0017051319596467023 -0.01411924498682777 0.0 0.0
0.0 0.17917177779651117 0.15548570894348263 -0.15366505092364952 -0.0018206580198330724 -0.013281396194343684 0.0 0.0
0.0 0.19439239937207048 0.16870207925429645 -0.16675442518392525 -0.0019476540703712254 -0.011506640634299972 0.0 0.0
0.0 0.20351903433063032 0.1766545781690277 -0.17460971927395055 -0.002044858895077142 -0.008608425084782073 0.0 0.0
0.0 0.20351903433061605 0.17665457816901514 -0.174609719273938 -0.0020448588950771835 0.008608425084806456 0.0 0.0
0.0 0.1943923993720249 0.16870207925425612 -0.16675442518388547 -0.0019476540703706798 0.01150664063433915 0.0 0.0
0.0 0.17917177779644178 0.1554857089434215 -0.15366505092358934 -0.0018206580198321318 0.013281396194369844 0.0 0.0
0.0 0.1603781760220369 0.1391868829430417 -0.13748175098339532 -0.0017051319596462521 0.01411924498684011 0.0 0.0
0.0 0.13992937759040905 0.121450090813359 -0.11986111514617279 -0.0015889756671861358 0.0138094682043983 0.0 0.0
0.0 0.11918145007474759 0.10345954553944496 -0.101986206669487 -0.001473338869957923 0.012711450112988413 0.0 0.0
0.0 0.09910457226112869 0.08606370581512834 -0.08470371566795706 -0.0013599901471712437 0.011270716166758876 0.0 0.0
0.0 0.08039515009868586 0.06979920609068879 -0.06854967456791033 -0.0012495315227784329 0.009738959584083055 0.0 0.0
0.0 0.06339609173556508 0.05496009346138663 -0.05381862928282131 -0.0011414641785653008 0.008219289702016604 0.0 0.0
0.0 0.047981058608252136 0.04169624855039558 -0.04066147338528378 -0.0010347751651117855 0.006698109666687014 0.0 0.0
0.0 0.03456393711627669 0.030110708450708592 -0.02918213133490005 -0.0009285771158085328 0.005122930914992106 0.0 0.0
0.0 0.02326306276469823 0.020342753335838022 -0.019519117698405447 -0.0008236356374325643 0.003599678678670303 0.0 0.0
0.0 0.01425433644641547 0.012543637804407697 -0.011826120084047086 -0.000717517720360615 0.002298523449990957 0.0 0.0
0.0 0.007618533104970317 0.006781223686249101 -0.0061932005294154996 -0.0005880231568335972 0.001321617681303691 0.0 0.0
0.0 0.0032570049617353515 0.0029532447270154876 -0.0025604073865506767 -0.00039283734046481156 0.0006429434260434336 0.0 0.0
0.0 0.001044241278330401 0.0008070512290710922 -0.0006603379145356939 -0.00014671331453539838 0.00021507770079258232 0.0 0.0
0.0 0.00011087903030693061 7.298326755092932e-05 -5.7182181293546116e-05 -1.580108625738304e-05 2.6133115980319724e-05 0.0 0.0
0.0 4.976138035425995e-07 1.6012746600441094e-08 -1.1146914867753841e-08 -4.8658317326891484e-09 2.2294587798733394e-09 0.0 0.0
0.0 6.789471243392263e-06 4.28447052194955e-06 -3.736311455966601e-06 -5.481590659829445e-07 -2.8217288764294806e-06 0.0 0.0
0.0 0.009860605183092105 0.007150110721090958 -0.007643470843502804 0.0004933601224118417 0.006830584961139531 0.0 0.0
0.0 0.007472794971876044 0.005130933634150064 -0.00565135447606676 0.0005204208419166951 -0.005997086578869654 0.0 0.0
0.0 0.0 0.0 0.0 0.0 0.0 0.0 0.0
0.0 0.0 0.0 0.0 0.0 0.0 0.0 0.0
0.0 2.2388840598492617e-05 1.719346286708661e-05 -1.342445370472701e-05 -3.7690091623596267e-06 -1.1402879207735924e-05 0.0 0.0
0.0 0.0005808112114596844 0.0004535352758601766 -0.0003660461792013333 -8.748909665884314e-05 -0.00021499423859677388 0.0 0.0
0.0 0.00252049783130878 0.00211367294487274 -0.0018018048522595387 -0.0003118680926132009 -0.0007953931680578659 0.0 0.0
0.0 0.006121892525672169 0.005421531194683566 -0.004883925024816483 -0.0005376061698670838 -0.0017942789102326977 0.0 0.0
0.0 0.012003587038368244 0.010512636998166607 -0.009828985834287795 -0.0006836511638788081 -0.0032428249210560553 0.0 0.0
0.0 0.020061810244148406 0.017448384461243596 -0.01665474007441421 -0.0007936443868293856 -0.0051225706474810305 0.0 0.0
0.0 0.030138588765267923 0.026123758687884416 -0.02522942494461374 -0.0008943337432706596 -0.00728784811155325 0.0 0.0
0.0 0.04206222973513814 0.03637245410819778 -0.0353794671328782 -0.0009929869753195824 -0.00952287041063263 0.0 0.0
0.0 0.05559629570028803 0.04806994279974267 -0.04697903004679528 -0.0010909127529473697 -0.011689805573955448 0.0 0.0
0.0 0.07082661506427355 0.06114243410921165 -0.05995297891474609 -0.0011894551944655776 -0.013829775803692056 0.0 0.0
0.0 0.0873122662063834 0.07549883108821909 -0.07420915185058567 -0.001289679237633373 -0.016003056932381406 0.0 0.0
0.0 0.10506794687829941 0.09091297001191839 -0.08952143507473696 -0.001391534937181408 -0.018084584030270905 0.0 0.0
0.0 0.1235777952404044 0.10695199433310137 -0.10545686460280149 -0.0014951297302998393 -0.019701076930744833 0.0 0.0
0.0 0.14193459903909195 0.12290359161832769 -0.12130246638913889 -0.0016011252291887692 -0.020308576186244733 0.0 0.0
0.0 0.15886504527617787 0.1376721406135712 -0.1359586104623589 -0.0017135301512122892 -0.019415932309662084 0.0 0.0
0.0 0.17257795878414703 0.14968247143349953 -0.1478593800999901 -0.00182309133350936 -0.016536731133752383 0.0 0.0
0.0 0.1810162499911931 0.1571468597846851 -0.15524467526263058 -0.0019021845220544033 -0.010784419401916979 0.0 0.0
0.0 0.18101624999118102 0.15714685978467408 -0.1552446752626196 -0.0019021845220544367 0.010784419401955242 0.0 0.0
0.0 0.17257795878410703 0.1496824714334635 -0.1478593800999537 -0.0018230913335098666 0.016536731133807298 0.0 0.0
0.0 0.1588650452761171 0.13767214061351707 -0.1359586104623051 -0.0017135301512119154 0.019415932309698958 0.0 0.0
0.0 0.14193459903901928 0.12290359161826343 -0.12130246638907591 -0.0016011252291875727 0.020308576186262382 0.0 0.0
0.0 0.12357779524031808 0.10695199433302698 -0.10545686460272705 -0.0014951297302998583 0.019701076930734644 0.0 0.0
0.0 0.10506794687821178 0.09091297001184215 -0.08952143507466157 -0.0013915349371805823 0.018084584030265673 0.0 0.0
0.0 0.08731226620629734 0.07549883108814408 -0.07420915185051165 -0.0012896792376324438 0.01600305693237645 0.0 0.0
0.0 0.07082661506418779 0.0611424341091371 -0.05995297891467206 -0.0011894551944650225 0.01382977580368622 0.0 0.0
0.0 0.055596295700202525 0.04806994279966916 -0.046979030046721944 -0.0010909127529472392 0.01168980557393802 0.0 0.0
0.0 0.04206222973506368 0.03637245410813302 -0.035379467132814126 -0.0009929869753188755 0.00952287041061737 0.0 0.0
0.0 0.030138588765209112 0.02612375868783328 -0.025229424944563383 -0.0008943337432698876 0.00728784811153541 0.0 0.0
0.0 0.020061810244102782 0.01744838446120366 -0.016654740074375014 -0.0007936443868286396 0.005122570647470375 0.0 0.0
0.0 0.012003587038334058 0.010512636998136626 -0.009828985834258425 -0.0006836511638781957 0.0032428249210464605 0.0 0.0
0.0 0.006121892525648543 0.005421531194662591 -0.004883925024796467 -0.0005376061698661254 0.0017942789102264128 0.0 0.0
0.0 0.002520497831295706 0.0021136729448618117 -0.0018018048522497072 -0.00031186809261210497 0.0007953931680535541 0.0 0.0
0.0 0.000580811211455125 0.0004535352758568026 -0.00036604617919851917 -8.748909665828331e-05 0.00021499423859512536 0.0 0.0
0.0 2.238884059807121e-05 1.7193462867248666e-05 -1.3424453704843532e-05 -3.769009162405157e-06 1.140287920778216e-05 0.0 0.0
0.0 0.0 0.0 0.0 0.0 0.0 0.0 0.0
0.0 0.0 0.0 0.0 0.0 0.0 0.0 0.0
0.0 0.0074727949718569765 0.005130933634136977 -0.005651354476053076 0.0005204208419160972 0.005997086578848334 0.0 0.0
0.0 0.005599025423477629 0.003686625242283246 -0.004176922004418153 0.0004902967621349049 -0.00473730321961021 0.0 0.0
0.0 0.0 0.0 0.0 0.0 0.0 0.0 0.0
0.0 0.0 0.0 0.0 0.0 0.0 0.0 0.0
0.0 3.5698291176510305e-06 9.271516657092383e-07 -7.167502010426491e-07 -2.1040146466657421e-07 -9.342813658836506e-07 0.0 0.0
0.0 0.00027775100489916323 0.00021015682510187856 -0.00016808428959872 -4.2072535503158363e-05 -0.0001602938452497767 0.0 0.0
0.0 0.0017244281843507253 0.0013970095319246745 -0.0011699273997850465 -0.00022708213213962789 -0.0007991953402901512 0.0 0.0
0.0 0.0047488776560802425 0.004109361054193143 -0.0036412162493489565 -0.00046814480484418873 -0.002005069849321488 0.0 0.0
0.0 0.009805176333458811 0.008502184927902836 -0.007861760248820807 -0.0006404246790820273 -0.003810863902209917 0.0 0.0
0.0 0.01688164700838024 0.014546752951842544 -0.013789941314269326 -0.0007568116375732217 -0.006114978479347458 0.0 0.0
0.0 0.025719588897623692 0.02211155631578513 -0.02125697503178972 -0.0008545812839953779 -0.008746745969435225 0.0 0.0
0.0 0.03612526843329608 0.031016826339728933 -0.030070476830227455 -0.0009463495095014742 -0.011452303671421265 0.0 0.0
0.0 0.04794043201241364 0.041144916764638884 -0.04010904878521031 -0.0010358679794285868 -0.014089913945551513 0.0 0.0
0.0 0.061091834469633344 0.052451268323152986 -0.051326465709386496 -0.0011248026137664932 -0.01670934156988803 0.0 0.0
0.0 0.0755638745267499 0.06488590420854365 -0.06367103112295669 -0.0012148730855869332 -0.019329820689028155 0.0 0.0
0.0 0.0911362658402963 0.07829709425456388 -0.076991934640465 -0.0013051596140988438 -0.021838629936155925 0.0 0.0
0.0 0.10720904910605568 0.09236637156770315 -0.0909699092599367 -0.0013964623077664024 -0.023889294749778925 0.0 0.0
0.0 0.123482206796248 0.1065144578953035 -0.10502205090045463 -0.001492406994848856 -0.024862189962885986 0.0 0.0
0.0 0.13864345451175156 0.11978904929588614 -0.11819515400127248 -0.001593895294613699 -0.024000501370220827 0.0 0.0
0.0 0.15110437870501578 0.13082150398975162 -0.12913015643316333 -0.0016913475565882626 -0.02029808350559769 0.0 0.0
0.0 0.15914336689663952 0.1380787951439154 -0.13631605483362777 -0.001762740310287609 -0.01254100780194239 0.0 0.0
0.0 0.1591433668966305 0.13807879514390617 -0.13631605483361925 -0.0017627403102869787 0.012541007801991352 0.0 0.0
0.0 0.1511043787049848 0.13082150398972192 -0.1291301564331344 -0.001691347556587424 0.02029808350566096 0.0 0.0
0.0 0.13864345451169968 0.11978904929583901 -0.11819515400122527 -0.001593895294613671 0.024000501370264313 0.0 0.0
0.0 0.12348220679618531 0.10651445789524772 -0.10502205090039933 -0.0014924069948483612 0.024862189962905297 0.0 0.0
0.0 0.10720904910598217 0.09236637156763958 -0.09096990925987378 -0.0013964623077658057 0.02388929474976887 0.0 0.0
0.0 0.09113626584021838 0.07829709425449652 -0.07699193464039797 -0.001305159614098542 0.021838629936146606 0.0 0.0
0.0 0.07556387452667518 0.06488590420847845 -0.06367103112289244 -0.0012148730855859947 0.01932982068902033 0.0 0.0
0.0 0.061091834469561714 0.052451268323090425 -0.05132646570932494 -0.0011248026137654673 0.016709341569879153 0.0 0.0
0.0 0.047940432012344956 0.04114491676457943 -0.04010904878515148 -0.0010358679794279472 0.014089913945533387 0.0 0.0
0.0 0.03612526843323033 0.03101682633967245 -0.030070476830170875 -0.0009463495095015746 0.01145230367140149 0.0 0.0
0.0 0.025719588897568018 0.02211155631573766 -0.021256975031742602 -0.0008545812839950449 0.008746745969412764 0.0 0.0
0.0 0.016881647008340224 0.014546752951807747 -0.013789941314235343 -0.0007568116375724006 0.006114978479334409 0.0 0.0
0.0 0.009805176333429765 0.00850218492787757 -0.007861760248796378 -0.000640424679081188 0.003810863902198724 0.0 0.0
0.0 0.004748877656062501 0.004109361054177965 -0.0036412162493346546 -0.00046814480484330906 0.0020050698493144737 0.0 0.0
0.0 0.0017244281843420434 0.0013970095319181708 -0.001169927399779434 -0.00022708213213873705 0.0007991953402864689 0.0 0.0
0.0 0.000277751004897067 0.00021015682510095067 -0.00016808428959795904 -4.207253550299177e-05 0.00016029384524911033 0.0 0.0
0.0 3.56982911733822e-06 9.27151665946851e-07 -7.167502012264012e-07 -2.1040146472043926e-07 9.342813661196057e-07 0.0 0.0
0.0 0.0 0.0 0.0 0.0 0.0 0.0 0.0
0.0 0.0 0.0 0.0 0.0 0.0 0.0 0.0
0.0 0.005599025423461737 0.0036866252422727117 -0.004176922004406915 0.0004902967621342026 0.0047373032195943 0.0 0.0
0.0 0.004063940715581561 0.0025781615868433975 -0.0030039330978458793 0.0004257715110024826 -0.0035049204945680184 0.0 0.0
0.0 0.0 0.0 0.0 0.0 0.0 0.0 0.0
0.0 0.0 0.0 0.0 0.0 0.0 0.0 0.0
0.0 5.552140182819926e-07 1.542114602074546e-07 -1.1739565765283932e-07 -3.681580255461541e-08 -2.241348432056934e-07 0.0 0.0
0.0 0.00011292937756772176 7.689963873585842e-05 -6.134840962299489e-05 -1.5551229112863576e-05 -9.099024735577763e-05 0.0 0.0
0.0 0.001057431086432318 0.000823225102057039 -0.0006780474047658621 -0.00014517769729117724 -0.0006979264694520097 0.0 0.0
0.0 0.003565359092833089 0.0028911752533488707 -0.0025114613789802807 -0.00037971387436858925 -0.001963650733746399 0.0 0.0
0.0 0.007726811818413491 0.006534375532621504 -0.005952988474631212 -0.0005813870579902902 -0.003961785801430879 0.0 0.0
0.0 0.013744050578833204 0.011669792478692391 -0.010958769219855568 -0.000711023258836826 -0.006569114818441546 0.0 0.0
0.0 0.021339002205213002 0.018107876768963173 -0.017299747381549116 -0.0008081293874140506 -0.009494071050104512 0.0 0.0
0.0 0.030236468937220894 0.025662956744943944 -0.024768894776763754 -0.0008940619681802141 -0.012494420769176933 0.0 0.0
0.0 0.040269266615127974 0.034220567213144586 -0.03324526983314302 -0.0009752973800015549 -0.01541955754914939 0.0 0.0
0.0 0.05148538505395948 0.04375757638232086 -0.04270261653791529 -0.0010549598444055818 -0.01832270201991532 0.0 0.0
0.0 0.06367634584344116 0.0542689158844429 -0.05313447550838514 -0.0011344403760577722 -0.02124392033910678 0.0 0.0
0.0 0.07695605460836943 0.06566456159178219 -0.0644508565857988 -0.0012137050059833805 -0.024028149311507367 0.0 0.0
0.0 0.09103239334741413 0.0777216908605061 -0.07642831572881059 -0.0012933751316954979 -0.026339372662898604 0.0 0.0
0.0 0.10503083761939203 0.0900192494540241 -0.08864324337138324 -0.001376006082640822 -0.02763801137457062 0.0 0.0
0.0 0.11839441585109603 0.10182502495305384 -0.1003605709684359 -0.0014644539846179199 -0.026988019954187804 0.0 0.0
0.0 0.12977844677583408 0.1120212711240814 -0.11046919861238814 -0.0015520725116932369 -0.022946691792036573 0.0 0.0
0.0 0.1376269267723425 0.11925331593417768 -0.11763210837729679 -0.00162120755688086 -0.013998908027440006 0.0 0.0
0.0 0.13762692677233151 0.11925331593416706 -0.11763210837728544 -0.0016212075568815534 0.013998908027489402 0.0 0.0
0.0 0.12977844677580697 0.11202127112405455 -0.11046919861236104 -0.0015520725116934943 0.022946691792102424 0.0 0.0
0.0 0.11839441585105284 0.10182502495301304 -0.10036057096839535 -0.001464453984617707 0.02698801995423527 0.0 0.0
0.0 0.10503083761934176 0.09001924945397813 -0.08864324337133832 -0.0013760060826397888 0.027638011374592764 0.0 0.0
0.0 0.0910323933473533 0.07772169086045316 -0.07642831572875819 -0.0012933751316950301 0.026339372662891478 0.0 0.0
0.0 0.07695605460830472 0.06566456159172612 -0.06445085658574312 -0.0012137050059829798 0.0240281493114967 0.0 0.0
0.0 0.06367634584337767 0.0542689158843878 -0.05313447550833032 -0.0011344403760574673 0.02124392033909786 0.0 0.0
0.0 0.05148538505389668 0.04375757638226617 -0.042702616537860894 -0.0010549598444052413 0.018322702019904734 0.0 0.0
0.0 0.04026926661506783 0.034220567213092724 -0.03324526983309192 -0.0009752973800007757 0.015419557549130634 0.0 0.0
0.0 0.03023646893716762 0.025662956744898227 -0.02476889477671925 -0.0008940619681789799 0.012494420769155053 0.0 0.0
0.0 0.02133900220516756 0.018107876768925227 -0.01729974738151198 -0.0008081293874132516 0.009494071050080146 0.0 0.0
0.0 0.013744050578794319 0.01166979247865942 -0.010958769219822875 -0.0007110232588365415 0.006569114818424628 0.0 0.0
0.0 0.007726811818385975 0.006534375532598554 -0.005952988474608949 -0.0005813870579896036 0.003961785801417328 0.0 0.0
0.0 0.0035653590928179024 0.0028911752533365776 -0.002511461378969008 -0.0003797138743675681 0.001963650733738919 0.0 0.0
0.0 0.0010574310864255934 0.000823225102052219 -0.0006780474047617968 -0.00014517769729042196 0.0006979264694479721 0.0 0.0
0.0 0.00011292937756640078 7.689963873548739e-05 -6.134840962268047e-05 -1.5551229112806852e-05 9.099024735525791e-05 0.0 0.0
0.0 5.552140181294791e-07 1.542114603430348e-07 -1.1739565775675438e-07 -3.6815802586278473e-08 2.2413484340932547e-07 0.0 0.0
0.0 0.0 0.0 0.0 0.0 0.0 0.0 0.0
0.0 0.0 0.0 0.0 0.0 0.0 0.0 0.0
0.0 0.0040639407155677815 0.002578161586834488 -0.00300393309783624 0.00042577151100174995 0.003504920494555023 0.0 0.0
0.0 0.0027848248389608058 0.0017131067013445424 -0.002053419879126131 0.00034031317778158857 -0.0024445307997752446 0.0 0.0
0.0 0.0 0.0 0.0 0.0 0.0 0.0 0.0
0.0 0.0 0.0 0.0 0.0 0.0 0.0 0.0
0.0 1.2459832782016668e-06 -8.711175530045244e-08 6.722946238267231e-08 1.9882292917777628e-08 2.0432140011233723e-07 0.0 0.0
0.0 4.843670553251839e-05 2.464404012153461e-05 -1.9609908192761817e-05 -5.034131928772787e-06 -4.3182650089754246e-05 0.0 0.0
0.0 0.0005591401591924525 0.00041515041843745654 -0.00033759659819414234 -7.755382024331392e-05 -0.0005261689570682481 0.0 0.0
0.0 0.002359771625973435 0.0018453427036470512 -0.0015685033938974268 -0.0002768393097496243 -0.0017649810158896254 0.0 0.0
0.0 0.005761648574674568 0.004665647945245938 -0.004168772416031932 -0.0004968755292140059 -0.0037598356884406235 0.0 0.0
0.0 0.010720427747236654 0.0088475804159916 -0.00819694019994294 -0.0006506402160486572 -0.006451224954193335 0.0 0.0
0.0 0.017015756101690052 0.014148623467776518 -0.013396086090070588 -0.000752537377705929 -0.009517204961495706 0.0 0.0
0.0 0.024376663782760242 0.020347186044179632 -0.01951318899698255 -0.0008339970471970793 -0.012631215818031767 0.0 0.0
0.0 0.0326572224990646 0.02733446798730211 -0.026426469293272786 -0.0009079986940293338 -0.015667319030500376 0.0 0.0
0.0 0.04183393034541953 0.03510463244735318 -0.03412614057871481 -0.000978491868638372 -0.018680873831412703 0.0 0.0
0.0 0.05194309897797849 0.04368679051304602 -0.042639372837149914 -0.0010474176758961092 -0.021696841036014547 0.0 0.0
0.0 0.06297137846022044 0.05305524342087106 -0.05193902667183512 -0.0011162167490359773 -0.024593645978112536 0.0 0.0
0.0 0.07447336495283045 0.06306860900882495 -0.06188441962488309 -0.0011841893839418833 -0.027058084618835965 0.0 0.0
0.0 0.08652424144057502 0.07344760192277994 -0.07219544258371383 -0.0012521593390660672 -0.028576082143022055 0.0 0.0
0.0 0.09822960558227221 0.08374319056350922 -0.08241834832480492 -0.001324842238704319 -0.028265553174043327 0.0 0.0
0.0 0.10844834676431707 0.09315843191444527 -0.0917557006103921 -0.0014027313040531335 -0.024454919361382194 0.0 0.0
0.0 0.11624734528052434 0.10049398924094306 -0.0990206541051568 -0.0014733351357861762 -0.015185167931548015 0.0 0.0
0.0 0.11624734528051764 0.10049398924093508 -0.09902065410514939 -0.0014733351357856736 0.01518516793159893 0.0 0.0
0.0 0.10844834676429686 0.09315843191442294 -0.09175570061037065 -0.001402731304052317 0.02445491936144855 0.0 0.0
0.0 0.09822960558224121 0.08374319056347776 -0.08241834832477409 -0.0013248422387036937 0.02826555317409216 0.0 0.0
0.0 0.08652424144053417 0.073447601922742 -0.07219544258367638 -0.0012521593390656016 0.028576082143042608 0.0 0.0
0.0 0.07447336495277744 0.06306860900877911 -0.06188441962483777 -0.0011841893839413123 0.027058084618827055 0.0 0.0
0.0 0.06297137846016465 0.05305524342082288 -0.05193902667178744 -0.0011162167490354306 0.024593645978100282 0.0 0.0
0.0 0.05194309897792679 0.043686790513000846 -0.04263937283710556 -0.0010474176758952952 0.021696841036004087 0.0 0.0
0.0 0.041833930345367365 0.03510463244730808 -0.03412614057867009 -0.000978491868638012 0.01868087383140095 0.0 0.0
0.0 0.03265722249901566 0.02733446798726062 -0.026426469293231766 -0.0009079986940288599 0.01566731903048189 0.0 0.0
0.0 0.02437666378271577 0.02034718604414229 -0.019513188996945888 -0.0008339970471964108 0.01263121581801041 0.0 0.0
0.0 0.017015756101653932 0.014148623467746998 -0.013396086090041916 -0.0007525373777050803 0.009517204961471081 0.0 0.0
0.0 0.010720427747208662 0.00884758041596816 -0.008196940199920266 -0.0006506402160478902 0.006451224954177587 0.0 0.0
0.0 0.005761648574652807 0.004665647945228219 -0.004168772416015254 -0.0004968755292129657 0.003759835688427615 0.0 0.0
0.0 0.0023597716259608132 0.0018453427036372884 -0.0015685033938886775 -0.00027683930974861106 0.0017649810158813714 0.0 0.0
0.0 0.0005591401591871121 0.00041515041843405735 -0.0003375965981913031 -7.755382024275423e-05 0.0005261689570641374 0.0 0.0
0.0 4.84367055316288e-05 2.4644040121571948e-05 -1.9609908192776115e-05 -5.034131928795829e-06 4.318265008971392e-05 0.0 0.0
0.0 1.245983277765114e-06 -8.711175526903953e-08 6.722946235833695e-08 1.9882292910690027e-08 -2.0432140003799813e-07 0.0 0.0
0.0 0.0 0.0 0.0 0.0 0.0 0.0 0.0
0.0 0.0 0.0 0.0 0.0 0.0 0.0 0.0
0.0 0.0027848248389496155 0.0017131067013376015 -0.0020534198791184086 0.00034031317778080827 0.002444530799765037 0.0 0.0
0.0 0.001779880790185059 0.0010436171066436986 -0.001287252584821895 0.00024363547817819617 -0.0015722994853912646 0.0 0.0
0.0 5.610935232125803e-07 -8.037160125762508e-09 8.338978319598262e-09 -3.018181938355691e-10 1.1164998698213293e-07 0.0 0.0
0.0 0.0 0.0 0.0 0.0 0.0 0.0 0.0
0.0 1.343535810957597e-06 -6.745450613659108e-08 5.1836617700734505e-08 1.5617888435866596e-08 2.5068220686766373e-07 0.0 0.0
0.0 2.556363959596189e-05 1.167283277149968e-05 -9.2350572625585e-06 -2.437775508941182e-06 -3.0237836644868696e-05 0.0 0.0
0.0 0.0002913978092749454 0.00016659335210973594 -0.0001344308961589419 -3.216245595079408e-05 -0.0003204141290999177 0.0 0.0
0.0 0.001402863695876621 0.0010007918698832882 -0.00083218087149333 -0.0001686109983899581 -0.0013930524465757953 0.0 0.0
0.0 0.00390371791583878 0.0029772835351437104 -0.0025944237226177163 -0.000382859812525993 -0.003265560415648271 0.0 0.0
0.0 0.00779724516111224 0.00614205982637412 -0.005579202546725075 -0.0005628572796490403 -0.005802102194754813 0.0 0.0
0.0 0.012776780870174574 0.010273210497816418 -0.009592293222212285 -0.0006809172756041339 -0.008777981043701134 0.0 0.0
0.0 0.018593969558312634 0.01510850307876623 -0.014346355721676338 -0.0007621473570898914 -0.01184759176614145 0.0 0.0
0.0 0.025100881146790655 0.02052951437097994 -0.01969869550213612 -0.000830818868843814 -0.014819085873943148 0.0 0.0
0.0 0.03230714665318316 0.026537861650756927 -0.025645042318393395 -0.0008928193323635188 -0.017749855549843315 0.0 0.0
0.0 0.040205874221038024 0.03319171439921818 -0.032240304305237846 -0.0009514100939803141 -0.020689645779575733 0.0 0.0
0.0 0.04888644359392636 0.040519037756305665 -0.03951023733042233 -0.0010088004258833583 -0.023526816852919158 0.0 0.0
0.0 0.058190549626459497 0.048456432753586715 -0.04738931715230977 -0.001067115601276966 -0.02596124185576623 0.0 0.0
0.0 0.0678349394842245 0.056847078233917624 -0.05572648092197846 -0.001120597311939156 -0.027598358111431312 0.0 0.0
0.0 0.07765377774798986 0.06552266338469885 -0.06434901357209305 -0.001173649812605797 -0.027749522022240247 0.0 0.0
0.0 0.08712249507535717 0.07409971068978921 -0.07286092824972386 -0.0012387824400653408 -0.024725409755394816 0.0 0.0
0.0 0.09503444064256718 0.08161457738228797 -0.08030068416872 -0.001313893213567975 -0.016072307059606647 0.0 0.0
0.0 0.09503444064256286 0.0816145773822819 -0.08030068416871418 -0.0013138932135676941 0.01607230705965479 0.0 0.0
0.0 0.08712249507534074 0.0740997106897696 -0.07286092824970417 -0.0012387824400655067 0.024725409755460045 0.0 0.0
0.0 0.07765377774796532 0.06552266338467228 -0.06434901357206688 -0.0011736498126053655 0.027749522022287566 0.0 0.0
0.0 0.06783493948419259 0.056847078233886586 -0.05572648092194829 -0.0011205973119383353 0.027598358111451914 0.0 0.0
0.0 0.05819054962641732 0.04845643275355038 -0.047389317152273805 -0.001067115601276571 0.025961241855755803 0.0 0.0
0.0 0.04888644359388301 0.04051903775626886 -0.039510237330385736 -0.0010088004258831272 0.02352681685290512 0.0 0.0
0.0 0.04020587422100109 0.03319171439918619 -0.03224030430520614 -0.000951410093980048 0.020689645779567025 0.0 0.0
0.0 0.03230714665314665 0.026537861650725306 -0.025645042318362454 -0.000892819332362852 0.01774985554983343 0.0 0.0
0.0 0.02510088114675601 0.02052951437095069 -0.01969869550210781 -0.0008308188688428867 0.014819085873926696 0.0 0.0
0.0 0.018593969558278495 0.015108503078738518 -0.014346355721649181 -0.0007621473570893226 0.011847591766120165 0.0 0.0
0.0 0.012776780870145079 0.010273210497793655 -0.009592293222189935 -0.0006809172756037174 0.00877798104367751 0.0 0.0
0.0 0.007797245161088043 0.006142059826355125 -0.005579202546706673 -0.0005628572796484521 0.005802102194738926 0.0 0.0
0.0 0.0039037179158239402 0.0029772835351323723 -0.002594423722607318 -0.0003828598125250534 0.0032655604156376335 0.0 0.0
0.0 0.0014028636958701968 0.001000791869878787 -0.000832180871489466 -0.00016861099838932084 0.0013930524465707514 0.0 0.0
0.0 0.0002913978092721457 0.00016659335210853404 -0.00013443089615795676 -3.216245595057712e-05 0.00032041412909763133 0.0 0.0
0.0 2.556363959523733e-05 1.1672832771467327e-05 -9.235057262531185e-06 -2.4377755089361496e-06 3.0237836644807167e-05 0.0 0.0
0.0 1.343535810551308e-06 -6.74545061154224e-08 5.1836617684484416e-08 1.561788843093987e-08 -2.5068220678900275e-07 0.0 0.0
0.0 0.0 0.0 0.0 0.0 0.0 0.0 0.0
0.0 5.610935225658215e-07 -8.037160116491167e-09 8.3389783100577e-09 -3.018181935663175e-10 -1.1164998685127716e-07 0.0 0.0
0.0 0.0017798807901766296 0.0010436171066388917 -0.0012872525848163449 0.0002436354781774527 0.00157229948538402 0.0 0.0
0.0 0.0010059129641350924 0.0005496427652704546 -0.0007000662303663942 0.00015042346509593912 -0.0008820023297658615 0.0 0.0
0.0 9.778827434816803e-07 8.382849776791773e-09 -5.468889339064566e-09 -2.91396043772855e-09 -2.56836226110768e-07 0.0 0.0
0.0 6.305102464673167e-07 -7.0898921551877894e-09 5.074535917472657e-09 2.0153562377156586e-09 1.2874703632778445e-07 0.0 0.0
0.0 1.0484141532359128e-06 1.1449814778673517e-08 -1.1212283011225194e-08 -2.3753176744612983e-10 -1.2708001210972506e-07 0.0 0.0
0.0 2.1008595364345097e-05 6.8830033522674755e-06 -5.425800449343743e-06 -1.4572029029237442e-06 -2.7935723381251333e-05 0.0 0.0
0.0 0.00015701851866255397 6.533478372564267e-05 -5.240571632558158e-05 -1.2929067400061099e-05 -0.00020206370588044014 0.0 0.0
0.0 0.0007353994413982882 0.0004191802066107913 -0.0003420889279968373 -7.7091278613954e-05 -0.0009276935828981526 0.0 0.0
0.0 0.002296104095273205 0.001548845787759247 -0.001308864382830821 -0.0002399814049284257 -0.002495356140398832 0.0 0.0
0.0 0.005050570620119533 0.0036475626759151464 -0.003217349145298559 -0.00043021353061658386 -0.004700990578098032 0.0 0.0
0.0 0.008613339028712905 0.00655450014893059 -0.005980515672693897 -0.0005739844762366936 -0.007319949582389506 0.0 0.0
0.0 0.012964251576123258 0.010001908716831133 -0.009334996598228947 -0.000666912118602183 -0.010093647266611458 0.0 0.0
0.0 0.01766537516964548 0.013859276504677463 -0.01312432793480682 -0.0007349485698706361 -0.012822020471344255 0.0 0.0
0.0 0.022859129733790968 0.018117222124697133 -0.017325979541213444 -0.0007912425834836919 -0.015508308280480358 0.0 0.0
0.0 0.028614761476937173 0.022844307895456387 -0.02200385423075411 -0.0008404536647022617 -0.01817889877647348 0.0 0.0
0.0 0.035024994927718885 0.028116637786275586 -0.027230000291945018 -0.0008866374943305613 -0.020783785638275327 0.0 0.0
0.0 0.041946913960535195 0.03395375833119344 -0.03301991779373474 -0.0009338405374586901 -0.023068393963053328 0.0 0.0
0.0 0.049366204298976896 0.04029508393088913 -0.03931611433991035 -0.000978969590978796 -0.02463046821892993 0.0 0.0
0.0 0.05710694288318126 0.047174437290140495 -0.04616384539972704 -0.001010591890413444 -0.025170442504481458 0.0 0.0
0.0 0.0652759107875103 0.05471471229799869 -0.053662798701813695 -0.001051913596184952 -0.023480635776618637 0.0 0.0
0.0 0.07321931615334287 0.06240759888953816 -0.061275614186724274 -0.0011319847028139426 -0.01656990379951597 0.0 0.0
0.0 0.07321931615334124 0.06240759888953399 -0.06127561418672013 -0.0011319847028138596 0.016569903799558645 0.0 0.0
0.0 0.06527591078750178 0.054714712297984955 -0.05366279870180034 -0.0010519135961846225 0.02348063577667827 0.0 0.0
0.0 0.05710694288316443 0.04717443729011993 -0.04616384539970698 -0.0010105918904129338 0.025170442504525454 0.0 0.0
0.0 0.04936620429894943 0.04029508393086295 -0.0393161143398844 -0.0009789695909785756 0.024630468218942828 0.0 0.0
0.0 0.04194691396050271 0.03395375833116625 -0.03301991779370796 -0.0009338405374582832 0.02306839396304136 0.0 0.0
0.0 0.03502499492768438 0.02811663778624688 -0.02723000029191696 -0.0008866374943299411 0.02078378563826032 0.0 0.0
0.0 0.028614761476908734 0.02284430789543248 -0.022003854230730834 -0.0008404536647016563 0.018178898776463108 0.0 0.0
0.0 0.022859129733765044 0.018117222124674807 -0.017325979541191538 -0.0007912425834832717 0.015508308280473018 0.0 0.0
0.0 0.0176653751696162 0.013859276504654048 -0.013124327934783653 -0.0007349485698703967 0.012822020471326622 0.0 0.0
0.0 0.012964251576096382 0.01000190871681008 -0.009334996598208396 -0.0006669121186016772 0.010093647266592405 0.0 0.0
0.0 0.008613339028688112 0.006554500148912529 -0.005980515672676504 -0.0005739844762360201 0.007319949582367476 0.0 0.0
0.0 0.005050570620104047 0.0036475626759036863 -0.0032173491452878213 -0.0004302135306158645 0.004700990578085571 0.0 0.0
0.0 0.0022961040952635954 0.0015488457877522706 -0.001308864382824727 -0.00023998140492754278 0.0024953561403903497 0.0 0.0
0.0 0.0007353994413928781 0.00041918020660782884 -0.0003420889279943332 -7.709127861349558e-05 0.0009276935828925203 0.0 0.0
0.0 0.00015701851866056234 6.533478372517461e-05 -5.240571632519432e-05 -1.292906739998029e-05 0.00020206370587891347 0.0 0.0
0.0 2.1008595363958464e-05 6.883003352333473e-06 -5.425800449395319e-06 -1.4572029029381442e-06 2.7935723381549597e-05 0.0 0.0
0.0 1.0484141529727573e-06 1.1449814856447467e-08 -1.1212283072178823e-08 -2.375317842716436e-10 1.2708001266600892e-07 0.0 0.0
0.0 6.305102458760242e-07 -7.089892147158693e-09 5.074535912009278e-09 2.015356235150372e-09 -1.2874703620679312e-07 0.0 0.0
0.0 9.778827429574541e-07 8.382849818478416e-09 -5.468889387638476e-09 -2.913960430839995e-09 2.568362271293677e-07 0.0 0.0
0.0 0.0010059129641289632 0.0005496427652674298 -0.0007000662303627685 0.0001504234650953388 0.0008820023297609837 0.0 0.0
0.0 0.0004259018329835593 0.00022927026242013516 -0.000304664171699644 7.539390927950885e-05 -0.00039505089473176 0.0 0.0
0.0 2.288772016730792e-06 -1.6060572774281483e-09 5.658264558938821e-09 -4.0522072815104515e-09 6.118729297907083e-08 0.0 0.0
0.0 8.42250830648072e-07 -8.95293705577664e-10 -4.406393097847781e-10 1.3359330153620942e-09 1.1603652209011534e-07 0.0 0.0
0.0 1.9237774651465126e-06 4.6443151588743345e-08 -3.265705685235359e-08 -1.3786094736386559e-08 -6.215067194367478e-07 0.0 0.0
0.0 2.2544987980616914e-05 4.209068550300025e-06 -3.259415583760946e-06 -9.49652966539085e-07 -3.215306469951385e-05 0.0 0.0
0.0 0.00012131495672420867 2.9645369883913342e-05 -2.3758838998113333e-05 -5.886530885800017e-06 -0.00016766197471218948 0.0 0.0
0.0 0.00038683126243161975 0.0001330265050081748 -0.00010738796429214644 -2.563854071602831e-05 -0.0005632150675529273 0.0 0.0
0.0 0.001089355826468144 0.0005266513403620318 -0.0004311325743752027 -9.551876598682893e-05 -0.0015536822989366077 0.0 0.0
0.0 0.002602606892691556 0.0015208362477770318 -0.0012843735950042693 -0.00023646265277276274 -0.0031963468373693744 0.0 0.0
0.0 0.00479428835751511 0.0031281777086622333 -0.002738336825723789 -0.0003898408829384428 -0.005223440971280365 0.0 0.0
0.0 0.0074450625188409855 0.005148711262094942 -0.004640722561877137 -0.0005079887002178045 -0.0074353060034590595 0.0 0.0
0.0 0.010484372111910618 0.007422418961356144 -0.006834106615294873 -0.0005883123460612699 -0.009690358605694928 0.0 0.0
0.0 0.013774809028844131 0.009938161253845475 -0.009289570191436156 -0.0006485910624093194 -0.011974754625373207 0.0 0.0
0.0 0.01741977154955371 0.01275089769819177 -0.012056333113454708 -0.0006945645847370568 -0.014242583938276127 0.0 0.0
0.0 0.021497312970859606 0.015953933881716086 -0.015222249501139732 -0.0007316843805763498 -0.01647154821855127 0.0 0.0
0.0 0.02607084575662611 0.019653654239808752 -0.01888710846206319 -0.0007665457777455683 -0.018526618523774303 0.0 0.0
0.0 0.031165001022654328 0.023914947432376772 -0.023109568468939103 -0.0008053789634376809 -0.020024839868366662 0.0 0.0
0.0 0.03681265316899094 0.02885014561321056 -0.02801650377404062 -0.0008336418391699514 -0.02065805735712846 0.0 0.0
0.0 0.04354979911993493 0.03493527791508298 -0.03410346078719182 -0.000831817127891171 -0.02029502824242302 0.0 0.0
0.0 0.05137926057536069 0.042596780300109695 -0.04169229164295525 -0.0009044886571544627 -0.0163910468696112 0.0 0.0
0.0 0.05137926057536158 0.04259678030010738 -0.04169229164295251 -0.0009044886571548705 0.01639104686964727 0.0 0.0
0.0 0.04354979911993005 0.03493527791507271 -0.03410346078718111 -0.0008318171278915814 0.020295028242473097 0.0 0.0
0.0 0.03681265316898063 0.028850145613195897 -0.02801650377402603 -0.0008336418391698716 0.020658057357164895 0.0 0.0
0.0 0.031165001022634826 0.02391494743235837 -0.023109568468920566 -0.0008053789634377991 0.020024839868373515 0.0 0.0
0.0 0.02607084575660127 0.019653654239790073 -0.018887108462044087 -0.0007665457777459885 0.018526618523759735 0.0 0.0
0.0 0.021497312970836735 0.015953933881698915 -0.015222249501122238 -0.0007316843805766763 0.016471548218536806 0.0 0.0
0.0 0.01741977154953586 0.012750897698177673 -0.012056333113440836 -0.00069456458473684 0.014242583938267484 0.0 0.0
0.0 0.01377480902882925 0.009938161253833474 -0.009289570191424365 -0.000648591062409113 0.01197475462536662 0.0 0.0
0.0 0.010484372111893544 0.007422418961343588 -0.006834106615282855 -0.0005883123460607331 0.009690358605682188 0.0 0.0
0.0 0.007445062518822234 0.005148711262082054 -0.004640722561864756 -0.0005079887002172991 0.007435306003441796 0.0 0.0
0.0 0.004794288357498167 0.003128177708651536 -0.0027383368257138255 -0.0003898408829377095 0.005223440971262489 0.0 0.0
0.0 0.0026026068926806667 0.0015208362477697674 -0.001284373594997799 -0.0002364626527719691 0.003196346837358117 0.0 0.0
0.0 0.001089355826461733 0.000526651340358501 -0.0004311325743722727 -9.55187659862283e-05 0.0015536822989290129 0.0 0.0
0.0 0.0003868312624292367 0.0001330265050075118 -0.00010738796429159738 -2.5638540715914366e-05 0.0005632150675503223 0.0 0.0
0.0 0.00012131495672282122 2.964536988390947e-05 -2.375883899810678e-05 -5.8865308858026785e-06 0.0001676619747118242 0.0 0.0
0.0 2.254498798025984e-05 4.2090685503500115e-06 -3.2594155837992518e-06 -9.496529665507608e-07 3.2153064699889715e-05 0.0 0.0
0.0 1.923777465052926e-06 4.6443151641734236e-08 -3.265705688923603e-08 -1.378609475249554e-08 6.215067202261806e-07 0.0 0.0
0.0 8.422508304161684e-07 -8.95293705007534e-10 -4.406393087243978e-10 1.335933013732397e-09 -1.1603652162114417e-07 0.0 0.0
0.0 2.288772016183968e-06 -1.6060572717810185e-09 5.658264546037051e-09 -4.052207274256352e-09 -6.118729255739364e-08 0.0 0.0
0.0 0.00042590183297953356 0.00022927026241842128 -0.00030466417169748203 7.539390927906059e-05 0.00039505089472884893 0.0 0.0
0.0 0.00011640288087316284 5.912708705278168e-05 -8.247262733245403e-05 2.334554027967234e-05 -0.00010785234137183154 0.0 0.0
0.0 2.6639266155012264e-06 1.6865245134581354e-10 7.079763204389439e-09 -7.248415655734002e-09 -7.204206294858136e-08 0.0 0.0
0.0 2.659403888882919e-06 -7.74331151287214e-08 7.225493806798791e-08 5.178177060733339e-09 -2.1102132785677825e-06 0.0 0.0
0.0 4.709583768325058e-06 -7.552148604988094e-08 9.88698266598553e-08 -2.334834060997371e-08 -6.147640274355024e-06 0.0 0.0
0.0 2.714541252694962e-05 9.626880204734502e-07 -6.47465890979646e-07 -3.152221294938107e-07 -3.626630803527639e-05 0.0 0.0
0.0 0.00011604427197963688 9.032295702101734e-06 -7.1277734448678475e-06 -1.9045222572338725e-06 -0.00017351095385625896 0.0 0.0
0.0 0.000291732470531023 3.321919139591344e-05 -2.6793043839313787e-05 -6.426147556599661e-06 -0.0004677576585425973 0.0 0.0
0.0 0.0006103195138182317 8.98127643169021e-05 -7.283372503056851e-05 -1.6979039286333495e-05 -0.0009471603697234298 0.0 0.0
0.0 0.0010993908155395948 0.00022977828763874665 -0.00018689029351836808 -4.2887994120378497e-05 -0.0017755970712990512 0.0 0.0
0.0 0.0019509588600075609 0.0005302124212805466 -0.00043096873146802054 -9.92436898125261e-05 -0.0029865030543872544 0.0 0.0
0.0 0.002977059700602275 0.0010122473322729776 -0.0008270999750018224 -0.00018514735727115462 -0.004518960167429257 0.0 0.0
0.0 0.00432492347172457 0.0016345739280072477 -0.0013642698501887074 -0.0002703040778185397 -0.006236913895366715 0.0 0.0
0.0 0.005888226591292076 0.0023876871046947996 -0.00204431297218813 -0.0003433741325066673 -0.008108300382236287 0.0 0.0
0.0 0.007690113939937959 0.00327775644206131 -0.0028765585550579956 -0.0004011978870033161 -0.010110491525756871 0.0 0.0
0.0 0.009737741842117443 0.004389566754822571 -0.003944162074721169 -0.0004454046801013993 -0.01222559612629586 0.0 0.0
0.0 0.012159392044000138 0.005890519547368655 -0.005409713070740137 -0.0004808064766285157 -0.01431658560071154 0.0 0.0
0.0 0.014990033410983154 0.008023495415067531 -0.007506277156587214 -0.0005172182584803125 -0.015995558775048078 0.0 0.0
0.0 0.018304223099575908 0.011002390440042895 -0.010437570193905848 -0.0005648202461370443 -0.0166472459549712 0.0 0.0
0.0 0.022766739411840185 0.015208191801311041 -0.014637232449205905 -0.0005709593521051341 -0.016403918540799298 0.0 0.0
0.0 0.02969011076928349 0.021998440444144077 -0.021449546226756773 -0.0005488942173873041 -0.01551031898204196 0.0 0.0
0.0 0.029690110769288507 0.021998440444145388 -0.0214495462267582 -0.0005488942173871908 0.015510318982068949 0.0 0.0
0.0 0.022766739411845132 0.015208191801308845 -0.014637232449203732 -0.0005709593521051196 0.01640391854084015 0.0 0.0
0.0 0.018304223099576456 0.011002390440039192 -0.010437570193902405 -0.000564820246136785 0.01664724595499397 0.0 0.0
0.0 0.014990033410976725 0.008023495415062417 -0.007506277156582453 -0.0005172182584799565 0.015995558775049823 0.0 0.0
0.0 0.012159392043991028 0.005890519547365343 -0.005409713070737506 -0.00048080647662783607 0.014316585600698553 0.0 0.0
0.0 0.009737741842109108 0.004389566754819343 -0.003944162074718175 -0.0004454046801011652 0.012225596126285126 0.0 0.0
0.0 0.007690113939931629 0.003277756442058955 -0.0028765585550556447 -0.00040119788700331243 0.010110491525749868 0.0 0.0
0.0 0.00588822659128709 0.0023876871046937817 -0.0020443129721872855 -0.00034337413250649544 0.008108300382229138 0.0 0.0
0.0 0.004324923471716285 0.0016345739280043776 -0.0013642698501861474 -0.0002703040778182304 0.006236913895356133 0.0 0.0
0.0 0.002977059700594361 0.0010122473322705138 -0.0008270999749998508 -0.00018514735727066274 0.0045189601674181686 0.0 0.0
0.0 0.0019509588600009197 0.000530212421279211 -0.0004309687314669303 -9.924368981228075e-05 0.002986503054377653 0.0 0.0
0.0 0.0010993908155365224 0.00022977828763809014 -0.00018689029351784826 -4.2887994120241704e-05 0.0017755970712938583 0.0 0.0
0.0 0.0006103195138165518 8.981276431660996e-05 -7.283372503033933e-05 -1.697903928627055e-05 0.0009471603697206715 0.0 0.0
0.0 0.0002917324705296097 3.321919139590017e-05 -2.6793043839283006e-05 -6.426147556617145e-06 0.00046775765854176893 0.0 0.0
0.0 0.00011604427197820348 9.032295702078208e-06 -7.127773444849231e-06 -1.9045222572289739e-06 0.00017351095385557345 0.0 0.0
0.0 2.7145412526320787e-05 9.626880204709472e-07 -6.474658909785372e-07 -3.152221294924134e-07 3.6266308035165193e-05 0.0 0.0
0.0 4.709583768096802e-06 -7.552148606094548e-08 9.886982667234277e-08 -2.3348340611397336e-08 6.147640274967527e-06 0.0 0.0
0.0 2.659403888552157e-06 -7.743311515664556e-08 7.22549380936456e-08 5.178177062999886e-09 2.1102132792618337e-06 0.0 0.0
0.0 2.6639266150135188e-06 1.6865245118599645e-10 7.079763195865897e-09 -7.248415647049355e-09 7.204206341627309e-08 0.0 0.0
0.0 0.00011640288087155022 5.912708705236238e-05 -8.247262733187311e-05 2.334554027951068e-05 0.00010785234137123964 0.0 0.0
0.0 1.0746833168294939e-05 4.515525796605367e-06 -6.549348278920469e-06 2.033822482315092e-06 -9.128637935675778e-06 0.0 0.0
0.0 2.4367225802783122e-06 -2.813113203210213e-08 1.7950177328242934e-08 1.018095470386406e-08 -5.173592938370029e-07 0.0 0.0
0.0 4.782061931964528e-06 -4.166702762926144e-07 3.5384229333603926e-07 6.282798295657593e-08 -4.9822258299684245e-06 0.0 0.0
0.0 8.522782638782162e-06 -9.960286882509561e-07 8.747777280195071e-07 1.2125096023145008e-07 -1.1926339815235084e-05 0.0 0.0
0.0 3.40276657057818e-05 -3.1217800086327275e-06 2.6976812510959433e-06 4.240987575367936e-07 -4.496953727471019e-05 0.0 0.0
0.0 0.00012385561697467523 -1.1805337119230099e-05 9.726939317419368e-06 2.078397801810724e-06 -0.0001782551736702928 0.0 0.0
0.0 0.00029545298643003073 -3.53154351720475e-05 2.8643265876669192e-05 6.672169295378282e-06 -0.0004740214122521333 0.0 0.0
0.0 0.000611453495665342 -9.036690983741512e-05 7.32802333577457e-05 1.708667647966937e-05 -0.0009501182920860007 0.0 0.0
0.0 0.0010986956931043745 -0.00022968049612634436 0.00018681563207106306 4.286486405528125e-05 -0.0017768143060737378 0.0 0.0
0.0 0.0019495529875690088 -0.0005295026826569315 0.0004303524143511364 9.915026830579507e-05 -0.0029853791609937017 0.0 0.0
0.0 0.002989400499653705 -0.0010147461081778592 0.0008303753668426032 0.0001843707413352554 -0.004521053765522826 0.0 0.0
0.0 0.004347584928074213 -0.001661789386982563 0.0013913289305498716 0.0002704604564326906 -0.006251110124066052 0.0 0.0
0.0 0.005940757276179348 -0.0024519493245509227 0.0021061569401672675 0.00034579238438365233 -0.008124687271793687 0.0 0.0
0.0 0.007730898801045507 -0.003335579294370012 0.0029252737000312976 0.00041030559433871103 -0.010111943537654287 0.0 0.0
0.0 0.009572574509648274 -0.004199002249599902 0.003732483859593546 0.0004665183900063557 -0.01220708783613903 0.0 0.0
0.0 0.011328122587880783 -0.004806271363720124 0.004290665969759239 0.0005156053939608812 -0.014368974942733976 0.0 0.0
0.0 0.012671735823882752 -0.004800834494598862 0.004243966370557528 0.000556868124041333 -0.016583023483054623 0.0 0.0
0.0 0.013472944412648048 -0.003906389399532971 0.003324344941123619 0.0005820444584093499 -0.018917412697654026 0.0 0.0
0.0 0.013719116087034017 -0.002158965718532881 0.0016093054075594034 0.0005496603109734748 -0.020998835379140265 0.0 0.0
0.0 0.01348458362042735 0.0031058977870400796 -0.003169761142133923 6.386335509383988e-05 -0.019908544201735743 0.0 0.0
0.0 0.013484583620431905 0.0031058977870395653 -0.003169761142133581 6.386335509401923e-05 0.019908544201748368 0.0 0.0
0.0 0.013719116087037086 -0.002158965718533401 0.0016093054075597222 0.0005496603109736771 0.0209988353791528 0.0 0.0
0.0 0.013472944412641734 -0.00390638939953001 0.0033243449411205243 0.000582044458409484 0.01891741269765406 0.0 0.0
0.0 0.012671735823872049 -0.004800834494593784 0.004243966370552766 0.0005568681240410168 0.016583023483044308 0.0 0.0
0.0 0.011328122587866937 -0.004806271363712469 0.00429066596975204 0.0005156053939604269 0.014368974942719149 0.0 0.0
0.0 0.009572574509633908 -0.004199002249591617 0.0037324838595856873 0.0004665183900059282 0.012207087836126288 0.0 0.0
0.0 0.00773089880103354 -0.0033355792943628674 0.002925273700024616 0.0004103055943382512 0.010111943537643971 0.0 0.0
0.0 0.005940757276166754 -0.002451949324543233 0.0021061569401600072 0.00034579238438322516 0.008124687271783004 0.0 0.0
0.0 0.004347584928060638 -0.0016617893869754047 0.0013913289305433952 0.0002704604564320093 0.006251110124052684 0.0 0.0
0.0 0.0029894004996426204 -0.0010147461081725147 0.0008303753668381307 0.0001843707413343844 0.004521053765509837 0.0 0.0
0.0 0.0019495529875584983 -0.0005295026826530591 0.0004303524143479518 9.915026830510709e-05 0.0029853791609820357 0.0 0.0
0.0 0.0010986956931005542 -0.00022968049612500258 0.0001868156320699809 4.286486405502167e-05 0.0017768143060684109 0.0 0.0
0.0 0.0006114534956631633 -9.03669098369028e-05 7.328023335731129e-05 1.7086676479591523e-05 0.0009501182920829791 0.0 0.0
0.0 0.00029545298642798056 -3.531543517190829e-05 2.864326587658794e-05 6.672169295320334e-06 0.0004740214122500547 0.0 0.0
0.0 0.00012385561697308856 -1.1805337119205525e-05 9.726939317405573e-06 2.078397801799962e-06 0.00017825517366948444 0.0 0.0
0.0 3.402766570476732e-05 -3.1217800086233275e-06 2.69768125108794e-06 4.2409875753538214e-07 4.496953727459966e-05 0.0 0.0
0.0 8.522782638499544e-06 -9.96028688292526e-07 8.747777280554668e-07 1.2125096023705982e-07 1.1926339815687088e-05 0.0 0.0
0.0 4.782061931562498e-06 -4.1667027638573397e-07 3.538422934144715e-07 6.282798297126301e-08 4.982225831034212e-06 0.0 0.0
0.0 2.4367225796689093e-06 -2.8131132045666724e-08 1.795017732772797e-08 1.0180954717943658e-08 5.173592943075279e-07 0.0 0.0
0.0 1.0746833168038801e-05 4.515525796883058e-06 -6.549348279300823e-06 2.0338224824177663e-06 9.128637936417099e-06 0.0 0.0
0.0 5.791226492451869e-07 -3.285152939261594e-08 4.863961923435166e-08 -1.578808984173702e-08 8.324711323925464e-08 0.0 0.0
0.0 1.4581957243262591e-06 -5.277713214386169e-08 3.1717332354552565e-08 2.1059799789307576e-08 -9.996610451637187e-07 0.0 0.0
0.0 5.860249677116804e-06 -8.053619600687105e-07 6.67450156096109e-07 1.3791180397259743e-07 -6.267361409585839e-06 0.0 0.0
0.0 1.2989230605209072e-05 -1.862379398653357e-06 1.5899062778650775e-06 2.724731207882926e-07 -1.2511044781068083e-05 0.0 0.0
0.0 4.106559790687945e-05 -9.258769644186407e-06 7.70649556746396e-06 1.552274076722452e-06 -5.5743857026074116e-05 0.0 0.0
0.0 0.00013616219680365494 -3.616642610722616e-05 2.9340175559794248e-05 6.826250547431892e-06 -0.00019124592194666746 0.0 0.0
0.0 0.00040321951575867895 -0.00013868246215845056 0.00011216727631094281 2.6515185847507806e-05 -0.0005786763893229484 0.0 0.0
0.0 0.0010970046385614777 -0.0005303109283139679 0.0004342163206122662 9.609460770170159e-05 -0.001563269142448693 0.0 0.0
0.0 0.002600977003823445 -0.00152008910292174 0.0012837389856747853 0.00023635011724695433 -0.0031973494191361437 0.0 0.0
0.0 0.0047929640200995655 -0.0031276627235137964 0.0027381587528373342 0.00038950397067646263 -0.005223139973442509 0.0 0.0
0.0 0.007454128317253006 -0.005157182531343604 0.004649994884838231 0.0005071876465053718 -0.007438471822815507 0.0 0.0
0.0 0.010515638196783115 -0.007455522438025978 0.0068683098018125594 0.0005872126362134197 -0.009688539394290313 0.0 0.0
0.0 0.013833175219076298 -0.010006514571822344 0.009357311624222906 0.0006492029475994353 -0.011945478742046182 0.0 0.0
0.0 0.01745142554156807 -0.01279910264011565 0.012096393947408145 0.0007027086927075111 -0.01418870850155617 0.0 0.0
0.0 0.02126572471948417 -0.015719624058538044 0.014965338028731979 0.000754286029806056 -0.01649244821579257 0.0 0.0
0.0 0.024986887010133216 -0.018482833208938603 0.017678556264312487 0.0008042769446261125 -0.018933695405440203 0.0 0.0
0.0 0.02820373332061596 -0.020636888345360156 0.0197903198986912 0.0008465684466689651 -0.021589955430382793 0.0 0.0
0.0 0.030293145948546027 -0.021638074560763783 0.020763835893589093 0.0008742386671747018 -0.024369340718175 0.0 0.0
0.0 0.029610982805565185 -0.020405516295383678 0.01943665447865177 0.0009688618167318965 -0.025543297715078888 0.0 0.0
0.0 0.023520389033300376 -0.014107292315961306 0.013037592994656084 0.0010696993213052104 -0.02305204768447525 0.0 0.0
0.0 0.023520389033308976 -0.014107292315961747 0.013037592994656127 0.0010696993213056183 0.02305204768450581 0.0 0.0
0.0 0.029610982805573553 -0.020405516295381936 0.019436654478649763 0.000968861816732161 0.02554329771512149 0.0 0.0
0.0 0.030293145948540885 -0.021638074560753933 0.020763835893579486 0.0008742386671744355 0.024369340718199593 0.0 0.0
0.0 0.028203733320600118 -0.020636888345345657 0.01979031989867749 0.0008465684466681736 0.021589955430382855 0.0 0.0
0.0 0.02498688701011023 -0.018482833208920208 0.017678556264294338 0.0008042769446258706 0.018933695405426824 0.0 0.0
0.0 0.02126572471946087 -0.01571962405852001 0.014965338028714158 0.000754286029805856 0.016492448215777864 0.0 0.0
0.0 0.01745142554154587 -0.012799102640098122 0.01209639394739076 0.0007027086927073617 0.014188708501543886 0.0 0.0
0.0 0.013833175219055265 -0.010006514571804865 0.009357311624205951 0.0006492029475989085 0.011945478742035782 0.0 0.0
0.0 0.010515638196758282 -0.0074555224380069745 0.006868309801794184 0.0005872126362127877 0.009688539394273507 0.0 0.0
0.0 0.00745412831722839 -0.005157182531326333 0.004649994884821692 0.0005071876465046411 0.007438471822793703 0.0 0.0
0.0 0.004792964020079771 -0.003127662723500265 0.002738158752824798 0.00038950397067546647 0.00522313997342365 0.0 0.0
0.0 0.0026009770038128563 -0.0015200891029143542 0.0012837389856681968 0.0002363501172461583 0.003197349419125848 0.0 0.0
0.0 0.0010970046385562738 -0.0005303109283108975 0.00043421632060975616 9.609460770114124e-05 0.0015632691424426978 0.0 0.0
0.0 0.00040321951575668347 -0.00013868246215797996 0.00011216727631058613 2.651518584739387e-05 0.0005786763893213746 0.0 0.0
0.0 0.00013616219680230232 -3.6166426107213254e-05 2.9340175559779178e-05 6.826250547434052e-06 0.00019124592194643523 0.0 0.0
0.0 4.106559790577151e-05 -9.258769644152285e-06 7.70649556743762e-06 1.5522740767146471e-06 5.57438570258722e-05 0.0 0.0
0.0 1.298923060468746e-05 -1.8623793987654609e-06 1.589906277960064e-06 2.724731208053991e-07 1.2511044781792714e-05 0.0 0.0
0.0 5.860249676490044e-06 -8.053619601649721e-07 6.674501561746326e-07 1.379118039903393e-07 6.26736141031907e-06 0.0 0.0
0.0 1.4581957241002394e-06 -5.2777132181487145e-08 3.17173323606542e-08 2.105979982083331e-08 9.996610460298506e-07 0.0 0.0
0.0 5.791226488939735e-07 -3.285152937202806e-08 4.863961920387383e-08 -1.57880898318369e-08 -8.324711318699175e-08 0.0 0.0
0.0 0.0 0.0 0.0 0.0 0.0 0.0 0.0
0.0 1.546319917433396e-06 2.096489414379388e-08 -7.102539574969584e-09 -1.3862354568826943e-08 3.138160816275471e-07 0.0 0.0
0.0 5.2869528438130175e-06 -5.170615844766821e-07 4.2439699767163776e-07 9.266458680504049e-08 -2.9340912413094253e-06 0.0 0.0
0.0 1.544352130758264e-05 -2.6859560094257173e-06 2.219089194900841e-06 4.6686681452488507e-07 -1.1650819928223443e-05 0.0 0.0
0.0 4.9488062635783554e-05 -1.65639494610655e-05 1.3542253714576444e-05 3.0216957464890703e-06 -6.063575610450658e-05 0.0 0.0
0.0 0.0001912845295466205 -8.23734850843759e-05 6.664442995658412e-05 1.572905512779173e-05 -0.000246034509094875 0.0 0.0
0.0 0.0007632724815556712 -0.0004326351590291181 0.0003536903600846927 7.894479894442541e-05 -0.0009545460189124258 0.0 0.0
0.0 0.0023008620385498 -0.0015502648454567287 0.0013103351569927705 0.0002399296884639586 -0.0025030350026429013 0.0 0.0
0.0 0.005045801338370657 -0.0036448556555994938 0.0032148652471036035 0.0004299904084958885 -0.004698404806517248 0.0 0.0
0.0 0.008613824226404736 -0.006555735816301494 0.005981989786812212 0.0005737460294892808 -0.007319757414624869 0.0 0.0
0.0 0.012974547131257246 -0.010011801934058052 0.009345616312437776 0.0006661856216202804 -0.01009393281535839 0.0 0.0
0.0 0.01768620790561002 -0.013885246188762456 0.013151549646927177 0.0007336965418352814 -0.012795581510441426 0.0 0.0
0.0 0.022882445064550172 -0.01816422861369528 0.017373007670063806 0.000791220943631471 -0.015402910370535013 0.0 0.0
0.0 0.028593544898379886 -0.022865227120052286 0.022018376731778123 0.0008468503882741521 -0.0180001722367535 0.0 0.0
0.0 0.034779912615833436 -0.027888846506853044 0.026983019152799378 0.0009058273540536444 -0.02079067978499855 0.0 0.0
0.0 0.04103605024058056 -0.03291545093481098 0.03194858273991019 0.0009668681949007662 -0.02405433150942869 0.0 0.0
0.0 0.04686787588975453 -0.03737369665349889 0.03634869543632182 0.0010250012171770658 -0.027963654419392497 0.0 0.0
0.0 0.0508379822946039 -0.04030874919803915 0.039210087091879085 0.0010986621061600654 -0.03180476594863667 0.0 0.0
0.0 0.05099547359427742 -0.03990840579612533 0.03871595957257712 0.0011924462235482058 -0.03369876931544118 0.0 0.0
0.0 0.04229728866023827 -0.03248812138009754 0.031069656166260506 0.0014184652138370221 -0.02979035308674625 0.0 0.0
0.0 0.042297288660248095 -0.03248812138009798 0.031069656166261048 0.0014184652138369259 0.02979035308678777 0.0 0.0
0.0 0.050995473594282956 -0.039908405796120004 0.0387159595725723 0.0011924462235477062 0.03369876931549559 0.0 0.0
0.0 0.0508379822945911 -0.04030874919802142 0.039210087091861745 0.001098662106159635 0.031804765948669704 0.0 0.0
0.0 0.04686787588972221 -0.03737369665346908 0.03634869543629237 0.001025001217176752 0.027963654419396015 0.0 0.0
0.0 0.041036050240544464 -0.03291545093478053 0.03194858273988056 0.0009668681948999615 0.024054331509413607 0.0 0.0
0.0 0.03477991261579725 -0.027888846506823085 0.02698301915276989 0.0009058273540531911 0.020790679784981676 0.0 0.0
0.0 0.028593544898348294 -0.022865227120026234 0.02201837673175267 0.000846850388273558 0.01800017223673741 0.0 0.0
0.0 0.022882445064516595 -0.01816422861366663 0.017373007670035603 0.0007912209436310089 0.015402910370522643 0.0 0.0
0.0 0.017686207905576255 -0.0138852461887349 0.013151549646900426 0.0007336965418344732 0.012795581510421957 0.0 0.0
0.0 0.012974547131224064 -0.010011801934032043 0.00934561631241243 0.0006661856216196119 0.01009393281533462 0.0 0.0
0.0 0.008613824226372701 -0.006555735816277225 0.005981989786788462 0.0005737460294887635 0.0073197574146000996 0.0 0.0
0.0 0.00504580133835017 -0.0036448556555835725 0.003214865247088564 0.00042999040849500697 0.0046984048065020845 0.0 0.0
0.0 0.0023008620385387034 -0.0015502648454486794 0.0013103351569857332 0.0002399296884629459 0.002503035002633324 0.0 0.0
0.0 0.0007632724815497565 -0.00043263515902592926 0.00035369036008210425 7.894479894382482e-05 0.0009545460189066934 0.0 0.0
0.0 0.00019128452954435802 -8.237348508388824e-05 6.664442995619736e-05 1.572905512769086e-05 0.0002460345090933206 0.0 0.0
0.0 4.9488062634687724e-05 -1.656394946109115e-05 1.3542253714597004e-05 3.0216957464941068e-06 6.0635756104598756e-05 0.0 0.0
0.0 1.5443521306876777e-05 -2.6859560095491892e-06 2.2190891950031827e-06 4.6686681454599567e-07 1.165081992876247e-05 0.0 0.0
0.0 5.286952843452665e-06 -5.170615846361445e-07 4.2439699780173535e-07 9.266458683441524e-08 2.9340912422319098e-06 0.0 0.0
0.0 1.5463199168796422e-06 2.0964894136532813e-08 -7.10253957316928e-09 -1.3862354563367244e-08 -3.138160815128601e-07 0.0 0.0
0.0 0.0 0.0 0.0 0.0 0.0 0.0 0.0
0.0 0.0 0.0 0.0 0.0 0.0 0.0 0.0
0.0 3.8538157917848767e-07 8.524370000021943e-09 -5.889213621647465e-09 -2.6351563783748637e-09 7.625979648851619e-08 0.0 0.0
0.0 2.9690188475415282e-06 -2.2942592683898878e-07 1.8654205083727952e-07 4.288387600170441e-08 -9.84527538197367e-07 0.0 0.0
0.0 1.4939071142540688e-05 -4.251122540411623e-06 3.5043462646994656e-06 7.467762757121533e-07 -1.3898955472181448e-05 0.0 0.0
0.0 6.320242220893724e-05 -2.7071692679179025e-05 2.203664486602874e-05 5.035047813150309e-06 -6.871487869942921e-05 0.0 0.0
0.0 0.0003371813042411778 -0.00020092230640487275 0.00016296457249848406 3.795773390638867e-05 -0.00038439601326503714 0.0 0.0
0.0 0.0014332462118500323 -0.0010115324437111183 0.0008425616927201768 0.0001689707509909414 -0.0014173600458761905 0.0 0.0
0.0 0.003900792925646892 -0.0029730005586527486 0.0025907222370176917 0.00038227832163505616 -0.0032658419947873456 0.0 0.0
0.0 0.0077924637410492275 -0.006139468123583033 0.005576646240198115 0.0005628218833849192 -0.005797104950982283 0.0 0.0
0.0 0.012778318693536787 -0.010277118636947502 0.009596351002346381 0.0006807676346011196 -0.008778752721246915 0.0 0.0
0.0 0.01860333886016585 -0.015117616561058499 0.014355917724026503 0.0007616988370319956 -0.011844956074553117 0.0 0.0
0.0 0.025101834346813963 -0.020539745419826963 0.019709708087741782 0.0008300373320851687 -0.014770624572367205 0.0 0.0
0.0 0.032277767888617234 -0.026543113574627825 0.02565074747634851 0.0008923660982792826 -0.0175744025809076 0.0 0.0
0.0 0.040118061939005856 -0.03316506866973092 0.03221053670672745 0.0009545319630034667 -0.020380776300709204 0.0 0.0
0.0 0.04866973100994654 -0.0403304642790316 0.03930947321092473 0.0010209910681068224 -0.023477255172770554 0.0 0.0
0.0 0.05757666724639868 -0.04769572041309361 0.046600928917765044 0.0010947914953285424 -0.027309390610966718 0.0 0.0
0.0 0.06589055645079456 -0.05446932638432318 0.05329074550929001 0.0011785808750331488 -0.032025382633357954 0.0 0.0
0.0 0.07191599260411442 -0.05917432327535388 0.0578974624212163 0.0012768608541375314 -0.03674130168639926 0.0 0.0
0.0 0.07237753095698748 -0.05924284216303985 0.05782499225481374 0.0014178499082260682 -0.03897899946494422 0.0 0.0
0.0 0.061669236430998656 -0.05006996700781133 0.04843295725636338 0.0016370097514479631 -0.03536008354425153 0.0 0.0
0.0 0.06166923643100373 -0.050069967007808594 0.048432957256360376 0.0016370097514481923 0.03536008354429615 0.0 0.0
0.0 0.07237753095698399 -0.059242842163027845 0.05782499225480195 0.0014178499082258727 0.03897899946500183 0.0 0.0
0.0 0.07191599260409254 -0.05917432327532825 0.05789746242119118 0.0012768608541370362 0.03674130168643942 0.0 0.0
0.0 0.06589055645075732 -0.054469326384288246 0.05329074550925581 0.0011785808750324057 0.03202538263336754 0.0 0.0
0.0 0.0575766672463518 -0.04769572041305322 0.04660092891772504 0.0010947914953281703 0.027309390610954956 0.0 0.0
0.0 0.04866973100989732 -0.040330464278990105 0.03930947321088326 0.0010209910681068122 0.023477255172752842 0.0 0.0
0.0 0.04011806193896089 -0.03316506866969297 0.03221053670668987 0.0009545319630030988 0.02038077630069236 0.0 0.0
0.0 0.032277767888570515 -0.02654311357458784 0.02565074747630911 0.0008923660982787321 0.017574402580892316 0.0 0.0
0.0 0.025101834346767743 -0.02053974541978823 0.019709708087703427 0.0008300373320847946 0.014770624572345698 0.0 0.0
0.0 0.018603338860120652 -0.015117616561021785 0.01435591772399012 0.0007616988370316633 0.011844956074526122 0.0 0.0
0.0 0.012778318693497742 -0.01027711863691649 0.009596351002315892 0.0006807676346005933 0.008778752721219708 0.0 0.0
0.0 0.0077924637410230636 -0.006139468123562297 0.005576646240178151 0.0005628218833841481 0.005797104950965857 0.0 0.0
0.0 0.003900792925630579 -0.002973000558639961 0.002590722237006013 0.00038227832163394626 0.0032658419947760994 0.0 0.0
0.0 0.001433246211839495 -0.001011532443703712 0.0008425616927137826 0.00016897075098992907 0.001417360045867338 0.0 0.0
0.0 0.00033718130423678104 -0.0002009223064027699 0.00016296457249672893 3.795773390604096e-05 0.00038439601326125967 0.0 0.0
0.0 6.320242220834632e-05 -2.7071692679456662e-05 2.2036644866244934e-05 5.035047813211673e-06 6.871487869999983e-05 0.0 0.0
0.0 1.4939071141854683e-05 -4.2511225405676915e-06 3.504346264825981e-06 7.467762757417041e-07 1.3898955472688925e-05 0.0 0.0
0.0 2.9690188471273524e-06 -2.2942592700449113e-07 1.8654205097063917e-07 4.288387603385002e-08 9.84527538939028e-07 0.0 0.0
0.0 3.8538157904294466e-07 8.52436999717895e-09 -5.889213619678072e-09 -2.6351563774992616e-09 -7.62597964614563e-08 0.0 0.0
0.0 0.0 0.0 0.0 0.0 0.0 0.0 0.0
0.0 0.0 0.0 0.0 0.0 0.0 0.0 0.0
0.0 0.0 0.0 0.0 0.0 0.0 0.0 0.0
0.0 8.170608195573579e-07 -4.952316091175195e-08 4.041353911834516e-08 9.109621793409904e-09 -1.7315277986557832e-07 0.0 0.0
0.0 1.4205026658735587e-05 -2.9724788404950804e-06 2.411538168961244e-06 5.60940671533848e-07 -7.119583122509563e-06 0.0 0.0
0.0 0.00010181863211130862 -4.9237038660496784e-05 3.9806627039056276e-05 9.430411621440483e-06 -8.731928127015953e-05 0.0 0.0
0.0 0.0006248202648587018 -0.0004486031591613261 0.000366760175767683 8.184298339364319e-05 -0.0005784028744834362 0.0 0.0
0.0 0.0023756916185479486 -0.0018470673949701271 0.0015716248106603286 0.00027544258430979834 -0.0017814589533476392 0.0 0.0
0.0 0.005754583827903333 -0.004658638406208627 0.004162145593009582 0.0004964928131990432 -0.003755267777096965 0.0 0.0
0.0 0.010718299804979327 -0.008847101203352765 0.008196321761415538 0.0006507794419372286 -0.006444952512394399 0.0 0.0
0.0 0.017022600179446276 -0.014154816392341079 0.013402322596646879 0.0007524937956942037 -0.009517603929157981 0.0 0.0
0.0 0.024381588859615645 -0.02035314798484596 0.019519209738423804 0.00083393824642216 -0.012623244573234344 0.0 0.0
0.0 0.032632756716949145 -0.027322809869519276 0.026414918508008197 0.0009078913615110866 -0.015602282483637708 0.0 0.0
0.0 0.041742763018915344 -0.03505412464716876 0.03407650664754574 0.0009776179996230044 -0.018464930011414544 0.0 0.0
0.0 0.05178329468390154 -0.04359500014665553 0.04254887096819223 0.0010461291784633116 -0.021309147959866305 0.0 0.0
0.0 0.06279005851111051 -0.05291017753093736 0.0517897536276775 0.0011204239032598649 -0.024447158724296068 0.0 0.0
0.0 0.07414220377865441 -0.06261980526475071 0.06141094764255116 0.0012088576221995484 -0.02836910714667304 0.0 0.0
0.0 0.08510549873025956 -0.07166499544799988 0.07034888147182337 0.0013161139761764945 -0.033300186109105734 0.0 0.0
0.0 0.09294371461360479 -0.07800317313498575 0.07655519900096308 0.00144797413402266 -0.03842097666614741 0.0 0.0
0.0 0.09356688741985077 -0.0782565593837652 0.07664394841960863 0.0016126109641565489 -0.041442625898277206 0.0 0.0
0.0 0.08118066712853357 -0.06734294449583658 0.06553433532084753 0.0018086091749890546 -0.04021878713515352 0.0 0.0
0.0 0.0811806671285336 -0.06734294449583 0.06553433532084085 0.0018086091749891019 0.040218787135199274 0.0 0.0
0.0 0.09356688741983626 -0.0782565593837454 0.07664394841958841 0.0016126109641569825 0.04144262589833343 0.0 0.0
0.0 0.09294371461357405 -0.07800317313495364 0.07655519900093083 0.0014479741340227576 0.03842097666619026 0.0 0.0
0.0 0.08510549873021167 -0.07166499544795604 0.0703488814717799 0.0013161139761760983 0.03330018610911706 0.0 0.0
0.0 0.07414220377859695 -0.06261980526470083 0.06141094764250163 0.001208857622199185 0.028369107146663144 0.0 0.0
0.0 0.06279005851105277 -0.052910177530887455 0.0517897536276282 0.001120423903259276 0.02444715872428249 0.0 0.0
0.0 0.05178329468384378 -0.04359500014660588 0.04254887096814329 0.001046129178462594 0.021309147959848736 0.0 0.0
0.0 0.041742763018855766 -0.035054124647117595 0.03407650664749479 0.0009776179996227876 0.018464930011398015 0.0 0.0
0.0 0.03263275671689202 -0.027322809869470634 0.026414918507959878 0.0009078913615107501 0.01560228248361677 0.0 0.0
0.0 0.02438158885956654 -0.020353147984804955 0.019519209738383586 0.000833938246421364 0.012623244573208504 0.0 0.0
0.0 0.017022600179402256 -0.01415481639230451 0.013402322596610936 0.000752493795693583 0.009517603929131768 0.0 0.0
0.0 0.01071829980494694 -0.00884710120332582 0.0081963217613892 0.000650779441936624 0.00644495251237751 0.0 0.0
0.0 0.0057545838278804575 -0.004658638406189996 0.00416214559299181 0.000496492813198187 0.003755267777083989 0.0 0.0
0.0 0.0023756916185343722 -0.001847067394959654 0.0015716248106511631 0.0002754425843084916 0.0017814589533388366 0.0 0.0
0.0 0.0006248202648537842 -0.0004486031591584288 0.00036676017576527917 8.184298339314958e-05 0.0005784028744798928 0.0 0.0
0.0 0.00010181863211040405 -4.923703866065191e-05 3.980662703917671e-05 9.430411621475104e-06 8.73192812704429e-05 0.0 0.0
0.0 1.4205026658287238e-05 -2.9724788407287455e-06 2.4115381691502183e-06 5.609406715785368e-07 7.119583123087064e-06 0.0 0.0
0.0 8.170608195517288e-07 -4.9523161050589137e-08 4.0413539230842844e-08 9.109621819745511e-09 1.7315278035465768e-07 0.0 0.0
0.0 0.0 0.0 0.0 0.0 0.0 0.0 0.0
0.0 0.0 0.0 0.0 0.0 0.0 0.0 0.0
0.0 0.0 0.0 0.0 0.0 0.0 0.0 0.0
0.0 0.0 0.0 0.0 0.0 0.0 0.0 0.0
0.0 9.159772724021529e-07 5.630253744311479e-08 -4.536700834069255e-08 -1.0935529102421052e-08 1.5681455061216043e-07 0.0 0.0
0.0 1.1277013126109185e-05 -4.829150925023557e-06 3.884098239800879e-06 9.450526852227176e-07 -8.882958615129642e-06 0.0 0.0
0.0 0.00016849306302794268 -0.00011022149678664195 8.890118635047967e-05 2.132031043616232e-05 -0.00013997142475935518 0.0 0.0
0.0 0.0010930522326744023 -0.0008471081850066865 0.000700449922780401 0.0001466582622262857 -0.0007489144174608933 0.0 0.0
0.0 0.0035689534486095464 -0.0028866090952418804 0.002508723685458206 0.0003778854097836746 -0.0019756779225973617 0.0 0.0
0.0 0.007719924180026004 -0.006528760684285932 0.005947326195490381 0.0005814344887955504 -0.0039517997975016695 0.0 0.0
0.0 0.013745980909059033 -0.011672271936602642 0.010961037012742961 0.0007112349238596811 -0.006563565825133692 0.0 0.0
0.0 0.0213471299299063 -0.01811519544078876 0.0173070017394047 0.0008081937013840684 -0.009494011966267854 0.0 0.0
0.0 0.0302339815920213 -0.025662989606850973 0.02476862491406584 0.0008943646927851126 -0.012480103869761257 0.0 0.0
0.0 0.0402174590528797 -0.03418427047429644 0.03320853877850342 0.0009757316957929866 -0.015345035666756091 0.0 0.0
0.0 0.05133638404709821 -0.043649679008116886 0.04259592103451693 0.0010537579735999528 -0.01811007987366484 0.0 0.0
0.0 0.06344330327400484 -0.05410173406289362 0.052972206095423746 0.0011295279674698707 -0.02085933254715771 0.0 0.0
0.0 0.07676336467462888 -0.06551976867494563 0.06430892021020149 0.0012108484647441564 -0.0237510012225002 0.0 0.0
0.0 0.0908682152022508 -0.07750263309005322 0.07618992618181525 0.0013127069082379521 -0.027222188201852935 0.0 0.0
0.0 0.10398532040703617 -0.08875761998985265 0.08731364269538706 0.001443977294465544 -0.0317695440177005 0.0 0.0
0.0 0.11342237988252499 -0.09666325287468669 0.0950583690529461 0.0016048838217405277 -0.03706790757381712 0.0 0.0
0.0 0.11446585256588765 -0.0971419754542253 0.09535887626231282 0.001783099191912409 -0.04172150872030522 0.0 0.0
0.0 0.10113057908464784 -0.08475947768198054 0.08279429507337482 0.0019651826086057294 -0.04473710237376127 0.0 0.0
0.0 0.10113057908464754 -0.08475947768197409 0.0827942950733686 0.0019651826086054254 0.04473710237380912 0.0 0.0
0.0 0.11446585256586778 -0.09714197545420179 0.09535887626228942 0.001783099191912349 0.04172150872036294 0.0 0.0
0.0 0.11342237988248767 -0.0966632528746495 0.09505836905290976 0.0016048838217397044 0.03706790757386013 0.0 0.0
0.0 0.1039853204069802 -0.08875761998980206 0.08731364269533756 0.0014439772944644645 0.031769544017711815 0.0 0.0
0.0 0.09086821520218175 -0.07750263308999308 0.07618992618175556 0.0013127069082375063 0.027222188201846263 0.0 0.0
0.0 0.0767633646745582 -0.06551976867488414 0.06430892021014067 0.0012108484647434432 0.02375100122249069 0.0 0.0
0.0 0.06344330327393116 -0.05410173406283009 0.052972206095360574 0.0011295279674694936 0.020859332547141275 0.0 0.0
0.0 0.05133638404703062 -0.043649679008058176 0.042595921034458764 0.0010537579735993843 0.018110079873649744 0.0 0.0
0.0 0.040217459052810024 -0.034184270474236486 0.0332085387784435 0.0009757316957929695 0.015345035666736503 0.0 0.0
0.0 0.030233981591957206 -0.025662989606796874 0.024768624914011883 0.00089436469278499 0.012480103869733916 0.0 0.0
0.0 0.021347129929854033 -0.01811519544074484 0.01730700173936113 0.000808193701383699 0.009494011966242282 0.0 0.0
0.0 0.013745980909020792 -0.011672271936569913 0.010961037012710883 0.0007112349238590351 0.006563565825117426 0.0 0.0
0.0 0.007719924179998639 -0.006528760684262672 0.005947326195468054 0.000581434488794617 0.003951799797488879 0.0 0.0
0.0 0.0035689534485928015 -0.0028866090952282633 0.002508723685445819 0.00037788540978244496 0.0019756779225889166 0.0 0.0
0.0 0.0010930522326665615 -0.0008471081850010291 0.0007004499227755625 0.00014665826222546642 0.000748914417456168 0.0 0.0
0.0 0.00016849306302551924 -0.00011022149678562875 8.890118634964173e-05 2.132031043598698e-05 0.00013997142475813195 0.0 0.0
0.0 1.1277013125930765e-05 -4.8291509253133124e-06 3.884098240029819e-06 9.450526852834728e-07 8.882958615653661e-06 0.0 0.0
0.0 9.159772720464821e-07 5.630253742091469e-08 -4.5367008322703315e-08 -1.0935529098212496e-08 -1.5681455054918204e-07 0.0 0.0
0.0 0.0 0.0 0.0 0.0 0.0 0.0 0.0
0.0 0.0 0.0 0.0 0.0 0.0 0.0 0.0
0.0 0.0 0.0 0.0 0.0 0.0 0.0 0.0
0.0 0.0 0.0 0.0 0.0 0.0 0.0 0.0
0.0 1.689842663827738e-07 1.2417531491820355e-08 -9.875132672039358e-09 -2.542398819781851e-09 2.52211868254362e-08 0.0 0.0
0.0 1.108657196964985e-05 -6.0704322444516016e-06 4.839648096196323e-06 1.2307841482552979e-06 -8.24318253363801e-06 0.0 0.0
0.0 0.0003059419720856184 -0.0002261366927192568 0.00018275985869458777 4.337683402466911e-05 -0.0001995395140711631 0.0 0.0
0.0 0.001743642160807349 -0.0013981216756776464 0.001173771562932695 0.00022435011274495227 -0.0008413174340961664 0.0 0.0
0.0 0.004744865967142283 -0.004103601283845543 0.00363636095371871 0.00046724033012683565 -0.0020083235544085224 0.0 0.0
0.0 0.00980411420810027 -0.008501249268018471 0.007860537861153143 0.0006407114068653282 -0.0037988371363076876 0.0 0.0
0.0 0.01688790715098246 -0.01455223380901604 0.013795201464965365 0.0007570323440506717 -0.00611077011357164 0.0 0.0
0.0 0.02572691784942542 -0.022118184937934673 0.021263401971771023 0.0008547829661636739 -0.008745497574786255 0.0 0.0
0.0 0.03611235258514433 -0.031007975759481783 0.03006109326891069 0.0009468824905710792 -0.011431707019669956 0.0 0.0
0.0 0.04786331296009809 -0.04108469321160337 0.040048239177437064 0.0010364540341662842 -0.014015247639930709 0.0 0.0
0.0 0.06089897534194958 -0.05229659162252748 0.05117311805530004 0.0011234735672274259 -0.016536999454237214 0.0 0.0
0.0 0.07526114225324414 -0.06464326515105026 0.06343437182223055 0.0012088933288196685 -0.019024899891298148 0.0 0.0
0.0 0.09084831662568577 -0.07807237724195959 0.07677492901181561 0.0012974482301439708 -0.021471178725449187 0.0 0.0
0.0 0.10699794722455044 -0.09217793657617904 0.09077096434652054 0.001406972229658451 -0.024064815039845137 0.0 0.0
0.0 0.12253777311398889 -0.10554403150938427 0.10398549737405695 0.0015585341353272879 -0.02753303661355961 0.0 0.0
0.0 0.13384141693011345 -0.11510576998887487 0.1133613705367303 0.0017443994521446024 -0.03274880769281481 0.0 0.0
0.0 0.13563680310525272 -0.11614649099682132 0.11420593306985113 0.0019405579269701687 -0.03990456200739364 0.0 0.0
0.0 0.1216206748888175 -0.10270756758978278 0.10058748950789931 0.0021200780818833747 -0.04893090247857407 0.0 0.0
0.0 0.1216206748888117 -0.10270756758977245 0.10058748950788887 0.002120078081883602 0.04893090247861857 0.0 0.0
0.0 0.1356368031052257 -0.11614649099679294 0.1142059330698232 0.0019405579269697563 0.03990456200744753 0.0 0.0
0.0 0.13384141693006685 -0.11510576998883132 0.11336137053668743 0.0017443994521437606 0.03274880769285224 0.0 0.0
0.0 0.12253777311392272 -0.10554403150932604 0.10398549737399877 0.0015585341353272855 0.0275330366135685 0.0 0.0
0.0 0.10699794722447359 -0.0921779365761122 0.09077096434645404 0.0014069722296580984 0.02406481503984139 0.0 0.0
0.0 0.09084831662560366 -0.07807237724188848 0.07677492901174485 0.0012974482301436189 0.021471178725440306 0.0 0.0
0.0 0.07526114225316109 -0.06464326515097871 0.06343437182215929 0.0012088933288193532 0.019024899891284232 0.0 0.0
0.0 0.06089897534186775 -0.05229659162245664 0.05117311805522979 0.0011234735672268556 0.016536999454222597 0.0 0.0
0.0 0.047863312960017265 -0.04108469321153331 0.040048239177367634 0.001036454034165717 0.01401524763991281 0.0 0.0
0.0 0.03611235258507303 -0.031007975759420277 0.030061093268850016 0.000946882490570252 0.011431707019645895 0.0 0.0
0.0 0.025726917849364712 -0.022118184937882483 0.02126340197171958 0.0008547829661628836 0.008745497574762767 0.0 0.0
0.0 0.016887907150937916 -0.014552233808977164 0.013795201464927305 0.0007570323440498627 0.006110770113557332 0.0 0.0
0.0 0.009804114208066173 -0.008501249267988864 0.007860537861124246 0.0006407114068646207 0.0037988371362951178 0.0 0.0
0.0 0.004744865967122043 -0.0041036012838281365 0.0036363609537023982 0.00046724033012573865 0.0020083235544005747 0.0 0.0
0.0 0.0017436421607974076 -0.0013981216756701667 0.001173771562926124 0.00022435011274404251 0.0008413174340917701 0.0 0.0
0.0 0.000305941972082312 -0.0002261366927174511 0.00018275985869311347 4.337683402433735e-05 0.00019953951406975984 0.0 0.0
0.0 1.1086571969262794e-05 -6.070432244743762e-06 4.8396480964207604e-06 1.2307841483230137e-06 8.243182534008605e-06 0.0 0.0
0.0 1.6898426617536985e-07 1.2417531476370223e-08 -9.875132659750366e-09 -2.5423988166177494e-09 -2.522118679403248e-08 0.0 0.0
0.0 0.0 0.0 0.0 0.0 0.0 0.0 0.0
0.0 0.0 0.0 0.0 0.0 0.0 0.0 0.0
0.0 0.0 0.0 0.0 0.0 0.0 0.0 0.0
0.0 0.0 0.0 0.0 0.0 0.0 0.0 0.0
0.0 0.0 0.0 0.0 0.0 0.0 0.0 0.0
0.0 1.6366729765390206e-05 -1.0710862006750751e-05 8.560150211645854e-06 2.150711795104887e-06 -1.0388364783419747e-05 0.0 0.0
0.0 0.0005555914767139841 -0.00043045901600781867 0.0003494970434708501 8.09619725369684e-05 -0.0002440055434062192 0.0 0.0
0.0 0.002508507036230234 -0.002099260492436697 0.0017910129820731526 0.0003082475103635435 -0.0008299198941609231 0.0 0.0
0.0 0.00612014582025328 -0.0054205120407860635 0.004882614481682104 0.0005378975591039573 -0.001790932938686659 0.0 0.0
0.0 0.012010553392401726 -0.010517961378258233 0.009833976703732945 0.0006839846745252871 -0.0032314978440199774 0.0 0.0
0.0 0.02007129263310013 -0.01745637264024813 0.016662521361832806 0.0007938512784153166 -0.005119952292656508 0.0 0.0
0.0 0.030142863723947637 -0.026127670967175116 0.02523300558677774 0.0008946653803973756 -0.007284953000646668 0.0 0.0
0.0 0.04203703521396084 -0.03635256822551452 0.035358996678024404 0.0009935715474900819 -0.009499258095397574 0.0 0.0
0.0 0.055498130474901944 -0.04798895083465952 0.046897671937775595 0.0010912788968839146 -0.011625697847630019 0.0 0.0
0.0 0.0706056206075347 -0.06095631552301579 0.05976813313321407 0.0011881823898016815 -0.013713548518281039 0.0 0.0
0.0 0.08694869010006515 -0.07519146630300996 0.07390645684790173 0.001285009455108225 -0.015812384508176798 0.0 0.0
0.0 0.10460506792072877 -0.09053021241991929 0.0891463287479304 0.0013838836719889378 -0.017732845736399733 0.0 0.0
0.0 0.12301951599319276 -0.10650515501581352 0.10500861903021616 0.0014965359855973377 -0.019205791581979034 0.0 0.0
0.0 0.1406424578952268 -0.12179194716647221 0.12014237468406988 0.0016495724824022971 -0.020898570543426982 0.0 0.0
0.0 0.15401608056340318 -0.13326126460047757 0.13139652506102886 0.0018647395394486154 -0.025413779773532555 0.0 0.0
0.0 0.1572281753592301 -0.13549406219195306 0.13340500329205884 0.0020890588998942906 -0.035554919977830106 0.0 0.0
0.0 0.14334787726696258 -0.12162439656954543 0.11933809219789408 0.002286304371651285 -0.05248864542446205 0.0 0.0
0.0 0.14334787726695503 -0.1216243965695349 0.11933809219788394 0.002286304371650972 0.052488645424496515 0.0 0.0
0.0 0.15722817535919764 -0.13549406219192145 0.13340500329202815 0.002089058899893275 0.03555491997787624 0.0 0.0
0.0 0.15401608056334148 -0.13326126460042223 0.13139652506097388 0.0018647395394483359 0.025413779773565903 0.0 0.0
0.0 0.14064245789515006 -0.1217919471664051 0.12014237468400364 0.00164957248240151 0.020898570543433533 0.0 0.0
0.0 0.12301951599310296 -0.10650515501573551 0.10500861903013868 0.0014965359855968296 0.019205791581977064 0.0 0.0
0.0 0.10460506792063662 -0.09053021241983929 0.08914632874785085 0.0013838836719885085 0.017732845736395452 0.0 0.0
0.0 0.08694869009997122 -0.07519146630292871 0.07390645684782077 0.001285009455107935 0.015812384508167264 0.0 0.0
0.0 0.07060562060744228 -0.06095631552293562 0.059768133133134345 0.0011881823898013087 0.013713548518270443 0.0 0.0
0.0 0.05549813047481335 -0.047988950834582635 0.04689767193769937 0.0010912788968832278 0.011625697847618976 0.0 0.0
0.0 0.04203703521387924 -0.036352568225443777 0.035358996677953926 0.0009935715474898481 0.009499258095378365 0.0 0.0
0.0 0.03014286372387924 -0.0261276709671159 0.02523300558671882 0.0008946653803970895 0.007284953000627235 0.0 0.0
0.0 0.02007129263304821 -0.017456372640202836 0.01666252136178796 0.0007938512784148769 0.005119952292643528 0.0 0.0
0.0 0.012010553392365078 -0.010517961378225953 0.009833976703701345 0.0006839846745246097 0.003231497844010169 0.0 0.0
0.0 0.00612014582022857 -0.005420512040764206 0.004882614481661224 0.0005378975591029853 0.001790932938679348 0.0 0.0
0.0 0.0025085070362175607 -0.0020992604924261063 0.0017910129820637507 0.0003082475103623548 0.0008299198941568313 0.0 0.0
0.0 0.0005555914767090995 -0.00043045901600446425 0.000349497043468049 8.096197253641552e-05 0.0002440055434044159 0.0 0.0
0.0 1.6366729765105244e-05 -1.0710862007229466e-05 8.560150212009057e-06 2.1507117952204176e-06 1.0388364783807073e-05 0.0 0.0
0.0 0.0 0.0 0.0 0.0 0.0 0.0 0.0
0.0 0.0 0.0 0.0 0.0 0.0 0.0 0.0
0.0 0.0 0.0 0.0 0.0 0.0 0.0 0.0
0.0 0.0 0.0 0.0 0.0 0.0 0.0 0.0
0.0 0.0 0.0 0.0 0.0 0.0 0.0 0.0
0.0 0.0 0.0 0.0 0.0 0.0 0.0 0.0
0.0 3.8471812422457e-05 -2.6934404595735492e-05 2.1475831929634824e-05 5.458572666100694e-06 -1.6055857433661183e-05 0.0 0.0
0.0 0.000948391099385847 -0.0007455707548013835 0.0006116801557120703 0.00013389059908931338 -0.00024185560139081233 0.0 0.0
0.0 0.003235968522353971 -0.0029313165845353826 0.002540838078297766 0.00039047850623761475 -0.000662856159509254 0.0 0.0
0.0 0.007625250684570903 -0.0067884146743033055 0.006199243366352185 0.0005891713079511252 -0.0013149528738510385 0.0 0.0
0.0 0.014260407119663438 -0.01255562825111465 0.011837876075977465 0.0007177521751371872 -0.0022909396047708893 0.0 0.0
0.0 0.023274838940485685 -0.02035228052404167 0.019528451974249905 0.0008238285497917589 -0.003597453711048806 0.0 0.0
0.0 0.034563469535168714 -0.030110405758918095 0.029181396563185056 0.0009290091957330365 -0.00511901820682401 0.0 0.0
0.0 0.04794321709611039 -0.04166461281700703 0.04062936888162949 0.0010352439353775334 -0.006677596368893866 0.0 0.0
0.0 0.06328114832026781 -0.05486222461592177 0.05372077117365044 0.0011414534422713367 -0.008175298687272568 0.0 0.0
0.0 0.08015586469672768 -0.06959334812785549 0.06834488659105471 0.0012484615368007677 -0.00967682754214352 0.0 0.0
0.0 0.09868617267794712 -0.08570354536080557 0.08434585500770239 0.00135769035310316 -0.01117399420684312 0.0 0.0
0.0 0.11849422445990787 -0.10287627701658816 0.10140582380678007 0.0014704532098080867 -0.012444364894994536 0.0 0.0
0.0 0.13876330640424955 -0.12048111798279712 0.11889217816335215 0.0015889398194449222 -0.013033434333489535 0.0 0.0
0.0 0.1580899644493324 -0.13729117740498456 0.13556348703983798 0.0017276903651466363 -0.012882099088315493 0.0 0.0
0.0 0.1736277398932773 -0.1507394614719184 0.14881353535819777 0.0019259261137205851 -0.014892501724551135 0.0 0.0
0.0 0.1795071304438523 -0.15536226034781075 0.15312024259869633 0.0022420177491143233 -0.027114662788291402 0.0 0.0
0.0 0.1668801462621236 -0.14217128008565405 0.13969040688149426 0.0024808732041597067 -0.054625582296823176 0.0 0.0
0.0 0.16688014626210887 -0.1421712800856388 0.13969040688147938 0.0024808732041594972 0.05462558229684761 0.0 0.0
0.0 0.17950713044380812 -0.15536226034777076 0.1531202425986566 0.00224201774911413 0.02711466278832746 0.0 0.0
0.0 0.1736277398932088 -0.15073946147185824 0.14881353535813824 0.0019259261137200723 0.01489250172457668 0.0 0.0
0.0 0.15808996444924675 -0.1372911774049097 0.13556348703976426 0.0017276903651454853 0.012882099088318713 0.0 0.0
0.0 0.13876330640414816 -0.12048111798270905 0.11889217816326494 0.0015889398194441054 0.013033434333486431 0.0 0.0
0.0 0.1184942244598068 -0.10287627701649985 0.10140582380669341 0.0014704532098064322 0.012444364894993867 0.0 0.0
0.0 0.09868617267784496 -0.0857035453607167 0.08434585500761473 0.001357690353101926 0.011173994206837507 0.0 0.0
0.0 0.08015586469662711 -0.06959334812776795 0.06834488659096834 0.0012484615367996232 0.009676827542136284 0.0 0.0
0.0 0.06328114832016707 -0.05486222461583408 0.0537207711735634 0.0011414534422706684 0.008175298687265001 0.0 0.0
0.0 0.04794321709602371 -0.041664612816931505 0.04062936888155528 0.0010352439353762187 0.006677596368879883 0.0 0.0
0.0 0.03456346953509642 -0.03011040575885506 0.02918139656312288 0.0009290091957321855 0.005119018206810241 0.0 0.0
0.0 0.02327483894042793 -0.020352280523990712 0.019528451974199668 0.0008238285497910359 0.0035974537110409492 0.0 0.0
0.0 0.014260407119621319 -0.012555628251077349 0.011837876075940928 0.0007177521751364159 0.0022909396047643606 0.0 0.0
0.0 0.007625250684543285 -0.006788414674278492 0.00619924336632831 0.0005891713079501806 0.001314952873846025 0.0 0.0
0.0 0.003235968522338458 -0.002931316584521379 0.002540838078284938 0.0003904785062364411 0.000662856159506105 0.0 0.0
0.0 0.0009483910993795677 -0.0007455707547967034 0.0006116801557080937 0.00013389059908860935 0.00024185560138941236 0.0 0.0
0.0 3.8471812421780164e-05 -2.6934404596015477e-05 2.1475831929837028e-05 5.458572666178395e-06 1.6055857433765297e-05 0.0 0.0
0.0 0.0 0.0 0.0 0.0 0.0 0.0 0.0
0.0 0.0 0.0 0.0 0.0 0.0 0.0 0.0
0.0 0.0 0.0 0.0 0.0 0.0 0.0 0.0
0.0 0.0 0.0 0.0 0.0 0.0 0.0 0.0
0.0 0.0 0.0 0.0 0.0 0.0 0.0 0.0
0.0 0.0 0.0 0.0 0.0 0.0 0.0 0.0
0.0 0.0001120907990289382 -9.062202571908455e-05 7.189233897007847e-05 1.8729686749006234e-05 -2.2884559962395134e-05 0.0 0.0
0.0 0.0014919881686684946 -0.0011697951277121878 0.0009707604928625352 0.00019903463484965218 -0.0001491410692596988 0.0 0.0
0.0 0.0042189529956763745 -0.0038214459668151355 0.003362198139308295 0.0004592478275068416 -0.0003146660453403832 0.0 0.0
0.0 0.00918366559250695 -0.008186756002329166 0.007558278442134771 0.0006284775601943921 -0.0005797389556559953 0.0 0.0
0.0 0.01655028086828367 -0.014585567905303154 0.01384153053717624 0.0007440373681269047 -0.0009806075771044702 0.0 0.0
0.0 0.026499136357346895 -0.023208106797443947 0.022359194810280387 0.0008489119871635547 -0.0015518833341665126 0.0 0.0
0.0 0.039015690439011555 -0.034032158735818885 0.03307358457185713 0.0009585741639617607 -0.0022453923975077053 0.0 0.0
0.0 0.05395595469508401 -0.046912375425973686 0.045840149325713564 0.0010722261002601209 -0.0029679542001318305 0.0 0.0
0.0 0.0708388521051703 -0.06167968471124459 0.060491913918659275 0.0011877707925853024 -0.0036815048372284874 0.0 0.0
0.0 0.08977200445874373 -0.07816023635862068 0.07685538034904539 0.0013048560095753267 -0.004390007244239081 0.0 0.0
0.0 0.11048018424562915 -0.09612010601713869 0.09469405791824939 0.0014260480988892797 -0.005056552174644832 0.0 0.0
0.0 0.1323607076987103 -0.11509885590627923 0.11354549103833575 0.0015533648679435376 -0.005550853671554883 0.0 0.0
0.0 0.15443247616799918 -0.1342281648763213 0.13254270844155402 0.0016854564347672137 -0.005553345684124994 0.0 0.0
0.0 0.17508053728920553 -0.15213710379050027 0.1503187219758171 0.001818381814683198 -0.004634848067663911 0.0 0.0
0.0 0.1919750682184329 -0.16682268627572022 0.16485893825738013 0.001963748018339968 -0.0035057697763818544 0.0 0.0
0.0 0.20126079176295963 -0.1747095736745633 0.17251322021145676 0.00219635346310641 -0.010878656176411849 0.0 0.0
0.0 0.19382656643331864 -0.16615771676824503 0.16330383478355198 0.002853881984692963 -0.050406603681695646 0.0 0.0
0.0 0.19382656643330082 -0.16615771676822905 0.16330383478353577 0.0028538819846931534 0.05040660368170388 0.0 0.0
0.0 0.20126079176290987 -0.1747095736745196 0.1725132202114137 0.0021963534631058335 0.010878656176430912 0.0 0.0
0.0 0.1919750682183502 -0.16682268627564836 0.16485893825730885 0.0019637480183394692 0.0035057697763940464 0.0 0.0
0.0 0.17508053728909914 -0.15213710379040835 0.1503187219757251 0.0018183818146832943 0.004634848067661202 0.0 0.0
0.0 0.15443247616788705 -0.13422816487622402 0.13254270844145738 0.0016854564347665445 0.005553345684123547 0.0 0.0
0.0 0.13236070769859637 -0.11509885590618048 0.1135454910382373 0.0015533648679430976 0.005550853671555281 0.0 0.0
0.0 0.11048018424551286 -0.0961201060170378 0.09469405791814915 0.0014260480988885832 0.0050565521746422926 0.0 0.0
0.0 0.0897720044586274 -0.07816023635851976 0.07685538034894518 0.0013048560095745613 0.004390007244235231 0.0 0.0
0.0 0.07083885210506004 -0.06167968471114876 0.0604919139185644 0.001187770792584342 0.0036815048372266118 0.0 0.0
0.0 0.05395595469498423 -0.04691237542588685 0.04584014932562755 0.0010722261002593099 0.002967954200125068 0.0 0.0
0.0 0.03901569043892635 -0.034032158735745 0.03307358457178389 0.0009585741639611224 0.0022453923975005352 0.0 0.0
0.0 0.026499136357281954 -0.02320810679738693 0.022359194810224095 0.0008489119871628284 0.0015518833341634918 0.0 0.0
0.0 0.01655028086823386 -0.01458556790525902 0.013841530537132664 0.0007440373681263481 0.0009806075771012076 0.0 0.0
0.0 0.009183665592474698 -0.008186756002300403 0.007558278442106612 0.00062847756019379 0.000579738955653897 0.0 0.0
0.0 0.004218952995657474 -0.0038214459667977665 0.003362198139291974 0.0004592478275057916 0.00031466604533903755 0.0 0.0
0.0 0.001491988168659315 -0.001169795127704897 0.0009707604928562104 0.00019903463484868713 0.00014914106925901526 0.0 0.0
0.0 0.00011209079902755936 -9.062202571851833e-05 7.189233896960696e-05 1.872968674891132e-05 2.288455996221102e-05 0.0 0.0
0.0 0.0 0.0 0.0 0.0 0.0 0.0 0.0
0.0 0.0 0.0 0.0 0.0 0.0 0.0 0.0
0.0 0.0 0.0 0.0 0.0 0.0 0.0 0.0