# vtk DataFile Version 3.0
Some data
ASCII
DATASET UNSTRUCTURED_GRID
POINTS 861 float
0.0 0.0 0.0
0.4 0.0 0.0
0.8 0.0 0.0
1.2000000000000002 0.0 0.0
1.6 0.0 0.0
2.0 0.0 0.0
2.4000000000000004 0.0 0.0
2.8000000000000003 0.0 0.0
3.2 0.0 0.0
3.6 0.0 0.0
4.0 0.0 0.0
4.4 0.0 0.0
4.800000000000001 0.0 0.0
5.2 0.0 0.0
5.6000000000000005 0.0 0.0
6.0 0.0 0.0
6.4 0.0 0.0
6.800000000000001 0.0 0.0
7.2 0.0 0.0
7.6000000000000005 0.0 0.0
8.0 0.0 0.0
8.4 0.0 0.0
8.8 0.0 0.0
9.200000000000001 0.0 0.0
9.600000000000001 0.0 0.0
10.0 0.0 0.0
10.4 0.0 0.0
10.8 0.0 0.0
11.200000000000001 0.0 0.0
11.600000000000001 0.0 0.0
12.0 0.0 0.0
12.4 0.0 0.0
12.8 0.0 0.0
13.200000000000001 0.0 0.0
13.600000000000001 0.0 0.0
14.0 0.0 0.0
14.4 0.0 0.0
14.8 0.0 0.0
15.200000000000001 0.0 0.0
15.600000000000001 0.0 0.0
16.0 0.0 0.0
0.0 0.1 0.0
0.4 0.1 0.0
0.8 0.1 0.0
1.2000000000000002 0.1 0.0
1.6 0.1 0.0
2.0 0.1 0.0
2.4000000000000004 0.1 0.0
2.8000000000000003 0.1 0.0
3.2 0.1 0.0
3.6 0.1 0.0
4.0 0.1 0.0
4.4 0.1 0.0
4.800000000000001 0.1 0.0
5.2 0.1 0.0
5.6000000000000005 0.1 0.0
6.0 0.1 0.0
6.4 0.1 0.0
6.800000000000001 0.1 0.0
7.2 0.1 0.0
7.6000000000000005 0.1 0.0
8.0 0.1 0.0
8.4 0.1 0.0
8.8 0.1 0.0
9.200000000000001 0.1 0.0
9.600000000000001 0.1 0.0
10.0 0.1 0.0
10.4 0.1 0.0
10.8 0.1 0.0
11.200000000000001 0.1 0.0
11.600000000000001 0.1 0.0
12.0 0.1 0.0
12.4 0.1 0.0
12.8 0.1 0.0
13.200000000000001 0.1 0.0
13.600000000000001 0.1 0.0
14.0 0.1 0.0
14.4 0.1 0.0
14.8 0.1 0.0
15.200000000000001 0.1 0.0
15.600000000000001 0.1 0.0
16.0 0.1 0.0
0.0 0.2 0.0
0.4 0.2 0.0
0.8 0.2 0.0
1.2000000000000002 0.2 0.0
1.6 0.2 0.0
2.0 0.2 0.0
2.4000000000000004 0.2 0.0
2.8000000000000003 0.2 0.0
3.2 0.2 0.0
3.6 0.2 0.0
4.0 0.2 0.0
4.4 0.2 0.0
4.800000000000001 0.2 0.0
5.2 0.2 0.0
5.6000000000000005 0.2 0.0
6.0 0.2 0.0
6.4 0.2 0.0
6.800000000000001 0.2 0.0
7.2 0.2 0.0
7.6000000000000005 0.2 0.0
8.0 0.2 0.0
8.4 0.2 0.0
8.8 0.2 0.0
9.200000000000001 0.2 0.0
9.600000000000001 0.2 0.0
10.0 0.2 0.0
10.4 0.2 0.0
10.8 0.2 0.0
11.200000000000001 0.2 0.0
11.600000000000001 0.2 0.0
12.0 0.2 0.0
12.4 0.2 0.0
12.8 0.2 0.0
13.200000000000001 0.2 0.0
13.600000000000001 0.2 0.0
14.0 0.2 0.0
14.4 0.2 0.0
14.8 0.2 0.0
15.200000000000001 0.2 0.0
15.600000000000001 0.2 0.0
16.0 0.2 0.0
0.0 0.30000000000000004 0.0
0.4 0.30000000000000004 0.0
0.8 0.30000000000000004 0.0
1.2000000000000002 0.30000000000000004 0.0
1.6 0.30000000000000004 0.0
2.0 0.30000000000000004 0.0
2.4000000000000004 0.30000000000000004 0.0
2.8000000000000003 0.30000000000000004 0.0
3.2 0.30000000000000004 0.0
3.6 0.30000000000000004 0.0
4.0 0.30000000000000004 0.0
4.4 0.30000000000000004 0.0
4.800000000000001 0.30000000000000004 0.0
5.2 0.30000000000000004 0.0
5.6000000000000005 0.30000000000000004 0.0
6.0 0.30000000000000004 0.0
6.4 0.30000000000000004 0.0
6.800000000000001 0.30000000000000004 0.0
7.2 0.30000000000000004 0.0
7.6000000000000005 0.30000000000000004 0.0
8.0 0.30000000000000004 0.0
8.4 0.30000000000000004 0.0
8.8 0.30000000000000004 0.0
9.200000000000001 0.30000000000000004 0.0
9.600000000000001 0.30000000000000004 0.0
10.0 0.30000000000000004 0.0
10.4 0.30000000000000004 0.0
10.8 0.30000000000000004 0.0
11.200000000000001 0.30000000000000004 0.0
11.600000000000001 0.30000000000000004 0.0
12.0 0.30000000000000004 0.0
12.4 0.30000000000000004 0.0
12.8 0.30000000000000004 0.0
13.200000000000001 0.30000000000000004 0.0
13.600000000000001 0.30000000000000004 0.0
14.0 0.30000000000000004 0.0
14.4 0.30000000000000004 0.0
14.8 0.30000000000000004 0.0
15.200000000000001 0.30000000000000004 0.0
15.600000000000001 0.30000000000000004 0.0
16.0 0.30000000000000004 0.0
0.0 0.4 0.0
0.4 0.4 0.0
0.8 0.4 0.0
1.2000000000000002 0.4 0.0
1.6 0.4 0.0
2.0 0.4 0.0
2.4000000000000004 0.4 0.0
2.8000000000000003 0.4 0.0
3.2 0.4 0.0
3.6 0.4 0.0
4.0 0.4 0.0
4.4 0.4 0.0
4.800000000000001 0.4 0.0
5.2 0.4 0.0
5.6000000000000005 0.4 0.0
6.0 0.4 0.0
6.4 0.4 0.0
6.800000000000001 0.4 0.0
7.2 0.4 0.0
7.6000000000000005 0.4 0.0
8.0 0.4 0.0
8.4 0.4 0.0
8.8 0.4 0.0
9.200000000000001 0.4 0.0
9.600000000000001 0.4 0.0
10.0 0.4 0.0
10.4 0.4 0.0
10.8 0.4 0.0
11.200000000000001 0.4 0.0
11.600000000000001 0.4 0.0
12.0 0.4 0.0
12.4 0.4 0.0
12.8 0.4 0.0
13.200000000000001 0.4 0.0
13.600000000000001 0.4 0.0
14.0 0.4 0.0
14.4 0.4 0.0
14.8 0.4 0.0
15.200000000000001 0.4 0.0
15.600000000000001 0.4 0.0
16.0 0.4 0.0
0.0 0.5 0.0
0.4 0.5 0.0
0.8 0.5 0.0
1.2000000000000002 0.5 0.0
1.6 0.5 0.0
2.0 0.5 0.0
2.4000000000000004 0.5 0.0
2.8000000000000003 0.5 0.0
3.2 0.5 0.0
3.6 0.5 0.0
4.0 0.5 0.0
4.4 0.5 0.0
4.800000000000001 0.5 0.0
5.2 0.5 0.0
5.6000000000000005 0.5 0.0
6.0 0.5 0.0
6.4 0.5 0.0
6.800000000000001 0.5 0.0
7.2 0.5 0.0
7.6000000000000005 0.5 0.0
8.0 0.5 0.0
8.4 0.5 0.0
8.8 0.5 0.0
9.200000000000001 0.5 0.0
9.600000000000001 0.5 0.0
10.0 0.5 0.0
10.4 0.5 0.0
10.8 0.5 0.0
11.200000000000001 0.5 0.0
11.600000000000001 0.5 0.0
12.0 0.5 0.0
12.4 0.5 0.0
12.8 0.5 0.0
13.200000000000001 0.5 0.0
13.600000000000001 0.5 0.0
14.0 0.5 0.0
14.4 0.5 0.0
14.8 0.5 0.0
15.200000000000001 0.5 0.0
15.600000000000001 0.5 0.0
16.0 0.5 0.0
0.0 0.6000000000000001 0.0
0.4 0.6000000000000001 0.0
0.8 0.6000000000000001 0.0
1.2000000000000002 0.6000000000000001 0.0
1.6 0.6000000000000001 0.0
2.0 0.6000000000000001 0.0
2.4000000000000004 0.6000000000000001 0.0
2.8000000000000003 0.6000000000000001 0.0
3.2 0.6000000000000001 0.0
3.6 0.6000000000000001 0.0
4.0 0.6000000000000001 0.0
4.4 0.6000000000000001 0.0
4.800000000000001 0.6000000000000001 0.0
5.2 0.6000000000000001 0.0
5.6000000000000005 0.6000000000000001 0.0
6.0 0.6000000000000001 0.0
6.4 0.6000000000000001 0.0
6.800000000000001 0.6000000000000001 0.0
7.2 0.6000000000000001 0.0
7.6000000000000005 0.6000000000000001 0.0
8.0 0.6000000000000001 0.0
8.4 0.6000000000000001 0.0
8.8 0.6000000000000001 0.0
9.200000000000001 0.6000000000000001 0.0
9.600000000000001 0.6000000000000001 0.0
10.0 0.6000000000000001 0.0
10.4 0.6000000000000001 0.0
10.8 0.6000000000000001 0.0
11.200000000000001 0.6000000000000001 0.0
11.600000000000001 0.6000000000000001 0.0
12.0 0.6000000000000001 0.0
12.4 0.6000000000000001 0.0
12.8 0.6000000000000001 0.0
13.200000000000001 0.6000000000000001 0.0
13.600000000000001 0.6000000000000001 0.0
14.0 0.6000000000000001 0.0
14.4 0.6000000000000001 0.0
14.8 0.6000000000000001 0.0
15.200000000000001 0.6000000000000001 0.0
15.600000000000001 0.6000000000000001 0.0
16.0 0.6000000000000001 0.0
0.0 0.7000000000000001 0.0
0.4 0.7000000000000001 0.0
0.8 0.7000000000000001 0.0
1.2000000000000002 0.7000000000000001 0.0
1.6 0.7000000000000001 0.0
2.0 0.7000000000000001 0.0
2.4000000000000004 0.7000000000000001 0.0
2.8000000000000003 0.7000000000000001 0.0
3.2 0.7000000000000001 0.0
3.6 0.7000000000000001 0.0
4.0 0.7000000000000001 0.0
4.4 0.7000000000000001 0.0
4.800000000000001 0.7000000000000001 0.0
5.2 0.7000000000000001 0.0
5.6000000000000005 0.7000000000000001 0.0
6.0 0.7000000000000001 0.0
6.4 0.7000000000000001 0.0
6.800000000000001 0.7000000000000001 0.0
7.2 0.7000000000000001 0.0
7.6000000000000005 0.7000000000000001 0.0
8.0 0.7000000000000001 0.0
8.4 0.7000000000000001 0.0
8.8 0.7000000000000001 0.0
9.200000000000001 0.7000000000000001 0.0
9.600000000000001 0.7000000000000001 0.0
10.0 0.7000000000000001 0.0
10.4 0.7000000000000001 0.0
10.8 0.7000000000000001 0.0
11.200000000000001 0.7000000000000001 0.0
11.600000000000001 0.7000000000000001 0.0
12.0 0.7000000000000001 0.0
12.4 0.7000000000000001 0.0
12.8 0.7000000000000001 0.0
13.200000000000001 0.7000000000000001 0.0
13.600000000000001 0.7000000000000001 0.0
14.0 0.7000000000000001 0.0
14.4 0.7000000000000001 0.0
14.8 0.7000000000000001 0.0
15.200000000000001 0.7000000000000001 0.0
15.600000000000001 0.7000000000000001 0.0
16.0 0.7000000000000001 0.0
0.0 0.8 0.0
0.4 0.8 0.0
0.8 0.8 0.0
1.2000000000000002 0.8 0.0
1.6 0.8 0.0
2.0 0.8 0.0
2.4000000000000004 0.8 0.0
2.8000000000000003 0.8 0.0
3.2 0.8 0.0
3.6 0.8 0.0
4.0 0.8 0.0
4.4 0.8 0.0
4.800000000000001 0.8 0.0
5.2 0.8 0.0
5.6000000000000005 0.8 0.0
6.0 0.8 0.0
6.4 0.8 0.0
6.800000000000001 0.8 0.0
7.2 0.8 0.0
7.6000000000000005 0.8 0.0
8.0 0.8 0.0
8.4 0.8 0.0
8.8 0.8 0.0
9.200000000000001 0.8 0.0
9.600000000000001 0.8 0.0
10.0 0.8 0.0
10.4 0.8 0.0
10.8 0.8 0.0
11.200000000000001 0.8 0.0
11.600000000000001 0.8 0.0
12.0 0.8 0.0
12.4 0.8 0.0
12.8 0.8 0.0
13.200000000000001 0.8 0.0
13.600000000000001 0.8 0.0
14.0 0.8 0.0
14.4 0.8 0.0
14.8 0.8 0.0
15.200000000000001 0.8 0.0
15.600000000000001 0.8 0.0
16.0 0.8 0.0
0.0 0.9 0.0
0.4 0.9 0.0
0.8 0.9 0.0
1.2000000000000002 0.9 0.0
1.6 0.9 0.0
2.0 0.9 0.0
2.4000000000000004 0.9 0.0
2.8000000000000003 0.9 0.0
3.2 0.9 0.0
3.6 0.9 0.0
4.0 0.9 0.0
4.4 0.9 0.0
4.800000000000001 0.9 0.0
5.2 0.9 0.0
5.6000000000000005 0.9 0.0
6.0 0.9 0.0
6.4 0.9 0.0
6.800000000000001 0.9 0.0
7.2 0.9 0.0
7.6000000000000005 0.9 0.0
8.0 0.9 0.0
8.4 0.9 0.0
8.8 0.9 0.0
9.200000000000001 0.9 0.0
9.600000000000001 0.9 0.0
10.0 0.9 0.0
10.4 0.9 0.0
10.8 0.9 0.0
11.200000000000001 0.9 0.0
11.600000000000001 0.9 0.0
12.0 0.9 0.0
12.4 0.9 0.0
12.8 0.9 0.0
13.200000000000001 0.9 0.0
13.600000000000001 0.9 0.0
14.0 0.9 0.0
14.4 0.9 0.0
14.8 0.9 0.0
15.200000000000001 0.9 0.0
15.600000000000001 0.9 0.0
16.0 0.9 0.0
0.0 1.0 0.0
0.4 1.0 0.0
0.8 1.0 0.0
1.2000000000000002 1.0 0.0
1.6 1.0 0.0
2.0 1.0 0.0
2.4000000000000004 1.0 0.0
2.8000000000000003 1.0 0.0
3.2 1.0 0.0
3.6 1.0 0.0
4.0 1.0 0.0
4.4 1.0 0.0
4.800000000000001 1.0 0.0
5.2 1.0 0.0
5.6000000000000005 1.0 0.0
6.0 1.0 0.0
6.4 1.0 0.0
6.800000000000001 1.0 0.0
7.2 1.0 0.0
7.6000000000000005 1.0 0.0
8.0 1.0 0.0
8.4 1.0 0.0
8.8 1.0 0.0
9.200000000000001 1.0 0.0
9.600000000000001 1.0 0.0
10.0 1.0 0.0
10.4 1.0 0.0
10.8 1.0 0.0
11.200000000000001 1.0 0.0
11.600000000000001 1.0 0.0
12.0 1.0 0.0
12.4 1.0 0.0
12.8 1.0 0.0
13.200000000000001 1.0 0.0
13.600000000000001 1.0 0.0
14.0 1.0 0.0
14.4 1.0 0.0
14.8 1.0 0.0
15.200000000000001 1.0 0.0
15.600000000000001 1.0 0.0
16.0 1.0 0.0
0.0 1.1 0.0
0.4 1.1 0.0
0.8 1.1 0.0
1.2000000000000002 1.1 0.0
1.6 1.1 0.0
2.0 1.1 0.0
2.4000000000000004 1.1 0.0
2.8000000000000003 1.1 0.0
3.2 1.1 0.0
3.6 1.1 0.0
4.0 1.1 0.0
4.4 1.1 0.0
4.800000000000001 1.1 0.0
5.2 1.1 0.0
5.6000000000000005 1.1 0.0
6.0 1.1 0.0
6.4 1.1 0.0
6.800000000000001 1.1 0.0
7.2 1.1 0.0
7.6000000000000005 1.1 0.0
8.0 1.1 0.0
8.4 1.1 0.0
8.8 1.1 0.0
9.200000000000001 1.1 0.0
9.600000000000001 1.1 0.0
10.0 1.1 0.0
10.4 1.1 0.0
10.8 1.1 0.0
11.200000000000001 1.1 0.0
11.600000000000001 1.1 0.0
12.0 1.1 0.0
12.4 1.1 0.0
12.8 1.1 0.0
13.200000000000001 1.1 0.0
13.600000000000001 1.1 0.0
14.0 1.1 0.0
14.4 1.1 0.0
14.8 1.1 0.0
15.200000000000001 1.1 0.0
15.600000000000001 1.1 0.0
16.0 1.1 0.0
0.0 1.2000000000000002 0.0
0.4 1.2000000000000002 0.0
0.8 1.2000000000000002 0.0
1.2000000000000002 1.2000000000000002 0.0
1.6 1.2000000000000002 0.0
2.0 1.2000000000000002 0.0
2.4000000000000004 1.2000000000000002 0.0
2.8000000000000003 1.2000000000000002 0.0
3.2 1.2000000000000002 0.0
3.6 1.2000000000000002 0.0
4.0 1.2000000000000002 0.0
4.4 1.2000000000000002 0.0
4.800000000000001 1.2000000000000002 0.0
5.2 1.2000000000000002 0.0
5.6000000000000005 1.2000000000000002 0.0
6.0 1.2000000000000002 0.0
6.4 1.2000000000000002 0.0
6.800000000000001 1.2000000000000002 0.0
7.2 1.2000000000000002 0.0
7.6000000000000005 1.2000000000000002 0.0
8.0 1.2000000000000002 0.0
8.4 1.2000000000000002 0.0
8.8 1.2000000000000002 0.0
9.200000000000001 1.2000000000000002 0.0
9.600000000000001 1.2000000000000002 0.0
10.0 1.2000000000000002 0.0
10.4 1.2000000000000002 0.0
10.8 1.2000000000000002 0.0
11.200000000000001 1.2000000000000002 0.0
11.600000000000001 1.2000000000000002 0.0
12.0 1.2000000000000002 0.0
12.4 1.2000000000000002 0.0
12.8 1.2000000000000002 0.0
13.200000000000001 1.2000000000000002 0.0
13.600000000000001 1.2000000000000002 0.0
14.0 1.2000000000000002 0.0
14.4 1.2000000000000002 0.0
14.8 1.2000000000000002 0.0
15.200000000000001 1.2000000000000002 0.0
15.600000000000001 1.2000000000000002 0.0
16.0 1.2000000000000002 0.0
0.0 1.3 0.0
0.4 1.3 0.0
0.8 1.3 0.0
1.2000000000000002 1.3 0.0
1.6 1.3 0.0
2.0 1.3 0.0
2.4000000000000004 1.3 0.0
2.8000000000000003 1.3 0.0
3.2 1.3 0.0
3.6 1.3 0.0
4.0 1.3 0.0
4.4 1.3 0.0
4.800000000000001 1.3 0.0
5.2 1.3 0.0
5.6000000000000005 1.3 0.0
6.0 1.3 0.0
6.4 1.3 0.0
6.800000000000001 1.3 0.0
7.2 1.3 0.0
7.6000000000000005 1.3 0.0
8.0 1.3 0.0
8.4 1.3 0.0
8.8 1.3 0.0
9.200000000000001 1.3 0.0
9.600000000000001 1.3 0.0
10.0 1.3 0.0
10.4 1.3 0.0
10.8 1.3 0.0
11.200000000000001 1.3 0.0
11.600000000000001 1.3 0.0
12.0 1.3 0.0
12.4 1.3 0.0
12.8 1.3 0.0
13.200000000000001 1.3 0.0
13.600000000000001 1.3 0.0
14.0 1.3 0.0
14.4 1.3 0.0
14.8 1.3 0.0
15.200000000000001 1.3 0.0
15.600000000000001 1.3 0.0
16.0 1.3 0.0
0.0 1.4000000000000001 0.0
0.4 1.4000000000000001 0.0
0.8 1.4000000000000001 0.0
1.2000000000000002 1.4000000000000001 0.0
1.6 1.4000000000000001 0.0
2.0 1.4000000000000001 0.0
2.4000000000000004 1.4000000000000001 0.0
2.8000000000000003 1.4000000000000001 0.0
3.2 1.4000000000000001 0.0
3.6 1.4000000000000001 0.0
4.0 1.4000000000000001 0.0
4.4 1.4000000000000001 0.0
4.800000000000001 1.4000000000000001 0.0
5.2 1.4000000000000001 0.0
5.6000000000000005 1.4000000000000001 0.0
6.0 1.4000000000000001 0.0
6.4 1.4000000000000001 0.0
6.800000000000001 1.4000000000000001 0.0
7.2 1.4000000000000001 0.0
7.6000000000000005 1.4000000000000001 0.0
8.0 1.4000000000000001 0.0
8.4 1.4000000000000001 0.0
8.8 1.4000000000000001 0.0
9.200000000000001 1.4000000000000001 0.0
9.600000000000001 1.4000000000000001 0.0
10.0 1.4000000000000001 0.0
10.4 1.4000000000000001 0.0
10.8 1.4000000000000001 0.0
11.200000000000001 1.4000000000000001 0.0
11.600000000000001 1.4000000000000001 0.0
12.0 1.4000000000000001 0.0
12.4 1.4000000000000001 0.0
12.8 1.4000000000000001 0.0
13.200000000000001 1.4000000000000001 0.0
13.600000000000001 1.4000000000000001 0.0
14.0 1.4000000000000001 0.0
14.4 1.4000000000000001 0.0
14.8 1.4000000000000001 0.0
15.200000000000001 1.4000000000000001 0.0
15.600000000000001 1.4000000000000001 0.0
16.0 1.4000000000000001 0.0
0.0 1.5 0.0
0.4 1.5 0.0
0.8 1.5 0.0
1.2000000000000002 1.5 0.0
1.6 1.5 0.0
2.0 1.5 0.0
2.4000000000000004 1.5 0.0
2.8000000000000003 1.5 0.0
3.2 1.5 0.0
3.6 1.5 0.0
4.0 1.5 0.0
4.4 1.5 0.0
4.800000000000001 1.5 0.0
5.2 1.5 0.0
5.6000000000000005 1.5 0.0
6.0 1.5 0.0
6.4 1.5 0.0
6.800000000000001 1.5 0.0
7.2 1.5 0.0
7.6000000000000005 1.5 0.0
8.0 1.5 0.0
8.4 1.5 0.0
8.8 1.5 0.0
9.200000000000001 1.5 0.0
9.600000000000001 1.5 0.0
10.0 1.5 0.0
10.4 1.5 0.0
10.8 1.5 0.0
11.200000000000001 1.5 0.0
11.600000000000001 1.5 0.0
12.0 1.5 0.0
12.4 1.5 0.0
12.8 1.5 0.0
13.200000000000001 1.5 0.0
13.600000000000001 1.5 0.0
14.0 1.5 0.0
14.4 1.5 0.0
14.8 1.5 0.0
15.200000000000001 1.5 0.0
15.600000000000001 1.5 0.0
16.0 1.5 0.0
0.0 1.6 0.0
0.4 1.6 0.0
0.8 1.6 0.0
1.2000000000000002 1.6 0.0
1.6 1.6 0.0
2.0 1.6 0.0
2.4000000000000004 1.6 0.0
2.8000000000000003 1.6 0.0
3.2 1.6 0.0
3.6 1.6 0.0
4.0 1.6 0.0
4.4 1.6 0.0
4.800000000000001 1.6 0.0
5.2 1.6 0.0
5.6000000000000005 1.6 0.0
6.0 1.6 0.0
6.4 1.6 0.0
6.800000000000001 1.6 0.0
7.2 1.6 0.0
7.6000000000000005 1.6 0.0
8.0 1.6 0.0
8.4 1.6 0.0
8.8 1.6 0.0
9.200000000000001 1.6 0.0
9.600000000000001 1.6 0.0
10.0 1.6 0.0
10.4 1.6 0.0
10.8 1.6 0.0
11.200000000000001 1.6 0.0
11.600000000000001 1.6 0.0
12.0 1.6 0.0
12.4 1.6 0.0
12.8 1.6 0.0
13.200000000000001 1.6 0.0
13.600000000000001 1.6 0.0
14.0 1.6 0.0
14.4 1.6 0.0
14.8 1.6 0.0
15.200000000000001 1.6 0.0
15.600000000000001 1.6 0.0
16.0 1.6 0.0
0.0 1.7000000000000002 0.0
0.4 1.7000000000000002 0.0
0.8 1.7000000000000002 0.0
1.2000000000000002 1.7000000000000002 0.0
1.6 1.7000000000000002 0.0
2.0 1.7000000000000002 0.0
2.4000000000000004 1.7000000000000002 0.0
2.8000000000000003 1.7000000000000002 0.0
3.2 1.7000000000000002 0.0
3.6 1.7000000000000002 0.0
4.0 1.7000000000000002 0.0
4.4 1.7000000000000002 0.0
4.800000000000001 1.7000000000000002 0.0
5.2 1.7000000000000002 0.0
5.6000000000000005 1.7000000000000002 0.0
6.0 1.7000000000000002 0.0
6.4 1.7000000000000002 0.0
6.800000000000001 1.7000000000000002 0.0
7.2 1.7000000000000002 0.0
7.6000000000000005 1.7000000000000002 0.0
8.0 1.7000000000000002 0.0
8.4 1.7000000000000002 0.0
8.8 1.7000000000000002 0.0
9.200000000000001 1.7000000000000002 0.0
9.600000000000001 1.7000000000000002 0.0
10.0 1.7000000000000002 0.0
10.4 1.7000000000000002 0.0
10.8 1.7000000000000002 0.0
11.200000000000001 1.7000000000000002 0.0
11.600000000000001 1.7000000000000002 0.0
12.0 1.7000000000000002 0.0
12.4 1.7000000000000002 0.0
12.8 1.7000000000000002 0.0
13.200000000000001 1.7000000000000002 0.0
13.600000000000001 1.7000000000000002 0.0
14.0 1.7000000000000002 0.0
14.4 1.7000000000000002 0.0
14.8 1.7000000000000002 0.0
15.200000000000001 1.7000000000000002 0.0
15.600000000000001 1.7000000000000002 0.0
16.0 1.7000000000000002 0.0
0.0 1.8 0.0
0.4 1.8 0.0
0.8 1.8 0.0
1.2000000000000002 1.8 0.0
1.6 1.8 0.0
2.0 1.8 0.0
2.4000000000000004 1.8 0.0
2.8000000000000003 1.8 0.0
3.2 1.8 0.0
3.6 1.8 0.0
4.0 1.8 0.0
4.4 1.8 0.0
4.800000000000001 1.8 0.0
5.2 1.8 0.0
5.6000000000000005 1.8 0.0
6.0 1.8 0.0
6.4 1.8 0.0
6.800000000000001 1.8 0.0
7.2 1.8 0.0
7.6000000000000005 1.8 0.0
8.0 1.8 0.0
8.4 1.8 0.0
8.8 1.8 0.0
9.200000000000001 1.8 0.0
9.600000000000001 1.8 0.0
10.0 1.8 0.0
10.4 1.8 0.0
10.8 1.8 0.0
11.200000000000001 1.8 0.0
11.600000000000001 1.8 0.0
12.0 1.8 0.0
12.4 1.8 0.0
12.8 1.8 0.0
13.200000000000001 1.8 0.0
13.600000000000001 1.8 0.0
14.0 1.8 0.0
14.4 1.8 0.0
14.8 1.8 0.0
15.200000000000001 1.8 0.0
15.600000000000001 1.8 0.0
16.0 1.8 0.0
0.0 1.9000000000000001 0.0
0.4 1.9000000000000001 0.0
0.8 1.9000000000000001 0.0
1.2000000000000002 1.9000000000000001 0.0
1.6 1.9000000000000001 0.0
2.0 1.9000000000000001 0.0
2.4000000000000004 1.9000000000000001 0.0
2.8000000000000003 1.9000000000000001 0.0
3.2 1.9000000000000001 0.0
3.6 1.9000000000000001 0.0
4.0 1.9000000000000001 0.0
4.4 1.9000000000000001 0.0
4.800000000000001 1.9000000000000001 0.0
5.2 1.9000000000000001 0.0
5.6000000000000005 1.9000000000000001 0.0
6.0 1.9000000000000001 0.0
6.4 1.9000000000000001 0.0
6.800000000000001 1.9000000000000001 0.0
7.2 1.9000000000000001 0.0
7.6000000000000005 1.9000000000000001 0.0
8.0 1.9000000000000001 0.0
8.4 1.9000000000000001 0.0
8.8 1.9000000000000001 0.0
9.200000000000001 1.9000000000000001 0.0
9.600000000000001 1.9000000000000001 0.0
10.0 1.9000000000000001 0.0
10.4 1.9000000000000001 0.0
10.8 1.9000000000000001 0.0
11.200000000000001 1.9000000000000001 0.0
11.600000000000001 1.9000000000000001 0.0
12.0 1.9000000000000001 0.0
12.4 1.9000000000000001 0.0
12.8 1.9000000000000001 0.0
13.200000000000001 1.9000000000000001 0.0
13.600000000000001 1.9000000000000001 0.0
14.0 1.9000000000000001 0.0
14.4 1.9000000000000001 0.0
14.8 1.9000000000000001 0.0
15.200000000000001 1.9000000000000001 0.0
15.600000000000001 1.9000000000000001 0.0
16.0 1.9000000000000001 0.0
0.0 2.0 0.0
0.4 2.0 0.0
0.8 2.0 0.0
1.2000000000000002 2.0 0.0
1.6 2.0 0.0
2.0 2.0 0.0
2.4000000000000004 2.0 0.0
2.8000000000000003 2.0 0.0
3.2 2.0 0.0
3.6 2.0 0.0
4.0 2.0 0.0
4.4 2.0 0.0
4.800000000000001 2.0 0.0
5.2 2.0 0.0
5.6000000000000005 2.0 0.0
6.0 2.0 0.0
6.4 2.0 0.0
6.800000000000001 2.0 0.0
7.2 2.0 0.0
7.6000000000000005 2.0 0.0
8.0 2.0 0.0
8.4 2.0 0.0
8.8 2.0 0.0
9.200000000000001 2.0 0.0
9.600000000000001 2.0 0.0
10.0 2.0 0.0
10.4 2.0 0.0
10.8 2.0 0.0
11.200000000000001 2.0 0.0
11.600000000000001 2.0 0.0
12.0 2.0 0.0
12.4 2.0 0.0
12.8 2.0 0.0
13.200000000000001 2.0 0.0
13.600000000000001 2.0 0.0
14.0 2.0 0.0
14.4 2.0 0.0
14.8 2.0 0.0
15.200000000000001 2.0 0.0
15.600000000000001 2.0 0.0
16.0 2.0 0.0
CELLS 800 4000
4 0 1 42 41
4 1 2 43 42
4 2 3 44 43
4 3 4 45 44
4 4 5 46 45
4 5 6 47 46
4 6 7 48 47
4 7 8 49 48
4 8 9 50 49
4 9 10 51 50
4 10 11 52 51
4 11 12 53 52
4 12 13 54 53
4 13 14 55 54
4 14 15 56 55
4 15 16 57 56
4 16 17 58 57
4 17 18 59 58
4 18 19 60 59
4 19 20 61 60
4 20 21 62 61
4 21 22 63 62
4 22 23 64 63
4 23 24 65 64
4 24 25 66 65
4 25 26 67 66
4 26 27 68 67
4 27 28 69 68
4 28 29 70 69
4 29 30 71 70
4 30 31 72 71
4 31 32 73 72
4 32 33 74 73
4 33 34 75 74
4 34 35 76 75
4 35 36 77 76
4 36 37 78 77
4 37 38 79 78
4 38 39 80 79
4 39 40 81 80
4 41 42 83 82
4 42 43 84 83
4 43 44 85 84
4 44 45 86 85
4 45 46 87 86
4 46 47 88 87
4 47 48 89 88
4 48 49 90 89
4 49 50 91 90
4 50 51 92 91
4 51 52 93 92
4 52 53 94 93
4 53 54 95 94
4 54 55 96 95
4 55 56 97 96
4 56 57 98 97
4 57 58 99 98
4 58 59 100 99
4 59 60 101 100
4 60 61 102 101
4 61 62 103 102
4 62 63 104 103
4 63 64 105 104
4 64 65 106 105
4 65 66 107 106
4 66 67 108 107
4 67 68 109 108
4 68 69 110 109
4 69 70 111 110
4 70 71 112 111
4 71 72 113 112
4 72 73 114 113
4 73 74 115 114
4 74 75 116 115
4 75 76 117 116
4 76 77 118 117
4 77 78 119 118
4 78 79 120 119
4 79 80 121 120
4 80 81 122 121
4 82 83 124 123
4 83 84 125 124
4 84 85 126 125
4 85 86 127 126
4 86 87 128 127
4 87 88 129 128
4 88 89 130 129
4 89 90 131 130
4 90 91 132 131
4 91 92 133 132
4 92 93 134 133
4 93 94 135 134
4 94 95 136 135
4 95 96 137 136
4 96 97 138 137
4 97 98 139 138
4 98 99 140 139
4 99 100 141 140
4 100 101 142 141
4 101 102 143 142
4 102 103 144 143
4 103 104 145 144
4 104 105 146 145
4 105 106 147 146
4 106 107 148 147
4 107 108 149 148
4 108 109 150 149
4 109 110 151 150
4 110 111 152 151
4 111 112 153 152
4 112 113 154 153
4 113 114 155 154
4 114 115 156 155
4 115 116 157 156
4 116 117 158 157
4 117 118 159 158
4 118 119 160 159
4 119 120 161 160
4 120 121 162 161
4 121 122 163 162
4 123 124 165 164
4 124 125 166 165
4 125 126 167 166
4 126 127 168 167
4 127 128 169 168
4 128 129 170 169
4 129 130 171 170
4 130 131 172 171
4 131 132 173 172
4 132 133 174 173
4 133 134 175 174
4 134 135 176 175
4 135 136 177 176
4 136 137 178 177
4 137 138 179 178
4 138 139 180 179
4 139 140 181 180
4 140 141 182 181
4 141 142 183 182
4 142 143 184 183
4 143 144 185 184
4 144 145 186 185
4 145 146 187 186
4 146 147 188 187
4 147 148 189 188
4 148 149 190 189
4 149 150 191 190
4 150 151 192 191
4 151 152 193 192
4 152 153 194 193
4 153 154 195 194
4 154 155 196 195
4 155 156 197 196
4 156 157 198 197
4 157 158 199 198
4 158 159 200 199
4 159 160 201 200
4 160 161 202 201
4 161 162 203 202
4 162 163 204 203
4 164 165 206 205
4 165 166 207 206
4 166 167 208 207
4 167 168 209 208
4 168 169 210 209
4 169 170 211 210
4 170 171 212 211
4 171 172 213 212
4 172 173 214 213
4 173 174 215 214
4 174 175 216 215
4 175 176 217 216
4 176 177 218 217
4 177 178 219 218
4 178 179 220 219
4 179 180 221 220
4 180 181 222 221
4 181 182 223 222
4 182 183 224 223
4 183 184 225 224
4 184 185 226 225
4 185 186 227 226
4 186 187 228 227
4 187 188 229 228
4 188 189 230 229
4 189 190 231 230
4 190 191 232 231
4 191 192 233 232
4 192 193 234 233
4 193 194 235 234
4 194 195 236 235
4 195 196 237 236
4 196 197 238 237
4 197 198 239 238
4 198 199 240 239
4 199 200 241 240
4 200 201 242 241
4 201 202 243 242
4 202 203 244 243
4 203 204 245 244
4 205 206 247 246
4 206 207 248 247
4 207 208 249 248
4 208 209 250 249
4 209 210 251 250
4 210 211 252 251
4 211 212 253 252
4 212 213 254 253
4 213 214 255 254
4 214 215 256 255
4 215 216 257 256
4 216 217 258 257
4 217 218 259 258
4 218 219 260 259
4 219 220 261 260
4 220 221 262 261
4 221 222 263 262
4 222 223 264 263
4 223 224 265 264
4 224 225 266 265
4 225 226 267 266
4 226 227 268 267
4 227 228 269 268
4 228 229 270 269
4 229 230 271 270
4 230 231 272 271
4 231 232 273 272
4 232 233 274 273
4 233 234 275 274
4 234 235 276 275
4 235 236 277 276
4 236 237 278 277
4 237 238 279 278
4 238 239 280 279
4 239 240 281 280
4 240 241 282 281
4 241 242 283 282
4 242 243 284 283
4 243 244 285 284
4 244 245 286 285
4 246 247 288 287
4 247 248 289 288
4 248 249 290 289
4 249 250 291 290
4 250 251 292 291
4 251 252 293 292
4 252 253 294 293
4 253 254 295 294
4 254 255 296 295
4 255 256 297 296
4 256 257 298 297
4 257 258 299 298
4 258 259 300 299
4 259 260 301 300
4 260 261 302 301
4 261 262 303 302
4 262 263 304 303
4 263 264 305 304
4 264 265 306 305
4 265 266 307 306
4 266 267 308 307
4 267 268 309 308
4 268 269 310 309
4 269 270 311 310
4 270 271 312 311
4 271 272 313 312
4 272 273 314 313
4 273 274 315 314
4 274 275 316 315
4 275 276 317 316
4 276 277 318 317
4 277 278 319 318
4 278 279 320 319
4 279 280 321 320
4 280 281 322 321
4 281 282 323 322
4 282 283 324 323
4 283 284 325 324
4 284 285 326 325
4 285 286 327 326
4 287 288 329 328
4 288 289 330 329
4 289 290 331 330
4 290 291 332 331
4 291 292 333 332
4 292 293 334 333
4 293 294 335 334
4 294 295 336 335
4 295 296 337 336
4 296 297 338 337
4 297 298 339 338
4 298 299 340 339
4 299 300 341 340
4 300 301 342 341
4 301 302 343 342
4 302 303 344 343
4 303 304 345 344
4 304 305 346 345
4 305 306 347 346
4 306 307 348 347
4 307 308 349 348
4 308 309 350 349
4 309 310 351 350
4 310 311 352 351
4 311 312 353 352
4 312 313 354 353
4 313 314 355 354
4 314 315 356 355
4 315 316 357 356
4 316 317 358 357
4 317 318 359 358
4 318 319 360 359
4 319 320 361 360
4 320 321 362 361
4 321 322 363 362
4 322 323 364 363
4 323 324 365 364
4 324 325 366 365
4 325 326 367 366
4 326 327 368 367
4 328 329 370 369
4 329 330 371 370
4 330 331 372 371
4 331 332 373 372
4 332 333 374 373
4 333 334 375 374
4 334 335 376 375
4 335 336 377 376
4 336 337 378 377
4 337 338 379 378
4 338 339 380 379
4 339 340 381 380
4 340 341 382 381
4 341 342 383 382
4 342 343 384 383
4 343 344 385 384
4 344 345 386 385
4 345 346 387 386
4 346 347 388 387
4 347 348 389 388
4 348 349 390 389
4 349 350 391 390
4 350 351 392 391
4 351 352 393 392
4 352 353 394 393
4 353 354 395 394
4 354 355 396 395
4 355 356 397 396
4 356 357 398 397
4 357 358 399 398
4 358 359 400 399
4 359 360 401 400
4 360 361 402 401
4 361 362 403 402
4 362 363 404 403
4 363 364 405 404
4 364 365 406 405
4 365 366 407 406
4 366 367 408 407
4 367 368 409 408
4 369 370 411 410
4 370 371 412 411
4 371 372 413 412
4 372 373 414 413
4 373 374 415 414
4 374 375 416 415
4 375 376 417 416
4 376 377 418 417
4 377 378 419 418
4 378 379 420 419
4 379 380 421 420
4 380 381 422 421
4 381 382 423 422
4 382 383 424 423
4 383 384 425 424
4 384 385 426 425
4 385 386 427 426
4 386 387 428 427
4 387 388 429 428
4 388 389 430 429
4 389 390 431 430
4 390 391 432 431
4 391 392 433 432
4 392 393 434 433
4 393 394 435 434
4 394 395 436 435
4 395 396 437 436
4 396 397 438 437
4 397 398 439 438
4 398 399 440 439
4 399 400 441 440
4 400 401 442 441
4 401 402 443 442
4 402 403 444 443
4 403 404 445 444
4 404 405 446 445
4 405 406 447 446
4 406 407 448 447
4 407 408 449 448
4 408 409 450 449
4 410 411 452 451
4 411 412 453 452
4 412 413 454 453
4 413 414 455 454
4 414 415 456 455
4 415 416 457 456
4 416 417 458 457
4 417 418 459 458
4 418 419 460 459
4 419 420 461 460
4 420 421 462 461
4 421 422 463 462
4 422 423 464 463
4 423 424 465 464
4 424 425 466 465
4 425 426 467 466
4 426 427 468 467
4 427 428 469 468
4 428 429 470 469
4 429 430 471 470
4 430 431 472 471
4 431 432 473 472
4 432 433 474 473
4 433 434 475 474
4 434 435 476 475
4 435 436 477 476
4 436 437 478 477
4 437 438 479 478
4 438 439 480 479
4 439 440 481 480
4 440 441 482 481
4 441 442 483 482
4 442 443 484 483
4 443 444 485 484
4 444 445 486 485
4 445 446 487 486
4 446 447 488 487
4 447 448 489 488
4 448 449 490 489
4 449 450 491 490
4 451 452 493 492
4 452 453 494 493
4 453 454 495 494
4 454 455 496 495
4 455 456 497 496
4 456 457 498 497
4 457 458 499 498
4 458 459 500 499
4 459 460 501 500
4 460 461 502 501
4 461 462 503 502
4 462 463 504 503
4 463 464 505 504
4 464 465 506 505
4 465 466 507 506
4 466 467 508 507
4 467 468 509 508
4 468 469 510 509
4 469 470 511 510
4 470 471 512 511
4 471 472 513 512
4 472 473 514 513
4 473 474 515 514
4 474 475 516 515
4 475 476 517 516
4 476 477 518 517
4 477 478 519 518
4 478 479 520 519
4 479 480 521 520
4 480 481 522 521
4 481 482 523 522
4 482 483 524 523
4 483 484 525 524
4 484 485 526 525
4 485 486 527 526
4 486 487 528 527
4 487 488 529 528
4 488 489 530 529
4 489 490 531 530
4 490 491 532 531
4 492 493 534 533
4 493 494 535 534
4 494 495 536 535
4 495 496 537 536
4 496 497 538 537
4 497 498 539 538
4 498 499 540 539
4 499 500 541 540
4 500 501 542 541
4 501 502 543 542
4 502 503 544 543
4 503 504 545 544
4 504 505 546 545
4 505 506 547 546
4 506 507 548 547
4 507 508 549 548
4 508 509 550 549
4 509 510 551 550
4 510 511 552 551
4 511 512 553 552
4 512 513 554 553
4 513 514 555 554
4 514 515 556 555
4 515 516 557 556
4 516 517 558 557
4 517 518 559 558
4 518 519 560 559
4 519 520 561 560
4 520 521 562 561
4 521 522 563 562
4 522 523 564 563
4 523 524 565 564
4 524 525 566 565
4 525 526 567 566
4 526 527 568 567
4 527 528 569 568
4 528 529 570 569
4 529 530 571 570
4 530 531 572 571
4 531 532 573 572
4 533 534 575 574
4 534 535 576 575
4 535 536 577 576
4 536 537 578 577
4 537 538 579 578
4 538 539 580 579
4 539 540 581 580
4 540 541 582 581
4 541 542 583 582
4 542 543 584 583
4 543 544 585 584
4 544 545 586 585
4 545 546 587 586
4 546 547 588 587
4 547 548 589 588
4 548 549 590 589
4 549 550 591 590
4 550 551 592 591
4 551 552 593 592
4 552 553 594 593
4 553 554 595 594
4 554 555 596 595
4 555 556 597 596
4 556 557 598 597
4 557 558 599 598
4 558 559 600 599
4 559 560 601 600
4 560 561 602 601
4 561 562 603 602
4 562 563 604 603
4 563 564 605 604
4 564 565 606 605
4 565 566 607 606
4 566 567 608 607
4 567 568 609 608
4 568 569 610 609
4 569 570 611 610
4 570 571 612 611
4 571 572 613 612
4 572 573 614 613
4 574 575 616 615
4 575 576 617 616
4 576 577 618 617
4 577 578 619 618
4 578 579 620 619
4 579 580 621 620
4 580 581 622 621
4 581 582 623 622
4 582 583 624 623
4 583 584 625 624
4 584 585 626 625
4 585 586 627 626
4 586 587 628 627
4 587 588 629 628
4 588 589 630 629
4 589 590 631 630
4 590 591 632 631
4 591 592 633 632
4 592 593 634 633
4 593 594 635 634
4 594 595 636 635
4 595 596 637 636
4 596 597 638 637
4 597 598 639 638
4 598 599 640 639
4 599 600 641 640
4 600 601 642 641
4 601 602 643 642
4 602 603 644 643
4 603 604 645 644
4 604 605 646 645
4 605 606 647 646
4 606 607 648 647
4 607 608 649 648
4 608 609 650 649
4 609 610 651 650
4 610 611 652 651
4 611 612 653 652
4 612 613 654 653
4 613 614 655 654
4 615 616 657 656
4 616 617 658 657
4 617 618 659 658
4 618 619 660 659
4 619 620 661 660
4 620 621 662 661
4 621 622 663 662
4 622 623 664 663
4 623 624 665 664
4 624 625 666 665
4 625 626 667 666
4 626 627 668 667
4 627 628 669 668
4 628 629 670 669
4 629 630 671 670
4 630 631 672 671
4 631 632 673 672
4 632 633 674 673
4 633 634 675 674
4 634 635 676 675
4 635 636 677 676
4 636 637 678 677
4 637 638 679 678
4 638 639 680 679
4 639 640 681 680
4 640 641 682 681
4 641 642 683 682
4 642 643 684 683
4 643 644 685 684
4 644 645 686 685
4 645 646 687 686
4 646 647 688 687
4 647 648 689 688
4 648 649 690 689
4 649 650 691 690
4 650 651 692 691
4 651 652 693 692
4 652 653 694 693
4 653 654 695 694
4 654 655 696 695
4 656 657 698 697
4 657 658 699 698
4 658 659 700 699
4 659 660 701 700
4 660 661 702 701
4 661 662 703 702
4 662 663 704 703
4 663 664 705 704
4 664 665 706 705
4 665 666 707 706
4 666 667 708 707
4 667 668 709 708
4 668 669 710 709
4 669 670 711 710
4 670 671 712 711
4 671 672 713 712
4 672 673 714 713
4 673 674 715 714
4 674 675 716 715
4 675 676 717 716
4 676 677 718 717
4 677 678 719 718
4 678 679 720 719
4 679 680 721 720
4 680 681 722 721
4 681 682 723 722
4 682 683 724 723
4 683 684 725 724
4 684 685 726 725
4 685 686 727 726
4 686 687 728 727
4 687 688 729 728
4 688 689 730 729
4 689 690 731 730
4 690 691 732 731
4 691 692 733 732
4 692 693 734 733
4 693 694 735 734
4 694 695 736 735
4 695 696 737 736
4 697 698 739 738
4 698 699 740 739
4 699 700 741 740
4 700 701 742 741
4 701 702 743 742
4 702 703 744 743
4 703 704 745 744
4 704 705 746 745
4 705 706 747 746
4 706 707 748 747
4 707 708 749 748
4 708 709 750 749
4 709 710 751 750
4 710 711 752 751
4 711 712 753 752
4 712 713 754 753
4 713 714 755 754
4 714 715 756 755
4 715 716 757 756
4 716 717 758 757
4 717 718 759 758
4 718 719 760 759
4 719 720 761 760
4 720 721 762 761
4 721 722 763 762
4 722 723 764 763
4 723 724 765 764
4 724 725 766 765
4 725 726 767 766
4 726 727 768 767
4 727 728 769 768
4 728 729 770 769
4 729 730 771 770
4 730 731 772 771
4 731 732 773 772
4 732 733 774 773
4 733 734 775 774
4 734 735 776 775
4 735 736 777 776
4 736 737 778 777
4 738 739 780 779
4 739 740 781 780
4 740 741 782 781
4 741 742 783 782
4 742 743 784 783
4 743 744 785 784
4 744 745 786 785
4 745 746 787 786
4 746 747 788 787
4 747 748 789 788
4 748 749 790 789
4 749 750 791 790
4 750 751 792 791
4 751 752 793 792
4 752 753 794 793
4 753 754 795 794
4 754 755 796 795
4 755 756 797 796
4 756 757 798 797
4 757 758 799 798
4 758 759 800 799
4 759 760 801 800
4 760 761 802 801
4 761 762 803 802
4 762 763 804 803
4 763 764 805 804
4 764 765 806 805
4 765 766 807 806
4 766 767 808 807
4 767 768 809 808
4 768 769 810 809
4 769 770 811 810
4 770 771 812 811
4 771 772 813 812
4 772 773 814 813
4 773 774 815 814
4 774 775 816 815
4 775 776 817 816
4 776 777 818 817
4 777 778 819 818
4 779 780 821 820
4 780 781 822 821
4 781 782 823 822
4 782 783 824 823
4 783 784 825 824
4 784 785 826 825
4 785 786 827 826
4 786 787 828 827
4 787 788 829 828
4 788 789 830 829
4 789 790 831 830
4 790 791 832 831
4 791 792 833 832
4 792 793 834 833
4 793 794 835 834
4 794 795 836 835
4 795 796 837 836
4 796 797 838 837
4 797 798 839 838
4 798 799 840 839
4 799 800 841 840
4 800 801 842 841
4 801 802 843 842
4 802 803 844 843
4 803 804 845 844
4 804 805 846 845
4 805 806 847 846
4 806 807 848 847
4 807 808 849 848
4 808 809 850 849
4 809 810 851 850
4 810 811 852 851
4 811 812 853 852
4 812 813 854 853
4 813 814 855 854
4 814 815 856 855
4 815 816 857 856
4 816 817 858 857
4 817 818 859 858
4 818 819 860 859
CELL_TYPES 800
9
9
9
9
9
9
9
9
9
9
9
9
9
9
9
9
9
9
9
9
9
9
9
9
9
9
9
9
9
9
9
9
9
9
9
9
9
9
9
9
9
9
9
9
9
9
9
9
9
9
9
9
9
9
9
9
9
9
9
9
9
9
9
9
9
9
9
9
9
9
9
9
9
9
9
9
9
9
9
9
9
9
9
9
9
9
9
9
9
9
9
9
9
9
9
9
9
9
9
9
9
9
9
9
9
9
9
9
9
9
9
9
9
9
9
9
9
9
9
9
9
9
9
9
9
9
9
9
9
9
9
9
9
9
9
9
9
9
9
9
9
9
9
9
9
9
9
9
9
9
9
9
9
9
9
9
9
9
9
9
9
9
9
9
9
9
9
9
9
9
9
9
9
9
9
9
9
9
9
9
9
9
9
9
9
9
9
9
9
9
9
9
9
9
9
9
9
9
9
9
9
9
9
9
9
9
9
9
9
9
9
9
9
9
9
9
9
9
9
9
9
9
9
9
9
9
9
9
9
9
9
9
9
9
9
9
9
9
9
9
9
9
9
9
9
9
9
9
9
9
9
9
9
9
9
9
9
9
9
9
9
9
9
9
9
9
9
9
9
9
9
9
9
9
9
9
9
9
9
9
9
9
9
9
9
9
9
9
9
9
9
9
9
9
9
9
9
9
9
9
9
9
9
9
9
9
9
9
9
9
9
9
9
9
9
9
9
9
9
9
9
9
9
9
9
9
9
9
9
9
9
9
9
9
9
9
9
9
9
9
9
9
9
9
9
9
9
9
9
9
9
9
9
9
9
9
9
9
9
9
9
9
9
9
9
9
9
9
9
9
9
9
9
9
9
9
9
9
9
9
9
9
9
9
9
9
9
9
9
9
9
9
9
9
9
9
9
9
9
9
9
9
9
9
9
9
9
9
9
9
9
9
9
9
9
9
9
9
9
9
9
9
9
9
9
9
9
9
9
9
9
9
9
9
9
9
9
9
9
9
9
9
9
9
9
9
9
9
9
9
9
9
9
9
9
9
9
9
9
9
9
9
9
9
9
9
9
9
9
9
9
9
9
9
9
9
9
9
9
9
9
9
9
9
9
9
9
9
9
9
9
9
9
9
9
9
9
9
9
9
9
9
9
9
9
9
9
9
9
9
9
9
9
9
9
9
9
9
9
9
9
9
9
9
9
9
9
9
9
9
9
9
9
9
9
9
9
9
9
9
9
9
9
9
9
9
9
9
9
9
9
9
9
9
9
9
9
9
9
9
9
9
9
9
9
9
9
9
9
9
9
9
9
9
9
9
9
9
9
9
9
9
9
9
9
9
9
9
9
9
9
9
9
9
9
9
9
9
9
9
9
9
9
9
9
9
9
9
9
9
9
9
9
9
9
9
9
9
9
9
9
9
9
9
9
9
9
9
9
9
9
9
9
9
9
9
9
9
9
9
9
9
9
9
9
9
9
9
9
9
9
9
9
9
9
9
9
9
9
9
9
9
9
9
9
9
9
9
9
9
9
9
9
9
9
9
9
9
9
9
9
9
9
9
9
9
9
9
9
9
9
9
9
9
9
9
9
9
9
9
9
9
9
9
9
9
9
9
9
9
9
9
9
9
9
9
9
9
9
9
9
9
9
9
9
9
9
9
9
9
9
9
9
9
9
9
9
9
9
9
9
9
9
9
9
9
9
9
9
9
9
9
9
9
9
9
9
9
9
9
9
9
9
9
9
9
9
9
9
9
9
9
9
9
9
9
9
9
9
9
9
9
9
9
9
9
9
9
9
9
9
9
9
9
9
9
9
9
9
9
POINT_DATA 861
SCALARS Disp float 2
LOOKUP_TABLE default
0.0 0.0
0.005592587096236155 -0.2295854519824607
0.0068672585092197334 -0.450263418503091
0.0076418245060292204 -0.6699493020942952
0.008628419746240113 -0.8892855568624624
0.010187951588124616 -1.1078938062580967
0.012884804695327814 -1.3252742798064259
0.01739851426267564 -1.5408001364708592
0.02452606866028102 -1.7536901569535703
0.035135792947789894 -1.9629321984151944
0.05009870410072137 -2.167163959059697
0.07024688736063057 -2.3645948486230064
0.0963545075006603 -2.553021622264145
0.12912957693702104 -2.7299293513955116
0.16921330446073124 -2.89256909803567
0.2171139531155319 -3.0380168498881583
0.2730838666594428 -3.163245900401698
0.3369683287715964 -3.265245862602409
0.4080727998169665 -3.3412266143908917
0.48510316607214277 -3.3888619133708384
0.5659907736911347 -3.4065587594221873
0.6468783813101222 -3.3888619133707323
0.7239087475652821 -3.3412266143906764
0.7950132186106249 -3.2652458626020975
0.8588976807227432 -3.163245900401307
0.9148675942666152 -3.0380168498877125
0.962768242921378 -2.892569098035182
1.0028519704450507 -2.7299293513949943
1.0356270398813727 -2.5530216222636155
1.0617346600213662 -2.364594848622481
1.081882843281242 -2.1671639590591893
1.0968457544341463 -1.9629321984147161
1.1074554787216346 -1.753690156953129
1.1145830331192244 -1.5408001364704607
1.1190967426865617 -1.3252742798060742
1.1217935957937584 -1.107893806257798
1.1233531276356399 -0.8892855568622178
1.1243397228758498 -0.6699493020941075
1.125114288872659 -0.4502634185029592
1.1263889602856414 -0.22958545198238747
1.1319815473818742 0.0
0.05726873167409416 -0.0023407096080477483
0.06116142110216579 -0.22982962223149983
0.06183113771155374 -0.4503249313393806
0.06251932563815446 -0.6700371761449545
0.06338766432998151 -0.8894225787383699
0.06471720073540728 -1.1081903485198545
0.06703898829787241 -1.3258838269268447
0.07099515386665252 -1.5419053463706553
0.0773347239882484 -1.7554948839320859
0.08685101112622368 -1.9656439455857564
0.10032121577964424 -2.170982254306769
0.11847250546020165 -2.369706762418406
0.1419853187198362 -2.559601991975616
0.1715041726865142 -2.7381404826486353
0.20761564933337848 -2.902553775031712
0.2507941926326979 -3.049875286307944
0.30129007691374443 -3.177001488622896
0.3589946854045349 -3.2808097744193248
0.4233162401179837 -3.3583693612532572
0.493038497951831 -3.4071899496498417
0.5659907736911217 -3.4253744405445667
0.6389430494304076 -3.4071899496497333
0.7086653072642402 -3.3583693612530365
0.7729868619776649 -3.2808097744190055
0.8306914704684244 -3.177001488622497
0.8811873547494368 -3.0498752863074894
0.9243658980487219 -2.9025537750312145
0.960477374695552 -2.7381404826481086
0.9899962286621956 -2.559601991975078
1.0135090419217971 -2.3697067624178723
1.0316603316023247 -2.1709822543062542
1.0451305362557208 -1.9656439455852726
1.0546468233936772 -1.7554948839316402
1.0609863935152588 -1.5419053463702537
1.0649425590840293 -1.325883826926491
1.0672643466464888 -1.108190348519555
1.0685938830519124 -0.889422578738125
1.0694622217437388 -0.6700371761447669
1.0701504096703394 -0.45032493133924884
1.0708201262797272 -0.22982962223142622
1.0747128157077934 -0.0023407096080452472
0.1135835061388931 -0.004194350969490705
0.11642998912062721 -0.2299500068169607
0.11681497128869625 -0.4503586383937729
0.1173768576150041 -0.6701147181735091
0.11813605788485 -0.8895327358238693
0.11925907840486194 -1.1084250436438219
0.12121401372921604 -1.3263879773720455
0.12461517608477493 -1.5428519446517406
0.13015349954256555 -1.7570735892199862
0.1385500989779907 -1.9680423052675384
0.15049255706254955 -2.174375892875014
0.1666126161010561 -2.374258102529482
0.18749950016000025 -2.565465308281368
0.21372111794371565 -2.7454635106333454
0.24581369919211016 -2.9114678494796977
0.28421733725366616 -3.060475793676974
0.32918913126225985 -3.189318352077894
0.38068334103597706 -3.2947740583676266
0.43820647850960565 -3.3737791065694207
0.5006133346392696 -3.423650389194286
0.5659907736911092 -3.4422770285212874
0.6313682127429441 -3.4236503891941754
0.6937750688725945 -3.373779106569196
0.7512982063462017 -3.2947740583673006
0.8027924161198919 -3.1893183520774873
0.8477642101284557 -3.060475793676512
0.8861678481899811 -2.9114678494791923
0.9182604294383448 -2.745463510632811
0.9444820472220298 -2.565465308280822
0.9653689312809447 -2.374258102528941
0.9814889903194249 -2.1743758928744925
0.9934314484039617 -1.9680423052670502
1.00182804783937 -1.7570735892195366
1.0073663712971477 -1.5428519446513362
1.010767533652698 -1.32638797737169
1.0127224689770478 -1.108425043643522
1.0138454894970579 -0.889532735823624
1.0146046897669032 -0.6701147181733215
1.0151665760932111 -0.45035863839364115
1.0155515582612802 -0.22995000681688674
1.018398041243009 -0.004194350969485488
0.16939626464432989 -0.005682184691224919
0.1715418215165209 -0.23003190960643918
0.1717769852010864 -0.4503773898861127
0.17221677039474992 -0.6701778448040449
0.17286843136525518 -0.889623529656142
0.17381010694070495 -1.108605465981877
0.17541939151947036 -1.326790309100339
0.17827164493970554 -1.5436411330191937
0.18300428639650113 -1.758423527044758
0.1902656875538775 -1.9701220318743171
0.2006583000802658 -2.177338455566103
0.2147225322058565 -2.3782432073251454
0.23296076870874705 -2.5706060209481425
0.25586291215680895 -2.751890520852413
0.28390213817512294 -2.9193015717933366
0.3174912409097424 -3.0698078491296594
0.3568979452640254 -3.200187129696568
0.40213899399547676 -3.307132442590765
0.45282565131803526 -3.387449932420969
0.5079844295483532 -3.438282854924803
0.5659907736910968 -3.457355644100075
0.6239971178338363 -3.43828285492469
0.6791558960641421 -3.38744993242074
0.7298425533866815 -3.307132442590434
0.7750836021181094 -3.200187129696155
0.8144903064723664 -3.06980784912919
0.8480794092069588 -2.9193015717928246
0.876118635225246 -2.751890520851872
0.899020778673281 -2.5706060209475896
0.917259015176146 -2.3782432073245983
0.9313232473017141 -2.177338455565576
0.9417158598280828 -1.9701220318738244
0.948977260985444 -1.758423527044305
0.9537099024422284 -1.543641133018787
0.9565621558624564 -1.3267903090999824
0.9581714404412183 -1.1086054659815763
0.9591131160166667 -0.8896235296558969
0.9597647769871718 -0.6701778448038572
0.9602045621808353 -0.450377389885981
0.9604397258654007 -0.23003190960636488
0.962585282737587 -0.00568218469121722
0.2249219406691429 -0.006882953731424342
0.22654540978970342 -0.2300960796252259
0.22669896248392568 -0.45038817629942696
0.22703552503299482 -0.6702268989587429
0.22758138180130014 -0.889698407177824
0.22836225880376382 -1.1087429341750188
0.22966149471364852 -1.3270983808403458
0.2319769474740274 -1.5442756593877662
0.23590919739755362 -1.7595450287689305
0.24203066360652842 -1.9718808969611763
0.25086268255809785 -2.1798669255156087
0.2628591820660064 -2.3816587143237973
0.27843531793646353 -2.5750210158665587
0.2980037105233438 -2.757418137835258
0.3219779874427882 -2.9260494188465698
0.3507296026758461 -3.0778640138552325
0.3845343428756561 -3.2095986439647053
0.4234733314555508 -3.3178739438655347
0.46729022038982815 -3.3993822160788647
0.5152360864327645 -3.4511168827437495
0.565990773691085 -3.4706597912633503
0.6167454609494013 -3.451116882743634
0.6646913269923266 -3.399382216078632
0.7085082159265871 -3.317873943865198
0.747447204506462 -3.209598643964287
0.7812519447062494 -3.077864013854757
0.8100035599392839 -2.9260494188460515
0.8339778368587053 -2.7574181378347107
0.8535462294455625 -2.575021015865999
0.8691223653159977 -2.381658714323244
0.8811188648238871 -2.179866925515077
0.8899508837754397 -1.9718808969606796
0.8960723499844014 -1.7595450287684746
0.900004599907918 -1.5442756593873577
0.9023200526682911 -1.327098380839988
0.903619288578173 -1.108742934174718
0.9044001655806359 -0.8896984071775788
0.9049460223489408 -0.6702268989585553
0.9052825848980102 -0.4503881762992954
0.9054361375922324 -0.23009607962515133
0.9070596067127888 -0.00688295373141449
0.2802577675886985 -0.007846283283293292
0.28147319754407496 -0.23014957624405144
0.28157914636235515 -0.4503957565282591
0.2818302975780104 -0.6702631929060332
0.28227160116505406 -0.8897598419660402
0.28290944925736683 -1.1088471212718765
0.2839326342667058 -1.3273250048785883
0.2857500746278118 -1.5447610132631506
0.2888905449181007 -1.7604409311373024
0.2938781783865576 -1.9733199674335806
0.30115033151750975 -2.1819611342706056
0.311077527836567 -2.384504514224044
0.32399146562628617 -2.578710144599211
0.3402262789269815 -2.762045957687864
0.3601306283720304 -2.9317109247567137
0.38404160243790547 -3.0846412140540416
0.4122251564544264 -3.217544533614575
0.4448148229751294 -3.326987371244645
0.4817137267124758 -3.4095725386816116
0.5224377061914748 -3.462166919242958
0.5659907736910728 -3.4822187071279123
0.6095438411906672 -3.46216691924284
0.6502678206696565 -3.4095725386813758
0.6871667244069886 -3.326987371244305
0.7197563909276747 -3.2175445336141517
0.7479399449441765 -3.0846412140535606
0.7718509190100318 -2.9317109247561897
0.7917552684550615 -2.7620459576873118
0.8079900817557378 -2.578710144598647
0.8209040195454389 -2.384504514223486
0.8308312158644799 -2.181961134270071
0.8381033689954184 -1.9733199674330806
0.8430910024638643 -1.7604409311368439
0.8462314727541452 -1.5447610132627403
0.8480489131152469 -1.32732500487823
0.8490720981245836 -1.1088471212715751
0.849709946216896 -0.8897598419657949
0.8501512498039393 -0.6702631929058457
0.8504024010195946 -0.45039575652812747
0.8505083498378749 -0.23014957624397658
0.851723779793248 -0.007846283283281654
0.33545512289267204 -0.008610181448426023
0.33634760600274455 -0.23019501134687595
0.33642247934782377 -0.4504025462356884
0.33660081053809027 -0.6702881500986373
0.33693875088531205 -0.8898088835748026
0.3374448722922374 -1.108925764163272
0.33822344323031556 -1.3274852452985906
0.3395880114598401 -1.5451112199441488
0.34197508560415385 -1.7611171551765568
0.3458423656494004 -1.9744433494990488
0.35156699829040977 -2.183624354754143
0.35943504237551754 -2.3867835849370445
0.36969738186240425 -2.5816767998112296
0.38261136504222665 -2.7657775928245285
0.3984605770415376 -2.9362887308697396
0.41753587960889527 -3.090140778615272
0.4400931602061201 -3.2240209870108303
0.46630420525075894 -3.3344617770464273
0.49622095026014384 -3.4180097621953465
0.5296593717257758 -3.471431921353337
0.5659907736910603 -3.49204471973375
0.6023221756563418 -3.471431921353218
0.6357605971219658 -3.4180097621951075
0.6656773421313388 -3.334461777046083
0.6918883871759638 -3.224020987010403
0.7144456677731731 -3.090140778614787
0.7335209703405147 -2.9362887308692116
0.7493701823398101 -2.7657775928239716
0.7622841655196178 -2.5816767998106616
0.7725465050064904 -2.386783584936483
0.780414549091585 -2.183624354753605
0.7861391817325833 -1.974443349498546
0.790006461777821 -1.7611171551760962
0.792393535922129 -1.5451112199437373
0.7937581041516502 -1.3274852452982315
0.7945366750897269 -1.1089257641629706
0.795042796496652 -0.8898088835745573
0.7953807368438734 -0.6702881500984498
0.79555906803414 -0.4504025462355568
0.7956339413792192 -0.23019501134680087
0.7965264244892892 -0.008610181448412899
0.3905485445309533 -0.009205104257054349
0.3911854083236096 -0.2302344282016449
0.39123611733870817 -0.4504090610480699
0.3913487774929956 -0.6703031024361791
0.39158498543377457 -0.8898451481922947
0.3919620395514689 -1.1089846717793974
0.39252857667920155 -1.3275927266208047
0.3934853077020602 -1.5453450365622285
0.3951738505303818 -1.7615882452178857
0.3979616949055952 -1.9752592329189693
0.4021608697925805 -2.1848632536300205
0.40798972581041804 -2.388502439605279
0.4156239146316937 -2.5839282373601047
0.4252438315142817 -2.7686208272345665
0.4370635087595227 -2.9397903319437746
0.4513263167666476 -3.0943680435782945
0.4682696372909537 -3.2290291129051356
0.4880842312896879 -3.3402888800167725
0.5109468171077396 -3.424675029304895
0.5369807722800769 -3.4788937797692334
0.5659907736910476 -3.5001328279073602
0.5950007751020162 -3.4788937797691135
0.6210347302743472 -3.424675029304654
0.6438973160923898 -3.3402888800164257
0.6637119100911131 -3.2290291129047057
0.6806552306154066 -3.094368043577806
0.6949180386225196 -2.9397903319432435
0.7067377158677489 -2.7686208272340065
0.7163576327503265 -2.583928237359534
0.7239918215715918 -2.388502439604715
0.7298206775894194 -2.18486325362948
0.7340198524763965 -1.9752592329184642
0.7368076968516035 -1.7615882452174239
0.7384962396799211 -1.5453450365618162
0.7394529707027774 -1.3275927266204455
0.7400195078305093 -1.1089846717790963
0.7403965619482034 -0.8898451481920493
0.7406327698889823 -0.6703031024359916
0.7407454300432696 -0.45040906104793826
0.7407961390583682 -0.23023442820156978
0.7414330028510226 -0.009205104257039987
0.4455588593188797 -0.00965987881126092
0.4460022961904493 -0.2302696049988869
0.44602661258882453 -0.45041450289799645
0.4460772670267471 -0.6703091074649233
0.44621451228243436 -0.8898679654366731
0.44645884506874695 -1.1090263201448605
0.4468334091773315 -1.3276615970061396
0.4474356374986934 -1.5454841067211005
0.4484887548229347 -1.7618772340714648
0.45026136733902217 -1.9757849891941885
0.4529821095120981 -2.185689911733045
0.4568069096720169 -2.3896722961402466
0.46184549273212055 -2.5854763622964767
0.46820977334467356 -2.770588637916445
0.4760420547830805 -2.94222821976316
0.4855268368648771 -3.0973335592781974
0.4968799065492761 -3.232576933830982
0.5103126981568051 -3.344465904820209
0.5260549114104645 -3.4295437902577195
0.5445014759813017 -3.4845153071154846
0.5659907736910345 -3.5064587222019585
0.5874800714007662 -3.484515307115364
0.6059266359715988 -3.429543790257477
0.6216688492252516 -3.3444659048198604
0.6351016408327728 -3.23257693383055
0.6464547105171633 -3.0973335592777067
0.6559394925989519 -2.942228219762627
0.6637717740373514 -2.7705886379158837
0.6701360546498982 -2.585476362295904
0.6751746377099949 -2.3896722961396812
0.6789994378699072 -2.1856899117325033
0.6817201800429776 -1.9757849891936823
0.6834927925590615 -1.761877234071002
0.6845459098833002 -1.5454841067206877
0.6851481382046609 -1.3276615970057801
0.6855227023132451 -1.1090263201445592
0.6857670350995576 -0.8898679654364278
0.6859042803552448 -0.6703091074647358
0.6859549347931673 -0.45041450289786483
0.6859792511915423 -0.23026960499881177
0.6864226880631109 -0.00965987881124566
0.5005004364987031 -0.010003778539690348
0.5008067423269807 -0.2303028587262942
0.5007999927583863 -0.4504171540404162
0.5007903121575978 -0.6703069358453604
0.500831571725127 -0.8898772697584268
0.5009402231437705 -1.1090498599530823
0.5011248468409075 -1.3277015124425844
0.5014198007982462 -1.545553912704153
0.5019130314111291 -1.7620169543764441
0.5027540553983296 -1.9760513384832243
0.50406972252549 -2.186129119695682
0.5059483418143548 -2.390313943769501
0.5084376228525084 -2.58634092646165
0.5115920535611055 -2.7717019619449794
0.5154879477482239 -2.94362355660544
0.520241067942228 -3.0990554432881816
0.5260294424703191 -3.234679055261667
0.533095058995019 -3.3470047393239164
0.5417231459573594 -3.4325979492223846
0.5523746524914221 -3.488237399961113
0.5659907736910209 -3.5109703913095505
0.5796068948906193 -3.4882373999609917
0.5902584014246799 -3.432597949222141
0.5988864883870163 -3.3470047393235665
0.6059521049117115 -3.2346790552612332
0.6117404794397983 -3.099055443287689
0.6164935996337987 -2.943623556604905
0.6203894938209142 -2.771701961944417
0.6235439245295089 -2.586340926461076
0.6260332055676597 -2.3903139437689345
0.6279118248565214 -2.1861291196951385
0.6292274919836792 -1.9760513384827174
0.6300685159708784 -1.762016954375981
0.6305617465837603 -1.5455539127037399
0.6308567005410984 -1.3277015124422251
0.6310413242382353 -1.109049859952781
0.6311499756568788 -0.8898772697581816
0.631191235224408 -0.6703069358451726
0.6311815546236196 -0.45041715404028454
0.631174805055025 -0.2303028587262191
0.6314811108833019 -0.010003778539674435
0.5553898764207112 -0.010261912361260728
0.5555997516642256 -0.23033669246515856
0.555561251997034 -0.45041538334473213
0.5554924371724 -0.6702970933755729
0.5554402872262619 -0.8898732545943691
0.5554138020900156 -1.1090545214213305
0.5554037396406364 -1.3277141059993969
0.5554005999101223 -1.545575677357116
0.5553997646103324 -1.7620549998547865
0.5553998418073031 -1.9761191539443494
0.555400041195167 -2.1862410914267416
0.5553993738544956 -2.3904807988502204
0.5553929896608544 -2.58657247319583
0.5553774736024805 -2.77200929635231
0.5553617005034079 -2.94402326031536
0.5553971654769547 -3.099576271742067
0.5556223519378132 -3.235371024445158
0.5563139664006118 -3.3479419759412705
0.5578734759921435 -3.4338695645828587
0.5607484087239534 -3.490007930735444
0.565990773691007 -3.513583001755531
0.571233138658061 -3.4900079307353225
0.5741080713898702 -3.433869564582615
0.5756675809814007 -3.3479419759409197
0.5763591954441987 -3.2353710244447247
0.5765843819050579 -3.0995762717415745
0.5766198468786052 -2.944023260314825
0.5766040737795339 -2.7720092963517478
0.5765885577211616 -2.5865724731952557
0.5765821735275216 -2.3904807988496533
0.5765815061868509 -2.1862410914261976
0.5765817055747157 -1.9761191539438423
0.5765817827716867 -1.7620549998543233
0.5765809474718971 -1.5455756773567029
0.5765778077413831 -1.3277141059990376
0.576567745292004 -1.1090545214210294
0.5765412601557579 -0.8898732545941239
0.5764891102096198 -0.6702970933753851
0.5764202953849858 -0.4504153833446004
0.5763817957177944 -0.2303366924650835
0.5765916709613084 -0.010261912361244411
0.6102381922138009 -0.010458249590028239
0.6103816523504509 -0.23037063600365978
0.610314409182856 -0.4504089140261128
0.6101884997774627 -0.6702797558152077
0.610045687835933 -0.889856344346732
0.6098862204554004 -1.109040182000413
0.6096823470831724 -1.3276989534094712
0.6093809951794539 -1.5455533106090995
0.608886215974242 -1.7620168810271555
0.6080455761483976 -1.9760513716053685
0.6067307220867685 -2.186129176762287
0.6048496581073245 -2.3903123577835945
0.6023468650811131 -2.5863358559642866
0.5991618106916802 -2.7716936062099418
0.5952373770411056 -2.943623585195134
0.5905595841917827 -3.0991039007227994
0.5852148571803447 -3.2348662784157116
0.5794574821018706 -3.3474865775615608
0.57371675519302 -3.4335540256800785
0.568618570847931 -3.4899415789917283
0.5659907736909928 -3.5144020312668287
0.5633629765340542 -3.4899415789916066
0.5582647921889653 -3.4335540256798343
0.5525240652801177 -3.3474865775612104
0.5467666902016485 -3.2348662784152786
0.541421963190216 -3.099103900722307
0.5367441703408982 -2.943623585194599
0.5328197366903286 -2.7716936062093804
0.5296346823009012 -2.5863358559637137
0.5271318892746951 -2.3903123577830274
0.5252508252952559 -2.1861291767617437
0.5239359712336309 -1.9760513716048616
0.5230953314077889 -1.7620168810266923
0.5226005522025784 -1.5455533106086863
0.5222992002988608 -1.3276989534091117
0.5220953269266331 -1.109040182000112
0.5219358595461007 -0.8898563443464869
0.5217930476045712 -0.6702797558150201
0.5216671381991781 -0.4504089140259811
0.521599895031583 -0.23037063600358484
0.5217433551682331 -0.010458249590011692
0.6650585903136494 -0.01060880703559571
0.6651564497910423 -0.23040269794699866
0.6650634417633691 -0.45039816134113453
0.6648835623825284 -0.6702551418512981
0.6646535531913245 -0.8898271471811142
0.6643644160120539 -1.1090072619155313
0.6639717599968881 -1.3276564373453328
0.6633636186817609 -1.5454827811750995
0.6623098475157266 -1.761877133343497
0.6605385559145674 -1.9757852365911512
0.6578181687040101 -2.185689721494298
0.6539901056136109 -2.389668816611165
0.6489394240077873 -2.585465923149182
0.6425492141227943 -2.770571981628983
0.634694675846327 -2.942229153317799
0.6252854600900704 -3.0974327002368054
0.6143493804141429 -3.2329507706944334
0.6021089571780315 -3.3454089631708968
0.5890515220242089 -3.431452495041609
0.5762662303429017 -3.488146864035751
0.5659907736909792 -3.5135978472936547
0.5557153170390564 -3.4881468640356297
0.5429300253577516 -3.431452495041366
0.5298725902039343 -3.3454089631705473
0.5176321669678317 -3.232950770694002
0.5066960872919142 -3.0974327002363156
0.49728687153566686 -2.9422291533172658
0.4894323332592084 -2.7705719816284233
0.4830421233742252 -2.5854659231486106
0.47799144176841074 -2.3896688166106
0.47416337867801983 -2.1856897214937563
0.4714429914674697 -1.9757852365906454
0.46967169986631535 -1.7618771333430345
0.4686179287002842 -1.5454827811746865
0.4680097873851586 -1.3276564373449735
0.46761713136999356 -1.1090072619152305
0.4673279941907234 -0.8898271471808691
0.46709798499951954 -0.6702551418511105
0.4669181056186791 -0.4503981613410027
0.466825097591006 -0.23040269794692375
0.4669229570683987 -0.010608807035578954
0.7198677782008921 -0.010721181832025427
0.7199293121260172 -0.23043128202306248
0.7198131477836801 -0.4503834881378753
0.7195828486554129 -0.6702236586846377
0.7192692808468483 -0.8897864026988906
0.7188559772556204 -1.1089568679446598
0.718273145516857 -1.3275845432618592
0.7173118325936522 -1.545343108399014
0.7156249522072692 -1.7615884816777245
0.7128386227409867 -1.9752596846124557
0.7086388244578335 -2.18486256640767
0.7028063952852966 -2.3884972116042564
0.6951643885138602 -2.583913761003071
0.6855308279753303 -2.768598364165042
0.6737037055192485 -2.9397936343773345
0.659507705743298 -3.0945120033603617
0.642891396566174 -3.229563781394544
0.6240562918140367 -3.341641252463062
0.6036791588884834 -3.427519062894525
0.5832669160152562 -3.4844937083047243
0.5659907736909661 -3.5112109138324086
0.5487146313666759 -3.484493708304603
0.5283023884934526 -3.4275190628942824
0.5079252555679074 -3.3416412524627153
0.48909015081578283 -3.229563781394116
0.47247384163867234 -3.094512003359874
0.45827784186273535 -2.939793634376804
0.44645071940666625 -2.768598364164485
0.43681715886815004 -2.5839137610025027
0.4291751520967264 -2.3884972116036933
0.4233427229242016 -2.184862566407131
0.4191429246410587 -1.9752596846119517
0.41635659517478346 -1.7615884816772631
0.4146697147884053 -1.5453431083986013
0.4137084018652032 -1.3275845432615
0.4131255701264409 -1.1089568679443587
0.4127122665352136 -0.8897864026986455
0.41239869872664925 -0.67022365868445
0.41216839959838214 -0.45038348813774354
0.41205223525604523 -0.23043128202298757
0.4121137691811702 -0.010721181832008552
0.7746763698634246 -0.010801295136945591
0.7747065749474396 -0.23045493562733643
0.7745684201205764 -0.45036510370621363
0.7742908577458906 -0.6701858161261607
0.7738977931737558 -0.8897350960010516
0.7733662784973917 -1.108889656515664
0.7725737101737221 -1.3274739090409176
0.7712088003092521 -1.5451094524256272
0.7688245369315914 -1.7611179832596027
0.764958158561511 -1.9744437943080384
0.7592317238442019 -2.18362292975407
0.7513605104916667 -2.386777105281281
0.7410971446812236 -2.5816608757572155
0.7281888683742421 -2.765754329640469
0.7123564648619842 -2.9362970580634276
0.6933322034033753 -3.090316433587907
0.6709749920686151 -3.2246721586340072
0.6455002776007942 -3.336161084127752
0.6178065071893869 -3.421745534637821
0.5899639969028965 -3.479051665395711
0.5659907736909529 -3.507319928852055
0.5420175504790106 -3.4790516653955903
0.514175040192526 -3.4217455346375805
0.4864812697811292 -3.336161084127408
0.4610065553133236 -3.2246721586335823
0.438649343978581 -3.090316433587424
0.4196250825199891 -2.9362970580629004
0.40379267900774823 -2.765754329639915
0.3908844027007843 -2.581660875756651
0.3806210368903579 -2.386777105280722
0.3727498235378379 -2.183622929753534
0.3670233888205422 -1.974443794307537
0.3631570104504714 -1.7611179832591426
0.3607727470728176 -1.5451094524252158
0.35940783720835134 -1.3274739090405587
0.3586152688846836 -1.1088896565153632
0.35808375420831995 -0.8897350960008064
0.35769068963618555 -0.670185816125973
0.3574131272615 -0.45036510370608185
0.3572749724346369 -0.23045493562726155
0.3573051775186518 -0.010801295136928615
0.8294913744188368 -0.010854597196435568
0.8294942246610363 -0.23047257352409914
0.8293344916234004 -0.4503430483791355
0.8290125490838489 -0.6701421279620786
0.8285452884723801 -0.8896745772869094
0.8278943880400182 -1.1088037682348038
0.8268633314881649 -1.327311461509593
0.8250477086927388 -1.5447600948227516
0.8219101281975535 -1.7604422830253883
0.8169222387663515 -1.9733201176569675
0.8096474408937814 -2.1819588442549853
0.799718289862999 -2.3844975754935382
0.7868117083893204 -2.5786961894814104
0.7706053022274313 -2.7620287243403365
0.7507478531072989 -2.9317283575240176
0.726878876104935 -3.0848334234087664
0.6987808832359198 -3.2182650424675803
0.6666877502036237 -3.328963498544068
0.6317491701604376 -3.414150815219001
0.5966050545984141 -3.4718639373925595
0.56599077369094 -3.501942601484203
0.5353764927834681 -3.4718639373924396
0.5002323772214522 -3.414150815218763
0.46529379717827957 -3.328963498543727
0.4332006641460016 -3.2182650424671606
0.4051026712770073 -3.0848334234082877
0.3812336942746644 -2.931728357523495
0.3613762451545528 -2.762028724339788
0.3451698389926849 -2.5786961894808504
0.33226325751902697 -2.3844975754929836
0.32233410648826294 -2.1819588442544533
0.3150593086157091 -1.9733201176564692
0.3100714191845191 -1.7604422830249304
0.3069338386893426 -1.544760094822341
0.30511821589392163 -1.3273114615092347
0.30408715934207087 -1.108803768234503
0.3034362589097099 -0.8896745772866643
0.30296899829824137 -0.670142127961891
0.30264705575869005 -0.45034304837900374
0.30248732272105433 -0.23047257352402425
0.3024901729632538 -0.010854597196418523
0.8843177010471472 -0.01088634360493123
0.884297389773867 -0.2304835982303291
0.8841167469039332 -0.45031725170530706
0.8837528582940598 -0.6700932369178882
0.8832148189000381 -0.8896053866012279
0.882435281368949 -1.1086940983263047
0.8811356452061463 -1.327083941387467
0.8788231553880386 -1.5442757127819562
0.8748922838730961 -1.7595466116206049
0.8687693125016428 -1.9718804886665104
0.8599343259840005 -2.1798638246360102
0.8479382863758662 -2.381652393292962
0.8323783927743249 -2.5750125969694024
0.8128587949280633 -2.7574139575070284
0.788962384799939 -2.926082059885932
0.7602693758076686 -3.078064304188138
0.7264912862653057 -3.210350247118463
0.6878700090911593 -3.3200626533557402
0.645783278367093 -3.4047542655000553
0.6033606837675356 -3.4629344973036615
0.5659907736909272 -3.495051147683451
0.528620863614322 -3.4629344973035434
0.486198269014774 -3.40475426549982
0.4441115382907242 -3.320062653355404
0.40549026111659864 -3.2103502471180483
0.3717121715742598 -3.0780643041876647
0.34301916258201454 -2.9260820598854145
0.31912275245391464 -2.757413957506485
0.2996031546076781 -2.5750125969688487
0.28404326100616073 -2.3816523932924127
0.27204722139804827 -2.1798638246354822
0.2632122348804249 -1.9718804886660157
0.25708926350898603 -1.7595466116201497
0.25315839199405415 -1.5442757127815474
0.2508459021759533 -1.3270839413871098
0.24954626601315394 -1.108694098326004
0.248766728482066 -0.889605386600983
0.24822868908804452 -0.6700932369177007
0.24786480047817155 -0.4503172517051753
0.24768415760823786 -0.23048359823025416
0.24766384633495758 -0.010886343604914132
0.9391585282905939 -0.010901770707088032
0.9391202913425529 -0.23048791160074678
0.9389206166146395 -0.4502877057456257
0.9385170104537971 -0.6700397221223675
0.9379091106848919 -0.8895273896850715
0.9369852006860917 -1.108554248545906
0.9353819477200275 -1.3267762160371142
0.9325312183967139 -1.5436416741005332
0.9277976679972212 -1.7584249244202828
0.9205335552768459 -1.9701208853874295
0.910138428352827 -2.177334844536109
0.8960782128777898 -2.378238831720649
0.8778645542109801 -2.5706062067589173
0.8550255298666173 -2.7519049423578146
0.8270905337125884 -2.9193576067300655
0.7936084172055529 -3.070021418915361
0.7542716972650085 -3.2009553342376025
0.7092979163353457 -3.309489516343462
0.6601707679977623 -3.3935656101455236
0.6103880238271471 -3.452231158560849
0.5659907736909144 -3.486580158976928
0.521593523554686 -3.4522311585607324
0.47181077938408195 -3.393565610145292
0.4226836310465178 -3.3094895163431306
0.3777098501168791 -3.200955334237194
0.3383731301763622 -3.0700214189148944
0.30489101366935534 -2.919357606729555
0.276956017515355 -2.7519049423572777
0.25411699317102054 -2.5706062067583697
0.2359033345042386 -2.3782388317201058
0.22184311902922627 -2.177334844535587
0.21144799210522888 -1.970120885386939
0.20418387938487054 -1.7584249244198307
0.19945032898539014 -1.5436416741001266
0.1965995996620849 -1.326776216036758
0.19499634669602478 -1.1085542485456057
0.19407243669722624 -0.8895273896848265
0.1934645369283213 -0.67003972212218
0.19306093076747932 -0.4502877057454939
0.19286125603956605 -0.23048791160067186
0.19282301909152513 -0.010901770707070912
0.994015161505101 -0.010906186565710406
0.9939661628625991 -0.2304859901926993
0.9937519137262052 -0.45025457097292987
0.9933103603345662 -0.6699821669715337
0.9926288953311256 -0.8894384691414218
0.9915385984231564 -1.108375325735267
0.9895929241871504 -1.326374477977012
0.9861904667321929 -1.5428521845555336
0.9806485017292934 -1.7570743387579475
0.9722483261131197 -1.968040364571358
0.9603045296695596 -2.1743723124464407
0.9441927584947557 -2.37425711569935
0.9233375099118847 -2.565476373074962
0.8971874691083342 -2.7454999872152075
0.865218064219479 -2.9115559379491867
0.8269895533242263 -3.0607232289528525
0.7822499200275289 -3.190128590239695
0.7312005567595955 -3.2972949808054506
0.6751882817227143 -3.380588149064357
0.6178895186880083 -3.4396858538327875
0.5659907736909013 -3.4764179891079205
0.5140920286937998 -3.4396858538326733
0.4567932656591069 -3.380588149064129
0.400780990622248 -3.297294980805125
0.349731627354342 -3.1901285902392935
0.3049919940576759 -3.060723228952393
0.2667634831624554 -2.9115559379486835
0.2347940782736326 -2.7454999872146773
0.20864403747011426 -2.5654763730744223
0.18778878888727416 -2.3742571156988137
0.17167701771249833 -2.1743723124459247
0.15973322126896242 -1.9680403645708724
0.1513330456528077 -1.7570743387574992
0.1457910806499224 -1.54285218455513
0.14238862319497436 -1.3263744779766569
0.1404429489589736 -1.1083753257349678
0.13935265205100644 -0.8894384691411769
0.1386711870475664 -0.6699821669713462
0.13822963365592777 -0.4502545709727981
0.13801538451953413 -0.23048599019262442
0.13796638587703222 -0.01090618656569328
1.0488863902280907 -0.010904973796043344
1.0488371678609323 -0.230479077871343
1.0486173689868636 -0.4502184451154714
1.048138597344405 -0.669920490191737
1.0473727206385703 -0.8893353024949748
1.0460863815388164 -1.1081449983646046
1.0437741535133243 -1.3258704680645996
1.0398126432845585 -1.541904364979023
1.0334671117737944 -1.7554945785174463
1.0239467608552235 -1.9656412726415664
1.0104768148096572 -2.1709793933836603
0.9923381503694183 -2.369710556924268
0.9688626577026075 -2.5596255037595337
0.9394205687624687 -2.73820096231536
0.9034474166633244 -2.902681866457521
0.8605168582770834 -3.050186749595656
0.8104864249168007 -3.1779218497836936
0.7536839197752162 -3.2835698662133948
0.6912366386428201 -3.365846853486259
0.6261969775634525 -3.4251808072438408
0.5659907736908882 -3.4643793897081276
0.5057845698183302 -3.4251808072437284
0.4407449087389777 -3.365846853486036
0.37829762760660685 -3.2835698662130754
0.32149512246505346 -3.1779218497832997
0.27146468910480626 -3.0501867495952038
0.22853413071860113 -2.902681866457027
0.19256097861949295 -2.7382009623148384
0.16311888967938973 -2.5596255037590026
0.1396433970126136 -2.369710556923739
0.12150473257240565 -2.170979393383151
0.10803478652686613 -1.9656412726410863
0.09851443560831616 -1.7554945785170024
0.09216890409756799 -1.5419043649786222
0.08820739386881285 -1.3258704680642464
0.08589516584332714 -1.1081449983643057
0.08460882674357575 -0.8893353024947301
0.08384295003774171 -0.6699204901915495
0.08336417839528351 -0.4502184451153396
0.08314437952121506 -0.2304790778712681
0.08309515715405674 -0.010904973796026235
1.1037671525423092 -0.010903409842130011
1.1037343036803078 -0.230469718114084
1.1035258211564636 -0.45018057390985855
1.1030072550032977 -0.6698532381822773
1.102135500710998 -0.8892108538766328
1.1006249846210818 -1.1078545218756342
1.0979334225304709 -1.325259844531319
1.0934108207776403 -1.5407972532282856
1.0862756670404947 -1.75368848941365
1.0756616470691276 -1.9629289241434205
1.0607006686222704 -2.1671625187781207
1.0405688484724551 -2.36460463687434
1.0145032997562777 -2.553058777891566
0.9818104271289696 -2.7300154864497648
0.941883072731196 -2.8927452880621196
0.8943070590718892 -3.0384251087531604
0.8390453697266255 -3.164367246794288
0.7766572021907535 -3.2684124232323675
0.7084488617777622 -3.3495117173469526
0.636518133200688 -3.40858222353068
0.5659907736908746 -3.4499999999999957
0.49546341418106826 -3.4085822235305705
0.4235326856040113 -3.349511717346736
0.3553243451910485 -3.2684124232320557
0.292936177655212 -3.1643672467939026
0.23767448830998797 -3.0384251087527177
0.19009847465072077 -2.8927452880616347
0.15017112025298718 -2.730015486449253
0.11747824762571828 -2.553058777891044
0.09141269890957895 -2.3646046368738203
0.07128087875979791 -2.1671625187776185
0.056319900312969656 -1.9629289241429464
0.04570588034162558 -1.7536884894132108
0.038570726604497306 -1.5407972532278884
0.03404812485167852 -1.3252598445309682
0.03135656276107473 -1.1078545218753362
0.02984604667116193 -0.8892108538763887
0.028974292378863068 -0.6698532381820895
0.028455726225697718 -0.45018057390972693
0.028247243701853775 -0.23046971811400913
0.028214394839852514 -0.010903409842112915
SCALARS Stress float 6
LOOKUP_TABLE default
-1197.5283255047152 -1995.313476185374 -1519.9723682534723 -23.294653138571757 0.0 0.0
1321.148411813841 772.9005193921071 977.1363918605302 -22.027523194271375 0.0 0.0
592.3222157366893 146.20031551709525 234.6866684186507 -40.03523725030124 0.0 0.0
480.78593696529026 24.968823564059683 155.60075931191244 -1.9428533324809605 0.0 0.0
599.7954064417276 70.7259889389894 235.6986513908957 2.0295927306715615 0.0 0.0
710.5127788224269 116.22164823670937 350.79485733159186 1.7491107494995504 0.0 0.0
830.7699385495978 162.43501254075508 465.6611184089399 0.7139707567212579 0.0 0.0
952.4067538951836 224.87568692923355 572.4580382919206 -0.6150447852924432 0.0 0.0
1081.9135327151291 300.9079167724416 679.3428361309088 -2.1541270081261317 0.0 0.0
1226.769768936303 396.792080614063 800.5994479163376 -3.8129766534669782 0.0 0.0
1392.1751669211872 517.2559993378478 943.5266064060701 -5.421220467969789 0.0 0.0
1578.3462483888381 662.8678841686087 1109.0940154080868 -6.732391709788594 0.0 0.0
1780.52357626095 827.3371488764603 1291.971702749106 -7.548436769519613 0.0 0.0
1991.9399611942015 1003.7208674027082 1485.4310058310252 -8.181098131484248 0.0 0.0
2203.5964686687726 1182.8659513486166 1680.387711342829 -8.600118378557672 0.0 0.0
2405.3713735980327 1354.7512725152797 1866.7966291547486 -8.755406952767451 0.0 0.0
2586.913224108789 1509.5217105510585 2034.6087443891442 -8.488493420087197 0.0 0.0
2737.6567830011995 1637.252015186786 2173.6153406836434 -7.704209630548334 0.0 0.0
2854.343145146907 1735.380703195134 2280.815152672071 -6.576972490640258 0.0 0.0
2923.6576352652673 1791.5163310732955 2343.378309999702 -7.795263456104554 0.0 0.0
2915.208021314289 1781.494255757313 2334.401634768083 3.3711700098137953e-11 0.0 0.0
2923.657635265458 1791.5163310735127 2343.3783099998473 7.795263456005138 0.0 0.0
2854.3431451461856 1735.3807031944684 2280.8151526713855 6.576972490802426 0.0 0.0
2737.6567830011077 1637.2520151867907 2173.6153406834005 7.704209630503215 0.0 0.0
2586.9132241075445 1509.5217105499194 2034.6087443881224 8.488493419944339 0.0 0.0
2405.3713735958163 1354.7512725131874 1866.7966291528646 8.755406952805394 0.0 0.0
2203.596468669342 1182.8659513493667 1680.3877113429296 8.600118378668656 0.0 0.0
1991.9399611933352 1003.7208674020084 1485.4310058301853 8.181098131305621 0.0 0.0
1780.5235762607476 827.3371488764844 1291.9717027487259 7.5484367696085695 0.0 0.0
1578.3462483874723 662.8678841674708 1109.0940154071907 6.732391709587574 0.0 0.0
1392.1751669202174 517.255999337139 943.5266064051963 5.421220468108146 0.0 0.0
1226.7697689349395 396.7920806129371 800.5994479152122 3.81297665351933 0.0 0.0
1081.913532714651 300.907916772251 679.3428361304113 2.1541270079550685 0.0 0.0
952.4067538944015 224.8756869286858 572.458038291286 0.6150447853663863 0.0 0.0
830.7699385496408 162.43501254112147 465.6611184087499 -0.713970756857611 0.0 0.0
710.512778822155 116.22164823674815 350.7948573311996 -1.7491107495962073 0.0 0.0
599.7954064413498 70.72598893895054 235.69865139059112 -2.029592730666266 0.0 0.0
480.7859369649625 24.968823563920488 155.60075931175254 1.9428533325178483 0.0 0.0
592.3222157363081 146.20031551691173 234.6866684184195 40.03523725020319 0.0 0.0
1321.1484118136257 772.9005193919531 977.1363918601376 22.027523194330634 0.0 0.0
-1197.5283255018526 -1995.3134761826116 -1519.9723682507147 23.294653137873297 0.0 0.0
-1525.2943005024774 -2293.973961388708 -1800.7473767460701 -24.376585724759302 0.0 0.0
900.4503183006746 427.63521731613025 612.0311515453296 -30.477505836255414 0.0 0.0
412.79697101598106 58.070800901423645 139.7728363708765 -34.110850845083306 0.0 0.0
424.60116269985997 4.565686803542216 130.12208897916935 -15.948890305179681 0.0 0.0
533.2813946354437 31.29666191457301 191.1464757157412 -15.987855943200856 0.0 0.0
631.1004304037469 44.35738918623707 278.526196029127 -21.09015933923564 0.0 0.0
714.2832653526182 60.78895546438855 364.4045721619821 -23.04668906573783 0.0 0.0
794.486677277683 80.11945352112072 430.70822348294587 -23.5517028916503 0.0 0.0
868.7538376291111 100.23511832346975 482.34116523939497 -24.031189628512305 0.0 0.0
939.4408886832433 122.15790433899615 529.6914457403025 -24.658843080638647 0.0 0.0
1008.92414753137 147.35360466117757 577.321668251801 -24.979404542781506 0.0 0.0
1078.7360609579882 176.3762235908395 626.817286882699 -24.91394598564611 0.0 0.0
1148.2620965136157 209.27788912348294 678.0369877508825 -24.479662052504384 0.0 0.0
1214.8989447415308 241.30339749627404 727.3561966425185 -23.878666726083107 0.0 0.0
1272.8774045082446 267.21766013202375 769.2887916545153 -23.14777197493232 0.0 0.0
1317.5474330183883 282.4059558671085 799.2043768043613 -22.0865483947345 0.0 0.0
1345.8267046348758 284.1475363303269 814.2045509421256 -20.44644062796627 0.0 0.0
1357.882607823823 273.2193891754835 814.7605926057935 -18.177133452593516 0.0 0.0
1350.5579799315756 247.3402306954384 798.2541851102634 -15.753853315697752 0.0 0.0
1291.490521268313 175.44673541781165 733.4566679063345 -15.368153548446847 0.0 0.0
1189.6676820430234 72.69090167458506 632.3133426426708 1.127098414599459e-12 0.0 0.0
1291.4905212681977 175.44673541774003 733.4566679062383 15.36815354846025 0.0 0.0
1350.5579799312775 247.34023069519816 798.2541851100132 15.75385331590067 0.0 0.0
1357.8826078242193 273.21938917596435 814.7605926060788 18.17713345260607 0.0 0.0
1345.8267046347387 284.1475363302883 814.2045509421321 20.446440627873326 0.0 0.0
1317.5474330175437 282.4059558663944 799.2043768037147 22.086548394771388 0.0 0.0
1272.8774045086486 267.2176601326006 769.2887916547974 23.147771975016042 0.0 0.0
1214.898944741402 241.303397496289 727.3561966424304 23.878666726005733 0.0 0.0
1148.2620965134038 209.2778891234762 678.0369877507026 24.479662052462743 0.0 0.0
1078.736060957507 176.37622359058122 626.8172868824822 24.913945985549944 0.0 0.0
1008.924147531001 147.35360466107235 577.3216682515865 24.979404542960864 0.0 0.0
939.4408886820646 122.15790433802707 529.6914457395421 24.65884308056451 0.0 0.0
868.753837629178 100.23511832381217 482.34116523938485 24.031189628377078 0.0 0.0
794.4866772775565 80.11945352128159 430.7082234827954 23.5517028916752 0.0 0.0
714.2832653523775 60.788955464426294 364.4045721616972 23.046689065621436 0.0 0.0
631.1004304031445 44.35738918586711 278.52619602859147 21.090159339192763 0.0 0.0
533.2813946353067 31.29666191480664 191.1464757156394 15.98785594319089 0.0 0.0
424.6011626996267 4.5656868035811975 130.12208897911646 15.948890305066275 0.0 0.0
412.796971015817 58.070800901304644 139.77283637079356 34.110850844952076 0.0 0.0
900.450318300192 427.63521731578044 612.0311515447478 30.477505836244163 0.0 0.0
-1525.294300500438 -2293.973961386649 -1800.7473767439449 24.376585724157955 0.0 0.0
-1271.0425286268196 -2005.1297160660076 -1519.4117360825207 -62.68832966869411 0.0 0.0
709.0700325888718 337.098662593512 467.7785860961988 -98.6316174807102 0.0 0.0
288.32717690948516 66.00788999959832 106.31137524648452 -36.68623132494664 0.0 0.0
364.0968976531467 0.6428737568377263 109.26770346014555 -37.248505634046346 0.0 0.0
488.12235069322395 22.049760071563814 163.8385884663527 -38.34307360776402 0.0 0.0
598.0966399947752 39.4461567838188 248.38595089477752 -40.54742396910938 0.0 0.0
685.0038857232436 56.55930060815495 339.79242987843185 -42.99805398102622 0.0 0.0
765.918372584401 72.35593679505624 409.43770261804065 -44.03911682396882 0.0 0.0
837.8225408530058 89.33897113213983 460.5575145937999 -45.14376208382383 0.0 0.0
904.813833490204 107.31562847430212 504.56576662251007 -46.144199304267396 0.0 0.0
970.6033819580039 129.1998367652851 548.7668348598194 -46.36234146804319 0.0 0.0
1036.917029219549 155.93541283039855 595.3747270083168 -45.77477205712976 0.0 0.0
1103.594241409506 185.58667391772923 643.5603050191366 -44.82590282385625 0.0 0.0
1166.462102243252 215.06721815997318 689.7495652218047 -43.635025075694614 0.0 0.0
1222.047530612418 239.06698486434874 729.5306491788787 -42.18747280724956 0.0 0.0
1265.8105575364862 253.7164979906344 758.7109340272091 -40.22162346223896 0.0 0.0
1295.3076671040865 256.8346560338138 775.0073566270169 -37.370200286467295 0.0 0.0
1307.4773549194363 245.97667775690755 775.7175683141566 -33.67296159364125 0.0 0.0
1291.909105586274 211.80185327108495 751.1071239209543 -29.81991287167137 0.0 0.0
1257.4795950348541 164.7274410458033 710.7142649540159 -26.563946484935137 0.0 0.0
1135.8242438901389 42.69614305367848 590.2695390838849 -7.331912854624534e-11 0.0 0.0
1257.479595035694 164.72744104671037 710.7142649546017 26.563946485058935 0.0 0.0
1291.9091055856845 211.80185327054187 751.1071239206107 29.819912871748507 0.0 0.0
1307.4773549190031 245.97667775654455 775.7175683138399 33.67296159363235 0.0 0.0
1295.307667103824 256.8346560336664 775.00735662682 37.370200286451166 0.0 0.0
1265.810557536667 253.7164979909347 758.7109340274671 40.22162346229372 0.0 0.0
1222.0475306120327 239.06698486411028 729.5306491785561 42.18747280716788 0.0 0.0
1166.462102242672 215.0672181595795 689.7495652214105 43.635025075794324 0.0 0.0
1103.5942414095064 185.58667391790965 643.5603050190998 44.825902823776076 0.0 0.0
1036.917029218971 155.93541283006158 595.3747270079036 45.774772057144325 0.0 0.0
970.6033819568602 129.19983676434185 548.7668348590888 46.36234146807246 0.0 0.0
904.8138334894742 107.31562847381426 504.56576662207846 46.14419930416876 0.0 0.0
837.8225408532367 89.33897113262469 460.55751459391104 45.14376208377213 0.0 0.0
765.9183725844567 72.35593679543426 409.4377026180154 44.03911682397002 0.0 0.0
685.0038857227349 56.559300607875755 339.7924298779411 42.998053980914925 0.0 0.0
598.0966399941633 39.446156783520145 248.38595089427307 40.547423969097515 0.0 0.0
488.12235069273464 22.0497600713125 163.83858846606677 38.343073607741935 0.0 0.0
364.0968976529387 0.6428737568768816 109.2677034601075 37.24850563401258 0.0 0.0
288.3271769093115 66.00788999931702 106.31137524634846 36.68623132483317 0.0 0.0
709.0700325882024 337.09866259316095 467.77858609556233 98.63161748061307 0.0 0.0
-1271.0425286247837 -2005.1297160638853 -1519.4117360803625 62.688329668379836 0.0 0.0
-1036.582216661505 -1740.0527675335488 -1262.9258304003347 -76.21482609822833 0.0 0.0
539.7898369448301 241.1870448919356 341.79144547301956 -145.1750438010936 0.0 0.0
210.1051576805265 57.58583059494538 80.30729648264156 -58.651001604599664 0.0 0.0
302.84878768707233 6.206347047754956 92.64675478612325 -58.88624159870787 0.0 0.0
432.9755183763201 11.94426794845448 136.73717001024602 -62.98705148479155 0.0 0.0
552.2263611413318 33.15080621655301 214.2466010346372 -61.4595178373699 0.0 0.0
652.7785919031417 50.24391503518892 309.43007168611325 -64.31027976219966 0.0 0.0
732.42083578472 64.76634239729762 384.0852798982396 -64.79766589090077 0.0 0.0
802.8330154660367 78.63819388040893 436.20655214876615 -65.96845572151153 0.0 0.0
866.5171532286072 93.06497518824195 477.69718984103184 -66.95027407624427 0.0 0.0
928.2974625010057 111.37653220463908 518.272311295214 -66.85019856327814 0.0 0.0
991.2340267220087 134.75124574570933 561.5281345454295 -65.8374214573111 0.0 0.0
1054.3557157700907 162.23311558911885 606.8796750083517 -64.36792203067786 0.0 0.0
1114.0612808793048 188.04903956479703 649.6775912616706 -62.72890612409146 0.0 0.0
1166.822004519905 209.95606850604327 687.0039803762046 -60.643802428694556 0.0 0.0
1210.445447060857 225.04801208576094 716.3355257711845 -57.850322813479394 0.0 0.0
1241.1305048258646 229.22087496331943 733.7645817667805 -54.12976077497911 0.0 0.0
1253.050507615761 217.88134824616876 734.1706831240568 -49.48379329753105 0.0 0.0
1242.6097586546023 188.5151598551995 714.4985284280166 -43.952273038233685 0.0 0.0
1221.3149537289717 153.90606480541965 686.7465909689917 -36.4533507253723 0.0 0.0
1050.324147462593 -17.178784261116007 517.87796006928 -2.1440627051561023e-12 0.0 0.0
1221.3149537308943 153.90606480740445 686.7465909704079 36.45335072551033 0.0 0.0
1242.6097586539647 188.5151598546094 714.4985284276486 43.95227303827096 0.0 0.0
1253.0505076157574 217.88134824625845 734.1706831240868 49.483793297557085 0.0 0.0
1241.1305048257955 229.22087496335078 733.7645817666714 54.129760775028195 0.0 0.0
1210.4454470608964 225.04801208592528 716.3355257712637 57.85032281351166 0.0 0.0
1166.8220045200117 209.95606850629815 687.0039803761628 60.643802428613036 0.0 0.0
1114.061280877826 188.0490395634446 649.6775912606532 62.72890612410089 0.0 0.0
1054.3557157713517 162.2331155906067 606.8796750092342 64.3679220306214 0.0 0.0
991.2340267216813 134.75124574561892 561.528134545188 65.83742145735658 0.0 0.0
928.2974625001721 111.37653220398086 518.2723112946491 66.85019856319049 0.0 0.0
866.5171532286754 93.06497518860401 477.6971898410705 66.95027407627295 0.0 0.0
802.8330154660953 78.6381938807814 436.20655214879343 65.96845572159756 0.0 0.0
732.4208357841947 64.76634239708073 384.08527989782937 64.79766589095743 0.0 0.0
652.7785919026849 50.24391503509807 309.43007168567505 64.31027976226895 0.0 0.0
552.2263611409771 33.150806216543295 214.2466010343298 61.459517837328484 0.0 0.0
432.9755183758019 11.944267948285997 136.73717001003055 62.9870514847096 0.0 0.0
302.8487876869527 6.206347047594128 92.64675478603381 58.88624159865705 0.0 0.0
210.10515768043084 57.58583059472695 80.30729648254733 58.651001604452425 0.0 0.0
539.7898369442796 241.18704489172404 341.7914454725203 145.17504380099956 0.0 0.0
-1036.5822166596342 -1740.0527675315486 -1262.9258303983559 76.21482609808065 0.0 0.0
-833.2622003698513 -1509.8695286877607 -1037.7783504126417 -75.23513296444017 0.0 0.0
414.859322023796 157.6566128605568 243.95610532418377 -176.65837728017183 0.0 0.0
154.34649025404613 45.965372585468245 60.09355885185431 -88.67064311941452 0.0 0.0
247.71715971538376 12.389236097904146 78.03542257476204 -82.31611600877898 0.0 0.0
368.62450907066153 7.005603911354858 112.79771900295266 -88.12095683301156 0.0 0.0
498.07416663373624 20.956326402935453 176.90185218216612 -86.98961822803199 0.0 0.0
608.5921203412036 42.517047655554094 271.33180529529966 -85.81455487683783 0.0 0.0
693.0878776218691 58.00224361210299 354.0234463137848 -85.96284861248085 0.0 0.0
763.0125188396465 68.48625431308477 408.56357829829824 -86.47397399859497 0.0 0.0
823.6066096930028 79.17850073918697 448.30421674985155 -87.03450016155804 0.0 0.0
881.8601444612519 93.6911893835806 485.57594207088414 -86.4850080723608 0.0 0.0
940.8811527913812 113.55866882464979 525.190042615202 -85.00949907228654 0.0 0.0
1000.5365778628058 137.44850035929383 567.036079942705 -83.20395441074689 0.0 0.0
1056.8271255439488 161.47276694424878 607.27646033786 -81.0977976625307 0.0 0.0
1107.1877420856995 180.91683700285432 642.195607783028 -78.44713817698658 0.0 0.0
1149.6000063558963 194.53440856745607 670.1754196634777 -75.04078982483023 0.0 0.0
1181.6697246848762 200.46620984677378 689.1847577665974 -70.73324315549247 0.0 0.0
1197.998420755037 193.247662066495 693.855728836179 -65.39928132063353 0.0 0.0
1194.4986512308078 170.0146702271145 680.6928876933548 -58.04251938599574 0.0 0.0
1179.3500822734718 140.05387572287043 658.281059901155 -46.623532791688866 0.0 0.0
947.4826672780422 -91.56439982411446 429.7832358521233 1.1540812749899487e-10 0.0 0.0
1179.3500822751 140.0538757245594 658.2810599023118 46.62353279186309 0.0 0.0
1194.4986512306884 170.01467022709323 680.6928876932469 58.04251938612667 0.0 0.0
1197.9984207549278 193.24766206645808 693.8557288361231 65.39928132068968 0.0 0.0
1181.669724684776 200.4662098468144 689.1847577664719 70.73324315560842 0.0 0.0
1149.600006355259 194.53440856693652 670.175419663092 75.04078982490114 0.0 0.0
1107.187742085816 180.91683700313152 642.195607783046 78.44713817702768 0.0 0.0
1056.8271255431252 161.4727669435933 607.2764603373324 81.0977976625106 0.0 0.0
1000.5365778625793 137.44850035926996 567.0360799425697 83.20395441084665 0.0 0.0
940.88115279172 113.55866882522473 525.1900426153941 85.00949907234289 0.0 0.0
881.860144460355 93.69118938285614 485.57594207031366 86.48500807225628 0.0 0.0
823.6066096926468 79.17850073908467 448.30421674962855 87.03450016160483 0.0 0.0
763.0125188396796 68.48625431342398 408.5635782982879 86.47397399858284 0.0 0.0
693.0878776216578 58.00224361223301 354.02344631353066 85.9628486125062 0.0 0.0
608.5921203405976 42.517047655306754 271.3318052947875 85.81455487691814 0.0 0.0
498.07416663353877 20.9563264030887 176.90185218198425 86.98961822789764 0.0 0.0
368.624509070342 7.005603911501397 112.79771900291163 88.12095683301473 0.0 0.0
247.71715971528752 12.389236097748284 78.03542257468314 82.31611600862426 0.0 0.0
154.34649025405247 45.965372585381346 60.09355885183014 88.67064311914726 0.0 0.0
414.8593220233126 157.65661286048814 243.9561053237965 176.6583772800937 0.0 0.0
-833.2622003683309 -1509.869528686124 -1037.7783504109514 75.23513296429812 0.0 0.0
-654.6892686666749 -1306.292308152945 -837.8002714640187 -72.10719614645966 0.0 0.0
316.62110220613124 92.91681305509333 168.9945141490169 -194.82057251743552 0.0 0.0
111.88754819288921 32.16066761966159 43.21446474376524 -117.26434676825082 0.0 0.0
197.69333961221218 17.42528603201926 64.53777630617839 -106.0455778425747 0.0 0.0
301.48849367990454 5.282666075201216 91.50764739569077 -112.49346468046639 0.0 0.0
429.02387153802 11.04692382013597 140.9999225417226 -113.17031168727354 0.0 0.0
547.4068395352768 34.062605331032536 226.7602660499585 -108.7724088464127 0.0 0.0
646.2695122238337 48.45104948095664 315.07220446037684 -108.26593392045378 0.0 0.0
715.320028796448 58.89685793222074 375.5319434214745 -106.57595306718692 0.0 0.0
775.2910474933036 65.47009139923563 415.47414105716666 -106.41831463780775 0.0 0.0
830.0205884889729 76.12903933215051 449.8706820979261 -105.25116197072528 0.0 0.0
885.1841095313945 92.41728893257121 485.93088640280496 -103.26573346956675 0.0 0.0
940.9872907930837 113.18360723215385 524.3386718061337 -101.09865355205935 0.0 0.0
993.7596485810745 133.5444570956844 561.0351372363585 -98.73820722051319 0.0 0.0
1041.4438518272011 151.1276658931634 593.7256186834838 -95.66594546134628 0.0 0.0
1082.483678034063 164.00136021671878 620.6831131467135 -91.62956401069926 0.0 0.0
1116.0681347909958 170.59297736220574 640.744108298464 -86.98312727707474 0.0 0.0
1139.0647500126404 169.79671941771466 651.9119896187215 -81.26687086065057 0.0 0.0
1144.1871824052405 154.311641296923 646.9378953096126 -72.50867970068842 0.0 0.0
1132.7513924067928 125.72706864820366 627.0793765981033 -57.786916061004824 0.0 0.0
828.5147761928656 -177.56226048077755 328.06068278486805 1.1495515650494781e-10 0.0 0.0
1132.7513924072064 125.72706864860972 627.0793765985068 57.78691606113898 0.0 0.0
1144.1871824058169 154.31164129761646 646.9378953100523 72.50867970084948 0.0 0.0
1139.0647500119737 169.79671941715122 651.9119896183106 81.26687086074719 0.0 0.0
1116.068134791193 170.59297736252785 640.7441082985735 86.98312727719907 0.0 0.0
1082.4836780337312 164.0013602165203 620.6831131465837 91.62956401073346 0.0 0.0
1041.443851826579 151.1276658926653 593.7256186830809 95.66594546136628 0.0 0.0
993.7596485818374 133.5444570965798 561.0351372368075 98.73820722042467 0.0 0.0
940.9872907918794 113.18360723111016 524.3386718052783 101.09865355198382 0.0 0.0
885.1841095313916 92.41728893276807 485.9308864028121 103.26573346961604 0.0 0.0
830.0205884877608 76.12903933108439 449.8706820970287 105.25116197057707 0.0 0.0
775.2910474927698 65.47009139897183 415.47414105683885 106.41831463782009 0.0 0.0
715.3200287964902 58.896857932558305 375.5319434214229 106.57595306716583 0.0 0.0
646.2695122237258 48.45104948120223 315.0722044601994 108.26593392050643 0.0 0.0
547.4068395348766 34.06260533111384 226.76026604960634 108.77240884643763 0.0 0.0
429.0238715374352 11.046923819704006 140.99992254133497 113.17031168716255 0.0 0.0
301.4884936796741 5.282666075347612 91.50764739569077 112.49346468037226 0.0 0.0
197.69333961217615 17.425286032028794 64.5377763061706 106.04557784247135 0.0 0.0
111.88754819295083 32.16066761968036 43.214464743789364 117.26434676791615 0.0 0.0
316.6211022057453 92.91681305503033 168.99451414870194 194.82057251730242 0.0 0.0
-654.6892686655419 -1306.2923081516035 -837.8002714626003 72.1071961463595 0.0 0.0
-500.6672258279905 -1120.2215056295372 -660.5598153544558 -69.5726566025865 0.0 0.0
239.01652530095168 41.689291462531486 111.76207372280831 -205.86104992301455 0.0 0.0
77.53811258791413 18.60929533408576 28.84412714216063 -140.89536492868234 0.0 0.0
150.71695989912828 20.740591185056914 51.43833448121846 -128.11161165283934 0.0 0.0
235.56940004579326 6.326729128167025 72.37690153171559 -133.87159422035228 0.0 0.0
350.1010018176615 1.8059037108710907 107.14954129602907 -141.31351895010187 0.0 0.0
472.8153663606301 20.551357767972043 176.7909000821011 -135.40036242015086 0.0 0.0
579.5398047525575 39.870266890097106 265.3081643116843 -130.27419122448418 0.0 0.0
660.8672394434778 46.24856809426533 333.5703594782854 -128.32456736259502 0.0 0.0
718.0688113561853 52.025511033695196 376.68739304821065 -124.9550691114294 0.0 0.0
771.3752960867499 58.76387435928752 409.985384838186 -123.06584793812169 0.0 0.0
822.722812957918 71.24687601734921 442.7065904333494 -120.58507983932498 0.0 0.0
874.2661378294679 88.38493754159744 477.31868908727415 -118.07341762197268 0.0 0.0
923.2117189863851 105.87406588008764 510.7373353363705 -115.47613936572665 0.0 0.0
967.7319486939558 120.92034127872137 540.6513465440307 -112.2046770726489 0.0 0.0
1006.7850942813857 131.16286272893294 565.3427102199237 -107.92260480867317 0.0 0.0
1041.5011802141894 140.12280789304765 587.131311653735 -102.59710643968208 0.0 0.0
1073.0673985856456 146.80605931945215 606.2233955413692 -96.8154374332467 0.0 0.0
1089.1592975638382 140.35937295310345 611.2338181599582 -87.71206828652018 0.0 0.0
1081.7895824275236 113.04869403344071 594.1500521748596 -70.70968308038462 0.0 0.0
691.499576839274 -274.64122623566976 212.09215737966534 5.0469850521039916e-11 0.0 0.0
1081.7895824261082 113.04869403201688 594.1500521739915 70.70968308044533 0.0 0.0
1089.1592975647704 140.35937295424674 611.2338181606141 87.71206828685456 0.0 0.0
1073.0673985853334 146.80605931928474 606.2233955412088 96.81543743345242 0.0 0.0
1041.5011802141837 140.1228078931234 587.1313116536904 102.59710643980634 0.0 0.0
1006.7850942817943 131.16286272945544 565.3427102202243 107.92260480863303 0.0 0.0
967.731948693068 120.92034127799738 540.6513465435108 112.20467707268193 0.0 0.0
923.2117189867091 105.87406588053051 510.7373353365783 115.47613936574709 0.0 0.0
874.2661378290624 88.38493754131096 477.3186890869895 118.07341762192917 0.0 0.0
822.7228129572337 71.24687601682396 442.70659043292903 120.58507983927397 0.0 0.0
771.3752960870124 58.76387435991281 409.98538483830527 123.06584793823211 0.0 0.0
718.0688113563153 52.0255110341407 376.68739304831985 124.95506911145768 0.0 0.0
660.8672394435868 46.24856809474552 333.57035947825125 128.32456736263697 0.0 0.0
579.5398047520883 39.87026688997062 265.3081643112733 130.27419122447512 0.0 0.0
472.81536636034735 20.551357768008884 176.7909000818361 135.4003624200482 0.0 0.0
350.10100181695776 1.805903710251429 107.14954129562271 141.31351894987068 0.0 0.0
235.56940004564396 6.326729128199639 72.37690153168006 133.87159422019374 0.0 0.0
150.7169598990345 20.74059118504606 51.43833448118671 128.1116116527659 0.0 0.0
77.53811258795331 18.609295334196556 28.844127142205743 140.895364928478 0.0 0.0
239.01652530051237 41.68929146225385 111.76207372247299 205.86104992286522 0.0 0.0
-500.6672258269288 -1120.2215056281875 -660.5598153531689 69.57265660258307 0.0 0.0
-365.00960001896476 -958.6794630852421 -504.474603162641 -75.69306329132567 0.0 0.0
173.00954522285252 2.9736147135357154 67.26571488297623 -208.4986383715483 0.0 0.0
48.08017388112124 7.469252736594393 16.664648478406068 -158.84307440338267 0.0 0.0
105.31253290542433 22.108920528076826 38.227690267981814 -147.1275202156908 0.0 0.0
172.7097675273971 8.594291433153467 54.28007290921051 -152.4780705568969 0.0 0.0
261.92412839534217 -1.2776088084198698 77.70805483344992 -165.36360513287644 0.0 0.0
378.2443735807416 6.7884793857272765 126.13047228073758 -164.053704607875 0.0 0.0
492.34893246287083 25.736851609051723 202.9934305366226 -154.12953892580146 0.0 0.0
584.6204026470643 35.47505626301048 277.4493060290164 -148.54782205993678 0.0 0.0
650.0816973839549 35.83401611047989 326.8720875299399 -144.29761550419173 0.0 0.0
701.281309290264 40.64347209378332 361.70208687359514 -139.84029298350313 0.0 0.0
749.6231886074187 50.20929871782151 392.7925291150168 -136.71967166736061 0.0 0.0
797.2024587887331 63.674064362385295 424.03332864628834 -133.87473553125787 0.0 0.0
841.353419729645 77.41323848143773 453.3669418909568 -131.121736169452 0.0 0.0
882.6296673515487 89.79489707816204 480.4064847476323 -127.96278932576755 0.0 0.0
919.3392306831327 98.99978749409004 503.53965665378354 -123.62656182424065 0.0 0.0
953.5572718829367 106.05400835964656 524.2182462759871 -117.87125642150139 0.0 0.0
992.573677460504 119.92229868397081 550.4219748920386 -111.68548519575205 0.0 0.0
1024.9756330114053 129.01388115406218 571.2784488956243 -103.43630052446001 0.0 0.0
1026.3669959497129 106.42251998978172 561.2189432616532 -86.33750134955235 0.0 0.0
530.7262926510896 -382.55567653382104 79.32497707496357 6.531308827106841e-11 0.0 0.0
1026.3669959482945 106.42251998838664 561.2189432607477 86.33750134976668 0.0 0.0
1024.9756330109342 129.01388115364838 571.2784488953214 103.4363005245668 0.0 0.0
992.5736774602374 119.92229868388749 550.4219748919303 111.68548519603281 0.0 0.0
953.5572718827398 106.05400835963327 524.2182462757827 117.8712564216387 0.0 0.0
919.33923068294 98.99978749393544 503.53965665362915 123.62656182424158 0.0 0.0
882.6296673510091 89.79489707777809 480.4064847472856 127.96278932573051 0.0 0.0
841.3534197286411 77.41323848049075 453.36694189033847 131.12173616944253 0.0 0.0
797.2024587887049 63.674064362600184 424.03332864622894 133.87473553140228 0.0 0.0
749.6231886063983 50.20929871683127 392.792529114366 136.71967166722126 0.0 0.0
701.2813092902071 40.64347209401122 361.70208687357893 139.84029298354773 0.0 0.0
650.0816973840355 35.834016110739206 326.8720875299884 144.29761550407795 0.0 0.0
584.6204026468743 35.47505626327264 277.44930602883045 148.54782206002955 0.0 0.0
492.3489324623696 25.736851608794012 202.99343053619006 154.1295389256775 0.0 0.0
378.2443735801997 6.788479385405973 126.13047228037152 164.05370460779983 0.0 0.0
261.92412839497854 -1.2776088082833166 77.70805483340602 165.36360513260672 0.0 0.0
172.70976752728888 8.594291433124226 54.28007290916791 152.47807055672112 0.0 0.0
105.31253290533319 22.10892052795646 38.227690267919016 147.12752021549286 0.0 0.0
48.080173881142166 7.469252736785405 16.664648478469587 158.8430744031651 0.0 0.0
173.00954522237348 2.97361471319995 67.26571488265235 208.49863837140995 0.0 0.0
-365.00960001815525 -958.6794630840999 -504.4746031616041 75.69306329135499 0.0 0.0
-261.4306185041337 -802.9648709868429 -377.99412763703555 -82.59531697991308 0.0 0.0
116.36535448410467 -28.429098673020725 33.3332262811125 -204.7860591760717 0.0 0.0
20.561779008462633 -0.08291247291602932 6.145425284789302 -171.57719194187396 0.0 0.0
61.02760328026312 21.93797154795441 24.888210724350497 -162.27807866790545 0.0 0.0
110.12658456275821 11.606500773164903 36.44927558346507 -167.12773214863745 0.0 0.0
171.88613714609986 0.5097677469269248 51.44422020621285 -182.50881654788168 0.0 0.0
262.3829457874505 -2.987171517455137 79.13493999697133 -193.6374277358952 0.0 0.0
375.3569012458135 6.0031203303577385 131.04065211413348 -184.0592487729129 0.0 0.0
478.14869480039977 17.596316877696903 198.56324213166758 -169.4387327498856 0.0 0.0
553.845323089262 19.55014766594865 254.6872993337492 -161.1168096438637 0.0 0.0
609.1003252708095 21.935163114740142 295.26330558338736 -154.87223287760858 0.0 0.0
656.0056627334541 27.92055857568755 326.92788065037644 -151.16655960083216 0.0 0.0
699.8846988381983 38.58861582819388 356.5937268816912 -148.08478195100878 0.0 0.0
739.0611152486607 48.6047498949956 382.348640673006 -145.2456890356961 0.0 0.0
775.8502683147029 58.15202687713014 406.10075077132325 -142.47634615605557 0.0 0.0
810.7704383826 66.31165007164304 428.0759907005805 -138.78474094114404 0.0 0.0
844.5368779853119 72.98504197230243 448.785496169113 -133.02293626303523 0.0 0.0
884.0501341690536 85.78678974671206 474.8928464669318 -125.71963699078216 0.0 0.0
935.8834355352011 111.49576288531048 513.3071481660826 -118.89526067376165 0.0 0.0
963.3018251060105 110.12100140746426 527.4406191450532 -106.21058313440716 0.0 0.0
337.31072170862444 -497.32600479348866 -72.27108522354011 -2.2950530365051236e-12 0.0 0.0
963.3018251055271 110.12100140717502 527.4406191449251 106.21058313469348 0.0 0.0
935.8834355347359 111.49576288499009 513.3071481656791 118.89526067389195 0.0 0.0
884.0501341686862 85.78678974643532 474.89284646674184 125.7196369910738 0.0 0.0
844.5368779854059 72.9850419724952 448.78549616914233 133.0229362630762 0.0 0.0
810.7704383828826 66.31165007212027 428.07599070081085 138.78474094125983 0.0 0.0
775.8502683146057 58.15202687720351 406.1007507711473 142.4763461560187 0.0 0.0
739.0611152476282 48.604749894074345 382.34864067228807 145.2456890357443 0.0 0.0
699.884698837996 38.58861582805156 356.59372688150563 148.0847819510536 0.0 0.0
656.0056627330698 27.920558575572905 326.92788065014224 151.16655960082676 0.0 0.0
609.100325270116 21.935163114259367 295.2633055828864 154.87223287759542 0.0 0.0
553.8453230889908 19.55014766584634 254.68729933351023 161.11680964374318 0.0 0.0
478.1486948000359 17.59631687781129 198.56324213144123 169.4387327500014 0.0 0.0
375.35690124567077 6.003120330820802 131.04065211410514 184.0592487729708 0.0 0.0
262.3829457869113 -2.9871715177860088 79.1349399967042 193.6374277357675 0.0 0.0
171.88613714593308 0.5097677469832671 51.4442202062002 182.50881654758575 0.0 0.0
110.12658456275977 11.606500773253078 36.44927558349972 167.12773214837054 0.0 0.0
61.027603280314864 21.937971548171703 24.888210724428973 162.27807866760705 0.0 0.0
20.561779008444358 -0.0829124728156998 6.145425284813193 171.57719194173015 0.0 0.0
116.36535448379969 -28.429098673264896 33.33322628090672 204.7860591758726 0.0 0.0
-261.4306185033955 -802.9648709857371 -377.99412763619654 82.59531697996302 0.0 0.0
-179.1493485394876 -666.3732019985717 -276.6790391143614 -97.36133680570364 0.0 0.0
65.2979947457503 -52.42272757623813 6.628729453251519 -195.03793964596605 0.0 0.0
-6.038459154310832 -3.55235621692679 -2.8791573323818778 -179.34683579361123 0.0 0.0
17.561157749802582 20.725891972188553 11.485027867232942 -173.01696213599308 0.0 0.0
47.48729004488118 14.43112014307644 18.553061930214803 -177.44798816676402 0.0 0.0
82.98055970600406 3.8780412887252624 25.93515519338226 -194.2936066574567 0.0 0.0
131.4000457458599 -1.7904316302624599 38.85393678796456 -210.74303598735943 0.0 0.0
207.48436786588303 -5.427274036899776 61.63167252066926 -214.37062420176386 0.0 0.0
306.6742529480472 -11.953933157869782 94.77434695721321 -201.61958473271642 0.0 0.0
396.4441862334386 -16.902886617701228 132.9787714578028 -181.30614263933253 0.0 0.0
457.81968741547024 -10.581187740831506 171.24127610076835 -167.83764015983266 0.0 0.0
503.13633524811075 0.762426968668592 204.78216723418842 -161.78919060740208 0.0 0.0
542.2742626666026 10.453932036203149 234.3143986336426 -160.06270650806243 0.0 0.0
576.3487047024321 18.698612912435898 259.75965254415945 -159.04008430753967 0.0 0.0
608.0119843971735 26.674220378627766 283.34640292670946 -158.22835418880751 0.0 0.0
640.3319346340863 34.36235574609843 306.95875125542716 -156.88744650640953 0.0 0.0
675.5548286435571 41.1721026310778 331.7909412800102 -152.50567531080884 0.0 0.0
714.1252396236748 46.776677949521606 357.4849591736811 -144.2231797175875 0.0 0.0
770.7613992589887 67.85573076841605 396.6929923760819 -135.74744638430192 0.0 0.0
856.1480370220008 114.47898056502795 465.0812660534597 -132.46837605957046 0.0 0.0
78.09500858597812 -614.0172277176293 -254.6251653009867 1.219078171743604e-10 0.0 0.0
856.1480370221199 114.4789805653315 465.0812660536823 132.46837605977265 0.0 0.0
770.7613992590348 67.85573076849309 396.6929923761435 135.7474463846447 0.0 0.0
714.1252396238134 46.77667794995196 357.48495917383667 144.2231797179017 0.0 0.0
675.5548286427047 41.17210262993197 331.7909412792911 152.5056753108565 0.0 0.0
640.3319346344587 34.362355746672556 306.9587512558481 156.88744650644867 0.0 0.0
608.0119843970871 26.674220378278477 283.3464029266219 158.22835418872648 0.0 0.0
576.3487047023127 18.698612912510505 259.75965254409755 159.0400843075027 0.0 0.0
542.274262666632 10.453932036343659 234.31439863365102 160.06270650813534 0.0 0.0
503.1363352486568 0.7624269698325428 204.78216723461463 161.78919060760083 0.0 0.0
457.81968741557273 -10.581187740535725 171.24127610077832 167.83764015990394 0.0 0.0
396.44418623297764 -16.902886618004832 132.97877145755032 181.30614263919213 0.0 0.0
306.6742529480352 -11.953933157282243 94.7743469573523 201.6195847328285 0.0 0.0
207.48436786564005 -5.427274036736242 61.63167252063613 214.37062420181377 0.0 0.0
131.40004574556895 -1.7904316304846994 38.853936787811065 210.7430359871409 0.0 0.0
82.98055970571257 3.878041288056499 25.935155193093443 194.2936066572444 0.0 0.0
47.48729004470021 14.431120142653798 18.553061930034577 177.44798816662035 0.0 0.0
17.561157749885233 20.725891972426076 11.485027867329325 173.01696213562732 0.0 0.0
-6.038459154254009 -3.5523562167074436 -2.879157332302243 179.34683579341944 0.0 0.0
65.29799474540117 -52.42272757645503 6.628729453061686 195.03793964583997 0.0 0.0
-179.14934853907872 -666.3732019977238 -276.67903911383115 97.36133680580926 0.0 0.0
-128.2561847707256 -540.2404658112023 -205.33692086988702 -109.30873352403685 0.0 0.0
19.85333456929682 -68.31323138865376 -13.87356139295644 -179.52908532824532 0.0 0.0
-31.37356693434262 -4.378529112254524 -10.719425585750953 -183.11966017382906 0.0 0.0
-25.021478517535115 19.136436231124268 -1.7678640641605117 -179.3072272312526 0.0 0.0
-14.379240503415062 16.814796719155662 0.7310465308210359 -183.03971820268532 0.0 0.0
-6.611320652333314 7.647317110095649 0.3166441999574836 -198.6237046229352 0.0 0.0
-2.771176419420051 1.3475837666010857 -0.43018699844462915 -216.12545497301247 0.0 0.0
-0.8506703974882939 0.10373616434997768 -0.23222207152338115 -220.03586655071598 0.0 0.0
-0.1892739955190379 -0.03173541665758428 -0.06943162920744328 -211.82091814622402 0.0 0.0
0.06509007065206163 -0.0010420216431814566 0.02601211315793961 -204.75658745093054 0.0 0.0
-0.26478928254454104 -0.032439657495814345 -0.13790807666863003 -203.72884415647852 0.0 0.0
-0.7899233744151104 0.17810749098494227 0.1695717033365014 -195.901959360103 0.0 0.0
-1.9842839050220107 0.6815903912470418 0.29127941291021386 -186.0250927031596 0.0 0.0
-1.2588499879652488 1.835037430594511 0.7574267469633469 -178.47985409013924 0.0 0.0
5.324959928835881 5.054105859820069 1.8568815250187924 -173.1602226985908 0.0 0.0
25.31746816680777 11.39512327961853 5.050968513580358 -168.6074149492686 0.0 0.0
69.28486146000364 22.91714901564957 12.740681696311412 -163.40701556263596 0.0 0.0
153.90177428381145 31.17627498847598 17.27889057215313 -154.47992472572668 0.0 0.0
367.0589130169816 -16.590265227047 30.86666006335747 -148.14280877206625 0.0 0.0
574.5408010352523 16.573147796983456 221.74953641968509 -190.54645548191053 0.0 0.0
-560.5275502462439 -842.0074863935051 -623.6086477382474 9.173106718662893e-11 0.0 0.0
574.5408010353832 16.57314779713228 221.74953641982862 190.54645548182782 0.0 0.0
367.0589130166501 -16.590265226784396 30.866660063360058 148.1428087727053 0.0 0.0
153.90177428412366 31.176274989308936 17.27889057251504 154.47992472633274 0.0 0.0
69.2848614597889 22.91714901528941 12.74068169615208 163.40701556271097 0.0 0.0
25.317468166997017 11.39512328000535 5.050968513740898 168.60741494919728 0.0 0.0
5.324959928838794 5.054105859167024 1.856881524894348 173.16022269862995 0.0 0.0
-1.2588499876779622 1.83503743054559 0.7574267470344722 178.47985409024278 0.0 0.0
-1.9842839052083576 0.681590390646754 0.29127941258214207 186.02509270364862 0.0 0.0
-0.7899233736203684 0.17810749187991348 0.16957170387028953 195.90195936001183 0.0 0.0
-0.2647892821213844 -0.03243965720769992 -0.13790807644971537 203.72884415645902 0.0 0.0
0.06509007066754435 -0.001042022456145375 0.026012112904602702 204.75658745076908 0.0 0.0
-0.1892739948805442 -0.03173541545174974 -0.06943162864462771 211.8209181463101 0.0 0.0
-0.8506703978085142 0.10373616335133828 -0.2322220719143795 220.03586655070853 0.0 0.0
-2.771176418861124 1.3475837676893274 -0.4301869979470063 216.12545497278023 0.0 0.0
-6.611320652537124 7.647317109392343 0.3166441996847378 198.6237046226646 0.0 0.0
-14.379240503394072 16.81479671900518 0.7310465307814904 183.0397182024635 0.0 0.0
-25.021478517621905 19.13643623086755 -1.7678640642650048 179.3072272309504 0.0 0.0
-31.373566934301202 -4.3785291121844745 -10.719425585716296 183.11966017379046 0.0 0.0
19.853334569123533 -68.313231388846 -13.87356139307339 179.5290853279623 0.0 0.0
-128.2561847704874 -540.2404658104643 -205.33692086957686 109.3087335240427 0.0 0.0
-103.34681248724273 -425.90059722640734 -158.66410531127693 -110.824254508276 0.0 0.0
-12.464998639232796 -77.8157493200447 -27.097350981592093 -165.76477919509682 0.0 0.0
-55.07695070210353 -4.661658417506072 -17.926740003966525 -182.6644821742197 0.0 0.0
-66.23049570545021 17.715505692584273 -14.557041127002302 -180.97025319477746 0.0 0.0
-75.10308857868488 18.446346165825013 -16.99930073884177 -183.29478429583568 0.0 0.0
-95.02437357073674 11.188587997832823 -25.10342040456002 -196.10319403429602 0.0 0.0
-136.7149770464734 4.684804039388542 -39.56398929961026 -212.11171675880863 0.0 0.0
-208.80210245405942 5.529661031240508 -62.06904661669364 -214.62682874748455 0.0 0.0
-306.80862471219746 11.756735776717456 -94.91872725128647 -201.63410903302076 0.0 0.0
-396.36510841876816 16.909021194865137 -132.93420945188802 -181.27683620614002 0.0 0.0
-458.2888802397777 10.591310673246557 -171.326374995646 -167.87682011104027 0.0 0.0
-503.6689103967076 -0.7865620677613734 -205.49955843162098 -161.6886197508401 0.0 0.0
-543.4713431316982 -9.689097588789934 -235.3690774377683 -159.50702144491746 0.0 0.0
-576.2509582390551 -15.118068146639132 -258.7741903022312 -158.21769341856404 0.0 0.0
-600.190522860189 -16.964207464728844 -273.96933820735944 -158.21150313513263 0.0 0.0
-613.1087215019506 -13.818347476443577 -278.21908084341396 -160.3615134063915 0.0 0.0
-613.0980546243006 -5.70955812750843 -269.3718166324636 -165.0156523805725 0.0 0.0
-606.8102036131608 1.27022867367414 -248.2418412063153 -174.80258571803958 0.0 0.0
-588.297731162625 47.58449922629774 -190.93244865248363 -188.58273235716362 0.0 0.0
-323.30763575892934 141.7004650966343 5.535481128565607 -144.63341950213632 0.0 0.0
-1112.4699169752478 -1090.317077226969 -1119.0732972790138 -1.616768940948532e-10 0.0 0.0
-323.30763575921833 141.70046509607283 5.535481128216361 144.63341950286542 0.0 0.0
-588.2977311626087 47.5844992261336 -190.93244865272464 188.58273235759887 0.0 0.0
-606.8102036120305 1.2702286750361935 -248.2418412053349 174.80258571795562 0.0 0.0
-613.0980546235332 -5.709558126551286 -269.37181663198055 165.0156523805926 0.0 0.0
-613.1087215018013 -13.818347476312326 -278.21908084335394 160.36151340638327 0.0 0.0
-600.1905228597029 -16.964207464431617 -273.96933820702696 158.21150313511674 0.0 0.0
-576.2509582386664 -15.118068146571318 -258.7741903020329 158.2176934185039 0.0 0.0
-543.471343132108 -9.689097589731563 -235.36907743798398 159.50702144503774 0.0 0.0
-503.6689103966058 -0.7865620677821781 -205.49955843145716 161.68861975097394 0.0 0.0
-458.2888802391344 10.591310673716649 -171.32637499517605 167.87682011096516 0.0 0.0
-396.3651084181416 16.9090211950506 -132.93420945153346 181.27683620604122 0.0 0.0
-306.8086247115679 11.756735776978317 -94.91872725098416 201.63410903311976 0.0 0.0
-208.8021024535305 5.529661031164069 -62.06904661653685 214.62682874747415 0.0 0.0
-136.71497704590982 4.684804039906089 -39.563989299298505 212.11171675854567 0.0 0.0
-95.02437357067225 11.188587997656244 -25.103420404594726 196.10319403408295 0.0 0.0
-75.10308857859637 18.446346165822092 -16.99930073881916 183.29478429564722 0.0 0.0
-66.23049570545068 17.71550569241528 -14.557041127056635 180.9702531945465 0.0 0.0
-55.076950702034054 -4.66165841744257 -17.926740003929382 182.66448217413225 0.0 0.0
-12.46499863928831 -77.81574932026567 -27.097350981672406 165.76477919493482 0.0 0.0
-103.34681248699694 -425.9005972256733 -158.66410531103242 110.82425450809937 0.0 0.0
-85.82977621928073 -325.71107042225776 -123.46541161042988 -102.8241612259948 0.0 0.0
-33.35556028685529 -80.94212559551823 -34.28520654961163 -153.74091694773588 0.0 0.0
-77.20113149054819 -5.105344236728608 -24.683434000316506 -178.7303905533924 0.0 0.0
-105.51903632616977 16.349392926088694 -26.767887702843865 -177.78794781481304 0.0 0.0
-134.7151780248505 19.566455029579483 -34.46363894768841 -179.40653764540505 0.0 0.0
-182.2890637345959 14.520732240234231 -50.06727564577258 -188.58087261565328 0.0 0.0
-264.4864354935468 4.803952782980906 -79.79047969284031 -192.99867068785187 0.0 0.0
-375.61168486481847 -6.212943382883861 -131.36514726415015 -184.50154814903533 0.0 0.0
-478.18053958766336 -17.82026334939241 -198.66505298167024 -169.52799492878273 0.0 0.0
-553.7938993470626 -19.59829868482609 -254.68957700980525 -161.09016017682367 0.0 0.0
-609.0876171716723 -21.8914769304508 -295.2764574532708 -154.81827808833773 0.0 0.0
-656.3555174440567 -27.84364587077694 -327.1508234803545 -150.79769373652377 0.0 0.0
-700.5237909840575 -38.004337291138796 -356.7916504468222 -147.08050888673924 0.0 0.0
-738.1938391612077 -45.83195453136965 -380.83669497137805 -143.9203806652171 0.0 0.0
-767.7379382120052 -49.24386038159368 -397.98742735981966 -142.56341276535107 0.0 0.0
-785.3954178879893 -45.46849336770104 -405.20232776608265 -143.69250045216714 0.0 0.0
-790.721769839309 -35.64206595802145 -402.7079313070602 -147.63872676816396 0.0 0.0
-783.6840122670737 -22.242869509280922 -391.92186568698094 -154.4131543879588 0.0 0.0
-737.8168417666852 21.32331975062678 -347.8037860557987 -162.4177750998465 0.0 0.0
-638.6918912346239 105.00806865328357 -259.6071681766858 -169.74577779134998 0.0 0.0
-1884.715221459268 -1384.242227765721 -1597.5697796281938 8.416378705078387e-11 0.0 0.0
-638.6918912342474 105.00806865325924 -259.60716817649467 169.7457777915989 0.0 0.0
-737.8168417671072 21.3233197499014 -347.80378605612873 162.41777510020384 0.0 0.0
-783.6840122663435 -22.242869508466498 -391.9218656863886 154.41315438808283 0.0 0.0
-790.7217698394952 -35.6420659583511 -402.7079313072769 147.63872676832028 0.0 0.0
-785.395417887744 -45.468493367686285 -405.20232776589404 143.6925004521636 0.0 0.0
-767.7379382117573 -49.24386038141521 -397.98742735956574 142.56341276542963 0.0 0.0
-738.1938391601935 -45.83195453051687 -380.8366949707536 143.9203806651221 0.0 0.0
-700.5237909842178 -38.00433729145562 -356.79165044696595 147.08050888683496 0.0 0.0
-656.3555174435969 -27.843645870540193 -327.15082347997196 150.79769373636367 0.0 0.0
-609.0876171718115 -21.891476930993402 -295.2764574534174 154.81827808842772 0.0 0.0
-553.7938993467101 -19.598298684693674 -254.68957700948798 161.09016017668833 0.0 0.0
-478.1805395871548 -17.820263349379033 -198.665052981263 169.52799492880507 0.0 0.0
-375.6116848640711 -6.212943382514469 -131.36514726368563 184.50154814913932 0.0 0.0
-264.48643549311856 4.8039527828058795 -79.79047969273103 192.99867068773432 0.0 0.0
-182.28906373392874 14.520732240773183 -50.067275645435885 188.58087261535002 0.0 0.0
-134.71517802464072 19.56645502962274 -34.46363894761868 179.40653764527823 0.0 0.0
-105.51903632594312 16.349392926233836 -26.767887702737372 177.787947814666 0.0 0.0
-77.20113149031992 -5.105344236466041 -24.68343400017148 178.73039055328846 0.0 0.0
-33.35556028688665 -80.9421255956008 -34.28520654964533 153.74091694768984 0.0 0.0
-85.82977621916523 -325.7110704218481 -123.46541161027034 102.82416122584738 0.0 0.0
-69.63376271378026 -241.36842726181484 -93.30065699267854 -91.25790220896492 0.0 0.0
-48.52130549458924 -78.19978552725497 -38.01712058004502 -140.55105630258578 0.0 0.0
-97.55000158259995 -5.452486371176171 -30.893093871594743 -170.50298005167292 0.0 0.0
-143.21066840928506 15.026146209575655 -38.418000476546936 -170.82855508971008 0.0 0.0
-191.8533062607757 19.345442954567 -51.658811407605256 -169.11291163458574 0.0 0.0
-265.7749471831803 13.43277935295095 -76.22891374609891 -169.85144307928672 0.0 0.0
-378.66068848295174 -4.208651369410797 -125.90031283987562 -166.75763076844024 0.0 0.0
-492.5084829086204 -26.1199174345596 -203.1705444678485 -154.74922250822152 0.0 0.0
-584.6153170999858 -35.72172443013788 -277.54390665121394 -148.58780167256452 0.0 0.0
-650.0255045329341 -35.825036795001935 -326.8735942867497 -144.30142124923552 0.0 0.0
-701.1254083948685 -40.46716215354811 -361.57023868789105 -139.78053041706212 0.0 0.0
-749.6319612609392 -49.91791942779193 -392.6942595862976 -136.30611505836217 0.0 0.0
-797.502196470288 -63.126202956918604 -423.98268938395665 -132.68703437518963 0.0 0.0
-840.8791445923844 -75.55101255822477 -452.36674319825784 -129.3869910543417 0.0 0.0
-876.6688650098753 -83.1495367655932 -474.3948573152418 -127.69269770058062 0.0 0.0
-899.3960527732072 -82.1680410552865 -485.46237959678774 -128.9893633879542 0.0 0.0
-906.6464570013434 -70.57910563626913 -483.3779920854101 -133.66855460363809 0.0 0.0
-888.2762544538693 -40.44225811442968 -459.2324281264398 -139.9696813812944 0.0 0.0
-835.5632554558057 15.362102977336392 -405.7577122895092 -145.17957267046242 0.0 0.0
-692.1649631628168 147.1812769539348 -272.26046213952793 -148.27761836426927 0.0 0.0
-2330.028940403381 -1621.9501834486055 -1948.40267751233 9.36495325731812e-12 0.0 0.0
-692.1649631620096 147.1812769545652 -272.2604621390266 148.27761836447513 0.0 0.0
-835.5632554555132 15.362102977636567 -405.7577122892785 145.17957267060092 0.0 0.0
-888.276254453656 -40.442258114325895 -459.23242812619515 139.96968138131186 0.0 0.0
-906.6464570009009 -70.57910563597417 -483.37799208510285 133.66855460366767 0.0 0.0
-899.3960527731042 -82.16804105538344 -485.4623795967549 128.9893633881127 0.0 0.0
-876.6688650098054 -83.14953676556853 -474.3948573151029 127.69269770050738 0.0 0.0
-840.8791445908913 -75.55101255686154 -452.36674319726774 129.38699105424513 0.0 0.0
-797.5021964708528 -63.12620295784178 -423.98268938432903 132.68703437535325 0.0 0.0
-749.6319612605276 -49.917919427597106 -392.6942595860586 136.3061150584295 0.0 0.0
-701.1254083947182 -40.46716215369305 -361.5702386878486 139.7805304170185 0.0 0.0
-650.0255045331583 -35.82503679557563 -326.8735942868135 144.30142124923378 0.0 0.0
-584.6153170988484 -35.72172442913177 -277.54390665034083 148.5878016724025 0.0 0.0
-492.50848290832334 -26.119917434800005 -203.17054446756666 154.74922250828735 0.0 0.0
-378.66068848232845 -4.20865136920953 -125.90031283951437 166.75763076843987 0.0 0.0
-265.77494718247175 13.432779353384712 -76.22891374577122 169.85144307909604 0.0 0.0
-191.8533062603767 19.34544295497696 -51.65881140736745 169.11291163437772 0.0 0.0
-143.21066840917192 15.026146209610415 -38.41800047650605 170.82855508956624 0.0 0.0
-97.55000158252311 -5.45248637115665 -30.893093871566048 170.50298005148736 0.0 0.0
-48.52130549459611 -78.19978552727511 -38.01712058005293 140.5510563023986 0.0 0.0
-69.63376271376265 -241.36842726156462 -93.30065699259815 91.2579022088261 0.0 0.0
-56.64005753425575 -170.8846009324202 -68.25739754000278 -78.16308740405584 0.0 0.0
-60.15130738467367 -71.15435440977674 -39.39168007735784 -125.40008061603108 0.0 0.0
-116.58206489702074 -5.514740563889687 -36.62704865749749 -158.23799389531416 0.0 0.0
-178.7039368695445 13.067267981180981 -49.67836647694128 -158.81682081180873 0.0 0.0
-247.85107155706984 18.16752630119522 -68.61495510275134 -155.03625933518316 0.0 0.0
-349.0546790013947 9.090125855326166 -104.83804723508547 -148.41359760410037 0.0 0.0
-470.33089996449644 -19.246199612839987 -176.14238734442887 -136.30818069873993 0.0 0.0
-579.6916271957879 -40.517380635956926 -265.4903278436463 -130.59862850048683 0.0 0.0
-660.9375849303009 -46.48115320898231 -333.73572335872393 -128.34893506279906 0.0 0.0
-717.9848669720091 -51.954540500783914 -376.6513834247832 -124.96557457303952 0.0 0.0
-771.0938035999933 -58.42208286638353 -409.7087754750423 -123.01382533189512 0.0 0.0
-822.2584095995505 -70.58256772743277 -442.1807227398484 -120.16925038282054 0.0 0.0
-873.978007616085 -87.56774568092304 -476.80176594026625 -116.87516783872725 0.0 0.0
-923.3143293859202 -105.06143086971599 -510.4495650067863 -113.6110796258522 0.0 0.0
-965.5978702217658 -118.23000601649107 -538.3955972616972 -111.61308498265299 0.0 0.0
-993.6296484378445 -119.89409992391808 -553.4468685048789 -112.7432898157725 0.0 0.0
-997.3527425887553 -103.44837779815057 -547.3051888173957 -116.95217554812194 0.0 0.0
-967.3859697268182 -58.43642802556295 -510.0958542806312 -122.55314463899526 0.0 0.0
-887.9956544873418 27.07897723065497 -428.63957012033757 -126.1146666234579 0.0 0.0
-722.7931170799919 183.00850342519976 -270.6215424533941 -126.80318053377405 0.0 0.0
-2680.362494422392 -1864.3763566900325 -2251.0092933014075 1.729816290207964e-11 0.0 0.0
-722.793117079706 183.0085034252337 -270.62154245328236 126.80318053420555 0.0 0.0
-887.9956544873585 27.078977230538314 -428.63957012026356 126.11466662367206 0.0 0.0
-967.3859697261896 -58.436428025070484 -510.0958542802144 122.55314463914276 0.0 0.0
-997.3527425883738 -103.44837779780038 -547.3051888172375 116.9521755481033 0.0 0.0
-993.629648438547 -119.89409992494402 -553.4468685054339 112.7432898160038 0.0 0.0
-965.5978702213315 -118.23000601618716 -538.3955972613669 111.61308498270529 0.0 0.0
-923.3143293849058 -105.06143086876655 -510.4495650060243 113.61107962574779 0.0 0.0
-873.9780076163561 -87.56774568140804 -476.8017659405087 116.87516783867542 0.0 0.0
-822.2584095995658 -70.58256772775806 -442.1807227398343 120.16925038290798 0.0 0.0
-771.0938035995795 -58.42208286612901 -409.7087754748591 123.01382533178216 0.0 0.0
-717.9848669718202 -51.95454050098338 -376.6513834246297 124.96557457307884 0.0 0.0
-660.9375849295811 -46.481153208474105 -333.7357233581703 128.34893506272465 0.0 0.0
-579.6916271952185 -40.51738063577125 -265.4903278431287 130.5986285004489 0.0 0.0
-470.3308999639287 -19.24619961278463 -176.14238734403253 136.30818069875994 0.0 0.0
-349.05467900103946 9.090125855092356 -104.83804723500123 148.4135976040756 0.0 0.0
-247.851071556651 18.16752630126439 -68.6149551026367 155.03625933498003 0.0 0.0
-178.70393686932744 13.067267981229499 -49.67836647687045 158.81682081162697 0.0 0.0
-116.5820648969812 -5.514740563982082 -36.6270486575111 158.23799389521804 0.0 0.0
-60.151307384658864 -71.15435440981318 -39.39168007736434 125.40008061583629 0.0 0.0
-56.64005753418143 -170.88460093219314 -68.25739753991236 78.16308740397879 0.0 0.0
-47.14799158825655 -113.6661370385335 -48.24423858803701 -64.48345388809942 0.0 0.0
-69.33321172916283 -61.21159952420985 -39.16344337601181 -108.19152663365661 0.0 0.0
-134.49282794386068 -5.058392476528128 -41.86601305524944 -141.94275979177365 0.0 0.0
-212.38128435311947 10.95574454490396 -60.37840889847459 -142.86432862035142 0.0 0.0
-301.50095313544307 13.458987168085399 -86.53518686730663 -134.21734097049543 0.0 0.0
-424.05248333609677 -0.9864238271638186 -137.2887345732201 -121.69867957723038 0.0 0.0
-545.9489105500152 -32.67386001946336 -225.63268785391938 -110.16939086942068 0.0 0.0
-646.7046979367744 -49.22860904814745 -315.4696404695646 -108.39140206470552 0.0 0.0
-715.3554369052868 -58.99294029840566 -375.6412292929731 -106.59731079231784 0.0 0.0
-775.1772006760269 -65.34515595830625 -415.3931044041904 -106.43666373899627 0.0 0.0
-829.5977156217825 -75.6504498271113 -449.4571039958434 -105.18126768697341 0.0 0.0
-884.2375737592577 -91.35067537168639 -484.9645953600376 -102.85537104381244 0.0 0.0
-939.90097563968 -111.86529774308985 -523.1540293153275 -100.03515303007913 0.0 0.0
-994.1714673619442 -133.56500881473957 -561.2427414859596 -97.09813464589786 0.0 0.0
-1043.3228916517232 -152.68896507070363 -595.5090260989089 -94.8888673786833 0.0 0.0
-1075.933339604231 -158.2527778939262 -614.8465526906344 -95.06025175392148 0.0 0.0
-1076.1445625576484 -134.9352316449131 -603.5951052552264 -98.57495514998456 0.0 0.0
-1028.8706125054844 -71.30691689436628 -548.5662127469504 -103.39868459942016 0.0 0.0
-923.577542823531 40.77628507650081 -440.71065109419243 -106.38806308437071 0.0 0.0
-746.1539549641614 209.24042914797872 -269.16403749421846 -108.98047402915716 0.0 0.0
-2980.9448567456798 -2094.3696777686705 -2520.5836783160676 3.100808498857077e-11 0.0 0.0
-746.1539549647221 209.24042914725297 -269.16403749462734 108.98047402949982 0.0 0.0
-923.5775428237316 40.77628507615839 -440.7106510943639 106.3880630845667 0.0 0.0
-1028.8706125063038 -71.30691689529401 -548.5662127475738 103.39868459965831 0.0 0.0
-1076.1445625580982 -134.9352316455103 -603.5951052556437 98.574955150015 0.0 0.0
-1075.9333396045472 -158.25277789440813 -614.8465526908611 95.06025175395516 0.0 0.0
-1043.3228916511202 -152.68896507022413 -595.5090260984665 94.88886737872741 0.0 0.0
-994.1714673610335 -133.56500881403198 -561.2427414852689 97.09813464584488 0.0 0.0
-939.9009756398801 -111.86529774348502 -523.1540293156281 100.03515303016238 0.0 0.0
-884.23757375891 -91.35067537151922 -484.9645953598147 102.85537104369463 0.0 0.0
-829.5977156213157 -75.65044982686352 -449.457103995588 105.1812676868871 0.0 0.0
-775.1772006752002 -65.3451559577104 -415.3931044036664 106.43666373890696 0.0 0.0
-715.3554369050545 -58.99294029850304 -375.64122929276664 106.59731079231868 0.0 0.0
-646.704697936029 -49.228609047627714 -315.4696404689207 108.3914020645594 0.0 0.0
-545.9489105495519 -32.67386001950916 -225.63268785349774 110.16939086945223 0.0 0.0
-424.05248333543994 -0.9864238268665071 -137.28873457283382 121.69867957719278 0.0 0.0
-301.5009531351882 13.458987167750308 -86.53518686734995 134.21734097042847 0.0 0.0
-212.38128435298415 10.955744544904725 -60.37840889843086 142.86432862029218 0.0 0.0
-134.49282794372758 -5.058392476412841 -41.866013055174776 141.94275979175833 0.0 0.0
-69.33321172914381 -61.211599524238224 -39.16344337601461 108.19152663360862 0.0 0.0
-47.14799158815463 -113.66613703833401 -48.24423858794659 64.48345388806682 0.0 0.0
-40.88653623811033 -69.3618239399145 -33.07450805340745 -50.56670805456599 0.0 0.0
-76.47768857070332 -49.63118152772175 -37.83266102952752 -89.10013214518956 0.0 0.0
-151.3256835741143 -4.039809876160099 -46.610097654764324 -121.64577899369417 0.0 0.0
-244.60404157201583 7.8894838667935 -70.97584545148395 -122.28067280395686 0.0 0.0
-357.80722945273067 7.875597343577834 -105.58494149052174 -110.80999096873441 0.0 0.0
-485.74717505930494 -16.615022835566904 -173.32213854267798 -91.6691504632896 0.0 0.0
-607.6129030083465 -41.601158719101306 -270.2509951441041 -86.63145655783278 0.0 0.0
-693.356230407495 -58.41755242755795 -354.2752447752541 -85.93960329828519 0.0 0.0
-763.0648790441992 -68.53616992747496 -408.65424226121957 -86.49103856689766 0.0 0.0
-823.4586016381044 -79.00519586923691 -448.1792093333444 -87.06042247020248 0.0 0.0
-881.2934815377303 -93.07648781501442 -485.0220620660762 -86.39249006255777 0.0 0.0
-939.5479822581508 -112.17871459915271 -523.872126965827 -84.61625407524254 0.0 0.0
-998.7618831039224 -135.68570271738136 -565.277762823516 -82.37606301208169 0.0 0.0
-1056.7931664732982 -161.51288249746423 -607.2439787161591 -79.9428460202916 0.0 0.0
-1110.9163790044724 -184.65852704541976 -645.9350593159254 -77.66157953850953 0.0 0.0
-1149.4696887775476 -194.57217362023158 -670.3834882340019 -76.70783897210845 0.0 0.0
-1148.4838854841262 -169.22255754999895 -657.6271798396267 -78.65580155432264 0.0 0.0
-1084.7341937013693 -87.45419971440833 -585.3610414514851 -82.96345658702218 0.0 0.0
-954.3133322428176 50.67528928651741 -451.6776006136051 -87.44987852115561 0.0 0.0
-760.2905490672103 235.0555348713832 -263.13332913236263 -93.96687999501835 0.0 0.0
-3242.6270273117393 -2304.134793927419 -2759.5195063317733 -2.1941559680271894e-11 0.0 0.0
-760.2905490665541 235.0555348719405 -263.1333291318542 93.96687999518844 0.0 0.0
-954.313332243775 50.67528928542926 -451.6776006143857 87.4498785214301 0.0 0.0
-1084.7341937026788 -87.45419971589283 -585.3610414523857 82.9634565872463 0.0 0.0
-1148.4838854834315 -169.22255754939516 -657.627179839264 78.65580155435099 0.0 0.0
-1149.4696887776247 -194.57217362046373 -670.3834882340623 76.70783897216612 0.0 0.0
-1110.9163790047737 -184.6585270458663 -645.9350593161784 77.66157953859839 0.0 0.0
-1056.79316647214 -161.51288249645413 -607.2439787153327 79.94284602019945 0.0 0.0
-998.7618831036499 -135.68570271730852 -565.2777628233808 82.37606301205513 0.0 0.0
-939.5479822585563 -112.17871459979258 -523.8721269660651 84.6162540752425 0.0 0.0
-881.2934815373874 -93.07648781480232 -485.0220620658299 86.39249006235133 0.0 0.0
-823.4586016369642 -79.00519586829377 -448.1792093326135 87.06042246998689 0.0 0.0
-763.0648790438668 -68.536169927448 -408.6542422609645 86.49103856689003 0.0 0.0
-693.3562304070452 -58.41755242741003 -354.2752447748331 85.93960329822869 0.0 0.0
-607.6129030078686 -41.60115871913154 -270.25099514365155 86.6314565579164 0.0 0.0
-485.74717505857416 -16.615022835124268 -173.32213854217045 91.66915046324758 0.0 0.0
-357.8072294522202 7.875597343758939 -105.58494149032154 110.80999096863069 0.0 0.0
-244.60404157189538 7.889483866659533 -70.97584545148881 122.28067280383821 0.0 0.0
-151.32568357385767 -4.03980987595077 -46.61009765462452 121.64577899375038 0.0 0.0
-76.47768857065246 -49.63118152768739 -37.83266102950194 89.10013214511645 0.0 0.0
-40.88653623811448 -69.36182393983307 -33.074508053384264 50.56670805458745 0.0 0.0
-37.18426932328075 -37.74156682994541 -22.47775084596785 -36.77307264449193 0.0 0.0
-81.4464076982156 -37.53413337639532 -35.69416232238327 -68.35025803940073 0.0 0.0
-166.8652611905585 -2.6337576781465923 -50.84970566061152 -97.22531082046036 0.0 0.0
-276.6246781205137 3.864199762270145 -81.75586184779615 -97.28047543058636 0.0 0.0
-411.3426265816113 -1.5857678118328513 -127.15906090768334 -82.18574034221685 0.0 0.0
-544.8468430287336 -28.02474649447558 -209.67378592230736 -66.42540994990354 0.0 0.0
-651.7052068087297 -49.75297543053497 -308.622222484334 -64.53671057861439 0.0 0.0
-732.4765399520655 -64.7809299539083 -384.0967907907804 -64.70572928673741 0.0 0.0
-802.9036471434413 -78.66643171689827 -436.28721441403746 -65.98411461483667 0.0 0.0
-866.3342377254407 -92.84964760704833 -477.5306545333975 -66.97832259675043 0.0 0.0
-927.58748274899 -110.63920892504852 -517.5818338120081 -66.73989726347168 0.0 0.0
-989.6973792322588 -133.2426423446516 -560.0373330488283 -65.4908731046888 0.0 0.0
-1052.2271093475158 -160.2871302488937 -604.8529062841214 -63.811464664240376 0.0 0.0
-1112.8992909622857 -187.25643274916683 -648.6813582321829 -62.095462756354586 0.0 0.0
-1168.8402978263591 -212.34797055012746 -689.2023029245606 -60.07863639311783 0.0 0.0
-1212.7336139298268 -227.4907665771386 -718.8603110155892 -58.037367903064194 0.0 0.0
-1219.1813043106588 -207.98963973382635 -712.7499029159403 -57.851023518910225 0.0 0.0
-1146.7119902721097 -116.06665283361892 -631.1207731992602 -61.57885378792479 0.0 0.0
-987.3276058796232 51.85679531504857 -467.9209178114506 -68.79930496019337 0.0 0.0
-761.7925083568905 268.1071469403369 -247.20240317864716 -80.33353586714608 0.0 0.0
-3465.6951727067035 -2484.292648036069 -2963.6784107195144 -1.7752910252966103e-11 0.0 0.0
-761.7925083562199 268.1071469409385 -247.2024031781853 80.33353586733159 0.0 0.0
-987.3276058808007 51.85679531380432 -467.9209178123036 68.79930496027862 0.0 0.0
-1146.711990271971 -116.06665283359439 -631.1207731990951 61.57885378800816 0.0 0.0
-1219.1813043102013 -207.9896397334412 -712.7499029156347 57.85102351889255 0.0 0.0
-1212.7336139296806 -227.49076657716648 -718.8603110154326 58.03736790314784 0.0 0.0
-1168.840297826602 -212.34797055052067 -689.2023029246817 60.07863639317246 0.0 0.0
-1112.8992909607891 -187.2564327479092 -648.6813582311433 62.095462756424226 0.0 0.0
-1052.2271093478762 -160.28713024940012 -604.8529062843668 63.811464664218214 0.0 0.0
-989.6973792313477 -133.2426423439738 -560.0373330481729 65.49087310458012 0.0 0.0
-927.587482749481 -110.63920892581287 -517.5818338122888 66.73989726349328 0.0 0.0
-866.3342377246673 -92.8496476065774 -477.53065453289275 66.97832259679348 0.0 0.0
-802.9036471427169 -78.6664317164392 -436.28721441355253 65.98411461477805 0.0 0.0
-732.4765399520086 -64.78092995421004 -384.09679079065785 64.70572928679474 0.0 0.0
-651.7052068076545 -49.752975429748744 -308.6222224834664 64.53671057850707 0.0 0.0
-544.8468430285361 -28.02474649478091 -209.67378592208848 66.42540994993607 0.0 0.0
-411.3426265807935 -1.5857678111319993 -127.15906090721153 82.18574034211936 0.0 0.0
-276.6246781202575 3.8641997621830946 -81.75586184777416 97.28047543050938 0.0 0.0
-166.8652611903899 -2.633757678049472 -50.8497056605318 97.22531082040202 0.0 0.0
-81.4464076981861 -37.53413337641593 -35.694162322380606 68.35025803932322 0.0 0.0
-37.18426932320472 -37.74156682990348 -22.47775084593245 36.773072644483804 0.0 0.0
-34.82779146585318 -18.446074315377377 -15.982159734369162 -23.861490768370576 0.0 0.0
-83.49662016468744 -26.076870835643657 -32.87204730009933 -46.23830131746133 0.0 0.0
-180.74471799896236 -1.3514394123821374 -54.628847223403326 -68.18916249413135 0.0 0.0
-309.86459752828034 -0.8958434528969743 -93.04622936722322 -67.36871397739864 0.0 0.0
-460.7718520571637 -14.394546293368693 -151.9668210392809 -51.762625603305004 0.0 0.0
-592.2909062507206 -37.17231255704105 -244.89329292340403 -43.30956900229149 0.0 0.0
-683.7701121403068 -55.62228599256353 -338.8199774333023 -42.97027247055651 0.0 0.0
-765.7743578315853 -72.02854585942178 -409.18832869347807 -43.93588722703048 0.0 0.0
-837.9291073945164 -89.3832440276276 -460.66077840774096 -45.16361930841952 0.0 0.0
-904.5740135349486 -107.04032211932932 -504.336337022576 -46.16436018979783 0.0 0.0
-969.7696221613305 -128.3700450431582 -547.9622131508925 -46.254873677894366 0.0 0.0
-1035.3509807825992 -154.46777835882597 -593.8815984560292 -45.51362926021242 0.0 0.0
-1101.3864949896251 -183.65573164009623 -641.5061414248869 -44.514719514810785 0.0 0.0
-1164.017355909863 -213.11961899004078 -687.5664767178682 -43.38673680899346 0.0 0.0
-1219.614617775509 -237.277534990899 -727.4545309391199 -41.91967617310778 0.0 0.0
-1262.1837539434637 -250.72123651508 -755.5118302462486 -39.71143400767444 0.0 0.0
-1280.5235766980886 -242.89128531344275 -760.9968561105029 -37.53106572801529 0.0 0.0
-1234.0525626040258 -175.63911515236302 -704.7069375858332 -39.11867891822852 0.0 0.0
-1041.7956764038613 27.087207947815926 -507.798678122689 -48.82379427236293 0.0 0.0
-737.9532611453234 323.1455869441459 -207.75655315988982 -66.92780120489839 0.0 0.0
-3636.4290420208617 -2617.3823279339103 -3117.6967044258126 -4.384048679639818e-11 0.0 0.0
-737.9532611450904 323.1455869442772 -207.75655315967435 66.92780120505783 0.0 0.0
-1041.7956764045045 27.08720794711573 -507.7986781232927 48.82379427243353 0.0 0.0
-1234.0525626033684 -175.63911515179691 -704.7069375853704 39.11867891828056 0.0 0.0
-1280.5235766981493 -242.89128531360333 -760.9968561105284 37.53106572795791 0.0 0.0
-1262.183753942452 -250.7212365142283 -755.5118302455259 39.711434007783026 0.0 0.0
-1219.614617775675 -237.2775349912248 -727.4545309391119 41.91967617313524 0.0 0.0
-1164.0173559091284 -213.1196189894619 -687.5664767173375 43.38673680905796 0.0 0.0
-1101.3864949897693 -183.6557316404959 -641.5061414249852 44.51471951478932 0.0 0.0
-1035.3509807813446 -154.4677783577814 -593.8815984551957 45.51362926028704 0.0 0.0
-969.7696221614381 -128.37004504353797 -547.9622131510305 46.25487367792031 0.0 0.0
-904.5740135341337 -107.04032211882897 -504.33633702202866 46.16436018992238 0.0 0.0
-837.9291073941727 -89.38324402754743 -460.6607784074989 45.163619308362 0.0 0.0
-765.7743578314548 -72.02854585966038 -409.1883286933175 43.9358872271157 0.0 0.0
-683.7701121393304 -55.62228599179501 -338.819977432508 42.97027247034749 0.0 0.0
-592.2909062502389 -37.17231255699832 -244.8932929229569 43.309569002311974 0.0 0.0
-460.7718520565212 -14.39454629311883 -151.96682103895694 51.7626256033784 0.0 0.0
-309.86459752802585 -0.8958434529585215 -93.04622936717504 67.36871397747456 0.0 0.0
-180.74471799869318 -1.3514394121730333 -54.62884722325986 68.18916249398305 0.0 0.0
-83.49662016460563 -26.076870835643206 -32.87204730007464 46.23830131746462 0.0 0.0
-34.82779146590673 -18.446074315428362 -15.982159734400527 23.861490768304844 0.0 0.0
-31.52848352182909 -10.46086262979534 -12.596803845487326 -13.485000169844131 0.0 0.0
-81.14825698110306 -16.896419348696753 -29.413402898939946 -23.16423544154956 0.0 0.0
-192.40523359786926 -1.1439319032455906 -58.06474965033445 -33.248326861641566 0.0 0.0
-345.03236392178695 -5.438794731748282 -105.11208588797123 -32.00095106360407 0.0 0.0
-510.1581690002562 -24.886348315396283 -178.5521992051014 -23.18532547461383 0.0 0.0
-626.702738625858 -43.969471469639075 -276.4225941014333 -22.1009323826267 0.0 0.0
-712.5012382126298 -59.13278767480286 -362.868768791566 -22.99163693103848 0.0 0.0
-794.272096381407 -79.83193993768009 -430.46873276729445 -23.505118060721337 0.0 0.0
-868.8877773695374 -100.23886044536727 -482.42651977540544 -24.04877024560106 0.0 0.0
-939.1307900132834 -121.81446058893069 -529.3892821398774 -24.663641475020157 0.0 0.0
-1007.9980364955499 -146.46446542588254 -576.434880907248 -24.90534208639737 0.0 0.0
-1077.2284103472498 -175.01997702610512 -625.4027420078394 -24.76744099871553 0.0 0.0
-1146.0692531644688 -207.40472504883317 -676.0265676406802 -24.35275455405034 0.0 0.0
-1211.1920157411323 -238.12446882681957 -723.9572513771063 -23.825712013805123 0.0 0.0
-1265.386977678566 -260.5238719979407 -762.2834860203011 -23.03390431773175 0.0 0.0
-1302.2750128554558 -268.35052532907025 -784.6938041619676 -21.498066161786298 0.0 0.0
-1319.1073001354837 -259.4261297025592 -788.6945203121379 -18.998796518375496 0.0 0.0
-1315.4857090722103 -234.6086270853576 -774.628152373177 -17.622744358046315 0.0 0.0
-1209.762732972085 -115.54503407039843 -662.9518218001444 -25.02377031233128 0.0 0.0
-718.3885705029827 372.41322451447456 -173.61449369924836 -49.926345194585764 0.0 0.0
-3600.6883194015427 -2545.8310284005042 -3066.2627230879843 1.4122036873231991e-12 0.0 0.0
-718.3885705023147 372.413224515097 -173.61449369877886 49.92634519462706 0.0 0.0
-1209.7627329731226 -115.54503407148628 -662.9518218009798 25.02377031240478 0.0 0.0
-1315.485709071582 -234.60862708480772 -774.6281523728313 17.622744357950936 0.0 0.0
-1319.1073001345844 -259.4261297017837 -788.6945203115139 18.998796518363417 0.0 0.0
-1302.2750128547016 -268.35052532844105 -784.6938041614509 21.49806616188491 0.0 0.0
-1265.386977678894 -260.52387199845134 -762.2834860204655 23.03390431776257 0.0 0.0
-1211.1920157422983 -238.12446882816621 -723.9572513777995 23.825712013852645 0.0 0.0
-1146.0692531637205 -207.4047250482949 -676.0265676400924 24.352754553957155 0.0 0.0
-1077.2284103481543 -175.01997702725674 -625.402742008461 24.767440998779186 0.0 0.0
-1007.9980364947778 -146.46446542537572 -576.4348809067634 24.90534208642401 0.0 0.0
-939.1307900122391 -121.81446058814032 -529.3892821391365 24.66364147493104 0.0 0.0
-868.8877773697251 -100.23886044586729 -482.4265197755071 24.048770245668756 0.0 0.0
-794.2720963810131 -79.83193993760402 -430.4687327669837 23.50511806078367 0.0 0.0
-712.5012382126546 -59.132787675159676 -362.8687687914346 22.991636930889875 0.0 0.0
-626.7027386249245 -43.96947146898778 -276.42259410068175 22.100932382492843 0.0 0.0
-510.1581689999512 -24.88634831553232 -178.55219920491308 23.18532547471756 0.0 0.0
-345.03236392143356 -5.438794731703759 -105.11208588787125 32.00095106353342 0.0 0.0
-192.40523359767408 -1.1439319031431987 -58.06474965024518 33.248326861467625 0.0 0.0
-81.14825698097457 -16.896419348714918 -29.413402898906835 23.164235441528305 0.0 0.0
-31.528483521737922 -10.460862629799427 -12.596803845461201 13.4850001697882 0.0 0.0
-20.305248754901758 -5.264988118386073 -7.671071061986352 -8.319041361457634 0.0 0.0
-70.4175733993091 -9.608064953556957 -24.00769150585981 -9.6228377617952 0.0 0.0
-200.98229828680206 -2.901851765239787 -61.16524501561253 -11.144491480165769 0.0 0.0
-387.868774388004 -20.99468772890544 -123.8267689993761 -8.420109931738473 0.0 0.0
-576.9534947547819 -66.52918891348936 -223.19321350720165 -0.5613971765985006 0.0 0.0
-713.0343079822966 -112.48962968333927 -348.3924803117509 1.2190915310055388 0.0 0.0
-829.6268185817146 -161.40971136123378 -464.6982058051209 0.7764263462568266 0.0 0.0
-952.7946146225912 -225.02601698297138 -572.7177959432512 -0.6074384872395768 0.0 0.0
-1082.1659844644455 -301.05670512154234 -679.565359252905 -2.1755157794395608 0.0 0.0
-1226.2612434449256 -396.25389782906035 -800.1163793857891 -3.829992665915844 0.0 0.0
-1390.6920188850772 -515.8295429140518 -942.1045334235837 -5.402237218317627 0.0 0.0
-1576.0662595316403 -660.7650548085801 -1106.9239772639894 -6.68554683096767 0.0 0.0
-1777.1986676361391 -824.3406835722423 -1288.8446486306045 -7.547246381739926 0.0 0.0
-1984.6948640334429 -997.0062059072756 -1478.561492759547 -8.267686443828625 0.0 0.0
-2183.0118631507867 -1163.1656059571985 -1660.5355895582784 -8.664309319518075 0.0 0.0
-2350.516776896193 -1301.500022451883 -1813.3433660311289 -8.46546080571106 0.0 0.0
-2460.7775677233744 -1386.3908616096294 -1910.9771743510603 -7.222228759339465 0.0 0.0
-2496.982900595242 -1401.9382143205457 -1936.681447986991 -5.405389654203688 0.0 0.0
-2529.9754301801718 -1420.2227715598738 -1961.0392205222547 -10.942820831339198 0.0 0.0
-2575.723536168457 -1464.3960201424375 -2003.2669321887588 -39.32193698341981 0.0 0.0
-5970.323755949628 -4887.588275552665 -5404.338815099909 -1.857358711276902e-11 0.0 0.0
-2575.7235361681296 -1464.3960201421469 -2003.2669321885637 39.32193698343046 0.0 0.0
-2529.975430181158 -1420.2227715609517 -1961.039220522717 10.942820831494771 0.0 0.0
-2496.98290059391 -1401.9382143192938 -1936.6814479858376 5.405389654198014 0.0 0.0
-2460.7775677206723 -1386.3908616070196 -1910.977174348936 7.22222875930516 0.0 0.0
-2350.516776895375 -1301.500022451212 -1813.343366030322 8.465460805677395 0.0 0.0
-2183.011863149425 -1163.1656059560019 -1660.5355895571556 8.664309319561056 0.0 0.0
-1984.6948640340559 -997.0062059081044 -1478.561492759501 8.267686443873252 0.0 0.0
-1777.1986676349788 -824.3406835712849 -1288.8446486294513 7.547246381685337 0.0 0.0
-1576.0662595329568 -660.7650548101813 -1106.9239772646788 6.68554683100438 0.0 0.0
-1390.6920188832491 -515.8295429124803 -942.1045334221039 5.402237218448878 0.0 0.0
-1226.2612434437297 -396.25389782813255 -800.116379384798 3.829992665737379 0.0 0.0
-1082.1659844639778 -301.0567051213796 -679.565359252471 2.1755157796487445 0.0 0.0
-952.794614622157 -225.02601698285667 -572.7177959428267 0.6074384873539067 0.0 0.0
-829.6268185821209 -161.40971136199437 -464.69820580515284 -0.7764263463648184 0.0 0.0
-713.0343079814178 -112.48962968278335 -348.3924803109817 -1.2190915312711255 0.0 0.0
-576.9534947544599 -66.52918891362435 -223.1932135069178 0.5613971766916563 0.0 0.0
-387.8687743875446 -20.994687728638045 -123.82676899915262 8.420109931586452 0.0 0.0
-200.98229828653825 -2.901851765195449 -61.165245015520085 11.144491479915478 0.0 0.0
-70.41757339913829 -9.60806495362555 -24.007691505829154 9.622837761803545 0.0 0.0
-20.3052487547144 -5.26498811835649 -7.671071061921266 8.319041361400139 0.0 0.0
SCALARS Strain float 6
LOOKUP_TABLE default
0.013981467740590395 -0.023407096080477537 0.0 -0.0012763132152102045 0.0 0.0
0.00858407313652467 -0.002441702490391714 0.0 -0.00714093306956746 0.0 0.0
0.0025615467622413348 -0.0006151283628964642 0.0 -0.0008160206164528025 0.0 0.0
0.0022014515462754763 -0.0008787405065929514 0.0 -2.6616279614802026e-06 0.0 0.0
0.003182658852619249 -0.0013702187590760224 0.0 0.00016181563266194957 0.0 0.0
0.005320481186359629 -0.0029654226175781775 0.0 0.00030658779287254224 0.0 0.0
0.009013203343188789 -0.006095471204190196 0.0 0.00040892325949345857 0.0 0.0
0.014551579956191524 -0.011052098997958847 0.0 0.00044654960583803043 0.0 0.0
0.02217159835639282 -0.018047269785155865 0.0 0.00042147584925482715 0.0 0.0
0.03196579430055047 -0.027117471705617076 0.0 0.00030992915167950334 0.0 0.0
0.043888868016050894 -0.038182952470720635 0.0 0.00014680402946329308 0.0 0.0
0.05781975424992368 -0.05111913795399252 0.0 -6.589800984958523e-05 0.0 0.0
0.07360336197048814 -0.06580369711471508 0.0 -0.0003600162738730206 0.0 0.0
0.09107349620008882 -0.08211131253123276 0.0 -0.0006883872194763653 0.0 0.0
0.10998047022313881 -0.09984676996041827 0.0 -0.001085924389336992 0.0 0.0
0.12983820274838961 -0.11858436419785351 0.0 -0.0015436077858745462 0.0 0.0
0.1498179695700805 -0.13755588221198256 0.0 -0.001974163349796664 0.0 0.0
0.16873616644690453 -0.15563911816916126 0.0 -0.0022123261571079023 0.0 0.0
0.18516854662568302 -0.17142746862365463 0.0 -0.0020856604503649463 0.0 0.0
0.19739746734271063 -0.18328036279003407 0.0 -0.00231186249223758 0.0 0.0
0.20221901904747486 -0.1881568112237955 0.0 2.9065291839991403e-15 0.0 0.0
0.19739746734268424 -0.18328036279000642 0.0 0.002311862492243702 0.0 0.0
0.1851685466256284 -0.1714274686236044 0.0 0.002085660450374619 0.0 0.0
0.1687361664468265 -0.15563911816908393 0.0 0.0022123261571116142 0.0 0.0
0.14981796956998805 -0.13755588221189688 0.0 0.00197416334979244 0.0 0.0
0.12983820274829355 -0.11858436419776985 0.0 0.0015436077858720434 0.0 0.0
0.10998047022304427 -0.09984676996032088 0.0 0.00108592438933746 0.0 0.0
0.09107349619999365 -0.0821113125311426 0.0 0.0006883872194719453 0.0 0.0
0.0736033619703945 -0.06580369711462251 0.0 0.0003600162738715499 0.0 0.0
0.05781975424983658 -0.05111913795391225 0.0 6.589800984306083e-05 0.0 0.0
0.043888868015975226 -0.0381829524706501 0.0 -0.00014680402946392213 0.0 0.0
0.031965794300490645 -0.027117471705564486 0.0 -0.00030992915168049566 0.0 0.0
0.022171598356347605 -0.018047269785112945 0.0 -0.0004214758492576056 0.0 0.0
0.014551579956159234 -0.011052098997930488 0.0 -0.00044654960583708696 0.0 0.0
0.00901320334316781 -0.006095471204168774 0.0 -0.0004089232594950005 0.0 0.0
0.005320481186347969 -0.0029654226175677622 0.0 -0.0003065877928728638 0.0 0.0
0.00318265885261455 -0.0013702187590727646 0.0 -0.00016181563266118277 0.0 0.0
0.0022014515462739997 -0.0008787405065927266 0.0 2.6616279621181302e-06 0.0 0.0
0.0025615467622392037 -0.000615128362895924 0.0 0.0008160206164501184 0.0 0.0
0.00858407313651878 -0.002441702490387345 0.0 0.007140933069559272 0.0 0.0
0.013981467740582084 -0.023407096080452452 0.0 0.0012763132151618474 0.0 0.0
0.009731723570179075 -0.0209717548474536 0.0 -0.0008047508641646497 0.0 0.0
0.005703007546824476 -0.0018227741725002009 0.0 -0.005793267042210856 0.0 0.0
0.001697380669985837 -0.00047609945340927455 0.0 -0.0005208784944357848 0.0 0.0
0.0019456582730347032 -0.0008270803960695604 0.0 -0.00019689370386217459 0.0 0.0
0.002747343871566013 -0.001235894807034497 0.0 -0.00015327477557555174 0.0 0.0
0.004564154959863641 -0.002656186928625419 0.0 -0.0002209261519066749 0.0 0.0
0.007847441414056558 -0.005568487828098579 0.0 -0.0004977021440595732 0.0 0.0
0.012869669612969974 -0.010259040904406477 0.0 -0.0009305121460549204 0.0 0.0
0.019819821574463947 -0.016917161332079995 0.0 -0.0015360946074534007 0.0 0.0
0.028733114739244822 -0.025550534261719708 0.0 -0.0022876828173492543 0.0 0.0
0.039526867917472445 -0.03605966907658378 0.0 -0.003109256231670703 0.0 0.0
0.05208012867523993 -0.04831626953237687 0.0 -0.003946028383931082 0.0 0.0
0.06628958403289067 -0.06221843008611466 0.0 -0.004817186991086649 0.0 0.0
0.08203791326692796 -0.0776707961891673 0.0 -0.005732023786646306 0.0 0.0
0.0991125249327298 -0.09449375722014011 0.0 -0.00666653091724208 0.0 0.0
0.11709303447545745 -0.1122947189440778 0.0 -0.007542721298309477 0.0 0.0
0.13525061596479596 -0.1303622583809812 0.0 -0.008141787125139457 0.0 0.0
0.15253270400529886 -0.14764097882608876 0.0 -0.008134779466047282 0.0 0.0
0.1675547656841201 -0.1627624608926456 0.0 -0.007306825574949012 0.0 0.0
0.1783431669664228 -0.173942379117238 0.0 -0.006205506278502734 0.0 0.0
0.18238068934822083 -0.17859134549550035 0.0 7.771127491507102e-15 0.0 0.0
0.1783431669663978 -0.17394237911721339 0.0 0.006205506278522549 0.0 0.0
0.1675547656840718 -0.1627624608925987 0.0 0.007306825574972048 0.0 0.0
0.15253270400523056 -0.147640978826018 0.0 0.008134779466058187 0.0 0.0
0.135250615964715 -0.1303622583809007 0.0 0.008141787125138002 0.0 0.0
0.11709303447537187 -0.11229471894399629 0.0 0.007542721298305791 0.0 0.0
0.09911252493264393 -0.0944937572200519 0.0 0.006666530917240335 0.0 0.0
0.0820379132668422 -0.07767079618908188 0.0 0.00573202378664181 0.0 0.0
0.06628958403280653 -0.06221843008603138 0.0 0.004817186991081518 0.0 0.0
0.05208012867516167 -0.048316269532300504 0.0 0.003946028383923437 0.0 0.0
0.03952686791740486 -0.03605966907651758 0.0 0.0031092562316661805 0.0 0.0
0.028733114739190713 -0.025550534261671424 0.0 0.0022876828173430163 0.0 0.0
0.019819821574422324 -0.016917161332037575 0.0 0.0015360946074475111 0.0 0.0
0.012869669612939828 -0.010259040904376569 0.0 0.0009305121460521085 0.0 0.0
0.00784744141403751 -0.005568487828080501 0.0 0.0004977021440561442 0.0 0.0
0.0045641549598538595 -0.0026561869286186525 0.0 0.00022092615190608434 0.0 0.0
0.00274734387156253 -0.001235894807031024 0.0 0.00015327477557570927 0.0 0.0
0.0019456582730337227 -0.0008270803960690745 0.0 0.00019689370386080776 0.0 0.0
0.0016973806699855467 -0.00047609945340971614 0.0 0.0005208784944337395 0.0 0.0
0.005703007546817642 -0.0018227741724961997 0.0 0.005793267042199441 0.0 0.0
0.00973172357016534 -0.020971754847427426 0.0 0.0008047508641274466 0.0 0.0
0.007116207454335267 -0.016707375415885975 0.0 -0.003751474767496421 0.0 0.0
0.004039331437253935 -0.0010114368746967667 0.0 -0.005803357208577152 0.0 0.0
0.0011835856179711261 -0.0002622927336599895 0.0 -0.0004766517480220666 0.0 0.0
0.0016513582451922063 -0.0007033432954519465 0.0 -0.0004803980046430424 0.0 0.0
0.0023527759873222943 -0.0010047545888600133 0.0 -0.0004840716615227206 0.0 0.0
0.0038474448054575307 -0.002075587310110787 0.0 -0.0006045209087319719 0.0 0.0
0.006695122099891236 -0.004532410867471576 0.0 -0.0011316101519088164 0.0 0.0
0.011174357266686887 -0.008678933242691885 0.0 -0.0019745594446610826 0.0 0.0
0.017418653616519685 -0.014643215563361778 0.0 -0.0031401387284839097 0.0 0.0
0.02542382189998001 -0.022390431442805996 0.0 -0.004554497430515923 0.0 0.0
0.035078146403831764 -0.0317810062966655 0.0 -0.006084325074322064 0.0 0.0
0.046258678871813355 -0.042682224533696835 0.0 -0.007611635529668117 0.0 0.0
0.05888562730332444 -0.05502014486263171 0.0 -0.009129510185274808 0.0 0.0
0.07289274879013741 -0.06875019101888727 0.0 -0.010709479146439 0.0 0.0
0.08812027413743827 -0.08373898380812708 0.0 -0.01233290959581446 0.0 0.0
0.10421929008768717 -0.0996628141085784 0.0 -0.01382788686252268 0.0 0.0
0.12058250472788849 -0.11592820536835877 0.0 -0.014833489111909768 0.0 0.0
0.13627168405918214 -0.13161334085720122 0.0 -0.014854400159698978 0.0 0.0
0.1499124920041155 -0.14540285583855872 0.0 -0.013548357533066085 0.0 0.0
0.1597303689768796 -0.15546452637481004 0.0 -0.01089274445722265 0.0 0.0
0.1634435976295934 -0.159906017777538 0.0 1.3346095062427565e-14 0.0 0.0
0.15973036897685652 -0.15546452637478253 0.0 0.01089274445725764 0.0 0.0
0.14991249200407195 -0.14540285583851834 0.0 0.013548357533102129 0.0 0.0
0.1362716840591217 -0.1316133408571428 0.0 0.01485440015971893 0.0 0.0
0.12058250472781737 -0.11592820536828877 0.0 0.014833489111911648 0.0 0.0
0.10421929008761148 -0.09966281410850136 0.0 0.013827886862516785 0.0 0.0
0.08812027413736154 -0.08373898380805216 0.0 0.012332909595808524 0.0 0.0
0.07289274879006122 -0.06875019101881386 0.0 0.01070947914643524 0.0 0.0
0.05888562730324995 -0.05502014486255693 0.0 0.00912951018526474 0.0 0.0
0.04625867887174389 -0.04268222453362994 0.0 0.0076116355296574865 0.0 0.0
0.03507814640377131 -0.03178100629661072 0.0 0.006084325074311003 0.0 0.0
0.025423821899931157 -0.022390431442760407 0.0 0.004554497430504456 0.0 0.0
0.017418653616482385 -0.014643215563322855 0.0 0.003140138728475456 0.0 0.0
0.011174357266660159 -0.00867893324266433 0.0 0.0019745594446551806 0.0 0.0
0.006695122099875145 -0.004532410867458046 0.0 0.0011316101519042922 0.0 0.0
0.0038474448054499075 -0.0020755873101059924 0.0 0.000604520908731154 0.0 0.0
0.002352775987319442 -0.0010047545888592134 0.0 0.0004840716615225712 0.0 0.0
0.0016513582451914107 -0.0007033432954515647 0.0 0.00048039800464267876 0.0 0.0
0.0011835856179708902 -0.00026229273366093616 0.0 0.00047665174802059005 0.0 0.0
0.004039331437247087 -0.0010114368746932333 0.0 0.005803357208563055 0.0 0.0
0.007116207454321791 -0.01670737541585985 0.0 0.003751474767472808 0.0 0.0
0.00536389218047751 -0.013443013809668301 0.0 -0.004182139636786899 0.0 0.0
0.00297590069594562 -0.0007303640413260459 0.0 -0.005291903148228697 0.0 0.0
0.0008436860977862521 -0.00014768952827002522 0.0 -0.0007624630208597956 0.0 0.0
0.001364307705210943 -0.0005609039261690418 0.0 -0.0007643376225832168 0.0 0.0
0.0019916706824437505 -0.0008283567697737085 0.0 -0.0008079068900397412 0.0 0.0
0.003188700192768966 -0.001589452655983921 0.0 -0.0009425723107368031 0.0 0.0
0.0055769224987507315 -0.0035520173415018452 0.0 -0.0015571788744832675 0.0 0.0
0.009481118596288455 -0.00711857368012794 0.0 -0.002732665484261166 0.0 0.0
0.01499255326771495 -0.012357197744724515 0.0 -0.004322634293963687 0.0 0.0
0.022067517104705843 -0.019192958468190073 0.0 -0.006240837508992892 0.0 0.0
0.030571055814973755 -0.02745516320297199 0.0 -0.008300841835793948 0.0 0.0
0.040378085785601564 -0.037003058971575256 0.0 -0.010351626902797671 0.0 0.0
0.05142547493869061 -0.047778537925955544 0.0 -0.012380053026768591 0.0 0.0
0.06367671183297002 -0.059773136009558456 0.0 -0.014456475658352737 0.0 0.0
0.0770354109411669 -0.07290784683436255 0.0 -0.01657521909316875 0.0 0.0
0.09124475886112801 -0.08694110089129241 0.0 -0.018545620268139797 0.0 0.0
0.1058096913571677 -0.10140145943405572 0.0 -0.019929683759400244 0.0 0.0
0.11990963256751211 -0.11549942748954009 0.0 -0.020128551307632615 0.0 0.0
0.13230679444109547 -0.12801554754721992 0.0 -0.018519306016434905 0.0 0.0
0.14145640296632714 -0.13733246774732072 0.0 -0.014268380631407987 0.0 0.0
0.14501586035685407 -0.1419138137103124 0.0 1.9822685159986975e-14 0.0 0.0
0.14145640296630654 -0.13733246774728927 0.0 0.014268380631454844 0.0 0.0
0.1323067944410566 -0.1280155475471841 0.0 0.018519306016479716 0.0 0.0
0.11990963256745932 -0.1154994274894871 0.0 0.020128551307659306 0.0 0.0
0.10580969135710626 -0.10140145943399462 0.0 0.019929683759404657 0.0 0.0
0.09124475886106173 -0.0869411008912255 0.0 0.01854562026813168 0.0 0.0
0.07703541094109943 -0.07290784683429456 0.0 0.016575219093160405 0.0 0.0
0.06367671183290284 -0.059773136009499045 0.0 0.014456475658346877 0.0 0.0
0.05142547493862506 -0.047778537925882616 0.0 0.012380053026754722 0.0 0.0
0.040378085785541445 -0.03700305897151651 0.0 0.010351626902782771 0.0 0.0
0.030571055814921047 -0.02745516320292343 0.0 0.008300841835778061 0.0 0.0
0.022067517104662444 -0.019192958468145744 0.0 0.006240837508978223 0.0 0.0
0.01499255326768207 -0.01235719774469072 0.0 0.0043226342939548315 0.0 0.0
0.009481118596265478 -0.00711857368010726 0.0 0.0027326654842545002 0.0 0.0
0.005576922498737346 -0.0035520173414904307 0.0 0.00155717887448035 0.0 0.0
0.0031887001927628587 -0.0015894526559791585 0.0 0.0009425723107348493 0.0 0.0
0.001991670682441828 -0.0008283567697735908 0.0 0.0008079068900391726 0.0 0.0
0.0013643077052106025 -0.0005609039261694411 0.0 0.0007643376225824826 0.0 0.0
0.0008436860977862427 -0.00014768952827083238 0.0 0.0007624630208578817 0.0 0.0
0.0029759006959398904 -0.0007303640413228427 0.0 0.00529190314821669 0.0 0.0
0.005363892180465919 -0.013443013809645002 0.0 0.004182139636770945 0.0 0.0
0.004058672801401324 -0.01082049296034183 0.0 -0.0037253000126607058 0.0 0.0
0.0022212772684784892 -0.0005883331880614153 0.0 -0.004724648072232763 0.0 0.0
0.0006126440541142469 -9.183321073150931e-05 0.0 -0.0011527183605523884 0.0 0.0
0.0011030241467180806 -0.00042674050994198057 0.0 -0.0010701526816936392 0.0 0.0
0.0016584172134612733 -0.0006815615494913353 0.0 -0.0011291950213501714 0.0 0.0
0.002600141140435498 -0.0012082764499978214 0.0 -0.0012532554948425868 0.0 0.0
0.004518360837829463 -0.0026734788912453427 0.0 -0.0018496927797570688 0.0 0.0
0.007809628354881373 -0.005599401219785864 0.0 -0.003166161470199545 0.0 0.0
0.0125671451656263 -0.010087020462724246 0.0 -0.005075254358765057 0.0 0.0
0.018691856450680274 -0.01598967779631618 0.0 -0.00733991676994694 0.0 0.0
0.026035648074347457 -0.02311339352251603 0.0 -0.009762114517055883 0.0 0.0
0.03446579422295704 -0.03130653449449457 0.0 -0.012167634785134529 0.0 0.0
0.04393066057167173 -0.04052061825534209 0.0 -0.01454579480162984 0.0 0.0
0.054428336882905944 -0.050777184177253805 0.0 -0.016968669874150778 0.0 0.0
0.06590736519062798 -0.062046764816884786 0.0 -0.019414894040430893 0.0 0.0
0.07819544429108485 -0.07416682462191117 0.0 -0.021684723756854308 0.0 0.0
0.09092966097463072 -0.08678701959003424 0.0 -0.023376356560872003 0.0 0.0
0.10344484689271498 -0.09927464326939965 0.0 -0.02385032024443598 0.0 0.0
0.1147034437215171 -0.11061303130321444 0.0 -0.022113296625565833 0.0 0.0
0.12337569162657122 -0.11942032159077612 0.0 -0.0168305857649999 0.0 0.0
0.1268867181457961 -0.12431531513918398 0.0 2.4831699196870005e-14 0.0 0.0
0.12337569162655174 -0.11942032159074775 0.0 0.01683058576505344 0.0 0.0
0.1147034437214822 -0.11061303130318001 0.0 0.022113296625615647 0.0 0.0
0.10344484689266922 -0.09927464326935426 0.0 0.023850320244466608 0.0 0.0
0.09092966097457782 -0.08678701958998167 0.0 0.023376356560877932 0.0 0.0
0.07819544429102733 -0.07416682462185674 0.0 0.021684723756845603 0.0 0.0
0.06590736519056976 -0.06204676481682571 0.0 0.019414894040421946 0.0 0.0
0.05442833688284823 -0.05077718417720008 0.0 0.016968669874143017 0.0 0.0
0.043930660571615564 -0.04052061825528668 0.0 0.014545794801618713 0.0 0.0
0.03446579422290578 -0.03130653449444109 0.0 0.012167634785117015 0.0 0.0
0.02603564807430244 -0.023113393522475392 0.0 0.009762114517035764 0.0 0.0
0.018691856450642908 -0.015989677796280185 0.0 0.00733991676993043 0.0 0.0
0.01256714516559793 -0.010087020462695141 0.0 0.005075254358752726 0.0 0.0
0.007809628354862054 -0.005599401219767213 0.0 0.0031661614701913214 0.0 0.0
0.00451836083781882 -0.0026734788912374367 0.0 0.0018496927797543856 0.0 0.0
0.0026001411404310546 -0.00120827644999383 0.0 0.0012532554948394318 0.0 0.0
0.0016584172134598107 -0.000681561549490301 0.0 0.0011291950213507247 0.0 0.0
0.0011030241467178843 -0.00042674050994244645 0.0 0.0010701526816915372 0.0 0.0
0.0006126440541144451 -9.18332107319171e-05 0.0 0.0011527183605489141 0.0 0.0
0.0022212772684734898 -0.0005883331880582937 0.0 0.004724648072222674 0.0 0.0
0.004058672801391315 -0.010820492960322137 0.0 0.0037253000126489817 0.0 0.0
0.0030385748884410703 -0.008636138585008352 0.0 -0.0030923212842497716 0.0 0.0
0.0016517234670707565 -0.0004946586082502727 0.0 -0.004175860491001947 0.0 0.0
0.00044637504241930586 -7.184968130667374e-05 0.0 -0.001524436507987261 0.0 0.0
0.0008655685033736049 -0.00030625569947278515 0.0 -0.0013786792717492913 0.0 0.0
0.0013489395991954658 -0.0005523819848938724 0.0 -0.0014430650372445107 0.0 0.0
0.002076291377064627 -0.0009141499412648692 0.0 -0.001543386198317213 0.0 0.0
0.003550781713056255 -0.0019343222912237197 0.0 -0.0020826224057576255 0.0 0.0
0.006197388314243644 -0.004177802781913303 0.0 -0.003339587894329572 0.0 0.0
0.010160129698432205 -0.007860632038131917 0.0 -0.0053692516800361335 0.0 0.0
0.015324733249261289 -0.01281226268936187 0.0 -0.007841743702269671 0.0 0.0
0.02149918681251167 -0.01878714619267357 0.0 -0.01045910482652038 0.0 0.0
0.028551417635970515 -0.025624353066236952 0.0 -0.013056961363200925 0.0 0.0
0.03643593886301808 -0.03327891972335536 0.0 -0.015616484700072271 0.0 0.0
0.04517395343218028 -0.041797274946354074 0.0 -0.018212702602465054 0.0 0.0
0.05476915438865503 -0.051196560115847355 0.0 -0.020831122463975095 0.0 0.0
0.06511816010299498 -0.061383823800199966 0.0 -0.023260626407079862 0.0 0.0
0.07596652567152976 -0.07211171523062637 0.0 -0.025138609835933762 0.0 0.0
0.08686071282256168 -0.08293916590446358 0.0 -0.025880637357755455 0.0 0.0
0.09702860402043176 -0.09313773058240825 0.0 -0.02432078564631234 0.0 0.0
0.10534630872324631 -0.10157519304794004 0.0 -0.018691284092819182 0.0 0.0
0.10888266874899073 -0.10692464235199674 0.0 2.4777922769114724e-14 0.0 0.0
0.1053463087232296 -0.10157519304792105 0.0 0.018691284092873333 0.0 0.0
0.09702860402040173 -0.09313773058237479 0.0 0.024320785646364716 0.0 0.0
0.08686071282252289 -0.08293916590442792 0.0 0.02588063735778766 0.0 0.0
0.07596652567148493 -0.07211171523058034 0.0 0.025138609835939973 0.0 0.0
0.06511816010294642 -0.061383823800152726 0.0 0.023260626407070772 0.0 0.0
0.054769154388606155 -0.051196560115801495 0.0 0.020831122463964555 0.0 0.0
0.04517395343213254 -0.041797274946302095 0.0 0.018212702602452766 0.0 0.0
0.036435938862971855 -0.033278919723315294 0.0 0.015616484700059406 0.0 0.0
0.028551417635927664 -0.025624353066193716 0.0 0.013056961363183284 0.0 0.0
0.021499186812474338 -0.01878714619264259 0.0 0.010459104826498321 0.0 0.0
0.0153247332492303 -0.012812262689333134 0.0 0.007841743702251805 0.0 0.0
0.010160129698408587 -0.00786063203810765 0.0 0.005369251680022399 0.0 0.0
0.006197388314228378 -0.004177802781898122 0.0 0.0033395878943216816 0.0 0.0
0.00355078171304791 -0.001934322291216717 0.0 0.0020826224057538404 0.0 0.0
0.002076291377061298 -0.0009141499412643496 0.0 0.0015433861983150735 0.0 0.0
0.0013489395991946147 -0.00055238198489319 0.0 0.0014430650372438427 0.0 0.0
0.0008655685033734255 -0.0003062556994726742 0.0 0.0013786792717479467 0.0 0.0
0.00044637504241954953 -7.184968130670839e-05 0.0 0.0015244365079829097 0.0 0.0
0.0016517234670665687 -0.0004946586082476129 0.0 0.004175860490992141 0.0 0.0
0.003038574888432566 -0.008636138584992058 0.0 0.003092321284241796 0.0 0.0
0.0022312077751813816 -0.006794104868805353 0.0 -0.0025081900348510548 0.0 0.0
0.0012091955689397201 -0.0004242597879671365 0.0 -0.0036794020864049874 0.0 0.0
0.0003165056691821331 -6.652259905381199e-05 0.0 -0.0018315685579369644 0.0 0.0
0.0006453394218603514 -0.00019954765072954407 0.0 -0.0016655220989666467 0.0 0.0
0.0010550771926838953 -0.00042653113127254314 0.0 -0.0017300962371907629 0.0 0.0
0.0016058654312543603 -0.0006877525376052366 0.0 -0.001832500684224914 0.0 0.0
0.0026789239595033164 -0.0013386087110819097 0.0 -0.0022521076636172845 0.0 0.0
0.004689552967297783 -0.002920116495389105 0.0 -0.0033637219762159324 0.0 0.0
0.007817942736950361 -0.005736570402918303 0.0 -0.005248633882219354 0.0 0.0
0.011989890857819893 -0.009696327426943721 0.0 -0.007716416876795489 0.0 0.0
0.016990845907646428 -0.014510596797077984 0.0 -0.010372602922140981 0.0 0.0
0.022662979464993054 -0.01998962690617583 0.0 -0.013004566452103516 0.0 0.0
0.02897040333338636 -0.026090463804469666 0.0 -0.015580264832317621 0.0 0.0
0.03595399397391675 -0.032874347733511076 0.0 -0.018177150886636625 0.0 0.0
0.04365564320833581 -0.04039703593530238 0.0 -0.02078958030096854 0.0 0.0
0.05204072895572811 -0.04863414762126765 0.0 -0.02324174853265223 0.0 0.0
0.060960407052329454 -0.05742289645280754 0.0 -0.02517884385630721 0.0 0.0
0.07015973756752954 -0.06650754386063647 0.0 -0.026138927407852116 0.0 0.0
0.07919395809377103 -0.07551245311641726 0.0 -0.025047228407317736 0.0 0.0
0.08721227928864568 -0.08363430263137407 0.0 -0.019828366479994156 0.0 0.0
0.09082850491320761 -0.0895706038972411 0.0 2.2828093582116793e-14 0.0 0.0
0.08721227928863172 -0.08363430263136751 0.0 0.0198283664800482 0.0 0.0
0.07919395809374621 -0.07551245311638698 0.0 0.025047228407372876 0.0 0.0
0.0701597375674977 -0.06650754386060606 0.0 0.02613892740788666 0.0 0.0
0.06096040705229305 -0.05742289645277103 0.0 0.025178843856312246 0.0 0.0
0.05204072895568871 -0.048634147621225775 0.0 0.023241748532639585 0.0 0.0
0.04365564320829624 -0.04039703593526707 0.0 0.020789580300958566 0.0 0.0
0.03595399397387881 -0.03287434773347119 0.0 0.018177150886625304 0.0 0.0
0.028970403333350186 -0.026090463804435467 0.0 0.015580264832304975 0.0 0.0
0.0226629794649591 -0.01998962690614515 0.0 0.013004566452085496 0.0 0.0
0.01699084590761641 -0.014510596797045947 0.0 0.010372602922119882 0.0 0.0
0.011989890857794902 -0.009696327426917357 0.0 0.007716416876776712 0.0 0.0
0.007817942736932135 -0.005736570402898963 0.0 0.005248633882207519 0.0 0.0
0.00468955296728649 -0.002920116495379824 0.0 0.003363721976208896 0.0 0.0
0.002678923959497418 -0.0013386087110770326 0.0 0.0022521076636117113 0.0 0.0
0.0016058654312524252 -0.0006877525376067615 0.0 0.001832500684222305 0.0 0.0
0.0010550771926831507 -0.000426531131272103 0.0 0.0017300962371887773 0.0 0.0
0.000645339421859938 -0.00019954765072940326 0.0 0.0016655220989656655 0.0 0.0
0.0003165056691821009 -6.652259905338959e-05 0.0 0.0018315685579343918 0.0 0.0
0.001209195568936533 -0.0004242597879660545 0.0 0.0036794020863970996 0.0 0.0
0.0022312077751751322 -0.006794104868791702 0.0 0.002508190034846101 0.0 0.0
0.0015921594816407912 -0.005248486814174488 0.0 -0.0020546277304381013 0.0 0.0
0.0008594660096935693 -0.00037296826005484024 0.0 -0.0032314950502456818 0.0 0.0
0.00020421146173255216 -5.978331154030868e-05 0.0 -0.0020651765881637635 0.0 0.0
0.00043608511883308764 -0.00010478683143012152 0.0 -0.0019128264869967145 0.0 0.0
0.000766577573091654 -0.00029540930935213186 0.0 -0.0019731546934115877 0.0 0.0
0.0011794890567838091 -0.0005027799079430643 0.0 -0.0021146091530893805 0.0 0.0
0.001904085188239211 -0.0008817585377447971 0.0 -0.002400626243458773 0.0 0.0
0.003306592313975302 -0.0018644338847582115 0.0 -0.003256268052085066 0.0 0.0
0.005595484004418739 -0.003800394474540554 0.0 -0.004824399352021284 0.0 0.0
0.008733774077748427 -0.0067081984756996674 0.0 -0.006998752067059846 0.0 0.0
0.012535038631028618 -0.01032778489451333 0.0 -0.009478452249445789 0.0 0.0
0.016828806048891608 -0.014443556016011102 0.0 -0.011971893180108339 0.0 0.0
0.021567632129829612 -0.01899781242623477 0.0 -0.014407430188027481 0.0 0.0
0.026799492659786303 -0.024055225459582212 0.0 -0.016835576717353067 0.0 0.0
0.03260310656545742 -0.029697444467102728 0.0 -0.019276631721946175 0.0 0.0
0.039007660664288756 -0.035963903314626705 0.0 -0.02159368992179145 0.0 0.0
0.0459473931538004 -0.04277973410076327 0.0 -0.02346731383231668 0.0 0.0
0.05334647477098245 -0.05002063886890941 0.0 -0.024514930969467556 0.0 0.0
0.06112067623798635 -0.05767014031186414 0.0 -0.024086318938973325 0.0 0.0
0.06880494572913516 -0.06541692881073287 0.0 -0.02011172697545213 0.0 0.0
0.07252500352742414 -0.0720700123410397 0.0 1.9981412358038853e-14 0.0 0.0
0.06880494572912442 -0.06541692881072945 0.0 0.020111726975504573 0.0 0.0
0.06112067623796713 -0.057670140311847376 0.0 0.02408631893902424 0.0 0.0
0.05334647477095734 -0.05002063886888526 0.0 0.024514930969499776 0.0 0.0
0.04594739315377082 -0.0427797341007345 0.0 0.023467313832318662 0.0 0.0
0.03900766066425809 -0.03596390331459713 0.0 0.02159368992177885 0.0 0.0
0.032603106565428024 -0.029697444467075847 0.0 0.019276631721934986 0.0 0.0
0.026799492659758808 -0.024055225459559893 0.0 0.016835576717344838 0.0 0.0
0.02156763212980379 -0.018997812426208707 0.0 0.014407430188017805 0.0 0.0
0.016828806048866156 -0.014443556015990958 0.0 0.01197189318009091 0.0 0.0
0.012535038631005836 -0.01032778489449023 0.0 0.009478452249425636 0.0 0.0
0.008733774077730232 -0.0067081984756807 0.0 0.006998752067040689 0.0 0.0
0.005595484004405627 -0.0038003944745276736 0.0 0.004824399352012378 0.0 0.0
0.0033065923139671493 -0.0018644338847524414 0.0 0.0032562680520768703 0.0 0.0
0.001904085188235271 -0.0008817585377433161 0.0 0.002400626243454937 0.0 0.0
0.0011794890567823975 -0.0005027799079421949 0.0 0.0021146091530871223 0.0 0.0
0.0007665775730911881 -0.0002954093093520263 0.0 0.001973154693409127 0.0 0.0
0.00043608511883291677 -0.00010478683143049941 0.0 0.001912826486994272 0.0 0.0
0.00020421146173230206 -5.978331153950775e-05 0.0 0.002065176588161525 0.0 0.0
0.0008594660096911007 -0.0003729682600546485 0.0 0.0032314950502397516 0.0 0.0
0.0015921594816360781 -0.005248486814163798 0.0 0.0020546277304347048 0.0 0.0
0.0011085921789239588 -0.003993371413179984 0.0 -0.0017648556303154314 0.0 0.0
0.0005846915874310554 -0.00034215262324666237 0.0 -0.002836610091563861 0.0 0.0
9.371354537233762e-05 -4.0464961731665806e-05 0.0 -0.0022300009841546313 0.0 0.0
0.00023487461701228918 -1.9167045907153128e-05 0.0 -0.0021091548503352716 0.0 0.0
0.00047697255249969507 -0.00016060783066091855 0.0 -0.002163584393159057 0.0 0.0
0.0007736211186213363 -0.000325940868422857 0.0 -0.0023511215003252663 0.0 0.0
0.001220990537432993 -0.0005439291088990598 0.0 -0.002590882411770148 0.0 0.0
0.0020691820570039837 -0.0010443807096233743 0.0 -0.0030970808507265746 0.0 0.0
0.0035321623004110035 -0.0021435457927914733 0.0 -0.004180198687623648 0.0 0.0
0.005616693361454223 -0.0039605278212763015 0.0 -0.0058040446133032966 0.0 0.0
0.008181927916243378 -0.006329330328305504 0.0 -0.007814870018025092 0.0 0.0
0.011079229025027991 -0.009057520821108955 0.0 -0.009939983184605464 0.0 0.0
0.014253579590820806 -0.012063445507724637 0.0 -0.012076886116174808 0.0 0.0
0.017745702563700012 -0.015405673552066693 0.0 -0.014198711599236417 0.0 0.0
0.021646329400254394 -0.019166123308328106 0.0 -0.016308956758685017 0.0 0.0
0.026047314707744493 -0.02343699854943484 0.0 -0.01836213670687488 0.0 0.0
0.03098232661491008 -0.028249711782656582 0.0 -0.020116406030687536 0.0 0.0
0.03646875607648526 -0.033579296535719894 0.0 -0.02115443200676585 0.0 0.0
0.042735972280620475 -0.03961459958744726 0.0 -0.021180108620996393 0.0 0.0
0.049919827850712514 -0.04671810095939547 0.0 -0.019174263873572496 0.0 0.0
0.053723244274330784 -0.054187817010947645 0.0 1.6904880273393985e-14 0.0 0.0
0.049919827850705326 -0.046718100959390045 0.0 0.019174263873617488 0.0 0.0
0.042735972280606375 -0.03961459958743552 0.0 0.021180108621042176 0.0 0.0
0.03646875607646722 -0.03357929653570347 0.0 0.021154432006792345 0.0 0.0
0.03098232661488967 -0.02824971178263558 0.0 0.02011640603068362 0.0 0.0
0.026047314707724083 -0.02343699854941243 0.0 0.01836213670686414 0.0 0.0
0.021646329400235177 -0.01916612330830927 0.0 0.01630895675867419 0.0 0.0
0.017745702563682807 -0.01540567355205483 0.0 0.014198711599232042 0.0 0.0
0.014253579590804085 -0.01206344550770899 0.0 0.012076886116165381 0.0 0.0
0.01107922902501114 -0.00905752082109357 0.0 0.009939983184591779 0.0 0.0
0.008181927916228503 -0.006329330328293978 0.0 0.007814870018009859 0.0 0.0
0.005616693361442773 -0.003960527821266077 0.0 0.005804044613289298 0.0 0.0
0.003532162300403178 -0.0021435457927846007 0.0 0.004180198687618099 0.0 0.0
0.0020691820569993177 -0.0010443807096181235 0.0 0.0030970808507225695 0.0 0.0
0.001220990537431047 -0.0005439291088993876 0.0 0.0025908824117677975 0.0 0.0
0.0007736211186208571 -0.00032594086842262405 0.0 0.0023511215003232445 0.0 0.0
0.00047697255249966623 -0.00016060783066064097 0.0 0.0021635843931570196 0.0 0.0
0.00023487461701205816 -1.9167045906227036e-05 0.0 0.0021091548503310805 0.0 0.0
9.371354537207765e-05 -4.046496173119395e-05 0.0 0.002230000984153324 0.0 0.0
0.000584691587429767 -0.00034215262324688365 0.0 0.0028366100915592457 0.0 0.0
0.0011085921789215551 -0.003993371413172214 0.0 0.001764855630313547 0.0 0.0
0.0007657645706941692 -0.0030101677499990106 0.0 -0.001592614957351338 0.0 0.0
0.00037444532460396946 -0.000335437331358442 0.0 -0.002529442007025692 0.0 0.0
-2.053771172870419e-05 -4.402233678534812e-06 0.0 -0.0023318993577849294 0.0 0.0
3.947370842596355e-05 6.007044675248463e-05 0.0 -0.002249293919249384 0.0 0.0
0.00018738873271591404 -2.6445788479569164e-05 0.0 -0.0022997804155143794 0.0 0.0
0.00036659389472553554 -0.0001410063823493123 0.0 -0.002505518248853292 0.0 0.0
0.0005994720680946315 -0.00026254496628750745 0.0 -0.002778413622313964 0.0 0.0
0.0009852307127769333 -0.0004578531800776282 0.0 -0.0030694903601799902 0.0 0.0
0.001667818250104159 -0.0008888289166093772 0.0 -0.003566733286850841 0.0 0.0
0.002695863892951136 -0.0016708237508040564 0.0 -0.004447834307643156 0.0 0.0
0.003992858020031395 -0.0027558984684805795 0.0 -0.005738598192502162 0.0 0.0
0.005459875408772921 -0.0040425135498709875 0.0 -0.007302437545066672 0.0 0.0
0.007054639683438391 -0.0054805544967654884 0.0 -0.008997538075678537 0.0 0.0
0.008812906119644361 -0.0071032921793263 0.0 -0.010764786390704094 0.0 0.0
0.01081126797640312 -0.008975202760998098 0.0 -0.012593623077365494 0.0 0.0
0.01317686840261896 -0.011213562319347732 0.0 -0.014467730259895107 0.0 0.0
0.016067488815988556 -0.013970453070879268 0.0 -0.016224393101982683 0.0 0.0
0.019617129358800403 -0.017380355605306645 0.0 -0.017392276231863638 0.0 0.0
0.024099491870504003 -0.02162887162569705 0.0 -0.017448002888100313 0.0 0.0
0.030334534667076855 -0.02746311809979583 0.0 -0.016730888895698622 0.0 0.0
0.034040302998996415 -0.035621397767861704 0.0 1.544684519183548e-14 0.0 0.0
0.030334534667073774 -0.02746311809979153 0.0 0.016730888895736016 0.0 0.0
0.02409949187049638 -0.021628871625689054 0.0 0.01744800288813768 0.0 0.0
0.01961712935878962 -0.017380355605294405 0.0 0.01739227623188024 0.0 0.0
0.016067488815977537 -0.013970453070873707 0.0 0.016224393101975983 0.0 0.0
0.013176868402608984 -0.011213562319335025 0.0 0.014467730259883245 0.0 0.0
0.010811267976394952 -0.008975202760990978 0.0 0.012593623077355131 0.0 0.0
0.008812906119637857 -0.007103292179320022 0.0 0.010764786390699308 0.0 0.0
0.007054639683431963 -0.005480554496758708 0.0 0.008997538075671106 0.0 0.0
0.005459875408765622 -0.004042513549859413 0.0 0.007302437545056457 0.0 0.0
0.003992858020024419 -0.002755898468472786 0.0 0.005738598192489347 0.0 0.0
0.0026958638929463624 -0.0016708237508013168 0.0 0.0044478343076359925 0.0 0.0
0.0016678182501014185 -0.0008888289166052071 0.0 0.0035667332868478075 0.0 0.0
0.0009852307127751134 -0.00045785318007603317 0.0 0.003069490360178472 0.0 0.0
0.0005994720680938127 -0.00026254496628802195 0.0 0.002778413622311153 0.0 0.0
0.0003665938947255179 -0.0001410063823517929 0.0 0.002505518248850864 0.0 0.0
0.0001873887327159076 -2.644578848113037e-05 0.0 0.002299780415512748 0.0 0.0
3.947370842586638e-05 6.00704467534149e-05 0.0 0.0022492939192450653 0.0 0.0
-2.0537711728861932e-05 -4.402233677665493e-06 0.0 0.0023318993577835854 0.0 0.0
0.0003744453246029575 -0.00033543733135894165 0.0 0.002529442007023723 0.0 0.0
0.000765764570692435 -0.0030101677499937032 0.0 0.0015926149573507417 0.0 0.0
0.0005246881087857524 -0.0022723552516893827 0.0 -0.0014981716842554066 0.0 0.0
0.00021421947040339734 -0.0003388863868280241 0.0 -0.00231728861198887 0.0 0.0
-0.00013414311478185823 4.1200071517161956e-05 0.0 -0.002378419015668928 0.0 0.0
-0.00015120596346505585 0.00013590015076391315 0.0 -0.002331400962722596 0.0 0.0
-9.829385298072409e-05 0.00010462705847384728 0.0 -0.002376204503167496 0.0 0.0
-4.568448203198958e-05 4.838976334742924e-05 0.0 -0.0025710776981349966 0.0 0.0
-1.6502724866693455e-05 1.279516556416621e-05 0.0 -0.002863943708407564 0.0 0.0
-4.968787879965287e-06 3.0104752706419744e-06 0.0 -0.0031201454131983943 0.0 0.0
-9.476285238393684e-07 3.667464410711741e-07 0.0 -0.003313422918477222 0.0 0.0
3.4573104329161395e-07 -1.656107189582567e-07 0.0 -0.0037750107146037578 0.0 0.0
-5.849410092292852e-07 -2.8533302418845465e-07 0.0 -0.00464705832594606 0.0 0.0
-8.81441789062369e-06 7.929929530436561e-06 0.0 -0.005907645746511315 0.0 0.0
-2.7375315018850687e-05 2.5352486817121415e-05 0.0 -0.007364410734587454 0.0 0.0
-3.911144680798133e-05 4.177867518716813e-05 0.0 -0.008964698246539964 0.0 0.0
2.461484309275344e-05 -1.4294846540318078e-07 0.0 -0.010711572772788128 0.0 0.0
0.0003258142930064173 -0.00024228717308640523 0.0 -0.01259212391447389 0.0 0.0
0.0011460011545713904 -0.0009361157702274618 0.0 -0.01453005669887631 0.0 0.0
0.002813905067912969 -0.002409191188224093 0.0 -0.01631105963786712 0.0 0.0
0.005543052904176912 -0.004780382288470325 0.0 -0.017614397314413558 0.0 0.0
0.010146622123579455 -0.00852089515307561 0.0 -0.018422204683296632 0.0 0.0
0.013105912417634646 -0.01715819978639065 0.0 1.1118710119273345e-14 0.0 0.0
0.010146622123578879 -0.00852089515307418 0.0 0.0184222046833193 0.0 0.0
0.005543052904174494 -0.004780382288468047 0.0 0.01761439731443084 0.0 0.0
0.0028139050679106084 -0.0024091911882187147 0.0 0.01631105963786914 0.0 0.0
0.001146001154571564 -0.000936115770229104 0.0 0.014530056698866596 0.0 0.0
0.0003258142930080911 -0.00024228717308660494 0.0 0.012592123914462693 0.0 0.0
2.4614843094982776e-05 -1.4294846918368534e-07 0.0 0.010711572772781192 0.0 0.0
-3.9111446804399345e-05 4.177867518420533e-05 0.0 0.00896469824653413 0.0 0.0
-2.7375315015302094e-05 2.5352486811342943e-05 0.0 0.0073644107345795205 0.0 0.0
-8.814417888484559e-06 7.929929532743906e-06 0.0 0.005907645746500097 0.0 0.0
-5.849410076129566e-07 -2.853330239446989e-07 0.0 0.00464705832593699 0.0 0.0
3.457310447221916e-07 -1.656107224898962e-07 0.0 0.003775010714601101 0.0 0.0
-9.476285231634768e-07 3.6674644520956023e-07 0.0 0.0033134229184756947 0.0 0.0
-4.968787879479632e-06 3.0104752667365596e-06 0.0 0.003120145413196003 0.0 0.0
-1.6502724866279466e-05 1.2795165568041914e-05 0.0 0.0028639437084044365 0.0 0.0
-4.568448203155158e-05 4.8389763344631524e-05 0.0 0.0025710776981321365 0.0 0.0
-9.829385298037161e-05 0.00010462705847315686 0.0 0.0023762045031655425 0.0 0.0
-0.00015120596346500538 0.0001359001507629667 0.0 0.002331400962719465 0.0 0.0
-0.00013414311478178884 4.120007151738482e-05 0.0 0.0023784190156679584 0.0 0.0
0.00021421947040318963 -0.00033888638682878146 0.0 0.002317288611985919 0.0 0.0
0.0005246881087851544 -0.002272355251686212 0.0 0.0014981716842552106 0.0 0.0
0.00035865034162502294 -0.001734473371674877 0.0 -0.001437396569387548 0.0 0.0
9.52712113187322e-05 -0.00033002740920047146 0.0 -0.0021548399110232035 0.0 0.0
-0.0002414407162354048 8.611001798825249e-05 0.0 -0.0023754509327590695 0.0 0.0
-0.00033590168365353883 0.00020975762137380227 0.0 -0.0023536618501321907 0.0 0.0
-0.00037784915257768777 0.00023053706627428446 0.0 -0.002384202906194505 0.0 0.0
-0.00045417594095080503 0.0002362975289958771 0.0 -0.002550191718232423 0.0 0.0
-0.0006315315949331177 0.00028834327031972726 0.0 -0.002801308979599648 0.0 0.0
-0.000995163886162895 0.0004644809100838699 0.0 -0.003082315663912188 0.0 0.0
-0.0016692737888202723 0.0008893325564467397 0.0 -0.003572161718365526 0.0 0.0
-0.0026943673593419195 0.0016695867659903378 0.0 -0.004446799132592845 0.0 0.0
-0.003994897551341491 0.0027568496622171357 0.0 -0.005735595178566668 0.0 0.0
-0.005479821257069198 0.004059911195277017 0.0 -0.007304690206923624 0.0 0.0
-0.007109809269555369 0.005532750233238856 0.0 -0.008994388798270034 0.0 0.0
-0.008886860050009543 0.00718657361663369 0.0 -0.010750958936990246 0.0 0.0
-0.01075278312487198 0.008970534987807427 0.0 -0.012597991426477299 0.0 0.0
-0.012528149825951216 0.010717857526307602 0.0 -0.014611893460145013 0.0 0.0
-0.013877627612390031 0.012101268753621492 0.0 -0.016843203666803263 0.0 0.0
-0.0143726274841557 0.012665063851864097 0.0 -0.019384730193359796 0.0 0.0
-0.013548639067424411 0.012085347706246793 0.0 -0.02217852162738265 0.0 0.0
-0.009657476877533825 0.009305333498466366 0.0 -0.02347089888869593 0.0 0.0
-0.006569492892345846 -7.422769061662146e-05 0.0 1.1500349283988243e-14 0.0 0.0
-0.009657476877534266 0.009305333498464408 0.0 0.023470898888719893 0.0 0.0
-0.01354863906742073 0.012085347706242333 0.0 0.02217852162740209 0.0 0.0
-0.014372627484146042 0.012665063851861377 0.0 0.019384730193362634 0.0 0.0
-0.01387762761237707 0.01210126875361295 0.0 0.016843203666794128 0.0 0.0
-0.012528149825937872 0.010717857526294937 0.0 0.014611893460130754 0.0 0.0
-0.010752783124859337 0.008970534987797011 0.0 0.012597991426466087 0.0 0.0
-0.00888686004999653 0.007186573616621988 0.0 0.010750958936979773 0.0 0.0
-0.007109809269541929 0.005532750233222279 0.0 0.008994388798259955 0.0 0.0
-0.005479821257056474 0.004059911195264781 0.0 0.0073046902069094765 0.0 0.0
-0.003994897551330189 0.0027568496622090008 0.0 0.005735595178551547 0.0 0.0
-0.002694367359333884 0.0016695867659846353 0.0 0.004446799132584255 0.0 0.0
-0.0016692737888156588 0.000889332556444511 0.0 0.0035721617183616747 0.0 0.0
-0.0009951638861600191 0.00046448091008221236 0.0 0.003082315663909763 0.0 0.0
-0.0006315315949317076 0.00028834327032110305 0.0 0.002801308979596425 0.0 0.0
-0.0004541759409502239 0.00023629752899500237 0.0 0.0025501917182303327 0.0 0.0
-0.00037784915257738213 0.00023053706627419523 0.0 0.0023842029061929533 0.0 0.0
-0.00033590168365330925 0.00020975762137312524 0.0 0.0023536618501301125 0.0 0.0
-0.0002414407162352271 8.611001798841503e-05 0.0 0.002375450932758652 0.0 0.0
9.527121131884162e-05 -0.0003300274092012944 0.0 0.002154839911021117 0.0 0.0
0.00035865034162526726 -0.001734473371672673 0.0 0.001437396569386228 0.0 0.0
0.0002446486934820204 -0.0013146612099859574 0.0 -0.0013367973430511717 0.0 0.0
6.064312149454019e-06 -0.0003032300970134244 0.0 -0.00199839400409248 0.0 0.0
-0.00034110926064245275 0.00012712944118726605 0.0 -0.0023218618762528387 0.0 0.0
-0.0005123607150559709 0.0002804856528501209 0.0 -0.0023144879102230268 0.0 0.0
-0.0006489329630932467 0.0003497082392073279 0.0 -0.0023221850257156805 0.0 0.0
-0.0008522414930454095 0.0004165702787651408 0.0 -0.002437828704172888 0.0 0.0
-0.0012509966628662347 0.0005720507380594224 0.0 -0.0026404069060367926 0.0 0.0
-0.0020773906014518286 0.001051011050428123 0.0 -0.0031216829267131487 0.0 0.0
-0.003531328458991857 0.002141996747154404 0.0 -0.004184388104928131 0.0 0.0
-0.005614598514645648 0.003958434964562258 0.0 -0.005800502225556007 0.0 0.0
-0.008185562876195686 0.006333051773084898 0.0 -0.007813963169691074 0.0 0.0
-0.011098430870278671 0.009075730896688302 0.0 -0.00993656617874474 0.0 0.0
-0.01430111436352079 0.012110474806076747 0.0 -0.012041339108537618 0.0 0.0
-0.01780593520182533 0.015476210224497418 0.0 -0.01410895129252123 0.0 0.0
-0.021579692540904954 0.01914975408899811 0.0 -0.0162442558690637 0.0 0.0
-0.025431619290230155 0.022959486812186587 0.0 -0.01866141396321681 0.0 0.0
-0.028970628640048637 0.02651248510583986 0.0 -0.02158763173846715 0.0 0.0
-0.03162232298741756 0.02922662549249088 0.0 -0.02513310687313941 0.0 0.0
-0.03230340854391219 0.030174813927768468 0.0 -0.028610357603750598 0.0 0.0
-0.028825935416537267 0.0272393534350212 0.0 -0.02943996447843106 0.0 0.0
-0.025688641629806823 0.015955587172100442 0.0 1.7284784714632906e-14 0.0 0.0
-0.028825935416534457 0.027239353435019507 0.0 0.02943996447846954 0.0 0.0
-0.03230340854390265 0.03017481392775597 0.0 0.02861035760378916 0.0 0.0
-0.0316223229874 0.029226625492477606 0.0 0.025133106873152913 0.0 0.0
-0.028970628640025184 0.026512485105814942 0.0 0.021587631738461135 0.0 0.0
-0.02543161929020598 0.022959486812163334 0.0 0.018661413963202457 0.0 0.0
-0.02157969254088225 0.019149754088976772 0.0 0.01624425586905115 0.0 0.0
-0.017805935201802098 0.015476210224479162 0.0 0.014108951292508456 0.0 0.0
-0.014301114363497049 0.01211047480605177 0.0 0.012041339108523147 0.0 0.0
-0.011098430870256724 0.009075730896668504 0.0 0.009936566178724793 0.0 0.0
-0.008185562876176245 0.0063330517730638 0.0 0.007813963169671844 0.0 0.0
-0.005614598514630623 0.003958434964548838 0.0 0.005800502225540606 0.0 0.0
-0.0035313284589820037 0.0021419967471464105 0.0 0.004184388104920989 0.0 0.0
-0.002077390601446034 0.001051011050425491 0.0 0.003121682926709374 0.0 0.0
-0.0012509966628632863 0.0005720507380571987 0.0 0.0026404069060334476 0.0 0.0
-0.0008522414930439785 0.00041657027876679546 0.0 0.0024378287041708436 0.0 0.0
-0.0006489329630925498 0.0003497082392072765 0.0 0.00232218502571492 0.0 0.0
-0.0005123607150553622 0.0002804856528504688 0.0 0.0023144879102221013 0.0 0.0
-0.00034110926064192366 0.00012712944118800876 0.0 0.0023218618762517987 0.0 0.0
6.06431214948232e-06 -0.00030323009701374804 0.0 0.0019983940040917397 0.0 0.0
0.0002446486934817234 -0.001314661209984291 0.0 0.0013367973430492028 0.0 0.0
0.00015383481281283875 -0.0009624405067493863 0.0 -0.001186352728716544 0.0 0.0
-6.828802151495248e-05 -0.000261188401688826 0.0 -0.001827257100325858 0.0 0.0
-0.00043307933825532897 0.00016528817460458714 0.0 -0.002215579040932132 0.0 0.0
-0.0006798336710396914 0.00034662862568717853 0.0 -0.0022171663844583866 0.0 0.0
-0.0009085892497404792 0.00046025590031285087 0.0 -0.002195311662870005 0.0 0.0
-0.0012451691624891196 0.000588026999336463 0.0 -0.002238363277020747 0.0 0.0
-0.0019301808274602775 0.0009126415220758004 0.0 -0.002473049683771607 0.0 0.0
-0.003310241636984631 0.0018666437473625723 0.0 -0.0032790148823757027 0.0 0.0
-0.005591512315831701 0.003795750419469026 0.0 -0.00482227318747871 0.0 0.0
-0.008732659686794549 0.006707211415565181 0.0 -0.006994592677713931 0.0 0.0
-0.012540284319612656 0.010333958701140029 0.0 -0.009479133038791254 0.0 0.0
-0.01684304492996666 0.014458556649416601 0.0 -0.01196196885397088 0.0 0.0
-0.021594459137457948 0.01902523695983563 0.0 -0.014337837333800245 0.0 0.0
-0.02682585374326458 0.024088259942566827 0.0 -0.016651570460589845 0.0 0.0
-0.03252890279004041 0.02966047627185902 0.0 -0.01908310391586408 0.0 0.0
-0.03851538619134311 0.03558133324449252 0.0 -0.021978967204987217 0.0 0.0
-0.044314267411576604 0.04139306030213054 0.0 -0.025783503106013964 0.0 0.0
-0.049015297097113164 0.04623939521572366 0.0 -0.03048749976116335 0.0 0.0
-0.05098671974847556 0.04853480201893956 0.0 -0.034790643976188404 0.0 0.0
-0.04711048149689676 0.045475993200199946 0.0 -0.03612598087238079 0.0 0.0
-0.043190355810725396 0.03138959220799677 0.0 1.9291859776338072e-14 0.0 0.0
-0.04711048149689179 0.04547599320019886 0.0 0.03612598087242786 0.0 0.0
-0.05098671974846045 0.04853480201892609 0.0 0.03479064397623119 0.0 0.0
-0.04901529709708711 0.04623939521569875 0.0 0.030487499761181758 0.0 0.0
-0.044314267411543866 0.04139306030209994 0.0 0.025783503106011567 0.0 0.0
-0.0385153861913094 0.03558133324445886 0.0 0.02197896720497472 0.0 0.0
-0.032528902790007544 0.029660476271826615 0.0 0.01908310391584656 0.0 0.0
-0.026825853743231685 0.02408825994254163 0.0 0.01665157046057572 0.0 0.0
-0.021594459137424873 0.01902523695979882 0.0 0.014337837333785373 0.0 0.0
-0.016843044929935547 0.01445855664938717 0.0 0.011961968853951099 0.0 0.0
-0.012540284319584646 0.010333958701112112 0.0 0.009479133038768184 0.0 0.0
-0.008732659686772662 0.006707211415541568 0.0 0.006994592677695968 0.0 0.0
-0.005591512315816739 0.003795750419460094 0.0 0.00482227318746722 0.0 0.0
-0.0033102416369752666 0.0018666437473538878 0.0 0.0032790148823689954 0.0 0.0
-0.0019301808274555148 0.0009126415220734095 0.0 0.0024730496837686005 0.0 0.0
-0.0012451691624870602 0.0005880269993373434 0.0 0.002238363277019067 0.0 0.0
-0.0009085892497396075 0.0004602559003140734 0.0 0.002195311662867953 0.0 0.0
-0.0006798336710393176 0.0003466286256871826 0.0 0.002217166384456954 0.0 0.0
-0.00043307933825501314 0.00016528817460452144 0.0 0.0022155790409297076 0.0 0.0
-6.828802151494321e-05 -0.0002611884016889052 0.0 0.0018272571003234046 0.0 0.0
0.0001538348128124308 -0.0009624405067482819 0.0 0.001186352728714739 0.0 0.0
7.551271003735568e-05 -0.0006670768220507133 0.0 -0.001016120136252726 0.0 0.0
-0.00013493717856033358 -0.00020645750518328302 0.0 -0.0016301980364892955 0.0 0.0
-0.00051964650193624 0.0002021987936994241 0.0 -0.0020568814249277392 0.0 0.0
-0.0008382836835256664 0.0004076536127950567 0.0 -0.0020639882263666994 0.0 0.0
-0.0011557240606235777 0.0005591270599063256 0.0 -0.0019997623592195412 0.0 0.0
-0.0016551037500421514 0.0007654985492798429 0.0 -0.001981462377842118 0.0 0.0
-0.00269684773517465 0.00136540876133112 0.0 -0.0023238150309127415 0.0 0.0
-0.00468646655266339 0.0029150678813126053 0.0 -0.0033757122779228717 0.0 0.0
-0.007813302184676248 0.005730993261680233 0.0 -0.005242047401591494 0.0 0.0
-0.011991016359236724 0.00969783477744158 0.0 -0.007713102991258724 0.0 0.0
-0.016997060087305026 0.014518610763422191 0.0 -0.010373556536812935 0.0 0.0
-0.02266822395372276 0.019998180553589092 0.0 -0.012987959615418853 0.0 0.0
-0.02896455264678071 0.02608785760830617 0.0 -0.015484931071683718 0.0 0.0
-0.03592584977404925 0.03284819912352438 0.0 -0.01792285662225906 0.0 0.0
-0.04357083121358369 0.04032638426658375 0.0 -0.020481891994045695 0.0 0.0
-0.051726840991711445 0.04839289975797818 0.0 -0.02361302390503768 0.0 0.0
-0.05978990725322629 0.05649369463481761 0.0 -0.02785837982607581 0.0 0.0
-0.06646060609903517 0.06338876959496918 0.0 -0.03318442805683134 0.0 0.0
-0.0694203508723723 0.06684123837761821 0.0 -0.03826317022517782 0.0 0.0
-0.06476966687304267 0.06314885456082633 0.0 -0.04027729985200248 0.0 0.0
-0.05993305802985738 0.04634156174102963 0.0 2.011325134221309e-14 0.0 0.0
-0.0647696668730335 0.06314885456081801 0.0 0.040277299852054346 0.0 0.0
-0.06942035087235178 0.06684123837759756 0.0 0.038263170225226295 0.0 0.0
-0.06646060609900314 0.06338876959494004 0.0 0.03318442805685886 0.0 0.0
-0.059789907253185226 0.05649369463477841 0.0 0.027858379826073934 0.0 0.0
-0.05172684099166808 0.04839289975793019 0.0 0.023613023905026898 0.0 0.0
-0.04357083121354096 0.040326384266543176 0.0 0.02048189199403006 0.0 0.0
-0.035925849774006105 0.032848199123486695 0.0 0.017922856622243362 0.0 0.0
-0.028964552646737897 0.026087857608261343 0.0 0.015484931071665195 0.0 0.0
-0.022668223953682936 0.019998180553548607 0.0 0.012987959615398411 0.0 0.0
-0.01699706008726972 0.014518610763388604 0.0 0.010373556536787473 0.0 0.0
-0.011991016359208146 0.009697834777413287 0.0 0.0077131029912398934 0.0 0.0
-0.007813302184655679 0.00573099326166323 0.0 0.005242047401578237 0.0 0.0
-0.004686466552650022 0.002915067881301786 0.0 0.00337571227791418 0.0 0.0
-0.002696847735167445 0.0013654087613259535 0.0 0.0023238150309086714 0.0 0.0
-0.001655103750039181 0.0007654985492772841 0.0 0.001981462377840918 0.0 0.0
-0.0011557240606225214 0.0005591270599064747 0.0 0.0019997623592184063 0.0 0.0
-0.0008382836835249867 0.0004076536127950499 0.0 0.002063988226365272 0.0 0.0
-0.0005196465019358204 0.0002021987936988716 0.0 0.0020568814249262313 0.0 0.0
-0.0001349371785601952 -0.00020645750518347752 0.0 0.0016301980364867652 0.0 0.0
7.551271003725109e-05 -0.0006670768220498251 0.0 0.001016120136251724 0.0 0.0
7.125605498572927e-06 -0.0004252423399282272 0.0 -0.0008382849005452928 0.0 0.0
-0.0001961034942954818 -0.00014331301496328734 0.0 -0.0014064898462375357 0.0 0.0
-0.000602094471484154 0.00023926000453287747 0.0 -0.0018453091306895666 0.0 0.0
-0.0009865039387754332 0.00046289604136205275 0.0 -0.001854408393871164 0.0 0.0
-0.0013977013047882718 0.000648546999118943 0.0 -0.0017419217094957482 0.0 0.0
-0.0021024462302688556 0.0009777909467958935 0.0 -0.0017010909205674306 0.0 0.0
-0.0035583491840993596 0.0019498382672525618 0.0 -0.002135733072812704 0.0 0.0
-0.006191504113264447 0.0041686982183554745 0.0 -0.0033417515008117423 0.0 0.0
-0.010156837407984188 0.007856858194990858 0.0 -0.005361293835246421 0.0 0.0
-0.015328359129715138 0.012816528207638095 0.0 -0.007839931836336406 0.0 0.0
-0.021504936129190737 0.018795525590301256 0.0 -0.010458811596720302 0.0 0.0
-0.02854466563057624 0.025623559941594286 0.0 -0.01303280211203426 0.0 0.0
-0.03639123454445953 0.03324139393906329 0.0 -0.015507695592990964 0.0 0.0
-0.045079819102526966 0.041701860667201704 0.0 -0.017940577284153325 0.0 0.0
-0.05465803265312043 0.0510749908874777 0.0 -0.020476274145763723 0.0 0.0
-0.06495871233922362 0.06126064699884608 0.0 -0.02348499415798574 0.0 0.0
-0.07523890737663884 0.07160955757772323 0.0 -0.02758112293567424 0.0 0.0
-0.0837896413443526 0.08049215386005884 0.0 -0.03300855848745 0.0 0.0
-0.08760336950651186 0.08495634568882944 0.0 -0.03874169267208224 0.0 0.0
-0.08219799558687212 0.08058584046025134 0.0 -0.042756298508307214 0.0 0.0
-0.07653570226868263 0.06134390584302178 0.0 2.1638940639334692e-14 0.0 0.0
-0.08219799558685954 0.08058584046023538 0.0 0.04275629850835825 0.0 0.0
-0.0876033695064856 0.08495634568880175 0.0 0.03874169267213034 0.0 0.0
-0.08378964134431333 0.08049215386001503 0.0 0.033008558487477864 0.0 0.0
-0.07523890737659047 0.07160955757767189 0.0 0.027581122935674267 0.0 0.0
-0.06495871233917155 0.061260646998791995 0.0 0.02348499415797532 0.0 0.0
-0.054658032653068025 0.051074990887428444 0.0 0.02047627414575128 0.0 0.0
-0.045079819102474404 0.0417018606671537 0.0 0.017940577284138354 0.0 0.0
-0.036391234544407354 0.033241393939009344 0.0 0.015507695592975594 0.0 0.0
-0.028544665630527488 0.025623559941546966 0.0 0.013032802112011273 0.0 0.0
-0.021504936129147313 0.01879552559025977 0.0 0.010458811596695365 0.0 0.0
-0.015328359129679777 0.012816528207606632 0.0 0.007839931836316582 0.0 0.0
-0.010156837407958115 0.00785685819496546 0.0 0.005361293835232733 0.0 0.0
-0.0061915041132467935 0.00416869821834164 0.0 0.003341751500800883 0.0 0.0
-0.0035583491840896564 0.0019498382672445387 0.0 0.002135733072808225 0.0 0.0
-0.0021024462302646854 0.0009777909467944047 0.0 0.0017010909205659465 0.0 0.0
-0.0013977013047868929 0.0006485469991173169 0.0 0.0017419217094956823 0.0 0.0
-0.0009865039387747514 0.00046289604136173074 0.0 0.0018544083938702555 0.0 0.0
-0.0006020944714837706 0.00023926000453314007 0.0 0.0018453091306893632 0.0 0.0
-0.00019610349429533976 -0.00014331301496345363 0.0 0.0014064898462369118 0.0 0.0
7.125605498647756e-06 -0.00042524233992751825 0.0 0.0008382849005448687 0.0 0.0
-5.077818320056872e-05 -0.00023586755326229596 0.0 -0.000657367204709358 0.0 0.0
-0.0002511926790176428 -7.66903832382626e-05 0.0 -0.0011583017178874644 0.0 0.0
-0.000680664349759084 0.0002767131675490064 0.0 -0.001581423403252837 0.0 0.0
-0.001127410004868903 0.0005120291985554901 0.0 -0.0015878617701613547 0.0 0.0
-0.0016469711563884676 0.0007359380091891184 0.0 -0.0014319656979627034 0.0 0.0
-0.0025989671173647063 0.0012475984444896056 0.0 -0.001394130252432082 0.0 0.0
-0.004515157476137907 0.002676227362394803 0.0 -0.0018839369102515353 0.0 0.0
-0.007804201666312648 0.005592103611092031 0.0 -0.00316078927154707 0.0 0.0
-0.012567303607994854 0.010086793025529065 0.0 -0.005068270857356289 0.0 0.0
-0.018697447361369558 0.0159961613476882 0.0 -0.007339933716784621 0.0 0.0
-0.026038782657220785 0.023119998594383125 0.0 -0.009759943487838114 0.0 0.0
-0.03444491651209465 0.031293718864448386 0.0 -0.012136350342787093 0.0 0.0
-0.043849364309753676 0.04044991361246395 0.0 -0.014437726159285128 0.0 0.0
-0.05427000996798245 0.05061890991260861 0.0 -0.016735690449734116 0.0 0.0
-0.0657367739004935 0.06185375396976192 0.0 -0.019099530324939634 0.0 0.0
-0.0780888731682917 0.07406002246702802 0.0 -0.021687528537574923 0.0 0.0
-0.0904992083956368 0.08654854114988922 0.0 -0.0250438663140602 0.0 0.0
-0.10088500987276584 0.0973699110030314 0.0 -0.02995419231838064 0.0 0.0
-0.10563665665452956 0.10292602536738954 0.0 -0.036481815748277496 0.0 0.0
-0.09974063084520744 0.09816389415855106 0.0 -0.04395625658558013 0.0 0.0
-0.09342477519151705 0.07681221253637521 0.0 2.0443716164386672e-14 0.0 0.0
-0.09974063084519154 0.0981638941585385 0.0 0.043956256585628496 0.0 0.0
-0.10563665665449741 0.1029260253673518 0.0 0.036481815748323196 0.0 0.0
-0.10088500987271923 0.09736991100297723 0.0 0.029954192318405785 0.0 0.0
-0.09049920839558057 0.0865485411498364 0.0 0.025043866314062385 0.0 0.0
-0.07808887316823014 0.0740600224669658 0.0 0.021687528537568068 0.0 0.0
-0.06573677390043134 0.061853753969697695 0.0 0.019099530324929673 0.0 0.0
-0.05427000996792052 0.05061890991255261 0.0 0.016735690449719183 0.0 0.0
-0.04384936430969239 0.04044991361240374 0.0 0.014437726159269582 0.0 0.0
-0.034444916512037314 0.03129371886438848 0.0 0.0121363503427669 0.0 0.0
-0.026038782657169766 0.023119998594333748 0.0 0.00975994348781327 0.0 0.0
-0.018697447361327765 0.015996161347652 0.0 0.007339933716764712 0.0 0.0
-0.01256730360796347 0.010086793025498912 0.0 0.00506827085734349 0.0 0.0
-0.007804201666290917 0.00559210361107234 0.0 0.00316078927153704 0.0 0.0
-0.004515157476125321 0.0026762273623840154 0.0 0.0018839369102478538 0.0 0.0
-0.0025989671173592003 0.0012475984444874613 0.0 0.0013941302524302832 0.0 0.0
-0.0016469711563868016 0.0007359380091892362 0.0 0.0014319656979619305 0.0 0.0
-0.0011274100048680946 0.0005120291985546451 0.0 0.0015878617701598262 0.0 0.0
-0.0006806643497583241 0.00027671316754945797 0.0 0.001581423403253567 0.0 0.0
-0.0002511926790174784 -7.669038323820533e-05 0.0 0.001158301717886514 0.0 0.0
-5.077818320074643e-05 -0.00023586755326191727 0.0 0.000657367204709637 0.0 0.0
-9.559237010253391e-05 -9.921480389585418e-05 0.0 -0.0004780499443783952 0.0 0.0
-0.0002973895949429101 -1.1959811851078343e-05 0.0 -0.0008885533545122093 0.0 0.0
-0.0007541011109446551 0.0003134036618860219 0.0 -0.001263929040665985 0.0 0.0
-0.0012643824121844434 0.000555349731772364 0.0 -0.0012620947217755218 0.0 0.0
-0.0019147622096317065 0.0008345872990294512 0.0 -0.0010727758739858392 0.0 0.0
-0.003158953706080617 0.0015938629551895823 0.0 -0.001044447669016111 0.0 0.0
-0.005567477861722397 0.0035473170522751975 0.0 -0.0015728870382639246 0.0 0.0
-0.009480349653507938 0.007117641132114435 0.0 -0.0027243287581897174 0.0 0.0
-0.014997078899834908 0.012361364313286143 0.0 -0.004317924827634975 0.0 0.0
-0.022074049555492713 0.01920062047576094 0.0 -0.006242332087397461 0.0 0.0
-0.030569177998820307 0.0274575609478482 0.0 -0.008296414488729224 0.0 0.0
-0.04034234267730862 0.03697638796805715 0.0 -0.010316842184063348 0.0 0.0
-0.051315853763965524 0.04768111947220455 0.0 -0.012287052608659728 0.0 0.0
-0.06346752562298963 0.05956985145910225 0.0 -0.01429587906258212 0.0 0.0
-0.07677139082633057 0.07263060968372853 0.0 -0.01636719859923327 0.0 0.0
-0.09102354555947485 0.08670537617642986 0.0 -0.018396271801632665 0.0 0.0
-0.10538812608775877 0.10110828439383791 0.0 -0.020541952974010246 0.0 0.0
-0.11762616158405759 0.11383836275144757 0.0 -0.024110106542720208 0.0 0.0
-0.12363736563524816 0.1208305821784961 0.0 -0.031402035993628556 0.0 0.0
-0.11772499288355995 0.11624321735436971 0.0 -0.043624011436891506 0.0 0.0
-0.11099312534057637 0.09316579287765175 0.0 1.6002824065886045e-14 0.0 0.0
-0.11772499288354042 0.11624321735435356 0.0 0.04362401143693383 0.0 0.0
-0.12363736563521027 0.1208305821784516 0.0 0.03140203599366709 0.0 0.0
-0.11762616158400369 0.11383836275139428 0.0 0.02411010654274109 0.0 0.0
-0.10538812608769461 0.10110828439377605 0.0 0.02054195297401184 0.0 0.0
-0.09102354555940477 0.08670537617636022 0.0 0.01839627180162988 0.0 0.0
-0.07677139082625903 0.07263060968365546 0.0 0.01636719859922515 0.0 0.0
-0.06346752562291855 0.05956985145903883 0.0 0.01429587906257266 0.0 0.0
-0.05131585376389552 0.047681119472132286 0.0 0.012287052608646754 0.0 0.0
-0.04034234267724285 0.036976387967995905 0.0 0.0103168421840463 0.0 0.0
-0.030569177998762173 0.02745756094778698 0.0 0.0082964144887101 0.0 0.0
-0.022074049555444626 0.01920062047571635 0.0 0.0062423320873828654 0.0 0.0
-0.014997078899798427 0.012361364313253007 0.0 0.004317924827623668 0.0 0.0
-0.009480349653482031 0.007117641132088287 0.0 0.0027243287581816696 0.0 0.0
-0.005567477861706661 0.0035473170522649228 0.0 0.0015728870382584667 0.0 0.0
-0.003158953706073311 0.0015938629551824981 0.0 0.0010444476690146295 0.0 0.0
-0.0019147622096293226 0.000834587299031048 0.0 0.0010727758739850488 0.0 0.0
-0.0012643824121836306 0.0005553497317719333 0.0 0.0012620947217749777 0.0 0.0
-0.0007541011109440777 0.0003134036618861351 0.0 0.001263929040665226 0.0 0.0
-0.0002973895949427359 -1.1959811851229582e-05 0.0 0.0008885533545112018 0.0 0.0
-9.559237010226967e-05 -9.92148038958117e-05 0.0 0.00047804994437828936 0.0 0.0
-0.00012249660625464608 -1.6015444776553385e-05 0.0 -0.0003101993799888175 0.0 0.0
-0.00032905972361982284 4.4168647018961874e-05 0.0 -0.0006010979171269974 0.0 0.0
-0.0008197531600411334 0.0003463031507716378 0.0 -0.0008864591124237079 0.0 0.0
-0.0014037729938494584 0.0005961596531526573 0.0 -0.0008719382575741678 0.0 0.0
-0.0022147023892623 0.0009604359504826734 0.0 -0.0006733986862739117 0.0 0.0
-0.0037949639299690073 0.002046250906506675 0.0 -0.0006641067808643973 0.0 0.0
-0.00668516461370432 0.004528739862571974 0.0 -0.001135044558850002 0.0 0.0
-0.011180528072321134 0.008686545607552167 0.0 -0.0019677015369466374 0.0 0.0
-0.0174276757738415 0.01465172951418173 0.0 -0.003138006136915095 0.0 0.0
-0.02542996507466741 0.02239806372931371 0.0 -0.004556439218727715 0.0 0.0
-0.03506945952295513 0.03177725576224435 0.0 -0.00607900662583912 0.0 0.0
-0.04620877469709375 0.04264137398189882 0.0 -0.007580388327508659 0.0 0.0
-0.05875661173302685 0.05490351499691762 0.0 -0.009063071936685516 0.0 0.0
-0.07264930711550711 0.06851990021227156 0.0 -0.010624261613524765 0.0 0.0
-0.08774739473013515 0.08337870136272411 0.0 -0.012244637418377476 0.0 0.0
-0.10371018023993762 0.09917334659852801 0.0 -0.013673610005481762 0.0 0.0
-0.11973624570578822 0.1151674222695443 0.0 -0.014641051556786269 0.0 0.0
-0.13382704788101815 0.1295982506503336 0.0 -0.016144431331474158 0.0 0.0
-0.1416387975894839 0.13859378329632632 0.0 -0.022659238058881953 0.0 0.0
-0.1364968850397664 0.13525175658504404 0.0 -0.04074253137292746 0.0 0.0
-0.12974686249276085 0.11100384634399948 0.0 1.0873246747422627e-14 0.0 0.0
-0.13649688503974297 0.13525175658502198 0.0 0.0407425313729599 0.0 0.0
-0.1416387975894399 0.1385937832962787 0.0 0.02265923805891414 0.0 0.0
-0.13382704788095617 0.1295982506502751 0.0 0.01614443133148957 0.0 0.0
-0.11973624570571506 0.11516742226947063 0.0 0.014641051556786647 0.0 0.0
-0.1037101802398583 0.0991733465984539 0.0 0.013673610005482156 0.0 0.0
-0.08774739473005408 0.08337870136264211 0.0 0.012244637418373052 0.0 0.0
-0.07264930711542651 0.0685199002121947 0.0 0.010624261613517462 0.0 0.0
-0.05875661173294813 0.054903514996837634 0.0 0.009063071936676628 0.0 0.0
-0.04620877469701994 0.04264137398183123 0.0 0.0075803883274993215 0.0 0.0
-0.03506945952288972 0.03177725576217771 0.0 0.006079006625824741 0.0 0.0
-0.025429965074613262 0.022398063729263267 0.0 0.004556439218717559 0.0 0.0
-0.017427675773799986 0.014651729514141558 0.0 0.003138006136905908 0.0 0.0
-0.011180528072291689 0.008686545607522815 0.0 0.001967701536941471 0.0 0.0
-0.006685164613686064 0.004528739862558801 0.0 0.0011350445588437902 0.0 0.0
-0.003794963929959925 0.0020462509064995346 0.0 0.000664106780863673 0.0 0.0
-0.0022147023892590493 0.0009604359504818544 0.0 0.0006733986862752043 0.0 0.0
-0.0014037729938483577 0.0005961596531520385 0.0 0.0008719382575751772 0.0 0.0
-0.0008197531600403165 0.0003463031507720644 0.0 0.0008864591124217797 0.0 0.0
-0.0003290597236194514 4.4168647018804366e-05 0.0 0.0006010979171270402 0.0 0.0
-0.00012249660625479028 -1.6015444776680955e-05 0.0 0.000310199379987963 0.0 0.0
-0.00012305591789622144 1.3883617901997913e-05 0.0 -0.00017530500220797374 0.0 0.0
-0.00033627655153406033 8.136039307658072e-05 0.0 -0.0003011350607401442 0.0 0.0
-0.0008732131456589765 0.0003699853153560776 0.0 -0.00043222824920134033 0.0 0.0
-0.0015558104353664295 0.0006446439462834164 0.0 -0.00041159838072119464 0.0 0.0
-0.002565269756985791 0.0011380763239442833 0.0 -0.00024760831672019235 0.0 0.0
-0.00449820890655768 0.002604019298163818 0.0 -0.00023702597240320868 0.0 0.0
-0.007842172817822454 0.005573167228464458 0.0 -0.0004967165514209819 0.0 0.0
-0.01288380217441233 0.010274656636239554 0.0 -0.0009283678388196796 0.0 0.0
-0.01983235303666861 0.016929246721487996 0.0 -0.0015353080221717753 0.0 0.0
-0.02873787120517142 0.025557202139687228 0.0 -0.0022894138027285374 0.0 0.0
-0.039510763107256666 0.0360489683415993 0.0 -0.0031059105898219646 0.0 0.0
-0.0520176963838122 0.04826239412504985 0.0 -0.003927188081344499 0.0 0.0
-0.06614697700868706 0.06208797591697905 0.0 -0.0047840575168989945 0.0 0.0
-0.0817690512991039 0.07742250382721375 0.0 -0.005705663269306456 0.0 0.0
-0.09862963810673174 0.09405324943533819 0.0 -0.006657191541784726 0.0 0.0
-0.11620123968315471 0.11149060099846164 0.0 -0.007462450419399467 0.0 0.0
-0.1335411731273337 0.12880671722703338 0.0 -0.007751647276689949 0.0 0.0
-0.14906223284247552 0.14441278786541417 0.0 -0.007623027472416857 0.0 0.0
-0.15935867776470464 0.15538215858701912 0.0 -0.01071077601281849 0.0 0.0
-0.15655733118991505 0.1555181515105396 0.0 -0.03002259771393804 0.0 0.0
-0.15051550968140306 0.132089945539623 0.0 6.689093723366568e-15 0.0 0.0
-0.156557331189888 0.15551815151051596 0.0 0.03002259771395658 0.0 0.0
-0.15935867776465412 0.15538215858696278 0.0 0.01071077601283743 0.0 0.0
-0.14906223284240536 0.1444127878653468 0.0 0.007623027472421598 0.0 0.0
-0.13354117312725078 0.12880671722695503 0.0 0.0077516472766895415 0.0 0.0
-0.11620123968306544 0.11149060099837618 0.0 0.007462450419400558 0.0 0.0
-0.09862963810664156 0.09405324943524598 0.0 0.006657191541782436 0.0 0.0
-0.08176905129901438 0.0774225038271178 0.0 0.005705663269302476 0.0 0.0
-0.0661469770085993 0.062087975916895036 0.0 0.0047840575168939525 0.0 0.0
-0.05201769638373014 0.04826239412496239 0.0 0.0039271880813385625 0.0 0.0
-0.03951076310718442 0.03604896834153058 0.0 0.003105910589814103 0.0 0.0
-0.028737871205111853 0.02555720213963282 0.0 0.0022894138027209337 0.0 0.0
-0.01983235303662265 0.01692924672144044 0.0 0.0015353080221682017 0.0 0.0
-0.012883802174379108 0.010274656636207897 0.0 0.0009283678388173834 0.0 0.0
-0.007842172817801082 0.005573167228442584 0.0 0.0004967165514166252 0.0 0.0
-0.004498208906546401 0.0026040192981572115 0.0 0.0002370259724013785 0.0 0.0
-0.0025652697569817666 0.0011380763239409728 0.0 0.0002476083167219747 0.0 0.0
-0.0015558104353652865 0.000644643946283269 0.0 0.0004115983807203695 0.0 0.0
-0.000873213145658288 0.0003699853153561628 0.0 0.0004322282491990792 0.0 0.0
-0.00033627655153344006 8.136039307624746e-05 0.0 0.0003011350607398681 0.0 0.0
-0.00012305591789579868 1.3883617901801527e-05 0.0 0.00017530500220724665 0.0 0.0
-8.212215500395018e-05 1.5639539133401806e-05 0.0 -0.00010814753769894924 0.0 0.0
-0.00030166423230742047 9.359757258996857e-05 0.0 -0.0001250968909033376 0.0 0.0
-0.0009088108462627317 0.0003787120561274229 0.0 -0.00014487838924215498 0.0 0.0
-0.0017379005568318733 0.0006725200945993022 0.0 -0.00010127336954019543 0.0 0.0
-0.0029778379777700707 0.0012444861834191244 0.0 0.00012619610758348755 0.0 0.0
-0.005252597725659063 0.0029047648897042866 0.0 0.00032479250429756634 0.0 0.0
-0.009017704804301724 0.006106235332805589 0.0 0.00041427598065227344 0.0 0.0
-0.01457219436247048 0.011071117507372847 0.0 0.0004459688279078093 0.0 0.0
-0.022186467135641038 0.018060891037963232 0.0 0.0004209640230874287 0.0 0.0
-0.031968748022780234 0.027123484981460645 0.0 0.0003063254334523028 0.0 0.0
-0.043865998245840636 0.03816874605539522 0.0 0.00014389721248548844 0.0 0.0
-0.05774671108249065 0.0510592004992822 0.0 -6.334286143713785e-05 0.0 0.0
-0.07344802667935695 0.06566725867967896 0.0 -0.00035714143257770375 0.0 0.0
-0.09077528378135241 0.08185475865595195 0.0 -0.0007095540481812544 0.0 0.0
-0.1093792100713506 0.09936578395401793 0.0 -0.001155467200527057 0.0 0.0
-0.12854712875571303 0.11761640842495466 0.0 -0.0016254404671510961 0.0 0.0
-0.14706232110141923 0.13554602989405093 0.0 -0.0018946950007594238 0.0 0.0
-0.16324563493607885 0.15157442981027322 0.0 -0.001697764035456609 0.0 0.0
-0.17517383623758176 0.16335136139305742 0.0 -0.0030900190234689207 0.0 0.0
-0.17807261010860964 0.16598583713161022 0.0 -0.022398796943948442 0.0 0.0
-0.17631839877452485 0.14379389708132012 0.0 7.632783294297951e-16 0.0 0.0
-0.17807261010857903 0.1659858371315812 0.0 0.022398796943954982 0.0 0.0
-0.1751738362375247 0.1633513613929951 0.0 0.0030900190234786837 0.0 0.0
-0.16324563493599908 0.15157442981020122 0.0 0.0016977640354570236 0.0 0.0
-0.1470623211013256 0.13554602989397216 0.0 0.0018946950007573925 0.0 0.0
-0.12854712875561403 0.11761640842486007 0.0 0.0016254404671500015 0.0 0.0
-0.10937921007125082 0.09936578395392551 0.0 0.0011554672005259885 0.0 0.0
-0.09077528378125314 0.08185475865584971 0.0 0.0007095540481796975 0.0 0.0
-0.07344802667926033 0.065667258679589 0.0 0.00035714143257563856 0.0 0.0
-0.057746711082400495 0.05105920049918476 0.0 6.334286143423913e-05 0.0 0.0
-0.04386599824576166 0.038168746055326 0.0 -0.00014389721248610557 0.0 0.0
-0.031968748022715356 0.027123484981402046 0.0 -0.00030632543345718126 0.0 0.0
-0.02218646713559041 0.01806089103791476 0.0 -0.00042096402308538627 0.0 0.0
-0.014572194362433797 0.011071117507338111 0.0 -0.00044596882790593666 0.0 0.0
-0.00901770480427823 0.006106235332779684 0.0 -0.00041427598065324174 0.0 0.0
-0.005252597725645748 0.002904764889695384 0.0 -0.0003247925043000923 0.0 0.0
-0.0029778379777645764 0.0012444861834145725 0.0 -0.00012619610758125117 0.0 0.0
-0.0017379005568302736 0.0006725200945996031 0.0 0.00010127336953830813 0.0 0.0
-0.0009088108462616178 0.00037871205612711014 0.0 0.0001448783892389012 0.0 0.0
-0.0003016642323065095 9.359757258932343e-05 0.0 0.00012509689090344606 0.0 0.0
-8.212215500315537e-05 1.563953913317106e-05 0.0 0.0001081475376982018 0.0 0.0
SCALARS Statev float 8
LOOKUP_TABLE default
0.0 0.018335068677104494 0.014696180601455704 -0.017506779740187942 0.0028105991387322284 -0.0009734827244087716 0.0 0.0
0.0 0.006255793647560743 0.004603386444334421 -0.002858777881840693 -0.00174460856249373 -0.0068545752680419314 0.0 0.0
0.0 0.00012164195941871685 0.00017126615946150674 -0.00010561661424893008 -6.564954521257669e-05 -0.00029556253219888633 0.0 0.0
0.0 0.0001530035921421753 6.837623576298266e-05 -4.900457999744561e-05 -1.937165576553723e-05 2.259546536077226e-05 0.0 0.0
0.0 0.0009585071058952823 0.0006433187809054385 -0.0004706076170220347 -0.0001727111638834033 0.0001354309271632193 0.0 0.0
0.0 0.0024928565205621363 0.0024684420505999487 -0.0019545694045306965 -0.0005138726460692559 0.00028384935312904806 0.0 0.0
0.0 0.006322703681693872 0.005801497846865342 -0.004962999681456163 -0.0008384981654091705 0.0003996416396560823 0.0 0.0
0.0 0.012160792225196285 0.010985546774547338 -0.009889180244324359 -0.0010963665302229782 0.0004545451880468322 0.0 0.0
0.0 0.020411343349707 0.018232406822172205 -0.01690992481574902 -0.0013224820064231878 0.000449479500360466 0.0 0.0
0.0 0.03120118885483051 0.027628032748664558 -0.02606037828340843 -0.001567654465256139 0.00035949784817457427 0.0 0.0
0.0 0.044458250573528105 0.039119166090060824 -0.03726567980741899 -0.0018534862826417998 0.00021727989554689962 0.0 0.0
0.0 0.059712281273423456 0.05258596585734454 -0.05040231697914018 -0.0021836488782042644 2.1623082377666882e-05 0.0 0.0
0.0 0.0771508610511685 0.06787970736662173 -0.06533163994058228 -0.0025480674260394166 -0.00026188659586926606 0.0 0.0
0.0 0.09653778737071318 0.0848475242039684 -0.08191386041770846 -0.0029336637862597626 -0.0005820329437670692 0.0 0.0
0.0 0.11761154670230681 0.10325736837383205 -0.09993512344714396 -0.003322244926688061 -0.0009741228504157432 0.0 0.0
0.0 0.13988093721236516 0.12264366773290447 -0.1189498685563007 -0.003693799176603776 -0.0014297874954885693 0.0 0.0
0.0 0.16238089910563186 0.14219959913194688 -0.13817120781199094 -0.004028391319955949 -0.001863812935335529 0.0 0.0
0.0 0.1837602795099879 0.1607641835657042 -0.15645847005956792 -0.004305713506136241 -0.0021121714319107757 0.0 0.0
0.0 0.20237174238566324 0.1769211246837493 -0.17240163469290182 -0.004519489990847293 -0.0020001598079866225 0.0 0.0
0.0 0.21604197139690262 0.1889815211279938 -0.1843373905275031 -0.004644130600490666 -0.0022105240673082178 0.0 0.0
0.0 0.22176828942894983 0.19381682277669143 -0.18918986801845852 -0.00462695475823301 2.467644144577008e-15 0.0 0.0
0.0 0.2160419713968717 0.18898152112796696 -0.1843373905274761 -0.00464413060049078 0.00221052406731564 0.0 0.0
0.0 0.2023717423856032 0.17692112468369625 -0.1724016346928504 -0.0045194899908459416 0.0020001598079941816 0.0 0.0
0.0 0.1837602795098986 0.16076418356562622 -0.1564584700594911 -0.004305713506135156 0.0021121714319150726 0.0 0.0
0.0 0.16238089910552855 0.14219959913185734 -0.13817120781190295 -0.004028391319954417 0.0018638129353331636 0.0 0.0
0.0 0.1398809372122624 0.12264366773281354 -0.11894986855621277 -0.003693799176600818 0.001429787495485572 0.0 0.0
0.0 0.11761154670219642 0.10325736837373602 -0.09993512344704931 -0.0033222449266865853 0.0009741228504147699 0.0 0.0
0.0 0.09653778737060645 0.08484752420387522 -0.08191386041761736 -0.002933663786257914 0.0005820329437649721 0.0 0.0
0.0 0.07715086105106142 0.0678797073665286 -0.06533163994049074 -0.0025480674260377817 0.00026188659586663925 0.0 0.0
0.0 0.05971228127332775 0.0525859658572612 -0.05040231697905762 -0.002183648878203537 -2.162308238157695e-05 0.0 0.0
0.0 0.04445825057344459 0.039119166089987625 -0.03726567980734767 -0.0018534862826399478 -0.00021727989554932753 0.0 0.0
0.0 0.031201188854766217 0.027628032748608165 -0.02606037828335394 -0.001567654465254246 -0.0003594978481762472 0.0 0.0
0.0 0.020411343349657426 0.01823240682212834 -0.016909924815706613 -0.0013224820064217046 -0.0004494795003610217 0.0 0.0
0.0 0.0121607922251628 0.010985546774517185 -0.009889180244295385 -0.0010963665302217984 -0.0004545451880468502 0.0 0.0
0.0 0.006322703681671454 0.0058014978468444115 -0.004962999681436797 -0.0008384981654076074 -0.00039964163965585124 0.0 0.0
0.0 0.002492856520551307 0.002468442050589115 -0.001954569404521472 -0.0005138726460676432 -0.0002838493531281131 0.0 0.0
0.0 0.0009585071058906527 0.0006433187809021132 -0.0004706076170196067 -0.00017271116388250537 -0.0001354309271625213 0.0 0.0
0.0 0.0001530035921410246 6.837623576269546e-05 -4.900457999725663e-05 -1.937165576543819e-05 -2.2595465360613935e-05 0.0 0.0
0.0 0.0001216419594176679 0.00017126615946065992 -0.00010561661424839157 -6.564954521226774e-05 0.0002955625321974768 0.0 0.0
0.0 0.0062557936475500335 0.004603386444328784 -0.0028587778818364657 -0.001744608562492319 0.006854575268032978 0.0 0.0
0.0 0.018335068677083215 0.014696180601441355 -0.017506779740168246 0.002810599138726876 0.0009734827243694934 0.0 0.0
0.0 0.014958048683194483 0.011216113065489296 -0.014490947556382878 0.003274834490893574 -0.0004878552497427802 0.0 0.0
0.0 0.0038462231090329825 0.0027602555086132935 -0.0016922280543118459 -0.0010680274543014411 -0.005397059466339533 0.0 0.0
0.0 -7.405655722308457e-05 -6.983872918561813e-05 6.240125316389363e-05 7.437476021724473e-06 -7.74374334497018e-05 0.0 0.0
0.0 3.3121543832688406e-05 2.4684123209471423e-05 -1.7823952568727858e-05 -6.8601706407435715e-06 1.0441870105161348e-05 0.0 0.0
0.0 0.000525148748854653 0.00041460160483426536 -0.00030573631108058455 -0.00010886529375368075 5.4567351686059304e-05 0.0 0.0
0.0 0.0021773436072838877 0.0018929781856679509 -0.0015135339349072931 -0.00037944425076065887 5.324591950338844e-05 0.0 0.0
0.0 0.005365409889777897 0.004913815378733025 -0.00425440084914862 -0.0006594145295844011 -0.00019809518620498144 0.0 0.0
0.0 0.010781547671961421 0.009663477742087655 -0.008821845820871138 -0.0008416319212165237 -0.0006243400084634661 0.0 0.0
0.0 0.01847967887219069 0.016349916811662688 -0.015391694419394584 -0.0009582223922681044 -0.001223689142282741 0.0 0.0
0.0 0.028469874559411808 0.02501368432094755 -0.02395762528177937 -0.0010560590391681538 -0.0019671178573009533 0.0 0.0
0.0 0.04068306836409435 0.03556926008918506 -0.03441706837621492 -0.0011521917129701845 -0.002784523972614543 0.0 0.0
0.0 0.0550739874050771 0.047891238636160294 -0.04663982062857003 -0.0012514180075902535 -0.0036221470861176825 0.0 0.0
0.0 0.07093572574155732 0.061879245865634154 -0.06052537090533533 -0.0013538749602987658 -0.004498951384404093 0.0 0.0
0.0 0.08887561492134372 0.07741640793442849 -0.07596393046457259 -0.0014524774698558849 -0.005421601119207223 0.0 0.0
0.0 0.10836463556261437 0.09430289758786839 -0.0927665962265561 -0.0015363013613121758 -0.006365609881567958 0.0 0.0
0.0 0.12896278863978738 0.1121277128093727 -0.11053162100867922 -0.0015960918006935605 -0.007255596169177927 0.0 0.0
0.0 0.14986282736728 0.1301690105725303 -0.12854294917926729 -0.001626061393262825 -0.0078759833969759 0.0 0.0
0.0 0.16984105458748616 0.1473752609388517 -0.1457481109713218 -0.0016271499675300075 -0.007898476731163567 0.0 0.0
0.0 0.1872526170914725 0.16237036740817073 -0.16077594379856003 -0.0015944236096107965 -0.007102025481844944 0.0 0.0
0.0 0.19996418622362422 0.1732490694650675 -0.17178219201056508 -0.0014668774545024855 -0.006005720282372931 0.0 0.0
0.0 0.20539955334474633 0.17748985730448164 -0.17622182846684473 -0.0012680288376369416 7.758117065437276e-15 0.0 0.0
0.0 0.1999641862235962 0.17324906946504282 -0.17178219201054046 -0.0014668774545022838 0.00600572028239257 0.0 0.0
0.0 0.18725261709141783 0.16237036740812327 -0.1607759437985127 -0.001594423609610354 0.007102025481865338 0.0 0.0
0.0 0.16984105458740587 0.14737526093878256 -0.1457481109712524 -0.0016271499675301199 0.007898476731174303 0.0 0.0
0.0 0.14986282736718648 0.13016901057244995 -0.12854294917918685 -0.0016260613932631211 0.00787598339697565 0.0 0.0
0.0 0.1289627886396914 0.11212771280928932 -0.11053162100859637 -0.0015960918006926678 0.007255596169173763 0.0 0.0
0.0 0.10836463556251456 0.0943028975877818 -0.09276659622646977 -0.0015363013613121132 0.006365609881565128 0.0 0.0
0.0 0.08887561492124514 0.07741640793434328 -0.07596393046448757 -0.001452477469855616 0.005421601119203737 0.0 0.0
0.0 0.070935725741461 0.06187924586555079 -0.0605253709052526 -0.0013538749602981933 0.004498951384399503 0.0 0.0
0.0 0.0550739874049888 0.047891238636083716 -0.046639820628493416 -0.0012514180075902796 0.0036221470861112874 0.0 0.0
0.0 0.04068306836401779 0.035569260089118836 -0.03441706837614905 -0.0011521917129698215 0.0027845239726076907 0.0 0.0
0.0 0.028469874559353993 0.025013684320896738 -0.02395762528172915 -0.001056059039167573 0.001967117857295678 0.0 0.0
0.0 0.018479678872143964 0.016349916811621224 -0.015391694419353792 -0.0009582223922674391 0.0012236891422786093 0.0 0.0
0.0 0.010781547671928467 0.009663477742058162 -0.008821845820842451 -0.0008416319212157199 0.000624340008460331 0.0 0.0
0.0 0.005365409889758012 0.004913815378714807 -0.004254400849131521 -0.0006594145295832802 0.0001980951862030655 0.0 0.0
0.0 0.0021773436072746208 0.0018929781856598243 -0.0015135339349003837 -0.00037944425075944017 -5.324591950342152e-05 0.0 0.0
0.0 0.000525148748851008 0.00041460160483166523 -0.0003057363110786381 -0.00010886529375302731 -5.456735168577238e-05 0.0 0.0
0.0 3.3121543832126925e-05 2.468412320963669e-05 -1.7823952568865904e-05 -6.860170640770638e-06 -1.0441870105053958e-05 0.0 0.0
0.0 -7.40565572231787e-05 -6.983872918539129e-05 6.240125316367667e-05 7.437476021714476e-06 7.74374334493626e-05 0.0 0.0
0.0 0.003846223109022393 0.0027602555086074713 -0.0016922280543076916 -0.0010680274542997795 0.005397059466328268 0.0 0.0
0.0 0.014958048683171426 0.011216113065471644 -0.014490947556360753 0.003274834490889095 0.00048785524971339225 0.0 0.0
0.0 0.011152037246747995 0.008184607919246573 -0.010867408232619943 0.002682800313373364 -0.002936526481803398 0.0 0.0
0.0 0.0026747497950945173 0.0017012971473441398 -0.000931657259636721 -0.0007696398877074187 -0.00452114618132792 0.0 0.0
0.0 -5.346613431896316e-07 4.2863129282406027e-07 -3.743554240265472e-07 -5.4275868797509075e-08 2.6925920224002503e-07 0.0 0.0
0.0 -2.2792842472027454e-06 -4.2603772480521835e-06 3.4892374338032372e-06 7.711398142488157e-07 3.832568599560205e-06 0.0 0.0
0.0 0.00022671151411452018 0.00019099675666304965 -0.0001370619804784678 -5.393477618458197e-05 1.4388295378211496e-05 0.0 0.0
0.0 0.00154499151654341 0.0012887097670015494 -0.0010030942076955521 -0.00028561555930599634 -7.740439713354997e-05 0.0 0.0
0.0 0.004147887126090772 0.0038646302670048978 -0.0032780128971098364 -0.0005866173698950612 -0.0005726354501554758 0.0 0.0
0.0 0.008993967154651599 0.008067455862884525 -0.007277678813863504 -0.0007897770490210179 -0.0014020509259494876 0.0 0.0
0.0 0.015873365877282372 0.014054385640843565 -0.013142340335852272 -0.0009120453049912819 -0.0025532698213942 0.0 0.0
0.0 0.024900054799053987 0.021817574825174206 -0.020812940185008438 -0.0010046346401657916 -0.003954622839560446 0.0 0.0
0.0 0.035856900963689306 0.031242079501479402 -0.030147950155265193 -0.001094129346214162 -0.0054816146352375025 0.0 0.0
0.0 0.048479422755827485 0.0422010589354737 -0.04101346396350701 -0.001187594971966663 -0.007016563492925431 0.0 0.0
0.0 0.06302086259216588 0.05461137656468222 -0.05332734641257738 -0.0012840301521048314 -0.008546773448564676 0.0 0.0
0.0 0.07871471791001572 0.06841766345399383 -0.06704120960848957 -0.0013764538455041852 -0.010142223820454968 0.0 0.0
0.0 0.09611881552978552 0.08346293293544099 -0.08200695146276187 -0.0014559814726792441 -0.011784472449320215 0.0 0.0
0.0 0.11455967475536169 0.09940887844803147 -0.097894614361186 -0.0015142640868453664 -0.013305005757513573 0.0 0.0
0.0 0.1333561791468691 0.11565372941135928 -0.11410690611293116 -0.001546823298428235 -0.014347676508185699 0.0 0.0
0.0 0.15141899416325466 0.13126683865369157 -0.12971843186113538 -0.0015484067925562671 -0.014416651658981643 0.0 0.0
0.0 0.16722205013544536 0.14489730994197225 -0.1433973407606533 -0.0014999691813187333 -0.013160698665734355 0.0 0.0
0.0 0.17870019635416576 0.154756133560705 -0.15333587279005575 -0.0014202607706490947 -0.010547413152918487 0.0 0.0
0.0 0.18382608956702035 0.15871392493334904 -0.15753035781834535 -0.0011835671150036984 1.4298458250738832e-14 0.0 0.0
0.0 0.1787001963541383 0.15475613356068008 -0.1533358727900306 -0.0014202607706494028 0.010547413152951874 0.0 0.0
0.0 0.16722205013539754 0.14489730994193023 -0.14339734076061167 -0.0014999691813187125 0.013160698665769393 0.0 0.0
0.0 0.1514189941631864 0.13126683865363223 -0.12971843186107623 -0.001548406792555878 0.014416651659001706 0.0 0.0
0.0 0.13335617914678705 0.115653729411289 -0.11410690611286113 -0.0015468232984278648 0.014347676508187777 0.0 0.0
0.0 0.114559674755274 0.09940887844795575 -0.09789461436110984 -0.001514264086845933 0.013305005757506962 0.0 0.0
0.0 0.0961188155296983 0.08346293293536539 -0.08200695146268684 -0.0014559814726785663 0.01178447244931534 0.0 0.0
0.0 0.07871471790992984 0.06841766345391934 -0.06704120960841563 -0.0013764538455036765 0.010142223820449912 0.0 0.0
0.0 0.06302086259208001 0.05461137656460794 -0.05332734641250357 -0.0012840301521043758 0.008546773448555652 0.0 0.0
0.0 0.048479422755749194 0.04220105893540599 -0.04101346396343995 -0.001187594971965969 0.007016563492914608 0.0 0.0
0.0 0.035856900963623706 0.031242079501422156 -0.0301479501552085 -0.0010941293462136412 0.00548161463522606 0.0 0.0
0.0 0.024900054799000957 0.021817574825127632 -0.02081294018496215 -0.0010046346401654605 0.003954622839550263 0.0 0.0
0.0 0.01587336587723959 0.014054385640806008 -0.013142340335815258 -0.0009120453049907637 0.002553269821386417 0.0 0.0
0.0 0.008993967154621444 0.008067455862858048 -0.007277678813837792 -0.0007897770490202413 0.0014020509259435703 0.0 0.0
0.0 0.004147887126074926 0.003864630266990195 -0.003278012897096409 -0.0005866173698937895 0.0005726354501523979 0.0 0.0
0.0 0.001544991516536548 0.0012887097669957786 -0.0010030942076909382 -0.0002856155593048397 7.740439713288626e-05 0.0 0.0
0.0 0.00022671151411241794 0.0001909967566618368 -0.0001370619804775739 -5.3934776184262936e-05 -1.4388295378074095e-05 0.0 0.0
0.0 -2.279284247108682e-06 -4.260377247806256e-06 3.489237433620327e-06 7.711398141859557e-07 -3.832568599484871e-06 0.0 0.0
0.0 -5.346613431104544e-07 4.286312928310245e-07 -3.743554240314204e-07 -5.427586879960485e-08 -2.692592022412539e-07 0.0 0.0
0.0 0.002674749795086049 0.0017012971473391596 -0.000931657259633391 -0.000769639887705767 0.004521146181315085 0.0 0.0
0.0 0.011152037246724733 0.008184607919229338 -0.010867408232598148 0.002682800313368811 0.0029365264817838702 0.0 0.0
0.0 0.0084531199354212 0.006042335366884211 -0.008192012042593316 0.0021496766757090934 -0.0031913468975099304 0.0 0.0
0.0 0.0019274894948889654 0.0011514192467689027 -0.0006139273421589493 -0.0005374919046099496 -0.0034046275788144806 0.0 0.0
0.0 0.0 0.0 0.0 0.0 0.0 0.0 0.0
0.0 -1.3501926809133092e-06 -1.6565804736014406e-06 1.3076523019767483e-06 3.489281716246894e-07 1.183518199985406e-06 0.0 0.0
0.0 7.232877286706446e-05 4.9815247500200296e-05 -3.35090769361318e-05 -1.6306170564068226e-05 1.0924779262549123e-05 0.0 0.0
0.0 0.0009078644616659987 0.000798664497939093 -0.0006054972438027331 -0.0001931672541363591 -0.0001435985788509943 0.0 0.0
0.0 0.0032377683763408073 0.0028525405193169755 -0.0023599239212939074 -0.0004926165980230705 -0.0007211452375746719 0.0 0.0
0.0 0.0072541130318464556 0.00649229185080816 -0.005767646218589988 -0.0007246456322181714 -0.0018902958276794555 0.0 0.0
0.0 0.013339952674287059 0.011750655309428532 -0.010891829362704357 -0.0008588259467241627 -0.0034650443695840374 0.0 0.0
0.0 0.02132811777023832 0.018591074586106714 -0.017641961829526823 -0.0009491127565798863 -0.005370483946001718 0.0 0.0
0.0 0.030945372286112115 0.026874041767718505 -0.025842191203300863 -0.001031850564417604 -0.0074317892544713314 0.0 0.0
0.0 0.042166185161971466 0.036466334722428224 -0.035347671958402646 -0.0011186627640255697 -0.009495740423852626 0.0 0.0
0.0 0.05461020985151414 0.047307365545736356 -0.04609785041773347 -0.0012095151280029444 -0.011543270040369782 0.0 0.0
0.0 0.0688228540347171 0.0593629953748132 -0.058067772899171005 -0.0012952224756422005 -0.01364099987873955 0.0 0.0
0.0 0.08399607700429376 0.0725467409918908 -0.07117688819954861 -0.0013698527923421 -0.015786849661595718 0.0 0.0
0.0 0.10008947811621488 0.08660460693260914 -0.08517616949247314 -0.0014284374401359956 -0.017793566071564567 0.0 0.0
0.0 0.1168806844320472 0.10104851701813353 -0.09958522117898336 -0.0014632958391501262 -0.019225996869325516 0.0 0.0
0.0 0.13310194532269157 0.11507245807648867 -0.1136080024446612 -0.0014644556318273907 -0.01948526199476472 0.0 0.0
0.0 0.14738828323286804 0.1274482661802473 -0.12602246091587196 -0.0014258052643753814 -0.017947926466937866 0.0 0.0
0.0 0.1579306262526453 0.13661080718134389 -0.13523990575430087 -0.0013709014270433721 -0.013794487071978145 0.0 0.0
0.0 0.16305395296501468 0.14051528838325333 -0.13947561662770894 -0.0010396717555441841 1.9849573373864615e-14 0.0 0.0
0.0 0.15793062625261753 0.13661080718131877 -0.1352399057542743 -0.0013709014270445897 0.013794487072023211 0.0 0.0
0.0 0.14738828323282652 0.12744826618021013 -0.12602246091583474 -0.001425805264375381 0.017947926466982192 0.0 0.0
0.0 0.1331019453226316 0.11507245807643607 -0.11360800244460864 -0.0014644556318274102 0.019485261994791062 0.0 0.0
0.0 0.11688068443197613 0.10104851701807233 -0.09958522117892268 -0.0014632958391496385 0.019225996869329295 0.0 0.0
0.0 0.10008947811613819 0.08660460693254304 -0.08517616949240689 -0.0014284374401360865 0.017793566071556022 0.0 0.0
0.0 0.0839960770042161 0.0725467409918231 -0.07117688819948179 -0.00136985279234135 0.015786849661588435 0.0 0.0
0.0 0.06882285403464457 0.05936299537474987 -0.05806777289910854 -0.001295222475641362 0.013640999878733562 0.0 0.0
0.0 0.05461020985143403 0.04730736554566806 -0.04609785041766478 -0.0012095151280032345 0.011543270040356643 0.0 0.0
0.0 0.04216618516190375 0.036466334722369244 -0.0353476719583443 -0.00111866276402499 0.009495740423837138 0.0 0.0
0.0 0.03094537228605406 0.026874041767668142 -0.025842191203251107 -0.0010318505644170174 0.007431789254456584 0.0 0.0
0.0 0.021328117770188504 0.018591074586063582 -0.017641961829484146 -0.000949112756579433 0.005370483945986675 0.0 0.0
0.0 0.013339952674249518 0.011750655309395959 -0.010891829362672297 -0.000858825946723652 0.0034650443695740628 0.0 0.0
0.0 0.00725411303182295 0.006492291850786869 -0.00576764621856963 -0.0007246456322172341 0.0018902958276720537 0.0 0.0
0.0 0.003237768376326665 0.0028525405193050813 -0.002359923921283382 -0.0004926165980217013 0.0007211452375708539 0.0 0.0
0.0 0.0009078644616597792 0.0007986644979342828 -0.0006054972437989142 -0.00019316725413536876 0.00014359857884957926 0.0 0.0
0.0 7.23287728664758e-05 4.9815247500293246e-05 -3.350907693627244e-05 -1.6306170564020863e-05 -1.0924779262052034e-05 0.0 0.0
0.0 -1.3501926814140268e-06 -1.656580473719006e-06 1.3076523020678994e-06 3.4892817165112743e-07 -1.1835182000594947e-06 0.0 0.0
0.0 0.0 0.0 0.0 0.0 0.0 0.0 0.0
0.0 0.0019274894948819368 0.0011514192467648576 -0.0006139273421562631 -0.0005374919046085961 0.0034046275788036963 0.0 0.0
0.0 0.008453119935401945 0.006042335366869234 -0.008192012042574245 0.0021496766757050064 0.003191346897495896 0.0 0.0
0.0 0.006193767127225795 0.004403511984599977 -0.006077706143076766 0.0016741941584767917 -0.002747243284122984 0.0 0.0
0.0 0.0015385982455843692 0.0007493997356366202 -0.0003883931113422294 -0.00036100662429439003 -0.002428089167590529 0.0 0.0
0.0 0.0 0.0 0.0 0.0 0.0 0.0 0.0
0.0 -3.529797995262595e-07 7.533615016123555e-08 -5.781699628273e-08 -1.7519153878504204e-08 -4.317357951217234e-08 0.0 0.0
0.0 -1.605185723216426e-05 -5.0003475205727304e-06 5.5437730623116515e-06 -5.434255417389154e-07 1.6377417478979025e-05 0.0 0.0
0.0 0.0004991870943889902 0.00040655757514446785 -0.00030059405378864514 -0.00010596352135582296 -0.00012239045787817114 0.0 0.0
0.0 0.002355775750995056 0.0019461735155497245 -0.0015661782410683587 -0.00037999527448136206 -0.000734103566358177 0.0 0.0
0.0 0.005596323252190717 0.00496222750166086 -0.0043187454519428995 -0.0006434820497179657 -0.0020486444382372937 0.0 0.0
0.0 0.010847743379807723 0.009467657320345142 -0.00867208758858275 -0.000795569731762394 -0.003951092696783321 0.0 0.0
0.0 0.017754701461330628 0.015365047478448817 -0.014477704060347834 -0.0008873434181009735 -0.006208468267846686 0.0 0.0
0.0 0.026122742670079063 0.0224952480492229 -0.021530695339635725 -0.0009645527095871725 -0.008637809412115194 0.0 0.0
0.0 0.03577359282776174 0.030719511526159912 -0.029675221045507946 -0.0010442904806519644 -0.011062511297194808 0.0 0.0
0.0 0.046693851466999725 0.039984704552810696 -0.03885650177043029 -0.001128202782380376 -0.013464143394290131 0.0 0.0
0.0 0.058496859301078376 0.05029732509610936 -0.04908839263315234 -0.0012089324629570041 -0.01591439850453788 0.0 0.0
0.0 0.07175919949833273 0.06160609514737832 -0.060327273977095974 -0.0012788211702823083 -0.018395081244130067 0.0 0.0
0.0 0.08594812150508778 0.07374450900165175 -0.07240983352571939 -0.0013346754759323595 -0.02070919348913151 0.0 0.0
0.0 0.10040716600607655 0.0863557888026264 -0.08498306891559088 -0.001372719887035512 -0.022456824399850597 0.0 0.0
0.0 0.11474965181365256 0.09878550987529378 -0.09740310035534529 -0.0013824095199485974 -0.023000129587267746 0.0 0.0
0.0 0.12766062774105633 0.11000701180224376 -0.10865031734596375 -0.0013566944562798916 -0.021358743873547886 0.0 0.0
0.0 0.13756195713456326 0.11867644361863992 -0.11736414425612858 -0.0013122993625112613 -0.01622447983870795 0.0 0.0
0.0 0.14286885893168208 0.12265663306344793 -0.12179159428536812 -0.0008650387780797254 2.3331163390150067e-14 0.0 0.0
0.0 0.13756195713453864 0.11867644361861661 -0.11736414425610445 -0.0013122993625120693 0.016224479838759215 0.0 0.0
0.0 0.12766062774101897 0.11000701180220927 -0.10865031734592956 -0.001356694456279563 0.021358743873596 0.0 0.0
0.0 0.11474965181360157 0.09878550987524846 -0.09740310035529999 -0.0013824095199485372 0.023000129587297635 0.0 0.0
0.0 0.10040716600601561 0.08635578880257387 -0.08498306891553889 -0.001372719887034974 0.02245682439985502 0.0 0.0
0.0 0.08594812150502337 0.07374450900159606 -0.07240983352566388 -0.001334675475932168 0.020709193489121886 0.0 0.0
0.0 0.0717591994982654 0.06160609514731995 -0.060327273977038076 -0.0012788211702818087 0.01839508124412058 0.0 0.0
0.0 0.058496859301014635 0.05029732509605399 -0.04908839263309736 -0.0012089324629565848 0.015914398504530382 0.0 0.0
0.0 0.046693851466935735 0.03998470455275543 -0.03885650177037533 -0.0011282027823800733 0.013464143394277706 0.0 0.0
0.0 0.035773592827701574 0.030719511526108103 -0.02967522104545655 -0.0010442904806515535 0.011062511297176556 0.0 0.0
0.0 0.026122742670029224 0.022495248049180416 -0.02153069533959367 -0.0009645527095867522 0.008637809412096431 0.0 0.0
0.0 0.017754701461288405 0.015365047478412748 -0.014477704060312194 -0.0008873434181005456 0.006208468267829568 0.0 0.0
0.0 0.010847743379775314 0.009467657320317102 -0.008672087588555312 -0.0007955697317617842 0.003951092696771149 0.0 0.0
0.0 0.005596323252169679 0.004962227501642412 -0.0043187454519255965 -0.0006434820497168173 0.0020486444382287407 0.0 0.0
0.0 0.0023557757509840714 0.001946173515540973 -0.0015661782410608931 -0.0003799952744800813 0.0007341035663544502 0.0 0.0
0.0 0.0004991870943841536 0.00040655757514097027 -0.00030059405378598944 -0.00010596352135498031 0.00012239045787676214 0.0 0.0
0.0 -1.605185723242726e-05 -5.000347520279817e-06 5.543773062072568e-06 -5.434255417928024e-07 -1.637741747846668e-05 0.0 0.0
0.0 -3.529797993640791e-07 7.533615009425001e-08 -5.7816996232069914e-08 -1.7519153862186584e-08 4.317357942164816e-08 0.0 0.0
0.0 0.0 0.0 0.0 0.0 0.0 0.0 0.0
0.0 0.0015385982455776183 0.000749399735633354 -0.00038839311134007074 -0.00036100662429328187 0.002428089167581454 0.0 0.0
0.0 0.006193767127209703 0.0044035119845873575 -0.0060777061430604415 0.001674194158473075 0.0027472432841131066 0.0 0.0
0.0 0.0045049616422878636 0.003095882362348999 -0.004343411354439666 0.0012475289920906637 -0.002154927734345796 0.0 0.0
0.0 0.0009317335406265051 0.0004614849468462654 -0.00023081924899301718 -0.00023066569785324764 -0.0016431930482752855 0.0 0.0
0.0 0.0 0.0 0.0 0.0 0.0 0.0 0.0
0.0 -4.0954797086981634e-07 4.639881984041597e-08 -3.545575529563902e-08 -1.0943064544776984e-08 -8.675979582066578e-08 0.0 0.0
0.0 -1.710661723944914e-05 -1.3317398997719077e-05 1.069889634351433e-05 2.6185026542047585e-06 1.9350003601552168e-05 0.0 0.0
0.0 0.0001723952252476632 0.00015924228891731418 -0.00011434886924593505 -4.4893419671379197e-05 -7.217214638265658e-05 0.0 0.0
0.0 0.0013625610870149755 0.0012049818224513565 -0.0009433846595010291 -0.0002615971629503285 -0.0006685810907542601 0.0 0.0
0.0 0.004316334636121219 0.0035113256340364766 -0.0029780454542917695 -0.0005332801797446991 -0.001932130753363672 0.0 0.0
0.0 0.008292291592058573 0.007235172756480505 -0.006518838369466137 -0.0007163343870143687 -0.003983764290162704 0.0 0.0
0.0 0.01426464908369874 0.012169694360479374 -0.011353465363532345 -0.0008162289969470246 -0.006458305611978172 0.0 0.0
0.0 0.021313880203063216 0.01813808345221192 -0.017247954483453974 -0.0008901289687579451 -0.009090839720900953 0.0 0.0
0.0 0.029392013447216068 0.024993019351316603 -0.0240297670169985 -0.0009632523343180774 -0.01171450682809656 0.0 0.0
0.0 0.0384421081046168 0.03268728582761009 -0.03164684881561731 -0.0010404370119928117 -0.014302202203895494 0.0 0.0
0.0 0.04857228939477565 0.04124702458077297 -0.04013280505310633 -0.0011142195276666535 -0.016929105908598384 0.0 0.0
0.0 0.0595596728614514 0.05067921505638401 -0.049499444239547136 -0.0011797708168368728 -0.01958746517297759 0.0 0.0
0.0 0.07132442077706523 0.060882768422869805 -0.05964908041451239 -0.001233688008357396 -0.02206944207494077 0.0 0.0
0.0 0.08406862679315605 0.0716031906260658 -0.07032946175280325 -0.0012737288732625174 -0.024007829181331788 0.0 0.0
0.0 0.09644750418779244 0.08239795213605317 -0.08110168439210515 -0.0012962677439480757 -0.024824168036567004 0.0 0.0
0.0 0.1078532020685953 0.09250954241331535 -0.09122260117232056 -0.0012869412409948178 -0.023378172810203386 0.0 0.0
0.0 0.11731886059058973 0.10081176142908185 -0.09956408223767371 -0.001247679191408021 -0.017940054184026125 0.0 0.0
0.0 0.12298575822501448 0.10496584250148255 -0.10430196786112628 -0.0006638746403562087 2.3281723771084728e-14 0.0 0.0
0.0 0.11731886059057298 0.10081176142906421 -0.0995640822376555 -0.0012476791914088092 0.017940054184078527 0.0 0.0
0.0 0.10785320206856244 0.09250954241328414 -0.09122260117228909 -0.0012869412409951108 0.023378172810253672 0.0 0.0
0.0 0.09644750418775165 0.08239795213601621 -0.08110168439206827 -0.0012962677439478669 0.02482416803659794 0.0 0.0
0.0 0.08406862679310342 0.07160319062602064 -0.07032946175275832 -0.0012737288732622865 0.02400782918133639 0.0 0.0
0.0 0.07132442077701001 0.06088276842282242 -0.059649080414464865 -0.0012336880083575414 0.022069442074931236 0.0 0.0
0.0 0.05955967286139687 0.05067921505633689 -0.04949944423950033 -0.0011797708168365393 0.019587465172966792 0.0 0.0
0.0 0.04857228939471864 0.041247024580723435 -0.040132805053057025 -0.0011142195276664128 0.01692910590858725 0.0 0.0
0.0 0.038442108104566663 0.03268728582756704 -0.03164684881557511 -0.0010404370119919085 0.014302202203883608 0.0 0.0
0.0 0.029392013447166004 0.024993019351274078 -0.02402976701695626 -0.0009632523343178214 0.011714506828078274 0.0 0.0
0.0 0.02131388020302237 0.018138083452177708 -0.01724795448342083 -0.0008901289687568752 0.009090839720880817 0.0 0.0
0.0 0.014264649083664396 0.012169694360450173 -0.011353465363503581 -0.0008162289969465825 0.006458305611960143 0.0 0.0
0.0 0.008292291592031643 0.007235172756457105 -0.006518838369443572 -0.0007163343870135417 0.003983764290149242 0.0 0.0
0.0 0.0043163346361029765 0.003511325634021853 -0.002978045454278245 -0.0005332801797436051 0.001932130753355097 0.0 0.0
0.0 0.0013625610870064593 0.0012049818224446078 -0.000943384659495562 -0.000261597162949046 0.0006685810907501515 0.0 0.0
0.0 0.00017239522524510744 0.0001592422889156808 -0.00011434886924471466 -4.4893419670966014e-05 7.21721463819604e-05 0.0 0.0
0.0 -1.710661723983447e-05 -1.3317398997197886e-05 1.0698896343119223e-05 2.618502654078636e-06 -1.935000360099689e-05 0.0 0.0
0.0 -4.095479707035988e-07 4.639881984363638e-08 -3.545575529802857e-08 -1.0943064545604687e-08 8.6759795819269e-08 0.0 0.0
0.0 0.0 0.0 0.0 0.0 0.0 0.0 0.0
0.0 0.0009317335406204541 0.0004614849468434401 -0.00023081924899109364 -0.00023066569785234618 0.0016431930482672104 0.0 0.0
0.0 0.004504961642275119 0.0030958823623389703 -0.004343411354426255 0.0012475289920872836 0.0021549277343391226 0.0 0.0
0.0 0.002981951865233683 0.002063371922845344 -0.0029348379024313354 0.0008714659795859879 -0.00160374549901743 0.0 0.0
0.0 0.0005705252775814426 0.00024428999021297153 -0.00010653834674415394 -0.00013775164346881697 -0.001003208437405798 0.0 0.0
0.0 3.547722962352453e-07 -4.760043067899587e-09 4.283870871274896e-09 4.761721966247399e-10 7.118613590585807e-08 0.0 0.0
0.0 -3.9933846218285653e-07 2.3010864123224606e-08 -1.7665084308602554e-08 -5.345779814626124e-09 -7.114747973550936e-08 0.0 0.0
0.0 -6.602377218184929e-06 -4.714361555247478e-06 3.754675452885009e-06 9.596861023625143e-07 1.0234487673816888e-05 0.0 0.0
0.0 1.850777891511822e-05 1.87935896764029e-05 -1.0906241489056318e-05 -7.88734818734655e-06 4.575062126410541e-06 0.0 0.0
0.0 0.0007546985370915177 0.0006108605144752748 -0.00046695610025767275 -0.00014390441421760248 -0.0004919029521553229 0.0 0.0
0.0 0.0026607479903846838 0.0022496215903376675 -0.001852195876243228 -0.0003974257140944399 -0.0016701574902976378 0.0 0.0
0.0 0.006386381141650675 0.005083334931091798 -0.004476156845006984 -0.0006071780860848129 -0.0035804145065056188 0.0 0.0
0.0 0.010704804048604287 0.009042616157161827 -0.0083143206755056 -0.0007282954816562332 -0.006092000978346907 0.0 0.0
0.0 0.01657407925757532 0.013837093316008887 -0.01303237514748702 -0.0008047181685218736 -0.008772746898945399 0.0 0.0
0.0 0.02311709617662689 0.019320295599879512 -0.01844771718117567 -0.0008725784187038463 -0.01143696041419229 0.0 0.0
0.0 0.030377321431804553 0.025447628084182324 -0.02450501125180253 -0.0009426168323797728 -0.01404531040323197 0.0 0.0
0.0 0.038443410290291774 0.03226285248080952 -0.031252794481427384 -0.0010100579993821438 -0.01667596107488217 0.0 0.0
0.0 0.047303641874216665 0.03980934099660017 -0.038739062698839026 -0.0010702782977611376 -0.0193309194990241 0.0 0.0
0.0 0.05723361148740215 0.048051561843744456 -0.04693177022816035 -0.0011197916155841414 -0.021838754670139484 0.0 0.0
0.0 0.06714028619465277 0.05684378233057867 -0.05568056175447089 -0.0011632205761078183 -0.023845081472591335 0.0 0.0
0.0 0.07785329389559487 0.06592394475689255 -0.0647226379660432 -0.0012013067908492 -0.0248803267212199 0.0 0.0
0.0 0.08825360626303341 0.07487555139262142 -0.07366366030759709 -0.0012118910850243806 -0.023906971519592972 0.0 0.0
0.0 0.09719596719127738 0.0828641294958205 -0.0816856366496377 -0.0011784928461828531 -0.018909140599949158 0.0 0.0
0.0 0.10343639059335141 0.08727718342572723 -0.08684201016473438 -0.0004351732609929206 2.2165429214293653e-14 0.0 0.0
0.0 0.09719596719127033 0.0828641294958102 -0.08168563664962745 -0.0011784928461827699 0.018909140600002407 0.0 0.0
0.0 0.08825360626300655 0.07487555139259466 -0.07366366030757014 -0.001211891085024545 0.023906971519643765 0.0 0.0
0.0 0.07785329389556182 0.06592394475686177 -0.06472263796601266 -0.0012013067908491174 0.024880326721251785 0.0 0.0
0.0 0.06714028619461011 0.05684378233054235 -0.05568056175443485 -0.001163220576107492 0.02384508147259477 0.0 0.0
0.0 0.05723361148735484 0.048051561843704245 -0.04693177022812002 -0.0011197916155842465 0.02183875467012735 0.0 0.0
0.0 0.04730364187417417 0.03980934099656317 -0.0387390626988022 -0.001070278297760956 0.019330919499013697 0.0 0.0
0.0 0.03844341029024687 0.03226285248077093 -0.0312527944813889 -0.0010100579993820326 0.016675961074870595 0.0 0.0
0.0 0.03037732143176321 0.025447628084147324 -0.024505011251767947 -0.000942616832379388 0.014045310403219893 0.0 0.0
0.0 0.023117096176588352 0.019320295599847565 -0.018447717181144026 -0.0008725784187035582 0.011436960414174933 0.0 0.0
0.0 0.01657407925753825 0.013837093315978675 -0.013032375147457535 -0.0008047181685211384 0.008772746898922865 0.0 0.0
0.0 0.010704804048574075 0.009042616157137019 -0.008314320675481105 -0.0007282954816559157 0.006092000978327763 0.0 0.0
0.0 0.006386381141627636 0.005083334931073699 -0.004476156844989934 -0.0006071780860837585 0.003580414506493238 0.0 0.0
0.0 0.0026607479903725676 0.0022496215903279127 -0.0018521958762346327 -0.00039742571409327775 0.0016701574902907193 0.0 0.0
0.0 0.0007546985370845639 0.0006108605144704482 -0.000466956100253802 -0.00014390441421664618 0.000491902952151085 0.0 0.0
0.0 1.850777891447257e-05 1.87935896764477e-05 -1.0906241489147972e-05 -7.887348187299896e-06 -4.575062126013723e-06 0.0 0.0
0.0 -6.6023772190880365e-06 -4.714361555249715e-06 3.7546754528846625e-06 9.59686102365051e-07 -1.0234487673741476e-05 0.0 0.0
0.0 -3.9933846203843063e-07 2.3010864114477826e-08 -1.766508430182229e-08 -5.345779812654833e-09 7.114747970917023e-08 0.0 0.0
0.0 3.5477229582550476e-07 -4.760043062279326e-09 4.283870866217358e-09 4.761721960621147e-10 -7.118613582206866e-08 0.0 0.0
0.0 0.0005705252775770433 0.0002442899902110615 -0.00010653834674284592 -0.00013775164346821573 0.001003208437399852 0.0 0.0
0.0 0.0029819518652239117 0.002063371922837743 -0.00293483790242091 0.00087146597958317 0.001603745499012521 0.0 0.0
0.0 0.002240484872717395 0.0012224763823637905 -0.0017593158035206866 0.0005368394211568952 -0.0010706179076508675 0.0 0.0
0.0 0.0002058743363884728 9.977727797407426e-05 -2.742344346377552e-05 -7.235383451029884e-05 -0.0005210127514155541 0.0 0.0
0.0 3.669104222936259e-07 1.1444149446618737e-08 -1.2341683989692133e-08 8.975345430740565e-10 -2.1662091978879357e-07 0.0 0.0
0.0 -7.274323808941425e-07 2.7370500053850176e-08 -2.1099310396468116e-08 -6.2711896573823475e-09 -1.6872419273453356e-07 0.0 0.0
0.0 -4.256998317894853e-06 -2.659718031785596e-06 2.103994137012314e-06 5.557238947732872e-07 9.060223828072335e-06 0.0 0.0
0.0 -2.4962657862701942e-05 -1.5485916155356834e-05 1.3056410942223086e-05 2.429505213133721e-06 3.511771363801405e-05 0.0 0.0
0.0 0.0002898655391493667 0.00021224174783520002 -0.00015913866588121496 -5.310308195398484e-05 -0.00026792808355639847 0.0 0.0
0.0 0.0014741939342780195 0.0011879430748794593 -0.0009501045983042302 -0.00023783847657522943 -0.0012525840460496471 0.0 0.0
0.0 0.003929144289929446 0.003141768534621457 -0.0026846651928414847 -0.0004571033417799695 -0.002893277665242105 0.0 0.0
0.0 0.0077461013817036566 0.006027424746289281 -0.005421937878881226 -0.0006054868674080474 -0.005122883065505353 0.0 0.0
0.0 0.011929819981855074 0.009632150423028368 -0.008936527160736457 -0.0006956232622919051 -0.007660528440660248 0.0 0.0
0.0 0.01686634487065584 0.013745192847603765 -0.012980978933016557 -0.0007642139145872228 -0.010194537448432647 0.0 0.0
0.0 0.022409211042847793 0.01831318092539895 -0.01748432906689417 -0.0008288518585047642 -0.012667058626121124 0.0 0.0
0.0 0.02849195824288912 0.02338889583169667 -0.022500211109558493 -0.0008886847221381602 -0.01513099414715019 0.0 0.0
0.0 0.035336647639084215 0.02904526030143836 -0.028101864724344755 -0.0009433955770935947 -0.0176131154607112 0.0 0.0
0.0 0.042750732747161437 0.035314773677094895 -0.03432458392109178 -0.0009901897560030842 -0.01998654461807632 0.0 0.0
0.0 0.05095298861210298 0.04212501517633918 -0.04109334086532313 -0.0010316743110160603 -0.02193498749883716 0.0 0.0
0.0 0.05933660951134811 0.04938912279404393 -0.04830575688380046 -0.0010833659102434815 -0.023063019661922774 0.0 0.0
0.0 0.0679469281961595 0.05704623656800384 -0.0559208285947739 -0.0011254079732299204 -0.022741647032155345 0.0 0.0
0.0 0.07666432735040674 0.06467457294426372 -0.06356766250186473 -0.0011069104423990235 -0.018989339457907938 0.0 0.0
0.0 0.08376758119888097 0.06941652601498038 -0.06924215705378152 -0.00017436896119891454 1.9127928407858263e-14 0.0 0.0
0.0 0.07666432735040477 0.06467457294425667 -0.06356766250185783 -0.0011069104423987194 0.01898933945795761 0.0 0.0
0.0 0.06794692819614398 0.057046236567985915 -0.05592082859475622 -0.001125407973229734 0.02274164703220487 0.0 0.0
0.0 0.059336609511322636 0.049389122794019885 -0.048305756883776446 -0.0010833659102434654 0.023063019661951352 0.0 0.0
0.0 0.05095298861206877 0.042125015176310246 -0.04109334086529487 -0.0010316743110153543 0.021934987498837353 0.0 0.0
0.0 0.042750732747125375 0.03531477367706475 -0.03432458392106196 -0.0009901897560028324 0.019986544618063713 0.0 0.0
0.0 0.035336647639051665 0.02904526030141057 -0.028101864724317308 -0.000943395577093248 0.017613115460700483 0.0 0.0
0.0 0.02849195824285991 0.023388895831671853 -0.02250021110953388 -0.0008886847221379946 0.015130994147142088 0.0 0.0
0.0 0.022409211042817106 0.01831318092537351 -0.01748432906686931 -0.0008288518585041873 0.012667058626109574 0.0 0.0
0.0 0.016866344870628016 0.013745192847580957 -0.012980978932993973 -0.0007642139145869853 0.010194537448417031 0.0 0.0
0.0 0.011929819981826432 0.009632150423006188 -0.008936527160714608 -0.0006956232622915673 0.007660528440639516 0.0 0.0
0.0 0.007746101381679941 0.006027424746271143 -0.005421937878863362 -0.0006054868674077802 0.005122883065487674 0.0 0.0
0.0 0.003929144289913971 0.0031417685346094115 -0.002684665192830481 -0.0004571033417789321 0.0028932776652319933 0.0 0.0
0.0 0.0014741939342691607 0.0011879430748727778 -0.000950104598298572 -0.0002378384765742052 0.0012525840460430623 0.0 0.0
0.0 0.00028986553914597764 0.00021224174783293848 -0.00015913866587948913 -5.3103081953449116e-05 0.0002679280835535391 0.0 0.0
0.0 -2.4962657863137764e-05 -1.548591615481073e-05 1.305641094179823e-05 2.429505213012554e-06 -3.511771363676527e-05 0.0 0.0
0.0 -4.256998318412774e-06 -2.659718031817803e-06 2.103994137037708e-06 5.557238947800867e-07 -9.060223828247106e-06 0.0 0.0
0.0 -7.274323812254154e-07 2.737050006405425e-08 -2.109931040348081e-08 -6.271189660573343e-09 1.687241928648658e-07 0.0 0.0
0.0 3.669104221291822e-07 1.1444149473752541e-08 -1.2341684017167941e-08 8.975345434158001e-10 2.166209203788034e-07 0.0 0.0
0.0 0.0002058743363857028 9.977727797301139e-05 -2.742344346310978e-05 -7.235383450990155e-05 0.0005210127514114221 0.0 0.0
0.0 0.0022404848727083523 0.0012224763823582986 -0.0017593158035129372 0.0005368394211546377 0.0010706179076470895 0.0 0.0
0.0 0.0011010754594122495 0.0006443067735088096 -0.0009376841774575226 0.000293377403948713 -0.0006911165095765614 0.0 0.0
0.0 4.5070326552865126e-05 1.022100642266964e-05 2.454074126626684e-05 -3.476174768893653e-05 -0.0001743913222749296 0.0 0.0
0.0 1.9909493577489195e-06 -1.5804521656490025e-09 1.040707279224522e-08 -8.826620626595304e-09 5.025110897299798e-07 0.0 0.0
0.0 1.6925238291683879e-06 -2.4125980569012138e-08 1.681735999522338e-08 7.308620573788614e-09 4.6017234749913795e-07 0.0 0.0
0.0 -5.148872227608618e-06 -1.5767057791511098e-06 1.223455692591823e-06 3.532500865592861e-07 9.0761247732301e-06 0.0 0.0
0.0 -2.1740592179407167e-05 -7.878585179453188e-06 6.505828870977338e-06 1.3727563084758495e-06 2.1493114797195298e-05 0.0 0.0
0.0 7.133608936265803e-05 2.3297461215014816e-05 -1.6716422635151333e-05 -6.581038579863548e-06 -7.359585120350909e-05 0.0 0.0
0.0 0.0006711578185578021 0.00039796320944165243 -0.0003147999812352426 -8.316322820641031e-05 -0.000704310616678708 0.0 0.0
0.0 0.002049063916663187 0.0014656581649230512 -0.0012164594717818569 -0.00024919869314119283 -0.0019774951618751354 0.0 0.0
0.0 0.004446642692667838 0.003258822916507458 -0.0028454796259715282 -0.0004133432905359297 -0.0037095260879330696 0.0 0.0
0.0 0.007317552599456413 0.005612223992936522 -0.005082460697597907 -0.0005297632953386129 -0.0058015309906161786 0.0 0.0
0.0 0.01079271399347688 0.008331473370199814 -0.007722723298911645 -0.0006087500712881702 -0.007974817909794648 0.0 0.0
0.0 0.01457497219774484 0.011346929610694641 -0.01067167094828577 -0.0006752586624088681 -0.01015178395081169 0.0 0.0
0.0 0.018732656053872514 0.014696827073308709 -0.01396658266765917 -0.0007302444056495453 -0.012310517641772366 0.0 0.0
0.0 0.023422215446652628 0.018463457225153565 -0.017683956914084715 -0.0007795003110688672 -0.014456764258656291 0.0 0.0
0.0 0.02872589963904398 0.02273504397698983 -0.021910287156168284 -0.0008247568208215383 -0.016557935074640005 0.0 0.0
0.0 0.034587312463757375 0.02754229803219564 -0.02667465343128645 -0.0008676446009091437 -0.01838710785926808 0.0 0.0
0.0 0.04077470746247445 0.03288952485996046 -0.031969816013499484 -0.0009197088464610106 -0.01952007672588568 0.0 0.0
0.0 0.04777741107810501 0.03899375946952156 -0.03799829252632189 -0.0009954669431996464 -0.019634470232237494 0.0 0.0
0.0 0.05604782875135399 0.04605966115601123 -0.045032592300056205 -0.0010270688559550537 -0.017793526292825206 0.0 0.0
0.0 0.06406469239223835 0.051182295030762125 -0.05130362753225257 0.00012133250149040404 1.6931768487271626e-14 0.0 0.0
0.0 0.056047828751354486 0.04605966115600584 -0.045032592300050245 -0.0010270688559555722 0.01779352629286647 0.0 0.0
0.0 0.047777411078095806 0.03899375946950871 -0.037998292526309846 -0.0009954669431988068 0.01963447023228158 0.0 0.0
0.0 0.04077470746245598 0.03288952485994356 -0.031969816013482505 -0.0009197088464610264 0.019520076725908386 0.0 0.0
0.0 0.03458731246373098 0.027542298032175103 -0.02667465343126623 -0.0008676446009088609 0.01838710785926363 0.0 0.0
0.0 0.02872589963901844 0.022735043976969065 -0.021910287156147488 -0.0008247568208215498 0.016557935074627755 0.0 0.0
0.0 0.02342221544662978 0.01846345722513467 -0.017683956914066656 -0.0007795003110680226 0.014456764258645945 0.0 0.0
0.0 0.018732656053855327 0.014696827073294208 -0.01396658266764533 -0.0007302444056488866 0.012310517641767361 0.0 0.0
0.0 0.014574972197724743 0.011346929610678444 -0.010671670948269995 -0.0006752586624084567 0.010151783950801685 0.0 0.0
0.0 0.010792713993456165 0.008331473370184366 -0.007722723298896616 -0.0006087500712877475 0.00797481790978103 0.0 0.0
0.0 0.007317552599439255 0.005612223992923644 -0.0050824606975857735 -0.000529763295337869 0.005801530990601117 0.0 0.0
0.0 0.00444664269265285 0.003258822916496854 -0.0028454796259615575 -0.00041334329053529546 0.003709526087920635 0.0 0.0
0.0 0.0020490639166544315 0.0014656581649168776 -0.0012164594717764415 -0.00024919869314043525 0.001977495161868082 0.0 0.0
0.0 0.0006711578185526501 0.0003979632094383524 -0.00031479998123256367 -8.316322820578852e-05 0.0007043106166739505 0.0 0.0
0.0 7.133608936057665e-05 2.3297461214867835e-05 -1.6716422635034433e-05 -6.581038579833357e-06 7.359585120281974e-05 0.0 0.0
0.0 -2.174059217953511e-05 -7.878585179032966e-06 6.505828870659478e-06 1.3727563083734542e-06 -2.1493114795370413e-05 0.0 0.0
0.0 -5.148872227340752e-06 -1.5767057790034336e-06 1.223455692482774e-06 3.5325008652067e-07 -9.07612477179778e-06 0.0 0.0
0.0 1.6925238285533551e-06 -2.4125980615139633e-08 1.6817360030185316e-08 7.30862058495519e-09 -4.601723478116884e-07 0.0 0.0
0.0 1.990949357653345e-06 -1.5804521478987093e-09 1.0407072770888202e-08 -8.826620622989098e-09 -5.025110891674981e-07 0.0 0.0
0.0 4.507032655051021e-05 1.0221006422230897e-05 2.45407412665005e-05 -3.476174768873131e-05 0.00017439132227290124 0.0 0.0
0.0 0.001101075459406426 0.0006443067735056327 -0.0009376841774529164 0.00029337740394728376 0.0006911165095740282 0.0 0.0
0.0 0.0004900956003497205 0.0002469329517222072 -0.0003620443214869252 0.00011511136976471824 -0.00032691757887719084 0.0 0.0
0.0 -3.3340038040939874e-05 -2.0735646309261972e-05 3.456639282125126e-05 -1.3830746511989308e-05 6.051208371866722e-06 0.0 0.0
0.0 6.446955016699986e-07 7.3137188869606176e-09 -1.687732393991947e-08 9.563605052959951e-09 -3.904924679835774e-07 0.0 0.0
0.0 4.990326445981802e-07 -1.570056391713874e-08 1.0265317095157289e-08 5.435246821979312e-09 -7.34114814734308e-08 0.0 0.0
0.0 -3.964636444079292e-06 -5.714443985550307e-07 4.5913876769263466e-07 1.1230563086240429e-07 7.043430653553315e-06 0.0 0.0
0.0 -9.421749954832166e-06 -3.589109081323539e-06 2.9769835561408642e-06 6.121255251826471e-07 2.0298637693645276e-05 0.0 0.0
0.0 3.463203624273906e-05 -1.9329028981147826e-06 1.7881656645414847e-06 1.4473723357332744e-07 -3.8754154478291136e-05 0.0 0.0
0.0 0.00018776199880217288 3.211547117317211e-05 -2.7042749313300816e-05 -5.072721859871352e-06 -0.0002826722455570595 0.0 0.0
0.0 0.0006637817278415557 0.00025867760606293813 -0.0002268863509621379 -3.17912551008001e-05 -0.0009456786853255279 0.0 0.0
0.0 0.0016865989770309016 0.0008877567890440956 -0.0007921748811786882 -9.558190786540837e-05 -0.0020908544533318344 0.0 0.0
0.0 0.0033727545545307065 0.0019447497154939492 -0.001759401084502064 -0.00018534863099188364 -0.003556708870424339 0.0 0.0
0.0 0.0051347935910533325 0.0032525106238366517 -0.002984447930990882 -0.0002680626928457731 -0.005199178067170445 0.0 0.0
0.0 0.007237674909104188 0.004710420866110146 -0.004367941164996136 -0.0003424797011140047 -0.006916722891073729 0.0 0.0
0.0 0.009612176478194593 0.006348849994317093 -0.005942622708018592 -0.0004062272862984952 -0.008697265294706082 0.0 0.0
0.0 0.012273876135348888 0.00823623898937526 -0.007771536281905412 -0.0004647027074698462 -0.010536654472910993 0.0 0.0
0.0 0.015368623049510024 0.010487190389950817 -0.009964438069243953 -0.0005227523207068582 -0.012428193455311785 0.0 0.0
0.0 0.019069429802559688 0.0132491592386374 -0.012665294929149303 -0.0005838643094880997 -0.01424181932294217 0.0 0.0
0.0 0.023430197393955635 0.016652895616366837 -0.01600682369685822 -0.0006460719195086104 -0.015517374895535 0.0 0.0
0.0 0.028435384058517484 0.020942507958925806 -0.02021696869208653 -0.0007255392668393017 -0.01568328608510439 0.0 0.0
0.0 0.03508071251932765 0.02692313485189458 -0.026053669048007773 -0.000869465803886755 -0.015008800006924207 0.0 0.0
0.0 0.04532059098597257 0.03234686436653861 -0.032816106864346065 0.00046924249780745685 1.38595732113167e-14 0.0 0.0
0.0 0.035080712519332244 0.02692313485189169 -0.026053669048004484 -0.0008694658038872361 0.01500880000695897 0.0 0.0
0.0 0.02843538405851231 0.020942507958918166 -0.020216968692078754 -0.0007255392668394267 0.0156832860851373 0.0 0.0
0.0 0.023430197393942087 0.01665289561635623 -0.016006823696847687 -0.0006460719195085352 0.015517374895547519 0.0 0.0
0.0 0.019069429802543492 0.013249159238627845 -0.012665294929140375 -0.0005838643094875 0.014241819322934847 0.0 0.0
0.0 0.0153686230494944 0.010487190389940474 -0.009964438069232927 -0.0005227523207075437 0.012428193455299412 0.0 0.0
0.0 0.012273876135337185 0.008236238989366866 -0.007771536281896804 -0.00046470270747006116 0.01053665447290168 0.0 0.0
0.0 0.009612176478185632 0.006348849994311205 -0.005942622708012961 -0.00040622728629825317 0.008697265294701769 0.0 0.0
0.0 0.007237674909093551 0.004710420866103794 -0.004367941164990002 -0.0003424797011137919 0.006916722891065345 0.0 0.0
0.0 0.005134793591040497 0.003252510623829009 -0.0029844479309836694 -0.0002680626928453393 0.0051991780671576445 0.0 0.0
0.0 0.003372754554518427 0.001944749715486919 -0.0017594010844955814 -0.0001853486309913362 0.003556708870410595 0.0 0.0
0.0 0.0016865989770248097 0.0008877567890407921 -0.0007921748811755003 -9.558190786529255e-05 0.0020908544533264953 0.0 0.0
0.0 0.0006637817278382497 0.0002586776060613475 -0.00022688635096071476 -3.179125510063209e-05 0.0009456786853210368 0.0 0.0
0.0 0.00018776199880039877 3.21154711727625e-05 -2.7042749312937703e-05 -5.07272185982492e-06 0.0002826722455548939 0.0 0.0
0.0 3.4632036241792665e-05 -1.9329028980426446e-06 1.7881656644715846e-06 1.447372335710733e-07 3.875415447832156e-05 0.0 0.0
0.0 -9.42174995595726e-06 -3.5891090813198543e-06 2.976983556133571e-06 6.121255251862789e-07 -2.029863769331347e-05 0.0 0.0
0.0 -3.9646364444050806e-06 -5.714443985609338e-07 4.591387677027952e-07 1.1230563085813558e-07 -7.043430653317061e-06 0.0 0.0
0.0 4.990326443280514e-07 -1.5700563926670286e-08 1.0265317106339203e-08 5.435246820331922e-09 7.341148190934158e-08 0.0 0.0
0.0 6.446955020312777e-07 7.3137188935977394e-09 -1.6877323962641222e-08 9.563605069039485e-09 3.9049246913250656e-07 0.0 0.0
0.0 -3.3340038041724545e-05 -2.0735646309138533e-05 3.456639282102776e-05 -1.3830746511889209e-05 -6.051208372196626e-06 0.0 0.0
0.0 0.0004900956003459013 0.00024693295172049647 -0.00036204432148444964 0.00011511136976395279 0.0003269175788752215 0.0 0.0
0.0 8.227708026151155e-05 4.7602952617746536e-05 -7.154258109429002e-05 2.393962847654347e-05 -7.715814844292766e-05 0.0 0.0
0.0 -1.4652691603986282e-05 -8.327391615502112e-06 1.1649429879755322e-05 -3.3220382642531998e-06 1.658949727831984e-05 0.0 0.0
0.0 3.427745692600364e-06 7.778784284672312e-08 -4.677170170576842e-08 -3.101614114096011e-08 2.136566590850047e-06 0.0 0.0
0.0 1.4517594811277394e-06 -4.5712626934633095e-08 3.395573574835309e-08 1.1756891186283478e-08 -4.070087163125766e-07 0.0 0.0
0.0 -1.8228627187508185e-06 -7.888558868367401e-08 8.078391917795665e-08 -1.898330494282709e-09 3.3118334674138024e-06 0.0 0.0
0.0 -1.7514703223045755e-06 -6.81936805243369e-07 7.111631183872805e-07 -2.922631314391207e-08 1.1030461963161627e-05 0.0 0.0
0.0 4.5150755191254346e-05 -1.2707476173584821e-06 1.2552016043637816e-06 1.5546012994693957e-08 -5.431279375840174e-05 0.0 0.0
0.0 0.00015186778514832299 -9.081647532840227e-07 8.674557453745945e-07 4.070900790943407e-08 -0.00025967914803908627 0.0 0.0
0.0 0.00036835885562981076 -1.5300911504165643e-07 1.3736508726939654e-07 1.5644027772274927e-08 -0.0005597509825763097 0.0 0.0
0.0 0.000602569700208432 5.7735827303442714e-08 -2.3747335027178487e-08 -3.398849227638112e-08 -0.0011131750777416609 0.0 0.0
0.0 0.0010826813978429138 4.834838022465713e-07 -7.271807755291845e-07 2.436969732826945e-07 -0.001998583351911838 0.0 0.0
0.0 0.0016705431467143794 -4.343282227066094e-06 6.1088645688941e-06 -1.7655823418275993e-06 -0.0033609202748299746 0.0 0.0
0.0 0.0026490257764182567 -1.59945907875045e-05 1.940502812271895e-05 -3.410437335213626e-06 -0.004946084529446379 0.0 0.0
0.0 0.00381124621595164 -2.892850060181836e-05 3.1851353172692104e-05 -2.9228525708728515e-06 -0.006644460143368152 0.0 0.0
0.0 0.005130764768341391 8.356524525832002e-06 -1.464071558372141e-05 6.284191057890303e-06 -0.008460489877706446 0.0 0.0
0.0 0.006573174469483976 0.00022389608986217696 -0.00025371013446391535 2.981404460173753e-05 -0.0104002275201334 0.0 0.0
0.0 0.008191474689428225 0.0008530635933393135 -0.0009276632005712368 7.45996072319228e-05 -0.012405765496562044 0.0 0.0
0.0 0.009922882501188727 0.002117078944834856 -0.002308301565882527 0.00019122262104766567 -0.014302820616432675 0.0 0.0
0.0 0.012354192331568406 0.003729172931346469 -0.004100542602714582 0.00037136967136811483 -0.015688540800376696 0.0 0.0
0.0 0.018035502981200362 0.007631402144728195 -0.007409325385878123 -0.00022207675885007152 -0.015945100762031792 0.0 0.0
0.0 0.03185433606631115 0.013710125967668239 -0.014724366651399859 0.0010142406837316126 9.929557176491244e-15 0.0 0.0
0.0 0.018035502981206753 0.007631402144727406 -0.007409325385877028 -0.00022207675885036978 0.015945100762055544 0.0 0.0
0.0 0.01235419233156607 0.0037291729313461072 -0.004100542602714108 0.00037136967136799833 0.01568854080038567 0.0 0.0
0.0 0.00992288250117567 0.002117078944832726 -0.002308301565880302 0.0001912226210475739 0.014302820616426817 0.0 0.0
0.0 0.008191474689418426 0.0008530635933397825 -0.0009276632005716383 7.459960723185687e-05 0.012405765496551351 0.0 0.0
0.0 0.006573174469479133 0.00022389608986372552 -0.0002537101344655242 2.9814044601799003e-05 0.010400227520123127 0.0 0.0
0.0 0.005130764768335815 8.356524526880317e-06 -1.4640715584418986e-05 6.2841910575370155e-06 0.008460489877699002 0.0 0.0
0.0 0.0038112462159464013 -2.8928500599639763e-05 3.185135317051237e-05 -2.9228525708707644e-06 0.00664446014336097 0.0 0.0
0.0 0.00264902577640758 -1.599459078441642e-05 1.9405028119169815e-05 -3.410437334753179e-06 0.004946084529432087 0.0 0.0
0.0 0.0016705431467069116 -4.343282226757341e-06 6.108864568719191e-06 -1.765582341962142e-06 0.0033609202748199445 0.0 0.0
0.0 0.0010826813978364771 4.834838025078369e-07 -7.271807757627217e-07 2.436969732550067e-07 0.001998583351903022 0.0 0.0
0.0 0.000602569700208927 5.773582705707132e-08 -2.3747334850988857e-08 -3.398849220594694e-08 0.001113175077741102 0.0 0.0
0.0 0.0003683588556280264 -1.530091149053197e-07 1.3736508718053473e-07 1.56440277246901e-08 0.0005597509825736632 0.0 0.0
0.0 0.0001518677851470154 -9.081647532816643e-07 8.674557453955123e-07 4.070900788614813e-08 0.0002596791480367923 0.0 0.0
0.0 4.515075519021446e-05 -1.270747617360411e-06 1.2552016043830789e-06 1.554601297735102e-08 5.431279375829477e-05 0.0 0.0
0.0 -1.751470323214391e-06 -6.819368052503655e-07 7.111631183912135e-07 -2.9226313140854085e-08 -1.103046196250324e-05 0.0 0.0
0.0 -1.8228627187538475e-06 -7.888558872126245e-08 8.078391921205704e-08 -1.8983304907913913e-09 -3.3118334664826003e-06 0.0 0.0
0.0 1.451759481065123e-06 -4.571262699212199e-08 3.395573579861769e-08 1.175689119350329e-08 4.0700871710990596e-07 0.0 0.0
0.0 3.4277456917786347e-06 7.778784286609181e-08 -4.677170171904523e-08 -3.101614114703665e-08 -2.1365665913178106e-06 0.0 0.0
0.0 -1.465269160435258e-05 -8.327391615307065e-06 1.1649429879523839e-05 -3.322038264216786e-06 -1.6589497277590958e-05 0.0 0.0
0.0 8.227708026022091e-05 4.760295261752983e-05 -7.154258109398646e-05 2.3939628476456748e-05 7.715814844265526e-05 0.0 0.0
0.0 1.054923981973596e-06 -1.4626497452897796e-06 2.0132377593802732e-06 -5.505880140905107e-07 3.3187392200400812e-06 0.0 0.0
0.0 -5.29745609519599e-07 2.2655406244105876e-07 -2.921870314853186e-07 6.563296904426254e-08 1.022185130557611e-07 0.0 0.0
0.0 4.304542879937916e-07 6.143964290395061e-08 -8.722598332217843e-08 2.5786340418227387e-08 -8.126644942133938e-07 0.0 0.0
0.0 2.37212731599136e-06 -1.1508277914652258e-08 -1.212337797952333e-09 1.2720615712603541e-08 -1.0485586000843587e-06 0.0 0.0
0.0 6.288052350832208e-08 -1.6314154378851068e-07 1.5175146886946378e-07 1.1390074919044289e-08 -1.3707103486414923e-06 0.0 0.0
0.0 -2.1279043467690736e-06 7.367829278800603e-08 1.6289804376777592e-07 -2.365763365557426e-07 -8.501957865756625e-07 0.0 0.0
0.0 5.73695034387208e-05 -2.7548759108326306e-07 5.008006036590773e-07 -2.253130125758732e-07 -4.3856661735136036e-05 0.0 0.0
0.0 0.0001993690817830515 -3.596245227077738e-05 3.052588132153768e-05 5.4365709492397266e-06 -0.0002921668901948895 0.0 0.0
0.0 0.0006661861469770233 -0.0002599736524711387 0.0002279578496179264 3.201580285321256e-05 -0.0009509183009362548 0.0 0.0
0.0 0.0016844030068111043 -0.000886579599633613 0.0007910926832100278 9.548691642358573e-05 -0.002090200261913024 0.0 0.0
0.0 0.0033834890285833028 -0.0019445557466262007 0.0017594702259977665 0.00018508552062843325 -0.003553196517123145 0.0 0.0
0.0 0.005165810696238277 -0.003270905885834734 0.0030000913023733302 0.00027081458346140124 -0.005202738150162702 0.0 0.0
0.0 0.007293746422357479 -0.004760039816436715 0.004412935090328606 0.0003471047261081094 -0.006920797519486105 0.0 0.0
0.0 0.00968205848604765 -0.006416443646487573 0.006009626234554956 0.00040681741193261467 -0.008694128922548918 0.0 0.0
0.0 0.012189719855415579 -0.008188230829079168 0.0077441162335297456 0.0004441145955494201 -0.010541241885720577 0.0 0.0
0.0 0.014703014419358434 -0.009900662360921249 0.009449957560171772 0.0004507048007494788 -0.012527193785861923 0.0 0.0
0.0 0.016861751632819076 -0.011224759401408484 0.010806111737373888 0.0004186476640346049 -0.014698000185855814 0.0 0.0
0.0 0.018457594976428456 -0.011709033884888854 0.011376134641266508 0.00033289924362234636 -0.017112296579025278 0.0 0.0
0.0 0.018596465709983065 -0.010822172335750566 0.010678579940392643 0.00014359239535792782 -0.01972694610673952 0.0 0.0
0.0 0.015174497259952655 -0.00782008477940138 0.00812017294103765 -0.0003000881616362708 -0.021590664435168154 0.0 0.0
0.0 0.03065119749226561 -0.00432122886922858 0.002030042874136832 0.002291185995091743 1.359936468992018e-14 0.0 0.0
0.0 0.015174497259958435 -0.00782008477940174 0.008120172941037541 -0.0003000881616358001 0.021590664435182642 0.0 0.0
0.0 0.018596465709980605 -0.010822172335747574 0.010678579940388663 0.0001435923953589107 0.019726946106753296 0.0 0.0
0.0 0.018457594976418912 -0.011709033884881344 0.011376134641260147 0.00033289924362118345 0.017112296579029206 0.0 0.0
0.0 0.016861751632802787 -0.011224759401397196 0.010806111737362433 0.00041864766403477624 0.014698000185846424 0.0 0.0
0.0 0.014703014419340278 -0.009900662360908362 0.009449957560158765 0.00045070480074959924 0.012527193785847768 0.0 0.0
0.0 0.012189719855401474 -0.008188230829068005 0.007744116233519073 0.0004441145955489331 0.010541241885709571 0.0 0.0
0.0 0.009682058486032956 -0.006416443646476102 0.006009626234543795 0.0004068174119323081 0.008694128922539221 0.0 0.0
0.0 0.0072937464223390815 -0.004760039816422959 0.004412935090315799 0.00034710472610716066 0.006920797519474462 0.0 0.0
0.0 0.005165810696220131 -0.0032709058858223046 0.0030000913023615983 0.0002708145834607041 0.005202738150146817 0.0 0.0
0.0 0.0033834890285680463 -0.0019445557466167074 0.0017594702259889515 0.0001850855206277539 0.0035531965171090012 0.0 0.0
0.0 0.001684403006801503 -0.0008865795996278998 0.0007910926832048694 9.54869164230309e-05 0.002090200261905719 0.0 0.0
0.0 0.0006661861469723902 -0.00025997365246882787 0.00022795784961579136 3.201580285303657e-05 0.0009509183009311184 0.0 0.0
0.0 0.0001993690817810152 -3.596245227042568e-05 3.0525881321291144e-05 5.4365709491346225e-06 0.0002921668901925994 0.0 0.0
0.0 5.736950343758498e-05 -2.7548759124715123e-07 5.008006037601639e-07 -2.2531301251302622e-07 4.385666173533146e-05 0.0 0.0
0.0 -2.127904347757257e-06 7.367829272974541e-08 1.6289804382060293e-07 -2.3657633655034601e-07 8.501957872549035e-07 0.0 0.0
0.0 6.288052331005136e-08 -1.6314154389587795e-07 1.5175146896148568e-07 1.1390074934382725e-08 1.3707103495401046e-06 0.0 0.0
0.0 2.3721273155040344e-06 -1.1508278018040877e-08 -1.21233771208914e-09 1.2720615730130626e-08 1.0485586010074205e-06 0.0 0.0
0.0 4.3045428764834647e-07 6.143964288528004e-08 -8.722598331728023e-08 2.57863404319956e-08 8.12664494932988e-07 0.0 0.0
0.0 -5.29745609373425e-07 2.265540623761091e-07 -2.921870314072199e-07 6.563296903110993e-08 -1.0221851303611149e-07 0.0 0.0
0.0 1.0549239805486504e-06 -1.462649744806574e-06 2.0132377586497984e-06 -5.505880138432103e-07 -3.318739219063905e-06 0.0 0.0
0.0 -5.791226492451871e-07 3.285152939261595e-08 -4.863961923435168e-08 1.5788089841737027e-08 -8.324711323925468e-08 0.0 0.0
0.0 1.309485031460977e-06 1.115366035700497e-09 1.938070946632815e-08 -2.049607550203468e-08 2.3791622808640623e-07 0.0 0.0
0.0 -3.228632633737149e-07 2.1322945472063487e-07 -1.706858653879738e-07 -4.2543589332669747e-08 1.6332009412622058e-06 0.0 0.0
0.0 1.288748370173444e-06 -3.9327559025467044e-07 3.083021761569842e-07 8.497341409767421e-08 -3.2445886304571025e-06 0.0 0.0
0.0 2.885132011150992e-06 2.297151153842363e-06 -1.8922613993778372e-06 -4.048897544644665e-07 1.0099963674585552e-05 0.0 0.0
0.0 1.1414231754845857e-05 5.8840105192628695e-06 -4.567891506583315e-06 -1.3161190126795495e-06 1.372263983060449e-05 0.0 0.0
0.0 8.511904790401484e-05 -4.1044275763289606e-05 3.161560136493704e-05 9.428674398352625e-06 -0.00013142418709471772 0.0 0.0
0.0 0.0006888791386555481 -0.00040569931309828724 0.0003216105191490895 8.408879394919747e-05 -0.0007231628007756891 0.0 0.0
0.0 0.0020489791559837726 -0.0014651537355501341 0.0012158296750473655 0.0002493240605027676 -0.001980524170853957 0.0 0.0
0.0 0.00444300953537646 -0.003257060831452281 0.002843701243451086 0.0004133595880011929 -0.0037063301432572996 0.0 0.0
0.0 0.007321132985253652 -0.005615876691912906 0.005085963045799737 0.00052991364611317 -0.005801325554542686 0.0 0.0
0.0 0.010813574341311588 -0.008349144987085087 0.00773968961465557 0.0006094553724295224 -0.007976196160169927 0.0 0.0
0.0 0.01462057809647386 -0.011390689390207447 0.010714523330386121 0.0006761660598213167 -0.01012929249301001 0.0 0.0
0.0 0.018779606206687664 -0.014754968980273408 0.014026824195955386 0.0007281447843180242 -0.012237986343873406 0.0 0.0
0.0 0.023332093116566203 -0.01841184978145705 0.017647385342548342 0.0007644644389086999 -0.014390931503114133 0.0 0.0
0.0 0.028092663398074914 -0.022180648432490874 0.02140093266054399 0.0007797157719468776 -0.016793411457338637 0.0 0.0
0.0 0.03260170702050708 -0.025674544786749718 0.024900550883910407 0.0007739939028393046 -0.019668328290481023 0.0 0.0
0.0 0.03608165572312464 -0.02832515002887658 0.0275744310231062 0.0007507190057703723 -0.023125735866095943 0.0 0.0
0.0 0.03786572147680867 -0.029104045034536515 0.028439766387281608 0.0006642786472549058 -0.02649892652745259 0.0 0.0
0.0 0.035183150025707856 -0.025864374609649247 0.025366864502637813 0.0004975101070114186 -0.02723326936714351 0.0 0.0
0.0 0.037644791719631705 -0.02073778353360136 0.01765337080929785 0.0030844127243034865 1.6186704754339587e-14 0.0 0.0
0.0 0.035183150025716245 -0.025864374609648078 0.0253668645026371 0.0004975101070109921 0.02723326936717876 0.0 0.0
0.0 0.03786572147680353 -0.02910404503452646 0.028439766387271605 0.000664278647254836 0.026498926527486515 0.0 0.0
0.0 0.036081655723106995 -0.02832515002886057 0.027574431023090845 0.0007507190057697276 0.02312573586610784 0.0 0.0
0.0 0.03260170702047769 -0.025674544786726157 0.024900550883886534 0.0007739939028396148 0.01966832829047297 0.0 0.0
0.0 0.028092663398046443 -0.02218064843246762 0.021400932660521312 0.0007797157719463251 0.01679341145732433 0.0 0.0
0.0 0.023332093116539224 -0.01841184978143493 0.017647385342526863 0.0007644644389080703 0.01439093150310056 0.0 0.0
0.0 0.01877960620666387 -0.014754968980253028 0.014026824195935324 0.0007281447843177022 0.012237986343861872 0.0 0.0
0.0 0.014620578096443806 -0.011390689390183596 0.010714523330362272 0.0006761660598213202 0.010129292492994291 0.0 0.0
0.0 0.010813574341284968 -0.008349144987064506 0.007739689614635848 0.0006094553724286543 0.007976196160152065 0.0 0.0
0.0 0.00732113298522841 -0.005615876691893803 0.005085963045780921 0.0005299136461128798 0.005801325554522284 0.0 0.0
0.0 0.004443009535357784 -0.003257060831438344 0.002843701243438009 0.0004133595880003345 0.003706330143243657 0.0 0.0
0.0 0.002048979155973229 -0.0014651537355421928 0.001215829675040679 0.0002493240605015143 0.0019805241708465227 0.0 0.0
0.0 0.0006888791386502317 -0.00040569931309497847 0.0003216105191464284 8.408879394854945e-05 0.0007231628007705636 0.0 0.0
0.0 8.511904790124036e-05 -4.1044275762581155e-05 3.161560136439507e-05 9.428674398186088e-06 0.00013142418709290174 0.0 0.0
0.0 1.1414231754906911e-05 5.884010518670981e-06 -4.567891506117285e-06 -1.3161190125537922e-06 -1.3722639828706815e-05 0.0 0.0
0.0 2.8851320103165468e-06 2.297151153659832e-06 -1.8922613992262932e-06 -4.048897544335313e-07 -1.009996367369735e-05 0.0 0.0
0.0 1.2887483699964428e-06 -3.932755904017588e-07 3.083021762788548e-07 8.497341412290972e-08 3.24458863144324e-06 0.0 0.0
0.0 -3.228632640519873e-07 2.1322945471967264e-07 -1.7068586539817074e-07 -4.2543589321497044e-08 -1.6332009409513138e-06 0.0 0.0
0.0 1.3094850310065731e-06 1.1153660463931158e-09 1.9380709458124046e-08 -2.0496075504518593e-08 -2.3791622822861994e-07 0.0 0.0
0.0 -5.791226488939735e-07 3.285152937202806e-08 -4.863961920387383e-08 1.57880898318369e-08 8.324711318699175e-08 0.0 0.0
0.0 0.0 0.0 0.0 0.0 0.0 0.0 0.0
0.0 -4.597287996738521e-07 -6.853202956288844e-09 2.886835497529438e-09 3.966367458759904e-09 -9.336839224249032e-08 0.0 0.0
0.0 1.2341504885861902e-06 1.5229929351459884e-07 -1.1403672082412152e-07 -3.826257269047209e-08 9.596997396154716e-07 0.0 0.0
0.0 6.567003656620154e-07 1.1318896062770462e-06 -9.451086894476561e-07 -1.8678091682939007e-07 3.6048317078446563e-06 0.0 0.0
0.0 1.6125919549633796e-06 2.2072288838422795e-06 -1.7394909625555995e-06 -4.677379212867147e-07 3.1561883796096493e-06 0.0 0.0
0.0 5.576052611558755e-06 -1.048862816294047e-05 7.857311177789758e-06 2.631316985150766e-06 -3.0294516990019756e-05 0.0 0.0
0.0 0.0003656273298944352 -0.0002320408313594478 0.00017684327693861336 5.5197554420834275e-05 -0.0003052004837818844 0.0 0.0
0.0 0.0014901812119954188 -0.0011916349152951411 0.0009537247934706669 0.00023791012182447263 -0.0012672749897688217 0.0 0.0
0.0 0.003925025631230027 -0.003138334176953799 0.002681120205992916 0.000457213970960884 -0.0028906317657353712 0.0 0.0
0.0 0.007744696126556878 -0.006026580110752505 0.005420987951310664 0.0006055921594418452 -0.005118674201473872 0.0 0.0
0.0 0.011931815458756214 -0.009637713378900474 0.008942251041283631 0.0006954623376168297 -0.007661986143369444 0.0 0.0
0.0 0.01688249595398512 -0.013758803392183095 0.012994656915284706 0.0007641464768983918 -0.010189989358212172 0.0 0.0
0.0 0.022429916249615513 -0.018337611493617817 0.01750864064583885 0.0008289708477789738 -0.012612905886922775 0.0 0.0
0.0 0.028491804004635655 -0.02341333465393738 0.02252614617367198 0.0008871884802653751 -0.0149695395768834 0.0 0.0
0.0 0.03521568280287157 -0.028981875056112293 0.028049628372199306 0.0009322466839130057 -0.01742309884575653 0.0 0.0
0.0 0.04223482708148045 -0.03486985155845519 0.03391488580121397 0.0009549657572411982 -0.02030210548094381 0.0 0.0
0.0 0.04943656245193849 -0.04061197077315241 0.03966091915668177 0.000951051616470632 -0.024045811896166676 0.0 0.0
0.0 0.05540758599746062 -0.04532342785420512 0.04442034348242534 0.0009030843717797504 -0.02866789390320652 0.0 0.0
0.0 0.05849513161768359 -0.0473944968851648 0.0465960100524349 0.0007984868327298418 -0.032903309531472386 0.0 0.0
0.0 0.05502209229512846 -0.04383727545886107 0.043293448677476754 0.0005438267813843171 -0.034198371833645304 0.0 0.0
0.0 0.05242594509265153 -0.03689574040014989 0.03308169569836624 0.003814044701783669 1.917823538866159e-14 0.0 0.0
0.0 0.055022092295135286 -0.04383727545885844 0.04329344867747448 0.0005438267813839661 0.03419837183368968 0.0 0.0
0.0 0.058495131617674063 -0.04739449688515034 0.04659601005242072 0.0007984868327295771 0.032903309531513394 0.0 0.0
0.0 0.0554075859974338 -0.045323427854179615 0.04442034348240059 0.0009030843717790036 0.02866789390322471 0.0 0.0
0.0 0.04943656245190177 -0.040611970773120974 0.0396609191566508 0.0009510516164702008 0.02404581189616389 0.0 0.0
0.0 0.04223482708144076 -0.03486985155842207 0.033914885801181 0.0009549657572410437 0.020302105480929252 0.0 0.0
0.0 0.03521568280283213 -0.02898187505607951 0.028049628372167096 0.0009322466839124539 0.01742309884573996 0.0 0.0
0.0 0.028491804004601863 -0.023413334653908425 0.022526146173643697 0.0008871884802647095 0.014969539576870531 0.0 0.0
0.0 0.022429916249574525 -0.01833761149358386 0.017508640645805252 0.0008289708477786029 0.012612905886905784 0.0 0.0
0.0 0.01688249595394803 -0.013758803392153386 0.012994656915255278 0.0007641464768981062 0.010189989358191516 0.0 0.0
0.0 0.011931815458721998 -0.009637713378873364 0.008942251041256725 0.0006954623376166263 0.007661986143346943 0.0 0.0
0.0 0.007744696126529161 -0.006026580110730452 0.005420987951289488 0.0006055921594409668 0.005118674201455929 0.0 0.0
0.0 0.003925025631214407 -0.003138334176941705 0.002681120205981968 0.0004572139709597343 0.0028906317657259885 0.0 0.0
0.0 0.0014901812119850542 -0.0011916349152871996 0.0009537247934640527 0.0002379101218231481 0.0012672749897612587 0.0 0.0
0.0 0.0003656273298901996 -0.0002320408313569577 0.0001768432769366929 5.5197554420264805e-05 0.00030520048377888245 0.0 0.0
0.0 5.576052610881887e-06 -1.0488628163280938e-05 7.857311178055267e-06 2.6313169852256697e-06 3.029451699081834e-05 0.0 0.0
0.0 1.6125919544729026e-06 2.2072288836897936e-06 -1.73949096242747e-06 -4.677379212623242e-07 -3.1561883789570205e-06 0.0 0.0
0.0 6.567003647546782e-07 1.1318896061983932e-06 -9.451086893864159e-07 -1.8678091681197478e-07 -3.6048317074071075e-06 0.0 0.0
0.0 1.234150488048419e-06 1.5229929351849649e-07 -1.1403672082904149e-07 -3.8262572689460744e-08 -9.596997396275967e-07 0.0 0.0
0.0 -4.59728799576089e-07 -6.853202954632321e-09 2.8868354967489913e-09 3.9663674578853385e-09 9.336839222251318e-08 0.0 0.0
0.0 0.0 0.0 0.0 0.0 0.0 0.0 0.0
0.0 0.0 0.0 0.0 0.0 0.0 0.0 0.0
0.0 1.5308091780677812e-08 3.0663233307284843e-10 -2.1432744662428963e-10 -9.23048864485231e-11 3.0115191088803258e-09 0.0 0.0
0.0 -5.698263843511732e-07 5.113871678285831e-08 -4.117381290473689e-08 -9.964903878123173e-09 2.1249571134544104e-07 0.0 0.0
0.0 -2.2321138235044645e-06 3.193530784157345e-07 -2.561821305768815e-07 -6.317094783884281e-08 6.304441868143501e-07 0.0 0.0
0.0 -2.380150465921431e-06 7.860153959437243e-06 -6.409611589382146e-06 -1.450542370055089e-06 1.570901213783972e-05 0.0 0.0
0.0 0.00010524305076369478 -5.345223710481667e-05 3.920883064849207e-05 1.4243406456324516e-05 -5.2085608988813195e-05 0.0 0.0
0.0 0.0007771778952287798 -0.0006382761157880715 0.0004919298284319321 0.00014634628735613997 -0.0005518086818291215 0.0 0.0
0.0 0.0026662041066661977 -0.002247019979403854 0.0018498818519332388 0.0003971381274706144 -0.0016779301074165435 0.0 0.0
0.0 0.006380230347180719 -0.0050789395748763 0.0044713890652916055 0.0006075505095846949 -0.003573511245775105 0.0 0.0
0.0 0.010704823643801542 -0.00904400091026503 0.00831565310435031 0.0007283478059147273 -0.006088550521809214 0.0 0.0
0.0 0.016583072828589736 -0.013843787356817197 0.013039517309141553 0.0008042700476756468 -0.008774376807498294 0.0 0.0
0.0 0.023123699706543793 -0.019326076841425933 0.018454434693717152 0.0008716421477087679 -0.011425759360442182 0.0 0.0
0.0 0.030362444836806064 -0.025441216876132072 0.024499526676376265 0.0009416901997558193 -0.013965553889780265 0.0 0.0
0.0 0.038379061290960796 -0.0322325446209344 0.031222860436283896 0.0010096841846504773 -0.016445912587122982 0.0 0.0
0.0 0.047154659393228014 -0.039727780267392133 0.03866154409544101 0.001066236171951102 -0.01903092188927121 0.0 0.0
0.0 0.056889281282942745 -0.04776870420216542 0.04667175548218368 0.0010969487199817504 -0.02214736113743264 0.0 0.0
0.0 0.06612110643654123 -0.05577927389020582 0.05469394962669913 0.0010853242635066199 -0.026338001543950235 0.0 0.0
0.0 0.07459082687858029 -0.062476474673860374 0.06146472899908581 0.0010117456747745846 -0.0315912371765244 0.0 0.0
0.0 0.0790485511241056 -0.06558271348927011 0.06473089065455344 0.0008518228347166575 -0.036623679559072864 0.0 0.0
0.0 0.07467640949006701 -0.061287120846185 0.06074369005440025 0.0005434307917847814 -0.038628858505063424 0.0 0.0
0.0 0.06863059741905848 -0.052704324032732584 0.04826638584289408 0.004437938189838402 1.9899880354667943e-14 0.0 0.0
0.0 0.0746764094900665 -0.06128712084617704 0.060743690054392355 0.0005434307917847033 0.038628858505109664 0.0 0.0
0.0 0.07904855112408887 -0.06558271348924957 0.06473089065453344 0.0008518228347160876 0.036623679559118556 0.0 0.0
0.0 0.07459082687854832 -0.06247647467383011 0.06146472899905578 0.001011745674774182 0.03159123717655001 0.0 0.0
0.0 0.06612110643649477 -0.05577927389016592 0.05469394962665901 0.0010853242635069265 0.026338001543948594 0.0 0.0
0.0 0.05688928128289023 -0.0477687042021209 0.04667175548213893 0.0010969487199819336 0.022147361137418844 0.0 0.0
0.0 0.04715465939317943 -0.039727780267350625 0.03866154409540006 0.001066236171950557 0.019030921889254884 0.0 0.0
0.0 0.03837906129091376 -0.032232544620893755 0.03122286043624414 0.001009684184649612 0.01644591258710864 0.0 0.0
0.0 0.030362444836754737 -0.025441216876088996 0.024499526676333094 0.0009416901997558968 0.013965553889762412 0.0 0.0
0.0 0.023123699706496727 -0.0193260768413865 0.018454434693678304 0.0008716421477081866 0.011425759360420609 0.0 0.0
0.0 0.016583072828548536 -0.013843787356783306 0.013039517309107589 0.0008042700476757332 0.008774376807474307 0.0 0.0
0.0 0.010704823643768702 -0.009044000910237463 0.008315653104323532 0.0007283478059139438 0.006088550521789868 0.0 0.0
0.0 0.0063802303471570225 -0.0050789395748577415 0.004471389065273974 0.000607550509583769 0.0035735112457628156 0.0 0.0
0.0 0.002666204106651599 -0.0022470199793922794 0.0018498818519231204 0.00039713812746915877 0.0016779301074083446 0.0 0.0
0.0 0.0007771778952215581 -0.0006382761157830266 0.0004919298284279344 0.00014634628735509273 0.000551808681824791 0.0 0.0
0.0 0.00010524305076143743 -5.345223710384684e-05 3.920883064776136e-05 1.424340645608549e-05 5.2085608987935547e-05 0.0 0.0
0.0 -2.3801504660202553e-06 7.860153958674855e-06 -6.409611588778569e-06 -1.4505423698962631e-06 -1.5709012136334386e-05 0.0 0.0
0.0 -2.232113823613542e-06 3.193530781890472e-07 -2.5618213039434493e-07 -6.317094779468594e-08 -6.304441858788239e-07 0.0 0.0
0.0 -5.698263844861468e-07 5.1138716845740124e-08 -4.1173812956346495e-08 -9.964903889393368e-09 -2.1249571160464193e-07 0.0 0.0
0.0 1.5308091766584117e-08 3.0663233278746693e-10 -2.1432744642515877e-10 -9.23048863622756e-11 -3.0115191060776662e-09 0.0 0.0
0.0 0.0 0.0 0.0 0.0 0.0 0.0 0.0
0.0 0.0 0.0 0.0 0.0 0.0 0.0 0.0
0.0 0.0 0.0 0.0 0.0 0.0 0.0 0.0
0.0 -3.0072281027633776e-07 -1.694006251688522e-08 1.3705416852930404e-08 3.234645663953447e-09 -5.325339650860574e-08 0.0 0.0
0.0 -1.1762627903186004e-06 1.2684864598086928e-06 -1.0222212398582131e-06 -2.462652199504544e-07 2.827878193403892e-06 0.0 0.0
0.0 -1.0616266251576916e-05 1.8916134011177338e-07 -8.021467256084656e-07 6.129853854966842e-07 2.903723120693028e-06 0.0 0.0
0.0 0.00027745603856508687 -0.0001895965511889468 0.00014071123906773738 4.888531212120944e-05 -0.00011900808606343497 0.0 0.0
0.0 0.0014038351756706809 -0.0012160644531593568 0.0009558351697439766 0.00026022928341537895 -0.0007035309915102347 0.0 0.0
0.0 0.0043139668410340955 -0.0035050279978571424 0.002971579755986703 0.0005334482418704398 -0.0019326632739705698 0.0 0.0
0.0 0.008288484312827691 -0.0072320114778448245 0.006515327897185496 0.0007166835806593278 -0.003975528794946289 0.0 0.0
0.0 0.014268231727482652 -0.012173580516878748 0.011357398529809302 0.0008161819870694523 -0.006456255207729452 0.0 0.0
0.0 0.02132174686126244 -0.018144608881816255 0.017255195610010373 0.0008894132718058761 -0.00909145511678965 0.0 0.0
0.0 0.029385769596904573 -0.024987950667877536 0.02402651006477377 0.0009614406031037714 -0.011695682288464697 0.0 0.0
0.0 0.03838595627418657 -0.032644258656848744 0.031606137920346236 0.0010381207365024825 -0.014207238603599936 0.0 0.0
0.0 0.048437075154877766 -0.0411511733911683 0.04003656439800356 0.0011146089931647716 -0.01667830153375665 0.0 0.0
0.0 0.059377038988590335 -0.050563715181616224 0.04938018783620528 0.001183527345410904 -0.01924271886984084 0.0 0.0
0.0 0.07112907424337664 -0.060738694637079316 0.059515741049873436 0.0012229535872059375 -0.022249210885184754 0.0 0.0
0.0 0.08346808064822982 -0.07096598006920082 0.06976462423422848 0.001201355834972289 -0.026299648518724433 0.0 0.0
0.0 0.09375584571410021 -0.07957509797628715 0.07848253320665204 0.0010925647696349771 -0.031664375587657535 0.0 0.0
0.0 0.09882953310113474 -0.08358538334142077 0.08270603197257033 0.0008793513688504174 -0.03735864785198541 0.0 0.0
0.0 0.0939554035743189 -0.07855711122457068 0.07801666132582386 0.0005404498987468178 -0.041339552345928184 0.0 0.0
0.0 0.08606578266592203 -0.06855340801908136 0.06356346142927252 0.004989946589808815 2.123821951638405e-14 0.0 0.0
0.0 0.09395540357431065 -0.07855711122455702 0.0780166613258101 0.0005404498987469325 0.04133955234597476 0.0 0.0
0.0 0.09882953310110978 -0.08358538334139427 0.08270603197254386 0.0008793513688504592 0.03735864785203096 0.0 0.0
0.0 0.09375584571405485 -0.07957509797624614 0.07848253320661068 0.0010925647696354724 0.03166437558768231 0.0 0.0
0.0 0.08346808064817288 -0.07096598006915172 0.06976462423417883 0.0012013558349728054 0.026299648518724072 0.0 0.0
0.0 0.0711290742433154 -0.06073869463702672 0.05951574104982091 0.001222953587205873 0.022249210885173905 0.0 0.0
0.0 0.05937703898853129 -0.050563715181565466 0.04938018783615518 0.001183527345410316 0.01924271886982782 0.0 0.0
0.0 0.04843707515482031 -0.04115117339111819 0.0400365643979544 0.0011146089931637461 0.016678301533742373 0.0 0.0
0.0 0.038385956274125325 -0.03264425865679662 0.031606137920293514 0.0010381207365030933 0.014207238603583482 0.0 0.0
0.0 0.029385769596848164 -0.024987950667829936 0.024026510064726475 0.0009614406031034304 0.011695682288443244 0.0 0.0
0.0 0.021321746861212503 -0.01814460888177441 0.017255195609968733 0.0008894132718056711 0.009091455116765833 0.0 0.0
0.0 0.014268231727443568 -0.012173580516845845 0.011357398529776882 0.0008161819870689667 0.006456255207710789 0.0 0.0
0.0 0.00828848431279934 -0.007232011477819745 0.006515327897161244 0.0007166835806584968 0.00397552879493259 0.0 0.0
0.0 0.004313966841014485 -0.0035050279978414704 0.0029715797559723544 0.0005334482418691184 0.0019326632739616104 0.0 0.0
0.0 0.001403835175660783 -0.0012160644531514072 0.0009558351697375096 0.00026022928341389723 0.0007035309915053465 0.0 0.0
0.0 0.00027745603856166166 -0.00018959655118703622 0.0001407112390663266 4.8885312120709334e-05 0.00011900808606244054 0.0 0.0
0.0 -1.0616266251904679e-05 1.8916133964894907e-07 -8.021467252417882e-07 6.129853855928011e-07 -2.9037231198879077e-06 0.0 0.0
0.0 -1.1762627911950182e-06 1.2684864598802908e-06 -1.0222212399155016e-06 -2.462652199647842e-07 -2.827878193542664e-06 0.0 0.0
0.0 -3.00722810080075e-07 -1.6940062514082154e-08 1.37054168507557e-08 3.234645663326993e-09 5.3253396504991925e-08 0.0 0.0
0.0 0.0 0.0 0.0 0.0 0.0 0.0 0.0
0.0 0.0 0.0 0.0 0.0 0.0 0.0 0.0
0.0 0.0 0.0 0.0 0.0 0.0 0.0 0.0
0.0 0.0 0.0 0.0 0.0 0.0 0.0 0.0
0.0 -1.680433764396781e-07 -1.0793184899027673e-08 8.54508648894806e-09 2.2480984100807976e-09 -2.827633481288059e-08 0.0 0.0
0.0 -2.610056108363686e-06 9.806606141405628e-07 -7.880513137269288e-07 -1.9260930041366305e-07 1.7869762900842177e-06 0.0 0.0
0.0 2.029394589745177e-05 -4.499025345229586e-06 1.4717660563502936e-06 3.027259288879351e-06 8.564184630844052e-06 0.0 0.0
0.0 0.0004757877761359643 -0.00045513698413554744 0.0003420695882644653 0.00011306739587108208 -0.00020243129640931722 0.0 0.0
0.0 0.002384305599362282 -0.0019448711918909824 0.001567437308761634 0.00037743388312934856 -0.0007577279749997089 0.0 0.0
0.0 0.005590363539159883 -0.004956459710079391 0.004312744160455697 0.0006437155496236913 -0.0020435744286693624 0.0 0.0
0.0 0.010847775868156448 -0.0094677648310569 0.008671895193208313 0.0007958696378485874 -0.00394388735598662 0.0 0.0
0.0 0.017761431609389387 -0.015370930960982904 0.01448373061057721 0.0008872003504057098 -0.00620814822467199 0.0 0.0
0.0 0.026128138276204214 -0.02249946307435377 0.02153590771805249 0.0009635553563012637 -0.008636841117024861 0.0 0.0
0.0 0.03575215848730098 -0.03070125286315136 0.029659482273608172 0.00104177058954318 -0.011036339039808944 0.0 0.0
0.0 0.046599455170073176 -0.039907000092545386 0.03878228265715972 0.0011247174353856242 -0.013366837340128068 0.0 0.0
0.0 0.05829866252095508 -0.050139179427436405 0.04893041860731174 0.0012087608201246517 -0.015696433451470322 0.0 0.0
0.0 0.07152084043622575 -0.061428082385013155 0.06014176944750842 0.0012863129375047886 -0.01808992979093901 0.0 0.0
0.0 0.0857887116810591 -0.0736389582171853 0.07230310356961185 0.0013358546475733418 -0.02069032663093751 0.0 0.0
0.0 0.10004073681072524 -0.08599706357430062 0.08468548733965359 0.0013115762346469456 -0.024021340893854003 0.0 0.0
0.0 0.11242541508585367 -0.09647056176600782 0.09530203914887417 0.0011685226171337596 -0.028875667382749347 0.0 0.0
0.0 0.11876871446683211 -0.10146659346030609 0.10056366252167231 0.0009029309386335755 -0.035344967327502474 0.0 0.0
0.0 0.11335877679413911 -0.09598129479126287 0.0954534806668948 0.0005278141243680726 -0.04273468714564489 0.0 0.0
0.0 0.10393619239903808 -0.08480712150534718 0.07932966670554706 0.0054774547998001286 2.0723006644018938e-14 0.0 0.0
0.0 0.11335877679412949 -0.09598129479124859 0.09545348066688118 0.0005278141243673504 0.042734687145691036 0.0 0.0
0.0 0.1187687144667965 -0.10146659346027197 0.10056366252163741 0.0009029309386344106 0.03534496732754461 0.0 0.0
0.0 0.11242541508579745 -0.09647056176595828 0.09530203914882415 0.001168522617134071 0.028875667382771586 0.0 0.0
0.0 0.10004073681066271 -0.08599706357424639 0.08468548733959935 0.00131157623464708 0.024021340893855825 0.0 0.0
0.0 0.08578871168098828 -0.07363895821712382 0.07230310356955061 0.0013358546475731802 0.020690326630929904 0.0 0.0
0.0 0.07152084043615274 -0.06142808238495054 0.060141769447445606 0.0012863129375049306 0.018089929790927894 0.0 0.0
0.0 0.058298662520887 -0.050139179427377494 0.04893041860725368 0.0012087608201237715 0.015696433451456583 0.0 0.0
0.0 0.04659945517000373 -0.039907000092485184 0.03878228265709974 0.0011247174353854672 0.013366837340112866 0.0 0.0
0.0 0.03575215848723316 -0.03070125286309331 0.02965948227355051 0.0010417705895428024 0.011036339039788746 0.0 0.0
0.0 0.02612813827614578 -0.022499463074303776 0.02153590771800293 0.0009635553563008644 0.008636841117002702 0.0 0.0
0.0 0.017761431609344656 -0.0153709309609443 0.014483730610539104 0.0008872003504051804 0.006208148224654881 0.0 0.0
0.0 0.01084777586812196 -0.009467764831026754 0.008671895193178908 0.0007958696378478505 0.003943887355973921 0.0 0.0
0.0 0.005590363539136406 -0.004956459710059053 0.0043127441604365714 0.0006437155496224826 0.0020435744286600673 0.0 0.0
0.0 0.002384305599348699 -0.0019448711918801525 0.0015674373087523933 0.0003774338831277578 0.000757727974994941 0.0 0.0
0.0 0.00047578777613136537 -0.00045513698413227033 0.00034206958826196553 0.00011306739587030433 0.00020243129640806437 0.0 0.0
0.0 2.0293945896734786e-05 -4.49902534554433e-06 1.4717660566286936e-06 3.0272592889157793e-06 -8.564184630268547e-06 0.0 0.0
0.0 -2.6100561085518117e-06 9.806606141385899e-07 -7.880513137288268e-07 -1.926093004097618e-07 -1.7869762900704833e-06 0.0 0.0
0.0 -1.6804337643450485e-07 -1.0793184898566844e-08 8.545086488621468e-09 2.248098409945835e-09 2.8276334812116163e-08 0.0 0.0
0.0 0.0 0.0 0.0 0.0 0.0 0.0 0.0
0.0 0.0 0.0 0.0 0.0 0.0 0.0 0.0
0.0 0.0 0.0 0.0 0.0 0.0 0.0 0.0
0.0 0.0 0.0 0.0 0.0 0.0 0.0 0.0
0.0 0.0 0.0 0.0 0.0 0.0 0.0 0.0
0.0 -3.296987829015358e-06 1.9034852898358065e-06 -1.5420769914514623e-06 -3.61408298384336e-07 2.551458822100802e-06 0.0 0.0
0.0 7.883822851225811e-05 -5.1166319802923995e-05 3.4763606854673554e-05 1.640271294825064e-05 -4.3612495370204544e-06 0.0 0.0
0.0 0.0009256656228545325 -0.0007912672895621228 0.000602205744235399 0.00018906154532672326 -0.0001809173396673649 0.0 0.0
0.0 0.0032379899047776184 -0.0028465146245510533 0.002355590785488279 0.0004909238390627731 -0.0007339098007419375 0.0 0.0
0.0 0.00725436102141275 -0.006491283534864643 0.005766685785769705 0.0007245977490949419 -0.0018831542774621311 0.0 0.0
0.0 0.013345021365886748 -0.011754991133314102 0.010895910179534412 0.000859080953779678 -0.003460131337642098 0.0 0.0
0.0 0.02133651030434483 -0.01859794882007618 0.017649071375407922 0.0009488774446682544 -0.005371613893639706 0.0 0.0
0.0 0.03094560876031961 -0.026873572149180947 0.025843003017631948 0.0010305691315489838 -0.007428795824304092 0.0 0.0
0.0 0.04212852700527786 -0.036433775744237555 0.035317999111358765 0.001115776632878775 -0.009465460833702392 0.0 0.0
0.0 0.05448650188121723 -0.04720242827202746 0.04599693510000155 0.0012054931720259935 -0.0114575035680246 0.0 0.0
0.0 0.06857825632695552 -0.05915693585465021 0.05786376264905636 0.001293173205593736 -0.013488638046749508 0.0 0.0
0.0 0.0836734490188593 -0.07227951474741082 0.07090528563535277 0.0013742291120580734 -0.015586176326122733 0.0 0.0
0.0 0.0998038539461241 -0.08637940410621481 0.08494543912189742 0.0014339649843174984 -0.01764178601889283 0.0 0.0
0.0 0.11643067702319812 -0.10067332888018013 0.09925033578166714 0.0014229930985129747 -0.019789889668264414 0.0 0.0
0.0 0.13085222700735327 -0.1130133827717463 0.11175194687040862 0.0012614359013377087 -0.02330958144347719 0.0 0.0
0.0 0.13860172002746093 -0.11932482378959469 0.11838842541638424 0.0009363983732103901 -0.030507645029146033 0.0 0.0
0.0 0.13341868452064323 -0.11388467322613299 0.11338918925236473 0.0004954839737684049 -0.04257967547061862 0.0 0.0
0.0 0.12327736857903673 -0.10183660606517621 0.09594319574269276 0.0058934103224834175 1.6240481182094868e-14 0.0 0.0
0.0 0.13341868452062772 -0.11388467322611519 0.11338918925234726 0.0004954839737680048 0.04257967547065852 0.0 0.0
0.0 0.13860172002741622 -0.11932482378955403 0.11838842541634292 0.0009363983732110248 0.030507645029183468 0.0 0.0
0.0 0.1308522270072922 -0.11301338277169284 0.11175194687035561 0.0012614359013371269 0.023309581443496985 0.0 0.0
0.0 0.11643067702312558 -0.10067332888011721 0.09925033578160453 0.0014229930985127119 0.01978988966826623 0.0 0.0
0.0 0.09980385394604413 -0.08637940410614528 0.08494543912182839 0.0014339649843168928 0.017641786018888952 0.0 0.0
0.0 0.08367344901877591 -0.07227951474733882 0.07090528563528113 0.0013742291120577247 0.0155861763261139 0.0 0.0
0.0 0.06857825632687864 -0.0591569358545832 0.05786376264899048 0.00129317320559267 0.013488638046739145 0.0 0.0
0.0 0.05448650188113508 -0.047202428271956795 0.04599693509993092 0.0012054931720259193 0.011457503568011918 0.0 0.0
0.0 0.04212852700520536 -0.03643377574417432 0.035317999111296496 0.0011157766328778827 0.00946546083368676 0.0 0.0
0.0 0.03094560876025124 -0.026873572149121918 0.025843003017573397 0.0010305691315485048 0.007428795824284688 0.0 0.0
0.0 0.021336510304292157 -0.018597948820030498 0.0176490713753629 0.0009488774446675968 0.005371613893624552 0.0 0.0
0.0 0.013345021365847717 -0.011754991133279834 0.0108959101795008 0.0008590809537790298 0.003460131337631554 0.0 0.0
0.0 0.00725436102138434 -0.006491283534839291 0.0057666857857453365 0.0007245977490939618 0.0018831542774533374 0.0 0.0
0.0 0.003237989904762629 -0.0028465146245382133 0.0023555907854769854 0.0004909238390612274 0.0007339098007378747 0.0 0.0
0.0 0.0009256656228466408 -0.0007912672895559339 0.000602205744230466 0.00018906154532546726 0.0001809173396654608 0.0 0.0
0.0 7.883822851138185e-05 -5.116631980286992e-05 3.476360685470032e-05 1.640271294816951e-05 4.361249537496965e-06 0.0 0.0
0.0 -3.2969878288663142e-06 1.90348528927033e-06 -1.542076991029595e-06 -3.6140829824073044e-07 -2.5514588216443215e-06 0.0 0.0
0.0 0.0 0.0 0.0 0.0 0.0 0.0 0.0
0.0 0.0 0.0 0.0 0.0 0.0 0.0 0.0
0.0 0.0 0.0 0.0 0.0 0.0 0.0 0.0
0.0 0.0 0.0 0.0 0.0 0.0 0.0 0.0
0.0 0.0 0.0 0.0 0.0 0.0 0.0 0.0
0.0 0.0 0.0 0.0 0.0 0.0 0.0 0.0
0.0 -4.605344592711413e-06 4.63688456176296e-06 -3.7273699261131954e-06 -9.095146356497796e-07 3.855024132014571e-06 0.0 0.0
0.0 0.00016218282924263785 -0.00016038517997545615 0.00011330067230484999 4.7084507670606086e-05 -4.84553430946629e-07 0.0 0.0
0.0 0.0015060840884210493 -0.0012566078069360725 0.0009763361705306943 0.0002802716364053775 -0.00010108238383460804 0.0 0.0
0.0 0.0041417131180949696 -0.0038579774481415827 0.0032729661581743777 0.0005850112899672064 -0.0005764310167327676 0.0 0.0
0.0 0.0090098523396558 -0.008073481594992557 0.00728424430706168 0.0007892372879308802 -0.0013965350029952414 0.0 0.0
0.0 0.01588245073711897 -0.014063096270521975 0.013150760905616482 0.0009123353649054887 -0.002550879085905642 0.0 0.0
0.0 0.024908576239403204 -0.021824159995705528 0.02081989981407407 0.0010042601816314632 -0.0039563025362603435 0.0 0.0
0.0 0.035849925588411505 -0.03123510979943954 0.0301425082344918 0.0010926015649477287 -0.005477693268026493 0.0 0.0
0.0 0.04842624068311316 -0.04215454385840303 0.040969864004835 0.0011846798535680085 -0.006988711147125901 0.0 0.0
0.0 0.06287751836044331 -0.05448742206767619 0.05320745470049632 0.0012799673671798522 -0.008484380582992975 0.0 0.0
0.0 0.07844053005119236 -0.06818024947951964 0.06680812255828014 0.0013721269212394844 -0.010060234035007854 0.0 0.0
0.0 0.09569664589832017 -0.08309641974015262 0.08164448531460666 0.001451934425545988 -0.011699681628127073 0.0 0.0
0.0 0.11397736498663716 -0.09890861107036228 0.09740040940481887 0.0015082016655434266 -0.013157361363381997 0.0 0.0
0.0 0.1323889269368454 -0.1148394600344337 0.1133195980468986 0.001519861987535219 -0.014153147702322065 0.0 0.0
0.0 0.14874282833727048 -0.12897730414710531 0.12756830697581065 0.0014089971712945833 -0.015635888505537186 0.0 0.0
0.0 0.15848835886311471 -0.13715088641272694 0.13613395572479745 0.0010169306879293772 -0.02202452873334124 0.0 0.0
0.0 0.15440873720637105 -0.1326340351833634 0.1322174639288655 0.00041657125449768396 -0.03987246995726377 0.0 0.0
0.0 0.14421767563018897 -0.12016733583119615 0.11395956936399904 0.006207766467196909 1.1461318005778764e-14 0.0 0.0
0.0 0.15440873720634804 -0.1326340351833406 0.13221746392884348 0.00041657125449715265 0.03987246995729415 0.0 0.0
0.0 0.15848835886306362 -0.13715088641268167 0.13613395572475148 0.0010169306879303788 0.022024528733372503 0.0 0.0
0.0 0.14874282833720096 -0.12897730414704506 0.12756830697575097 0.0014089971712941045 0.015635888505551924 0.0 0.0
0.0 0.132388926936761 -0.11483946003436052 0.11331959804682565 0.001519861987535013 0.01415314770232319 0.0 0.0
0.0 0.11397736498654881 -0.09890861107028565 0.09740040940474308 0.0015082016655426098 0.013157361363380974 0.0 0.0
0.0 0.09569664589822642 -0.08309641974007123 0.08164448531452606 0.001451934425545211 0.011699681628122294 0.0 0.0
0.0 0.07844053005110152 -0.06818024947944108 0.0668081225582023 0.0013721269212388027 0.01006023403499971 0.0 0.0
0.0 0.06287751836035263 -0.05448742206759752 0.053207454700417975 0.0012799673671795289 0.008484380582984365 0.0 0.0
0.0 0.04842624068303181 -0.04215454385833269 0.040969864004765336 0.00118467985356729 0.006988711147115589 0.0 0.0
0.0 0.0358499255883367 -0.031235109799374376 0.0301425082344267 0.001092601564947688 0.005477693268011774 0.0 0.0
0.0 0.024908576239344553 -0.021824159995653885 0.02081989981402317 0.0010042601816307004 0.003956302536248567 0.0 0.0
0.0 0.01588245073707341 -0.01406309627048169 0.013150760905576788 0.0009123353649049147 0.002550879085897201 0.0 0.0
0.0 0.009009852339623758 -0.008073481594963879 0.0072842443070339595 0.0007892372879299153 0.0013965350029889671 0.0 0.0
0.0 0.004141713118077855 -0.0038579774481258666 0.003272966158160018 0.0005850112899658525 0.0005764310167292732 0.0 0.0
0.0 0.00150608408841233 -0.001256607806928663 0.0009763361705247329 0.00028027163640392876 0.0001010823838336171 0.0 0.0
0.0 0.00016218282924068933 -0.00016038517997455612 0.00011330067230423145 4.708450767032462e-05 4.845534312851169e-07 0.0 0.0
0.0 -4.6053445928742995e-06 4.636884561571888e-06 -3.7273699259704424e-06 -9.09514635601465e-07 -3.855024131991799e-06 0.0 0.0
0.0 0.0 0.0 0.0 0.0 0.0 0.0 0.0
0.0 0.0 0.0 0.0 0.0 0.0 0.0 0.0
0.0 0.0 0.0 0.0 0.0 0.0 0.0 0.0
0.0 0.0 0.0 0.0 0.0 0.0 0.0 0.0
0.0 0.0 0.0 0.0 0.0 0.0 0.0 0.0
0.0 0.0 0.0 0.0 0.0 0.0 0.0 0.0
0.0 -5.0004113309043405e-06 3.5250633129260906e-06 -3.378754772479428e-06 -1.4630854044665237e-07 4.413983105658221e-06 0.0 0.0
0.0 0.00039794320754879813 -0.00031963673326525655 0.00022944251321322832 9.019422005202845e-05 5.38009144497874e-05 0.0 0.0
0.0 0.002074914145083601 -0.0018452833117849976 0.0014691786564210766 0.00037610465536392084 5.028614857093839e-05 0.0 0.0
0.0 0.005357077787229444 -0.00491266896145886 0.004255776156332178 0.0006568928051266815 -0.00019782527131748155 0.0 0.0
0.0 0.010786413670499219 -0.009677892701562755 0.008836705092204902 0.0008411876093578419 -0.0006228013040303023 0.0 0.0
0.0 0.018499575387379952 -0.016361912220152083 0.015403469577997417 0.0009584426421546697 -0.0012226740089789612 0.0 0.0
0.0 0.028477137621566263 -0.025019022869198205 0.02396349433440213 0.0010555285347960666 -0.0019687864635532758 0.0 0.0
0.0 0.04066801294625963 -0.0355551219442786 0.034404641292624515 0.0011504806516540909 -0.0027821411426987982 0.0 0.0
0.0 0.05500704143466746 -0.047832188410626884 0.046583547281647736 0.0012486411289791659 -0.003605211348361197 0.0 0.0
0.0 0.07077824251181233 -0.06174177768189898 0.060391855811015485 0.0013499218708834496 -0.00446747170769634 0.0 0.0
0.0 0.08857874036156661 -0.07715621380070414 0.0757104022706705 0.0014458115300336038 -0.005395929013126988 0.0 0.0
0.0 0.10783599766063584 -0.09383691425536629 0.09231436309977961 0.0015225511555867462 -0.006357750785654213 0.0 0.0
0.0 0.12798492860096197 -0.11126943111311396 0.10970190039958086 0.0015675307135330496 -0.0071829755592962485 0.0 0.0
0.0 0.1479478853408741 -0.12851781760167835 0.12694214514487473 0.0015756724568036255 -0.007504662921951068 0.0 0.0
0.0 0.1658555978828782 -0.1439986594663023 0.14245066020867286 0.0015479992576295336 -0.007393931795762256 0.0 0.0
0.0 0.17799739800186534 -0.15447760938365004 0.1531508119252128 0.001326797458436998 -0.01038546699875818 0.0 0.0
0.0 0.1767431258944349 -0.15266719024117728 0.15231808079166384 0.0003491094495134803 -0.029373555226408436 0.0 0.0
0.0 0.16798797860311232 -0.14093020871162804 0.13481867411789125 0.006111534593736853 6.682154829462661e-15 0.0 0.0
0.0 0.1767431258944073 -0.1526671902411519 0.15231808079163883 0.0003491094495130677 0.029373555226426422 0.0 0.0
0.0 0.17799739800180409 -0.15447760938359723 0.1531508119251591 0.0013267974584379855 0.010385466998776169 0.0 0.0
0.0 0.1658555978827988 -0.1439986594662339 0.1424506602086042 0.0015479992576295717 0.007393931795768234 0.0 0.0
0.0 0.14794788534078118 -0.1285178176015978 0.1269421451447948 0.0015756724568030183 0.007504662921950815 0.0 0.0
0.0 0.12798492860086158 -0.1112694311130268 0.10970190039949415 0.001567530713532542 0.007182975559296054 0.0 0.0
0.0 0.10783599766053094 -0.09383691425527546 0.0923143630996892 0.0015225511555863108 0.006357750785651524 0.0 0.0
0.0 0.08857874036145996 -0.07715621380061181 0.07571040227057849 0.0014458115300333017 0.005395929013122391 0.0 0.0
0.0 0.07077824251171375 -0.061741777681813284 0.0603918558109308 0.001349921870882439 0.0044674717076925085 0.0 0.0
0.0 0.0550070414345704 -0.047832188410542945 0.046583547281563754 0.0012486411289791889 0.003605211348354434 0.0 0.0
0.0 0.040668012946179 -0.03555512194420873 0.03440464129255514 0.0011504806516535865 0.0027821411426905912 0.0 0.0
0.0 0.028477137621501947 -0.025019022869141573 0.023963494334346455 0.0010555285347951142 0.001968786463546831 0.0 0.0
0.0 0.018499575387328007 -0.016361912220106082 0.01540346957795193 0.0009584426421541477 0.001222674008974508 0.0 0.0
0.0 0.010786413670463745 -0.009677892701530922 0.008836705092173923 0.0008411876093569931 0.0006228013040271955 0.0 0.0
0.0 0.005357077787206306 -0.004912668961437701 0.004255776156312247 0.0006568928051254516 0.00019782527131505674 0.0 0.0
0.0 0.0020749141450736564 -0.0018452833117762826 0.001469178656413741 0.0003761046553625406 -5.028614857102835e-05 0.0 0.0
0.0 0.00039794320754506696 -0.0003196367332626782 0.00022944251321133815 9.019422005134003e-05 -5.380091444935362e-05 0.0 0.0
0.0 -5.000411330980751e-06 3.525063312519268e-06 -3.3787547721694887e-06 -1.4630854034970956e-07 -4.413983105564946e-06 0.0 0.0
0.0 0.0 0.0 0.0 0.0 0.0 0.0 0.0
0.0 0.0 0.0 0.0 0.0 0.0 0.0 0.0
0.0 0.0 0.0 0.0 0.0 0.0 0.0 0.0
0.0 0.0 0.0 0.0 0.0 0.0 0.0 0.0
0.0 0.0 0.0 0.0 0.0 0.0 0.0 0.0
0.0 0.0 0.0 0.0 0.0 0.0 0.0 0.0
0.0 1.708894686534318e-05 -1.5788869984275564e-05 9.950218162759296e-06 5.8386518215163514e-06 8.188059572404796e-06 0.0 0.0
0.0 0.0006950007039861655 -0.0005276541076271979 0.0003769120655935959 0.0001507420420336018 0.00013349427087926783 0.0 0.0
0.0 0.0026701008121789334 -0.002378749350740216 0.0018750728556799125 0.000503676495060301 0.0003089443143944944 0.0 0.0
0.0 0.006311886181365163 -0.005808732587142683 0.004971796353031504 0.0008369362341111822 0.0004041824381509345 0.0 0.0
0.0 0.012189168247115271 -0.011004837008746857 0.009907978976438941 0.001096858032307912 0.00045386552824192385 0.0 0.0
0.0 0.020429094874140432 -0.018246570309880476 0.01692357754799492 0.0013229927618855436 0.0004492457282201433 0.0 0.0
0.0 0.031207071776413502 -0.027631997221377873 0.026065188036359876 0.0015668091850179655 0.0003561153381092092 0.0 0.0
0.0 0.044437267473256846 -0.0390994392659217 0.037248698941502484 0.0018507403244192254 0.00021412629632361737 0.0 0.0
0.0 0.0596357697449933 -0.0525179133329413 0.05033854041813167 0.0021793729148096175 2.356924736544256e-05 0.0 0.0
0.0 0.07698314607176365 -0.06773181133948052 0.06518989712314005 0.002541914216340451 -0.0002590272296150841 0.0 0.0
0.0 0.09621934230109508 -0.08456516100918544 0.08164490515029885 0.002920255858886658 -0.000602074124411483 0.0 0.0
0.0 0.11698748375744747 -0.10269970254886988 0.09941629080474032 0.0032834117441294156 -0.0010428311793733228 0.0 0.0
0.0 0.13857034341379978 -0.1214668099539566 0.1178781183228231 0.0035886916311335315 -0.0015153894766768514 0.0 0.0
0.0 0.15960306933979124 -0.1397044853167434 0.13592035208898742 0.003784133227755796 -0.0018008060268880095 0.0 0.0
0.0 0.17816138032564224 -0.15576864992656397 0.1519336243590026 0.0038350255675612755 -0.0016274939699519615 0.0 0.0
0.0 0.1916194109859762 -0.1675958520748041 0.16371595327480312 0.003879898800001206 -0.0029477623526615107 0.0 0.0
0.0 0.1942518186083933 -0.17039548685626416 0.16643933152978657 0.003956155326477453 -0.021887611763163988 0.0 0.0
0.0 0.19007706561458232 -0.16190467063075556 0.15116984460250915 0.010734826028246105 9.992007221626409e-16 0.0 0.0
0.0 0.19425181860835933 -0.17039548685623443 0.16643933152975687 0.0039561553264774035 0.021887611763170382 0.0 0.0
0.0 0.19161941098590746 -0.16759585207474445 0.16371595327474409 0.0038798988000004215 0.0029477623526692476 0.0 0.0
0.0 0.17816138032555423 -0.15576864992648717 0.1519336243589281 0.003835025567559383 0.0016274939699524454 0.0 0.0
0.0 0.15960306933969198 -0.1397044853166562 0.13592035208890285 0.0037841332277531404 0.0018008060268864291 0.0 0.0
0.0 0.13857034341368846 -0.12146680995385949 0.11787811832272757 0.00358869163113173 0.001515389476676194 0.0 0.0
0.0 0.11698748375733718 -0.10269970254877343 0.09941629080464565 0.0032834117441276366 0.0010428311793716921 0.0 0.0
0.0 0.0962193423009794 -0.08456516100908427 0.0816449051501999 0.0029202558588842667 0.000602074124409345 0.0 0.0
0.0 0.07698314607165649 -0.06773181133938655 0.06518989712304878 0.0025419142163378614 0.000259027229613731 0.0 0.0
0.0 0.0596357697448858 -0.05251791333284799 0.05033854041803922 0.002179372914808687 -2.3569247368816597e-05 0.0 0.0
0.0 0.04443726747317216 -0.039099439265847295 0.03724869894143037 0.0018507403244169265 -0.00021412629632594146 0.0 0.0
0.0 0.03120707177634289 -0.027631997221316103 0.026065188036299924 0.001566809185016198 -0.00035611533811176705 0.0 0.0
0.0 0.020429094874084553 -0.018246570309831293 0.01692357754794699 0.0013229927618843185 -0.00044924572822082004 0.0 0.0
0.0 0.012189168247075981 -0.011004837008711537 0.00990797897640492 0.0010968580323066136 -0.00045386552824153766 0.0 0.0
0.0 0.006311886181338657 -0.005808732587118346 0.004971796353008746 0.0008369362341095919 -0.00040418243815049917 0.0 0.0
0.0 0.0026701008121674612 -0.002378749350729306 0.001875072855670702 0.0005036764950586067 -0.00030894431439356784 0.0 0.0
0.0 0.0006950007039809147 -0.0005276541076230896 0.00037691206559062784 0.00015074204203246238 -0.00013349427087824248 0.0 0.0
0.0 1.7088946865093097e-05 -1.5788869984237156e-05 9.950218162747648e-06 5.8386518214894785e-06 -8.18805957231583e-06 0.0 0.0
0.0 0.0 0.0 0.0 0.0 0.0 0.0 0.0
0.0 0.0 0.0 0.0 0.0 0.0 0.0 0.0
0.0 0.0 0.0 0.0 0.0 0.0 0.0 0.0
SCALARS Wm float 4
LOOKUP_TABLE default
12.73234598891796 2.017606155787798 5.328509540452408 5.386230292677752
6.368633735448552 3.0571995046204052 1.4853123480746857 1.8261218827534649
0.7150794827813503 0.6645821065768711 0.0073060141166458445 0.04319136208783327
0.5370535544085155 0.5073715619906928 0.008129482392388317 0.02155251002543481
1.0902583681382003 0.777973857197313 0.11174650650686693 0.20053800443401987
2.370668912530738 1.1252954169699723 0.46094416717335573 0.7844293283874085
4.927630900278977 1.6135403107307074 1.4271228214816154 1.8869677680666568
9.10199105541806 2.224058013382791 3.233691143348627 3.6442418986866376
15.297732086579451 3.001788854984426 6.175829510495706 6.1201137210993215
23.810102126195904 3.9797610003440322 10.49127104650664 9.339070079345241
34.77746671648968 5.180315446198119 16.31929154841827 13.277859721873288
48.1095702015793 6.607874984415497 23.60888016987615 17.89281504728769
63.90118163232201 8.243074568413732 32.522989888835326 23.135117175072953
82.05714680190567 10.06520098716685 43.03554624370355 28.95639957103528
102.28927381582503 11.938044605137367 55.08111362368921 35.270115586998415
123.95753398523006 13.626697882723928 68.41657109668745 41.91426500581866
145.91414935632747 14.851056278937364 82.4248118336487 48.638281243741375
166.62366803855653 15.40057130428529 96.19454412504392 55.02855260922718
184.4338022399204 15.327238533786737 108.51302497646657 60.59353872966727
196.94628173719332 14.441557571914329 117.74568251099652 64.75904165428234
201.00134862923 12.789968455172467 121.66072020197481 66.55065997208285
196.94628173717453 14.44155757192551 117.74568251097534 64.7590416542736
184.43380223986148 15.327238533787094 108.51302497642587 60.5935387296484
166.62366803848033 15.400571304294605 96.19454412498538 55.02855260920032
145.91414935622592 14.851056278932088 82.4248118335833 48.638281243710416
123.95753398510973 13.626697882697522 68.41657109662441 41.91426500578779
102.28927381572856 11.938044605138739 55.08111362362469 35.27011558696514
82.05714680181612 10.065200987168929 43.035546243644035 28.956399571003146
63.90118163223487 8.243074568415198 32.52298988877892 23.13511717504078
48.10957020149592 6.60787498440823 23.608880169828776 17.89281504725894
34.777466716416875 5.180315446188792 16.31929154837985 13.277859721848204
23.810102126141167 3.979761000335495 10.491271046479646 9.339070079326044
15.297732086542403 3.0017888549811382 6.175829510476936 6.120113721084337
9.101991055391784 2.2240580133779084 3.233691143337488 3.644241898676386
4.927630900264709 1.613540310729803 1.4271228214752467 1.8869677680596597
2.370668912523354 1.1252954169685916 0.46094416717110154 0.7844293283836602
1.0902583681354674 0.7779738571962826 0.11174650650619736 0.20053800443298736
0.537053554407742 0.5073715619900685 0.008129482392331541 0.021552510025342274
0.7150794827802952 0.6645821065761089 0.007306014116570954 0.04319136208761484
6.3686337354438995 3.057199504622047 1.4853123480716328 1.8261218827502164
12.732345988888673 2.0176061557727407 5.328509540444575 5.386230292671371
15.192412520452804 6.6298253325279415 4.135726798959666 4.426860388965194
2.5555313157396684 0.5604545593827529 0.8393818294221498 1.155694926934766
0.2697528936893596 0.3121790888086038 -0.013798926418470405 -0.02862726870077377
0.418225984633127 0.4090902383565538 0.0016718217984977586 0.007463924478075269
0.8230930704483415 0.637038099522855 0.05725533366704162 0.12879963725844523
1.8940701604229555 0.9347975261214758 0.358222522101979 0.6010501121995011
4.042834841307475 1.2765204047550667 1.1605750272851487 1.605739409267259
7.7016316795856286 1.695672261715164 2.778198474945105 3.227760942925359
13.164365141172594 2.1829373412309065 5.449929689634844 5.531498110306844
20.617045133624305 2.7384831150466367 9.353313888413755 8.525248130163902
30.144698631416652 3.3557699068144466 14.611829501807458 12.177099222794757
41.80716607028661 4.0465994235891625 21.3214976237703 16.43906902292715
55.382990228291135 4.820767273285533 29.283865360229047 21.278357594776566
71.11433246178007 5.649015728859389 38.81098119242207 26.654335540498657
88.69569829268595 6.473384203223816 49.71799093772852 32.50432315173362
107.64243437628453 7.168769719333376 61.792726646693524 38.68093801025754
127.06636585023531 7.583944623552459 74.56212663750158 44.92029458918122
145.67609381811587 7.612392922719652 87.18554545469433 50.87815544070193
161.74146553018323 7.172317710871111 98.48889330215997 56.0802545171521
173.09709532347085 6.318349822583992 106.91015858280294 59.86858691808389
177.3850854532613 5.349205594802784 110.55273113537507 61.48314872308352
173.09709532344397 6.318349822583993 106.91015858278432 59.86858691807564
161.74146553013188 7.172317710872165 98.48889330212396 56.08025451713582
145.6760938180399 7.612392922719255 87.1855454546428 50.87815544067789
127.06636585014954 7.583944623552885 74.56212663744341 44.92029458915323
107.64243437619322 7.168769719328423 61.792726646636005 38.68093801022877
88.69569829258985 6.473384203215117 49.71799093767116 32.504323151703574
71.11433246169807 5.649015728860634 38.81098119236822 26.654335540469187
55.38299022820971 4.820767273282787 29.2838653601793 21.278357594747593
41.807166070211515 4.0465994235834915 21.32149762372748 16.439069022900526
30.14469863135537 3.3557699068105467 14.611829501773078 12.177099222771753
20.617045133577015 2.7384831150406512 9.353313888389948 8.525248130146398
13.164365141139314 2.182937341229246 5.4499296896175435 5.531498110292524
7.7016316795632935 1.6956722617135602 2.7781984749344857 3.22776094291525
4.042834841294111 1.276520404753202 1.1605750272798108 1.6057394092610984
1.8940701604167023 0.9347975261197833 0.3582225221000183 0.6010501121969009
0.8230930704464168 0.6370380995222151 0.0572553336665649 0.1287996372576372
0.41822598463267924 0.40909023835605973 0.0016718217984924438 0.007463924478127069
0.2697528936893509 0.3121790888084147 -0.013798926418397344 -0.028627268700666453
2.555531315732462 0.5604545593815451 0.8393818294192388 1.1556949269316803
15.19241252042604 6.629825332516185 4.135726798951615 4.426860388958225
11.459589205002565 5.267306911235511 2.869760818781928 3.3225214749851237
1.5864399786005632 0.2251102660346277 0.559468878702197 0.8018608338637391
0.16910234659052367 0.16893417809236388 2.09137372256526e-05 0.00014725476093412898
0.31080787268868476 0.3128377409053639 -0.0005459078380856812 -0.0014839603785934408
0.6236316545511377 0.545332921210909 0.020045469803255167 0.0582532635369737
1.4728780137502566 0.8376566321592614 0.22855063385608274 0.4066707477349134
3.271087856830681 1.1659056639496157 0.8470875095897556 1.25809468329131
6.461592816547599 1.5568324398087094 2.2120339597753276 2.692726416963561
11.262323759721202 1.994792796956883 4.505561479872874 4.761969482891443
17.840116385909177 2.478043394925762 7.907633223095784 7.454439767887626
26.206008734883877 3.0095032659857455 12.472098197160506 10.72440727173762
36.31956041903208 3.6017338614778205 18.191910106976827 14.525916450577439
48.335615649633475 4.2762859704157945 25.23465478390154 18.824674895316154
61.97612921229036 5.019722448731275 33.3451757779652 23.61123098559387
77.39470662768872 5.770019924462687 42.79819965418345 28.826487049042534
94.09165956409134 6.442103817841002 53.29074759347318 34.35880815277717
111.3329511218735 6.9094614568890345 64.4200712510431 40.00341841394137
127.9420402810056 7.02373301656235 75.51004570279898 45.40826156164425
142.2799775367583 6.665615091289847 85.49338196295717 50.1209804825113
152.44661375308308 6.015888964607792 92.90226354385004 53.52846124462519
156.13006232245854 4.826450464422255 96.24070956440323 55.0629022936331
152.4466137530742 6.015888964625092 92.9022635438322 53.52846124461679
142.27997753671212 6.665615091288743 85.4933819629266 50.12098048249682
127.9420402809378 7.02373301655764 75.51004570275644 45.40826156162362
111.33295112179772 6.9094614568875015 64.42007125099354 40.00341841391669
94.09165956401638 6.4421038178432815 53.29074759342214 34.35880815275098
77.39470662761016 5.770019924458737 42.79819965413492 28.8264870490165
61.976129212212136 5.019722448724436 33.34517577791968 23.611230985568003
48.33561564956817 4.276285970419331 25.234654783858517 18.824674895290325
36.319560418966084 3.601733861471997 18.19191010694012 14.525916450553986
26.20600873482922 3.009503265979674 12.472098197131878 10.724407271717665
17.84011638586867 2.478043394922562 7.907633223074652 7.4544397678714605
11.262323759690691 1.994792796954623 4.5055614798576755 4.761969482878391
6.461592816527929 1.5568324398074087 2.212033959766088 2.6927264169544367
3.2710878568196224 1.165905663947517 0.8470875095858299 1.258094683286275
1.472878013745739 0.8376566321578387 0.22855063385482274 0.4066707477330772
0.6236316545495298 0.545332921209883 0.020045469803050265 0.05825326353659655
0.31080787268838683 0.31283774090497374 -0.0005459078380704714 -0.0014839603785164214
0.16910234659032658 0.1689341780921646 2.0913737225563577e-05 0.00014725476093640268
1.586439978595212 0.22511026603411113 0.5594688786999652 0.8018608338611348
11.459589204976796 5.267306911224479 2.86976081877432 3.3225214749779983
8.652402089598457 4.100643489631655 2.028690103801949 2.5230684961648553
1.0637844198052753 0.10672028202638528 0.37195055558404944 0.5851135821948391
0.11861012853343002 0.11861012853343002 0.0 0.0
0.23298546303170956 0.2336304852824357 -7.892920501270264e-05 -0.0005660930457133912
0.4714857344299248 0.4542513783021483 0.0031353864380725127 0.0140989696897041
1.0965643270684666 0.7244740478793781 0.12033391193602813 0.2517563672530604
2.585061154440507 1.05752061599487 0.5982864370258044 0.9292541014198323
5.272291913850371 1.4134947618671132 1.687382812973851 2.1714143390094067
9.425771232795197 1.8058847872274955 3.6206166336501333 3.999269811917565
15.122859402362623 2.2248689756572437 6.512265540610139 6.3857248860952405
22.32599773862199 2.6766407109215424 10.374836463780236 9.274520563920218
31.069984061861987 3.1856117389327476 15.269656228858853 12.614716094070388
41.26305693979096 3.7665974647893377 21.112958218769382 16.383501256232233
53.15604946016781 4.4167679544508465 28.170885510242304 20.568395995474667
66.40362183805858 5.10584097943428 36.14710867874202 25.150672179882267
80.8171226207067 5.757889923470085 45.0203203695165 30.038912327720123
95.95634627907933 6.265746305850915 54.63808592912577 35.05251404410262
110.6584250630173 6.475373901029523 64.26694954936993 39.916101612617815
123.46224755234857 6.266560448224403 72.98921816149867 44.20646894262546
132.68974482591156 5.748185179629446 79.56727056830087 47.37428907798127
136.04099319783677 4.325404302056696 82.82184382407507 48.89374507170494
132.6897448258944 5.748185179637791 79.56727056828345 47.37428907797316
123.4622475523107 6.266560448224887 72.98921816147289 44.20646894261297
110.65842506297093 6.4753739010373055 64.26694954933362 39.916101612600016
95.9563462790168 6.265746305851444 54.63808592908427 35.05251404408107
80.81712262063712 5.757889923466678 45.02032036947333 30.038912327697126
66.40362183799436 5.105840979435395 36.14710867870018 25.150672179858745
53.15604946009849 4.416767954440596 28.17088551020509 20.568395995452804
41.26305693973199 3.766597464793009 21.112958218730686 16.383501256208273
31.06998406180935 3.1856117389314855 15.26965622882811 12.614716094049767
22.325997738577716 2.6766407109193295 10.374836463755853 9.274520563902538
15.122859402326123 2.224868975654901 6.51226554059107 6.3857248860801405
9.425771232769808 1.805884787226219 3.6206166336374084 3.9992698119061814
5.272291913833588 1.4134947618645197 1.6873828129670831 2.1714143390019824
2.5850611544316333 1.0575206159932367 0.5982864370225239 0.9292541014158731
1.096564327064606 0.724474047878049 0.12033391193505452 0.2517563672515028
0.4714857344290789 0.4542513783012537 0.0031353864380603167 0.014098969689764918
0.23298546303151538 0.23363048528228783 -7.892920501842421e-05 -0.0005660930457540301
0.11861012853328651 0.11861012853328651 0.0 0.0
1.0637844198013118 0.1067202820262756 0.3719505555822921 0.5851135821927445
8.652402089577025 4.100643489622334 2.02869010379605 2.523068496158647
6.438913038292078 3.1696776408229885 1.3863291316093527 1.882906265859738
0.7786703640356687 0.11100243616178213 0.26406044679788854 0.4036074810759981
0.10800002397877591 0.10800002397877591 0.0 0.0
0.18657288354950088 0.18654543970020043 4.079642099116072e-06 2.336420720137602e-05
0.35862304385309496 0.36388299113454814 -0.0024207941480827787 -0.002839153133370244
0.8023793578688001 0.6230507352474624 0.051570637401552044 0.12775798521978524
1.9595798110259766 0.9287479561734422 0.3936262280087805 0.6372056268437545
4.15200598101614 1.2673855169202293 1.2146266964321355 1.6699937676637762
7.653403833720034 1.615813359082086 2.7899498694336637 3.2476406052042868
12.476051684208713 1.9772065477853207 5.17523280218807 5.323612334235325
18.580798871585493 2.361448224946172 8.390231295785595 7.829119350853715
25.92987625353605 2.790633484200476 12.429780287739524 10.709462481596049
34.57132820061918 3.2903383669493405 17.33586270653736 13.945127127132476
44.40023003321641 3.859800916330276 22.998779298203004 17.541649818683098
55.639750765060235 4.472044687249831 29.68616506902264 21.481541008787772
67.996555023486 5.097714691549287 37.18933840922965 25.709501922707062
80.9310566417064 5.648088922450366 45.18226581062991 30.10070190862613
93.77297597122211 5.973218107590264 53.391128037493914 34.40862982613793
105.20429519115471 5.924505084656286 60.99977524244442 38.280014864054024
113.73372934730912 5.518582271852331 66.9668614114525 41.24828566400427
116.89385135365464 3.842938675267337 70.21074182710963 42.8401708512777
113.73372934729407 5.518582271859576 66.96686141143763 41.24828566399684
105.20429519112484 5.924505084660044 60.99977524242206 38.28001486404275
93.77297597117072 5.97321810758412 53.391128037464156 34.40862982612246
80.93105664165162 5.64808892244812 45.182265810595524 30.100701908607984
67.9965550234264 5.097714691544011 37.18933840919472 25.709501922687643
55.63975076500238 4.472044687247005 29.686165068987805 21.481541008767593
44.40023003316645 3.8598009163307916 22.998779298171662 17.54164981866399
34.57132820056125 3.290338366940655 17.33586270650749 13.945127127113077
25.92987625349153 2.7906334842004448 12.429780287713314 10.709462481577775
18.580798871545095 2.361448224941006 8.390231295765533 7.829119350838555
12.476051684177072 1.9772065477818421 5.175232802172666 5.323612334222564
7.653403833698447 1.6158133590808366 2.7899498694232734 3.2476406051943343
4.1520059810026035 1.2673855169187958 1.214626696426429 1.6699937676573784
1.95957981101896 0.9287479561716574 0.3936262280064962 0.6372056268408064
0.8023793578662819 0.6230507352467077 0.05157063740091975 0.1277579852186544
0.35862304385254123 0.3638829911338451 -0.0024207941480573186 -0.0028391531332465545
0.1865728835492491 0.18654543969997617 4.079642097461978e-06 2.336420717546593e-05
0.10800002397853004 0.10800002397853004 0.0 0.0
0.7786703640323881 0.11100243616168858 0.26406044679641477 0.4036074810742858
6.438913038275399 3.1696776408160994 1.3863291316047635 1.8829062658545348
4.702732405064053 2.429724857735516 0.9220095985138558 1.3509979488146802
0.551697435553515 0.14297899250724838 0.14385791711859877 0.264860525927668
0.12175353747596654 0.12175353747596654 0.0 0.0
0.16483162800698947 0.16481011279631708 1.530231648322359e-06 1.9984979024060078e-05
0.28605440578895774 0.29301424906400825 -0.0015380722948657227 -0.0054217709801848285
0.575597702739754 0.5137799235241906 0.011881656593630377 0.04993612262193324
1.387776002408586 0.7837483554746806 0.20236188721846465 0.40166575971544094
3.158973728670408 1.1115845800194157 0.8497726829261608 1.1976164657248305
5.938905271879595 1.4227697926438077 2.0043055583310188 2.511829920904771
9.935996359002196 1.7355579025133487 3.9282047137741487 4.272233742714693
14.951804069805458 2.0590394930320692 6.501409692903157 6.3913548838702265
20.953710483767313 2.4199391405768598 9.720915584101238 8.81285575908922
27.95919767398657 2.843028981800245 13.59835395160137 11.517814740584951
36.06931809983271 3.334503839798297 18.213642137979285 14.521172122055125
45.21782956665414 3.887958749197898 23.504290160913985 17.825580656542233
55.32731436694201 4.464213031306405 29.470714915292646 21.392386420342984
66.32871636754246 5.032917945127934 36.17103695070933 25.12476147170516
77.32288515372814 5.4906839133030525 42.954172465971546 28.878028774453554
87.40177282561162 5.621766120550321 49.41489447530331 32.36511222975796
95.39895768338017 5.328679018595775 54.891552269354385 35.17872639542999
98.49108901470802 3.3873448789472516 58.22677091146257 36.876973224298226
95.39895768335715 5.328679018587796 54.8915522693445 35.178726395424775
87.40177282558813 5.621766120555619 49.41489447528449 32.36511222974806
77.32288515369166 5.490683913301361 42.95417246594875 28.878028774441525
66.3287163675018 5.0329179451312696 36.17103695068101 25.124761471689492
55.327314366895806 4.464213031305361 29.470714915264132 21.392386420326353
45.217829566604415 3.8879587491915117 23.504290160886992 17.825580656525904
36.06931809979197 3.3345038398016533 18.213642137952466 14.52117212203784
27.959197673948307 2.8430289817992627 13.598353951579186 11.517814740569854
20.95371048372818 2.419939140573669 9.720915584080482 8.812855759074042
14.951804069774576 2.059039493029163 6.501409692887563 6.391354883857852
9.935996358977913 1.7355579025114243 3.9282047137622955 4.2722337427041905
5.938905271861964 1.4227697926427396 2.0043055583228226 2.511829920896404
3.1589737286592054 1.1115845800179143 0.8497726829216188 1.1976164657196726
1.3877760024037396 0.7837483554737011 0.20236188721691714 0.40166575971312135
0.5755977027377721 0.5137799235229664 0.011881656593387434 0.04993612262141832
0.2860544057886557 0.29301424906348283 -0.0015380722948307442 -0.0054217709799964705
0.16483162800675039 0.164810112796077 1.5302316483193903e-06 1.998497902505363e-05
0.12175353747554324 0.12175353747554324 0.0 0.0
0.5516974355505208 0.14297899250698898 0.14385791711739815 0.264860525926134
4.702732405051801 2.4297248577307515 0.9220095985105061 1.3509979488105426
3.3132238574782376 1.8344387372151914 0.5591946306211045 0.919590489641941
0.41292191064804523 0.1869805687790508 0.07341633776465945 0.15252500410433475
0.1461241849270968 0.14613661335559977 -6.591917487488861e-07 -1.1769236754219564e-05
0.16063286767175305 0.16061858165563597 9.176681420014073e-07 1.3368347975063384e-05
0.24222014987856702 0.24510186282022353 -0.0005600992535816697 -0.002321613688074879
0.42119336221606385 0.42034100400224245 -0.0032089184555983068 0.004061276669419857
0.9526852003613926 0.6507058156411111 0.08973199021186837 0.21224739450841307
2.188116396895889 0.9274999911611456 0.47099631241371437 0.7896200933210296
4.433203415909612 1.2298024707242534 1.3983843902911388 1.8050165548942199
7.47973372177506 1.4945224872135459 2.7506932472291856 3.2345179873323255
11.472360186131786 1.7681877893521738 4.738454315090535 4.965718081689075
16.189682615219297 2.069354997130875 7.192813739430875 6.927513878657547
21.65419451638936 2.42410231490981 10.125126762628392 9.104965438851155
27.95732204663159 2.8448612683795624 13.595178491071767 11.517282287180258
35.14186558448513 3.330019473750907 17.62764416275844 14.184201947975776
43.29681494417395 3.866095826523937 22.345908762620123 17.084810355029887
51.91874504349737 4.427851638123372 27.32393774791288 20.166955657461138
61.16853045862631 4.986400577458084 32.869545569370935 23.312584311797277
70.16332020479936 5.329506337329495 38.437687811416204 26.396126056053674
77.66331484304857 5.186191730402541 43.37515913108461 29.101963981561404
80.82725503132882 2.972301905090465 46.886182104508435 30.968771021729896
77.66331484303545 5.186191730395564 43.37515913108066 29.101963981559223
70.1633202047787 5.329506337331521 38.43768781140149 26.396126056045677
61.16853045859751 4.986400577456734 32.86954556935344 23.312584311787337
51.91874504345695 4.427851638117454 27.323937747891154 20.166955657448366
43.296814944137495 3.866095826524741 22.34590876259697 17.084810355015776
35.14186558444891 3.33001947374749 17.62764416273857 14.184201947962864
27.957322046594285 2.844861268375748 13.595178491051845 11.517282287166694
21.654194516358118 2.4241023149083163 10.125126762611126 9.104965438838681
16.189682615188936 2.0693549971271534 7.192813739415845 6.9275138786459385
11.472360186108547 1.7681877893534677 4.738454315077272 4.965718081677805
7.479733721756027 1.494522487213362 2.750693247219462 3.2345179873232057
4.433203415895902 1.22980247072345 1.3983843902847768 1.8050165548876755
2.1881163968884887 0.9274999911599069 0.470996312411011 0.7896200933175701
0.9526852003573016 0.6507058156398384 0.0897319902108015 0.21224739450666208
0.42119336221503123 0.42034100400112306 -0.0032089184555664963 0.004061276669474956
0.24222014987811627 0.2451018628197621 -0.0005600992535780571 -0.002321613688067818
0.16063286767155416 0.1606185816554424 9.176681415783688e-07 1.336834797013782e-05
0.14612418492675347 0.14613661335524175 -6.591917477816558e-07 -1.1769236740542314e-05
0.41292191064605843 0.1869805687789133 0.07341633776388931 0.15252500410325548
3.313223857468745 1.8344387372112363 0.5591946306187864 0.9195904896387239
2.307483548177596 1.4006568639364438 0.34653143208614196 0.5602952521550102
0.3037847541183552 0.21216826158210741 0.01965207561475264 0.07196441692149505
0.17177346606607846 0.17173152658959487 3.88979201809525e-06 3.804968446551752e-05
0.1678322906682168 0.16780130473988952 2.291561764023888e-06 2.8694366563288593e-05
0.21780406175042616 0.21994904723834638 -0.0003673292587509997 -0.0017776562291691178
0.3286733531786762 0.34099313734212494 -0.004477646516837509 -0.007842137646611376
0.6243455817334794 0.5198146034047553 0.02214148430474291 0.08238949402398138
1.4108336725278925 0.7443001635701363 0.2208835688853977 0.44564994007235814
2.9331937722598607 1.0022857190710583 0.7676133119646456 1.1632947412241565
5.273025467191222 1.2512542182052804 1.7933756517433128 2.228395597242629
8.164107342804428 1.4796856723817442 3.1284692525770366 3.555952417845646
11.636751341319782 1.7303893927701557 4.8459908396234805 5.060371108926146
15.654729398437578 2.025514678427347 6.915622787068 6.71359193294223
20.261319794849925 2.377359964633615 9.344145133597456 8.539814696618853
25.59849887927634 2.802790740492657 12.228649835395684 10.567058303388006
31.61707870400049 3.290227848620009 15.5230151588846 12.803835696495897
38.35515825629648 3.8209537373323954 19.32856594161103 15.20563857735304
45.56407644579149 4.436582780177748 23.380038727890934 17.747454937722836
53.1174605287006 5.003026121173513 27.728566887710294 20.385867519816788
60.30049363997964 5.089450436743224 32.24381416165084 22.967229041585565
63.714526668091416 2.6100904197914168 36.03063847830997 25.07379776999
60.30049363997884 5.0894504367438795 32.2438141616498 22.967229041585174
53.117460528671145 5.00302612115687 27.728566887702204 20.385867519812074
45.56407644577107 4.436582780177631 23.380038727878322 17.74745493771513
38.3551582562733 3.820953737335804 19.328565941594732 15.20563857734275
31.61707870396476 3.2902278486114733 15.523015158868189 12.803835696485088
25.598498879249618 2.80279074048987 12.22864983538156 10.567058303378188
20.261319794822175 2.3773599646266503 9.344145133585442 8.539814696610076
15.654729398417109 2.025514678427989 6.915622787056128 6.713591932932988
11.636751341297353 1.7303893927663145 4.84599083961342 5.060371108917618
8.1641073427822 1.4796856723776912 3.1284692525675672 3.555952417836942
5.273025467175544 1.2512542182035051 1.7933756517363486 2.22839559723569
2.9331937722505113 1.0022857190699745 0.767613311960846 1.1632947412196903
1.4108336725223414 0.7443001635687916 0.22088356888371063 0.4456499400698387
0.6243455817312494 0.5198146034038005 0.022141484304356206 0.08238949402309281
0.3286733531778961 0.3409931373410213 -0.00447764651678861 -0.007842137646336792
0.21780406174996353 0.21994904723791325 -0.0003673292587466245 -0.001777656229203027
0.16783229066782918 0.16780130473947844 2.291561764977366e-06 2.869436658572651e-05
0.17177346606571048 0.17173152658911645 3.889792026648337e-06 3.8049684567324276e-05
0.3037847541170726 0.21216826158191346 0.019652075614365376 0.07196441692079376
2.3074835481706226 1.4006568639336099 0.34653143208435555 0.560295252152658
1.4976033182970612 1.0374805261427342 0.15160077608754868 0.3085220160667781
0.2390380591104047 0.2235734830405165 -0.0007922912531589735 0.01625686732304722
0.19362123088945968 0.193710141136523 -8.291528387688452e-06 -8.061871867566136e-05
0.18143913165131176 0.18152121333159987 -5.796608451279217e-06 -7.628507183687243e-05
0.20690935934832394 0.20890729143336279 -0.00035119933609818407 -0.001646732748940618
0.27837068051504965 0.2853659835243417 -0.0025539899506413356 -0.004441313058650688
0.4245678788239868 0.41097095586732013 -0.001568439944999652 0.015165362901666191
0.8235421796972877 0.5709748565269219 0.07120958571022508 0.18135773746014122
1.7006377983774017 0.7633685503095033 0.33150133298512297 0.6057679150827745
3.154781952068824 0.968381466772948 0.8913852173626203 1.2950152679332563
5.057856598617489 1.1649833526423659 1.6975608166539593 2.1953124293211657
7.368618589092732 1.3766477681818539 2.7631027145160543 3.2288681063948212
10.020514366065795 1.621668622609993 4.033887598016227 4.3649581454395765
13.054271611279756 1.9101048733097963 5.527979923755767 5.6161868142141955
16.590964360605216 2.268347492115317 7.311222686446805 7.011394182043093
20.72374745332559 2.709782996827284 9.434834308205296 8.579130148293007
25.432081510178826 3.2137800810740904 11.898396349689127 10.319905079415605
30.622356380779387 3.774304205718983 14.638276401962134 12.209775773098269
36.6969739344445 4.524562705831589 17.848203442303557 14.324207786309337
43.54984352061991 5.036140617943015 21.77250340327413 16.741199499402747
47.3626633904971 2.3500099703484656 25.762560154541973 19.250093265606676
43.549843520623554 5.036140617946212 21.772503403274374 16.741199499402974
36.696973934448565 4.524562705842786 17.84820344229926 14.324207786306516
30.622356380761893 3.774304205715263 14.638276401953798 12.209775773092826
25.432081510153235 3.2137800810679185 11.898396349677654 10.319905079407654
20.72374745331401 2.7097829968338174 9.434834308194832 8.579130148285367
16.590964360589734 2.268347492115542 7.311222686437908 7.011394182036279
13.054271611266591 1.9101048733081136 5.527979923749429 5.616186814209055
10.020514366049877 1.6216686226073833 4.033887598009153 4.36495814543334
7.368618589080909 1.3766477681827567 2.763102714509439 3.2288681063887172
5.057856598605993 1.1649833526412452 1.6975608166488945 2.195312429315853
3.1547819520597824 0.9683814667719385 0.8913852173588375 1.295015267929006
1.7006377983723233 0.7633685503086853 0.3315013329833278 0.6057679150803112
0.8235421796947723 0.5709748565265369 0.07120958570947622 0.1813577374587591
0.42456787882276 0.4109709558663283 -0.0015684399450961875 0.015165362901527913
0.27837068051457997 0.28536598352347803 -0.002553989950586336 -0.004441313058311559
0.20690935934794602 0.20890729143270573 -0.0003511993360709658 -0.0016467327486887659
0.18143913165066405 0.18152121333101484 -5.796608456573701e-06 -7.628507189415913e-05
0.19362123088924052 0.19371014113620239 -8.291528382608943e-06 -8.061871857926134e-05
0.23903805910965412 0.22357348304024593 -0.0007922912533222465 0.016256867322730375
1.4976033182923572 1.0374805261404363 0.15160077608658007 0.3085220160653408
0.9557357545078727 0.7800229774209797 0.05104634547797478 0.12466643160891838
0.20079757369908327 0.2149313600939547 -0.0054218746658343505 -0.008711911729037037
0.20936746151845675 0.20928951411888944 9.138902023332604e-06 6.880849754407207e-05
0.1975091302112915 0.19749452023829847 1.2628463088420904e-06 1.3347126684178867e-05
0.20793398806341648 0.20948234221832304 -0.00031667148003775876 -0.0012316826748689155
0.2540290453353948 0.2594868136605185 -0.0018058923422795486 -0.003651875982844102
0.33310449744507387 0.3272699648743712 -0.0005182737217313953 0.006352806292434044
0.464173717589896 0.4018535651706833 0.01265437071915495 0.04966578170005768
0.7740393486213378 0.5058133524627523 0.07714141515311909 0.19108458100546635
1.3963725213341052 0.6379080995548083 0.2629636639500425 0.4955007578292546
2.3662629665909947 0.7753993432955457 0.628989044938606 0.9618745783568421
3.541943011828417 0.9219932144885284 1.0886435469916695 1.5313062503482195
4.947722748943709 1.101473974662466 1.6821332274526095 2.1641155468286333
6.594041170679069 1.3217369154420406 2.402681605260259 2.8696226499767707
8.536017497358456 1.6014759049875524 3.2657970578465734 3.6687445345243326
10.901717732576067 1.9736492397078362 4.327075803825391 4.6009926890428385
13.813615058162858 2.4475753769110096 5.66127612414797 5.704763557103879
17.24868580919916 2.9522837371836492 7.31723279026617 6.979169281749347
21.343197876891335 3.5708869036396558 9.306323944149556 8.465987029102118
27.327626545531402 4.728973420372583 12.109250091962721 10.489403033196103
32.57322815661067 2.3198966918336485 16.6890302552545 13.564301209522508
27.327626545533487 4.728973420371396 12.10925009196467 10.489403033197416
21.343197876876854 3.5708869036289017 9.306323944147346 8.465987029100612
17.248685809194516 2.952283737188377 7.317232790260852 6.979169281745291
13.81361505814544 2.4475753769044566 5.661276124141875 5.7047635570991115
10.901717732558026 1.9736492397001255 4.327075803819811 4.60099268903809
8.53601749734661 1.601475904983258 3.2657970578426356 3.668744534520718
6.594041170673949 1.3217369154421852 2.4026816052575293 2.869622649974234
4.947722748938506 1.1014739746636504 1.6821332274494416 2.164115546825412
3.541943011821402 0.9219932144888473 1.0886435469881832 1.5313062503443715
2.3662629665841965 0.7753993432954132 0.6289890449356139 0.9618745783531705
1.3963725213301337 0.6379080995534413 0.2629636639489543 0.49550075782773845
0.7740393486197565 0.5058133524626894 0.0771414151525833 0.19108458100448378
0.46417371758882514 0.4018535651701942 0.012654370718975749 0.04966578169965541
0.33310449744444753 0.32726996487375465 -0.0005182737217486297 0.006352806292441303
0.2540290453348338 0.25948681365989174 -0.0018058923422662734 -0.0036518759827916004
0.20793398806309332 0.20948234221795264 -0.0003166714800295446 -0.0012316826748297218
0.19750913021052396 0.1974945202374478 1.2628463172552333e-06 1.3347126758874697e-05
0.20936746151822613 0.20928951411843635 9.138902047448038e-06 6.880849774231057e-05
0.2007975736988881 0.21493136009374836 -0.005421874665818164 -0.008711911729042086
0.9557357545051357 0.7800229774195362 0.051046345477513695 0.12466643160808558
0.6002691132805232 0.5687360121689442 0.0058170900617105425 0.025716011049868728
0.18479578204877006 0.19059081976844994 -0.0010713834892890645 -0.004723654230390895
0.21883024053365766 0.21923154005432732 -4.199450286510401e-05 -0.0003593050178045987
0.21340003769271998 0.21331812029025843 7.755654187691768e-06 7.416174827388683e-05
0.2185079872345448 0.21932831808844383 -0.00024917079017343737 -0.0005711600637255543
0.25117676562795854 0.2544402052136697 -0.0013728750806041186 -0.0018905645051070631
0.309614893008068 0.2988964607175198 0.0012457414013882972 0.009472690889159918
0.36326545640908886 0.304536312296688 0.013837580768805705 0.044891563343595266
0.4071079737046306 0.26809503984006633 0.0431980470845275 0.0958148867800369
0.5062162451879916 0.23686385476423666 0.09086100269501685 0.17849138772873824
0.7500114679548658 0.267294292182149 0.18939855507958153 0.29331862069313563
1.1261744035485854 0.3022965571809937 0.32505472451468703 0.49882312185290506
1.645268056764143 0.30524171736347944 0.5476646512956709 0.7923616881049927
2.293591555956738 0.3168918057748282 0.8392182456021818 1.1374815045797289
3.088883239471067 0.35542880421472983 1.2017088307600485 1.5317456044962876
4.0354023681855 0.44114011855860485 1.623244988435253 1.9710172611916432
5.185392337102393 0.5970740693931011 2.136828878800291 2.4514893889090033
6.532664562142159 0.815178044917382 2.7465908897074995 2.9708956275172786
8.465296091741223 1.2009351144122664 3.5886943814647845 3.6756665958641723
13.434212066255514 2.80558282244602 5.248864546070442 5.379764697739051
22.460612661616278 2.4419121046482 10.504817920790309 9.513882636177778
13.434212066260049 2.8055828224465102 5.248864546072806 5.3797646977407325
8.465296091749138 1.2009351144212244 3.5886943814641783 3.6756665958637345
6.532664562129902 0.8151780449127946 2.746590889703402 2.970895627513705
5.185392337101468 0.5970740693980663 2.1368288787971697 2.4514893889062304
4.035402368185409 0.4411401185618409 1.623244988433573 1.9710172611899948
3.088883239469574 0.3554288042162035 1.2017088307584851 1.5317456044948858
2.29359155595297 0.3168918057739244 0.8392182456008253 1.1374815045782203
1.6452680567555067 0.305241717360433 0.547664651293157 0.7923616881019171
1.1261744035446448 0.302296557180066 0.32505472451332973 0.49882312185124955
0.7500114679517617 0.26729429218126943 0.18939855507852482 0.29331862069196646
0.5062162451881984 0.2368638547643494 0.09086100269507796 0.1784913877287715
0.40710797370435037 0.2680950398405105 0.0431980470842557 0.095814886779584
0.3632654564084885 0.3045363122966849 0.013837580768606412 0.044891563343197424
0.30961489300747547 0.29889646071700193 0.0012457414013358412 0.009472690889137816
0.2511767656274079 0.25444020521299066 -0.0013728750805852299 -0.0018905645049977291
0.21850798723421727 0.21932831808793418 -0.0002491707901519499 -0.0005711600635648601
0.213400037692127 0.21331812028950978 7.755654205472614e-06 7.416174841174436e-05
0.21883024053348504 0.21923154005424753 -4.1994502874556054e-05 -0.0003593050178879487
0.18479578204844732 0.19059081976794312 -0.0010713834892558628 -0.004723654230240068
0.600269113279122 0.5687360121677519 0.00581709006161419 0.025716011049756203
0.3891634436810813 0.39020483255798527 -0.0002036264062624209 -0.0008377624706415694
0.1745808817374248 0.17454705384843258 1.6045770213331163e-05 1.778211877885917e-05
0.22230404568236037 0.22216492485045966 3.2082736574249428e-06 0.00013591255824330997
0.22702342559562202 0.22682881802055344 1.1976482149111533e-05 0.0001826310929194024
0.23499636863333737 0.23489611851515474 -0.00013980398105289127 0.00024005409923553072
0.27059413762522766 0.27158126127526383 -0.001118206228918477 0.00013108257888234503
0.3432368546688992 0.33507996661461 0.0007349156360099264 0.0074219724182794
0.4691471925045512 0.4035842765524509 0.013903385998916249 0.05165952995318407
0.775485911363881 0.5056829110585921 0.0777332415523488 0.1920697587529399
1.3952920862559242 0.6374871929975569 0.26263179710192874 0.49517309615643823
2.3688963287102425 0.7771231809572522 0.6298070888196003 0.9619660589333914
3.558367816281194 0.9247258165722702 1.0965790369369723 1.5370629627719528
4.984331933391088 1.1067607320523518 1.6976150953155498 2.1799561060231865
6.635427970938742 1.3238917294587107 2.4236149963715796 2.8879212451084513
8.461246367548448 1.5765344917203281 3.2414847838865226 3.643227091941593
10.370934759096336 1.8672741247129134 4.1063981340758255 4.397262500307605
12.11936166002095 2.1790089389588134 4.890476704892764 5.049876016169369
13.519788322512756 2.5435983722310693 5.504200571635301 5.471989378646387
14.014018841389422 2.7983037209658983 5.676730759111001 5.538984361312521
11.269765625997202 1.8140798537281881 4.897575080028976 4.558110692240031
22.746664930873308 3.951086823300165 9.674989032857157 9.120589074715978
11.269765625998705 1.8140798537247247 4.897575080031714 4.55811069224227
14.01401884137449 2.7983037209529638 5.676730759109754 5.5389843613117815
13.519788322507909 2.54359837223282 5.504200571631608 5.47198937864347
12.119361660004676 2.1790089389536083 4.890476704886689 5.049876016164381
10.37093475907651 1.8672741247049864 4.106398134069417 4.397262500302108
8.461246367537477 1.576534491718717 3.2414847838817016 3.6432270919370593
6.635427970929392 1.323891729458371 2.423614996366922 2.887921245104099
4.984331933382842 1.1067607320550863 1.6976150953101343 2.179956106017622
3.558367816267964 0.9247258165694232 1.0965790369320252 1.5370629627665144
2.36889632870114 0.7771231809560553 0.6298070888159746 0.9619660589291098
1.395292086250839 0.6374871929964416 0.26263179710029727 0.4951730961540999
0.7754859113607072 0.5056829110573948 0.07773324155159869 0.19206975875171386
0.469147192503529 0.40358427655204093 0.01390338599871985 0.051659529952768006
0.34323685466779774 0.3350799666134956 0.0007349156359785446 0.007421972418323508
0.270594137624769 0.27158126127467186 -0.001118206228898998 0.00013108257899622708
0.23499636863299614 0.2348961185146369 -0.0001398039810337148 0.0002400540993930048
0.22702342559520897 0.22682881801996269 1.1976482165912728e-05 0.0001826310930804458
0.22230404568227272 0.2221649248502403 3.2082736657199817e-06 0.00013591255836656153
0.17458088173726954 0.1745470538482938 1.604577020775972e-05 1.7782118768075263e-05
0.3891634436801698 0.3902048325567644 -0.00020362640622759734 -0.0008377624703670762
0.25198779345981587 0.25196705432969363 1.3476233019465938e-06 1.9391506820260498e-05
0.16088150674547697 0.16092318423843255 -2.039745786604265e-06 -3.9637747169009836e-05
0.21929675032205823 0.21962770370015722 -4.040487858901792e-05 -0.0002905484995100027
0.23667731313570323 0.23605109829999096 5.627296842769434e-05 0.0005699418672847147
0.2557564239236128 0.25818321825148366 -0.0005573662843212157 -0.0018694280435497719
0.3103562096894778 0.3147302806294564 -0.0015079589082482414 -0.0028661120317304877
0.44070074898028133 0.4123928759663405 0.0016394857150948128 0.026668387298845932
0.8312628990633724 0.5718263573528725 0.0739695796944751 0.18546696201602472
1.7006948919094416 0.7631333077079862 0.33158601451203706 0.6059755696894173
3.1530766291545698 0.9682765995202289 0.8905045019056135 1.294295527728727
5.060795175314651 1.165585768523137 1.698608547121172 2.1966008596703404
7.383616414539272 1.3787606208718062 2.7697478612954782 3.2351079323719865
10.052497463997774 1.6244838999997873 4.049620305769819 4.378393258228177
13.080883588679434 1.9058901919766524 5.54540244078359 5.629590955919186
16.490500518786277 2.230984137900413 7.276898525593922 6.982617855291935
20.156278690164978 2.5903045505229074 9.17879287387227 8.3871812657698
23.77571334574832 2.984745236485426 11.061777071160366 9.729191038102526
26.877106880502126 3.438804287144367 12.600465920288961 10.83783667306879
28.404377291622296 3.6269812152798684 13.412468993065584 11.364927083276843
26.325799391187644 3.546288137960012 12.325701781511961 10.453809471715665
32.35086794592289 7.844116554789991 13.203400819124264 11.303350572008618
26.325799391199443 3.546288137965554 12.325701781515734 10.453809471718152
28.404377291627007 3.6269812152883123 13.412468993063365 11.364927083275331
26.87710688047722 3.438804287132549 12.600465920281122 10.837836673063546
23.775713345720387 2.9847452364788722 11.061777071147779 9.729191038093731
20.1562786901487 2.590304550526816 9.178792873860647 8.387181265761235
16.490500518764087 2.230984137896917 7.276898525583349 6.982617855283823
13.08088358866101 1.9058901919743754 5.545402440774729 5.629590955911899
10.052497463974948 1.6244838999965063 4.0496203057593165 4.378393258219129
7.383616414524051 1.3787606208730405 2.7697478612869544 3.235107932364057
5.060795175296904 1.1655857685205018 1.6986085471137176 2.1966008596626825
3.1530766291427232 0.9682765995184038 0.8905045019008898 1.2942955277234294
1.7006948919037435 0.7631333077073955 0.33158601450989067 0.605975569686457
0.8312628990599198 0.5718263573516692 0.073969579693662 0.18546696201458895
0.44070074897877803 0.4123928759654169 0.0016394857149156818 0.026668387298445506
0.31035620968893324 0.31473028062845265 -0.0015079589081644256 -0.0028661120313549734
0.25575642392339576 0.2581832182510739 -0.0005573662842889897 -0.001869428043389218
0.23667731313548215 0.2360510982995766 5.62729684453424e-05 0.0005699418674601182
0.21929675032180818 0.21962770369985332 -4.0404878586408394e-05 -0.00029054849945873675
0.16088150674541715 0.16092318423839946 -2.0397457880390506e-06 -3.963774719428323e-05
0.2519877934591629 0.25196705432905375 1.3476233008971399e-06 1.9391506808273514e-05
0.15587512594998076 0.15587512594998076 0.0 0.0
0.14199719312917852 0.14198084000221642 9.89853957466213e-07 1.5363273004669434e-05
0.20945115472362674 0.2096432304188794 -2.1798258490903375e-05 -0.00017027743676168976
0.24254398340731562 0.2434025398697513 -0.0001470900251602092 -0.0007114664372755486
0.2802276889780082 0.28144923614420714 -0.00041958765621717404 -0.0008019595099817252
0.3669377974615888 0.3625075622666809 -0.0018077371702345446 0.0062379723651426935
0.6495970881723414 0.5281921316395656 0.029624365385295923 0.0917805911474798
1.4167518634648173 0.7449180225073727 0.22362499512381798 0.4482088458336267
2.930972990484083 1.0022627111714162 0.7665556141488952 1.1621546651637695
5.272434482039861 1.2515315773043056 1.7931974983447667 2.2277054063907906
8.167564097355863 1.480090126726803 3.128799825857155 3.5586741447719064
11.648249675443491 1.731309570962274 4.851826452754473 5.0651136517267465
15.669382256175314 2.025774936907564 6.92379834540257 6.719808973865176
20.25288595677791 2.3688601696073004 9.344367433118034 8.53965835405258
25.46743174150709 2.7604749445830374 12.176624173644296 10.530332623279751
31.120640577904982 3.1830095494594444 15.289713693248904 12.647917335196631
36.99314047685204 3.628595869081979 18.614867513448623 14.749677094321424
42.00848262388628 3.962138615117097 21.47391220934014 16.572431799429033
44.56112226589322 4.022942633741526 23.02096384511129 17.517215787040413
41.44501128213582 3.5445126402239935 21.402733991987954 16.497764649923873
46.507437671050376 10.773688968732328 20.038479580207785 15.695269122110272
41.44501128213625 3.544512640219012 21.402733991991298 16.49776464992592
44.56112226588181 4.022942633737713 23.020963845106554 17.51721578703755
42.00848262386692 3.962138615118874 21.473912209327075 16.572431799420983
36.99314047683083 3.6285958690891205 18.614867513431307 14.749677094310403
31.120640577865878 3.1830095494502753 15.289713693230855 12.647917335184731
25.467431741476975 2.760474944581848 12.17662417362722 10.530332623267904
20.25288595675012 2.3688601696035128 9.34436743310415 8.53965835404246
15.669382256148038 2.025774936908469 6.923798345386696 6.719808973852875
11.648249675413885 1.7313095709571527 4.851826452741087 5.065113651715639
8.16756409733473 1.4800901267271758 3.128799825845893 3.5586741447616634
5.272434482023026 1.251531577303709 1.7931974983366368 2.2277054063826798
2.9309729904735113 1.0022627111690745 0.7665556141450806 1.1621546651593568
1.4167518634587113 0.744918022506222 0.22362499512182304 0.4482088458306662
0.6495970881698377 0.5281921316384938 0.029624365384825452 0.09178059114651808
0.3669377974606041 0.36250756226551495 -0.001807737170225846 0.006237972365314939
0.2802276889775022 0.2814492361435631 -0.00041958765619838406 -0.0008019595098626199
0.24254398340699967 0.24340253986934907 -0.0001470900251506695 -0.0007114664371987096
0.20945115472318562 0.2096432304184428 -2.1798258492223568e-05 -0.00017027743676495966
0.14199719312886266 0.14198084000190403 9.898539572355688e-07 1.5363273001379168e-05
0.15587512594961525 0.15587512594961525 0.0 0.0
0.0912605032015096 0.0912605032015096 0.0 0.0
0.11878132243903913 0.11878185213471262 -2.2971052855553653e-08 -5.067246206468004e-07
0.19377904126365347 0.19382698504808016 -6.906827937209303e-06 -4.1036956489471724e-05
0.24501303928903712 0.2452277186087206 -6.135185504056875e-05 -0.00015332746464287922
0.3069881129997158 0.31191002240962257 -0.001246223890500829 -0.0036756855194059576
0.46375628107604483 0.4414313351828612 0.003151305083164041 0.01917364081001962
0.9694852574508356 0.6476991096784968 0.09612466368276185 0.22566148408957692
2.189436108096263 0.9279384608349059 0.4718288670284168 0.7896687802329407
4.430211765361311 1.230306712520095 1.3966346684954472 1.8032703843457685
7.480523222551051 1.4950099601419589 2.7506569655738016 3.234856296835292
11.477926441219058 1.7681560306328696 4.741755270193897 4.968015140392294
16.19270264776365 2.0677421587249705 7.1954757087302506 6.9294847803084325
21.63840988084227 2.4188306647159563 10.119151100025963 9.10042811610037
27.8967751023593 2.8319670706613023 13.567017415245868 11.497790616452113
34.99877098421983 3.3009482221761988 17.55838965524479 14.13943310679884
42.96282208086754 3.802823619325669 22.177941213964882 16.982057247576993
50.89579477964196 4.22784625199137 26.80672475375905 19.861223773891567
57.90540366954909 4.4088072945672465 31.161566756233434 22.335029618748383
61.26970961305612 4.123961024042457 33.51734308208857 23.628405506925098
57.250480046471395 3.62718537630159 31.270102750517744 22.353191919652073
62.28210677803964 13.617162875811662 28.082594775288893 20.58234912693907
57.250480046464325 3.6271853762948814 31.27010275051752 22.35319191965192
61.269709613040206 4.123961024040424 33.51734308207967 23.62840550692014
57.90540366952266 4.408807294567126 31.161566756216654 22.335029618738883
50.89579477959079 4.227846251977822 26.806724753735423 19.861223773877537
42.962822080827465 3.8028236193270293 22.177941213939246 16.982057247561194
34.998770984180524 3.30094822217421 17.558389655222143 14.13943310678416
27.896775102316997 2.8319670706540636 13.567017415224985 11.497790616437946
21.63840988080492 2.4188306647154714 10.119151100004526 9.100428116084915
16.192702647732272 2.0677421587262637 7.195475708711889 6.929484780294122
11.477926441187767 1.7681560306289328 4.741755270179125 4.968015140379708
7.4805232225294445 1.4950099601409224 2.7506569655632185 3.2348562968253036
4.430211765345674 1.2303067125176868 1.396634668488902 1.8032703843390847
2.1894361080873415 0.9279384608333511 0.47182886702516935 0.7896687802288209
0.9694852574465428 0.64769910967713 0.09612466368164359 0.22566148408776848
0.4637562810746845 0.44143133518196437 0.0031513050830416604 0.019173640809678528
0.3069881129992334 0.31191002240871946 -0.0012462238904335384 -0.0036756855190524006
0.24501303928869456 0.2452277186081834 -6.135185502228751e-05 -0.00015332746446664416
0.19377904126336526 0.1938269850478471 -6.906827943381958e-06 -4.103695653842902e-05
0.11878132243872895 0.11878185213440194 -2.297105282889122e-08 -5.067246201801207e-07
0.09126050320131658 0.09126050320131658 0.0 0.0
0.0502701052561939 0.0502701052561939 0.0 0.0
0.09396747368378534 0.09396747368378534 0.0 0.0
0.1738414094243167 0.17383071462761068 6.402233641751006e-07 1.0054573341878887e-05
0.24481472752327427 0.245576067225578 -0.00012475847136586053 -0.0006365812309378968
0.33970223186435455 0.3416007159181883 -0.001480662616863503 -0.00041782143697026214
0.6111412328481384 0.5279730233017309 0.020382675332132293 0.06278553421427494
1.400603299286307 0.783887687442961 0.20859274598208846 0.40812286586125746
3.157125266755285 1.1126075496447312 0.8486160994315809 1.1959016176789738
5.937186168863629 1.4236458531837832 2.003143981887717 2.51039633379213
9.938948344211573 1.7360421942649988 3.929458206476349 4.273447943470222
14.956417684820266 2.058215804395831 6.504445894982084 6.393755985442352
20.94388171205826 2.414451965488689 9.71842839857313 8.811001347996436
27.903723798866764 2.829116920556407 13.573705677730192 11.500901200580161
35.948673449580824 3.317679923542124 18.150492810946226 14.480500715092482
45.0708307863144 3.8853855047003414 23.414493458009815 17.77095182360426
55.152754133357014 4.448966977564842 29.369523531847342 21.334263623944842
65.62698469445951 4.834028340028715 35.847687583522855 24.945268770907937
74.2943127514344 4.764354643408263 41.46050411614758 28.069453991878568
78.11018225983617 4.130078512228164 44.31412328750484 29.66598046010315
73.59640733067242 3.818383493015102 41.63675947822458 28.141264359432736
79.48377399745047 16.488165548522687 37.26304021824798 25.732568230679764
73.59640733066215 3.8183834930118143 41.63675947822009 28.141264359430266
78.11018225981255 4.130078512226081 44.31412328749079 29.665980460095632
74.29431275138685 4.764354643399642 41.460504116122415 28.069453991864826
65.62698469441683 4.834028340033786 35.847687583492174 24.9452687708909
55.15275413330894 4.44896697756676 29.369523531815755 21.334263623926446
45.0708307862632 3.8853855046961283 23.41449345798066 17.77095182358641
35.948673449535136 3.317679923540764 18.150492810919246 14.480500715075141
27.903723798821016 2.829116920556301 13.573705677703053 11.500901200561671
20.94388171201344 2.4144519654842846 9.718428398549765 8.811001347979383
14.95641768478494 2.0582158043946763 6.504445894963035 6.3937559854272275
9.938948344182435 1.7360421942611002 3.9294582064629 4.273447943458438
5.937186168844956 1.4236458531826555 2.0031439818790924 2.5103963337832083
3.157125266742142 1.1126075496419596 0.8486160994267024 1.1959016176734802
1.4006032992802921 0.783887687441517 0.20859274598025174 0.4081228658585241
0.6111412328461021 0.5279730233006309 0.020382675331813024 0.06278553421365811
0.339702231863828 0.3416007159174361 -0.0014806626168382404 -0.0004178214367696725
0.24481472752298594 0.24557606722532946 -0.00012475847137044895 -0.0006365812309731363
0.17384140942422557 0.1738307146275199 6.402233642892024e-07 1.0054573341368918e-05
0.09396747368370353 0.09396747368370353 0.0 0.0
0.050270105256091546 0.050270105256091546 0.0 0.0
0.02597067750960674 0.02597067750960674 0.0 0.0
0.0703344641443668 0.0703344641443668 0.0 0.0
0.1520212371548564 0.1520152630118127 3.662909033654852e-07 5.6078521402870744e-06
0.24414589194034475 0.2446866636329246 -9.686217864651382e-05 -0.0004439095139333071
0.3900256571746141 0.39069454903275613 -0.0011185203792100215 0.0004496285210681267
0.811169301197882 0.6091088226634411 0.054894197988253866 0.1471662805461868
1.9646540272903728 0.9289792603818551 0.3969788888844142 0.6386958780241031
4.149789657883454 1.268652366801957 1.2127926529375697 1.6683446381439273
7.654037983517673 1.6167774328095896 2.7900146027969095 3.2472459479111713
12.480814091729222 1.9775275472576548 5.177693939111955 5.325592605359619
18.582436504882295 2.359260373627251 8.39243162292338 7.830744508331662
25.904157910285996 2.780611464566708 12.420534037267092 10.703012408452201
34.476507525287005 3.267621494067783 17.29213133544321 13.916754695776
44.22137520151754 3.8376072409517747 22.901624088475135 17.482143872090656
55.45999069650222 4.486587540926299 29.563206042284055 21.410197113291872
67.8941266877942 5.127980229987555 37.103498489650136 25.662647968156488
80.41671563962615 5.44923405229326 44.97584235471983 29.991639232613053
90.8241850807517 5.072350107363294 52.04094566451148 33.710889308876965
95.48963401305691 4.138484111539458 55.7396089028519 35.61154099866558
90.67142657495482 4.047623891839271 52.62458571756738 33.999216965548186
97.73343841453575 19.358366811018733 47.19075263550825 31.1843189680088
90.67142657495067 4.047623891843393 52.624585717561835 33.99921696554539
95.4896340130224 4.138484111536848 55.739608902830895 35.61154099865466
90.82418508071585 5.072350107376718 52.04094566447891 33.7108893088602
80.41671563957146 5.4492340522925415 44.97584235468467 29.99163923259426
67.89412668773356 5.127980229986748 37.10349848961167 25.662647968135147
55.459990696437835 4.486587540921549 29.563206042246307 21.410197113269973
44.22137520145774 3.837607240945865 22.901624088441686 17.48214387207019
34.4765075252318 3.2676214940660278 17.292131335410843 13.916754695754923
25.90415791023449 2.7806114645652618 12.42053403723757 10.703012408431654
18.582436504837972 2.3592603736242324 8.392431622899846 7.830744508313886
12.480814091695123 1.9775275472534695 5.177693939095607 5.32559260534605
7.654037983493843 1.6167774328075102 2.790014602785844 3.247245947900486
4.1497896578675135 1.2686523667994793 1.212792652931146 1.6683446381368887
1.9646540272822048 0.9289792603801381 0.3969788888815967 0.6386958780204688
0.8111693011947471 0.6091088226619917 0.05489419798763266 0.14716628054512318
0.3900256571739269 0.39069454903190654 -0.0011185203791855293 0.0004496285212058375
0.24414589193996541 0.24468666363254735 -9.686217865003538e-05 -0.00044390951393189404
0.15202123715481378 0.15201526301177032 3.662909033509835e-07 5.607852140109466e-06
0.07033446414425404 0.07033446414425404 0.0 0.0
0.02597067750959562 0.02597067750959562 0.0 0.0
0.01272982532936243 0.01272982532936243 0.0 0.0
0.050062947086087814 0.050062947086087814 0.0 0.0
0.13101741575954218 0.13101741575954218 0.0 0.0
0.24667277201562335 0.24757695379978023 -0.00015310446768547188 -0.0007510773164714254
0.46493747110755446 0.4464057377486739 0.0033908558651863235 0.015140877493694022
1.0928064898044902 0.7202101320411873 0.12127781395548498 0.2513185438078182
2.583833691246637 1.0573519312771724 0.5978631563091321 0.928618603660332
5.272994875592741 1.4144266026297423 1.6875273325577933 2.1710409404052045
9.4296454982004 1.8067996165812634 3.622301998578061 4.000543883041078
15.1282545954675 2.224668230935304 6.515456704674184 6.3881296598580075
22.32202743320516 2.6725345904695716 10.374948490798095 9.274544351937502
31.02743622925935 3.171428649350369 15.252627718656395 12.603379861252597
41.13768372839151 3.7380614482671883 21.053256637118892 16.346365643005445
52.92720522894638 4.386292167069536 28.045835924897798 20.49507713697904
66.1367567402804 5.108705252949809 35.973947256092714 25.054104231237893
80.60598981705901 5.792303699533466 44.860412224792206 29.953273892733364
95.36419731314793 6.070480598770711 54.375879441664885 34.917837272712354
107.57231140556635 5.422205262746707 62.90972044952918 39.2403856932905
113.332595567564 4.1766094642914995 67.58241209127137 41.57357401200108
108.74729116103379 4.256096032041051 64.48307734765639 40.008117781336345
117.55205231677193 22.17867837893577 58.40970023389848 36.96367370393767
108.74729116100302 4.256096032024336 64.48307734764701 40.00811778133169
113.33259556753111 4.176609464299289 67.58241209124407 41.5735740119877
107.57231140551565 5.422205262750757 62.90972044949246 39.24038569327237
95.3641973130785 6.070480598765467 54.375879441622544 34.917837272690484
80.60598981699175 5.792303699534975 44.860412224747265 29.953273892709507
66.13675674021565 5.108705252954921 35.973947256047865 25.054104231212857
52.92720522887932 4.386292167065006 28.045835924858416 20.495077136955906
41.13768372832301 3.738061448263025 21.05325663707921 16.346365642980768
31.027436229203367 3.171428649349382 15.25262771862349 12.603379861230506
22.322027433155245 2.672534590469083 10.374948490769384 9.274544351916783
15.128254595427581 2.224668230931449 6.515456704654038 6.3881296598420905
9.429645498172112 1.8067996165782019 3.6223019985647635 4.000543883029143
5.272994875573939 1.414426602628018 1.6875273325496865 2.1710409403962356
2.5838336912361104 1.0573519312743833 0.5978631563056559 0.9286186036560721
1.0928064898000482 0.7202101320400269 0.12127781395421448 0.2513185438058062
0.46493747110636924 0.4464057377474777 0.003390855865176853 0.01514087749371445
0.24667277201533133 0.2475769537992848 -0.0001531044676746053 -0.0007510773162786655
0.13101741575935322 0.13101741575935322 0.0 0.0
0.050062947085992536 0.050062947085992536 0.0 0.0
0.012729825329355937 0.012729825329355937 0.0 0.0
0.006165011332055185 0.006165011332055185 0.0 0.0
0.034480275534720585 0.034480275534720585 0.0 0.0
0.11383699226292705 0.11383699226292705 0.0 0.0
0.25837866298862233 0.2603438302048824 -0.00034646919841611586 -0.0016186980178438197
0.5737711500192899 0.5106011763418914 0.014621358544318284 0.04854861513308055
1.4508738638329273 0.8318833924055135 0.22184046788065498 0.3971500035467588
3.268510182046437 1.1659045940696808 0.8451036245291036 1.2575019634476508
6.46882657074874 1.557425642966757 2.2168496207456765 2.6945513070363067
11.269043662258825 1.9953120525143655 4.508882775320061 4.7648488344243995
17.84474229756599 2.4769813862292795 7.91096840987829 7.456792501458423
26.19437503208299 3.0031244390391505 12.469039448143768 10.722211144900069
36.26139565136372 3.584537326270882 18.166955391055293 14.509902934037548
48.18977248993112 4.245311527751668 25.16284700170104 18.781613960478396
61.7090817766282 4.980038907181088 33.20008079895601 23.528962070491076
76.99355769097788 5.730102875856462 42.56359426897009 28.69986054615129
93.52224703353866 6.384925593238663 52.95323614759921 34.184085292700786
110.21849173239923 6.668103892216469 63.84087605331723 39.709511786865534
124.39724574712695 5.947641311178206 73.83581759221808 44.613786843730665
131.67786500070238 4.238156378214416 79.94380487236958 47.49590375011838
128.0464961619706 4.374598166002246 77.40520317205365 46.26669482391464
139.1223638045917 24.823111752428346 71.04432082830648 43.25493122385688
128.04649616195704 4.3745981660096716 77.40520317203936 46.26669482390793
131.67786500065864 4.238156378218638 79.94380487233713 47.49590375010287
124.39724574706013 5.94764131117537 73.83581759217503 44.613786843709704
110.21849173232708 6.668103892220678 63.840876053266236 39.70951178684021
93.52224703345846 6.3849255932361215 52.95323614754793 34.184085292674375
76.9935576908914 5.730102875850322 42.5635942689179 28.699860546123197
61.70908177654182 4.980038907170083 33.20008079890795 23.528962070463823
48.18977248986059 4.245311527753805 25.162847001655667 18.781613960451104
36.261395651293185 3.584537326263025 18.16695539101708 14.509902934013098
26.194375032026283 3.0031244390379275 12.469039448111113 10.722211144877248
17.84474229752114 2.476981386225659 7.910968409854938 7.456792501440544
11.26904366222438 1.9953120525101002 4.508882775303867 4.764848834410414
6.468826570727413 1.5574256429651703 2.2168496207358146 2.694551307026427
3.2685101820335967 1.1659045940664634 0.8451036245249598 1.2575019634421734
1.4508738638276146 0.8318833924041862 0.22184046787903972 0.39715000354438895
0.5737711500176315 0.5106011763406758 0.014621358544141877 0.04854861513281378
0.2583786629883332 0.26034383020452617 -0.0003464691984067541 -0.0016186980177861838
0.11383699226264285 0.11383699226264285 0.0 0.0
0.0344802755346624 0.0344802755346624 0.0 0.0
0.00616501133203765 0.00616501133203765 0.0 0.0
0.0029258395939883407 0.0029258395939883407 0.0 0.0
0.023794667636236073 0.023794667636236073 0.0 0.0
0.10452965897330448 0.10452965897330448 0.0 0.0
0.2888860823471402 0.29083001260366015 -0.0006442765350483454 -0.0012996537214717027
0.7398625376953307 0.599832560292126 0.04185302135272309 0.09817695605048152
1.8579001902442775 0.9294289048119853 0.3426431281468351 0.5858281572854573
4.040725747778998 1.2761326086278038 1.1586617163146786 1.6059314228365154
7.708325781806531 1.6953201259089483 2.7800977517414887 3.2329079041560953
13.175370939725827 2.1830055350700355 5.456748869820035 5.535616534835756
20.619742497998747 2.7363287405813654 9.356231660905992 8.527182096511396
30.124529736946677 3.347056044892428 14.605017291884273 12.172456400169967
41.73539582098876 4.027501090492249 21.289006531659325 16.418888198837177
55.22280042763233 4.789112375188255 29.20258502658598 21.231103025858125
70.81286623833638 5.598631896434377 38.64896882214021 26.5652655197618
88.13456772063032 6.373871702282623 49.41529809324886 32.34539792509883
106.53307278220845 6.937007470909033 61.207807166694785 38.38825814460456
124.80870158292161 7.084691453999069 73.37176285519685 44.35224727372572
140.91271231385394 6.584440555355091 84.63722548585952 49.69104627263931
150.35201512821519 4.6052087875149015 92.43713484701354 53.30967149368673
148.73380707253403 4.205456940158664 91.6295669911728 52.89878314120257
162.7017054724434 26.35881417536946 86.00712130421972 50.33576999285417
148.73380707249567 4.20545694014647 91.62956699115479 52.89878314119434
150.352015128162 4.605208787520223 92.4371348469738 53.30967149366796
140.91271231377743 6.584440555353184 84.63722548580881 49.69104627261548
124.80870158284168 7.0846914540043775 73.37176285513924 44.35224727369797
106.53307278210694 6.937007470897948 61.20780716663469 38.38825814457434
88.13456772054109 6.373871702284938 49.41529809318875 32.345397925067374
70.81286623824835 5.598631896436525 38.64896882208204 26.565265519729756
55.22280042754584 4.789112375182146 29.202585026535097 21.23110302582858
41.73539582090998 4.027501090489706 21.28900653161231 16.41888819880797
30.12452973688373 3.3470560448899103 14.60501729184809 12.172456400145743
20.619742497946344 2.7363287405749603 9.356231660879487 8.527182096491892
13.175370939688706 2.1830055350680375 5.456748869800814 5.535616534819848
7.708325781780903 1.6953201259056723 2.780097751730074 3.232907904145161
4.040725747764215 1.276132608626391 1.1586617163084958 1.6059314228293287
1.857900190236959 0.929428904809493 0.3426431281447795 0.5858281572826861
0.739862537693172 0.5998325602912258 0.04185302135226259 0.09817695604968377
0.28888608234670715 0.2908300126030817 -0.0006442765350306949 -0.0012996537213438525
0.10452965897310301 0.10452965897310301 0.0 0.0
0.02379466763617819 0.02379466763617819 0.0 0.0
0.002925839593966971 0.002925839593966971 0.0 0.0
0.000894191666115552 0.000894191666115552 0.0 0.0
0.01736508248721666 0.01736508248721666 0.0 0.0
0.1093146921569888 0.1093146921569888 0.0 0.0
0.35547431753257486 0.35025825284587825 0.0005880997087091173 0.004627964977987576
0.9784869302283332 0.7331143929083779 0.08189734901874983 0.16347518830120567
2.367937930601445 1.1433101643581112 0.4707186855587743 0.7539090806845585
4.927538701837656 1.6129271345400222 1.4245197214942142 1.8900918458034184
9.11795334614607 2.2243367666014806 3.242688281651258 3.650928297893335
15.308629531676758 3.001243978955659 6.182425809833091 6.124959742888016
23.80876895131302 3.9745547604002045 10.493646406923828 9.340567783988972
34.74560405012454 5.164618507590401 16.309561927440637 13.271423615093507
48.01920650052009 6.578378295063121 23.570995941028837 17.869832264428137
63.712656811773314 8.19332396818631 32.43453647153066 23.08479637205634
81.66961398524289 9.95073289918021 42.85802717055115 28.86085391551152
101.41122940209877 11.611686698284085 54.7148636462293 35.08467905758533
121.91284710655152 12.772817565670081 67.61598361274481 41.52404592813666
141.46521294559648 12.988766469796845 80.66652980573396 47.809916670065704
158.07712399804743 12.17436650556105 92.54632060594393 53.35643688654245
169.6808328342963 10.942434525445314 101.3568123114318 57.381585997419236
165.62776393713654 4.290893828345235 103.09159605733 58.24527405146129
231.21049893056818 74.0647450762657 100.31967938839895 56.826074465903616
165.62776393710513 4.290893828346514 103.09159605730751 58.24527405145112
169.68083283425287 10.942434525467498 101.35681231138629 57.38158599739893
158.0771239979572 12.174366505554604 92.54632060588695 53.356436886515795
141.46521294548228 12.988766469775225 80.6665298056713 47.80991667003582
121.91284710644105 12.772817565660937 67.61598361267679 41.52404592810322
101.41122940199163 11.611686698274843 54.71486364616467 35.08467905755215
81.66961398514853 9.950732899184827 42.85802717048667 28.860853915477055
63.71265681167415 8.193323968175674 32.4345364714743 23.084796372024194
48.01920650044052 6.5783782950688945 23.57099594097573 17.869832264395875
34.74560405004908 5.164618507579212 16.30956192740177 13.271423615068109
23.808768951254706 3.974554760392696 10.493646406894177 9.340567783967838
15.308629531634214 3.0012439789511243 6.182425809811953 6.124959742871141
9.117953346116856 2.2243367665973564 3.2426882816381886 3.650928297881311
4.927538701821772 1.6129271345397362 1.424519721486797 1.8900918457952405
2.367937930592782 1.143310164355508 0.4707186855563213 0.7539090806809527
0.9784869302251855 0.7331143929072789 0.08189734901797649 0.16347518829993027
0.3554743175318844 0.35025825284519685 0.0005880997087100519 0.0046279649779773675
0.10931469215670275 0.10931469215670275 0.0 0.0
0.017365082487163407 0.017365082487163407 0.0 0.0
0.0008941916660947149 0.0008941916660947149 0.0 0.0
CELL_DATA 800
SCALARS Stress float 6
LOOKUP_TABLE default
164.89061695475425 -516.8821757012722 -181.91025627837234 -109.29932477777285 0.0 0.0
401.34804764016354 -66.3554034159079 116.04215643581139 56.04977527258376 0.0 0.0
406.81960868572406 9.295907286483367 124.63846878675751 -3.1785274530508576 0.0 0.0
466.2221331128165 -12.949923234298936 143.82168122779422 -14.815132844685223 0.0 0.0
542.5203569574452 -18.519892318562682 197.75684576648456 -11.600727903229975 0.0 0.0
615.5384185318194 -13.589489307467225 269.47803387658064 -10.114709159335142 0.0 0.0
686.3031026859953 -7.007593392224592 327.48390024891256 -10.553684418481739 0.0 0.0
757.5605921606792 7.3943547970797 377.1556817646813 -12.095273706490605 0.0 0.0
831.1172428976103 29.548795832361833 426.9057295040383 -13.73107090179057 0.0 0.0
906.9549452229833 58.592014142914564 480.0443755195886 -14.85600883909594 0.0 0.0
983.5985732034464 92.36709192303836 535.6823164875148 -15.342962954140145 0.0 0.0
1059.726333236268 129.63562778922892 592.7001465878387 -15.279556648261243 0.0 0.0
1135.3523569126614 169.1188914085948 650.4784670908498 -15.06554236782019 0.0 0.0
1211.3206651376358 211.40609105134257 709.7552275065544 -14.770487812313466 0.0 0.0
1288.2625308475629 257.2128744251245 771.2360264849093 -14.26555937448096 0.0 0.0
1365.5323025755663 306.12191960720645 834.4078159566104 -13.358989317701383 0.0 0.0
1440.7891110461242 356.3893951488781 897.2405253588813 -11.898369228318664 0.0 0.0
1511.2707693419868 406.00954781356995 957.3390839027957 -10.076754860697744 0.0 0.0
1575.4415485275058 454.4020472544272 1013.5886064360732 -9.178497718516184 0.0 0.0
1662.3571505618695 532.6412343050938 1095.6352106024804 -13.983677908182377 0.0 0.0
1662.357150562006 532.6412343052483 1095.6352106026043 13.98367790815382 0.0 0.0
1575.441548527183 454.4020472541364 1013.588606435806 9.178497718589243 0.0 0.0
1511.2707693418333 406.0095478135017 957.3390839025924 10.076754860745748 0.0 0.0
1440.789111045796 356.3893951486534 897.2405253585764 11.898369228300114 0.0 0.0
1365.532302574305 306.121919606053 834.4078159557201 13.358989317633128 0.0 0.0
1288.262530847524 257.2128744252303 771.2360264848152 14.26555937446475 0.0 0.0
1211.3206651389926 211.40609105288962 709.7552275074306 14.770487812426241 0.0 0.0
1135.3523569126783 169.1188914087948 650.478467090831 15.06554236773723 0.0 0.0
1059.7263332357552 129.63562778893998 592.7001465875435 15.27955664821052 0.0 0.0
983.5985732025594 92.36709192238234 535.6823164869762 15.342962954134187 0.0 0.0
906.9549452225538 58.59201414274801 480.0443755192366 14.856008839187526 0.0 0.0
831.1172428972469 29.54879583226554 426.9057295037361 13.731070901708303 0.0 0.0
757.5605921600114 7.394354796667827 377.15568176422676 12.095273706529289 0.0 0.0
686.30310268603 -7.007593391885507 327.48390024887794 10.55368441841497 0.0 0.0
615.5384185318618 -13.589489307122946 269.47803387650686 10.114709159253703 0.0 0.0
542.5203569573698 -18.51989231835315 197.75684576636826 11.60072790307935 0.0 0.0
466.222133112706 -12.949923234089685 143.82168122778737 14.815132844764044 0.0 0.0
406.81960868552454 9.295907286473659 124.63846878669784 3.178527452973266 0.0 0.0
401.3480476402943 -66.35540341564013 116.04215643588667 -56.04977527254792 0.0 0.0
164.89061695536552 -516.8821757006631 -181.91025627780186 109.29932477739808 0.0 0.0
64.75656586069371 -545.2849719846529 -242.5537050070268 -156.7592597519289 0.0 0.0
265.69074022715796 -55.00278345046815 63.26967950111491 10.041380202040827 0.0 0.0
356.520248748232 30.537351763613323 116.11610018902603 -9.891619400377799 0.0 0.0
430.32052031154956 -10.79399443409384 128.43754003345276 -34.848795710116256 0.0 0.0
514.20503193734 -19.01758614216803 175.53010893714816 -32.998652435029854 0.0 0.0
591.7611624472561 -14.560121007422246 248.63683990183176 -29.925224305729458 0.0 0.0
666.2531936805872 -7.758605523151218 312.96354883935294 -30.726131004981614 0.0 0.0
738.5073398580217 6.300467275013695 365.6167575187042 -33.05443959514419 0.0 0.0
810.8295506109491 27.1021133171499 414.96002024109885 -35.55532006559982 0.0 0.0
883.6994274968846 53.60223553984419 465.6169231332385 -36.96657818477499 0.0 0.0
955.9909902080284 83.7677895732409 517.3874713310545 -37.117109977295115 0.0 0.0
1027.239059469983 116.2933324926288 569.6373900808169 -36.488649334937016 0.0 0.0
1097.7203351585365 151.49052471630242 622.7232579663139 -35.610652174695375 0.0 0.0
1168.4169652790397 189.24036516840835 677.1227723481794 -34.61481084964586 0.0 0.0
1239.5796099903314 229.74173343084598 733.0874645852969 -33.26580118376151 0.0 0.0
1310.714241680715 272.8480965845153 790.3095326889697 -31.16259993825509 0.0 0.0
1380.6428041078725 317.88870301767497 847.8613999419204 -28.128965002187094 0.0 0.0
1448.2420993186468 364.5946055085625 905.022750933738 -24.8119748568418 0.0 0.0
1518.5492051981225 419.3060546712966 967.3788158055892 -22.665249690800593 0.0 0.0
1570.8202803753065 462.6441872777543 1015.0384738926862 -21.40217383255618 0.0 0.0
1570.8202803746854 462.6441872771416 1015.0384738922414 21.402173832564955 0.0 0.0
1518.5492051972901 419.3060546705168 967.3788158048998 22.66524969097847 0.0 0.0
1448.242099317823 364.59460550781245 905.0227509330191 24.811974856875445 0.0 0.0
1380.6428041076297 317.88870301753127 847.8613999416565 28.128965002171515 0.0 0.0
1310.7142416800255 272.8480965839408 790.3095326884337 31.16259993827121 0.0 0.0
1239.5796099897846 229.741733430436 733.087464584891 33.26580118373209 0.0 0.0
1168.4169652790604 189.24036516860048 677.1227723482302 34.614810849725885 0.0 0.0
1097.7203351580195 151.49052471596275 622.723257965871 35.610652174626864 0.0 0.0
1027.2390594685826 116.2933324914134 569.6373900797606 36.488649334850834 0.0 0.0
955.9909902079191 83.76778957337865 517.3874713309754 37.1171099774274 0.0 0.0
883.6994274958502 53.60223553903981 465.6169231326424 36.96657818468414 0.0 0.0
810.8295506103474 27.102113316778414 414.9600202407099 35.555320065440924 0.0 0.0
738.5073398584624 6.300467275744566 365.61675751895183 33.05443959509219 0.0 0.0
666.2531936804116 -7.758605523052211 312.9635488391999 30.726131004939514 0.0 0.0
591.761162446942 -14.560121007479232 248.63683990153322 29.92522430566099 0.0 0.0
514.2050319367638 -19.017586142502708 175.53010893676503 32.99865243502924 0.0 0.0
430.3205203114567 -10.7939944338464 128.4375400334836 34.84879570999284 0.0 0.0
356.5202487480442 30.53735176342241 116.11610018891554 9.891619400312091 0.0 0.0
265.6907402272931 -55.00278345005453 63.26967950128257 -10.04138020226417 0.0 0.0
64.75656586101749 -545.2849719843608 -242.55370500670432 156.7592597516299 0.0 0.0
13.336644115577144 -552.611510436837 -265.04150300729316 -171.47713728706734 0.0 0.0
150.63315320301484 -46.0520352407371 31.374335388683313 -44.10832916832078 0.0 0.0
289.86361371597354 34.251303817162736 97.23447525994087 -33.541147031190825 0.0 0.0
383.9485510492412 -2.103509266523022 115.14207641553239 -54.5542445456796 0.0 0.0
476.7768350704873 -17.748360255997362 153.36615902975655 -56.55454542192466 0.0 0.0
564.546815871271 -17.12081274592701 223.32627045340834 -51.55238401498098 0.0 0.0
642.0787043666587 -7.6673008406123095 295.17321697854305 -51.23269655997052 0.0 0.0
715.0730322013312 5.284852164042498 351.17970668893577 -53.928258484548984 0.0 0.0
786.5319574446427 24.733178844929462 400.82415533437927 -56.89538768252762 0.0 0.0
856.3627910176263 48.37656837565288 448.95652778012686 -58.32544213392645 0.0 0.0
924.4475235974185 74.71571142791012 496.85002565588593 -58.09658070412323 0.0 0.0
990.7948480481818 103.18137527755871 544.6804717262394 -56.916037102015835 0.0 0.0
1056.422601159898 133.62457272162914 592.9963813731954 -55.537633709556985 0.0 0.0
1121.6641549096712 166.5793849486423 642.3046700683474 -53.897763186687115 0.0 0.0
1186.8596895209316 201.5873741246708 692.5715181529115 -51.741169075421524 0.0 0.0
1251.926967058599 238.74717533135538 743.8046560097163 -48.66267577460944 0.0 0.0
1316.78315641854 278.62218761197147 796.2266171685419 -44.53148702020123 0.0 0.0
1382.8177970120005 323.58606902540583 851.692694862849 -40.00094416900415 0.0 0.0
1444.9210324445046 369.6653546363421 905.7061327434917 -34.990969925259435 0.0 0.0
1488.8545767760118 403.7068440938917 944.5998024833042 -27.765053370842377 0.0 0.0
1488.8545767763926 403.70684409427264 944.5998024835411 27.765053370801375 0.0 0.0
1444.9210324447176 369.66535463661506 905.7061327436704 34.99096992538563 0.0 0.0
1382.8177970111733 323.5860690246409 851.6926948623226 40.000944169019206 0.0 0.0
1316.7831564180028 278.6221876115248 796.22661716815 44.53148702021423 0.0 0.0
1251.926967058634 238.74717533150567 743.8046560097592 48.66267577463124 0.0 0.0
1186.8596895205897 201.58737412444322 692.5715181526712 51.741169075293364 0.0 0.0
1121.6641549088986 166.5793849480106 642.3046700677174 53.89776318668124 0.0 0.0
1056.4226011600879 133.62457272201058 592.9963813732911 55.53763370952552 0.0 0.0
990.7948480479282 103.18137527751222 544.6804717260409 56.91603710200614 0.0 0.0
924.4475235962393 74.71571142697059 496.8500256550227 58.09658070421126 0.0 0.0
856.3627910167667 48.37656837500333 448.95652777953586 58.32544213382122 0.0 0.0
786.531957444451 24.73317884500669 400.8241553342505 56.89538768253257 0.0 0.0
715.0730322012777 5.284852164275648 351.1797066888855 53.928258484537906 0.0 0.0
642.0787043663431 -7.667300840596866 295.17321697827487 51.23269656004794 0.0 0.0
564.5468158707909 -17.120812746133815 223.3262704530167 51.55238401494029 0.0 0.0
476.7768350702657 -17.748360255879543 153.36615902963484 56.55454542191975 0.0 0.0
383.94855104883266 -2.1035092668250446 115.14207641533737 54.55424454571223 0.0 0.0
289.8636137159426 34.25130381716167 97.23447525993129 33.54114703125487 0.0 0.0
150.63315320317173 -46.05203524037094 31.37433538884023 44.10832916813716 0.0 0.0
13.336644115765495 -552.6115104365306 -265.04150300700684 171.47713728693788 0.0 0.0
-6.008402442454411 -540.0910395788515 -260.606959974356 -173.61234072956415 0.0 0.0
87.57391664918921 -44.83802704148661 12.820766882310778 -89.93410863338525 0.0 0.0
226.74747033563676 31.418621339151514 77.44982750243648 -65.02402816452526 0.0 0.0
331.44579855115825 5.9388423789953455 101.23475487615191 -75.9637304309412 0.0 0.0
429.6406138900977 -15.41950455613491 131.50996480209258 -82.31069003455953 0.0 0.0
526.8320985149046 -17.832788366438066 194.9761623863077 -75.12737190761813 0.0 0.0
611.0976115597259 -8.884854233915412 271.10833410942405 -72.49579376509824 0.0 0.0
687.0466957004832 4.878982024764419 333.5612031122341 -74.82528774793285 0.0 0.0
757.3980443206754 22.214769028219607 383.76226304039415 -77.7199695288843 0.0 0.0
824.4081894685605 42.926212174769425 429.7226811670026 -78.93986438440594 0.0 0.0
888.491959625741 65.54278786680706 473.98015305055867 -78.28954184546524 0.0 0.0
950.348944852351 89.82182520187044 517.5571706181775 -76.64481214970219 0.0 0.0
1010.7418723066653 115.76253818273068 561.0508581972697 -74.76498824871047 0.0 0.0
1070.7909315391962 143.6950115831256 605.2933027828562 -72.59447437723115 0.0 0.0
1130.122510706182 172.98873209029247 649.8080399868485 -69.75217621905024 0.0 0.0
1188.8485044205827 204.19276060191604 694.9140970086621 -65.9077344108155 0.0 0.0
1248.772206911001 238.92012489032905 742.2921305237523 -61.04998213594532 0.0 0.0
1309.6958628068621 278.1912115840477 792.3670044674744 -55.18641035778455 0.0 0.0
1366.4056468685287 317.7651579903687 840.4531738202593 -47.08539907828394 0.0 0.0
1407.4228132498693 347.19124013153123 875.593116729424 -34.48317400788107 0.0 0.0
1407.4228132500623 347.1912401317668 875.5931167295494 34.48317400803933 0.0 0.0
1366.4056468689305 317.7651579908404 840.4531738205487 47.085399078424636 0.0 0.0
1309.6958628074744 278.19121158475485 792.3670044679423 55.186410357882664 0.0 0.0
1248.7722069106546 238.92012489007084 742.29213052343 61.04998213597668 0.0 0.0
1188.8485044200622 204.1927606015321 694.9140970081573 65.90773441091756 0.0 0.0
1130.1225107060072 172.98873209026755 649.8080399865403 69.75217621906152 0.0 0.0
1070.7909315383629 143.69501158246547 605.2933027822144 72.59447437732747 0.0 0.0
1010.7418723066298 115.76253818287006 561.0508581972562 74.76498824867545 0.0 0.0
950.3489448528816 89.82182520264607 517.5571706185358 76.64481214978363 0.0 0.0
888.4919596258173 65.542787867116 473.98015305058675 78.28954184548343 0.0 0.0
824.4081894684364 42.926212174869676 429.7226811668984 78.9398643843428 0.0 0.0
757.3980443208745 22.214769028718507 383.76226304048674 77.71996952896495 0.0 0.0
687.0466956999454 4.878982024527758 333.5612031118647 74.82528774797092 0.0 0.0
611.0976115594137 -8.884854233891538 271.1083341091388 72.49579376513216 0.0 0.0
526.8320985145552 -17.832788366401594 194.97616238604806 75.12737190767126 0.0 0.0
429.64061388984635 -15.419504555997655 131.50996480200905 82.31069003448769 0.0 0.0
331.44579855105434 5.938842379147389 101.23475487617313 75.96373043079032 0.0 0.0
226.74747033564796 31.41862133907091 77.44982750241564 65.02402816435873 0.0 0.0
87.57391664926928 -44.83802704125709 12.820766882403657 89.93410863322299 0.0 0.0
-6.008402442354608 -540.091039578539 -260.6069599740854 173.61234072949648 0.0 0.0
-10.280850817453597 -516.0650772252272 -241.4075762329572 -171.2324110012126 0.0 0.0
52.09559690508025 -44.79073062047673 2.191459885381054 -125.61446415430939 0.0 0.0
172.4762615192816 25.705017439601356 59.45438368766487 -96.76282147206368 0.0 0.0
275.8235587005137 10.830003213851167 85.99982141229773 -98.85588791975702 0.0 0.0
372.2308760354048 -10.6233218123654 111.04091732783439 -107.89656837734583 0.0 0.0
477.94023288362 -17.870779910541607 164.41578379135711 -101.89998359967458 0.0 0.0
572.6618504603944 -10.532671958921583 240.98423835930987 -95.53697740725002 0.0 0.0
652.6961256157099 4.006760138346209 310.60663848943136 -95.77855515774104 0.0 0.0
722.781932933444 19.79530216876612 363.1779613525031 -98.06457343688851 0.0 0.0
787.1723854598915 37.277160068025914 407.45993754414417 -98.86201408311858 0.0 0.0
847.6035259925947 56.23723358884135 448.4474941616759 -97.7259568874383 0.0 0.0
904.856634719155 76.3410308696068 487.7767897736452 -95.61933027416325 0.0 0.0
960.3012612243456 97.728013010843 526.6029423524872 -93.38772381424786 0.0 0.0
1014.6530771486607 120.64230841280676 565.5316853715747 -90.68684692997064 0.0 0.0
1068.3005024484876 144.51949813397084 604.5330388687204 -87.24515577278859 0.0 0.0
1121.4266943980604 169.6772294590735 643.8553396529592 -82.92213657860715 0.0 0.0
1174.7246442501155 197.76414529275246 684.6280758798582 -77.50714495857618 0.0 0.0
1229.577530112286 230.17092563930024 728.2470093700908 -70.47794209744833 0.0 0.0
1282.321570012152 263.9712650509246 771.4628612572326 -59.60942812725927 0.0 0.0
1323.5053046678152 290.9951306199485 805.4653789856629 -42.1320668352992 0.0 0.0
1323.5053046684131 290.9951306206019 805.4653789860633 42.13206683553403 0.0 0.0
1282.3215700128198 263.9712650516721 771.462861257636 59.609428127394736 0.0 0.0
1229.5775301114172 230.17092563854158 728.2470093694467 70.47794209761295 0.0 0.0
1174.7246442497558 197.76414529252912 684.6280758795269 77.5071449587495 0.0 0.0
1121.426694397418 169.67722945857253 643.8553396525677 82.92213657868803 0.0 0.0
1068.3005024481838 144.5194981337848 604.5330388686093 87.24515577276935 0.0 0.0
1014.6530771488983 120.64230841319915 565.5316853717407 90.68684692994384 0.0 0.0
960.301261223464 97.72801301009761 526.6029423518578 93.3877238142177 0.0 0.0
904.8566347182335 76.34103086888112 487.776789772937 95.6193302741816 0.0 0.0
847.6035259919333 56.23723358834758 448.44749416115843 97.72595688733742 0.0 0.0
787.1723854586473 37.277160066963134 407.4599375433256 98.86201408304807 0.0 0.0
722.7819329328541 19.79530216844232 363.177961352112 98.06457343685958 0.0 0.0
652.6961256157949 4.006760138793595 310.60663848943324 95.77855515780854 0.0 0.0
572.6618504603115 -10.532671958649537 240.98423835916967 95.53697740728262 0.0 0.0
477.94023288343624 -17.870779910226688 164.41578379122564 101.89998359968517 0.0 0.0
372.23087603519474 -10.623321812224054 111.04091732780593 107.89656837725397 0.0 0.0
275.8235587002707 10.83000321374763 85.99982141220013 98.8558879196687 0.0 0.0
172.47626151940167 25.705017439689428 59.45438368772733 96.76282147181175 0.0 0.0
52.09559690530923 -44.79073062000648 2.191459885590824 125.61446415408734 0.0 0.0
-10.280850817406758 -516.0650772249516 -241.40757623270696 171.23241100110255 0.0 0.0
-7.750897701659525 -484.3292314556587 -213.80737483014644 -167.62003846372386 0.0 0.0
30.723914445717995 -44.2225094724314 -4.0495785080140205 -152.18744196805636 0.0 0.0
126.22182889666237 19.208366193658442 43.62905852709625 -124.77465947398667 0.0 0.0
219.5673404363194 12.766837992842866 69.69627707016512 -121.81685307130972 0.0 0.0
308.37155997726825 -4.540481141258449 91.93860779321304 -131.4293982763842 0.0 0.0
412.9869420711097 -16.684452755238873 132.58669932520155 -131.02569760799864 0.0 0.0
519.4597859368456 -11.101691532895378 204.27952223887854 -121.38780675320005 0.0 0.0
607.923787362867 1.7881921848131022 278.92649144780177 -117.72589242516747 0.0 0.0
681.0315674467955 17.029938395225315 337.2441784156846 -118.1938439840853 0.0 0.0
743.5412224290309 31.60457052500856 381.33894200772556 -118.10124338730198 0.0 0.0
800.2730218959864 46.7082555431321 419.31598381929155 -116.42969074719535 0.0 0.0
853.2629001564057 62.8031161577393 454.7924690168861 -113.89070984747534 0.0 0.0
903.5680177701104 79.74242903319914 488.96148181237766 -111.28564271076388 0.0 0.0
952.3692804747736 97.42776202582778 522.5757359983207 -108.29182578011404 0.0 0.0
1000.6338744165414 116.06294137068028 556.2993943413144 -104.38937664597464 0.0 0.0
1047.5980098244547 135.59806624499225 589.7806638052518 -99.4851572730044 0.0 0.0
1093.9449204941266 156.03264016905507 623.3191725806747 -93.75262479952367 0.0 0.0
1141.5927467628817 179.98215949461462 659.1322716574344 -86.06118217739962 0.0 0.0
1190.6036694937914 207.8453133182283 697.4875472969612 -73.0764626608156 0.0 0.0
1234.3478635289312 233.75359292410906 732.1551685563269 -51.32921889803186 0.0 0.0
1234.3478635283873 233.75359292359371 732.1551685560255 51.32921889816447 0.0 0.0
1190.6036694936838 207.8453133181273 697.4875472969842 73.07646266081272 0.0 0.0
1141.592746763089 179.98215949495392 659.1322716577176 86.0611821775854 0.0 0.0
1093.9449204943262 156.0326401693905 623.3191725808506 93.75262479968438 0.0 0.0
1047.5980098243192 135.59806624496127 589.7806638051259 99.48515727302998 0.0 0.0
1000.6338744161665 116.06294137046896 556.2993943410186 104.38937664604376 0.0 0.0
952.3692804748958 97.42776202611026 522.5757359983063 108.29182578013686 0.0 0.0
903.5680177704311 79.74242903371749 488.9614818125363 111.28564271079792 0.0 0.0
853.2629001556742 62.80311615718321 454.79246901639465 113.89070984748538 0.0 0.0
800.2730218954105 46.708255542793694 419.31598381886954 116.42969074723692 0.0 0.0
743.5412224285863 31.6045705248182 381.3389420073533 118.10124338730068 0.0 0.0
681.0315674466412 17.029938395338803 337.2441784155173 118.19384398405046 0.0 0.0
607.9237873624583 1.7881921846818685 278.9264914474469 117.7258924251415 0.0 0.0
519.4597859366113 -11.1016915327384 204.2795222386437 121.38780675318151 0.0 0.0
412.98694207065716 -16.68445275533383 132.5866993249513 131.02569760792963 0.0 0.0
308.37155997692037 -4.540481141502947 91.93860779304902 131.4293982761884 0.0 0.0
219.56734043614912 12.766837992873306 69.6962770701246 121.81685307118443 0.0 0.0
126.22182889669706 19.208366193661107 43.629058527107446 124.77465947374327 0.0 0.0
30.723914445800727 -44.22250947223124 -4.049578507929152 152.18744196783433 0.0 0.0
-7.750897701605297 -484.3292314554047 -213.80737482990145 167.62003846362506 0.0 0.0
-2.1719657058231405 -446.4474608764542 -181.3879177053712 -164.12748837053357 0.0 0.0
15.765088601295929 -43.7190395103595 -8.386241855944528 -170.81497537057157 0.0 0.0
85.54488523072942 13.071819029392024 29.585011278036426 -147.4255257594789 0.0 0.0
163.6851158663735 13.855973359719147 53.259203190140624 -142.901323516805 0.0 0.0
240.88005366642093 0.39914792194806825 72.77491725471322 -152.2514354991699 0.0 0.0
335.0817963585569 -12.584920104033468 102.22331902792294 -159.5875114514573 0.0 0.0
447.6080406175159 -11.558281726196599 161.51742311392482 -150.9332235521198 0.0 0.0
548.0972927205356 -0.17922119204851938 237.0758878465061 -141.85982565388898 0.0 0.0
627.2557814446109 13.137160368365352 301.6261678497405 -138.70661312077416 0.0 0.0
690.7276965463547 25.725436381590548 348.97083257203553 -136.8871906242458 0.0 0.0
744.1827923924161 36.974397313594366 385.02151435292876 -134.43286325026713 0.0 0.0
793.1048610511532 49.27794827901536 417.2168404966202 -131.45851083813253 0.0 0.0
838.3424542083751 61.752011852436695 446.91317566335044 -128.53540346949558 0.0 0.0
881.2895048645474 74.4191040713647 475.2584587274255 -125.33042002946819 0.0 0.0
923.4609794153998 87.48879799029028 503.20423900271544 -121.21050934503154 0.0 0.0
965.7206792609143 101.87502156249661 531.8028568128141 -115.81660771762711 0.0 0.0
1004.8189783893183 114.96766381073962 558.1655982813596 -109.5330834517864 0.0 0.0
1043.2142385595137 128.6499574171885 584.2923714362719 -101.7950164532505 0.0 0.0
1087.704542465771 148.42637779500782 616.2906648594573 -88.00660721438109 0.0 0.0
1136.405222259609 173.93845554644554 653.1169585875261 -62.99252877497424 0.0 0.0
1136.4052222594228 173.93845554632563 653.1169585873357 62.992528775235016 0.0 0.0
1087.7045424644728 148.42637779373928 616.290664858431 88.00660721449194 0.0 0.0
1043.214238559865 128.64995741774726 584.2923714364613 101.79501645356058 0.0 0.0
1004.8189783887464 114.96766381035837 558.1655982809117 109.53308345201066 0.0 0.0
965.7206792604427 101.87502156214657 531.8028568124518 115.81660771759806 0.0 0.0
923.4609794154037 87.48879799034873 503.20423900276296 121.21050934492962 0.0 0.0
881.2895048642952 74.41910407129154 475.2584587273669 125.33042002953157 0.0 0.0
838.3424542081339 61.75201185225785 446.91317566319566 128.53540346941935 0.0 0.0
793.1048610502235 49.27794827817479 417.2168404959779 131.45851083802327 0.0 0.0
744.182792392624 36.97439731400428 385.02151435304165 134.432863250243 0.0 0.0
690.7276965470098 25.725436382665976 348.97083257249676 136.88719062437056 0.0 0.0
627.255781444987 13.137160369163396 301.62616784997647 138.70661312085144 0.0 0.0
548.0972927205828 -0.17922119151763383 237.07588784648317 141.859825653968 0.0 0.0
447.60804061684524 -11.558281726572435 161.51742311346538 150.9332235520525 0.0 0.0
335.08179635803845 -12.584920104404462 102.22331902761879 159.58751145122213 0.0 0.0
240.8800536662495 0.3991479219047207 72.77491725465048 152.25143549896123 0.0 0.0
163.68511586628912 13.855973359760076 53.25920319012857 142.90132351664522 0.0 0.0
85.54488523076625 13.07181902954201 29.585011278092473 147.42552575939771 0.0 0.0
15.765088601333346 -43.71903951018346 -8.386241855880428 170.8149753704738 0.0 0.0
-2.171965705852621 -446.44746087619745 -181.38791770514993 164.1274883704817 0.0 0.0
2.847919781063929 -403.87886354576756 -148.6595197156043 -161.53318528491656 0.0 0.0
1.8151025008691257 -43.85849136853405 -12.612345632754561 -181.72557457179016 0.0 0.0
48.35876389787533 8.144948814073617 16.950710742337137 -164.6932516532359 0.0 0.0
109.05443986241112 15.063512870397291 37.23461225156683 -160.46657694748137 0.0 0.0
171.07625856453205 3.5140304553381974 52.61250138090503 -170.6276436369798 0.0 0.0
244.39045811796706 -6.1832163500420965 73.68415393595595 -182.50913166565445 0.0 0.0
348.91435079999894 -9.731348539525321 115.31522736000622 -182.92928557922792 0.0 0.0
462.87741600835966 -2.0474374963791435 182.56008571258997 -170.40999742424495 0.0 0.0
553.8643015055047 8.662047884795307 250.89638567651895 -161.03633686737257 0.0 0.0
621.0659702354066 19.022501008208174 303.82374568496175 -155.70070535980872 0.0 0.0
673.8999498558751 26.961820589427155 341.3867456729457 -152.04649748583023 0.0 0.0
718.6393032454932 35.53555015321453 371.35389411552774 -148.40495419177537 0.0 0.0
758.8666838514357 44.02282022903003 397.3948847555642 -145.09736819189087 0.0 0.0
795.8462184583127 51.69050745129298 420.6911982091135 -141.78634139381435 0.0 0.0
831.7176679532163 59.12983761328958 442.88750178821 -137.79434668963938 0.0 0.0
868.3433868517116 67.75007809756053 465.8088511170587 -132.09385698537574 0.0 0.0
903.6827007106826 75.90156279611652 487.91741719948413 -124.90674365926768 0.0 0.0
931.7916085450141 78.25099608999768 503.49242453226077 -117.1671559522465 0.0 0.0
966.2049314627249 84.67976201319449 523.7193983202237 -104.48124659808694 0.0 0.0
1021.4169420126998 109.11098290705046 562.9799233991433 -78.44111853908285 0.0 0.0
1021.4169420115859 109.11098290596959 562.9799233983994 78.44111853931152 0.0 0.0
966.2049314613021 84.67976201189845 523.7193983193979 104.48124659827693 0.0 0.0
931.7916085443179 78.25099608932106 503.49242453181785 117.16715595238725 0.0 0.0
903.6827007104674 75.90156279601553 487.91741719935584 124.90674365932509 0.0 0.0
868.343386851223 67.75007809724852 465.80885111668 132.09385698552387 0.0 0.0
831.717667952682 59.12983761285733 442.887501787715 137.79434668961684 0.0 0.0
795.8462184570196 51.69050745013445 420.69119820827154 141.7863413938986 0.0 0.0
758.8666838512132 44.02282022900883 397.394884755378 145.0973681920405 0.0 0.0
718.6393032449197 35.53555015282309 371.3538941151435 148.4049541917471 0.0 0.0
673.8999498543723 26.961820587881945 341.3867456719174 152.04649748560863 0.0 0.0
621.0659702346137 19.0225010074802 303.8237456843587 155.70070535961426 0.0 0.0
553.8643015051471 8.662047884591217 250.89638567619428 161.03633686730385 0.0 0.0
462.8774160077639 -2.0474374967292235 182.56008571214093 170.40999742415198 0.0 0.0
348.91435079972325 -9.73134853924071 115.31522735992097 182.92928557922787 0.0 0.0
244.39045811773616 -6.183216349953886 73.68415393590439 182.50913166547863 0.0 0.0
171.0762585644472 3.514030455340529 52.61250138088349 170.62764363680793 0.0 0.0
109.05443986242429 15.063512870514984 37.23461225160944 160.46657694717396 0.0 0.0
48.358763897779085 8.14494881400934 16.950710742289495 164.69325165297465 0.0 0.0
1.815102500876533 -43.85849136842296 -12.612345632720396 181.72557457151902 0.0 0.0
2.847919781098959 -403.878863545496 -148.659519715395 161.53318528479028 0.0 0.0
3.161283676876394 -357.38721996292736 -120.06851590120888 -158.00349124023387 0.0 0.0
-14.801809739278069 -45.80140359311096 -18.179692622282815 -187.31639218533746 0.0 0.0
13.512773999446248 5.264254391659506 5.632812675474748 -176.80947932983037 0.0 0.0
55.96080593757918 16.14275119455609 21.63020190100523 -173.93946987742643 0.0 0.0
99.32422979864712 7.099496622193871 32.08107673801546 -184.28696748311089 0.0 0.0
147.61072132190867 -1.5923477932784869 44.83589338091012 -199.85427966776734 0.0 0.0
220.93776759415385 -4.040102815228986 69.53771066539107 -209.2544394427672 0.0 0.0
329.2514823507832 -1.753833449511756 115.1540917207804 -203.67811317176313 0.0 0.0
437.50951645134046 4.706540535999098 176.13277252975894 -188.62523904460735 0.0 0.0
515.7984521411822 11.071869820707125 231.99236150500286 -176.46832775482088 0.0 0.0
570.8731680831091 17.05291311443198 274.572094564713 -169.66487422906044 0.0 0.0
612.7811060585419 21.428344262960408 305.1761250206738 -165.02709994905584 0.0 0.0
648.3250698473922 26.281705435840237 329.86731616596694 -161.14050413094634 0.0 0.0
679.2154625307904 29.56494730900704 349.6771790774724 -157.56819634962014 0.0 0.0
707.8801069659456 31.334856343433188 366.42182840631847 -153.75408920329897 0.0 0.0
737.5356478174374 33.034448316171236 382.81893500000956 -148.55540551931145 0.0 0.0
771.0194949018355 36.497983995319345 401.5977677676036 -140.52270262696706 0.0 0.0
798.8837388819484 34.729162328768126 415.341062857428 -131.22243301059083 0.0 0.0
813.9566346776348 17.30751425283816 414.40076589782154 -121.39194853441201 0.0 0.0
872.7331287093338 33.321608008046496 450.42719856544517 -99.88201808341445 0.0 0.0
872.7331287091937 33.321608007936845 450.4271985654012 99.88201808352602 0.0 0.0
813.9566346782851 17.307514253698514 414.4007658982798 121.3919485347686 0.0 0.0
798.8837388820119 34.72916232915429 415.3410628574573 131.22243301102944 0.0 0.0
771.0194949012746 36.49798399491806 401.59776776721174 140.52270262715683 0.0 0.0
737.5356478179799 33.03444831680295 382.8189350004294 148.55540551931165 0.0 0.0
707.8801069666172 31.33485634429968 366.42182840682176 153.75408920329252 0.0 0.0
679.2154625309086 29.564947309324253 349.6771790774882 157.56819634970032 0.0 0.0
648.3250698472423 26.281705435813905 329.8673161658538 161.1405041310016 0.0 0.0
612.7811060581846 21.42834426260768 305.1761250203451 165.0270999490524 0.0 0.0
570.8731680830771 17.052913114930618 274.5720945647325 169.66487422925053 0.0 0.0
515.7984521410908 11.07186982097231 231.9923615049124 176.46832775481244 0.0 0.0
437.5095164511219 4.706540536230797 176.1327725296487 188.62523904471925 0.0 0.0
329.2514823507861 -1.75383344863873 115.15409172094535 203.67811317190603 0.0 0.0
220.9377675937828 -4.040102815188212 69.53771066527733 209.25443944270395 0.0 0.0
147.6107213216732 -1.5923477935243113 44.835893380766905 199.8542796675618 0.0 0.0
99.32422979855842 7.099496621992728 32.08107673793061 184.28696748290633 0.0 0.0
55.96080593769739 16.142751194905685 21.630201901148045 173.93946987713946 0.0 0.0
13.512773999618108 5.264254392160092 5.6328126756766 176.80947932960535 0.0 0.0
-14.80180973940604 -45.801403593248686 -18.17969262236405 187.31639218528125 0.0 0.0
3.1612836768530066 -357.3872199626299 -120.0685159010535 158.0034912401483 0.0 0.0
-2.394453130853133 -307.83060888792625 -97.08066919812369 -151.13826841840734 0.0 0.0
-33.72608018792779 -49.68985344383718 -25.0224466854179 -190.01547745503848 0.0 0.0
-19.70958476252592 4.304993844482248 -4.622136291505219 -184.32027845232773 0.0 0.0
4.33854025696753 17.072730135630636 6.426327590428811 -182.66060643386598 0.0 0.0
27.161857655141254 11.059411930599772 11.516896436212651 -192.46445422235476 0.0 0.0
47.57324643326695 2.908596841696616 15.481373921577147 -209.53852092857983 0.0 0.0
73.77519192006753 -0.45099433540427913 23.16416974220578 -224.50297529858534 0.0 0.0
118.84942743992396 0.5105308664725108 38.86178411335417 -229.0139515606583 0.0 0.0
190.80230176290047 4.148833053856524 66.08475662136739 -218.73589403315555 0.0 0.0
267.3655878742011 6.02228959780771 99.56071395718634 -203.27652083534224 0.0 0.0
332.1149134324322 8.696272790320108 135.8417519495314 -190.2846107035322 0.0 0.0
380.27203906970254 8.58100307034708 166.95294843074868 -182.4873480006353 0.0 0.0
413.2783864323929 9.451374267759007 191.88904191293165 -176.5094940930433 0.0 0.0
438.39034007049816 8.120179283357984 210.96986754904484 -171.91731056708835 0.0 0.0
461.1700352478525 4.383649455881226 225.98163550189767 -167.93513625990204 0.0 0.0
488.1486945899306 -1.4744353117212654 239.80726537429192 -163.7039028733317 0.0 0.0
524.6281630964894 -6.206089204847331 256.8327911800809 -156.975985130987 0.0 0.0
571.5295877222055 -6.772390103342275 280.3607039812409 -145.76086648164681 0.0 0.0
597.7628550329813 -31.96998531594639 282.8663344403368 -133.41984071153774 0.0 0.0
628.1229722455621 -73.94055487206703 274.51838600621846 -126.5736627151315 0.0 0.0
628.1229722456359 -73.94055487170874 274.518386006337 126.57366271548136 0.0 0.0
597.7628550325371 -31.96998531629862 282.8663344400962 133.41984071196043 0.0 0.0
571.5295877217651 -6.772390103914859 280.3607039809218 145.76086648190253 0.0 0.0
524.6281630964213 -6.206089204594406 256.8327911801597 156.97598513115076 0.0 0.0
488.1486945889213 -1.4744353131663956 239.80726537347238 163.70390287320782 0.0 0.0
461.1700352475303 4.3836494555665695 225.98163550167476 167.93513625996167 0.0 0.0
438.3903400703285 8.120179282750541 210.96986754882266 171.9173105670489 0.0 0.0
413.2783864326985 9.451374268152165 191.88904191310795 176.50949409327163 0.0 0.0
380.2720390704731 8.581003071609231 166.95294843129713 182.48734800065995 0.0 0.0
332.11491343256307 8.696272791069333 135.84175194971976 190.284610703584 0.0 0.0
267.36558787390345 6.022289597492332 99.56071395695292 203.27652083521207 0.0 0.0
190.80230176287708 4.1488330541890015 66.08475662143294 218.73589403320946 0.0 0.0
118.84942743967078 0.5105308662022292 38.86178411318375 229.01395156061182 0.0 0.0
73.77519191979377 -0.45099433584356774 23.16416974198901 224.50297529837718 0.0 0.0
47.57324643308297 2.9085968412196213 15.481373921377719 209.53852092836485 0.0 0.0
27.161857654923526 11.059411929920945 11.516896435943478 192.4644542221192 0.0 0.0
4.338540256780577 17.072730135230103 6.426327590253019 182.66060643362482 0.0 0.0
-19.709584762592137 4.304993844313947 -4.622136291576016 184.32027845203297 0.0 0.0
-33.72608018787974 -49.68985344368104 -25.022446685358414 190.0154774549374 0.0 0.0
-2.3944531309263777 -307.83060888762367 -97.08066919803295 151.13826841828626 0.0 0.0
-14.422333157055334 -258.33706810596846 -82.10790430608263 -140.5023255035296 0.0 0.0
-51.43407809496095 -52.23812528982967 -31.10261806156892 -190.04930559612413 0.0 0.0
-51.75045185510264 3.9226981575633837 -14.357692608112215 -187.7683589258205 0.0 0.0
-45.73458915392688 17.87884411984125 -8.375914752692804 -186.4923698749754 0.0 0.0
-44.15855381563422 14.906916256734403 -8.844514041444931 -194.654435458173 0.0 0.0
-53.39180437853496 7.534207519183832 -14.122264537382243 -210.49653019601868 0.0 0.0
-75.95335269890187 2.639890623830005 -23.19546446432402 -224.6359144412878 0.0 0.0
-119.49182346445139 -0.10688914748986811 -38.94641389477651 -229.1787605212316 0.0 0.0
-190.62943368229224 -3.9906703949376876 -65.97862243899294 -218.81220853487477 0.0 0.0
-267.1259852925955 -5.864894858995616 -99.42578236232794 -203.25527059080258 0.0 0.0
-332.2719469807544 -7.5357292281087425 -135.38507116187048 -190.18385076903823 0.0 0.0
-381.68069627361973 -6.977975122642832 -166.93134558842308 -182.046229883117 0.0 0.0
-417.3773895007699 -8.831539625754274 -193.37916597300415 -175.9690615452242 0.0 0.0
-444.800306668422 -13.302684585700064 -216.11307078843348 -172.12317116177553 0.0 0.0
-463.95675981177567 -21.518963188306316 -235.86385062427559 -170.52296258592196 0.0 0.0
-472.30648572475167 -32.77885066034119 -251.83488594223576 -170.7763605062924 0.0 0.0
-460.5641794921406 -44.837800948103876 -260.33738146863436 -171.4341398757889 0.0 0.0
-399.481597204149 -40.455309805721896 -245.98071008984084 -171.52102037517625 0.0 0.0
-216.93182921751918 -35.463030305058766 -182.41078253823898 -174.21920084872383 0.0 0.0
-4.689855853996562 -175.19291947773482 -67.70676230129536 -157.4888026488689 0.0 0.0
-4.689855853786526 -175.19291947749673 -67.70676230117698 157.48880264926532 0.0 0.0
-216.93182921668847 -35.4630303034414 -182.41078253752275 174.2192008492142 0.0 0.0
-399.4815972041765 -40.455309805589025 -245.98071008983425 171.52102037544006 0.0 0.0
-460.5641794914628 -44.83780094712549 -260.33738146805507 171.43413987589116 0.0 0.0
-472.30648572369233 -32.77885065895492 -251.8348859414082 170.7763605061569 0.0 0.0
-463.9567598109208 -21.51896318717141 -235.86385062358636 170.52296258584818 0.0 0.0
-444.800306668136 -13.30268458581034 -216.11307078827713 172.12317116184101 0.0 0.0
-417.37738950152163 -8.831539627509912 -193.379165973648 175.96906154554705 0.0 0.0
-381.68069627341674 -6.977975123382464 -166.93134558846958 182.04622988315458 0.0 0.0
-332.27194697995657 -7.535729227584113 -135.38507116133377 190.18385076897943 0.0 0.0
-267.125985291859 -5.864894858957214 -99.42578236199247 203.25527059076796 0.0 0.0
-190.62943368142177 -3.9906703942254254 -65.97862243849406 218.81220853501645 0.0 0.0
-119.49182346406508 -0.10688914743762012 -38.9464138946322 229.17876052122455 0.0 0.0
-75.95335269844864 2.6398906242346847 -23.19546446405783 224.63591444113092 0.0 0.0
-53.39180437804076 7.534207520084847 -14.122264536959477 210.4965301958215 0.0 0.0
-44.15855381545967 14.906916256880475 -8.844514041349202 194.65443545791823 0.0 0.0
-45.73458915393512 17.878844119754422 -8.375914752722636 186.49236987477383 0.0 0.0
-51.750451855150295 3.9226981572822215 -14.357692608213604 187.76835892562167 0.0 0.0
-51.434078095047305 -52.23812529009333 -31.102618061676864 190.04930559597474 0.0 0.0
-14.422333157087753 -258.3370681058272 -82.10790430606916 140.50232550327016 0.0 0.0
-24.13895402318249 -211.03556221300934 -70.5491972528892 -127.45786163130506 0.0 0.0
-66.21978605536866 -51.80183828250096 -35.40851860621353 -186.3424574392361 0.0 0.0
-82.41120429178612 3.4264661443821383 -23.71663102928192 -187.27307827764452 0.0 0.0
-94.21570036113476 18.48757526982219 -22.757259048416703 -185.53337810333434 0.0 0.0
-113.93528162633159 17.9174483042703 -29.066890306190764 -190.5843439033342 0.0 0.0
-152.3655602919234 11.565230770778872 -43.44016505004715 -202.21715631408202 0.0 0.0
-222.45913129860108 6.142127459971531 -69.50251259460654 -210.21697086939983 0.0 0.0
-329.0892800414041 2.054098211900122 -115.11600605381761 -204.06468061423988 0.0 0.0
-437.17312965026713 -4.598921218662532 -175.97834631857523 -188.763959940692 0.0 0.0
-515.5093754156632 -10.7823539620208 -231.75836022427683 -176.43312632874034 0.0 0.0
-570.4850471370435 -16.177022545793392 -274.05124792443405 -169.4298539373849 0.0 0.0
-612.7188710729292 -19.994394096810282 -304.5234110172921 -164.32165533301682 0.0 0.0
-649.7404743765943 -25.71145073521909 -330.1947562468199 -160.03735861546113 0.0 0.0
-683.9724937234503 -33.890532100932376 -353.853282843156 -157.32292589324055 0.0 0.0
-716.6190557461907 -45.99846043032366 -377.68195399012143 -157.0532182823303 0.0 0.0
-746.0600620477519 -61.4556285652433 -401.21797081024107 -159.3162486897584 0.0 0.0
-767.4455310617398 -77.34010549372843 -421.0330302065584 -164.4693495718761 0.0 0.0
-776.6080252054917 -90.81243973540734 -433.56825139727994 -172.60459934409204 0.0 0.0
-811.9349319605049 -145.16453056076588 -479.45906785846785 -181.62715321816026 0.0 0.0
-813.0031018018116 -230.13191901433933 -524.1512868432426 -200.44433840315116 0.0 0.0
-813.0031018020619 -230.13191901462642 -524.1512868435017 200.4443384033409 0.0 0.0
-811.9349319618036 -145.1645305626988 -479.45906785949546 181.6271532188166 0.0 0.0
-776.6080252050873 -90.81243973548632 -433.5682513971073 172.6045993444784 0.0 0.0
-767.445531060318 -77.3401054921575 -421.0330302055254 164.46934957175517 0.0 0.0
-746.0600620478979 -61.45562856535233 -401.2179708103233 159.31624868965125 0.0 0.0
-716.6190557462269 -45.99846043065395 -377.68195399021704 157.05321828242083 0.0 0.0
-683.9724937231975 -33.890532100737076 -353.8532828429903 157.3229258931263 0.0 0.0
-649.74047437587 -25.711450734643932 -330.1947562463422 160.03735861549066 0.0 0.0
-612.718871072956 -19.994394097078107 -304.5234110172449 164.32165533305363 0.0 0.0
-570.4850471367158 -16.177022545898375 -274.0512479242006 169.4298539374148 0.0 0.0
-515.5093754149718 -10.78235396149147 -231.75836022372079 176.4331263285399 0.0 0.0
-437.173129650086 -4.598921218924177 -175.97834631841204 188.76395994072033 0.0 0.0
-329.0892800407123 2.0540982120141624 -115.11600605347863 204.06468061432113 0.0 0.0
-222.45913129790657 6.142127460356597 -69.50251259424967 210.2169708692085 0.0 0.0
-152.36556029194585 11.565230770163593 -43.440165050235144 202.21715631388759 0.0 0.0
-113.93528162630392 17.917448303928797 -29.066890306286318 190.58434390326488 0.0 0.0
-94.2157003611496 18.48757526955136 -22.75725904850571 185.53337810322233 0.0 0.0
-82.41120429154273 3.4264661446861133 -23.71663102912152 187.27307827748513 0.0 0.0
-66.21978605527428 -51.801838282409015 -35.40851860616394 186.34245743915247 0.0 0.0
-24.138954023097522 -211.03556221279192 -70.54919725280044 127.45786163119857 0.0 0.0
-27.680415975831764 -166.76289530123142 -58.33299338311895 -113.05675130479642 0.0 0.0
-78.42277319175432 -48.894032548202745 -38.19310752816493 -178.61534405174646 0.0 0.0
-111.3678359855994 2.936855526022596 -32.53966293376591 -182.68250290445118 0.0 0.0
-140.97166570942807 18.587619025793984 -36.78245596198774 -179.6286582886067 0.0 0.0
-181.64264667419852 19.59632571872065 -49.13302786826162 -180.77484924898005 0.0 0.0
-246.93590068966463 15.19574204172193 -72.2195516952784 -186.13191607434803 0.0 0.0
-348.4817145720438 11.495163092743542 -115.00519858015736 -184.18246055064265 0.0 0.0
-462.1751907576554 2.339225583373384 -182.2601504413409 -170.9555008091887 0.0 0.0
-553.6442136656129 -8.59254667604771 -250.76729564007744 -161.0831450457652 0.0 0.0
-620.8737327983067 -18.811027934762578 -303.6635095261163 -155.67294950324634 0.0 0.0
-673.5993903746796 -26.330266572125495 -340.9777735474563 -151.82427282879388 0.0 0.0
-718.4367056574708 -34.37291389024681 -370.7027336914786 -147.59357288834892 0.0 0.0
-759.6823535902602 -43.34244550938878 -397.38269047225003 -143.6014451277886 0.0 0.0
-799.566152488484 -54.779423140292295 -423.85137120105253 -140.81838510161896 0.0 0.0
-839.7258622125864 -70.65518373346887 -452.3391194121191 -140.5379437811252 0.0 0.0
-878.4360249095494 -90.5176766265811 -482.07389078700146 -143.48097483560977 0.0 0.0
-912.8410515111798 -112.0805994296471 -510.53332240433747 -149.4445835018313 0.0 0.0
-951.5299415352326 -145.30224768541692 -546.9157230913679 -156.0151441289694 0.0 0.0
-994.3690340985706 -194.36665048432337 -593.2537167233048 -162.07455078397595 0.0 0.0
-1087.4939696523809 -326.9386983485524 -705.0937114504305 -170.62530268985253 0.0 0.0
-1087.493969652186 -326.93869834854644 -705.0937114503196 170.62530269001763 0.0 0.0
-994.3690340978085 -194.36665048368815 -593.2537167228874 162.07455078412596 0.0 0.0
-951.5299415354709 -145.30224768566165 -546.9157230914387 156.01514412898752 0.0 0.0
-912.8410515117462 -112.08059943046268 -510.5333224046174 149.44458350213742 0.0 0.0
-878.4360249091628 -90.51767662649056 -482.07389078664255 143.48097483579363 0.0 0.0
-839.7258622118545 -70.65518373285327 -452.3391194115707 140.53794378119687 0.0 0.0
-799.5661524877472 -54.779423139631234 -423.8513712005316 140.81838510152537 0.0 0.0
-759.6823535900029 -43.342445509401564 -397.3826904721333 143.60144512792877 0.0 0.0
-718.4367056570277 -34.37291389002318 -370.7027336911998 147.59357288829602 0.0 0.0
-673.5993903742121 -26.330266571771272 -340.9777735470941 151.82427282868863 0.0 0.0
-620.8737327989901 -18.81102793598435 -303.6635095265714 155.67294950333613 0.0 0.0
-553.6442136651717 -8.592546675923852 -250.76729563974058 161.0831450457447 0.0 0.0
-462.17519075693446 2.3392255836381772 -182.26015044083476 170.95550080924482 0.0 0.0
-348.48171457147873 11.495163092770778 -115.0051985798684 184.18246055060254 0.0 0.0
-246.93590068879826 15.195742042572345 -72.21955169475396 186.13191607409664 0.0 0.0
-181.64264667361658 19.596325719469572 -49.133027867864705 180.77484924880756 0.0 0.0
-140.97166570908473 18.587619026276805 -36.782455961745285 179.6286582884429 0.0 0.0
-111.36783598543502 2.936855526108653 -32.53966293369716 182.6825029042843 0.0 0.0
-78.42277319162011 -48.89403254809102 -38.19310752809167 178.6153440516554 0.0 0.0
-27.68041597583016 -166.7628953010782 -58.33299338307251 113.05675130462562 0.0 0.0
-28.99181953600166 -126.45463605839952 -46.63393667832034 -98.10795630847798 0.0 0.0
-88.62844133174175 -43.77352026464505 -39.72045068430563 -166.56264836951195 0.0 0.0
-138.46927954093397 2.4352724988374046 -40.81195695672354 -173.81020534898852 0.0 0.0
-185.86801028274806 17.670750344977503 -50.57483720934514 -168.96703686001246 0.0 0.0
-246.1240477859036 20.4489937817624 -68.54104615371291 -165.7429991608134 0.0 0.0
-333.82847240970574 19.639021252183262 -100.82146301941336 -163.72184640961228 0.0 0.0
-445.9155435800682 13.329386550123434 -160.57759944586144 -152.59676972518497 0.0 0.0
-547.63496434167 0.33565065261250027 -236.7795600672669 -142.1332980902295 0.0 0.0
-627.2032360318863 -13.156820536328318 -301.6105348113981 -138.69768823046402 0.0 0.0
-690.6134554435195 -25.5913633178572 -348.8734114846786 -136.8707374500924 0.0 0.0
-744.0439597480814 -36.59290632069823 -384.7822706634453 -134.2244653239255 0.0 0.0
-793.0354633714612 -48.526506006650834 -416.816972219037 -130.6199706116178 0.0 0.0
-838.6997257971951 -60.97871623379244 -446.6701603416075 -126.82514868841002 0.0 0.0
-883.2123419305369 -75.72181134572256 -476.74248073624733 -123.87074491107784 0.0 0.0
-928.4396854326926 -94.74408438290047 -509.11428588023017 -123.45082924843977 0.0 0.0
-975.3088525809894 -119.83733462794521 -545.3228002401704 -126.5054828112116 0.0 0.0
-1024.6645606011173 -152.77657171561168 -586.7181405413817 -132.04244524942465 0.0 0.0
-1078.1537095792419 -196.41401458337359 -635.5053814038129 -137.37858812794346 0.0 0.0
-1148.0402166830372 -266.7621522841189 -705.4904415643409 -139.28262448032862 0.0 0.0
-1242.804892688048 -390.82088918694853 -814.6579548545667 -142.57239273305987 0.0 0.0
-1242.8048926878064 -390.8208891867231 -814.6579548544223 142.57239273321883 0.0 0.0
-1148.0402166826389 -266.76215228398985 -705.4904415641532 139.28262448077143 0.0 0.0
-1078.153709578915 -196.4140145831746 -635.5053814034939 137.37858812807158 0.0 0.0
-1024.6645605993747 -152.77657171391732 -586.7181405401664 132.0424452493353 0.0 0.0
-975.3088525803105 -119.8373346272502 -545.32280023968 126.50548281110588 0.0 0.0
-928.4396854332161 -94.74408438370259 -509.11428588065496 123.45082924856749 0.0 0.0
-883.21234192986 -75.72181134509256 -476.7424807357637 123.87074491093553 0.0 0.0
-838.6997257965651 -60.978716233310905 -446.67016034109616 126.82514868837664 0.0 0.0
-793.0354633717402 -48.52650600723948 -416.8169722191684 130.61997061176058 0.0 0.0
-744.0439597477596 -36.592906320719194 -384.7822706632638 134.22446532397927 0.0 0.0
-690.6134554430865 -25.591363317613197 -348.8734114843543 136.870737449974 0.0 0.0
-627.2032360314348 -13.156820536191791 -301.61053481104983 138.6976882304479 0.0 0.0
-547.6349643409056 0.33565065308967235 -236.7795600666416 142.13329809019 0.0 0.0
-445.91554357964657 13.32938655002831 -160.57759944558413 152.59676972520515 0.0 0.0
-333.8284724092011 19.6390212520992 -100.82146301923721 163.72184640955754 0.0 0.0
-246.1240477857156 20.448993781562052 -68.54104615372133 165.74299916067758 0.0 0.0
-185.86801028250943 17.67075034505258 -50.5748372092564 168.96703685979742 0.0 0.0
-138.46927954084828 2.4352724987816696 -40.81195695671882 173.81020534880477 0.0 0.0
-88.62844133166456 -43.77352026467944 -39.72045068429291 166.56264836931817 0.0 0.0
-28.991819536027347 -126.45463605833847 -46.63393667830974 98.1079563082602 0.0 0.0
-29.80250920822016 -90.72849982842796 -36.15930271099443 -82.78843673250944 0.0 0.0
-97.70220613982714 -37.018055032031036 -40.41607835155745 -150.55366040670566 0.0 0.0
-163.8323594121224 2.037695187840188 -48.537179273636184 -160.46449846744756 0.0 0.0
-229.12297128797636 15.958091359973952 -64.02116426335516 -153.98126387547518 0.0 0.0
-307.2939502595084 21.563200885441294 -87.26120607385111 -146.5552599379634 0.0 0.0
-410.0006785371404 22.024871383657782 -130.95020958621308 -135.80417400020818 0.0 0.0
-517.8141592531398 12.589958436558469 -203.0958761180558 -122.39216673726816 0.0 0.0
-607.8241716273777 -1.8497245145596253 -278.83393166144026 -117.76353291780718 0.0 0.0
-681.0717295235562 -17.09635990996958 -337.30707315403754 -118.1820177850587 0.0 0.0
-743.5234188645004 -31.53504201870514 -381.3065324024501 -118.08919439401285 0.0 0.0
-800.3272208946489 -46.583034818399184 -419.279266792395 -116.21999721085747 0.0 0.0
-853.4158347422767 -62.52884812313776 -454.732210841296 -113.0989434531695 0.0 0.0
-903.4683663913565 -78.9543699974584 -488.524866811511 -109.63181916450218 0.0 0.0
-951.919947601345 -96.57845097335922 -521.8948978133737 -106.68294533412612 0.0 0.0
-1002.039369729745 -118.76471779092986 -558.1931542108817 -105.86945399252434 0.0 0.0
-1057.2267996721469 -150.31373586176477 -601.6462279063928 -108.30323506669087 0.0 0.0
-1119.7500243976956 -193.68438650817836 -654.7159013904522 -113.24186227668895 0.0 0.0
-1191.3389815955525 -252.93271812224629 -720.1848281429019 -117.26780676616211 0.0 0.0
-1273.638863427476 -334.7046897665136 -802.1790471962287 -118.13867153090354 0.0 0.0
-1358.1654866781023 -446.17219844282386 -900.2139620046235 -122.51602596821809 0.0 0.0
-1358.1654866782242 -446.17219844306584 -900.213962004756 122.51602596848278 0.0 0.0
-1273.638863427779 -334.7046897670173 -802.1790471964666 118.13867153120725 0.0 0.0
-1191.338981595735 -252.93271812257984 -720.1848281430449 117.2678067663927 0.0 0.0
-1119.75002439733 -193.68438650794886 -654.7159013902101 113.24186227680337 0.0 0.0
-1057.2267996725882 -150.31373586240818 -601.6462279066758 108.30323506682087 0.0 0.0
-1002.0393697292589 -118.76471779067526 -558.1931542104865 105.86945399273264 0.0 0.0
-951.9199476014632 -96.57845097365643 -521.8948978134031 106.68294533411387 0.0 0.0
-903.4683663913138 -78.95436999759167 -488.52486681155085 109.63181916448987 0.0 0.0
-853.4158347416611 -62.528848122685936 -454.7322108409252 113.09894345307814 0.0 0.0
-800.3272208940764 -46.5830348180031 -419.2792667919918 116.21999721075562 0.0 0.0
-743.5234188642814 -31.53504201875819 -381.30653240230004 118.08919439396593 0.0 0.0
-681.0717295236495 -17.09635991044354 -337.30707315408165 118.18201778512571 0.0 0.0
-607.8241716265983 -1.849724514059126 -278.8339316608616 117.76353291772159 0.0 0.0
-517.8141592524174 12.589958436947489 -203.09587611748145 122.39216673721421 0.0 0.0
-410.000678536735 22.024871383471744 -130.9502095860231 135.80417400021307 0.0 0.0
-307.29395025922304 21.563200885327852 -87.26120607380092 146.555259937899 0.0 0.0
-229.12297128786156 15.958091359746797 -64.02116426339545 153.9812638753702 0.0 0.0
-163.83235941195375 2.037695187935122 -48.53717927355975 160.46449846733748 0.0 0.0
-97.70220613976629 -37.018055032017166 -40.416078351535035 150.5536604065989 0.0 0.0
-29.802509208223235 -90.72849982839952 -36.15930271098683 82.78843673243259 0.0 0.0
-30.551951647741827 -60.0949185365394 -27.194061055284365 -67.04461427854584 0.0 0.0
-106.02729527912163 -29.207337978398574 -40.570389977256056 -131.00449582312908 0.0 0.0
-187.72815374365666 1.6301841672592001 -55.82720376709875 -142.78195040290723 0.0 0.0
-269.6452267042491 13.516604561394852 -76.97955660893537 -134.61051194835642 0.0 0.0
-363.95241667905833 22.982154405965776 -105.90197943252218 -123.21866572512613 0.0 0.0
-473.32205137491746 21.829442798809033 -162.2152615211963 -106.32565071474158 0.0 0.0
-571.6728720690223 11.426012643202967 -240.06811672931983 -95.87912659119107 0.0 0.0
-652.7934225037482 -4.1662276504641085 -310.68924222860915 -95.68942311141159 0.0 0.0
-722.8750346574816 -19.884323066830447 -363.27765583405596 -98.06724496870413 0.0 0.0
-787.2314464887987 -37.27523752174662 -407.4870362910955 -98.8396145455846 0.0 0.0
-847.8210989410063 -56.329098722674104 -448.589402780095 -97.50577813774949 0.0 0.0
-905.1662781292337 -76.45723887203758 -487.9866235518448 -94.94081325861934 0.0 0.0
-959.8122514896374 -97.00965350383805 -526.0322368113224 -92.06138826902364 0.0 0.0
-1012.2517721447357 -118.14109278410328 -563.1079867479729 -89.21175975832952 0.0 0.0
-1066.4909163915045 -143.3050441696573 -602.9031393005473 -87.7187530596664 0.0 0.0
-1129.4618996933023 -180.38931450771616 -652.9138685445129 -89.1179950031992 0.0 0.0
-1204.6202211049979 -234.98957441119865 -717.7952398971182 -93.04307436006157 0.0 0.0
-1291.1945842119273 -308.35057441277735 -797.7868027229378 -96.9030487344739 0.0 0.0
-1380.3191914859954 -397.1204295902231 -886.7797103032146 -99.56415797151719 0.0 0.0
-1458.698166406561 -501.0755416409688 -978.110932878413 -107.52226403330896 0.0 0.0
-1458.6981664068512 -501.0755416413183 -978.1109328786442 107.52226403350997 0.0 0.0
-1380.3191914857325 -397.12042959006294 -886.7797103030107 99.5641579717194 0.0 0.0
-1291.194584213055 -308.3505744140467 -797.7868027237357 96.90304873468193 0.0 0.0
-1204.620221105441 -234.9895744117983 -717.795239897471 93.04307436018063 0.0 0.0
-1129.461899693336 -180.38931450785788 -652.9138685445744 89.11799500316373 0.0 0.0
-1066.490916391188 -143.30504416949762 -602.9031393003487 87.71875305973201 0.0 0.0
-1012.2517721437177 -118.14109278316906 -563.1079867472783 89.21175975816047 0.0 0.0
-959.8122514888273 -97.00965350324579 -526.0322368107733 92.06138826911322 0.0 0.0
-905.1662781290026 -76.4572388720217 -487.98662355172553 94.94081325857553 0.0 0.0
-847.8210989406421 -56.32909872253168 -448.58940277988853 97.50577813768922 0.0 0.0
-787.2314464875609 -37.275237520626575 -407.4870362902882 98.83961454531226 0.0 0.0
-722.8750346569165 -19.88432306648584 -363.2776558336601 98.06724496859536 0.0 0.0
-652.7934225032117 -4.166227650233267 -310.68924222819624 95.68942311136199 0.0 0.0
-571.6728720687726 11.426012643122892 -240.06811672901762 95.87912659109975 0.0 0.0
-473.32205137448994 21.829442798687698 -162.21526152094012 106.32565071485185 0.0 0.0
-363.95241667856976 22.982154406038966 -105.90197943234142 123.21866572504264 0.0 0.0
-269.6452267041966 13.516604560994413 -76.97955660905238 134.61051194833118 0.0 0.0
-187.72815374343975 1.6301841673845372 -55.82720376699692 142.78195040286394 0.0 0.0
-106.02729527897966 -29.20733797825232 -40.57038997716958 131.00449582314616 0.0 0.0
-30.551951647696455 -60.094918536397955 -27.194061055228325 67.04461427855011 0.0 0.0
-31.092462506859388 -35.01816807930465 -19.833189175849206 -50.81541062759069 0.0 0.0
-113.43423623878158 -20.886552603822604 -40.29623665278125 -108.30408675847572 0.0 0.0
-210.371842912765 1.1161939187931633 -62.776694698191534 -120.76097187969819 0.0 0.0
-309.0971353747528 11.211621070114704 -89.54718333230322 -111.65586803634704 0.0 0.0
-417.70882510628303 23.463665696955097 -125.79280538334922 -96.19977663639969 0.0 0.0
-523.4782041642022 20.71830989322947 -192.60798439079804 -78.1739455472553 0.0 0.0
-610.8731697775444 9.070696823636872 -270.7994109944394 -72.32919286306975 0.0 0.0
-687.209919537018 -5.025774352196791 -333.7132982699443 -74.71226901419935 0.0 0.0
-757.5224398002772 -22.30748004663593 -383.8714390388417 -77.7287739489787 0.0 0.0
-824.5427496777789 -43.00112410343574 -429.8185798021956 -78.90318783131255 0.0 0.0
-888.7938962180855 -65.77786509453233 -474.233485133218 -78.06600987737437 0.0 0.0
-950.6376640192013 -90.10888423422745 -517.8441624690815 -76.12509825748712 0.0 0.0
-1010.0234430008195 -115.17148628975059 -560.4305406023086 -73.89273666629896 0.0 0.0
-1067.7316979457112 -140.84312745779178 -602.3833382408924 -71.48141558991328 0.0 0.0
-1126.0529860757865 -169.221913119194 -645.8324662623324 -69.31267974534356 0.0 0.0
-1193.1390302140394 -209.63202156050258 -699.4894909479083 -69.00116545398491 0.0 0.0
-1279.0746805556043 -273.44803615842216 -774.2638653208928 -71.87627814906789 0.0 0.0
-1378.533269437804 -358.9075964393263 -866.7526306275099 -76.69445848656567 0.0 0.0
-1476.6922701731282 -456.78944937386757 -964.8697684506157 -82.76016428568018 0.0 0.0
-1554.3954206301225 -559.14124067276 -1055.1198483850374 -95.39261683397774 0.0 0.0
-1554.3954206293006 -559.1412406719573 -1055.1198483844744 95.39261683404615 0.0 0.0
-1476.692270173035 -456.78944937383574 -964.8697684505726 82.76016428584023 0.0 0.0
-1378.533269438312 -358.9075964399673 -866.7526306278709 76.69445848675609 0.0 0.0
-1279.0746805550748 -273.44803615802175 -774.2638653204278 71.87627814919642 0.0 0.0
-1193.1390302138016 -209.6320215603705 -699.4894909476965 69.00116545396534 0.0 0.0
-1126.0529860759025 -169.2219131194925 -645.8324662624319 69.31267974549282 0.0 0.0
-1067.731697945864 -140.8431274581208 -602.383338240947 71.4814155898986 0.0 0.0
-1010.0234430001526 -115.17148628930786 -560.4305406018236 73.89273666638739 0.0 0.0
-950.6376640190567 -90.10888423428217 -517.8441624688638 76.12509825743149 0.0 0.0
-888.7938962186278 -65.77786509536523 -474.23348513346536 78.06600987744328 0.0 0.0
-824.5427496772974 -43.001124103166184 -429.8185798018128 78.90318783115627 0.0 0.0
-757.5224397994966 -22.30748004611111 -383.87143903830315 77.72877394891525 0.0 0.0
-687.2099195363671 -5.025774351845548 -333.7132982694644 74.71226901419193 0.0 0.0
-610.873169777018 9.070696823830541 -270.79941099399946 72.32919286302572 0.0 0.0
-523.4782041638356 20.718309893151552 -192.60798439051044 78.17394554731763 0.0 0.0
-417.70882510574995 23.463665697170946 -125.792805383078 96.19977663630982 0.0 0.0
-309.09713537432293 11.21162107058552 -89.54718333205193 111.6558680361593 0.0 0.0
-210.3718429125168 1.1161939188385332 -62.77669469810346 120.7609718796384 0.0 0.0
-113.43423623873194 -20.886552603856234 -40.29623665277644 108.30408675841164 0.0 0.0
-31.092462506832764 -35.01816807927456 -19.833189175832192 50.815410627547976 0.0 0.0
-30.7972375336019 -15.939970563732015 -14.021162429200173 -34.2236136955985 0.0 0.0
-119.07658082845373 -12.509544812953578 -39.475837692422175 -82.66349987142621 0.0 0.0
-232.10758581794815 0.1845769897522329 -69.57690264845877 -94.32926980830801 0.0 0.0
-348.20041194361283 10.24236414811271 -101.70569871194581 -85.12175519620362 0.0 0.0
-465.0763344056129 22.89080049337312 -147.0853970974766 -67.12968185812939 0.0 0.0
-562.7607828963995 18.099256721780804 -221.76579826656322 -52.990282855983075 0.0 0.0
-642.2956480356803 7.476024598606102 -295.3531002276713 -50.94294021522652 0.0 0.0
-715.2653874000164 -5.401572206031375 -351.3421485520852 -53.81782292177307 0.0 0.0
-786.6670796243101 -24.818680239556045 -400.92825446318943 -56.903786691669616 0.0 0.0
-856.5556670475777 -48.523726740499654 -449.11544659910123 -58.27887286127926 0.0 0.0
-924.7379298611828 -75.00481994518691 -497.1286289282302 -57.897515910442515 0.0 0.0
-990.9062055296788 -103.42598904784882 -544.8605733383915 -56.57102306017572 0.0 0.0
-1055.6358004858819 -133.163710908926 -592.3941396450361 -55.07131860574171 0.0 0.0
-1119.144705361472 -164.50741873277133 -640.0387189937553 -53.239841163449114 0.0 0.0
-1182.819538699514 -197.95490429844634 -688.7208249633416 -50.863351249176766 0.0 0.0
-1251.9775427008317 -239.43071480014896 -743.9776147348698 -48.83565954912971 0.0 0.0
-1338.8790708948127 -303.25376126038526 -819.1334515456822 -49.97978876577162 0.0 0.0
-1453.346221350077 -402.7334921138679 -926.0683476310431 -56.01185145667214 0.0 0.0
-1566.1328433449007 -514.4256286619377 -1038.469008245369 -66.54429248324674 0.0 0.0
-1653.6427258553174 -624.9352575240581 -1137.7324822845262 -84.75793890809437 0.0 0.0
-1653.6427258555427 -624.9352575242857 -1137.7324822847004 84.7579389081042 0.0 0.0
-1566.1328433465792 -514.4256286637213 -1038.4690082464808 66.5442924834178 0.0 0.0
-1453.3462213494208 -402.7334921132633 -926.0683476304566 56.01185145664124 0.0 0.0
-1338.879070894453 -303.2537612601309 -819.1334515453358 49.979788765807136 0.0 0.0
-1251.9775427002 -239.4307147996318 -743.9776147343047 48.835659549111945 0.0 0.0
-1182.8195386987086 -197.95490429780367 -688.7208249626642 50.86335124925839 0.0 0.0
-1119.1447053598135 -164.50741873125597 -640.0387189925227 53.23984116342734 0.0 0.0
-1055.6358004853575 -133.1637109086216 -592.3941396446512 55.07131860581346 0.0 0.0
-990.9062055291676 -103.42598904754651 -544.8605733380377 56.571023060149734 0.0 0.0
-924.7379298602083 -75.00481994442234 -497.12862892752645 57.897515910343856 0.0 0.0
-856.5556670474587 -48.52372674065695 -449.1154465990143 58.27887286129622 0.0 0.0
-786.6670796235896 -24.81868023915962 -400.9282544627562 56.903786691779125 0.0 0.0
-715.2653873997308 -5.401572206066625 -351.34214855187565 53.81782292178776 0.0 0.0
-642.295648035158 7.4760245987936855 -295.35310022727606 50.94294021523278 0.0 0.0
-562.7607828958894 18.099256721979216 -221.76579826609867 52.99028285586466 0.0 0.0
-465.0763344052805 22.890800493260507 -147.08539709731144 67.12968185816854 0.0 0.0
-348.20041194333487 10.242364148062219 -101.70569871189575 85.12175519616906 0.0 0.0
-232.10758581770958 0.18457698981788573 -69.57690264836751 94.32926980826531 0.0 0.0
-119.07658082830878 -12.509544812903673 -39.47583769236373 82.6634998712853 0.0 0.0
-30.797237533602637 -15.939970563769311 -14.021162429211582 34.22361369560277 0.0 0.0
-28.367594968369737 -3.228869246471158 -9.478939264452267 -17.785847788195277 0.0 0.0
-121.24413112798138 -4.667068489131953 -37.773359885134 -54.04874888390246 0.0 0.0
-253.3001726739788 -1.0817913050801895 -76.31458919371768 -62.96846085387728 0.0 0.0
-388.88208032730523 10.680738216891335 -114.27866057775859 -55.10833201716523 0.0 0.0
-504.3787219649688 21.90812939104736 -169.19186947930484 -38.95528315451416 0.0 0.0
-591.4312794318314 14.210764930295447 -248.12519124814906 -30.33787612628362 0.0 0.0
-666.7656226429481 7.340015246063771 -313.48047262268653 -30.4893676910306 0.0 0.0
-738.6319961475526 -6.37812905236602 -365.7256533099263 -32.96127201601663 0.0 0.0
-810.965769994958 -27.176948443154885 -415.05594004610776 -35.55942929323321 0.0 0.0
-883.92837219957 -53.80862500777914 -465.82457706802325 -36.92147260400404 0.0 0.0
-956.1897317359175 -84.02655776511895 -517.6113752449025 -36.977482864959576 0.0 0.0
-1027.1237328485074 -116.38911339146765 -569.630208536842 -36.30646859738594 0.0 0.0
-1096.9888106099036 -151.15925536129492 -622.1974856461127 -35.41468878873877 0.0 0.0
-1166.9892983925001 -188.38569528639172 -675.9821450373711 -34.281634918859076 0.0 0.0
-1237.7695104147874 -228.65108170165306 -731.6205866607612 -32.44277971696803 0.0 0.0
-1310.0174565761145 -273.1855505501825 -790.0391204905535 -29.68216779002733 0.0 0.0
-1390.0238018139105 -329.6445411337907 -858.1117928570222 -28.221897259673575 0.0 0.0
-1496.1230938511812 -419.332183161166 -955.7419034027464 -33.573278953746915 0.0 0.0
-1655.9747099743759 -575.6943357166413 -1113.990607992764 -49.066528174423745 0.0 0.0
-1765.9365058579338 -706.0303382457763 -1234.511227592051 -74.65423590861934 0.0 0.0
-1765.9365058565936 -706.0303382444639 -1234.5112275910935 74.65423590866885 0.0 0.0
-1655.9747099746369 -575.6943357169803 -1113.9906079929574 49.06652817463089 0.0 0.0
-1496.1230938502752 -419.3321831603313 -955.7419034022442 33.573278953746765 0.0 0.0
-1390.0238018137568 -329.644541133738 -858.1117928569008 28.22189725965532 0.0 0.0
-1310.0174565748766 -273.18555054905994 -790.0391204895739 29.682167790077216 0.0 0.0
-1237.7695104143527 -228.6510817013797 -731.6205866603144 32.44277971701105 0.0 0.0
-1166.9892983932552 -188.385695287335 -675.9821450378356 34.28163491895669 0.0 0.0
-1096.988810609648 -151.15925536122305 -622.1974856458509 35.41468878862759 0.0 0.0
-1027.1237328480333 -116.3891133912368 -569.6302085364367 36.306468597503795 0.0 0.0
-956.1897317354639 -84.0265577649269 -517.6113752446166 36.977482865018644 0.0 0.0
-883.9283721985373 -53.808625007014236 -465.8245770673814 36.92147260401726 0.0 0.0
-810.9657699944562 -27.176948442948387 -415.0559400457361 35.55942929323846 0.0 0.0
-738.6319961473473 -6.378129052453609 -365.72565330976255 32.96127201595178 0.0 0.0
-666.7656226425222 7.340015246159069 -313.4804726223501 30.489367691022153 0.0 0.0
-591.4312794312586 14.210764930579213 -248.12519124767786 30.337876126201756 0.0 0.0
-504.37872196442237 21.908129391243264 -169.19186947895577 38.95528315468164 0.0 0.0
-388.8820803269149 10.68073821681218 -114.27866057768634 55.10833201720256 0.0 0.0
-253.30017267382138 -1.0817913050615129 -76.31458919366486 62.96846085387728 0.0 0.0
-121.24413112772798 -4.667068489005052 -37.77335988501991 54.048748883825596 0.0 0.0
-28.367594968319295 -3.2288692464442037 -9.478939264429048 17.785847788148306 0.0 0.0
-21.31798413712582 2.867799295450755 -5.535055452502519 -2.7711358534990937 0.0 0.0
-116.88453033316284 1.8087868591724252 -34.52272304219712 -21.910681153843782 0.0 0.0
-274.99451867780215 -2.334777155749112 -83.19878875006536 -25.602887953173166 0.0 0.0
-429.0911211896443 12.80202682431182 -127.97870996409102 -22.255364177699477 0.0 0.0
-537.626574285018 19.42834858524723 -192.52349956315916 -13.285559174151885 0.0 0.0
-616.4689973231096 12.140733731840577 -270.2905033455723 -10.06715393771232 0.0 0.0
-686.814845732213 6.581108184342526 -327.99804090523423 -10.448036859784771 0.0 0.0
-757.7312783973721 -7.427093820090974 -377.2677713919644 -12.039444355422917 0.0 0.0
-831.2586845548371 -29.62532914100659 -427.0037876600686 -13.721088498701462 0.0 0.0
-907.1829940561022 -58.82169535088403 -480.26535914337006 -14.830212232343975 0.0 0.0
-983.6861579198154 -92.55820489050825 -535.8218673039316 -15.29054676861943 0.0 0.0
-1059.4278769304901 -129.58298651202756 -592.5252061844405 -15.228705609320333 0.0 0.0
-1134.7817802676843 -168.96045154390234 -650.1044139353398 -14.996556744869402 0.0 0.0
-1211.0798595750616 -211.79617012488092 -709.804878381914 -14.538450249842853 0.0 0.0
-1289.208952805022 -259.1920649346336 -772.6584159846172 -13.567067921690812 0.0 0.0
-1368.2504920894976 -310.71569007015046 -838.000929054894 -11.734602284562126 0.0 0.0
-1445.5892777345978 -364.7752186214513 -903.6910009725223 -9.146971971455752 0.0 0.0
-1525.7003985443384 -427.6371367272461 -974.9781297632179 -9.900082525845384 0.0 0.0
-1644.099300514566 -538.7348587986373 -1089.3597447955005 -25.64689397763337 0.0 0.0
-1967.3862170383004 -875.9515050090407 -1420.205838706329 -61.52138960788483 0.0 0.0
-1967.3862170382 -875.9515050089524 -1420.2058387063657 61.52138960787008 0.0 0.0
-1644.0993005156595 -538.7348587997833 -1089.3597447963348 25.64689397768671 0.0 0.0
-1525.7003985439665 -427.637136726959 -974.9781297627849 9.900082525886617 0.0 0.0
-1445.5892777334902 -364.77521862043903 -903.6910009715967 9.146971971443108 0.0 0.0
-1368.2504920880724 -310.7156900688489 -838.0009290538935 11.734602284532434 0.0 0.0
-1289.2089528049319 -259.19206493469073 -772.6584159845322 13.567067921670677 0.0 0.0
-1211.0798595752303 -211.79617012523872 -709.8048783819107 14.538450249909793 0.0 0.0
-1134.7817802679574 -168.96045154437894 -650.1044139353206 14.996556744850487 0.0 0.0
-1059.4278769310545 -129.58298651283081 -592.5252061847299 15.228705609330781 0.0 0.0
-983.686157920089 -92.55820489103475 -535.8218673040082 15.290546768707273 0.0 0.0
-907.1829940553382 -58.82169535039921 -480.2653591428053 14.830212232324756 0.0 0.0
-831.2586845542662 -29.625329140701282 -427.003787659686 13.721088498688138 0.0 0.0
-757.7312783971486 -7.427093820184972 -377.26777139181473 12.039444355485422 0.0 0.0
-686.8148457326502 6.581108183540785 -327.99804090547065 10.448036859835327 0.0 0.0
-616.4689973230293 12.140733731587133 -270.2905033454327 10.067153937505264 0.0 0.0
-537.6265742848708 19.428348585031816 -192.52349956298508 13.28555917403506 0.0 0.0
-429.09112118940965 12.802026824137014 -127.97870996405848 22.255364177627502 0.0 0.0
-274.99451867756557 -2.3347771556354875 -83.19878874996029 25.602887952968203 0.0 0.0
-116.88453033303793 1.808786859055168 -34.52272304219482 21.910681153762653 0.0 0.0
-21.317984137003524 2.867799295442549 -5.535055452468292 2.771135853456393 0.0 0.0
SCALARS Strain float 6
LOOKUP_TABLE default
0.011856595655384728 -0.012924399285434512 0.0 -0.007155127357272029 0.0 0.0
0.002430485027964415 -0.0015284154266442807 0.0 0.0011969715056792674 0.0 0.0
0.0018284424042627583 -0.0007469344347448281 0.0 -4.0758823676045886e-05 0.0 0.0
0.00231866741504742 -0.0011244796328347961 0.0 -0.0002183431226450705 0.0 0.0
0.003611335309137839 -0.0021678206883271045 0.0 -0.0002775553162784883 0.0 0.0
0.0062733008370854226 -0.0045304469108835566 0.0 -0.00042527619501231406 0.0 0.0
0.010587343920159906 -0.008573785101074538 0.0 -0.0006801041026974763 0.0 0.0
0.016833905649001567 -0.014549684391556683 0.0 -0.0010729728954559925 0.0 0.0
0.025157514281855184 -0.02258237074538716 0.0 -0.001619511362112025 0.0 0.0
0.035541394757940076 -0.032650212088169095 0.0 -0.0022739374201107276 0.0 0.0
0.047874341175583215 -0.04465104521235519 0.0 -0.0029535982012132422 0.0 0.0
0.062025541749580346 -0.05846141753435363 0.0 -0.003620357404200941 0.0 0.0
0.07786740425379843 -0.07395750482297414 0.0 -0.004280739912137316 0.0 0.0
0.09524400521321826 -0.09097904124582712 0.0 -0.004931595668342337 0.0 0.0
0.11384898994265026 -0.10921556707913505 0.0 -0.005548656961835152 0.0 0.0
0.13308224728119672 -0.12807012320491795 0.0 -0.0060118171782759244 0.0 0.0
0.1519863382536797 -0.14659750019057194 0.0 -0.006097475560222998 0.0 0.0
0.16928253219852357 -0.16353329339640688 0.0 -0.0055764386082407524 0.0 0.0
0.18344078011127937 -0.17735391570684333 0.0 -0.004675998317136165 0.0 0.0
0.19229985419785395 -0.18571858700691513 0.0 -0.005175011784216088 0.0 0.0
0.19229985419784154 -0.1857185870069018 0.0 0.0051750117842228605 0.0 0.0
0.18344078011124038 -0.17735391570680603 0.0 0.00467599831715837 0.0 0.0
0.16928253219845968 -0.16353329339634382 0.0 0.005576438608253076 0.0 0.0
0.15198633825359723 -0.14659750019049111 0.0 0.006097475560229437 0.0 0.0
0.13308224728110568 -0.12807012320483357 0.0 0.006011817178265266 0.0 0.0
0.11384898994255963 -0.10921556707904445 0.0 0.005548656961834264 0.0 0.0
0.09524400521312854 -0.09097904124572986 0.0 0.004931595668343003 0.0 0.0
0.07786740425370725 -0.07395750482288266 0.0 0.0042807399121350675 0.0 0.0
0.06202554174949376 -0.058461417534269255 0.0 0.0036203574041934194 0.0 0.0
0.04787434117550443 -0.04465104521228058 0.0 0.0029535982012087736 0.0 0.0
0.035541394757875544 -0.03265021208810648 0.0 0.0022739374201041773 0.0 0.0
0.025157514281805682 -0.022582370745339198 0.0 0.0016195113621084167 0.0 0.0
0.016833905648964087 -0.014549684391522266 0.0 0.0010729728954532725 0.0 0.0
0.010587343920134829 -0.008573785101048781 0.0 0.0006801041026952559 0.0 0.0
0.006273300837070506 -0.004530446910868013 0.0 0.00042527619500981606 0.0 0.0
0.003611335309131436 -0.002167820688320665 0.0 0.00027755531627582375 0.0 0.0
0.0023186674150456055 -0.0011244796328327977 0.0 0.00021834312264590316 0.0 0.0
0.001828442404261943 -0.0007469344347445506 0.0 4.0758823675046685e-05 0.0 0.0
0.002430485027962781 -0.0015284154266416994 0.0 -0.0011969715056767138 0.0 0.0
0.011856595655373725 -0.012924399285419929 0.0 0.007155127357238 0.0 0.0
0.00842396551225717 -0.009870129734519145 0.0 -0.008638998172350643 0.0 0.0
0.001318373471821243 -0.0007704581992656334 0.0 0.00013208212215348736 0.0 0.0
0.001562592816135723 -0.0005562454147339801 0.0 -0.0001285779616766458 0.0 0.0
0.0020344237020911878 -0.0009384955702693709 0.0 -0.0004746476461287008 0.0 0.0
0.0030656961567971167 -0.001724261047332476 0.0 -0.0006237408801807454 0.0 0.0
0.005345903608524057 -0.003694227845840725 0.0 -0.0009859996650253833 0.0 0.0
0.009196659905423746 -0.007253743631430165 0.0 -0.0016316201570519273 0.0 0.0
0.014847366974233112 -0.01262651784492963 0.0 -0.0025699887998973936 0.0 0.0
0.022391108216750506 -0.0198853248484121 0.0 -0.003807905096107178 0.0 0.0
0.03176582842247431 -0.028959991250134376 0.0 -0.005237724737248595 0.0 0.0
0.04283918589882989 -0.03972489339660523 0.0 -0.006701137588832229 0.0 0.0
0.05549962164822339 -0.05207328208413653 0.0 -0.008106583731277484 0.0 0.0
0.06967558968799173 -0.06593172145230941 0.0 -0.009515232794417988 0.0 0.0
0.08525507236907365 -0.08118551216348235 0.0 -0.010947063457121098 0.0 0.0
0.10197772670109442 -0.09757290908508143 0.0 -0.012305846943386878 0.0 0.0
0.11933459786205018 -0.1145868541201418 0.0 -0.013349956047421008 0.0 0.0
0.1364985228306343 -0.13140573701649938 0.0 -0.013641440207912747 0.0 0.0
0.15230586523384665 -0.14687014632232476 0.0 -0.012811323679337239 0.0 0.0
0.1651613924543889 -0.15935092430303888 0.0 -0.011039463381509296 0.0 0.0
0.17291214348891346 -0.166815137605822 0.0 -0.008139729340028268 0.0 0.0
0.1729121434889008 -0.16681513760581268 0.0 0.008139729340051027 0.0 0.0
0.1651613924543536 -0.15935092430300823 0.0 0.011039463381549486 0.0 0.0
0.15230586523379014 -0.1468701463222728 0.0 0.012811323679363662 0.0 0.0
0.13649852283056207 -0.13140573701642833 0.0 0.013641440207924127 0.0 0.0
0.11933459786197029 -0.11458685412006542 0.0 0.013349956047411071 0.0 0.0
0.10197772670101307 -0.09757290908500282 0.0 0.012305846943382548 0.0 0.0
0.08525507236899246 -0.08118551216340064 0.0 0.010947063457118378 0.0 0.0
0.06967558968791099 -0.06593172145223125 0.0 0.009515232794412465 0.0 0.0
0.05549962164814545 -0.05207328208406592 0.0 0.008106583731266714 0.0 0.0
0.04283918589876007 -0.03972489339653551 0.0 0.006701137588824402 0.0 0.0
0.031765828422416154 -0.028959991250081085 0.0 0.005237724737234495 0.0 0.0
0.022391108216705813 -0.019885324848370134 0.0 0.0038079050960990735 0.0 0.0
0.014847366974199083 -0.01262651784489277 0.0 0.0025699887998898996 0.0 0.0
0.009196659905401083 -0.007253743631407961 0.0 0.0016316201570471534 0.0 0.0
0.005345903608511615 -0.003694227845829623 0.0 0.0009859996650218306 0.0 0.0
0.003065696156792086 -0.0017242610473300335 0.0 0.0006237408801800792 0.0 0.0
0.0020344237020898936 -0.0009384955702677056 0.0 0.00047464764612692445 0.0 0.0
0.0015625928161352998 -0.0005562454147345353 0.0 0.00012857796167581315 0.0 0.0
0.0013183734718211215 -0.0007704581992640791 0.0 -0.00013208212215642945 0.0 0.0
0.008423965512243614 -0.009870129734503713 0.0 0.00863899817232161 0.0 0.0
0.00624004981740639 -0.007848682556063497 0.0 -0.008008771446703311 0.0 0.0
0.0007751823157931548 -0.0005032714090912327 0.0 -0.0005734082791881701 0.0 0.0
0.0012520893999642124 -0.0004093906143780579 0.0 -0.0004360349114054807 0.0 0.0
0.0017635765504389403 -0.0007696023140424391 0.0 -0.0007181968273170525 0.0 0.0
0.0025808701193271236 -0.0013560808516386302 0.0 -0.0009257951008688203 0.0 0.0
0.0044552748788994 -0.002913770331741894 0.0 -0.0014026894278703628 0.0 0.0
0.007816769719742572 -0.005957600478733394 0.0 -0.002334255772262872 0.0 0.0
0.012838706143232757 -0.010695630961124136 0.0 -0.0037187696979315565 0.0 0.0
0.019572500741001878 -0.01714832215775397 0.0 -0.005502148947277352 0.0 0.0
0.02791883826368398 -0.025211446489337153 0.0 -0.007530856156062082 0.0 0.0
0.03773036395512154 -0.03473833743375909 0.0 -0.00960540615430494 0.0 0.0
0.04890640070229337 -0.0456290873121894 0.0 -0.011606600950868018 0.0 0.0
0.06140470153972166 -0.05783861442921223 0.0 -0.013588064011109846 0.0 0.0
0.07516475908338577 -0.07130366266353239 0.0 -0.015618071253565513 0.0 0.0
0.08999092599521939 -0.08582888883162232 0.0 -0.017581063721554768 0.0 0.0
0.10547312295359573 -0.10100416535679635 0.0 -0.019113710420576135 0.0 0.0
0.12091907313146044 -0.1161358092090623 0.0 -0.01967893917358504 0.0 0.0
0.1352622434952338 -0.1301460503734333 0.0 -0.018779043700351106 0.0 0.0
0.1469570429499772 -0.14151645791032852 0.0 -0.015928917823307742 0.0 0.0
0.15422972899322956 -0.1485554065465231 0.0 -0.010268811082485008 0.0 0.0
0.15422972899321785 -0.14855540654650934 0.0 0.010268811082519647 0.0 0.0
0.1469570429499452 -0.1415164579102952 0.0 0.015928917823360478 0.0 0.0
0.13526224349518343 -0.1301460503733871 0.0 0.01877904370038841 0.0 0.0
0.12091907313139766 -0.11613580920900235 0.0 0.019678939173602195 0.0 0.0
0.10547312295352604 -0.10100416535672618 0.0 0.019113710420566754 0.0 0.0
0.08999092599514713 -0.08582888883155171 0.0 0.017581063721547108 0.0 0.0
0.07516475908331369 -0.07130366266346444 0.0 0.015618071253561183 0.0 0.0
0.06140470153965019 -0.0578386144291394 0.0 0.013588064011102796 0.0 0.0
0.04890640070222485 -0.045629087312121897 0.0 0.011606600950852197 0.0 0.0
0.03773036395506052 -0.034738337433704025 0.0 0.009605406154293172 0.0 0.0
0.027918838263631812 -0.02521144648928919 0.0 0.007530856156043542 0.0 0.0
0.019572500740961868 -0.017148322157714446 0.0 0.0055021489472667495 0.0 0.0
0.012838706143202594 -0.010695630961093716 0.0 0.0037187696979220086 0.0 0.0
0.007816769719723005 -0.005957600478714964 0.0 0.002334255772258098 0.0 0.0
0.00445527487888947 -0.0029137703317341224 0.0 0.0014026894278664215 0.0 0.0
0.002580870119323231 -0.0013560808516351885 0.0 0.000925795100867266 0.0 0.0
0.0017635765504380174 -0.0007696023140433272 0.0 0.0007181968273176631 0.0 0.0
0.0012520893999640736 -0.0004093906143780024 0.0 0.00043603491140631334 0.0 0.0
0.0007751823157931548 -0.0005032714090898727 0.0 0.0005734082791857831 0.0 0.0
0.006240049817393845 -0.00784868255604939 0.0 0.008008771446681273 0.0 0.0
0.004711282490939411 -0.006324695294930738 0.0 -0.006807242021291904 0.0 0.0
0.00048589547348470985 -0.00037478216050468305 0.0 -0.0011691434122340083 0.0 0.0
0.0009704346784158019 -0.0002992028400613522 0.0 -0.0008453123661388284 0.0 0.0
0.0014968971735132008 -0.0006196583819005896 0.0 -0.0009879659675236518 0.0 0.0
0.0021531907223917915 -0.0010617285741196802 0.0 -0.0012075676581428385 0.0 0.0
0.0036356506108126477 -0.002227699665743099 0.0 -0.0017040869435506756 0.0 0.0
0.006459632725767557 -0.004712990542897089 0.0 -0.0027980994403438153 0.0 0.0
0.01083111422540229 -0.008780140463727326 0.0 -0.004513636581538749 0.0 0.0
0.016728584207938955 -0.014401834055160379 0.0 -0.006693531008738929 0.0 0.0
0.02403078934744715 -0.02143667518182646 0.0 -0.0091562726553579 0.0 0.0
0.032575914541874015 -0.029719884740787794 0.0 -0.011665514019128631 0.0 0.0
0.04226796546668456 -0.03915250958533978 0.0 -0.014100398517865875 0.0 0.0
0.053088170043677774 -0.04971305950630445 0.0 -0.01652528936995562 0.0 0.0
0.06501687867219814 -0.06137732018038777 0.0 -0.018969676769293897 0.0 0.0
0.07792589745959673 -0.07402005889403007 0.0 -0.021330035262387304 0.0 0.0
0.09151430569261612 -0.08733839496855378 0.0 -0.023268591456804877 0.0 0.0
0.10522504663918233 -0.10076507771453214 0.0 -0.024172090635259047 0.0 0.0
0.11812943282104478 -0.11336892466332804 0.0 -0.023287669895082963 0.0 0.0
0.12888080534156776 -0.12383155738420948 0.0 -0.019628356679877834 0.0 0.0
0.13595128925133054 -0.13069087491110887 0.0 -0.012011337696593793 0.0 0.0
0.1359512892513196 -0.13069087491109688 0.0 0.012011337696642088 0.0 0.0
0.12888080534153867 -0.12383155738417795 0.0 0.019628356679938008 0.0 0.0
0.11812943282100005 -0.11336892466327964 0.0 0.02328766989512554 0.0 0.0
0.10522504663912852 -0.10076507771448018 0.0 0.024172090635277588 0.0 0.0
0.09151430569255556 -0.08733839496849605 0.0 0.023268591456797272 0.0 0.0
0.07792589745953354 -0.0740200588939679 0.0 0.02133003526237809 0.0 0.0
0.06501687867213571 -0.0613773201803296 0.0 0.018969676769288735 0.0 0.0
0.05308817004361535 -0.04971305950624183 0.0 0.016525289369946683 0.0 0.0
0.042267965466625285 -0.03915250958527716 0.0 0.014100398517847945 0.0 0.0
0.03257591454182199 -0.029719884740734948 0.0 0.01166551401911109 0.0 0.0
0.024030789347401577 -0.021436675181781162 0.0 0.009156272655335473 0.0 0.0
0.016728584207903685 -0.014401834055123519 0.0 0.006693531008726439 0.0 0.0
0.010831114225376248 -0.008780140463703567 0.0 0.0045136365815283686 0.0 0.0
0.006459632725751313 -0.00471299054288199 0.0 0.0027980994403374315 0.0 0.0
0.0036356506108048414 -0.002227699665736438 0.0 0.001704086943547567 0.0 0.0
0.0021531907223890645 -0.0010617285741173488 0.0 0.00120756765814084 0.0 0.0
0.0014968971735125625 -0.0006196583818998125 0.0 0.00098796596752182 0.0 0.0
0.0009704346784160101 -0.0002992028400617408 0.0 0.0008453123661366635 0.0 0.0
0.0004858954734846266 -0.00037478216050379487 0.0 0.0011691434122318989 0.0 0.0
0.004711282490928587 -0.006324695294918546 0.0 0.006807242021275306 0.0 0.0
0.003548623844921203 -0.005084130853472479 0.0 -0.00557745019856376 0.0 0.0
0.00032437689062804476 -0.0003053842382880756 0.0 -0.001632988034006022 0.0 0.0
0.0007346422059055085 -0.00021937088061241283 0.0 -0.001257916679136828 0.0 0.0
0.0012339504441861993 -0.000488643677532874 0.0 -0.0012852370550124337 0.0 0.0
0.0017734063684705648 -0.000828109425368817 0.0 -0.00147770879200404 0.0 0.0
0.0029030261490295695 -0.0016540556755006985 0.0 -0.0019500128067468925 0.0 0.0
0.005166116401856144 -0.0035598895681345777 0.0 -0.0030452751307705195 0.0 0.0
0.008840900267268872 -0.006906281218781896 0.0 -0.004914235697487501 0.0 0.0
0.013886374596789625 -0.011674864203880198 0.0 -0.007374319107773697 0.0 0.0
0.020130215103151952 -0.017666396137007823 0.0 -0.010108175542116515 0.0 0.0
0.0274046197837072 -0.024700043276220995 0.0 -0.012888987302170918 0.0 0.0
0.035612592075220356 -0.03267464316449553 0.0 -0.015587447595494408 0.0 0.0
0.04475400735946945 -0.041584742926294105 0.0 -0.018272588354388886 0.0 0.0
0.05484828295561679 -0.05144662881375073 0.0 -0.020994263435802518 0.0 0.0
0.06582823662366623 -0.06219353054476384 0.0 -0.023607901925980446 0.0 0.0
0.07748536777041355 -0.07361544924339336 0.0 -0.025783370383358373 0.0 0.0
0.08941081887574692 -0.08529658514490146 0.0 -0.02698614642187902 0.0 0.0
0.1008947408395297 -0.09651874990928633 0.0 -0.026291810351739886 0.0 0.0
0.11083730690241914 -0.10620179550977848 0.0 -0.02228567862599906 0.0 0.0
0.11788469344739838 -0.11304476181885148 0.0 -0.01348527171220315 0.0 0.0
0.11788469344738842 -0.11304476181883816 0.0 0.013485271712254554 0.0 0.0
0.11083730690239299 -0.10620179550974873 0.0 0.022285678626061567 0.0 0.0
0.10089474083949096 -0.09651874990925213 0.0 0.02629181035178685 0.0 0.0
0.08941081887570113 -0.0852965851448575 0.0 0.02698614642190178 0.0 0.0
0.07748536777036158 -0.07361544924334451 0.0 0.025783370383351656 0.0 0.0
0.06582823662361215 -0.062193530544710995 0.0 0.02360790192596962 0.0 0.0
0.05484828295556379 -0.051446628813696105 0.0 0.02099426343579336 0.0 0.0
0.04475400735941701 -0.04158474292624614 0.0 0.01827258835437995 0.0 0.0
0.03561259207517037 -0.032674643164450234 0.0 0.015587447595477033 0.0 0.0
0.027404619783663015 -0.02470004327618014 0.0 0.012888987302149268 0.0 0.0
0.02013021510311372 -0.017666396136975848 0.0 0.010108175542092646 0.0 0.0
0.013886374596759482 -0.011674864203852664 0.0 0.007374319107759042 0.0 0.0
0.00884090026724707 -0.006906281218759025 0.0 0.004914235697475511 0.0 0.0
0.0051661164018433625 -0.003559889568121699 0.0 0.003045275130763303 0.0 0.0
0.002903026149023352 -0.0016540556754944813 0.0 0.0019500128067430622 0.0 0.0
0.0017734063684690382 -0.0008281094253674848 0.0 0.0014777087920023746 0.0 0.0
0.001233950444185422 -0.000488643677532985 0.0 0.00128523705501149 0.0 0.0
0.0007346422059058832 -0.0002193708806122463 0.0 0.0012579166791335528 0.0 0.0
0.00032437689062816966 -0.0003053842382863825 0.0 0.0016329880340031355 0.0 0.0
0.003548623844911891 -0.005084130853462024 0.0 0.005577450198549605 0.0 0.0
0.0026348913318112177 -0.004046666339786148 0.0 -0.004501334760795173 0.0 0.0
0.0002260277041992581 -0.00026112405126871296 0.0 -0.001978436745584733 0.0 0.0
0.0005368530074021799 -0.0001587345001673457 0.0 -0.0016220705731618268 0.0 0.0
0.0009740549178317848 -0.0003699940068331298 0.0 -0.001583414768526914 0.0 0.0
0.0014299618740476056 -0.0006384225007891597 0.0 -0.0017423360922395603 0.0 0.0
0.0022521949342714093 -0.001194416556989264 0.0 -0.002165545935136348 0.0 0.0
0.003977510738288156 -0.002552235505002498 0.0 -0.0031837498094610672 0.0 0.0
0.006909430543253256 -0.00513215360126229 0.0 -0.004994928792792619 0.0 0.0
0.011068641892129333 -0.00899803052361392 0.0 -0.007512898528983347 0.0 0.0
0.016245982214951868 -0.01393301274502834 0.0 -0.010373444936435938 0.0 0.0
0.02224405050520624 -0.01971145598268942 0.0 -0.013257356111171958 0.0 0.0
0.028970346595757368 -0.026228629625095312 0.0 -0.016056402686347726 0.0 0.0
0.0364359956006471 -0.03349145174341572 0.0 -0.018840745870624287 0.0 0.0
0.044691951805449937 -0.041547206248452095 0.0 -0.021644957468815063 0.0 0.0
0.053732845791540945 -0.0503868533712839 0.0 -0.024356792101090374 0.0 0.0
0.06342604326718214 -0.059880089787432755 0.0 -0.02666800533169633 0.0 0.0
0.0735008894566771 -0.06975429599018934 0.0 -0.028067604445467353 0.0 0.0
0.08351956093341416 -0.07955814657758431 0.0 -0.027683411615869513 0.0 0.0
0.09270300118078861 -0.0885111281205706 0.0 -0.023876229239325975 0.0 0.0
0.0998555868311034 -0.09545507358108463 0.0 -0.014722405160266128 0.0 0.0
0.09985558683109488 -0.09545507358107885 0.0 0.01472240516031631 0.0 0.0
0.09270300118076641 -0.08851112812054884 0.0 0.023876229239388258 0.0 0.0
0.08351956093338161 -0.07955814657755012 0.0 0.027683411615916476 0.0 0.0
0.07350088945663899 -0.06975429599014982 0.0 0.028067604445488392 0.0 0.0
0.06342604326713897 -0.05988008978739012 0.0 0.026668005331688116 0.0 0.0
0.05373284579149615 -0.050386853371240825 0.0 0.024356792101079883 0.0 0.0
0.044691951805406305 -0.041547206248407687 0.0 0.021644957468804904 0.0 0.0
0.03643599560060512 -0.03349145174337176 0.0 0.018840745870613573 0.0 0.0
0.028970346595716956 -0.026228629625058453 0.0 0.016056402686330573 0.0 0.0
0.02224405050516981 -0.019711455982655668 0.0 0.013257356111152752 0.0 0.0
0.01624598221492099 -0.013933012744999473 0.0 0.010373444936412124 0.0 0.0
0.01106864189210427 -0.008998030523589273 0.0 0.007512898528966805 0.0 0.0
0.006909430543236367 -0.005132153601247191 0.0 0.004994928792780573 0.0 0.0
0.003977510738278428 -0.0025522355049933942 0.0 0.0031837498094537398 0.0 0.0
0.0022521949342669267 -0.0011944165569863774 0.0 0.0021655459351317963 0.0 0.0
0.001429961874046759 -0.0006384225007898259 0.0 0.0017423360922373954 0.0 0.0
0.0009740549178309799 -0.0003699940068326857 0.0 0.0015834147685253597 0.0 0.0
0.0005368530074023325 -0.0001587345001674012 0.0 0.0016220705731586627 0.0 0.0
0.00022602770419924423 -0.00026112405126796356 0.0 0.0019784367455818463 0.0 0.0
0.0026348913318038347 -0.0040466663397776565 0.0 0.004501334760783571 0.0 0.0
0.0019116836284110844 -0.003171698316986382 0.0 -0.003611572508069094 0.0 0.0
0.00015697795022220906 -0.00022965833575222527 0.0 -0.002220508110299446 0.0 0.0
0.00036373918069250444 -0.00010733574961618864 0.0 -0.0019165318348732252 0.0 0.0
0.0007176853600009414 -0.0002560847751684747 0.0 -0.0018574665235115972 0.0 0.0
0.001103969405774563 -0.0004758611680883984 0.0 -0.0020034961809947682 0.0 0.0
0.0016813850822635645 -0.0008319446916986717 0.0 -0.0023479164303195077 0.0 0.0
0.002901624065478961 -0.0017064897014684721 0.0 -0.003210707278197167 0.0 0.0
0.005094521215794151 -0.0035245332970441634 0.0 -0.004831124017840693 0.0 0.0
0.008318905525574974 -0.0064348673062495365 0.0 -0.007156006617355715 0.0 0.0
0.012404759409993332 -0.01027391147899337 0.0 -0.009915278665854621 0.0 0.0
0.01712112512868169 -0.014788767720563811 0.0 -0.012755245512343971 0.0 0.0
0.02237066038520294 -0.01985146108554936 0.0 -0.01549268476531429 0.0 0.0
0.028167375078013007 -0.025473359794564665 0.0 -0.018196732402978255 0.0 0.0
0.034586111555690066 -0.031724177420363375 0.0 -0.020923812492823934 0.0 0.0
0.04167263821810316 -0.038644330185286346 0.0 -0.023570354846378427 0.0 0.0
0.04937575140191369 -0.04617695428664126 0.0 -0.025842025940068625 0.0 0.0
0.05753204880421618 -0.05417614432325335 0.0 -0.027343180815228574 0.0 0.0
0.06597416353429578 -0.06246185039946983 0.0 -0.027388203613679107 0.0 0.0
0.07434047079746156 -0.07063562762722109 0.0 -0.024314800018426452 0.0 0.0
0.08167675422031928 -0.07774983294753213 0.0 -0.01570780537673344 0.0 0.0
0.08167675422031251 -0.07774983294752635 0.0 0.015707805376781847 0.0 0.0
0.07434047079744366 -0.07063562762721043 0.0 0.02431480001849151 0.0 0.0
0.0659741635342696 -0.06246185039944141 0.0 0.027388203613727846 0.0 0.0
0.05753204880418539 -0.05417614432322537 0.0 0.027343180815250334 0.0 0.0
0.0493757514018785 -0.046176954286608396 0.0 0.025842025940058244 0.0 0.0
0.0416726382180683 -0.03864433018525126 0.0 0.02357035484636394 0.0 0.0
0.03458611155565597 -0.03172417742033007 0.0 0.02092381249281483 0.0 0.0
0.028167375077981643 -0.025473359794534467 0.0 0.018196732402967375 0.0 0.0
0.022370660385172353 -0.019851461085523603 0.0 0.015492684765296305 0.0 0.0
0.017121125128652964 -0.014788767720533613 0.0 0.0127552455123221 0.0 0.0
0.012404759409969296 -0.010273911478964948 0.0 0.009915278665830973 0.0 0.0
0.008318905525555809 -0.006434867306227554 0.0 0.0071560066173402825 0.0 0.0
0.005094521215781939 -0.0035245332970308407 0.0 0.004831124017830646 0.0 0.0
0.0029016240654717307 -0.0017064897014642533 0.0 0.0032107072781901724 0.0 0.0
0.0016813850822609555 -0.0008319446916984496 0.0 0.002347916430314456 0.0 0.0
0.001103969405773897 -0.0004758611680882874 0.0 0.002003496180992159 0.0 0.0
0.0007176853600004973 -0.00025608477516814165 0.0 0.0018574665235095988 0.0 0.0
0.00036373918069237954 -0.00010733574961557801 0.0 0.0019165318348721705 0.0 0.0
0.00015697795022204253 -0.00022965833575150363 0.0 0.0022205081102982804 0.0 0.0
0.0019116836284056582 -0.003171698316980059 0.0 0.0036115725080616556 0.0 0.0
0.0013503758302823993 -0.0024497567572430157 0.0 -0.0029127993914402905 0.0 0.0
9.378176684221584e-05 -0.00020309323584305483 0.0 -0.0023624978471377678 0.0 0.0
0.00020414324026260533 -5.723439335403313e-05 0.0 -0.002140883524455739 0.0 0.0
0.0004668164955827364 -0.00014411136561398585 0.0 -0.0020860477477755435 0.0 0.0
0.0007767336300086164 -0.0003223280492070657 0.0 -0.002240686039423734 0.0 0.0
0.0011763765453965125 -0.0005525937539887504 0.0 -0.002545974551317498 0.0 0.0
0.0019486991802756676 -0.0010397027210347076 0.0 -0.0031927130966651895 0.0 0.0
0.0034270751907035796 -0.002140295062254438 0.0 -0.0044692495615965 0.0 0.0
0.005700571114126085 -0.004073725643992443 0.0 -0.006400544899859417 0.0 0.0
0.008649896325076512 -0.006762071891219357 0.0 -0.008781618297661942 0.0 0.0
0.012067070222195483 -0.009982573189958988 0.0 -0.01133484507249205 0.0 0.0
0.015840964851724107 -0.01358990735669563 0.0 -0.013843520078690774 0.0 0.0
0.019980246868926327 -0.01757967809125427 0.0 -0.016318482213943775 0.0 0.0
0.024564948354559996 -0.02202849250632255 0.0 -0.018788918925156772 0.0 0.0
0.029684487611151805 -0.027017017596442372 0.0 -0.021208483328010397 0.0 0.0
0.03537048776088145 -0.032566683128748775 0.0 -0.023326608066772003 0.0 0.0
0.04155923200782902 -0.03862422864641646 0.0 -0.024742241998880643 0.0 0.0
0.048255998839638686 -0.045228928781304134 0.0 -0.02514723755783066 0.0 0.0
0.05560064967896816 -0.05245144149537584 0.0 -0.02334384413288093 0.0 0.0
0.06312412390087949 -0.05973710820424172 0.0 -0.016374560524693216 0.0 0.0
0.0631241239008754 -0.059737108204243494 0.0 0.016374560524735293 0.0 0.0
0.05560064967895437 -0.05245144149536918 0.0 0.02334384413294055 0.0 0.0
0.04825599883961909 -0.04522892878128815 0.0 0.025147237557873958 0.0 0.0
0.04155923200780548 -0.03862422864639381 0.0 0.024742241998894965 0.0 0.0
0.03537048776085511 -0.032566683128724794 0.0 0.02332660806676179 0.0 0.0
0.029684487611127103 -0.02701701759642061 0.0 0.021208483327998517 0.0 0.0
0.02456494835453607 -0.02202849250630523 0.0 0.018788918925149667 0.0 0.0
0.019980246868905482 -0.017579678091234285 0.0 0.016318482213938612 0.0 0.0
0.015840964851702305 -0.013589907356676534 0.0 0.013843520078675509 0.0 0.0
0.012067070222174903 -0.009982573189946553 0.0 0.01133484507247351 0.0 0.0
0.008649896325059386 -0.006762071891206478 0.0 0.008781618297640681 0.0 0.0
0.005700571114113651 -0.004073725643981785 0.0 0.006400544899845817 0.0 0.0
0.003427075190695239 -0.002140295062248887 0.0 0.0044692495615867855 0.0 0.0
0.001948699180271296 -0.0010397027210304888 0.0 0.003192713096660027 0.0 0.0
0.0011763765453950137 -0.0005525937539876402 0.0 0.0025459745513141674 0.0 0.0
0.0007767336300082972 -0.0003223280492069547 0.0 0.0022406860394218464 0.0 0.0
0.00046681649558263927 -0.00014411136561354176 0.0 0.0020860477477721018 0.0 0.0
0.00020414324026230002 -5.723439335414415e-05 0.0 0.0021408835244524638 0.0 0.0
9.378176684207706e-05 -0.00020309323584261074 0.0 0.0023624978471352698 0.0 0.0
0.0013503758302788327 -0.002449756757238417 0.0 0.002912799391433629 0.0 0.0
0.0009371783748090556 -0.0018857672791835756 0.0 -0.0024058913860126596 0.0 0.0
2.1958537225974517e-05 -0.00017952434913531823 0.0 -0.002434859986073512 0.0 0.0
5.1217296417715996e-05 -2.397614284554983e-06 0.0 -0.0022983564627767072 0.0 0.0
0.00022313102902057902 -3.566351095429798e-05 0.0 -0.002260966988303581 0.0 0.0
0.0004412302561950243 -0.00016422064987731133 0.0 -0.0024214935399722304 0.0 0.0
0.0006989847571518548 -0.00031727622333277417 0.0 -0.002744582995478473 0.0 0.0
0.001121477848375796 -0.0005486070974871637 0.0 -0.003215632655018119 0.0 0.0
0.0019329349214051716 -0.0010476314401610676 0.0 -0.004028011839583512 0.0 0.0
0.003267045629110038 -0.002030347970075841 0.0 -0.005342850799370857 0.0 0.0
0.0050455116252953736 -0.003527786258361587 0.0 -0.007076874325647076 0.0 0.0
0.007129274310979483 -0.005404277959454973 0.0 -0.009063784822627596 0.0 0.0
0.009409830122821483 -0.007531058972137128 0.0 -0.01112099974684555 0.0 0.0
0.011898389151437677 -0.009889440968539276 0.0 -0.01321958719502414 0.0 0.0
0.014660219531906687 -0.012543304354072138 0.0 -0.015310604726093802 0.0 0.0
0.017797377844750856 -0.015586104261319456 0.0 -0.01737091253475198 0.0 0.0
0.02142680526561261 -0.01912002720334538 0.0 -0.019264898165867406 0.0 0.0
0.025623010165286064 -0.023204779671956555 0.0 -0.020608835018060878 0.0 0.0
0.030462875269999662 -0.027964967341863378 0.0 -0.021085892244429805 0.0 0.0
0.036372588881124907 -0.033881259051468327 0.0 -0.02055665421053976 0.0 0.0
0.04388177363666457 -0.041168809766098935 0.0 -0.01647962549310511 0.0 0.0
0.04388177363666265 -0.0411688097660976 0.0 0.01647962549313986 0.0 0.0
0.03637258888111644 -0.03388125905145589 0.0 0.02055665421059305 0.0 0.0
0.030462875269986422 -0.027964967341849167 0.0 0.02108589224446844 0.0 0.0
0.025623010165270493 -0.023204779671943676 0.0 0.020608835018071536 0.0 0.0
0.021426805265596705 -0.019120027203326284 0.0 0.019264898165853084 0.0 0.0
0.017797377844736284 -0.015586104261300804 0.0 0.01737091253473888 0.0 0.0
0.014660219531893809 -0.012543304354058371 0.0 0.015310604726086807 0.0 0.0
0.01189838915142688 -0.009889440968529062 0.0 0.013219587195020588 0.0 0.0
0.009409830122809187 -0.007531058972126914 0.0 0.01112099974683356 0.0 0.0
0.007129274310967576 -0.005404277959442094 0.0 0.009063784822614496 0.0 0.0
0.005045511625285326 -0.003527786258351373 0.0 0.007076874325630866 0.0 0.0
0.0032670456291038485 -0.0020303479700698457 0.0 0.005342850799364196 0.0 0.0
0.001932934921400814 -0.0010476314401546283 0.0 0.004028011839579182 0.0 0.0
0.0011214778483735754 -0.0005486070974858315 0.0 0.0032156326550153436 0.0 0.0
0.000698984757151272 -0.0003172762233334403 0.0 0.0027445829954755308 0.0 0.0
0.0004412302561950521 -0.0001642206498780885 0.0 0.002421493539969899 0.0 0.0
0.000223131029020468 -3.5663510952965716e-05 0.0 0.002260966988300306 0.0 0.0
5.121729641752171e-05 -2.3976142826120928e-06 0.0 0.002298356462773876 0.0 0.0
2.1958537225669206e-05 -0.0001795243491357068 0.0 0.0024348599860732345 0.0 0.0
0.000937178374806974 -0.0018857672791806352 0.0 0.0024058913860094955 0.0 0.0
0.0006452263397399849 -0.0014598378021737912 0.0 -0.002055079066861698 0.0 0.0
-5.6561544732547375e-05 -0.0001603152159018184 0.0 -0.0024698898626561716 0.0 0.0
-9.811928177799745e-05 5.8065827358899647e-05 0.0 -0.0023974435274812245 0.0 0.0
-1.361297326107902e-05 6.928816922713299e-05 0.0 -0.0023789163351433107 0.0 0.0
0.00010270785299629215 -3.23152095238477e-06 0.0 -0.002530849040121408 0.0 0.0
0.00021820155969720645 -8.627512530412496e-05 0.0 -0.0028766876045900336 0.0 0.0
0.00036476778353072836 -0.00017179104887699026 0.0 -0.0033440049660850013 0.0 0.0
0.0006154941413663018 -0.0002990506565268003 0.0 -0.003840293657054905 0.0 0.0
0.0010513764802140557 -0.0005293046973378068 0.0 -0.004460574704544584 0.0 0.0
0.0016448331437803332 -0.0008989359609219427 0.0 -0.0053691229753107805 0.0 0.0
0.0023474399352417796 -0.0013941340588972118 0.0 -0.006623910822532553 0.0 0.0
0.003103621055640521 -0.001992009074498924 0.0 -0.008116327054763173 0.0 0.0
0.003923643312779029 -0.0026944057075528605 0.0 -0.00979338905115723 0.0 0.0
0.004850151360057314 -0.003535190586251513 0.0 -0.011623584296594047 0.0 0.0
0.005985731459438537 -0.004602660819027271 0.0 -0.013581871187256844 0.0 0.0
0.007516951236186814 -0.006063988186881808 0.0 -0.015527920834616404 0.0 0.0
0.009696538734373122 -0.008146029004229671 0.0 -0.017061710082517556 0.0 0.0
0.012734495692340253 -0.01104425988914004 0.0 -0.017554810973184898 0.0 0.0
0.016908049082340643 -0.015210730674025896 0.0 -0.017101839777565075 0.0 0.0
0.023573107708315666 -0.021915706101556243 0.0 -0.016016296798068708 0.0 0.0
0.023573107708315444 -0.02191570610155491 0.0 0.016016296798098795 0.0 0.0
0.01690804908233723 -0.015210730674024564 0.0 0.017101839777607264 0.0 0.0
0.012734495692333592 -0.011044259889136043 0.0 0.01755481097321021 0.0 0.0
0.009696538734366544 -0.008146029004222566 0.0 0.017061710082517223 0.0 0.0
0.007516951236182484 -0.006063988186884028 0.0 0.015527920834602416 0.0 0.0
0.005985731459434596 -0.004602660819025051 0.0 0.013581871187247518 0.0 0.0
0.004850151360055316 -0.003535190586251513 0.0 0.011623584296586609 0.0 0.0
0.003923643312778113 -0.002694405707550196 0.0 0.009793389051154122 0.0 0.0
0.003103621055638578 -0.0019920090744918184 0.0 0.00811632705475207 0.0 0.0
0.0023474399352385877 -0.0013941340588918827 0.0 0.006623910822522117 0.0 0.0
0.001644833143778196 -0.0008989359609214986 0.0 0.005369122975298679 0.0 0.0
0.0010513764802128067 -0.0005293046973358084 0.0 0.004460574704541476 0.0 0.0
0.0006154941413653581 -0.0002990506565272444 0.0 0.0038402936570509083 0.0 0.0
0.000364767783530201 -0.00017179104887832253 0.0 0.0033440049660802273 0.0 0.0
0.00021820155969726196 -8.627512530590131e-05 0.0 0.0028766876045862033 0.0 0.0
0.00010270785299662522 -3.231520955049305e-06 0.0 0.0025308490401182993 0.0 0.0
-1.3612973261162287e-05 6.92881692256897e-05 0.0 0.0023789163351409792 0.0 0.0
-9.811928177799745e-05 5.8065827358289024e-05 0.0 0.0023974435274780603 0.0 0.0
-5.656154473263064e-05 -0.00016031521590120779 0.0 0.002469889862655339 0.0 0.0
0.0006452263397387914 -0.0014598378021719576 0.0 0.0020550790668599217 0.0 0.0
0.00044166922520536 -0.001151403836343573 0.0 -0.001832875750337415 0.0 0.0
-0.00013217854348329672 -0.00013737109940942238 0.0 -0.002470921767297407 0.0 0.0
-0.00024340528753408197 0.00011903439492277901 0.0 -0.0024445908204967504 0.0 0.0
-0.00024370235958459663 0.00017123904001103973 0.0 -0.0024336211142322317 0.0 0.0
-0.00023244064597374714 0.00015624834277305766 0.0 -0.0025672857255240045 0.0 0.0
-0.0002674197770089759 0.00014746005421550912 0.0 -0.002892815944301741 0.0 0.0
-0.00038061454279081364 0.0001875966897120218 0.0 -0.00334989713734668 0.0 0.0
-0.0006195181312520781 0.0003024278782386425 0.0 -0.0038443829784524097 0.0 0.0
-0.0010507032860921084 0.0005295058330596625 0.0 -0.004462377309698895 0.0 0.0
-0.0016433183422065456 0.0008984850171787073 0.0 -0.005367602135658789 0.0 0.0
-0.002352164150144276 0.0014017786554028078 0.0 -0.00662378483383097 0.0 0.0
-0.003136471524815665 0.0020252914908462927 0.0 -0.008123167292439115 0.0 0.0
-0.004000713059758548 0.002761536869559489 0.0 -0.009802154205376667 0.0 0.0
-0.00492525843705896 0.0035768263129738465 0.0 -0.011629860550816495 0.0 0.0
-0.0058029098447202054 0.00436023069747149 0.0 -0.01360118243033881 0.0 0.0
-0.006399425688224519 0.004885585243569857 0.0 -0.015671793208206553 0.0 0.0
-0.006332200769594176 0.004800722045776418 0.0 -0.01780895858349918 0.0 0.0
-0.005226521646648552 0.0038546864124491265 0.0 -0.02005982143945595 0.0 0.0
-0.0027790645165989003 0.001909453232477265 0.0 -0.022090192706023193 0.0 0.0
0.0032682097626444417 -0.0037633888379104974 0.0 -0.020693593499167995 0.0 0.0
0.0032682097626442475 -0.003763388837909165 0.0 0.02069359349918276 0.0 0.0
-0.0027790645165996775 0.0019094532324843705 0.0 0.022090192706040845 0.0 0.0
-0.005226521646646554 0.00385468641244735 0.0 0.02005982143946028 0.0 0.0
-0.006332200769588819 0.0048007220457755295 0.0 0.017808958583491963 0.0 0.0
-0.006399425688216637 0.004885585243568524 0.0 0.015671793208191898 0.0 0.0
-0.005802909844713072 0.004360230697469714 0.0 0.013601182430326597 0.0 0.0
-0.004925258437051189 0.003576826312966741 0.0 0.011629860550807725 0.0 0.0
-0.00400071305974975 0.00276153686954439 0.0 0.009802154205371671 0.0 0.0
-0.003136471524807505 0.002025291490836967 0.0 0.00812316729242657 0.0 0.0
-0.002352164150137448 0.0014017786553996991 0.0 0.006623784833818647 0.0 0.0
-0.0016433183422003284 0.0008984850171747105 0.0 0.005367602135648131 0.0 0.0
-0.0010507032860888332 0.0005295058330605507 0.0 0.004462377309697785 0.0 0.0
-0.0006195181312500242 0.0003024278782377543 0.0 0.0038443829784498007 0.0 0.0
-0.0003806145427894536 0.00018759668971291 0.0 0.0033498971373430164 0.0 0.0
-0.00026741977700844854 0.00014746005421861774 0.0 0.0028928159442985213 0.0 0.0
-0.00023244064597324754 0.00015624834277339072 0.0 0.002567285725520896 0.0 0.0
-0.00024370235958451336 0.00017123904001070667 0.0 0.002433621114230178 0.0 0.0
-0.00024340528753383217 0.00011903439492166878 0.0 0.0024445908204951405 0.0 0.0
-0.0001321785434831857 -0.00013737109941044934 0.0 0.002470921767295964 0.0 0.0
0.0004416692252051657 -0.0011514038363431341 0.0 0.0018328757503344728 0.0 0.0
0.00030164951755354275 -0.000913096944531705 0.0 -0.0016568689540937265 0.0 0.0
-0.0002003139940853771 -0.0001065462918027893 0.0 -0.0024230266652137677 0.0 0.0
-0.0003822359827924393 0.00017683324443906745 0.0 -0.002439301946178085 0.0 0.0
-0.0004660264159170313 0.0002690556476375727 0.0 -0.002421102524389429 0.0 0.0
-0.0005607556997539731 0.00031058625249746896 0.0 -0.0025246359248980443 0.0 0.0
-0.0007456617342422311 0.00037718074509984767 0.0 -0.0027968911967278798 0.0 0.0
-0.0011368665235571285 0.0005652274906906563 0.0 -0.003240694206630035 0.0 0.0
-0.0019356879640576308 0.0010513855882909873 0.0 -0.004041128014108275 0.0 0.0
-0.003264914283754472 0.0020294134893794613 0.0 -0.005345185744061565 0.0 0.0
-0.005044051590233051 0.003527951411029129 0.0 -0.0070757306580244705 0.0 0.0
-0.007136408837304015 0.005414982202089469 0.0 -0.00906337455507722 0.0 0.0
-0.009441843290043772 0.00756736993766971 0.0 -0.011110723733584793 0.0 0.0
-0.011969080343032401 0.009957786980315131 0.0 -0.013179949117878897 0.0 0.0
-0.014723714908802421 0.012580282291467348 0.0 -0.015260427160832868 0.0 0.0
-0.017608760756974484 0.015328161816641206 0.0 -0.01743895454079536 0.0 0.0
-0.020351008359206835 0.017933541036360356 0.0 -0.0197985645277462 0.0 0.0
-0.022497247893231737 0.01996561055970769 0.0 -0.022418122978094868 0.0 0.0
-0.023497702578341523 0.020895725145665178 0.0 -0.025207515449789275 0.0 0.0
-0.022354345032995104 0.019481227972235615 0.0 -0.026440271251442327 0.0 0.0
-0.01612906726107599 0.012994494645757193 0.0 -0.024150996941470715 0.0 0.0
-0.016129067261076685 0.012994494645756305 0.0 0.024150996941501357 0.0 0.0
-0.02235434503299208 0.01948122797222407 0.0 0.0264402712514874 0.0 0.0
-0.023497702578331225 0.020895725145655852 0.0 0.025207515449817808 0.0 0.0
-0.022497247893214806 0.01996561055969881 0.0 0.0224181229780942 0.0 0.0
-0.020351008359187517 0.017933541036340372 0.0 0.01979856452772988 0.0 0.0
-0.017608760756956304 0.01532816181662211 0.0 0.01743895454078148 0.0 0.0
-0.014723714908785213 0.012580282291451361 0.0 0.015260427160818657 0.0 0.0
-0.011969080343013305 0.009957786980299588 0.0 0.013179949117869572 0.0 0.0
-0.00944184329002562 0.007567369937651058 0.0 0.011110723733569028 0.0 0.0
-0.007136408837287556 0.005414982202073926 0.0 0.009063374555058568 0.0 0.0
-0.00504405159021884 0.0035279514110184707 0.0 0.007075730658003987 0.0 0.0
-0.0032649142837456457 0.0020294134893708016 0.0 0.005345185744051184 0.0 0.0
-0.0019356879640520103 0.0010513855882876566 0.0 0.0040411280141032235 0.0 0.0
-0.0011368665235540337 0.0005652274906904342 0.0 0.003240694206624928 0.0 0.0
-0.000745661734240996 0.0003771807450969611 0.0 0.0027968911967243826 0.0 0.0
-0.0005607556997532376 0.00031058625249591465 0.0 0.0025246359248974892 0.0 0.0
-0.0004660264159166705 0.0002690556476364625 0.0 0.002421102524388652 0.0 0.0
-0.000382235982792023 0.00017683324444006665 0.0 0.0024393019461768084 0.0 0.0
-0.00020031399408515504 -0.0001065462918025395 0.0 0.0024230266652135457 0.0 0.0
0.00030164951755352887 -0.0009130969445309087 0.0 0.0016568689540923942 0.0 0.0
0.0001992417531473667 -0.0007047943624677311 0.0 -0.0014697377669623535 0.0 0.0
-0.00026146546251290537 -6.95543640233387e-05 0.0 -0.002321745109755635 0.0 0.0
-0.0005127231363848128 0.0002307818495981273 0.0 -0.0023764773551795404 0.0 0.0
-0.0006794712497107669 0.00036113824441952325 0.0 -0.0023433670380452742 0.0 0.0
-0.0008780509631229616 0.00045569226547548247 0.0 -0.0024017804797811237 0.0 0.0
-0.001219359692411659 0.0006114402717252165 0.0 -0.002631329616073652 0.0 0.0
-0.001961817797914961 0.0010578342977960453 0.0 -0.0032331390493511303 0.0 0.0
-0.0034258144405215074 0.0021416222092902615 0.0 -0.00448306379171548 0.0 0.0
-0.005697026334301941 0.004071018222338463 0.0 -0.006398275138172205 0.0 0.0
-0.008650231867138147 0.006763535326619774 0.0 -0.008780595471738262 0.0 0.0
-0.01207561532867013 0.009993800467681613 0.0 -0.01133244826426949 0.0 0.0
-0.015865860471575205 0.013618835765096815 0.0 -0.013810799032246801 0.0 0.0
-0.020029713029403484 0.01762889805025969 0.0 -0.016205435259169065 0.0 0.0
-0.02460207591568639 0.022045682022026725 0.0 -0.018612334749099402 0.0 0.0
-0.029506519415259003 0.026781079084542636 0.0 -0.021246018246796616 0.0 0.0
-0.03444048606631425 0.03153843088166797 0.0 -0.02439100158846852 0.0 0.0
-0.03884440998531091 0.035773500038620565 0.0 -0.028222825491045378 0.0 0.0
-0.04179321009921974 0.038505714274595704 0.0 -0.032026820376320986 0.0 0.0
-0.04149691819316806 0.03793293939055564 0.0 -0.03394465532228086 0.0 0.0
-0.034439498720265915 0.030200445961363176 0.0 -0.03020680762027894 0.0 0.0
-0.034439498720266165 0.030200445961364064 0.0 0.03020680762031991 0.0 0.0
-0.04149691819315998 0.0379329393905512 0.0 0.03394465532233215 0.0 0.0
-0.041793210099203115 0.03850571427457794 0.0 0.03202682037635207 0.0 0.0
-0.03884440998528399 0.03577350003859037 0.0 0.028222825491051373 0.0 0.0
-0.034440486066285025 0.031538430881640434 0.0 0.024391001588458305 0.0 0.0
-0.02950651941523033 0.026781079084517767 0.0 0.02124601824678335 0.0 0.0
-0.024602075915659452 0.022045682022003632 0.0 0.01861233474908275 0.0 0.0
-0.020029713029374355 0.017628898050231268 0.0 0.01620543525915874 0.0 0.0
-0.01586586047154756 0.013618835765071058 0.0 0.013810799032226817 0.0 0.0
-0.012075615328644679 0.00999380046765852 0.0 0.01133244826424612 0.0 0.0
-0.00865023186711622 0.006763535326593129 0.0 0.008780595471715669 0.0 0.0
-0.005697026334287036 0.004071018222325362 0.0 0.006398275138159049 0.0 0.0
-0.0034258144405116403 0.002141622209283378 0.0 0.004483063791707709 0.0 0.0
-0.0019618177979096457 0.0010578342977924926 0.0 0.003233139049345024 0.0 0.0
-0.0012193596924091749 0.0006114402717272149 0.0 0.0026313296160696 0.0 0.0
-0.0008780509631218375 0.00045569226547781394 0.0 0.0024017804797791253 0.0 0.0
-0.000679471249710295 0.0003611382444211886 0.0 0.002343367038043831 0.0 0.0
-0.0005127231363843965 0.00023078184959834935 0.0 0.0023764773551783747 0.0 0.0
-0.0002614654625125168 -6.95543640230889e-05 0.0 0.002321745109754525 0.0 0.0
0.00019924175314707526 -0.0007047943624670372 0.0 0.001469737766960133 0.0 0.0
0.00011467376142507146 -0.0005188345459705146 0.0 -0.0012754034320102137 0.0 0.0
-0.0003178989615003902 -2.6345863060994734e-05 0.0 -0.0021652919505190105 0.0 0.0
-0.0006348268786912359 0.0002811349506935956 0.0 -0.0022596965715159234 0.0 0.0
-0.0008832904758742377 0.0004457462815800062 0.0 -0.0022074227745025876 0.0 0.0
-0.0011810228344898699 0.0005925906341741616 0.0 -0.002212214357081854 0.0 0.0
-0.0017192500780413844 0.0008892282496875126 0.0 -0.002460580309882443 0.0 0.0
-0.002907778484593504 0.0017214509716418913 0.0 -0.0032549737900047226 0.0 0.0
-0.005088929705054507 0.0035207719575418572 0.0 -0.004834617941246788 0.0 0.0
-0.008315884795453504 0.00643194361269428 0.0 -0.007150664754725478 0.0 0.0
-0.01240779125057781 0.010277634790085699 0.0 -0.00991534551709361 0.0 0.0
-0.017129553156339877 0.01479871488287543 0.0 -0.01275095294105244 0.0 0.0
-0.02238171572734951 0.019864957844155207 0.0 -0.015441042974769004 0.0 0.0
-0.02817729605688915 0.025484598852143936 0.0 -0.018018588475153807 0.0 0.0
-0.03457440746042473 0.031703054192399716 0.0 -0.0206184995858254 0.0 0.0
-0.04152532654319932 0.038460730431807644 0.0 -0.023535895620318104 0.0 0.0
-0.048716900639855204 0.045435962664956975 0.0 -0.027218913037759696 0.0 0.0
-0.055387274024947725 0.05185895547923147 0.0 -0.03182008925683488 0.0 0.0
-0.060088629171200614 0.0562684829600677 0.0 -0.03647115573861037 0.0 0.0
-0.06031844144964718 0.056077855828584156 0.0 -0.03872882426739244 0.0 0.0
-0.051561706920292244 0.04666513944683315 0.0 -0.03524643179190079 0.0 0.0
-0.051561706920290634 0.046665139446832704 0.0 0.03524643179194564 0.0 0.0
-0.060318441449634635 0.05607785582857305 0.0 0.038728824267453166 0.0 0.0
-0.06008862917117758 0.056268482960046384 0.0 0.03647115573865112 0.0 0.0
-0.055387274024912656 0.051858955479205715 0.0 0.031820089256843265 0.0 0.0
-0.04871690063981639 0.04543596266492189 0.0 0.027218913037748427 0.0 0.0
-0.04152532654316107 0.0384607304317659 0.0 0.023535895620303227 0.0 0.0
-0.034574407460387396 0.031703054192365965 0.0 0.02061849958580675 0.0 0.0
-0.02817729605685035 0.02548459885210841 0.0 0.018018588475139763 0.0 0.0
-0.02238171572731243 0.019864957844116127 0.0 0.015441042974750407 0.0 0.0
-0.017129553156306057 0.014798714882842567 0.0 0.012750952941028348 0.0 0.0
-0.012407791250548278 0.010277634790058165 0.0 0.00991534551706802 0.0 0.0
-0.008315884795432535 0.006431943612675184 0.0 0.007150664754709768 0.0 0.0
-0.0050889297050398935 0.003520771957530977 0.0 0.004834617941235353 0.0 0.0
-0.002907778484585413 0.001721450971635008 0.0 0.0032549737899973397 0.0 0.0
-0.0017192500780375264 0.000889228249684848 0.0 0.0024605803098791124 0.0 0.0
-0.0011810228344886903 0.0005925906341729403 0.0 0.002212214357080189 0.0 0.0
-0.0008832904758734328 0.0004457462815800062 0.0 0.002207422774500256 0.0 0.0
-0.0006348268786908334 0.00028113495069326255 0.0 0.0022596965715139805 0.0 0.0
-0.0003178989614999739 -2.6345863061300046e-05 0.0 0.0021652919505165125 0.0 0.0
0.00011467376142483554 -0.0005188345459701867 0.0 0.0012754034320073826 0.0 0.0
4.1319157768032744e-05 -0.0003546997812633179 0.0 -0.0010762496775226227 0.0 0.0
-0.000372359830623753 2.208715157692165e-05 0.0 -0.0019571975852871737 0.0 0.0
-0.0007493811427966013 0.0003287174558007644 0.0 -0.002085925799699906 0.0 0.0
-0.0010754064795044371 0.0005210343911217219 0.0 -0.0020062283167395223 0.0 0.0
-0.001478018885907345 0.0007320349750115085 0.0 -0.0019766651218793285 0.0 0.0
-0.0022795310944035974 0.0012416790609242057 0.0 -0.0022762779647044207 0.0 0.0
-0.003975665824870356 0.0025590256710010806 0.0 -0.0032125723826864627 0.0 0.0
-0.006902304841057499 0.005125289185450743 0.0 -0.004990900548520416 0.0 0.0
-0.011067834751603 0.008996884426427876 0.0 -0.007506199746004083 0.0 0.0
-0.01625154073734894 0.01393881075077763 0.0 -0.01037334128296108 0.0 0.0
-0.02225045547914692 0.019718076434136034 0.0 -0.013248651352645302 0.0 0.0
-0.028962434105152146 0.026221080317738732 0.0 -0.015991265182612846 0.0 0.0
-0.03639335308608807 0.033451457879687396 0.0 -0.018627498121294273 0.0 0.0
-0.04461231579048808 0.04147152919771191 0.0 -0.021263841515780757 0.0 0.0
-0.05361654807621599 0.050258553592752886 0.0 -0.024215247027163156 0.0 0.0
-0.06306900525471912 0.05945063172783849 0.0 -0.027971360786819055 0.0 0.0
-0.07195980937514607 0.06802350875055341 0.0 -0.032767408112118535 0.0 0.0
-0.07829043806824171 0.07396152501252029 0.0 -0.037814031111850666 0.0 0.0
-0.07873328231064242 0.07391223710986194 0.0 -0.040855462831467904 0.0 0.0
-0.06823438014927236 0.06282527685502126 0.0 -0.0397283709574614 0.0 0.0
-0.06823438014926761 0.06282527685501549 0.0 0.03972837095750892 0.0 0.0
-0.0787332823106254 0.07391223710984285 0.0 0.040855462831526856 0.0 0.0
-0.07829043806821197 0.0739615250124892 0.0 0.0378140311118938 0.0 0.0
-0.07195980937510446 0.06802350875051344 0.0 0.03276740811213125 0.0 0.0
-0.06306900525467123 0.05945063172778786 0.0 0.027971360786811117 0.0 0.0
-0.053616548076168405 0.05025855359270759 0.0 0.02421524702715272 0.0 0.0
-0.044612315790440546 0.041471529197663504 0.0 0.021263841515763104 0.0 0.0
-0.036393353086039915 0.03345145787963899 0.0 0.018627498121279396 0.0 0.0
-0.028962434105105322 0.026221080317694767 0.0 0.01599126518259192 0.0 0.0
-0.022250455479105105 0.019718076434096954 0.0 0.013248651352618601 0.0 0.0
-0.016251540737311887 0.013938810750741215 0.0 0.010373341282934656 0.0 0.0
-0.011067834751576022 0.008996884426399676 0.0 0.007506199745988207 0.0 0.0
-0.006902304841037793 0.005125289185434756 0.0 0.0049909005485074265 0.0 0.0
-0.00397566582485899 0.002559025670993087 0.0 0.003212572382678025 0.0 0.0
-0.0022795310943981156 0.0012416790609195427 0.0 0.0022762779647003684 0.0 0.0
-0.0014780188859057908 0.0007320349750103983 0.0 0.001976665121878385 0.0 0.0
-0.0010754064795036322 0.0005210343911206117 0.0 0.0020062283167385786 0.0 0.0
-0.0007493811427960878 0.0003287174558009309 0.0 0.00208592579969874 0.0 0.0
-0.0003723598306235032 2.2087151576866138e-05 0.0 0.001957197585285786 0.0 0.0
4.1319157767963355e-05 -0.0003546997812631826 0.0 0.0010762496775216235 0.0 0.0
-2.1826288850973485e-05 -0.00021385557362815777 0.0 -0.000871579985621096 0.0 0.0
-0.0004254698844621263 7.385983799257367e-05 0.0 -0.001703058445700678 0.0 0.0
-0.000857288936781081 0.0003734385900940884 0.0 -0.0018560085406871818 0.0 0.0
-0.0012566250068632434 0.0005904086493596639 0.0 -0.001756550570868376 0.0 0.0
-0.001788047454313546 0.0008943029709023165 0.0 -0.0017202595582710978 0.0 0.0
-0.002913365893320058 0.0016859501531254484 0.0 -0.0020558851853781923 0.0 0.0
-0.005160140766917204 0.0035595108146069254 0.0 -0.0030617038181547374 0.0 0.0
-0.008835565012659807 0.0069002672278941635 0.0 -0.004903346947395082 0.0 0.0
-0.013888576003319136 0.011676501976202402 0.0 -0.0073684925426869 0.0 0.0
-0.0201372304877655 0.017673243047162224 0.0 -0.010107784081845428 0.0 0.0
-0.027406488298645976 0.02470100909775841 0.0 -0.012874716853948809 0.0 0.0
-0.035583093844024916 0.032643873562918646 0.0 -0.015515117591032301 0.0 0.0
-0.04465750501018825 0.041491796726578656 0.0 -0.018066483817507972 0.0 0.0
-0.054692324060321124 0.0513053223569675 0.0 -0.020619547486871004 0.0 0.0
-0.0657024824932928 0.062077084293569396 0.0 -0.023333980756825135 0.0 0.0
-0.07734510301422254 0.07341957284873146 0.0 -0.026642438825826398 0.0 0.0
-0.08839301275805311 0.08407820268722643 0.0 -0.031050268307599715 0.0 0.0
-0.09628163845906534 0.09148697453637 0.0 -0.03626682555310501 0.0 0.0
-0.0969583877019761 0.09162994903921717 0.0 -0.04091800559257075 0.0 0.0
-0.08498023873010335 0.07910446944825145 0.0 -0.04396599724374761 0.0 0.0
-0.08498023873009625 0.07910446944824256 0.0 0.043965997243795685 0.0 0.0
-0.09695838770195483 0.09162994903919719 0.0 0.04091800559262859 0.0 0.0
-0.0962816384590282 0.09148697453632648 0.0 0.0362668255531467 0.0 0.0
-0.08839301275800437 0.08407820268717492 0.0 0.031050268307610818 0.0 0.0
-0.07734510301416662 0.07341957284867506 0.0 0.026642438825818793 0.0 0.0
-0.06570248249323508 0.062077084293512996 0.0 0.02333398075681714 0.0 0.0
-0.054692324060264336 0.05130532235691598 0.0 0.020619547486854795 0.0 0.0
-0.04465750501013063 0.04149179672652492 0.0 0.018066483817495094 0.0 0.0
-0.0355830938439691 0.03264387356286358 0.0 0.015515117591013428 0.0 0.0
-0.027406488298595683 0.02470100909770956 0.0 0.012874716853922885 0.0 0.0
-0.02013723048772144 0.017673243047124476 0.0 0.01010778408181856 0.0 0.0
-0.013888576003286107 0.011676501976171982 0.0 0.007368492542669747 0.0 0.0
-0.008835565012635466 0.006900267227872181 0.0 0.004903346947381926 0.0 0.0
-0.005160140766902271 0.0035595108145929366 0.0 0.0030617038181446343 0.0 0.0
-0.0029133658933127166 0.0016859501531192311 0.0 0.0020558851853750837 0.0 0.0
-0.001788047454311173 0.0008943029709014283 0.0 0.00172025955826971 0.0 0.0
-0.0012566250068625079 0.0005904086493579985 0.0 0.001756550570868598 0.0 0.0
-0.0008572889367803593 0.00037343859009425495 0.0 0.0018560085406866822 0.0 0.0
-0.0004254698844617655 7.385983799296225e-05 0.0 0.0017030584457009001 0.0 0.0
-2.1826288851042874e-05 -0.00021385557362760266 0.0 0.0008715799856211515 0.0 0.0
-7.318527665156616e-05 -9.870236287246037e-05 0.0 -0.0006606003381586789 0.0 0.0
-0.0004753969973090022 0.00012616294631823122 0.0 -0.0014079531278601842 0.0 0.0
-0.0009593684633947275 0.0004153037760104006 0.0 -0.0015698926344360764 0.0 0.0
-0.001432423953658668 0.0006575585583847854 0.0 -0.0014575518346010563 0.0 0.0
-0.002129309412361474 0.0010892334827761196 0.0 -0.001423407722407788 0.0 0.0
-0.003628611411083754 0.002237875653760213 0.0 -0.00178365403534414 0.0 0.0
-0.006454023926776548 0.004708820158879856 0.0 -0.002799709209603929 0.0 0.0
-0.010830527393044076 0.008778629408725758 0.0 -0.00450045078399719 0.0 0.0
-0.01673385511478573 0.014406452397014213 0.0 -0.006689163019675648 0.0 0.0
-0.024037641802076543 0.021442916894909736 0.0 -0.009154893177577672 0.0 0.0
-0.03257031885396455 0.02971270836107287 0.0 -0.011645550448115438 0.0 0.0
-0.042216940335438685 0.03909975891399364 0.0 -0.014029033700493465 0.0 0.0
-0.05294827773828051 0.04957702679849474 0.0 -0.01636063829460921 0.0 0.0
-0.06478925785269163 0.06116734152540282 0.0 -0.018676539182927998 0.0 0.0
-0.07771890687413249 0.07383669214321786 0.0 -0.0209716190567093 0.0 0.0
-0.09139351185363404 0.08718899076818909 0.0 -0.023427560827773197 0.0 0.0
-0.10449382262976142 0.09984024946569159 0.0 -0.026766644209474943 0.0 0.0
-0.11401734882706191 0.10880896183405264 0.0 -0.03188264805869223 0.0 0.0
-0.11525667346271579 0.10945997048672051 0.0 -0.038983076822260765 0.0 0.0
-0.10220895026605162 0.09587163724667569 0.0 -0.047945363196842394 0.0 0.0
-0.10220895026604179 0.09587163724667036 0.0 0.04794536319688547 0.0 0.0
-0.11525667346269007 0.1094599704866952 0.0 0.03898307682231433 0.0 0.0
-0.11401734882701757 0.10880896183400512 0.0 0.0318826480587297 0.0 0.0
-0.10449382262970533 0.0998402494656383 0.0 0.026766644209485546 0.0 0.0
-0.09139351185356982 0.08718899076812603 0.0 0.02342756082776898 0.0 0.0
-0.07771890687406512 0.07383669214314947 0.0 0.020971619056704083 0.0 0.0
-0.06478925785262524 0.06116734152533532 0.0 0.018676539182914398 0.0 0.0
-0.05294827773821381 0.049577026798431234 0.0 0.016360638294597163 0.0 0.0
-0.04221694033537406 0.039099758913929694 0.0 0.0140290337004767 0.0 0.0
-0.03257031885390607 0.029712708361011142 0.0 0.011645550448093234 0.0 0.0
-0.024037641802025896 0.02144291689486133 0.0 0.00915489317755358 0.0 0.0
-0.01673385511474651 0.014406452396978686 0.0 0.006689163019661326 0.0 0.0
-0.010830527393015356 0.0087786294087 0.0 0.0045004507839861985 0.0 0.0
-0.006454023926757577 0.004708820158863203 0.0 0.002799709209595269 0.0 0.0
-0.0036286114110743867 0.0022378756537519973 0.0 0.0017836540353404207 0.0 0.0
-0.002129309412358102 0.0010892334827747874 0.0 0.0014234077224053454 0.0 0.0
-0.0014324239536580297 0.0006575585583864507 0.0 0.001457551834599169 0.0 0.0
-0.0009593684633936866 0.000415303776010123 0.0 0.0015698926344352993 0.0 0.0
-0.00047539699730871077 0.00012616294631798142 0.0 0.0014079531278593516 0.0 0.0
-7.31852766515037e-05 -9.870236287237537e-05 0.0 0.0006606003381581238 0.0 0.0
-0.00010904448817861123 -1.2472252874456968e-05 0.0 -0.00044490697804278057 0.0 0.0
-0.0005174048303842049 0.00017528090371654592 0.0 -0.0010746254983285408 0.0 0.0
-0.0010564494406016811 0.00045344961764837155 0.0 -0.001226280507508004 0.0 0.0
-0.001611705965432253 0.000732378472417361 0.0 -0.001114289530725121 0.0 0.0
-0.002517758633461764 0.0013392167714423309 0.0 -0.0010887324018573064 0.0 0.0
-0.004436159002587814 0.0029033043537054493 0.0 -0.0014545286452527506 0.0 0.0
-0.007816483472838809 0.005956138025509317 0.0 -0.0023278317894162015 0.0 0.0
-0.012844394252990221 0.010700376036673953 0.0 -0.0037063453149478454 0.0 0.0
-0.01958036042068617 0.017155532392032047 0.0 -0.005499460633965225 0.0 0.0
-0.027923654209473958 0.0252152645286996 0.0 -0.007528023014671148 0.0 0.0
-0.0377149833123015 0.03472124055483228 0.0 -0.009582753378318487 0.0 0.0
-0.04883613406210088 0.04555774852626904 0.0 -0.011545783927998543 0.0 0.0
-0.06123633143489152 0.057673944132811794 0.0 -0.013478462460821072 0.0 0.0
-0.07488050130360521 0.0710331196174292 0.0 -0.015438420139750497 0.0 0.0
-0.08963828425286044 0.08549929371693787 0.0 -0.017245545858381783 0.0 0.0
-0.10509544154655201 0.10062466980208029 0.0 -0.018627301355384596 0.0 0.0
-0.12002893024699499 0.11510639767959319 0.0 -0.020221399905667847 0.0 0.0
-0.1314242792180807 0.12585998309589064 0.0 -0.024610806830201115 0.0 0.0
-0.13385188400665143 0.12761382904614704 0.0 -0.03460902355062878 0.0 0.0
-0.12036999391667488 0.11353737298534705 0.0 -0.051343945309775374 0.0 0.0
-0.12036999391666231 0.11353737298533328 0.0 0.05134394530980668 0.0 0.0
-0.13385188400662112 0.12761382904610752 0.0 0.034609023550673856 0.0 0.0
-0.13142427921802902 0.12585998309584268 0.0 0.02461080683023198 0.0 0.0
-0.1200289302469308 0.11510639767953101 0.0 0.020221399905675286 0.0 0.0
-0.10509544154647882 0.10062466980201057 0.0 0.018627301355383152 0.0 0.0
-0.08963828425278422 0.08549929371686593 0.0 0.017245545858379285 0.0 0.0
-0.07488050130352891 0.0710331196173617 0.0 0.015438420139742115 0.0 0.0
-0.061236331434816195 0.057673944132738963 0.0 0.013478462460812107 0.0 0.0
-0.048836134062027504 0.04555774852619798 0.0 0.011545783927987163 0.0 0.0
-0.0377149833122353 0.03472124055477099 0.0 0.009582753378300168 0.0 0.0
-0.027923654209416567 0.02521526452864231 0.0 0.007528023014652441 0.0 0.0
-0.01958036042064131 0.017155532391990302 0.0 0.005499460633954734 0.0 0.0
-0.012844394252957102 0.010700376036641757 0.0 0.0037063453149385195 0.0 0.0
-0.007816483472816611 0.005956138025489333 0.0 0.0023278317894090406 0.0 0.0
-0.004436159002576143 0.0029033043536961234 0.0 0.001454528645247477 0.0 0.0
-0.002517758633457108 0.001339216771438445 0.0 0.001088732401856085 0.0 0.0
-0.0016117059654312538 0.0007323784724169169 0.0 0.00111428953072501 0.0 0.0
-0.0010564494406007235 0.000453449617648205 0.0 0.001226280507507449 0.0 0.0
-0.0005174048303836429 0.0001752809037164904 0.0 0.001074625498326709 0.0 0.0
-0.00010904448817854184 -1.2472252874625236e-05 0.0 0.0004449069780428361 0.0 0.0
-0.00012277626207546355 4.062545511687721e-05 0.0 -0.00023121602124653862 0.0 0.0
-0.000542560013078508 0.00021519089407401326 0.0 -0.0007026337354907319 0.0 0.0
-0.0011504062926216974 0.0004890131862761438 0.0 -0.0008185899911004046 0.0 0.0
-0.0018091771365941756 0.0008242171312178304 0.0 -0.000728581504989112 0.0 0.0
-0.002970795009653915 0.0016674700855474622 0.0 -0.0007251484638198802 0.0 0.0
-0.005322377826872782 0.0036716864153734097 0.0 -0.0010107152180063306 0.0 0.0
-0.009204959604654006 0.007259147444614866 0.0 -0.0016224749734846666 0.0 0.0
-0.01485937064207965 0.012637899085059967 0.0 -0.002561526691714666 0.0 0.0
-0.02240065816843051 0.019894260851462064 0.0 -0.003805675988889312 0.0 0.0
-0.03176717811140822 0.028960054962857473 0.0 -0.00523398636046446 0.0 0.0
-0.042813044518803633 0.03969738918931176 0.0 -0.006681573418095388 0.0 0.0
-0.05541342656210235 0.05198714045254871 0.0 -0.008065056936670367 0.0 0.0
-0.06949016217961149 0.06574947107637685 0.0 -0.009457603645804058 0.0 0.0
-0.0849281962349995 0.08086548195756693 0.0 -0.010858808105276951 0.0 0.0
-0.10144883660186735 0.09705275424431292 0.0 -0.012056930693738921 0.0 0.0
-0.11846258332122486 0.11371609906599112 0.0 -0.012606527632955555 0.0 0.0
-0.13481483551189705 0.12965927524028764 0.0 -0.012418669219858347 0.0 0.0
-0.1480744452115966 0.1423320508507664 0.0 -0.014304094736080741 0.0 0.0
-0.1529230301425919 0.14623171083522424 0.0 -0.02626049417976528 0.0 0.0
-0.14013118608708955 0.13271822994369797 0.0 -0.05337610279712013 0.0 0.0
-0.14013118608707428 0.13271822994368998 0.0 0.053376102797145 0.0 0.0
-0.1529230301425566 0.14623171083518738 0.0 0.026260494179801752 0.0 0.0
-0.14807444521153743 0.14233205085071177 0.0 0.014304094736104334 0.0 0.0
-0.13481483551182405 0.12965927524021525 0.0 0.012418669219859901 0.0 0.0
-0.11846258332114175 0.11371609906591473 0.0 0.012606527632955167 0.0 0.0
-0.10144883660178197 0.09705275424422988 0.0 0.012056930693737977 0.0 0.0
-0.08492819623491367 0.08086548195747678 0.0 0.010858808105273426 0.0 0.0
-0.06949016217952722 0.06574947107629381 0.0 0.009457603645794205 0.0 0.0
-0.0554134265620202 0.05198714045246877 0.0 0.008065056936665232 0.0 0.0
-0.042813044518729845 0.03969738918923982 0.0 0.006681573418083148 0.0 0.0
-0.03176717811134427 0.02896005496279841 0.0 0.005233986360451248 0.0 0.0
-0.022400658168380837 0.019894260851414547 0.0 0.003805675988882151 0.0 0.0
-0.014859370642041795 0.012637899085022664 0.0 0.0025615266917070056 0.0 0.0
-0.009204959604628981 0.007259147444591552 0.0 0.0016224749734797816 0.0 0.0
-0.005322377826858134 0.0036716864153614193 0.0 0.0010107152180021672 0.0 0.0
-0.00297079500964818 0.0016674700855439095 0.0 0.0007251484638211014 0.0 0.0
-0.0018091771365926317 0.0008242171312170532 0.0 0.0007285815049897781 0.0 0.0
-0.0011504062926210173 0.0004890131862759217 0.0 0.0008185899911004046 0.0 0.0
-0.0005425600130776025 0.00021519089407409653 0.0 0.0007026337354897327 0.0 0.0
-0.0001227762620752866 4.062545511690149e-05 0.0 0.000231216021245928 0.0 0.0
-0.00010258903645005146 5.461855586169628e-05 0.0 -3.6024766095488214e-05 0.0 0.0
-0.0005353517473912772 0.00023615481435890207 0.0 -0.0002848388549999692 0.0 0.0
-0.0012466722445302891 0.0005256160753630557 0.0 -0.00033283754339125116 0.0 0.0
-0.002047038747667984 0.000958503139009137 0.0 -0.0003083463403886766 0.0 0.0
-0.0034960689870878747 0.0020746255365620137 0.0 -0.000309789062321264 0.0 0.0
-0.0062547376451289605 0.004505500111255278 0.0 -0.0004241299475389315 0.0 0.0
-0.010605139976995304 0.008588676420089092 0.0 -0.0006768994630925729 0.0 0.0
-0.016850856559887384 0.01456600427266852 0.0 -0.001068148355821752 0.0 0.0
-0.02516796361242224 0.022592188009710412 0.0 -0.001616703664339858 0.0 0.0
-0.03553865561552949 0.032646115518428775 0.0 -0.0022709440884050025 0.0 0.0
-0.04783810573756769 0.04461397327733918 0.0 -0.0029438424677814545 0.0 0.0
-0.06192630172873509 0.05836322958948115 0.0 -0.0036046590320782945 0.0 0.0
-0.07766870195930892 0.0737610086678151 0.0 -0.0042627067916735095 0.0 0.0
-0.09487563312114741 0.09061027130498367 0.0 -0.004885810021280967 0.0 0.0
-0.113133215056935 0.10849109618948649 0.0 -0.005351595473080728 0.0 0.0
-0.13161515338193286 0.1265812191595037 0.0 -0.005350819763302761 0.0 0.0
-0.14898834084682014 0.143560229852163 0.0 -0.004455354957913604 0.0 0.0
-0.16331952693173427 0.1574628956016646 0.0 -0.003292823981914439 0.0 0.0
-0.1712129870705522 0.16466859926233468 0.0 -0.010338681065748423 0.0 0.0
-0.16341695422797253 0.15488986710646513 0.0 -0.04916467048089401 0.0 0.0
-0.16341695422795538 0.15488986710644825 0.0 0.049164670480903006 0.0 0.0
-0.1712129870705117 0.16466859926228805 0.0 0.010338681065765465 0.0 0.0
-0.16331952693166724 0.15746289560159976 0.0 0.0032928239819264293 0.0 0.0
-0.14898834084673723 0.14356022985208616 0.0 0.004455354957910496 0.0 0.0
-0.13161515338183927 0.12658121915941756 0.0 0.005350819763301706 0.0 0.0
-0.11313321505684028 0.1084910961893919 0.0 0.005351595473080062 0.0 0.0
-0.09487563312105213 0.0906102713048873 0.0 0.00488581002127958 0.0 0.0
-0.07766870195921541 0.07376100866772006 0.0 0.004262706791670234 0.0 0.0
-0.06192630172864425 0.058363229589387 0.0 0.003604659032076185 0.0 0.0
-0.047838105737486404 0.044613973277256136 0.0 0.002943842467775598 0.0 0.0
-0.03553865561545967 0.032646115518362606 0.0 0.0022709440883978416 0.0 0.0
-0.025167963612367544 0.02259218800965823 0.0 0.0016167036643369714 0.0 0.0
-0.016850856559845525 0.01456600427262722 0.0 0.001068148355819587 0.0 0.0
-0.01060513997696739 0.008588676420058228 0.0 0.0006768994630914626 0.0 0.0
-0.006254737645111932 0.004505500111238181 0.0 0.00042412994753454614 0.0 0.0
-0.003496068987080223 0.002074625536554575 0.0 0.0003097890623191546 0.0 0.0
-0.002047038747666134 0.0009585031390074716 0.0 0.00030834634038756636 0.0 0.0
-0.001246672244529434 0.0005256160753631112 0.0 0.0003328375433885866 0.0 0.0
-0.0005353517473904801 0.0002361548143581249 0.0 0.0002848388549989145 0.0 0.0
-0.000102589036449479 5.461855586142046e-05 0.0 3.60247660949331e-05 0.0 0.0
SCALARS Statev float 8
LOOKUP_TABLE default
0.0 0.012921865226016823 0.009983953922641491 -0.010365517865913578 0.0003815639432720849 -0.0057342361351609816 0.0 0.0
0.0 0.000711541585784723 0.0004982749192934523 -0.0004205531034507787 -7.772181584267353e-05 0.00046832442713567855 0.0 0.0
0.0 3.342380937738801e-05 -4.754075056001044e-06 3.773145031477424e-06 9.809300245235895e-07 5.62033213615258e-07 0.0 0.0
0.0 0.00026404604925053387 0.00018386438647358008 -0.00014466429515238544 -3.92000913211947e-05 -2.574639566416262e-05 0.0 0.0
0.0 0.001452165761619356 0.0011675889545224956 -0.0009648054226483965 -0.00020278353187409894 -0.00012674585353649863 0.0 0.0
0.0 0.003944127282365161 0.0035794415612799956 -0.0031349747857336205 -0.000444466775546375 -0.00029378497594095723 0.0 0.0
0.0 0.008559016532921427 0.00763654286701496 -0.007018066629711054 -0.0006184762373039072 -0.0005429062052572137 0.0 0.0
0.0 0.01543554987017351 0.013622927743040813 -0.01288458175465404 -0.0007383459883867683 -0.0009157343372716148 0.0 0.0
0.0 0.024738373399279 0.021686609855371734 -0.020843080265946497 -0.0008435295894252334 -0.0014410074403887474 0.0 0.0
0.0 0.03645089462939079 0.03181457461631891 -0.03086267317776981 -0.0009519014385490965 -0.0020808093052024803 0.0 0.0
0.0 0.05047083086776834 0.04389842242218181 -0.04283395933743393 -0.001064463084747847 -0.00275413968280942 0.0 0.0
0.0 0.0663647574710029 0.05781041374496461 -0.056630955953563614 -0.0011794577914009485 -0.0034217231677735453 0.0 0.0
0.0 0.08429062057088085 0.07342003850698428 -0.07212435304401185 -0.001295685462972365 -0.004084887861355653 0.0 0.0
0.0 0.10406317644414936 0.09056914386536694 -0.08915445786211755 -0.0014146860032493052 -0.004739579326782262 0.0 0.0
0.0 0.1252637553372723 0.10895035063977748 -0.10741238361526195 -0.0015379670245155156 -0.0053632046899668995 0.0 0.0
0.0 0.1472361757887517 0.1279653803716646 -0.1263008226251557 -0.0016645577465088939 -0.005838150317145806 0.0 0.0
0.0 0.168848123514464 0.14666283757921073 -0.14487240271170881 -0.0017904348675019037 -0.005942796760254855 0.0 0.0
0.0 0.18861236175144963 0.1637712012993882 -0.16186042635560757 -0.0019107749437806444 -0.005445440795051682 0.0 0.0
0.0 0.20477271161790445 0.1777655583491776 -0.1757423807106701 -0.002023177638507467 -0.004556677846795455 0.0 0.0
0.0 0.21461907309460107 0.18643048311240595 -0.18424480463669407 -0.0021856784757119563 -0.004993223971409717 0.0 0.0
0.0 0.2146190730945864 0.18643048311239327 -0.18424480463668114 -0.0021856784757121406 0.004993223971416861 0.0 0.0
0.0 0.20477271161786065 0.17776555834913937 -0.17574238071063225 -0.002023177638507052 0.004556677846816709 0.0 0.0
0.0 0.18861236175137644 0.16377120129932465 -0.16186042635554468 -0.0019107749437799605 0.005445440795063381 0.0 0.0
0.0 0.16884812351437012 0.1466628375791291 -0.14487240271162782 -0.0017904348675012083 0.005942796760261536 0.0 0.0
0.0 0.14723617578865061 0.12796538037157681 -0.1263008226250688 -0.0016645577465080636 0.005838150317136036 0.0 0.0
0.0 0.12526375533716816 0.10895035063968708 -0.1074123836151721 -0.0015379670245149442 0.005363204689966222 0.0 0.0
0.0 0.10406317644404196 0.09056914386527405 -0.08915445786202468 -0.0014146860032493306 0.004739579326781462 0.0 0.0
0.0 0.08429062057077585 0.0734200385068933 -0.07212435304392137 -0.0012956854629719457 0.004084887861354483 0.0 0.0
0.0 0.06636475747090484 0.05781041374487972 -0.056630955953479015 -0.0011794577914006747 0.0034217231677666827 0.0 0.0
0.0 0.050470830867680797 0.043898422422105676 -0.04283395933735819 -0.001064463084747469 0.002754139682805029 0.0 0.0
0.0 0.036450894629318095 0.03181457461625575 -0.030862673177707533 -0.0009519014385482303 0.0020808093051947396 0.0 0.0
0.0 0.02473837339922421 0.021686609855323453 -0.020843080265899053 -0.0008435295894244123 0.0014410074403862088 0.0 0.0
0.0 0.015435549870133704 0.01362292774300537 -0.012884581754619248 -0.0007383459883861153 0.0009157343372683917 0.0 0.0
0.0 0.008559016532893891 0.007636542866990167 -0.007018066629686992 -0.0006184762373031732 0.0005429062052558613 0.0 0.0
0.0 0.003944127282349253 0.003579441561265272 -0.0031349747857198455 -0.0004444667755454261 0.0002937849759395179 0.0 0.0
0.0 0.0014521657616122232 0.0011675889545166094 -0.0009648054226432923 -0.0002027835318733163 0.00012674585353579217 0.0 0.0
0.0 0.00026404604924845534 0.00018386438647262175 -0.0001446642951516093 -3.920009132101243e-05 2.574639566397059e-05 0.0 0.0
0.0 3.342380937687491e-05 -4.754075055922566e-06 3.7731450314146314e-06 9.80930024507978e-07 -5.620332136057866e-07 0.0 0.0
0.0 0.0007115415857816985 0.0004982749192916793 -0.0004205531034492274 -7.772181584245219e-05 -0.00046832442713359086 0.0 0.0
0.0 0.012921865225998436 0.0099839539226292 -0.010365517865900268 0.00038156394327106295 0.005734236135131825 0.0 0.0
0.0 0.009552814916105 0.006918424667466181 -0.0074104005833153805 0.0004919759158491954 -0.006601127795575567 0.0 0.0
0.0 4.519286462866547e-06 2.3201147614231917e-06 -2.003652420883351e-06 -3.164623405398463e-07 1.5441795269565823e-06 0.0 0.0
0.0 4.506070943118362e-07 -2.8249676478026843e-08 2.234985384018695e-08 5.899822637837142e-09 1.3090528265566497e-08 0.0 0.0
0.0 9.613907496752359e-05 5.9286418932478424e-05 -4.638850758139837e-05 -1.2897911351080289e-05 -2.161330189718951e-05 0.0 0.0
0.0 0.000959068438675501 0.0007294397813028871 -0.0005945704053099037 -0.0001348693759929832 -0.00019475839852535723 0.0 0.0
0.0 0.0030135934208821206 0.002738212874629391 -0.0023608302372799825 -0.00037738263734940817 -0.0005969717490509004 0.0 0.0
0.0 0.007090260960230079 0.006323201351995112 -0.005746125490034499 -0.0005770758619606112 -0.0012321804539871665 0.0 0.0
0.0 0.013290502612621557 0.011712706112133578 -0.011001834035239608 -0.000710872076893968 -0.002140281085160519 0.0 0.0
0.0 0.02170422963570563 0.019000053664033133 -0.01818215105871978 -0.000817902605313346 -0.0033456859352543806 0.0 0.0
0.0 0.03226024972149934 0.02812616002299951 -0.027204027901888417 -0.0009221321211110994 -0.004757159220846519 0.0 0.0
0.0 0.04480701899356608 0.038960963839146184 -0.037933664652162816 -0.0010272991869833686 -0.006218615159127392 0.0 0.0
0.0 0.05925770417329892 0.05139232243473364 -0.05025943407227347 -0.0011328883624601672 -0.007632231289923302 0.0 0.0
0.0 0.07523430532596552 0.06534830868622298 -0.06410850868620364 -0.0012398000000193108 -0.009052294316146948 0.0 0.0
0.0 0.09290183697827196 0.08071253224895332 -0.07936340438288357 -0.001349127866069725 -0.010497070916075702 0.0 0.0
0.0 0.11195599646515678 0.09722407244816698 -0.09576261714037221 -0.001461455307794719 -0.011873391527997977 0.0 0.0
0.0 0.13173495284890635 0.11437576309755682 -0.11279955894150986 -0.0015762041560470035 -0.012944842248223691 0.0 0.0
0.0 0.15129736757811363 0.1313439339645343 -0.12965242422551307 -0.001691509739021281 -0.013275763662884316 0.0 0.0
0.0 0.16931480406291355 0.1469690807719169 -0.14516322207448898 -0.0018058586974278772 -0.012488768006198294 0.0 0.0
0.0 0.18391668288048027 0.15964867373411362 -0.15771856254488978 -0.001930111189223818 -0.010744815135528888 0.0 0.0
0.0 0.19266734477330116 0.1672745660787926 -0.1652495704108088 -0.0020249956679838405 -0.007861501080205039 0.0 0.0
0.0 0.19266734477328873 0.16727456607878144 -0.165249570410798 -0.0020249956679834666 0.007861501080227682 0.0 0.0
0.0 0.1839166828804431 0.15964867373408026 -0.15771856254485755 -0.0019301111892227885 0.010744815135566766 0.0 0.0
0.0 0.1693148040628518 0.14696908077186227 -0.1451632220744356 -0.0018058586974266423 0.01248876800622428 0.0 0.0
0.0 0.1512973675780314 0.13134393396446273 -0.12965242422544207 -0.0016915097390205406 0.013275763662895897 0.0 0.0
0.0 0.13173495284881614 0.11437576309747871 -0.11279955894143243 -0.0015762041560462197 0.012944842248213545 0.0 0.0
0.0 0.11195599646506478 0.09722407244808715 -0.095762617140293 -0.0014614553077941243 0.011873391527994031 0.0 0.0
0.0 0.09290183697817841 0.0807125322488724 -0.0793634043828027 -0.001349127866069659 0.010497070916071941 0.0 0.0
0.0 0.07523430532587429 0.06534830868614364 -0.06410850868612523 -0.001239800000018382 0.009052294316142316 0.0 0.0
0.0 0.05925770417321377 0.0513923224346593 -0.050259434072200466 -0.0011328883624588094 0.007632231289913654 0.0 0.0
0.0 0.04480701899348629 0.038960963839077004 -0.037933664652094065 -0.0010272991869829308 0.006218615159117846 0.0 0.0
0.0 0.03226024972143583 0.028126160022944425 -0.027204027901833547 -0.000922132121110877 0.004757159220833601 0.0 0.0
0.0 0.021704229635657116 0.01900005366399031 -0.01818215105867744 -0.0008179026053128612 0.0033456859352483416 0.0 0.0
0.0 0.01329050261258204 0.011712706112098816 -0.011001834035205372 -0.0007108720768934488 0.002140281085153701 0.0 0.0
0.0 0.007090260960205696 0.006323201351973246 -0.005746125490013282 -0.0005770758619599606 0.0012321804539829396 0.0 0.0
0.0 0.0030135934208692784 0.002738212874617986 -0.0023608302372695143 -0.00037738263734847207 0.0005969717490482377 0.0 0.0
0.0 0.0009590684386709969 0.0007294397812996605 -0.0005945704053072269 -0.00013486937599243377 0.00019475839852469903 0.0 0.0
0.0 9.613907496637169e-05 5.928641893206623e-05 -4.638850758106331e-05 -1.2897911351002763e-05 2.1613301897017484e-05 0.0 0.0
0.0 4.506070943743047e-07 -2.824967641445886e-08 2.2349853792269893e-08 5.899822622187055e-09 -1.3090528244042646e-08 0.0 0.0
0.0 4.519286462573046e-06 2.320114761498094e-06 -2.0036524209430252e-06 -3.164623405550642e-07 -1.5441795269952381e-06 0.0 0.0
0.0 0.009552814916083468 0.00691842466745193 -0.0074104005833004385 0.0004919759158485066 0.006601127795550421 0.0 0.0
0.0 0.007216625113996552 0.004946887076662309 -0.005463182292216886 0.0005162952155545762 -0.005779568661971436 0.0 0.0
0.0 0.0 0.0 0.0 0.0 0.0 0.0 0.0
0.0 0.0 0.0 0.0 0.0 0.0 0.0 0.0
0.0 1.8140686638042678e-05 1.339164591624846e-05 -1.0448826512663652e-05 -2.9428194035848227e-06 -8.991648223217663e-06 0.0 0.0
0.0 0.0005218485536082227 0.0004004126421353259 -0.0003221245592082778 -7.828808292704791e-05 -0.00019058601038379974 0.0 0.0
0.0 0.002325559765981705 0.0019418489861042667 -0.0016463566385252401 -0.00029549234757902585 -0.00073250843567561 0.0 0.0
0.0 0.005677071486042646 0.0050376350721161745 -0.004513386092512529 -0.000524248979603646 -0.0016682307169832552 0.0 0.0
0.0 0.011169048231873214 0.009798037820505569 -0.009122676113608948 -0.000675361706896618 -0.00301770233763242 0.0 0.0
0.0 0.018693342965238488 0.016278176955047626 -0.015490953882810084 -0.0007872230722375384 -0.004762508907404493 0.0 0.0
0.0 0.02810397615593693 0.024383023952829517 -0.023495350353018786 -0.0008876735998107155 -0.006772625408321039 0.0 0.0
0.0 0.03925174253107511 0.03396547494276014 -0.03297996966701869 -0.0009855052757414369 -0.00885015060515134 0.0 0.0
0.0 0.051927185524493685 0.04492421923255816 -0.04384178120891556 -0.0010824380236425864 -0.010866692468541812 0.0 0.0
0.0 0.06624721063881699 0.05721251996506441 -0.05603260881902074 -0.0011799111460436863 -0.012866074772885606 0.0 0.0
0.0 0.08180633593311708 0.0707697643913629 -0.06949060635080856 -0.0012791580405542664 -0.014917400332138581 0.0 0.0
0.0 0.09865222186222783 0.08539786588603111 -0.0840176788907349 -0.0013801869952961535 -0.016908428523574288 0.0 0.0
0.0 0.11629676405559708 0.10068731586531435 -0.09920430379885065 -0.0014830120664636503 -0.018481095635506213 0.0 0.0
0.0 0.13385789424742736 0.11594743055653851 -0.11435940548674155 -0.0015880250697969417 -0.019100029842322425 0.0 0.0
0.0 0.15009393081001077 0.1301110726560062 -0.12841221498074806 -0.0016988576752581357 -0.01825903142615405 0.0 0.0
0.0 0.16326246607065173 0.14164549501882445 -0.13983884393572824 -0.0018066510830961895 -0.01547403521427937 0.0 0.0
0.0 0.17136004953317646 0.1488079160792153 -0.14692375919810358 -0.0018841568811116668 -0.009907865388664058 0.0 0.0
0.0 0.17136004953316236 0.14880791607920263 -0.1469237591980908 -0.0018841568811117074 0.009907865388699227 0.0 0.0
0.0 0.1632624660706159 0.14164549501879203 -0.1398388439356957 -0.001806651083096353 0.015474035214330464 0.0 0.0
0.0 0.15009393080995673 0.130111072655958 -0.12841221498070005 -0.001698857675257892 0.01825903142619116 0.0 0.0
0.0 0.1338578942473576 0.11594743055647716 -0.11435940548668075 -0.0015880250697964588 0.01910002984233941 0.0 0.0
0.0 0.1162967640555164 0.10068731586524476 -0.09920430379878113 -0.001483012066463586 0.018481095635496547 0.0 0.0
0.0 0.09865222186214564 0.08539786588595985 -0.08401767889066403 -0.0013801869952958065 0.016908428523568296 0.0 0.0
0.0 0.08180633593303678 0.07076976439129279 -0.06949060635073957 -0.0012791580405532232 0.014917400332134328 0.0 0.0
0.0 0.06624721063873439 0.05721251996499271 -0.056032608818949385 -0.0011799111460433082 0.012866074772878964 0.0 0.0
0.0 0.051927185524415255 0.04492421923249054 -0.043841781208848504 -0.0010824380236420439 0.010866692468526118 0.0 0.0
0.0 0.039251742531009035 0.033965474942702314 -0.032979969666961984 -0.0009855052757402989 0.008850150605138427 0.0 0.0
0.0 0.028103976155879756 0.024383023952779786 -0.023495350352969756 -0.0008876735998100247 0.0067726254083038655 0.0 0.0
0.0 0.018693342965193628 0.016278176955008498 -0.015490953882771427 -0.0007872230722370662 0.004762508907393826 0.0 0.0
0.0 0.011169048231839404 0.009798037820475947 -0.00912267611357985 -0.0006753617068960978 0.003017702337623016 0.0 0.0
0.0 0.005677071486022018 0.0050376350720978055 -0.004513386092495053 -0.0005242489796027552 0.001668230716977475 0.0 0.0
0.0 0.002325559765971501 0.0019418489860958399 -0.001646356638517742 -0.000295492347578098 0.0007325084356721977 0.0 0.0
0.0 0.0005218485536042949 0.0004004126421325353 -0.00032212455920594015 -7.828808292659503e-05 0.0001905860103823093 0.0 0.0
0.0 1.8140686637859546e-05 1.3391645916622554e-05 -1.0448826512947039e-05 -2.942819403675536e-06 8.991648223404191e-06 0.0 0.0
0.0 0.0 0.0 0.0 0.0 0.0 0.0 0.0
0.0 0.0 0.0 0.0 0.0 0.0 0.0 0.0
0.0 0.007216625113978223 0.004946887076649711 -0.0054631822922035994 0.0005162952155538868 0.0057795686619510804 0.0 0.0
0.0 0.00538880444764888 0.0035402775038218723 -0.004024163140661696 0.0004838856368398212 -0.00455028159180757 0.0 0.0
0.0 0.0 0.0 0.0 0.0 0.0 0.0 0.0
0.0 0.0 0.0 0.0 0.0 0.0 0.0 0.0
0.0 2.973664350445368e-06 4.2857664013047355e-07 -3.317636546011725e-07 -9.681298552928542e-08 -4.374719214161146e-07 0.0 0.0
0.0 0.00024201051790529406 0.0001791233433102392 -0.00014290518330072023 -3.6218160009518837e-05 -0.00013752868769356482 0.0 0.0
0.0 0.0015753359622183876 0.001267205179267929 -0.0010558233325590905 -0.0002113818467088387 -0.0007274311087516399 0.0 0.0
0.0 0.004384203410585361 0.003797479887782191 -0.003345257353223787 -0.00045222253455840476 -0.0018556541213975383 0.0 0.0
0.0 0.009098426303860726 0.007903541024605373 -0.0072736235256320725 -0.0006299174989732998 -0.0035409078408156222 0.0 0.0
0.0 0.015703590309689184 0.013550559534438499 -0.012801167439259874 -0.0007493920951786289 -0.0056831714048634335 0.0 0.0
0.0 0.02395529237554895 0.020617721740117008 -0.019770109936746962 -0.0008476118033700184 -0.008130054418360623 0.0 0.0
0.0 0.03368075107942354 0.028942739155121362 -0.028003890511107382 -0.0009388486440139719 -0.010647749975137582 0.0 0.0
0.0 0.04474410272706002 0.03842728923615287 -0.03739975953814334 -0.0010275296980095557 -0.013104015959919748 0.0 0.0
0.0 0.05709840330842494 0.04904968077671445 -0.0479341831014622 -0.0011154976752522552 -0.015553344522722383 0.0 0.0
0.0 0.07075900395765158 0.06078640648605113 -0.05958166888682032 -0.0012047375992307989 -0.01802594860238989 0.0 0.0
0.0 0.08553385413472886 0.07350948006418154 -0.072215106728442 -0.0012943733357395311 -0.02042325697153965 0.0 0.0
0.0 0.1008448537788636 0.08691872345692908 -0.08553371486941949 -0.0013850085875095626 -0.022411790909464276 0.0 0.0
0.0 0.116413093100399 0.10045300398774845 -0.09897308183283166 -0.0014799221549167667 -0.02337844086749176 0.0 0.0
0.0 0.13095685239291172 0.11318679083108775 -0.11160678642033678 -0.0015800044107510082 -0.022570246560431762 0.0 0.0
0.0 0.14292883889493282 0.12378610460494108 -0.12211009494312815 -0.0016760096618129508 -0.019016246491860143 0.0 0.0
0.0 0.1506435289685927 0.13074835172037264 -0.1290023072167976 -0.00174604450357502 -0.011563056434491339 0.0 0.0
0.0 0.15064352896858083 0.13074835172036126 -0.1290023072167863 -0.0017460445035750035 0.011563056434537576 0.0 0.0
0.0 0.14292883889490074 0.1237861046049111 -0.12211009494309794 -0.001676009661813088 0.019016246491918486 0.0 0.0
0.0 0.13095685239286076 0.11318679083104173 -0.11160678642029029 -0.0015800044107513673 0.022570246560473066 0.0 0.0
0.0 0.11641309310033963 0.1004530039876955 -0.0989730818327794 -0.0014799221549160616 0.02337844086750989 0.0 0.0
0.0 0.10084485377879542 0.0869187234568698 -0.08553371486936139 -0.0013850085875083957 0.022411790909455345 0.0 0.0
0.0 0.08553385413465667 0.07350948006411871 -0.07221510672838041 -0.0012943733357382893 0.020423256971530288 0.0 0.0
0.0 0.07075900395758267 0.060786406485990915 -0.05958166888676106 -0.001204737599229829 0.018025948602383476 0.0 0.0
0.0 0.057098403308353494 0.04904968077665239 -0.04793418310140035 -0.0011154976752520316 0.0155533445227139 0.0 0.0
0.0 0.04474410272699008 0.03842728923609265 -0.03739975953808326 -0.0010275296980093874 0.013104015959900758 0.0 0.0
0.0 0.033680751079363545 0.028942739155069452 -0.02800389051105592 -0.0009388486440135342 0.010647749975119806 0.0 0.0
0.0 0.02395529237549631 0.020617721740072047 -0.019770109936702508 -0.0008476118033695331 0.008130054418339017 0.0 0.0
0.0 0.015703590309648303 0.01355055953440312 -0.012801167439225072 -0.0007493920951780441 0.005683171404849894 0.0 0.0
0.0 0.009098426303832766 0.00790354102458111 -0.0072736235256084915 -0.000629917498972614 0.0035409078408047464 0.0 0.0
0.0 0.00438420341056782 0.0037974798877671145 -0.0033452573532097027 -0.00045222253455741077 0.0018556541213907134 0.0 0.0
0.0 0.0015753359622097853 0.0012672051792615344 -0.0010558233325535249 -0.00021138184670800984 0.0007274311087478408 0.0 0.0
0.0 0.00024201051790265232 0.00017912334330884972 -0.00014290518329957753 -3.6218160009272296e-05 0.0001375286876925001 0.0 0.0
0.0 2.973664350013453e-06 4.285766402713939e-07 -3.3176365470826377e-07 -9.681298556311979e-08 4.3747192154579727e-07 0.0 0.0
0.0 0.0 0.0 0.0 0.0 0.0 0.0 0.0
0.0 0.0 0.0 0.0 0.0 0.0 0.0 0.0
0.0 0.005388804447633103 0.003540277503811423 -0.004024163140650511 0.00048388563683908676 0.004550281591791851 0.0 0.0
0.0 0.003894995129733611 0.002463819118821194 -0.002881338107921959 0.0004175189891007649 -0.003351428855547997 0.0 0.0
0.0 0.0 0.0 0.0 0.0 0.0 0.0 0.0
0.0 0.0 0.0 0.0 0.0 0.0 0.0 0.0
0.0 4.514932176561277e-07 7.738762285426774e-08 -5.8623432912804527e-08 -1.8764189941463352e-08 -1.1051205559245679e-07 0.0 0.0
0.0 9.53765951960431e-05 6.287838156674423e-05 -5.0085126262131344e-05 -1.279325530461293e-05 -7.505340309854417e-05 0.0 0.0
0.0 0.0009504569589677343 0.0007331424904326926 -0.000601167750935525 -0.000131974739497168 -0.0006253130199511228 0.0 0.0
0.0 0.0032767561498021815 0.0026484844991547544 -0.0022867570751104135 -0.00036172742404434055 -0.001803294424476269 0.0 0.0
0.0 0.007144985968848197 0.006049339737131989 -0.0054813608733159155 -0.0005679788638160727 -0.0036691144804368676 0.0 0.0
0.0 0.012755408625724537 0.010846924827404309 -0.010144900873295108 -0.0007020239541092005 -0.006099479653094146 0.0 0.0
0.0 0.01984518812691245 0.016861458822270747 -0.0160608334528419 -0.000800625369428845 -0.008822969359035975 0.0 0.0
0.0 0.028159460271061754 0.023923629245370004 -0.023037152913933795 -0.0008864763314362256 -0.01161854986263422 0.0 0.0
0.0 0.03754881567184192 0.03193448563258946 -0.030967398182104366 -0.0009670874504850835 -0.014344396301930287 0.0 0.0
0.0 0.04808194064533254 0.04088899748639272 -0.039843026685983066 -0.0010459708004096529 -0.017058547944803663 0.0 0.0
0.0 0.05957700539659618 0.05080427856055006 -0.04967956321203441 -0.0011247153485156721 -0.0198153344257129 0.0 0.0
0.0 0.07217176979143414 0.06161031291692783 -0.06040687772345788 -0.0012034351934699142 -0.022473714900934194 0.0 0.0
0.0 0.08559089288293051 0.0730985331520913 -0.0718159123396122 -0.0012826208124790954 -0.02470538260783648 0.0 0.0
0.0 0.0989753431819894 0.08486078398625527 -0.08349637679117027 -0.001364407195084989 -0.02597855353741753 0.0 0.0
0.0 0.11179188187876032 0.09618448009148237 -0.09473286772825926 -0.0014516123632230757 -0.02537559710447306 0.0 0.0
0.0 0.12272967163847788 0.1059788502418206 -0.10444097518812903 -0.0015378750536915481 -0.02151075606034469 0.0 0.0
0.0 0.13025864096976178 0.11291185768846772 -0.11130628144647102 -0.0016055762419966695 -0.012937554843344261 0.0 0.0
0.0 0.1302586409697502 0.11291185768845635 -0.11130628144645946 -0.0016055762419967942 0.012937554843392611 0.0 0.0
0.0 0.1227296716384496 0.10597885024179285 -0.10444097518810141 -0.0015378750536914423 0.021510756060405437 0.0 0.0
0.0 0.11179188187872215 0.09618448009144585 -0.09473286772822354 -0.0014516123632222961 0.02537559710451788 0.0 0.0
0.0 0.09897534318194018 0.08486078398621043 -0.08349637679112622 -0.001364407195084208 0.025978553537438036 0.0 0.0
0.0 0.08559089288287272 0.0730985331520412 -0.07181591233956239 -0.0012826208124788535 0.02470538260782871 0.0 0.0
0.0 0.0721717697913726 0.06161031291687482 -0.06040687772340473 -0.001203435193470094 0.02247371490092362 0.0 0.0
0.0 0.05957700539653457 0.05080427856049671 -0.049679563211981144 -0.0011247153485155579 0.019815334425704087 0.0 0.0
0.0 0.048081940645275406 0.04088899748634262 -0.03984302668593365 -0.0010459708004089464 0.017058547944795117 0.0 0.0
0.0 0.03754881567178697 0.03193448563254193 -0.030967398182057883 -0.0009670874504840131 0.01434439630191267 0.0 0.0
0.0 0.028159460271012227 0.023923629245327604 -0.023037152913892238 -0.0008864763314353708 0.011618549862613882 0.0 0.0
0.0 0.01984518812687062 0.016861458822235914 -0.016060833452807705 -0.0008006253694282125 0.00882296935901302 0.0 0.0
0.0 0.01275540862569148 0.010846924827376042 -0.010144900873267427 -0.0007020239541086153 0.006099479653079868 0.0 0.0
0.0 0.007144985968822397 0.006049339737110436 -0.005481360873295151 -0.0005679788638152832 0.003669114480424 0.0 0.0
0.0 0.0032767561497870877 0.0026484844991425853 -0.00228675707509923 -0.0003617274240433555 0.0018032944244686289 0.0 0.0
0.0 0.0009504569589608483 0.0007331424904276693 -0.0006011677509313552 -0.000131974739496314 0.000625313019947155 0.0 0.0
0.0 9.537659519479483e-05 6.287838156643726e-05 -5.008512626186356e-05 -1.2793255304573637e-05 7.5053403098073e-05 0.0 0.0
0.0 4.5149321750406465e-07 7.73876229901488e-08 -5.8623433016934734e-08 -1.8764189973212162e-08 1.1051205579665555e-07 0.0 0.0
0.0 0.0 0.0 0.0 0.0 0.0 0.0 0.0
0.0 0.0 0.0 0.0 0.0 0.0 0.0 0.0
0.0 0.003894995129720046 0.0024638191188124372 -0.002881338107912437 0.00041751898909999757 0.003351428855535272 0.0 0.0
0.0 0.0026526471976087173 0.001626440910890808 -0.0019573575913055634 0.00033091668041475503 -0.0023222742607667624 0.0 0.0
0.0 0.0 0.0 0.0 0.0 0.0 0.0 0.0
0.0 0.0 0.0 0.0 0.0 0.0 0.0 0.0
0.0 1.2459832782016668e-06 -8.711175530045244e-08 6.722946238267231e-08 1.9882292917777628e-08 2.0432140011233723e-07 0.0 0.0
0.0 4.049985917519997e-05 1.9201264139196062e-05 -1.5254843427145542e-05 -3.9464207120505185e-06 -3.375391464656576e-05 0.0 0.0
0.0 0.0004898980964232033 0.0003611135937708046 -0.0002926338311186027 -6.847976265220162e-05 -0.0004622118662323658 0.0 0.0
0.0 0.0021436691342398024 0.001669978554662903 -0.0014111180850744352 -0.0002588604695884676 -0.0016057083216694666 0.0 0.0
0.0 0.00530107397888257 0.004290883631887844 -0.003810819143970353 -0.00048006448791748895 -0.0034644921912654414 0.0 0.0
0.0 0.009918744764020606 0.00819489523011172 -0.007555766596796327 -0.0006391286333153918 -0.0059763785571902385 0.0 0.0
0.0 0.01579165699841083 0.013147691371605815 -0.012403715350998247 -0.0007439760206075689 -0.008838128772401012 0.0 0.0
0.0 0.022667658725110524 0.018941721754769943 -0.01811561375183216 -0.0008261080029377801 -0.011743770131458418 0.0 0.0
0.0 0.030414682568285212 0.025480425472737277 -0.02458056215212407 -0.0008998633206132135 -0.014575823458330547 0.0 0.0
0.0 0.039024249684193664 0.032771211378064914 -0.03180136963920799 -0.000969841738856924 -0.017394032515384353 0.0 0.0
0.0 0.048553511666913636 0.040860110650112295 -0.03982192753387159 -0.0010381831162407018 -0.02023716373367358 0.0 0.0
0.0 0.05900992196594555 0.049738219923026225 -0.04863176817500053 -0.0011064517480257397 -0.022999730204692707 0.0 0.0
0.0 0.06996163138184265 0.059276121313135234 -0.05810201210821316 -0.0011741092049220888 -0.025374698287147272 0.0 0.0
0.0 0.0814904160088001 0.06920019257333106 -0.06795856305142242 -0.0012416295219086016 -0.026848820323073546 0.0 0.0
0.0 0.09271510344059661 0.07907026884632783 -0.07775696984742692 -0.0013132989989009288 -0.02656461624756332 0.0 0.0
0.0 0.10252134269970754 0.08810798212424244 -0.08671821786197562 -0.0013897642622667772 -0.022926235224735372 0.0 0.0
0.0 0.10999692830245339 0.09513271065567941 -0.09367408699757729 -0.0014586236581020744 -0.014055125314591714 0.0 0.0
0.0 0.10999692830244728 0.09513271065567237 -0.0936740869975702 -0.001458623658102156 0.014055125314640171 0.0 0.0
0.0 0.10252134269968696 0.08810798212422065 -0.08671821786195348 -0.001389764262267204 0.022926235224797694 0.0 0.0
0.0 0.09271510344056315 0.07907026884629517 -0.07775696984739368 -0.0013132989989015234 0.026564616247607864 0.0 0.0
0.0 0.08149041600875825 0.06920019257329271 -0.06795856305138401 -0.001241629521908678 0.026848820323092496 0.0 0.0
0.0 0.06996163138179315 0.059276121313092504 -0.058102012108170766 -0.0011741092049217083 0.025374698287138724 0.0 0.0
0.0 0.059009921965894996 0.049738219922982545 -0.04863176817495739 -0.0011064517480251395 0.022999730204681313 0.0 0.0
0.0 0.048553511666863364 0.04086011065006845 -0.03982192753382843 -0.001038183116240023 0.020237163733663126 0.0 0.0
0.0 0.0390242496841445 0.032771211378022344 -0.0318013696391659 -0.0009698417388564589 0.0173940325153732 0.0 0.0
0.0 0.03041468256824003 0.02548042547269895 -0.024580562152086267 -0.0008998633206126874 0.014575823458313262 0.0 0.0
0.0 0.022667658725069307 0.018941721754735255 -0.018115613751798217 -0.0008261080029370417 0.011743770131438671 0.0 0.0
0.0 0.01579165699837492 0.013147691371576316 -0.012403715350969655 -0.00074397602060666 0.008838128772377215 0.0 0.0
0.0 0.009918744763991516 0.008194895230087347 -0.00755576659677273 -0.0006391286333146168 0.005976378557174149 0.0 0.0
0.0 0.0053010739788633765 0.004290883631872269 -0.003810819143955743 -0.0004800644879165245 0.0034644921912537333 0.0 0.0
0.0 0.002143669134228628 0.0016699785546542296 -0.0014111180850668197 -0.0002588604695874093 0.0016057083216623799 0.0 0.0
0.0 0.0004898980964186087 0.00036111359376806736 -0.00029263383111629573 -6.847976265177163e-05 0.0004622118662287107 0.0 0.0
0.0 4.0499859174665095e-05 1.9201264139476064e-05 -1.5254843427357093e-05 -3.9464207121189605e-06 3.375391464694599e-05 0.0 0.0
0.0 1.245983277765114e-06 -8.711175526903953e-08 6.722946235833695e-08 1.9882292910690027e-08 -2.0432140003799813e-07 0.0 0.0
0.0 0.0 0.0 0.0 0.0 0.0 0.0 0.0
0.0 0.0 0.0 0.0 0.0 0.0 0.0 0.0
0.0 0.0026526471975975288 0.001626440910883902 -0.001957357591297893 0.00033091668041399246 0.002322274260756445 0.0 0.0
0.0 0.00168028542014248 0.000980790389067462 -0.0012148008377209025 0.00023401044865344002 -0.0014779151592521577 0.0 0.0
0.0 4.3237046965141747e-07 -5.414833726629138e-09 5.131917599336839e-09 2.829161272924473e-10 8.656951798426124e-08 0.0 0.0
0.0 0.0 0.0 0.0 0.0 0.0 0.0 0.0
0.0 1.343535810957597e-06 -6.745450613659108e-08 5.1836617700734505e-08 1.5617888435866596e-08 2.5068220686766373e-07 0.0 0.0
0.0 2.1299449386719108e-05 9.330235207450193e-06 -7.3744513164376e-06 -1.9557838910125946e-06 -2.422751950555971e-05 0.0 0.0
0.0 0.00025221998495588246 0.0001404336988566143 -0.00011306241809878466 -2.7371280757829663e-05 -0.0002732787814505628 0.0 0.0
0.0 0.0012534430419195814 0.0008885225744729737 -0.0007350100972403281 -0.00015351247723264526 -0.0012485753720196092 0.0 0.0
0.0 0.003560237189830039 0.0027093797521731593 -0.002345877420233358 -0.0003635023319398 -0.0029869462843401364 0.0 0.0
0.0 0.00717905967553103 0.005654771610679078 -0.005107230184149837 -0.0005475414265292384 -0.0053528206467856505 0.0 0.0
0.0 0.011820281333366715 0.009513165330691997 -0.008842990867223737 -0.00067017446346826 -0.008135745187739424 0.0 0.0
0.0 0.017252230206807148 0.014033205034219396 -0.013279833247013765 -0.0007533717872056284 -0.011007618290090499 0.0 0.0
0.0 0.023336812708458696 0.019104878263110626 -0.018282368274622776 -0.0008225099884878483 -0.013783724124418568 0.0 0.0
0.0 0.030093610212464587 0.024738660588244813 -0.02385423640901926 -0.000884424179225535 -0.01652577215787481 0.0 0.0
0.0 0.0375302538357647 0.031004180375565515 -0.030061450995332237 -0.0009427293802332597 -0.019294517032440846 0.0 0.0
0.0 0.04575213381147808 0.03794137287651567 -0.03694177634761063 -0.0009995965289050428 -0.021994618224893014 0.0 0.0
0.0 0.05461375386713579 0.04549766482317208 -0.044440044090343155 -0.001057620732828954 -0.02433641003973947 0.0 0.0
0.0 0.06383185262681143 0.05351765380540774 -0.052406505777301035 -0.0011111480281067118 -0.02591925073035535 0.0 0.0
0.0 0.07323714932500301 0.0618275058347784 -0.06066384027156209 -0.0011636655632163069 -0.02606486839978685 0.0 0.0
0.0 0.08232119273454098 0.0700490236491144 -0.06882176670520829 -0.001227256943906119 -0.0231707141246395 0.0 0.0
0.0 0.08989822842327728 0.0772353112302222 -0.07593524195399365 -0.0013000692762285488 -0.014888902502658776 0.0 0.0
0.0 0.08989822842327258 0.07723531123021589 -0.07593524195398785 -0.0013000692762280559 0.01488890250270379 0.0 0.0
0.0 0.08232119273453056 0.07004902364909955 -0.06882176670519477 -0.0012272569439048375 0.023170714124703118 0.0 0.0
0.0 0.07323714932497784 0.06182750583475159 -0.06066384027153565 -0.001163665563215888 0.02606486839983156 0.0 0.0
0.0 0.06383185262678144 0.05351765380537856 -0.052406505777272676 -0.0011111480281059019 0.025919250730374196 0.0 0.0
0.0 0.05461375386709646 0.045497664823138176 -0.04444004409030979 -0.0010576207328283746 0.02433641003972947 0.0 0.0
0.0 0.04575213381143703 0.037941372876480944 -0.036941776347575755 -0.0009995965289051863 0.021994618224879855 0.0 0.0
0.0 0.037530253835726175 0.03100418037553248 -0.030061450995299034 -0.0009427293802334549 0.01929451703243092 0.0 0.0
0.0 0.030093610212428915 0.024738660588214154 -0.02385423640898876 -0.0008844241792253913 0.016525772157864924 0.0 0.0
0.0 0.02333681270842503 0.019104878263082464 -0.018282368274595173 -0.0008225099884872923 0.013783724124402003 0.0 0.0
0.0 0.017252230206771465 0.014033205034190413 -0.013279833246985135 -0.0007533717872052663 0.011007618290068941 0.0 0.0
0.0 0.011820281333334367 0.00951316533066699 -0.00884299086719902 -0.0006701744634679702 0.008135745187714155 0.0 0.0
0.0 0.007179059675506173 0.005654771610659583 -0.005107230184130927 -0.0005475414265286571 0.005352820646769214 0.0 0.0
0.0 0.003560237189814739 0.0027093797521614725 -0.0023458774202226537 -0.00036350233193881815 0.002986946284329062 0.0 0.0
0.0 0.001253443041912239 0.0008885225744678437 -0.0007350100972359253 -0.00015351247723191768 0.0012485753720134897 0.0 0.0
0.0 0.000252219984953334 0.0001404336988555848 -0.00011306241809794156 -2.7371280757643065e-05 0.0002732787814485687 0.0 0.0
0.0 2.1299449386111413e-05 9.330235207482187e-06 -7.374451316461073e-06 -1.9557838910211183e-06 2.4227519505663203e-05 0.0 0.0
0.0 1.343535810551308e-06 -6.74545061154224e-08 5.1836617684484416e-08 1.561788843093987e-08 -2.5068220678900275e-07 0.0 0.0
0.0 0.0 0.0 0.0 0.0 0.0 0.0 0.0
0.0 4.3237046913438544e-07 -5.414833720036132e-09 5.131917593071955e-09 2.82916126964362e-10 -8.656951787897293e-08 0.0 0.0
0.0 0.001680285420134445 0.0009807903890629002 -0.0012148008377155758 0.00023401044865267474 0.0014779151592453936 0.0 0.0
0.0 0.0009356202361811028 0.000507328656485022 -0.0006490798394159886 0.00014175118293096618 -0.0008128679827363752 0.0 0.0
0.0 8.668941694119539e-07 -1.1640626930013752e-12 3.3563017872625946e-09 -3.3551377245709337e-09 -6.53777044958078e-08 0.0 0.0
0.0 6.305102464673167e-07 -7.0898921551877894e-09 5.074535917472657e-09 2.0153562377156586e-09 1.2874703632778445e-07 0.0 0.0
0.0 9.621769610856003e-07 -8.51604637305741e-09 4.648204994598347e-09 3.867841378461274e-09 1.7752541714480777e-08 0.0 0.0
0.0 1.7577877275007722e-05 5.542134940320825e-06 -4.365061565601085e-06 -1.1770733747197513e-06 -2.2526672142996477e-05 0.0 0.0
0.0 0.00013747079734872082 5.56756611855478e-05 -4.45657541576555e-05 -1.1109907027892296e-05 -0.00017335583966399018 0.0 0.0
0.0 0.0006452776657804271 0.00036250324450639416 -0.00029470161109707336 -6.780163340932077e-05 -0.0008146323841352264 0.0 0.0
0.0 0.0020637852554569337 0.0013834570829860972 -0.001161901622191118 -0.00022155546079497912 -0.002253919595081316 0.0 0.0
0.0 0.004611809009815378 0.0033205872569405325 -0.002909894852643384 -0.00041069240429714474 -0.004307072520583574 0.0 0.0
0.0 0.007921177836640035 0.006028835843939233 -0.005469849822379845 -0.0005589860215593871 -0.006757509127984428 0.0 0.0
0.0 0.011987068552536489 0.009250093322309666 -0.008594452249612892 -0.0006556410726967754 -0.009358240605176257 0.0 0.0
0.0 0.016377952860002508 0.012858102501899754 -0.01213259531142017 -0.0007255071904795772 -0.011914255674197693 0.0 0.0
0.0 0.021241571205206748 0.01684804000714604 -0.01606539983948892 -0.0007826401676571226 -0.014432216427449194 0.0 0.0
0.0 0.026655070424458315 0.02129428982075904 -0.020462138918577875 -0.0008321509021811591 -0.016945696487037185 0.0 0.0
0.0 0.03272048381713905 0.026278925280487975 -0.02540075902989668 -0.0008781662505912911 -0.019417156821045084 0.0 0.0
0.0 0.03930644927524561 0.03182910922044482 -0.03090420516228342 -0.0009249040581613855 -0.02160938792596212 0.0 0.0
0.0 0.04639887555473321 0.037886546974269006 -0.036916336283531796 -0.0009702106907372221 -0.02311845433131016 0.0 0.0
0.0 0.053801531009435945 0.044469655927847004 -0.043467257712138205 -0.0010023982157087866 -0.023624064530451454 0.0 0.0
0.0 0.06161413484307306 0.05168222376215466 -0.050639953810767385 -0.001042269951387239 -0.021985587927105803 0.0 0.0
0.0 0.06920403284658468 0.05902517555027528 -0.057906067820659206 -0.0011191077296160911 -0.01535482598368514 0.0 0.0
0.0 0.0692040328465863 0.05902517555027403 -0.057906067820658366 -0.0011191077296156644 0.015354825983724243 0.0 0.0
0.0 0.0616141348430685 0.0516822237621448 -0.05063995381075762 -0.0010422699513871893 0.02198558792716295 0.0 0.0
0.0 0.05380153100942173 0.04446965592782921 -0.04346725771212055 -0.0010023982157086313 0.023624064530492924 0.0 0.0
0.0 0.046398875554709645 0.0378865469742462 -0.036916336283509155 -0.000970210690737055 0.02311845433132374 0.0 0.0
0.0 0.03930644927521579 0.031829109220419885 -0.030904205162259182 -0.0009249040581606929 0.021609387925949977 0.0 0.0
0.0 0.03272048381711127 0.02627892528046455 -0.025400759029874306 -0.0008781662505902662 0.019417156821033496 0.0 0.0
0.0 0.026655070424434078 0.021294289820738582 -0.020462138918557967 -0.0008321509021806266 0.016945696487028986 0.0 0.0
0.0 0.021241571205183475 0.016848040007125996 -0.01606539983946944 -0.0007826401676565567 0.014432216427442086 0.0 0.0
0.0 0.01637795285997758 0.012858102501879656 -0.012132595311400554 -0.0007255071904791033 0.011914255674182797 0.0 0.0
0.0 0.011987068552514872 0.00925009332229274 -0.008594452249596528 -0.0006556410726962061 0.009358240605160597 0.0 0.0
0.0 0.007921177836619182 0.006028835843924075 -0.00546984982236542 -0.0005589860215586526 0.006757509127965695 0.0 0.0
0.0 0.004611809009799873 0.003320587256929093 -0.002909894852632729 -0.00041069240429636406 0.004307072520570867 0.0 0.0
0.0 0.0020637852554476867 0.0013834570829795371 -0.0011619016221853836 -0.00022155546079415285 0.0022539195950728097 0.0 0.0
0.0 0.000645277665775424 0.00036250324450369986 -0.0002947016110948189 -6.780163340888102e-05 0.0008146323841300648 0.0 0.0
0.0 0.0001374707973470673 5.567566118525863e-05 -4.456575415741003e-05 -1.1109907027848596e-05 0.00017335583966294506 0.0 0.0
0.0 1.7577877274651372e-05 5.5421349403972914e-06 -4.365061565661354e-06 -1.1770733747359288e-06 2.2526672143343442e-05 0.0 0.0
0.0 9.6217696082144e-07 -8.516046295536575e-09 4.64820493386628e-09 3.867841361667282e-09 -1.7752541159871635e-08 0.0 0.0
0.0 6.305102458760242e-07 -7.089892147158693e-09 5.074535912009278e-09 2.015356235150372e-09 -1.2874703620679312e-07 0.0 0.0
0.0 8.668941688924281e-07 -1.1640206321539063e-12 3.356301738291935e-09 -3.3551377176598397e-09 6.537770552250872e-08 0.0 0.0
0.0 0.0009356202361749338 0.0005073286564820014 -0.0006490798394123806 0.00014175118293037944 0.0008128679827313556 0.0 0.0
0.0 0.00038378627326935354 0.00020518835262846937 -0.00027419202770543726 6.900367507696795e-05 -0.0003518459998896191 0.0 0.0
0.0 2.1778619265068002e-06 -4.0584007257875154e-09 1.0415287895263908e-08 -6.356887169476171e-09 2.531123358750452e-07 0.0 0.0
0.0 8.129603515550081e-07 -9.729788138728575e-10 -5.062304710215263e-10 1.479209284894036e-09 1.6676851108718092e-07 0.0 0.0
0.0 1.4188356790776998e-06 -1.3571023974868196e-08 9.24483079815044e-09 4.326193176720947e-09 2.4612010296239326e-07 0.0 0.0
0.0 1.8751068430055646e-05 3.3799672421026843e-06 -2.6101731832868264e-06 -7.697940588158632e-07 -2.5762962691788796e-05 0.0 0.0
0.0 0.00010840364219974774 2.5796468923758993e-05 -2.0644562312153608e-05 -5.151906611605386e-06 -0.00014647735979749724 0.0 0.0
0.0 0.00034296907998446 0.00011503542218026957 -9.269336602170142e-05 -2.234205615856808e-05 -0.0004953249422621457 0.0 0.0
0.0 0.000962078422049923 0.00045677789705815867 -0.00037225391180616347 -8.4523985251995e-05 -0.0013801963683505913 0.0 0.0
0.0 0.002338885473581001 0.0013507570164519726 -0.0011334172392841874 -0.00021733977716778535 -0.002890722691790962 0.0 0.0
0.0 0.004361928779211475 0.0028311157115780273 -0.002461459386995845 -0.00036965632458218063 -0.004782786064834403 0.0 0.0
0.0 0.006826637523342618 0.0047123459820826545 -0.0042213746310554 -0.0004909713510272531 -0.00685814145764981 0.0 0.0
0.0 0.009665982014604495 0.0068358312964542246 -0.006261264846833106 -0.0005745664496211155 -0.008975647447507826 0.0 0.0
0.0 0.012744899658207453 0.009190987334603426 -0.008553560916698438 -0.0006374264179049861 -0.011124760641321837 0.0 0.0
0.0 0.01616833941201541 0.011833005408832455 -0.011147790128204778 -0.0006852152806276662 -0.01326221817354874 0.0 0.0
0.0 0.020016423636856528 0.014854612337045756 -0.014131325639978225 -0.0007232866970675244 -0.015372109375109095 0.0 0.0
0.0 0.024357614935717795 0.018362907101499692 -0.017604667570700068 -0.0007582395307996348 -0.017333677894116356 0.0 0.0
0.0 0.02922248267702748 0.02242505631842127 -0.021628343697928994 -0.0007967126204922859 -0.018782039883910306 0.0 0.0
0.0 0.03462214633412174 0.027143561913369214 -0.026317275950898153 -0.0008262859624710659 -0.019380000615292124 0.0 0.0
0.0 0.04104652490648229 0.032950368127962724 -0.032125260521869335 -0.0008251076060933985 -0.018978558879592405 0.0 0.0
0.0 0.048500216568324775 0.04024373120297813 -0.039350677315227 -0.0008930538877511555 -0.015181159258020722 0.0 0.0
0.0 0.04850021656832642 0.04024373120297669 -0.039350677315225395 -0.0008930538877513103 0.015181159258054022 0.0 0.0
0.0 0.04104652490647801 0.03295036812795298 -0.03212526052185954 -0.0008251076060934239 0.01897855887964106 0.0 0.0
0.0 0.034622146334112966 0.02714356191335628 -0.026317275950885732 -0.0008262859624705369 0.019380000615325056 0.0 0.0
0.0 0.029222482677013516 0.022425056318407317 -0.02162834369791554 -0.0007967126204917693 0.018782039883918494 0.0 0.0
0.0 0.02435761493569489 0.018362907101482653 -0.017604667570682683 -0.0007582395307999728 0.017333677894102034 0.0 0.0
0.0 0.02001642363683552 0.01485461233702988 -0.014131325639962142 -0.0007232866970677335 0.015372109375096078 0.0 0.0
0.0 0.01616833941199911 0.011833005408819484 -0.011147790128192397 -0.0006852152806270923 0.013262218173540702 0.0 0.0
0.0 0.012744899658195199 0.00919098733459317 -0.008553560916688487 -0.0006374264179046851 0.011124760641317568 0.0 0.0
0.0 0.009665982014588756 0.006835831296442694 -0.006261264846822158 -0.0005745664496205373 0.008975647447495877 0.0 0.0
0.0 0.006826637523326394 0.004712345982071686 -0.004221374631045033 -0.0004909713510266511 0.006858141457634239 0.0 0.0
0.0 0.004361928779196483 0.0028311157115686984 -0.0024614593869872296 -0.0003696563245814674 0.004782786064818304 0.0 0.0
0.0 0.00233888547357335 0.001350757016447058 -0.001133417239279844 -0.00021733977716721455 0.0028907226917828455 0.0 0.0
0.0 0.0009620784220446536 0.0004567778970553432 -0.00037225391180383747 -8.452398525150571e-05 0.0013801963683444038 0.0 0.0
0.0 0.00034296907998250547 0.00011503542217979518 -9.269336602130027e-05 -2.2342056158494864e-05 0.0004953249422601921 0.0 0.0
0.0 0.0001084036421984176 2.579646892376981e-05 -2.064456231215862e-05 -5.15190661161118e-06 0.00014647735979722739 0.0 0.0
0.0 1.875106842966952e-05 3.3799672421449343e-06 -2.6101731833185884e-06 -7.697940588263466e-07 2.576296269211642e-05 0.0 0.0
0.0 1.4188356787903748e-06 -1.3571023938372712e-08 9.2448307740027e-09 4.326193164372655e-09 -2.4612010250717155e-07 0.0 0.0
0.0 8.12960351106587e-07 -9.729788137991681e-10 -5.062304704954294e-10 1.479209284295063e-09 -1.667685109932312e-07 0.0 0.0
0.0 2.1778619259781183e-06 -4.0584007196947975e-09 1.041528788153478e-08 -6.3568871618403e-09 -2.5311233542198294e-07 0.0 0.0
0.0 0.0003837862732660972 0.00020518835262718388 -0.00027419202770378635 6.90036750766023e-05 0.00035184599988756786 0.0 0.0
0.0 9.949826940878643e-05 4.9831688265175685e-05 -6.989744122762515e-05 2.0065752962449456e-05 -9.028157742240283e-05 0.0 0.0
0.0 2.4425225848451844e-06 4.0601320898584716e-10 1.1261007348942976e-08 -1.1667020557927572e-08 3.11344259328316e-07 0.0 0.0
0.0 1.6671093251265403e-06 -4.7071635902272776e-08 4.327655544169037e-08 3.7950804605823485e-09 -1.2799076009641207e-06 0.0 0.0
0.0 3.658459116728618e-06 -5.708795682750671e-08 7.182032007431895e-08 -1.4732363246811632e-08 -4.328451503052715e-06 0.0 0.0
0.0 2.283311712906812e-05 7.630272708044848e-07 -5.104494683527812e-07 -2.525778024517099e-07 -2.8811135230795717e-05 0.0 0.0
0.0 0.00010395058560948341 7.920283675782292e-06 -6.2361789803418905e-06 -1.6841046954403865e-06 -0.000152686832518496 0.0 0.0
0.0 0.00026702142725282176 2.9961587040592877e-05 -2.41270347065589e-05 -5.834552334034001e-06 -0.0004254662872033918 0.0 0.0
0.0 0.0005605043412751588 8.030547663642187e-05 -6.503649352924562e-05 -1.5268983107176155e-05 -0.0008631122867663469 0.0 0.0
0.0 0.001000559077122028 0.0002027153559123892 -0.00016471827503068768 -3.799708088170148e-05 -0.0016170080821135621 0.0 0.0
0.0 0.0017757620982842078 0.00046637970974181865 -0.0003786579561639002 -8.772175357791851e-05 -0.002726528204451331 0.0 0.0
0.0 0.0027141793320580956 0.0009036724051893959 -0.0007356804247758671 -0.0001679919804135286 -0.004150210883386635 0.0 0.0
0.0 0.003947636893106478 0.0014655617875436518 -0.0012140766085999824 -0.00025148517894366904 -0.0057439915307549135 0.0 0.0
0.0 0.005397134643851 0.0021592620048881007 -0.001833911436373669 -0.0003253505685144303 -0.007498765627947668 0.0 0.0
0.0 0.007082776271161012 0.002986834729953428 -0.002601751171238989 -0.0003850835587144402 -0.009388659259221898 0.0 0.0
0.0 0.009008019571793442 0.004025429210635942 -0.003593851560182052 -0.00043157765045388785 -0.011398714415878116 0.0 0.0
0.0 0.0112981189150656 0.005433707008331018 -0.004964682070376868 -0.0004690249379541457 -0.013399770097263092 0.0 0.0
0.0 0.01398943624441331 0.007449337971853527 -0.006942807126790579 -0.0005065308450629418 -0.015021022275814725 0.0 0.0
0.0 0.017156919916983173 0.010287230224546074 -0.00973256250106816 -0.0005546677234779094 -0.01565991970892349 0.0 0.0
0.0 0.021397025606984553 0.01429557933086232 -0.013729936963236187 -0.0005656423676261317 -0.015367381848315084 0.0 0.0
0.0 0.02795037898456767 0.020733359593789084 -0.020192041289818236 -0.0005413183039708495 -0.014370839182771999 0.0 0.0
0.0 0.027950378984571082 0.02073335959378921 -0.020192041289818406 -0.0005413183039707947 0.014370839182797537 0.0 0.0
0.0 0.02139702560698873 0.01429557933086024 -0.013729936963234123 -0.0005656423676261235 0.015367381848351779 0.0 0.0
0.0 0.01715691991698106 0.010287230224540278 -0.009732562501062438 -0.000554667723477834 0.01565991970894548 0.0 0.0
0.0 0.01398943624440481 0.007449337971847785 -0.006942807126784722 -0.0005065308450630586 0.015021022275812264 0.0 0.0
0.0 0.011298118915057529 0.005433707008328337 -0.004964682070374606 -0.0004690249379537296 0.013399770097250713 0.0 0.0
0.0 0.009008019571785503 0.004025429210632806 -0.003593851560179076 -0.0004315776504537286 0.011398714415868016 0.0 0.0
0.0 0.007082776271154787 0.0029868347299510335 -0.0026017511712365395 -0.00038508355871449485 0.009388659259214973 0.0 0.0
0.0 0.005397134643846032 0.002159262004886511 -0.001833911436372247 -0.0003253505685142639 0.007498765627941591 0.0 0.0
0.0 0.003947636893097669 0.001465561787540572 -0.0012140766085972094 -0.0002514851789433623 0.005743991530743491 0.0 0.0
0.0 0.00271417933205027 0.0009036724051869555 -0.0007356804247738051 -0.00016799198041315012 0.004150210883375524 0.0 0.0
0.0 0.0017757620982772609 0.00046637970974034663 -0.0003786579561626758 -8.772175357767098e-05 0.0027265282044409223 0.0 0.0
0.0 0.0010005590771196189 0.0002027153559118542 -0.0001647182750302884 -3.7997080881565655e-05 0.0016170080821097527 0.0 0.0
0.0 0.0005605043412731112 8.030547663608311e-05 -6.503649352897377e-05 -1.526898310710928e-05 0.0008631122867629544 0.0 0.0
0.0 0.000267021427250677 2.9961587040450308e-05 -2.4127034706430527e-05 -5.834552334019758e-06 0.0004254662872013237 0.0 0.0
0.0 0.00010395058560784719 7.92028367574313e-06 -6.2361789803083955e-06 -1.6841046954347332e-06 0.00015268683251746013 0.0 0.0
0.0 2.283311712847698e-05 7.63027270804219e-07 -5.10449468353536e-07 -2.525778024506864e-07 2.881113523074953e-05 0.0 0.0
0.0 3.6584591166109455e-06 -5.7087956840510814e-08 7.182032008958893e-08 -1.4732363249078203e-08 4.328451503856546e-06 0.0 0.0
0.0 1.6671093250103204e-06 -4.707163592984646e-08 4.327655546705226e-08 3.795080462793978e-09 1.2799076016318541e-06 0.0 0.0
0.0 2.4425225843651467e-06 4.0601320887888526e-10 1.1261007340212163e-08 -1.1667020549088507e-08 -3.11344258847343e-07 0.0 0.0
0.0 9.94982694075178e-05 4.983168826493833e-05 -6.989744122727816e-05 2.0065752962339755e-05 9.028157742220022e-05 0.0 0.0
0.0 8.114047026393575e-06 3.113432372560097e-06 -4.513852008437616e-06 1.4004196358775093e-06 -6.345518791530202e-06 0.0 0.0
0.0 2.2998500578676266e-06 -1.926803558985143e-08 1.448280493117544e-08 4.785230658680855e-09 -2.807945477933373e-07 0.0 0.0
0.0 3.976129830851106e-06 -3.055199343920153e-07 2.586874401398126e-07 4.683249425220352e-08 -3.602154461083314e-06 0.0 0.0
0.0 6.9412404634221405e-06 -7.75019764239532e-07 6.790635519039573e-07 9.595621233557533e-08 -9.220305857551762e-06 0.0 0.0
0.0 2.8605816579529758e-05 -2.5542735726418533e-06 2.2091597037669168e-06 3.451138688749465e-07 -3.677806456775582e-05 0.0 0.0
0.0 0.00011110480759830722 -1.0342840643598711e-05 8.517913245714172e-06 1.824927397884533e-06 -0.00015636105175349812 0.0 0.0
0.0 0.0002694771935831293 -3.168114005704531e-05 2.567401084803297e-05 6.007129209012312e-06 -0.0004296302496099381 0.0 0.0
0.0 0.0005610119053159976 -8.063896849322073e-05 6.530496793725002e-05 1.5334000555970688e-05 -0.0008650590916763986 0.0 0.0
0.0 0.0010006781863561576 -0.0002025100569315431 0.00016454710085242317 3.796295607911985e-05 -0.0016178185987455228 0.0 0.0
0.0 0.001774381060187928 -0.00046562443157555355 0.0003779818399913003 8.764259158425315e-05 -0.0027252836179783553 0.0 0.0
0.0 0.0027254070777857882 -0.0009051856158254724 0.0007379717743294141 0.00016721384149605772 -0.004151394773833472 0.0 0.0
0.0 0.003966752068419604 -0.001488932024514165 0.0012372633036664426 0.0002516687208477217 -0.005756566303958594 0.0 0.0
0.0 0.005444689289745546 -0.0022171421706528366 0.0018895597344775993 0.0003275824361752346 -0.007514556405288753 0.0 0.0
0.0 0.007125580475987708 -0.0030453805367780503 0.0026519696697170636 0.0003934108670609844 -0.009392259325713415 0.0 0.0
0.0 0.00887244220623939 -0.0038692002663801997 0.0034180945977589443 0.00045110566862125514 -0.011384383916721825 0.0 0.0
0.0 0.010558550264694412 -0.0044648138645046265 0.003963267439371082 0.0005015464251335395 -0.01345170052162475 0.0 0.0
0.0 0.011866346585808436 -0.00448714264575858 0.0039435587090757744 0.0005435839366828054 -0.015580314765113921 0.0 0.0
0.0 0.012659551667205879 -0.003658767690471151 0.0030887695005367517 0.0005699981899343978 -0.017830048174578658 0.0 0.0
0.0 0.012916526656004238 -0.002021216089776251 0.0014877544663689215 0.0005334616234073282 -0.019825343094989782 0.0 0.0
0.0 0.012640399296266033 0.0029273095192458793 -0.0029960191677547614 6.870964850887978e-05 -0.0186462390647327 0.0 0.0
0.0 0.012640399296269344 0.0029273095192451698 -0.0029960191677541265 6.870964850895977e-05 0.01864623906474231 0.0 0.0
0.0 0.012916526656008794 -0.002021216089777681 0.0014877544663702608 0.0005334616234074187 0.01982534309500106 0.0 0.0
0.0 0.012659551667200989 -0.0036587676904688057 0.003088769500534279 0.0005699981899345229 0.01783004817457956 0.0 0.0
0.0 0.011866346585799332 -0.004487142645754276 0.00394355870907188 0.0005435839366823929 0.015580314765105378 0.0 0.0
0.0 0.010558550264683431 -0.00446481386449872 0.0039632674393656475 0.0005015464251330703 0.013451700521611858 0.0 0.0
0.0 0.008872442206228789 -0.003869200266374605 0.00341809459775381 0.00045110566862079364 0.01138438391671057 0.0 0.0
0.0 0.007125580475976816 -0.00304538053677164 0.0026519696697111734 0.00039341086706046636 0.00939225932570379 0.0 0.0
0.0 0.005444689289732175 -0.0022171421706438784 0.001889559734469185 0.0003275824361746929 0.00751455640527956 0.0 0.0
0.0 0.003966752068407293 -0.001488932024508199 0.0012372633036610496 0.0002516687208471491 0.00575656630394556 0.0 0.0
0.0 0.0027254070777761783 -0.0009051856158210417 0.0007379717743256841 0.00016721384149535784 0.004151394773821914 0.0 0.0
0.0 0.0017743810601798492 -0.00046562443157245766 0.0003779818399887194 8.764259158373808e-05 0.0027252836179681474 0.0 0.0
0.0 0.0010006781863540193 -0.0002025100569308035 0.00016454710085180404 3.79629560789995e-05 0.0016178185987425707 0.0 0.0
0.0 0.000561011905314129 -8.063896849280352e-05 6.530496793689648e-05 1.533400055590701e-05 0.0008650590916738819 0.0 0.0
0.0 0.0002694771935813459 -3.168114005694512e-05 2.5674010847976866e-05 6.007129208968236e-06 0.00042963024960831423 0.0 0.0
0.0 0.00011110480759680448 -1.034284064355668e-05 8.517913245693156e-06 1.8249273978635345e-06 0.00015636105175284196 0.0 0.0
0.0 2.860581657894171e-05 -2.55427357265227e-06 2.209159703775047e-06 3.45113868877219e-07 3.6778064567958774e-05 0.0 0.0
0.0 6.941240463206249e-06 -7.750197642900612e-07 6.79063551947919e-07 9.595621234214274e-08 9.220305858118045e-06 0.0 0.0
0.0 3.976129830396127e-06 -3.055199344777453e-07 2.586874402118283e-07 4.683249426591762e-08 3.6021544620584522e-06 0.0 0.0
0.0 2.2998500572743504e-06 -1.926803560444634e-08 1.4482804931054121e-08 4.785230673397131e-09 2.8079454829175425e-07 0.0 0.0
0.0 8.114047025936167e-06 3.113432372759987e-06 -4.513852008733319e-06 1.4004196359733338e-06 6.345518791960603e-06 0.0 0.0
0.0 5.791226492451869e-07 -3.285152939261594e-08 4.863961923435166e-08 -1.578808984173702e-08 8.324711323925464e-08 0.0 0.0
0.0 1.2117456428996089e-06 -3.0599141605467135e-08 2.044261734223536e-08 1.0156524263230222e-08 -5.74718503698276e-07 0.0 0.0
0.0 4.9617835525954245e-06 -6.152086608583787e-07 5.091607355547118e-07 1.0604792530366257e-07 -4.751928568706713e-06 0.0 0.0
0.0 1.0982190111061409e-05 -1.3524397792492512e-06 1.1583321741345885e-06 1.9410760511467638e-07 -9.168609046082414e-06 0.0 0.0
0.0 3.580085947413163e-05 -7.803454625195826e-06 6.495753077333927e-06 1.3077015478619011e-06 -4.7039454154699756e-05 0.0 0.0
0.0 0.00012191882810000093 -3.1646334201516506e-05 2.5646003232997516e-05 6.000330968518971e-06 -0.00016806816464481322 0.0 0.0
0.0 0.0003573190405906562 -0.00011961144476607555 9.657438755098722e-05 2.303705721508837e-05 -0.0005078735853278369 0.0 0.0
0.0 0.0009686424867517189 -0.0004598344256134862 0.00037480716808865406 8.50272575248321e-05 -0.0013882871661231569 0.0 0.0
0.0 0.002337004887638332 -0.0013499145368089925 0.0011326808815195104 0.00021723365528948153 -0.0028912542648325693 0.0 0.0
0.0 0.0043601800851548345 -0.0028303157844341816 0.0024609615773793234 0.00036935420705485835 -0.004782100015750846 0.0 0.0
0.0 0.0068340793325943954 -0.004719326007324138 0.00422906287222622 0.0004902631350979152 -0.006860786453891215 0.0 0.0
0.0 0.009693705319139583 -0.006865025642350279 0.00629147848501843 0.0005735471573318514 -0.008974542214255574 0.0 0.0
0.0 0.012799635782294162 -0.009254237281622488 0.008616441388056105 0.0006377958935663796 -0.011099463455877904 0.0 0.0
0.0 0.01620666760817981 -0.011885468162601304 0.0111929962871221 0.0006924718754792063 -0.013215229124220742 0.0 0.0
0.0 0.019827565168079594 -0.014661186099874199 0.013916702604188355 0.0007444834956858358 -0.015397262703125063 0.0 0.0
0.0 0.023393769597663577 -0.0173147184480313 0.016519902129899584 0.0007948163181317127 -0.01772745329477934 0.0 0.0
0.0 0.026506313014961314 -0.01940757994147347 0.018569593245273887 0.0008379866961995899 -0.020280021433660478 0.0 0.0
0.0 0.02854892853490769 -0.020401233489013095 0.019534522929438056 0.0008667105595750511 -0.022963655658316078 0.0 0.0
0.0 0.027902972770390135 -0.019231605770821433 0.018269959625310986 0.0009616461455104336 -0.024079118259606243 0.0 0.0
0.0 0.022020215894271552 -0.013195476560853306 0.01213942265786131 0.0010560539029919871 -0.02154522054222975 0.0 0.0
0.0 0.0220202158942794 -0.013195476560853568 0.012139422657861092 0.001056053902992476 0.021545220542257923 0.0 0.0
0.0 0.02790297277039312 -0.019231605770816354 0.018269959625305615 0.000961646145510724 0.024079118259642786 0.0 0.0
0.0 0.028548928534903952 -0.02040123348900468 0.019534522929429993 0.000866710559574676 0.02296365565833959 0.0 0.0
0.0 0.02650631301494651 -0.019407579941459738 0.018569593245260835 0.0008379866961989138 0.020280021433661383 0.0 0.0
0.0 0.023393769597638548 -0.01731471844801154 0.016519902129879804 0.0007948163181317418 0.01772745329476441 0.0 0.0
0.0 0.019827565168056553 -0.014661186099856477 0.013916702604170715 0.0007444834956857643 0.01539726270311001 0.0 0.0
0.0 0.016206667608158636 -0.011885468162584815 0.011192996287105765 0.0006924718754790502 0.013215229124208014 0.0 0.0
0.0 0.012799635782273723 -0.009254237281605435 0.00861644138803949 0.0006377958935659407 0.011099463455868194 0.0 0.0
0.0 0.009693705319116033 -0.006865025642332325 0.006291478485001148 0.0005735471573311735 0.008974542214239331 0.0 0.0
0.0 0.006834079332572964 -0.004719326007309125 0.0042290628722120435 0.0004902631350970819 0.006860786453872175 0.0 0.0
0.0 0.004360180085136453 -0.002830315784421799 0.002460961577367889 0.0003693542070539093 0.004782100015732968 0.0 0.0
0.0 0.0023370048876272705 -0.0013499145368012196 0.0011326808815126754 0.00021723365528854486 0.002891254264821819 0.0 0.0
0.0 0.0009686424867466255 -0.0004598344256106454 0.00037480716808629944 8.502725752434606e-05 0.0013882871661170487 0.0 0.0
0.0 0.0003573190405879909 -0.00011961144476534032 9.65743875504169e-05 2.3037057214923422e-05 0.0005078735853252171 0.0 0.0
0.0 0.00012191882809820047 -3.164633420137401e-05 2.564600323287165e-05 6.0003309685023385e-06 0.00016806816464384384 0.0 0.0
0.0 3.580085947335552e-05 -7.803454625254272e-06 6.495753077385326e-06 1.3077015478689292e-06 4.703945415504591e-05 0.0 0.0
0.0 1.0982190110512281e-05 -1.3524397793538907e-06 1.1583321742227074e-06 1.9410760513118603e-07 9.168609046761511e-06 0.0 0.0
0.0 4.961783552005174e-06 -6.152086609623874e-07 5.091607356397187e-07 1.0604792532266817e-07 4.751928569501491e-06 0.0 0.0
0.0 1.211745642673101e-06 -3.0599141643039485e-08 2.0442617348269187e-08 1.0156524294770629e-08 5.747185045635901e-07 0.0 0.0
0.0 5.791226488939735e-07 -3.285152937202806e-08 4.863961920387383e-08 -1.57880898318369e-08 -8.324711318699175e-08 0.0 0.0
0.0 0.0 0.0 0.0 0.0 0.0 0.0 0.0
0.0 1.2508586812791678e-06 1.7693331314728913e-08 -8.022362203851962e-09 -9.670969110877117e-09 2.5436291706895875e-07 0.0 0.0
0.0 4.48147872456755e-06 -2.881675684307852e-07 2.36323588966386e-07 5.1843979464395436e-08 -1.604817421675008e-06 0.0 0.0
0.0 1.3279181491139394e-05 -1.905176567917257e-06 1.5689667834296471e-06 3.3620978448761863e-07 -8.194480293387521e-06 0.0 0.0
0.0 4.3718555006261276e-05 -1.4142782976280326e-05 1.1547125068189003e-05 2.595657908091332e-06 -5.170743954438317e-05 0.0 0.0
0.0 0.00016749192050619002 -7.021590344367042e-05 5.672838293919238e-05 1.348752050447801e-05 -0.0002116147071071277 0.0 0.0
0.0 0.0006710377639013757 -0.0003746742782858623 0.0003051281126040259 6.954616568183638e-05 -0.0008387670621927758 0.0 0.0
0.0 0.0020681822044565337 -0.0013848198740201816 0.0011632730695749001 0.0002215468044452815 -0.002260642281196027 0.0 0.0
0.0 0.004606910784038876 -0.003317845029448064 0.0029073636917601657 0.0004104813376878964 -0.004304194252577257 0.0 0.0
0.0 0.007920995534976622 -0.006029575009337931 0.005470784602806953 0.0005587904065309775 -0.0067568471281960595 0.0 0.0
0.0 0.011995951804063685 -0.009258580436976104 0.008603586054659038 0.0006549943823170738 -0.009358732717495169 0.0 0.0
0.0 0.016397012901310386 -0.01288129041466044 0.012156991175524625 0.0007242992391358169 -0.011892082584698265 0.0 0.0
0.0 0.021265099989494156 -0.016892388965424644 0.01611001271171287 0.0007823762537117768 -0.014338616472507814 0.0 0.0
0.0 0.02664490300684505 -0.021322191344755985 0.02048445285219388 0.0008377384925620983 -0.016781695742778355 0.0 0.0
0.0 0.032518449925035386 -0.026092381558914454 0.025196257530772922 0.0008961240281415124 -0.019419024977641988 0.0 0.0
0.0 0.038505351043137966 -0.03090719329288688 0.029950254391256047 0.000956938901630812 -0.022525748915605593 0.0 0.0
0.0 0.044133852005063215 -0.03521412561050599 0.034198841474895526 0.0010152841356104473 -0.02628004590552157 0.0 0.0
0.0 0.04799047240961255 -0.03807388734770875 0.036984557016082886 0.0010893303316258656 -0.029998623502644386 0.0 0.0
0.0 0.04816567271599502 -0.03770650357348665 0.03652333851674445 0.0011831650567421833 -0.03183768616208917 0.0 0.0
0.0 0.03975594736346377 -0.030550077486702486 0.029146257931451723 0.001403819555250753 -0.02798867868531086 0.0 0.0
0.0 0.03975594736347379 -0.030550077486703534 0.02914625793145304 0.0014038195552504994 0.027988678685349676 0.0 0.0
0.0 0.04816567271599871 -0.0377065035734808 0.0365233385167386 0.0011831650567421916 0.031837686162138515 0.0 0.0
0.0 0.047990472409599645 -0.03807388734769141 0.036984557016065886 0.001089330331625495 0.029998623502675237 0.0 0.0
0.0 0.044133852005032656 -0.035214125610477875 0.03419884147486814 0.0010152841356097743 0.02628004590552359 0.0 0.0
0.0 0.038505351043105145 -0.03090719329285891 0.029950254391229177 0.0009569389016297327 0.02252574891559299 0.0 0.0
0.0 0.03251844992500333 -0.026092381558887694 0.025196257530746898 0.0008961240281407923 0.01941902497762779 0.0 0.0
0.0 0.0266449030068147 -0.02132219134473096 0.02048445285216937 0.0008377384925615907 0.01678169574276292 0.0 0.0
0.0 0.02126509998946123 -0.016892388965396642 0.016110012711685072 0.00078237625371156 0.014338616472495666 0.0 0.0
0.0 0.016397012901277933 -0.012881290414634258 0.012156991175498831 0.0007242992391354228 0.011892082584678968 0.0 0.0
0.0 0.011995951804032838 -0.009258580436951916 0.008603586054635418 0.0006549943823164956 0.009358732717473167 0.0 0.0
0.0 0.007920995534946377 -0.006029575009315104 0.005470784602784709 0.0005587904065303955 0.006756847128172299 0.0 0.0
0.0 0.004606910784021591 -0.003317845029434674 0.002907363691747613 0.0004104813376870598 0.004304194252564368 0.0 0.0
0.0 0.002068182204446413 -0.001384819874012763 0.0011632730695685335 0.0002215468044442295 0.0022606422811875257 0.0 0.0
0.0 0.0006710377638956939 -0.0003746742782828983 0.000305128112601618 6.954616568128015e-05 0.0008387670621871911 0.0 0.0
0.0 0.00016749192050446014 -7.021590344345601e-05 5.672838293902492e-05 1.3487520504431055e-05 0.00021161470710634353 0.0 0.0
0.0 4.371855500526374e-05 -1.4142782976347357e-05 1.1547125068244213e-05 2.5956579081031057e-06 5.1707439544627175e-05 0.0 0.0
0.0 1.327918149052541e-05 -1.905176568074134e-06 1.5689667835595674e-06 3.362097845145549e-07 8.194480294073244e-06 0.0 0.0
0.0 4.481478724256529e-06 -2.8816756860409695e-07 2.363235891078297e-07 5.184397949627352e-08 1.604817422679041e-06 0.0 0.0
0.0 1.2508586809248778e-06 1.7693331309732382e-08 -8.022362201433076e-09 -9.67096910830339e-09 -2.543629169952669e-07 0.0 0.0
0.0 0.0 0.0 0.0 0.0 0.0 0.0 0.0
0.0 0.0 0.0 0.0 0.0 0.0 0.0 0.0
0.0 1.142611525848342e-07 2.288734892542505e-09 -1.5997618405167106e-09 -6.88973052025528e-10 2.247828464461184e-08 0.0 0.0
0.0 2.4563472803755055e-06 -4.5507673395308613e-08 3.673345292238873e-08 8.774220472915042e-09 -1.639019790728359e-07 0.0 0.0
0.0 1.2910916980943895e-05 -3.3065547570487962e-06 2.728258616978905e-06 5.782961400698881e-07 -1.0851295322426078e-05 0.0 0.0
0.0 5.514523981787567e-05 -2.2540674118277727e-05 1.8348024355924888e-05 4.192649762352861e-06 -5.755536799127998e-05 0.0 0.0
0.0 0.0002936970016569057 -0.00017188137864370082 0.00013905824028291762 3.2823138360783186e-05 -0.00033219630655748316 0.0 0.0
0.0 0.0012831137931044955 -0.0008990730860367701 0.0007450643243523798 0.00015400876168439011 -0.001271215783577318 0.0 0.0
0.0 0.0035575527517009487 -0.0027054207474681386 0.0023424719176653895 0.0003629488298027486 -0.0029868850660738047 0.0 0.0
0.0 0.00717403910504308 -0.005652019648315663 0.005104507059110995 0.0005475125892046687 -0.005347594807729445 0.0 0.0
0.0 0.011820989399348374 -0.009516421135564017 0.008846361306282689 0.0006700598292813285 -0.008136025930242409 0.0 0.0
0.0 0.017260853032966386 -0.014041396123075686 0.01328844006886163 0.000752956054214057 -0.011006034891841408 0.0 0.0
0.0 0.023338851289180115 -0.019114553627830735 0.018292811720802712 0.0008217419070280171 -0.013742983356817971 0.0 0.0
0.0 0.030069705139453066 -0.024745270742766275 0.023861437604104696 0.0008838331386615563 -0.016369861542204475 0.0 0.0
0.0 0.03745715241530866 -0.030987042188895 0.03004173101512815 0.0009453111737668476 -0.01900817990198139 0.0 0.0
0.0 0.04557247251721875 -0.03778891567143055 0.03677811989675276 0.0010107957746777613 -0.021931034840088383 0.0 0.0
0.0 0.05409258537113499 -0.04483809657925243 0.043754201858864965 0.0010838947203874502 -0.025574341761213946 0.0 0.0
0.0 0.062106240632860535 -0.05137319329032763 0.05020576428609578 0.0011674290042318148 -0.030103537468592362 0.0 0.0
0.0 0.06795863907402788 -0.055945739717285184 0.05468006439650999 0.0012656753207751414 -0.03468523409294711 0.0 0.0
0.0 0.06844331757221765 -0.05603661925700468 0.054631370602633685 0.001405248654370971 -0.03691815014914816 0.0 0.0
0.0 0.05806814914652863 -0.04715590072291428 0.04553304962145397 0.001622851101460339 -0.03339299068637101 0.0 0.0
0.0 0.05806814914653545 -0.04715590072291332 0.04553304962145297 0.001622851101460318 0.0333929906864138 0.0 0.0
0.0 0.06844331757221478 -0.05603661925699366 0.05463137060262281 0.0014052486543708242 0.03691815014920313 0.0 0.0
0.0 0.06795863907400986 -0.05594573971726301 0.05468006439648864 0.0012656753207743348 0.034685234092986184 0.0 0.0
0.0 0.06210624063282809 -0.05137319329029691 0.05020576428606598 0.0011674290042308943 0.030103537468601907 0.0 0.0
0.0 0.054092585371092 -0.04483809657921523 0.043754201858828154 0.0010838947203870592 0.02557434176120405 0.0 0.0
0.0 0.04557247251717241 -0.03778891567139153 0.036778119896713604 0.001010795774677897 0.021931034840071847 0.0 0.0
0.0 0.03745715241526637 -0.030987042188859382 0.03004173101509299 0.00094531117376639 0.019008179901964586 0.0 0.0
0.0 0.030069705139409965 -0.024745270742729135 0.02386143760406847 0.0008838331386606668 0.016369861542190868 0.0 0.0
0.0 0.0233388512891357 -0.019114553627793338 0.018292811720765963 0.0008217419070273727 0.01374298335679752 0.0 0.0
0.0 0.017260853032926356 -0.014041396123043233 0.013288440068829628 0.0007529560542136009 0.011006034891816618 0.0 0.0
0.0 0.011820989399313064 -0.009516421135535795 0.00884636130625507 0.000670059829280722 0.008136025930218357 0.0 0.0
0.0 0.007174039105018551 -0.0056520196482962234 0.005104507059092416 0.0005475125892038093 0.005347594807713945 0.0 0.0
0.0 0.0035575527516851432 -0.0027054207474556933 0.002342471917654208 0.0003629488298014843 0.002986885066062883 0.0 0.0
0.0 0.0012831137930954138 -0.0008990730860305141 0.0007450643243470204 0.00015400876168349334 0.0012712157835696727 0.0 0.0
0.0 0.0002936970016534667 -0.00017188137864222795 0.00013905824028169467 3.282313836053333e-05 0.0003321963065548644 0.0 0.0
0.0 5.514523981693632e-05 -2.2540674118351165e-05 1.834802435597475e-05 4.1926497623763556e-06 5.755536799138013e-05 0.0 0.0
0.0 1.2910916980228959e-05 -3.3065547571913887e-06 2.7282586170945584e-06 5.782961400968214e-07 1.0851295322889778e-05 0.0 0.0
0.0 2.4563472797776107e-06 -4.5507673497850336e-08 3.673345300362554e-08 8.774220494222897e-09 1.6390197951841864e-07 0.0 0.0
0.0 1.1426115247963744e-07 2.288734890412389e-09 -1.5997618390303778e-09 -6.889730513817681e-10 -2.247828462369251e-08 0.0 0.0
0.0 0.0 0.0 0.0 0.0 0.0 0.0 0.0
0.0 0.0 0.0 0.0 0.0 0.0 0.0 0.0
0.0 0.0 0.0 0.0 0.0 0.0 0.0 0.0
0.0 6.309247529714745e-07 3.142813531679598e-08 -2.5328167074415058e-08 -6.099968242377811e-09 1.1268037691231927e-07 0.0 0.0
0.0 1.228851100904656e-05 -1.886232419627107e-06 1.5277309948549127e-06 3.585014247722051e-07 -4.471886358345149e-06 0.0 0.0
0.0 8.84333548307572e-05 -4.009614239241773e-05 3.2386236084262794e-05 7.709906308154916e-06 -7.144674268580411e-05 0.0 0.0
0.0 0.0005529021508480997 -0.000392915709021728 0.0003201283718208865 7.278733720084145e-05 -0.0005108237027017146 0.0 0.0
0.0 0.002160056301942635 -0.0016723539051269028 0.0014147108257614948 0.0002576430793654072 -0.0016214742151019765 0.0 0.0
0.0 0.005294381127806367 -0.004284209467184611 0.0038045506530903143 0.0004796588140942952 -0.0034599746205889225 0.0 0.0
0.0 0.009916180226638233 -0.008194081253581231 0.007554798021961333 0.0006392832316198991 -0.005969833514798319 0.0 0.0
0.0 0.015797666960227826 -0.01315318600465817 0.01240924103397073 0.0007439449706874422 -0.008838181755838913 0.0 0.0
0.0 0.02267291258314149 -0.018947612827089864 0.018121581876697466 0.0008260309503924027 -0.011737791388904156 0.0 0.0
0.0 0.030394795907038332 -0.025471246519887414 0.024571502489979063 0.0008997440299083583 -0.014520978917721642 0.0 0.0
0.0 0.038944313288465836 -0.03272723010934474 0.031758239879870385 0.0009689902294743331 -0.017202284472155743 0.0 0.0
0.0 0.04841135242497762 -0.04078042607566145 0.03974369918445663 0.0010367268912048122 -0.01987696322643712 0.0 0.0
0.0 0.05885853579520853 -0.049621788035569984 0.048512028395796596 0.001109759639773397 -0.022838944125260337 0.0 0.0
0.0 0.06970760453250988 -0.058910811202010624 0.0577138908657795 0.0011969203362310974 -0.026563418730952075 0.0 0.0
0.0 0.08027828716770528 -0.06763365968500554 0.06633023179441208 0.0013034278905934506 -0.031295263902521575 0.0 0.0
0.0 0.08789708196648935 -0.07379341947966167 0.07235890288852384 0.0014345165911378117 -0.036289549623890555 0.0 0.0
0.0 0.0885471439776688 -0.07407041359894914 0.07247203369275895 0.001598379906190159 -0.03931966010156616 0.0 0.0
0.0 0.07650459761892436 -0.06346313195655301 0.06166856867421129 0.0017945632823417284 -0.03813566261987457 0.0 0.0
0.0 0.0765045976189261 -0.06346313195654822 0.061668568674206344 0.0017945632823418453 0.038135662619918645 0.0 0.0
0.0 0.08854714397765708 -0.07407041359893174 0.07247203369274156 0.0015983799061901386 0.03931966010162116 0.0 0.0
0.0 0.08789708196646082 -0.07379341947963172 0.07235890288849393 0.0014345165911377527 0.03628954962393069 0.0 0.0
0.0 0.08027828716766112 -0.06763365968496504 0.06633023179437188 0.0013034278905931325 0.0312952639025328 0.0 0.0
0.0 0.06970760453245371 -0.05891081120196191 0.057713890865731005 0.0011969203362308843 0.026563418730942444 0.0 0.0
0.0 0.058858535795155244 -0.04962178803552385 0.04851202839575135 0.0011097596397725317 0.022838944125247194 0.0 0.0
0.0 0.04841135242492202 -0.040780426075613815 0.03974369918440948 0.0010367268912043362 0.019876963226419624 0.0 0.0
0.0 0.0389443132884103 -0.03272723010929706 0.03175823987982265 0.0009689902294743961 0.017202284472141026 0.0 0.0
0.0 0.030394795906985458 -0.025471246519842432 0.024571502489934317 0.0008997440299081058 0.014520978917701901 0.0 0.0
0.0 0.02267291258309327 -0.018947612827049716 0.01812158187665787 0.0008260309503918398 0.011737791388878777 0.0 0.0
0.0 0.015797666960184326 -0.013153186004622067 0.012409241033935134 0.0007439449706869408 0.008838181755813098 0.0 0.0
0.0 0.009916180226606187 -0.008194081253554562 0.007554798021935297 0.0006392832316192686 0.005969833514781572 0.0 0.0
0.0 0.0052943811277850784 -0.004284209467167182 0.0038045506530738618 0.00047965881409332194 0.0034599746205770457 0.0 0.0
0.0 0.0021600563019306177 -0.0016723539051177036 0.0014147108257535012 0.0002576430793642023 0.0016214742150942399 0.0 0.0
0.0 0.0005529021508425019 -0.00039291570901826774 0.00032012837181804693 7.278733720022081e-05 0.0005108237026975983 0.0 0.0
0.0 8.843335482955141e-05 -4.009614239238496e-05 3.2386236084223064e-05 7.709906308161793e-06 7.144674268569774e-05 0.0 0.0
0.0 1.2288511008485467e-05 -1.8862324197973615e-06 1.5277309949922313e-06 3.585014248051408e-07 4.4718863587661804e-06 0.0 0.0
0.0 6.309247528189452e-07 3.142813524407945e-08 -2.5328167014911298e-08 -6.099968229168934e-09 -1.1268037664691224e-07 0.0 0.0
0.0 0.0 0.0 0.0 0.0 0.0 0.0 0.0
0.0 0.0 0.0 0.0 0.0 0.0 0.0 0.0
0.0 0.0 0.0 0.0 0.0 0.0 0.0 0.0
0.0 0.0 0.0 0.0 0.0 0.0 0.0 0.0
0.0 9.159772724021529e-07 5.630253744311479e-08 -4.536700834069255e-08 -1.0935529102421052e-08 1.5681455061216043e-07 0.0 0.0
0.0 9.423273731119454e-06 -3.5933014133082034e-06 2.8884515829128502e-06 7.048498303953945e-07 -6.613915539742498e-06 0.0 0.0
0.0 0.00014597303552183477 -9.266510845808898e-05 7.46106047051169e-05 1.805450375297212e-05 -0.00011841690384445817 0.0 0.0
0.0 0.0009857305526667923 -0.0007573343645290513 0.0006234969697872326 0.00013383739474181897 -0.0006736517260865516 0.0 0.0
0.0 0.0032812144740972677 -0.0026447395627012676 0.002284769268193398 0.0003599702945078703 -0.0018152751724692536 0.0 0.0
0.0 0.007138303640664214 -0.0060438811049596764 0.005475874369047948 0.0005680067359117274 -0.0036593844469467313 0.0 0.0
0.0 0.01275676291258372 -0.010848943798383057 0.010146694555799248 0.0007022492425838118 -0.006093618358093746 0.0 0.0
0.0 0.019852703390858276 -0.01686821666604077 0.016067541510601115 0.0008006751554396594 -0.008822869092752829 0.0 0.0
0.0 0.02815870300138681 -0.023924760556195097 0.023038038838790128 0.0008867217174049543 -0.011607141738158066 0.0 0.0
0.0 0.03750506043650454 -0.031903928247014574 0.030936430404757215 0.0009674978422573175 -0.01428088701867025 0.0 0.0
0.0 0.04794942667549876 -0.040793006588212805 0.039748078261646405 0.0010449283265663986 -0.016869685770010665 0.0 0.0
0.0 0.059365338024951884 -0.05065293881889556 0.04953298818254895 0.0011199506363466058 -0.019459794610012723 0.0 0.0
0.0 0.07200595951815378 -0.06148934018654059 0.06028951843087961 0.001199821755660994 -0.02219363696704947 0.0 0.0
0.0 0.08549349667745272 -0.07294774829033437 0.07164795576891332 0.0012997925214210371 -0.025483904890784805 0.0 0.0
0.0 0.09812967083820115 -0.0837990888739906 0.08236952736777925 0.0014295615062112966 -0.02984070834091892 0.0 0.0
0.0 0.10730141923372488 -0.09148487160370927 0.08989525532803158 0.001589616275677632 -0.03500708591955685 0.0 0.0
0.0 0.10836080276008583 -0.09198264195438627 0.09021490283448447 0.001767739119901746 -0.03962367153894103 0.0 0.0
0.0 0.09535749832750996 -0.07990552760984962 0.07795463350752883 0.00195089410232077 -0.042568207811314596 0.0 0.0
0.0 0.09535749832750767 -0.07990552760984193 0.07795463350752091 0.001950894102320968 0.04256820781136006 0.0 0.0
0.0 0.10836080276006928 -0.09198264195436578 0.09021490283446439 0.00176773911990136 0.039623671538996236 0.0 0.0
0.0 0.10730141923368355 -0.0914848716036696 0.08989525532799153 0.0015896162756780267 0.03500708591959583 0.0 0.0
0.0 0.09812967083814551 -0.08379908887394108 0.08236952736772954 0.0014295615062114963 0.029840708340928473 0.0 0.0
0.0 0.0854934966773883 -0.07294774829027859 0.07164795576885749 0.0012997925214210811 0.02548390489077766 0.0 0.0
0.0 0.0720059595180884 -0.061489340186483915 0.060289518430823176 0.0011998217556607154 0.022193636967040624 0.0 0.0
0.0 0.05936533802488926 -0.05065293881884142 0.04953298818249534 0.001119950636346062 0.01945979460999871 0.0 0.0
0.0 0.047949426675435246 -0.04079300658815753 0.03974807826159175 0.0010449283265657567 0.01686968576999662 0.0 0.0
0.0 0.037505060436440876 -0.0319039282469597 0.030936430404702595 0.0009674978422570913 0.014280887018651947 0.0 0.0
0.0 0.028158703001328854 -0.023924760556146105 0.02303803883874142 0.0008867217174046819 0.011607141738132924 0.0 0.0
0.0 0.019852703390809936 -0.016868216666000004 0.016067541510560834 0.00080067515543916 0.008822869092729502 0.0 0.0
0.0 0.012756762912547128 -0.010848943798351744 0.010146694555768547 0.0007022492425831971 0.006093618358078007 0.0 0.0
0.0 0.0071383036406375815 -0.006043881104937051 0.005475874369026236 0.0005680067359108138 0.00365938444693422 0.0 0.0
0.0 0.0032812144740800107 -0.0026447395626872506 0.0022847692681806373 0.0003599702945066137 0.0018152751724603376 0.0 0.0
0.0 0.0009857305526592606 -0.0007573343645236453 0.0006234969697826477 0.00013383739474099736 0.0006736517260820097 0.0 0.0
0.0 0.00014597303552033503 -9.266510845777767e-05 7.461060470486671e-05 1.8054503752910917e-05 0.00011841690384415559 0.0 0.0
0.0 9.423273730961994e-06 -3.5933014136117635e-06 2.888451583153083e-06 7.048498304586575e-07 6.613915540292539e-06 0.0 0.0
0.0 9.159772720464821e-07 5.630253742091469e-08 -4.5367008322703315e-08 -1.0935529098212496e-08 -1.5681455054918204e-07 0.0 0.0
0.0 0.0 0.0 0.0 0.0 0.0 0.0 0.0
0.0 0.0 0.0 0.0 0.0 0.0 0.0 0.0
0.0 0.0 0.0 0.0 0.0 0.0 0.0 0.0
0.0 0.0 0.0 0.0 0.0 0.0 0.0 0.0
0.0 0.0 0.0 0.0 0.0 0.0 0.0 0.0
0.0 8.937434069055855e-06 -4.441620178187112e-06 3.533974973627963e-06 9.076452045591691e-07 -6.025550128544742e-06 0.0 0.0
0.0 0.00026844951838195436 -0.0001942589963596501 0.00015666270855689584 3.759628780275431e-05 -0.00017281062613459198 0.0 0.0
0.0 0.001594976602822375 -0.0012690549020090954 0.0010601548214615652 0.0002089000805475312 -0.0007673927432298211 0.0 0.0
0.0 0.004380849265293367 -0.003792251149145029 0.0033409578036036965 0.0004512933455413358 -0.0018594297023840222 0.0 0.0
0.0 0.009097358510434212 -0.007902586404292197 0.007272373453776298 0.0006302129505158995 -0.003529191286812598 0.0 0.0
0.0 0.015709215852340065 -0.013555511294412558 0.012805898978988714 0.000749612315423839 -0.005678688958338925 0.0 0.0
0.0 0.023962486408313315 -0.020624157609546095 0.019776380521206956 0.0008477770883391562 -0.008129151735770609 0.0 0.0
0.0 0.033671134639033054 -0.02893636639821575 0.027997056614518578 0.0009393097836971634 -0.010630692319709572 0.0 0.0
0.0 0.044677906351903045 -0.03837568158539764 0.03734758059543236 0.0010281009899652646 -0.013039407423146132 0.0 0.0
0.0 0.05692624530043871 -0.048911563563614494 0.0477972032545388 0.0011143603090756878 -0.015400032717947322 0.0 0.0
0.0 0.0704834422011911 -0.060565439061511094 0.05936638460841187 0.0011990544530992076 -0.017747280780259125 0.0 0.0
0.0 0.0852779317059595 -0.07331122351282585 0.07202497353030665 0.0012862499825191918 -0.020070554220019833 0.0 0.0
0.0 0.10070028203609688 -0.08679149897132646 0.08539820809424868 0.0013932908770777292 -0.022530545676871395 0.0 0.0
0.0 0.11566736493437353 -0.09967001707920237 0.09812748182766895 0.0015425352515334248 -0.025832252593537063 0.0 0.0
0.0 0.12664863403599605 -0.10896317282047316 0.10723557096615131 0.001727601854321855 -0.030885620098366876 0.0 0.0
0.0 0.12843189064331775 -0.11000570093858686 0.10808157467565424 0.001924126262932585 -0.03790719468654692 0.0 0.0
0.0 0.11472011058970041 -0.09685836479648771 0.09475307054651674 0.002105294249970863 -0.04670525917800069 0.0 0.0
0.0 0.11472011058969764 -0.09685836479647994 0.09475307054650949 0.002105294249970485 0.04670525917804287 0.0 0.0
0.0 0.12843189064329372 -0.1100057009385615 0.10808157467562898 0.0019241262629325572 0.03790719468659841 0.0 0.0
0.0 0.1266486340359466 -0.10896317282042776 0.10723557096610568 0.0017276018543219362 0.030885620098401873 0.0 0.0
0.0 0.11566736493431183 -0.09967001707914763 0.09812748182761516 0.0015425352515324947 0.025832252593545994 0.0 0.0
0.0 0.10070028203602391 -0.08679149897126293 0.08539820809418563 0.0013932908770772248 0.02253054567686743 0.0 0.0
0.0 0.0852779317058817 -0.07331122351275848 0.07202497353023943 0.0012862499825190676 0.020070554220012676 0.0 0.0
0.0 0.07048344220111388 -0.060565439061444515 0.05936638460834571 0.0011990544530987577 0.017747280780245716 0.0 0.0
0.0 0.05692624530036407 -0.04891156356354975 0.04779720325447481 0.0011143603090749275 0.015400032717934126 0.0 0.0
0.0 0.044677906351829354 -0.0383756815853335 0.037347580595369224 0.0010281009899643112 0.013039407423130091 0.0 0.0
0.0 0.03367113463896405 -0.02893636639815618 0.02799705661445983 0.0009393097836963379 0.01063069231968647 0.0 0.0
0.0 0.023962486408256156 -0.020624157609496877 0.019776380521158494 0.0008477770883383688 0.008129151735748548 0.0 0.0
0.0 0.015709215852297804 -0.01355551129437565 0.012805898978952542 0.0007496123154231048 0.005678688958325427 0.0 0.0
0.0 0.009097358510403714 -0.007902586404265485 0.007272373453750481 0.0006302129505150033 0.003529191286801703 0.0 0.0
0.0 0.004380849265273242 -0.0037922511491277396 0.003340957803587524 0.0004512933455402161 0.0018594297023759347 0.0 0.0
0.0 0.0015949766028120456 -0.001269054902001247 0.0010601548214547204 0.0002089000805465263 0.0007673927432252916 0.0 0.0
0.0 0.00026844951837902886 -0.00019425899635821246 0.00015666270855569072 3.7596287802521524e-05 0.0001728106261333177 0.0 0.0
0.0 8.937434068846733e-06 -4.44162017861448e-06 3.5339749739609374e-06 9.076452046535552e-07 6.02555012909791e-06 0.0 0.0
0.0 0.0 0.0 0.0 0.0 0.0 0.0 0.0
0.0 0.0 0.0 0.0 0.0 0.0 0.0 0.0
0.0 0.0 0.0 0.0 0.0 0.0 0.0 0.0
0.0 0.0 0.0 0.0 0.0 0.0 0.0 0.0
0.0 0.0 0.0 0.0 0.0 0.0 0.0 0.0
0.0 0.0 0.0 0.0 0.0 0.0 0.0 0.0
0.0 1.300842372550704e-05 -7.898907559938445e-06 6.3074856934595084e-06 1.5914218664789256e-06 -7.706713174474102e-06 0.0 0.0
0.0 0.0004974924967826047 -0.0003786688563398547 0.00030652017172083104 7.214868461902346e-05 -0.00021604653770162426 0.0 0.0
0.0 0.0023139294165040484 -0.0019278549004229898 0.001636018198352101 0.00029183670207088804 -0.0007656549681249708 0.0 0.0
0.0 0.005675602016967098 -0.0050368208461040054 0.0045122847801212585 0.0005245360659827453 -0.0016655735666182567 0.0 0.0
0.0 0.011175815247467503 -0.009803182897127314 0.009127472593775958 0.0006757103033513548 -0.0030067136169647955 0.0 0.0
0.0 0.018702226885601306 -0.016285645424618737 0.015498232792098578 0.0007874126325201484 -0.004759711406973521 0.0 0.0
0.0 0.02810882030910933 -0.024387334634245472 0.023499376491932077 0.0008879581423133901 -0.0067703976674745175 0.0 0.0
0.0 0.03923138827046731 -0.03394949383630571 0.03296346481637409 0.000986029019931597 -0.008830085671482734 0.0 0.0
0.0 0.05184202764130792 -0.044854032878031844 0.04377122830320618 0.001082804574825666 -0.010810360628216258 0.0 0.0
0.0 0.06605011817716125 -0.05704648920829305 0.05586771777716005 0.0011787714311329689 -0.01276253531894643 0.0 0.0
0.0 0.08147767273464086 -0.07049159698338764 0.06921688157456021 0.0012747154088274119 -0.014746302204625658 0.0 0.0
0.0 0.09823668991533008 -0.08505420015325554 0.08368175769293583 0.001372442460319768 -0.016584322292142486 0.0 0.0
0.0 0.1158212636282965 -0.10031066632735036 0.09882789063992747 0.001482775687422878 -0.01799243778124591 0.0 0.0
0.0 0.13277094069182202 -0.11501811571173003 0.11338564770223437 0.0016324680094956141 -0.019571662651712816 0.0 0.0
0.0 0.14574335093927762 -0.12615075087094768 0.12430452870298829 0.0018462221679592988 -0.02388265276126438 0.0 0.0
0.0 0.14889573490520347 -0.1283505617452879 0.12627905441207132 0.0020715073332165873 -0.033743947748346576 0.0 0.0
0.0 0.13527753730279002 -0.11474578189711118 0.11247498646075757 0.0022707954363535682 -0.05024209210397015 0.0 0.0
0.0 0.1352775373027789 -0.11474578189709807 0.11247498646074436 0.0022707954363537603 0.050242092104001324 0.0 0.0
0.0 0.1488957349051669 -0.1283505617452535 0.12627905441203652 0.0020715073332169542 0.03374394774838942 0.0 0.0
0.0 0.1457433509392221 -0.1261507508708975 0.12430452870293918 0.0018462221679582573 0.023882652761295642 0.0 0.0
0.0 0.13277094069174974 -0.11501811571166673 0.11338564770217198 0.0016324680094948031 0.019571662651719793 0.0 0.0
0.0 0.11582126362821439 -0.10031066632727872 0.09882789063985697 0.0014827756874217749 0.017992437781244697 0.0 0.0
0.0 0.09823668991524515 -0.08505420015318138 0.08368175769286289 0.0013724424603185526 0.016584322292138926 0.0 0.0
0.0 0.08147767273455819 -0.0704915969833155 0.06921688157448946 0.00127471540882601 0.014746302204617558 0.0 0.0
0.0 0.06605011817707647 -0.057046489208219316 0.05586771777708706 0.001178771431132287 0.012762535318936532 0.0 0.0
0.0 0.05184202764122507 -0.04485403287796005 0.04377122830313491 0.001082804574825118 0.010810360628205217 0.0 0.0
0.0 0.039231388270394525 -0.033949493836242184 0.0329634648163115 0.0009860290199306867 0.008830085671465699 0.0 0.0
0.0 0.028108820309043995 -0.02438733463418878 0.023499376491875886 0.0008879581423128984 0.00677039766745559 0.0 0.0
0.0 0.018702226885552703 -0.016285645424576237 0.015498232792056582 0.0007874126325196573 0.004759711406961605 0.0 0.0
0.0 0.011175815247431256 -0.00980318289709536 0.00912747259374468 0.0006757103033506822 0.003006713616955279 0.0 0.0
0.0 0.005675602016943958 -0.005036820846083544 0.004512284780101713 0.0005245360659818342 0.0016655735666110145 0.0 0.0
0.0 0.0023139294164919886 -0.0019278549004128748 0.0016360181983432454 0.00029183670206962825 0.0007656549681212363 0.0 0.0
0.0 0.0004974924967780215 -0.0003786688563367817 0.00030652017171825465 7.21486846185272e-05 0.000216046537699894 0.0 0.0
0.0 1.3008423725128059e-05 -7.898907560329753e-06 6.307485693759924e-06 1.5914218665698336e-06 7.706713174812148e-06 0.0 0.0
0.0 0.0 0.0 0.0 0.0 0.0 0.0 0.0
0.0 0.0 0.0 0.0 0.0 0.0 0.0 0.0
0.0 0.0 0.0 0.0 0.0 0.0 0.0 0.0
0.0 0.0 0.0 0.0 0.0 0.0 0.0 0.0
0.0 0.0 0.0 0.0 0.0 0.0 0.0 0.0
0.0 0.0 0.0 0.0 0.0 0.0 0.0 0.0
0.0 3.0950823815333185e-05 -2.0163618498950145e-05 1.6072328775777976e-05 4.091289723172194e-06 -1.2173188765964004e-05 0.0 0.0
0.0 0.0008650492661725054 -0.0006698270099614571 0.000547573551425815 0.0001222534585356423 -0.0002187297828111959 0.0 0.0
0.0 0.002992399066405408 -0.0027160930691904053 0.002341297884701962 0.0003747951844884416 -0.0006163228283646435 0.0 0.0
0.0 0.007096914051183166 -0.0063303421775042 0.005752078225486096 0.0005782639520181063 -0.0012261131935012686 0.0 0.0
0.0 0.013296194679130124 -0.011724366334885324 0.011013253256135579 0.0007111130787497537 -0.00213303015550645 0.0 0.0
0.0 0.021715564803267393 -0.01900917865118961 0.01819111302861624 0.0008180656225733699 -0.0033434034080772807 0.0 0.0
0.0 0.032261180647397594 -0.028126986053524074 0.02720446866399498 0.0009225173895290932 -0.004754007216612407 0.0 0.0
0.0 0.04477539526833797 -0.03893455275963908 0.03790682031766612 0.0010277324419729586 -0.006200866140850913 0.0 0.0
0.0 0.05915727272908837 -0.05130683688075228 0.050173955107428024 0.001132881773324248 -0.007593072844904351 0.0 0.0
0.0 0.07502161415321344 -0.06516525323807308 0.0639264879087993 0.0012387653292737658 -0.008997212691550455 0.0 0.0
0.0 0.09252731883762083 -0.08038980150352265 0.07904295326885409 0.001346848234668518 -0.010413146851331783 0.0 0.0
0.0 0.1113394226464518 -0.09670039655233703 0.09524192450720786 0.0014584720451291451 -0.011635174557418337 0.0 0.0
0.0 0.13068858172894374 -0.11350733304490539 0.11193194195314203 0.0015753910917633224 -0.0122206594516852 0.0 0.0
0.0 0.14924082297759494 -0.12964635100381372 0.1279352945539502 0.00171105644986356 -0.01205178455548259 0.0 0.0
0.0 0.16426460495684547 -0.14265644087218654 0.14075091427069134 0.0019055266014952111 -0.01386764210968203 0.0 0.0
0.0 0.1700014053352431 -0.14717768400828413 0.14495523453685674 0.002222449471427295 -0.025622629313497774 0.0 0.0
0.0 0.15758001228384116 -0.1342123159065566 0.13174771003475189 0.002464605871804691 -0.05240559773030808 0.0 0.0
0.0 0.15758001228383053 -0.13421231590654464 0.13174771003474078 0.0024646058718038816 0.05240559773033231 0.0 0.0
0.0 0.1700014053352034 -0.1471776840082483 0.1449552345368209 0.002222449471427362 0.02562262931353155 0.0 0.0
0.0 0.1642646049567807 -0.14265644087212992 0.14075091427063463 0.0019055266014953113 0.013867642109705626 0.0 0.0
0.0 0.1492408229775114 -0.12964635100374122 0.12793529455387795 0.0017110564498632622 0.012051784555484384 0.0 0.0
0.0 0.13068858172885192 -0.11350733304482531 0.11193194195306336 0.0015753910917619648 0.012220659451684164 0.0 0.0
0.0 0.1113394226463551 -0.09670039655225274 0.09524192450712478 0.0014584720451279738 0.011635174557416833 0.0 0.0
0.0 0.09252731883751975 -0.08038980150343514 0.07904295326876683 0.0013468482346682925 0.01041314685132699 0.0 0.0
0.0 0.07502161415311728 -0.06516525323798959 0.06392648790871668 0.001238765329272948 0.008997212691542047 0.0 0.0
0.0 0.05915727272899589 -0.051306836880671544 0.05017395510734825 0.0011328817733232788 0.007593072844897683 0.0 0.0
0.0 0.04477539526825467 -0.038934552759566844 0.037906820317594334 0.001027732441972497 0.006200866140837905 0.0 0.0
0.0 0.03226118064732757 -0.028126986053463175 0.0272044686639346 0.0009225173895285803 0.0047540072165990245 0.0 0.0
0.0 0.0217155648032131 -0.019009178651141583 0.018191113028569 0.0008180656225725742 0.0033434034080700513 0.0 0.0
0.0 0.013296194679088321 -0.011724366334848382 0.011013253256099267 0.0007111130787491116 0.0021330301554996324 0.0 0.0
0.0 0.007096914051157003 -0.006330342177480656 0.005752078225463447 0.0005782639520172061 0.0012261131934964936 0.0 0.0
0.0 0.002992399066391102 -0.002716093069177488 0.0023412978846901185 0.0003747951844873702 0.0006163228283615444 0.0 0.0
0.0 0.0008650492661672143 -0.0006698270099576368 0.0005475735514226262 0.00012225345853501035 0.00021872978281024005 0.0 0.0
0.0 3.0950823814809386e-05 -2.0163618499368234e-05 1.6072328776090464e-05 4.091289723277721e-06 1.2173188766144868e-05 0.0 0.0
0.0 0.0 0.0 0.0 0.0 0.0 0.0 0.0
0.0 0.0 0.0 0.0 0.0 0.0 0.0 0.0
0.0 0.0 0.0 0.0 0.0 0.0 0.0 0.0
0.0 0.0 0.0 0.0 0.0 0.0 0.0 0.0
0.0 0.0 0.0 0.0 0.0 0.0 0.0 0.0
0.0 0.0 0.0 0.0 0.0 0.0 0.0 0.0
0.0 9.464457534909729e-05 -7.434816642943108e-05 5.8888258156974905e-05 1.5459908272456312e-05 -1.902660607858342e-05 0.0 0.0
0.0 0.0013797941409228033 -0.0010675788421296523 0.0008822586828635117 0.00018532015926613966 -0.00013707679305728952 0.0 0.0
0.0 0.003921999603513629 -0.003559617312934009 0.0031146571915930525 0.00044496012134095784 -0.0002932569463486714 0.0 0.0
0.0 0.008569102560691464 -0.0076531911474155764 0.007033551549211208 0.0006196395982043658 -0.0005410749839153708 0.0 0.0
0.0 0.015456229204899275 -0.013639242465718605 0.012900641167084972 0.0007386012986336275 -0.0009116355792012541 0.0 0.0
0.0 0.024751008885365883 -0.021696613864849668 0.02085292094709309 0.0008436929177565777 -0.0014383295138567388 0.0 0.0
0.0 0.03644737302834278 -0.03181137122699036 0.030859051465383987 0.0009523197616063712 -0.0020781513293845312 0.0 0.0
0.0 0.05042870037003997 -0.043862245056260275 0.0427975022639561 0.0010647427923041733 -0.002745065359789402 0.0 0.0
0.0 0.06625111305521486 -0.05771232463312734 0.056533214897368886 0.0011791097357584264 -0.00340668585915713 0.0 0.0
0.0 0.08406351153243358 -0.07322339035618936 0.07192848163423007 0.0012949087219593198 -0.0040677515539902075 0.0 0.0
0.0 0.10363839009390885 -0.0902026353960323 0.08878792504867261 0.0014147103473596567 -0.00469681016803301 0.0 0.0
0.0 0.12442565710144428 -0.10823494601428876 0.1066942554609752 0.0015406905533136032 -0.005175223590098747 0.0 0.0
0.0 0.14549644640153775 -0.12649697585017294 0.12482542047813788 0.0016715553720349973 -0.0051982699336034525 0.0 0.0
0.0 0.16528790958266776 -0.1436630937875381 0.14186018552720955 0.0018029082603285378 -0.00433644432228468 0.0 0.0
0.0 0.18154182996264479 -0.15779494783874826 0.1558500634928395 0.0019448843459087136 -0.0031641229090784485 0.0 0.0
0.0 0.1905265045058238 -0.16543463247337056 0.16326208498836275 0.0021725474850076984 -0.010005271444039189 0.0 0.0
0.0 0.18319176982481328 -0.15702425915835408 0.15418823654789338 0.002836022610460634 -0.04836489241599151 0.0 0.0
0.0 0.18319176982479451 -0.15702425915833734 0.15418823654787617 0.0028360226104610997 0.04836489241600069 0.0 0.0
0.0 0.19052650450577394 -0.16543463247332757 0.16326208498831896 0.0021725474850085094 0.010005271444055537 0.0 0.0
0.0 0.18154182996256893 -0.157794947838682 0.15585006349277442 0.0019448843459075361 0.0031641229090899033 0.0 0.0
0.0 0.1652879095825757 -0.1436630937874578 0.14186018552713073 0.00180290826032709 0.004336444322281735 0.0 0.0
0.0 0.14549644640143428 -0.12649697585008302 0.12482542047804887 0.0016715553720340866 0.005198269933602785 0.0 0.0
0.0 0.12442565710133542 -0.10823494601419445 0.10669425546088115 0.0015406905533132283 0.005175223590098343 0.0 0.0
0.0 0.10363839009379874 -0.0902026353959367 0.0887879250485778 0.0014147103473588507 0.0046968101680307526 0.0 0.0
0.0 0.08406351153232529 -0.07322339035609517 0.07192848163413704 0.0012949087219580988 0.004067751553987179 0.0 0.0
0.0 0.06625111305510883 -0.05771232463303532 0.05653321489727747 0.001179109735757822 0.003406685859154885 0.0 0.0
0.0 0.050428700369946025 -0.04386224505617852 0.04279750226387517 0.0010647427923033553 0.0027450653597824036 0.0 0.0
0.0 0.03644737302826507 -0.03181137122692279 0.030859051465317387 0.0009523197616054212 0.0020781513293776197 0.0 0.0
0.0 0.024751008885305657 -0.021696613864796793 0.02085292094704081 0.0008436929177559789 0.0014383295138540256 0.0 0.0
0.0 0.015456229204853305 -0.013639242465677782 0.0129006411670447 0.0007386012986330739 0.0009116355791982765 0.0 0.0
0.0 0.008569102560659514 -0.007653191147387033 0.007033551549183344 0.0006196395982036894 0.0005410749839136034 0.0 0.0
0.0 0.003921999603495731 -0.0035596173129175544 0.0031146571915775523 0.0004449601213400004 0.00029325694634697776 0.0 0.0
0.0 0.0013797941409141377 -0.0010675788421227988 0.0008822586828576323 0.00018532015926516718 0.00013707679305669884 0.0 0.0
0.0 9.464457534782796e-05 -7.434816642896803e-05 5.8888258156584417e-05 1.5459908272383583e-05 1.9026606078408835e-05 0.0 0.0
0.0 0.0 0.0 0.0 0.0 0.0 0.0 0.0
0.0 0.0 0.0 0.0 0.0 0.0 0.0 0.0
0.0 0.0 0.0 0.0 0.0 0.0 0.0 0.0