# vtk DataFile Version 3.0
Some data
ASCII
DATASET UNSTRUCTURED_GRID
POINTS 861 float
0.0 0.0 0.0
0.4 0.0 0.0
0.8 0.0 0.0
1.2000000000000002 0.0 0.0
1.6 0.0 0.0
2.0 0.0 0.0
2.4000000000000004 0.0 0.0
2.8000000000000003 0.0 0.0
3.2 0.0 0.0
3.6 0.0 0.0
4.0 0.0 0.0
4.4 0.0 0.0
4.800000000000001 0.0 0.0
5.2 0.0 0.0
5.6000000000000005 0.0 0.0
6.0 0.0 0.0
6.4 0.0 0.0
6.800000000000001 0.0 0.0
7.2 0.0 0.0
7.6000000000000005 0.0 0.0
8.0 0.0 0.0
8.4 0.0 0.0
8.8 0.0 0.0
9.200000000000001 0.0 0.0
9.600000000000001 0.0 0.0
10.0 0.0 0.0
10.4 0.0 0.0
10.8 0.0 0.0
11.200000000000001 0.0 0.0
11.600000000000001 0.0 0.0
12.0 0.0 0.0
12.4 0.0 0.0
12.8 0.0 0.0
13.200000000000001 0.0 0.0
13.600000000000001 0.0 0.0
14.0 0.0 0.0
14.4 0.0 0.0
14.8 0.0 0.0
15.200000000000001 0.0 0.0
15.600000000000001 0.0 0.0
16.0 0.0 0.0
0.0 0.1 0.0
0.4 0.1 0.0
0.8 0.1 0.0
1.2000000000000002 0.1 0.0
1.6 0.1 0.0
2.0 0.1 0.0
2.4000000000000004 0.1 0.0
2.8000000000000003 0.1 0.0
3.2 0.1 0.0
3.6 0.1 0.0
4.0 0.1 0.0
4.4 0.1 0.0
4.800000000000001 0.1 0.0
5.2 0.1 0.0
5.6000000000000005 0.1 0.0
6.0 0.1 0.0
6.4 0.1 0.0
6.800000000000001 0.1 0.0
7.2 0.1 0.0
7.6000000000000005 0.1 0.0
8.0 0.1 0.0
8.4 0.1 0.0
8.8 0.1 0.0
9.200000000000001 0.1 0.0
9.600000000000001 0.1 0.0
10.0 0.1 0.0
10.4 0.1 0.0
10.8 0.1 0.0
11.200000000000001 0.1 0.0
11.600000000000001 0.1 0.0
12.0 0.1 0.0
12.4 0.1 0.0
12.8 0.1 0.0
13.200000000000001 0.1 0.0
13.600000000000001 0.1 0.0
14.0 0.1 0.0
14.4 0.1 0.0
14.8 0.1 0.0
15.200000000000001 0.1 0.0
15.600000000000001 0.1 0.0
16.0 0.1 0.0
0.0 0.2 0.0
0.4 0.2 0.0
0.8 0.2 0.0
1.2000000000000002 0.2 0.0
1.6 0.2 0.0
2.0 0.2 0.0
2.4000000000000004 0.2 0.0
2.8000000000000003 0.2 0.0
3.2 0.2 0.0
3.6 0.2 0.0
4.0 0.2 0.0
4.4 0.2 0.0
4.800000000000001 0.2 0.0
5.2 0.2 0.0
5.6000000000000005 0.2 0.0
6.0 0.2 0.0
6.4 0.2 0.0
6.800000000000001 0.2 0.0
7.2 0.2 0.0
7.6000000000000005 0.2 0.0
8.0 0.2 0.0
8.4 0.2 0.0
8.8 0.2 0.0
9.200000000000001 0.2 0.0
9.600000000000001 0.2 0.0
10.0 0.2 0.0
10.4 0.2 0.0
10.8 0.2 0.0
11.200000000000001 0.2 0.0
11.600000000000001 0.2 0.0
12.0 0.2 0.0
12.4 0.2 0.0
12.8 0.2 0.0
13.200000000000001 0.2 0.0
13.600000000000001 0.2 0.0
14.0 0.2 0.0
14.4 0.2 0.0
14.8 0.2 0.0
15.200000000000001 0.2 0.0
15.600000000000001 0.2 0.0
16.0 0.2 0.0
0.0 0.30000000000000004 0.0
0.4 0.30000000000000004 0.0
0.8 0.30000000000000004 0.0
1.2000000000000002 0.30000000000000004 0.0
1.6 0.30000000000000004 0.0
2.0 0.30000000000000004 0.0
2.4000000000000004 0.30000000000000004 0.0
2.8000000000000003 0.30000000000000004 0.0
3.2 0.30000000000000004 0.0
3.6 0.30000000000000004 0.0
4.0 0.30000000000000004 0.0
4.4 0.30000000000000004 0.0
4.800000000000001 0.30000000000000004 0.0
5.2 0.30000000000000004 0.0
5.6000000000000005 0.30000000000000004 0.0
6.0 0.30000000000000004 0.0
6.4 0.30000000000000004 0.0
6.800000000000001 0.30000000000000004 0.0
7.2 0.30000000000000004 0.0
7.6000000000000005 0.30000000000000004 0.0
8.0 0.30000000000000004 0.0
8.4 0.30000000000000004 0.0
8.8 0.30000000000000004 0.0
9.200000000000001 0.30000000000000004 0.0
9.600000000000001 0.30000000000000004 0.0
10.0 0.30000000000000004 0.0
10.4 0.30000000000000004 0.0
10.8 0.30000000000000004 0.0
11.200000000000001 0.30000000000000004 0.0
11.600000000000001 0.30000000000000004 0.0
12.0 0.30000000000000004 0.0
12.4 0.30000000000000004 0.0
12.8 0.30000000000000004 0.0
13.200000000000001 0.30000000000000004 0.0
13.600000000000001 0.30000000000000004 0.0
14.0 0.30000000000000004 0.0
14.4 0.30000000000000004 0.0
14.8 0.30000000000000004 0.0
15.200000000000001 0.30000000000000004 0.0
15.600000000000001 0.30000000000000004 0.0
16.0 0.30000000000000004 0.0
0.0 0.4 0.0
0.4 0.4 0.0
0.8 0.4 0.0
1.2000000000000002 0.4 0.0
1.6 0.4 0.0
2.0 0.4 0.0
2.4000000000000004 0.4 0.0
2.8000000000000003 0.4 0.0
3.2 0.4 0.0
3.6 0.4 0.0
4.0 0.4 0.0
4.4 0.4 0.0
4.800000000000001 0.4 0.0
5.2 0.4 0.0
5.6000000000000005 0.4 0.0
6.0 0.4 0.0
6.4 0.4 0.0
6.800000000000001 0.4 0.0
7.2 0.4 0.0
7.6000000000000005 0.4 0.0
8.0 0.4 0.0
8.4 0.4 0.0
8.8 0.4 0.0
9.200000000000001 0.4 0.0
9.600000000000001 0.4 0.0
10.0 0.4 0.0
10.4 0.4 0.0
10.8 0.4 0.0
11.200000000000001 0.4 0.0
11.600000000000001 0.4 0.0
12.0 0.4 0.0
12.4 0.4 0.0
12.8 0.4 0.0
13.200000000000001 0.4 0.0
13.600000000000001 0.4 0.0
14.0 0.4 0.0
14.4 0.4 0.0
14.8 0.4 0.0
15.200000000000001 0.4 0.0
15.600000000000001 0.4 0.0
16.0 0.4 0.0
0.0 0.5 0.0
0.4 0.5 0.0
0.8 0.5 0.0
1.2000000000000002 0.5 0.0
1.6 0.5 0.0
2.0 0.5 0.0
2.4000000000000004 0.5 0.0
2.8000000000000003 0.5 0.0
3.2 0.5 0.0
3.6 0.5 0.0
4.0 0.5 0.0
4.4 0.5 0.0
4.800000000000001 0.5 0.0
5.2 0.5 0.0
5.6000000000000005 0.5 0.0
6.0 0.5 0.0
6.4 0.5 0.0
6.800000000000001 0.5 0.0
7.2 0.5 0.0
7.6000000000000005 0.5 0.0
8.0 0.5 0.0
8.4 0.5 0.0
8.8 0.5 0.0
9.200000000000001 0.5 0.0
9.600000000000001 0.5 0.0
10.0 0.5 0.0
10.4 0.5 0.0
10.8 0.5 0.0
11.200000000000001 0.5 0.0
11.600000000000001 0.5 0.0
12.0 0.5 0.0
12.4 0.5 0.0
12.8 0.5 0.0
13.200000000000001 0.5 0.0
13.600000000000001 0.5 0.0
14.0 0.5 0.0
14.4 0.5 0.0
14.8 0.5 0.0
15.200000000000001 0.5 0.0
15.600000000000001 0.5 0.0
16.0 0.5 0.0
0.0 0.6000000000000001 0.0
0.4 0.6000000000000001 0.0
0.8 0.6000000000000001 0.0
1.2000000000000002 0.6000000000000001 0.0
1.6 0.6000000000000001 0.0
2.0 0.6000000000000001 0.0
2.4000000000000004 0.6000000000000001 0.0
2.8000000000000003 0.6000000000000001 0.0
3.2 0.6000000000000001 0.0
3.6 0.6000000000000001 0.0
4.0 0.6000000000000001 0.0
4.4 0.6000000000000001 0.0
4.800000000000001 0.6000000000000001 0.0
5.2 0.6000000000000001 0.0
5.6000000000000005 0.6000000000000001 0.0
6.0 0.6000000000000001 0.0
6.4 0.6000000000000001 0.0
6.800000000000001 0.6000000000000001 0.0
7.2 0.6000000000000001 0.0
7.6000000000000005 0.6000000000000001 0.0
8.0 0.6000000000000001 0.0
8.4 0.6000000000000001 0.0
8.8 0.6000000000000001 0.0
9.200000000000001 0.6000000000000001 0.0
9.600000000000001 0.6000000000000001 0.0
10.0 0.6000000000000001 0.0
10.4 0.6000000000000001 0.0
10.8 0.6000000000000001 0.0
11.200000000000001 0.6000000000000001 0.0
11.600000000000001 0.6000000000000001 0.0
12.0 0.6000000000000001 0.0
12.4 0.6000000000000001 0.0
12.8 0.6000000000000001 0.0
13.200000000000001 0.6000000000000001 0.0
13.600000000000001 0.6000000000000001 0.0
14.0 0.6000000000000001 0.0
14.4 0.6000000000000001 0.0
14.8 0.6000000000000001 0.0
15.200000000000001 0.6000000000000001 0.0
15.600000000000001 0.6000000000000001 0.0
16.0 0.6000000000000001 0.0
0.0 0.7000000000000001 0.0
0.4 0.7000000000000001 0.0
0.8 0.7000000000000001 0.0
1.2000000000000002 0.7000000000000001 0.0
1.6 0.7000000000000001 0.0
2.0 0.7000000000000001 0.0
2.4000000000000004 0.7000000000000001 0.0
2.8000000000000003 0.7000000000000001 0.0
3.2 0.7000000000000001 0.0
3.6 0.7000000000000001 0.0
4.0 0.7000000000000001 0.0
4.4 0.7000000000000001 0.0
4.800000000000001 0.7000000000000001 0.0
5.2 0.7000000000000001 0.0
5.6000000000000005 0.7000000000000001 0.0
6.0 0.7000000000000001 0.0
6.4 0.7000000000000001 0.0
6.800000000000001 0.7000000000000001 0.0
7.2 0.7000000000000001 0.0
7.6000000000000005 0.7000000000000001 0.0
8.0 0.7000000000000001 0.0
8.4 0.7000000000000001 0.0
8.8 0.7000000000000001 0.0
9.200000000000001 0.7000000000000001 0.0
9.600000000000001 0.7000000000000001 0.0
10.0 0.7000000000000001 0.0
10.4 0.7000000000000001 0.0
10.8 0.7000000000000001 0.0
11.200000000000001 0.7000000000000001 0.0
11.600000000000001 0.7000000000000001 0.0
12.0 0.7000000000000001 0.0
12.4 0.7000000000000001 0.0
12.8 0.7000000000000001 0.0
13.200000000000001 0.7000000000000001 0.0
13.600000000000001 0.7000000000000001 0.0
14.0 0.7000000000000001 0.0
14.4 0.7000000000000001 0.0
14.8 0.7000000000000001 0.0
15.200000000000001 0.7000000000000001 0.0
15.600000000000001 0.7000000000000001 0.0
16.0 0.7000000000000001 0.0
0.0 0.8 0.0
0.4 0.8 0.0
0.8 0.8 0.0
1.2000000000000002 0.8 0.0
1.6 0.8 0.0
2.0 0.8 0.0
2.4000000000000004 0.8 0.0
2.8000000000000003 0.8 0.0
3.2 0.8 0.0
3.6 0.8 0.0
4.0 0.8 0.0
4.4 0.8 0.0
4.800000000000001 0.8 0.0
5.2 0.8 0.0
5.6000000000000005 0.8 0.0
6.0 0.8 0.0
6.4 0.8 0.0
6.800000000000001 0.8 0.0
7.2 0.8 0.0
7.6000000000000005 0.8 0.0
8.0 0.8 0.0
8.4 0.8 0.0
8.8 0.8 0.0
9.200000000000001 0.8 0.0
9.600000000000001 0.8 0.0
10.0 0.8 0.0
10.4 0.8 0.0
10.8 0.8 0.0
11.200000000000001 0.8 0.0
11.600000000000001 0.8 0.0
12.0 0.8 0.0
12.4 0.8 0.0
12.8 0.8 0.0
13.200000000000001 0.8 0.0
13.600000000000001 0.8 0.0
14.0 0.8 0.0
14.4 0.8 0.0
14.8 0.8 0.0
15.200000000000001 0.8 0.0
15.600000000000001 0.8 0.0
16.0 0.8 0.0
0.0 0.9 0.0
0.4 0.9 0.0
0.8 0.9 0.0
1.2000000000000002 0.9 0.0
1.6 0.9 0.0
2.0 0.9 0.0
2.4000000000000004 0.9 0.0
2.8000000000000003 0.9 0.0
3.2 0.9 0.0
3.6 0.9 0.0
4.0 0.9 0.0
4.4 0.9 0.0
4.800000000000001 0.9 0.0
5.2 0.9 0.0
5.6000000000000005 0.9 0.0
6.0 0.9 0.0
6.4 0.9 0.0
6.800000000000001 0.9 0.0
7.2 0.9 0.0
7.6000000000000005 0.9 0.0
8.0 0.9 0.0
8.4 0.9 0.0
8.8 0.9 0.0
9.200000000000001 0.9 0.0
9.600000000000001 0.9 0.0
10.0 0.9 0.0
10.4 0.9 0.0
10.8 0.9 0.0
11.200000000000001 0.9 0.0
11.600000000000001 0.9 0.0
12.0 0.9 0.0
12.4 0.9 0.0
12.8 0.9 0.0
13.200000000000001 0.9 0.0
13.600000000000001 0.9 0.0
14.0 0.9 0.0
14.4 0.9 0.0
14.8 0.9 0.0
15.200000000000001 0.9 0.0
15.600000000000001 0.9 0.0
16.0 0.9 0.0
0.0 1.0 0.0
0.4 1.0 0.0
0.8 1.0 0.0
1.2000000000000002 1.0 0.0
1.6 1.0 0.0
2.0 1.0 0.0
2.4000000000000004 1.0 0.0
2.8000000000000003 1.0 0.0
3.2 1.0 0.0
3.6 1.0 0.0
4.0 1.0 0.0
4.4 1.0 0.0
4.800000000000001 1.0 0.0
5.2 1.0 0.0
5.6000000000000005 1.0 0.0
6.0 1.0 0.0
6.4 1.0 0.0
6.800000000000001 1.0 0.0
7.2 1.0 0.0
7.6000000000000005 1.0 0.0
8.0 1.0 0.0
8.4 1.0 0.0
8.8 1.0 0.0
9.200000000000001 1.0 0.0
9.600000000000001 1.0 0.0
10.0 1.0 0.0
10.4 1.0 0.0
10.8 1.0 0.0
11.200000000000001 1.0 0.0
11.600000000000001 1.0 0.0
12.0 1.0 0.0
12.4 1.0 0.0
12.8 1.0 0.0
13.200000000000001 1.0 0.0
13.600000000000001 1.0 0.0
14.0 1.0 0.0
14.4 1.0 0.0
14.8 1.0 0.0
15.200000000000001 1.0 0.0
15.600000000000001 1.0 0.0
16.0 1.0 0.0
0.0 1.1 0.0
0.4 1.1 0.0
0.8 1.1 0.0
1.2000000000000002 1.1 0.0
1.6 1.1 0.0
2.0 1.1 0.0
2.4000000000000004 1.1 0.0
2.8000000000000003 1.1 0.0
3.2 1.1 0.0
3.6 1.1 0.0
4.0 1.1 0.0
4.4 1.1 0.0
4.800000000000001 1.1 0.0
5.2 1.1 0.0
5.6000000000000005 1.1 0.0
6.0 1.1 0.0
6.4 1.1 0.0
6.800000000000001 1.1 0.0
7.2 1.1 0.0
7.6000000000000005 1.1 0.0
8.0 1.1 0.0
8.4 1.1 0.0
8.8 1.1 0.0
9.200000000000001 1.1 0.0
9.600000000000001 1.1 0.0
10.0 1.1 0.0
10.4 1.1 0.0
10.8 1.1 0.0
11.200000000000001 1.1 0.0
11.600000000000001 1.1 0.0
12.0 1.1 0.0
12.4 1.1 0.0
12.8 1.1 0.0
13.200000000000001 1.1 0.0
13.600000000000001 1.1 0.0
14.0 1.1 0.0
14.4 1.1 0.0
14.8 1.1 0.0
15.200000000000001 1.1 0.0
15.600000000000001 1.1 0.0
16.0 1.1 0.0
0.0 1.2000000000000002 0.0
0.4 1.2000000000000002 0.0
0.8 1.2000000000000002 0.0
1.2000000000000002 1.2000000000000002 0.0
1.6 1.2000000000000002 0.0
2.0 1.2000000000000002 0.0
2.4000000000000004 1.2000000000000002 0.0
2.8000000000000003 1.2000000000000002 0.0
3.2 1.2000000000000002 0.0
3.6 1.2000000000000002 0.0
4.0 1.2000000000000002 0.0
4.4 1.2000000000000002 0.0
4.800000000000001 1.2000000000000002 0.0
5.2 1.2000000000000002 0.0
5.6000000000000005 1.2000000000000002 0.0
6.0 1.2000000000000002 0.0
6.4 1.2000000000000002 0.0
6.800000000000001 1.2000000000000002 0.0
7.2 1.2000000000000002 0.0
7.6000000000000005 1.2000000000000002 0.0
8.0 1.2000000000000002 0.0
8.4 1.2000000000000002 0.0
8.8 1.2000000000000002 0.0
9.200000000000001 1.2000000000000002 0.0
9.600000000000001 1.2000000000000002 0.0
10.0 1.2000000000000002 0.0
10.4 1.2000000000000002 0.0
10.8 1.2000000000000002 0.0
11.200000000000001 1.2000000000000002 0.0
11.600000000000001 1.2000000000000002 0.0
12.0 1.2000000000000002 0.0
12.4 1.2000000000000002 0.0
12.8 1.2000000000000002 0.0
13.200000000000001 1.2000000000000002 0.0
13.600000000000001 1.2000000000000002 0.0
14.0 1.2000000000000002 0.0
14.4 1.2000000000000002 0.0
14.8 1.2000000000000002 0.0
15.200000000000001 1.2000000000000002 0.0
15.600000000000001 1.2000000000000002 0.0
16.0 1.2000000000000002 0.0
0.0 1.3 0.0
0.4 1.3 0.0
0.8 1.3 0.0
1.2000000000000002 1.3 0.0
1.6 1.3 0.0
2.0 1.3 0.0
2.4000000000000004 1.3 0.0
2.8000000000000003 1.3 0.0
3.2 1.3 0.0
3.6 1.3 0.0
4.0 1.3 0.0
4.4 1.3 0.0
4.800000000000001 1.3 0.0
5.2 1.3 0.0
5.6000000000000005 1.3 0.0
6.0 1.3 0.0
6.4 1.3 0.0
6.800000000000001 1.3 0.0
7.2 1.3 0.0
7.6000000000000005 1.3 0.0
8.0 1.3 0.0
8.4 1.3 0.0
8.8 1.3 0.0
9.200000000000001 1.3 0.0
9.600000000000001 1.3 0.0
10.0 1.3 0.0
10.4 1.3 0.0
10.8 1.3 0.0
11.200000000000001 1.3 0.0
11.600000000000001 1.3 0.0
12.0 1.3 0.0
12.4 1.3 0.0
12.8 1.3 0.0
13.200000000000001 1.3 0.0
13.600000000000001 1.3 0.0
14.0 1.3 0.0
14.4 1.3 0.0
14.8 1.3 0.0
15.200000000000001 1.3 0.0
15.600000000000001 1.3 0.0
16.0 1.3 0.0
0.0 1.4000000000000001 0.0
0.4 1.4000000000000001 0.0
0.8 1.4000000000000001 0.0
1.2000000000000002 1.4000000000000001 0.0
1.6 1.4000000000000001 0.0
2.0 1.4000000000000001 0.0
2.4000000000000004 1.4000000000000001 0.0
2.8000000000000003 1.4000000000000001 0.0
3.2 1.4000000000000001 0.0
3.6 1.4000000000000001 0.0
4.0 1.4000000000000001 0.0
4.4 1.4000000000000001 0.0
4.800000000000001 1.4000000000000001 0.0
5.2 1.4000000000000001 0.0
5.6000000000000005 1.4000000000000001 0.0
6.0 1.4000000000000001 0.0
6.4 1.4000000000000001 0.0
6.800000000000001 1.4000000000000001 0.0
7.2 1.4000000000000001 0.0
7.6000000000000005 1.4000000000000001 0.0
8.0 1.4000000000000001 0.0
8.4 1.4000000000000001 0.0
8.8 1.4000000000000001 0.0
9.200000000000001 1.4000000000000001 0.0
9.600000000000001 1.4000000000000001 0.0
10.0 1.4000000000000001 0.0
10.4 1.4000000000000001 0.0
10.8 1.4000000000000001 0.0
11.200000000000001 1.4000000000000001 0.0
11.600000000000001 1.4000000000000001 0.0
12.0 1.4000000000000001 0.0
12.4 1.4000000000000001 0.0
12.8 1.4000000000000001 0.0
13.200000000000001 1.4000000000000001 0.0
13.600000000000001 1.4000000000000001 0.0
14.0 1.4000000000000001 0.0
14.4 1.4000000000000001 0.0
14.8 1.4000000000000001 0.0
15.200000000000001 1.4000000000000001 0.0
15.600000000000001 1.4000000000000001 0.0
16.0 1.4000000000000001 0.0
0.0 1.5 0.0
0.4 1.5 0.0
0.8 1.5 0.0
1.2000000000000002 1.5 0.0
1.6 1.5 0.0
2.0 1.5 0.0
2.4000000000000004 1.5 0.0
2.8000000000000003 1.5 0.0
3.2 1.5 0.0
3.6 1.5 0.0
4.0 1.5 0.0
4.4 1.5 0.0
4.800000000000001 1.5 0.0
5.2 1.5 0.0
5.6000000000000005 1.5 0.0
6.0 1.5 0.0
6.4 1.5 0.0
6.800000000000001 1.5 0.0
7.2 1.5 0.0
7.6000000000000005 1.5 0.0
8.0 1.5 0.0
8.4 1.5 0.0
8.8 1.5 0.0
9.200000000000001 1.5 0.0
9.600000000000001 1.5 0.0
10.0 1.5 0.0
10.4 1.5 0.0
10.8 1.5 0.0
11.200000000000001 1.5 0.0
11.600000000000001 1.5 0.0
12.0 1.5 0.0
12.4 1.5 0.0
12.8 1.5 0.0
13.200000000000001 1.5 0.0
13.600000000000001 1.5 0.0
14.0 1.5 0.0
14.4 1.5 0.0
14.8 1.5 0.0
15.200000000000001 1.5 0.0
15.600000000000001 1.5 0.0
16.0 1.5 0.0
0.0 1.6 0.0
0.4 1.6 0.0
0.8 1.6 0.0
1.2000000000000002 1.6 0.0
1.6 1.6 0.0
2.0 1.6 0.0
2.4000000000000004 1.6 0.0
2.8000000000000003 1.6 0.0
3.2 1.6 0.0
3.6 1.6 0.0
4.0 1.6 0.0
4.4 1.6 0.0
4.800000000000001 1.6 0.0
5.2 1.6 0.0
5.6000000000000005 1.6 0.0
6.0 1.6 0.0
6.4 1.6 0.0
6.800000000000001 1.6 0.0
7.2 1.6 0.0
7.6000000000000005 1.6 0.0
8.0 1.6 0.0
8.4 1.6 0.0
8.8 1.6 0.0
9.200000000000001 1.6 0.0
9.600000000000001 1.6 0.0
10.0 1.6 0.0
10.4 1.6 0.0
10.8 1.6 0.0
11.200000000000001 1.6 0.0
11.600000000000001 1.6 0.0
12.0 1.6 0.0
12.4 1.6 0.0
12.8 1.6 0.0
13.200000000000001 1.6 0.0
13.600000000000001 1.6 0.0
14.0 1.6 0.0
14.4 1.6 0.0
14.8 1.6 0.0
15.200000000000001 1.6 0.0
15.600000000000001 1.6 0.0
16.0 1.6 0.0
0.0 1.7000000000000002 0.0
0.4 1.7000000000000002 0.0
0.8 1.7000000000000002 0.0
1.2000000000000002 1.7000000000000002 0.0
1.6 1.7000000000000002 0.0
2.0 1.7000000000000002 0.0
2.4000000000000004 1.7000000000000002 0.0
2.8000000000000003 1.7000000000000002 0.0
3.2 1.7000000000000002 0.0
3.6 1.7000000000000002 0.0
4.0 1.7000000000000002 0.0
4.4 1.7000000000000002 0.0
4.800000000000001 1.7000000000000002 0.0
5.2 1.7000000000000002 0.0
5.6000000000000005 1.7000000000000002 0.0
6.0 1.7000000000000002 0.0
6.4 1.7000000000000002 0.0
6.800000000000001 1.7000000000000002 0.0
7.2 1.7000000000000002 0.0
7.6000000000000005 1.7000000000000002 0.0
8.0 1.7000000000000002 0.0
8.4 1.7000000000000002 0.0
8.8 1.7000000000000002 0.0
9.200000000000001 1.7000000000000002 0.0
9.600000000000001 1.7000000000000002 0.0
10.0 1.7000000000000002 0.0
10.4 1.7000000000000002 0.0
10.8 1.7000000000000002 0.0
11.200000000000001 1.7000000000000002 0.0
11.600000000000001 1.7000000000000002 0.0
12.0 1.7000000000000002 0.0
12.4 1.7000000000000002 0.0
12.8 1.7000000000000002 0.0
13.200000000000001 1.7000000000000002 0.0
13.600000000000001 1.7000000000000002 0.0
14.0 1.7000000000000002 0.0
14.4 1.7000000000000002 0.0
14.8 1.7000000000000002 0.0
15.200000000000001 1.7000000000000002 0.0
15.600000000000001 1.7000000000000002 0.0
16.0 1.7000000000000002 0.0
0.0 1.8 0.0
0.4 1.8 0.0
0.8 1.8 0.0
1.2000000000000002 1.8 0.0
1.6 1.8 0.0
2.0 1.8 0.0
2.4000000000000004 1.8 0.0
2.8000000000000003 1.8 0.0
3.2 1.8 0.0
3.6 1.8 0.0
4.0 1.8 0.0
4.4 1.8 0.0
4.800000000000001 1.8 0.0
5.2 1.8 0.0
5.6000000000000005 1.8 0.0
6.0 1.8 0.0
6.4 1.8 0.0
6.800000000000001 1.8 0.0
7.2 1.8 0.0
7.6000000000000005 1.8 0.0
8.0 1.8 0.0
8.4 1.8 0.0
8.8 1.8 0.0
9.200000000000001 1.8 0.0
9.600000000000001 1.8 0.0
10.0 1.8 0.0
10.4 1.8 0.0
10.8 1.8 0.0
11.200000000000001 1.8 0.0
11.600000000000001 1.8 0.0
12.0 1.8 0.0
12.4 1.8 0.0
12.8 1.8 0.0
13.200000000000001 1.8 0.0
13.600000000000001 1.8 0.0
14.0 1.8 0.0
14.4 1.8 0.0
14.8 1.8 0.0
15.200000000000001 1.8 0.0
15.600000000000001 1.8 0.0
16.0 1.8 0.0
0.0 1.9000000000000001 0.0
0.4 1.9000000000000001 0.0
0.8 1.9000000000000001 0.0
1.2000000000000002 1.9000000000000001 0.0
1.6 1.9000000000000001 0.0
2.0 1.9000000000000001 0.0
2.4000000000000004 1.9000000000000001 0.0
2.8000000000000003 1.9000000000000001 0.0
3.2 1.9000000000000001 0.0
3.6 1.9000000000000001 0.0
4.0 1.9000000000000001 0.0
4.4 1.9000000000000001 0.0
4.800000000000001 1.9000000000000001 0.0
5.2 1.9000000000000001 0.0
5.6000000000000005 1.9000000000000001 0.0
6.0 1.9000000000000001 0.0
6.4 1.9000000000000001 0.0
6.800000000000001 1.9000000000000001 0.0
7.2 1.9000000000000001 0.0
7.6000000000000005 1.9000000000000001 0.0
8.0 1.9000000000000001 0.0
8.4 1.9000000000000001 0.0
8.8 1.9000000000000001 0.0
9.200000000000001 1.9000000000000001 0.0
9.600000000000001 1.9000000000000001 0.0
10.0 1.9000000000000001 0.0
10.4 1.9000000000000001 0.0
10.8 1.9000000000000001 0.0
11.200000000000001 1.9000000000000001 0.0
11.600000000000001 1.9000000000000001 0.0
12.0 1.9000000000000001 0.0
12.4 1.9000000000000001 0.0
12.8 1.9000000000000001 0.0
13.200000000000001 1.9000000000000001 0.0
13.600000000000001 1.9000000000000001 0.0
14.0 1.9000000000000001 0.0
14.4 1.9000000000000001 0.0
14.8 1.9000000000000001 0.0
15.200000000000001 1.9000000000000001 0.0
15.600000000000001 1.9000000000000001 0.0
16.0 1.9000000000000001 0.0
0.0 2.0 0.0
0.4 2.0 0.0
0.8 2.0 0.0
1.2000000000000002 2.0 0.0
1.6 2.0 0.0
2.0 2.0 0.0
2.4000000000000004 2.0 0.0
2.8000000000000003 2.0 0.0
3.2 2.0 0.0
3.6 2.0 0.0
4.0 2.0 0.0
4.4 2.0 0.0
4.800000000000001 2.0 0.0
5.2 2.0 0.0
5.6000000000000005 2.0 0.0
6.0 2.0 0.0
6.4 2.0 0.0
6.800000000000001 2.0 0.0
7.2 2.0 0.0
7.6000000000000005 2.0 0.0
8.0 2.0 0.0
8.4 2.0 0.0
8.8 2.0 0.0
9.200000000000001 2.0 0.0
9.600000000000001 2.0 0.0
10.0 2.0 0.0
10.4 2.0 0.0
10.8 2.0 0.0
11.200000000000001 2.0 0.0
11.600000000000001 2.0 0.0
12.0 2.0 0.0
12.4 2.0 0.0
12.8 2.0 0.0
13.200000000000001 2.0 0.0
13.600000000000001 2.0 0.0
14.0 2.0 0.0
14.4 2.0 0.0
14.8 2.0 0.0
15.200000000000001 2.0 0.0
15.600000000000001 2.0 0.0
16.0 2.0 0.0
CELLS 800 4000
4 0 1 42 41
4 1 2 43 42
4 2 3 44 43
4 3 4 45 44
4 4 5 46 45
4 5 6 47 46
4 6 7 48 47
4 7 8 49 48
4 8 9 50 49
4 9 10 51 50
4 10 11 52 51
4 11 12 53 52
4 12 13 54 53
4 13 14 55 54
4 14 15 56 55
4 15 16 57 56
4 16 17 58 57
4 17 18 59 58
4 18 19 60 59
4 19 20 61 60
4 20 21 62 61
4 21 22 63 62
4 22 23 64 63
4 23 24 65 64
4 24 25 66 65
4 25 26 67 66
4 26 27 68 67
4 27 28 69 68
4 28 29 70 69
4 29 30 71 70
4 30 31 72 71
4 31 32 73 72
4 32 33 74 73
4 33 34 75 74
4 34 35 76 75
4 35 36 77 76
4 36 37 78 77
4 37 38 79 78
4 38 39 80 79
4 39 40 81 80
4 41 42 83 82
4 42 43 84 83
4 43 44 85 84
4 44 45 86 85
4 45 46 87 86
4 46 47 88 87
4 47 48 89 88
4 48 49 90 89
4 49 50 91 90
4 50 51 92 91
4 51 52 93 92
4 52 53 94 93
4 53 54 95 94
4 54 55 96 95
4 55 56 97 96
4 56 57 98 97
4 57 58 99 98
4 58 59 100 99
4 59 60 101 100
4 60 61 102 101
4 61 62 103 102
4 62 63 104 103
4 63 64 105 104
4 64 65 106 105
4 65 66 107 106
4 66 67 108 107
4 67 68 109 108
4 68 69 110 109
4 69 70 111 110
4 70 71 112 111
4 71 72 113 112
4 72 73 114 113
4 73 74 115 114
4 74 75 116 115
4 75 76 117 116
4 76 77 118 117
4 77 78 119 118
4 78 79 120 119
4 79 80 121 120
4 80 81 122 121
4 82 83 124 123
4 83 84 125 124
4 84 85 126 125
4 85 86 127 126
4 86 87 128 127
4 87 88 129 128
4 88 89 130 129
4 89 90 131 130
4 90 91 132 131
4 91 92 133 132
4 92 93 134 133
4 93 94 135 134
4 94 95 136 135
4 95 96 137 136
4 96 97 138 137
4 97 98 139 138
4 98 99 140 139
4 99 100 141 140
4 100 101 142 141
4 101 102 143 142
4 102 103 144 143
4 103 104 145 144
4 104 105 146 145
4 105 106 147 146
4 106 107 148 147
4 107 108 149 148
4 108 109 150 149
4 109 110 151 150
4 110 111 152 151
4 111 112 153 152
4 112 113 154 153
4 113 114 155 154
4 114 115 156 155
4 115 116 157 156
4 116 117 158 157
4 117 118 159 158
4 118 119 160 159
4 119 120 161 160
4 120 121 162 161
4 121 122 163 162
4 123 124 165 164
4 124 125 166 165
4 125 126 167 166
4 126 127 168 167
4 127 128 169 168
4 128 129 170 169
4 129 130 171 170
4 130 131 172 171
4 131 132 173 172
4 132 133 174 173
4 133 134 175 174
4 134 135 176 175
4 135 136 177 176
4 136 137 178 177
4 137 138 179 178
4 138 139 180 179
4 139 140 181 180
4 140 141 182 181
4 141 142 183 182
4 142 143 184 183
4 143 144 185 184
4 144 145 186 185
4 145 146 187 186
4 146 147 188 187
4 147 148 189 188
4 148 149 190 189
4 149 150 191 190
4 150 151 192 191
4 151 152 193 192
4 152 153 194 193
4 153 154 195 194
4 154 155 196 195
4 155 156 197 196
4 156 157 198 197
4 157 158 199 198
4 158 159 200 199
4 159 160 201 200
4 160 161 202 201
4 161 162 203 202
4 162 163 204 203
4 164 165 206 205
4 165 166 207 206
4 166 167 208 207
4 167 168 209 208
4 168 169 210 209
4 169 170 211 210
4 170 171 212 211
4 171 172 213 212
4 172 173 214 213
4 173 174 215 214
4 174 175 216 215
4 175 176 217 216
4 176 177 218 217
4 177 178 219 218
4 178 179 220 219
4 179 180 221 220
4 180 181 222 221
4 181 182 223 222
4 182 183 224 223
4 183 184 225 224
4 184 185 226 225
4 185 186 227 226
4 186 187 228 227
4 187 188 229 228
4 188 189 230 229
4 189 190 231 230
4 190 191 232 231
4 191 192 233 232
4 192 193 234 233
4 193 194 235 234
4 194 195 236 235
4 195 196 237 236
4 196 197 238 237
4 197 198 239 238
4 198 199 240 239
4 199 200 241 240
4 200 201 242 241
4 201 202 243 242
4 202 203 244 243
4 203 204 245 244
4 205 206 247 246
4 206 207 248 247
4 207 208 249 248
4 208 209 250 249
4 209 210 251 250
4 210 211 252 251
4 211 212 253 252
4 212 213 254 253
4 213 214 255 254
4 214 215 256 255
4 215 216 257 256
4 216 217 258 257
4 217 218 259 258
4 218 219 260 259
4 219 220 261 260
4 220 221 262 261
4 221 222 263 262
4 222 223 264 263
4 223 224 265 264
4 224 225 266 265
4 225 226 267 266
4 226 227 268 267
4 227 228 269 268
4 228 229 270 269
4 229 230 271 270
4 230 231 272 271
4 231 232 273 272
4 232 233 274 273
4 233 234 275 274
4 234 235 276 275
4 235 236 277 276
4 236 237 278 277
4 237 238 279 278
4 238 239 280 279
4 239 240 281 280
4 240 241 282 281
4 241 242 283 282
4 242 243 284 283
4 243 244 285 284
4 244 245 286 285
4 246 247 288 287
4 247 248 289 288
4 248 249 290 289
4 249 250 291 290
4 250 251 292 291
4 251 252 293 292
4 252 253 294 293
4 253 254 295 294
4 254 255 296 295
4 255 256 297 296
4 256 257 298 297
4 257 258 299 298
4 258 259 300 299
4 259 260 301 300
4 260 261 302 301
4 261 262 303 302
4 262 263 304 303
4 263 264 305 304
4 264 265 306 305
4 265 266 307 306
4 266 267 308 307
4 267 268 309 308
4 268 269 310 309
4 269 270 311 310
4 270 271 312 311
4 271 272 313 312
4 272 273 314 313
4 273 274 315 314
4 274 275 316 315
4 275 276 317 316
4 276 277 318 317
4 277 278 319 318
4 278 279 320 319
4 279 280 321 320
4 280 281 322 321
4 281 282 323 322
4 282 283 324 323
4 283 284 325 324
4 284 285 326 325
4 285 286 327 326
4 287 288 329 328
4 288 289 330 329
4 289 290 331 330
4 290 291 332 331
4 291 292 333 332
4 292 293 334 333
4 293 294 335 334
4 294 295 336 335
4 295 296 337 336
4 296 297 338 337
4 297 298 339 338
4 298 299 340 339
4 299 300 341 340
4 300 301 342 341
4 301 302 343 342
4 302 303 344 343
4 303 304 345 344
4 304 305 346 345
4 305 306 347 346
4 306 307 348 347
4 307 308 349 348
4 308 309 350 349
4 309 310 351 350
4 310 311 352 351
4 311 312 353 352
4 312 313 354 353
4 313 314 355 354
4 314 315 356 355
4 315 316 357 356
4 316 317 358 357
4 317 318 359 358
4 318 319 360 359
4 319 320 361 360
4 320 321 362 361
4 321 322 363 362
4 322 323 364 363
4 323 324 365 364
4 324 325 366 365
4 325 326 367 366
4 326 327 368 367
4 328 329 370 369
4 329 330 371 370
4 330 331 372 371
4 331 332 373 372
4 332 333 374 373
4 333 334 375 374
4 334 335 376 375
4 335 336 377 376
4 336 337 378 377
4 337 338 379 378
4 338 339 380 379
4 339 340 381 380
4 340 341 382 381
4 341 342 383 382
4 342 343 384 383
4 343 344 385 384
4 344 345 386 385
4 345 346 387 386
4 346 347 388 387
4 347 348 389 388
4 348 349 390 389
4 349 350 391 390
4 350 351 392 391
4 351 352 393 392
4 352 353 394 393
4 353 354 395 394
4 354 355 396 395
4 355 356 397 396
4 356 357 398 397
4 357 358 399 398
4 358 359 400 399
4 359 360 401 400
4 360 361 402 401
4 361 362 403 402
4 362 363 404 403
4 363 364 405 404
4 364 365 406 405
4 365 366 407 406
4 366 367 408 407
4 367 368 409 408
4 369 370 411 410
4 370 371 412 411
4 371 372 413 412
4 372 373 414 413
4 373 374 415 414
4 374 375 416 415
4 375 376 417 416
4 376 377 418 417
4 377 378 419 418
4 378 379 420 419
4 379 380 421 420
4 380 381 422 421
4 381 382 423 422
4 382 383 424 423
4 383 384 425 424
4 384 385 426 425
4 385 386 427 426
4 386 387 428 427
4 387 388 429 428
4 388 389 430 429
4 389 390 431 430
4 390 391 432 431
4 391 392 433 432
4 392 393 434 433
4 393 394 435 434
4 394 395 436 435
4 395 396 437 436
4 396 397 438 437
4 397 398 439 438
4 398 399 440 439
4 399 400 441 440
4 400 401 442 441
4 401 402 443 442
4 402 403 444 443
4 403 404 445 444
4 404 405 446 445
4 405 406 447 446
4 406 407 448 447
4 407 408 449 448
4 408 409 450 449
4 410 411 452 451
4 411 412 453 452
4 412 413 454 453
4 413 414 455 454
4 414 415 456 455
4 415 416 457 456
4 416 417 458 457
4 417 418 459 458
4 418 419 460 459
4 419 420 461 460
4 420 421 462 461
4 421 422 463 462
4 422 423 464 463
4 423 424 465 464
4 424 425 466 465
4 425 426 467 466
4 426 427 468 467
4 427 428 469 468
4 428 429 470 469
4 429 430 471 470
4 430 431 472 471
4 431 432 473 472
4 432 433 474 473
4 433 434 475 474
4 434 435 476 475
4 435 436 477 476
4 436 437 478 477
4 437 438 479 478
4 438 439 480 479
4 439 440 481 480
4 440 441 482 481
4 441 442 483 482
4 442 443 484 483
4 443 444 485 484
4 444 445 486 485
4 445 446 487 486
4 446 447 488 487
4 447 448 489 488
4 448 449 490 489
4 449 450 491 490
4 451 452 493 492
4 452 453 494 493
4 453 454 495 494
4 454 455 496 495
4 455 456 497 496
4 456 457 498 497
4 457 458 499 498
4 458 459 500 499
4 459 460 501 500
4 460 461 502 501
4 461 462 503 502
4 462 463 504 503
4 463 464 505 504
4 464 465 506 505
4 465 466 507 506
4 466 467 508 507
4 467 468 509 508
4 468 469 510 509
4 469 470 511 510
4 470 471 512 511
4 471 472 513 512
4 472 473 514 513
4 473 474 515 514
4 474 475 516 515
4 475 476 517 516
4 476 477 518 517
4 477 478 519 518
4 478 479 520 519
4 479 480 521 520
4 480 481 522 521
4 481 482 523 522
4 482 483 524 523
4 483 484 525 524
4 484 485 526 525
4 485 486 527 526
4 486 487 528 527
4 487 488 529 528
4 488 489 530 529
4 489 490 531 530
4 490 491 532 531
4 492 493 534 533
4 493 494 535 534
4 494 495 536 535
4 495 496 537 536
4 496 497 538 537
4 497 498 539 538
4 498 499 540 539
4 499 500 541 540
4 500 501 542 541
4 501 502 543 542
4 502 503 544 543
4 503 504 545 544
4 504 505 546 545
4 505 506 547 546
4 506 507 548 547
4 507 508 549 548
4 508 509 550 549
4 509 510 551 550
4 510 511 552 551
4 511 512 553 552
4 512 513 554 553
4 513 514 555 554
4 514 515 556 555
4 515 516 557 556
4 516 517 558 557
4 517 518 559 558
4 518 519 560 559
4 519 520 561 560
4 520 521 562 561
4 521 522 563 562
4 522 523 564 563
4 523 524 565 564
4 524 525 566 565
4 525 526 567 566
4 526 527 568 567
4 527 528 569 568
4 528 529 570 569
4 529 530 571 570
4 530 531 572 571
4 531 532 573 572
4 533 534 575 574
4 534 535 576 575
4 535 536 577 576
4 536 537 578 577
4 537 538 579 578
4 538 539 580 579
4 539 540 581 580
4 540 541 582 581
4 541 542 583 582
4 542 543 584 583
4 543 544 585 584
4 544 545 586 585
4 545 546 587 586
4 546 547 588 587
4 547 548 589 588
4 548 549 590 589
4 549 550 591 590
4 550 551 592 591
4 551 552 593 592
4 552 553 594 593
4 553 554 595 594
4 554 555 596 595
4 555 556 597 596
4 556 557 598 597
4 557 558 599 598
4 558 559 600 599
4 559 560 601 600
4 560 561 602 601
4 561 562 603 602
4 562 563 604 603
4 563 564 605 604
4 564 565 606 605
4 565 566 607 606
4 566 567 608 607
4 567 568 609 608
4 568 569 610 609
4 569 570 611 610
4 570 571 612 611
4 571 572 613 612
4 572 573 614 613
4 574 575 616 615
4 575 576 617 616
4 576 577 618 617
4 577 578 619 618
4 578 579 620 619
4 579 580 621 620
4 580 581 622 621
4 581 582 623 622
4 582 583 624 623
4 583 584 625 624
4 584 585 626 625
4 585 586 627 626
4 586 587 628 627
4 587 588 629 628
4 588 589 630 629
4 589 590 631 630
4 590 591 632 631
4 591 592 633 632
4 592 593 634 633
4 593 594 635 634
4 594 595 636 635
4 595 596 637 636
4 596 597 638 637
4 597 598 639 638
4 598 599 640 639
4 599 600 641 640
4 600 601 642 641
4 601 602 643 642
4 602 603 644 643
4 603 604 645 644
4 604 605 646 645
4 605 606 647 646
4 606 607 648 647
4 607 608 649 648
4 608 609 650 649
4 609 610 651 650
4 610 611 652 651
4 611 612 653 652
4 612 613 654 653
4 613 614 655 654
4 615 616 657 656
4 616 617 658 657
4 617 618 659 658
4 618 619 660 659
4 619 620 661 660
4 620 621 662 661
4 621 622 663 662
4 622 623 664 663
4 623 624 665 664
4 624 625 666 665
4 625 626 667 666
4 626 627 668 667
4 627 628 669 668
4 628 629 670 669
4 629 630 671 670
4 630 631 672 671
4 631 632 673 672
4 632 633 674 673
4 633 634 675 674
4 634 635 676 675
4 635 636 677 676
4 636 637 678 677
4 637 638 679 678
4 638 639 680 679
4 639 640 681 680
4 640 641 682 681
4 641 642 683 682
4 642 643 684 683
4 643 644 685 684
4 644 645 686 685
4 645 646 687 686
4 646 647 688 687
4 647 648 689 688
4 648 649 690 689
4 649 650 691 690
4 650 651 692 691
4 651 652 693 692
4 652 653 694 693
4 653 654 695 694
4 654 655 696 695
4 656 657 698 697
4 657 658 699 698
4 658 659 700 699
4 659 660 701 700
4 660 661 702 701
4 661 662 703 702
4 662 663 704 703
4 663 664 705 704
4 664 665 706 705
4 665 666 707 706
4 666 667 708 707
4 667 668 709 708
4 668 669 710 709
4 669 670 711 710
4 670 671 712 711
4 671 672 713 712
4 672 673 714 713
4 673 674 715 714
4 674 675 716 715
4 675 676 717 716
4 676 677 718 717
4 677 678 719 718
4 678 679 720 719
4 679 680 721 720
4 680 681 722 721
4 681 682 723 722
4 682 683 724 723
4 683 684 725 724
4 684 685 726 725
4 685 686 727 726
4 686 687 728 727
4 687 688 729 728
4 688 689 730 729
4 689 690 731 730
4 690 691 732 731
4 691 692 733 732
4 692 693 734 733
4 693 694 735 734
4 694 695 736 735
4 695 696 737 736
4 697 698 739 738
4 698 699 740 739
4 699 700 741 740
4 700 701 742 741
4 701 702 743 742
4 702 703 744 743
4 703 704 745 744
4 704 705 746 745
4 705 706 747 746
4 706 707 748 747
4 707 708 749 748
4 708 709 750 749
4 709 710 751 750
4 710 711 752 751
4 711 712 753 752
4 712 713 754 753
4 713 714 755 754
4 714 715 756 755
4 715 716 757 756
4 716 717 758 757
4 717 718 759 758
4 718 719 760 759
4 719 720 761 760
4 720 721 762 761
4 721 722 763 762
4 722 723 764 763
4 723 724 765 764
4 724 725 766 765
4 725 726 767 766
4 726 727 768 767
4 727 728 769 768
4 728 729 770 769
4 729 730 771 770
4 730 731 772 771
4 731 732 773 772
4 732 733 774 773
4 733 734 775 774
4 734 735 776 775
4 735 736 777 776
4 736 737 778 777
4 738 739 780 779
4 739 740 781 780
4 740 741 782 781
4 741 742 783 782
4 742 743 784 783
4 743 744 785 784
4 744 745 786 785
4 745 746 787 786
4 746 747 788 787
4 747 748 789 788
4 748 749 790 789
4 749 750 791 790
4 750 751 792 791
4 751 752 793 792
4 752 753 794 793
4 753 754 795 794
4 754 755 796 795
4 755 756 797 796
4 756 757 798 797
4 757 758 799 798
4 758 759 800 799
4 759 760 801 800
4 760 761 802 801
4 761 762 803 802
4 762 763 804 803
4 763 764 805 804
4 764 765 806 805
4 765 766 807 806
4 766 767 808 807
4 767 768 809 808
4 768 769 810 809
4 769 770 811 810
4 770 771 812 811
4 771 772 813 812
4 772 773 814 813
4 773 774 815 814
4 774 775 816 815
4 775 776 817 816
4 776 777 818 817
4 777 778 819 818
4 779 780 821 820
4 780 781 822 821
4 781 782 823 822
4 782 783 824 823
4 783 784 825 824
4 784 785 826 825
4 785 786 827 826
4 786 787 828 827
4 787 788 829 828
4 788 789 830 829
4 789 790 831 830
4 790 791 832 831
4 791 792 833 832
4 792 793 834 833
4 793 794 835 834
4 794 795 836 835
4 795 796 837 836
4 796 797 838 837
4 797 798 839 838
4 798 799 840 839
4 799 800 841 840
4 800 801 842 841
4 801 802 843 842
4 802 803 844 843
4 803 804 845 844
4 804 805 846 845
4 805 806 847 846
4 806 807 848 847
4 807 808 849 848
4 808 809 850 849
4 809 810 851 850
4 810 811 852 851
4 811 812 853 852
4 812 813 854 853
4 813 814 855 854
4 814 815 856 855
4 815 816 857 856
4 816 817 858 857
4 817 818 859 858
4 818 819 860 859
CELL_TYPES 800
9
9
9
9
9
9
9
9
9
9
9
9
9
9
9
9
9
9
9
9
9
9
9
9
9
9
9
9
9
9
9
9
9
9
9
9
9
9
9
9
9
9
9
9
9
9
9
9
9
9
9
9
9
9
9
9
9
9
9
9
9
9
9
9
9
9
9
9
9
9
9
9
9
9
9
9
9
9
9
9
9
9
9
9
9
9
9
9
9
9
9
9
9
9
9
9
9
9
9
9
9
9
9
9
9
9
9
9
9
9
9
9
9
9
9
9
9
9
9
9
9
9
9
9
9
9
9
9
9
9
9
9
9
9
9
9
9
9
9
9
9
9
9
9
9
9
9
9
9
9
9
9
9
9
9
9
9
9
9
9
9
9
9
9
9
9
9
9
9
9
9
9
9
9
9
9
9
9
9
9
9
9
9
9
9
9
9
9
9
9
9
9
9
9
9
9
9
9
9
9
9
9
9
9
9
9
9
9
9
9
9
9
9
9
9
9
9
9
9
9
9
9
9
9
9
9
9
9
9
9
9
9
9
9
9
9
9
9
9
9
9
9
9
9
9
9
9
9
9
9
9
9
9
9
9
9
9
9
9
9
9
9
9
9
9
9
9
9
9
9
9
9
9
9
9
9
9
9
9
9
9
9
9
9
9
9
9
9
9
9
9
9
9
9
9
9
9
9
9
9
9
9
9
9
9
9
9
9
9
9
9
9
9
9
9
9
9
9
9
9
9
9
9
9
9
9
9
9
9
9
9
9
9
9
9
9
9
9
9
9
9
9
9
9
9
9
9
9
9
9
9
9
9
9
9
9
9
9
9
9
9
9
9
9
9
9
9
9
9
9
9
9
9
9
9
9
9
9
9
9
9
9
9
9
9
9
9
9
9
9
9
9
9
9
9
9
9
9
9
9
9
9
9
9
9
9
9
9
9
9
9
9
9
9
9
9
9
9
9
9
9
9
9
9
9
9
9
9
9
9
9
9
9
9
9
9
9
9
9
9
9
9
9
9
9
9
9
9
9
9
9
9
9
9
9
9
9
9
9
9
9
9
9
9
9
9
9
9
9
9
9
9
9
9
9
9
9
9
9
9
9
9
9
9
9
9
9
9
9
9
9
9
9
9
9
9
9
9
9
9
9
9
9
9
9
9
9
9
9
9
9
9
9
9
9
9
9
9
9
9
9
9
9
9
9
9
9
9
9
9
9
9
9
9
9
9
9
9
9
9
9
9
9
9
9
9
9
9
9
9
9
9
9
9
9
9
9
9
9
9
9
9
9
9
9
9
9
9
9
9
9
9
9
9
9
9
9
9
9
9
9
9
9
9
9
9
9
9
9
9
9
9
9
9
9
9
9
9
9
9
9
9
9
9
9
9
9
9
9
9
9
9
9
9
9
9
9
9
9
9
9
9
9
9
9
9
9
9
9
9
9
9
9
9
9
9
9
9
9
9
9
9
9
9
9
9
9
9
9
9
9
9
9
9
9
9
9
9
9
9
9
9
9
9
9
9
9
9
9
9
9
9
9
9
9
9
9
9
9
9
9
9
9
9
9
9
9
9
9
9
9
9
9
9
9
9
9
9
9
9
9
9
9
9
9
9
9
9
9
9
9
9
9
9
9
9
9
9
9
9
9
9
9
9
9
9
9
9
9
9
9
9
9
9
9
9
9
9
9
9
9
9
9
9
9
9
9
9
9
9
9
9
9
9
9
9
9
9
9
9
9
9
9
9
9
9
9
9
9
9
9
9
9
9
9
9
9
9
9
9
9
9
9
9
9
9
9
9
9
9
9
9
9
9
9
9
9
9
9
9
POINT_DATA 861
SCALARS Disp float 2
LOOKUP_TABLE default
0.0 0.0
0.005694860803844585 -0.23938253465078624
0.006994543262935649 -0.46971369069983826
0.007774240514009952 -0.6990256920266253
0.008774102438049025 -0.9279805472729334
0.01037252888408055 -1.1561847978600717
0.013159685059224211 -1.3831168468323884
0.017850900888541438 -1.6081211106205946
0.025286721162613726 -1.8303794069471102
0.036383408794366946 -2.048829329180909
0.05205822563072639 -2.2620393970500343
0.07318205619411233 -2.4681299390723703
0.10055747199133028 -2.664793387970606
0.13491029797214024 -2.8494013796557307
0.1768880602813614 -3.0190852352819837
0.22699337649171616 -3.1707979436665705
0.2854613704741562 -3.3013916806720736
0.35211030060150605 -3.4077444062729794
0.4262117269700708 -3.4869722398466627
0.5064339987768612 -3.5366745561846398
0.5906538535218738 -3.5552119886018008
0.6748737082668821 -3.536674556184528
0.7550959800736549 -3.4869722398464367
0.8291974064421899 -3.407744406272653
0.8958463365695031 -3.3013916806716654
0.9543143305519038 -3.1707979436661047
1.0044196467622188 -3.0190852352814725
1.0463974090713999 -2.849401379655189
1.0807502350521694 -2.6647933879700507
1.1081256508493498 -2.468129939071821
1.1292494814127017 -2.2620393970495023
1.144924298249032 -2.0488293291804087
1.1560209858807637 -1.8303794069466484
1.1634568061548198 -1.6081211106201776
1.1681480219841258 -1.3831168468320205
1.170935178159263 -1.1561847978597597
1.1725336046052914 -0.9279805472726775
1.1735334665293293 -0.6990256920264292
1.1743131637804032 -0.469713690699701
1.175612846239493 -0.23938253465071005
1.1813077070433344 0.0
0.05971167829897748 -0.002376757660119884
0.0636853175277172 -0.23963647639528324
0.0643658327750111 -0.4697754450744815
0.06505783402382047 -0.6991143799478232
0.06593636440016551 -0.9281214370874228
0.06729706834080389 -1.156493233188866
0.06969499516964742 -1.3837541995824563
0.07380587623222733 -1.6092798402450563
0.0804194897817227 -1.832274464662646
0.0903728561379822 -2.051679648408035
0.10448448743432157 -2.266054775234445
0.12351614814899993 -2.4735055084851987
0.14817404609868046 -2.6717095095600514
0.1791185574390998 -2.858023238381825
0.21694164555963594 -3.029555645852959
0.2621123257726931 -3.1832143493492455
0.3148657335839615 -3.315772227634207
0.3750701639980236 -3.423993097616939
0.4421042658835652 -3.50485092738691
0.5147119326290935 -3.5557786735820427
0.5906538535218603 -3.5748213887710247
0.6665957744146225 -3.555778673581928
0.7392034411601343 -3.504850927386679
0.8062375430456501 -3.4239930976166044
0.86644197345968 -3.3157722276337895
0.9191953812709137 -3.1832143493487703
0.9643660614839349 -3.0295556458524384
1.0021891496044348 -2.858023238381274
1.0331336609448178 -2.671709509559488
1.0577915588944644 -2.47350550848464
1.076823219609112 -2.266054775233906
1.0909348509054253 -2.0516796484075286
1.1008882172616652 -1.8322744646621798
1.107501830811146 -1.6092798402446362
1.1116127118737156 -1.3837541995820866
1.1140106387025535 -1.1564932331885531
1.1153713426431895 -0.9281214370871667
1.1162498730195338 -0.6991143799476273
1.1169418742683428 -0.46977544507434416
1.1176223895156367 -0.2396364763952067
1.121596028744371 -0.002376757660117364
0.11845620731855165 -0.004261434209710313
0.12136645313002267 -0.23976206816325019
0.12175701039043893 -0.4698087357481372
0.12232177817717114 -0.6991925580318693
0.12308842438066239 -0.9282342734516484
0.1242356166674888 -1.156737291584615
0.12625324687890202 -1.384281617481994
0.12978649662372005 -1.6102729117129608
0.13556392535393144 -1.8339330568160324
0.14434611752143833 -2.054201543112135
0.15685733398832075 -2.269624685795431
0.17375991259010087 -2.478293052774565
0.19566610620145586 -2.6778739535927616
0.22315806392380594 -2.8657148366541105
0.2567764950975038 -3.0389056993964862
0.2969568929551419 -3.1943158223432913
0.3439438700877363 -3.328650619170661
0.39767246518833693 -3.4385733359452053
0.457622000691951 -3.5209228510312194
0.5226060527805266 -3.5729347484148173
0.5906538535218468 -3.5924344712660714
0.6587016542631631 -3.5729347484147005
0.7236857063517236 -3.520922851030983
0.783635241855315 -3.438573335944864
0.8373638369558876 -3.328650619170236
0.8843508140884514 -3.194315822342808
0.9245312119460573 -3.038905699395957
0.9581496431197228 -2.8657148366535514
0.9856416008420406 -2.677873953592189
1.0075477944533657 -2.4782930527739992
1.0244503730551182 -2.2696246857948856
1.0369615895219777 -2.054201543111623
1.0457437816894668 -1.833933056815562
1.0515212104196652 -1.6102729117125383
1.055054460164474 -1.3842816174816224
1.0570720903758826 -1.1567372915843015
1.058219282662707 -0.9282342734513922
1.0589859288661978 -0.6991925580316735
1.05955069665293 -0.4698087357479999
1.0599412539133464 -0.23976206816317325
1.062851499724812 -0.004261434209705036
0.17669113640254008 -0.00577521107090566
0.1788878680360267 -0.23984760653425316
0.17912623025034066 -0.4698271898214073
0.17956817038626954 -0.6992560058953384
0.18022519259240563 -0.9283267901630247
0.18118475765692343 -1.1569247591789606
0.18284414423983322 -1.3847028648212794
0.18580638307175606 -1.6111014857899917
0.19074296607576616 -1.835352215661774
0.19833761816086642 -2.056389390231819
0.20922494840617276 -2.272742225590626
0.223972041791927 -2.48248630573331
0.24310154126860928 -2.6832804556701118
0.26711602780898436 -2.8724675238643975
0.29649277662159723 -3.047124938005505
0.33164084614326605 -3.2040912664673757
0.3728182486110353 -3.3400170983778037
0.4200260819911041 -3.451478481387938
0.4728512235050821 -3.5351815954640506
0.5302842340790227 -3.5881848220327655
0.5906538535218341 -3.6081458499807266
0.6510234729646416 -3.5881848220326464
0.7084564835385688 -3.53518159546381
0.7612816250525264 -3.451478481387591
0.8084894584325711 -3.340017098377371
0.8496668609003133 -3.204091266466885
0.8848149304219539 -3.0471249380049685
0.9141916792345385 -2.872467523863831
0.9382061657748852 -2.683280455669532
0.9573356652515413 -2.4824863057327367
0.9720827586372718 -2.2727422255900755
0.982970088882558 -2.0563893902313026
0.9905647409676424 -1.8353522156613005
0.9955013239716409 -1.6111014857895665
0.9984635628035561 -1.384702864820906
1.0001229493864618 -1.1569247591786467
1.0010825144509783 -0.9283267901627684
1.0017395366571142 -0.6992560058951426
1.0021814767930433 -0.46982718982127003
1.002419839007357 -0.23984760653417592
1.004616570640839 -0.00577521107089788
0.23463497719319704 -0.006997735117911567
0.2362993624320983 -0.23991440722410637
0.23645493301851422 -0.46983779980340407
0.2367932003243948 -0.6993052736192424
0.2373431449542069 -0.9284026936595213
0.2381365669489096 -1.157067183296089
0.23947422242629457 -1.385025713743553
0.24187838919927201 -1.6117683886488534
0.24597977840682406 -1.8365321960064986
0.25238197697552833 -2.058240774043684
0.2616340945805348 -2.2754040812711067
0.2742127580292255 -2.48608149901097
0.29055058969684355 -2.6879253828377085
0.31107150299994457 -2.8782773448441517
0.3361929445792831 -3.05420729168339
0.3662837591101246 -3.212532705739484
0.4016123566696611 -3.3498619062797816
0.44224782183545086 -3.4626969591948273
0.48791463511415656 -3.5476278246476927
0.53783537396037 -3.6015603550690427
0.5906538535218215 -3.6220078287447155
0.6434723330832693 -3.6015603550689224
0.6933930719294708 -3.5476278246474484
0.7390598852081586 -3.4626969591944747
0.7796953503739276 -3.349861906279344
0.8150239479334407 -3.2125327057389863
0.8451147624642579 -3.0542072916828467
0.8702362040435719 -2.8782773448435783
0.8907571173466489 -2.6879253828371232
0.9070949490142443 -2.4860814990103908
0.9196736124629151 -2.2754040812705503
0.9289257300679044 -2.058240774043164
0.9353279286365948 -1.836532196006022
0.9394293178441367 -1.611768388648426
0.9418334846171081 -1.385025713743179
0.9431711400944901 -1.1570671832957746
0.9439645620891918 -0.928402693659265
0.9445145067190037 -0.6993052736190466
0.9448527740248844 -0.4698377998032668
0.9450083446113002 -0.2399144072240288
0.9466727298501976 -0.006997735117901629
0.2923864390702624 -0.007979195665934453
0.29363398377594285 -0.23996975029232692
0.29374134954532494 -0.4698453134499289
0.2939939623553184 -0.6993417540962265
0.2944386211451224 -0.928464727853939
0.2950849548877541 -1.1571746046421592
0.29613595799271997 -1.3852632180447533
0.29802193253129217 -1.6122793331279583
0.3012976911760866 -1.8374758972280139
0.30651401553643304 -2.0597567418271603
0.3141318024732495 -2.277609991080016
0.32454026103033956 -2.4890783110848735
0.33808565646812105 -2.691808263426338
0.3551119952425599 -2.8831435116399455
0.37597192095994203 -3.06015187781842
0.40100075870112445 -3.2196365804739684
0.430459070511594 -3.3581760346427822
0.46447238566365256 -3.472217044969682
0.5029313173287032 -3.5582582787083235
0.5453322733804911 -3.6130769196245702
0.5906538535218088 -3.634051352189521
0.6359754336631229 -3.613076919624447
0.6783763897149006 -3.5582582787080757
0.716835321379936 -3.4722170449693253
0.7508486365319771 -3.3581760346423395
0.7803069483424268 -3.2196365804734652
0.8053357860835885 -3.0601518778178716
0.8261957118009505 -2.8831435116393664
0.8432220505753693 -2.6918082634257474
0.8567674460131323 -2.4890783110842896
0.8671759045702057 -2.277609991079456
0.8747936915070077 -2.0597567418266367
0.8800100158673426 -1.8374758972275338
0.8832857745121288 -1.6122793331275291
0.8851717490506962 -1.3852632180443787
0.8862227521556599 -1.1571746046418445
0.8868690858982909 -0.9284647278536826
0.8873137446880949 -0.6993417540960306
0.8875663574980883 -0.4698453134497917
0.8876737232674705 -0.2399697502922491
0.8889212679731475 -0.007979195665922695
0.34999752659259087 -0.008758011137319735
0.35091451033029464 -0.24001637687694866
0.35099052545076503 -0.469852136436094
0.35117020791418274 -0.6993668801277141
0.35151094635428676 -0.9285141853992719
0.3520228279546791 -1.1572552064586907
0.35282009255549357 -1.3854308250545895
0.3542344046994853 -1.6126485814374627
0.35672428681002155 -1.8381894749245207
0.36076949355689375 -2.060941540331337
0.3667661487227149 -2.279363312896368
0.3750151750116269 -2.491479726258446
0.385778954175898 -2.694932381471516
0.39932319291921137 -2.887069414018205
0.4159355588152309 -3.064961087552979
0.43590651126581026 -3.2254038557475213
0.45948796743262416 -3.364955097901935
0.48684728251948645 -3.48002718793624
0.5180316661566937 -3.5670615796592724
0.5528481551498947 -3.6227338664993964
0.5906538535217958 -3.6442896087306362
0.6284595518936937 -3.622733866499272
0.6632760408868864 -3.567061579659022
0.694460424524081 -3.48002718793588
0.7218197396109289 -3.3649550979014884
0.7454011957777268 -3.2254038557470133
0.7653721482282893 -3.064961087552426
0.7819845141242925 -2.887069414017622
0.7955287528675904 -2.6949323814709207
0.806292532031847 -2.491479726257858
0.8145415583207455 -2.2793633128958044
0.820538213486555 -2.060941540330811
0.8245834202334181 -1.8381894749240386
0.8270733023439482 -1.6126485814370324
0.8284876144879363 -1.3854308250542144
0.8292848790887494 -1.1572552064583759
0.8297967606891413 -0.9285141853990155
0.8301374991292453 -0.6993668801275182
0.830317181592663 -0.46985213643595686
0.8303931967131333 -0.24001637687687066
0.8313101804508346 -0.008758011137306464
0.4075031135052839 -0.00936500827432199
0.40815797441303536 -0.24005641213006113
0.4082097584787332 -0.4698587800249248
0.4083237065664607 -0.6993819704426203
0.40856210458413056 -0.9285508086601009
0.4089432730708115 -1.1573152046294066
0.40952118319329556 -1.3855428006592692
0.41051074902890416 -1.6128952999535635
0.41227143560006196 -1.83868777595067
0.4151882895544805 -2.061803667324814
0.4195876041724168 -2.280670973990913
0.42569856379086063 -2.4932924709391884
0.43370534883909884 -2.6973051217070574
0.4437948701655894 -2.8900628088510136
0.4561851549853064 -3.068642258034939
0.47112083754894307 -3.22983969923746
0.4888372916097212 -3.37019985664238
0.5095230202031759 -3.4861184014712308
0.5333569773122417 -3.5740181084773908
0.5604661231337227 -3.630512700005736
0.5906538535217823 -3.6527176504741323
0.6208415839098401 -3.6305127000056103
0.6479507297313142 -3.574018108477138
0.6717846868403707 -3.4861184014708675
0.692470415433814 -3.37019985664193
0.7101868694945792 -3.2298396992369485
0.7251225520582034 -3.0686422580343824
0.7375128368779081 -2.8900628088504274
0.7476023582043879 -2.6973051217064596
0.7556091432526152 -2.4932924709385977
0.7617201028710489 -2.2806709739903472
0.7661194174889765 -2.061803667324285
0.7690362714433888 -1.8386877759501865
0.7707969580145422 -1.612895299953132
0.7717865238501483 -1.3855428006588937
0.7723644339726315 -1.1573152046290915
0.7727456024593122 -0.9285508086598445
0.772984000476982 -0.6993819704424246
0.7730979485647094 -0.4698587800247876
0.7731497326304073 -0.2400564121299831
0.7738045935381569 -0.009365008274307484
0.4649243597223723 -0.009829278777128055
0.46538027097542833 -0.2400917233066253
0.4654057509998961 -0.4698644368713346
0.4654575872505163 -0.6993880722998396
0.46559631945995467 -0.9285739186246285
0.46584357775522184 -1.1573574862053544
0.4662243732518446 -1.3856139884065066
0.4668448702857288 -1.6130418811191563
0.46794194276554063 -1.8389942926986025
0.46979702793221206 -2.062360871450603
0.4726484168685731 -2.281545472489111
0.4766587460384524 -2.494528164100347
0.4819431867303701 -2.698938743501435
0.4886180400928287 -2.892136870616463
0.49682915095068797 -3.0712078690914915
0.5067637734582063 -3.232954592452598
0.5186389906111503 -3.3739183049171912
0.5326657950145643 -3.490487361814427
0.5490789634829355 -3.579101996419574
0.5682902561347412 -3.6363748657383743
0.5906538535217686 -3.659310264714378
0.6130174509087951 -3.6363748657382478
0.6322287435605962 -3.5791019964193196
0.6486419120289599 -3.490487361814062
0.6626687164323665 -3.3739183049167387
0.6745439335853014 -3.2329545924520833
0.6844785560928114 -3.0712078690909324
0.6926896669506629 -2.892136870615875
0.6993645203131148 -2.6989387435008347
0.7046489610050259 -2.494528164099754
0.7086592901748984 -2.281545472488543
0.7115106791112537 -2.062360871450073
0.7133657642779214 -1.8389942926981182
0.7144628367577307 -1.6130418811187244
0.7150833337916135 -1.3856139884061307
0.7154641292882358 -1.1573574862050393
0.7157113875835027 -0.9285739186243721
0.7158501197929411 -0.6993880722996437
0.7159019560435613 -0.4698644368711973
0.7159274360680289 -0.24009172330654724
0.7163833473210838 -0.009829278777112593
0.5222760058282683 -0.010180243114156886
0.5225902993331335 -0.24012471967269275
0.5225846665642869 -0.46986736058160233
0.5225759259153558 -0.6993859523665161
0.522617939860134 -0.9285833935924196
0.5227280430732951 -1.1573814343291
0.5229156894939457 -1.3856549116303647
0.523217964793181 -1.6131148722371802
0.5237300577127126 -1.839142704932491
0.524610086144793 -2.0626443687365725
0.525989609137984 -2.2820120427824544
0.527960128863887 -2.4952080943806334
0.5305713895499555 -2.6998534939965375
0.533879892116637 -2.8933129443660994
0.5379646391375646 -3.072679268770777
0.5429451125847864 -3.234766583076303
0.5490040256976032 -3.3761251698446895
0.5563879419139213 -3.493146000456829
0.5653860225425238 -3.582293642558326
0.5764805327525436 -3.640258566642474
0.5906538535217545 -3.664013227196057
0.6048271742909649 -3.6402585666423466
0.6159216845009827 -3.5822936425580703
0.6249197651295805 -3.4931460004564623
0.6323036813458943 -3.376125169844235
0.6383625944587067 -3.2347665830757864
0.6433430679059245 -3.0726792687702167
0.6474278149268492 -2.8933129443655097
0.6507363174935282 -2.699853493995936
0.6533475781795938 -2.4952080943800388
0.6553180979054936 -2.2820120427818855
0.6566976208986822 -2.062644368736042
0.6575776493307612 -1.8391427049320062
0.6580897422502918 -1.6131148722367483
0.6583920175495266 -1.3856549116299888
0.658579663970177 -1.1573814343287847
0.658689767183338 -0.9285833935921632
0.6587317811281163 -0.6993859523663203
0.6587230404791852 -0.469867360581465
0.6587174077103384 -0.24012471967261473
0.6590317012152029 -0.010180243114140763
0.5795748372296545 -0.010443241447071252
0.5797894991788708 -0.24015806639417114
0.5797515213650988 -0.46986583440524365
0.5796832381143469 -0.6993761103469971
0.5796310824614797 -0.9285794039992062
0.579604518012365 -1.1573862502269345
0.5795944217124209 -1.385667805873647
0.5795910922118332 -1.6131373862367153
0.579590147313446 -1.8391825924987129
0.5795901759961648 -2.0627163262646273
0.5795903528800054 -2.2821309106380667
0.5795895221022939 -2.495385713927212
0.579582479579504 -2.700100041408233
0.5795659306704583 -2.893639710291385
0.5795504283450822 -3.073103462772331
0.5795917718187544 -3.2353181224817495
0.5798358890938055 -3.3768557420804366
0.5805695134083095 -3.4941315002488342
0.582203563651946 -3.583624823155341
0.5851956387402638 -3.6421079111335986
0.5906538535217399 -3.6667370690877767
0.5961120683032165 -3.6421079111334707
0.5991041433915335 -3.5836248231550853
0.6007381936351686 -3.494131500248467
0.6014718179496726 -3.3768557420799823
0.6017159352247242 -3.235318122481233
0.6017572786983971 -3.07310346277177
0.6017417763730223 -2.8936397102907954
0.6017252274639783 -2.7001000414076315
0.6017181849411896 -2.4953857139266176
0.6017173541634793 -2.2821309106374974
0.6017175310473205 -2.0627163262640966
0.6017175597300399 -1.839182592498228
0.6017166148316532 -1.613137386236283
0.6017132853310656 -1.3856678058732712
0.6017031890311216 -1.1573862502266195
0.6016766245820072 -0.92857940399895
0.60162446892914 -0.6993761103468012
0.601556185678388 -0.4698658344051061
0.601518207864616 -0.24015806639409318
0.6017328698138318 -0.010443241447054693
0.6368318864643463 -0.010642671083096121
0.6369778218331552 -0.2401915765297476
0.6369104287023238 -0.4698594772727465
0.6367844539239239 -0.6993587167493396
0.6366408748507242 -0.9285623698331373
0.6364798120908023 -1.1573717740931453
0.6362726669774019 -1.3856523489300197
0.6359637283314064 -1.6131142406939916
0.6354498995349012 -1.8391426025467945
0.6345702076997777 -2.0626443944292747
0.6331914480076567 -2.2820120704907434
0.6312180372376142 -2.4952063182121234
0.6285919269126748 -2.699847972568216
0.6252509109537547 -2.893304227517151
0.6211385247038291 -3.072680336799657
0.6162455553227415 -3.234820223609378
0.6106680134412698 -3.3763259483803023
0.604673697356675 -3.4936547715029196
0.5987050339907879 -3.5832939127083083
0.5934041667784288 -3.6420377736627576
0.5906538535217252 -3.66758500182948
0.5879035402650208 -3.6420377736626297
0.5826026730526619 -3.5832939127080525
0.576634009686778 -3.4936547715025528
0.5706396936021885 -3.376325948379849
0.5650621517207225 -3.234820223608862
0.5601691823396402 -3.0726803367990967
0.5560567960897199 -2.8933042275165626
0.5527157801308057 -2.6998479725676154
0.550089669805872 -2.4952063182115296
0.5481162590358346 -2.2820120704901745
0.546737499343718 -2.0626443944287445
0.5458578075085972 -1.8391426025463098
0.5453439787120936 -1.6131142406935592
0.5450350400660987 -1.3856523489296435
0.5448278949526988 -1.1573717740928304
0.5446668321927772 -0.9285623698328811
0.5445232531195776 -0.6993587167491435
0.5443972783411778 -0.46985947727260896
0.5443298852103464 -0.2401915765296696
0.5444758205791551 -0.010642671083079343
0.6940599398513172 -0.010795404835572786
0.6941590179191204 -0.2402233062841882
0.6940652961007937 -0.4698487028356769
0.693884720326332 -0.6993339737546431
0.6936531510928294 -0.9285328976700271
0.6933610126666421 -1.1573384390743349
0.692961742434119 -1.3856088068285306
0.6923350650365374 -1.6130404714038042
0.6912373015811404 -1.8389941442196072
0.6893835440866171 -2.0623611047268526
0.6865324056132703 -2.281545192561848
0.6825183413226942 -2.4945242790095783
0.677220646599037 -2.6989274395253
0.67051844802542 -2.8921196079616953
0.6622866441535055 -3.071211120489422
0.6524403905244922 -3.233064425402352
0.6410194371290521 -3.374319268304061
0.6282623172275473 -3.4914832652621204
0.6146752304770512 -3.5810999169422533
0.6013741019092309 -3.64015865026822
0.5906538535217107 -3.666728845697633
0.5799336051341905 -3.6401586502680923
0.566632476566372 -3.5810999169419984
0.5530453898158821 -3.4914832652617545
0.5402882699143866 -3.3743192683036094
0.5288673165189569 -3.2330644254018384
0.5190210628899536 -3.0712111204888632
0.5107892590180484 -2.8921196079611082
0.5040870604444414 -2.6989274395247014
0.498789365720794 -2.4945242790089863
0.494775301430227 -2.281545192561281
0.49192416295688773 -2.0623611047263233
0.4900704054623698 -1.8389941442191235
0.488972642006976 -1.613040471403372
0.48834596460939594 -1.3856088068281545
0.4879466943768735 -1.15733843907402
0.48765455595068674 -0.9285328976697711
0.48742298671718426 -0.699333973754447
0.4872424109427227 -0.46984870283553937
0.4871486891243962 -0.24022330628411018
0.4872477671921992 -0.010795404835555815
0.7512760413951225 -0.010909394968959872
0.7513381923893523 -0.240251648685736
0.7512209218073128 -0.4698339104250437
0.7509892994873728 -0.6993022797048478
0.7506734220533491 -0.9284917473065594
0.7502557552564538 -1.1572873307408194
0.7496611034958777 -1.385534533643226
0.7486669282053754 -1.6128932659772
0.7469079934923842 -1.8386879712375777
0.743992644468329 -2.0618040862604503
0.7395925378896618 -2.2806701231118662
0.7334776138840245 -2.49328666072576
0.7254623722210808 -2.697289502761702
0.7153587793910906 -2.8900396920138784
0.7029633952692468 -3.0686492817261795
0.6881064499868036 -3.22999965097275
0.6707500450035048 -3.3707743174979714
0.651116181070755 -3.487548789599746
0.6299085282350643 -3.5769972025456287
0.6086715743296444 -3.636343718813946
0.5906538535216969 -3.664213316756018
0.5726361327137501 -3.6363437188138183
0.5513991788083337 -3.5769972025453747
0.5301915259726518 -3.4875487895993826
0.5105576620399149 -3.370774317497523
0.4932012570566305 -3.2299996509722395
0.47834431177420156 -3.068649281725623
0.46594892765237145 -2.890039692013294
0.4558453348223954 -2.697289502761106
0.44783009315946554 -2.4932866607251705
0.4417151691538409 -2.2806701231113022
0.4373150625751845 -2.061804086259923
0.4343997135511371 -1.838687971237095
0.43264077883815083 -1.612893265976768
0.4316466035476515 -1.3855345336428502
0.4310519517870765 -1.1572873307405047
0.4306342849901817 -0.9284917473063032
0.43031840755615824 -0.6993022797046518
0.4300867852362184 -0.46983391042490613
0.429969514654179 -0.24025164868565804
0.4300316656484087 -0.010909394968942743
0.8084912300690154 -0.01099067409617658
0.8085216829451584 -0.2402751402824019
0.8083821651331585 -0.4698153403636461
0.8081027417804891 -0.69926415704932
0.8077067031968604 -0.9284399238593641
0.8071689150325524 -1.157218888170864
0.806357383536078 -1.3854193745006185
0.804942911254443 -1.6126467475347657
0.8024559604945907 -1.838190268742237
0.7984115908245548 -2.060941916585672
0.792412920902836 -2.2793616496145437
0.7841605242219031 -2.491472577788678
0.7733959120199809 -2.694915288140559
0.7598584413012601 -2.887045756343716
0.7432660315102235 -3.0649745066609904
0.7233557019303976 -3.225599951607844
0.7000016871486086 -3.365657329486385
0.6734457928272047 -3.481828846955095
0.6446232060591781 -3.570978516257973
0.615658562311159 -3.630665687160294
0.5906538535216831 -3.6601211657247985
0.5656491447322088 -3.6306656871601675
0.5366845009841955 -3.5709785162577203
0.5078619142161803 -3.481828846954735
0.48130601989479244 -3.36565732948594
0.4579520051130216 -3.2255999516073373
0.4380416755332139 -3.064974506660438
0.42144926574219543 -2.8870457563431358
0.4079117950234928 -2.694915288139967
0.39714718282158856 -2.4914725777880924
0.38889478614067186 -2.279361649613983
0.3828961162189668 -2.0609419165851475
0.37885174654894127 -1.8381902687417557
0.37636479578909604 -1.612646747534335
0.3749503235074651 -1.385419374500243
0.37413879201099254 -1.1572188881705492
0.37360100384668493 -0.9284399238591079
0.3732049652630567 -0.6992641570491239
0.3729255419103874 -0.4698153403635086
0.3727860240983878 -0.24027514028232397
0.37281647697453074 -0.010990674096159345
0.8657127212722442 -0.011044777291217658
0.8657155475356058 -0.240292667298657
0.865554255920688 -0.46979305868934523
0.8652300133750089 -0.6992201426933032
0.8647591200798002 -0.9283787589934547
0.8640991380322925 -1.1571309012494506
0.8630402847060087 -1.3852496015203188
0.8611563722190947 -1.6122784107586103
0.8578835877590306 -1.837477208421381
0.8526668922243831 -2.059756773917455
0.8450462451471934 -2.2776074023732096
0.8346359281713517 -2.4890707477570047
0.8210990897272115 -2.6917934472827114
0.8041039579801058 -2.883126532497018
0.7832949972178366 -3.0601756475003654
0.7583154155368862 -3.2198526174905435
0.7289645401275588 -3.358957356599276
0.695509245768431 -3.4743188585683202
0.6591487709648514 -3.563064463484713
0.6225899787543501 -3.623169373004927
0.5906538535216695 -3.6544702287944277
0.5587177282889918 -3.623169373004801
0.5221589360784982 -3.5630644634844635
0.4857984612749329 -3.4743188585679636
0.452343166915824 -3.3589573565988364
0.42299229150651824 -3.219852617490042
0.3980127098255901 -3.0601756474998174
0.37720374906334303 -2.8831265324964424
0.36020861731625975 -2.6917934472821248
0.3466717788721414 -2.489070747756423
0.3362614618963192 -2.277607402372653
0.32864081481914653 -2.0597567739169342
0.3234241192845115 -1.837477208420902
0.3201513348244565 -1.6122784107581811
0.318267422337548 -1.3852496015199436
0.3172085690112668 -1.157130901249136
0.3165485869637601 -0.9283787589931984
0.3160776936685516 -0.6992201426931073
0.31575345112287273 -0.4697930586892077
0.3155921595079551 -0.24029266729857912
0.3155949857713168 -0.011044777291200333
0.9229455437220689 -0.011077032637688063
0.9229249895423767 -0.2403036053525581
0.9227426146057406 -0.4697670069449488
0.9223760341260648 -0.6991709021342334
0.921833621288984 -0.9283087181639235
0.921041160578848 -1.1570179388414896
0.9197032683940751 -1.3850113004539073
0.9173022505749702 -1.6117684798922478
0.9132022721941235 -1.8365337216663211
0.9067984158731285 -2.058240190784389
0.89754317918593 -2.275400656220825
0.8849654605231585 -2.486074751398718
0.8686460470246148 -2.6879167558426693
0.8481783332610484 -2.87827449139066
0.8231402860836083 -3.054247543217036
0.793114687279968 -3.212759384448278
0.7578305615608913 -3.3506826593992787
0.7175695769441797 -3.465033823987933
0.6737707093281469 -3.5532753525462213
0.6296405561302196 -3.613858727927593
0.5906538535216562 -3.647231616892752
0.5516671509130963 -3.6138587279274685
0.5075369977151791 -3.553275352545975
0.4637381300991633 -3.4650338239875804
0.42347714548247367 -3.3506826593988444
0.3881930197634222 -3.212759384447782
0.35816742095980814 -3.054247543216494
0.3331293737823941 -2.87827449139009
0.312661660018854 -2.6879167558420884
0.2963422465203359 -2.486074751398142
0.28376452785758755 -2.2754006562202735
0.2745092911704086 -2.0582401907838714
0.2681054348494289 -1.836533721665845
0.264005456468593 -1.6117684798918204
0.2616044386494951 -1.3850113004535332
0.2602665464647257 -1.1570179388411752
0.25947408575459086 -0.9283087181636673
0.2589316729175105 -0.6991709021340372
0.2585650924378351 -0.4697670069448112
0.2583827175011992 -0.24030360535248022
0.25836216332150674 -0.011077032637670696
0.9801929522345796 -0.01109274274054807
0.9801542953441618 -0.2403078348098428
0.9799527119011485 -0.4697371795749625
0.9795460375151163 -0.6991170373335615
0.9789327661921988 -0.9282295279968226
0.9779909133508483 -1.1568731808425317
0.9763376310938998 -1.384688871211097
0.9733770226788099 -1.6111020864909822
0.9684395097307863 -1.8353535293835124
0.9608419752146494 -2.056388015402792
0.9499521210900411 -2.272738322276692
0.9352099691708352 -2.4824818568873455
0.9161080027683072 -2.683281365546724
0.8921622630816356 -2.872484758047544
0.8628973702073294 -3.0471902617803166
0.8278652312582606 -3.2043336472402033
0.7867752242900463 -3.3408618553066938
0.7398880397336516 -3.4540054015926587
0.6887586593433583 -3.5416208375011626
0.636971004707867 -3.6027004133025002
0.5906538535216429 -3.6383379829965232
0.5443367023354228 -3.6027004133023777
0.49254904769994395 -3.5416208375009197
0.4414196673096704 -3.4540054015923114
0.394532482753301 -3.3408618553062666
0.3534424757851156 -3.204333647239714
0.31841033683607683 -3.047190261779782
0.28914544396180064 -2.872484758046981
0.2651997042751593 -2.6832813655461503
0.24609773787266065 -2.482481856886776
0.2313555859534813 -2.2727383222761453
0.22046573182889512 -2.056388015402279
0.21286819731277598 -1.8353535293830399
0.20793068436476522 -1.611102086490557
0.20497007594968372 -1.3846888712107241
0.20331679369273964 -1.1568731808422175
0.20237494085139082 -0.9282295279965666
0.20176166952847388 -0.6991170373333653
0.201354995142442 -0.46973717957482497
0.2011534116994288 -0.2403078348097649
0.20111475480901114 -0.011092742740530683
1.0374563002970332 -0.01109727875596459
1.037406751841284 -0.2403058175311481
1.0371904129385308 -0.4697037348113648
1.0367453936911621 -0.6990591360163568
1.0360570761457537 -0.9281389133516643
1.0349426407171074 -1.156687279979309
1.0329341970672024 -1.384268237676341
1.029399688602785 -1.6102732208003525
1.0236185419004633 -1.8339336857443518
1.0148326128097136 -2.0541993371538982
1.0023202569622136 -2.269620919838456
0.9854273227384581 -2.478292483255718
0.963556271640561 -2.677886865011722
0.9361423748535983 -2.865755970131514
0.9026571062862802 -3.039005537794701
0.8626661718935857 -3.194595487723312
0.8159348093250722 -3.329544969784133
0.7627043211146503 -3.4412849946065514
0.7043973185580609 -3.5281032274481183
0.6447880260203906 -3.589624191333377
0.5906538535216292 -3.6276748007486592
0.5365196810228725 -3.5896241913332565
0.4769103884852173 -3.52810322744788
0.41860338592865093 -3.44128499460621
0.36537289771825754 -3.3295449697837127
0.318641535149777 -3.1945954877228306
0.2786506007571161 -3.0390055377941745
0.245165332189832 -2.8657559701309587
0.2177514354029037 -2.6778868650111556
0.19588038430503957 -2.4782924832551556
0.17898745008131395 -2.2696209198379163
0.16647509423383852 -2.0541993371533906
0.15768916514310852 -1.833933685743883
0.15190801844080176 -1.6102732207999302
0.1483735099763943 -1.3842682376759698
0.14636506632649476 -1.1566872799789953
0.1452506308978506 -0.9281389133514085
0.14456231335244277 -0.6990591360161609
0.1441172941050745 -0.4697037348112273
0.14390095520232166 -0.24030581753107025
0.1438514067465724 -0.011097278755947175
1.0947343999809904 -0.011096085604443353
1.0946845647104972 -0.24029878976358998
1.0944625180532155 -0.46966727243544737
1.093979774024529 -0.6989970699868313
1.0932047957368978 -0.9280332946036142
1.091887263233439 -1.1564475977824291
1.0894987150029962 -1.383740945393202
1.0853824574384041 -1.6092789239775143
1.0787627507363595 -1.8322739945217128
1.0688052111416435 -2.051676701743557
1.0546942716994494 -2.266051916322911
1.035676972995565 -2.473510321462261
1.011060297062238 -2.6717361168584155
0.980199733065145 -2.8580905280478075
0.9425273872682276 -3.029698929357433
0.8976259208337511 -3.1835635437703673
0.8453741037421981 -3.31678646525812
0.7861351732958947 -3.4269646898686923
0.7211002719527122 -3.5127456157219354
0.653429181969508 -3.5745086650124502
0.5906538535216155 -3.615052809524406
0.5278785250737282 -3.5745086650123326
0.4602074350905414 -3.512745615721702
0.39517253374738537 -3.426964689868358
0.3359336033011142 -3.316786465257708
0.28368178620959816 -3.1835635437698944
0.23878031977515932 -3.0296989293569148
0.20110797397827979 -2.858090528047261
0.17024740998122492 -2.671736116857858
0.1456307340479349 -2.473510321461707
0.12661343534408334 -2.266051916322378
0.11250249590191655 -2.0516767017430553
0.10254495630722213 -1.8322739945212487
0.09592524960519423 -1.6092789239770948
0.0918089920406133 -1.3837409453928324
0.08942044381017712 -1.1564475977821163
0.0881029113067213 -0.9280332946033585
0.08732793301909093 -0.6989970699866355
0.08684518899040462 -0.4696672724353099
0.08662314233312307 -0.24029878976351213
0.08657330706263017 -0.011096085604425975
1.15202218800318 -0.011094500277371869
1.151988753161543 -0.24028929994720116
1.1517779796792675 -0.46962904590671184
1.1512545884325154 -0.698929249409029
1.1503706513744638 -0.9279053377085056
1.1488212824226065 -1.1561451494952144
1.1460391770303324 -1.3831024934056522
1.1413389377381908 -1.6081182649528636
1.1338953668986647 -1.8303775331009458
1.1227943576153931 -2.0488258070639813
1.107122119326108 -2.262038220410371
1.0860167036824295 -2.468141436149846
1.0586876201777178 -2.664834994044373
1.0244249604556077 -2.849496794942145
0.9826186466327975 -3.019281114097341
0.9328663932856869 -3.1712520017454344
0.8751577737020118 -3.3026208889131308
0.8100911748117735 -3.4111464199631936
0.7390215823939413 -3.4957175160727134
0.6641228607527322 -3.5572137943800146
0.590653853521601 -3.599999999999995
0.5171848462904765 -3.5572137943799
0.44228612464928646 -3.495717516072486
0.3712165322314847 -3.4111464199628667
0.30614993334128315 -3.302620888912728
0.2484413137576493 -3.1712520017449712
0.1986890604105803 -3.0192811140968328
0.15688274658781173 -2.849496794941608
0.12262008686574397 -2.664834994043825
0.09529100336107277 -2.4681414361493013
0.07418558771743049 -2.262038220409846
0.0585133494281752 -2.0488258070634857
0.04741234014492686 -1.8303775331004863
0.03996876930541903 -1.6081182649524475
0.03526853001328985 -1.383102493405285
0.032486424621023545 -1.1561451494949027
0.03093705566916982 -0.9279053377082501
0.03005311861111923 -0.6989292494088329
0.029529727364367278 -0.46962904590657445
0.029318953882092352 -0.24028929994712334
0.02928551904045527 -0.011094500277354473
SCALARS Stress float 6
LOOKUP_TABLE default
-1214.3129884455855 -2013.3958697023622 -1537.5034376457354 -24.432080223041893 0.0 0.0
1332.5198438499333 780.5831082592051 988.7778647405879 -21.641987891925915 0.0 0.0
599.5778036604279 151.42906068768218 239.83358128915376 -40.46505425351923 0.0 0.0
484.82388408471235 26.298757069300525 157.6622373027586 -1.7368637115001726 0.0 0.0
605.395538503501 73.43175173331636 240.65386861014622 2.24604777177395 0.0 0.0
719.0492963175122 120.64677540915419 359.11642253679383 1.78297030175329 0.0 0.0
841.9051014688604 169.19065302354434 476.122997956156 0.6738303234895553 0.0 0.0
966.7101208418976 234.19462302247797 584.8446984466041 -0.6945661241792288 0.0 0.0
1099.8146811031834 313.1676330074408 694.5465493507033 -2.2739757963805953 0.0 0.0
1248.7166112032673 412.47768727362 819.3998584651777 -3.9789008066602722 0.0 0.0
1418.7032225770986 536.9773638085142 966.5831164021123 -5.62447872256053 0.0 0.0
1609.9781112768155 687.2095151427287 1136.9942848160545 -6.948768334398922 0.0 0.0
1817.6187539152502 856.7711018524703 1325.1533082720157 -7.768142118474733 0.0 0.0
2034.6712755341368 1038.5281379713683 1524.1246372899263 -8.3986225465634 0.0 0.0
2252.0020998076307 1223.1856837535377 1724.6834362980917 -8.813148258394557 0.0 0.0
2459.2614972755046 1400.4786573235754 1916.5503025224205 -8.953394148743563 0.0 0.0
2645.7853641110655 1560.2103965917563 2089.3469972511734 -8.657376884215058 0.0 0.0
2800.7556779634615 1692.1696987783005 2232.5907134066747 -7.840920916513654 0.0 0.0
2921.228617610534 1794.0750330959067 2343.570007653226 -6.72070085337574 0.0 0.0
2993.5252780362853 1853.1445513634933 2409.0722784609534 -8.161730310444678 0.0 0.0
2984.8496746397527 1843.0410833724573 2399.926827130425 1.1299761126792873e-10 0.0 0.0
2993.5252780373053 1853.1445513645365 2409.0722784617137 8.16173031057365 0.0 0.0
2921.228617609494 1794.0750330949204 2343.5700076525327 6.72070085332019 0.0 0.0
2800.7556779627325 1692.1696987776559 2232.590713406061 7.84092091657925 0.0 0.0
2645.7853641110787 1560.2103965919032 2089.346997250843 8.657376884237172 0.0 0.0
2459.261497274087 1400.47865732228 1916.5503025211478 8.953394148757102 0.0 0.0
2252.002099806612 1223.1856837526966 1724.6834362971301 8.813148258388395 0.0 0.0
2034.6712755334424 1038.5281379708633 1524.1246372891037 8.39862254676986 0.0 0.0
1817.618753913183 856.7711018505623 1325.153308270379 7.768142118492666 0.0 0.0
1609.978111277063 687.2095151432593 1136.9942848160956 6.948768334261056 0.0 0.0
1418.7032225755206 536.9773638071542 966.5831164008306 5.62447872256595 0.0 0.0
1248.7166112020955 412.4776872726915 819.3998584642034 3.978900806678144 0.0 0.0
1099.8146811025927 313.1676330071349 694.5465493501536 2.273975796328207 0.0 0.0
966.7101208406314 234.19462302146007 584.8446984456846 0.6945661242699845 0.0 0.0
841.9051014680902 169.1906530230284 476.12299795546016 -0.6738303235837293 0.0 0.0
719.0492963166087 120.64677540850478 359.11642253604674 -1.7829703018058982 0.0 0.0
605.3955385031411 73.43175173330798 240.65386860982613 -2.2460477717152862 0.0 0.0
484.8238840838354 26.298757068328204 157.6622373021982 1.7368637115991614 0.0 0.0
599.5778036599883 151.42906068746143 239.83358128890637 40.46505425352571 0.0 0.0
1332.5198438496889 780.5831082589784 988.7778647401799 21.641987892092466 0.0 0.0
-1214.3129884426223 -2013.3958696995635 -1537.5034376429403 24.43208022222051 0.0 0.0
-1546.5805860197247 -2316.7155211236063 -1823.240381207822 -25.75988001352553 0.0 0.0
908.6739966217932 431.52952598366863 619.8092437556893 -29.897915299479983 0.0 0.0
418.11526216796995 60.05118630313192 142.04374084622702 -34.651816970250195 0.0 0.0
427.8128459931532 5.1134089872605415 131.4909976314434 -15.868626995168276 0.0 0.0
537.8822204297471 32.61405395154941 194.70972694601673 -16.137963990606842 0.0 0.0
636.9338813744163 46.441177658114576 284.5348605356927 -21.402853364271497 0.0 0.0
721.3856541106511 63.57266671858851 371.11998729636593 -23.27925762483541 0.0 0.0
802.692024212576 83.41198052511646 437.2023968936443 -23.74437884619376 0.0 0.0
877.7632507747975 103.68926657290244 488.78525144412663 -24.260371653288054 0.0 0.0
948.7645866122165 125.32104321374791 536.003074983301 -24.935365933282732 0.0 0.0
1018.1758764979161 149.90507457230692 583.2546923245402 -25.290748083569994 0.0 0.0
1087.7236474119607 178.21598889892354 632.2502734257502 -25.244869656382765 0.0 0.0
1156.8594671297972 210.34160772131685 682.8906760719526 -24.821407653310875 0.0 0.0
1222.9656672742385 241.58237256900136 731.5591273038109 -24.221009432855958 0.0 0.0
1280.3579097364318 266.7539469300593 772.8330655724858 -23.478954217299673 0.0 0.0
1324.4432198449335 281.28257336658436 802.1325301916268 -22.39011753683739 0.0 0.0
1352.2057261632149 282.4866704715172 816.6102477288929 -20.70465781200405 0.0 0.0
1363.8509876148096 271.1497214273841 816.7577976442907 -18.394939164793854 0.0 0.0
1355.7035063726025 244.4454371508915 799.4284895050152 -16.001772232466923 0.0 0.0
1293.0385554775253 168.93990487797552 731.0332381342473 -15.855905470644586 0.0 0.0
1185.7582257718889 60.913605387116775 624.5226241210216 1.1482370609883219e-11 0.0 0.0
1293.038555477514 168.9399048779646 731.0332381343135 15.855905470728725 0.0 0.0
1355.7035063711073 244.44543714945615 799.4284895039482 16.001772232388653 0.0 0.0
1363.8509876156581 271.149721428329 816.7577976449592 18.394939164875026 0.0 0.0
1352.205726163416 282.4866704717964 816.6102477291195 20.70465781187322 0.0 0.0
1324.4432198436318 281.28257336542526 802.1325301906502 22.390117536794634 0.0 0.0
1280.3579097369643 266.75394693076555 772.8330655728151 23.478954217419417 0.0 0.0
1222.9656672733618 241.5823725682854 731.5591273031464 24.221009432912957 0.0 0.0
1156.8594671294582 210.34160772116178 682.8906760717249 24.821407653233873 0.0 0.0
1087.7236474123881 178.2159888995914 632.2502734260624 25.244869656298167 0.0 0.0
1018.1758764968956 149.90507457147598 583.2546923239265 25.290748083363738 0.0 0.0
948.7645866121824 125.32104321397662 536.0030749832654 24.935365933307743 0.0 0.0
877.7632507740728 103.68926657243958 488.7852514436172 24.260371653188955 0.0 0.0
802.6920242116253 83.4119805244423 437.20239689301786 23.74437884628504 0.0 0.0
721.3856541104419 63.572666718648264 371.11998729608905 23.279257624688693 0.0 0.0
636.9338813740424 46.44117765802327 284.53486053529747 21.402853364238435 0.0 0.0
537.8822204293338 32.614053951357135 194.70972694572725 16.137963990492104 0.0 0.0
427.81284599249807 5.113408986630536 131.49099763107085 15.868626995093251 0.0 0.0
418.1152621677685 60.05118630303641 142.04374084613815 34.65181697031832 0.0 0.0
908.6739966212122 431.52952598326874 619.8092437550733 29.897915299625865 0.0 0.0
-1546.5805860176608 -2316.715521121584 -1823.2403812057064 25.759880012845507 0.0 0.0
-1291.0957435329083 -2026.5726317248768 -1540.6578873678757 -64.05959739932806 0.0 0.0
718.6856446550552 340.9110392020969 475.57988864762723 -98.16292346192164 0.0 0.0
291.5551866457671 68.2145963192187 107.94650418840764 -37.424304712008926 0.0 0.0
366.9260705203736 0.905222930195428 110.23758165113375 -37.27700801170364 0.0 0.0
492.7457430608531 23.228771031801628 166.79185335159133 -38.517433948130034 0.0 0.0
603.7793499578993 41.365498603967026 254.05423760159027 -40.98894507178678 0.0 0.0
691.9464329996019 59.105204486746985 346.5852381005406 -43.359042980709944 0.0 0.0
773.7735279237103 75.37476540046264 415.9118912299814 -44.357927288834965 0.0 0.0
846.3219751763075 92.40248160138324 466.66110647652465 -45.52235529264285 0.0 0.0
913.5578176284406 110.06181981623506 510.4061995887836 -46.57624565938375 0.0 0.0
979.323776365026 131.40467405897763 554.2675770366411 -46.816474774296935 0.0 0.0
1045.4840544478918 157.5284978239272 600.4769606581197 -46.24973105525796 0.0 0.0
1111.8204822413545 186.500393056167 648.158433117712 -45.314217555507454 0.0 0.0
1174.2423555798734 215.2646503336075 693.7723476849765 -44.118551204346446 0.0 0.0
1229.365615307162 238.65234298704144 733.0198049250331 -42.649448435719876 0.0 0.0
1272.7254576337143 252.82556106820917 761.7655548689445 -40.64314494608335 0.0 0.0
1301.8414385024425 255.5393615704959 777.6749866823577 -37.73611997862631 0.0 0.0
1313.4400531697029 244.1116639816931 777.8204829848554 -34.006635697042796 0.0 0.0
1296.4653616022244 208.54342655253845 751.8132641138734 -30.22111594863444 0.0 0.0
1260.2358188199717 159.67725013868267 709.6238229190284 -27.20873509400992 0.0 0.0
1132.874618059963 32.16033787798203 583.5629464564257 -3.0961899710746366e-11 0.0 0.0
1260.2358188195572 159.67725013832774 709.6238229188411 27.208735094156182 0.0 0.0
1296.4653616009255 208.54342655130114 751.8132641128522 30.221115948742217 0.0 0.0
1313.4400531702543 244.11166398231643 777.8204829852992 34.00663569709296 0.0 0.0
1301.8414385024726 255.53936157064499 777.6749866823118 37.73611997858027 0.0 0.0
1272.7254576331845 252.8255610678043 761.7655548686096 40.643144946025686 0.0 0.0
1229.3656153070854 238.65234298712912 733.0198049249107 42.649448435854936 0.0 0.0
1174.2423555791954 215.2646503331138 693.7723476844767 44.11855120435734 0.0 0.0
1111.8204822413127 186.50039305628718 648.1584331176992 45.31421755550291 0.0 0.0
1045.4840544486897 157.52849782500022 600.4769606585687 46.2497310552895 0.0 0.0
979.3237763641528 131.40467405831976 554.2675770361138 46.81647477419122 0.0 0.0
913.5578176280347 110.06181981603399 510.406199588514 46.57624565941573 0.0 0.0
846.3219751755349 92.40248160083524 466.66110647599083 45.52235529242532 0.0 0.0
773.7735279235606 75.37476540066169 415.91189122984963 44.357927288928245 0.0 0.0
691.9464329994928 59.10520448694137 346.5852381003008 43.359042980638435 0.0 0.0
603.7793499572915 41.365498603657784 254.05423760105637 40.98894507173594 0.0 0.0
492.74574306005525 23.22877103108947 166.79185335107658 38.517433947930314 0.0 0.0
366.92607052013193 0.9052229300580179 110.23758165103405 37.27700801165165 0.0 0.0
291.55518664572725 68.21459631903102 107.94650418833974 37.42430471202407 0.0 0.0
718.6856446543972 340.9110392017295 475.57988864698507 98.16292346192479 0.0 0.0
-1291.095743530863 -2026.5726317228057 -1540.6578873657265 64.05959739893925 0.0 0.0
-1054.0786411077795 -1758.924542905858 -1281.8345446312123 -77.62116101680596 0.0 0.0
547.7249520089782 244.9579576056516 348.4030931202727 -145.30292000658997 0.0 0.0
212.18018213931066 58.99584150271054 81.35280709260634 -59.298927767709884 0.0 0.0
305.1678274622227 6.494024190489281 93.40064370511435 -59.15471439109041 0.0 0.0
437.49728786974254 12.817711085959152 139.0015255204803 -63.238739631527075 0.0 0.0
557.8918753376133 34.88251261665638 219.34111300276825 -61.98423081842168 0.0 0.0
659.4306047132584 52.59607122807994 316.2485544315159 -64.78986859665729 0.0 0.0
739.9397313401001 67.50943348135345 390.6221429050312 -65.22953870063638 0.0 0.0
810.8116807455947 81.32312824227407 442.03914554061555 -66.47661075184347 0.0 0.0
874.6701600177014 95.40247253151077 483.0889950839261 -67.51759268694398 0.0 0.0
936.4659658222668 113.22673753347898 523.3333768672751 -67.43525694584962 0.0 0.0
999.3440048398619 136.11810310886304 566.292840062877 -66.44885413093127 0.0 0.0
1062.2116955499137 162.98729213964168 611.2191606045216 -64.9976004074558 0.0 0.0
1121.5344690232591 188.19228000298352 653.524871486857 -63.34058785412142 0.0 0.0
1173.969846432959 209.61443939804687 690.4464558365358 -61.221050545843504 0.0 0.0
1217.3453332187319 224.37424212977743 719.4919275672518 -58.383194358234476 0.0 0.0
1247.7221383620633 228.220844965268 736.6116487707279 -54.6130759038513 0.0 0.0
1258.972195443354 216.21891312648322 736.3600761548107 -49.947765757984946 0.0 0.0
1247.4660953837374 185.80977345713612 715.63514492518 -44.47731584531883 0.0 0.0
1225.290928710581 150.33080845895594 687.0053877355033 -37.19245235830736 0.0 0.0
1046.4973049830955 -28.29676769915912 510.43006961775626 9.973000203444826e-11 0.0 0.0
1225.2909287103105 150.33080845870447 687.0053877353885 37.19245235846286 0.0 0.0
1247.4660953834637 185.80977345693475 715.6351449250412 44.477315845466634 0.0 0.0
1258.9721954433596 216.2189131265699 736.3600761549558 49.94776575801953 0.0 0.0
1247.7221383616713 228.22084496492687 736.6116487703151 54.61307590381253 0.0 0.0
1217.3453332199729 224.37424213119465 719.491927568158 58.383194358183935 0.0 0.0
1173.9698464324335 209.61443939765167 690.4464558361243 61.221050545892766 0.0 0.0
1121.5344690235336 188.19228000345717 653.5248714869876 63.340587854116606 0.0 0.0
1062.2116955491213 162.9872921390358 611.2191606040354 64.99760040755778 0.0 0.0
999.3440048398484 136.11810310898176 566.2928400629048 66.44885413076304 0.0 0.0
936.4659658226221 113.22673753416409 523.3333768675035 67.4352569459266 0.0 0.0
874.6701600162103 95.40247253022812 483.0889950829598 67.51759268700337 0.0 0.0
810.81168074523 81.32312824213349 442.03914554035833 66.47661075170971 0.0 0.0
739.9397313402885 67.50943348184742 390.62214290504465 65.22953870060086 0.0 0.0
659.4306047126701 52.596071227777244 316.2485544309717 64.78986859660054 0.0 0.0
557.8918753371282 34.88251261654139 219.34111300236918 61.98423081835812 0.0 0.0
437.49728786937015 12.817711085975045 139.0015255203532 63.23873963139098 0.0 0.0
305.16782746221236 6.494024190434509 93.40064370509094 59.15471439114061 0.0 0.0
212.18018213926334 58.99584150257651 81.35280709255193 59.29892776757255 0.0 0.0
547.7249520084009 244.9579576053697 348.4030931197335 145.30292000646452 0.0 0.0
-1054.0786411059619 -1758.9245429039354 -1281.8345446292658 77.62116101660686 0.0 0.0
-848.3573447774859 -1526.563039907097 -1054.559554260777 -76.51894603452482 0.0 0.0
421.55179113865387 161.1252531145124 249.43595138559138 -177.0386231474577 0.0 0.0
155.7395049911715 46.82942684059563 60.77067954953013 -89.46050146144289 0.0 0.0
249.43259554464927 12.688595885889443 78.6407661575449 -82.85439986250286 0.0 0.0
372.9410565778552 7.428032111352918 114.3908243466073 -88.64142975969331 0.0 0.0
503.5022350011934 22.59463428323438 181.21289277342385 -87.44546960962008 0.0 0.0
615.0692991763358 44.69698439684505 277.989564218741 -86.42137599437935 0.0 0.0
700.2757727498835 60.420412051687876 360.65795811207175 -86.51494353662227 0.0 0.0
770.4906456717533 70.80371225957018 414.2440866298164 -87.08372518311582 0.0 0.0
831.1654113582373 81.11004395350643 453.29316490488685 -87.71691224285618 0.0 0.0
889.4429948373432 95.18599104784926 490.19544920162826 -87.1865059860272 0.0 0.0
948.5042974263565 114.69069653643216 529.6010748230556 -85.74913456059689 0.0 0.0
1007.9860431573675 138.08702747089316 571.1231455045217 -83.96324189184719 0.0 0.0
1063.9934266369348 161.56000329610683 610.9489327214463 -81.8267512805119 0.0 0.0
1114.1229777786339 180.62690692004438 645.56065187587 -79.12502431941297 0.0 0.0
1156.4108600564944 194.05238863992088 673.3842913084977 -75.67392839667696 0.0 0.0
1188.2708505043786 199.74836288419897 692.1793274938516 -71.33744036264791 0.0 0.0
1204.101921079447 192.04370710170443 696.3694452683185 -65.99131602936934 0.0 0.0
1199.8877291694646 168.11826515092443 682.5059730723422 -58.67027049146339 0.0 0.0
1184.3289602604975 137.7547618307597 659.6838031852616 -47.448587661618426 0.0 0.0
942.1740928704365 -103.83318221569816 421.0030191716493 2.9558577807620168e-12 0.0 0.0
1184.328960261329 137.75476183167478 659.6838031859419 47.448587661692834 0.0 0.0
1199.8877291696176 168.11826515120464 682.5059730725401 58.67027049178908 0.0 0.0
1204.1019210795826 192.04370710190986 696.3694452685048 65.99131602946517 0.0 0.0
1188.2708505035953 199.74836288355638 692.179327493227 71.3374403626828 0.0 0.0
1156.4108600570512 194.0523886406087 673.3842913089526 75.67392839678581 0.0 0.0
1114.1229777785852 180.6269069201384 645.5606518758356 79.12502431944544 0.0 0.0
1063.9934266370135 161.56000329637564 610.948932721457 81.82675128055912 0.0 0.0
1007.986043157582 138.0870274713369 571.1231455046646 83.96324189190845 0.0 0.0
948.5042974252945 114.69069653553854 529.6010748223125 85.74913456049251 0.0 0.0
889.4429948373901 95.18599104813691 490.19544920162963 87.18650598607972 0.0 0.0
831.1654113570033 81.11004395245371 453.29316490413487 87.71691224273795 0.0 0.0
770.4906456721047 70.80371226025844 414.24408663000736 87.08372518312535 0.0 0.0
700.2757727500316 60.42041205216947 360.6579581120238 86.5149435366081 0.0 0.0
615.0692991755075 44.696984396225346 277.98956421804337 86.42137599425789 0.0 0.0
503.50223500098423 22.594634283513336 181.2128927732705 87.4454696096484 0.0 0.0
372.94105657759496 7.42803211161011 114.39082434660777 88.64142975959156 0.0 0.0
249.43259554461636 12.688595885776554 78.64076615749784 82.85439986240186 0.0 0.0
155.73950499109444 46.82942684042616 60.7706795494562 89.46050146123858 0.0 0.0
421.5517911381633 161.12525311445054 249.43595138520539 177.03862314737296 0.0 0.0
-848.3573447758807 -1526.5630399054373 -1054.5595542590622 76.51894603430921 0.0 0.0
-667.5784329911207 -1321.114474646352 -852.5662587823192 -73.09364699012089 0.0 0.0
322.3410862090645 96.08158584130717 173.4722427579678 -195.4627371046518 0.0 0.0
112.87550304563649 32.62067417346645 43.64885316573089 -118.23404566313134 0.0 0.0
199.10821118231866 17.64251192821276 65.02775558388784 -106.85632935078971 0.0 0.0
305.08123090134404 5.458528038408527 92.60122445638885 -113.3592988041443 0.0 0.0
434.2781119242287 12.21899825269594 144.2805130671403 -113.7306649201903 0.0 0.0
553.8940607562259 36.0478693436758 232.89081952078345 -109.46018279086934 0.0 0.0
653.1103350141068 50.63418830542242 321.85674476015345 -108.9075184834178 0.0 0.0
722.3636560147338 60.804619653037065 381.1863074894924 -107.28028213918097 0.0 0.0
782.2523092025996 66.99994695581869 420.15158543563643 -107.18918347852079 0.0 0.0
836.9947716171009 77.26228318976888 454.0673157312994 -106.05191133933725 0.0 0.0
892.29154491846 93.31506499155051 489.9840181951907 -104.12043851523057 0.0 0.0
948.0028195486763 113.68240362880161 528.1520749409141 -101.97641898272761 0.0 0.0
1000.5873775081465 133.61567128870558 564.5393234590272 -99.57501729993851 0.0 0.0
1048.120357171642 150.8790027180762 596.9881277402725 -96.43248951521907 0.0 0.0
1089.115160293585 163.62268451281977 623.8556048833609 -92.34911753351263 0.0 0.0
1122.676823362633 170.20449858156536 643.9064742512516 -87.69758358767791 0.0 0.0
1145.4712046263523 169.21767464833613 654.8935278868295 -81.9828418368912 0.0 0.0
1150.1881064386384 153.3308837202106 649.5233039159997 -73.24011315574113 0.0 0.0
1138.6348120749128 124.62962564236452 629.5421070887808 -58.70308145738277 0.0 0.0
821.3111168210415 -191.34099127190075 317.5550862934912 7.145750657855388e-11 0.0 0.0
1138.6348120755995 124.62962564308233 629.5421070893332 58.70308145748909 0.0 0.0
1150.1881064390614 153.33088372073723 649.5233039163563 73.24011315591099 0.0 0.0
1145.471204625692 169.2176746477516 654.8935278864749 81.98284183695756 0.0 0.0
1122.6768233627604 170.20449858183588 643.906474251284 87.69758358783243 0.0 0.0
1089.1151602939915 163.62268451343607 623.8556048836508 92.34911753363316 0.0 0.0
1048.1203571709807 150.87900271755765 596.9881277398257 96.43248951527177 0.0 0.0
1000.5873775075643 133.61567128825422 564.5393234586346 99.57501729997722 0.0 0.0
948.0028195497111 113.68240363014421 528.1520749416052 101.9764189828792 0.0 0.0
892.2915449183546 93.31506499168103 489.98401819503783 104.12043851535165 0.0 0.0
836.9947716160377 77.26228318880874 454.0673157304673 106.05191133917653 0.0 0.0
782.2523092020825 66.99994695548975 420.1515854353325 107.18918347835752 0.0 0.0
722.3636560151638 60.804619653870304 381.1863074897437 107.28028213930178 0.0 0.0
653.1103350142059 50.63418830592302 321.8567447600978 108.90751848347087 0.0 0.0
553.8940607554598 36.047869343131474 232.8908195201551 109.46018279070869 0.0 0.0
434.27811192404863 12.218998253068813 144.28051306708386 113.73066492021272 0.0 0.0
305.0812309009669 5.458528038380602 92.60122445629388 113.35929880400904 0.0 0.0
199.10821118227025 17.642511928185975 65.02775558386544 106.85632935064089 0.0 0.0
112.87550304559012 32.62067417320297 43.64885316563793 118.23404566292918 0.0 0.0
322.3410862085839 96.08158584116421 173.47224275760752 195.46273710459846 0.0 0.0
-667.578432989964 -1321.114474645011 -852.5662587809013 73.09364699000992 0.0 0.0
-511.4888599401911 -1133.4859055558709 -673.327083343017 -70.1922944029177 0.0 0.0
243.91845998515763 44.66662522013619 115.38460681821627 -206.7599898587349 0.0 0.0
78.28362593288793 18.75071843235684 29.11020807513411 -142.0119678885751 0.0 0.0
151.93637178658162 20.926035567666 51.85979136223719 -129.1360769831543 0.0 0.0
238.16270936964523 6.390228167807094 73.13257236831352 -135.02812669274695 0.0 0.0
354.9382701567344 2.40549636259 109.37264111602758 -142.1919212328092 0.0 0.0
478.9985175689824 22.334805796558896 181.94560584935374 -136.05972656522857 0.0 0.0
586.4108596775932 41.776685764255824 272.0167996244775 -131.02991235348804 0.0 0.0
667.4449024764506 47.853612806296795 339.4352139567613 -129.02670561219304 0.0 0.0
724.5007782448644 53.128722202174345 381.2204508524709 -125.79628235293693 0.0 0.0
777.7238917769307 59.534686704275316 413.8350534839107 -123.94457491128587 0.0 0.0
829.2756514348487 71.91367643034658 446.4144445876286 -121.53366207192285 0.0 0.0
880.786684754954 88.74026057235822 480.83854511377297 -119.04690884531502 0.0 0.0
929.6624577737362 105.91927601394094 514.0531381262979 -116.41042235613426 0.0 0.0
974.1104007215118 120.71644129852837 543.7965833071542 -113.05893341079802 0.0 0.0
1013.1475487476515 130.87803782628492 568.4328905670266 -108.70163071425287 0.0 0.0
1048.0443496631851 139.9945670565037 590.3881178340214 -103.39398999863586 0.0 0.0
1079.7965678319613 146.91256832046662 609.7113125180796 -97.65385729083086 0.0 0.0
1095.8427160105111 140.42938463031362 614.6988706960749 -88.56084528917701 0.0 0.0
1088.5576809215106 113.17871746336229 597.6797518889855 -71.73659132940551 0.0 0.0
682.0362079693513 -290.19461141314275 199.53565678896356 2.0392576516314875e-11 0.0 0.0
1088.5576809211504 113.178717463101 597.6797518887861 71.73659132959386 0.0 0.0
1095.842716011005 140.4293846308844 614.6988706964436 88.56084528932392 0.0 0.0
1079.7965678315443 146.91256832021912 609.7113125177796 97.65385729097355 0.0 0.0
1048.0443496633982 139.9945670569183 590.3881178341336 103.39398999891964 0.0 0.0
1013.1475487485945 130.878037827358 568.4328905676667 108.70163071432492 0.0 0.0
974.1104007211442 120.71644129833098 543.796583306907 113.05893341083403 0.0 0.0
929.6624577727857 105.91927601303169 514.0531381256388 116.41042235602124 0.0 0.0
880.7866847549419 88.7402605726212 480.83854511375506 119.04690884546417 0.0 0.0
829.275651434315 71.91367642994145 446.4144445872858 121.53366207188984 0.0 0.0
777.7238917759057 59.534686703345606 413.83505348320193 123.9445749111823 0.0 0.0
724.5007782453154 53.12872220292225 381.2204508527758 125.79628235285571 0.0 0.0
667.4449024759582 47.85361280611598 339.43521395637083 129.02670561222521 0.0 0.0
586.4108596776304 41.77668576483096 272.0167996244 131.02991235357442 0.0 0.0
478.99851756826683 22.3348057961307 181.94560584883232 136.05972656517307 0.0 0.0
354.93827015677726 2.4054963634606907 109.37264111625527 142.19192123278353 0.0 0.0
238.1627093693982 6.390228167576031 73.13257236817157 135.02812669260402 0.0 0.0
151.93637178652128 20.926035567579333 51.859791362192716 129.13607698297702 0.0 0.0
78.28362593277393 18.75071843219737 29.110208075052178 142.0119678883437 0.0 0.0
243.91845998463506 44.66662521978918 115.38460681783623 206.7599898586275 0.0 0.0
-511.4888599391036 -1133.4859055544982 -673.3270833417253 70.19229440294077 0.0 0.0
-373.98123175830125 -970.362416267132 -515.2493168060862 -75.75448449890133 0.0 0.0
177.29117531216826 5.792696824721219 70.2031620773594 -209.73380975907884 0.0 0.0
48.67597949832651 7.348388148299096 16.807140142950807 -160.0350998608463 0.0 0.0
106.34725589875147 22.29470722705349 38.593922433957346 -148.3043390674153 0.0 0.0
174.52668561566372 8.570212305909333 54.79910390637684 -153.8677090292296 0.0 0.0
265.9098870268736 -1.2154430652321417 79.03032010726349 -166.8254404276741 0.0 0.0
383.90809182378405 8.031766506329454 129.8242356852232 -164.78916608231322 0.0 0.0
499.1626009538733 27.42951988751204 209.06642915371444 -154.9033893924337 0.0 0.0
591.1767782525272 36.70577387122889 283.5358411564309 -149.30933720306106 0.0 0.0
656.0484297291432 36.610987396852444 331.6181424316191 -145.10755377033882 0.0 0.0
707.0392712102666 41.06009847988493 365.42304618940665 -140.767997785065 0.0 0.0
755.6086481085762 50.64183589142966 396.2453279227942 -137.73809981369138 0.0 0.0
803.1578657384167 63.86666713891193 427.26187652980815 -134.9134438606425 0.0 0.0
847.3455818608653 77.4247637192592 456.46700015411665 -132.13426713844066 0.0 0.0
888.6554197858422 89.68130669606593 483.4390418322308 -128.90101853461826 0.0 0.0
925.3993672298685 98.80623441855488 506.53802591901365 -124.46327121833842 0.0 0.0
959.8381272564105 106.08503797675614 527.4234555223421 -118.6969422898919 0.0 0.0
999.4631398093667 120.62069723696155 554.2850315616872 -112.62049440537123 0.0 0.0
1032.4162461070814 130.25522766021732 575.7259570687036 -104.44187773369819 0.0 0.0
1034.1370797051516 107.94703361324983 565.9654201995529 -87.5152365193616 0.0 0.0
518.6584757474743 -400.06937812006504 64.43392809178276 2.34088304296165e-11 0.0 0.0
1034.137079704926 107.94703361313061 565.9654201995044 87.51523651957444 0.0 0.0
1032.4162461079497 130.255227661321 575.7259570692908 104.44187773407923 0.0 0.0
999.4631398084288 120.62069723596919 554.285031561056 112.62049440540132 0.0 0.0
959.8381272562659 106.08503797678598 527.4234555221606 118.69694229007817 0.0 0.0
925.399367230513 98.80623441935688 506.53802591941525 124.46327121834072 0.0 0.0
888.655419785685 89.68130669608807 483.4390418321097 128.90101853467826 0.0 0.0
847.3455818601986 77.42476371870282 456.4670001536974 132.1342671384498 0.0 0.0
803.1578657381525 63.866667138843596 427.2618765295591 134.9134438607111 0.0 0.0
755.6086481084996 50.641835891522874 396.24532792272794 137.7380998136785 0.0 0.0
707.0392712098865 41.06009847976267 365.4230461891336 140.7679977850324 0.0 0.0
656.0484297294211 36.61098739741316 331.618142431845 145.10755377037222 0.0 0.0
591.1767782520697 36.70577387102246 283.5358411560105 149.30933720295926 0.0 0.0
499.1626009537017 27.429519887833692 209.0664291535628 154.90338939250665 0.0 0.0
383.90809182347203 8.031766506528669 129.82423568507474 164.78916608237398 0.0 0.0
265.9098870267184 -1.2154430646537606 79.03032010740833 166.82544042749757 0.0 0.0
174.52668561550695 8.570212305748854 54.79910390628046 153.86770902903746 0.0 0.0
106.34725589865307 22.29470722698864 38.59392243390898 148.30433906725466 0.0 0.0
48.67597949832104 7.348388148377259 16.807140142972553 160.03509986061871 0.0 0.0
177.2911753117741 5.792696824424883 70.20316207706878 209.73380975891683 0.0 0.0
-373.9812317574037 -970.3624162659364 -515.2493168049954 75.75448449889525 0.0 0.0
-268.3420304937357 -813.3480588341317 -386.5079439393478 -82.23927180204556 0.0 0.0
120.14158710285005 -25.751535054022856 35.7106398244642 -206.3532206793667 0.0 0.0
21.069779200568664 -0.4009773462419683 6.202478381949078 -172.80190903024277 0.0 0.0
61.84311483998144 22.1208414855004 25.18652147164882 -163.5693017834678 0.0 0.0
111.37537448321605 11.593769610454254 36.81259055056408 -168.65512641054707 0.0 0.0
174.49596482920737 0.3178403910779738 52.1455654775356 -184.52751569284973 0.0 0.0
267.03851230636565 -2.6588943627418344 81.15078588456669 -194.87805513647993 0.0 0.0
381.7879780859074 7.277437286268251 135.4848216464931 -184.57073005288447 0.0 0.0
484.845538035539 18.604096561860402 204.3264399016402 -170.06355580267365 0.0 0.0
559.8728729222059 20.017292828053634 259.9026192492595 -161.90820440778265 0.0 0.0
614.5119473910336 22.039829442884585 299.3500607127868 -155.84602467273274 0.0 0.0
661.4999646613833 28.170620867986703 330.50197447989376 -152.23341959500578 0.0 0.0
705.268064009619 38.632632478034026 359.72736379795714 -149.14954982513947 0.0 0.0
744.5093840158218 48.586203733289864 385.2932622357487 -146.31179987242496 0.0 0.0
781.4187692133119 58.123569912850144 409.01417463979874 -143.48747614339172 0.0 0.0
816.519494726807 66.3463237665981 431.0743721879984 -139.68707892219504 0.0 0.0
850.4511833485249 73.13414887467235 451.89513472631603 -133.8578731898244 0.0 0.0
890.640756984194 86.65418618800507 478.69063769980164 -126.66761302671787 0.0 0.0
943.9310667443632 113.87434509974176 518.6475859263516 -120.09136643400558 0.0 0.0
972.3817343956613 113.46963451152618 533.7883135186753 -107.62756760473322 0.0 0.0
322.21168648814444 -516.879855997022 -89.77690151643293 1.3718448599320254e-10 0.0 0.0
972.3817343958642 113.46963451190899 533.7883135189068 107.62756760488699 0.0 0.0
943.9310667448582 113.87434510050136 518.6475859266425 120.09136643452703 0.0 0.0
890.6407569832339 86.6541861869709 478.6906376991579 126.66761302658574 0.0 0.0
850.4511833481299 73.13414887447834 451.8951347260461 133.85787318992575 0.0 0.0
816.5194947275767 66.34632376747592 431.07437218854875 139.68707892238135 0.0 0.0
781.418769212683 58.12356991227618 409.0141746393081 143.48747614320695 0.0 0.0
744.5093840154744 48.58620373332029 385.293262235534 146.311799872613 0.0 0.0
705.2680640095045 38.63263247802121 359.7273637978552 149.14954982529608 0.0 0.0
661.499964662118 28.170620869149758 330.50197448041325 152.23341959516802 0.0 0.0
614.5119473905743 22.03982944245619 299.350060712405 155.84602467266373 0.0 0.0
559.8728729215848 20.017292827565534 259.9026192488289 161.90820440765458 0.0 0.0
484.84553803536613 18.604096562009353 204.32643990147378 170.0635558026545 0.0 0.0
381.7879780850486 7.277437285477645 135.48482164590123 184.57073005285034 0.0 0.0
267.03851230611804 -2.658894362388061 81.15078588457764 194.8780551364029 0.0 0.0
174.495964828892 0.317840390995362 52.145565477434026 184.52751569254465 0.0 0.0
111.37537448312061 11.593769610505989 36.81259055055898 168.65512641025617 0.0 0.0
61.843114840045715 22.12084148557337 25.18652147168778 163.56930178337194 0.0 0.0
21.06977920055402 -0.4009773462238355 6.2024783819494145 172.80190903012556 0.0 0.0
120.14158710249946 -25.751535054243362 35.71063982424469 206.3532206790898 0.0 0.0
-268.34203049306916 -813.3480588330866 -386.5079439385105 82.23927180206584 0.0 0.0
-184.0545203077717 -675.1475503697698 -282.83772309898853 -96.66031178960782 0.0 0.0
68.6416363297429 -50.12400222388247 8.537607041093683 -196.94870113000073 0.0 0.0
-5.645399515618243 -3.949415293501312 -2.882406074588219 -180.51096470392127 0.0 0.0
18.103810085842344 20.89777559269681 11.699106332044117 -174.34905071812966 0.0 0.0
48.133423301514085 14.47069586196176 18.755668104116673 -179.0911571346249 0.0 0.0
84.18560735901876 3.742641138455109 26.255218683951686 -196.4502892022979 0.0 0.0
134.02050709394354 -1.9785209294327264 39.615420913566886 -212.90414512312415 0.0 0.0
212.4975410673763 -5.66671678693643 63.386518551640265 -215.7169493651223 0.0 0.0
313.8293022812855 -12.29051481417805 97.78755701521173 -201.83663921302977 0.0 0.0
403.03787972082097 -16.522098451702345 137.066824464777 -180.8309520985359 0.0 0.0
463.52579172412555 -9.104391553506016 175.75992687440655 -167.85071812726625 0.0 0.0
508.87298992881864 1.6525179435259858 209.21268244787862 -162.692815386133 0.0 0.0
547.5329347447702 10.815841052252814 238.25849017733574 -161.18451015108894 0.0 0.0
581.4220418390546 18.94288902689277 263.3168740863196 -160.2458900395703 0.0 0.0
613.1623864662382 26.92506112678688 286.6911429015248 -159.3747962911595 0.0 0.0
645.7628042765087 34.72776622409866 310.300956644435 -157.83044347097476 0.0 0.0
681.2753044855868 41.69935695513398 335.20076115542366 -153.29405685584223 0.0 0.0
719.9978740247223 47.46231489424844 360.9417531395758 -145.06201612994207 0.0 0.0
778.4295987084868 70.43666359649374 401.9361724155129 -137.01242111996916 0.0 0.0
866.689908948993 119.87562833369473 473.2153366745816 -134.29023984477516 0.0 0.0
59.51888178426683 -635.1227229885096 -274.75613077697506 1.7928414308698848e-10 0.0 0.0
866.6899089503553 119.87562833537613 473.2153366756242 134.29023984503968 0.0 0.0
778.4295987082726 70.43666359631229 401.93617241541693 137.01242112028865 0.0 0.0
719.9978740247786 47.462314894399626 360.9417531397239 145.0620161302155 0.0 0.0
681.2753044848479 41.69935695414663 335.2007611547475 153.2940568558182 0.0 0.0
645.7628042762701 34.72776622372595 310.3009566443318 157.83044347091027 0.0 0.0
613.1623864663577 26.925061127170398 286.6911429016876 159.37479629108984 0.0 0.0
581.4220418390457 18.94288902683843 263.31687408628096 160.2458900396369 0.0 0.0
547.5329347445463 10.8158410522066 238.25849017723678 161.18451015124896 0.0 0.0
508.8729899284855 1.6525179429866803 209.21268244763743 162.69281538608845 0.0 0.0
463.525791723896 -9.10439155386861 175.75992687410704 167.8507181270926 0.0 0.0
403.0378797203482 -16.522098452052298 137.06682446450577 180.83095209839797 0.0 0.0
313.82930228102146 -12.290514814170105 97.7875570151098 201.83663921308428 0.0 0.0
212.49754106706507 -5.6667167869339785 63.38651855153432 215.71694936506665 0.0 0.0
134.0205070935717 -1.9785209297628104 39.615420913367174 212.90414512294927 0.0 0.0
84.18560735890962 3.7426411382696316 26.255218683861802 196.45028920201352 0.0 0.0
48.13342330153336 14.470695861932095 18.755668104116097 179.09115713445473 0.0 0.0
18.10381008586991 20.89777559267035 11.699106332044868 174.34905071793077 0.0 0.0
-5.645399515563461 -3.949415293277879 -2.882406074507913 180.51096470368017 0.0 0.0
68.6416363294349 -50.12400222405153 8.537607040931517 196.94870112977688 0.0 0.0
-184.05452030725843 -675.1475503688575 -282.8377230984031 96.66031178970334 0.0 0.0
-130.90203347192724 -547.6818098037905 -209.15864255191622 -109.01603593741604 0.0 0.0
22.362991005870498 -66.57897885511547 -12.498570135153674 -181.49204321950452 0.0 0.0
-31.228242749317538 -4.7042301132346145 -10.77242032525779 -184.34007725904905 0.0 0.0
-24.805899382855465 19.281630196491136 -1.6610026340108872 -180.64241827264584 0.0 0.0
-14.340835646286378 16.92512198386106 0.7750481291981663 -184.69997475888061 0.0 0.0
-6.641760036165099 7.5889823349100505 0.29039942595799584 -200.82483325424738 0.0 0.0
-2.8258634872622928 1.2991616085116613 -0.4576725913168662 -218.42080116970624 0.0 0.0
-0.9208730249595618 0.08720874336459605 -0.25897710620822245 -222.02758983139356 0.0 0.0
-0.21084539165640592 -0.03001102336593675 -0.07581413590663999 -213.82279328644643 0.0 0.0
0.04380335508004407 0.0007695062140093967 0.019674482013364525 -207.41610149702763 0.0 0.0
-0.33687778593514395 0.002119092242242715 -0.1431956977542228 -206.37219769171264 0.0 0.0
-0.8261937544243381 0.16224079435277616 0.1835614227251554 -196.5876700390628 0.0 0.0
-1.9798184383286923 0.7075574479843638 0.3311868969787213 -186.792885344802 0.0 0.0
-1.0646955064527504 2.005638701061649 0.8191576646608496 -179.39807851786225 0.0 0.0
6.075451188072009 5.4237614024472975 1.9814328930042535 -174.17835748445822 0.0 0.0
26.93550857086393 12.044634064297497 5.331492629988546 -169.72145154034905 0.0 0.0
71.93149870963813 23.90564468443013 13.305011044955862 -164.49398393626024 0.0 0.0
157.1756845988857 32.595684106946294 18.097614906174385 -155.4637774183473 0.0 0.0
372.2377690439621 -13.671677090482078 32.086865561264645 -149.34918362250465 0.0 0.0
585.0228022916046 20.519493764128164 227.8713218549105 -193.19109851785186 0.0 0.0
-588.7206329091366 -867.7552601426227 -650.1922136607327 1.666222715357435e-11 0.0 0.0
585.0228022923702 20.51949376509384 227.8713218555906 193.19109851798387 0.0 0.0
372.2377690434774 -13.671677090967165 32.08686556084889 149.3491836230806 0.0 0.0
157.17568459856784 32.595684106581444 18.097614905980578 155.46377741893997 0.0 0.0
71.93149870964723 23.905644684508275 13.305011044967117 164.4939839364573 0.0 0.0
26.93550857008259 12.044634063234497 5.331492629308116 169.72145154026128 0.0 0.0
6.075451189167339 5.423761403835179 1.981432893899921 174.17835748440882 0.0 0.0
-1.0646955074254834 2.0056386991046864 0.8191576636528168 179.39807851799682 0.0 0.0
-1.9798184380721295 0.7075574480622606 0.3311868970320049 186.79288534514913 0.0 0.0
-0.8261937545787816 0.1622407933856067 0.18356142233061945 196.58767003900533 0.0 0.0
-0.3368777856178298 0.0021190919298099686 -0.14319569777538277 206.3721976915557 0.0 0.0
0.04380335560439619 0.0007695064733592716 0.019674482249072867 207.41610149676416 0.0 0.0
-0.21084539157408244 -0.030011023899933598 -0.07581413603838882 213.82279328664356 0.0 0.0
-0.9208730243112004 0.08720874451982485 -0.25897710566032384 222.02758983144122 0.0 0.0
-2.8258634869890358 1.299161608904038 -0.457672591119167 218.42080116946727 0.0 0.0
-6.641760036140445 7.58898233461144 0.29039942587684076 200.82483325397317 0.0 0.0
-14.340835646145774 16.92512198395594 0.7750481292683431 184.6999747587654 0.0 0.0
-24.80589938283825 19.281630196664093 -1.661002633955496 180.64241827247537 0.0 0.0
-31.228242749263647 -4.7042301129557575 -10.772420325156755 184.3400772589263 0.0 0.0
22.36299100564851 -66.57897885522752 -12.498570135262774 181.4920432193088 0.0 0.0
-130.9020334718233 -547.6818098031347 -209.15864255165607 109.01603593744406 0.0 0.0
-104.75773027870292 -432.21404152945934 -161.0174884344385 -111.51617086357005 0.0 0.0
-11.236760649933496 -76.45774600835767 -26.316319648313353 -167.20738916830732 0.0 0.0
-55.20382544170549 -4.811214871092711 -18.010979040006657 -183.77055552294303 0.0 0.0
-66.39424308196259 17.83679434772218 -14.572227630477121 -182.26780938811768 0.0 0.0
-75.66100449394986 18.635209877053597 -17.10952813674257 -184.9371789109313 0.0 0.0
-96.32566452712594 11.210268857098415 -25.48664365739456 -198.22275215690212 0.0 0.0
-139.3630521829024 4.7175512751301225 -40.40923592343099 -214.18044644959932 0.0 0.0
-213.84674312579787 5.7538838073749545 -63.8497099675875 -216.000821877514 0.0 0.0
-313.99276500107317 12.105238889500095 -97.9421708917755 -201.86384200018827 0.0 0.0
-402.9751446225039 16.526510588966605 -137.02972605767678 -180.79777649857232 0.0 0.0
-463.9934271805853 9.068544716867748 -175.88646584034365 -167.87519136419908 0.0 0.0
-509.46584724391516 -1.667906331280264 -209.97963670414248 -162.58757860124697 0.0 0.0
-548.7318661345705 -9.934447838948714 -239.28290610724588 -160.60833973189082 0.0 0.0
-581.0486919172037 -15.062408370874678 -262.00945601451883 -159.41658946635215 0.0 0.0
-604.4420727514143 -16.615137338644587 -276.4343520220024 -159.45593320651244 0.0 0.0
-616.7265204035167 -13.169397894366071 -279.9309223094475 -161.56244287644842 0.0 0.0
-616.0663483975342 -4.769828454039683 -270.390611000634 -166.15970626417976 0.0 0.0
-609.5024541320067 2.2556270931736577 -249.02786272772644 -175.83952196124724 0.0 0.0
-590.2433812960758 49.52182635353112 -190.46952374186668 -189.72324732300555 0.0 0.0
-322.8235410501659 149.6089163810788 14.3789949502752 -147.73558608240774 0.0 0.0
-1144.0711338336228 -1120.195467152826 -1153.066494535144 -1.7885781744553242e-10 0.0 0.0
-322.8235410500486 149.60891638112858 14.378994950258743 147.73558608308454 0.0 0.0
-590.2433812960734 49.52182635346179 -190.46952374188982 189.7232473231764 0.0 0.0
-609.502454131481 2.255627093510583 -249.02786272736066 175.83952196146504 0.0 0.0
-616.066348397394 -4.769828453669703 -270.3906110005661 166.15970626426179 0.0 0.0
-616.7265204031329 -13.169397894145192 -279.930922309122 161.56244287635786 0.0 0.0
-604.4420727506556 -16.61513733780661 -276.43435202146094 159.4559332065545 0.0 0.0
-581.0486919173602 -15.062408371768932 -262.0094560146728 159.41658946640294 0.0 0.0
-548.7318661342276 -9.934447838796565 -239.28290610699491 160.60833973193868 0.0 0.0
-509.46584724356813 -1.6679063311742333 -209.97963670382538 162.58757860124504 0.0 0.0
-463.99342718096193 9.068544715936083 -175.88646584057577 167.87519136431985 0.0 0.0
-402.97514462137605 16.52651058981327 -137.02972605698685 180.79777649847912 0.0 0.0
-313.9927650009621 12.105238888290016 -97.9421708920585 201.86384200055832 0.0 0.0
-213.84674312493905 5.753883808097207 -63.84970996709573 216.000821877518 0.0 0.0
-139.3630521822346 4.717551275898855 -40.409235923006904 214.1804464494 0.0 0.0
-96.32566452689079 11.210268857095855 -25.486643657330312 198.2227521564593 0.0 0.0
-75.66100449380714 18.63520987703576 -17.109528136709052 184.93717891076872 0.0 0.0
-66.39424308168947 17.836794348143894 -14.57222763027255 182.26780938794172 0.0 0.0
-55.20382544167492 -4.811214871094773 -18.010979040000517 183.77055552277182 0.0 0.0
-11.23676064999703 -76.45774600838739 -26.316319648339004 167.20738916821594 0.0 0.0
-104.7577302786841 -432.21404152883775 -161.01748843429382 111.5161708635066 0.0 0.0
-87.19705798151352 -330.4636899319497 -125.3013819920073 -103.7612092726014 0.0 0.0
-32.85468567176331 -80.09662337540523 -33.8814250010646 -155.001172953968 0.0 0.0
-77.60208612801553 -5.1123870385893975 -24.804403069367176 -179.82966996417272 0.0 0.0
-106.07687631968338 16.477492416048957 -26.898634844663192 -179.02319882108137 0.0 0.0
-135.8376313649621 19.807607712108346 -34.73094720854778 -180.91179975955623 0.0 0.0
-184.72388019466052 14.533424770132692 -50.83157545475912 -190.32079950098108 0.0 0.0
-269.12408928223584 4.322300596992566 -81.87726314571397 -194.29047159118434 0.0 0.0
-382.03771234041994 -7.487406515262752 -135.813622277332 -185.0505011906444 0.0 0.0
-484.87088813681385 -18.8230280959804 -204.42840442542303 -170.15958633353867 0.0 0.0
-559.820402344615 -20.062994658081237 -259.90616085484476 -161.88528331769137 0.0 0.0
-614.5110680648919 -21.999853194254257 -299.37235899871894 -155.78853775904165 0.0 0.0
-661.8777015113328 -28.088428545441616 -330.73953793152424 -151.8385270625643 0.0 0.0
-705.8928194644271 -37.97717284460931 -359.8888022029851 -148.1059451484318 0.0 0.0
-743.3663832630207 -45.536098831806456 -383.5102881800662 -144.99719183293715 0.0 0.0
-772.4555886379208 -48.553730659685755 -400.13893508883416 -143.72121527876087 0.0 0.0
-789.4959159197066 -44.31683930231391 -406.76004349212985 -144.89441185373187 0.0 0.0
-794.2909399686821 -34.13618961274966 -403.7914751809192 -148.82140604095062 0.0 0.0
-786.947199274655 -20.50254956358947 -392.72465072822854 -155.49091407415784 0.0 0.0
-740.0206148726089 24.08519172543639 -347.42374410120044 -163.34011125086496 0.0 0.0
-636.1135517400065 112.26797797096864 -254.37790128888906 -170.81415394240432 0.0 0.0
-1922.317657723869 -1415.646349865474 -1633.1337931558887 4.5929482439532876e-11 0.0 0.0
-636.1135517399588 112.2679779707741 -254.37790128891362 170.81415394280575 0.0 0.0
-740.0206148720988 24.085191725765213 -347.4237441009137 163.34011125105985 0.0 0.0
-786.9471992745596 -20.502549563678272 -392.72465072813395 155.49091407443842 0.0 0.0
-794.2909399690135 -34.136189613123406 -403.7914751811313 148.8214060409901 0.0 0.0
-789.4959159193197 -44.31683930206661 -406.76004349190475 144.89441185372502 0.0 0.0
-772.455588637396 -48.553730659235455 -400.138935088393 143.72121527868768 0.0 0.0
-743.3663832622269 -45.53609883110563 -383.5102881795913 144.99719183293593 0.0 0.0
-705.8928194638117 -37.97717284422452 -359.8888022026302 148.1059451484609 0.0 0.0
-661.8777015102565 -28.088428544592496 -330.73953793077914 151.83852706257704 0.0 0.0
-614.5110680656 -21.99985319549608 -299.37235899922933 155.7885377591393 0.0 0.0
-559.8204023443153 -20.062994658102077 -259.9061608546061 161.8852833176066 0.0 0.0
-484.87088813631095 -18.823028096084133 -204.42840442503015 170.15958633361743 0.0 0.0
-382.03771233969667 -7.487406514882779 -135.81362227685975 185.05050119070668 0.0 0.0
-269.12408928169987 4.322300597214402 -81.8772631454572 194.29047159108543 0.0 0.0
-184.72388019439978 14.533424769828596 -50.831575454790276 190.3207995006833 0.0 0.0
-135.83763136471939 19.80760771220982 -34.7309472084522 180.9117997593971 0.0 0.0
-106.0768763195458 16.477492416085113 -26.89863484461583 179.02319882099493 0.0 0.0
-77.6020861278022 -5.112387038423405 -24.804403069255663 179.82966996398815 0.0 0.0
-32.8546856717707 -80.09662337547128 -33.88142500108587 155.00117295385564 0.0 0.0
-87.19705798138799 -330.46368993150844 -125.30138199183529 103.76120927255083 0.0 0.0
-70.82294269365559 -244.93429478495977 -94.72717124358458 -92.24486180373015 0.0 0.0
-48.45410441048969 -77.72709638639238 -37.85353711838299 -141.71876676874797 0.0 0.0
-98.1992510492847 -5.386092573665907 -31.066540037353903 -171.54778564232333 0.0 0.0
-144.15303262565908 15.16604733445808 -38.65859762811313 -171.9700795187793 0.0 0.0
-193.58215868399662 19.636496012450518 -52.08495499531842 -170.47985856010496 0.0 0.0
-269.4091451323751 13.191724255314885 -77.60441886569838 -171.14774798196245 0.0 0.0
-384.2411813411013 -5.5830477897855975 -129.61185801342813 -167.48072860094805 0.0 0.0
-499.3076354805877 -27.831428836367504 -209.2450152694602 -155.52722103306417 0.0 0.0
-591.1635583082908 -36.9455900734955 -283.62949384728296 -149.3550256378127 0.0 0.0
-655.9832564724122 -36.593563828951396 -331.6125784475399 -145.1170362696354 0.0 0.0
-706.8787521669333 -40.87349023479047 -365.2845045281829 -140.70400151168081 0.0 0.0
-755.6238435905708 -50.33318799149713 -396.1434590300985 -137.2921439216248 0.0 0.0
-803.446735506052 -63.26426126511447 -427.1820994590827 -133.6716799787345 0.0 0.0
-846.649842020396 -75.33399192658412 -455.2477160007212 -130.39941677000385 0.0 0.0
-881.9629982646048 -82.44156479833427 -476.76674353731204 -128.80095504059796 0.0 0.0
-904.0377558332752 -80.90460540698822 -487.2170685779376 -130.18777646694892 0.0 0.0
-910.6593532988181 -68.83784380321785 -484.5738312388119 -134.8596973724102 0.0 0.0
-891.7477069418208 -38.24875840515219 -459.9057473652092 -141.03564258739607 0.0 0.0
-837.8635828918074 18.701432778889412 -405.2153523801548 -146.05768988940315 0.0 0.0
-689.9842333947691 155.13403192670972 -266.91372457016587 -148.72092394580932 0.0 0.0
-2367.4027591127906 -1652.373668439353 -1983.1746502955475 1.2498091450652282e-10 0.0 0.0
-689.9842333955808 155.13403192555393 -266.913724570741 148.72092394622146 0.0 0.0
-837.863582890961 18.70143277964044 -405.2153523795655 146.05768988962845 0.0 0.0
-891.7477069421492 -38.24875840576186 -459.90574736543704 141.03564258767847 0.0 0.0
-910.659353298155 -68.83784380255648 -484.5738312383806 134.85969737239893 0.0 0.0
-904.0377558329501 -80.90460540685217 -487.2170685777124 130.18777646690518 0.0 0.0
-881.962998264202 -82.44156479800583 -476.7667435370106 128.80095504054367 0.0 0.0
-846.6498420201208 -75.33399192652061 -455.24771600051963 130.39941677006084 0.0 0.0
-803.4467355057639 -63.264261265053435 -427.1820994589316 133.67167997883493 0.0 0.0
-755.623843589935 -50.33318799104963 -396.1434590296991 137.29214392161185 0.0 0.0
-706.878752167002 -40.87349023521965 -365.2845045282683 140.70400151165197 0.0 0.0
-655.9832564727069 -36.593563829712004 -331.6125784477153 145.11703626973386 0.0 0.0
-591.1635583073553 -36.94559007286277 -283.62949384659044 149.35502563777254 0.0 0.0
-499.30763548028665 -27.831428836693135 -209.2450152692171 155.52722103318942 0.0 0.0
-384.24118134035456 -5.583047789377516 -129.61185801295053 167.48072860089965 0.0 0.0
-269.40914513188136 13.191724255268197 -77.6044188655731 171.14774798186372 0.0 0.0
-193.58215868354864 19.636496012844155 -52.0849549950785 170.47985855985522 0.0 0.0
-144.15303262557885 15.166047334277327 -38.65859762815084 171.9700795186581 0.0 0.0
-98.1992510491661 -5.386092573543839 -31.06654003728055 171.5477856421494 0.0 0.0
-48.45410441055861 -77.72709638659524 -37.853537118465425 141.7187667686382 0.0 0.0
-70.82294269356359 -244.9342947846312 -94.72717124345843 92.24486180364559 0.0 0.0
-57.60805774478804 -173.46095030577433 -69.32070241516871 -79.05892922728245 0.0 0.0
-60.36869760848232 -70.9481801265731 -39.395239477871975 -126.46409414083922 0.0 0.0
-117.43766282897943 -5.4186894843762445 -36.8525363586948 -159.2371345257555 0.0 0.0
-180.00033140480045 13.201886465930679 -50.022736385513255 -159.84318770833488 0.0 0.0
-250.20712482242268 18.33633117186864 -69.30014104788454 -156.08876078935845 0.0 0.0
-353.4423227574315 8.282183752356827 -107.09092056202404 -149.12998634904065 0.0 0.0
-476.56679998612924 -21.083006686595112 -181.27224737773926 -136.99650249181187 0.0 0.0
-586.5793934376964 -42.45165174012213 -272.2203092779872 -131.3550256354397 0.0 0.0
-667.50167065797 -48.071992504626834 -339.5945650261174 -129.05779259271065 0.0 0.0
-724.4030907690735 -53.04464938554818 -381.17114720388736 -125.81246498829873 0.0 0.0
-777.417134012936 -59.16452637355532 -413.533119629776 -123.88636134282825 0.0 0.0
-828.7848102798037 -71.2079827969185 -445.85533681880975 -121.08380511375636 0.0 0.0
-880.486117434191 -87.8820967961705 -480.2949136944035 -117.78991681251463 0.0 0.0
-929.6477931130362 -104.98129710168976 -513.6474362329901 -114.53318686536718 0.0 0.0
-971.4540754446798 -117.59885964354211 -541.0736071651265 -112.6294062285999 0.0 0.0
-998.6909242992085 -118.56409519572796 -555.3765009985718 -113.87594409179835 0.0 0.0
-1001.5379385310923 -101.34925002099331 -548.4037542043081 -118.1053287753201 0.0 0.0
-970.7228246997139 -55.61146029183388 -510.3888173386366 -123.57458228938069 0.0 0.0
-889.6143822143065 31.61243503605779 -427.1694730612048 -126.83783401553843 0.0 0.0
-720.8863422410913 191.24626757911426 -265.3407387233044 -126.98794014541036 0.0 0.0
-2717.983288456197 -1894.5410839503584 -2285.6417104619513 1.2371614843686984e-10 0.0 0.0
-720.8863422412435 191.2462675786876 -265.3407387233358 126.98794014579266 0.0 0.0
-889.6143822144567 31.612435035836953 -427.1694730613325 126.83783401573191 0.0 0.0
-970.7228246992131 -55.611460291507356 -510.3888173383151 123.57458228947092 0.0 0.0
-1001.5379385317376 -101.34925002178619 -548.4037542048686 118.1053287755638 0.0 0.0
-998.6909242985098 -118.56409519512641 -555.3765009981347 113.87594409173934 0.0 0.0
-971.4540754445228 -117.59885964350195 -541.0736071649657 112.62940622859256 0.0 0.0
-929.6477931123403 -104.98129710115226 -513.6474362324467 114.53318686525674 0.0 0.0
-880.4861174347711 -87.88209679709429 -480.2949136948937 117.78991681272228 0.0 0.0
-828.7848102791818 -71.20798279646627 -445.85533681842884 121.08380511366536 0.0 0.0
-777.4171340125254 -59.16452637333773 -413.53311962954035 123.88636134273551 0.0 0.0
-724.4030907694977 -53.04464938645689 -381.17114720416805 125.81246498843265 0.0 0.0
-667.5016706572341 -48.071992504197326 -339.594565025583 129.0577925926883 0.0 0.0
-586.5793934374724 -42.45165174042099 -272.2203092777104 131.3550256354962 0.0 0.0
-476.5667999851264 -21.083006685751393 -181.27224737697688 136.99650249160854 0.0 0.0
-353.44232275695106 8.282183752426047 -107.09092056181457 149.12998634897 0.0 0.0
-250.20712482204306 18.33633117188458 -69.30014104779364 156.08876078912533 0.0 0.0
-180.00033140471234 13.201886465805575 -50.02273638553052 159.8431877080947 0.0 0.0
-117.43766282895739 -5.4186894844074835 -36.852536358696135 159.23713452561603 0.0 0.0
-60.3686976085102 -70.94818012669403 -39.3952394779166 126.46409414081342 0.0 0.0
-57.608057744709626 -173.4609503055233 -69.32070241506986 79.05892922714952 0.0 0.0
-47.91994284022135 -115.43661452656833 -49.00696721003689 -65.24282717935988 0.0 0.0
-69.75184147922624 -61.17394322319191 -39.27773541072544 -109.13990473591555 0.0 0.0
-135.51470499772205 -4.966025168694232 -42.14457346326556 -142.851193490172 0.0 0.0
-214.0324834462759 11.04562318212535 -60.83575257427757 -143.77560987345697 0.0 0.0
-304.67330199633045 13.467737493998918 -87.57728609344757 -134.9959535390164 0.0 0.0
-429.0373830186687 -2.31419587108131 -140.54720629362217 -122.08421640996889 0.0 0.0
-552.4915044234417 -34.77541730266129 -231.7765947443928 -110.80287537862776 0.0 0.0
-653.5604325812067 -51.425883537012545 -322.28016944847775 -109.03724728345149 0.0 0.0
-722.3844867737484 -60.88693060924264 -381.2858895222728 -107.30859471448709 0.0 0.0
-782.1185190280216 -66.85514802026022 -420.0509621422278 -107.21132451143359 0.0 0.0
-836.5259260408892 -76.73502508898181 -453.6080977176014 -105.97361539946503 0.0 0.0
-891.2799073330494 -92.17696139841031 -488.9492938566798 -103.67854445495149 0.0 0.0
-946.8901430499756 -112.32744132652432 -526.933040427778 -100.86332875958445 0.0 0.0
-1001.0042655423435 -133.6392570800623 -564.751913097175 -97.91843973019037 0.0 0.0
-1049.7087905490437 -152.2023200251792 -598.5193065525463 -95.77395844990345 0.0 0.0
-1081.3604165656643 -156.84044379465777 -616.9169221479617 -96.07755121386023 0.0 0.0
-1080.3039408310988 -132.4099775652432 -604.4669691220894 -99.64461989897745 0.0 0.0
-1031.6625848127142 -67.52819554492802 -548.1075284298443 -104.32914069960233 0.0 0.0
-924.5679776142515 46.342284089314916 -438.40691089607617 -107.00716388455697 0.0 0.0
-744.8463514698445 217.2702631499679 -264.349231915647 -109.05582159958581 0.0 0.0
-3018.091532799832 -2123.7270944569073 -2554.465833476476 9.675460432845284e-11 0.0 0.0
-744.8463514690418 217.270263150622 -264.3492319150789 109.05582159980968 0.0 0.0
-924.5679776151651 46.34228408826702 -438.40691089671327 107.00716388483202 0.0 0.0
-1031.6625848120514 -67.52819554430303 -548.1075284294545 104.32914069954205 0.0 0.0
-1080.3039408319892 -132.40997756637512 -604.4669691227363 99.64461989925395 0.0 0.0
-1081.3604165652926 -156.8404437945028 -616.9169221476479 96.07755121402755 0.0 0.0
-1049.7087905486603 -152.2023200249535 -598.5193065522278 95.77395844999748 0.0 0.0
-1001.0042655411004 -133.63925707894376 -564.7519130962302 97.91843973012286 0.0 0.0
-946.8901430500339 -112.3274413269328 -526.93304042803 100.86332875974911 0.0 0.0
-891.2799073327609 -92.1769613982423 -488.9492938565098 103.67854445491298 0.0 0.0
-836.5259260410016 -76.7350250893492 -453.60809771771505 105.97361539935436 0.0 0.0
-782.1185190280943 -66.85514802071833 -420.0509621423173 107.21132451152062 0.0 0.0
-722.3844867734323 -60.886930609249596 -381.28588952202387 107.30859471458277 0.0 0.0
-653.5604325808556 -51.42588353704299 -322.2801694481093 109.03724728340454 0.0 0.0
-552.4915044226112 -34.775417302111045 -231.7765947436977 110.80287537856915 0.0 0.0
-429.03738301825945 -2.3141958711803325 -140.5472062933973 122.08421640986549 0.0 0.0
-304.67330199593647 13.467737493947782 -87.57728609336317 134.9959535388314 0.0 0.0
-214.0324834460178 11.045623182396952 -60.835752574120484 143.77560987326322 0.0 0.0
-135.51470499756684 -4.966025168577625 -42.144573463182795 142.85119349013766 0.0 0.0
-69.75184147913278 -61.1739432231686 -39.2777354106904 109.13990473590273 0.0 0.0
-47.91994284003738 -115.43661452633303 -49.00696720991111 65.2428271791706 0.0 0.0
-41.50691863736772 -70.49796439450941 -33.60146490956313 -51.17515196146501 0.0 0.0
-77.04393983306676 -49.68642606669253 -38.019109769927795 -89.90221856127658 0.0 0.0
-152.50525610699196 -3.9554883096484392 -46.938604821303066 -122.44739826587418 0.0 0.0
-246.62863337095786 7.853005555921839 -71.58179580344986 -123.02559402369162 0.0 0.0
-361.6180510611029 7.532762297166116 -107.13318666640117 -111.2013007111776 0.0 0.0
-491.39167382751276 -18.207690007621785 -177.57017818556932 -92.01990871634412 0.0 0.0
-614.1590990015397 -43.88437316300798 -276.9495072047092 -87.19076585220317 0.0 0.0
-700.549303583502 -60.83769720495551 -360.92495511002215 -86.50015596386095 0.0 0.0
-770.5305833480047 -70.84310394417338 -414.3254066871963 -87.10683448305784 0.0 0.0
-830.9889735688149 -80.90767171387942 -453.14019817969285 -87.74389781322492 0.0 0.0
-888.8124721315114 -94.50595027643656 -489.5784300289997 -87.08330160944108 0.0 0.0
-947.0759021192671 -113.21670379822842 -528.1878207560337 -85.33026214708892 0.0 0.0
-1006.159525968101 -136.27842646128894 -569.312246420831 -83.10453444794958 0.0 0.0
-1064.018447844503 -161.66716587311365 -610.978850726384 -80.6585359305421 0.0 0.0
-1117.76787631684 -184.3072466650877 -649.2393150712619 -78.39494609861671 0.0 0.0
-1155.287989839271 -193.1958854127033 -672.6683255970547 -77.54916897985004 0.0 0.0
-1152.5389205735073 -166.20163656929563 -658.2001712686899 -79.59752564574376 0.0 0.0
-1086.928916140565 -82.71800817794121 -584.1182819920112 -83.81065034157561 0.0 0.0
-954.8389733879202 57.01764656962706 -448.7517230309402 -88.01484434670354 0.0 0.0
-759.6013941558033 242.79366845590403 -258.8278972906042 -93.97706895646985 0.0 0.0
-3278.64470989843 -2332.0866994471826 -2792.0323565958365 9.565681580170349e-11 0.0 0.0
-759.6013941548065 242.7936684568702 -258.82789728991384 93.97706895649546 0.0 0.0
-954.8389733879974 57.01764656937652 -448.75172303099015 88.01484434702942 0.0 0.0
-1086.9289161410502 -82.71800817850558 -584.1182819924614 83.81065034169634 0.0 0.0
-1152.5389205748857 -166.20163657081903 -658.2001712696929 79.59752564586293 0.0 0.0
-1155.2879898378787 -193.19588541144813 -672.6683255960369 77.54916897988957 0.0 0.0
-1117.76787631692 -184.30724666533334 -649.2393150712925 78.39494609865933 0.0 0.0
-1064.0184478437106 -161.66716587246773 -610.9788507257493 80.65853593050004 0.0 0.0
-1006.1595259678156 -136.27842646119723 -569.312246420769 83.10453444794459 0.0 0.0
-947.0759021196347 -113.2167037988261 -528.1878207562378 85.33026214705384 0.0 0.0
-888.8124721306656 -94.50595027580214 -489.57843002846465 87.08330160930474 0.0 0.0
-830.9889735683637 -80.90767171367294 -453.14019817942733 87.74389781310192 0.0 0.0
-770.5305833480628 -70.8431039446202 -414.325406687184 87.10683448322537 0.0 0.0
-700.5493035835447 -60.83769720539452 -360.924955109937 86.50015596390963 0.0 0.0
-614.159099001218 -43.88437316310349 -276.9495072042922 87.19076585216652 0.0 0.0
-491.39167382680483 -18.207690007229623 -177.57017818507703 92.0199087162236 0.0 0.0
-361.6180510605289 7.532762297366082 -107.13318666617317 111.2013007110757 0.0 0.0
-246.62863337059855 7.853005556288274 -71.58179580323365 123.02559402364372 0.0 0.0
-152.50525610685213 -3.9554883095674183 -46.93860482123688 122.44739826582466 0.0 0.0
-77.04393983305296 -49.68642606663927 -38.01910976990767 89.90221856116278 0.0 0.0
-41.50691863740034 -70.49796439442352 -33.60146490954715 51.175151961448165 0.0 0.0
-37.69951371006398 -38.40541606976004 -22.831478933947203 -37.22671526283269 0.0 0.0
-82.12636909124504 -37.627980808339885 -35.92630496987547 -68.97958065246448 0.0 0.0
-168.19804482022008 -2.5562282210535066 -51.22653615226403 -97.8845292388072 0.0 0.0
-279.12288657015864 3.6333747988611953 -82.56126163066867 -97.82324748829255 0.0 0.0
-415.7696568233237 -2.3195938680129133 -129.3513213282948 -82.3077013167368 0.0 0.0
-550.6313371697512 -29.88367632370449 -214.7972674923497 -66.7327207407978 0.0 0.0
-658.4160390470043 -52.141208764994644 -315.46747829663 -64.99607272839665 0.0 0.0
-740.0011669428186 -67.53236726701206 -390.64458799777475 -65.14660990255324 0.0 0.0
-810.8680171080204 -81.33854578409353 -442.10829728461084 -66.4966543791648 0.0 0.0
-874.4495857460071 -95.148835614097 -482.8854028780645 -67.54400767545313 0.0 0.0
-935.6801853017531 -112.41430439745207 -522.5683317622108 -67.31346647211525 0.0 0.0
-997.6990374177161 -134.50828133544803 -564.6962748305617 -66.08491938140725 0.0 0.0
-1060.0002795909304 -160.97429802663473 -609.1146507634742 -64.42880129417117 0.0 0.0
-1120.3775564609266 -187.42276195782924 -652.541884326599 -62.70169022411888 0.0 0.0
-1175.9754855912859 -212.00864704642092 -692.6472011338906 -60.66150320270693 0.0 0.0
-1218.980692134494 -226.21279228691466 -721.4059014673153 -58.661441512965055 0.0 0.0
-1223.406431280029 -204.7920222808862 -713.3222114534174 -58.6058388456806 0.0 0.0
-1148.4563559425717 -110.55937949241601 -629.2639027899927 -62.36174693337657 0.0 0.0
-987.3891828048068 58.94535633721134 -464.39031939073357 -69.34328059867615 0.0 0.0
-761.561499837202 275.6613167957521 -243.26196999099236 -80.30828035993139 0.0 0.0
-3499.929682116556 -2510.2557108952446 -2994.2132295336546 5.831779503751022e-11 0.0 0.0
-761.5614998369414 275.6613167960279 -243.26196999080452 80.30828035987521 0.0 0.0
-987.389182804915 58.94535633697449 -464.3903193908586 69.34328059883376 0.0 0.0
-1148.456355942916 -110.55937949284929 -629.2639027902219 62.36174693352471 0.0 0.0
-1223.4064312819696 -204.79202228301284 -713.3222114548693 58.60583884573785 0.0 0.0
-1218.9806921330878 -226.21279228558586 -721.405901466273 58.66144151302488 0.0 0.0
-1175.9754855916515 -212.0086470469784 -692.6472011341934 60.66150320270781 0.0 0.0
-1120.377556460773 -187.42276195781332 -652.5418843264238 62.70169022408192 0.0 0.0
-1060.0002795906162 -160.9742980265321 -609.1146507632806 64.4288012941182 0.0 0.0
-997.6990374173948 -134.50828133533295 -564.6962748303536 66.08491938131914 0.0 0.0
-935.6801853012626 -112.41430439721847 -522.5683317619307 67.31346647210881 0.0 0.0
-874.4495857457928 -95.14883561413313 -482.8854028779084 67.54400767540206 0.0 0.0
-810.8680171077286 -81.33854578410643 -442.1082972844026 66.49665437914176 0.0 0.0
-740.0011669428405 -67.53236726739357 -390.6445879977043 65.14660990262115 0.0 0.0
-658.4160390467688 -52.141208765149145 -315.4674782962738 64.99607272830413 0.0 0.0
-550.6313371686882 -29.883676322931436 -214.79726749158334 66.73272074080816 0.0 0.0
-415.7696568228776 -2.319593867994396 -129.35132132810807 82.30770131678285 0.0 0.0
-279.1228865699724 3.633374798461134 -82.56126163075996 97.82324748818635 0.0 0.0
-168.1980448200739 -2.5562282209781024 -51.226536152197255 97.88452923869445 0.0 0.0
-82.12636909118038 -37.627980808346706 -35.926304969858116 68.9795806524158 0.0 0.0
-37.699513709857484 -38.40541606958609 -22.83147893383307 37.22671526281403 0.0 0.0
-35.27849746311418 -18.792832863633137 -16.221399098024193 -24.1621696849606 0.0 0.0
-84.26302665785299 -26.173114443710944 -33.13084233046918 -46.67101827491523 0.0 0.0
-182.24141233993717 -1.282429997229221 -55.05715270114991 -68.66287278288064 0.0 0.0
-313.0158411164351 -1.30769700559796 -94.09359053784584 -67.67435365996937 0.0 0.0
-465.7735614223075 -15.470331891747735 -154.89323244913066 -51.77564356975428 0.0 0.0
-598.106233885551 -39.122979662077746 -250.61256029065535 -43.61120659386853 0.0 0.0
-690.7397304026131 -58.17497646895002 -345.6158198422837 -43.324726366837474 0.0 0.0
-773.6393061888635 -75.06396383089292 -415.67492552204106 -44.26153489576092 0.0 0.0
-846.4093054420641 -92.42820617827316 -466.7477045505628 -45.5449828313034 0.0 0.0
-913.2717925574254 -109.74060310801961 -510.1315426527299 -46.593194580984466 0.0 0.0
-978.4094277423912 -130.49770888072374 -553.3842734596417 -46.69896698754678 0.0 0.0
-1043.8094349510202 -155.96306673454777 -598.8797616360938 -45.979422710512495 0.0 0.0
-1109.4982430847551 -184.4743462297624 -645.9981179509304 -45.00216820350081 0.0 0.0
-1171.6851557835625 -213.22902958452684 -691.4891617159509 -43.87066880364661 0.0 0.0
-1226.7712129758418 -236.72597294127345 -730.7986068822113 -42.36631539886789 0.0 0.0
-1268.638318004293 -249.4052999485698 -758.1333082123675 -40.12551265167395 0.0 0.0
-1285.4574518741613 -240.09987410476012 -762.1242894203655 -38.026823720599296 0.0 0.0
-1236.07867825896 -170.09391054698276 -702.9798306599304 -39.79023617846471 0.0 0.0
-1041.2173936494105 35.08526073893742 -503.4978529319464 -49.41008792733428 0.0 0.0
-737.650266441919 331.00999414176636 -203.65465034604065 -66.89516112871613 0.0 0.0
-3668.2845158303503 -2640.805261142301 -3145.6921661819097 5.041300710217911e-11 0.0 0.0
-737.6502664416433 331.009994142014 -203.65465034583815 66.89516112867248 0.0 0.0
-1041.217393650168 35.08526073809463 -503.49785293256093 49.4100879274248 0.0 0.0
-1236.078678258688 -170.09391054680245 -702.9798306597812 39.79023617858958 0.0 0.0
-1285.4574518749337 -240.09987410564491 -762.1242894209207 38.02682372058166 0.0 0.0
-1268.6383180038065 -249.40529994821026 -758.1333082118969 40.125512651673425 0.0 0.0
-1226.7712129753563 -236.72597294096627 -730.7986068818936 42.36631539888126 0.0 0.0
-1171.6851557829928 -213.22902958416935 -691.4891617155038 43.870668803760346 0.0 0.0
-1109.4982430844525 -184.47434622966688 -645.9981179508334 45.002168203559826 0.0 0.0
-1043.8094349510288 -155.96306673475908 -598.879761636055 45.97942271041614 0.0 0.0
-978.409427742313 -130.49770888090137 -553.3842734595953 46.698966987438716 0.0 0.0
-913.2717925572817 -109.74060310820133 -510.1315426526472 46.593194581118844 0.0 0.0
-846.4093054414966 -92.42820617795947 -466.74770455016693 45.54498283122278 0.0 0.0
-773.6393061886467 -75.06396383100606 -415.6749255218292 44.2615348957723 0.0 0.0
-690.7397304020566 -58.17497646872982 -345.6158198417434 43.32472636674505 0.0 0.0
-598.1062338847892 -39.12297966159521 -250.61256029001964 43.611206593896284 0.0 0.0
-465.77356142190604 -15.470331891823196 -154.8932324489479 51.77564356977915 0.0 0.0
-313.01584111634924 -1.307697006085311 -94.09359053798497 67.67435366002685 0.0 0.0
-182.24141233973745 -1.2824299971343964 -55.057152701061575 68.66287278268037 0.0 0.0
-84.26302665775971 -26.17311444368122 -33.130842330432266 46.67101827482513 0.0 0.0
-35.27849746312939 -18.79283286364515 -16.22139909803236 24.162169685014344 0.0 0.0
-31.94000210526279 -10.635299152007528 -12.772590377181093 -13.640143625436068 0.0 0.0
-81.96935033947818 -16.978530423631703 -29.684364228932967 -23.38284134308103 0.0 0.0
-194.09942047809272 -1.1097465203653414 -58.56275009953741 -33.46281348988298 0.0 0.0
-348.81179522779496 -6.061913040265025 -106.48622111067995 -32.04538232695011 0.0 0.0
-515.3139086031031 -26.32740260961285 -182.23882532189603 -23.22898012217752 0.0 0.0
-632.592532395532 -45.94131364833018 -282.44040240829014 -22.35472423604216 0.0 0.0
-719.6289745083875 -61.93215536720029 -369.58181529894017 -23.21757766020166 0.0 0.0
-802.4858265367554 -83.13372344013442 -436.9684979490771 -23.701618197186818 0.0 0.0
-877.8740161114615 -103.67222433585775 -488.85108651323634 -24.279170634871498 0.0 0.0
-948.4004769873205 -124.92532137222173 -535.6483749161528 -24.937162053808212 0.0 0.0
-1017.1691419617354 -148.94124124518538 -582.2898878809912 -25.210213832401866 0.0 0.0
-1086.1116183255263 -176.7677571745926 -630.7370080773305 -25.094874795976672 0.0 0.0
-1154.5174453230663 -208.33906903714285 -680.7410237812336 -24.6969374387703 0.0 0.0
-1219.0138172174343 -238.18644914194678 -727.930381474001 -24.168034403444175 0.0 0.0
-1272.4537067836245 -259.68409068621077 -765.4356037504842 -23.346002789882764 0.0 0.0
-1308.5001673465215 -266.6076367533125 -786.9794549750633 -21.75491069032604 0.0 0.0
-1324.5020187375958 -256.860926153058 -790.1520887656858 -19.238556533965355 0.0 0.0
-1319.4076857122832 -230.65231135192826 -774.6482629688294 -18.02141070432747 0.0 0.0
-1209.8588237163683 -107.90923835128748 -659.1980784101249 -25.62736658224802 0.0 0.0
-716.7394980800807 381.8148685837809 -168.09450653421615 -50.07438967637206 0.0 0.0
-3627.987995945144 -2564.609463545571 -3089.561228711034 -4.447642254490347e-11 0.0 0.0
-716.739498079683 381.81486858415275 -168.09450653392622 50.074389676352794 0.0 0.0
-1209.8588237170281 -107.90923835201806 -659.1980784107102 25.62736658224661 0.0 0.0
-1319.4076857125274 -230.6523113522618 -774.6482629690981 18.021410704333782 0.0 0.0
-1324.5020187370221 -256.8609261526199 -790.1520887652645 19.23855653400075 0.0 0.0
-1308.5001673460422 -266.60763675298125 -786.9794549747376 21.75491069038768 0.0 0.0
-1272.4537067831084 -259.6840906858472 -765.4356037500924 23.34600278997485 0.0 0.0
-1219.0138172170148 -238.18644914170474 -727.9303814736608 24.168034403387573 0.0 0.0
-1154.5174453220081 -208.3390690362978 -680.7410237805847 24.69693743873277 0.0 0.0
-1086.1116183258434 -176.76775717514903 -630.7370080775123 25.094874795865625 0.0 0.0
-1017.1691419607611 -148.9412412444675 -582.2898878802856 25.21021383242289 0.0 0.0
-948.400476987114 -124.92532137229351 -535.648374915967 24.937162053861556 0.0 0.0
-877.8740161106128 -103.67222433528116 -488.851086512672 24.279170634802107 0.0 0.0
-802.485826535874 -83.1337234395385 -436.9684979484495 23.70161819708947 0.0 0.0
-719.6289745077913 -61.93215536689186 -369.581815298443 23.217577660057735 0.0 0.0
-632.5925323949355 -45.94131364809291 -282.4404024077338 22.35472423598635 0.0 0.0
-515.313908602391 -26.32740260925211 -182.23882532144088 23.228980122172985 0.0 0.0
-348.8117952272713 -6.061913040008822 -106.48622111046667 32.04538232701937 0.0 0.0
-194.09942047787624 -1.1097465202542645 -58.562750099439164 33.46281348964087 0.0 0.0
-81.96935033932067 -16.97853042350152 -29.68436422884664 23.382841342955004 0.0 0.0
-31.940002105216116 -10.635299152032843 -12.772590377174685 13.640143625458363 0.0 0.0
-20.674996788677063 -5.376477587497774 -7.815442312852452 -8.393765590462685 0.0 0.0
-71.23570548342607 -9.672848748293154 -24.27256626951576 -9.715194324261388 0.0 0.0
-202.96713526630504 -2.971566244852781 -61.78161045334735 -11.178505135586851 0.0 0.0
-392.32184781774424 -22.32435418278915 -125.83109948994556 -8.213305203375949 0.0 0.0
-583.2330831763085 -69.45572425828257 -228.34297321588107 -0.3114388469848457 0.0 0.0
-721.3358241070389 -116.85903468210073 -356.7351702201079 1.2927080792371584 0.0 0.0
-840.8113937933517 -168.21206283813365 -475.1820333790804 0.7359724131984358 0.0 0.0
-967.1092127549608 -234.36159912948958 -585.1153971559996 -0.6901313342947191 0.0 0.0
-1100.03289746903 -313.28345209202683 -694.7391233523069 -2.2964741488452347 0.0 0.0
-1248.12017179855 -411.8544478860713 -818.8317152822408 -3.995026573126772 0.0 0.0
-1417.0906045129746 -535.4287553458848 -965.0347855445419 -5.602571977165018 0.0 0.0
-1607.5273922223923 -684.9487756916748 -1134.6592377544848 -6.901698602084419 0.0 0.0
-1813.9936851454556 -853.4941635885494 -1321.7375978198247 -7.771335965185271 0.0 0.0
-2026.7248785444283 -1031.1424510199724 -1516.5756076970024 -8.487196523677808 0.0 0.0
-2229.821596606565 -1201.9357701076879 -1703.2708140239054 -8.863416438100906 0.0 0.0
-2401.2371124416336 -1344.124852928602 -1859.9734917073893 -8.619907530545547 0.0 0.0
-2514.3371596251914 -1431.8553696205713 -1960.437292006139 -7.320881182011647 0.0 0.0
-2553.7750088920734 -1450.6602912788858 -1989.3347398772412 -5.595406283427614 0.0 0.0
-2593.506921018522 -1475.7643648719627 -2020.4267548999899 -11.485445761848657 0.0 0.0
-2650.400870618522 -1531.1537990654067 -2073.922713350306 -39.59390300877442 0.0 0.0
-6077.834748103397 -4986.576048962432 -5507.800619789778 -2.0517632037808653e-10 0.0 0.0
-2650.40087061842 -1531.1537990653514 -2073.922713350208 39.59390300877507 0.0 0.0
-2593.5069210181996 -1475.7643648717058 -2020.4267548997145 11.485445761786416 0.0 0.0
-2553.7750088915836 -1450.6602912784933 -1989.3347398766791 5.595406283400159 0.0 0.0
-2514.337159622713 -1431.85536961821 -1960.4372920041315 7.320881182044964 0.0 0.0
-2401.23711244023 -1344.124852927329 -1859.9734917062754 8.619907530590218 0.0 0.0
-2229.821596606198 -1201.9357701074928 -1703.2708140234222 8.863416438232186 0.0 0.0
-2026.7248785438242 -1031.142451019586 -1516.575607696261 8.487196523683075 0.0 0.0
-1813.9936851423458 -853.4941635856235 -1321.737597817449 7.7713359652832 0.0 0.0
-1607.5273922220895 -684.9487756916125 -1134.6592377541401 6.901698601894385 0.0 0.0
-1417.090604511607 -535.4287553447981 -965.0347855433259 5.6025719773521345 0.0 0.0
-1248.1201717981742 -411.85444788596755 -818.8317152817257 3.9950265731231696 0.0 0.0
-1100.0328974676218 -313.2834520908848 -694.7391233512842 2.2964741488810994 0.0 0.0
-967.1092127530649 -234.36159912785342 -585.1153971546655 0.6901313341131114 0.0 0.0
-840.8113937931286 -168.21206283827237 -475.182033378762 -0.7359724133488506 0.0 0.0
-721.3358241061287 -116.85903468150113 -356.7351702192985 -1.292708079274938 0.0 0.0
-583.2330831754656 -69.45572425773031 -228.34297321527157 0.311438847024867 0.0 0.0
-392.32184781709054 -22.324354182099352 -125.83109948954137 8.213305203427876 0.0 0.0
-202.96713526609284 -2.9715662446865707 -61.78161045323384 11.178505135382803 0.0 0.0
-71.23570548330612 -9.672848748223704 -24.272566269458938 9.715194324353794 0.0 0.0
-20.67499678863165 -5.37647758747223 -7.815442312831164 8.39376559025018 0.0 0.0
SCALARS Strain float 6
LOOKUP_TABLE default
0.014237152009611485 -0.02376757660119886 0.0 -0.001339553637190807 0.0 0.0
0.00874317907866957 -0.0025394174449701163 0.0 -0.0072375461360718145 0.0 0.0
0.0025992246377067 -0.0006175437464321723 0.0 -0.0008410515990442827 0.0 0.0
0.002224448968891709 -0.0008868792119781658 0.0 2.3643817363232595e-06 0.0 0.0
0.003247860462588249 -0.0014088981448943214 0.0 0.0001737373293570844 0.0 0.0
0.0054819782764689885 -0.0030843532879420736 0.0 0.00032502011791496347 0.0 0.0
0.00934796500557612 -0.00637352750067899 0.0 0.00043271015357860783 0.0 0.0
0.015158795129236909 -0.01158729624461495 0.0 0.000471553293456642 0.0 0.0
0.023165634882281884 -0.018950577155359232 0.0 0.0004424129906960914 0.0 0.0
0.03346438058514086 -0.02850319227125675 0.0 0.0003194858074976026 0.0 0.0
0.045998309249681776 -0.040153781844106284 0.0 0.00013685567162595176 0.0 0.0
0.06062405795075489 -0.0537556941282836 0.0 -0.00010156910183801114 0.0 0.0
0.07716030222253498 -0.06916121589445542 0.0 -0.00042355965569865173 0.0 0.0
0.09541323536253904 -0.08621858726094798 0.0 -0.0007822144696268292 0.0 0.0
0.11510384814947011 -0.1047041057097515 0.0 -0.0012098522308048357 0.0 0.0
0.1357166377409936 -0.12416405682675069 0.0 -0.0016935639278437805 0.0 0.0
0.1563961551372372 -0.14380546962132923 0.0 -0.002139447159957021 0.0 0.0
0.17593794561989323 -0.1624869134395964 0.0 -0.002377065003060513 0.0 0.0
0.19290462271919406 -0.17878687540247457 0.0 -0.0022372982546313347 0.0 0.0
0.2055526581897542 -0.1910411739740328 0.0 -0.002520347421599322 0.0 0.0
0.2105496368625263 -0.19609400169224117 0.0 4.883246584874712e-15 0.0 0.0
0.20555265818972612 -0.191041173973999 0.0 0.0025203474216092276 0.0 0.0
0.19290462271913492 -0.17878687540242108 0.0 0.002237298254637603 0.0 0.0
0.17593794561981035 -0.16248691343951738 0.0 0.0023770650030664683 0.0 0.0
0.15639615513714253 -0.14380546962123503 0.0 0.0021394471599559175 0.0 0.0
0.135716637740895 -0.12416405682666004 0.0 0.0016935639278404515 0.0 0.0
0.11510384814937005 -0.10470410570965702 0.0 0.0012098522308037424 0.0 0.0
0.09541323536243847 -0.08621858726085171 0.0 0.0007822144696290161 0.0 0.0
0.07716030222243761 -0.06916121589436929 0.0 0.0004235596556963492 0.0 0.0
0.060624057950665305 -0.05375569412819238 0.0 0.00010156910183217824 0.0 0.0
0.045998309249602735 -0.040153781844035716 0.0 -0.00013685567162921618 0.0 0.0
0.03346438058507751 -0.02850319227119956 0.0 -0.000319485807499024 0.0 0.0
0.02316563488223512 -0.018950577155315326 0.0 -0.00044241299069737276 0.0 0.0
0.015158795129202682 -0.011587296244587141 0.0 -0.00047155329345566904 0.0 0.0
0.009347965005553802 -0.006373527500660639 0.0 -0.000432710153579487 0.0 0.0
0.0054819782764568385 -0.0030843532879345176 0.0 -0.00032502011791493305 0.0 0.0
0.003247860462582762 -0.00140889814489021 0.0 -0.0001737373293556311 0.0 0.0
0.002224448968889648 -0.0008868792119809228 0.0 -2.364381734877032e-06 0.0 0.0
0.0025992246377045925 -0.0006175437464318795 0.0 0.0008410515990430419 0.0 0.0
0.008743179078664022 -0.0025394174449663255 0.0 0.0072375461360652555 0.0 0.0
0.014237152009603418 -0.023767576601173675 0.0 0.0013395536371397262 0.0 0.0
0.009934098071849272 -0.021307171048551597 0.0 -0.000868260245150075 0.0 0.0
0.005817693095042012 -0.0018976675623197043 0.0 -0.005890397637061622 0.0 0.0
0.001715645620129108 -0.00047522524149445 0.0 -0.0005350438031584823 0.0 0.0
0.001963164531443039 -0.0008343300262193244 0.0 -0.00019480170037056139 0.0 0.0
0.0027990428962292872 -0.0012686308935746609 0.0 -0.0001519568382367288 0.0 0.0
0.0046982884618523854 -0.0027624686227159393 0.0 -0.0002255142017503122 0.0 0.0
0.00813600986427928 -0.0058238532480280655 0.0 -0.000515449721848508 0.0 0.0
0.013405618265094104 -0.01075900546183144 0.0 -0.0009723526743443264 0.0 0.0
0.020708724882193604 -0.01776824934460994 0.0 -0.0016137392471344012 0.0 0.0
0.03008124706574858 -0.026861069656130037 0.0 -0.002411844579392263 0.0 0.0
0.041429115013772146 -0.03792644372698266 0.0 -0.0032867833084836845 0.0 0.0
0.05461194833044862 -0.05081556851097537 0.0 -0.004179135927065034 0.0 0.0
0.06950301161262483 -0.06540282811077865 0.0 -0.005103991320155706 0.0 0.0
0.0859594993261944 -0.0815672849919003 0.0 -0.006068840607806513 0.0 0.0
0.10374221041699186 -0.0991023205725138 0.0 -0.007046714628563449 0.0 0.0
0.12240511003040706 -0.11758939338360086 0.0 -0.007953144909431787 0.0 0.0
0.14119729778166298 -0.13629469249293558 0.0 -0.00856093726671625 0.0 0.0
0.1590481653745045 -0.15414464836113156 0.0 -0.008537551756724729 0.0 0.0
0.1745522107888372 -0.16975305592278023 0.0 -0.00768060134697903 0.0 0.0
0.185686984547869 -0.18130096115088953 0.0 -0.00660280671181639 0.0 0.0
0.18985480223191148 -0.1861124133213515 0.0 8.293712938645115e-15 0.0 0.0
0.18568698454784235 -0.18130096115086267 0.0 0.006602806711837931 0.0 0.0
0.1745522107887846 -0.16975305592273543 0.0 0.007680601346998074 0.0 0.0
0.1590481653744323 -0.15414464836105435 0.0 0.008537551756737403 0.0 0.0
0.14119729778157972 -0.1362946924928511 0.0 0.008560937266714842 0.0 0.0
0.1224051100303187 -0.11758939338351898 0.0 0.00795314490942631 0.0 0.0
0.10374221041690139 -0.09910232057242041 0.0 0.0070467146285628475 0.0 0.0
0.08595949932610399 -0.08156728499181433 0.0 0.006068840607803938 0.0 0.0
0.06950301161253705 -0.06540282811069238 0.0 0.005103991320149527 0.0 0.0
0.05461194833036775 -0.05081556851089167 0.0 0.00417913592705752 0.0 0.0
0.041429115013701265 -0.0379264437269167 0.0 0.0032867833084724565 0.0 0.0
0.030081247065691374 -0.026861069656072503 0.0 0.002411844579386896 0.0 0.0
0.020708724882150482 -0.01776824934457022 0.0 0.0016137392471292636 0.0 0.0
0.013405618265062641 -0.010759005461804487 0.0 0.0009723526743421258 0.0 0.0
0.008136009864259516 -0.005823853248009149 0.0 0.0005154497218446399 0.0 0.0
0.00469828846184291 -0.0027624686227081816 0.0 0.00022551420174991613 0.0 0.0
0.002799042896225752 -0.0012686308935729157 0.0 0.00015195683823553073 0.0 0.0
0.001963164531441602 -0.0008343300262212024 0.0 0.00019480170036968264 0.0 0.0
0.0017156456201286054 -0.0004752252414947189 0.0 0.0005350438031589827 0.0 0.0
0.005817693095035065 -0.0018976675623159547 0.0 0.005890397637052816 0.0 0.0
0.009934098071835278 -0.0213071710485252 0.0 0.000868260245110779 0.0 0.0
0.00727561452867757 -0.016992267053928894 0.0 -0.003854294366036691 0.0 0.0
0.004126003839859092 -0.0010556506948495355 0.0 -0.005921374381486185 0.0 0.0
0.0011941563089355887 -0.0002587237346288015 0.0 -0.0004861249591261587 0.0 0.0
0.0016642674877793305 -0.0007081297375759246 0.0 -0.00048024031714374274 0.0 0.0
0.0023922981128970517 -0.0010267653780085594 0.0 -0.0004867759797313419 0.0 0.0
0.003956028122799543 -0.0021576299504726293 0.0 -0.0006207334573339761 0.0 0.0
0.006938599945289073 -0.004743326194115294 0.0 -0.0011737798095033363 0.0 0.0
0.011638348093786758 -0.009108227724678442 0.0 -0.0020617649699045436 0.0 0.0
0.018199526122147827 -0.015388754995639381 0.0 -0.0032934077787508623 0.0 0.0
0.026616760792986617 -0.02354870911891972 0.0 -0.004790726109827301 0.0 0.0
0.03676724383582815 -0.03343725178090681 0.0 -0.006412082218781306 0.0 0.0
0.04851096526641883 -0.04490398624055895 0.0 -0.00803211653202751 0.0 0.0
0.06174768916713133 -0.05785473055030088 0.0 -0.009639753999787804 0.0 0.0
0.07638798612005993 -0.07222142741286297 0.0 -0.01130233040523305 0.0 0.0
0.09224853628917003 -0.08784646076273167 0.0 -0.012995576801669758 0.0 0.0
0.10895921873779062 -0.10438458559064874 0.0 -0.014538547864854095 0.0 0.0
0.12589446529149356 -0.12122435371798304 0.0 -0.015559316867022999 0.0 0.0
0.14209766325526826 -0.1374269188549959 0.0 -0.015560699860295214 0.0 0.0
0.15616698449023705 -0.1516533403856996 0.0 -0.014216977479430818 0.0 0.0
0.16628981603737006 -0.1620307422536145 0.0 -0.01152801804391944 0.0 0.0
0.17011950185329588 -0.1666223060485071 0.0 1.4264631142957285e-14 0.0 0.0
0.16628981603734577 -0.16203074225359237 0.0 0.011528018043956572 0.0 0.0
0.15616698449018976 -0.15165334038565972 0.0 0.014216977479468412 0.0 0.0
0.14209766325520476 -0.13742691885492897 0.0 0.015560699860315965 0.0 0.0
0.12589446529142043 -0.12122435371790957 0.0 0.015559316867024595 0.0 0.0
0.10895921873771212 -0.10438458559057295 0.0 0.014538547864845708 0.0 0.0
0.09224853628908922 -0.08784646076265094 0.0 0.012995576801667165 0.0 0.0
0.07638798611997923 -0.07222142741278566 0.0 0.01130233040522759 0.0 0.0
0.06174768916705367 -0.05785473055022307 0.0 0.009639753999778258 0.0 0.0
0.04851096526634712 -0.04490398624048252 0.0 0.008032116532015958 0.0 0.0
0.03676724383576508 -0.033437251780847894 0.0 0.006412082218767707 0.0 0.0
0.026616760792935654 -0.023548709118870473 0.0 0.004790726109817284 0.0 0.0
0.018199526122109386 -0.015388754995604673 0.0 0.0032934077787406205 0.0 0.0
0.011638348093758962 -0.009108227724650805 0.0 0.002061764969899469 0.0 0.0
0.00693859994527132 -0.004743326194097853 0.0 0.001173779809498623 0.0 0.0
0.003956028122790849 -0.002157629950466835 0.0 0.0006207334573325703 0.0 0.0
0.002392298112893926 -0.0010267653780094833 0.0 0.0004867759797289895 0.0 0.0
0.0016642674877787476 -0.0007081297375762999 0.0 0.0004802403171431309 0.0 0.0
0.0011941563089357748 -0.0002587237346295789 0.0 0.0004861249591263572 0.0 0.0
0.0041260038398524025 -0.001055650694846174 0.0 0.005921374381473352 0.0 0.0
0.007275614528663788 -0.016992267053902582 0.0 0.003854294366011523 0.0 0.0
0.005491829083716504 -0.013681504541006216 0.0 -0.004287139285141763 0.0 0.0
0.003043867309750739 -0.0007616953042809292 0.0 -0.005400426927749074 0.0 0.0
0.000850377937803578 -0.00014532027633432277 0.0 -0.0007708860609802285 0.0 0.0
0.0013737029275811973 -0.0005635779368655448 0.0 -0.0007673896909035745 0.0 0.0
0.0020207340883173605 -0.0008421010393649954 0.0 -0.0008123387368051328 0.0 0.0
0.003273689559284495 -0.0016494585573704173 0.0 -0.0009653419157140844 0.0 0.0
0.005777031768540797 -0.00372048130779509 0.0 -0.001616030526825824 0.0 0.0
0.009873527294916175 -0.007477384679463199 0.0 -0.002852225672858724 0.0 0.0
0.015664043861387946 -0.012995695952330966 0.0 -0.004530615287820852 0.0 0.0
0.023102477913008256 -0.020196154657741962 0.0 -0.006558215140614418 0.0 0.0
0.032043029538825714 -0.02889697737837963 0.0 -0.008737341415792316 0.0 0.0
0.0423457410780456 -0.03894223118202239 0.0 -0.010908560403734007 0.0 0.0
0.05392998252132166 -0.05025714622473355 0.0 -0.013054105186920935 0.0 0.0
0.066739044191235 -0.06281254095020881 0.0 -0.015238407538548899 0.0 0.0
0.0806560229178522 -0.07650796143451706 0.0 -0.017447430844826875 0.0 0.0
0.09540683998679761 -0.0910844169809661 0.0 -0.019480869690459878 0.0 0.0
0.11048154480979742 -0.1060564355456012 0.0 -0.020891585741078588 0.0 0.0
0.12504121861755838 -0.120618116248109 0.0 -0.021078838122239398 0.0 0.0
0.13782269010989825 -0.1335248680823662 0.0 -0.019419753695006526 0.0 0.0
0.14725328752094025 -0.14312803327113052 0.0 -0.015058712246628445 0.0 0.0
0.15092404860702383 -0.14786678739322015 0.0 2.2407423139192417e-14 0.0 0.0
0.1472532875209182 -0.14312803327110954 0.0 0.015058712246677906 0.0 0.0
0.13782269010985607 -0.13352486808232517 0.0 0.019419753695054377 0.0 0.0
0.1250412186175031 -0.1206181162480533 0.0 0.021078838122265877 0.0 0.0
0.11048154480973373 -0.10605643554553988 0.0 0.020891585741082203 0.0 0.0
0.09540683998672846 -0.09108441698088975 0.0 0.019480869690449792 0.0 0.0
0.08065602291778136 -0.07650796143444902 0.0 0.01744743084482086 0.0 0.0
0.06673904419116435 -0.06281254095013644 0.0 0.015238407538540812 0.0 0.0
0.05392998252125376 -0.0502571462246693 0.0 0.013054105186910827 0.0 0.0
0.04234574107798318 -0.038942231181959774 0.0 0.010908560403714108 0.0 0.0
0.03204302953877074 -0.028896977378322128 0.0 0.008737341415777594 0.0 0.0
0.023102477912963208 -0.02019615465770442 0.0 0.006558215140601252 0.0 0.0
0.01566404386135366 -0.01299569595229821 0.0 0.004530615287808497 0.0 0.0
0.009873527294892088 -0.0074773846794377215 0.0 0.0028522256728498873 0.0 0.0
0.005777031768526162 -0.003720481307783325 0.0 0.001616030526820696 0.0 0.0
0.003273689559277748 -0.0016494585573656707 0.0 0.00096534191571189 0.0 0.0
0.002020734088315527 -0.0008421010393641305 0.0 0.0008123387368037301 0.0 0.0
0.0013737029275811773 -0.000563577936865702 0.0 0.0007673896909041767 0.0 0.0
0.0008503779378036239 -0.00014532027633484018 0.0 0.0007708860609784435 0.0 0.0
0.003043867309744769 -0.0007616953042777612 0.0 0.005400426927736125 0.0 0.0
0.005491829083704731 -0.013681504540983063 0.0 0.004287139285125069 0.0 0.0
0.004160963097253114 -0.011019922975143832 0.0 -0.003815166926875284 0.0 0.0
0.0022749447816465124 -0.0006107187903689961 0.0 -0.004819502157284762 0.0 0.0
0.0006172973653706688 -9.061814260807419e-05 0.0 -0.0011629865189987571 0.0 0.0
0.0011102649196158304 -0.00042874100443966316 0.0 -0.0010771574749022413 0.0 0.0
0.0016792082806435064 -0.0006896884545718755 0.0 -0.001135244332474043 0.0 0.0
0.002663846840109581 -0.0012492273159938772 0.0 -0.0012777889508859151 0.0 0.0
0.004677277812953009 -0.0028017661173691606 0.0 -0.0019174379265213324 0.0 0.0
0.008131944975661857 -0.0058892366898345766 0.0 -0.0033053555310018014 0.0 0.0
0.013129484720320408 -0.010618407831198131 0.0 -0.005316856241936029 0.0 0.0
0.019567895217138476 -0.01683675797670521 0.0 -0.007707869702927325 0.0 0.0
0.027288476317121446 -0.02433882744694781 0.0 -0.010266635873723375 0.0 0.0
0.03614561889538594 -0.032960026757814245 0.0 -0.012810530766190233 0.0 0.0
0.046073431213398915 -0.04263903878113333 0.0 -0.015324231293918078 0.0 0.0
0.05705294360304955 -0.05337993887774054 0.0 -0.017872548889223655 0.0 0.0
0.06901532013772518 -0.06513469906457607 0.0 -0.02042347942744248 0.0 0.0
0.08177426511297259 -0.0777265700329627 0.0 -0.022768705456198322 0.0 0.0
0.09495507840665768 -0.09079468132489284 0.0 -0.024501207316384683 0.0 0.0
0.10787784805561926 -0.10369281790872038 0.0 -0.024975879597146488 0.0 0.0
0.11948444015614892 -0.11538341622136336 0.0 -0.023178775724663512 0.0 0.0
0.12842402300958133 -0.12446048795902817 0.0 -0.017734808613935935 0.0 0.0
0.13204619890362432 -0.12952751104397153 0.0 2.4234086959395995e-14 0.0 0.0
0.1284240230095616 -0.12446048795900361 0.0 0.0177348086139901 0.0 0.0
0.11948444015611162 -0.11538341622132478 0.0 0.02317877572471949 0.0 0.0
0.10787784805557107 -0.1036928179086711 0.0 0.024975879597178216 0.0 0.0
0.09495507840660275 -0.09079468132484196 0.0 0.024501207316390283 0.0 0.0
0.08177426511291296 -0.07772657003289968 0.0 0.022768705456189815 0.0 0.0
0.06901532013766405 -0.06513469906451486 0.0 0.02042347942743322 0.0 0.0
0.05705294360298875 -0.053379938877679 0.0 0.01787254888921484 0.0 0.0
0.04607343121334043 -0.04263903878107322 0.0 0.015324231293905533 0.0 0.0
0.03614561889533272 -0.032960026757766436 0.0 0.012810530766171094 0.0 0.0
0.027288476317075115 -0.024338827446900812 0.0 0.010266635873703953 0.0 0.0
0.01956789521709948 -0.016836757976672292 0.0 0.007707869702908588 0.0 0.0
0.01312948472029042 -0.010618407831165676 0.0 0.005316856241922619 0.0 0.0
0.008131944975641727 -0.00588923668981328 0.0 0.0033053555309924968 0.0 0.0
0.004677277812941717 -0.0028017661173621645 0.0 0.0019174379265157293 0.0 0.0
0.0026638468401045537 -0.0012492273159890163 0.0 0.00127778895088454 0.0 0.0
0.0016792082806419632 -0.0006896884545703375 0.0 0.0011352443324732042 0.0 0.0
0.0011102649196158376 -0.0004287410044400559 0.0 0.0010771574749008372 0.0 0.0
0.000617297365370649 -9.061814260869519e-05 0.0 0.0011629865189961017 0.0 0.0
0.0022749447816414626 -0.0006107187903658217 0.0 0.004819502157274653 0.0 0.0
0.004160963097243429 -0.0110199229751242 0.0 0.0038151669268624215 0.0 0.0
0.0031188617642011734 -0.008801380097040762 0.0 -0.0031636395690122455 0.0 0.0
0.0016936380938281546 -0.0005098482642114753 0.0 -0.004256907739011389 0.0 0.0
0.00044997322421938654 -7.168316344971878e-05 0.0 -0.001537042593620707 0.0 0.0
0.0008715894997468343 -0.0003080325423579958 0.0 -0.0013892300560733207 0.0 0.0
0.0013637406655446003 -0.0005574586987523173 0.0 -0.0014520561820165236 0.0 0.0
0.0021216710594969775 -0.0009401158130088467 0.0 -0.0015668077096703183 0.0 0.0
0.003671222054422621 -0.0020255565551812503 0.0 -0.0021515599612543282 0.0 0.0
0.00645216647920831 -0.004400963943048937 0.0 -0.003485771478009659 0.0 0.0
0.010615103756426053 -0.008286394590111532 0.0 -0.0056242188580149345 0.0 0.0
0.0160426391214536 -0.013503831438265489 0.0 -0.008230034408175902 0.0 0.0
0.02253280686738312 -0.019796158126306772 0.0 -0.010991690861241781 0.0 0.0
0.029942317493589395 -0.02699113623737897 0.0 -0.013735755520895858 0.0 0.0
0.03821466776527537 -0.03503499316903859 0.0 -0.016439678298567992 0.0 0.0
0.04735783061477618 -0.04396034587026445 0.0 -0.019171068393768954 0.0 0.0
0.05736095432320577 -0.05376897934794581 0.0 -0.02190326486279069 0.0 0.0
0.06810893693956489 -0.06435575004018533 0.0 -0.024416435252024544 0.0 0.0
0.07933953370315998 -0.075465958110769 0.0 -0.02634752680482545 0.0 0.0
0.09059030852138648 -0.08665114370706352 0.0 -0.027105501661748355 0.0 0.0
0.10107485964604805 -0.0971687750578984 0.0 -0.025489688105924523 0.0 0.0
0.10965317024138194 -0.10586755715176971 0.0 -0.01967743590387281 0.0 0.0
0.11330395035328994 -0.11140889992960458 0.0 2.5755439447827655e-14 0.0 0.0
0.10965317024136459 -0.10586755715174864 0.0 0.019677435903927856 0.0 0.0
0.10107485964601631 -0.0971687750578641 0.0 0.025489688105980693 0.0 0.0
0.09059030852134566 -0.08665114370702569 0.0 0.027105501661781453 0.0 0.0
0.0793395337031134 -0.07546595811072165 0.0 0.026347526804831864 0.0 0.0
0.06810893693951427 -0.06435575004013211 0.0 0.02441643525201591 0.0 0.0
0.05736095432315476 -0.05376897934789802 0.0 0.02190326486278072 0.0 0.0
0.04735783061472605 -0.04396034587021716 0.0 0.019171068393758865 0.0 0.0
0.03821466776522724 -0.0350349931689843 0.0 0.016439678298554992 0.0 0.0
0.029942317493545687 -0.026991136237335536 0.0 0.013735755520879508 0.0 0.0
0.02253280686734437 -0.019796158126273753 0.0 0.01099169086121812 0.0 0.0
0.01604263912142118 -0.013503831438235359 0.0 0.008230034408154728 0.0 0.0
0.0106151037564014 -0.008286394590083852 0.0 0.005624218858001812 0.0 0.0
0.006452166479192001 -0.004400963943031546 0.0 0.0034857714780009872 0.0 0.0
0.003671222054413937 -0.0020255565551764443 0.0 0.002151559961248113 0.0 0.0
0.0021216710594933884 -0.0009401158130049852 0.0 0.0015668077096692708 0.0 0.0
0.0013637406655434604 -0.0005574586987521779 0.0 0.001452056182015413 0.0 0.0
0.0008715894997466689 -0.00030803254235802565 0.0 0.0013892300560713838 0.0 0.0
0.0004499732242196892 -7.168316345082724e-05 0.0 0.0015370425936180794 0.0 0.0
0.0016936380938240153 -0.0005098482642093031 0.0 0.004256907739003359 0.0 0.0
0.003118861764192489 -0.008801380097024244 0.0 0.0031636395690036335 0.0 0.0
0.002292459344259517 -0.006929063041937678 0.0 -0.002562542173965063 0.0 0.0
0.0012412485727177744 -0.0004333091886707535 0.0 -0.0037477034380053644 0.0 0.0
0.00031962197986013544 -6.733287497937758e-05 0.0 -0.00184608439641557 0.0 0.0
0.0006505261294021765 -0.0002010817319692067 0.0 -0.0016788401482607412 0.0 0.0
0.0010657750506205287 -0.0004304040308089968 0.0 -0.001742990718680258 0.0 0.0
0.0016364327515085003 -0.0007029999362377964 0.0 -0.0018542086538597224 0.0 0.0
0.0027644709310077065 -0.0013979130725779163 0.0 -0.00231559272058746 0.0 0.0
0.004880242818160025 -0.003079834128027371 0.0 -0.0035042298493543314 0.0 0.0
0.008168861071760623 -0.006059393613281605 0.0 -0.0054974764974663574 0.0 0.0
0.01255232739086674 -0.010234627488267726 0.0 -0.008095927374572433 0.0 0.0
0.017807101818416486 -0.015304914554486258 0.0 -0.010893723913050308 0.0 0.0
0.023766006816478873 -0.021070799271573234 0.0 -0.013669821916329383 0.0 0.0
0.030385022384480577 -0.02748429140359838 0.0 -0.016388647844810197 0.0 0.0
0.037695755799166154 -0.03459648605533823 0.0 -0.01912150798668261 0.0 0.0
0.04572914793324866 -0.04245190108259425 0.0 -0.021851882034824698 0.0 0.0
0.054440510771741606 -0.051015593817459716 0.0 -0.024392118697102474 0.0 0.0
0.06367596406709515 -0.06011910999798775 0.0 -0.026388059745261518 0.0 0.0
0.0731796234050868 -0.06950678250774564 0.0 -0.02737992949905453 0.0 0.0
0.08250109078801021 -0.0787991488453365 0.0 -0.026255048286251956 0.0 0.0
0.09077773420637786 -0.0871789019058302 0.0 -0.0208657875730474 0.0 0.0
0.09451424592974891 -0.09333149142305863 0.0 2.3435246798708675e-14 0.0 0.0
0.09077773420636312 -0.0871789019058171 0.0 0.020865787573103985 0.0 0.0
0.08250109078798411 -0.07879914884530745 0.0 0.026255048286308036 0.0 0.0
0.07317962340505334 -0.06950678250771428 0.0 0.027379929499089045 0.0 0.0
0.06367596406705742 -0.060119109997948506 0.0 0.02638805974526942 0.0 0.0
0.054440510771700444 -0.05101559381741324 0.0 0.02439211869708952 0.0 0.0
0.04572914793320714 -0.04245190108255435 0.0 0.02185188203481394 0.0 0.0
0.03769575579912643 -0.03459648605530353 0.0 0.019121507986670963 0.0 0.0
0.03038502238444315 -0.02748429140356052 0.0 0.016388647844799216 0.0 0.0
0.023766006816443707 -0.02107079927154065 0.0 0.01366982191631104 0.0 0.0
0.017807101818384824 -0.015304914554459922 0.0 0.01089372391302682 0.0 0.0
0.012552327390840824 -0.010234627488238798 0.0 0.00809592737455102 0.0 0.0
0.008168861071741482 -0.006059393613264584 0.0 0.005497476497454587 0.0 0.0
0.004880242818147575 -0.0030798341280138504 0.0 0.003504229849346733 0.0 0.0
0.0027644709310013483 -0.001397913072574887 0.0 0.0023155927205833478 0.0 0.0
0.0016364327515062172 -0.0007029999362332305 0.0 0.0018542086538586404 0.0 0.0
0.0010657750506199075 -0.00043040403080961566 0.0 0.0017429907186785878 0.0 0.0
0.000650526129402063 -0.00020108173196947614 0.0 0.0016788401482584106 0.0 0.0
0.0003196219798599332 -6.73328749798861e-05 0.0 0.0018460843964126462 0.0 0.0
0.0012412485727145088 -0.00043330918866998767 0.0 0.0037477034379983735 0.0 0.0
0.0022924593442533157 -0.0069290630419239704 0.0 0.002562542173960315 0.0 0.0
0.0016371522693785945 -0.005356338199041636 0.0 -0.0020943439904406638 0.0 0.0
0.000883306216811602 -0.00037673214838310394 0.0 -0.0032884114625850087 0.0 0.0
0.00020716519178171856 -6.150217620256565e-05 0.0 -0.0020808201450434314 0.0 0.0
0.0004404326317467278 -0.00010596086062720308 0.0 -0.0019281391123020758 0.0 0.0
0.0007744581304385281 -0.0002986661267826283 0.0 -0.0019896772051434773 0.0 0.0
0.0011988482614563173 -0.000511398733318507 0.0 -0.0021362409962461587 0.0 0.0
0.001959344947615863 -0.0009158167595851893 0.0 -0.00245371567344071 0.0 0.0
0.0034378155084580095 -0.001966498408467809 0.0 -0.0033788911830336613 0.0 0.0
0.005846925656970406 -0.00402408887041003 0.0 -0.005047179436467463 0.0 0.0
0.009145210715443584 -0.007096655596328343 0.0 -0.007341325673711737 0.0 0.0
0.013137842795475217 -0.01091079796371609 0.0 -0.009949663788676934 0.0 0.0
0.01764718083335261 -0.015242189209507026 0.0 -0.012574829511053473 0.0 0.0
0.022620382968410936 -0.020031810149596648 0.0 -0.015141759617420522 0.0 0.0
0.028099757682759362 -0.025337282991290865 0.0 -0.017697184541765002 0.0 0.0
0.03415745922919216 -0.031233907692563873 0.0 -0.020253152305772744 0.0 0.0
0.0408151707805186 -0.03775368352538368 0.0 -0.022660687297321423 0.0 0.0
0.048002728317790844 -0.04481603507627985 0.0 -0.024593261899582344 0.0 0.0
0.05564960712815056 -0.05230086939093452 0.0 -0.025680252318373446 0.0 0.0
0.06367887866318356 -0.06020208380151153 0.0 -0.02525638653692162 0.0 0.0
0.07162109526192582 -0.06820499619488993 0.0 -0.021163922571695446 0.0 0.0
0.07546932597014692 -0.07510327991870859 0.0 2.0324020244544272e-14 0.0 0.0
0.07162109526191482 -0.06820499619487959 0.0 0.02116392257174954 0.0 0.0
0.06367887866316321 -0.06020208380148613 0.0 0.025256386536978134 0.0 0.0
0.055649607128124806 -0.05230086939091392 0.0 0.02568025231840427 0.0 0.0
0.04800272831776055 -0.04481603507625011 0.0 0.024593261899586036 0.0 0.0
0.04081517078048672 -0.037753683525348206 0.0 0.022660687297306754 0.0 0.0
0.03415745922916106 -0.031233907692533265 0.0 0.020253152305761683 0.0 0.0
0.028099757682730507 -0.025337282991265322 0.0 0.017697184541756426 0.0 0.0
0.02262038296838392 -0.020031810149570804 0.0 0.015141759617409462 0.0 0.0
0.017647180833326344 -0.015242189209480839 0.0 0.012574829511035814 0.0 0.0
0.013137842795451849 -0.01091079796369427 0.0 0.00994966378865644 0.0 0.0
0.009145210715425057 -0.007096655596307698 0.0 0.007341325673693902 0.0 0.0
0.005846925656957096 -0.004024088870398892 0.0 0.005047179436456413 0.0 0.0
0.003437815508449535 -0.0019664984084593385 0.0 0.003378891183027216 0.0 0.0
0.0019593449476118315 -0.0009158167595816802 0.0 0.002453715673438552 0.0 0.0
0.001198848261454848 -0.000511398733315902 0.0 0.0021362409962448615 0.0 0.0
0.0007744581304381017 -0.00029866612678302923 0.0 0.0019896772051408193 0.0 0.0
0.00044043263174641553 -0.00010596086062731408 0.0 0.0019281391123001168 0.0 0.0
0.00020716519178156888 -6.150217620222715e-05 0.0 0.0020808201450410713 0.0 0.0
0.0008833062168093844 -0.0003767321483828488 0.0 0.0032884114625785724 0.0 0.0
0.0016371522693739368 -0.005356338199030608 0.0 0.0020943439904366153 0.0 0.0
0.0011397781326401525 -0.004076174199174583 0.0 -0.001791649708821061 0.0 0.0
0.0006017390969048164 -0.00034153771315823385 0.0 -0.0028823230172678026 0.0 0.0
9.66453438599172e-05 -4.290278338736562e-05 0.0 -0.002245895813749143 0.0 0.0
0.00023821057507315239 -1.9909619478891048e-05 0.0 -0.0021257554471419385 0.0 0.0
0.0004824881308819821 -0.00016292466159351335 0.0 -0.0021825910018762767 0.0 0.0
0.000785067239862478 -0.0003311484984668361 0.0 -0.0023762372149295514 0.0 0.0
0.0012516156631336669 -0.0005605548554772856 0.0 -0.002632962139001481 0.0 0.0
0.0021469618921199987 -0.0010978614180826617 0.0 -0.003189301543736144 0.0 0.0
0.003690197058104092 -0.002274644909106011 0.0 -0.0043556273510548995 0.0 0.0
0.005883092628790625 -0.004203507058791588 0.0 -0.006079991786573232 0.0 0.0
0.00857714763280041 -0.006705343957707001 0.0 -0.008199090984343915 0.0 0.0
0.01161846232724627 -0.009578117207227736 0.0 -0.010433763400273239 0.0 0.0
0.014949117567970446 -0.012741861447399225 0.0 -0.01268067959086172 0.0 0.0
0.018607455275397377 -0.016250677575427665 0.0 -0.014911297232332187 0.0 0.0
0.022682166706722094 -0.02018505367919018 0.0 -0.017124731533878057 0.0 0.0
0.027262299575577947 -0.024634419194215135 0.0 -0.019266669602908158 0.0 0.0
0.03237752694544758 -0.02962656601154852 0.0 -0.021082291262875787 0.0 0.0
0.03804996608973168 -0.03513799492798773 0.0 -0.02215500582425223 0.0 0.0
0.04453057640022115 -0.041377670404680204 0.0 -0.022214153753523667 0.0 0.0
0.051968612548541425 -0.048729333183689695 0.0 -0.020188287274400456 0.0 0.0
0.055908993467567523 -0.05647788360961821 0.0 1.8294393777651408e-14 0.0 0.0
0.05196861254853452 -0.04872933318368114 0.0 0.020188287274446576 0.0 0.0
0.04453057640020595 -0.04137767040466192 0.0 0.022214153753574377 0.0 0.0
0.038049966089712756 -0.03513799492797401 0.0 0.022155005824275337 0.0 0.0
0.032377526945426956 -0.029626566011529666 0.0 0.021082291262874468 0.0 0.0
0.027262299575556294 -0.02463441919418906 0.0 0.019266669602895775 0.0 0.0
0.022682166706701944 -0.020185053679173413 0.0 0.01712473153386526 0.0 0.0
0.018607455275379294 -0.016250677575410644 0.0 0.014911297232329278 0.0 0.0
0.014949117567953678 -0.012741861447382917 0.0 0.012680679590854088 0.0 0.0
0.011618462327229356 -0.009578117207205986 0.0 0.010433763400258733 0.0 0.0
0.008577147632784657 -0.006705343957693781 0.0 0.008199090984326658 0.0 0.0
0.005883092628778839 -0.004203507058782879 0.0 0.006079991786559678 0.0 0.0
0.003690197058096299 -0.002274644909098599 0.0 0.00435562735104704 0.0 0.0
0.002146961892115078 -0.0010978614180822235 0.0 0.003189301543731576 0.0 0.0
0.0012516156631314148 -0.0005605548554747997 0.0 0.002632962138999172 0.0 0.0
0.0007850672398615466 -0.0003311484984669039 0.0 0.0023762372149271254 0.0 0.0
0.0004824881308815867 -0.00016292466159321554 0.0 0.00218259100187382 0.0 0.0
0.0002382105750732624 -1.9909619478648685e-05 0.0 0.0021257554471402437 0.0 0.0
9.664534385983409e-05 -4.290278338727491e-05 0.0 0.002245895813748237 0.0 0.0
0.0006017390969031136 -0.0003415377131581116 0.0 0.002882323017261562 0.0 0.0
0.001139778132637099 -0.004076174199166432 0.0 0.0017916497088186576 0.0 0.0
0.0007857337621629769 -0.0030698133497160363 0.0 -0.0016088038599282465 0.0 0.0
0.0003858259200232189 -0.00033171543772931076 0.0 -0.0025627558170943257 0.0 0.0
-1.7966772222272164e-05 -6.987669545143368e-06 0.0 -0.0023476890412660752 0.0 0.0
4.159161980874281e-05 5.980976421242374e-05 0.0 -0.0022667869443685805 0.0 0.0
0.00019014644742397228 -2.742687288878715e-05 0.0 -0.0023205374456047884 0.0 0.0
0.00037218704226450457 -0.0001438201079016535 0.0 -0.0025346962617157145 0.0 0.0
0.0006124021498573226 -0.00026908733570116716 0.0 -0.0028165550822181573 0.0 0.0
0.001017960273458543 -0.00047752558779438274 0.0 -0.00312863199713532 0.0 0.0
0.0017401516895148988 -0.0009414990005502601 0.0 -0.003670847884713003 0.0 0.0
0.0028244392815891706 -0.0017772740701213806 0.0 -0.004620931992690027 0.0 0.0
0.0041875533988674895 -0.002927190744777434 0.0 -0.005994976997914757 0.0 0.0
0.0057272255149645734 -0.0042877491343241295 0.0 -0.007647933698395672 0.0 0.0
0.007399704065937542 -0.005806489533988818 0.0 -0.009434598236162604 0.0 0.0
0.009241561984511294 -0.007514198374606757 0.0 -0.011292765579652081 0.0 0.0
0.011331525585186795 -0.0094779684041977 0.0 -0.013210661415784726 0.0 0.0
0.013799233200048257 -0.011817650145758168 0.0 -0.015167384539650549 0.0 0.0
0.01680353666141862 -0.014687185816226338 0.0 -0.016989779312381617 0.0 0.0
0.02047749605615062 -0.01822069217203352 0.0 -0.018191998923319876 0.0 0.0
0.02511573854827785 -0.02261413367883688 0.0 -0.0182677068870025 0.0 0.0
0.03158478872403836 -0.02866522697612378 0.0 -0.017622567769550575 0.0 0.0
0.03543330192302656 -0.03713402186698898 0.0 1.6355840293247326e-14 0.0 0.0
0.03158478872403525 -0.02866522697611258 0.0 0.01762256776959013 0.0 0.0
0.02511573854826958 -0.02261413367882959 0.0 0.018267706887040543 0.0 0.0
0.020477496056139667 -0.018220692172021855 0.0 0.018191998923337102 0.0 0.0
0.016803536661407856 -0.014687185816220395 0.0 0.016989779312374508 0.0 0.0
0.013799233200037737 -0.01181765014574908 0.0 0.015167384539637126 0.0 0.0
0.011331525585178094 -0.009477968404187664 0.0 0.013210661415774393 0.0 0.0
0.009241561984504746 -0.007514198374600422 0.0 0.011292765579648272 0.0 0.0
0.007399704065930943 -0.0058064895339829635 0.0 0.009434598236156836 0.0 0.0
0.005727225514956844 -0.004287749134318623 0.0 0.00764793369838063 0.0 0.0
0.004187553398860636 -0.0029271907447723645 0.0 0.005994976997901157 0.0 0.0
0.0028244392815847522 -0.0017772740701191491 0.0 0.004620931992682671 0.0 0.0
0.0017401516895121365 -0.0009414990005482131 0.0 0.003670847884708636 0.0 0.0
0.0010179602734567252 -0.0004775255877933945 0.0 0.0031286319971330313 0.0 0.0
0.0006124021498564484 -0.000269087335702096 0.0 0.0028165550822165115 0.0 0.0
0.0003721870422643557 -0.00014382010790227358 0.0 0.002534696261712029 0.0 0.0
0.00019014644742414654 -2.742687288898343e-05 0.0 0.0023205374456035646 0.0 0.0
4.15916198089009e-05 5.9809764212269377e-05 0.0 0.0022667869443670214 0.0 0.0
-1.796677222244751e-05 -6.987669544251016e-06 0.0 0.002347689041263801 0.0 0.0
0.00038582592002218475 -0.00033171543772955486 0.0 0.0025627558170907457 0.0 0.0
0.0007857337621615849 -0.0030698133497106244 0.0 0.0016088038599276423 0.0 0.0
0.0005366548730408663 -0.002312139844696135 0.0 -0.0015076591873597993 0.0 0.0
0.00022085516930537742 -0.0003342842852741746 0.0 -0.0023406286976064847 0.0 0.0
-0.00013282633065482422 3.941654427920427e-05 0.0 -0.00239374425084823 0.0 0.0
-0.00015054862952373929 0.00013617808588298894 0.0 -0.0023493219496131252 0.0 0.0
-9.840012747731446e-05 0.00010511879641086018 0.0 -0.0023979998969707074 0.0 0.0
-4.582593632356907e-05 4.830117977297496e-05 0.0 -0.002601657255514712 0.0 0.0
-1.678225066478777e-05 1.2813501724652714e-05 0.0 -0.0029040325949441794 0.0 0.0
-5.342998718570576e-06 3.1577159429642054e-06 0.0 -0.0031646655902052554 0.0 0.0
-1.145269585667351e-06 5.119284838094114e-07 0.0 -0.0033744659239469204 0.0 0.0
2.569581989971632e-07 -1.2846351238237556e-07 0.0 -0.0038847898992688543 0.0 0.0
-8.173673387090004e-07 -1.3854144418514575e-07 0.0 -0.0048275402298675095 0.0 0.0
-9.841625626743895e-06 8.880842552050708e-06 0.0 -0.00617187159407142 0.0 0.0
-2.9489289794533912e-05 2.7607141607803305e-05 0.0 -0.007714808641619554 0.0 0.0
-4.0064043027227426e-05 4.3584244745768406e-05 0.0 -0.009399182519534024 0.0 0.0
3.2301435370160484e-05 -5.3401444031136525e-06 0.0 -0.011228587406634084 0.0 0.0
0.00035682593590409366 -0.000268202665373794 0.0 -0.013188135445357093 0.0 0.0
0.0012221769869439768 -0.0010038926780659267 0.0 -0.015196783490522678 0.0 0.0
0.0029595931976758062 -0.0025438552304517985 0.0 -0.01703257412986148 0.0 0.0
0.005782656664943009 -0.005001350749913519 0.0 -0.01837545636463392 0.0 0.0
0.01056286233724254 -0.008896035101421252 0.0 -0.019272137286118686 0.0 0.0
0.013645536953690937 -0.01785887316711593 0.0 1.3413749277990661e-14 0.0 0.0
0.010562862337241907 -0.00889603510141579 0.0 0.019272137286144048 0.0 0.0
0.005782656664940075 -0.005001350749913362 0.0 0.018375456364650183 0.0 0.0
0.0029595931976739167 -0.0025438552304516576 0.0 0.01703257412986637 0.0 0.0
0.0012221769869443903 -0.0010038926780661433 0.0 0.015196783490513104 0.0 0.0
0.0003568259359054734 -0.00026820266538022373 0.0 0.013188135445344175 0.0 0.0
3.230143537254096e-05 -5.340144398736403e-06 0.0 0.011228587406625329 0.0 0.0
-4.006404302367883e-05 4.358424473434417e-05 0.0 0.009399182519527531 0.0 0.0
-2.9489289791003316e-05 2.7607141605047534e-05 0.0 0.007714808641610759 0.0 0.0
-9.841625623753449e-06 8.880842546028127e-06 0.0 0.006171871594059514 0.0 0.0
-8.173673363805136e-07 -1.385414465461315e-07 0.0 0.0048275402298567265 0.0 0.0
2.569582006564804e-07 -1.2846351200289125e-07 0.0 0.003884789899264762 0.0 0.0
-1.1452695842314607e-06 5.119284812064723e-07 0.0 0.0033744659239470353 0.0 0.0
-5.342998717829551e-06 3.1577159469261987e-06 0.0 0.0031646655902037536 0.0 0.0
-1.6782250664344685e-05 1.2813501725936341e-05 0.0 0.002904032594941023 0.0 0.0
-4.582593632284941e-05 4.8301179771545114e-05 0.0 0.0026016572555113936 0.0 0.0
-9.840012747689547e-05 0.0001051187964110525 0.0 0.002397999896970157 0.0 0.0
-0.0001505486295240606 0.0001361780858838013 0.0 0.002349321949611823 0.0 0.0
-0.0001328263306551035 3.941654428035116e-05 0.0 0.002393744250846155 0.0 0.0
0.00022085516930480477 -0.00033428428527448845 0.0 0.002340628697604659 0.0 0.0
0.0005366548730396394 -0.0023121398446928677 0.0 0.0015076591873596718 0.0 0.0
0.0003648384220223941 -0.001760816942507596 0.0 -0.0014467505083156128 0.0 0.0
9.817779747199075e-05 -0.00032619945008519985 0.0 -0.002173414035814923 0.0 0.0
-0.00024170988653918196 8.565784783357216e-05 0.0 -0.0023900515960155887 0.0 0.0
-0.00033694231449965057 0.00021068296177021543 0.0 -0.002371204640562847 0.0 0.0
-0.0003808022914019987 0.00023253164589472102 0.0 -0.0024059785230081685 0.0 0.0
-0.0004602598416528121 0.00023905576299796787 0.0 -0.00258000059971827 0.0 0.0
-0.0006451046992449692 0.0002949952255825627 0.0 -0.0028414796425674056 0.0 0.0
-0.0010284593031259805 0.0004845741645539591 0.0 -0.0031429528974476024 0.0 0.0
-0.0017419007895358258 0.0009422413955291285 0.0 -0.0036769208306311517 0.0 0.0
-0.0028230644090554598 0.0017761076888730327 0.0 -0.004619994477675629 0.0 0.0
-0.004190213077704346 0.002928590381096223 0.0 -0.005992141062236041 0.0 0.0
-0.005749401368727326 0.004307174588168647 0.0 -0.007650781494838948 0.0 0.0
-0.007458907854824351 0.005863009414662821 0.0 -0.009431551533619888 0.0 0.0
-0.009316752761057328 0.007600511648452133 0.0 -0.01127786851449268 0.0 0.0
-0.011256694538766546 0.009461711414542422 0.0 -0.013213916073167931 0.0 0.0
-0.013088139078199224 0.01126848539698456 0.0 -0.015313920947118073 0.0 0.0
-0.014464822457583189 0.012682368881878783 0.0 -0.017625444690692885 0.0 0.0
-0.014953724313102268 0.013241174933569157 0.0 -0.0202459363138183 0.0 0.0
-0.01408691322280763 0.012624531065438808 0.0 -0.023120418574271804 0.0 0.0
-0.01006397558632831 0.00974630432689069 0.0 -0.024471545556629046 0.0 0.0
-0.006875783141760057 4.1116950716865155e-05 0.0 1.3438035406654336e-14 0.0 0.0
-0.010063975586329193 0.00974630432689187 0.0 0.02447154555665447 0.0 0.0
-0.014086913222803657 0.012624531065434652 0.0 0.023120418574288856 0.0 0.0
-0.014953724313091932 0.013241174933561268 0.0 0.020245936313823387 0.0 0.0
-0.014464822457569412 0.01268236888186616 0.0 0.0176254446906837 0.0 0.0
-0.013088139078185262 0.011268485396972467 0.0 0.015313920947104497 0.0 0.0
-0.01125669453875323 0.009461711414533383 0.0 0.013213916073157417 0.0 0.0
-0.009316752761043235 0.007600511648435629 0.0 0.011277868514482606 0.0 0.0
-0.007458907854809882 0.005863009414649845 0.0 0.009431551533607214 0.0 0.0
-0.005749401368713837 0.004307174588156698 0.0 0.007650781494824163 0.0 0.0
-0.004190213077692538 0.002928590381081333 0.0 0.005992141062220718 0.0 0.0
-0.00282306440904653 0.0017761076888694314 0.0 0.004619994477666896 0.0 0.0
-0.0017419007895302838 0.0009422413955208226 0.0 0.0036769208306311604 0.0 0.0
-0.0010284593031231724 0.0004845741645552971 0.0 0.003142952897446069 0.0 0.0
-0.0006451046992435122 0.00029499522558482663 0.0 0.002841479642564373 0.0 0.0
-0.00046025984165182297 0.00023905576299757236 0.0 0.0025800005997133483 0.0 0.0
-0.00038080229140144363 0.00023253164589448266 0.0 0.0024059785230071953 0.0 0.0
-0.0003369423144993398 0.00021068296177170352 0.0 0.0023712046405615877 0.0 0.0
-0.00024170988653904823 8.565784783350776e-05 0.0 0.002390051596013994 0.0 0.0
9.81777974716929e-05 -0.00032619945008513984 0.0 0.002173414035813772 0.0 0.0
0.0003648384220218037 -0.0017608169425054354 0.0 0.001446750508315732 0.0 0.0
0.0002476951695077604 -0.0013336194293187018 0.0 -0.0013489789676570574 0.0 0.0
6.695311845474759e-06 -0.00030036077994194106 0.0 -0.0020147697191446818 0.0 0.0
-0.0003428719909856874 0.00012783423851374305 0.0 -0.00233586881312376 0.0 0.0
-0.0005151812599554753 0.00028218522245887994 0.0 -0.0023310157256927486 0.0 0.0
-0.0006546345746122819 0.0003531126328894787 0.0 -0.0023428456364900266 0.0 0.0
-0.0008642608233879561 0.0004222167616293823 0.0 -0.0024651706198716198 0.0 0.0
-0.0012824345376307295 0.000589076433968815 0.0 -0.0026853578194575988 0.0 0.0
-0.0021555510662231827 0.001104873583957153 0.0 -0.0032156723690005243 0.0 0.0
-0.0036894011874004018 0.002273156546083966 0.0 -0.004360321866394841 0.0 0.0
-0.005881119959837546 0.004201540844122461 0.0 -0.006076626585044916 0.0 0.0
-0.008581503454903773 0.006709736894388044 0.0 -0.008198518443381344 0.0 0.0
-0.011639698767791862 0.009598287431815268 0.0 -0.01042992547226308 0.0 0.0
-0.014999866621592802 0.012792349032568748 0.0 -0.012641934648116443 0.0 0.0
-0.01866750305691435 0.016322677516364563 0.0 -0.014815259018472936 0.0 0.0
-0.022597571876159656 0.020155275367386767 0.0 -0.017056668973734087 0.0 0.0
-0.026584008780566618 0.02410286318313829 0.0 -0.01958071144798919 0.0 0.0
-0.030222591621180878 0.027758154411656175 0.0 -0.02261339201353451 0.0 0.0
-0.03293025831500107 0.030529909515868127 0.0 -0.02626339222733996 0.0 0.0
-0.033610269147895645 0.03148355081339888 0.0 -0.029826760036243072 0.0 0.0
-0.030026721194175703 0.02847027424405984 0.0 -0.030699123188146292 0.0 0.0
-0.026800620968800627 0.016858425367310133 0.0 1.823801526468216e-14 0.0 0.0
-0.030026721194173364 0.028470274244057202 0.0 0.030699123188189396 0.0 0.0
-0.03361026914788525 0.031483550813390736 0.0 0.029826760036281326 0.0 0.0
-0.0329302583149816 0.030529909515848858 0.0 0.026263392227355492 0.0 0.0
-0.030222591621156675 0.027758154411630147 0.0 0.02261339201352774 0.0 0.0
-0.02658400878054132 0.024102863183114744 0.0 0.019580711447972802 0.0 0.0
-0.022597571876135675 0.02015527536736563 0.0 0.017056668973719803 0.0 0.0
-0.01866750305689038 0.01632267751634452 0.0 0.014815259018460442 0.0 0.0
-0.014999866621567982 0.01279234903254664 0.0 0.012641934648102317 0.0 0.0
-0.011639698767767978 0.009598287431796724 0.0 0.010429925472244033 0.0 0.0
-0.008581503454882827 0.006709736894362175 0.0 0.008198518443360473 0.0 0.0
-0.005881119959821543 0.0042015408441074984 0.0 0.006076626585028544 0.0 0.0
-0.0036894011873896838 0.0022731565460748326 0.0 0.004360321866388228 0.0 0.0
-0.00215555106621726 0.0011048735839543802 0.0 0.0032156723689958358 0.0 0.0
-0.0012824345376281781 0.0005890764339682926 0.0 0.002685357819454945 0.0 0.0
-0.0008642608233865535 0.00042221676162783057 0.0 0.0024651706198688893 0.0 0.0
-0.0006546345746115908 0.00035311263288966693 0.0 0.0023428456364890608 0.0 0.0
-0.0005151812599550479 0.0002821852224588948 0.0 0.00233101572569254 0.0 0.0
-0.0003428719909850394 0.00012783423851407683 0.0 0.0023358688131216777 0.0 0.0
6.695311845580391e-06 -0.0003003607799422362 0.0 0.0020147697191430615 0.0 0.0
0.00024769516950744755 -0.0013336194293169113 0.0 0.0013489789676563477 0.0 0.0
0.00015537748557453845 -0.0009763463030189384 0.0 -0.0011991832034484924 0.0 0.0
-6.8899484762197e-05 -0.0002591699910683332 0.0 -0.0018423191899142317 0.0 0.0
-0.00043611612747444046 0.00016681236015383128 0.0 -0.002228943612065722 0.0 0.0
-0.0006843746924546461 0.0003490835266160177 0.0 -0.0022321888311081254 0.0 0.0
-0.0009169302886487881 0.0004648690533150589 0.0 -0.002213553274809198 0.0 0.0
-0.0012653981968393287 0.0005977545173538111 0.0 -0.002263971091280076 0.0 0.0
-0.001986033813848127 0.0009471616395594965 0.0 -0.002529213535679943 0.0 0.0
-0.0034413875043668067 0.0019686193451939745 0.0 -0.0034025659034117106 0.0 0.0
-0.005842854671307914 0.004019377386849773 0.0 -0.005045230786811123 0.0 0.0
-0.00914431950340314 0.00709594070590534 0.0 -0.007337456153171967 0.0 0.0
-0.013143788230380761 0.010917714736520936 0.0 -0.009950641633808238 0.0 0.0
-0.01766270708572637 0.015258506104502034 0.0 -0.01256331006625034 0.0 0.0
-0.022648543116167433 0.02006075692370695 0.0 -0.015064962005427639 0.0 0.0
-0.02812372118979254 0.025369258089897113 0.0 -0.01749975732639624 0.0 0.0
-0.034065411755358835 0.031183069142158362 0.0 -0.02005301191500087 0.0 0.0
-0.040266687832177524 0.03732236897254109 0.0 -0.023079737685212875 0.0 0.0
-0.046237836145060746 0.04330969408837902 0.0 -0.027025173185961267 0.0 0.0
-0.051051895960550625 0.04827209153512623 0.0 -0.03186122831128354 0.0 0.0
-0.053055758426388266 0.050607003421402084 0.0 -0.036253783607114155 0.0 0.0
-0.04906834339170931 0.04746481553963287 0.0 -0.037597840753345005 0.0 0.0
-0.04504430201986784 0.033038399864172466 0.0 2.072127192054296e-14 0.0 0.0
-0.04906834339170391 0.04746481553962239 0.0 0.0375978407533959 0.0 0.0
-0.053055758426373015 0.05060700342139118 0.0 0.036253783607162374 0.0 0.0
-0.05105189596052366 0.048272091535096935 0.0 0.03186122831130567 0.0 0.0
-0.04623783614502666 0.043309694088348526 0.0 0.027025173185958033 0.0 0.0
-0.04026668783214165 0.03732236897250659 0.0 0.023079737685196722 0.0 0.0
-0.03406541175532383 0.031183069142125402 0.0 0.020053011914982807 0.0 0.0
-0.02812372118975779 0.025369258089863442 0.0 0.017499757326382384 0.0 0.0
-0.022648543116132496 0.020060756923672988 0.0 0.015064962005412224 0.0 0.0
-0.017662707085693168 0.015258506104471794 0.0 0.012563310066227884 0.0 0.0
-0.013143788230351325 0.010917714736490334 0.0 0.00995064163378442 0.0 0.0
-0.009144319503379742 0.007095940705879473 0.0 0.007337456153153815 0.0 0.0
-0.005842854671292029 0.004019377386838406 0.0 0.005045230786800326 0.0 0.0
-0.0034413875043569687 0.0019686193451845754 0.0 0.0034025659034050432 0.0 0.0
-0.001986033813842859 0.0009471616395574929 0.0 0.00252921353567592 0.0 0.0
-0.0012653981968372497 0.000597754517352877 0.0 0.002263971091279558 0.0 0.0
-0.000916930288647834 0.0004648690533162681 0.0 0.002213553274806937 0.0 0.0
-0.0006843746924541152 0.00034908352661521056 0.0 0.002232188831107547 0.0 0.0
-0.0004361161274741042 0.0001668123601541232 0.0 0.0022289436120632813 0.0 0.0
-6.889948476211625e-05 -0.00025916999106912245 0.0 0.0018423191899128622 0.0 0.0
0.00015537748557431635 -0.0009763463030176228 0.0 0.0011991832034473923 0.0 0.0
7.613219035747437e-05 -0.0006769116112889368 0.0 -0.0010277660799546718 0.0 0.0
-0.0001363311698209647 -0.00020509306460489015 0.0 -0.0016440571030677227 0.0 0.0
-0.000523676455836312 0.00020425867849221106 0.0 -0.002069600391771132 0.0 0.0
-0.0008443274203724549 0.0004106850577236887 0.0 -0.002077159931466734 0.0 0.0
-0.0011672834349209398 0.0005649415655240625 0.0 -0.0020149237696746743 0.0 0.0
-0.001686649575978142 0.0007821474568439444 0.0 -0.0020073994223729578 0.0 0.0
-0.0027825047226367567 0.0014246606145358288 0.0 -0.002388918154221924 0.0 0.0
-0.004876778801859183 0.00307427609294757 0.0 -0.003516397733425561 0.0 0.0
-0.008164150537360288 0.006053814080982859 0.0 -0.005490989980400227 0.0 0.0
-0.012553799489693327 0.010236561714976318 0.0 -0.008092987310112335 0.0 0.0
-0.01781383325331467 0.015313603693282135 0.0 -0.010894790216098387 0.0 0.0
-0.02377126110356884 0.021079564843777758 0.0 -0.01365047672088225 0.0 0.0
-0.03037760365080361 0.027480277394954088 0.0 -0.016282885663142906 0.0 0.0
-0.03766235063719675 0.0345657975843013 0.0 -0.018848130205463748 0.0 0.0
-0.04562842421357828 0.04236817112907155 0.0 -0.02153473433721136 0.0 0.0
-0.05408043045201877 0.050735167411031755 0.0 -0.024808700781330618 0.0 0.0
-0.06238738637899108 0.05908480449347821 0.0 -0.02921364356379217 0.0 0.0
-0.06922310136178807 0.06614965515712773 0.0 -0.03468615997610431 0.0 0.0
-0.07223403814505719 0.06966369530457824 0.0 -0.03984483660756306 0.0 0.0
-0.06746169067186886 0.06587172904509829 0.0 -0.041836289710003284 0.0 0.0
-0.06251177197368783 0.04871543980795071 0.0 2.1245158410287956e-14 0.0 0.0
-0.06746169067185946 0.06587172904508769 0.0 0.04183628971005651 0.0 0.0
-0.0722340381450355 0.06966369530455555 0.0 0.039844836607613204 0.0 0.0
-0.06922310136175365 0.06614965515709544 0.0 0.03468615997613137 0.0 0.0
-0.06238738637894828 0.05908480449343152 0.0 0.029213643563792954 0.0 0.0
-0.05408043045197315 0.05073516741098958 0.0 0.024808700781315966 0.0 0.0
-0.045628424213532644 0.04236817112902666 0.0 0.021534734337193526 0.0 0.0
-0.0376623506371514 0.03456579758425951 0.0 0.018848130205446942 0.0 0.0
-0.030377603650758582 0.027480277394905054 0.0 0.016282885663126218 0.0 0.0
-0.023771261103526155 0.021079564843737995 0.0 0.013650476720858735 0.0 0.0
-0.017813833253277227 0.015313603693246424 0.0 0.010894790216072014 0.0 0.0
-0.012553799489663184 0.01023656171494295 0.0 0.008092987310092784 0.0 0.0
-0.008164150537338408 0.006053814080964382 0.0 0.005490989980386795 0.0 0.0
-0.00487677880184525 0.003074276092934042 0.0 0.003516397733416993 0.0 0.0
-0.0027825047226293863 0.0014246606145336767 0.0 0.0023889181542152606 0.0 0.0
-0.0016866495759751692 0.0007821474568424901 0.0 0.0020073994223711008 0.0 0.0
-0.001167283434919878 0.000564941565523973 0.0 0.0020149237696729747 0.0 0.0
-0.0008443274203719554 0.0004106850577230808 0.0 0.0020771599314642524 0.0 0.0
-0.0005236764558361117 0.00020425867849198975 0.0 0.0020696003917691527 0.0 0.0
-0.00013633116982085568 -0.000205093064605386 0.0 0.001644057103067387 0.0 0.0
7.613219035734162e-05 -0.0006769116112879474 0.0 0.0010277660799529436 0.0 0.0
7.065658403801097e-06 -0.0004317927075574543 0.0 -0.0008481567533316784 0.0 0.0
-0.00019808168944525513 -0.00014232535078103213 0.0 -0.0014188187615669018 0.0 0.0
-0.0006069177007460709 0.00024166709348670697 0.0 -0.0018570968803974333 0.0 0.0
-0.0009939198011098534 0.00046627457543299675 0.0 -0.001865663652259052 0.0 0.0
-0.0014135941783954482 0.0006560284772038897 0.0 -0.0017538577345670213 0.0 0.0
-0.0021485442172395042 0.001004746646872759 0.0 -0.0017273254271019715 0.0 0.0
-0.003678457266497381 0.0020403702335563883 0.0 -0.002204962596463313 0.0 0.0
-0.006445871183722461 0.004391338212589067 0.0 -0.0034878120236913903 0.0 0.0
-0.01061184999338947 0.008282735379578942 0.0 -0.005616395450891652 0.0 0.0
-0.016046678264796423 0.013508629006415404 0.0 -0.008228617196917034 0.0 0.0
-0.022538705066289067 0.019804966968594115 0.0 -0.010991175883967363 0.0 0.0
-0.029933944274977302 0.02698913194980103 0.0 -0.013707874630600385 0.0 0.0
-0.03816496273905744 0.03499266148944885 0.0 -0.016319055901846725 0.0 0.0
-0.04725511563671863 0.043856324765279515 0.0 -0.018878290473126214 0.0 0.0
-0.057235678054024644 0.05363481721977104 0.0 -0.021536333374982286 0.0 0.0
-0.06791307136284729 0.06420283579783077 0.0 -0.024682209625785524 0.0 0.0
-0.07850771221056888 0.07487335043553199 0.0 -0.028938429285805617 0.0 0.0
-0.08726971145338429 0.08397511483580915 0.0 -0.03451496302192085 0.0 0.0
-0.09114908376760109 0.08851581855875904 0.0 -0.04032562670091349 0.0 0.0
-0.08561864680397736 0.08403479616350633 0.0 -0.04434723754183988 0.0 0.0
-0.07984031308169802 0.06444774416023154 0.0 2.2225277174214852e-14 0.0 0.0
-0.08561864680396417 0.08403479616349721 0.0 0.04434723754189179 0.0 0.0
-0.09114908376757362 0.0885158185587264 0.0 0.04032562670096411 0.0 0.0
-0.08726971145334275 0.08397511483577112 0.0 0.03451496302194751 0.0 0.0
-0.07850771221051837 0.07487335043547608 0.0 0.028938429285808115 0.0 0.0
-0.06791307136279238 0.06420283579777752 0.0 0.024682209625776504 0.0 0.0
-0.05723567805396898 0.053634817219717336 0.0 0.021536333374970386 0.0 0.0
-0.04725511563666299 0.04385632476523039 0.0 0.018878290473110078 0.0 0.0
-0.03816496273900205 0.03499266148939204 0.0 0.016319055901831744 0.0 0.0
-0.029933944274925642 0.02698913194975059 0.0 0.013707874630577068 0.0 0.0
-0.02253870506624364 0.0198049669685475 0.0 0.010991175883940524 0.0 0.0
-0.01604667826475974 0.013508629006377483 0.0 0.008228617196897726 0.0 0.0
-0.01061184999336255 0.008282735379553135 0.0 0.005616395450878913 0.0 0.0
-0.006445871183704338 0.004391338212572322 0.0 0.0034878120236811793 0.0 0.0
-0.0036784572664871175 0.002040370233550277 0.0 0.002204962596457567 0.0 0.0
-0.0021485442172348595 0.0010047466468691849 0.0 0.001727325427098535 0.0 0.0
-0.001413594178394025 0.0006560284772033209 0.0 0.0017538577345654629 0.0 0.0
-0.000993919801109254 0.0004662745754337713 0.0 0.0018656636522567816 0.0 0.0
-0.0006069177007455634 0.0002416670934869087 0.0 0.0018570968803968903 0.0 0.0
-0.0001980816894448754 -0.00014232535078110816 0.0 0.0014188187615667353 0.0 0.0
7.065658404179243e-06 -0.0004317927075567424 0.0 0.000848156753329218 0.0 0.0
-5.1385449230729815e-05 -0.00023982724665215082 0.0 -0.0006652769754990453 0.0 0.0
-0.00025366139541040334 -7.583755592897087e-05 0.0 -0.0011687288412965957 0.0 0.0
-0.000686194270389664 0.00027939557191377696 0.0 -0.0015918410747928565 0.0 0.0
-0.0011362416459455567 0.0005155267987085846 0.0 -0.0015970183231825098 0.0 0.0
-0.001668591934020971 0.0007461549831602952 0.0 -0.0014405653220778622 0.0 0.0
-0.0026629411186360496 0.0012886020345946416 0.0 -0.001419351269701609 0.0 0.0
-0.0046736375048473 0.002803651546108787 0.0 -0.0019514443739924248 0.0 0.0
-0.00812624524993944 0.005881621338142475 0.0 -0.003299774216942273 0.0 0.0
-0.013129793377301953 0.010618395189343198 0.0 -0.00531002875639795 0.0 0.0
-0.019573866260241945 0.016843792573317192 0.0 -0.007708253241799664 0.0 0.0
-0.027291194187462446 0.024345400482588528 0.0 -0.010263821053673985 0.0 0.0
-0.03612141520164391 0.03294445434829684 0.0 -0.012774919529887756 0.0 0.0
-0.04598390907763767 0.04256040867993717 0.0 -0.01520510978445001 0.0 0.0
-0.0568822011762581 0.05320887224737009 0.0 -0.01762195871031122 0.0 0.0
-0.06882955747635044 0.06492692860024417 0.0 -0.020094251374560362 0.0 0.0
-0.08163715565339622 0.07759485125169799 0.0 -0.022794816620931926 0.0 0.0
-0.0944313879197352 0.09047750646291214 0.0 -0.026289628612131032 0.0 0.0
-0.10507481529093043 0.10156728487830946 0.0 -0.03134689660757499 0.0 0.0
-0.10991127601745007 0.10721812991775138 0.0 -0.037981688032039364 0.0 0.0
-0.10389606975811361 0.10234479851213259 0.0 -0.045540200665578914 0.0 0.0
-0.09746675652140442 0.08066122898952155 0.0 2.1458529397833104e-14 0.0 0.0
-0.10389606975809623 0.10234479851212047 0.0 0.045540200665626564 0.0 0.0
-0.10991127601741618 0.10721812991771683 0.0 0.03798168803208987 0.0 0.0
-0.10507481529088182 0.10156728487825777 0.0 0.031346896607600996 0.0 0.0
-0.09443138791967642 0.09047750646284564 0.0 0.02628962861213336 0.0 0.0
-0.08163715565333188 0.07759485125164113 0.0 0.02279481662092524 0.0 0.0
-0.06882955747628507 0.06492692860017797 0.0 0.020094251374548934 0.0 0.0
-0.05688220117619275 0.053208872247308865 0.0 0.01762195871029597 0.0 0.0
-0.04598390907757274 0.04256040867987318 0.0 0.015205109784433665 0.0 0.0
-0.03612141520158304 0.032944454348233634 0.0 0.012774919529865926 0.0 0.0
-0.027291194187409145 0.024345400482539303 0.0 0.01026382105364972 0.0 0.0
-0.019573866260198327 0.016843792573275375 0.0 0.007708253241778984 0.0 0.0
-0.01312979337726952 0.01061839518930979 0.0 0.005310028756386926 0.0 0.0
-0.008126245249917233 0.005881621338119484 0.0 0.00329977421693285 0.0 0.0
-0.004673637504834188 0.0028036515460969588 0.0 0.0019514443739868078 0.0 0.0
-0.002662941118630407 0.0012886020345921829 0.0 0.0014193512696985683 0.0 0.0
-0.0016685919340189738 0.0007461549831603023 0.0 0.001440565322077044 0.0 0.0
-0.001136241645944653 0.0005155267987095649 0.0 0.0015970183231819245 0.0 0.0
-0.0006861942703891876 0.00027939557191387443 0.0 0.001591841074792216 0.0 0.0
-0.0002536613954104445 -7.583755592875542e-05 0.0 0.0011687288412951164 0.0 0.0
-5.1385449231045684e-05 -0.00023982724665169643 0.0 0.0006652769754988262 0.0 0.0
-9.664222604475911e-05 -0.00010123059138278345 0.0 -0.00048394729841682487 0.0 0.0
-0.0003003004167889022 -1.1060892950018726e-05 0.0 -0.0008967345484820384 0.0 0.0
-0.0007603222863068698 0.00031636066791979457 0.0 -0.0012725114906979064 0.0 0.0
-0.0012749321361871424 0.0005588305893832101 0.0 -0.001268637701838857 0.0 0.0
-0.0019439052053349328 0.00084902406129567 0.0 -0.0010779051023642708 0.0 0.0
-0.0032439188728738697 0.0016532943109022575 0.0 -0.0010667783265455122 0.0 0.0
-0.005767363340048178 0.003715313887830916 0.0 -0.0016314886949282629 0.0 0.0
-0.009872651703891894 0.0074762954594766815 0.0 -0.002843632576445523 0.0 0.0
-0.015668809330200553 0.013000179609847102 0.0 -0.004526062608062654 0.0 0.0
-0.023109235800931438 0.020204268152455098 0.0 -0.006560006433549474 0.0 0.0
-0.03204000755476768 0.028898681911844838 0.0 -0.008731912974274766 0.0 0.0
-0.0423051479021674 0.03891134071499994 0.0 -0.010869493011043266 0.0 0.0
-0.05380963261149959 0.050149454154737594 0.0 -0.012952503370518337 0.0 0.0
-0.06651329070122235 0.06259260629573155 0.0 -0.015065912329241378 0.0 0.0
-0.08037128977921887 0.07621002711167567 0.0 -0.017227010477466366 0.0 0.0
-0.09515268239660382 0.09081948362482646 0.0 -0.019332068839884146 0.0 0.0
-0.10997148940576121 0.10568844807573255 0.0 -0.02156845411966436 0.0 0.0
-0.12252070618335992 0.11874414690690988 0.0 -0.025275006890733476 0.0 0.0
-0.12864629378223041 0.12586062549051374 0.0 -0.03273571848773141 0.0 0.0
-0.12263100727714424 0.12117268297107953 0.0 -0.045159082418346014 0.0 0.0
-0.11579287796555546 0.0977840807204645 0.0 1.7808671204377902e-14 0.0 0.0
-0.12263100727712363 0.12117268297106024 0.0 0.045159082418385954 0.0 0.0
-0.1286462937821905 0.12586062549047275 0.0 0.03273571848777416 0.0 0.0
-0.12252070618330374 0.11874414690685167 0.0 0.02527500689075491 0.0 0.0
-0.10997148940569351 0.10568844807565378 0.0 0.02156845411966704 0.0 0.0
-0.09515268239653024 0.0908194836247603 0.0 0.019332068839881245 0.0 0.0
-0.08037128977914358 0.07621002711159794 0.0 0.01722701047745623 0.0 0.0
-0.06651329070114692 0.06259260629565686 0.0 0.015065912329229485 0.0 0.0
-0.05380963261142507 0.050149454154664264 0.0 0.012952503370504916 0.0 0.0
-0.04230514790209761 0.038911340714931505 0.0 0.01086949301102532 0.0 0.0
-0.032040007554706984 0.02889868191178615 0.0 0.008731912974255055 0.0 0.0
-0.023109235800881596 0.02020426815240592 0.0 0.006560006433532122 0.0 0.0
-0.015668809330162344 0.013000179609809866 0.0 0.004526062608050732 0.0 0.0
-0.009872651703865302 0.007476295459449429 0.0 0.002843632576437484 0.0 0.0
-0.00576736334003198 0.003715313887815596 0.0 0.001631488694922046 0.0 0.0
-0.0032439188728661133 0.0016532943108997073 0.0 0.0010667783265445993 0.0 0.0
-0.0019439052053321832 0.0008490240612942226 0.0 0.001077905102364911 0.0 0.0
-0.0012749321361860198 0.0005588305893814769 0.0 0.0012686377018379627 0.0 0.0
-0.0007603222863063449 0.00031636066791984607 0.0 0.0012725114906964245 0.0 0.0
-0.00030030041678859467 -1.106089295017582e-05 0.0 0.0008967345484814054 0.0 0.0
-9.664222604415867e-05 -0.00010123059138239467 0.0 0.00048394729841658244 0.0 0.0
-0.00012387113937308494 -1.6714319476458136e-05 0.0 -0.0003141082059044878 0.0 0.0
-0.0003323591981279949 4.522523126392854e-05 0.0 -0.0006067232375738978 0.0 0.0
-0.0008266976876521174 0.0003495356975754845 0.0 -0.0008926173461774487 0.0 0.0
-0.0014166709909711151 0.0005998367336513569 0.0 -0.0008752906283104449 0.0 0.0
-0.0022534412175683155 0.0009811669660419434 0.0 -0.0006750322301954418 0.0 0.0
-0.003903598848189015 0.002127915300512446 0.0 -0.0006799059928915082 0.0 0.0
-0.006928690142902575 0.0047396290894748845 0.0 -0.0011770064808229255 0.0 0.0
-0.011644568958423644 0.009115812567340058 0.0 -0.002054636287041874 0.0 0.0
-0.018208844741339433 0.015397674308997626 0.0 -0.0032914404140659955 0.0 0.0
-0.02662285617281234 0.023556568296176007 0.0 -0.004792862982658684 0.0 0.0
-0.036756612589069364 0.03343202976890384 0.0 -0.006405679580233514 0.0 0.0
-0.0484549816520656 0.04485767712542222 0.0 -0.007997412342934605 0.0 0.0
-0.061606184856074664 0.057726243441543756 0.0 -0.009567887125090452 0.0 0.0
-0.07612395669285107 0.07197114999868298 0.0 -0.011210991061176857 0.0 0.0
-0.09184525370001588 0.08745666211441726 0.0 -0.012899311685257354 0.0 0.0
-0.10840287120150996 0.10385051734917951 0.0 -0.01437084210933776 0.0 0.0
-0.12495231347366903 0.12037695024287057 0.0 -0.015367486343290004 0.0 0.0
-0.13942186345876398 0.13520355861983216 0.0 -0.0169621542687665 0.0 0.0
-0.14739536886782453 0.1443761088961395 0.0 -0.023715932861762185 0.0 0.0
-0.14217933129553978 0.14095874145024717 0.0 -0.042173580317470725 0.0 0.0
-0.13533543124689787 0.1164258673605886 0.0 1.3374717999781183e-14 0.0 0.0
-0.14217933129551488 0.1409587414502239 0.0 0.042173580317501284 0.0 0.0
-0.147395368867777 0.1443761088960879 0.0 0.023715932861795817 0.0 0.0
-0.13942186345869972 0.1352035586197692 0.0 0.016962154268783454 0.0 0.0
-0.12495231347359254 0.12037695024278972 0.0 0.015367486343290281 0.0 0.0
-0.1084028712014269 0.10385051734909909 0.0 0.014370842109335293 0.0 0.0
-0.09184525369993121 0.0874566621143348 0.0 0.012899311685251921 0.0 0.0
-0.0761239566927656 0.07197114999860034 0.0 0.011210991061170253 0.0 0.0
-0.06160618485599064 0.057726243441460684 0.0 0.009567887125082997 0.0 0.0
-0.048454981651987264 0.044857677125343484 0.0 0.007997412342921128 0.0 0.0
-0.03675661258900132 0.03343202976883571 0.0 0.006405679580216806 0.0 0.0
-0.026622856172756736 0.02355656829612046 0.0 0.0047928629826482156 0.0 0.0
-0.01820884474129597 0.015397674308956735 0.0 0.003291440414056235 0.0 0.0
-0.011644568958392781 0.009115812567309808 0.0 0.002054636287035584 0.0 0.0
-0.006928690142883803 0.004739629089458748 0.0 0.0011770064808181275 0.0 0.0
-0.0039035988481796987 0.0021279153005068895 0.0 0.00067990599289089 0.0 0.0
-0.002253441217565003 0.0009811669660396481 0.0 0.0006750322301959234 0.0 0.0
-0.001416670990970118 0.0005998367336492782 0.0 0.0008752906283113367 0.0 0.0
-0.0008266976876513937 0.0003495356975755266 0.0 0.0008926173461748445 0.0 0.0
-0.0003323591981276283 4.522523126388183e-05 0.0 0.0006067232375727269 0.0 0.0
-0.00012387113937313064 -1.6714319476483164e-05 0.0 0.00031410820590518646 0.0 0.0
-0.00012458817623253103 1.3892392963628184e-05 0.0 -0.00017732186713066884 0.0 0.0
-0.00033985240971854395 8.258791973445819e-05 0.0 -0.00030397693746005334 0.0 0.0
-0.0008809883574606098 0.0003734445232646185 0.0 -0.0004350165753684787 0.0 0.0
-0.0015721528953973201 0.0006494330366398397 0.0 -0.0004115540034403016 0.0 0.0
-0.0026156384888623976 0.001167878215793174 0.0 -0.0002452836009460693 0.0 0.0
-0.004632600917376965 0.00271065242047266 0.0 -0.00024135495948809148 0.0 0.0
-0.00813100724379364 0.005828721353444588 0.0 -0.0005142579282055786 0.0 0.0
-0.013419955333295847 0.010774779237443901 0.0 -0.0009700657336088683 0.0 0.0
-0.020721557870950702 0.017780763217029608 0.0 -0.0016130972165463787 0.0 0.0
-0.030085598796137494 0.026867650449586094 0.0 -0.0024136782231000947 0.0 0.0
-0.04141029768259827 0.03791349714042244 0.0 -0.003282712828905477 0.0 0.0
-0.05454246829651459 0.050755235529359705 0.0 -0.004158345949524583 0.0 0.0
-0.069346549913025 0.06525935483674207 0.0 -0.00506851554614793 0.0 0.0
-0.08566613724251286 0.08129587594684604 0.0 -0.0060405876137252885 0.0 0.0
-0.10321726528924235 0.09862211848680177 0.0 -0.007033567920614008 0.0 0.0
-0.1214416044075369 0.11671742988938696 0.0 -0.007858312915352567 0.0 0.0
-0.13936343442232055 0.13462040435500788 0.0 -0.008136610738207277 0.0 0.0
-0.15534228973685735 0.15069287321679137 0.0 -0.0080146695941524 0.0 0.0
-0.16588248915798326 0.1619285568770275 0.0 -0.011308649750295413 0.0 0.0
-0.16305802303887124 0.16205198476681024 0.0 -0.0312098185913812 0.0 0.0
-0.1569383211197252 0.1383740037433217 0.0 5.6604027021123215e-15 0.0 0.0
-0.16305802303884256 0.16205198476678365 0.0 0.031209818591400103 0.0 0.0
-0.16588248915792858 0.16192855687696894 0.0 0.011308649750313662 0.0 0.0
-0.15534228973678404 0.15069287321671623 0.0 0.008014669594160185 0.0 0.0
-0.13936343442223403 0.13462040435492426 0.0 0.008136610738207145 0.0 0.0
-0.12144160440744363 0.11671742988929601 0.0 0.007858312915353025 0.0 0.0
-0.10321726528914785 0.09862211848670985 0.0 0.007033567920612686 0.0 0.0
-0.0856661372424181 0.08129587594675325 0.0 0.006040587613719546 0.0 0.0
-0.06934654991293127 0.06525935483665343 0.0 0.00506851554614328 0.0 0.0
-0.05454246829642703 0.050755235529270026 0.0 0.004158345949516132 0.0 0.0
-0.04141029768252301 0.03791349714035199 0.0 0.0032827128288973016 0.0 0.0
-0.030085598796076495 0.026867650449525757 0.0 0.0024136782230936545 0.0 0.0
-0.020721557870902883 0.01778076321698573 0.0 0.0016130972165410485 0.0 0.0
-0.013419955333261032 0.010774779237413304 0.0 0.0009700657336045805 0.0 0.0
-0.008131007243771372 0.005828721353425119 0.0 0.0005142579282012614 0.0 0.0
-0.004632600917364997 0.002710652420463472 0.0 0.00024135495948699926 0.0 0.0
-0.0026156384888577264 0.0011678782157915578 0.0 0.0002452836009464926 0.0 0.0
-0.0015721528953958402 0.0006494330366403462 0.0 0.0004115540034413026 0.0 0.0
-0.0008809883574598409 0.00037344452326470176 0.0 0.00043501657536533137 0.0 0.0
-0.00033985240971808094 8.258791973474332e-05 0.0 0.000303976937458415 0.0 0.0
-0.00012458817623226925 1.389239296342196e-05 0.0 0.00017732186713095879 0.0 0.0
-8.358710409285997e-05 1.585327071480539e-05 0.0 -0.00010911895267601489 0.0 0.0
-0.000305260404890417 9.4898163887947e-05 0.0 -0.000126297526215398 0.0 0.0
-0.0009177059112842252 0.0003822652873552147 0.0 -0.00014532056676262907 0.0 0.0
-0.0017591603810047666 0.0006782057780238084 0.0 -9.722067237447631e-05 0.0 0.0
-0.003041632512386124 0.0012795689510851794 0.0 0.00013868126793111738 0.0 0.0
-0.0054143429301642485 0.0030244828721457504 0.0 0.0003437472702434364 0.0 0.0
-0.009352930855519866 0.006384519875498736 0.0 0.00043822595130172586 0.0 0.0
-0.015179762664585131 0.011606590246504227 0.0 0.00047100337875077445 0.0 0.0
-0.02318072515349696 0.0189646142076702 0.0 0.00044173398415678594 0.0 0.0
-0.03346655946569528 0.028508946795761513 0.0 0.00031560560071442617 0.0 0.0
-0.04597206741620404 0.040136959125397206 0.0 0.0001339399092606915 0.0 0.0
-0.06054312393548764 0.053688853124150525 0.0 -9.86601738571305e-05 0.0 0.0
-0.07698967903352752 0.06901122814041985 0.0 -0.00042096733557292574 0.0 0.0
-0.0950862169311503 0.08593733105662754 0.0 -0.0008053761615809127 0.0 0.0
-0.114448208962401 0.10417815260092454 0.0 -0.0012814148584123306 0.0 0.0
-0.13432609116348218 0.12311542024932705 0.0 -0.0017699940003784095 0.0 0.0
-0.15346902309239144 0.14165576344988748 0.0 -0.002031323174060495 0.0 0.0
-0.17017023913508778 0.15818269905499124 0.0 -0.0018107687906887687 0.0 0.0
-0.1824603925738014 0.17028099649222056 0.0 -0.00337111360873534 0.0 0.0
-0.1854596610904254 0.17294870632435683 0.0 -0.023416317076861856 0.0 0.0
-0.18367251807781962 0.15052809524410807 0.0 -3.4833247397614286e-15 0.0 0.0
-0.18545966109039283 0.17294870632432466 0.0 0.02341631707686867 0.0 0.0
-0.18246039257373964 0.1702809964921605 0.0 0.003371113608741476 0.0 0.0
-0.17017023913500404 0.15818269905491075 0.0 0.0018107687906899206 0.0 0.0
-0.15346902309229415 0.1416557634498038 0.0 0.002031323174057926 0.0 0.0
-0.13432609116337857 0.12311542024923068 0.0 0.0017699940003796481 0.0 0.0
-0.11444820896229681 0.10417815260082247 0.0 0.0012814148584121676 0.0 0.0
-0.09508621693104546 0.08593733105652598 0.0 0.0008053761615776991 0.0 0.0
-0.0769896790334238 0.06901122814033303 0.0 0.00042096733557258313 0.0 0.0
-0.06054312393539188 0.05368885312405611 0.0 9.866017385163142e-05 0.0 0.0
-0.04597206741612198 0.04013695912532253 0.0 -0.00013393990926011384 0.0 0.0
-0.033466559465629486 0.028508946795697744 0.0 -0.000315605600717043 0.0 0.0
-0.023180725153445186 0.018964614207625616 0.0 -0.0004417339841573907 0.0 0.0
-0.015179762664546223 0.011606590246475049 0.0 -0.0004710033787529071 0.0 0.0
-0.009352930855494374 0.006384519875474039 0.0 -0.0004382259513035934 0.0 0.0
-0.005414342930150063 0.003024482872136209 0.0 -0.0003437472702428235 0.0 0.0
-0.0030416325123803923 0.0012795689510834577 0.0 -0.00013868126792962747 0.0 0.0
-0.0017591603810031727 0.0006782057780257096 0.0 9.722067237522816e-05 0.0 0.0
-0.000917705911283584 0.0003822652873555572 0.0 0.00014532056675997646 0.0 0.0
-0.00030526040489000663 9.489816388802907e-05 0.0 0.00012629752621659928 0.0 0.0
-8.358710409270316e-05 1.5853270714833063e-05 0.0 0.00010911895267325233 0.0 0.0
SCALARS Statev float 8
LOOKUP_TABLE default
0.0 0.0186780628303158 0.014982367990817265 -0.01782832189182403 0.002845953901006756 -0.0010219365942912618 0.0 0.0
0.0 0.006421247726672052 0.0047346213189195935 -0.0029603864233803605 -0.0017742348955392321 -0.006956200293476778 0.0 0.0
0.0 0.00013745014090115 0.00018822958236981515 -0.00011557197244621106 -7.265760992360402e-05 -0.00031500589374853274 0.0 0.0
0.0 0.00016109320403059278 7.627104002623568e-05 -5.46438152434621e-05 -2.1627224782773756e-05 2.4943609985825493e-05 0.0 0.0
0.0 0.001009315259414319 0.0006920112005859377 -0.0005069827928904319 -0.00018502840769550524 0.00014453870832402307 0.0 0.0
0.0 0.0026416156346064736 0.0026063765918003514 -0.0020703385867063854 -0.0005360380050939697 0.00030184150399217066 0.0 0.0
0.0 0.0066621095539347065 0.006106409974701368 -0.005242438616659185 -0.0008639713580421739 0.00042395035937324344 0.0 0.0
0.0 0.012803695855545145 0.011553803507231038 -0.010430937130794581 -0.0011228663764364564 0.0004805826530709718 0.0 0.0
0.0 0.021487994129688704 0.019178132750303195 -0.017824873474715605 -0.0013532592755875822 0.000471974676049039 0.0 0.0
0.0 0.032846002958182366 0.029068613847732717 -0.027463406003122186 -0.0016052078446105586 0.00037121151798418563 0.0 0.0
0.0 0.0467925399108618 0.041160133857112216 -0.03926073915468003 -0.001899394702432142 0.0002099738950192382 0.0 0.0
0.0 0.06283163274004702 0.05531047309430898 -0.05307128310985794 -0.002239189984450956 -1.1235113490824984e-05 0.0 0.0
0.0 0.0811210471913934 0.07134509506814543 -0.06873091331043689 -0.0026141817577085003 -0.0003225738081584803 0.0 0.0
0.0 0.10139335731797108 0.08908385814776029 -0.08607303408156872 -0.0030108240661913762 -0.0006730323765215057 0.0 0.0
0.0 0.12335367250305004 0.10826564133050942 -0.10485500582436058 -0.0034106355061487054 -0.0010952813034457065 0.0 0.0
0.0 0.14647752149757134 0.12839587369438504 -0.12460273241367165 -0.0037931412807134827 -0.0015771698039101158 0.0 0.0
0.0 0.16976982653265377 0.14864156440744627 -0.14450382306224457 -0.004137741345201635 -0.002026901260462228 0.0 0.0
0.0 0.19185580777031724 0.16782130784835333 -0.16339774234643262 -0.0044235655019207315 -0.0022751330311458345 0.0 0.0
0.0 0.2110712276617259 0.1845049471922651 -0.17986005263005844 -0.004644894562206474 -0.0021499291435374524 0.0 0.0
0.0 0.22521225082397403 0.19697835704430944 -0.1922030003961044 -0.0047753566482051 -0.002414244927563537 0.0 0.0
0.0 0.23117322339234453 0.20198984035508194 -0.1972320423564481 -0.004757797998633807 3.4191399711502868e-15 0.0 0.0
0.0 0.22521225082393853 0.19697835704427896 -0.19220300039607308 -0.004775356648205809 0.002414244927571768 0.0 0.0
0.0 0.21107122766166128 0.1845049471922086 -0.17986005263000257 -0.004644894562206042 0.0021499291435444438 0.0 0.0
0.0 0.19185580777022404 0.16782130784827226 -0.16339774234635246 -0.004423565501919722 0.002275133031150939 0.0 0.0
0.0 0.1697698265325444 0.14864156440735127 -0.14450382306215165 -0.004137741345199742 0.0020269012604608345 0.0 0.0
0.0 0.14647752149746296 0.12839587369428973 -0.12460273241357855 -0.0037931412807111903 0.0015771698039066112 0.0 0.0
0.0 0.12335367250293817 0.1082656413304117 -0.10485500582426494 -0.0034106355061466853 0.0010952813034446921 0.0 0.0
0.0 0.10139335731785777 0.08908385814766122 -0.0860730340814722 -0.0030108240661890604 0.0006730323765210071 0.0 0.0
0.0 0.08112104719128764 0.07134509506805307 -0.06873091331034675 -0.0026141817577062768 0.00032257380815594455 0.0 0.0
0.0 0.06283163273994373 0.055310473094219034 -0.053071283109768955 -0.002239189984449995 1.1235113486783837e-05 0.0 0.0
0.0 0.04679253991077606 0.04116013385703711 -0.039260739154606955 -0.0018993947024301412 -0.00020997389502257343 0.0 0.0
0.0 0.03284600295811345 0.029068613847672377 -0.027463406003063566 -0.0016052078446088366 -0.00037121151798584116 0.0 0.0
0.0 0.021487994129637627 0.01917813275025809 -0.017824873474671876 -0.0013532592755861757 -0.0004719746760496393 0.0 0.0
0.0 0.012803695855510926 0.011553803507200252 -0.010430937130764959 -0.0011228663764352872 -0.00048058265307117864 0.0 0.0
0.0 0.006662109553913036 0.006106409974681088 -0.005242438616640458 -0.0008639713580406231 -0.0004239503593728986 0.0 0.0
0.0 0.0026416156345968303 0.002606376591790621 -0.002070338586698059 -0.0005360380050925635 -0.0003018415039914563 0.0 0.0
0.0 0.001009315259408772 0.0006920112005817573 -0.0005069827928872993 -0.00018502840769445692 -0.0001445387083233325 0.0 0.0
0.0 0.00016109320402976992 7.627104002626015e-05 -5.4643815243513646e-05 -2.1627224782745926e-05 -2.494360998566612e-05 0.0 0.0
0.0 0.00013745014090034646 0.0001882295823692037 -0.00011557197244584529 -7.265760992335789e-05 0.00031500589374720763 0.0 0.0
0.0 0.0064212477266617305 0.004734621318914313 -0.0029603864233764153 -0.0017742348955378975 0.006956200293468051 0.0 0.0
0.0 0.018678062830294266 0.014982367990802775 -0.017828321891804208 0.0028459539010014224 0.0010219365942508594 0.0 0.0
0.0 0.015259674420208761 0.011457067148450753 -0.01477832489377488 0.0033212577453241125 -0.0005333818049742423 0.0 0.0
0.0 0.003971040588258128 0.0028513312665420817 -0.0017625903316718227 -0.0010887409348702532 -0.005501724738168383 0.0 0.0
0.0 -7.793063539720415e-05 -7.17882999867035e-05 6.475733151118575e-05 7.030968475517747e-06 -8.457018254522968e-05 0.0 0.0
0.0 3.750541812568186e-05 2.9006911405328415e-05 -2.094130571873214e-05 -8.065605686596293e-06 1.1490450566626159e-05 0.0 0.0
0.0 0.0005624923117816464 0.0004506174654269012 -0.0003328132422687623 -0.00011780422315813891 5.783669364116019e-05 0.0 0.0
0.0 0.0023036735759874795 0.002010083112271015 -0.0016124713981413492 -0.0003976117141296675 5.272289198521719e-05 0.0 0.0
0.0 0.00566498082229121 0.005181120574748455 -0.004502958119510483 -0.0006781624552379704 -0.00021281937272564768 0.0 0.0
0.0 0.011363542878786523 0.010173079710159365 -0.009316223732797693 -0.0008568559773616832 -0.0006636757493438078 0.0 0.0
0.0 0.019466796011668633 0.017208620405345154 -0.01623687292414606 -0.0009717474811990836 -0.0012983544156416566 0.0 0.0
0.0 0.02998666477631901 0.02632941030998307 -0.0252605233798055 -0.0010688869301775591 -0.0020876848222595875 0.0 0.0
0.0 0.04284092521338481 0.03743797528162784 -0.036273823246610506 -0.0011641520350173676 -0.002958003583397274 0.0 0.0
0.0 0.05796110103962339 0.050389029486875826 -0.049126687574213415 -0.0012623419126624254 -0.003850952621532058 0.0 0.0
0.0 0.0746126675272328 0.06505856270266575 -0.0636949109345826 -0.001363651768083093 -0.004781313020662667 0.0 0.0
0.0 0.09337376685145896 0.08130438323963245 -0.07984340966287826 -0.0014609735767541943 -0.005753967485179386 0.0 0.0
0.0 0.1136843196781821 0.0988998013870635 -0.09735630384420067 -0.0015434975428626927 -0.006741488223738552 0.0 0.0
0.0 0.135074342438575 0.11740801658651971 -0.11580594262537895 -0.001602073961140856 -0.0076620733814528955 0.0 0.0
0.0 0.15671047713100122 0.13608491452814753 -0.134453901884455 -0.0016310126436923675 -0.008291776715160197 0.0 0.0
0.0 0.17734754414304094 0.15386077171503795 -0.15222948379037987 -0.0016312879246581625 -0.008298417547582412 0.0 0.0
0.0 0.19531805129370255 0.1693395041469581 -0.16774258511471826 -0.0015969190322398337 -0.007472578307956961 0.0 0.0
0.0 0.20844101156576575 0.18057175148499968 -0.17910955298486175 -0.001462198500137986 -0.00639667994069801 0.0 0.0
0.0 0.2140804975884001 0.18495416544731422 -0.1837015600734477 -0.001252605373866599 8.143225677104127e-15 0.0 0.0
0.0 0.20844101156573538 0.18057175148497323 -0.17910955298483475 -0.0014621985001383483 0.006396679940718458 0.0 0.0
0.0 0.19531805129364652 0.1693395041469092 -0.16774258511467013 -0.0015969190322388963 0.007472578307977023 0.0 0.0
0.0 0.17734754414295462 0.15386077171496393 -0.15222948379030513 -0.0016312879246588147 0.008298417547594026 0.0 0.0
0.0 0.156710477130904 0.13608491452806398 -0.13445390188437126 -0.0016310126436927792 0.00829177671516049 0.0 0.0
0.0 0.13507434243847719 0.11740801658643463 -0.1158059426252947 -0.0016020739611396677 0.007662073381447984 0.0 0.0
0.0 0.11368431967807668 0.09889980138697196 -0.09735630384410957 -0.0015434975428624818 0.006741488223736398 0.0 0.0
0.0 0.09337376685135743 0.08130438323954435 -0.07984340966279099 -0.0014609735767532608 0.00575396748517607 0.0 0.0
0.0 0.07461266752713261 0.06505856270257909 -0.06369491093449645 -0.001363651768082695 0.004781313020657487 0.0 0.0
0.0 0.0579611010395294 0.050389029486794315 -0.04912668757413195 -0.0012623419126623436 0.0038509526215256447 0.0 0.0
0.0 0.04284092521330616 0.03743797528155988 -0.036273823246542845 -0.0011641520350170757 0.002958003583388728 0.0 0.0
0.0 0.029986664776254276 0.02632941030992633 -0.025260523379749204 -0.00106888693017709 0.0020876848222538954 0.0 0.0
0.0 0.01946679601162253 0.017208620405304194 -0.01623687292410588 -0.0009717474811983168 0.0012983544156378068 0.0 0.0
0.0 0.011363542878754473 0.010173079710130706 -0.00931622373276973 -0.0008568559773609875 0.0006636757493404203 0.0 0.0
0.0 0.005664980822270397 0.005181120574729412 -0.004502958119492595 -0.0006781624552368108 0.000212819372723687 0.0 0.0
0.0 0.0023036735759779984 0.002010083112262678 -0.0016124713981342889 -0.0003976117141283885 -5.272289198518357e-05 0.0 0.0
0.0 0.0005624923117784217 0.0004506174654247099 -0.00033281324226711 -0.00011780422315759987 -5.783669364086665e-05 0.0 0.0
0.0 3.7505418125297685e-05 2.9006911405662986e-05 -2.0941305719001684e-05 -8.065605686661148e-06 -1.14904505665296e-05 0.0 0.0
0.0 -7.793063539728715e-05 -7.178829998647563e-05 6.475733151095904e-05 7.030968475516436e-06 8.457018254484462e-05 0.0 0.0
0.0 0.003971040588247837 0.0028513312665365167 -0.00176259033166787 -0.0010887409348686458 0.00550172473815768 0.0 0.0
0.0 0.015259674420185094 0.011457067148432644 -0.014778324893752331 0.003321257745319667 0.000533381804943788 0.0 0.0
0.0 0.011403165427187785 0.008380247467702983 -0.011107034341655686 0.002726786873952701 -0.003021519599845425 0.0 0.0
0.0 0.00275896568278443 0.0017573120083584012 -0.0009688075909059961 -0.000788504417452408 -0.004645256376481203 0.0 0.0
0.0 -3.11607825416345e-07 6.220264681924453e-07 -5.441799736328056e-07 -7.78464945596358e-08 3.9100212995752685e-07 0.0 0.0
0.0 -1.7347325708349016e-06 -3.648657950544194e-06 3.0896260303592324e-06 5.59031920184835e-07 4.360787008404742e-06 0.0 0.0
0.0 0.0002498881952686667 0.0002136003341678755 -0.00015360283854890108 -5.999749561897459e-05 1.3950661594348655e-05 0.0 0.0
0.0 0.0016428512559322256 0.0013802609773183824 -0.0010777070621532296 -0.00030255391516515183 -8.787717140074799e-05 0.0 0.0
0.0 0.004396493811187421 0.004087403444171994 -0.003481054709898815 -0.0006063487342731797 -0.000610112250754107 0.0 0.0
0.0 0.009495873128039132 0.008506410439113873 -0.007700573422950215 -0.0008058370161636481 -0.0014851119151496888 0.0 0.0
0.0 0.016741096443056658 0.014806511628383144 -0.013881292781167042 -0.0009252188472160873 -0.0027016171599465047 0.0 0.0
0.0 0.026245345971748588 0.022979673733951943 -0.021963072192175054 -0.0010166015417769044 -0.0041852349162553116 0.0 0.0
0.0 0.03777820931292539 0.032899133330646445 -0.0317938881210992 -0.0011052452095471998 -0.005803468046715446 0.0 0.0
0.0 0.05105466712689596 0.044420553181902446 -0.043222687207019564 -0.00119786597488287 -0.007430870028309157 0.0 0.0
0.0 0.06630439220810498 0.0574405749951854 -0.05614726414254311 -0.0012933108526422777 -0.009050669171566203 0.0 0.0
0.0 0.08273376199795313 0.07188032983918845 -0.07049572860963375 -0.0013846012295546614 -0.010728789239576547 0.0 0.0
0.0 0.1008731504581526 0.08755921643450232 -0.08609614434731858 -0.0014630720871838603 -0.012441133972005403 0.0 0.0
0.0 0.12002394147941155 0.10411747812352776 -0.10259697687723579 -0.0015205012462918368 -0.01401018698055501 0.0 0.0
0.0 0.1394834312823241 0.12093507962136064 -0.11938277588805833 -0.0015523037333023803 -0.015068747307300852 0.0 0.0
0.0 0.1581413279769954 0.13706336120986956 -0.13551058637067248 -0.0015527748391971834 -0.01511861359623366 0.0 0.0
0.0 0.17444288506139216 0.15112519271822555 -0.14962363957988814 -0.0015015531383372235 -0.013824102972098573 0.0 0.0
0.0 0.18627897449558756 0.16129258855285672 -0.1598743390416994 -0.0014182495111571597 -0.011174304487697314 0.0 0.0
0.0 0.19159627524982834 0.1653787136894977 -0.16420845139112242 -0.0011702622983752115 1.4662750180693962e-14 0.0 0.0
0.0 0.18627897449556247 0.16129258855283382 -0.1598743390416764 -0.0014182495111573783 0.01117430448773254 0.0 0.0
0.0 0.17444288506134248 0.15112519271818137 -0.1496236395798456 -0.001501553138335921 0.013824102972134763 0.0 0.0
0.0 0.1581413279769205 0.13706336120980492 -0.1355105863706072 -0.0015527748391976424 0.015118613596253754 0.0 0.0
0.0 0.13948343128223883 0.1209350796212875 -0.1193827758879856 -0.00155230373330188 0.015068747307303048 0.0 0.0
0.0 0.12002394147932297 0.10411747812345085 -0.1025969768771593 -0.0015205012462915662 0.014010186980547377 0.0 0.0
0.0 0.10087315045805967 0.08755921643442181 -0.0860961443472386 -0.001463072087183232 0.012441133972001046 0.0 0.0
0.0 0.0827337619978624 0.07188032983910964 -0.07049572860955569 -0.0013846012295539193 0.010728789239570944 0.0 0.0
0.0 0.06630439220801533 0.057440574995108094 -0.05614726414246599 -0.0012933108526420978 0.00905066917155672 0.0 0.0
0.0 0.05105466712681099 0.04442055318182904 -0.04322268720694664 -0.0011978659748823094 0.007430870028297194 0.0 0.0
0.0 0.03777820931285591 0.03289913333058597 -0.031793888121039095 -0.0011052452095468616 0.005803468046703224 0.0 0.0
0.0 0.026245345971692056 0.022979673733902303 -0.021963072192125822 -0.0010166015417764672 0.004185234916244881 0.0 0.0
0.0 0.01674109644301556 0.014806511628346956 -0.013881292781131562 -0.000925218847215399 0.0027016171599390905 0.0 0.0
0.0 0.009495873128008394 0.008506410439086927 -0.007700573422923998 -0.0008058370161629149 0.001485111915143402 0.0 0.0
0.0 0.004396493811168585 0.004087403444154719 -0.00348105470988287 -0.0006063487342718522 0.0006101122507503236 0.0 0.0
0.0 0.0016428512559241084 0.001380260977311461 -0.0010777070621476022 -0.0003025539151638579 8.78771714000032e-05 0.0 0.0
0.0 0.00024988819526683637 0.0002136003341668987 -0.00015360283854823294 -5.999749561866591e-05 -1.3950661594104586e-05 0.0 0.0
0.0 -1.7347325707162691e-06 -3.6486579502734697e-06 3.0896260301589997e-06 5.590319201145036e-07 -4.360787008340488e-06 0.0 0.0
0.0 -3.1160782534237857e-07 6.220264681949344e-07 -5.441799736335725e-07 -7.784649456136267e-08 -3.9100212995574723e-07 0.0 0.0
0.0 0.002758965682776017 0.0017573120083534885 -0.0009688075909027487 -0.0007885044174507362 0.004645256376468329 0.0 0.0
0.0 0.011403165427163955 0.008380247467685306 -0.01110703434163344 0.0027267868739481306 0.003021519599825313 0.0 0.0
0.0 0.008661265031697847 0.006201083657949796 -0.008390751605085414 0.0021896679471356054 -0.003278064191923286 0.0 0.0
0.0 0.001997640512521794 0.0011952841257947342 -0.0006422930246153111 -0.0005529911011794189 -0.0035114889676634013 0.0 0.0
0.0 0.0 0.0 0.0 0.0 0.0 0.0 0.0
0.0 -2.073904394859516e-06 -2.29420788651067e-06 1.8046489330144237e-06 4.895589534962434e-07 1.6215961806008614e-06 0.0 0.0
0.0 8.358525981671071e-05 6.097650387830638e-05 -4.14413747094569e-05 -1.9535129168849114e-05 9.764878404719305e-06 0.0 0.0
0.0 0.000979098574880723 0.0008655656210255659 -0.0006580216379431275 -0.0002075439830824373 -0.00015954691507460273 0.0 0.0
0.0 0.0034389225607151207 0.003033145683463899 -0.0025199429252183293 -0.0005132027582455724 -0.0007737622350692784 0.0 0.0
0.0 0.007677289256886692 0.006861026002795252 -0.006119089035502269 -0.0007419369672929763 -0.002004241669750451 0.0 0.0
0.0 0.014088385155260107 0.012395028868334306 -0.01152303535411302 -0.0008719935142212757 -0.0036664193480468853 0.0 0.0
0.0 0.02250096073719877 0.019596864314342897 -0.018636528287747076 -0.0009603360265958125 -0.005680486435684148 0.0 0.0
0.0 0.0326283611005711 0.02831553988131551 -0.02727341205201271 -0.0010421278293027561 -0.007860683075496271 0.0 0.0
0.0 0.04442712758926805 0.03840263746860391 -0.03727436643021259 -0.0011282710383912979 -0.010044725300031898 0.0 0.0
0.0 0.057496841126059114 0.04978023372268833 -0.0485619364012001 -0.0012182973214882747 -0.012209136381624013 0.0 0.0
0.0 0.07235949131429846 0.06239394757335345 -0.06109091333945854 -0.0013030342338949214 -0.014414979896445322 0.0 0.0
0.0 0.0881822926745904 0.07613626502853929 -0.07475940917810306 -0.0013768558504361704 -0.016651557187730915 0.0 0.0
0.0 0.10490438969681176 0.09073591257524949 -0.089301032300436 -0.0014348802748134948 -0.018721888163802828 0.0 0.0
0.0 0.12228610820842135 0.1056901828585911 -0.10422103908972832 -0.001469143768862642 -0.02018161575432852 0.0 0.0
0.0 0.1390393488525818 0.12017522612426358 -0.11870621240634419 -0.001469013717919299 -0.020429517167385593 0.0 0.0
0.0 0.1537709588567682 0.13293752701055303 -0.13150926508918848 -0.0014282619213645906 -0.018841548589017376 0.0 0.0
0.0 0.16463782935635485 0.14238283717167902 -0.1410112428387562 -0.0013715943329232125 -0.014575210365970448 0.0 0.0
0.0 0.1699561932433838 0.14641476203498624 -0.14538991249282313 -0.0010248495421628758 2.1111584702637742e-14 0.0 0.0
0.0 0.16463782935633225 0.1423828371716578 -0.14101124283873456 -0.0013715943329234207 0.014575210366017886 0.0 0.0
0.0 0.153770958856722 0.13293752701051176 -0.13150926508914712 -0.00142826192136461 0.018841548589063315 0.0 0.0
0.0 0.13903934885251873 0.1201752261242086 -0.11870621240628867 -0.0014690137179198845 0.02042951716741162 0.0 0.0
0.0 0.12228610820834862 0.10569018285852823 -0.10422103908966655 -0.0014691437688616788 0.020181615754332638 0.0 0.0
0.0 0.1049043896967282 0.09073591257517763 -0.08930103230036354 -0.0014348802748140397 0.018721888163793395 0.0 0.0
0.0 0.08818229267451068 0.07613626502846989 -0.07475940917803446 -0.0013768558504354937 0.016651557187724247 0.0 0.0
0.0 0.07235949131421661 0.062393947573282336 -0.06109091333938794 -0.0013030342338944513 0.014414979896437296 0.0 0.0
0.0 0.05749684112598262 0.04978023372262275 -0.04856193640113475 -0.001218297321487942 0.012209136381612577 0.0 0.0
0.0 0.04442712758919616 0.038402637468541785 -0.03727436643015056 -0.0011282710383912792 0.010044725300014188 0.0 0.0
0.0 0.03262836110050715 0.028315539881260128 -0.02727341205195777 -0.0010421278293023392 0.00786068307548055 0.0 0.0
0.0 0.02250096073715169 0.019596864314301944 -0.0186365282877068 -0.0009603360265951416 0.005680486435670208 0.0 0.0
0.0 0.01408838515522195 0.01239502886830125 -0.011523035354080497 -0.0008719935142207474 0.003666419348036271 0.0 0.0
0.0 0.007677289256859714 0.006861026002770984 -0.0061190890354789595 -0.0007419369672920195 0.002004241669742075 0.0 0.0
0.0 0.003438922560699703 0.003033145683450936 -0.0025199429252067487 -0.0005132027582441876 0.0007737622350648893 0.0 0.0
0.0 0.0009790985748742397 0.0008655656210204733 -0.0006580216379391316 -0.00020754398308134143 0.00015954691507323425 0.0 0.0
0.0 8.358525981586834e-05 6.0976503878169136e-05 -4.14413747094208e-05 -1.953512916874835e-05 -9.764878404352065e-06 0.0 0.0
0.0 -2.073904395323316e-06 -2.2942078865959957e-06 1.8046489330803741e-06 4.89558953515642e-07 -1.621596180651424e-06 0.0 0.0
0.0 0.0 0.0 0.0 0.0 0.0 0.0 0.0
0.0 0.0019976405125143454 0.001195284125790418 -0.0006422930246124079 -0.0005529911011780117 0.0035114889676520853 0.0 0.0
0.0 0.008661265031678498 0.006201083657934739 -0.00839075160506623 0.002189667947131483 0.0032780641919091798 0.0 0.0
0.0 0.0063637431025583 0.004531065929888733 -0.00624148312416574 0.0017104171942770123 -0.002820420628426461 0.0 0.0
0.0 0.0015953923936556371 0.0007830276327033987 -0.0004098634421551902 -0.00037316419054820774 -0.002518000056367813 0.0 0.0
0.0 0.0 0.0 0.0 0.0 0.0 0.0 0.0
0.0 -3.326038279946462e-07 9.598495773578814e-08 -7.394131581925615e-08 -2.204364191653069e-08 -5.027668970413773e-08 0.0 0.0
0.0 -1.4189191729938454e-05 -2.7687175588291277e-06 4.169206258053624e-06 -1.400488699224497e-06 1.709425440197027e-05 0.0 0.0
0.0 0.0005480486316404052 0.0004520469556886003 -0.0003351277957481232 -0.00011691915994047725 -0.000140997845960854 0.0 0.0
0.0 0.002511939855815678 0.002085961139994709 -0.001685662744260771 -0.000400298395733934 -0.0007939600385944008 0.0 0.0
0.0 0.005942978128963535 0.005262183667158081 -0.004599938153800085 -0.0006622455133580023 -0.0021806612650257114 0.0 0.0
0.0 0.011477748424317808 0.010004603190295721 -0.009195324294043627 -0.0008092788962520967 -0.004184767814555524 0.0 0.0
0.0 0.018754951081884665 0.016213672973634876 -0.015315620332078055 -0.0008980526415568195 -0.006567549843770193 0.0 0.0
0.0 0.027566379550613567 0.023719333503308952 -0.022745299736128606 -0.000974033767180353 -0.00913321129590502 0.0 0.0
0.0 0.03771803998522265 0.03236953506529341 -0.03131632218212229 -0.0010532128831710955 -0.011695792016902478 0.0 0.0
0.0 0.049180705288406006 0.0420973162570752 -0.04096081013549498 -0.0011365061215802186 -0.01423270914932406 0.0 0.0
0.0 0.061547512140388116 0.052891739873891196 -0.051675325355183516 -0.0012164145187076698 -0.016808801122576995 0.0 0.0
0.0 0.07537392591387888 0.06468398658702591 -0.06339830815469454 -0.0012856784323313326 -0.0193948541112901 0.0 0.0
0.0 0.09011019754235532 0.07729336583261275 -0.07595213924911481 -0.0013412265834978657 -0.021784944387041514 0.0 0.0
0.0 0.10508658314323921 0.09035161568970287 -0.08897274787231647 -0.0013788678173863923 -0.02357382059167026 0.0 0.0
0.0 0.11989999542485877 0.10318995817877703 -0.10180232939470726 -0.0013876287840698656 -0.024117992488764683 0.0 0.0
0.0 0.13321154457837578 0.11476093786763647 -0.1134004169937553 -0.0013605208738811285 -0.022416062208274485 0.0 0.0
0.0 0.14341621828421824 0.1236985360558029 -0.12238324262301334 -0.0013152934327894214 -0.017117976974334894 0.0 0.0
0.0 0.14893049309798578 0.12781108319470608 -0.1269635794648299 -0.0008475037298761401 2.4196790404662494e-14 0.0 0.0
0.0 0.14341621828419604 0.12369853605578134 -0.1223832426229911 -0.0013152934327902049 0.017117976974388084 0.0 0.0
0.0 0.13321154457833487 0.11476093786759915 -0.11340041699371756 -0.001360520873881467 0.022416062208326235 0.0 0.0
0.0 0.11989999542480413 0.10318995817872878 -0.10180232939465854 -0.001387628784070286 0.024117992488795162 0.0 0.0
0.0 0.10508658314317804 0.09035161568964993 -0.0889727478722645 -0.0013788678173854078 0.0235738205916754 0.0 0.0
0.0 0.09011019754228487 0.07729336583255203 -0.07595213924905371 -0.0013412265834982723 0.021784944387031595 0.0 0.0
0.0 0.07537392591380856 0.06468398658696506 -0.06339830815463392 -0.001285678432331094 0.019394854111280425 0.0 0.0
0.0 0.061547512140318006 0.05289173987383044 -0.05167532535512319 -0.001216414518707201 0.01680880112256757 0.0 0.0
0.0 0.04918070528833803 0.042097316257016515 -0.04096081013543653 -0.0011365061215799451 0.014232709149310725 0.0 0.0
0.0 0.037718039985164334 0.03236953506524304 -0.03131632218207272 -0.0010532128831703142 0.01169579201688469 0.0 0.0
0.0 0.027566379550559475 0.023719333503262816 -0.022745299736082962 -0.0009740337671798576 0.009133211295884918 0.0 0.0
0.0 0.01875495108184298 0.016213672973599345 -0.015315620332042854 -0.0008980526415564896 0.006567549843752995 0.0 0.0
0.0 0.011477748424282534 0.010004603190265296 -0.0091953242940138 -0.0008092788962514922 0.004184767814541989 0.0 0.0
0.0 0.005942978128940436 0.005262183667137861 -0.004599938153781044 -0.0006622455133568178 0.0021806612650165907 0.0 0.0
0.0 0.0025119398558042386 0.0020859611399855825 -0.0016856627442529651 -0.00040029839573261724 0.0007939600385903765 0.0 0.0
0.0 0.0005480486316351945 0.0004520469556848082 -0.00033512779574520124 -0.00011691915993960653 0.0001409978459591107 0.0 0.0
0.0 -1.4189191730347437e-05 -2.7687175586845998e-06 4.169206257915884e-06 -1.4004886992313283e-06 -1.709425440148613e-05 0.0 0.0
0.0 -3.3260382783418786e-07 9.598495766717246e-08 -7.394131576730169e-08 -2.2043641899877265e-08 5.027668961270696e-08 0.0 0.0
0.0 0.0 0.0 0.0 0.0 0.0 0.0 0.0
0.0 0.0015953923936489031 0.0007830276327001301 -0.00040986344215302134 -0.0003731641905471063 0.0025180000563588033 0.0 0.0
0.0 0.006363743102542171 0.004531065929876086 -0.00624148312414943 0.0017104171942733334 0.0028204206284164024 0.0 0.0
0.0 0.004641171345991015 0.0031962328290137693 -0.004476024761469161 0.0012797919324553872 -0.0022134221581406738 0.0 0.0
0.0 0.0009759664560228453 0.00048626340568174483 -0.00024653619996746283 -0.00023972720571428167 -0.001715892156650915 0.0 0.0
0.0 0.0 0.0 0.0 0.0 0.0 0.0 0.0
0.0 -3.994941890298011e-07 5.384510339199834e-08 -4.115184974982586e-08 -1.2693253642172505e-08 -9.777451305406365e-08 0.0 0.0
0.0 -1.897558293705478e-05 -1.4575860219924164e-05 1.1772344092239451e-05 2.803516127684725e-06 2.1614702437352686e-05 0.0 0.0
0.0 0.00020078385995067358 0.0001850297668555878 -0.0001333728667852729 -5.165690007031484e-05 -8.830906570784407e-05 0.0 0.0
0.0 0.001476130939225404 0.0013051597839381804 -0.0010256185814841155 -0.00027954120245406535 -0.0007285775849730263 0.0 0.0
0.0 0.004589992226036244 0.0037453512037361404 -0.00319168426491466 -0.0005536669388214738 -0.0020699737377252287 0.0 0.0
0.0 0.008805432390592966 0.007666271867066179 -0.006935092743120377 -0.0007311791239458059 -0.004229575190205583 0.0 0.0
0.0 0.015092949478056235 0.012862104874027783 -0.012035225331087229 -0.0008268795429405549 -0.006836575022955129 0.0 0.0
0.0 0.02251783683610927 0.019144827407679216 -0.01824587641123302 -0.0008989509964461923 -0.009613016013830395 0.0 0.0
0.0 0.031018462051016257 0.026355808393777214 -0.02538429821766625 -0.0009715101761109377 -0.01238218982019786 0.0 0.0
0.0 0.040526319276757726 0.034437405385386546 -0.033389172845448206 -0.0010482325399383539 -0.015113984851792526 0.0 0.0
0.0 0.0511337000272763 0.04340212621935705 -0.042280734175257226 -0.001121392044099858 -0.01787659316886975 0.0 0.0
0.0 0.06259941299096326 0.05324215323303509 -0.05205571163416831 -0.001186441598866785 -0.020649642499092832 0.0 0.0
0.0 0.07482908488978099 0.06384457857219125 -0.06260440731498403 -0.001240171257207198 -0.02321589672408888 0.0 0.0
0.0 0.08801632914625959 0.07494731604559603 -0.07366710565725598 -0.0012802103883399602 -0.02520745821818564 0.0 0.0
0.0 0.100806613074952 0.08609911930205749 -0.08479668498153543 -0.001302434320522115 -0.02603972471786877 0.0 0.0
0.0 0.11257457601757462 0.09652820039530917 -0.0952358623609675 -0.001292338034341725 -0.024537566634899886 0.0 0.0
0.0 0.12233104365249584 0.1050912537801041 -0.10383843990123601 -0.0012528138788679896 -0.018914295844926834 0.0 0.0
0.0 0.12822577117603118 0.10938671591171707 -0.10874389566857327 -0.0006428202431437443 2.4826495026442075e-14 0.0 0.0
0.0 0.12233104365247782 0.1050912537800852 -0.10383843990121666 -0.001252813878868642 0.018914295844980493 0.0 0.0
0.0 0.11257457601754052 0.09652820039527665 -0.09523586236093466 -0.0012923380343420857 0.02453756663495384 0.0 0.0
0.0 0.10080661307490878 0.08609911930201854 -0.08479668498149619 -0.0013024343205222076 0.026039724717901006 0.0 0.0
0.0 0.0880163291462052 0.07494731604554929 -0.07366710565720977 -0.0012802103883395263 0.025207458218190038 0.0 0.0
0.0 0.07482908488972144 0.06384457857213993 -0.06260440731493282 -0.0012401712572071132 0.023215896724078672 0.0 0.0
0.0 0.06259941299090646 0.05324215323298594 -0.05205571163411959 -0.0011864415988663217 0.020649642499082195 0.0 0.0
0.0 0.051133700027220605 0.04340212621930857 -0.042280734175209146 -0.0011213920440994456 0.017876593168859162 0.0 0.0
0.0 0.04052631927669863 0.03443740538533631 -0.033389172845398045 -0.0010482325399382433 0.015113984851777562 0.0 0.0
0.0 0.03101846205096573 0.026355808393733988 -0.02538429821762385 -0.0009715101761101348 0.012382189820179934 0.0 0.0
0.0 0.02251783683606611 0.019144827407643103 -0.018245876411198035 -0.0008989509964450668 0.009613016013808822 0.0 0.0
0.0 0.015092949478019866 0.012862104873997002 -0.012035225331056686 -0.000826879542940304 0.00683657502293608 0.0 0.0
0.0 0.008805432390563748 0.007666271867041 -0.006935092743095842 -0.0007311791239451668 0.0042295751901908875 0.0 0.0
0.0 0.004589992226016225 0.0037453512037200027 -0.003191684264899704 -0.0005536669388202961 0.0020699737377158655 0.0 0.0
0.0 0.0014761309392169913 0.0013051597839315674 -0.0010256185814786793 -0.00027954120245288845 0.0007285775849689008 0.0 0.0
0.0 0.00020078385994740238 0.00018502976685337393 -0.0001333728667836305 -5.1656900069743334e-05 8.8309065706506e-05 0.0 0.0
0.0 -1.897558293737349e-05 -1.457586021936224e-05 1.177234409181036e-05 2.8035161275518548e-06 -2.161470243670466e-05 0.0 0.0
0.0 -3.9949418886410366e-07 5.3845103394837016e-08 -4.115184975192441e-08 -1.269325364290948e-08 9.777451305208919e-08 0.0 0.0
0.0 0.0 0.0 0.0 0.0 0.0 0.0 0.0
0.0 0.0009759664560173573 0.0004862634056792531 -0.00024653619996583686 -0.00023972720571341586 0.0017158921566435793 0.0 0.0
0.0 0.004641171345977834 0.0031962328290034417 -0.0044760247614554875 0.0012797919324520459 0.0022134221581335055 0.0 0.0
0.0 0.0030879997958672494 0.0021396841606121405 -0.0030388574290831348 0.0008991732684709918 -0.0016500423467271327 0.0 0.0
0.0 0.0006037814141211516 0.00026173312084951507 -0.00011768771456637352 -0.00014404540628314085 -0.0010598235698418108 0.0 0.0
0.0 3.547722962352453e-07 -4.760043067899587e-09 4.283870871274896e-09 4.761721966247399e-10 7.118613590585807e-08 0.0 0.0
0.0 -3.9933846218285653e-07 2.3010864123224606e-08 -1.7665084308602554e-08 -5.345779814626124e-09 -7.114747973550936e-08 0.0 0.0
0.0 -8.262744565283406e-06 -5.7542954235163455e-06 4.587750958905799e-06 1.1665444646105914e-06 1.2374928325452646e-05 0.0 0.0
0.0 3.1005846897696834e-05 2.9408606942754878e-05 -1.856105114160348e-05 -1.0847555801151352e-05 -5.713677833202365e-06 0.0 0.0
0.0 0.0008313260068515807 0.0006758989606316631 -0.0005181709164332069 -0.00015772804419845668 -0.0005468162752394886 0.0 0.0
0.0 0.002863303346467356 0.002418878747855159 -0.0020010760678955443 -0.00041780267995961427 -0.0018008409887589863 0.0 0.0
0.0 0.006786447454820744 0.005412569799522957 -0.00478834150266327 -0.0006242282968596858 -0.0038201293245078466 0.0 0.0
0.0 0.01136247946594569 0.009581347259224387 -0.008841689255632595 -0.0007396580035917959 -0.006460575703984254 0.0 0.0
0.0 0.017538778230303916 0.01462853696981411 -0.013815249570116374 -0.0008132873996977443 -0.009282444439203593 0.0 0.0
0.0 0.02442498378255935 0.020397120740831592 -0.01951683250969125 -0.0008802882311403514 -0.012089884309394386 0.0 0.0
0.0 0.03205705432636442 0.026835457169235 -0.025885554861657077 -0.000949902307577897 -0.014841038029821106 0.0 0.0
0.0 0.040512161787218545 0.03397740213150783 -0.03296050904155788 -0.001016893089949974 -0.017608172496052867 0.0 0.0
0.0 0.04976472553360084 0.041855365466549624 -0.0407786228130439 -0.0010767426535057112 -0.02038211590048433 0.0 0.0
0.0 0.06007713748139821 0.050423739420593326 -0.04929761334761914 -0.0011261260729742287 -0.022978997497817184 0.0 0.0
0.0 0.07035007977101979 0.05953131634611503 -0.05836143413202448 -0.0011698822140905748 -0.025043937875279254 0.0 0.0
0.0 0.08141388222725898 0.06891557638718482 -0.0677070835288229 -0.0012084928583617552 -0.026110429354273722 0.0 0.0
0.0 0.09214195214843134 0.07815456959094726 -0.0769354833884282 -0.0012190862025191372 -0.025103757297492656 0.0 0.0
0.0 0.10136952638685759 0.08640123350579883 -0.08521543934393125 -0.0011857941618676185 -0.019933211885765124 0.0 0.0
0.0 0.10786799675052958 0.09096807645796591 -0.09055816056885543 -0.00040991588911050577 2.3168099383408247e-14 0.0 0.0
0.0 0.10136952638684703 0.0864012335057852 -0.08521543934391769 -0.001185794161867553 0.019933211885819264 0.0 0.0
0.0 0.0921419521484042 0.07815456959092008 -0.07693548338840071 -0.0012190862025193852 0.025103757297546825 0.0 0.0
0.0 0.08141388222722465 0.06891557638715261 -0.06770708352879139 -0.0012084928583612536 0.026110429354306384 0.0 0.0
0.0 0.07035007977097531 0.05953131634607699 -0.0583614341319868 -0.001169882214090194 0.02504393787528347 0.0 0.0
0.0 0.06007713748134711 0.05042373942055002 -0.04929761334757565 -0.0011261260729744061 0.022978997497803296 0.0 0.0
0.0 0.04976472553355457 0.04185536546650927 -0.040778622813003935 -0.0010767426535053224 0.020382115900473098 0.0 0.0
0.0 0.04051216178717551 0.03397740213147052 -0.03296050904152105 -0.0010168930899494687 0.017608172496042684 0.0 0.0
0.0 0.032057054326320694 0.026835457169198 -0.02588555486162059 -0.0009499023075774303 0.014841038029808185 0.0 0.0
0.0 0.024424983782518898 0.020397120740797976 -0.019516832509657956 -0.0008802882311400447 0.012089884309376473 0.0 0.0
0.0 0.01753877823026816 0.014628536969785121 -0.01381524957008799 -0.000813287399697132 0.009282444439181449 0.0 0.0
0.0 0.0113624794659133 0.009581347259197794 -0.008841689255606276 -0.0007396580035915225 0.0064605757039638955 0.0 0.0
0.0 0.006786447454798292 0.005412569799505418 -0.00478834150264667 -0.0006242282968587432 0.0038201293244956593 0.0 0.0
0.0 0.0028633033464526073 0.002418878747843268 -0.002001076067884959 -0.00041780267995830764 0.0018008409887502656 0.0 0.0
0.0 0.0008313260068454703 0.000675898960627458 -0.0005181709164298922 -0.00015772804419756544 0.0005468162752360982 0.0 0.0
0.0 3.1005846895884623e-05 2.940860694190445e-05 -1.8561051140985266e-05 -1.084755580091933e-05 5.713677832454184e-06 0.0 0.0
0.0 -8.262744566097116e-06 -5.754295423462039e-06 4.587750958858637e-06 1.166544464603401e-06 -1.237492832526351e-05 0.0 0.0
0.0 -3.9933846203843063e-07 2.3010864114477826e-08 -1.766508430182229e-08 -5.345779812654833e-09 7.114747970917023e-08 0.0 0.0
0.0 3.5477229582550476e-07 -4.760043062279326e-09 4.283870866217358e-09 4.761721960621147e-10 -7.118613582206866e-08 0.0 0.0
0.0 0.0006037814141170251 0.00026173312084777135 -0.00011768771456522676 -0.00014404540628254472 0.0010598235698362156 0.0 0.0
0.0 0.0030879997958574287 0.0021396841606044982 -0.003038857429072721 0.000899173268468224 0.001650042346722085 0.0 0.0
0.0 0.0023213796833339356 0.0012786408285602744 -0.001838371940552557 0.0005597311119922816 -0.0011095356919549465 0.0 0.0
0.0 0.00022890264693288084 0.00011084412860388141 -3.445412642241851e-05 -7.639000218146294e-05 -0.0005618719357169834 0.0 0.0
0.0 4.5230576001392043e-07 1.8586726960791952e-08 -1.9437482145154672e-08 8.507551843633795e-10 -3.6384685242959286e-07 0.0 0.0
0.0 -7.191084522693333e-07 2.9296744486587757e-08 -2.2629263407352817e-08 -6.667481079235229e-09 -1.827044256769545e-07 0.0 0.0
0.0 -5.27307694267373e-06 -3.121323321361224e-06 2.471495970885877e-06 6.49827350475352e-07 1.0603012236507355e-05 0.0 0.0
0.0 -2.2759984362144537e-05 -1.3978858115003999e-05 1.2088792708859324e-05 1.8900654061446472e-06 3.248972931360449e-05 0.0 0.0
0.0 0.0003344224607910171 0.00024658849178427206 -0.00018537710085332596 -6.121139093094593e-05 -0.00031145651437063755 0.0 0.0
0.0 0.0016109454940165828 0.001296746427250482 -0.0010413024627439875 -0.00025544396450649437 -0.0013651471209320232 0.0 0.0
0.0 0.00421781609485239 0.003371404188249259 -0.0028955488106527367 -0.00047585537759652037 -0.003106158052827668 0.0 0.0
0.0 0.008236324750604785 0.006417312261540572 -0.005798210675071463 -0.0006191015864691022 -0.005454927474697333 0.0 0.0
0.0 0.0126566912880239 0.010212371156427822 -0.009507404980016005 -0.0007049661764118056 -0.008119679817471087 0.0 0.0
0.0 0.017856156298645547 0.014539468338531062 -0.013767617424917115 -0.0007718509136139628 -0.010784234213475484 0.0 0.0
0.0 0.02368390570123589 0.019341286455221936 -0.01850551387188886 -0.0008357725833330483 -0.013387884847232167 0.0 0.0
0.0 0.030065799669105334 0.0246638674192651 -0.023768687936864697 -0.0008951794824003964 -0.015979439068965266 0.0 0.0
0.0 0.03721559094000645 0.030573862653055398 -0.029624172533617106 -0.0009496901194382922 -0.018577439064822704 0.0 0.0
0.0 0.044930236056847955 0.037096190334875614 -0.03609980860775313 -0.0009963817271224332 -0.02104266477148302 0.0 0.0
0.0 0.053421530691739966 0.044153800421757455 -0.04311556789199549 -0.0010382325297619605 -0.02305020164981375 0.0 0.0
0.0 0.06208990928898839 0.051664650022301715 -0.05057335062006274 -0.0010912994022389446 -0.02421618589110362 0.0 0.0
0.0 0.07099162647792513 0.05957576920974153 -0.05844114663504894 -0.0011346225746925707 -0.023898642126383544 0.0 0.0
0.0 0.07999441533557272 0.06746127854411928 -0.0663445776130991 -0.0011167009310201626 -0.020026224496943742 0.0 0.0
0.0 0.08740052276217215 0.07237258041636713 -0.07222829442234938 -0.0001442859940177994 2.002044363624833e-14 0.0 0.0
0.0 0.07999441533556707 0.06746127854410915 -0.06634457761308861 -0.0011167009310204374 0.020026224496995076 0.0 0.0
0.0 0.07099162647790494 0.05957576920971938 -0.05844114663502687 -0.0011346225746925475 0.023898642126435103 0.0 0.0
0.0 0.06208990928896378 0.05166465002227819 -0.05057335062003953 -0.0010912994022386827 0.024216185891134053 0.0 0.0
0.0 0.05342153069170485 0.04415380042172764 -0.0431155678919664 -0.0010382325297612258 0.02305020164981502 0.0 0.0
0.0 0.04493023605680788 0.03709619033484232 -0.036099808607720094 -0.0009963817271222727 0.02104266477146832 0.0 0.0
0.0 0.03721559093997078 0.030573862653024926 -0.029624172533587016 -0.0009496901194378887 0.018577439064810863 0.0 0.0
0.0 0.03006579966907364 0.02466386741923812 -0.023768687936837986 -0.0008951794824001355 0.01597943906895658 0.0 0.0
0.0 0.02368390570120442 0.01934128645519577 -0.018505513871863454 -0.0008357725833323019 0.01338788484722022 0.0 0.0
0.0 0.017856156298614034 0.014539468338505218 -0.01376761742489161 -0.0007718509136136063 0.010784234213457998 0.0 0.0
0.0 0.012656691287995674 0.010212371156405765 -0.009507404979994555 -0.0007049661764111947 0.00811967981745102 0.0 0.0
0.0 0.008236324750580221 0.00641731226152184 -0.005798210675052866 -0.0006191015864689746 0.005454927474679062 0.0 0.0
0.0 0.004217816094837148 0.003371404188237297 -0.002895548810641885 -0.00047585537759541415 0.0031061580528179435 0.0 0.0
0.0 0.0016109454940067833 0.001296746427243122 -0.0010413024627376104 -0.00025544396450551127 0.001365147120924628 0.0 0.0
0.0 0.00033442246078747997 0.00024658849178187624 -0.0001853771008515033 -6.12113909303728e-05 0.00031145651436769015 0.0 0.0
0.0 -2.2759984362797257e-05 -1.3978858114612183e-05 1.2088792708556904e-05 1.890065406055324e-06 -3.2489729312606834e-05 0.0 0.0
0.0 -5.273076943181804e-06 -3.1213233213890192e-06 2.4714959709075864e-06 6.498273504814241e-07 -1.0603012236667325e-05 0.0 0.0
0.0 -7.191084526014926e-07 2.9296744496587573e-08 -2.2629263414204023e-08 -6.667481082383454e-09 1.8270442580579777e-07 0.0 0.0
0.0 4.5230575985457104e-07 1.858672698833719e-08 -1.943748217303741e-08 8.5075518470064e-10 3.6384685302838914e-07 0.0 0.0
0.0 0.0002289026469299863 0.00011084412860275423 -3.445412642170898e-05 -7.639000218104539e-05 0.0005618719357126535 0.0 0.0
0.0 0.002321379683324591 0.001278640828554558 -0.0018383719405445254 0.0005597311119899667 0.0011095356919509775 0.0 0.0
0.0 0.0011572956642206382 0.0006817042809486125 -0.0009917088666535504 0.0003100045857049384 -0.0007225391753944685 0.0 0.0
0.0 5.8662992337608205e-05 1.5969818546228065e-05 2.0998302502852067e-05 -3.696812104908019e-05 -0.00019973114843603547 0.0 0.0
0.0 1.975667374799116e-06 -1.30058936548035e-09 1.0489717620840256e-08 -9.189128255358995e-09 5.290036440132587e-07 0.0 0.0
0.0 1.5835690765069522e-06 -4.395469103101806e-08 3.0627561052349776e-08 1.3327129978668133e-08 6.454760431428328e-07 0.0 0.0
0.0 -5.677813679644781e-06 -1.7792012925704766e-06 1.3884379048855064e-06 3.9076338768497034e-07 9.925641460835198e-06 0.0 0.0
0.0 -2.2716936761835996e-05 -8.717475480638535e-06 7.224595037888552e-06 1.492880442749984e-06 2.2620489077495273e-05 0.0 0.0
0.0 9.04612428468825e-05 3.416093888457548e-05 -2.4976436377177878e-05 -9.184502507397666e-06 -9.954742222724171e-05 0.0 0.0
0.0 0.0007491575693717893 0.00045216539008960393 -0.0003583394049154022 -9.382598517420201e-05 -0.0007898820530486452 0.0 0.0
0.0 0.0022310774247976295 0.0016003651726216477 -0.0013339074250095441 -0.0002664577476121022 -0.0021448011256201406 0.0 0.0
0.0 0.004771019751407937 0.003503608132295566 -0.003073930284674658 -0.0004296778476209085 -0.0039751851292720575 0.0 0.0
0.0 0.007808986517701855 0.00598667273107875 -0.005444750092765695 -0.0005419226383130568 -0.006173092663598388 0.0 0.0
0.0 0.011467041787759868 0.008848971396961176 -0.008230967402855754 -0.0006180039941054134 -0.008454728945538165 0.0 0.0
0.0 0.015446887319852304 0.01202031724233634 -0.011337531468078033 -0.000682785774258307 -0.010741735443134906 0.0 0.0
0.0 0.01981278197487866 0.015535727554271829 -0.01479890462471676 -0.0007368229295550763 -0.013009243833990658 0.0 0.0
0.0 0.024718469492491842 0.019475779477484505 -0.018690022112974762 -0.0007857573645097503 -0.015259394344013962 0.0 0.0
0.0 0.030241263980523556 0.0239258331458758 -0.023094760012675915 -0.0008310731331998836 -0.01745073757691962 0.0 0.0
0.0 0.03631751924320942 0.02891281495410643 -0.02803871727880962 -0.0008740976752967852 -0.019342138911408072 0.0 0.0
0.0 0.04271821497123852 0.0344447795406424 -0.03351726876690175 -0.0009275107737407098 -0.0205083268549049 0.0 0.0
0.0 0.04996318295198139 0.04075970396303848 -0.03975317415117284 -0.0010065298118656007 -0.020652965989881592 0.0 0.0
0.0 0.058519673591139756 0.04807759079860842 -0.04703742628437582 -0.0010401645142325948 -0.018789128895538926 0.0 0.0
0.0 0.06691028844832428 0.05338794989885663 -0.05354483215217553 0.00015688225331884797 1.6513700129561215e-14 0.0 0.0
0.0 0.05851967359113902 0.048077590798601424 -0.04703742628436853 -0.0010401645142328747 0.01878912889558304 0.0 0.0
0.0 0.04996318295196815 0.04075970396302238 -0.03975317415115718 -0.001006529811865174 0.02065296598992553 0.0 0.0
0.0 0.04271821497122076 0.034444779540625775 -0.03351726876688527 -0.0009275107737404822 0.02050832685492972 0.0 0.0
0.0 0.036317519243184826 0.0289128149540871 -0.02803871727879079 -0.0008740976752963189 0.019342138911405436 0.0 0.0
0.0 0.030241263980494273 0.023925833145852445 -0.02309476001265225 -0.0008310731332001646 0.01745073757690482 0.0 0.0
0.0 0.024718469492469277 0.019475779477465906 -0.018690022112956808 -0.000785757364509102 0.015259394344003571 0.0 0.0
0.0 0.019812781974859122 0.015535727554255205 -0.014798904624700737 -0.0007368229295544773 0.013009243833985312 0.0 0.0
0.0 0.015446887319831893 0.01202031724231997 -0.011337531468061985 -0.0006827857742579882 0.010741735443125238 0.0 0.0
0.0 0.011467041787735558 0.008848971396943107 -0.008230967402837939 -0.0006180039941051646 0.008454728945521548 0.0 0.0
0.0 0.0078089865176823245 0.005986672731064076 -0.005444750092751593 -0.0005419226383124796 0.006173092663582026 0.0 0.0
0.0 0.004771019751393648 0.003503608132285506 -0.0030739302846650865 -0.00042967784762041884 0.003975185129260169 0.0 0.0
0.0 0.002231077424787959 0.001600365172614693 -0.001333907425003386 -0.00026645774761130576 0.0021448011256125325 0.0 0.0
0.0 0.0007491575693673424 0.0004521653900869038 -0.00035833940491318675 -9.382598517371686e-05 0.0007898820530445228 0.0 0.0
0.0 9.046124284430768e-05 3.4160938884109264e-05 -2.4976436376815924e-05 -9.184502507293315e-06 9.954742222593357e-05 0.0 0.0
0.0 -2.2716936762136164e-05 -8.71747548026911e-06 7.224595037608259e-06 1.492880442660818e-06 -2.262048907595493e-05 0.0 0.0
0.0 -5.677813679437295e-06 -1.779201292418891e-06 1.3884379047739264e-06 3.9076338764497524e-07 -9.925641459510508e-06 0.0 0.0
0.0 1.5835690758135202e-06 -4.395469107441555e-08 3.0627561084708414e-08 1.3327129989708008e-08 -6.454760435915232e-07 0.0 0.0
0.0 1.975667374735729e-06 -1.3005893475893936e-09 1.0489717599404118e-08 -9.18912825181433e-09 -5.290036433950294e-07 0.0 0.0
0.0 5.866299233488106e-05 1.5969818545617876e-05 2.09983025032215e-05 -3.6968121048839256e-05 0.00019973114843339478 0.0 0.0
0.0 0.001157295664214291 0.0006817042809450496 -0.000991708866648369 0.00031000458570331913 0.0007225391753918018 0.0 0.0
0.0 0.0005256566985122776 0.00026902845349869816 -0.0003944139629773284 0.00012538550947863028 -0.0003522198066633445 0.0 0.0
0.0 -2.9801069804211007e-05 -1.976185439967868e-05 3.467343844635645e-05 -1.4911584046677778e-05 -2.4227024043166602e-06 0.0 0.0
0.0 1.0236108493872778e-06 1.249330368473735e-08 -3.23014629464959e-08 1.9808159261759636e-08 -1.0465001150984648e-06 0.0 0.0
0.0 6.00728194365594e-07 -3.2107733357491496e-08 2.5260875769371147e-08 6.846857588118228e-09 -2.49285032895048e-07 0.0 0.0
0.0 -4.32225999317074e-06 -6.811231344805997e-07 5.532849098502204e-07 1.278382246303873e-07 7.647597145335674e-06 0.0 0.0
0.0 -8.805163593316275e-06 -3.7442047969790237e-06 3.1279254705266084e-06 6.162793264523879e-07 1.9157497914158403e-05 0.0 0.0
0.0 4.038012425904153e-05 -1.2450356361936214e-06 1.259160957261992e-06 -1.4125321068332726e-08 -4.880119561754199e-05 0.0 0.0
0.0 0.00021447868509821228 4.205227076871722e-05 -3.5365914431175784e-05 -6.686356337541563e-06 -0.00032431165538872894 0.0 0.0
0.0 0.0007398429904217472 0.00029925074141002174 -0.000262621137534624 -3.662960387539741e-05 -0.0010469715749436147 0.0 0.0
0.0 0.0018499444815796668 0.0009900669720046777 -0.0008845065215844718 -0.00010556045042020692 -0.0022701296154090623 0.0 0.0
0.0 0.003637617753837922 0.0021199077432282115 -0.0019227402091121057 -0.00019716753411610355 -0.0038129176622602946 0.0 0.0
0.0 0.00550234914137149 0.0034991583659075864 -0.0032188832154767142 -0.000280275150430876 -0.00553292709837594 0.0 0.0
0.0 0.007720126417259784 0.005035650889058074 -0.004681881601866923 -0.00035376928719114427 -0.0073391996041984485 0.0 0.0
0.0 0.010216401760253223 0.006757841419985839 -0.006341804445853161 -0.0004160369741326771 -0.009209569009137669 0.0 0.0
0.0 0.01300785476731834 0.008736137958898072 -0.008262813415779988 -0.00047332454311808676 -0.011138789063999654 0.0 0.0
0.0 0.01624108126255743 0.011087962262968513 -0.010557193335497246 -0.0005307689274712636 -0.013115588774527873 0.0 0.0
0.0 0.0200874865640704 0.013962510316156522 -0.013370968502540494 -0.000591541813616037 -0.014996956573255673 0.0 0.0
0.0 0.02459486726675154 0.017490112788077744 -0.01683659430575832 -0.0006535184823194236 -0.016306192713630627 0.0 0.0
0.0 0.029769312235206367 0.02193214980875343 -0.021195768340133352 -0.0007363814686200938 -0.016486545412442905 0.0 0.0
0.0 0.03667517933532426 0.028140975626805804 -0.027254747249356896 -0.0008862283774488765 -0.015876794651568497 0.0 0.0
0.0 0.047410862792627656 0.033770889233456995 -0.03428126412553549 0.0005103748920785112 1.4031310835438404e-14 0.0 0.0
0.0 0.03667517933532577 0.02814097562679998 -0.027254747249350494 -0.0008862283774495235 0.01587679465160461 0.0 0.0
0.0 0.02976931223520137 0.021932149808745808 -0.021195768340125626 -0.0007363814686202064 0.016486545412476794 0.0 0.0
0.0 0.024594867266737507 0.01749011278806696 -0.016836594305747098 -0.0006535184823198524 0.0163061927136443 0.0 0.0
0.0 0.020087486564054124 0.013962510316146958 -0.013370968502531734 -0.0005915418136152456 0.014996956573248874 0.0 0.0
0.0 0.01624108126254226 0.011087962262958473 -0.010557193335486808 -0.0005307689274716652 0.013115588774515293 0.0 0.0
0.0 0.013007854767306546 0.008736137958889589 -0.008262813415771448 -0.000473324543118146 0.011138789063990226 0.0 0.0
0.0 0.010216401760243155 0.006757841419979195 -0.006341804445846623 -0.0004160369741325789 0.00920956900913299 0.0 0.0
0.0 0.007720126417249967 0.005035650889052376 -0.0046818816018613235 -0.0003537692871910545 0.007339199604190601 0.0 0.0
0.0 0.005502349141358338 0.003499158365900352 -0.0032188832154693716 -0.00028027515043097906 0.00553292709836148 0.0 0.0
0.0 0.003637617753826837 0.002119907743221513 -0.0019227402091060173 -0.00019716753411549436 0.0038129176622489517 0.0 0.0
0.0 0.001849944481573783 0.0009900669720016907 -0.0008845065215816066 -0.00010556045042008467 0.0022701296154034973 0.0 0.0
0.0 0.0007398429904180956 0.0002992507414084383 -0.0002626211375331657 -3.662960387527186e-05 0.0010469715749385395 0.0 0.0
0.0 0.00021447868509674378 4.2052270768300146e-05 -3.536591443082534e-05 -6.686356337474952e-06 0.00032431165538716493 0.0 0.0
0.0 4.0380124258462084e-05 -1.2450356360037348e-06 1.259160957126278e-06 -1.4125321122521994e-08 4.880119561817058e-05 0.0 0.0
0.0 -8.805163594626808e-06 -3.7442047969952363e-06 3.127925470535384e-06 6.162793264598488e-07 -1.9157497914146853e-05 0.0 0.0
0.0 -4.322259993060061e-06 -6.811231344479996e-07 5.532849098303185e-07 1.2783822461767776e-07 -7.647597144346779e-06 0.0 0.0
0.0 6.007281944361616e-07 -3.210773337580897e-08 2.526087578978944e-08 6.846857586020387e-09 2.492850339216912e-07 0.0 0.0
0.0 1.0236108495816934e-06 1.2493303691104873e-08 -3.2301462968671565e-08 1.9808159277562674e-08 1.046500115958448e-06 0.0 0.0
0.0 -2.9801069805229978e-05 -1.9761854399669795e-05 3.467343844625243e-05 -1.4911584046582573e-05 2.4227024036455103e-06 0.0 0.0
0.0 0.0005256566985084904 0.00026902845349698594 -0.00039441396297482817 0.00012538550947784177 0.0003522198066614989 0.0 0.0
0.0 9.704130529683322e-05 5.590436186694242e-05 -8.38218097129469e-05 2.7917447846004446e-05 -9.045072017339084e-05 0.0 0.0
0.0 -1.689502554912857e-05 -9.576109209378744e-06 1.3407240307477815e-05 -3.831131098099059e-06 1.876786424707386e-05 0.0 0.0
0.0 3.114609140956916e-06 9.990743402491998e-08 -6.329976648562856e-08 -3.660766753929686e-08 2.6767535194081924e-06 0.0 0.0
0.0 1.7800772212977032e-06 -8.819126574169517e-08 6.958187523372456e-08 1.8609390507974175e-08 -9.705120687292924e-07 0.0 0.0
0.0 -2.019671745404969e-06 -1.4569407629375443e-07 1.4450521592256628e-07 1.1888603711871144e-09 3.099774894740261e-06 0.0 0.0
0.0 -5.269669989904912e-07 -7.980635014415098e-07 8.292271831140542e-07 -3.1163681672544975e-08 9.065576790504106e-06 0.0 0.0
0.0 5.104965418497282e-05 -1.390699702684085e-06 1.3923895642256907e-06 -1.6898615416173668e-09 -6.456217973799868e-05 0.0 0.0
0.0 0.0001624484185807263 -9.962861380381936e-07 9.518970293896076e-07 4.4389108648618e-08 -0.0002783069223971393 0.0 0.0
0.0 0.0003892612732864962 -2.4978036629432686e-07 2.3199430929461507e-07 1.7786056999724072e-08 -0.0005947696112231171 0.0 0.0
0.0 0.0006345652629836451 6.86074059379858e-08 -3.7094287812461466e-08 -3.1513118125668326e-08 -0.0011883805798074945 0.0 0.0
0.0 0.0011447157699927036 6.554066826985438e-07 -8.69247130930108e-07 2.1384044823172677e-07 -0.002144701659875246 0.0 0.0
0.0 0.0018225316991815036 -5.191953529005034e-06 7.105690082738708e-06 -1.9137365537333085e-06 -0.0036162318835636035 0.0 0.0
0.0 0.0028726822204288936 -1.8032081085446428e-05 2.1596407055856986e-05 -3.564325970410151e-06 -0.0052865011321371275 0.0 0.0
0.0 0.0041035880166099764 -3.0503370946380142e-05 3.318774447777116e-05 -2.68437353139088e-06 -0.007067007498801813 0.0 0.0
0.0 0.005491144937669887 1.3031970872978411e-05 -2.0373625293735047e-05 7.341654420757584e-06 -0.008964268759336124 0.0 0.0
0.0 0.006999817980357995 0.0002482125830912022 -0.00028002533389400277 3.181275080279942e-05 -0.010981756575332556 0.0 0.0
0.0 0.008679920287853684 0.0009183354769898643 -0.0009955661368561855 7.72306598663232e-05 -0.013058361699351298 0.0 0.0
0.0 0.010465817278557079 0.0022497547232010594 -0.002443923701728939 0.0001941689785278762 -0.015011545023422963 0.0 0.0
0.0 0.01295563240078291 0.003949090602429374 -0.004326505412553267 0.0003774148101238961 -0.01643391697754136 0.0 0.0
0.0 0.0188731276764098 0.008010334549213075 -0.00777929138402212 -0.00023104316519095358 -0.0167606530053866 0.0 0.0
0.0 0.03340318971172791 0.014312218907531588 -0.01537846613625762 0.0010662472287260253 1.3195174120017583e-14 0.0 0.0
0.0 0.018873127676414542 0.00801033454921108 -0.007779291384019319 -0.0002310431651917573 0.016760653005410263 0.0 0.0
0.0 0.012955632400778544 0.003949090602427512 -0.004326505412552037 0.00037741481012452005 0.01643391697755013 0.0 0.0
0.0 0.010465817278547517 0.0022497547231999206 -0.002443923701727743 0.00019416897852782131 0.015011545023420144 0.0 0.0
0.0 0.00867992028784331 0.0009183354769903667 -0.0009955661368567631 7.723065986639738e-05 0.013058361699339157 0.0 0.0
0.0 0.006999817980350014 0.0002482125830938749 -0.0002800253338973099 3.181275080343495e-05 0.010981756575320772 0.0 0.0
0.0 0.005491144937663642 1.3031970873306382e-05 -2.0373625293311232e-05 7.341654420004091e-06 0.008964268759328013 0.0 0.0
0.0 0.004103588016602726 -3.0503370942415215e-05 3.318774447316227e-05 -2.6843735307450616e-06 0.007067007498793569 0.0 0.0
0.0 0.0028726822204201276 -1.803208108300139e-05 2.1596407053176188e-05 -3.564325970174798e-06 0.005286501132123821 0.0 0.0
0.0 0.001822531699173252 -5.191953527285272e-06 7.105690080727676e-06 -1.9137365534429727e-06 0.0036162318835524457 0.0 0.0
0.0 0.0011447157699870395 6.554066829403209e-07 -8.692471312851706e-07 2.1384044834483616e-07 0.0021447016598665023 0.0 0.0
0.0 0.0006345652629840458 6.860740571822479e-08 -3.7094287589413974e-08 -3.151311812872273e-08 0.0011883805798068268 0.0 0.0
0.0 0.0003892612732848579 -2.497803662684754e-07 2.3199430928747797e-07 1.7786056980856837e-08 0.0005947696112206688 0.0 0.0
0.0 0.00016244841857951555 -9.962861379843634e-07 9.518970293698039e-07 4.438910861455526e-08 0.00027830692239501944 0.0 0.0
0.0 5.1049654183962465e-05 -1.390699702722215e-06 1.3923895642538848e-06 -1.6898615316500588e-09 6.456217973794924e-05 0.0 0.0
0.0 -5.269670001747225e-07 -7.980635014147815e-07 8.292271830924959e-07 -3.1163681677721286e-08 -9.065576790257926e-06 0.0 0.0
0.0 -2.019671745277151e-06 -1.456940763302078e-07 1.4450521595665984e-07 1.1888603735516478e-09 -3.099774893793329e-06 0.0 0.0
0.0 1.7800772213034182e-06 -8.819126580643768e-08 6.95818752901959e-08 1.860939051624086e-08 9.705120696443262e-07 0.0 0.0
0.0 3.114609140129506e-06 9.990743404602923e-08 -6.32997665006778e-08 -3.660766754534153e-08 -2.6767535198856335e-06 0.0 0.0
0.0 -1.6895025549486395e-05 -9.576109209173144e-06 1.3407240307227765e-05 -3.831131098054628e-06 -1.87678642463557e-05 0.0 0.0
0.0 9.704130529527725e-05 5.590436186657001e-05 -8.382180971241354e-05 2.791744784584362e-05 9.045072017289933e-05 0.0 0.0
0.0 1.5164790346255615e-06 -1.2202215299381595e-06 1.590437069989274e-06 -3.7021554005112914e-07 2.9597129107977444e-06 0.0 0.0
0.0 -6.677852222894368e-07 2.005022366516677e-07 -2.4034049078172774e-07 3.983825413006217e-08 2.8202337307243036e-07 0.0 0.0
0.0 5.552490738142565e-07 7.594980269651355e-08 -1.0828453353248425e-07 3.233473083597035e-08 -1.0343742173284872e-06 0.0 0.0
0.0 2.7670551259979224e-06 -7.424901396990762e-08 4.9283962944900994e-08 2.4965051025005447e-08 -1.7231185173174872e-06 0.0 0.0
0.0 1.526226910253813e-06 -2.087463217829581e-07 1.997975634144817e-07 8.948758368475947e-09 -1.7951971660616387e-06 0.0 0.0
0.0 -1.1620331229919526e-06 -4.608121762646874e-08 2.8595643569501614e-07 -2.398752180685056e-07 -3.104821678542335e-06 0.0 0.0
0.0 6.516014900267235e-05 -1.8269653029086776e-06 1.7490370474120196e-06 7.792825549659576e-08 -5.71338387226139e-05 0.0 0.0
0.0 0.00022689832627924641 -4.636932673730946e-05 3.926006587700621e-05 7.109260860303277e-06 -0.0003349422130399207 0.0 0.0
0.0 0.0007430953168582255 -0.00030069236253387263 0.0002638127972423548 3.6879565291517945e-05 -0.001052690884628706 0.0 0.0
0.0 0.001847715644669126 -0.000988943509146006 0.0008834678299079284 0.00010547567923807811 -0.0022696233831941887 0.0 0.0
0.0 0.0036492556739348768 -0.002120472823486634 0.0019234278179804903 0.00019704500550614195 -0.0038097635745014554 0.0 0.0
0.0 0.005535704172894309 -0.0035195434470608853 0.00323634589390296 0.0002831975531579196 -0.005537142973022739 0.0 0.0
0.0 0.007780100922660332 -0.00508907455507079 0.0047306594954948395 0.0003584150595759508 -0.007343643117105303 0.0 0.0
0.0 0.01028671368659851 -0.006827117098049398 0.006411236468408922 0.0004158806296404764 -0.009205452851430105 0.0 0.0
0.0 0.012905730680883024 -0.008674058409050446 0.00822347246407552 0.00045058594497492425 -0.011140988941483267 0.0 0.0
0.0 0.0155112630045671 -0.01044415695648736 0.009989346222386945 0.0004548107341004134 -0.013213609189724244 0.0 0.0
0.0 0.017730643912767772 -0.011797231374777528 0.011376532585051728 0.00042069878972580906 -0.015465368509258549 0.0 0.0
0.0 0.01935222636905551 -0.012276370395894062 0.011942101322813686 0.00033426907308038316 -0.01796002252832208 0.0 0.0
0.0 0.019477116399434048 -0.011347117862409755 0.011205852576114238 0.00014126528629551622 -0.02065401635907273 0.0 0.0
0.0 0.01587885557300814 -0.00820387601408045 0.00853559292583546 -0.0003317169117550068 -0.02255098293755775 0.0 0.0
0.0 0.03217456784669376 -0.0045653204151238965 0.0021963878439278427 0.0023689325711960477 1.5764299587939234e-14 0.0 0.0
0.0 0.015878855573015604 -0.008203876014081868 0.00853559292583654 -0.00033171691175467373 0.02255098293757438 0.0 0.0
0.0 0.019477116399431477 -0.011347117862405928 0.011205852576110398 0.00014126528629553216 0.02065401635908757 0.0 0.0
0.0 0.01935222636904365 -0.012276370395885298 0.01194210132280545 0.00033426907307984745 0.017960022528324338 0.0 0.0
0.0 0.01773064391274829 -0.011797231374763791 0.011376532585037565 0.00042069878972623493 0.015465368509248302 0.0 0.0
0.0 0.015511263004549837 -0.010444156956474498 0.00998934622237481 0.00045481073409969384 0.013213609189711841 0.0 0.0
0.0 0.012905730680868354 -0.008674058409038853 0.008223472464064241 0.000450585944974611 0.01114098894147221 0.0 0.0
0.0 0.0102867136865817 -0.006827117098036097 0.006411236468396424 0.0004158806296396705 0.009205452851419368 0.0 0.0
0.0 0.007780100922641713 -0.005089074555057431 0.004730659495481992 0.00035841505957543834 0.00734364311709201 0.0 0.0
0.0 0.005535704172876627 -0.003519543447048495 0.0032363458938914806 0.0002831975531570135 0.005537142973007977 0.0 0.0
0.0 0.003649255673916244 -0.0021204728234746877 0.0019234278179693467 0.0001970450055053399 0.0038097635744845587 0.0 0.0
0.0 0.0018477156446594807 -0.0009889435091404101 0.0008834678299028208 0.0001054756792375904 0.002269623383186668 0.0 0.0
0.0 0.0007430953168535166 -0.00030069236253112575 0.0002638127972398416 3.687956529128422e-05 0.0010526908846239026 0.0 0.0
0.0 0.00022689832627758411 -4.6369326736974705e-05 3.926006587675892e-05 7.1092608602158974e-06 0.0003349422130383352 0.0 0.0
0.0 6.51601490011633e-05 -1.8269653030010652e-06 1.7490370474701735e-06 7.792825553087687e-08 5.7133838722173754e-05 0.0 0.0
0.0 -1.1620331237621662e-06 -4.608121772060377e-08 2.8595643576143893e-07 -2.398752180408309e-07 3.104821679377009e-06 0.0 0.0
0.0 1.5262269097420978e-06 -2.0874632191773395e-07 1.9979756352954867e-07 8.948758388174863e-09 1.7951971672015885e-06 0.0 0.0
0.0 2.767055125572458e-06 -7.424901408546127e-08 4.928396304104688e-08 2.4965051044415078e-08 1.7231185183451694e-06 0.0 0.0
0.0 5.55249073418449e-07 7.59498026835012e-08 -1.0828453353154757e-07 3.233473084804187e-08 1.0343742179615507e-06 0.0 0.0
0.0 -6.677852221313198e-07 2.005022365884758e-07 -2.4034049070685426e-07 3.983825411837729e-08 -2.820233730356396e-07 0.0 0.0
0.0 1.5164790331666803e-06 -1.220221529473003e-06 1.5904370692867018e-06 -3.702155398136842e-07 -2.95971290985397e-06 0.0 0.0
0.0 -5.791226492451871e-07 3.285152939261595e-08 -4.863961923435168e-08 1.5788089841737027e-08 -8.324711323925468e-08 0.0 0.0
0.0 1.1400492108169367e-06 1.6676395866441716e-09 1.8170925843195375e-08 -1.983856542984434e-08 2.455292569020502e-07 0.0 0.0
0.0 -4.502360952690146e-07 2.6325449245545403e-07 -2.135600893839772e-07 -4.969440307148601e-08 1.916896410486365e-06 0.0 0.0
0.0 1.5586211050189128e-06 -4.2859199997971785e-07 3.3449363211534113e-07 9.40983678643652e-08 -3.714141018691087e-06 0.0 0.0
0.0 3.525360544263129e-06 2.168572967869681e-06 -1.7782735313279117e-06 -3.902994365417085e-07 9.007760384204468e-06 0.0 0.0
0.0 1.433024377606098e-05 4.911351558406704e-06 -3.783545695410629e-06 -1.1278058629960842e-06 8.99977364113441e-06 0.0 0.0
0.0 0.00010606213669201922 -5.314653504263256e-05 4.096290234192757e-05 1.2183632700705045e-05 -0.00015958168877220247 0.0 0.0
0.0 0.000767711604281693 -0.0004603140477099756 0.0003655336146068391 9.478043310313635e-05 -0.0008100158535221469 0.0 0.0
0.0 0.0022311924511595046 -0.0015999238954984376 0.0013333227477205127 0.00026660114777792395 -0.002148247244058839 0.0 0.0
0.0 0.004767578101557625 -0.0035019716813838603 0.0030722659726136786 0.0004297057087701792 -0.003972117901914931 0.0 0.0
0.0 0.00781344249589189 -0.005991006432868774 0.005448911019763901 0.0005420954131048759 -0.006173267452513805 0.0 0.0
0.0 0.011490056954222578 -0.008868552209950645 0.008249803715378187 0.0006187484945724599 -0.008456024620449743 0.0 0.0
0.0 0.015495323412328316 -0.012067201486842061 0.011383562464290679 0.0006836390225513714 -0.010716557361186829 0.0 0.0
0.0 0.019858251844303364 -0.015594240721117055 0.014860043003358959 0.0007341977177580903 -0.012930295524644751 0.0 0.0
0.0 0.024608278785179058 -0.01940833293159283 0.01863915223509506 0.0007691806964977611 -0.015188293175110196 0.0 0.0
0.0 0.029543265928450788 -0.02331314452515975 0.022530063440532117 0.0007830810846276199 -0.017697084093890675 0.0 0.0
0.0 0.03418845156017661 -0.026908028418527963 0.026131711736995522 0.0007763166815324483 -0.020678713735002147 0.0 0.0
0.0 0.037756820388403015 -0.029615363119065513 0.028862914488681737 0.0007524486303837766 -0.024242010344375918 0.0 0.0
0.0 0.039566766696970006 -0.03039517390209624 0.02973195831631098 0.0006632155857852441 -0.027703338589981828 0.0 0.0
0.0 0.03679126559401065 -0.027059318320452556 0.026573197174661646 0.00048612114579088897 -0.028478539186895042 0.0 0.0
0.0 0.039498663982769563 -0.021762202894713326 0.018603479940317864 0.0031587229543954334 1.764127038894614e-14 0.0 0.0
0.0 0.036791265594018845 -0.027059318320450786 0.026573197174660015 0.00048612114579079144 0.02847853918693292 0.0 0.0
0.0 0.03956676669696682 -0.030395173902087465 0.02973195831630238 0.0006632155857850671 0.027703338590017543 0.0 0.0
0.0 0.037756820388381886 -0.029615363119046514 0.02886291448866321 0.0007524486303833137 0.02424201034438779 0.0 0.0
0.0 0.03418845156014577 -0.026908028418502993 0.026131711736970542 0.0007763166815324507 0.020678713734994872 0.0 0.0
0.0 0.0295432659284209 -0.023313144525135675 0.022530063440508237 0.0007830810846274444 0.017697084093874372 0.0 0.0
0.0 0.02460827878515149 -0.019408332931570137 0.01863915223507313 0.0007691806964970184 0.015188293175096863 0.0 0.0
0.0 0.019858251844277815 -0.015594240721095286 0.014860043003337316 0.0007341977177579583 0.012930295524632275 0.0 0.0
0.0 0.015495323412299741 -0.012067201486819204 0.011383562464268103 0.0006836390225510969 0.010716557361172325 0.0 0.0
0.0 0.01149005695419526 -0.008868552209929754 0.008249803715358134 0.0006187484945716228 0.00845602462043053 0.0 0.0
0.0 0.007813442495863333 -0.005991006432846913 0.005448911019742411 0.0005420954131045025 0.006173267452491663 0.0 0.0
0.0 0.004767578101537518 -0.0035019716813690293 0.003072265972599626 0.00042970570876940494 0.003972117901899658 0.0 0.0
0.0 0.0022311924511482536 -0.0015999238954898006 0.0013333227477132416 0.0002666011477765582 0.0021482472440512005 0.0 0.0
0.0 0.0007677116042759881 -0.00046031404770638964 0.00036553361460395955 9.478043310242949e-05 0.0008100158535166483 0.0 0.0
0.0 0.00010606213668953315 -5.314653504204284e-05 4.09629023414849e-05 1.2183632700557905e-05 0.0001595816887708346 0.0 0.0
0.0 1.4330243775640333e-05 4.9113515580029645e-06 -3.7835456950975957e-06 -1.1278058629054703e-06 -8.999773639993864e-06 0.0 0.0
0.0 3.5253605435613947e-06 2.168572967642731e-06 -1.7782735311394502e-06 -3.9029943650327274e-07 -9.007760383101934e-06 0.0 0.0
0.0 1.5586211047989955e-06 -4.2859200011482136e-07 3.344936322267284e-07 9.409836788809866e-08 3.714141019606554e-06 0.0 0.0
0.0 -4.5023609597291047e-07 2.63254492452971e-07 -2.1356008939290822e-07 -4.9694403060057946e-08 -1.916896410168605e-06 0.0 0.0
0.0 1.1400492104645924e-06 1.6676395982218538e-09 1.8170925835390963e-08 -1.983856543361443e-08 -2.4552925706075323e-07 0.0 0.0
0.0 -5.791226488939735e-07 3.285152937202806e-08 -4.863961920387383e-08 1.57880898318369e-08 8.324711318699175e-08 0.0 0.0
0.0 0.0 0.0 0.0 0.0 0.0 0.0 0.0
0.0 1.2793262250216665e-07 8.703308849541075e-11 4.028570319636627e-09 -4.115603408136257e-09 2.4778079492361678e-08 0.0 0.0
0.0 7.824613437626149e-07 2.0117885545340957e-07 -1.558636077970792e-07 -4.5315247656323534e-08 1.177601284479724e-06 0.0 0.0
0.0 7.45488632526031e-07 1.151645233166634e-06 -9.641554369309103e-07 -1.8748979623572373e-07 3.4222026360056284e-06 0.0 0.0
0.0 1.7948380226507231e-06 2.307816296893341e-06 -1.814097266166328e-06 -4.937190307270486e-07 2.6848864721669303e-06 0.0 0.0
0.0 1.2565122741443744e-05 -1.4971513093028085e-05 1.1275550080126475e-05 3.6959630129016555e-06 -3.905036751456459e-05 0.0 0.0
0.0 0.0004124739581577721 -0.0002676202658474409 0.00020429731947663038 6.332294637081048e-05 -0.00035196406386761814 0.0 0.0
0.0 0.0016272220790089316 -0.001300463993122609 0.00104494751325074 0.00025551647987186833 -0.0013807120299818764 0.0 0.0
0.0 0.00421368031448398 -0.003367899505647626 0.0028919157589838906 0.0004759837466637351 -0.003103615453519557 0.0 0.0
0.0 0.00823525588685547 -0.006416712434455816 0.0057975147726701684 0.0006191976617856544 -0.005450934681666706 0.0 0.0
0.0 0.012659585086882889 -0.010218631461690556 0.009513837302652213 0.0007047941590383289 -0.008121489614156385 0.0 0.0
0.0 0.017873587153421935 -0.014554302838305909 0.01378252109052852 0.0007717817477773905 -0.010778512195269215 0.0 0.0
0.0 0.023704962521215085 -0.019366978979723462 0.018531134977584813 0.000835844002138663 -0.01332723016570409 0.0 0.0
0.0 0.030060782437118766 -0.024686344541581525 0.02379308171249836 0.0008932628290831356 -0.015804564908386186 0.0 0.0
0.0 0.03707366760049249 -0.030494409226539274 0.02955718235344716 0.0009372268730921513 -0.018378599499473094 0.0 0.0
0.0 0.04435716624280582 -0.036598681563988544 0.035640009762959196 0.0009586718010292932 -0.021387296591142545 0.0 0.0
0.0 0.05177815444380441 -0.042514656891129696 0.04156103353058866 0.0009536233605410058 -0.025271997120119936 0.0 0.0
0.0 0.05790253534488213 -0.04734038918449707 0.04643585514569147 0.0009045340388055869 -0.03002776495764738 0.0 0.0
0.0 0.06105013827528892 -0.04944621139133113 0.0486488778545997 0.0007973335367313973 -0.034355033638551906 0.0 0.0
0.0 0.057470738842463565 -0.04578609176370066 0.04525379844305191 0.0005322933206487401 -0.035664468742049475 0.0 0.0
0.0 0.05493493612312496 -0.038660610702406235 0.03477440209225672 0.0038862086101495246 1.9094101300076716e-14 0.0 0.0
0.0 0.057470738842465896 -0.04578609176369379 0.045253798443045154 0.000532293320648665 0.03566446874209502 0.0 0.0
0.0 0.06105013827528183 -0.0494462113913181 0.0486488778545872 0.0007973335367308478 0.0343550336385972 0.0 0.0
0.0 0.05790253534485297 -0.0473403891844697 0.04643585514566437 0.0009045340388053188 0.03002776495766585 0.0 0.0
0.0 0.051778154443766204 -0.042514656891097284 0.04156103353055649 0.0009536233605408367 0.025271997120116848 0.0 0.0
0.0 0.04435716624276442 -0.036598681563953746 0.035640009762924856 0.0009586718010288582 0.021387296591126943 0.0 0.0
0.0 0.037073667600451485 -0.030494409226505335 0.02955718235341362 0.0009372268730917411 0.01837859949945574 0.0 0.0
0.0 0.030060782437079207 -0.024686344541547747 0.02379308171246509 0.0008932628290826372 0.015804564908371593 0.0 0.0
0.0 0.023704962521174204 -0.019366978979689656 0.018531134977551208 0.0008358440021384322 0.013327230165687369 0.0 0.0
0.0 0.017873587153382747 -0.014554302838274615 0.013782521090497596 0.0007717817477770189 0.01077851219524693 0.0 0.0
0.0 0.012659585086846512 -0.010218631461661546 0.009513837302623526 0.0007047941590380094 0.008121489614132942 0.0 0.0
0.0 0.008235255886825794 -0.006416712434432348 0.005797514772647399 0.0006191976617849487 0.0054509346816472735 0.0 0.0
0.0 0.0042136803144669725 -0.0033678995056344307 0.0028919157589718013 0.000475983746662625 0.003103615453509282 0.0 0.0
0.0 0.001627222078998027 -0.001300463993114401 0.0010449475132437854 0.00025551647987061597 0.0013807120299735814 0.0 0.0
0.0 0.0004124739581530769 -0.00026762026584457724 0.00020429731947442287 6.332294637015454e-05 0.00035196406386422415 0.0 0.0
0.0 1.2565122740710319e-05 -1.4971513093299933e-05 1.1275550080354259e-05 3.6959630129456453e-06 3.905036751532896e-05 0.0 0.0
0.0 1.7948380224306496e-06 2.307816296557701e-06 -1.8140972658934206e-06 -4.937190306642761e-07 -2.684886471180561e-06 0.0 0.0
0.0 7.454886319657803e-07 1.1516452329685448e-06 -9.641554367705454e-07 -1.8748979619799688e-07 -3.422202635009212e-06 0.0 0.0
0.0 7.824613432493395e-07 2.0117885548973087e-07 -1.5586360782759132e-07 -4.5315247662146204e-08 -1.1776012846611418e-06 0.0 0.0
0.0 1.2793262222365965e-07 8.703308583074716e-11 4.028570317766604e-09 -4.115603403594462e-09 -2.4778079435018216e-08 0.0 0.0
0.0 0.0 0.0 0.0 0.0 0.0 0.0 0.0
0.0 0.0 0.0 0.0 0.0 0.0 0.0 0.0
0.0 -1.2025212151614905e-07 -2.8111852206668733e-09 1.9303984439410896e-09 8.807867767261456e-10 -2.3879236813071873e-08 0.0 0.0
0.0 -1.7153682043843684e-07 1.0501954397839318e-07 -8.317286741899093e-08 -2.184667655940519e-08 4.823570636900667e-07 0.0 0.0
0.0 -2.3826919932535463e-06 4.42961772173542e-07 -3.589762914352242e-07 -8.398548073830735e-08 8.015087416198589e-07 0.0 0.0
0.0 -1.3335170039308468e-06 7.306474377150008e-06 -6.000989140741669e-06 -1.3054852364083286e-06 1.4230120586985089e-05 0.0 0.0
0.0 0.00012309081763527143 -6.765106740548544e-05 4.993667310297703e-05 1.7714394302508308e-05 -6.870959983542885e-05 0.0 0.0
0.0 0.0008541283101674347 -0.0007032036038026113 0.0005433170769230018 0.00015988652687960977 -0.0006079636218283696 0.0 0.0
0.0 0.002868419588768251 -0.0024158897761978656 0.0019983347975746557 0.0004175549786232085 -0.001808782400164846 0.0 0.0
0.0 0.0067802858574168385 -0.005408142020366553 0.004783529689979861 0.0006246123303866918 -0.003813238676694988 0.0 0.0
0.0 0.011362992186041584 -0.00958310773073211 0.008843423604944615 0.0007396841257875037 -0.00645742526526445 0.0 0.0
0.0 0.0175485081549371 -0.014635794052254989 0.013823000944685842 0.0008127931075691433 -0.00928426751864162 0.0 0.0
0.0 0.0244314375395073 -0.020402932031593414 0.019523644537114433 0.0008792874944789657 -0.012076387254403416 0.0 0.0
0.0 0.03203909604638664 -0.02682743857936851 0.025878516332242047 0.000948922247126475 -0.014751616744580216 0.0 0.0
0.0 0.04043911401787015 -0.0339420547716336 0.03292576122579071 0.001016293545842862 -0.017359198776213978 0.0 0.0
0.0 0.04959611127714218 -0.041759162536567876 0.040687373903374534 0.001071788633193301 -0.020070552056239557 0.0 0.0
0.0 0.05968681836930115 -0.050097886724814154 0.04899688674906372 0.0011009999757504553 -0.023328313508137234 0.0 0.0
0.0 0.06921923693459779 -0.05835432619267354 0.05726663820448007 0.0010876879881934133 -0.027678274289713017 0.0 0.0
0.0 0.07790107301176213 -0.0652184876547352 0.06420604499552934 0.0010124426592058612 -0.033079690406342364 0.0 0.0
0.0 0.08243772513204553 -0.06837930179102338 0.06753045734648469 0.0008488444445386518 -0.038195944765361055 0.0 0.0
0.0 0.07793654482099702 -0.06396840066737965 0.06343615708575615 0.0005322435816235569 -0.040185446488112966 0.0 0.0
0.0 0.07187080410255367 -0.05519212972302533 0.05068270772932529 0.004509421993699925 1.9644008641961364e-14 0.0 0.0
0.0 0.07793654482099567 -0.06396840066737021 0.06343615708574737 0.0005322435816228443 0.040185446488161206 0.0 0.0
0.0 0.08243772513202706 -0.06837930179100146 0.06753045734646267 0.0008488444445387328 0.03819594476540869 0.0 0.0
0.0 0.07790107301172723 -0.06521848765470233 0.06420604499549669 0.0010124426592054952 0.033079690406368246 0.0 0.0
0.0 0.06921923693454633 -0.05835432619262956 0.057266638204435526 0.0010876879881940573 0.02767827428971061 0.0 0.0
0.0 0.05968681836924979 -0.05009788672477049 0.04899688674902023 0.0011009999757502198 0.023328313508123352 0.0 0.0
0.0 0.04959611127708931 -0.041759162536522745 0.04068737390332994 0.001071788633192791 0.020070552056221824 0.0 0.0
0.0 0.04043911401781976 -0.03394205477159009 0.032925761225748085 0.001016293545841994 0.0173591987761986 0.0 0.0
0.0 0.03203909604633194 -0.02682743857932271 0.02587851633219604 0.0009489222471266706 0.01475161674456083 0.0 0.0
0.0 0.024431437539458416 -0.020402932031552592 0.019523644537073906 0.000879287494478671 0.012076387254381087 0.0 0.0
0.0 0.0175485081548934 -0.01463579405221891 0.013823000944650022 0.0008127931075689073 0.00928426751861645 0.0 0.0
0.0 0.011362992186005106 -0.009583107730701635 0.008843423604914732 0.0007396841257869079 0.00645742526524316 0.0 0.0
0.0 0.00678028585739179 -0.00540814202034691 0.004783529689961144 0.0006246123303857681 0.003813238676681847 0.0 0.0
0.0 0.0028684195887521153 -0.002415889776185085 0.001998334797563372 0.0004175549786217121 0.0018087824001555416 0.0 0.0
0.0 0.0008541283101605815 -0.0007032036037978459 0.0005433170769192785 0.00015988652687856766 0.0006079636218243501 0.0 0.0
0.0 0.00012309081763296723 -6.765106740449656e-05 4.9936673102211356e-05 1.7714394302285294e-05 6.870959983449073e-05 0.0 0.0
0.0 -1.333517004166009e-06 7.306474376474152e-06 -6.000989140204725e-06 -1.305485236269414e-06 -1.423012058565485e-05 0.0 0.0
0.0 -2.382691993548708e-06 4.4296177201869223e-07 -3.589762913112591e-07 -8.398548070741659e-08 -8.01508740977838e-07 0.0 0.0
0.0 -1.7153682057801628e-07 1.0501954401958761e-07 -8.317286745308129e-08 -2.1846676566503417e-08 -4.82357063856035e-07 0.0 0.0
0.0 -1.2025212151506954e-07 -2.8111852205958148e-09 1.930398443898689e-09 8.807867766964716e-10 2.387923681280424e-08 0.0 0.0
0.0 0.0 0.0 0.0 0.0 0.0 0.0 0.0
0.0 0.0 0.0 0.0 0.0 0.0 0.0 0.0
0.0 0.0 0.0 0.0 0.0 0.0 0.0 0.0
0.0 -3.1527468287883843e-07 -1.0073705400185654e-08 8.3016386967958e-09 1.7720667033884886e-09 -3.136502519761955e-08 0.0 0.0
0.0 -1.6346413544060679e-06 1.5574220332983279e-06 -1.2558945084602814e-06 -3.015275248380216e-07 3.4192760958885984e-06 0.0 0.0
0.0 -8.646335405898632e-06 -1.3919913129685265e-06 3.1390759922799735e-07 1.0780837137405196e-06 1.0896614401914606e-06 0.0 0.0
0.0 0.00030949656659614634 -0.0002176494053932154 0.0001619407422597294 5.5708663133486026e-05 -0.00014023061377237573 0.0 0.0
0.0 0.0015173221188559032 -0.0013158277624507535 0.0010378451713179433 0.00027798259113280966 -0.0007645252165411515 0.0 0.0
0.0 0.004587136586384521 -0.0037386281002946622 0.0031847067272296027 0.0005539213730650602 -0.0020703278090065205 0.0 0.0
0.0 0.008801726716345654 -0.007663186789717998 0.006931664468181124 0.0007315223215368771 -0.004221383719603319 0.0 0.0
0.0 0.015097122279347047 -0.012866444834900044 0.012039650524761327 0.0008267943101387166 -0.006834869978268397 0.0 0.0
0.0 0.022526046252804445 -0.019151590120294486 0.018253441058401286 0.0008981490618931997 -0.009613518883774316 0.0 0.0
0.0 0.031010274106102298 -0.026349234121194692 0.025379672955008488 0.000969561166186209 -0.012360053552686016 0.0 0.0
0.0 0.04046332590109347 -0.03438940274643901 0.03334356392086485 0.00104583882557414 -0.01500783262797212 0.0 0.0
0.0 0.05098605229550329 -0.04329768106427278 0.04217588678272055 0.0011217942815522667 -0.017605350756633737 0.0 0.0
0.0 0.062398671676299866 -0.05311321654114598 0.051923486674244554 0.001189729866901397 -0.020291271915133538 0.0 0.0
0.0 0.07459721082067348 -0.0636669053289329 0.06243962200873362 0.0012272833201993265 -0.02343320146000534 0.0 0.0
0.0 0.08731620394077427 -0.0742115079264444 0.07300824395842843 0.0012032639680159343 -0.027643049227118913 0.0 0.0
0.0 0.09786780224231637 -0.08303485211528291 0.08194310064366993 0.001091751471612758 -0.03315868419282602 0.0 0.0
0.0 0.10303389345028825 -0.08711434081973997 0.08623964480554695 0.000874696014192977 -0.03893453357041425 0.0 0.0
0.0 0.09802433291910578 -0.08196503349977667 0.08143465147267828 0.0005303820270984201 -0.042929511861045266 0.0 0.0
0.0 0.09008112614153155 -0.07176714480959892 0.0667075435831016 0.00505960122649727 2.0972806824559598e-14 0.0 0.0
0.0 0.09802433291910119 -0.08196503349976565 0.08143465147266793 0.0005303820270977661 0.042929511861094276 0.0 0.0
0.0 0.10303389345025997 -0.08711434081971048 0.08623964480551725 0.0008746960141932196 0.03893453357046129 0.0 0.0
0.0 0.09786780224227297 -0.08303485211524317 0.08194310064363039 0.0010917514716127408 0.03315868419285345 0.0 0.0
0.0 0.08731620394071374 -0.07421150792639208 0.07300824395837585 0.0012032639680161336 0.027643049227117814 0.0 0.0
0.0 0.07459721082061126 -0.06366690532887914 0.062439622008680626 0.0012272833201985474 0.023433201459994148 0.0 0.0
0.0 0.06239867167623658 -0.05311321654109145 0.051923486674190764 0.0011897298669007186 0.020291271915120417 0.0 0.0
0.0 0.05098605229544303 -0.04329768106422024 0.04217588678266911 0.0011217942815510856 0.01760535075661848 0.0 0.0
0.0 0.04046332590102927 -0.03438940274638432 0.0333435639208096 0.0010458388255747 0.015007832627955006 0.0 0.0
0.0 0.03101027410604208 -0.02634923412114396 0.025379672954957896 0.0009695611661860455 0.012360053552663201 0.0 0.0
0.0 0.022526046252750398 -0.019151590120249227 0.01825344105835617 0.0008981490618930491 0.009613518883748916 0.0 0.0
0.0 0.01509712227930392 -0.012866444834863822 0.01203965052472546 0.0008267943101383678 0.006834869978247958 0.0 0.0
0.0 0.008801726716316542 -0.007663186789692295 0.006931664468156198 0.0007315223215360957 0.0042213837195893365 0.0 0.0
0.0 0.004587136586363493 -0.0037386281002777877 0.003184706727214089 0.0005539213730636988 0.0020703278089969188 0.0 0.0
0.0 0.0015173221188459207 -0.0013158277624427746 0.0010378451713113689 0.00027798259113140497 0.0007645252165361677 0.0 0.0
0.0 0.0003094965665915778 -0.00021764940539042852 0.00016194074225760137 5.5708663132826824e-05 0.00014023061377028284 0.0 0.0
0.0 -8.646335406182047e-06 -1.3919913134656292e-06 3.139075996327347e-07 1.0780837138328661e-06 -1.0896614393446563e-06 0.0 0.0
0.0 -1.6346413550251172e-06 1.5574220332498318e-06 -1.2558945084209793e-06 -3.015275248288478e-07 -3.4192760956409378e-06 0.0 0.0
0.0 -3.152746827442465e-07 -1.0073705369620828e-08 8.30163867237945e-09 1.7720666972419146e-09 3.136502510010051e-08 0.0 0.0
0.0 0.0 0.0 0.0 0.0 0.0 0.0 0.0
0.0 0.0 0.0 0.0 0.0 0.0 0.0 0.0
0.0 0.0 0.0 0.0 0.0 0.0 0.0 0.0
0.0 0.0 0.0 0.0 0.0 0.0 0.0 0.0
0.0 -1.4540377758426309e-07 -9.12955113141702e-09 7.222069576636487e-09 1.9074815547816038e-09 -2.4897336491865533e-08 0.0 0.0
0.0 -3.16766553440592e-06 1.308335537940754e-06 -1.0538728326361303e-06 -2.5446270530465174e-07 2.314399125481711e-06 0.0 0.0
0.0 2.6233146917022003e-05 -9.90231526930928e-06 5.3643150832085745e-06 4.538000186100784e-06 5.051587167446811e-06 0.0 0.0
0.0 0.0005242166607559791 -0.0004996495517882724 0.00037619770661312727 0.0001234518451751449 -0.00022309245638913572 0.0 0.0
0.0 0.0025400509740207693 -0.0020840928303911773 0.001686410502614454 0.00039768232777672444 -0.0008179644179137838 0.0 0.0
0.0 0.005936662002577012 -0.0052561427104943935 0.004593598436126968 0.0006625442743674248 -0.002175272189412081 0.0 0.0
0.0 0.011477999463966552 -0.010004893226508983 0.009195326724011264 0.000809566502497714 -0.0041776399081181964 0.0 0.0
0.0 0.01876225734305558 -0.016219993197238224 0.015322137174263823 0.0008978560229744234 -0.006567582570227739 0.0 0.0
0.0 0.027571490375360892 -0.023723258397263036 0.022750343880729943 0.0009729145165330765 -0.009131738132751248 0.0 0.0
0.0 0.03769279610865255 -0.03234814247787895 0.03129764228297502 0.0010505001949039252 -0.011665626121975602 0.0 0.0
0.0 0.049076154442656575 -0.04201149745712035 0.04087859315366021 0.0011329043034600697 -0.014124750836626657 0.0 0.0
0.0 0.06133320647876175 -0.05272107796193483 0.05150471212887933 0.0012163658330554955 -0.016573397743214174 0.0 0.0
0.0 0.0751162597232512 -0.06449103793737077 0.06319795404648748 0.0012930838908834185 -0.01907511707527834 0.0 0.0
0.0 0.089918373186482 -0.0771595120207145 0.07581889620560703 0.0013406158151073118 -0.021786677424193872 0.0 0.0
0.0 0.10462751139750125 -0.08990529602862465 0.08859240600799533 0.001312890020629245 -0.025254860778736374 0.0 0.0
0.0 0.11732734332281 -0.10064042514548253 0.09947430412200035 0.0011661210234822975 -0.030257358153134503 0.0 0.0
0.0 0.12378440655525472 -0.10572468226520243 0.10482765564027495 0.0008970266249272613 -0.03683749505553221 0.0 0.0
0.0 0.11824776031368606 -0.10012211413058664 0.09960318623268347 0.0005189278979031717 -0.0443184987691448 0.0 0.0
0.0 0.10876179408017672 -0.08875971155597681 0.08321564688701608 0.0055440646689607674 2.022167155946164e-14 0.0 0.0
0.0 0.11824776031367575 -0.10012211413057179 0.09960318623266906 0.000518927897902665 0.04431849876919212 0.0 0.0
0.0 0.12378440655522059 -0.1057246822651686 0.10482765564024144 0.0008970266249270192 0.036837495055578484 0.0 0.0
0.0 0.11732734332275377 -0.10064042514543302 0.09947430412195002 0.0011661210234829738 0.03025735815315894 0.0 0.0
0.0 0.10462751139742951 -0.08990529602856275 0.08859240600793285 0.0013128900206299083 0.02525486077873714 0.0 0.0
0.0 0.08991837318641256 -0.07715951202065373 0.07581889620554748 0.0013406158151061946 0.02178667742418668 0.0 0.0
0.0 0.0751162597231752 -0.06449103793730541 0.06319795404642232 0.0012930838908830826 0.01907511707526636 0.0 0.0
0.0 0.061333206478688576 -0.05272107796187154 0.05150471212881702 0.0012163658330544794 0.01657339774319947 0.0 0.0
0.0 0.04907615444258278 -0.04201149745705661 0.04087859315359629 0.0011329043034603262 0.014124750836610385 0.0 0.0
0.0 0.03769279610858069 -0.032348142477817476 0.031297642282913964 0.0010505001949034976 0.011665626121954226 0.0 0.0
0.0 0.0275714903753015 -0.02372325839721221 0.02275034388067961 0.0009729145165326218 0.009131738132728757 0.0 0.0
0.0 0.018762257343006596 -0.016219993197196154 0.015322137174222055 0.0008978560229740816 0.006567582570208657 0.0 0.0
0.0 0.011477999463929849 -0.010004893226476911 0.009195326723980018 0.0008095665024968957 0.004177639908104996 0.0 0.0
0.0 0.005936662002551655 -0.005256142710472507 0.0045935984361062335 0.0006625442743662764 0.0021752721894020247 0.0 0.0
0.0 0.002540050974005912 -0.0020840928303791913 0.0016864105026042115 0.0003976823277749793 0.0008179644179086428 0.0 0.0
0.0 0.0005242166607511797 -0.0004996495517848427 0.00037619770661050827 0.00012345184517433358 0.0002230924563876619 0.0 0.0
0.0 2.6233146916203156e-05 -9.9023152695403e-06 5.364315083418639e-06 4.538000186121771e-06 -5.0515871669402645e-06 0.0 0.0
0.0 -3.1676655344556735e-06 1.30833553792171e-06 -1.053872832624632e-06 -2.5446270529707805e-07 -2.3143991254443674e-06 0.0 0.0
0.0 -1.4540377760687656e-07 -9.129551133026106e-09 7.222069577956299e-09 1.907481555070548e-09 2.4897336495308385e-08 0.0 0.0
0.0 0.0 0.0 0.0 0.0 0.0 0.0 0.0
0.0 0.0 0.0 0.0 0.0 0.0 0.0 0.0
0.0 0.0 0.0 0.0 0.0 0.0 0.0 0.0
0.0 0.0 0.0 0.0 0.0 0.0 0.0 0.0
0.0 -8.449213319138698e-08 -6.2087657459101835e-09 4.937566336019683e-09 1.2711994098909265e-09 -1.2610593412718111e-08 0.0 0.0
0.0 -3.454143570787861e-06 2.290466415939556e-06 -1.8625069123367947e-06 -4.27959503602754e-07 3.064515508946212e-06 0.0 0.0
0.0 9.06796484486222e-05 -6.256329401277572e-05 4.294056340830679e-05 1.962273060446915e-05 -7.90498524669231e-06 0.0 0.0
0.0 0.0009969653019060493 -0.0008577836027491944 0.0006545697855276286 0.0002032138172215652 -0.00019925295691514057 0.0 0.0
0.0 0.003438793262570739 -0.003026696175405594 0.0025151946556404383 0.0005115015197651521 -0.0007865397494591062 0.0 0.0
0.0 0.007677364412791804 -0.006859911302074978 0.006117988663400851 0.0007419226386741276 -0.0019967266477123303 0.0 0.0
0.0 0.01409377975995299 -0.01239963950926351 0.011527407867178622 0.0008722316420848835 -0.0036616061011335104 0.0 0.0
0.0 0.02250977272868041 -0.019604039229939644 0.01864400984758947 0.0009600293823501668 -0.005681934333768582 0.0 0.0
0.0 0.032627496341023104 -0.02831408058249841 0.027273380658236153 0.0010406999242622463 -0.007856837910137264 0.0 0.0
0.0 0.04438400503195945 -0.038365459549327824 0.03724028915330476 0.0011251703960230624 -0.010010389059084968 0.0 0.0
0.0 0.057360553718334144 -0.0496647646367301 0.04845065324933916 0.001214111387391024 -0.012114928953694109 0.0 0.0
0.0 0.07209504122296183 -0.062171349888344364 0.06087034094433938 0.0013010089440048615 -0.014250790356327833 0.0 0.0
0.0 0.08783465394738385 -0.0758483961235329 0.07446713631682003 0.0013812598067128937 -0.016438410935831173 0.0 0.0
0.0 0.10458137267670987 -0.0904792069765627 0.08903996769585834 0.0014392392807044646 -0.018569470100215608 0.0 0.0
0.0 0.12174248722590199 -0.10523162859996252 0.10380731522303681 0.0014243133769257143 -0.02080657821467051 0.0 0.0
0.0 0.13653878518259768 -0.11788815932707064 0.11663036341627314 0.0012577959107974825 -0.024464304180599583 0.0 0.0
0.0 0.1444366955318301 -0.12431751531278665 0.12338822945553438 0.0009292858572522756 -0.031834255839948616 0.0 0.0
0.0 0.13914882173610943 -0.11877460075775104 0.11828714118235847 0.00048745957539278765 -0.044115074773666905 0.0 0.0
0.0 0.1289495928538646 -0.10654993296561602 0.10059414490746539 0.005955788058150572 1.7045392874948107e-14 0.0 0.0
0.0 0.13914882173609136 -0.11877460075773108 0.11828714118233845 0.0004874595753926531 0.04411507477370757 0.0 0.0
0.0 0.14443669553178662 -0.12431751531274672 0.12338822945549426 0.000929285857252383 0.03183425583998932 0.0 0.0
0.0 0.13653878518253248 -0.11788815932701373 0.11663036341621619 0.0012577959107974621 0.02446430418061909 0.0 0.0
0.0 0.12174248722581818 -0.10523162859989048 0.10380731522296359 0.0014243133769268734 0.020806578214672446 0.0 0.0
0.0 0.10458137267662938 -0.09047920697649257 0.0890399676957892 0.0014392392807033548 0.018569470100211923 0.0 0.0
0.0 0.08783465394729568 -0.0758483961234571 0.07446713631674404 0.0013812598067130223 0.01643841093582103 0.0 0.0
0.0 0.07209504122287547 -0.06217134988826941 0.060870340944265126 0.0013010089440042398 0.014250790356316418 0.0 0.0
0.0 0.057360553718249094 -0.04966476463665672 0.04845065324926609 0.00121411138739068 0.01211492895368138 0.0 0.0
0.0 0.04438400503188033 -0.03836545954925917 0.03724028915323655 0.001125170396022677 0.010010389059068169 0.0 0.0
0.0 0.03262749634095467 -0.0283140805824394 0.027273380658177457 0.0010406999242619326 0.00785683791011764 0.0 0.0
0.0 0.02250977272862376 -0.019604039229890693 0.018644009847541033 0.000960029382349654 0.005681934333751895 0.0 0.0
0.0 0.014093779759910658 -0.012399639509226462 0.011527407867142202 0.0008722316420842609 0.0036616061011218886 0.0 0.0
0.0 0.007677364412762373 -0.006859911302048745 0.00611798866337558 0.0007419226386731708 0.0019967266477034086 0.0 0.0
0.0 0.0034387932625528756 -0.0030266961753902706 0.0025151946556267782 0.0005115015197634922 0.0007865397494540923 0.0 0.0
0.0 0.0009969653018998188 -0.0008577836027444446 0.0006545697855239572 0.00020321381722048708 0.0001992529569140933 0.0 0.0
0.0 9.067964844688552e-05 -6.256329401194863e-05 4.2940563407716184e-05 1.9622730604232447e-05 7.904985246733683e-06 0.0 0.0
0.0 -3.4541435710788286e-06 2.2904664153944105e-06 -1.8625069119274368e-06 -4.2795950346696357e-07 -3.064515508459763e-06 0.0 0.0
0.0 -8.449213308768496e-08 -6.208765738185114e-09 4.937566329875185e-09 1.2711994083088753e-09 1.2610593397016244e-08 0.0 0.0
0.0 0.0 0.0 0.0 0.0 0.0 0.0 0.0
0.0 0.0 0.0 0.0 0.0 0.0 0.0 0.0
0.0 0.0 0.0 0.0 0.0 0.0 0.0 0.0
0.0 0.0 0.0 0.0 0.0 0.0 0.0 0.0
0.0 0.0 0.0 0.0 0.0 0.0 0.0 0.0
0.0 -5.406015498922899e-06 5.306283295894965e-06 -4.288928802074729e-06 -1.0173544938202546e-06 4.47596926915702e-06 0.0 0.0
0.0 0.00018237596423067117 -0.0001801187569680952 0.00012751843469352447 5.2600322274570594e-05 -1.9488637886365e-06 0.0 0.0
0.0 0.0016036250027778014 -0.001347670988690359 0.0010504520075585249 0.00029721898113183357 -0.00011296030717121726 0.0 0.0
0.0 0.0043903156411710855 -0.004080677685356362 0.0034759706464522894 0.0006047070389040741 -0.0006137850380540386 0.0 0.0
0.0 0.009511773929373532 -0.008512480761508723 0.007707161038928163 0.0008053197225805706 -0.0014792363333969816 0.0 0.0
0.0 0.01675058750133019 -0.01481556208022237 0.01389007982490005 0.0009254822553223077 -0.002699355637259051 0.0 0.0
0.0 0.02625398745893056 -0.022986305428666334 0.02197016630890087 0.0010161391197654815 -0.0041871514531058845 0.0 0.0
0.0 0.03776923349055941 -0.032890388423867954 0.03178682776150442 0.001103560662363535 -0.005798593009395406 0.0 0.0
0.0 0.05099470411835649 -0.044368198719866456 0.04317345866421429 0.0011947400556521165 -0.007399679847697941 0.0 0.0
0.0 0.06614683114131929 -0.057304402336921925 0.056015370631139046 0.0012890317057828757 -0.008982858938444941 0.0 0.0
0.0 0.08243600478082203 -0.07162260820088395 0.07024253367035635 0.001380074530527621 -0.010640672366729451 0.0 0.0
0.0 0.10041605170081783 -0.0871626845048719 0.08570393724933656 0.001458747255535383 -0.012348549585072068 0.0 0.0
0.0 0.11938737692300977 -0.10357098752372988 0.10205738640959736 0.0015136011141325444 -0.013849210444865995 0.0 0.0
0.0 0.13840846061504367 -0.12002836245958592 0.1185060770014526 0.0015222854581334459 -0.01487313763492221 0.0 0.0
0.0 0.1552112280617616 -0.1345510806792795 0.1331454404091888 0.001405640270090736 -0.016444881198446462 0.0 0.0
0.0 0.16516046898576658 -0.142891900787867 0.1418836097225728 0.001008291065294023 -0.023073601718706847 0.0 0.0
0.0 0.16101223179675495 -0.1383000469476366 0.1378917341043564 0.000408312843279975 -0.041303943222797415 0.0 0.0
0.0 0.15078004276833948 -0.1256737548087324 0.11940892864328169 0.006264826165450574 1.2717257802385973e-14 0.0 0.0
0.0 0.16101223179673016 -0.1383000469476124 0.13789173410433261 0.00040831284327974603 0.04130394322282855 0.0 0.0
0.0 0.1651604689857113 -0.14289190078781788 0.14188360972252334 0.0010082910652946956 0.023073601718739296 0.0 0.0
0.0 0.15521122806168816 -0.13455108067921612 0.13314544040912552 0.0014056402700906706 0.01644488119846179 0.0 0.0
0.0 0.1384084606149531 -0.1200283624595077 0.11850607700137414 0.0015222854581337384 0.01487313763492272 0.0 0.0
0.0 0.11938737692291548 -0.10357098752364803 0.10205738640951664 0.001513601114131459 0.013849210444863539 0.0 0.0
0.0 0.10041605170072175 -0.08716268450478869 0.08570393724925376 0.0014587472555349836 0.012348549585066464 0.0 0.0
0.0 0.08243600478072534 -0.07162260820080016 0.07024253367027343 0.0013800745305267764 0.010640672366721369 0.0 0.0
0.0 0.06614683114122348 -0.05730440233683913 0.056015370631056105 0.0012890317057829878 0.008982858938436717 0.0 0.0
0.0 0.05099470411826601 -0.044368198719788345 0.04317345866413666 0.0011947400556515948 0.007399679847685719 0.0 0.0
0.0 0.037769233490482126 -0.03289038842380051 0.031786827761437354 0.0011035606623631563 0.005798593009380104 0.0 0.0
0.0 0.026253987458868158 -0.022986305428611603 0.02197016630884657 0.0010161391197650118 0.00418715145309367 0.0 0.0
0.0 0.016750587501283047 -0.014815562080180675 0.013890079824859045 0.0009254822553216507 0.002699355637250339 0.0 0.0
0.0 0.009511773929340009 -0.008512480761478794 0.007707161038899123 0.000805319722579667 0.0014792363333905433 0.0 0.0
0.0 0.004390315641152433 -0.00408067768533923 0.0034759706464366977 0.0006047070389025376 0.0006137850380504421 0.0 0.0
0.0 0.001603625002769279 -0.0013476709886831753 0.0010504520075526528 0.0002972189811305217 0.00011296030717023822 0.0 0.0
0.0 0.0001823759642281235 -0.00018011875696662916 0.00012751843469248323 5.260032227414572e-05 1.9488637887945987e-06 0.0 0.0
0.0 -5.4060154988847756e-06 5.306283295523189e-06 -4.288928801796292e-06 -1.0173544937269215e-06 -4.475969269012141e-06 0.0 0.0
0.0 0.0 0.0 0.0 0.0 0.0 0.0 0.0
0.0 0.0 0.0 0.0 0.0 0.0 0.0 0.0
0.0 0.0 0.0 0.0 0.0 0.0 0.0 0.0
0.0 0.0 0.0 0.0 0.0 0.0 0.0 0.0
0.0 0.0 0.0 0.0 0.0 0.0 0.0 0.0
0.0 0.0 0.0 0.0 0.0 0.0 0.0 0.0
0.0 -4.664572934460936e-06 3.0838795152375027e-06 -3.2044226665474404e-06 1.2054315130995804e-07 5.0359668100496855e-06 0.0 0.0
0.0 0.00043119404202788766 -0.0003519182877441464 0.0002531861279537399 9.873215979040633e-05 5.6693140642238585e-05 0.0 0.0
0.0 0.002201093006019932 -0.001962210829484235 0.0015678095865085773 0.00039440124297565745 4.92564555804566e-05 0.0 0.0
0.0 0.005656893910725637 -0.005180133327250913 0.004504565945569596 0.0006755673816813191 -0.00021242941862295714 0.0 0.0
0.0 0.011368620692261121 -0.010187679532695889 0.009331266367915824 0.0008564131647800516 -0.0006619446970454398 0.0 0.0
0.0 0.01948711885590322 -0.017220972756667043 0.016249036684771852 0.0009719360718952027 -0.0012974679982930488 0.0 0.0
0.0 0.029993649771852156 -0.026334456955633453 0.025266203778591994 0.0010682531770414509 -0.002089495116400588 0.0 0.0
0.0 0.04282300461278282 -0.03742129866647885 0.03625901480188429 0.0011622838645945746 -0.0029549800490842517 0.0 0.0
0.0 0.05788633844100359 -0.05032316735276484 0.04906380137562839 0.0012593659771364745 -0.003832112577176885 0.0 0.0
0.0 0.07443967732549778 -0.06490758282563723 0.06354816247827133 0.0013594203473658545 -0.004747455359443916 0.0 0.0
0.0 0.09304946976453292 -0.08102024340234962 0.07956639189451858 0.0014538515078309344 -0.005726403166480511 0.0 0.0
0.0 0.11310849103598018 -0.0983926762969793 0.09686370497443166 0.0015289713225476694 -0.0067300698843455325 0.0 0.0
0.0 0.13401541443306475 -0.11647948420839685 0.11490724863967111 0.0015722355687255657 -0.007575499076378328 0.0 0.0
0.0 0.1546532897473213 -0.13431144385101068 0.13273272782451828 0.0015787160264924482 -0.007886509503265731 0.0 0.0
0.0 0.1730933116821079 -0.15025320216977706 0.14870505085052937 0.001548151319247831 -0.007780391254996144 0.0 0.0
0.0 0.18552964442686634 -0.16098385601454354 0.15966451771559417 0.0013193382989491415 -0.01097549398472619 0.0 0.0
0.0 0.18426885498508183 -0.15915374500539656 0.15881565941696996 0.00033808558842663057 -0.03055885152558836 0.0 0.0
0.0 0.17550147872135122 -0.1472796371783844 0.14112072722406532 0.006158909954319095 6.2450045135165055e-15 0.0 0.0
0.0 0.18426885498505166 -0.15915374500536886 0.15881565941694245 0.0003380855884263357 0.030558851525607507 0.0 0.0
0.0 0.18552964442680164 -0.16098385601448756 0.15966451771553744 0.0013193382989499813 0.010975493984744455 0.0 0.0
0.0 0.1730933116820223 -0.15025320216970342 0.1487050508504551 0.001548151319248306 0.007780391255003847 0.0 0.0
0.0 0.15465328974722323 -0.13431144385092575 0.13273272782443388 0.001578716026491859 0.007886509503265138 0.0 0.0
0.0 0.13401541443295892 -0.11647948420830498 0.11490724863957975 0.0015722355687251526 0.0075754990763779815 0.0 0.0
0.0 0.11310849103587278 -0.09839267629688624 0.09686370497433927 0.0015289713225470293 0.006730069884343012 0.0 0.0
0.0 0.09304946976442509 -0.08102024340225608 0.07956639189442576 0.0014538515078302246 0.005726403166475507 0.0 0.0
0.0 0.07443967732539317 -0.06490758282554653 0.06354816247818104 0.0013594203473654657 0.004747455359439755 0.0 0.0
0.0 0.057886338440902005 -0.050323167352676806 0.04906380137554074 0.001259365977136073 0.0038321125771698782 0.0 0.0
0.0 0.04282300461269939 -0.03742129866640634 0.036259014801812754 0.001162283864593586 0.0029549800490758036 0.0 0.0
0.0 0.029993649771783693 -0.02633445695557332 0.025266203778532607 0.0010682531770407244 0.0020894951163934537 0.0 0.0
0.0 0.01948711885585215 -0.017220972756621745 0.01624903668472721 0.0009719360718945188 0.0012974679982886209 0.0 0.0
0.0 0.011368620692225224 -0.010187679532663646 0.009331266367884509 0.0008564131647791292 0.0006619446970424172 0.0 0.0
0.0 0.00565689391070321 -0.005180133327230417 0.004504565945550226 0.0006755673816801907 0.0002124294186205108 0.0 0.0
0.0 0.002201093006008364 -0.00196221082947406 0.0015678095864999325 0.0003944012429741267 -4.925645558082315e-05 0.0 0.0
0.0 0.0004311940420244257 -0.0003519182877418099 0.00025318612795207024 9.873215978973959e-05 -5.6693140641756156e-05 0.0 0.0
0.0 -4.664572934508374e-06 3.083879514803626e-06 -3.204422666216661e-06 1.2054315141311246e-07 -5.035966809949168e-06 0.0 0.0
0.0 0.0 0.0 0.0 0.0 0.0 0.0 0.0
0.0 0.0 0.0 0.0 0.0 0.0 0.0 0.0
0.0 0.0 0.0 0.0 0.0 0.0 0.0 0.0
0.0 0.0 0.0 0.0 0.0 0.0 0.0 0.0
0.0 0.0 0.0 0.0 0.0 0.0 0.0 0.0
0.0 0.0 0.0 0.0 0.0 0.0 0.0 0.0
0.0 2.1079559989337418e-05 -1.9784322425147235e-05 1.2598127976219584e-05 7.186194448927719e-06 9.552295269411066e-06 0.0 0.0
0.0 0.0007412291042313769 -0.0005721651427158267 0.0004094834877883079 0.00016268165492751892 0.0001427299729419203 0.0 0.0
0.0 0.002820214288879606 -0.002518055116982367 0.001991671554065534 0.0005263835629168303 0.00032694206521335337 0.0 0.0
0.0 0.006651688097212275 -0.006113965030878929 0.005251590048930755 0.0008623749819481738 0.00042865830993014627 0.0 0.0
0.0 0.012832458344359933 -0.011573432095238558 0.010450061327285234 0.0011233707679533232 0.00047997508609660586 0.0 0.0
0.0 0.021506108771079772 -0.01919259452931831 0.017838873436898328 0.0013537210924199504 0.00047158814809177387 0.0 0.0
0.0 0.032851286130209455 -0.02907198785145499 0.027467791204570685 0.0016041966468842714 0.00036754094616507464 0.0 0.0
0.0 0.046768107979877106 -0.04113730970497479 0.03924091481704036 0.0018963948879344216 0.00020677334496383782 0.0 0.0
0.0 0.06274659869315456 -0.05523489899454492 0.053000317057643576 0.002234581936901324 -8.938092030033769e-06 0.0 0.0
0.0 0.08093672663881465 -0.07118255824991279 0.06857510203391468 0.0026074562159981163 -0.00031993996802551824 0.0 0.0
0.0 0.10104409381649665 -0.08877416962650363 0.08577809258236525 0.0029960770441384114 -0.0006950426067731021 0.0 0.0
0.0 0.12267228805294475 -0.10765691085556556 0.10428819283551727 0.0033687180200481478 -0.0011661904447170194 0.0 0.0
0.0 0.14506271643294835 -0.127126053118228 0.12344422860774652 0.0036818245104815925 -0.0016579352024813226 0.0 0.0
0.0 0.16681136820273085 -0.14598577628670553 0.14210287862054333 0.003882897666162053 -0.0019361517186943424 0.0 0.0
0.0 0.18595528454715987 -0.16256135663736163 0.15862133588823166 0.0039400207491297684 -0.001738028509004206 0.0 0.0
0.0 0.19980198021531898 -0.17473714464836673 0.17073891780270262 0.003998226845664224 -0.003221802813831309 0.0 0.0
0.0 0.20252027681424628 -0.17761527150595635 0.1735179899437306 0.004097281562225637 -0.02290159633774779 0.0 0.0
0.0 0.19837187240381846 -0.16902490934043093 0.15808252243708049 0.010942386903350148 -8.326672684688674e-16 0.0 0.0
0.0 0.20252027681420953 -0.17761527150592404 0.1735179899436985 0.004097281562225385 0.022901596337754595 0.0 0.0
0.0 0.1998019802152486 -0.17473714464830578 0.17073891780264217 0.003998226845663715 0.0032218028138382548 0.0 0.0
0.0 0.18595528454706478 -0.1625613566372789 0.1586213358881508 0.00394002074912828 0.001738028509005722 0.0 0.0
0.0 0.16681136820262688 -0.14598577628661413 0.14210287862045456 0.0038828976661592716 0.0019361517186913396 0.0 0.0
0.0 0.14506271643283322 -0.1271260531181278 0.12344422860764759 0.00368182451048004 0.0016579352024819732 0.0 0.0
0.0 0.12267228805282643 -0.1076569108554622 0.1042881928354155 0.0033687180200465752 0.001166190444715146 0.0 0.0
0.0 0.10104409381637812 -0.08877416962640013 0.08577809258226378 0.0029960770441361914 0.00069504260676982 0.0 0.0
0.0 0.08093672663870514 -0.07118255824981667 0.06857510203382144 0.0026074562159952917 0.0003199399680239006 0.0 0.0
0.0 0.06274659869304536 -0.05523489899445006 0.05300031705754983 0.0022345819369001467 8.938092027004942e-06 0.0 0.0
0.0 0.046768107979787615 -0.041137309704896124 0.03924091481696411 0.0018963948879320222 -0.0002067733449656918 0.0 0.0
0.0 0.032851286130135327 -0.029071987851390153 0.027467791204507732 0.001604196646882415 -0.0003675409461676442 0.0 0.0
0.0 0.021506108771025323 -0.01919259452927033 0.017838873436851678 0.0013537210924186613 -0.0004715881480928446 0.0 0.0
0.0 0.012832458344322346 -0.011573432095204677 0.01045006132725272 0.0011233707679519503 -0.00047997508609637753 0.0 0.0
0.0 0.006651688097185345 -0.006113965030854283 0.005251590048907566 0.0008623749819467092 -0.00042865830993005824 0.0 0.0
0.0 0.002820214288867212 -0.002518055116970619 0.0019916715540555735 0.0005263835629150479 -0.00032694206521224943 0.0 0.0
0.0 0.000741229104227025 -0.0005721651427125677 0.0004094834877860035 0.00016268165492656464 -0.00014272997294095067 0.0 0.0
0.0 2.1079559989160944e-05 -1.978432242518061e-05 1.2598127976258561e-05 7.186194448922014e-06 -9.55229526933424e-06 0.0 0.0
0.0 0.0 0.0 0.0 0.0 0.0 0.0 0.0
0.0 0.0 0.0 0.0 0.0 0.0 0.0 0.0
0.0 0.0 0.0 0.0 0.0 0.0 0.0 0.0
SCALARS Wm float 4
LOOKUP_TABLE default
12.971586972934386 2.027768655958449 5.454689779977655 5.489128536998279
6.538886590544434 3.1296859106865433 1.5334426268799455 1.8757580529779498
0.7365744153262894 0.679502631048062 0.009137963683412463 0.04793382059481504
0.5481752864345116 0.515087163671346 0.00910872882549982 0.02397939393766597
1.1292382545131976 0.7925211392778904 0.12093666677840086 0.2157804484569052
2.4794331397574183 1.155693979464603 0.49468212915690535 0.8290570311359092
5.178675902961139 1.666166742218581 1.5237196796484331 1.9887894810941265
9.597175702916282 2.3111694606380184 3.4488932733393955 3.837112968938863
16.168018602759112 3.1391241320893215 6.585785521099901 6.443108949569885
25.201710772308658 4.181753929860934 11.187442536278823 9.832514306168914
36.83382060079366 5.457207060069884 17.398467024841164 13.978146515882608
50.95511491850543 6.965405434161494 25.161089006090137 18.82862047825384
67.63867904848425 8.683604348375248 34.628901692885734 24.32617300722326
86.75895793423652 10.5868724801264 45.75901490947755 30.413070544632607
107.9883590727858 12.531528965360517 58.464076791156124 36.9927533162691
130.64063516755797 14.273210615117799 72.47418427078644 43.89324028165373
153.52098667038842 15.524583664602757 87.14144354101549 50.854959464770154
175.05535835874937 16.07462010869295 101.52352716905172 57.457211081004544
193.56872162852125 15.9867652274901 114.37857210335291 63.20338429767834
206.57758963525038 15.037418924962838 124.03004532467432 67.51012538561302
210.7693974493696 13.249165472962387 128.14809206846905 69.37213990793822
206.57758963523773 15.037418924985246 124.03004532464976 67.5101253856028
193.56872162845644 15.98676522748929 114.3785721033087 63.20338429765836
175.05535835866118 16.074620108694514 101.52352716899004 57.45721108097662
153.52098667029364 15.524583664610761 87.14144354094553 50.85495946473728
130.6406351674457 14.273210615105135 72.47418427071925 43.89324028162133
107.9883590726822 12.531528965356944 58.46407679108991 36.992753316235316
86.75895793413481 10.586872480122759 45.75901490941365 30.41307054459844
67.6386790483743 8.683604348353581 34.62890169282934 24.326173007191418
50.95511491842291 6.965405434161722 25.16108900603836 18.828620478222852
36.83382060072142 5.45720706006325 17.39846702480126 13.978146515856888
25.201710772246656 4.181753929848832 11.187442536249531 9.832514306148312
16.168018602718565 3.139124132083737 6.585785521080375 6.443108949554457
9.597175702888906 2.311169460632634 3.4488932733278834 3.8371129689283885
5.1786759029444225 1.666166742214874 1.5237196796421981 1.988789481087351
2.479433139749486 1.155693979462091 0.49468212915487725 0.8290570311325162
1.129238254509888 0.7925211392767312 0.12093666677755922 0.21578044845559746
0.548175286433402 0.5150871636702445 0.009108728825485876 0.023979393937671727
0.7365744153253265 0.6795026310472845 0.009137963683371192 0.04793382059467001
6.538886590539939 3.129685910688113 1.5334426268770067 1.8757580529748175
12.971586972904412 2.027768655942917 5.4546897799696925 5.489128536991821
15.50976590197924 6.751281094003299 4.241136730131972 4.517348077843963
2.646553258996763 0.5808803699173558 0.8725327400668365 1.1931401490125708
0.27429542161734227 0.31887806210711184 -0.014793152144592368 -0.029789488345177195
0.4256590488667388 0.4148294253006688 0.002050536337920887 0.008779087228148828
0.851051281481188 0.6480156796658594 0.06303289537479792 0.14000270644053125
1.9795029730494107 0.9547904494108386 0.38576345322275385 0.6389490704158184
4.248444006671923 1.3105099125319413 1.2423234591212662 1.6956106350187137
8.119771892517555 1.7502883173738621 2.9671240912615664 3.402359483882129
13.910332095451361 2.2662632401915985 5.8164356078302 5.827633247429568
21.81711336820453 2.856227342381956 9.980600833160482 8.980285192662084
31.92248289054264 3.5106098621914694 15.587416754886213 12.82445627346495
44.27441592425195 4.239928965703031 22.72928385086275 17.305203107686157
58.627656817188985 5.052544561199263 31.193672133274777 22.381440122714945
75.20247619599047 5.916310820624059 41.282384265793695 28.00378110957274
93.65923690144179 6.770317199555487 52.78869132656272 34.10022837532363
113.47682739035373 7.485809329298306 65.4766139210484 40.51440414000696
133.72979875030936 7.908436920878913 78.8467723180561 46.974589511374354
153.0915239666712 7.930579129429649 92.03084253695629 53.130102300285245
169.78712374057395 7.464387406597438 103.8228515774137 58.49988475656276
181.58966525895588 6.569481903492037 112.60854896270342 62.41163439276041
186.06527987225687 5.550309584053012 116.42753856436558 64.0874317238383
181.58966525892086 6.569481903486393 112.60854896268296 62.411634392751466
169.7871237405051 7.464387406582792 103.82285157737644 58.499884756545974
153.09152396660102 7.930579129441197 92.0308425369003 53.13010230025954
133.7297987502163 7.908436920876171 78.84677231799489 46.974589511345194
113.4768273902531 7.485809329286275 65.47661392098907 40.51440413997774
93.65923690135476 6.770317199561506 52.7886913265014 34.10022837529185
75.20247619589458 5.916310820614615 41.282384265737555 28.003781109542377
58.6276568171036 5.052544561196386 31.193672133222407 22.381440122684793
44.27441592417577 4.239928965701341 22.729283850816593 17.305203107657825
31.922482890477706 3.5106098621859343 15.587416754850446 12.824456273441326
21.817113368153503 2.856227342377443 9.980600833133524 8.98028519264252
13.910332095416024 2.2662632401876497 5.816435607812933 5.827633247415434
8.119771892493336 1.7502883173699442 2.967124091251105 3.4023594838722877
4.248444006657856 1.3105099125299862 1.2423234591155938 1.695610635012274
1.9795029730436324 0.954790449409753 0.3857634532207257 0.6389490704131551
0.8510512814790945 0.6480156796648628 0.06303289537438274 0.14000270643984947
0.42565904886612893 0.41482942529994143 0.002050536337933537 0.008779087228253891
0.274295421617324 0.31887806210690867 -0.014793152144518117 -0.02978948834506649
2.646553258989489 0.5808803699158912 0.8725327400640228 1.1931401490095765
15.509765901952289 6.751281093991786 4.241136730123681 4.517348077836804
11.722223958068769 5.373007845570685 2.9513562208517277 3.397859891646352
1.6465798282274047 0.23709646511809918 0.582357758626008 0.8271256044832996
0.1716026946702513 0.17135389036108084 3.463361776376627e-05 0.00021417069140669827
0.3156192348164935 0.3175086561497781 -0.0005688266148327574 -0.001320594718451864
0.6434382140363375 0.5552902873965369 0.022941657309293942 0.06520626933050692
1.5394072128825331 0.8552446045729211 0.24813396064123677 0.4360286476683759
3.4397344916193777 1.196364656077543 0.9106932087506016 1.3326766267912333
6.815740012751166 1.604763559875446 2.3676782773780003 2.8432981754977176
11.904509429120258 2.066596211727341 4.815624571529554 5.022288645863366
18.881759742216193 2.5782038903934428 8.445528734316992 7.858027117505756
27.754949349008765 3.1405773217530215 13.313572253550303 11.300799773705435
38.4721975448924 3.76564603717713 19.408061749423297 15.29848975829197
51.173747802892194 4.473796172337934 26.890217856144805 19.809733774409448
65.5539868540095 5.249864597720026 35.48717805178379 24.81694420450564
81.74367919247156 6.0295221546416835 45.461369518189684 30.252787519640144
99.21154286022497 6.725187970100277 56.48826672665206 35.99808816347265
117.19169694378772 7.206460627204275 68.1436422666704 41.84159404991304
134.4704720514268 7.319150423330207 79.72635993044086 47.42496169765573
149.36263563760627 6.939835555966134 90.13556915296184 52.28723092867829
159.91809931215178 6.260265406005943 97.85573938141172 55.80209452473408
163.7498583694419 5.000621543170353 101.35527911964611 57.39395770662544
159.91809931213382 6.2602654060121665 97.85573938139527 55.80209452472632
149.3626356375635 6.9398355559704 90.13556915292976 52.28723092866331
134.47047205135556 7.319150423328807 79.72635993039361 47.424961697633066
117.19169694371574 7.206460627210029 68.14364226661837 41.841594049887355
99.2115428601521 6.725187970106053 56.488266726599896 35.99808816344619
81.7436791923835 6.02952215463371 45.46136951813737 30.25278751961242
65.55398685393278 5.249864597719284 35.487178051735164 24.816944204478343
51.173747802813644 4.4737961723318405 26.890217856099294 19.809733774382515
38.47219754482962 3.7656460371801748 19.408061749382963 15.29848975826651
27.754949348951804 3.1405773217478634 13.313572253519633 11.300799773684309
18.88175974217038 2.578203890387654 8.445528734294184 7.858027117488539
11.904509429089227 2.0665962117236387 4.815624571514764 5.022288645850824
6.815740012731082 1.604763559874205 2.3676782773684577 2.843298175488422
3.4397344916070134 1.1963646560758754 0.9106932087458357 1.3326766267853016
1.5394072128771925 0.8552446045713281 0.24813396063970064 0.43602864766616345
0.6434382140345076 0.5552902873951711 0.0229416573091256 0.065206269330211
0.3156192348162906 0.3175086561494743 -0.0005688266148162853 -0.001320594718367474
0.17160269467024242 0.1713538903610718 3.4633617763274975e-05 0.00021417069140740642
1.6465798282218362 0.23709646511735205 0.5823577586237716 0.8271256044807117
11.722223958042727 5.37300784555977 2.9513562208438975 3.397859891639068
8.862092109316187 4.184761878557478 2.0918182428286984 2.585511987930011
1.1067407934733784 0.1111783545452901 0.3894035477791875 0.6061588911488999
0.12022943671473654 0.12022943671473654 0.0 0.0
0.23614233838042492 0.23704440421554301 -0.00011885929694801346 -0.0007832065381700435
0.4847934965551164 0.4631334455605795 0.004184134063385603 0.017475916931151268
1.145951530719662 0.7400258764445413 0.1327990625843175 0.2731265916908031
2.7201639821276657 1.0840202764097218 0.6465434155159646 0.9896002902019791
5.565075705677748 1.4550472844578572 1.8116612659729063 2.298367155246984
9.967125546190395 1.8667725263015427 3.8765534753077837 4.223799544581065
16.009510219918457 2.308685901716199 6.963246543774812 6.7375777744274465
23.650368654349386 2.785851010128409 11.085100437596182 9.779417206624798
32.916263620460875 3.322700070237589 16.30056473014298 13.292998820080308
43.69964220741411 3.933103811388857 22.517047761578187 17.249490634447078
56.235671664874474 4.612939323897686 29.993345166570965 21.629387174405824
70.15196313475325 5.331272787043571 38.41415347147348 26.406536876236192
85.23772058149947 6.010106163580549 47.744228620029844 31.48338579788908
101.02794999271333 6.537432180569946 57.81637663926625 36.67414117287714
116.32209882607691 6.752018462792902 67.87275770156396 41.69732266172004
129.61688997035742 6.530580264722806 76.96503811146843 46.12127159416616
139.1920423172545 5.98784141314949 83.8177510612834 49.38644984282167
142.67704876311686 4.481670301855566 87.23096161604398 50.96441684521725
139.1920423172301 5.987841413145857 83.81775106126906 49.38644984281513
129.6168899703141 6.530580264722605 76.96503811143941 46.12127159415218
116.32209882601963 6.752018462792956 67.87275770152539 41.69732266170131
101.02794999263942 6.537432180561057 57.81637663922326 36.674141172855094
85.23772058143479 6.0101061635884605 47.7442286199823 31.483385797864056
70.15196313468603 5.331272787043936 38.41415347143003 26.40653687621203
56.235671664804165 4.612939323894536 29.993345166528492 21.629387174381144
43.699642207347786 3.933103811382824 22.517047761540766 17.24949063442418
32.91626362039773 3.322700070229377 16.300564730109897 13.292998820058465
23.65036865430547 2.7858510101311325 11.08510043756898 9.77941720660536
16.00951021987986 2.30868590171013 6.963246543756567 6.737577774413155
9.967125546162274 1.8667725262981254 3.8765534752946604 4.2237995445694905
5.565075705660539 1.455047284457025 1.811661265964997 2.298367155238515
2.720163982117531 1.0840202764075613 0.6465434155123322 0.9896002901976375
1.1459515307155232 0.7400258764430774 0.13279906258327978 0.27312659168916636
0.48479349655417897 0.46313344555969677 0.004184134063346014 0.01747591693113593
0.2361423383804451 0.23704440421559617 -0.00011885929695149091 -0.0007832065381996104
0.12022943671463675 0.12022943671463675 0.0 0.0
1.1067407934691131 0.11117835454513099 0.38940354777730424 0.6061588911466785
8.862092109294824 4.184761878548317 2.0918182428227317 2.5855119879237756
6.604254095346644 3.2363301995793403 1.4340248669450468 1.9338990288222597
0.8102422696989621 0.1122008917305787 0.2773956507535937 0.42064572721478966
0.10946596101623522 0.10946596101623522 0.0 0.0
0.18910735647212137 0.18907185829607998 6.021177783402484e-06 2.9476998258009966e-05
0.36706016072059144 0.371844353368781 -0.0025038398637102816 -0.002280352784479213
0.8374044642815455 0.6361338766452779 0.05885414336060512 0.14241644427566175
2.063613634326493 0.9513588751678602 0.4281999562650695 0.6840548028935642
4.386949557182607 1.3030220271330648 1.3099373732904833 1.7739901567590588
8.097664584131735 1.6666233125993526 2.9943991757977497 3.4366420957346353
13.212226445888497 2.0460909257748496 5.542448302087486 5.623687218026164
19.687027927345206 2.4508010766208623 8.974016436504996 8.262210414219343
27.47664766772204 2.903390850927555 13.280460189054159 11.292796627740326
36.61891251914364 3.4289155670914893 18.498813681435337 14.691183270616818
46.99066822536242 4.025785202184156 24.50803735555064 18.4568456676276
58.80038021235548 4.6664186230709825 31.568002658010897 22.5659589312736
71.73489213916869 5.320991050405002 39.45577635725862 26.958124731505066
85.23212860146201 5.896560204627705 47.83104135132327 31.504527045510997
98.5940408798078 6.235310483590143 56.40499749780856 35.953732898409086
110.46327258271018 6.18253524202827 64.33544746048707 39.94528988019488
119.31298890121175 5.757487306363835 70.55093774941763 43.004563845430255
122.60085575620626 3.985118440430507 73.95707654283112 44.658660772944735
119.31298890120897 5.757487306381291 70.55093774940413 43.004563845423505
110.46327258267816 6.182535242033304 64.33544746046235 39.94528988018252
98.59404087975808 6.235310483589317 56.404997497776364 35.95373289839241
85.23212860141037 5.896560204629078 47.83104135128843 31.50452704549287
71.73489213910173 5.320991050398007 39.45577635721991 26.958124731483785
58.80038021229575 4.666418623069194 31.56800265797406 22.56595893125254
46.990668225305356 4.0257852021830285 24.508037355515732 18.45684566760659
36.61891251909328 3.428915567093734 18.498813681403288 14.691183270596254
27.476647667675355 2.90339085092435 13.280460189028416 11.292796627722582
19.687027927303614 2.4508010766178008 8.974016436482907 8.262210414202912
13.212226445855393 2.0460909257697213 5.542448302072105 5.623687218013568
8.09766458410844 1.6666233125983334 2.9943991757862785 3.4366420957238244
4.386949557168879 1.3030220271327235 1.3099373732841098 1.7739901567520444
2.0636136343188207 0.9513588751656793 0.4281999562626616 0.6840548028904803
0.8374044642786936 0.6361338766443673 0.05885414335990734 0.14241644427441869
0.3670601607198393 0.3718443533679312 -0.002503839863692569 -0.0022803527843993014
0.18910735647198684 0.18907185829597364 6.021177781597048e-06 2.9476998231582667e-05
0.10946596101602704 0.10946596101602704 0.0 0.0
0.8102422696957676 0.11220089173057593 0.27739565075211137 0.4206457272130819
6.604254095329513 3.236330199572046 1.434024866940415 1.933899028817049
4.830971104546052 2.4817887275029435 0.9573215371838153 1.3918608398592942
0.5743645182908638 0.14319907011975375 0.1530350476257479 0.2781304005453623
0.12350361188104123 0.12350361188104123 0.0 0.0
0.16730982707509767 0.16728497937303874 1.846588511067336e-06 2.3001113547849653e-05
0.2916172164457403 0.29939983051480995 -0.0018001536523596776 -0.005982460416709897
0.5986120178560023 0.5251129544259469 0.01504635006453442 0.05845271336552122
1.4629787159968888 0.803047869503109 0.22419416319144655 0.4357366833023324
3.340961524886586 1.1410798099169062 0.9201680653714748 1.279713649598206
6.290402339777399 1.4647308835280919 2.1598993407035154 2.665772115545794
10.527680719620925 1.7910510443809367 4.215905821348859 4.520723853891123
15.847105713817257 2.1306496038924734 6.9639142369252145 6.75254187299956
22.21002257570035 2.5110872759155525 10.398144959919279 9.300790339865525
29.626327241144626 2.956705126744642 14.526544024112921 12.14307809028706
38.1863220124383 3.4736308407485215 19.423095861358686 15.289595310331096
47.80682637597212 4.054736454543716 25.014587226916362 18.73750269451202
58.39644125100236 4.66052297326891 31.292132625239557 22.44378565249391
69.87692387607012 5.2593929151821275 38.30845878754539 26.309072173342617
81.32281456715874 5.740552421249827 45.396500717500274 30.185761428408647
91.7939772505841 5.877493267611949 52.13495960319441 33.78152437977772
100.09340194637694 5.570634152747923 57.84038663861929 36.682381155009736
103.31417354439508 3.5189411947407385 61.3462555873163 38.44897676233803
100.09340194634994 5.5706341527372105 57.84038663860855 36.682381155004094
91.79397725055402 5.877493267612101 52.134959603174636 33.78152437976733
81.32281456711168 5.740552421239936 45.396500717475796 30.185761428395914
69.8769238760233 5.259392915181159 38.30845878751573 26.30907217332638
58.39644125095915 4.660522973274824 31.292132625208463 22.443785652475913
47.806826375920025 4.054736454537054 25.01458722688791 18.737502694495042
38.18632201238828 3.4736308407419427 19.42309586133212 15.289595310314207
29.626327241100164 2.9567051267445073 14.526544024086395 12.143078090269265
22.210022575663626 2.5110872759153624 10.398144959898074 9.300790339850193
15.847105713784638 2.1306496038896348 6.9639142369085105 6.752541872986493
10.52768071959415 1.7910510443779872 4.21590582133614 4.520723853880018
6.29040233975839 1.4647308835271524 2.1598993406944973 2.6657721155367415
3.3409615248750186 1.141079809916095 0.9201680653664084 1.279713649592514
1.4629787159911039 0.803047869501171 0.2241941631898889 0.4357366833000439
0.598612017854229 0.5251129544252371 0.015046350064200346 0.05845271336479162
0.29161721644523536 0.2993998305140507 -0.0018001536523139 -0.005982460416501538
0.16730982707483344 0.1672849793727737 1.8465885110445713e-06 2.3001113548687243e-05
0.12350361188079685 0.12350361188079685 0.0 0.0
0.5743645182881911 0.14319907011953278 0.153035047624661 0.2781304005439975
4.830971104533612 2.4817887274982495 0.9573215371803383 1.3918608398550258
3.409946687434375 1.874538725251229 0.5840031048617014 0.9514048573214451
0.42927752125650237 0.1872581618645404 0.07951751541416935 0.16250184397779244
0.1483109298115612 0.14832335824006415 -6.591917487488861e-07 -1.1769236754219564e-05
0.16325353073336574 0.1632392447172487 9.176681420014073e-07 1.3368347975063384e-05
0.2464707423089071 0.24998878496900123 -0.0006983188253060848 -0.0028197238347881627
0.4354030422875553 0.43006306545121176 -0.002470720869494574 0.007810697705838112
1.0036707118331458 0.6661411082207167 0.10229398107401975 0.23523562253840896
2.3193801330757733 0.9519895590412638 0.517003957634329 0.850386616400181
4.700007551180327 1.2631819978711654 1.5117891913301487 1.9250363619790143
7.933425110782383 1.5384739174407622 2.9631306040070724 3.431820589334547
12.165691720833387 1.8243382156484391 5.086225735530044 5.255127769654904
17.16689194636148 2.141584878381262 7.705426907952955 7.319880160027262
22.954963398915904 2.5158809212114335 10.830197171826118 9.608885305878356
29.61459902105333 2.9603451750379444 14.516346110673812 12.137907735341575
37.1769237838676 3.472518219473115 18.781878519387323 14.922527045007172
45.72018781611571 4.037856674460488 23.74446299093188 17.93786815072334
54.72944380208147 4.632726959065511 28.966823117054652 21.129893725961328
64.36550086042577 5.2242971410438175 34.76044292194236 24.38076079743957
73.71645523403548 5.585602510330066 40.56822293941375 27.562629784291698
81.5073056395465 5.435543238081131 45.717730818899845 30.35403158256552
84.80803172729182 3.097143112311961 49.41263611428185 32.29825250069796
81.50730563954156 5.435543238085414 45.71773081889386 30.35403158256227
73.71645523401946 5.585602510337136 40.56822293939872 27.562629784283626
64.36550086040093 5.224297141047719 34.760442921923996 24.380760797429204
54.72944380204485 4.632726959065166 28.966823117031712 21.129893725947976
45.720187816071615 4.0378566744569815 23.744462990906534 17.93786815070808
37.17692378383437 3.472518219475803 18.781878519365442 14.922527044993132
29.61459902101942 2.9603451750363683 14.516346110654489 12.137907735328563
22.95496339887983 2.5158809212071036 10.830197171807576 9.60888530586516
17.1668919463298 2.1415848783777696 7.705426907936955 7.3198801600150825
12.165691720805695 1.8243382156446242 5.086225735517046 5.255127769644022
7.933425110762303 1.5384739174410451 2.9631306039964875 3.4318205893247726
4.700007551165729 1.2631819978692442 1.5117891913238415 1.9250363619726443
2.3193801330676034 0.9519895590407087 0.5170039576309634 0.8503866163959317
1.0036707118291701 0.6661411082191843 0.10229398107307557 0.23523562253691058
0.4354030422865368 0.43006306545058615 -0.002470720869592333 0.007810697705543318
0.24647074230850965 0.24998878496855825 -0.0006983188252943685 -0.0028197238347542806
0.16325353073303067 0.163239244716919 9.176681415783688e-07 1.336834797013782e-05
0.14831092981113686 0.14832335823962517 -6.591917477816558e-07 -1.1769236740542314e-05
0.42927752125473345 0.18725816186449493 0.07951751541344332 0.16250184397679504
3.409946687424764 1.874538725247194 0.5840031048593569 0.9514048573182142
2.37899545677599 1.430256494858365 0.3641752733115184 0.5845636886061077
0.31520563845040983 0.21332054553415986 0.023012184143395 0.07887290877285486
0.17433986094650977 0.17426964610731724 6.546554785989746e-06 6.366828440651162e-05
0.17061814335703884 0.1705844206499828 2.5311619479660954e-06 3.1191545108038155e-05
0.22167246313199857 0.22419965777795864 -0.0004447148436716111 -0.0020824798022884283
0.33733143059428927 0.34925886430200553 -0.004746098808547979 -0.007181334899168546
0.6551937166969743 0.5317669285710825 0.02767022343425015 0.09575656469164166
1.4977356313136667 0.7635714615846891 0.24748881318124225 0.48667535654773547
3.1184886438707795 1.0287404649799101 0.8398520127621166 1.2498961661287529
5.599460318243855 1.2848615867986821 1.9391361938550244 2.3754625375901486
8.666309703628068 1.5227019285705183 3.3695939845273912 3.774013790530161
12.348268322365282 1.786623668921053 5.204330120058929 5.357314533385297
16.605698025015503 2.098392885098415 7.41130481180922 7.096000328107864
21.478204823812902 2.4720000468317 9.994237653939065 9.011967123042147
27.102546342641965 2.9239991372551364 13.047805913244419 11.130741292142407
33.418009136272964 3.440757830850369 16.51956462083026 13.457686684592343
40.457931644352755 4.00388086995021 20.507849579997988 15.946201194404537
47.979142406009686 4.659496346788006 24.74620120397663 18.573444855245057
55.851216534840844 5.260660051957501 29.291279526327873 21.299276956555453
63.32339875269279 5.351877438672604 34.00526604141206 23.966255272608123
66.89195768267216 2.732960575496133 37.995317260047386 26.163679847128602
63.323398752681875 5.351877438666178 34.00526604140902 23.966255272606663
55.851216534826634 5.260660051959991 29.29127952631733 21.299276956549324
47.97914240597468 4.659496346772806 24.74620120396427 18.57344485523761
40.45793164432164 4.003880869946652 20.50784957998103 15.94620119439397
33.418009136243185 3.440757830851058 16.519564620811806 13.457686684580313
27.102546342610882 2.923999137250521 13.047805913228718 11.130741292131646
21.478204823785717 2.4720000468272265 9.994237653925866 9.011967123032626
16.605698024994105 2.0983928850988502 7.411304811796869 7.096000328098378
12.348268322345358 1.7866236689222859 5.204330120047402 5.357314533375667
8.666309703609512 1.5227019285699663 3.369593984517966 3.7740137905215776
5.599460318227136 1.284861586796501 1.93913619384768 2.3754625375829552
3.1184886438618324 1.028740464979155 0.8398520127583182 1.2498961661243582
1.497735631307722 0.76357146158348 0.2474888131793081 0.4866753565449338
0.6551937166950338 0.531766928570495 0.027670223433829595 0.095756564690709
0.33733143059354215 0.34925886430101644 -0.004746098808515407 -0.0071813348989590246
0.2216724631315096 0.22419965777749523 -0.0004447148436662039 -0.0020824798023193853
0.17061814335674522 0.17058442064966614 2.5311619488881797e-06 3.11915451302102e-05
0.1743398609461401 0.17426964610683549 6.546554794663174e-06 6.366828450984675e-05
0.3152056384490409 0.21332054553394497 0.02301218414297928 0.07887290877211633
2.378995456768642 1.430256494855327 0.3641752733096516 0.5845636886036641
1.5465289319709303 1.0592613948955585 0.16187946499714698 0.3253880720782246
0.24673573286974868 0.225762134245957 0.0006389323224512623 0.02033466630134038
0.19639306140190352 0.19648751052578448 -9.245642869406154e-06 -8.52034810115533e-05
0.18436200160325056 0.18448094025316253 -9.96683813057162e-06 -0.00010897181178146339
0.21064519369341297 0.2128581332466727 -0.0004075278869316372 -0.0018054116663280561
0.28473396225583925 0.29230586477247184 -0.002837686305652615 -0.004734216210979923
0.4408938710883589 0.42020931552462804 -0.00021835271721215715 0.020902908280942968
0.8724078325475522 0.584380768300471 0.08326943508568917 0.20475762916139262
1.8130941432879109 0.7828068896129716 0.3699153876015156 0.6603718660734227
3.3608846631922935 0.99347119507278 0.9750852111953247 1.3923282569241906
5.381574986154306 1.1971712498493818 1.8416612037652915 2.3427425325396336
7.831974034533551 1.4194941234445793 2.9813134944283517 3.431166416660618
10.643532387417423 1.6786742719341885 4.338325445961935 4.626532669521299
13.856538186902617 1.986544215538767 5.9297693868569175 5.940224584506934
17.591496629829454 2.3699615192762296 7.821264719417327 7.400270391135898
21.937793691293706 2.8416776224859985 10.06237662664657 9.03373944216114
26.86485578889025 3.377003760252096 12.64888492964348 10.83896709899467
32.28405731106336 3.9747136860850323 15.516515619595314 12.792828005383019
38.63301790164326 4.777518661354683 18.875559961249976 14.979939279038588
45.783746439089285 5.31967309090136 22.98132059488007 17.482752753307835
49.78299152714243 2.4779010291059222 27.201318830794033 20.103771667242498
45.78374643909927 5.319673090911873 22.981320594879705 17.482752753307683
38.63301790163172 4.777518661353509 18.875559961243656 14.979939279034543
32.28405731105788 3.974713686092793 15.516515619587274 12.792828005377793
26.864855788868333 3.3770037602483987 12.648884929632672 10.838967098987247
21.937793691270798 2.841677622484086 10.06237662663433 9.033739442152385
17.59149662981163 2.369961519274037 7.821264719408419 7.400270391129169
13.85653818688997 1.986544215539282 5.929769386849604 5.940224584501087
10.64353238740105 1.6786742719314351 4.338325445954639 4.626532669514973
7.831974034518782 1.419494123444939 2.9813134944204127 3.431166416653434
5.381574986139724 1.1971712498466964 1.8416612037594198 2.3427425325336086
3.360884663182647 0.993471195070837 0.9750852111916601 1.39232825692015
1.8130941432824352 0.7828068896122716 0.36991538759947906 0.6603718660706853
0.8724078325444048 0.5843807682991597 0.08326943508502316 0.204757629160222
0.4408938710870415 0.4202093155237534 -0.00021835271736833162 0.02090290828065651
0.28473396225522196 0.292305864771524 -0.002837686305609443 -0.0047342162106924265
0.21064519369294 0.21285813324593889 -0.0004075278869046697 -0.0018054116660943238
0.1843620016030022 0.1844809402530025 -9.966838138011615e-06 -0.00010897181186223653
0.19639306140174634 0.19648751052551514 -9.245642863321423e-06 -8.520348090550524e-05
0.24673573286858227 0.22576213424543612 0.0006389323222344991 0.02033466630091172
1.5465289319660274 1.0592613948933354 0.16187946499606187 0.32538807207663056
0.9867545616148394 0.7950985221055735 0.056321283859106855 0.1353347556501593
0.2052267774278276 0.21830495781183934 -0.005427959318289256 -0.0076502210657224965
0.2122115368410824 0.2120041758589778 2.4877261313843467e-05 0.00018248372079079296
0.20057043030513852 0.20052176740163546 4.805942402319438e-06 4.38569611007287e-05
0.2116518428089351 0.21335893894897986 -0.0003681132985764934 -0.0013389828414682539
0.2599360853249709 0.2652855172222939 -0.0018825318465275783 -0.003466900050795357
0.34245292685439194 0.33462905561253226 -0.0002533289106612159 0.0080772001525209
0.4836250705477355 0.4106542014933276 0.015290075839754226 0.05768079321465353
0.8212805306768634 0.5182571691475197 0.0889413037418782 0.2140820577874653
1.4925670666788446 0.6528323946812279 0.2952784610156814 0.5444562109819355
2.5290740968601417 0.7955736359579524 0.6921668785253539 1.041333582376834
3.781032679813673 0.9518618956385593 1.1875979849075946 1.64157279926752
5.275995146137009 1.143163692341894 1.8239805194220025 2.308850934373112
7.024506992004326 1.3800356812761518 2.5935811285849355 3.050890182143241
9.083731624240052 1.6823922919301395 3.5124012502853037 3.8889380820246084
11.583595352716836 2.0837669573622977 4.6370982845270365 4.862730110827498
14.643974147620003 2.5909477742040288 6.042845841694946 6.010180531721026
18.229662288157563 3.1247448453067337 7.7763472543261205 7.328570188524712
22.5141487205489 3.7907682489263963 9.857215083330571 8.866165388291927
28.8005599070233 5.0303816511343475 12.802435466497478 10.96774278939148
34.31886044045055 2.4707753844833036 17.656702710000186 14.191382345967046
28.800559907029303 5.030381651139319 12.802435466498103 10.96774278939187
22.514148720538458 3.790768248919548 9.857215083328434 8.866165388290478
18.229662288141157 3.1247448453001567 7.776347254320493 7.328570188520513
14.643974147603382 2.5909477741983933 6.042845841688746 6.010180531716244
11.583595352699291 2.083766957354855 4.637098284521554 4.862730110822883
9.083731624234002 1.6823922919317311 3.5124012502813073 3.8889380820209647
7.024506991994789 1.3800356812726169 2.593581128581801 3.0508901821403707
5.275995146130832 1.1431636923416673 1.8239805194190222 2.3088509343701404
3.781032679802133 0.9518618956347008 1.187597984903856 1.6415727992635767
2.529074096854925 0.7955736359587077 0.6921668785226988 1.0413335823735193
1.4925670666752786 0.6528323946802049 0.295278461014597 0.5444562109804767
0.821280530674767 0.5182571691471292 0.0889413037412399 0.21408205778639766
0.48362507054720444 0.4106542014932178 0.015290075839643664 0.057680793214343204
0.3424529268538616 0.3346290556118972 -0.00025332891067371193 0.00807720015263786
0.2599360853241881 0.265285517221517 -0.0018825318465304308 -0.0034669000507984793
0.21165184280875315 0.21335893894859922 -0.0003681132985478847 -0.001338982841298083
0.20057043030487373 0.2005217674011753 4.805942420829894e-06 4.38569612775077e-05
0.21221153684066443 0.21200417585839357 2.4877261331866194e-05 0.00018248372093900792
0.20522677742734274 0.21830495781143747 -0.005427959318296807 -0.0076502210657978745
0.9867545616119651 0.7950985221039953 0.05632128385863367 0.13533475564933603
0.6177951536987645 0.5804866614349342 0.0071632163133119806 0.030145275950518424
0.18716734948246902 0.19386900159953063 -0.0013052980909301656 -0.005396354026131515
0.22163896081078432 0.22214870395782738 -5.649716851146634e-05 -0.000453245978531566
0.21658506590422238 0.2163915697688088 2.08390762891905e-05 0.00017265705912438388
0.22240469206352653 0.22321312988932743 -0.000275030796961138 -0.000533407028839684
0.25699028125955414 0.2599346819445357 -0.001395252410476952 -0.0015491482745045569
0.3178623089965804 0.30487704019830997 0.0017428996584229572 0.01124236913984754
0.37208516008062875 0.30886147132546193 0.015157945992762831 0.04806574276240392
0.417917989807992 0.27017850618433514 0.046392308331128444 0.10134717529252847
0.5279555325897608 0.24206948223884778 0.09759807800980691 0.18828797234110636
0.7946756298575868 0.2789077800192217 0.20384031305903388 0.3119275367793313
1.205604522341855 0.3047312862485123 0.3564532409657445 0.5444199951275986
1.7675146489999933 0.3072907745418181 0.6007653254022179 0.8594585490559582
2.464781307771937 0.3237904399248153 0.9158068894451254 1.2251839784019973
3.3161233882324055 0.3725929061488468 1.3036708817620832 1.6398596003214765
4.325358065655455 0.4743166257158656 1.7520311884448951 2.0990102514946942
5.544281252488486 0.6526769558428624 2.293581321317308 2.5980229753283144
6.961346094106673 0.8960596332798662 2.931510482938968 3.1337759778878373
8.973617042688657 1.3112756375800056 3.8062428876765164 3.8560985174321387
14.203830840628953 3.016961493956399 5.555817584366724 5.631051762305832
23.757025838277585 2.6301739394136083 11.148313481311726 9.978538417552254
14.203830840626743 3.016961493951295 5.555817584368432 5.63105176230702
8.973617042688932 1.3112756375824866 3.806242887675356 3.8560985174310924
6.961346094100655 0.8960596332794565 2.93151048293588 3.1337759778853167
5.5442812524884575 0.6526769558492105 2.2935813213138805 2.598022975325364
4.325358065650033 0.47431662571550987 1.7520311884424178 2.099010251492106
3.3161233882296433 0.3725929061494586 1.3036708817603089 1.6398596003198744
2.4647813077654313 0.3237904399221784 0.9158068894433682 1.2251839783998868
1.7675146489950135 0.30729077454163084 0.6007653253999287 0.8594585490534543
1.205604522339285 0.3047312862494429 0.35645324096413566 0.5444199951257068
0.7946756298531561 0.2789077800167964 0.20384031305796185 0.31192753677839735
0.5279555325901395 0.24206948223916175 0.09759807800986606 0.18828797234111225
0.4179179898077724 0.2701785061847884 0.04639230833086863 0.10134717529211498
0.37208516008019027 0.30886147132556974 0.015157945992585254 0.04806574276203529
0.3178623089960253 0.304877040197812 0.0017428996583788887 0.011242369139834384
0.2569902812588542 0.25993468194379604 -0.001395252410474092 -0.0015491482744678163
0.2224046920634311 0.22321312988904551 -0.00027503079693829303 -0.0005334070286760864
0.2165850659040288 0.216391569768436 2.0839076309987763e-05 0.00017265705928276066
0.2216389608103885 0.22214870395752617 -5.649716852107804e-05 -0.0004532459786166229
0.1871673494822739 0.19386900159914502 -0.0013052980908930516 -0.005396354025978156
0.6177951536973311 0.5804866614338231 0.007163216313181969 0.030145275950326324
0.3990351821478596 0.3999464555406867 -0.00021197735072160228 -0.0006992960421054028
0.17641278655928871 0.1764226039845018 1.3812328604237316e-05 -2.362975381737246e-05
0.2250186346296657 0.22484048049716135 4.803136474833924e-06 0.00017335099602962825
0.23026703682013325 0.2299376735720296 2.8253819701753037e-05 0.000301109428401772
0.23916089318038028 0.2389948232428725 -0.00015174143644243565 0.0003178113739502478
0.27683216661314897 0.2774439437942449 -0.0011294110037333054 0.0005176338226374334
0.35325102167190237 0.3422634942001259 0.0012283590584963033 0.009759168413280356
0.4891271937951158 0.4124968804512176 0.016712010820226834 0.05991830252367132
0.8229464452391548 0.5181728846992032 0.08961242158237526 0.2151611389575763
1.4915349081764144 0.6524165444668182 0.29495667801100944 0.5441616856985864
2.5322620223190495 0.7973316172521165 0.6932342852660136 1.0416961198009198
3.7992316957800485 0.9549012502338027 1.1962995652707105 1.6480308802755355
5.315438122631067 1.1486984651961494 1.8408772727131817 2.3258623847217343
7.065889169211344 1.381488113548328 2.615083300226132 3.0693177554368827
8.99388756286241 1.6537842596972179 3.482072985177574 3.8580303179876188
10.99908888626074 1.9677252824043876 4.391626534532761 4.639737069323598
12.824713780709116 2.305354883935274 5.208815208636706 5.310543688137136
14.283668208892603 2.7020023261477992 5.84128711140772 5.740378771337086
14.797188985126056 2.980634430623253 6.0133749961053535 5.803179558397454
11.929331023175044 1.9803682625039762 5.179544607386906 4.769418153284153
24.060678020650123 4.199615881752867 10.283462516085649 9.5775996228116
11.929331023181323 1.9803682625041 5.179544607390333 4.7694181532868924
14.797188985121272 2.9806344306204275 6.013374996104176 5.803179558396672
14.283668208883254 2.702002326146707 5.841287111403062 5.740378771333478
12.824713780683723 2.3053548839231786 5.208815208629364 5.3105436881311885
10.999088886252643 1.9677252824075848 4.391626534526685 4.639737069318372
8.993887562846144 1.65378425969077 3.4820729851724637 3.858030317982913
7.065889169206753 1.3814881135540702 2.6150833002207827 3.069317755431896
5.31543812261814 1.1486984651944945 1.840877272707546 2.3258623847161006
3.7992316957686336 0.9549012502325785 1.196299565265817 1.6480308802702364
2.5322620223089727 0.7973316172518017 0.6932342852615441 1.0416961197956254
1.4915349081703224 0.6524165444647894 0.29495667800929415 0.5441616856962395
0.822946445236713 0.5181728846987691 0.08961242158163449 0.21516113895630987
0.4891271937939963 0.4124968804505562 0.0167120108200728 0.059918302523367384
0.3532510216708884 0.34226349419925306 0.0012283590584226027 0.00975916841321262
0.2768321666121056 0.27744394379306164 -0.0011294110037364407 0.000517633822780372
0.239160893180148 0.23899482324241247 -0.00015174143641360414 0.000317811374149278
0.2302670368198985 0.22993767357159556 2.825381972178664e-05 0.00030110942858135447
0.22501863462934688 0.22484048049672822 4.803136480892381e-06 0.0001733509961377628
0.17641278655917517 0.17642260398440057 1.3812328599250189e-05 -2.362975382457136e-05
0.39903518214712946 0.3999464555396591 -0.00021197735068846294 -0.0006992960418410789
0.258256320290869 0.25823558116074674 1.3476233019465938e-06 1.9391506820260498e-05
0.16267177363843274 0.16271528102961522 -2.2664958431960243e-06 -4.1240895339294354e-05
0.22195328432040212 0.2223465325244938 -5.1297360444158557e-05 -0.0003419508436475642
0.23993906685369293 0.2392275037526373 6.0659415430696025e-05 0.0006509036856249434
0.2602523083272081 0.26247984145726055 -0.0005501736473931188 -0.0016773594826593116
0.31765333068137175 0.32109762840682954 -0.0014529894823539086 -0.001991308243104172
0.4578999152890528 0.421646131159431 0.003302470662375662 0.032951313467246
0.8806270751157745 0.5852524100626824 0.08625799538032877 0.20911666967276316
1.8132341132698349 0.7825509248454625 0.37004373154483805 0.6606394568795332
3.359291466988196 0.9933893501385627 0.9742361481050482 1.3916659687445847
5.385171683027703 1.19789488357037 1.8429831591818084 2.3442936402755232
7.848654250534859 1.421837888232315 2.988763675422514 3.4380526868800283
10.677629704837353 1.681519245106354 4.355293621128961 4.640816838602041
13.881094336774908 1.9809792528502044 5.946930442186941 5.953184641737758
17.47174592625001 2.327584328014945 7.778688044780655 7.3654735534544065
21.310396121816304 2.711519234770969 9.776514868657305 8.822362018388027
25.08085169098682 3.134901880804946 11.74073542050133 10.20521438968054
28.29918519258947 3.622397755862535 13.336401370620914 11.340386066106008
29.877227180201622 3.8318552324230533 14.170131310562994 11.875240637215569
27.71368022375155 3.744863444788047 13.032572583552954 10.936244195410548
34.09591542095778 8.214661453274653 14.021742220329884 11.859511747353228
27.713680223752142 3.744863444782486 13.032572583556684 10.936244195412975
29.87722718020111 3.831855232424893 14.170131310561564 11.875240637214635
28.29918519256664 3.622397755855448 13.336401370611467 11.340386066099722
25.080851690970466 3.134901880811087 11.740735420488063 10.205214389671312
21.310396121785566 2.711519234761676 9.776514868644853 8.822362018379035
17.471745926230927 2.3275843280150688 7.77868804476975 7.36547355344611
13.88109433675281 1.9809792528455854 5.946930442177278 5.953184641729945
10.67762970481662 1.681519245104318 4.355293621118865 4.64081683859344
7.848654250516176 1.4218378882306957 2.988763675413592 3.4380526868718864
5.385171683009899 1.1978948835697587 1.842983159173269 2.3442936402668697
3.359291466975291 0.9933893501365771 0.9742361480998574 1.3916659687388577
1.813234113264119 0.7825509248452502 0.3700437315425068 0.6606394568763612
0.8806270751120512 0.5852524100614062 0.08625799537943388 0.20911666967121093
0.4578999152877285 0.42164613115857347 0.0033024706622232078 0.032951313466932045
0.3176533306805218 0.32109762840570805 -0.0014529894823132098 -0.001991308242873081
0.26025230832697593 0.26247984145678427 -0.0005501736473494919 -0.0016773594824589675
0.23993906685358524 0.239227503752352 6.0659415445694295e-05 0.0006509036857874835
0.22195328431996655 0.22234653252400283 -5.129736044116323e-05 -0.00034195084359508007
0.16267177363823188 0.16271528102944388 -2.2664958448168472e-06 -4.1240895367208434e-05
0.2582563202903084 0.25823558116019923 1.3476233008971399e-06 1.9391506808273514e-05
0.1598651681454897 0.1598651681454897 0.0 0.0
0.14378026851217593 0.1437845727439265 -1.4328105404036436e-07 -4.160950696500454e-06
0.2120366670047164 0.21227781855727937 -2.9765688034398427e-05 -0.00021138586452858066
0.24582265790564542 0.24666073256096943 -0.0001532349030848256 -0.0006848397522393002
0.2850040921027631 0.28620083081195474 -0.00044943822141469054 -0.0007473004877768532
0.3768459761914795 0.3701050030124419 -0.0015937247742206528 0.008334697953258419
0.681438352380411 0.5398146938862283 0.03578908314143897 0.10583457535274327
1.503779826984721 0.7641059279014984 0.25035284372910316 0.48932105535412007
3.116247936622324 1.0287278048347284 0.838769178535616 1.2487509532519772
5.599105383384894 1.285180468518622 1.9390516507093654 2.374873264156907
8.670441034553578 1.5231995786267727 3.370236441956947 3.777005013969861
12.360806322418977 1.7876405514778477 5.210724763882641 5.362441007058497
16.62046212569105 2.098391292489007 7.419747980743949 7.102322852458084
21.46436368284919 2.461543955570299 9.992467844898519 9.010351882380373
26.949658140771767 2.875962980878931 12.985967101125617 11.087728058767212
32.8659099790572 3.3240446678072413 16.25724624258835 13.284619068661609
38.97564685665128 3.7981503118948856 19.72534187099226 15.45215467376413
44.17017933617464 4.157690081312779 22.691572658970145 17.320916595891717
46.801667542298205 4.232131640557379 24.285818126605648 18.283717775135184
43.567378249078786 3.7362275057425642 22.59879220898501 17.232358534351185
48.867434050710784 11.174131914410694 21.24533625077207 16.44796588552804
43.56737824907914 3.7362275057409953 22.59879220898623 17.23235853435189
46.80166754228884 4.232131640553725 24.285818126602067 18.283717775133056
44.17017933615249 4.157690081313743 22.691572658955778 17.320916595882974
38.97564685661895 3.798150311892263 19.725341870974 15.452154673752672
32.86590997902715 3.324044667808607 16.257246242569355 13.284619068649185
26.949658140734243 2.8759629808717335 12.985967101107608 11.087728058754902
21.4643636828185 2.46154395556795 9.99246784488204 9.010351882368516
16.62046212565962 2.098391292485924 7.419747980727884 7.102322852445818
12.360806322387038 1.7876405514719764 5.210724763868293 5.362441007046762
8.670441034531505 1.5231995786277432 3.3702364419447925 3.7770050139589735
5.599105383366624 1.2851804685179022 1.939051650700513 2.374873264148209
3.1162479366104465 1.0287278048319162 0.838769178531383 1.2487509532471475
1.5037798269781602 0.7641059279001979 0.25035284372696437 0.4893210553509976
0.6814383523775362 0.5398146938850018 0.03578908314089068 0.10583457535164353
0.3768459761908385 0.3701050030116343 -0.0015937247742094352 0.008334697953413609
0.2850040921021898 0.28620083081115516 -0.00044943822138888333 -0.0007473004875765317
0.24582265790544824 0.24666073256056578 -0.00015323490305930957 -0.0006848397520582871
0.21203666700424945 0.2122778185568523 -2.97656880400524e-05 -0.00021138586456283557
0.14378026851204948 0.14378457274379003 -1.432810533475878e-07 -4.1609506871892085e-06
0.1598651681451382 0.1598651681451382 0.0 0.0
0.09363543491847853 0.09363543491847853 0.0 0.0
0.12045961954792092 0.12045539347419351 2.3276924337965782e-07 3.99330448403657e-06
0.19627813574625186 0.19638068347091814 -1.242706537877993e-05 -9.01206592875134e-05
0.24827715858462307 0.24855977008372582 -8.411414499805287e-05 -0.00019849735410462966
0.31235840373176804 0.31701142966635665 -0.0012913344860892063 -0.003361691448499296
0.4793555658352182 0.4500397124205424 0.004787883153881261 0.024527970260794677
1.0207051528605384 0.6630978365675405 0.10886071900237825 0.24874659729061954
2.3205536993965485 0.9524446076060925 0.5177757502439067 0.8503333415465499
4.697018890243332 1.2637242728977571 1.5100076674790919 1.9232869498664822
7.934573912481553 1.539012404785009 2.9632546712617045 3.432306836434841
12.171792853053807 1.8243036316671808 5.089843487082285 5.2576457343043455
17.16962020112775 2.139736715146792 7.708077356309909 7.321806129671048
22.936084440118957 2.509804082268099 10.822856879786752 9.603423478064121
29.545013874673927 2.945272280469774 14.483935160690889 12.115806433513253
37.0133503126698 3.4389853203269958 18.702496326374593 14.871868665968213
45.33943521078042 3.966361611480087 23.551755250559534 17.82131834874082
53.591973425897805 4.414926752240057 28.386383782727407 20.790662890930367
60.84160255290242 4.612476036252611 32.90102307076527 23.328103445884523
64.29312862039573 4.323121265982032 35.324849657914505 24.645157696499222
60.135970581488884 3.8189028188937653 32.98583542343263 23.331232339162494
65.36229992392268 14.05732200891674 29.750567465570832 21.55441044943509
60.135970581494796 3.818902818900723 32.985835423432 23.331232339162085
64.29312862036966 4.323121265971445 35.32484965790452 24.6451576964937
60.84160255287557 4.612476036254662 32.901023070746774 23.328103445874113
53.59197342584681 4.41492675223097 28.38638378270099 20.790662890914852
45.33943521073178 3.966361611472249 23.551755250534136 17.82131834872539
37.013350312629406 3.4389853203275678 18.70249632634961 14.87186866595222
29.54501387463486 2.9452722804685165 14.483935160668274 12.115806433498069
22.936084440078247 2.509804082266974 10.822856879763602 9.603423478047663
17.169620201093245 2.1397367151464683 7.708077356290589 7.3218061296561885
12.171792853021046 1.8243036316636612 5.089843487066376 5.257645734291008
7.934573912458709 1.539012404785189 2.963254671249759 3.432306836423762
4.6970188902268255 1.263724272895351 1.510007667472082 1.9232869498593927
2.320553699387072 0.9524446076048446 0.5177757502402589 0.8503333415419686
1.0207051528559201 0.6630978365656801 0.10886071900131772 0.24874659728892162
0.47935556583362254 0.4500397124194403 0.004787883153742746 0.024527970260439576
0.31235840373121215 0.3170114296654253 -0.00129133448602645 -0.003361691448186653
0.24827715858410265 0.2485597700830737 -8.411414498692644e-05 -0.00019849735398424953
0.19627813574592515 0.19638068347062684 -1.242706538268111e-05 -9.012065931895356e-05
0.12045961954791222 0.12045539347418484 2.3276924336996675e-07 3.9933044839934034e-06
0.09363543491820424 0.09363543491820424 0.0 0.0
0.05159287407267216 0.05159287407267216 0.0 0.0
0.09541841812184099 0.09541841812184099 0.0 0.0
0.17619522675653657 0.17618941478595548 1.2202416843032078e-07 5.689946412638287e-06
0.24811729881268804 0.2490483095648945 -0.00015691246815004566 -0.0007740982840564399
0.34636445675441324 0.34773770680154625 -0.0015464080473705957 0.0001731580002373883
0.6351365839565835 0.538348011089957 0.024390880194190535 0.0723976926724357
1.4757636822429778 0.8030408793850757 0.230553883778146 0.4421689190797563
3.3389026270310356 1.1421775675432009 0.9188726122495583 1.2778524472382757
6.288780237851362 1.4656609000693828 2.1587503282232006 2.664369009558778
10.531075698445726 1.7915765315276142 4.217384064971538 4.52211510194657
15.851832894226181 2.129658322364662 6.967128769874038 6.755045801987491
22.19800486232883 2.5048332449196553 10.394818916771818 9.298352700637349
29.563872150614035 2.9412413877601753 14.498518675043895 12.124112087809973
38.05343198571979 3.4549968711189676 19.353241258803113 15.245193855797712
47.64197396166755 4.049911571977889 24.914620766522177 18.677441623167503
58.1828484026545 4.637511206904798 31.170632628526164 22.374704567223528
69.06505447706414 5.038058419834182 37.92729034646206 26.099705710767903
78.01971871970586 4.968673153673226 43.74800463568802 29.303040930344594
81.9317490545396 4.320058799927002 46.68440170523814 30.927288549374428
77.28381105922195 4.018733560005157 43.903134566778526 29.361942932438247
83.35181675794458 16.964118140703533 39.450528175823635 26.937170441417425
77.28381105921649 4.018733560003691 43.903134566775954 29.361942932436854
81.93174905451995 4.320058799931808 46.6844017052221 30.927288549366022
78.01971871966614 4.968673153670987 43.74800463566369 29.303040930331477
69.06505447702222 5.038058419843389 37.92729034642908 26.09970571074975
58.182848402601806 4.637511206903235 31.170632628493706 22.374704567204876
47.6419739616134 4.0499115719745 24.9146207664905 18.67744162314837
38.05343198566725 3.454996871113287 19.353241258774425 15.245193855779542
29.56387215056637 2.9412413877607393 14.498518675015077 12.124112087790573
22.198004862279763 2.5048332449140895 10.394818916746509 9.298352700619155
15.851832894187327 2.1296583223631083 6.967128769853093 6.755045801971129
10.531075698416657 1.7915765315266046 4.217384064956477 4.522115101933577
6.2887802378313795 1.465660900067543 2.15875032821421 2.664369009549625
3.338902627017839 1.1421775675412527 0.9188726122442279 1.2778524472323578
1.4757636822362155 0.8030408793829664 0.23055388377625197 0.44216891907699757
0.6351365839539778 0.5383480110887905 0.024390880193710964 0.07239769267147611
0.346364456753697 0.3477377068005774 -0.0015464080473314135 0.00017315800045121282
0.248117298812245 0.24904830956440407 -0.00015691246814472342 -0.0007740982840144273
0.17619522675638477 0.1761894147858247 1.2202416644465892e-07 5.689946393615341e-06
0.09541841812181137 0.09541841812181137 0.0 0.0
0.051592874072412656 0.051592874072412656 0.0 0.0
0.026657825314567722 0.026657825314567722 0.0 0.0
0.07149295441143949 0.07149295441143949 0.0 0.0
0.15418080879194979 0.15417562218474967 3.2864464628742965e-07 4.857962553844154e-06
0.24756843810285606 0.24828136272682788 -0.0001298785577882068 -0.0005830460661835791
0.39925430895775643 0.3978022486578114 -0.0007793286835180663 0.0022313889834632353
0.8461129343108029 0.6223721772784088 0.06204581313738967 0.16169494389500416
2.0685475584542083 0.9515788783445214 0.4315492430544161 0.6854194370552708
4.384578885480752 1.3043664025594406 1.3079783811097285 1.7722341018115824
8.098503970858868 1.66765574504349 2.994535222048933 3.436313003766446
13.217404003977183 2.046406241557084 5.5451574393661645 5.625840323053938
19.688086443476184 2.4482023525521153 8.976133953645759 8.263750137278304
27.446632844583853 2.892008703017802 13.269420447298145 11.285203694267913
36.51344226002093 3.4039320703181817 18.449745714001146 14.659764475701616
46.79614089178611 4.0019948604310684 24.40163897470923 18.392507056645805
58.60269281299628 4.680444288587474 31.433425631053627 22.488822893355177
71.5968814007629 5.3441782585777196 39.35115674823562 26.901546393949534
84.60598393833718 5.66874670229731 47.569565684567834 31.367671551472032
95.35118800275933 5.275230769640359 54.89448948843682 35.18146774468218
100.13974513591933 4.323722929632346 58.699773598376424 37.1162486079106
95.20460316465588 4.261045556232266 55.47764584270423 35.46591176571936
102.44372421044224 19.865101778074322 49.94662392155553 32.631998510812416
95.20460316464171 4.261045556227103 55.47764584269819 35.465911765716356
100.13974513589093 4.323722929634713 58.69977359835609 37.11624860790011
95.35118800270506 5.275230769635805 54.894489488403835 35.1814677446654
84.60598393826957 5.668746702292147 47.56956568452694 31.367671551450485
71.59688140070362 5.344178258577521 39.351156748197496 26.901546393928598
58.60269281293036 4.680444288584092 31.433425631013847 22.488822893332436
46.79614089172327 4.001994860426614 24.40163897467283 18.39250705662382
36.5134422599593 3.403932070313746 18.449745713966298 14.659764475679248
27.4466328445315 2.8920087030188735 13.269420447266466 11.285203694246148
19.688086443432233 2.448202352550432 8.97613395362154 8.26375013726025
13.217404003941073 2.046406241553972 5.545157439348015 5.625840323039087
8.09850397083413 1.667655745042046 2.9945352220369834 3.4363130037550977
4.38457888546489 1.3043664025582324 1.3079783811026788 1.7722341018039796
2.068547558445724 0.95157887834321 0.431549243051258 0.685419437051254
0.8461129343074897 0.6223721772768791 0.06204581313673058 0.16169494389388014
0.3992543089568851 0.39780224865681707 -0.000779328683502627 0.002231388983570472
0.24756843810255644 0.24828136272652154 -0.00012987855778978614 -0.000583046066175204
0.1541808087917754 0.15417562218457448 3.286446463313423e-07 4.857962554588966e-06
0.07149295441131684 0.07149295441131684 0.0 0.0
0.026657825314528618 0.026657825314528618 0.0 0.0
0.013064083534296762 0.013064083534296762 0.0 0.0
0.05092870701142268 0.05092870701142268 0.0 0.0
0.13297666231115687 0.13297372318737607 1.4049774413010274e-07 2.79862603667179e-06
0.2504057429254233 0.25150159180072285 -0.0001925854077090577 -0.0009032634675905421
0.4781763624674331 0.4549706277552842 0.004512432145187386 0.018693302566961698
1.1422133302822914 0.7357077841549575 0.13379710770414566 0.2727084384231889
2.718836631385576 1.0839440504132287 0.6460330359138294 0.9888595450585177
5.565747671040054 1.4560503017275677 1.81175546356378 2.2979419057487043
9.971297846337798 1.867751295862316 3.878375160911501 4.225171389563982
16.01512746511961 2.3083746742648303 6.966644405468879 6.740108385385899
23.64490307923759 2.781043941631097 11.084748512900015 9.779110624706483
32.86751832720045 3.306685969428125 16.280809090121195 13.28002326765115
43.56078384154381 3.9017789303583736 22.450423720706365 17.208581190479077
55.98674806492737 4.58019228640233 29.856443177769496 21.55011260075554
69.86096534978378 5.3332292733871824 38.22527037224972 26.30246570414685
84.98524141058861 6.037545507025329 47.5611664061388 31.386529497424462
100.31421430087283 6.306975731092635 57.49585828623121 36.511380283548974
112.91897595189987 5.624579751937965 66.34804311986316 40.9463530800988
118.8456399509141 4.360180531704321 71.16139278223552 43.324066636974244
114.17827986947543 4.48573068508696 67.96539049563371 41.72715868875474
123.16782451248439 22.712380172576886 61.79010441259665 38.66533992731085
114.17827986944576 4.4857306850738565 67.96539049562267 41.727158688749284
118.84563995087107 4.360180531701024 71.16139278220874 43.3240666369613
112.91897595184815 5.624579751945298 66.34804311982346 40.94635308007932
100.3142143008147 6.3069757311090955 57.49585828618179 36.5113802835238
84.9852414105066 6.037545507013052 47.56116640609308 31.386529497400428
69.8609653497076 5.333229273385531 38.225270372201685 26.302465704120408
55.98674806485504 4.580192286400815 29.856443177724685 21.550112600729538
43.56078384147593 3.9017789303576365 22.45042372066475 17.20858119045353
32.86751832713681 3.306685969424965 16.280809090084787 13.280023267627053
23.6449030791809 2.7810439416243034 11.08474851287087 9.77911062468573
16.01512746507809 2.3083746742623634 6.966644405446927 6.740108385368794
9.971297846307731 1.8677512958597797 3.8783751608968924 4.225171389551058
5.565747671020792 1.4560503017261082 1.811755463555255 2.2979419057394286
2.7188366313748302 1.0839440504118403 0.6460330359095949 0.9888595450533952
1.1422133302777617 0.735707784152935 0.13379710770315098 0.2727084384216753
0.47817636246619977 0.4549706277544128 0.004512432145062923 0.018693302566723802
0.2504057429249955 0.2515015918000949 -0.00019258540769838888 -0.0009032634674008371
0.1329766623108998 0.13297372318712267 1.4049774391209618e-07 2.7986260332292525e-06
0.05092870701134735 0.05092870701134735 0.0 0.0
0.013064083534268234 0.013064083534268234 0.0 0.0
0.006322242419594496 0.006322242419594496 0.0 0.0
0.03510397188232472 0.03510397188232472 0.0 0.0
0.11563858376265121 0.11563858376265121 0.0 0.0
0.262846357287461 0.26512939386340995 -0.0004241230013471313 -0.0018589135746016174
0.5927054648720448 0.5211291571387204 0.016969747853929736 0.054606559879394494
1.5173829447804943 0.8497372657025567 0.2412334226102557 0.4264122564676817
3.437193901597211 1.1964281730613187 0.9086830701471764 1.3320826583887142
6.823136005814364 1.6054409390916469 2.3725673165758843 2.8451277501468333
11.911558667771192 2.067132502373161 4.819136308586908 5.025289856811123
18.886247139203824 2.576873799724331 8.448957474321787 7.860415865157709
27.740813638159004 3.1332175360080234 13.309592589064675 11.298003513086293
38.40634346683795 3.7463403293423965 19.379561176071263 15.28044196142429
51.01237166055617 4.439678881291029 26.81028499038129 19.76240778888383
65.26170231747442 5.20645750844354 35.327640327381395 24.72760448164948
81.30473387252493 5.98479188153448 45.20425971060857 30.11568228038185
98.57896470488794 6.65696770829067 56.11490812917673 35.807088867420525
115.93547767466029 6.927988940187449 67.49211686712299 41.51537186734983
130.58212432134835 6.153488739849571 77.87432890520788 46.554306676290906
138.09060021204715 4.417427458862284 84.17563603856718 49.49753671461771
134.44057133618645 4.625735864680217 81.5670925005652 48.247742970941
145.71823443474995 25.383215463206078 75.1113787195976 45.223640251946264
134.44057133616377 4.625735864680254 81.5670925005496 48.247742970933906
138.09060021199477 4.417427458862327 84.17563603853165 49.49753671460084
130.58212432127422 6.153488739843533 77.8743289051619 46.55430667626882
115.93547767458467 6.927988940194287 67.49211686706775 41.51537186732267
98.57896470480004 6.656967708286341 56.114908129121375 35.807088867392295
81.30473387244274 5.984791881535189 45.20425971055448 30.115682280353088
65.26170231739239 5.206457508442369 35.327640327329625 24.727604481620435
51.01237166047309 4.439678881285332 26.81028499033272 19.762407788855036
38.40634346676515 3.746340329339827 19.379561176028226 15.28044196139709
27.74081363810005 3.133217536006784 13.309592589030528 11.29800351306274
18.886247139157486 2.5768737997221556 8.448957474296625 7.860415865138701
11.911558667736053 2.067132502369449 4.819136308569941 5.025289856796663
6.823136005791419 1.6054409390895086 2.372567316565399 2.845127750136512
3.4371939015849113 1.196428173059565 0.9086830701425708 1.332082658382776
1.517382944774543 0.849737265700528 0.24123342260864408 0.42641225646537145
0.5927054648704124 0.5211291571377913 0.016969747853672827 0.05460655987894797
0.2628463572871569 0.26512939386296924 -0.0004241230013287768 -0.0018589135744836774
0.11563858376236032 0.11563858376236032 0.0 0.0
0.035103971882240174 0.035103971882240174 0.0 0.0
0.006322242419590922 0.006322242419590922 0.0 0.0
0.0030006041622771 0.0030006041622771 0.0 0.0
0.024255423111297247 0.024255423111297247 0.0 0.0
0.1063017072372009 0.1063017072372009 0.0 0.0
0.29489016640356025 0.29679662893626974 -0.0007075605570990005 -0.0011989019756105986
0.7666688287000483 0.6118266865020198 0.04668993539347285 0.10815220680455537
1.9432779619476486 0.9497541390596138 0.369842041022384 0.6236817818656508
4.2465318786275805 1.3102127721024086 1.240442899819317 1.6958762067058548
8.126683985759556 1.750004226004645 2.9691097703236684 3.407569989431243
13.92165705875303 2.2662690811418846 5.823508407099871 5.831879570511275
21.81920538607335 2.853628430725002 9.983441216285598 8.98213573906275
31.898842800055895 3.5006769767945856 15.57921192690745 12.818953896353868
44.193798409980644 4.218581179085251 22.692539935576296 17.282677295319075
58.45018039011238 5.017390418649704 31.10325650966609 22.32953346179662
74.86989482118678 5.860199935159135 41.10321055533822 27.906484330689374
93.0418445611036 6.659726986349884 52.454971645448175 33.927145929305546
112.26483459891048 7.231621758636374 64.83580895105558 40.1974038892185
131.2839981202784 7.366374430380594 77.55375509669663 46.36386859320116
147.9583711000637 6.814983999049648 89.28102672788397 51.86236037313006
157.68373310249814 4.759128129827496 97.35525969084884 55.56934528182173
156.17289757473173 4.481151810642174 96.5352440425803 55.156501721509265
170.39488434355343 26.96086641712729 90.84419897624167 52.589818950184444
156.17289757468566 4.481151810625089 96.53524404256042 55.15650172150013
157.68373310244334 4.759128129835058 97.35525969080636 55.569345281801915
147.95837109998618 6.814983999053152 89.2810267278287 51.86236037310435
131.2839981201899 7.366374430382724 77.55375509663526 46.36386859317182
112.26483459880998 7.231621758631886 64.83580895099153 40.19740388918661
93.0418445609993 6.65972698634004 52.454971645385925 33.92714592927336
74.86989482108912 5.8601999351533935 41.103210555278665 27.90648433065702
58.45018039002494 5.01739041864834 31.103256509611384 22.32953346176519
44.19379840989737 4.218581179082374 22.69253993552647 17.282677295288533
31.89884279998621 3.5006769767879318 15.579211926869489 12.818953896328793
21.81920538601987 2.853628430720829 9.983441216257056 8.982135739041988
13.921657058713658 2.2662690811372608 5.823508407080755 5.831879570495638
8.126683985733628 1.7500042260014987 2.969109770311949 3.407569989420181
4.246531878611441 1.310212772099336 1.2404428998132253 1.6958762066988795
1.9432779619399965 0.9497541390576523 0.3698420410199519 0.623681781862392
0.7666688286974758 0.6118266865005808 0.04668993539305674 0.10815220680383858
0.29489016640302146 0.29679662893557496 -0.0007075605570795147 -0.0011989019754740128
0.10630170723692368 0.10630170723692368 0.0 0.0
0.024255423111176046 0.024255423111176046 0.0 0.0
0.003000604162291042 0.003000604162291042 0.0 0.0
0.0009266027776358334 0.0009266027776358334 0.0 0.0
0.017735741118868272 0.017735741118868272 0.0 0.0
0.11138849697454628 0.11138849697454628 0.0 0.0
0.36440152002333304 0.35771001368502864 0.0008663575165966117 0.005825148821707812
1.0160660429529185 0.7490828419997414 0.0896394930319583 0.17734370792121906
2.477633416114455 1.1734337498942866 0.5052565789516622 0.7989430872685044
5.178934727328004 1.6657152415859031 1.5211871126821594 1.992032373059942
9.6134913729115 2.311435380125873 3.458140684696966 3.843915308088665
16.179011310781277 3.1383405228184564 6.592606881761581 6.448063906201246
25.199047164796742 4.175622943982768 11.189592134860806 9.833832085953151
36.79715493506712 5.439473391120568 17.38700578378829 13.970675760158272
50.85399982498939 6.93246870190022 25.11845018323801 18.803080939851153
67.42873928250181 8.62740155192002 34.5304671989182 24.270870531663572
86.32742955385623 10.457236318256001 45.56191387620692 30.308279359393318
107.01933845818598 12.169721491297063 58.059496629381194 36.7901203375077
128.41894469265551 13.34723495721093 71.59995190637535 43.47175782906923
148.75956689114327 13.539285844137527 85.24787471760662 49.97240632939908
166.014055325478 12.68240473921642 97.63704242816823 55.69460815809337
178.0246233071938 11.38952748885313 106.79873920905274 59.83635660928799
173.916271744915 4.5811691119105955 108.60929116918368 60.72581146382065
241.8056272451744 76.66556575099298 105.82554603599553 59.31451545818594
173.91627174488536 4.58116911191637 108.60929116915915 60.72581146380979
178.02462330713402 11.389527488861262 106.79873920900567 59.83635660926703
166.01405532539096 12.682404739220656 97.63704242810596 55.69460815806449
148.7595668910215 13.539285844113518 85.24787471754023 49.972406329367786
128.4189446925388 13.347234957199518 71.59995190630421 43.47175782903493
107.0193384580791 12.16972149129612 58.05949662931102 36.79012033747203
86.32742955375502 10.457236318256982 45.56191387614007 30.30827935935801
67.42873928238924 8.627401551898705 34.53046719885985 24.27087053163073
50.85399982489584 6.932468701894092 25.118450183183352 18.803080939818358
36.7971549349886 5.4394733911105755 17.387005783746652 13.97067576013138
25.199047164737536 4.175622943977269 11.189592134829288 9.833832085930986
16.179011310736172 3.13834052281062 6.592606881740768 6.448063906184789
9.613491372879466 2.3114353801180174 3.4581406846842895 3.8439153080771615
5.178934727309333 1.665715241583169 1.5211871126745273 1.9920323730516374
2.477633416104736 1.1734337498911496 0.5052565789489646 0.7989430872646215
1.0160660429494206 0.7490828419978701 0.08963949303133689 0.17734370792021353
0.36440152002255627 0.35771001368423394 0.0008663575166027136 0.005825148821719485
0.11138849697436772 0.11138849697436772 0.0 0.0
0.017735741118820834 0.017735741118820834 0.0 0.0
0.0009266027776202609 0.0009266027776202609 0.0 0.0
CELL_DATA 800
SCALARS Stress float 6
LOOKUP_TABLE default
166.04936533924626 -518.1132227327082 -181.87213378355295 -109.5528016770666 0.0 0.0
401.89997830938916 -69.48469870563221 115.96798903621618 55.7596801409009 0.0 0.0
409.2209129458153 9.165247692416193 125.31966218656473 -3.0628595341967677 0.0 0.0
468.48452361037016 -13.52204555077287 145.08837046221913 -14.967280881665376 0.0 0.0
545.1131407465772 -19.286983894571122 200.31747660780462 -11.628039920519626 0.0 0.0
618.5885499619153 -14.600715236760326 272.2188456113687 -10.169658428670314 0.0 0.0
689.7737420694293 -8.189882233597558 329.52076127643846 -10.684115451577448 0.0 0.0
761.5499917275731 6.089162602156875 378.78863540602504 -12.301540455228562 0.0 0.0
835.8061519374353 28.31154019009415 428.7236937269207 -13.981268370654181 0.0 0.0
912.4254727248731 57.551261503055144 482.30981986867255 -15.122479016335976 0.0 0.0
989.8141783212336 91.56569022844722 538.4331871428801 -15.604626692350092 0.0 0.0
1066.6137678983582 129.0760895890383 595.9037286380562 -15.545521249599885 0.0 0.0
1142.867604351508 168.8702307575264 654.147201809049 -15.338190718708345 0.0 0.0
1219.4210844553936 211.53382643892422 713.9033650299266 -15.037833069421033 0.0 0.0
1296.8779360694307 257.7385819243654 775.8406125128411 -14.512700688739713 0.0 0.0
1374.5659736454643 307.02036872916256 839.4081666734129 -13.570771402911609 0.0 0.0
1450.125978167694 357.5865212641127 902.5420737194378 -12.066760765620518 0.0 0.0
1520.8721990416445 407.4772692152104 962.9084800418862 -10.222986100232418 0.0 0.0
1585.5877831099017 456.4111986718334 1019.7002692904921 -9.419655751910064 0.0 0.0
1675.3080218054733 537.4532985914128 1104.5545366477074 -14.61925568841339 0.0 0.0
1675.3080218058458 537.4532985918098 1104.5545366479782 14.619255688618754 0.0 0.0
1585.5877831098605 456.41119867183806 1019.7002692905348 9.419655751867964 0.0 0.0
1520.8721990412841 407.47726921492034 962.9084800416915 10.222986100275357 0.0 0.0
1450.1259781678039 357.5865212643314 902.5420737194142 12.066760765630459 0.0 0.0
1374.565973645283 307.0203687291007 839.4081666731938 13.570771402855096 0.0 0.0
1296.877936069234 257.73858192432056 775.8406125126774 14.512700688767602 0.0 0.0
1219.4210844549252 211.53382643862415 713.903365029545 15.037833069560996 0.0 0.0
1142.867604350334 168.87023075654514 654.1472018081596 15.33819071882749 0.0 0.0
1066.613767898596 129.0760895894974 595.9037286382145 15.545521249400052 0.0 0.0
989.8141783213205 91.56569022877522 538.433187142924 15.60462669246083 0.0 0.0
912.4254727233985 57.55126150180965 482.3098198676777 15.122479016206137 0.0 0.0
835.8061519370837 28.311540189997032 428.7236937266531 13.981268370592112 0.0 0.0
761.5499917272081 6.089162602052966 378.78863540576765 12.301540455294159 0.0 0.0
689.7737420686649 -8.18988223408384 329.5207612759267 10.684115451566175 0.0 0.0
618.5885499615651 -14.600715236851762 272.2188456110643 10.169658428590406 0.0 0.0
545.1131407462374 -19.286983894661148 200.31747660752643 11.628039920484957 0.0 0.0
468.484523609989 -13.522045550914754 145.0883704620309 14.967280881718366 0.0 0.0
409.22091294531083 9.165247691885412 125.31966218625726 3.0628595342216585 0.0 0.0
401.8999783095088 -69.48469870542772 115.96798903627554 -55.759680140750596 0.0 0.0
166.04936533979685 -518.113222732131 -181.872133783004 109.55280167669932 0.0 0.0
65.71184337401445 -546.2010741559777 -242.75341297973398 -157.56092263374686 0.0 0.0
268.2200793652755 -58.899079001177824 62.89321289825081 9.773594439835131 0.0 0.0
358.6416117226501 31.210977920162676 116.95616331656692 -9.833811018922976 0.0 0.0
432.7769296416211 -11.478975472761174 129.40128754990485 -35.074717273077056 0.0 0.0
516.9625356120116 -19.695552492864906 177.9312591102305 -33.11846759306226 0.0 0.0
594.9180738130033 -15.517257503111285 251.6315956334749 -30.09719507337983 0.0 0.0
669.7992712558573 -8.815800642832691 315.37486540466983 -30.97711004215713 0.0 0.0
742.5665054992355 5.169881841739588 367.50598424883424 -33.42009494644984 0.0 0.0
815.5504684221315 26.033871173402204 416.92259404189065 -35.9790862012721 0.0 0.0
889.1371356447002 52.68445246131674 467.94510119201243 -37.39295010673667 0.0 0.0
962.1058373391477 83.02872571318896 520.1278838527551 -37.52571441344355 0.0 0.0
1033.9904487533593 115.79046214035412 572.8055095618691 -36.902424406876214 0.0 0.0
1105.0769573590312 151.27653015739074 626.3339142250302 -36.03368804661933 0.0 0.0
1176.3063908102868 189.35195750905885 681.1616710452878 -35.02623117885976 0.0 0.0
1247.9117711730246 230.18338632172924 737.5122927571117 -33.642743768283665 0.0 0.0
1319.4060288373112 273.6031967824951 795.070038046372 -31.4855489576142 0.0 0.0
1389.6594316019903 318.9636331623012 852.9432200987815 -28.398341655364074 0.0 0.0
1457.6965841639262 366.12325091718134 910.5486017019239 -25.092515349077363 0.0 0.0
1529.0209151652539 421.8731868710119 973.933976570655 -23.093745474540178 0.0 0.0
1582.1399389237356 466.0828230710903 1022.4599397573649 -22.184369545424058 0.0 0.0
1582.1399389232677 466.08282307061313 1022.4599397570374 22.184369545384325 0.0 0.0
1529.020915163377 421.87318686917433 973.933976569275 23.0937454745699 0.0 0.0
1457.6965841637164 366.12325091704844 910.5486017015891 25.09251534914258 0.0 0.0
1389.659431601566 318.96363316197744 852.9432200984594 28.398341655319012 0.0 0.0
1319.4060288358232 273.603196781101 795.0700380452391 31.48554895750339 0.0 0.0
1247.911771172787 230.18338632163398 737.5122927568284 33.64274376836333 0.0 0.0
1176.3063908094966 189.35195750844588 681.1616710447033 35.02623117895893 0.0 0.0
1105.076957358608 151.2765301571579 626.3339142246884 36.03368804658254 0.0 0.0
1033.990448753356 115.79046214053639 572.8055095617385 36.90242440674426 0.0 0.0
962.1058373380145 83.0287257122794 520.1278838520302 37.52571441339673 0.0 0.0
889.1371356442578 52.68445246109209 467.9451011917718 37.392950106619324 0.0 0.0
815.5504684223193 26.033871173823627 416.92259404201064 35.979086201106725 0.0 0.0
742.5665054982915 5.169881841044784 367.5059842482216 33.42009494643325 0.0 0.0
669.7992712555518 -8.815800642799218 315.3748654044422 30.977110042202206 0.0 0.0
594.9180738132286 -15.517257502554052 251.6315956335079 30.097195073329864 0.0 0.0
516.9625356114917 -19.69555249314877 177.93125910988235 33.11846759302628 0.0 0.0
432.77692964116875 -11.478975473135879 129.4012875496562 35.07471727282818 0.0 0.0
358.64161172235345 31.210977919779047 116.95616331636602 9.833811018916993 0.0 0.0
268.2200793655024 -58.899079000768744 62.89321289844399 -9.773594439795401 0.0 0.0
65.7118433742678 -546.201074155652 -242.75341297941316 157.5609226335151 0.0 0.0
13.642895198230008 -554.0600765308634 -266.0099960646736 -172.41194326260882 0.0 0.0
151.65995153051546 -49.28028920459468 30.71389869777623 -44.58767388639305 0.0 0.0
291.5448181614188 34.94565092722172 97.94714072659215 -33.67212323680279 0.0 0.0
386.64805483891314 -2.670537110339026 115.9038011751423 -54.927086406330815 0.0 0.0
479.7775602777466 -18.44861829692477 155.43363830474743 -56.76072076339209 0.0 0.0
567.7679009002524 -17.936715204051502 226.51697667842586 -51.79421494126872 0.0 0.0
645.7168651312911 -8.602219640210066 298.0121741818546 -51.61091547009075 0.0 0.0
719.1971340500165 4.3346037305170455 353.3932891760951 -54.4423062961894 0.0 0.0
791.2492586071721 23.824242809151784 402.9392428995201 -57.476857608094214 0.0 0.0
861.7259838286035 47.56945772888032 451.32896636240537 -58.89863558140289 0.0 0.0
930.4359186330344 74.0510049467706 499.57618377753744 -58.644417626885776 0.0 0.0
997.3923647137574 102.72640911273207 547.8018159592121 -57.474411202218135 0.0 0.0
1063.5837368668736 133.44118077413071 596.5295274689144 -56.101180790657054 0.0 0.0
1129.3015104206138 166.66298048281158 646.2084522760184 -54.43942958414064 0.0 0.0
1194.8687742001225 201.92780702717658 696.7886980817165 -52.23734401734847 0.0 0.0
1260.2541646691461 239.36005082062013 748.3147066698966 -49.09813696138931 0.0 0.0
1325.4872334687448 279.6095937450771 801.1093485164818 -44.92176472750947 0.0 0.0
1392.1022999252098 325.17887159679066 857.1672755641686 -40.41634278005682 0.0 0.0
1454.8451129876617 371.9324469092269 911.8414772251247 -35.537236729189146 0.0 0.0
1499.3520903869382 406.5769350992304 951.3277580876471 -28.64219289819711 0.0 0.0
1499.3520903875435 406.5769350998783 951.3277580880265 28.64219289844795 0.0 0.0
1454.8451129879202 371.93244690955044 911.8414772253943 35.53723672934072 0.0 0.0
1392.1022999247687 325.1788715964284 857.1672755638463 40.41634278012311 0.0 0.0
1325.4872334690021 279.6095937454316 801.1093485164854 44.921764727526494 0.0 0.0
1260.254164669741 239.36005082133232 748.3147066701977 49.09813696130951 0.0 0.0
1194.8687741993804 201.92780702657012 696.7886980811818 52.237344017382384 0.0 0.0
1129.3015104201454 166.66298048248314 646.2084522756024 54.439429584055006 0.0 0.0
1063.5837368666062 133.44118077406483 596.5295274687562 56.10118079077968 0.0 0.0
997.3923647141437 102.72640911333045 547.8018159593854 57.474411202180434 0.0 0.0
930.4359186335321 74.05100494751565 499.57618377775384 58.64441762690693 0.0 0.0
861.7259838277173 47.569457728254406 451.32896636181067 58.89863558151377 0.0 0.0
791.2492586061279 23.824242808294755 402.93924289881676 57.47685760787792 0.0 0.0
719.1971340502444 4.334603731027244 353.39328917619747 54.44230629614215 0.0 0.0
645.7168651311998 -8.602219639964261 298.01217418171393 51.61091547012865 0.0 0.0
567.767900899812 -17.936715204213517 226.51697667805365 51.79421494118364 0.0 0.0
479.77756027724524 -18.448618297197047 155.43363830443175 56.76072076331681 0.0 0.0
386.64805483862557 -2.670537110466734 115.90380117503028 54.9270864062332 0.0 0.0
291.54481816137667 34.94565092704504 97.94714072652648 33.67212323681987 0.0 0.0
151.65995153070733 -49.28028920420744 30.713898697949965 44.58767388621797 0.0 0.0
13.642895198415317 -554.0600765306219 -266.00999606441405 172.41194326242936 0.0 0.0
-6.023239100387542 -541.9504074140516 -262.14015039089435 -174.51643120653443 0.0 0.0
87.91353571681636 -47.38944276970149 12.157227884134453 -90.59492398761658 0.0 0.0
228.024981820039 31.925315394557096 77.98508916437882 -65.51529467057316 0.0 0.0
333.8550383068225 5.6760030970719795 101.89518006174463 -76.5035818942812 0.0 0.0
432.88114618248477 -16.203184669389394 133.1199164363582 -82.67618341135017 0.0 0.0
530.3194727211801 -18.526814072589545 198.1760305303994 -75.40746770479969 0.0 0.0
614.8713553135156 -9.666026017272177 274.4187209279803 -72.98355495937982 0.0 0.0
691.2351550892834 4.104984732995547 336.18448343789896 -75.47072909762377 0.0 0.0
762.0915352182348 21.459741481937982 386.0699904543377 -78.44250990712656 0.0 0.0
829.6763705806784 42.23134064008469 432.1484643631005 -79.64783263665029 0.0 0.0
894.3320701964061 64.95503864279013 476.68851733899703 -78.96905989080554 0.0 0.0
956.7496085115101 89.41695219670635 520.6142913384658 -77.34147909298986 0.0 0.0
1017.675080385142 115.59488207849498 564.4845713309737 -75.4596936084546 0.0 0.0
1078.1423275920838 143.7463025826726 609.0437206978388 -73.25109932108549 0.0 0.0
1137.7782422362393 173.2352607732794 653.8066548261031 -70.35608536784406 0.0 0.0
1196.791066065448 204.67223437387526 699.168781410667 -66.45872958093786 0.0 0.0
1257.11052129064 239.79752070591505 746.9392769965725 -61.5665558715021 0.0 0.0
1318.5486619297508 279.6126133005401 797.5429938681265 -55.71785740485717 0.0 0.0
1375.7743722979296 319.74400809709186 846.1694574021121 -47.724079252193135 0.0 0.0
1417.2773445650348 349.68912244782496 881.8159099865896 -35.454992024501706 0.0 0.0
1417.2773445640973 349.68912244689875 881.8159099859029 35.45499202458998 0.0 0.0
1375.7743722970474 319.74400809626417 846.169457401514 47.72407925236385 0.0 0.0
1318.5486619294331 279.6126133003333 797.542993868021 55.71785740503683 0.0 0.0
1257.1105212904101 239.79752070577706 746.9392769963978 61.56655587151434 0.0 0.0
1196.7910660652378 204.6722343737597 699.1687814104248 66.45872958087841 0.0 0.0
1137.7782422369198 173.23526077415045 653.8066548264895 70.35608536801652 0.0 0.0
1078.1423275918185 143.74630258255638 609.0437206975695 73.25109932106704 0.0 0.0
1017.6750803844857 115.59488207803048 564.4845713305087 75.45969360852521 0.0 0.0
956.7496085103795 89.41695219572296 520.6142913377804 77.34147909284916 0.0 0.0
894.3320701965275 64.95503864308105 476.6885173391023 78.96905989070672 0.0 0.0
829.6763705798563 42.231340639543305 432.14846436258637 79.64783263676576 0.0 0.0
762.091535217533 21.45974148147465 386.06999045384106 78.4425099070479 0.0 0.0
691.2351550893424 4.104984733346356 336.1844834378698 75.47072909758256 0.0 0.0
614.8713553129744 -9.66602601756049 274.4187209275454 72.98355495929871 0.0 0.0
530.3194727206171 -18.526814072864134 198.176030529967 75.40746770473447 0.0 0.0
432.8811461825033 -16.203184668775954 133.11991643647588 82.67618341138451 0.0 0.0
333.8550383068828 5.676003097460953 101.89518006188517 76.50358189416195 0.0 0.0
228.02498182010783 31.925315394525597 77.98508916439003 65.51529467048348 0.0 0.0
87.91353571689429 -47.389442769363086 12.157227884259356 90.59492398746285 0.0 0.0
-6.023239100214198 -541.9504074137276 -262.14015039060865 174.51643120641342 0.0 0.0
-10.45680065036457 -518.2360577291179 -243.35996686555188 -172.05943747470565 0.0 0.0
52.22470738661645 -46.69129545559737 1.6600235793057223 -126.42348598833877 0.0 0.0
173.4726600486427 26.000235066054053 59.841868534409016 -97.61540684603084 0.0 0.0
277.86646080220174 10.852072428737198 86.6219255251237 -99.54680086688724 0.0 0.0
375.5001250212825 -11.468651614105738 112.17701120726082 -108.59783601448834 0.0 0.0
481.7475549875204 -18.499968057027004 167.34990886285397 -102.21387901589549 0.0 0.0
576.6230824873471 -11.121560509396094 244.71484697746567 -96.06826999672023 0.0 0.0
656.9533038228413 3.407202263274961 313.74265007918933 -96.54191577451678 0.0 0.0
727.4477649801606 19.191278303860805 365.76527489394016 -98.90772659874555 0.0 0.0
792.3281353965257 36.698302039797014 409.96992023991675 -99.69337950685309 0.0 0.0
853.2699697629532 55.733623228756876 451.142953589901 -98.52617937095877 0.0 0.0
911.0315372754944 75.99008431584909 490.76366294930483 -96.44639708098842 0.0 0.0
966.9479010648531 97.56219314434165 529.9039931942626 -94.20325681530694 0.0 0.0
1021.6958866545367 120.65892674458496 569.1174199906177 -91.44710118904659 0.0 0.0
1075.6095017360126 144.69295134990523 608.3280431432706 -87.94412019893213 0.0 0.0
1128.9427799437185 170.0291723713469 647.8386602264876 -83.57989341637837 0.0 0.0
1182.5716893871356 198.44504890238568 688.9356157270647 -78.14505601727372 0.0 0.0
1237.883102897592 231.33445146060714 733.0234467753708 -71.11823068589723 0.0 0.0
1291.1081444706122 265.6592555159233 776.7453708690315 -60.33599390681578 0.0 0.0
1332.802199999164 293.2327700402651 811.2823433584333 -43.20798070347408 0.0 0.0
1332.8021999999175 293.2327700410518 811.2823433589814 43.207980703529635 0.0 0.0
1291.108144471429 265.6592555168166 776.7453708697055 60.33599390700276 0.0 0.0
1237.8831028977118 231.33445146085785 733.0234467754505 71.11823068610443 0.0 0.0
1182.5716893871215 198.44504890248743 688.9356157269507 78.14505601735871 0.0 0.0
1128.942779943721 170.02917237151252 647.838660226514 83.5798934165153 0.0 0.0
1075.6095017355153 144.69295134954353 608.328043142996 87.94412019895861 0.0 0.0
1021.6958866546483 120.65892674487634 569.1174199907268 91.44710118912889 0.0 0.0
966.9479010652672 97.56219314497477 529.9039931944963 94.2032568153807 0.0 0.0
911.0315372760905 75.99008431675318 490.7636629495956 96.44639708119094 0.0 0.0
853.2699697621357 55.7336232281842 451.1429535892079 98.52617937100496 0.0 0.0
792.3281353950526 36.69830203846324 409.969920238912 99.69337950667946 0.0 0.0
727.4477649802456 19.191278304210414 365.7652748939823 98.90772659870679 0.0 0.0
656.9533038235992 3.407202264488731 313.7426500796467 96.54191577465764 0.0 0.0
576.623082487159 -11.121560509242421 244.71484697725728 96.06826999671321 0.0 0.0
481.7475549872445 -18.499968056955133 167.3499088626274 102.21387901581693 0.0 0.0
375.50012502095757 -11.468651613950199 112.17701120719427 108.59783601444056 0.0 0.0
277.86646080205423 10.852072428698424 86.62192552507402 99.54680086673095 0.0 0.0
173.47266004865494 26.000235065961718 59.841868534385 97.61540684577037 0.0 0.0
52.224707386718926 -46.691295455358244 1.6600235794082074 126.42348598818076 0.0 0.0
-10.456800650324496 -518.2360577288298 -243.359966865297 172.0594374746042 0.0 0.0
-8.012312606618337 -486.7353560014276 -216.0271942942561 -168.37744954497205 0.0 0.0
30.878431707964985 -45.50217848427985 -4.387124032894459 -153.12623822885888 0.0 0.0
127.0518606752488 19.34198682482661 43.918154250022624 -125.91331545192841 0.0 0.0
221.3007906311405 12.867134830361845 70.24640117986715 -122.70763598808938 0.0 0.0
311.17666988229615 -5.187582297684842 92.74709714428418 -132.4539405525973 0.0 0.0
417.0716417705711 -17.384411738791826 134.95802016170472 -131.56761173338623 0.0 0.0
523.8722586905681 -11.518987455488745 208.187607015537 -121.88792736891556 0.0 0.0
612.3737657913601 1.3927151207947972 282.69397614086665 -118.53829929756839 0.0 0.0
685.6801735715335 16.579756326463254 340.2565104039985 -119.13581996605538 0.0 0.0
748.5712938623084 31.143829760949128 384.0103892024114 -119.04343898034764 0.0 0.0
805.7514015051067 46.30196203183912 422.0321904026141 -117.33935889243737 0.0 0.0
859.1775187206902 62.5138769050652 457.7096837817926 -114.83439198096123 0.0 0.0
909.8815313792031 79.5685304890592 492.1098281339214 -112.21187908007953 0.0 0.0
959.0410846163311 97.39831912332576 525.9625725920126 -109.14816616034749 0.0 0.0
1007.5732441559595 116.18973821226596 559.893367202943 -105.16772291547265 0.0 0.0
1054.680172890734 135.83141003861246 593.4970711084713 -100.22967074177635 0.0 0.0
1101.2011945059935 156.4632748145683 627.2138657279107 -94.49925659236257 0.0 0.0
1149.2302358162276 180.81766515050924 663.4143691771628 -86.81222635009229 0.0 0.0
1198.7555945224758 209.22606681737977 702.3019273395171 -73.90117115093882 0.0 0.0
1243.1184593951039 235.80305444735245 737.6190170656986 -52.531055375268785 0.0 0.0
1243.1184593941966 235.80305444646913 737.6190170650093 52.53105537538153 0.0 0.0
1198.7555945222261 209.2260668172131 702.3019273392972 73.90117115111985 0.0 0.0
1149.2302358151449 180.81766514950988 663.414369176517 86.81222635017406 0.0 0.0
1101.2011945056022 156.46327481426744 627.2138657276872 94.49925659244954 0.0 0.0
1054.6801728908038 135.83141003884498 593.4970711084122 100.22967074190198 0.0 0.0
1007.5732441563077 116.18973821285311 559.8933672031088 105.16772291565482 0.0 0.0
959.0410846154198 97.39831912256545 525.9625725913415 109.1481661603915 0.0 0.0
909.8815313787908 79.56853048873725 492.10982813358794 112.21187907998683 0.0 0.0
859.1775187207725 62.513876905445215 457.70968378183625 114.83439198114581 0.0 0.0
805.7514015047179 46.30196203168117 422.0321904023133 117.3393588924556 0.0 0.0
748.571293861761 31.143829760499358 384.01038920194316 119.04343898011899 0.0 0.0
685.6801735714838 16.57975632666094 340.2565104039062 119.13581996600641 0.0 0.0
612.3737657910126 1.3927151207859225 282.69397614057107 118.53829929758362 0.0 0.0
523.8722586899872 -11.51898745574556 208.18760701509808 121.887927368864 0.0 0.0
417.0716417704268 -17.384411738390067 134.95802016167636 131.56761173340013 0.0 0.0
311.17666988214756 -5.187582297345182 92.74709714434292 132.4539405524879 0.0 0.0
221.3007906310279 12.867134830270587 70.24640117980739 122.70763598788298 0.0 0.0
127.05186067522321 19.341986824766828 43.91815424999701 125.91331545180884 0.0 0.0
30.878431707975132 -45.50217848426331 -4.387124032886451 153.12623822874357 0.0 0.0
-8.012312606644613 -486.735356001194 -216.0271942940401 168.37744954493346 0.0 0.0
-2.451964950000203 -449.0279980310326 -183.69810889621425 -164.8566049618584 0.0 0.0
16.080073429188435 -44.40511721353754 -8.497569718530187 -171.8661794988241 0.0 0.0
86.27918332562284 13.093382153877254 29.81176964385002 -148.75071041640183 0.0 0.0
165.07731490458858 13.90689305584539 53.692138810443 -144.01120253044803 0.0 0.0
243.10064583749403 0.08410914133244352 73.41797057988988 -153.46784024081728 0.0 0.0
338.9941582857585 -13.330021224457028 103.88562651110644 -160.61915325028303 0.0 0.0
452.4771217471616 -11.924105351871722 165.13541890381916 -151.47520381700068 0.0 0.0
553.0098264900944 -0.37313481094391854 241.41987875454353 -142.6048265487724 0.0 0.0
632.0345721929483 12.872709839712641 305.3106072090617 -139.68841144030023 0.0 0.0
695.6426944822337 25.38793927923688 351.98026103287117 -137.9238053612129 0.0 0.0
749.4553501287278 36.675138854002476 387.84626489677674 -135.43853193766938 0.0 0.0
798.7285092778974 49.0638621080703 420.09797072162337 -132.50261308065626 0.0 0.0
844.2720502389307 61.58024364647329 449.9100788665541 -129.55514753544946 0.0 0.0
887.5130356095706 74.32254882727189 478.4078259765049 -126.27894951683732 0.0 0.0
929.9829622635175 87.5579863570427 506.57100551715274 -122.06074935822306 0.0 0.0
972.3644029385647 102.04359672428464 535.2803166231844 -116.61292415914438 0.0 0.0
1011.4379623091746 115.1506213241171 561.633027975696 -110.36294872730248 0.0 0.0
1050.0539761949954 129.07542530143397 587.9776821510945 -102.66379127384934 0.0 0.0
1095.1078062661377 149.4517456235753 620.5563961402959 -88.95353260575313 0.0 0.0
1144.6195659954274 175.8475504459557 658.2377339453227 -64.35964559058925 0.0 0.0
1144.6195659946045 175.8475504451577 658.2377339447189 64.35964559071289 0.0 0.0
1095.1078062671108 149.4517456246749 620.5563961409736 88.95353260597535 0.0 0.0
1050.0539761951188 129.07542530168985 587.9776821511257 102.66379127406586 0.0 0.0
1011.4379623094935 115.15062132467199 561.6330279758221 110.36294872763065 0.0 0.0
972.3644029385248 102.0435967244384 535.2803166231088 116.61292415924551 0.0 0.0
929.9829622640129 87.55798635762491 506.5710055174693 122.06074935819181 0.0 0.0
887.5130356096389 74.32254882756177 478.40782597664804 126.27894951694417 0.0 0.0
844.2720502381915 61.58024364585154 449.91007886603427 129.55514753547536 0.0 0.0
798.7285092768934 49.063862107227436 420.09797072091357 132.50261308062358 0.0 0.0
749.4553501276716 36.67513885294741 387.846264896051 135.43853193744675 0.0 0.0
695.6426944820812 25.387939279258504 351.98026103275726 137.92380536109073 0.0 0.0
632.0345721932011 12.872709840324006 305.31060720921306 139.68841144034604 0.0 0.0
553.009826489799 -0.37313481081929467 241.41987875427688 142.6048265488299 0.0 0.0
452.477121746946 -11.924105351532479 165.13541890369532 151.4752038170809 0.0 0.0
338.99415828566504 -13.33002122387043 103.88562651120304 160.61915325024646 0.0 0.0
243.1006458374807 0.08410914178883022 73.4179705800228 153.46784024071894 0.0 0.0
165.07731490436646 13.906893055436901 53.69213881025481 144.01120253023277 0.0 0.0
86.27918332556412 13.093382153839894 29.8117696438212 148.75071041613282 0.0 0.0
16.080073429192755 -44.40511721350989 -8.497569718520532 171.8661794986495 0.0 0.0
-2.4519649500219813 -449.0279980307893 -183.69810889599935 164.8566049618006 0.0 0.0
2.6638228952550023 -406.5603296458413 -150.8250911703425 -162.29674534687783 0.0 0.0
2.366004524130523 -44.0049334645946 -12.491072140809322 -182.86167370823006 0.0 0.0
49.01002944907657 8.08139783253818 17.12702511323688 -166.0996175918473 0.0 0.0
110.06495055550268 15.071218330587744 37.54066868943981 -161.75317546931012 0.0 0.0
172.7580312981293 3.404138561498139 53.125717669688065 -171.98547230818858 0.0 0.0
247.510766138426 -6.721929455553542 74.72886729593456 -184.0746098332906 0.0 0.0
353.95843735125436 -10.174228159471088 118.08280216535175 -183.85182332645397 0.0 0.0
468.4989207143858 -2.1388771804250615 186.9945795089567 -171.0398701002723 0.0 0.0
559.129586379689 8.609531102154337 255.4206488944473 -161.9096190210391 0.0 0.0
626.0449156202885 18.84087704210524 307.5473688057665 -156.77776652267607 0.0 0.0
678.9718586642159 26.78261625694819 344.5718693874345 -153.12245289114588 0.0 0.0
723.9549185469225 35.42364676254998 374.3501334472162 -149.53159749289057 0.0 0.0
764.3623668490252 43.862605551398865 400.3003086242536 -146.1873595271993 0.0 0.0
801.5429109525194 51.5367572695758 423.61057525764727 -142.815070019662 0.0 0.0
837.663688745541 59.08020436347478 445.93609713636596 -138.71821016870888 0.0 0.0
874.518105213236 67.8745903203625 469.0480881698171 -132.91880354999995 0.0 0.0
909.7415558843809 75.98572207830684 491.084300061856 -125.75921542391521 0.0 0.0
937.658470359017 78.19969680898188 506.4746052804164 -118.14612346584403 0.0 0.0
972.6486594892194 85.22242718343594 527.2687720767834 -105.60121107015854 0.0 0.0
1028.9975879188082 110.90078344092491 567.7315558603974 -80.04566359936734 0.0 0.0
1028.997587918949 110.90078344111726 567.7315558604723 80.04566359955729 0.0 0.0
972.6486594889719 85.22242718336008 527.2687720766335 105.60121107057753 0.0 0.0
937.6584703583057 78.19969680851574 506.4746052799553 118.14612346605671 0.0 0.0
909.7415558829782 75.9857220767515 491.08430006083586 125.75921542374232 0.0 0.0
874.5181052131411 67.87459032044322 469.048088169706 132.9188035501191 0.0 0.0
837.6636887460245 59.08020436417442 445.93609713655553 138.71821016876183 0.0 0.0
801.5429109514477 51.53675726861891 423.6105752568965 142.81507001968333 0.0 0.0
764.3623668491846 43.86260555181428 400.30030862434563 146.1873595273379 0.0 0.0
723.9549185472445 35.42364676308043 374.35013344738155 149.53159749297444 0.0 0.0
678.9718586645827 26.782616257724186 344.5718693876772 153.1224528912873 0.0 0.0
626.0449156198351 18.84087704190715 307.5473688054311 156.777766522654 0.0 0.0
559.1295863798093 8.609531102534916 255.42064889444072 161.9096190209694 0.0 0.0
468.4989207137329 -2.1388771807864373 186.99457950849967 171.0398701002704 0.0 0.0
353.9584373509621 -10.174228159123352 118.08280216527552 183.85182332649526 0.0 0.0
247.5107661383329 -6.721929455121627 74.72886729602595 184.07460983319655 0.0 0.0
172.75803129795938 3.404138561511031 53.12571766964389 171.98547230797718 0.0 0.0
110.06495055557156 15.071218330777842 37.54066868952081 161.753175469042 0.0 0.0
49.01002944907906 8.081397832626024 17.127025113264494 166.0996175917697 0.0 0.0
2.3660045241474927 -44.00493346450376 -12.49107214077836 182.8616737080096 0.0 0.0
2.663822895300669 -406.5603296455644 -150.82509117011452 162.29674534672444 0.0 0.0
3.3498541131181057 -360.09117184213255 -121.78246631093806 -158.93309881586364 0.0 0.0
-14.043404936574417 -45.49243234758249 -17.859818790614916 -188.42968628825747 0.0 0.0
14.039758478790946 5.133780855568273 5.751769360622105 -178.20565411043128 0.0 0.0
56.580193745308414 16.171351688781726 21.827214782047815 -175.30304350986765 0.0 0.0
100.36871358058121 7.025548798425951 32.398951546771826 -185.85200848352727 0.0 0.0
149.46698372827927 -1.8070727237944983 45.43791828249082 -201.6376019670226 0.0 0.0
225.08164190893456 -4.320542835888892 71.18575442220224 -210.92541532684743 0.0 0.0
335.5429211159606 -1.9495534256063767 118.62662711845408 -204.58871586234935 0.0 0.0
443.9325489396633 4.776478556697455 180.96317207884064 -189.23043668172656 0.0 0.0
521.3535840368558 11.07612027407599 236.72130337832903 -177.39279535210648 0.0 0.0
576.0461718628912 17.02661551472434 278.7063384122233 -170.74435492795203 0.0 0.0
617.8645550328537 21.445487495990783 308.8013802404058 -166.1864724054464 0.0 0.0
653.3379660716193 26.161822336337664 333.0370554588889 -162.26483029513986 0.0 0.0
684.2841314989056 29.379110500695703 352.56435993838306 -158.65077833382534 0.0 0.0
713.0999514162406 31.15249215623531 369.2067706637863 -154.7467376467318 0.0 0.0
743.0007883803601 32.99003835661671 385.7017113563103 -149.42803305239664 0.0 0.0
776.6453250459388 36.65328374853385 404.6428537867015 -141.33488210686053 0.0 0.0
803.932851653751 34.487673193054576 417.8982078776958 -132.21353609757602 0.0 0.0
818.9063079369209 17.0360399327202 416.81683364175376 -122.7432756836638 0.0 0.0
879.3595759301945 34.934735114611726 454.62107215811335 -101.8811661972789 0.0 0.0
879.3595759313246 34.93473511593976 454.6210721589699 101.88116619750522 0.0 0.0
818.9063079373598 17.036039933330926 416.81683364209505 122.74327568400103 0.0 0.0
803.9328516536895 34.48767319325475 417.8982078776927 132.21353609786726 0.0 0.0
776.6453250466784 36.653283749520085 404.64285378718796 141.3348821070319 0.0 0.0
743.0007883801567 32.990038356477925 385.7017113562614 149.42803305242217 0.0 0.0
713.0999514160908 31.152492156062493 369.2067706637351 154.74673764655364 0.0 0.0
684.2841314992653 29.379110501217298 352.5643599385762 158.65077833396526 0.0 0.0
653.3379660713774 26.161822336395204 333.0370554587685 162.2648302954018 0.0 0.0
617.8645550329328 21.445487496263553 308.80138024040264 166.18647240548046 0.0 0.0
576.0461718626896 17.02661551464034 278.70633841205137 170.7443549278255 0.0 0.0
521.3535840359126 11.076120272958399 236.72130337758648 177.3927953518509 0.0 0.0
443.9325489391859 4.776478556365291 180.96317207848463 189.2304366817104 0.0 0.0
335.54292111536853 -1.9495534259818825 118.6266271180755 204.58871586226505 0.0 0.0
225.08164190819318 -4.3205428367634955 71.18575442169485 210.92541532665217 0.0 0.0
149.46698372808834 -1.8070727238375746 45.43791828241949 201.63760196680113 0.0 0.0
100.3687135805368 7.025548798406198 32.398951546752734 185.85200848329035 0.0 0.0
56.58019374530768 16.171351688790644 21.827214782053506 175.30304350959298 0.0 0.0
14.03975847880367 5.1337808555125966 5.751769360609545 178.2056541102416 0.0 0.0
-14.043404936711974 -45.492432347614574 -17.859818790667312 188.4296862880782 0.0 0.0
3.349854113124646 -360.09117184182736 -121.78246631076738 158.9330988157368 0.0 0.0
-1.6837259953915726 -310.4415873693202 -98.14016381621482 -152.3571914663061 0.0 0.0
-33.034674968511204 -49.1265970573435 -24.64670491001123 -190.98195944076014 0.0 0.0
-19.352028702606937 4.183998225929326 -4.551417130830373 -185.63778249814533 0.0 0.0
4.577588766925844 17.142603791032794 6.520271717227915 -184.0749824139222 0.0 0.0
27.49709713899237 11.030692386000837 11.618176450724304 -194.1281000992466 0.0 0.0
48.188906295525044 2.8293242687449243 15.67524208540596 -211.5016260858241 0.0 0.0
75.2001387245027 -0.5330664680139146 23.65344485490554 -226.59348744468087 0.0 0.0
122.5783883294498 0.6182764444029782 40.26693404898827 -230.71863091807376 0.0 0.0
197.37109412695656 4.242383366588754 68.8094835644163 -219.83707961585674 0.0 0.0
275.13976147925644 6.385190517393127 103.72401198098888 -204.0202853652046 0.0 0.0
340.3674838997166 8.596563788575317 140.87303945427178 -191.2907351638831 0.0 0.0
386.79781857567474 8.643917134703514 171.77722065365924 -183.37153815616162 0.0 0.0
418.59984955362285 9.387176600160316 196.20066741654017 -177.49564090433017 0.0 0.0
443.1662106745477 7.920651454383886 214.79125549194896 -172.95944125069954 0.0 0.0
465.84392683607945 4.066848436927188 229.39128278491012 -168.95073954380214 0.0 0.0
492.92417001255836 -1.7557523351623274 242.94647175655382 -164.63225724666893 0.0 0.0
529.5820059833701 -6.2329832962404055 259.93373969518825 -157.81335317514527 0.0 0.0
576.469056466998 -6.541543507146315 283.4533096391913 -146.56684908216332 0.0 0.0
601.2066926980752 -32.84909761421045 284.44549602752977 -134.82922643324423 0.0 0.0
632.6484373547162 -73.15492644124322 277.25025115507407 -129.2689918469165 0.0 0.0
632.6484373552092 -73.15492644056764 277.25025115541797 129.26899184729618 0.0 0.0
601.2066926980367 -32.84909761388707 284.4454960276511 134.8292264337508 0.0 0.0
576.4690564661014 -6.541543508144002 283.4533096386165 146.56684908243506 0.0 0.0
529.5820059831385 -6.232983296492108 259.93373969500436 157.81335317530085 0.0 0.0
492.9241700113822 -1.755752336680331 242.94647175561278 164.6322572465496 0.0 0.0
465.84392683580484 4.066848436355087 229.39128278461976 168.95073954371264 0.0 0.0
443.16621067467383 7.920651454715326 214.79125549210187 172.95944125082087 0.0 0.0
418.5998495533473 9.387176599653586 196.2006674162684 177.49564090449599 0.0 0.0
386.7978185753233 8.643917134338125 171.77722065341874 183.37153815611913 0.0 0.0
340.3674838996252 8.596563788477454 140.87303945411392 191.29073516378935 0.0 0.0
275.1397614786902 6.385190516642311 103.72401198054345 204.0202853650677 0.0 0.0
197.37109412694474 4.242383366682525 68.80948356441755 219.8370796159178 0.0 0.0
122.57838832984437 0.6182764454724676 40.26693404941157 230.7186309181247 0.0 0.0
75.20013872449357 -0.5330664678269672 23.653444854963613 226.59348744455363 0.0 0.0
48.18890629524404 2.8293242680867854 15.675242085123864 211.50162608565023 0.0 0.0
27.497097138985982 11.030692385729907 11.618176450640796 194.12810009908424 0.0 0.0
4.577588766889485 17.142603790940665 6.520271717189869 184.07498241381393 0.0 0.0
-19.352028702562585 4.1839982260881765 -4.5514171307699 185.63778249797878 0.0 0.0
-33.0346749684941 -49.12659705718851 -24.64670490996129 190.9819594405721 0.0 0.0
-1.6837259954772996 -310.44158736902705 -98.14016381612471 152.35719146616924 0.0 0.0
-13.670345204305775 -260.639717851188 -82.66604218198651 -141.878637190275 0.0 0.0
-51.12260046773605 -51.7524731662669 -30.86427444129555 -190.99854068897898 0.0 0.0
-51.61329153547987 3.903518356630714 -14.324669654423356 -188.97355368113995 0.0 0.0
-45.8656666272604 17.987320698867446 -8.386448547502962 -187.87835870273005 0.0 0.0
-44.50735571934743 14.96072911556308 -8.944629398839131 -196.3105154469999 0.0 0.0
-54.08186309852914 7.5123351209604445 -14.373661821407236 -212.4802191188598 0.0 0.0
-77.52984282023786 2.6367452495211916 -23.768278166724333 -226.7074684775341 0.0 0.0
-123.30000254555544 -0.21367264637397732 -40.38114751057161 -230.8853835329844 0.0 0.0
-197.21232927017311 -4.06833941008734 -68.70433339606504 -219.91273579910467 0.0 0.0
-274.90699418895025 -6.1974327374171025 -103.57987155840739 -203.99786016989773 0.0 0.0
-340.54896836342664 -7.360573414284119 -140.40176953882204 -191.17826010769687 0.0 0.0
-388.2883478357852 -7.005309548447514 -171.76548468116255 -182.9193288352296 0.0 0.0
-422.8197337818482 -8.965262275988962 -197.81401079213467 -176.97587861972409 0.0 0.0
-449.54063692371903 -13.660296854378188 -220.2075585157425 -173.26415683804248 0.0 0.0
-468.0718497726901 -22.037517183559487 -239.59471256587287 -171.71969040822938 0.0 0.0
-475.6804825112352 -33.33103343405435 -255.147431802811 -171.9189621803721 0.0 0.0
-463.18092148977246 -45.19805908370611 -263.24726061175693 -172.44726335571585 0.0 0.0
-401.33599508415443 -40.36207993422727 -248.33714402042386 -172.44152682853826 0.0 0.0
-218.7306568388317 -36.04821845289615 -185.5964075513876 -175.23060945909978 0.0 0.0
-8.447100639743581 -175.43820401937623 -68.16441951536734 -160.40864670082195 0.0 0.0
-8.44710063985724 -175.43820401958325 -68.16441951547995 160.40864670122718 0.0 0.0
-218.7306568388761 -36.04821845283317 -185.5964075514344 175.2306094595837 0.0 0.0
-401.3359950839234 -40.36207993384767 -248.33714402021508 172.44152682890098 0.0 0.0
-463.1809214893628 -45.198059083547975 -263.2472606115332 172.4472633558522 0.0 0.0
-475.68048251111645 -33.33103343362876 -255.14743180255186 171.9189621802197 0.0 0.0
-468.07184977208647 -22.03751718304528 -239.59471256544973 171.71969040823458 0.0 0.0
-449.54063692370426 -13.66029685440354 -220.20755851563578 173.2641568380525 0.0 0.0
-422.81973378211114 -8.96526227742119 -197.81401079255 176.9758786200356 0.0 0.0
-388.2883478357551 -7.005309549210594 -171.7654846812487 182.91932883526482 0.0 0.0
-340.5489683626181 -7.360573414183378 -140.40176953838568 191.17826010757517 0.0 0.0
-274.9069941884041 -6.1974327376878335 -103.57987155822467 203.997860169867 0.0 0.0
-197.212329269313 -4.068339409880419 -68.70433339570269 219.91273579936723 0.0 0.0
-123.30000254505555 -0.21367264633464522 -40.3811475104031 230.88538353303483 0.0 0.0
-77.52984281958128 2.6367452505875635 -23.76827816619911 226.70746847731925 0.0 0.0
-54.08186309824944 7.512335121180607 -14.373661821254846 212.4802191185764 0.0 0.0
-44.50735571914756 14.960729115651205 -8.944629398752419 196.31051544674736 0.0 0.0
-45.86566662703581 17.987320699295044 -8.386448547308612 187.87835870249847 0.0 0.0
-51.6132915353092 3.903518357028008 -14.324669654255802 188.97355368097604 0.0 0.0
-51.122600467759476 -51.75247316632665 -30.8642744413234 190.9985406888859 0.0 0.0
-13.670345204435193 -260.63971785095487 -82.66604218197313 141.87863719015442 0.0 0.0
-23.959754895618964 -212.98526589564293 -71.08034861941022 -128.83419242434923 0.0 0.0
-66.30376923735092 -51.451233488995626 -35.330133925049196 -187.33978953653315 0.0 0.0
-82.55888177957739 3.5015145975592032 -23.74314894133429 -188.39183570139997 0.0 0.0
-94.70746964016375 18.6464595004936 -22.868787032613945 -186.83503837089856 0.0 0.0
-114.91732195038429 18.04442617907377 -29.359890745767032 -192.1363147263309 0.0 0.0
-154.34422414417844 11.656632876048095 -44.129199185481234 -203.99787298771233 0.0 0.0
-226.61706752306168 6.341602586315004 -71.20608310778977 -211.88021507613942 0.0 0.0
-335.3446268660135 2.2555064379012144 -118.58699357401275 -205.003038478185 0.0 0.0
-443.58428860539357 -4.652166645633528 -180.79930175382017 -189.37877833488307 0.0 0.0
-521.0453262619064 -10.75499463810985 -236.46695422270267 -177.35767406005692 0.0 0.0
-575.6370098363672 -16.09378999642496 -278.14828445240005 -170.49559220921492 0.0 0.0
-617.8273953797598 -19.98442891098702 -308.13571743027103 -165.4536626883646 0.0 0.0
-654.8888834988128 -25.750378711293365 -333.4883246975015 -161.17194140876842 0.0 0.0
-689.2705482529411 -34.17545105110263 -357.08316261966536 -158.52867491311324 0.0 0.0
-722.0067774425631 -46.52832927372535 -380.9429814463738 -158.30975844332878 0.0 0.0
-751.3596080219472 -62.07711509108782 -404.4271167885007 -160.55430778919145 0.0 0.0
-772.4202440020679 -77.79903805917661 -423.96241664855677 -165.6315956133075 0.0 0.0
-781.3020757047591 -91.09020597660086 -436.1965239207713 -173.6509800748417 0.0 0.0
-816.2250477950774 -145.33494247210504 -481.88947086454067 -182.71564366998666 0.0 0.0
-820.1505725403769 -231.86782191774262 -528.8838172199628 -201.71482915889052 0.0 0.0
-820.1505725403592 -231.8678219177547 -528.8838172200409 201.71482915912839 0.0 0.0
-816.2250477951978 -145.33494247235458 -481.88947086471086 182.71564367020193 0.0 0.0
-781.3020757046838 -91.09020597669982 -436.19652392074966 173.6509800751094 0.0 0.0
-772.4202440019664 -77.7990380591562 -423.96241664841386 165.6315956134269 0.0 0.0
-751.3596080215418 -62.07711509077444 -404.42711678827845 160.5543077891649 0.0 0.0
-722.0067774420659 -46.52832927321924 -380.9429814460505 158.3097584432757 0.0 0.0
-689.2705482521475 -34.17545105040621 -357.0831626191968 158.5286749130645 0.0 0.0
-654.8888834977929 -25.750378710358916 -333.48832469681764 161.17194140872795 0.0 0.0
-617.8273953795342 -19.984428911029184 -308.1357174301057 165.4536626883882 0.0 0.0
-575.6370098362759 -16.09378999672066 -278.1482844522942 170.49559220923322 0.0 0.0
-521.0453262615766 -10.754994638213788 -236.4669542224566 177.3576740600037 0.0 0.0
-443.5842886054501 -4.652166646524414 -180.79930175390035 189.37877833511024 0.0 0.0
-335.34462686543367 2.255506437693901 -118.58699357378865 205.00303847831927 0.0 0.0
-226.617067522527 6.34160258653416 -71.20608310753057 211.8802150760015 0.0 0.0
-154.34422414370482 11.656632876512306 -44.129199185197855 203.99787298739756 0.0 0.0
-114.91732195014166 18.044426179086134 -29.359890745688972 192.13631472616675 0.0 0.0
-94.70746964012645 18.64645950041607 -22.868787032629218 186.8350383708175 0.0 0.0
-82.55888177941061 3.5015145976944666 -23.743148941247753 188.39183570125653 0.0 0.0
-66.30376923727715 -51.45123348897931 -35.33013392502827 187.33978953636728 0.0 0.0
-23.95975489559118 -212.98526589533824 -71.08034861931245 128.83419242426837 0.0 0.0
-27.85514350904408 -168.3472976960583 -58.860732361530694 -114.33183742713362 0.0 0.0
-78.82758563466024 -48.670875893372724 -38.24676598749611 -179.68352275554764 0.0 0.0
-111.83096075658243 3.068473113105526 -32.645170286299326 -183.72583175821006 0.0 0.0
-141.82867000516828 18.785272327300223 -36.99973636857112 -180.8054054879044 0.0 0.0
-183.19720505938335 19.813478481030067 -49.59779538982463 -182.15207278737003 0.0 0.0
-249.96991252870833 15.571857803554291 -73.3493939120537 -187.6383305869482 0.0 0.0
-353.42789183055476 11.87162692292548 -117.78013537230943 -185.1414702050048 0.0 0.0
-467.76366794178614 2.4468761853046885 -186.67354190229082 -171.60091240838682 0.0 0.0
-558.8998345774719 -8.529411664300149 -255.28370679077182 -161.96237467256177 0.0 0.0
-625.8341467455397 -18.606015199550967 -307.3682046034619 -156.7527717673662 0.0 0.0
-678.6550410832558 -26.10967485034878 -344.13363470002355 -152.88347050975096 0.0 0.0
-723.7713961212764 -34.23594148536962 -373.690285478329 -148.67797069273607 0.0 0.0
-765.2952260502939 -43.2987308675759 -400.3938917985281 -144.67442420186921 0.0 0.0
-805.5067492491454 -55.01677919956674 -427.08219000130094 -141.9534843187596 0.0 0.0
-845.9184874682937 -71.21688889516469 -455.83096118400977 -141.75678940284487 0.0 0.0
-884.6578976087238 -91.22514654360859 -485.6528533309252 -144.72688731461258 0.0 0.0
-918.9638491377837 -112.78561419424358 -514.0492619164933 -150.61055609509822 0.0 0.0
-957.4907071666046 -145.94196719210188 -550.3044195113605 -157.0881741642714 0.0 0.0
-1000.4430171545723 -195.06236990789935 -596.6815314652906 -162.9963944521451 0.0 0.0
-1095.7691188948813 -328.92561677361596 -710.3850217751462 -170.9273777527355 0.0 0.0
-1095.7691188950598 -328.9256167740657 -710.3850217753395 170.92737775310735 0.0 0.0
-1000.4430171546055 -195.0623699082807 -596.6815314653675 162.9963944525741 0.0 0.0
-957.490707166028 -145.94196719176358 -550.3044195109828 157.0881741645481 0.0 0.0
-918.9638491381078 -112.785614194879 -514.0492619166846 150.6105560953262 0.0 0.0
-884.6578976078233 -91.22514654271302 -485.65285333016527 144.72688731447002 0.0 0.0
-845.9184874684124 -71.21688889555739 -455.83096118408986 141.75678940292858 0.0 0.0
-805.5067492486565 -55.016779199158734 -427.08219000093965 141.95348431872952 0.0 0.0
-765.295226049571 -43.29873086705392 -400.3938917980806 144.6744242019408 0.0 0.0
-723.7713961199871 -34.23594148425433 -373.69028547744927 148.6779706927187 0.0 0.0
-678.6550410828977 -26.109674850195976 -344.13363469973285 152.88347050967528 0.0 0.0
-625.8341467458727 -18.60601520036314 -307.3682046036987 156.75277176743265 0.0 0.0
-558.8998345769893 -8.5294116642112 -255.28370679044136 161.96237467258322 0.0 0.0
-467.76366794079394 2.446876185950427 -186.67354190160398 171.60091240840416 0.0 0.0
-353.4278918300689 11.871626922852563 -117.78013537206307 185.14147020497518 0.0 0.0
-249.96991252834403 15.571857803380542 -73.34939391198057 187.6383305868032 0.0 0.0
-183.19720505920685 19.813478480780216 -49.59779538984847 182.15207278728906 0.0 0.0
-141.82867000493962 18.78527232751346 -36.99973636844403 180.80540548778603 0.0 0.0
-111.83096075646571 3.068473113062882 -32.64517028628321 183.72583175805107 0.0 0.0
-78.82758563451019 -48.67087589326037 -38.24676598741849 179.68352275538507 0.0 0.0
-27.855143509068366 -168.3472976959726 -58.860732361512284 114.33183742697562 0.0 0.0
-29.279884326044648 -127.68118546126834 -47.08832093619389 -99.23105617353468 0.0 0.0
-89.25982978262022 -43.66102519931876 -39.875729463306016 -167.65262517130122 0.0 0.0
-139.25161572296304 2.586207130300168 -41.00634447447777 -174.79186861139695 0.0 0.0
-187.07840834399687 17.892616819336315 -50.896462700268586 -169.9852896690781 0.0 0.0
-248.18209808592792 20.850016038107935 -69.16222582777434 -166.93794187966233 0.0 0.0
-337.5498116486734 20.21811532419249 -102.52855792560628 -164.72334499107248 0.0 0.0
-450.71458166688683 13.666729528878218 -164.1629178430334 -153.15047458780805 0.0 0.0
-552.5409274719098 0.5315955245252937 -241.11674414175505 -142.88120813118837 0.0 0.0
-631.9723570010958 -12.883048528421568 -305.28835297935007 -139.6864338237106 0.0 0.0
-695.5177359027225 -25.239567461302272 -351.87007912475804 -137.91034078167186 0.0 0.0
-749.31493614235 -36.27377773971584 -387.59562921210636 -135.2113022531382 0.0 0.0
-798.6755442173937 -48.29389742202122 -419.6953283384389 -131.61320025267332 0.0 0.0
-844.6976197818562 -60.86589185896665 -449.72547803920554 -127.8070506721364 0.0 0.0
-889.6005470987134 -75.89203533828291 -480.10177473469355 -124.91051024893399 0.0 0.0
-935.1954611428225 -95.31471404059147 -512.850538497726 -124.60257896798275 0.0 0.0
-982.2682452270014 -120.70877333721168 -549.3168933837234 -127.71048155641964 0.0 0.0
-1031.6689422122167 -153.79484495871776 -590.8084810809971 -133.18843633369218 0.0 0.0
-1085.1867124598778 -197.50999855055727 -639.630710546229 -138.36483323700588 0.0 0.0
-1155.6851992777447 -268.3578762230467 -710.160604629728 -139.96035570351458 0.0 0.0
-1251.275172098739 -392.45812085736213 -819.8284932547609 -142.46065691136477 0.0 0.0
-1251.275172099356 -392.4581208581479 -819.8284932552468 142.4606569116154 0.0 0.0
-1155.6851992780414 -268.35787622360056 -710.1606046299652 139.9603557038365 0.0 0.0
-1085.1867124589548 -197.5099985497315 -639.6307105455537 138.36483323712196 0.0 0.0
-1031.668942212101 -153.79484495886064 -590.8084810809322 133.18843633395218 0.0 0.0
-982.2682452260962 -120.70877333634937 -549.3168933831005 127.71048155629468 0.0 0.0
-935.1954611422514 -95.3147140400873 -512.8505384973648 124.60257896791245 0.0 0.0
-889.6005470990071 -75.89203533872688 -480.1017747348801 124.91051024892329 0.0 0.0
-844.697619781906 -60.86589185927169 -449.7254780392062 127.80705067225747 0.0 0.0
-798.6755442171404 -48.293897422045674 -419.695328338288 131.61320025272994 0.0 0.0
-749.314936142385 -36.27377774002663 -387.5956292121475 135.2113022531162 0.0 0.0
-695.5177359025105 -25.239567461389363 -351.87007912459 137.9103407816559 0.0 0.0
-631.9723570006959 -12.883048528407059 -305.28835297907153 139.68643382375015 0.0 0.0
-552.5409274717402 0.5315955241404069 -241.11674414158108 142.88120813133636 0.0 0.0
-450.7145816666559 13.666729528447497 -164.16291784290277 153.15047458787808 0.0 0.0
-337.5498116479031 20.21811532470974 -102.52855792517306 164.72334499091852 0.0 0.0
-248.18209808547283 20.85001603845153 -69.162225827546 166.93794187944349 0.0 0.0
-187.0784083437401 17.892616819446275 -50.896462700163475 169.98528966891354 0.0 0.0
-139.2516157229313 2.5862071301611502 -41.006344474516226 174.79186861117913 0.0 0.0
-89.25982978261338 -43.66102519947492 -39.875729463350986 167.65262517117102 0.0 0.0
-29.27988432605826 -127.6811854612147 -47.08832093618187 99.23105617347917 0.0 0.0
-30.125411491457854 -91.62540854708726 -36.52524601156353 -83.74355951530099 0.0 0.0
-98.4908698016273 -36.98547382076792 -40.64290308671856 -151.61249615613082 0.0 0.0
-164.9054328201117 2.1744581442857625 -48.820135997620895 -161.38317018004534 0.0 0.0
-230.661229519796 16.21310344853068 -64.4362433859842 -154.85359877501224 0.0 0.0
-309.83548116908435 22.197376339908804 -88.08880924804788 -147.49683535990664 0.0 0.0
-413.91871339137253 22.627064126518256 -133.29911067573363 -136.3193497103491 0.0 0.0
-522.2176789539869 12.98302347059191 -206.98143372259997 -122.87329999808517 0.0 0.0
-612.2764618939198 -1.4584845053256714 -282.606823521251 -118.5792758119534 0.0 0.0
-685.7102072142524 -16.636786987831584 -340.3112860442584 -119.13197316200048 0.0 0.0
-748.5529023747242 -31.07067113860606 -383.97477692786276 -119.03202930278752 0.0 0.0
-805.8200198864804 -46.179519533829506 -422.00331354499593 -117.11051409209085 0.0 0.0
-859.3439518623481 -62.23234885835586 -457.653129266052 -113.99294088873133 0.0 0.0
-909.778207620916 -78.77081629270185 -491.66575586500926 -110.51322729643309 0.0 0.0
-958.6367313174785 -96.6595745055065 -525.3527716850765 -107.6072939057749 0.0 0.0
-1009.2418502785384 -119.33606991355819 -562.1334229781733 -106.91098449505121 0.0 0.0
-1064.849452736165 -151.38425523043978 -606.055150457574 -109.43205047440996 0.0 0.0
-1127.5952821662395 -195.08944281360831 -659.4050156441331 -114.3170774355228 0.0 0.0
-1199.4645059149625 -254.67264110983874 -725.173435142292 -118.13663049638086 0.0 0.0
-1282.0894034744624 -336.68662960418726 -807.4541194272074 -118.6703359838879 0.0 0.0
-1366.8558992800176 -447.65250838142873 -905.3851418403709 -122.2039183199478 0.0 0.0
-1366.8558992796814 -447.6525083812374 -905.3851418401584 122.2039183202271 0.0 0.0
-1282.0894034752932 -336.68662960524 -807.4541194278205 118.6703359842547 0.0 0.0
-1199.4645059156546 -254.67264111067186 -725.1734351428017 118.13663049648787 0.0 0.0
-1127.595282165858 -195.0894428133579 -659.4050156438467 114.31707743568779 0.0 0.0
-1064.8494527364494 -151.38425523092886 -606.0551504577159 109.43205047452672 0.0 0.0
-1009.2418502786668 -119.33606991393694 -562.1334229782215 106.91098449525154 0.0 0.0
-958.6367313165573 -96.65957450471558 -525.3527716844276 107.60729390569053 0.0 0.0
-909.7782076205165 -78.770816292472 -491.6657558647421 110.51322729643226 0.0 0.0
-859.3439518619957 -62.23234885834141 -457.6531292659019 113.99294088889317 0.0 0.0
-805.8200198856912 -46.179519533132 -422.00331354443045 117.11051409185309 0.0 0.0
-748.5529023749343 -31.070671139119273 -383.9747769279743 119.03202930280062 0.0 0.0
-685.7102072139619 -16.63678698793465 -340.3112860440923 119.13197316209715 0.0 0.0
-612.2764618931906 -1.4584845048275419 -282.6068235206959 118.5792758118083 0.0 0.0
-522.2176789530506 12.983023471216748 -206.98143372191342 122.87329999804456 0.0 0.0
-413.91871339072515 22.62706412683032 -133.29911067531216 136.31934971019075 0.0 0.0
-309.83548116891706 22.19737633960626 -88.08880924807912 147.49683535978772 0.0 0.0
-230.6612295197569 16.213103448154268 -64.43624338609098 154.85359877484387 0.0 0.0
-164.90543282005925 2.174458144151377 -48.82013599765 161.38317017985514 0.0 0.0
-98.49086980152161 -36.98547382073483 -40.64290308667693 151.61249615603688 0.0 0.0
-30.125411491414752 -91.62540854702227 -36.5252460115311 83.74355951519424 0.0 0.0
-30.885395133333887 -60.70187304781413 -27.476180454344405 -67.82739383920378 0.0 0.0
-106.93757571787432 -29.221938499583807 -40.84785426523743 -131.97982844093124 0.0 0.0
-189.05931269269303 1.7240670874098125 -56.198386575764474 -143.6141250432754 0.0 0.0
-271.5068837841226 13.863541258581877 -77.46951865301673 -135.35676770708187 0.0 0.0
-366.9629357705177 23.753653532433876 -107.05934755850967 -123.81929591782082 0.0 0.0
-477.1252512707209 22.42040363534137 -165.10241084412218 -106.55268355467365 0.0 0.0
-575.6656054090495 11.973513756506357 -243.8095176733543 -96.38084140300792 0.0 0.0
-657.044232705387 -3.563179239670859 -313.8253100676525 -96.46334607562618 0.0 0.0
-727.5356429340629 -19.274832397190096 -365.8597141290519 -98.91632547515013 0.0 0.0
-792.3970332695599 -36.70303893103002 -410.00406691337537 -99.66851024714337 0.0 0.0
-853.5130052007579 -55.84583779854388 -451.3071544553481 -98.28800234467883 0.0 0.0
-911.3486221474852 -76.1090403327087 -490.9803058737284 -95.72945103905332 0.0 0.0
-966.3938372864836 -96.78183063486117 -529.2714102488584 -92.83856095361368 0.0 0.0
-1019.2364359560735 -118.13400264011364 -566.6460495046526 -90.00344322197697 0.0 0.0
-1074.0545713680217 -143.84395460218053 -606.9959629122479 -88.61051573664125 0.0 0.0
-1137.6774997129164 -181.6643968586052 -657.7082030226702 -90.12181990544988 0.0 0.0
-1213.3310128856103 -236.86771982365048 -723.1461762307554 -94.0200005458459 0.0 0.0
-1300.181350326579 -310.58734725998 -803.4565174730662 -97.68521889645218 0.0 0.0
-1389.3628823108943 -399.35748928532894 -892.4804691063932 -100.01229553480043 0.0 0.0
-1467.676755469048 -502.5469372115057 -983.401260574107 -107.09342613664361 0.0 0.0
-1467.6767554682797 -502.54693721079116 -983.4012605736386 107.09342613674036 0.0 0.0
-1389.362882311691 -399.35748928625685 -892.4804691069128 100.01229553507713 0.0 0.0
-1300.1813503266112 -310.58734726014586 -803.4565174730685 97.68521889662188 0.0 0.0
-1213.331012884389 -236.86771982251562 -723.1461762298268 94.02000054590403 0.0 0.0
-1137.67749971262 -181.66439685847854 -657.7082030223661 90.12181990559263 0.0 0.0
-1074.0545713672875 -143.84395460163546 -606.9959629116754 88.61051573676659 0.0 0.0
-1019.2364359552621 -118.13400263946251 -566.6460495040255 90.00344322200249 0.0 0.0
-966.3938372854833 -96.78183063403368 -529.2714102481912 92.83856095359303 0.0 0.0
-911.3486221477199 -76.10904033322711 -490.98030587395164 95.72945103915882 0.0 0.0
-853.5130052010348 -55.84583779904983 -451.3071544555443 98.288002344594 0.0 0.0
-792.3970332693049 -36.70303893101981 -410.00406691324343 99.66851024705699 0.0 0.0
-727.5356429342323 -19.274832397742436 -365.8597141291563 98.91632547530554 0.0 0.0
-657.0442327053316 -3.5631792400135502 -313.8253100675453 96.4633460756897 0.0 0.0
-575.6656054089873 11.973513756120013 -243.8095176731899 96.38084140304119 0.0 0.0
-477.1252512701462 22.420403635546396 -165.102410843722 106.55268355458443 0.0 0.0
-366.9629357701217 23.75365353242255 -107.05934755836691 123.81929591769561 0.0 0.0
-271.50688378380994 13.86354125876827 -77.46951865287738 135.356767706963 0.0 0.0
-189.0593126923704 1.7240670878244448 -56.198386575544134 143.61412504321504 0.0 0.0
-106.93757571776223 -29.221938499450363 -40.847854265163775 131.97982844090137 0.0 0.0
-30.88539513327591 -60.701873047685964 -27.47618045428856 67.82739383907995 0.0 0.0
-31.430394832118942 -35.38177376839223 -20.04365058015335 -51.42380067143429 0.0 0.0
-114.44873582335086 -20.9198838126786 -40.610585890808835 -109.14749699416552 0.0 0.0
-211.94796866148766 1.136912583120398 -63.24280834374622 -121.47792182649503 0.0 0.0
-311.3018150590684 11.735650073026061 -90.0990155805583 -112.26786199850228 0.0 0.0
-420.9268610230997 24.239290106700107 -127.38798361564443 -96.45255378331235 0.0 0.0
-527.0405965885768 21.339127670971838 -195.8144527380219 -78.31426501515965 0.0 0.0
-614.664935364093 9.830375049940876 -274.1252258673147 -72.80937612752118 0.0 0.0
-691.3899402884166 -4.246692560264421 -336.33123750923875 -75.36943272040656 0.0 0.0
-762.2174187245798 -21.55289953881315 -386.1797939299456 -78.45421361610863 0.0 0.0
-829.8280320376198 -42.3210872073297 -432.2593238098824 -79.6059477448435 0.0 0.0
-894.660924432578 -65.21800285117655 -476.9690476882642 -78.73073965123591 0.0 0.0
-957.0361105991615 -89.70960731506983 -520.9047019621596 -76.79906309444961 0.0 0.0
-1016.8747468897393 -114.93430042814467 -563.7902614275065 -74.56300719477278 0.0 0.0
-1074.9719661985341 -140.8013546842406 -606.0272618692376 -72.13535066813435 0.0 0.0
-1133.8608245705632 -169.67912508258868 -649.9995338054737 -70.01693212520952 0.0 0.0
-1201.8519750500204 -211.0404790035738 -704.5872238551146 -69.82982443654541 0.0 0.0
-1288.562221475388 -275.76067034100845 -780.2166217257816 -72.74614338606877 0.0 0.0
-1388.2476414902922 -361.5652817498054 -872.9984798806744 -77.4212025670403 0.0 0.0
-1486.2877755750496 -459.29051868660946 -970.9774262474591 -83.1545119979756 0.0 0.0
-1563.719915507076 -560.7028001758542 -1060.6146027538286 -94.89742437572356 0.0 0.0
-1563.719915507476 -560.7028001763205 -1060.6146027541477 94.89742437584346 0.0 0.0
-1486.287775574513 -459.29051868610907 -970.9774262470887 83.15451199806267 0.0 0.0
-1388.2476414905582 -361.5652817502258 -872.9984798808425 77.4212025673107 0.0 0.0
-1288.5622214772309 -275.7606703429777 -780.216621727061 72.74614338611477 0.0 0.0
-1201.8519750498874 -211.040479003609 -704.5872238550712 69.82982443671196 0.0 0.0
-1133.8608245698717 -169.67912508201763 -649.9995338049852 70.01693212514024 0.0 0.0
-1074.9719661987313 -140.8013546846281 -606.0272618693132 72.13535066818034 0.0 0.0
-1016.8747468893118 -114.93430042787534 -563.7902614271263 74.56300719468213 0.0 0.0
-957.0361105985565 -89.70960731466967 -520.9047019616863 76.79906309439785 0.0 0.0
-894.6609244315755 -65.21800285035667 -476.96904768756076 78.73073965108514 0.0 0.0
-829.8280320365982 -42.32108720654822 -432.25932380915265 79.60594774476489 0.0 0.0
-762.2174187241028 -21.552899538603732 -386.1797939296037 78.4542136160641 0.0 0.0
-691.3899402883885 -4.246692560582822 -336.33123750915297 75.36943272044627 0.0 0.0
-614.6649353640995 9.830375049542344 -274.12522586721354 72.80937612748603 0.0 0.0
-527.0405965880493 21.339127671135138 -195.81445273761582 78.31426501513778 0.0 0.0
-420.92686102254135 24.239290106888433 -127.38798361536749 96.45255378326031 0.0 0.0
-311.3018150587136 11.735650073103924 -90.09901558044625 112.267861998454 0.0 0.0
-211.94796866120853 1.136912583298117 -63.242808343609795 121.47792182648409 0.0 0.0
-114.44873582333751 -20.91988381269728 -40.610585890810434 109.14749699400326 0.0 0.0
-31.430394832038544 -35.38177376828648 -20.043650580097506 51.423800671361704 0.0 0.0
-31.137608838067024 -16.112532053507834 -14.175042267472456 -34.65505828607137 0.0 0.0
-120.18807273346209 -12.539896784255264 -39.81839085531521 -83.32999108833484 0.0 0.0
-233.9280030854237 0.12545010887366637 -70.14076589296499 -94.90674133445681 0.0 0.0
-350.82251837209185 10.973566961356337 -102.35418538561854 -85.56455189196367 0.0 0.0
-468.29363517159027 23.568365043933554 -149.16612766843002 -67.14782001757283 0.0 0.0
-566.081215857511 18.849512345686833 -225.0109933253529 -53.12521043172989 0.0 0.0
-645.9267142670855 8.415857382632183 -298.1891293435182 -51.325391944410335 0.0 0.0
-719.3859926277657 -4.450763307776171 -353.5522010540959 -54.34103018460519 0.0 0.0
-791.3926294421319 -23.91688420645886 -403.0505205191299 -57.48571162744853 0.0 0.0
-861.9378763801483 -47.73540086403713 -451.50623749810944 -58.84569269479691 0.0 0.0
-930.7458333873512 -74.36544955984283 -499.877381744912 -58.43550855268753 0.0 0.0
-997.4942114143296 -102.97576150049957 -547.9805482759473 -57.119937472127724 0.0 0.0
-1062.7364476509824 -132.93852474721123 -595.8766960418602 -55.623785824266115 0.0 0.0
-1126.6924092808383 -164.51917960230634 -643.8595580172941 -53.7629430619017 0.0 0.0
-1190.865280175508 -198.3647261433309 -692.9820760162606 -51.371154306907115 0.0 0.0
-1260.8928024431564 -240.73487906946733 -749.1156803118587 -49.434368934459684 0.0 0.0
-1348.9565279573212 -305.8453027008999 -825.512376929886 -50.717823719342405 0.0 0.0
-1463.8473530656809 -405.8892675204959 -932.9601233360956 -56.708459650229685 0.0 0.0
-1576.2859846544582 -517.2236749881256 -1045.0022681642902 -66.90977272620161 0.0 0.0
-1663.3665433223237 -626.6876322048257 -1143.5125851209689 -84.23437692040407 0.0 0.0
-1663.366543322616 -626.6876322051335 -1143.5125851211892 84.23437692040041 0.0 0.0
-1576.2859846546603 -517.2236749883682 -1045.0022681644023 66.90977272618974 0.0 0.0
-1463.847353065128 -405.8892675200408 -932.9601233356175 56.70845965039591 0.0 0.0
-1348.9565279577805 -305.8453027014665 -825.512376930122 50.71782371933132 0.0 0.0
-1260.892802442938 -240.7348790693861 -749.1156803116191 49.434368934566145 0.0 0.0
-1190.8652801755563 -198.36472614350504 -692.9820760162193 51.371154306817296 0.0 0.0
-1126.6924092810443 -164.51917960271513 -643.8595580174263 53.76294306205516 0.0 0.0
-1062.73644765054 -132.93852474696368 -595.8766960415701 55.62378582428215 0.0 0.0
-997.4942114138829 -102.97576150027471 -547.9805482756436 57.11993747209699 0.0 0.0
-930.7458333873417 -74.36544956006642 -499.87738174490374 58.435508552598776 0.0 0.0
-861.9378763806506 -47.73540086483394 -451.5062374984266 58.84569269484305 0.0 0.0
-791.3926294417745 -23.91688420637987 -403.050520518911 57.485711627418254 0.0 0.0
-719.3859926275009 -4.450763307803932 -353.5522010539144 54.34103018454217 0.0 0.0
-645.9267142671854 8.415857382154279 -298.18912934349083 51.32539194442266 0.0 0.0
-566.0812158569795 18.849512345873784 -225.01099332491572 53.125210431808625 0.0 0.0
-468.29363517112785 23.568365043999194 -149.1661276681638 67.14782001755033 0.0 0.0
-350.82251837196935 10.973566960773967 -102.35418538577626 85.56455189195556 0.0 0.0
-233.92800308536147 0.1254501085953028 -70.14076589302985 94.90674133430734 0.0 0.0
-120.1880727333703 -12.539896784240316 -39.818390855283184 83.32999108828787 0.0 0.0
-31.137608838019517 -16.112532053517977 -14.175042267461246 34.65505828611407 0.0 0.0
-28.703608401141008 -3.267569447358028 -9.59135335454971 -18.037761696983928 0.0 0.0
-122.44313454516545 -4.684262634179875 -38.13821915380359 -54.49307850803075 0.0 0.0
-255.38471476301106 -1.1776190270301052 -76.96870013701235 -63.39009270875597 0.0 0.0
-391.84443128003187 11.59215736277445 -115.09567779337655 -55.3434320023738 0.0 0.0
-507.4868817719545 22.462639918679137 -171.70335338727182 -38.89325028360284 0.0 0.0
-594.6483253511688 15.144141349302664 -251.17954116775024 -30.46531057514199 0.0 0.0
-670.2935072471522 8.413099867557762 -315.8755958078536 -30.744530203016346 0.0 0.0
-742.6953656935646 -5.251609651017887 -367.6162886909774 -33.33177838748482 0.0 0.0
-815.6994999252995 -26.121278356519568 -417.03056768446584 -35.982653056823935 0.0 0.0
-889.3824560512323 -52.909504685855694 -468.1702806072706 -37.34256367728998 0.0 0.0
-962.3129200577212 -83.30460721983394 -520.3647799935629 -37.381293524519876 0.0 0.0
-1033.865337340843 -115.8925263187532 -572.7966639470673 -36.7184008257257 0.0 0.0
-1104.3228147050083 -150.94401018536678 -625.7955726121182 -35.832876747292396 0.0 0.0
-1174.8617975968068 -188.50571966528332 -680.0151579490717 -34.673076200794966 0.0 0.0
-1246.1286903398407 -229.15489820720177 -736.0859529033246 -32.78561178853198 0.0 0.0
-1318.9813674488619 -274.2853787567088 -795.0993439419533 -30.032382522618768 0.0 0.0
-1400.0964434956286 -331.93943714386734 -864.3276201334743 -28.737245161617786 0.0 0.0
-1507.4889936472541 -423.06158448766007 -963.3481991160486 -34.23828577013978 0.0 0.0
-1666.9979572339703 -579.1175546984032 -1121.2784458400854 -49.46523294547685 0.0 0.0
-1776.0516411860772 -708.0045036740205 -1240.5880838488931 -74.1326434386122 0.0 0.0
-1776.051641185908 -708.004503673892 -1240.5880838486992 74.13264343865278 0.0 0.0
-1666.9979572337697 -579.1175546982431 -1121.2784458399929 49.465232945480665 0.0 0.0
-1507.4889936475736 -423.0615844880713 -963.3481991163135 34.23828577025263 0.0 0.0
-1400.096443495523 -331.9394371438689 -864.3276201333532 28.737245161643255 0.0 0.0
-1318.9813674484394 -274.2853787564251 -795.0993439415273 30.032382522690956 0.0 0.0
-1246.1286903387108 -229.15489820622085 -736.0859529023666 32.78561178857489 0.0 0.0
-1174.861797595724 -188.50571966436513 -680.0151579482895 34.67307620078507 0.0 0.0
-1104.3228147044147 -150.94401018498178 -625.7955726116993 35.83287674731731 0.0 0.0
-1033.8653373408415 -115.89252631898152 -572.7966639469821 36.71840082566751 0.0 0.0
-962.3129200570415 -83.30460721938246 -520.3647799930245 37.381293524414154 0.0 0.0
-889.3824560504647 -52.90950468534362 -468.1702806067551 37.342563677314644 0.0 0.0
-815.6994999249246 -26.121278356456187 -417.03056768419975 35.982653056914025 0.0 0.0
-742.6953656933226 -5.251609651080699 -367.61628869077737 33.33177838744474 0.0 0.0
-670.2935072464384 8.413099867982972 -315.8755958073387 30.74453020291152 0.0 0.0
-594.6483253504529 15.144141349706999 -251.1795411671803 30.46531057508367 0.0 0.0
-507.48688177149967 22.46263991878365 -171.70335338695998 38.893250283636156 0.0 0.0
-391.8444312796212 11.592157362722812 -115.09567779328626 55.34343200246704 0.0 0.0
-255.38471476292088 -1.1776190272110565 -76.96870013703958 63.3900927086535 0.0 0.0
-122.44313454492206 -4.684262634038962 -38.1382191536883 54.49307850778735 0.0 0.0
-28.70360840111099 -3.2675694473573604 -9.591353354540503 18.037761696915602 0.0 0.0
-21.634089585957316 2.898734639295021 -5.620606483998688 -2.845955387759541 0.0 0.0
-118.13196324073283 1.8075598466018157 -34.8973210182393 -22.079646439978102 0.0 0.0
-277.4221946931263 -2.3599443872509216 -83.93464172411318 -25.855472840879536 0.0 0.0
-432.04605628544573 13.737709624323475 -129.0700621134347 -22.31919321981989 0.0 0.0
-540.5165031141089 19.996899077886248 -195.2808497282083 -13.243806908214964 0.0 0.0
-619.5280881947232 13.179475069194005 -273.05921416137534 -10.129457868570505 0.0 0.0
-690.2776736315592 7.770296805837148 -330.02562813240377 -10.574682772392002 0.0 0.0
-761.7218162845522 -6.125270189745692 -378.90026346341983 -12.247072752109712 0.0 0.0
-835.9624233767511 -28.40389960667588 -428.83647490165583 -13.970832178425592 0.0 0.0
-912.6659886752054 -57.79778035971037 -482.54583284943595 -15.094478857095499 0.0 0.0
-989.90075228865 -91.76579156173491 -538.5768609890442 -15.55120277578946 0.0 0.0
-1066.311559703532 -129.0355473798474 -595.7322255485897 -15.494284002582654 0.0 0.0
-1142.3171854118677 -168.75464981376234 -653.8031900145513 -15.263110896459885 0.0 0.0
-1219.2421517454823 -212.01925468616244 -714.0299415100897 -14.785128902885894 0.0 0.0
-1297.9251339745747 -259.8692183232952 -777.3872986318174 -13.775786149163554 0.0 0.0
-1377.43965075545 -311.84529087018524 -843.1920555866361 -11.903248447361216 0.0 0.0
-1455.3516987170192 -366.51504638121514 -909.4734640209269 -9.356711757036718 0.0 0.0
-1536.6822029535656 -430.6753975211086 -982.0271133575022 -10.358981863293302 0.0 0.0
-1656.8486617853969 -543.6164739587191 -1098.2414253703837 -26.18194839473853 0.0 0.0
-1978.1463716530507 -878.4800998371933 -1426.882935782414 -61.19853210005235 0.0 0.0
-1978.1463716536095 -878.4800998377116 -1426.882935782861 61.19853209989315 0.0 0.0
-1656.8486617851918 -543.6164739585645 -1098.2414253703132 26.181948394736164 0.0 0.0
-1536.682202953116 -430.6753975207347 -982.0271133571589 10.358981863241628 0.0 0.0
-1455.351698715791 -366.5150463800841 -909.4734640199068 9.35671175698274 0.0 0.0
-1377.439650754595 -311.845290869463 -843.1920555860916 11.903248447437242 0.0 0.0
-1297.9251339745147 -259.8692183233879 -777.3872986317908 13.775786149227889 0.0 0.0
-1219.2421517457046 -212.019254686573 -714.0299415101559 14.785128902911413 0.0 0.0
-1142.3171854107559 -168.7546498128476 -653.8031900137216 15.263110896513595 0.0 0.0
-1066.3115597022318 -129.03554737878474 -595.7322255476846 15.49428400255525 0.0 0.0
-989.9007522882788 -91.76579156160379 -538.5768609887207 15.551202775759402 0.0 0.0
-912.6659886746678 -57.79778035945236 -482.5458328489819 15.094478857163052 0.0 0.0
-835.9624233760122 -28.403899606192027 -428.8364749011452 13.970832178404805 0.0 0.0
-761.7218162835514 -6.12527018902901 -378.9002634627931 12.247072751997944 0.0 0.0
-690.2776736307586 7.770296806340831 -330.02562813186813 10.574682772212096 0.0 0.0
-619.5280881944329 13.179475069177776 -273.05921416111147 10.129457868498555 0.0 0.0
-540.5165031137096 19.996899077971076 -195.28084972788992 13.243806908183611 0.0 0.0
-432.04605628484717 13.737709624665607 -129.07006211314456 22.31919321980483 0.0 0.0
-277.42219469280536 -2.3599443868937406 -83.93464172390972 25.855472840747165 0.0 0.0
-118.13196324055107 1.8075598467163108 -34.89732101815043 22.079646439879895 0.0 0.0
-21.634089585884226 2.8987346393396902 -5.6206064839633605 2.8459553877467303 0.0 0.0
SCALARS Strain float 6
LOOKUP_TABLE default
0.012085625040730377 -0.01315349702308441 0.0 -0.007292141618186587 0.0 0.0
0.0024752471329812058 -0.0015784805957012593 0.0 0.0012210752694273297 0.0 0.0
0.0018396231248546044 -0.0007522114792050116 0.0 -3.925514073094272e-05 0.0 0.0
0.002347990375480148 -0.001147888678436515 0.0 -0.0002231131227497518 0.0 0.0
0.0036989129833373824 -0.0022466257164177605 0.0 -0.00028605126652747614 0.0 0.0
0.00648135375498398 -0.004728940394310932 0.0 -0.00044202137165061384 0.0 0.0
0.011002621114871406 -0.008980411872646865 0.0 -0.0007109532929622242 0.0 0.0
0.017561792279459594 -0.015268936699988078 0.0 -0.0011274311161577066 0.0 0.0
0.02631256748501588 -0.023726884713306973 0.0 -0.0017078026603633 0.0 0.0
0.037233060165873536 -0.034328487057680324 0.0 -0.0024029476333676802 0.0 0.0
0.050194364097580345 -0.046954737986195205 0.0 -0.0031248252989478087 0.0 0.0
0.0650416421836231 -0.06145845501137215 0.0 -0.0038309821551714973 0.0 0.0
0.08162167165153664 -0.0776899015777004 0.0 -0.004527982762074806 0.0 0.0
0.09975106303719676 -0.09546134648534821 0.0 -0.005211105145563361 0.0 0.0
0.11909499552926514 -0.11443408126825183 0.0 -0.005851592054834653 0.0 0.0
0.13902675224213543 -0.1339847632240394 0.0 -0.006322957159169584 0.0 0.0
0.15856670067676465 -0.15314619153046216 0.0 -0.006395861947931736 0.0 0.0
0.17641941031763295 -0.17063689442103547 0.0 -0.00584506762950876 0.0 0.0
0.19103742319039818 -0.1849140246882537 0.0 -0.004935214337753457 0.0 0.0
0.2002022195472249 -0.19356758783313577 0.0 -0.0055855152465850155 0.0 0.0
0.20020221954721285 -0.19356758783312156 0.0 0.005585515246596895 0.0 0.0
0.1910374231903556 -0.18491402468821105 0.0 0.0049352143377738855 0.0 0.0
0.17641941031756375 -0.17063689442096797 0.0 0.005845067629521639 0.0 0.0
0.1585667006766787 -0.15314619153037556 0.0 0.006395861947938841 0.0 0.0
0.13902675224204344 -0.13398476322394837 0.0 0.006322957159159204 0.0 0.0
0.11909499552917019 -0.11443408126815768 0.0 0.005851592054834431 0.0 0.0
0.09975106303710118 -0.09546134648525495 0.0 0.005211105145564998 0.0 0.0
0.08162167165144119 -0.07768990157761113 0.0 0.004527982762075999 0.0 0.0
0.06504164218353331 -0.061458455011280666 0.0 0.003830982155161755 0.0 0.0
0.050194364097499555 -0.04695473798611349 0.0 0.0031248252989442005 0.0 0.0
0.037233060165804355 -0.034328487057618595 0.0 0.002402947633357355 0.0 0.0
0.026312567484964466 -0.023726884713257013 0.0 0.001707802660359914 0.0 0.0
0.017561792279421062 -0.015268936699950997 0.0 0.0011274311161548756 0.0 0.0
0.011002621114844346 -0.008980411872623328 0.0 0.0007109532929605589 0.0 0.0
0.006481353754968944 -0.004728940394297387 0.0 0.00044202137164811584 0.0 0.0
0.003698912983330749 -0.0022466257164125425 0.0 0.00028605126652647694 0.0 0.0
0.0023479903754778375 -0.0011478886784356268 0.0 0.0002231131227501959 0.0 0.0
0.0018396231248534178 -0.0007522114792065104 0.0 3.9255140731275784e-05 0.0 0.0
0.0024752471329796966 -0.0015784805956989834 0.0 -0.0012210752694232219 0.0 0.0
0.012085625040719306 -0.013153497023069987 0.0 0.007292141618152337 0.0 0.0
0.008604856300263412 -0.01005134158778681 0.0 -0.008822117751480674 0.0 0.0
0.0013388406346376905 -0.0007944122081129934 0.0 0.00012952075855993117 0.0 0.0
0.0015709612944270063 -0.0005573437885082466 0.0 -0.0001278376024494432 0.0 0.0
0.0020564707247953534 -0.0009550722413578239 0.0 -0.00048094502998558 0.0 0.0
0.0031348702843309872 -0.0017844737998722326 0.0 -0.000640476257103062 0.0 0.0
0.005519446300320953 -0.0038573814764342185 0.0 -0.0010226151840135866 0.0 0.0
0.0095551635092474 -0.007602446837212007 0.0 -0.0017018081132221252 0.0 0.0
0.015488802849633457 -0.013258318106453837 0.0 -0.0026931820823195562 0.0 0.0
0.023419448154707964 -0.020902434287433103 0.0 -0.004003602773539727 0.0 0.0
0.03327855970402724 -0.030459026325431182 0.0 -0.005517297199856719 0.0 0.0
0.04491779914557306 -0.041787274251762874 0.0 -0.007065820311858206 0.0 0.0
0.05820511445129439 -0.05475994161038322 0.0 -0.008552004646929845 0.0 0.0
0.07304558632846178 -0.06928021152497887 0.0 -0.010035431916495807 0.0 0.0
0.08930189911779257 -0.08520825907906326 0.0 -0.011532307654017304 0.0 0.0
0.10668884758836926 -0.10225763268786547 0.0 -0.012938949452281412 0.0 0.0
0.12467548117982838 -0.11989932265249603 0.0 -0.014002325459296694 0.0 0.0
0.14241628189332817 -0.13729314932360204 0.0 -0.014277294976153876 0.0 0.0
0.15872954673644457 -0.1532608098628785 0.0 -0.013409001076486127 0.0 0.0
0.1719896485426297 -0.16613999238541588 0.0 -0.011615279674318857 0.0 0.0
0.17998715204260937 -0.173845786639105 0.0 -0.008707446793197016 0.0 0.0
0.1799871520425979 -0.1738457866390961 0.0 0.00870744679322022 0.0 0.0
0.1719896485425902 -0.16613999238538657 0.0 0.011615279674357937 0.0 0.0
0.15872954673638415 -0.15326080986281942 0.0 0.01340900107651355 0.0 0.0
0.1424162818932529 -0.13729314932352876 0.0 0.014277294976164923 0.0 0.0
0.12467548117974717 -0.11989932265242276 0.0 0.014002325459284815 0.0 0.0
0.10668884758828362 -0.1022576326877811 0.0 0.012938949452278914 0.0 0.0
0.08930189911770689 -0.08520825907898155 0.0 0.011532307654014584 0.0 0.0
0.07304558632837632 -0.06928021152489539 0.0 0.010035431916490478 0.0 0.0
0.05820511445121457 -0.05475994161030329 0.0 0.008552004646916966 0.0 0.0
0.04491779914550048 -0.041787274251695816 0.0 0.007065820311847881 0.0 0.0
0.033278559703965926 -0.030459026325371674 0.0 0.005517297199841731 0.0 0.0
0.023419448154661238 -0.02090243428738492 0.0 0.004003602773530512 0.0 0.0
0.015488802849598748 -0.013258318106423639 0.0 0.002693182082312895 0.0 0.0
0.009555163509222864 -0.00760244683718847 0.0 0.001701808113218517 0.0 0.0
0.005519446300307929 -0.0038573814764195635 0.0 0.001022615184009923 0.0 0.0
0.003134870284325686 -0.001784473799869235 0.0 0.0006404762571016187 0.0 0.0
0.0020564707247939795 -0.000955072241358601 0.0 0.0004809450299823048 0.0 0.0
0.001570961294426465 -0.0005573437885094679 0.0 0.0001278376024493877 0.0 0.0
0.001338840634637961 -0.0007944122081116056 0.0 -0.00012952075855943157 0.0 0.0
0.008604856300249597 -0.010051341587771198 0.0 0.008822117751452585 0.0 0.0
0.006383721806197028 -0.007996576160991642 0.0 -0.008184566821147155 0.0 0.0
0.000786149343412805 -0.0005199622213654109 0.0 -0.0005796397605231096 0.0 0.0
0.0012583849033263733 -0.0004095096836959078 0.0 -0.00043773760207843626 0.0 0.0
0.0017795855120341653 -0.0007798228742267321 0.0 -0.000724822505124012 0.0 0.0
0.002633446689180266 -0.001399921528609127 0.0 -0.0009466879302387765 0.0 0.0
0.0045962709929037796 -0.003043574668154525 0.0 -0.0014528476727924677 0.0 0.0
0.008119360720926089 -0.0062491070815802185 0.0 -0.002433474954763093 0.0 0.0
0.013392514667776842 -0.01123866461386358 0.0 -0.0038939578692140375 0.0 0.0
0.020471055315758928 -0.018035029827127236 0.0 -0.005779369276370405 0.0 0.0
0.029248183390235938 -0.026526934574396144 0.0 -0.007924397266228178 0.0 0.0
0.03956208998441791 -0.03655396376970321 0.0 -0.0101168408038812 0.0 0.0
0.05129461636004655 -0.04799877518047513 0.0 -0.012230992098850813 0.0 0.0
0.06438305532840646 -0.06079594643818664 0.0 -0.014317944307884467 0.0 0.0
0.07874397498288847 -0.07485962909652955 0.0 -0.016439119057995888 0.0 0.0
0.09416058422413376 -0.0899734136655157 0.0 -0.018469390699757116 0.0 0.0
0.11020547450045447 -0.1057096166561351 0.0 -0.020034127365131438 0.0 0.0
0.12617053560083652 -0.1213581232493759 0.0 -0.020590148100516847 0.0 0.0
0.14096834627199012 -0.13581944937781776 0.0 -0.01965158837316816 0.0 0.0
0.1530213283281452 -0.14754409025390114 0.0 -0.016731884382255924 0.0 0.0
0.16052177523016511 -0.1548072616630174 0.0 -0.010935032006602396 0.0 0.0
0.1605217752301546 -0.15480726166300363 0.0 0.010935032006643142 0.0 0.0
0.1530213283281095 -0.14754409025386384 0.0 0.01673188438231099 0.0 0.0
0.1409683462719364 -0.13581944937776624 0.0 0.019651588373206352 0.0 0.0
0.12617053560077152 -0.12135812324930972 0.0 0.020590148100533834 0.0 0.0
0.11020547450038265 -0.10570961665606005 0.0 0.020034127365120002 0.0 0.0
0.09416058422405801 -0.08997341366544376 0.0 0.018469390699752064 0.0 0.0
0.07874397498281271 -0.07485962909645627 0.0 0.016439119057989893 0.0 0.0
0.06438305532833091 -0.060795946438112036 0.0 0.014317944307879249 0.0 0.0
0.05129461635997645 -0.04799877518040274 0.0 0.012230992098833937 0.0 0.0
0.03956208998435379 -0.036553963769636155 0.0 0.010116840803866212 0.0 0.0
0.02924818339018198 -0.026526934574346406 0.0 0.007924397266211969 0.0 0.0
0.020471055315716857 -0.018035029827090376 0.0 0.005779369276356805 0.0 0.0
0.013392514667746103 -0.011238664613831162 0.0 0.0038939578692036014 0.0 0.0
0.0081193607209048 -0.006249107081558902 0.0 0.0024334749547571533 0.0 0.0
0.004596270992892726 -0.003043574668145421 0.0 0.0014528476727873052 0.0 0.0
0.002633446689176089 -0.0013999215286071287 0.0 0.0009466879302365006 0.0 0.0
0.0017795855120333326 -0.0007798228742269542 0.0 0.0007248225051228463 0.0 0.0
0.001258384903326526 -0.00040950968369662943 0.0 0.0004377376020786583 0.0 0.0
0.000786149343412923 -0.0005199622213640231 0.0 0.0005796397605208337 0.0 0.0
0.006383721806184295 -0.007996576160977539 0.0 0.00818456682112395 0.0 0.0
0.004826396090484825 -0.006446623684295494 0.0 -0.0069596585282848955 0.0 0.0
0.0004924160009124323 -0.00038705335924993367 0.0 -0.0011777340118390156 0.0 0.0
0.0009752593022617911 -0.0002993885295038412 0.0 -0.0008516988307174511 0.0 0.0
0.0015087085449352194 -0.000625856102003941 0.0 -0.0009953438853236296 0.0 0.0
0.00219123382402564 -0.0010916380681267324 0.0 -0.001229265046692296 0.0 0.0
0.0037463025753684404 -0.0023263651970104604 0.0 -0.0017613577199901975 0.0 0.0
0.006708007006125366 -0.00494875890567692 0.0 -0.002916198272629289 0.0 0.0
0.011297465264452647 -0.00923441601793229 0.0 -0.00472407924391538 0.0 0.0
0.017496063317255686 -0.015156820782946667 0.0 -0.007026335030438369 0.0 0.0
0.025174309812891038 -0.02256619746172328 0.0 -0.009627653287667237 0.0 0.0
0.034157196043056115 -0.03128524479069972 0.0 -0.012277560294880085 0.0 0.0
0.044334163930375425 -0.04120060222628208 0.0 -0.014848718876762035 0.0 0.0
0.055669249804345164 -0.05227374073675595 0.0 -0.017401169654937654 0.0 0.0
0.06812273798993937 -0.06446087328819416 0.0 -0.019955985482202176 0.0 0.0
0.08154860506563803 -0.07761896474996677 0.0 -0.022399273524734642 0.0 0.0
0.09563250003413212 -0.09143123587043211 0.0 -0.024383685435984792 0.0 0.0
0.10980412318232292 -0.10531642854433665 0.0 -0.025291305391611785 0.0 0.0
0.12311494349085471 -0.1183235349526579 0.0 -0.024366717144116423 0.0 0.0
0.13419218677519243 -0.12910881109959815 0.0 -0.02059693878547164 0.0 0.0
0.1414851237553291 -0.13618755900133017 0.0 -0.012754927622868673 0.0 0.0
0.14148512375531905 -0.1361875590013253 0.0 0.0127549276229183 0.0 0.0
0.1341921867751608 -0.12910881109957106 0.0 0.020596938785536145 0.0 0.0
0.12311494349080693 -0.11832353495261128 0.0 0.02436671714416161 0.0 0.0
0.10980412318226723 -0.10531642854428203 0.0 0.025291305391630492 0.0 0.0
0.09563250003406923 -0.09143123587037039 0.0 0.02438368543597469 0.0 0.0
0.08154860506557218 -0.07761896474989705 0.0 0.022399273524727592 0.0 0.0
0.06812273798987323 -0.06446087328812933 0.0 0.01995598548219435 0.0 0.0
0.05566924980427984 -0.052273740736693775 0.0 0.017401169654929216 0.0 0.0
0.044334163930314335 -0.04120060222622657 0.0 0.014848718876742217 0.0 0.0
0.03415719604300163 -0.03128524479064421 0.0 0.012277560294860046 0.0 0.0
0.025174309812844187 -0.022566197461680204 0.0 0.009627653287647364 0.0 0.0
0.017496063317218397 -0.015156820782912694 0.0 0.007026335030423936 0.0 0.0
0.011297465264425655 -0.009234416017904534 0.0 0.00472407924390289 0.0 0.0
0.006708007006108185 -0.004948758905662265 0.0 0.0029161982726210733 0.0 0.0
0.0037463025753596835 -0.002326365197004243 0.0 0.001761357719985257 0.0 0.0
0.002191233824022587 -0.0010916380681221804 0.0 0.0012292650466911859 0.0 0.0
0.0015087085449348447 -0.0006258561020023867 0.0 0.0009953438853221863 0.0 0.0
0.0009752593022621658 -0.00029938852950411876 0.0 0.0008516988307162854 0.0 0.0
0.000492416000912127 -0.0003870533592485459 0.0 0.0011777340118370172 0.0 0.0
0.004826396090474028 -0.0064466236842831304 0.0 0.006959658528267021 0.0 0.0
0.0036399124307271435 -0.005184018081217212 0.0 -0.005703617311184461 0.0 0.0
0.0003286704447475197 -0.0003142835737268701 0.0 -0.0016435053178484038 0.0 0.0
0.0007386001448425189 -0.00021997061754430725 0.0 -0.001269000288998401 0.0 0.0
0.0012432542745201558 -0.0004925733570080304 0.0 -0.0012943011382938185 0.0 0.0
0.0017996946716679618 -0.0008472777024390865 0.0 -0.0014986373821845311 0.0 0.0
0.0029858232279385832 -0.0017246282363518883 0.0 -0.0020083122862227243 0.0 0.0
0.005362676639437056 -0.003742243901526221 0.0 -0.003172092993404263 0.0 0.0
0.009221434815433138 -0.0072732285031025246 0.0 -0.00514318381571266 0.0 0.0
0.014523153661313334 -0.012298345024957413 0.0 -0.007737021644578235 0.0 0.0
0.021087380677278722 -0.018609387961926238 0.0 -0.010621963332251405 0.0 0.0
0.02873390250722581 -0.02601360941406261 0.0 -0.013556117711757298 0.0 0.0
0.037354033881749474 -0.03439846331266816 0.0 -0.016404446348296686 0.0 0.0
0.04693406509692476 -0.04374523692211785 0.0 -0.01923121770559899 0.0 0.0
0.05747670912090094 -0.05405376465412148 0.0 -0.02207554815577062 0.0 0.0
0.06889956534003001 -0.06524230434757161 0.0 -0.024782766031260284 0.0 0.0
0.08098363671250745 -0.07709001548742433 0.0 -0.02701725122172427 0.0 0.0
0.09331097539731019 -0.08917107068927699 0.0 -0.028238690701757774 0.0 0.0
0.10515718117969552 -0.10075269917742835 0.0 -0.02750889377564192 0.0 0.0
0.11540211862250138 -0.11073509308079021 0.0 -0.023371055998656964 0.0 0.0
0.12267507462846189 -0.11780044000166612 0.0 -0.014292885700237568 0.0 0.0
0.12267507462845234 -0.11780044000165235 0.0 0.01429288570028775 0.0 0.0
0.11540211862247371 -0.1107350930807578 0.0 0.02337105599872369 0.0 0.0
0.10515718117965422 -0.10075269917738616 0.0 0.027508893775691323 0.0 0.0
0.0933109753972626 -0.08917107068922947 0.0 0.028238690701779534 0.0 0.0
0.0809836367124536 -0.07709001548737016 0.0 0.02701725122171772 0.0 0.0
0.06889956533997355 -0.06524230434751743 0.0 0.024782766031250625 0.0 0.0
0.057476709120845154 -0.05405376465406464 0.0 0.022075548155762514 0.0 0.0
0.04693406509686962 -0.043745236922060116 0.0 0.019231217705589332 0.0 0.0
0.037354033881698 -0.03439846331261309 0.0 0.016404446348279644 0.0 0.0
0.02873390250718036 -0.02601360941402131 0.0 0.013556117711737037 0.0 0.0
0.021087380677239115 -0.018609387961894264 0.0 0.010621963332225426 0.0 0.0
0.014523153661281651 -0.012298345024924773 0.0 0.007737021644561748 0.0 0.0
0.00922143481541024 -0.007273228503074769 0.0 0.005143183815700114 0.0 0.0
0.005362676639423469 -0.0037422439015131204 0.0 0.0031720929933961584 0.0 0.0
0.0029858232279321717 -0.0017246282363463372 0.0 0.0020083122862173397 0.0 0.0
0.0017996946716657136 -0.0008472777024373102 0.0 0.0014986373821832544 0.0 0.0
0.001243254274519684 -0.0004925733570080304 0.0 0.0012943011382919867 0.0 0.0
0.0007386001448427548 -0.00021997061754475133 0.0 0.0012690002889950147 0.0 0.0
0.0003286704447475197 -0.0003142835737259819 0.0 0.00164350531784635 0.0 0.0
0.003639912430717901 -0.0051840180812068055 0.0 0.00570361731117075 0.0 0.0
0.002705660554230327 -0.004127210280034932 0.0 -0.004603080074125687 0.0 0.0
0.00022922611231558643 -0.0002672478539340051 0.0 -0.0019906410969751653 0.0 0.0
0.0005403690917639703 -0.0001597450882637741 0.0 -0.0016368731008750692 0.0 0.0
0.0009817465373850587 -0.0003729178841023195 0.0 -0.0015949949464450497 0.0 0.0
0.0014477691787800617 -0.0006502968093222705 0.0 -0.001762630929102671 0.0 0.0
0.002310334632225422 -0.0012410441318384535 0.0 -0.0022202518496232115 0.0 0.0
0.004125358353204905 -0.002684276596703672 0.0 -0.0033093056777649954 0.0 0.0
0.007207050944163462 -0.005414130030057418 0.0 -0.0052264829732519 0.0 0.0
0.011576913884023238 -0.009491881003419245 0.0 -0.00788076923547526 0.0 0.0
0.01701805262829713 -0.014690601602645792 0.0 -0.010894655922729535 0.0 0.0
0.02332185605750252 -0.020773684949623394 0.0 -0.013934615554905883 0.0 0.0
0.03038646825256576 -0.02762766609375067 0.0 -0.016887200997846685 0.0 0.0
0.03821322189719019 -0.03525010211718582 0.0 -0.019817874028229154 0.0 0.0
0.046840364516752164 -0.04367556056408883 0.0 -0.022750871981860155 0.0 0.0
0.056249737739702266 -0.052882425040559955 0.0 -0.025562386462741005 0.0 0.0
0.06629970997160425 -0.06273169266352863 0.0 -0.027940122975454562 0.0 0.0
0.07671578779865092 -0.07294603112855391 0.0 -0.029372406567184428 0.0 0.0
0.08705414412782239 -0.0830672195875346 0.0 -0.028968303407970297 0.0 0.0
0.09652180630623591 -0.09230123912887711 0.0 -0.02503250670849222 0.0 0.0
0.10390909814152391 -0.09947601707970755 0.0 -0.015583309648285248 0.0 0.0
0.10390909814151492 -0.09947601707970355 0.0 0.015583309648337096 0.0 0.0
0.09652180630621279 -0.09230123912885535 0.0 0.025032506708560165 0.0 0.0
0.08705414412778761 -0.08306721958750529 0.0 0.028968303408018925 0.0 0.0
0.0767157877986113 -0.07294603112851616 0.0 0.029372406567205855 0.0 0.0
0.06629970997155948 -0.06273169266348333 0.0 0.027940122975447013 0.0 0.0
0.05624973773965522 -0.05288242504051066 0.0 0.02556238646273057 0.0 0.0
0.04684036451670662 -0.04367556056404798 0.0 0.022750871981850884 0.0 0.0
0.03821322189714585 -0.035250102117143634 0.0 0.019817874028217553 0.0 0.0
0.030386468252524584 -0.02762766609370848 0.0 0.016887200997830698 0.0 0.0
0.02332185605746484 -0.020773684949587423 0.0 0.013934615554885399 0.0 0.0
0.017018052628264446 -0.014690601602616038 0.0 0.010894655922701224 0.0 0.0
0.011576913883997592 -0.009491881003393488 0.0 0.007880769235457885 0.0 0.0
0.007207050944145282 -0.005414130030040543 0.0 0.005226482973239466 0.0 0.0
0.004125358353194358 -0.0026842765966956783 0.0 0.0033093056777569463 0.0 0.0
0.002310334632220995 -0.0012410441318335685 0.0 0.0022202518496196033 0.0 0.0
0.001447769178778674 -0.0006502968093203831 0.0 0.0017626309291010611 0.0 0.0
0.0009817465373847534 -0.00037291788410254156 0.0 0.0015949949464424407 0.0 0.0
0.0005403690917639703 -0.00015974508826399614 0.0 0.001636873100873515 0.0 0.0
0.0002292261123156003 -0.00026724785393394956 0.0 0.0019906410969736665 0.0 0.0
0.0027056605542229717 -0.0041272102800267284 0.0 0.00460308007411564 0.0 0.0
0.001964805806819056 -0.0032351619505735507 0.0 -0.0036919570170412808 0.0 0.0
0.00015974898271031712 -0.00023339420971607572 0.0 -0.002234173763966729 0.0 0.0
0.0003670381889315233 -0.000108669518684823 0.0 -0.0019337592354132238 0.0 0.0
0.0007239205722173736 -0.0002585678786756196 0.0 -0.001871894950688957 0.0 0.0
0.0011163126088416936 -0.0004831071577242607 0.0 -0.002023754556024382 0.0 0.0
0.0017189684041231251 -0.0008598688769783092 0.0 -0.002396339512528989 0.0 0.0
0.003004847474500444 -0.0017934706039022252 0.0 -0.0033256447603555173 0.0 0.0
0.00531321085211757 -0.0037250977112501804 0.0 -0.005049246257909368 0.0 0.0
0.008702575876613411 -0.006802140098129961 0.0 -0.007505222038064363 0.0 0.0
0.012994962229696885 -0.010848940440108201 0.0 -0.010410091802469768 0.0 0.0
0.017949982384194818 -0.015602028876435803 0.0 -0.013398166743263107 0.0 0.0
0.02346320526563668 -0.020927424581421494 0.0 -0.016282715264001324 0.0 0.0
0.029542200087254805 -0.026830675341750876 0.0 -0.01912804006541252 0.0 0.0
0.03625331339467071 -0.033372826573843994 0.0 -0.02198253631610736 0.0 0.0
0.04363329376777014 -0.04058506985949473 0.0 -0.02473064948028858 0.0 0.0
0.051622387784490076 -0.04840301115191803 0.0 -0.027070997148017417 0.0 0.0
0.06005630460039593 -0.056679861377177954 0.0 -0.028612984275011022 0.0 0.0
0.06877292593284146 -0.06523871176554641 0.0 -0.02866237921530257 0.0 0.0
0.07740704351835237 -0.07367681162229234 0.0 -0.02549220226370641 0.0 0.0
0.08499178594995127 -0.08103437624917786 0.0 -0.016611025955473036 0.0 0.0
0.08499178594994461 -0.08103437624917564 0.0 0.016611025955522774 0.0 0.0
0.07740704351833336 -0.07367681162226791 0.0 0.025492202263773578 0.0 0.0
0.0687729259328139 -0.06523871176551799 0.0 0.02866237921535253 0.0 0.0
0.06005630460036415 -0.0566798613771442 0.0 0.028612984275035003 0.0 0.0
0.05162238778445377 -0.048403011151881614 0.0 0.027070997148008424 0.0 0.0
0.04363329376773342 -0.0405850698594552 0.0 0.02473064948027337 0.0 0.0
0.036253313394634834 -0.033372826573807135 0.0 0.02198253631609759 0.0 0.0
0.029542200087222165 -0.02683067534172201 0.0 0.019128040065403584 0.0 0.0
0.023463205265604914 -0.02092742458139485 0.0 0.016282715263983838 0.0 0.0
0.017949982384165175 -0.015602028876411822 0.0 0.013398166743239459 0.0 0.0
0.01299496222967153 -0.010848940440083332 0.0 0.010410091802443344 0.0 0.0
0.008702575876594343 -0.0068021400981088664 0.0 0.007505222038048598 0.0 0.0
0.005313210852104261 -0.003725097711237746 0.0 0.005049246257899209 0.0 0.0
0.0030048474744928944 -0.0017934706038946757 0.0 0.0033256447603491335 0.0 0.0
0.001718968404120308 -0.0008598688769743124 0.0 0.0023963395125261577 0.0 0.0
0.001116312608840736 -0.0004831071577221513 0.0 0.002023754556023105 0.0 0.0
0.0007239205722171793 -0.0002585678786770629 0.0 0.001871894950686237 0.0 0.0
0.000367038188931329 -0.00010866951868487851 0.0 0.0019337592354097266 0.0 0.0
0.00015974898271028937 -0.0002333942097159647 0.0 0.0022341737639645642 0.0 0.0
0.001964805806813602 -0.003235161950567224 0.0 0.0036919570170335647 0.0 0.0
0.001388465201009409 -0.002497908396851267 0.0 -0.0029745965841387334 0.0 0.0
9.658011270705091e-05 -0.00020484011486959774 0.0 -0.0023774064066868217 0.0 0.0
0.00020723042293456506 -5.879351814486178e-05 0.0 -0.0021591662816576873 0.0 0.0
0.0004714127838852805 -0.00014605910873422 0.0 -0.0021028778784386026 0.0 0.0
0.0007855334774351935 -0.0003269577023765624 0.0 -0.002262356636367424 0.0 0.0
0.0011983820238835596 -0.0005673466159259455 0.0 -0.0025876490739709657 0.0 0.0
0.0020125785868659735 -0.001088844564151703 0.0 -0.0032889334318118024 0.0 0.0
0.003572198813712013 -0.0022654895676261777 0.0 -0.0046579673591741755 0.0 0.0
0.005964923901362454 -0.0043186043686098685 0.0 -0.006706859941629062 0.0 0.0
0.00906337944287175 -0.007158513119935428 0.0 -0.009217129261319235 0.0 0.0
0.01265161098540385 -0.01055095829678665 0.0 -0.01190026098064878 0.0 0.0
0.016614032175195026 -0.014346574777681642 0.0 -0.01453893701688136 0.0 0.0
0.020955468361186363 -0.018538417799137008 0.0 -0.01713972873117675 0.0 0.0
0.025751744596970355 -0.02319836411001086 0.0 -0.01972723011058697 0.0 0.0
0.031087881338943885 -0.028402521358453114 0.0 -0.022245546331310928 0.0 0.0
0.03698958901715266 -0.034166707449745815 0.0 -0.024431662783429564 0.0 0.0
0.043390666246085785 -0.040437043090036706 0.0 -0.025887133093520087 0.0 0.0
0.05030890697179641 -0.047264241426899556 0.0 -0.02631912210372256 0.0 0.0
0.057900548091608245 -0.054730268374109325 0.0 -0.024478730200370502 0.0 0.0
0.065689159718859 -0.06227389986441878 0.0 -0.017304771800477403 0.0 0.0
0.06568915971885542 -0.06227389986441434 0.0 0.01730477180052048 0.0 0.0
0.05790054809159392 -0.054730268374096 0.0 0.02447873020043556 0.0 0.0
0.05030890697177537 -0.04726424142688179 0.0 0.026319122103766968 0.0 0.0
0.043390666246062276 -0.04043704309002116 0.0 0.025887133093533854 0.0 0.0
0.03698958901712532 -0.034166707449718725 0.0 0.024431662783419572 0.0 0.0
0.03108788133891774 -0.02840252135842425 0.0 0.022245546331296606 0.0 0.0
0.025751744596945236 -0.02319836410999132 0.0 0.01972723011057853 0.0 0.0
0.020955468361164603 -0.018538417799113915 0.0 0.017139728731170867 0.0 0.0
0.01661403217517307 -0.014346574777657661 0.0 0.01453893701686615 0.0 0.0
0.012651610985382644 -0.01055095829676267 0.0 0.011900260980631128 0.0 0.0
0.009063379442853792 -0.007158513119919441 0.0 0.009217129261298251 0.0 0.0
0.0059649239013501165 -0.004318604368596546 0.0 0.00670685994161474 0.0 0.0
0.003572198813703298 -0.0022654895676204045 0.0 0.004657967359165516 0.0 0.0
0.002012578586861269 -0.0010888445641470401 0.0 0.003288933431807084 0.0 0.0
0.0011983820238819776 -0.000567346615923503 0.0 0.0025876490739685787 0.0 0.0
0.000785533477434458 -0.00032695770237622934 0.0 0.0022623566363649816 0.0 0.0
0.0004714127838852944 -0.00014605910873355388 0.0 0.0021028778784356605 0.0 0.0
0.0002072304229344124 -5.87935181444732e-05 0.0 0.002159166281656799 0.0 0.0
9.65801127069954e-05 -0.00020484011486926468 0.0 0.00237740640668499 0.0 0.0
0.0013884652010055232 -0.00249790839684628 0.0 0.0029745965841312394 0.0 0.0
0.0009627559474015834 -0.0019198035154814885 0.0 -0.0024502790420359855 0.0 0.0
2.480906952648243e-05 -0.0001796003816760261 0.0 -0.0024494734815440067 0.0 0.0
5.38695021111979e-05 -4.0188847212352385e-06 0.0 -0.002316512870621401 0.0 0.0
0.00022593269277074168 -3.677517233846572e-05 0.0 -0.0022793141132715355 0.0 0.0
0.0004467018855352223 -0.0001671154576836642 0.0 -0.0024465818054949517 0.0 0.0
0.0007105523965917349 -0.00032435673801778364 0.0 -0.0027835665771491214 0.0 0.0
0.0011534654163992408 -0.0005695717094087449 0.0 -0.003287762901565683 0.0 0.0
0.0020114567491793245 -0.0011070167595617075 0.0 -0.004169258070325588 0.0 0.0
0.0034188919984396715 -0.0021595475992892688 0.0 -0.00557943739633765 0.0 0.0
0.005288639911940063 -0.0037503378965615397 0.0 -0.007419091445528325 0.0 0.0
0.0074760611197277616 -0.005732502868148082 0.0 -0.009510553537541377 0.0 0.0
0.009869626722483066 -0.007973403876944563 0.0 -0.011672045546140208 0.0 0.0
0.012479194911424962 -0.01045412122369127 0.0 -0.013871697638768943 0.0 0.0
0.015369822348483747 -0.01323736714460777 0.0 -0.016059952546208622 0.0 0.0
0.018643869943425123 -0.016416951514952594 0.0 -0.018208410516007856 0.0 0.0
0.022417662832201035 -0.020094277756014467 0.0 -0.020171002976059893 0.0 0.0
0.026763400774665158 -0.024327517849502822 0.0 -0.021551449457669958 0.0 0.0
0.03176406137121718 -0.02925142390576818 0.0 -0.022056816088579567 0.0 0.0
0.037882253577281894 -0.0353767352142591 0.0 -0.021560563366731067 0.0 0.0
0.04567114769529795 -0.04293331692889213 0.0 -0.01741119132304214 0.0 0.0
0.04567114769529615 -0.04293331692888369 0.0 0.017411191323079334 0.0 0.0
0.037882253577273595 -0.035376735214248 0.0 0.021560563366786134 0.0 0.0
0.03176406137120191 -0.029251423905752638 0.0 0.022056816088617648 0.0 0.0
0.026763400774650503 -0.024327517849483726 0.0 0.021551449457679173 0.0 0.0
0.02241766283218427 -0.02009427775599848 0.0 0.020171002976046792 0.0 0.0
0.01864386994340972 -0.01641695151493794 0.0 0.018208410515992646 0.0 0.0
0.015369822348470341 -0.013237367144592227 0.0 0.016059952546202516 0.0 0.0
0.012479194911413694 -0.010454121223680612 0.0 0.013871697638768499 0.0 0.0
0.009869626722470881 -0.007973403876931684 0.0 0.011672045546128329 0.0 0.0
0.007476061119715299 -0.005732502868136535 0.0 0.009510553537522504 0.0 0.0
0.005288639911930015 -0.003750337896557099 0.0 0.007419091445510451 0.0 0.0
0.0034188919984335653 -0.002159547599285494 0.0 0.005579437396329878 0.0 0.0
0.002011456749174856 -0.0011070167595599312 0.0 0.004169258070318371 0.0 0.0
0.0011534654163969926 -0.0005695717094107433 0.0 0.003287762901560798 0.0 0.0
0.0007105523965909022 -0.0003243567380175616 0.0 0.002783566577145624 0.0 0.0
0.00044670188553505574 -0.0001671154576836642 0.0 0.002446581805491843 0.0 0.0
0.00022593269277076944 -3.677517233846572e-05 0.0 0.00227931411326876 0.0 0.0
5.386950211136443e-05 -4.018884721512794e-06 0.0 0.0023165128706194027 0.0 0.0
2.480906952592732e-05 -0.00017960038167591508 0.0 0.0024494734815421193 0.0 0.0
0.000962755947399363 -0.0019198035154783036 0.0 0.0024502790420316556 0.0 0.0
0.0006611943176019208 -0.0014817252719637741 0.0 -0.002083970646426403 0.0 0.0
-5.45132282733507e-05 -0.00015910272559838123 0.0 -0.0024827379172317476 0.0 0.0
-9.62798746037552e-05 5.684097938873922e-05 0.0 -0.0024152496593193296 0.0 0.0
-1.2677135111216487e-05 6.915806366158961e-05 0.0 -0.002398644595957178 0.0 0.0
0.00010442345505795592 -4.1315231065208735e-06 0.0 -0.002558021003432831 0.0 0.0
0.00022193765088301953 -8.855070558366762e-05 0.0 -0.0029177553972447035 0.0 0.0
0.0003736822483094704 -0.00017704121408668172 0.0 -0.00340262802671637 0.0 0.0
0.0006389350264305038 -0.0003120078287848216 0.0 -0.003925213599706212 0.0 0.0
0.0011000713934987971 -0.0005592254713828737 0.0 -0.004593349701968064 0.0 0.0
0.0017246248462894631 -0.0009541269183341861 0.0 -0.005573655057185212 0.0 0.0
0.002462111185239424 -0.0014824370109542961 0.0 -0.006912883707013262 0.0 0.0
0.0032552727040984497 -0.002120834791370374 0.0 -0.008497242531378735 0.0 0.0
0.004114942072044575 -0.002866566684903926 0.0 -0.010263256149043443 0.0 0.0
0.005086555869439541 -0.0037547996341977807 0.0 -0.012178457300336065 0.0 0.0
0.006277271151117453 -0.004878667035001616 0.0 -0.014215225311252966 0.0 0.0
0.007878787984834934 -0.006410558205967032 0.0 -0.01622764480799077 0.0 0.0
0.010146925663527706 -0.008580360138763066 0.0 -0.01780356152271756 0.0 0.0
0.013290163590298748 -0.011583401945100658 0.0 -0.018305643240951408 0.0 0.0
0.017608231622922105 -0.015902625440699314 0.0 -0.017896779592293854 0.0 0.0
0.0245394194383588 -0.022865931914221704 0.0 -0.016904243196173452 0.0 0.0
0.024539419438358717 -0.022865931914218596 0.0 0.016904243196206092 0.0 0.0
0.01760823162291847 -0.015902625440694873 0.0 0.017896779592338485 0.0 0.0
0.013290163590291143 -0.011583401945097993 0.0 0.01830564324097672 0.0 0.0
0.010146925663522377 -0.008580360138759069 0.0 0.01780356152272 0.0 0.0
0.007878787984829883 -0.006410558205969252 0.0 0.01622764480797645 0.0 0.0
0.0062772711511134005 -0.0048786670349998396 0.0 0.014215225311240753 0.0 0.0
0.005086555869437209 -0.003754799634194228 0.0 0.012178457300329404 0.0 0.0
0.004114942072043798 -0.0028665666849052585 0.0 0.010263256149039668 0.0 0.0
0.0032552727040960905 -0.00212083479136993 0.0 0.008497242531367522 0.0 0.0
0.0024621111852369537 -0.0014824370109525198 0.0 0.0069128837070008275 0.0 0.0
0.0017246248462872704 -0.0009541269183355183 0.0 0.0055736550571742205 0.0 0.0
0.0011000713934980755 -0.0005592254713819855 0.0 0.004593349701964788 0.0 0.0
0.0006389350264298377 -0.0003120078287803807 0.0 0.003925213599703159 0.0 0.0
0.00037368224830905405 -0.00017704121408579354 0.0 0.0034026280267138165 0.0 0.0
0.00022193765088301953 -8.855070558611011e-05 0.0 0.002917755397242039 0.0 0.0
0.00010442345505845552 -4.131523107742119e-06 0.0 0.0025580210034307216 0.0 0.0
-1.2677135111216487e-05 6.915806366125654e-05 0.0 0.0023986445959566227 0.0 0.0
-9.627987460389398e-05 5.6840979389405355e-05 0.0 0.0024152496593179418 0.0 0.0
-5.4513228273572745e-05 -0.0001591027255977151 0.0 0.0024827379172297492 0.0 0.0
0.0006611943176005886 -0.0014817252719618468 0.0 0.002083970646424238 0.0 0.0
0.000450746647531558 -0.0011646988580065187 0.0 -0.0018528035473085458 0.0 0.0
-0.00013171368075423628 -0.00013576501539636077 0.0 -0.0024834359850421373 0.0 0.0
-0.00024282253643984064 0.00011875365077329558 0.0 -0.0024612785389225844 0.0 0.0
-0.0002446684075836647 0.00017213881863187286 0.0 -0.002453642425901126 0.0 0.0
-0.0002345340112956673 0.00015755149929042034 0.0 -0.0025948807712620203 0.0 0.0
-0.00027155176668067216 0.00014966538708272026 0.0 -0.0029349663873916576 0.0 0.0
-0.00039033518322906247 0.00019301243175418037 0.0 -0.003409933236030116 0.0 0.0
-0.0006434671186154872 0.000315677473210485 0.0 -0.003930018438359439 0.0 0.0
-0.0010995789405059686 0.0005596089363533174 0.0 -0.004595487435153367 0.0 0.0
-0.0017232285103504774 0.0009538599133809278 0.0 -0.0055721913873147955 0.0 0.0
-0.0024678019346926205 0.001491179312059554 0.0 -0.006913262448298374 0.0 0.0
-0.003291441059661504 0.0021573227755307123 0.0 -0.008505164953936495 0.0 0.0
-0.004196956084957459 0.0029377580712575124 0.0 -0.01027276670777233 0.0 0.0
-0.005159860719127163 0.0037930437345394807 0.0 -0.012184443994099126 0.0 0.0
-0.006064532384269211 0.004605124225224966 0.0 -0.014233783835255087 0.0 0.0
-0.006666780758025931 0.005138462862529725 0.0 -0.01637464120475729 0.0 0.0
-0.006575864712613344 0.005032612230242872 0.0 -0.018574185134620058 0.0 0.0
-0.005418266402813149 0.004038195964735536 0.0 -0.020887308703832708 0.0 0.0
-0.0028859901550515044 0.002005239589365271 0.0 -0.022983694280848788 0.0 0.0
0.0033848769059656447 -0.0038889763543146216 0.0 -0.021677842460375185 0.0 0.0
0.0033848769059652284 -0.0038889763543150657 0.0 0.021677842460393282 0.0 0.0
-0.002885990155052448 0.002005239589366159 0.0 0.022983694280866995 0.0 0.0
-0.005418266402811067 0.004038195964735092 0.0 0.020887308703838037 0.0 0.0
-0.006575864712606877 0.005032612230237987 0.0 0.01857418513461284 0.0 0.0
-0.006666780758018104 0.005138462862523507 0.0 0.016374641204741525 0.0 0.0
-0.006064532384261689 0.004605124225220525 0.0 0.014233783835242986 0.0 0.0
-0.005159860719118975 0.003793043734531487 0.0 0.012184443994089689 0.0 0.0
-0.0041969560849479115 0.0029377580712437457 0.0 0.010272766707766223 0.0 0.0
-0.0032914410596529275 0.0021573227755204982 0.0 0.008505164953923172 0.0 0.0
-0.002467801934684599 0.001491179312054225 0.0 0.006913262448284829 0.0 0.0
-0.0017232285103442324 0.0009538599133755987 0.0 0.005572191387302472 0.0 0.0
-0.0010995789405015555 0.0005596089363517631 0.0 0.0045954874351532005 0.0 0.0
-0.0006434671186129615 0.0003156774732093748 0.0 0.003930018438358218 0.0 0.0
-0.0003903351832281188 0.00019301243175773308 0.0 0.0034099332360262302 0.0 0.0
-0.00027155176667981173 0.00014966538708316435 0.0 0.0029349663873872722 0.0 0.0
-0.0002345340112949179 0.00015755149929042034 0.0 0.0025948807712585786 0.0 0.0
-0.0002446684075835259 0.00017213881863342717 0.0 0.0024536424258986833 0.0 0.0
-0.0002428225364399239 0.0001187536507748499 0.0 0.002461278538921474 0.0 0.0
-0.00013171368075423628 -0.0001357650153965828 0.0 0.0024834359850414156 0.0 0.0
0.00045074664753072535 -0.0011646988580054519 0.0 0.00185280354730738 0.0 0.0
0.0003062667957650922 -0.0009223175345864365 0.0 -0.0016747612544033008 0.0 0.0
-0.00020139368644764288 -0.00010477658685514868 0.0 -0.0024363041959344356 0.0 0.0
-0.00038318819107713287 0.00017758715883042786 0.0 -0.0024549689900587035 0.0 0.0
-0.0004689353833778609 0.00027107578903329266 0.0 -0.0024405080264104373 0.0 0.0
-0.0005665014826364834 0.0003140359096023282 0.0 -0.0025512979906698874 0.0 0.0
-0.0007580191824043403 0.000384385601497117 0.0 -0.002837298076053263 0.0 0.0
-0.0011695200544713513 0.0005865569583822783 0.0 -0.0033148846148164934 0.0 0.0
-0.002014490314877826 0.0011111380868735754 0.0 -0.004183849578905996 0.0 0.0
-0.0034168116620584277 0.0021587401480487323 0.0 -0.005582248321763406 0.0 0.0
-0.005287372706834603 0.0037508381565891646 0.0 -0.007418234908315391 0.0 0.0
-0.007484343825773537 0.0057445856572031495 0.0 -0.009510359257919432 0.0 0.0
-0.009904756310745638 0.008012861227303603 0.0 -0.011660899732556795 0.0 0.0
-0.012554018165671477 0.010525762991856258 0.0 -0.013829245441525306 0.0 0.0
-0.015430237652300144 0.01326917932845273 0.0 -0.016006244656083246 0.0 0.0
-0.018424028762626027 0.016125072586300693 0.0 -0.018276716396179782 0.0 0.0
-0.0212481190961398 0.018812391416336727 0.0 -0.020719415143126363 0.0 0.0
-0.023439294982624204 0.02089093158520461 0.0 -0.023415807307571535 0.0 0.0
-0.024444687645479107 0.021827510034274855 0.0 -0.026275659321223888 0.0 0.0
-0.02325249472522417 0.020365595802960712 0.0 -0.0275525847651934 0.0 0.0
-0.016838202055279805 0.013676397631923631 0.0 -0.025297103841231072 0.0 0.0
-0.016838202055280832 0.01367639763192452 0.0 0.0252971038412646 0.0 0.0
-0.0232524947252217 0.02036559580295716 0.0 0.027552584765237365 0.0 0.0
-0.024444687645467145 0.021827510034262865 0.0 0.02627565932125131 0.0 0.0
-0.023439294982606357 0.02089093158518729 0.0 0.023415807307572867 0.0 0.0
-0.021248119096119705 0.01881239141631852 0.0 0.020719415143110487 0.0 0.0
-0.01842402876260693 0.01612507258628426 0.0 0.01827671639616535 0.0 0.0
-0.01543023765228202 0.013269179328438518 0.0 0.016006244656070034 0.0 0.0
-0.012554018165651548 0.010525762991841603 0.0 0.013829245441515092 0.0 0.0
-0.009904756310726293 0.008012861227284951 0.0 0.011660899732539587 0.0 0.0
-0.007484343825755524 0.005744585657184942 0.0 0.009510359257898782 0.0 0.0
-0.005287372706819893 0.003750838156575398 0.0 0.007418234908295407 0.0 0.0
-0.003416811662048269 0.00215874014803652 0.0 0.005582248321754024 0.0 0.0
-0.0020144903148717475 0.0011111380868686904 0.0 0.004183849578901222 0.0 0.0
-0.001169520054468659 0.0005865569583816121 0.0 0.0033148846148121636 0.0 0.0
-0.000758019182403008 0.0003843856014982272 0.0 0.0028372980760485444 0.0 0.0
-0.0005665014826353731 0.0003140359096018841 0.0 0.002551297990667556 0.0 0.0
-0.00046893538337763885 0.0002710757890329596 0.0 0.0024405080264100487 0.0 0.0
-0.0003831881910767443 0.00017758715883081644 0.0 0.0024549689900577043 0.0 0.0
-0.00020139368644736533 -0.00010477658685520419 0.0 0.0024363041959331033 0.0 0.0
0.0003062667957646481 -0.000922317534585132 0.0 0.0016747612544023016 0.0 0.0
0.00020153632754116302 -0.0007116626746744292 0.0 -0.001486313886552737 0.0 0.0
-0.00026374050045785413 -6.77499545732041e-05 0.0 -0.0023355719797404917 0.0 0.0
-0.0005152476180022014 0.00023243230214264887 0.0 -0.0023910259106628695 0.0 0.0
-0.0006843083344079126 0.0003642220663150342 0.0 -0.0023612387885670882 0.0 0.0
-0.0008872565288532142 0.0004612934849168582 0.0 -0.002426338296551922 0.0 0.0
-0.0012424024913740839 0.0006269075940996682 0.0 -0.0026764450628997682 0.0 0.0
-0.0020260658601047588 0.001107393059544881 0.0 -0.003331874983575789 0.0 0.0
-0.003570872710485201 0.0022668920431676565 0.0 -0.004672697194816888 0.0 0.0
-0.005961383148223143 0.004315957242158053 0.0 -0.0067048829478686955 0.0 0.0
-0.009064056315017582 0.007160439581920475 0.0 -0.009216492567496903 0.0 0.0
-0.012661235370266921 0.01056343866899967 0.0 -0.011897505888420201 0.0 0.0
-0.016641170483251227 0.01437777523708128 0.0 -0.0145025122727096 0.0 0.0
-0.021007239254508925 0.01858926355707613 0.0 -0.017017662172142622 0.0 0.0
-0.025783984992197972 0.023208773555297935 0.0 -0.019540965392976672 0.0 0.0
-0.03087899863932056 0.0281330659642256 0.0 -0.022290539809112775 0.0 0.0
-0.03597169797342359 0.03304862617845705 0.0 -0.02555355009984206 0.0 0.0
-0.04048872979281806 0.037397132342321004 0.0 -0.029500727736489596 0.0 0.0
-0.043493424482733634 0.0401859502949935 0.0 -0.03339552277641511 0.0 0.0
-0.043172603091550216 0.03958822925449468 0.0 -0.03535271110072147 0.0 0.0
-0.035922461494334756 0.03165230197944746 0.0 -0.03156237961235886 0.0 0.0
-0.03592246149433373 0.0316523019794448 0.0 0.031562379612403824 0.0 0.0
-0.04317260309154364 0.03958822925448713 0.0 0.03535271110077909 0.0 0.0
-0.04349342448271465 0.04018595029497707 0.0 0.033395522776452746 0.0 0.0
-0.040488729792790557 0.03739713234229125 0.0 0.02950072773649548 0.0 0.0
-0.0359716979733927 0.033048626178431295 0.0 0.025553550099827294 0.0 0.0
-0.030878998639290195 0.02813306596419407 0.0 0.022290539809096677 0.0 0.0
-0.025783984992169245 0.023208773555271733 0.0 0.019540965392959797 0.0 0.0
-0.021007239254478907 0.018589263557049485 0.0 0.01701766217213141 0.0 0.0
-0.01664117048322157 0.014377775237058188 0.0 0.014502512272690948 0.0 0.0
-0.012661235370239568 0.010563438668973912 0.0 0.01189750588839561 0.0 0.0
-0.009064056314994587 0.0071604395818947175 0.0 0.009216492567473922 0.0 0.0
-0.005961383148206684 0.004315957242143398 0.0 0.006704882947854485 0.0 0.0
-0.003570872710475001 0.0022668920431621054 0.0 0.004672697194808895 0.0 0.0
-0.0020260658600992215 0.0011073930595406623 0.0 0.0033318749835691275 0.0 0.0
-0.0012424024913717802 0.0006269075940978919 0.0 0.0026764450628968817 0.0 0.0
-0.0008872565288519652 0.0004612934849154149 0.0 0.002426338296551034 0.0 0.0
-0.0006843083344074408 0.0003642220663157003 0.0 0.0023612387885662556 0.0 0.0
-0.0005152476180017435 0.00023243230214237132 0.0 0.0023910259106617593 0.0 0.0
-0.00026374050045739617 -6.774995457298205e-05 0.0 0.0023355719797384933 0.0 0.0
0.00020153632754088546 -0.0007116626746739921 0.0 0.001486313886550683 0.0 0.0
0.00011575483796597008 -0.0005238536194129839 0.0 -0.0012900037302559508 0.0 0.0
-0.000320985492549164 -2.46076763413261e-05 0.0 -0.0021794078674304274 0.0 0.0
-0.0006388070907616672 0.00028346358462738586 0.0 -0.002273054362036564 0.0 0.0
-0.00088989502206549 0.00044973051361563154 0.0 -0.002222925831555589 0.0 0.0
-0.0011943187015042156 0.0006013300857530268 0.0 -0.002235980084149547 0.0 0.0
-0.0017577290713132743 0.0009180085628130996 0.0 -0.0025124124587058705 0.0 0.0
-0.0030108094651716266 0.0018083879252095425 0.0 -0.0033713162638115413 0.0 0.0
-0.005307356841054378 0.003721104688876098 0.0 -0.005053032828440718 0.0 0.0
-0.008699648367613805 0.00679936085059607 0.0 -0.007500136790722867 0.0 0.0
-0.012998470625482594 0.010853215860505028 0.0 -0.010410565503358948 0.0 0.0
-0.017959150858212786 0.015612782172024442 0.0 -0.013392865479770921 0.0 0.0
-0.02347481733108242 0.0209414877911267 0.0 -0.016224689800884318 0.0 0.0
-0.029551329435888618 0.026840751456528533 0.0 -0.018934813273817963 0.0 0.0
-0.03623474239110061 0.03334355367675723 0.0 -0.0216614342812389 0.0 0.0
-0.043459093577836394 0.04037237215047407 0.0 -0.024710326818927264 0.0 0.0
-0.05088802470635981 0.047583436882463914 0.0 -0.028535585061213675 0.0 0.0
-0.05773719781769193 0.054184653281188044 0.0 -0.03327621745533649 0.0 0.0
-0.06253779950464669 0.0586931446615333 0.0 -0.03802615490813155 0.0 0.0
-0.06275199706679874 0.058483589706537664 0.0 -0.04028377993515486 0.0 0.0
-0.053778036996779466 0.04885091342435777 0.0 -0.03672140572571636 0.0 0.0
-0.05377803699677619 0.04885091342435066 0.0 0.0367214057257631 0.0 0.0
-0.06275199706678714 0.0584835897065239 0.0 0.04028377993521659 0.0 0.0
-0.06253779950462138 0.058693144661512875 0.0 0.03802615490817396 0.0 0.0
-0.05773719781765588 0.05418465328115207 0.0 0.0332762174553487 0.0 0.0
-0.05088802470631905 0.04758343688242794 0.0 0.02853558506120052 0.0 0.0
-0.04345909357779576 0.04037237215043632 0.0 0.024710326818910666 0.0 0.0
-0.03623474239106071 0.03334355367671549 0.0 0.02166143428121986 0.0 0.0
-0.029551329435848442 0.026840751456487677 0.0 0.018934813273804474 0.0 0.0
-0.023474817331042577 0.02094148779108762 0.0 0.0162246898008635 0.0 0.0
-0.017959150858176703 0.015612782171987583 0.0 0.013392865479743332 0.0 0.0
-0.012998470625451813 0.01085321586047483 0.0 0.010410565503333358 0.0 0.0
-0.0086996483675911 0.006799360850574754 0.0 0.007500136790706491 0.0 0.0
-0.005307356841039362 0.003721104688860999 0.0 0.005053032828430337 0.0 0.0
-0.0030108094651628836 0.0018083879252006607 0.0 0.0033713162638036587 0.0 0.0
-0.0017577290713093885 0.0009180085628126555 0.0 0.002512412458701152 0.0 0.0
-0.0011943187015030499 0.000601330085753915 0.0 0.0022359800841472155 0.0 0.0
-0.0008898950220646573 0.00044973051361574257 0.0 0.002222925831553868 0.0 0.0
-0.0006388070907614035 0.00028346358462683074 0.0 0.0022730543620344545 0.0 0.0
-0.0003209854925488309 -2.4607676342047746e-05 0.0 0.002179407867428762 0.0 0.0
0.00011575483796580355 -0.0005238536194127133 0.0 0.0012900037302552292 0.0 0.0
4.159892438068691e-05 -0.0003581510564809043 0.0 -0.0010886662736989128 0.0 0.0
-0.0003760117836469068 2.3773290228679134e-05 0.0 -0.0019709624500297007 0.0 0.0
-0.000754582372935575 0.00033148015158868116 0.0 -0.0020980639517929056 0.0 0.0
-0.0010836648485467726 0.0005258961096322734 0.0 -0.002019536500447172 0.0 0.0
-0.001497212764769551 0.0007457589366151041 0.0 -0.002000683795970515 0.0 0.0
-0.0023379810284480385 0.0012887995085668624 0.0 -0.0023333624024228228 0.0 0.0
-0.00412298096068614 0.002690548782274149 0.0 -0.0033384171676343888 0.0 0.0
-0.0071996690248954665 0.005406985485054472 0.0 -0.005222457442343231 0.0 0.0
-0.011576331505854215 0.009491014945361531 0.0 -0.00787437335304464 0.0 0.0
-0.01702414624863552 0.014696949547753135 0.0 -0.010894823634853723 0.0 0.0
-0.02332839207096815 0.02078038636503754 0.0 -0.013924200978380652 0.0 0.0
-0.03037681330757802 0.02761835444760452 0.0 -0.016813854063587708 0.0 0.0
-0.03816575308228315 0.03520532352272587 0.0 -0.019585969841447892 0.0 0.0
-0.04675171319163232 0.043590415036616204 0.0 -0.022349919718483435 0.0 0.0
-0.056112389075970576 0.05273096638963004 0.0 -0.02543462210078029 0.0 0.0
-0.06588111273889544 0.06223653502204707 0.0 -0.02933981330689661 0.0 0.0
-0.07501398585066446 0.07104980636941649 0.0 -0.03428474469630893 0.0 0.0
-0.08147882696450784 0.07712020580017365 0.0 -0.03942400353958997 0.0 0.0
-0.08190429494815032 0.07705183464313858 0.0 -0.04245519378384677 0.0 0.0
-0.07117604252769585 0.06573625542869221 0.0 -0.041288335726619496 0.0 0.0
-0.07117604252768997 0.06573625542868777 0.0 0.0412883357266689 0.0 0.0
-0.08190429494813356 0.07705183464311682 0.0 0.04245519378390872 0.0 0.0
-0.08147882696447556 0.07712020580013723 0.0 0.03942400353963216 0.0 0.0
-0.07501398585062091 0.07104980636937475 0.0 0.03428474469632281 0.0 0.0
-0.06588111273884577 0.062236535021995554 0.0 0.02933981330688734 0.0 0.0
-0.056112389075919714 0.05273096638957808 0.0 0.025434622100768578 0.0 0.0
-0.04675171319158186 0.04359041503657046 0.0 0.02234991971846484 0.0 0.0
-0.038165753082232495 0.03520532352267702 0.0 0.019585969841432738 0.0 0.0
-0.030376813307528158 0.02761835444755567 0.0 0.01681385406356839 0.0 0.0
-0.023328392070923645 0.020780386364997128 0.0 0.013924200978351231 0.0 0.0
-0.017024146248597216 0.014696949547713167 0.0 0.01089482363482669 0.0 0.0
-0.011576331505825752 0.009491014945333776 0.0 0.007874373353028707 0.0 0.0
-0.0071996690248752465 0.0054069854850378185 0.0 0.00522245744232902 0.0 0.0
-0.004122980960674316 0.0026905487822668217 0.0 0.003338417167625951 0.0 0.0
-0.002337981028442168 0.0012887995085637538 0.0 0.002333362402416439 0.0 0.0
-0.0014972127647678857 0.0007457589366131057 0.0 0.00200068379596835 0.0 0.0
-0.0010836648485459954 0.0005258961096306081 0.0 0.0020195365004453403 0.0 0.0
-0.0007545823729351864 0.00033148015158807054 0.0 0.0020980639517908517 0.0 0.0
-0.00037601178364649046 2.3773290228623623e-05 0.0 0.0019709624500284795 0.0 0.0
4.15989243807563e-05 -0.00035815105648069265 0.0 0.001088666273697525 0.0 0.0
-2.2159895413431663e-05 -0.00021596700185755324 0.0 -0.0008817561199096491 0.0 0.0
-0.0004295831894421398 7.55684524767486e-05 0.0 -0.0017157377697321063 0.0 0.0
-0.00086352878169349 0.00037646151733139455 0.0 -0.001866826811011968 0.0 0.0
-0.0012666326653618942 0.0005964069430047791 0.0 -0.0017679306111035853 0.0 0.0
-0.0018155534470545576 0.0009150161874613705 0.0 -0.001744084888256503 0.0 0.0
-0.0029959318888209963 0.0017563173718619929 0.0 -0.002115046180997726 0.0 0.0
-0.005356162882523691 0.003741159663871896 0.0 -0.0031881756260815353 0.0 0.0
-0.009215953551138273 0.007267088107112851 0.0 -0.005132235341213431 0.0 0.0
-0.014525689819553239 0.01230034944063263 0.0 -0.0077315028484862824 0.0 0.0
-0.021094854705485167 0.018616646427257244 0.0 -0.010621578927830111 0.0 0.0
-0.028735044548266364 0.02601371255335705 0.0 -0.013539468749392713 0.0 0.0
-0.03732031492835483 0.034363438991646955 0.0 -0.01632343171602224 0.0 0.0
-0.04682855688834023 0.04364366273199982 0.0 -0.019006863061142187 0.0 0.0
-0.05730875992463652 0.05390072694843484 0.0 -0.021679387803583694 0.0 0.0
-0.06875647560573858 0.0651066866279737 0.0 -0.024513210982507583 0.0 0.0
-0.08079375141050493 0.07683965121131653 0.0 -0.027958551692594757 0.0 0.0
-0.09214534871979915 0.08779865890191907 0.0 -0.032509070151716335 0.0 0.0
-0.10019917802451556 0.09537072759439624 0.0 -0.03782256914812987 0.0 0.0
-0.10086118176053557 0.09549878007913026 0.0 -0.04249777743115568 0.0 0.0
-0.0886535348015553 0.08274628489504599 0.0 -0.04558929406404466 0.0 0.0
-0.08865353480154703 0.08274628489504154 0.0 0.045589294064092956 0.0 0.0
-0.10086118176051337 0.09549878007910362 0.0 0.042497777431215744 0.0 0.0
-0.10019917802447642 0.09537072759435672 0.0 0.037822569148174334 0.0 0.0
-0.09214534871974817 0.08779865890187466 0.0 0.032509070151729214 0.0 0.0
-0.08079375141044665 0.07683965121125969 0.0 0.027958551692589928 0.0 0.0
-0.06875647560567763 0.06510668662791641 0.0 0.024513210982500477 0.0 0.0
-0.0573087599245764 0.053900726948378885 0.0 0.02167938780356926 0.0 0.0
-0.046828556888279305 0.043643662731943866 0.0 0.019006863061126977 0.0 0.0
-0.03732031492829549 0.03436343899158567 0.0 0.016323431716004033 0.0 0.0
-0.02873504454821324 0.026013712553301982 0.0 0.01353946874936457 0.0 0.0
-0.021094854705439536 0.01861664642721239 0.0 0.01062157892780341 0.0 0.0
-0.014525689819518475 0.012300349440596214 0.0 0.007731502848471017 0.0 0.0
-0.009215953551113543 0.00726708810708776 0.0 0.005132235341201052 0.0 0.0
-0.005356162882508023 0.0037411596638559086 0.0 0.0031881756260725425 0.0 0.0
-0.002995931888813308 0.0017563173718566638 0.0 0.002115046180991731 0.0 0.0
-0.0018155534470519485 0.0009150161874598162 0.0 0.0017440848882538385 0.0 0.0
-0.0012666326653610616 0.0005964069430052232 0.0 0.001767930611102475 0.0 0.0
-0.0008635287816928516 0.0003764615173326713 0.0 0.0018668268110112463 0.0 0.0
-0.00042958318944189 7.556845247713717e-05 0.0 0.0017157377697317178 0.0 0.0
-2.2159895413417785e-05 -0.00021596700185708313 0.0 0.0008817561199080393 0.0 0.0
-7.401383763777636e-05 -9.969780072355272e-05 0.0 -0.0006685094087286458 0.0 0.0
-0.00047994797456152316 0.00012798956350784652 0.0 -0.0014189174609241517 0.0 0.0
-0.0009665685821350078 0.00041846085329078075 0.0 -0.00157918776255761 0.0 0.0
-0.0014446051999976728 0.0006652748388644714 0.0 -0.0014671419048591372 0.0 0.0
-0.0021678919393581797 0.0011197408302940914 0.0 -0.0014466035280196188 0.0 0.0
-0.003738968052151681 0.002335936208840428 0.0 -0.0018407376171039047 0.0 0.0
-0.006702032792743617 0.004944113220380686 0.0 -0.0029173193794626018 0.0 0.0
-0.01129686416108766 0.009232928420371822 0.0 -0.004710807630742608 0.0 0.0
-0.017501738546414902 0.01516183832202822 0.0 -0.007022209530766266 0.0 0.0
-0.02518136351475847 0.022572546628648826 0.0 -0.009625959159760833 0.0 0.0
-0.03414983822747167 0.03127614227752762 0.0 -0.012254784476744662 0.0 0.0
-0.04427672487633963 0.04114142403658683 0.0 -0.014769569422318995 0.0 0.0
-0.05551681681279749 0.0521256181953067 0.0 -0.01722198223961735 0.0 0.0
-0.06787867506468287 0.06423507389917882 0.0 -0.01964312472739671 0.0 0.0
-0.08132217219088647 0.07741509322396922 0.0 -0.022030892853844408 0.0 0.0
-0.09546766585911354 0.09123270650329607 0.0 -0.02458832023462665 0.0 0.0
-0.10893521146638285 0.10424613243929848 0.0 -0.028052761000139537 0.0 0.0
-0.11866031000790744 0.11341468720166592 0.0 -0.03328914156007323 0.0 0.0
-0.11989725979177301 0.11406414835075473 0.0 -0.04048669601409216 0.0 0.0
-0.1066298172434848 0.10025974260661119 0.0 -0.04961083043580805 0.0 0.0
-0.10662981724347506 0.1002597426065992 0.0 0.04961083043585268 0.0 0.0
-0.11989725979174481 0.11406414835072942 0.0 0.04048669601414645 0.0 0.0
-0.11866031000786179 0.1134146872016184 0.0 0.0332891415601142 0.0 0.0
-0.1089352114663237 0.1042461324392292 0.0 0.028052761000148196 0.0 0.0
-0.0954676658590462 0.09123270650322901 0.0 0.024588320234624317 0.0 0.0
-0.08132217219081593 0.07741509322390216 0.0 0.022030892853835582 0.0 0.0
-0.06787867506461273 0.06423507389910732 0.0 0.019643124727383388 0.0 0.0
-0.05551681681272694 0.05212561819523831 0.0 0.017221982239601807 0.0 0.0
-0.04427672487627089 0.0411414240365211 0.0 0.014769569422301232 0.0 0.0
-0.03414983822740977 0.031276142277470775 0.0 0.012254784476719238 0.0 0.0
-0.025181363514706366 0.022572546628601753 0.0 0.009625959159737796 0.0 0.0
-0.01750173854637354 0.015161838321988919 0.0 0.007022209530750945 0.0 0.0
-0.011296864161058316 0.009232928420342068 0.0 0.004710807630731284 0.0 0.0
-0.006702032792724244 0.004944113220360702 0.0 0.002917319379453276 0.0 0.0
-0.003738968052141939 0.0023359362088328783 0.0 0.0018407376170990197 0.0 0.0
-0.0021678919393545784 0.0011197408302925371 0.0 0.0014466035280177314 0.0 0.0
-0.0014446051999965834 0.0006652748388644714 0.0 0.0014671419048590262 0.0 0.0
-0.0009665685821340989 0.0004184608532910583 0.0 0.001579187762557499 0.0 0.0
-0.000479947974561426 0.0001279895635077355 0.0 0.0014189174609220423 0.0 0.0
-7.401383763761676e-05 -9.969780072322833e-05 0.0 0.0006685094087277021 0.0 0.0
-0.00011025668270886468 -1.2593683609229966e-05 0.0 -0.0004505157577189278 0.0 0.0
-0.0005224029322079549 0.00017731021146188963 0.0 -0.001083289884148353 0.0 0.0
-0.0010646170417509815 0.0004567304040119513 0.0 -0.0012337876373479384 0.0 0.0
-0.0016269860854072893 0.000742579811814581 0.0 -0.0011220043502062627 0.0 0.0
-0.002570360337496025 0.001382577541903851 0.0 -0.0011098377426216333 0.0 0.0
-0.004577157383566899 0.0030326719898925436 0.0 -0.0015043433841879783 0.0 0.0
-0.008118896099383821 0.006247496126927876 0.0 -0.002426588518482542 0.0 0.0
-0.013398324562931718 0.01124354664895244 0.0 -0.0038813943274006446 0.0 0.0
-0.020479329508608257 0.018042609440272805 0.0 -0.005776822962326067 0.0 0.0
-0.029252762465135418 0.02653040343565083 0.0 -0.007920994611888443 0.0 0.0
-0.03954385767870161 0.03653388034931737 0.0 -0.01009142533591778 0.0 0.0
-0.05121627187553135 0.04791937083314979 0.0 -0.012164250819845068 0.0 0.0
-0.06419954559204286 0.06061644225516272 0.0 -0.014198718804682153 0.0 0.0
-0.07843770180203047 0.07456755950822958 0.0 -0.016244599990381525 0.0 0.0
-0.09377884167720413 0.08961441751253396 0.0 -0.01811328566424386 0.0 0.0
-0.10977671192090963 0.10527522519726062 0.0 -0.019544484307383647 0.0 0.0
-0.12514709095852067 0.12018646254334442 0.0 -0.02122513180535579 0.0 0.0
-0.13679547868360323 0.1311900851957586 0.0 -0.025767382959082763 0.0 0.0
-0.13924618396645172 0.13296916011083804 0.0 -0.035972271972114056 0.0 0.0
-0.12556415460623235 0.11869702108493607 0.0 -0.05302511732408233 0.0 0.0
-0.12556415460622106 0.1186970210849232 0.0 0.05302511732411597 0.0 0.0
-0.13924618396641741 0.1329691601108025 0.0 0.03597227197215891 0.0 0.0
-0.13679547868355002 0.1311900851957084 0.0 0.02576738295911757 0.0 0.0
-0.1251470909584534 0.1201864625432747 0.0 0.02122513180536234 0.0 0.0
-0.10977671192083258 0.10527522519718469 0.0 0.01954448430738398 0.0 0.0
-0.09377884167712452 0.08961441751245403 0.0 0.018113285664237755 0.0 0.0
-0.07843770180195025 0.07456755950814786 0.0 0.01624459999037403 0.0 0.0
-0.06419954559196223 0.06061644225508411 0.0 0.014198718804672161 0.0 0.0
-0.05121627187545347 0.04791937083307385 0.0 0.012164250819833383 0.0 0.0
-0.03954385767863138 0.03653388034924676 0.0 0.010091425335897353 0.0 0.0
-0.029252762465076916 0.0265304034355891 0.0 0.007920994611869348 0.0 0.0
-0.02047932950856142 0.018042609440227286 0.0 0.005776822962312855 0.0 0.0
-0.013398324562896906 0.011243546648918468 0.0 0.0038813943273895424 0.0 0.0
-0.008118896099361159 0.006247496126904117 0.0 0.0024265885184752145 0.0 0.0
-0.004577157383554596 0.0030326719898825516 0.0 0.0015043433841846476 0.0 0.0
-0.0025703603374912162 0.0013825775419006314 0.0 0.0011098377426199124 0.0 0.0
-0.001626986085405971 0.0007425798118120275 0.0 0.0011220043502064847 0.0 0.0
-0.0010646170417501558 0.00045673040401056353 0.0 0.0012337876373459955 0.0 0.0
-0.0005224029322075663 0.0001773102114617786 0.0 0.0010832898841477423 0.0 0.0
-0.00011025668270862876 -1.2593683609368744e-05 0.0 0.00045051575771948293 0.0 0.0
-0.00012422965780284345 4.1104595396745935e-05 0.0 -0.00023449090206079104 0.0 0.0
-0.0005479819500438521 0.00021745071737755417 0.0 -0.0007084100206043997 0.0 0.0
-0.0011597040950689919 0.0004926420272148846 0.0 -0.0008240712052138277 0.0 0.0
-0.001829119791299405 0.0008384238878781369 0.0 -0.0007345028175587132 0.0 0.0
-0.003039959915131285 0.0017265047246501908 0.0 -0.0007416267206958871 0.0 0.0
-0.0054962398504348475 0.0038348724000956125 0.0 -0.0010471793741285707 0.0 0.0
-0.009563457536261644 0.0076079455298867504 0.0 -0.0016922682783406806 0.0 0.0
-0.015501066755457926 0.013269940227386812 0.0 -0.0026845310026709646 0.0 0.0
-0.0234293358568321 0.020911633164899524 0.0 -0.004001412450107433 0.0 0.0
-0.03327911911211762 0.030458194629428892 0.0 -0.005512931234060381 0.0 0.0
-0.044887791159549995 0.04175582654500776 0.0 -0.0070441357240521585 0.0 0.0
-0.058109658789030294 0.05466454973381696 0.0 -0.008506843046279355 0.0 0.0
-0.0728430759800695 0.06908095118506452 0.0 -0.009972477220361653 0.0 0.0
-0.08894701795529442 0.08486025260487207 0.0 -0.011434265248547293 0.0 0.0
-0.10611550103396378 0.10169276195106303 0.0 -0.012668055816368207 0.0 0.0
-0.12372897457508306 0.11895224239478797 0.0 -0.013220287649260531 0.0 0.0
-0.14058677332090647 0.13539404631936058 0.0 -0.013047078799386602 0.0 0.0
-0.1541773798747148 0.14838958232021282 0.0 -0.015079920489034504 0.0 0.0
-0.15910047815109293 0.1523656902355479 0.0 -0.027384469750873164 0.0 0.0
-0.14613687618331797 0.13868758772589995 0.0 -0.05503766266352961 0.0 0.0
-0.14613687618330495 0.13868758772588796 0.0 0.05503766266355481 0.0 0.0
-0.15910047815105244 0.1523656902355084 0.0 0.027384469750908524 0.0 0.0
-0.1541773798746532 0.14838958232014932 0.0 0.015079920489060428 0.0 0.0
-0.14058677332083055 0.1353940463192851 0.0 0.0130470787993896 0.0 0.0
-0.12372897457499592 0.11895224239470314 0.0 0.01322028764925992 0.0 0.0
-0.10611550103387458 0.10169276195097998 0.0 0.012668055816366541 0.0 0.0
-0.08894701795520447 0.08486025260478769 0.0 0.011434265248542214 0.0 0.0
-0.07284307597997922 0.06908095118497704 0.0 0.00997247722035452 0.0 0.0
-0.05810965878894266 0.05466454973372903 0.0 0.008506843046271167 0.0 0.0
-0.04488779115947161 0.041755826544932706 0.0 0.007044135724036338 0.0 0.0
-0.033279119112052724 0.030458194629367608 0.0 0.005512931234047058 0.0 0.0
-0.02342933585678051 0.02091163316484934 0.0 0.004001412450100994 0.0 0.0
-0.015501066755418322 0.013269940227347954 0.0 0.002684531002663637 0.0 0.0
-0.00956345753623547 0.00760794552986388 0.0 0.0016922682783343523 0.0 0.0
-0.0054962398504196965 0.003834872400083844 0.0 0.001047179374125018 0.0 0.0
-0.0030399599151249915 0.0017265047246456389 0.0 0.0007416267206949989 0.0 0.0
-0.0018291197912977293 0.0008384238878773598 0.0 0.0007345028175600454 0.0 0.0
-0.0011597040950682286 0.0004926420272138854 0.0 0.0008240712052124954 0.0 0.0
-0.0005479819500430194 0.0002174507173777207 0.0 0.0007084100206012356 0.0 0.0
-0.00012422965780270814 4.1104595396690424e-05 0.0 0.00023449090205990286 0.0 0.0
-0.00010408764016273109 5.537571730140911e-05 0.0 -3.699742004087403e-05 0.0 0.0
-0.000541025174446208 0.0002385817256214673 0.0 -0.00028703540371971537 0.0 0.0
-0.0012576690942985858 0.0005302355326896047 0.0 -0.000336121146931434 0.0 0.0
-0.00207364418210354 0.000978887364554426 0.0 -0.0003120409175595418 0.0 0.0
-0.0035836268191449805 0.0021520259116161178 0.0 -0.00031826957323494165 0.0 0.0
-0.006463317028396087 0.0047045013738222785 0.0 -0.00044095831899321203 0.0 0.0
-0.01102062107091728 0.008995555061001026 0.0 -0.0007074760287883453 0.0 0.0
-0.017579096926963633 0.01528560222708819 0.0 -0.0011224410548908437 0.0 0.0
-0.026323186097484075 0.023736780501713906 0.0 -0.0017049133008256168 0.0 0.0
-0.037228972164348895 0.03432295296058019 0.0 -0.002399564405136001 0.0 0.0
-0.05015339293445348 0.04691290612477461 0.0 -0.0031141345309134705 0.0 0.0
-0.06493219929754862 0.061350040632284664 0.0 -0.0038139226016279393 0.0 0.0
-0.08140402964900384 0.07747427959852349 0.0 -0.004507512579240092 0.0 0.0
-0.09934832452465941 0.09505774182877591 0.0 -0.005158466805863959 0.0 0.0
-0.11831714972698404 0.11364678642512471 0.0 -0.005635718493756214 0.0 0.0
-0.13745054584403502 0.1323855918496104 0.0 -0.005619048760562073 0.0 0.0
-0.15538191167067697 0.14991923125243867 0.0 -0.004681337197329216 0.0 0.0
-0.17013061720126826 0.16423184777360378 0.0 -0.0035534676679142008 0.0 0.0
-0.17821226453051647 0.17161485140828736 0.0 -0.010999213375004091 0.0 0.0
-0.17030541959878023 0.16173840078423485 0.0 -0.05069454374887283 0.0 0.0
-0.17030541959876466 0.1617384007842162 0.0 0.05069454374887872 0.0 0.0
-0.1782122645304708 0.1716148514082425 0.0 0.010999213375022188 0.0 0.0
-0.17013061720119746 0.1642318477735354 0.0 0.0035534676679248034 0.0 0.0
-0.15538191167059073 0.14991923125235918 0.0 0.004681337197325719 0.0 0.0
-0.1374505458439375 0.13238559184951715 0.0 0.005619048760562351 0.0 0.0
-0.1183171497268847 0.11364678642502524 0.0 0.005635718493757047 0.0 0.0
-0.09934832452456004 0.0950577418286751 0.0 0.0051584668058611005 0.0 0.0
-0.08140402964890359 0.0774742795984289 0.0 0.0045075125792369 0.0 0.0
-0.06493219929745149 0.06135004063219407 0.0 0.0038139226016257743 0.0 0.0
-0.05015339293436744 0.046912906124690235 0.0 0.0031141345309059765 0.0 0.0
-0.03722897216427755 0.034322952960511355 0.0 0.0023995644051298393 0.0 0.0
-0.026323186097428432 0.023736780501661725 0.0 0.0017049133008221196 0.0 0.0
-0.017579096926919648 0.015285602227048889 0.0 0.0011224410548860142 0.0 0.0
-0.01102062107088762 0.008995555060975047 0.0 0.0007074760287842929 0.0 0.0
-0.006463317028378138 0.004704501373805403 0.0 0.0004409583189905475 0.0 0.0
-0.003583626819136935 0.0021520259116096785 0.0 0.0003182695732338314 0.0 0.0
-0.0020736441821011895 0.000978887364554537 0.0 0.0003120409175592087 0.0 0.0
-0.0012576690942978216 0.0005302355326906039 0.0 0.0003361211469297132 0.0 0.0
-0.0005410251744456043 0.00023858172562163382 0.0 0.0002870354037184386 0.0 0.0
-0.00010408764016248562 5.5375717301469826e-05 0.0 3.6997420040707496e-05 0.0 0.0
SCALARS Statev float 8
LOOKUP_TABLE default
0.0 0.013195345188780312 0.010205400179259753 -0.010586665062087329 0.00038126488282757214 -0.005867955196384721 0.0 0.0
0.0 0.0007583987920287301 0.0005354721769301363 -0.0004542551511546904 -8.121702577544568e-05 0.0004961994275956181 0.0 0.0
0.0 3.342380937738801e-05 -4.754075056001044e-06 3.773145031477424e-06 9.809300245235895e-07 5.62033213615258e-07 0.0 0.0
0.0 0.00028438033147706524 0.00020291724479546672 -0.00015991910957376685 -4.2998135221699856e-05 -2.8538471288101945e-05 0.0 0.0
0.0 0.0015370994344911999 0.0012448930186743463 -0.001032044870913332 -0.00021284814776101414 -0.000134886747560721 0.0 0.0
0.0 0.004165722724674815 0.0037748382007363156 -0.0033197257247672045 -0.00045511247596911083 -0.0003098158120778998 0.0 0.0
0.0 0.00901874341689813 0.008035748723088522 -0.007410520706460075 -0.0006252280166284447 -0.0005720597920917174 0.0 0.0
0.0 0.016254537369107123 0.014331359017834 -0.013588874572298466 -0.0007424844455355304 -0.0009675110902397355 0.0 0.0
0.0 0.02604816161698871 0.022819089576204224 -0.02197164764576091 -0.0008474419304433095 -0.0015260461715447958 0.0 0.0
0.0 0.03837780695068454 0.03348072442430676 -0.03252414042630528 -0.0009565839980014709 -0.0022063554061553126 0.0 0.0
0.0 0.05312123046457848 0.04619029152203118 -0.04512019538914127 -0.0010700961328898792 -0.0029219651519472576 0.0 0.0
0.0 0.06981725570441133 0.06079604307147196 -0.05961005921451272 -0.0011859838569591862 -0.003628890378926699 0.0 0.0
0.0 0.08859423128719818 0.07714185977862896 -0.0758387305222472 -0.0013031292563816933 -0.004328586282731597 0.0 0.0
0.0 0.10923513762456069 0.09504211340212307 -0.09361902894331485 -0.0014230844588081562 -0.005015613315660887 0.0 0.0
0.0 0.13128840100436792 0.11416097464057379 -0.11261369635500025 -0.0015472782855735115 -0.005662926945881037 0.0 0.0
0.0 0.15406697917956974 0.13387356517701196 -0.1321989038572069 -0.0016746613198051243 -0.006146537130931733 0.0 0.0
0.0 0.1764127675628215 0.1532062636784015 -0.151405122058952 -0.001801141619449479 -0.006238994057978668 0.0 0.0
0.0 0.19681902868432924 0.17087062794631036 -0.16894860974848622 -0.0019220181978241487 -0.005712168810205738 0.0 0.0
0.0 0.21350939036974292 0.1853236514767922 -0.1832881486030123 -0.0020355028737798586 -0.004812758812978626 0.0 0.0
0.0 0.22370374519112068 0.1942886911910562 -0.19208506048841306 -0.002203630702643208 -0.005395464922635642 0.0 0.0
0.0 0.22370374519110572 0.1942886911910433 -0.19208506048839988 -0.002203630702643409 0.005395464922644851 0.0 0.0
0.0 0.2135093903696941 0.18532365147674984 -0.18328814860296966 -0.002035502873780127 0.004812758812999602 0.0 0.0
0.0 0.19681902868425039 0.17087062794624225 -0.1689486097484181 -0.0019220181978241509 0.005712168810218059 0.0 0.0
0.0 0.1764127675627223 0.15320626367831527 -0.15140512205886641 -0.0018011416194488685 0.006238994057985645 0.0 0.0
0.0 0.15406697917946427 0.13387356517692048 -0.13219890385711616 -0.0016746613198043944 0.006146537130922088 0.0 0.0
0.0 0.1312884010042593 0.11416097464047952 -0.11261369635490642 -0.001547278285573055 0.0056629269458804525 0.0 0.0
0.0 0.10923513762445211 0.09504211340202881 -0.09361902894322137 -0.0014230844588074007 0.005015613315660705 0.0 0.0
0.0 0.08859423128709207 0.07714185977853658 -0.07583873052215612 -0.0013031292563804797 0.004328586282731242 0.0 0.0
0.0 0.0698172557043073 0.0607960430713819 -0.05961005921442294 -0.0011859838569589322 0.0036288903789195547 0.0 0.0
0.0 0.05312123046448569 0.0461902915219505 -0.045120195389061 -0.001070096132889477 0.0029219651519422096 0.0 0.0
0.0 0.03837780695060953 0.03348072442424159 -0.03252414042624103 -0.0009565839980005765 0.0022063554061466754 0.0 0.0
0.0 0.02604816161693161 0.02281908957615402 -0.021971647645711394 -0.0008474419304426448 0.0015260461715422165 0.0 0.0
0.0 0.016254537369065188 0.014331359017796752 -0.0135888745722618 -0.000742484445534947 0.0009675110902360515 0.0 0.0
0.0 0.00901874341687063 0.008035748723063786 -0.007410520706436021 -0.0006252280166277623 0.0005720597920901986 0.0 0.0
0.0 0.004165722724659846 0.003774838200722436 -0.0033197257247541846 -0.0004551124759682514 0.00030981581207644056 0.0 0.0
0.0 0.001537099434484514 0.0012448930186688598 -0.001032044870908591 -0.00021284814776026796 0.00013488674756017248 0.0 0.0
0.0 0.0002843803314750407 0.00020291724479456634 -0.00015991910957302317 -4.299813522154315e-05 2.8538471287857132e-05 0.0 0.0
0.0 3.342380937687491e-05 -4.754075055922566e-06 3.7731450314146314e-06 9.80930024507978e-07 -5.620332136057866e-07 0.0 0.0
0.0 0.0007583987920257495 0.0005354721769284242 -0.0004542551511531683 -8.12170257752562e-05 -0.000496199427593464 0.0 0.0
0.0 0.013195345188762059 0.010205400179247618 -0.010586665062074141 0.0003812648828265187 0.005867955196355246 0.0 0.0
0.0 0.009784561393759906 0.0070928653526897735 -0.007585898571415501 0.000493033218725725 -0.006773825757241963 0.0 0.0
0.0 6.149986632792971e-06 3.731438656922395e-06 -3.2468747118148377e-06 -4.84563945107564e-07 2.464030842074466e-06 0.0 0.0
0.0 4.848010466591598e-07 3.947668849780739e-09 -2.0155502344407122e-09 -1.932118615342771e-09 1.94079655548692e-09 0.0 0.0
0.0 0.00010709630565686026 6.946954470296323e-05 -5.441003820672905e-05 -1.505950649623442e-05 -2.4973705435578238e-05 0.0 0.0
0.0 0.001022668544517017 0.0007874111661969776 -0.000643655345324545 -0.00014375582087243266 -0.00020993617839325262 0.0 0.0
0.0 0.0031955724176667734 0.002899027438451482 -0.002509970684748945 -0.0003890567537025365 -0.0006313516480596489 0.0 0.0
0.0 0.007485574921250088 0.006666005750110868 -0.006080606629007053 -0.0005853991211038121 -0.0012991056826740825 0.0 0.0
0.0 0.014012268430557041 0.01233498412127314 -0.01161905878104043 -0.0007159253402327085 -0.0022587208480157085 0.0 0.0
0.0 0.022872229051007553 0.020006130510420245 -0.01918389404960408 -0.000822236460816153 -0.00353587465292319 0.0 0.0
0.0 0.03398711686396409 0.02961381835628373 -0.028686825232482695 -0.0009269931238010368 -0.005031188848469142 0.0 0.0
0.0 0.047187030201746166 0.04101200487322624 -0.03997906729854096 -0.0010329375746852703 -0.0065779860244834405 0.0 0.0
0.0 0.0623613519318875 0.05406805616508093 -0.05292869998361215 -0.001139356181468776 -0.008072273129640454 0.0 0.0
0.0 0.07910505722590516 0.06868661720824026 -0.06743947786838973 -0.0012471393398505184 -0.009566993971889757 0.0 0.0
0.0 0.09755410668082476 0.08472613760657265 -0.0833688167738252 -0.001357320832747421 -0.011076966648692127 0.0 0.0
0.0 0.11737522345893346 0.1019008322511224 -0.10043041352357891 -0.001470418727543428 -0.012501593783293725 0.0 0.0
0.0 0.1378806775028738 0.11968146088788513 -0.11809562453608298 -0.00158583635180215 -0.01359301332284771 0.0 0.0
0.0 0.1581075920962362 0.13722584501520985 -0.13552406351186239 -0.0017017815033474703 -0.013908116534634142 0.0 0.0
0.0 0.17670694028641204 0.1533560715945536 -0.15153905833866563 -0.0018170132558879587 -0.013082798376948122 0.0 0.0
0.0 0.19177286268571675 0.16643825471196594 -0.16449492598216708 -0.0019433287297988767 -0.011315060983149836 0.0 0.0
0.0 0.20080565192957794 0.17430926649223338 -0.17226930093643877 -0.002039965555794586 -0.008419049989106505 0.0 0.0
0.0 0.20080565192956634 0.17430926649222306 -0.17226930093642873 -0.0020399655557943657 0.008419049989130224 0.0 0.0
0.0 0.19177286268567786 0.16643825471193097 -0.16449492598213344 -0.0019433287297975486 0.011315060983188527 0.0 0.0
0.0 0.17670694028634396 0.15335607159449352 -0.1515390583386067 -0.0018170132558867978 0.013082798376974694 0.0 0.0
0.0 0.15810759209615097 0.1372258450151357 -0.1355240635117886 -0.001701781503346982 0.013908116534645775 0.0 0.0
0.0 0.13788067750278452 0.11968146088780755 -0.11809562453600667 -0.0015858363518008096 0.013593013322837272 0.0 0.0
0.0 0.11737522345883566 0.10190083225103738 -0.10043041352349483 -0.001470418727542511 0.012501593783290191 0.0 0.0
0.0 0.09755410668072863 0.08472613760648913 -0.08336881677374249 -0.001357320832746603 0.011076966648688118 0.0 0.0
0.0 0.07910505722580821 0.06868661720815605 -0.06743947786830623 -0.001247139339849793 0.009566993971884905 0.0 0.0
0.0 0.06236135193179579 0.054068056165001196 -0.05292869998353332 -0.0011393561814678544 0.008072273129629291 0.0 0.0
0.0 0.047187030201666244 0.04101200487315687 -0.03997906729847214 -0.0010329375746847105 0.006577986024473724 0.0 0.0
0.0 0.0339871168638951 0.029613818356223932 -0.02868682523242309 -0.000926993123800834 0.00503118884845568 0.0 0.0
0.0 0.02287222905095424 0.020006130510373393 -0.019183894049557542 -0.0008222364608158389 0.003535874652916125 0.0 0.0
0.0 0.01401226843052084 0.012334984121241187 -0.011619058781009092 -0.0007159253402321033 0.0022587208480092623 0.0 0.0
0.0 0.007485574921224107 0.0066660057500875685 -0.006080606628984483 -0.0005853991211030822 0.0012991056826698883 0.0 0.0
0.0 0.0031955724176517923 0.0028990274384382165 -0.0025099706847366886 -0.00038905675370152793 0.0006313516480566347 0.0 0.0
0.0 0.0010226685445120008 0.0007874111661933275 -0.0006436553453214302 -0.00014375582087189733 0.00020993617839227703 0.0 0.0
0.0 0.0001070963056561032 6.946954470291611e-05 -5.441003820668425e-05 -1.5059506496231711e-05 2.497370543553843e-05 0.0 0.0
0.0 4.848010467238715e-07 3.947668915462016e-09 -2.0155502839606803e-09 -1.9321186315032333e-09 -1.9407965332395584e-09 0.0 0.0
0.0 6.149986632458331e-06 3.7314386569617805e-06 -3.2468747118422587e-06 -4.845639451195178e-07 -2.464030842091389e-06 0.0 0.0
0.0 0.009784561393738535 0.007092865352675661 -0.007585898571400653 0.0004930332187249893 0.006773825757216889 0.0 0.0
0.0 0.007409427527481933 0.005085402221312573 -0.00560482642963699 0.0005194242083244181 -0.00594321155873324 0.0 0.0
0.0 0.0 0.0 0.0 0.0 0.0 0.0 0.0
0.0 0.0 0.0 0.0 0.0 0.0 0.0 0.0
0.0 2.127311207226568e-05 1.6195133936804237e-05 -1.2642404653953837e-05 -3.5527292828504236e-06 -1.0770381841711392e-05 0.0 0.0
0.0 0.000565818100417037 0.000440036417803267 -0.00035486163925076223 -8.517477855250451e-05 -0.00020879856031467931 0.0 0.0
0.0 0.0024712418145945445 0.002070301880614079 -0.0017624637757662502 -0.0003078381048478281 -0.0007795228785559744 0.0 0.0
0.0 0.006009840080814687 0.005324891327082099 -0.00479050242440945 -0.0005343889026726517 -0.0017625330536519131 0.0 0.0
0.0 0.011793884764550237 0.01033312083688668 -0.009651451997676998 -0.0006816688392096756 -0.0031862078873635753 0.0 0.0
0.0 0.01971863108400668 0.017154954251286075 -0.01636286828891296 -0.0007920859623731146 -0.00503217012746518 0.0 0.0
0.0 0.029629118284869374 0.02568790110722985 -0.02479519943775403 -0.0008927016694758009 -0.007158715003669941 0.0 0.0
0.0 0.041359158780291325 0.0357703511743392 -0.034779200640821205 -0.00099115053351798 -0.009354463374731685 0.0 0.0
0.0 0.05467890591680185 0.04728344687408568 -0.04619461595502934 -0.001088830919056327 -0.011483824753221974 0.0 0.0
0.0 0.06968188155139707 0.060160092706436664 -0.058972982445553615 -0.0011871102608830655 -0.013588628957605925 0.0 0.0
0.0 0.0859359825667154 0.07431677457992365 -0.07302967905489866 -0.0012870955250249548 -0.01573140647340206 0.0 0.0
0.0 0.10346411203856373 0.08953431511079649 -0.08814556649222882 -0.0013887486185676346 -0.017790305227531587 0.0 0.0
0.0 0.12175737241991143 0.10538571581334451 -0.10389356360322963 -0.0014921522101148336 -0.01939585158463338 0.0 0.0
0.0 0.1399149538337181 0.12116417784688514 -0.11956627634512344 -0.0015979015017616757 -0.020006165159059227 0.0 0.0
0.0 0.15667161791162101 0.13578135399310548 -0.13407143937256763 -0.0017099146205378426 -0.019126175917027425 0.0 0.0
0.0 0.170248474741876 0.1476727636494084 -0.1458537226031281 -0.0018190410462802903 -0.016269900304776465 0.0 0.0
0.0 0.17860179010109373 0.15506187181801073 -0.15316412656580167 -0.001897745252208983 -0.010562683498925834 0.0 0.0
0.0 0.17860179010108052 0.15506187181799874 -0.15316412656578965 -0.0018977452522090008 0.010562683498963318 0.0 0.0
0.0 0.1702484747418358 0.14767276364937232 -0.14585372260309162 -0.0018190410462807648 0.01626990030482956 0.0 0.0
0.0 0.15667161791156212 0.13578135399305297 -0.13407143937251548 -0.0017099146205374366 0.019126175917064753 0.0 0.0
0.0 0.1399149538336435 0.12116417784681938 -0.11956627634505865 -0.0015979015017607765 0.020006165159075988 0.0 0.0
0.0 0.12175737241982666 0.10538571581327123 -0.1038935636031568 -0.001492152210114379 0.01939585158462298 0.0 0.0
0.0 0.10346411203847886 0.08953431511072274 -0.08814556649215577 -0.0013887486185669836 0.017790305227526095 0.0 0.0
0.0 0.08593598256662988 0.07431677457984912 -0.07302967905482506 -0.0012870955250240692 0.01573140647339718 0.0 0.0
0.0 0.06968188155131111 0.06016009270636211 -0.05897298244547932 -0.001187110260882775 0.013588628957599113 0.0 0.0
0.0 0.0546789059167197 0.04728344687401481 -0.046194615954959106 -0.0010888309190557161 0.011483824753205592 0.0 0.0
0.0 0.04135915878021644 0.03577035117427403 -0.034779200640756805 -0.000991150533517198 0.009354463374716421 0.0 0.0
0.0 0.029629118284810293 0.02568790110717849 -0.024795199437703384 -0.0008927016694750959 0.00715871500365229 0.0 0.0
0.0 0.01971863108396186 0.017154954251246884 -0.016362868288874434 -0.0007920859623724501 0.0050321701274543915 0.0 0.0
0.0 0.011793884764514897 0.010333120836855716 -0.009651451997646636 -0.00068166883920908 0.0031862078873537538 0.0 0.0
0.0 0.0060098400807913795 0.005324891327061426 -0.00479050242438971 -0.0005343889026717164 0.0017625330536454806 0.0 0.0
0.0 0.002471241814582886 0.002070301880604425 -0.0017624637757575551 -0.00030783810484687034 0.000779522878551918 0.0 0.0
0.0 0.0005658181004133871 0.0004400364178007149 -0.00035486163924862814 -8.517477855208671e-05 0.00020879856031338193 0.0 0.0
0.0 2.1273112071938933e-05 1.6195133937050158e-05 -1.2642404654136849e-05 -3.5527292829133353e-06 1.0770381841814691e-05 0.0 0.0
0.0 0.0 0.0 0.0 0.0 0.0 0.0 0.0
0.0 0.0 0.0 0.0 0.0 0.0 0.0 0.0
0.0 0.007409427527463154 0.005085402221299665 -0.005604826429623427 0.0005194242083237606 0.005943211558712369 0.0 0.0
0.0 0.0055469731976381075 0.003650376449279343 -0.004139116731462158 0.0004887402821828131 -0.0046909449225999485 0.0 0.0
0.0 0.0 0.0 0.0 0.0 0.0 0.0 0.0
0.0 0.0 0.0 0.0 0.0 0.0 0.0 0.0
0.0 3.405814905865654e-06 7.901281393317538e-07 -6.107899364502738e-07 -1.7933820288146484e-07 -7.973206979740311e-07 0.0 0.0
0.0 0.0002685893639446219 0.0002022031907636693 -0.000161620550851521 -4.058263991214805e-05 -0.00015447466234474398 0.0 0.0
0.0 0.001686684371969358 0.001364179036449255 -0.0011409878717701435 -0.00022319116467911136 -0.0007810606398278017 0.0 0.0
0.0 0.004656917757308624 0.004030779271923851 -0.0035664936612283156 -0.0004642856106955365 -0.0019674120581573513 0.0 0.0
0.0 0.009627473356736067 0.008351723691262572 -0.007713811483806494 -0.0006379122074560763 -0.003742959765646271 0.0 0.0
0.0 0.01658613445533827 0.014296900239068926 -0.0135418772018475 -0.0007550230372214298 -0.006006582401645723 0.0 0.0
0.0 0.02527777173026228 0.021737497667492424 -0.020884616912508036 -0.0008528807549843581 -0.008592231463390783 0.0 0.0
0.0 0.03551374921363776 0.030498001026046766 -0.02955348910261056 -0.0009445119234361911 -0.011250962516299614 0.0 0.0
0.0 0.047141256504483274 0.04046546275312063 -0.03943164113749065 -0.0010338216156300047 -0.013843279648553166 0.0 0.0
0.0 0.06009357781784141 0.05160099358253365 -0.05047847566957425 -0.0011225179129594133 -0.01642019363802774 0.0 0.0
0.0 0.07436282648231916 0.06386121138689972 -0.06264882572867264 -0.00121238565822706 -0.019003721191028066 0.0 0.0
0.0 0.08973572194586307 0.07710027672785591 -0.07579776370823965 -0.0013025130196162374 -0.02148464441495267 0.0 0.0
0.0 0.10561778329024366 0.09100430622748171 -0.08961065727108732 -0.0013936489563943504 -0.0235197219514326 0.0 0.0
0.0 0.12171440247990387 0.10499867577242346 -0.10350934145043542 -0.00148933432198803 -0.024490940165282256 0.0 0.0
0.0 0.1367211123136638 0.11813793359195895 -0.11654746053546379 -0.001590473056495197 -0.02364238499785328 0.0 0.0
0.0 0.1490598670972642 0.12906218511195158 -0.12737461539553355 -0.0016875697164180285 -0.01997652575519313 0.0 0.0
0.0 0.15701805377367697 0.13624599458115555 -0.1344873647317419 -0.0017586298494136593 -0.01229401272655015 0.0 0.0
0.0 0.15701805377366962 0.13624599458114778 -0.13448736473173478 -0.0017586298494130198 0.01229401272659863 0.0 0.0
0.0 0.1490598670972334 0.12906218511192222 -0.12737461539550454 -0.0016875697164176037 0.019976525755255416 0.0 0.0
0.0 0.13672111231361225 0.1181379335919123 -0.11654746053541676 -0.0015904730564954561 0.02364238499789613 0.0 0.0
0.0 0.12171440247984192 0.10499867577236845 -0.10350934145038071 -0.0014893343219877083 0.024490940165300804 0.0 0.0
0.0 0.10561778329017164 0.09100430622741931 -0.0896106572710257 -0.0013936489563936279 0.02351972195142327 0.0 0.0
0.0 0.08973572194578518 0.07710027672778855 -0.07579776370817268 -0.0013025130196158425 0.021484644414943375 0.0 0.0
0.0 0.07436282648224413 0.06386121138683432 -0.06264882572860803 -0.0012123856582262858 0.01900372119102048 0.0 0.0
0.0 0.06009357781776852 0.05160099358247022 -0.050478475669511434 -0.0011225179129587702 0.016420193638018388 0.0 0.0
0.0 0.04714125650441612 0.04046546275306269 -0.03943164113743294 -0.0010338216156297487 0.013843279648535179 0.0 0.0
0.0 0.03551374921357449 0.030498001025992268 -0.029553489102556167 -0.0009445119234360988 0.011250962516280858 0.0 0.0
0.0 0.025277771730210407 0.021737497667448098 -0.020884616912464255 -0.0008528807549838329 0.00859223146336941 0.0 0.0
0.0 0.01658613445529767 0.014296900239033706 -0.013541877201813008 -0.0007550230372206941 0.006006582401632313 0.0 0.0
0.0 0.009627473356705132 0.008351723691235767 -0.007713811483780448 -0.0006379122074553162 0.003742959765634317 0.0 0.0
0.0 0.0046569177572904595 0.004030779271908291 -0.003566493661213683 -0.0004642856106946061 0.0019674120581501904 0.0 0.0
0.0 0.0016866843719600634 0.0013641790364422516 -0.0011409878717640464 -0.0002231911646782055 0.0007810606398237089 0.0 0.0
0.0 0.0002685893639412147 0.0002022031907616203 -0.00016162055084983194 -4.058263991178845e-05 0.0001544746623431872 0.0 0.0
0.0 3.4058149054063978e-06 7.901281394498737e-07 -6.107899365395977e-07 -1.793382029102655e-07 7.973206980808562e-07 0.0 0.0
0.0 0.0 0.0 0.0 0.0 0.0 0.0 0.0
0.0 0.0 0.0 0.0 0.0 0.0 0.0 0.0
0.0 0.005546973197621882 0.0036503764492685944 -0.004139116731450727 0.0004887402821821307 0.0046909449225836465 0.0 0.0
0.0 0.004022065195452423 0.0025498023970869617 -0.0029735629438454973 0.00042376054675853593 -0.003466844624013288 0.0 0.0
0.0 0.0 0.0 0.0 0.0 0.0 0.0 0.0
0.0 0.0 0.0 0.0 0.0 0.0 0.0 0.0
0.0 5.26535666926428e-07 1.3296743993840737e-07 -1.011396607282778e-07 -3.182777921012974e-08 -1.9272702428454736e-07 0.0 0.0
0.0 0.00010837193444036898 7.325658595128193e-05 -5.8418740025742917e-05 -1.4837845925539065e-05 -8.686551399618272e-05 0.0 0.0
0.0 0.0010302642887524281 0.0008003603642097213 -0.0006584822002911918 -0.00014187816391852972 -0.0006795318590160829 0.0 0.0
0.0 0.0034924864337156085 0.002829951156702424 -0.0024546292047820215 -0.00037532195192040195 -0.0019232054834469 0.0 0.0
0.0 0.007580404649431201 0.006412393074832628 -0.005834220583565854 -0.0005781724912667724 -0.0038881389106439415 0.0 0.0
0.0 0.013495956789251152 0.011463349666209233 -0.010754481856665566 -0.0007088678095436688 -0.006451221198794542 0.0 0.0
0.0 0.020964873623875037 0.017795742333715663 -0.01698943238867056 -0.0008063099450451 -0.009325949398662315 0.0 0.0
0.0 0.029716877011198628 0.02522786752363903 -0.024335658145177113 -0.0008922093784619408 -0.012275277379934835 0.0 0.0
0.0 0.03958906801922191 0.033649006816269734 -0.032675720933910204 -0.0009732858823595093 -0.015150643186243836 0.0 0.0
0.0 0.050634595075580234 0.04304052487110839 -0.041987770046450885 -0.0010527548246575215 -0.018006575367000004 0.0 0.0
0.0 0.06265163802380015 0.05340289420773106 -0.05227083932787668 -0.0011320548798544057 -0.020886735840313014 0.0 0.0
0.0 0.0757600086788753 0.06465104932308972 -0.06343986278700221 -0.0012111865360874769 -0.023639492468674167 0.0 0.0
0.0 0.08967177471319696 0.07656572456168562 -0.07527498918902575 -0.00129073537265984 -0.02593071260731135 0.0 0.0
0.0 0.10351640231087963 0.08872918794731868 -0.08735603497611762 -0.0013731529712010418 -0.027222804973533216 0.0 0.0
0.0 0.11674304551085901 0.10041430251256153 -0.09895301161022195 -0.0014612909023395556 -0.026584356776725254 0.0 0.0
0.0 0.1280156057903305 0.11051018483972574 -0.10896160908536036 -0.0015485757543653536 -0.02258668807786836 0.0 0.0
0.0 0.13578457050784432 0.11766783629856412 -0.11605047703683105 -0.0016173592617330236 -0.013731181951092405 0.0 0.0
0.0 0.13578457050783263 0.11766783629855279 -0.11605047703681927 -0.001617359261733453 0.013731181951141865 0.0 0.0
0.0 0.12801560579029997 0.11051018483969635 -0.10896160908533017 -0.0015485757543661596 0.022586688077932654 0.0 0.0
0.0 0.11674304551081502 0.10041430251252013 -0.0989530116101807 -0.0014612909023393984 0.026584356776771966 0.0 0.0
0.0 0.1035164023108273 0.08872918794727115 -0.08735603497607079 -0.0013731529712003405 0.027222804973553873 0.0 0.0
0.0 0.08967177471313509 0.07656572456163202 -0.07527498918897237 -0.0012907353726597198 0.025930712607303022 0.0 0.0
0.0 0.0757600086788118 0.06465104932303478 -0.06343986278694738 -0.001211186536087392 0.02363949246866416 0.0 0.0
0.0 0.06265163802373575 0.053402894207675314 -0.05227083932782096 -0.0011320548798543478 0.020886735840303837 0.0 0.0
0.0 0.0506345950755161 0.04304052487105249 -0.04198777004639535 -0.001052754824657118 0.018006575366989384 0.0 0.0
0.0 0.03958906801916074 0.03364900681621707 -0.03267572093385833 -0.0009732858823587128 0.015150643186224163 0.0 0.0
0.0 0.029716877011148352 0.025227867523595765 -0.02433565814513522 -0.0008922093784605595 0.012275277379913973 0.0 0.0
0.0 0.020964873623832172 0.017795742333679913 -0.016989432388635633 -0.0008063099450442862 0.009325949398638593 0.0 0.0
0.0 0.013495956789214118 0.011463349666177711 -0.010754481856634482 -0.0007088678095432276 0.00645122119877856 0.0 0.0
0.0 0.007580404649402168 0.0064123930748084465 -0.005834220583542344 -0.0005781724912661018 0.0038881389106295646 0.0 0.0
0.0 0.0034924864336998308 0.0028299511566896966 -0.002454629204770284 -0.00037532195191941164 0.0019232054834388867 0.0 0.0
0.0 0.0010302642887451865 0.0008003603642044571 -0.0006584822002867538 -0.00014187816391770302 0.0006795318590117195 0.0 0.0
0.0 0.00010837193443889877 7.325658595079204e-05 -5.841874002533152e-05 -1.4837845925460458e-05 8.686551399552698e-05 0.0 0.0
0.0 5.265356667704827e-07 1.3296744007143917e-07 -1.0113966083023592e-07 -3.182777924120136e-08 1.9272702448443443e-07 0.0 0.0
0.0 0.0 0.0 0.0 0.0 0.0 0.0 0.0
0.0 0.0 0.0 0.0 0.0 0.0 0.0 0.0
0.0 0.004022065195439096 0.0025498023970783336 -0.002973562943836089 0.0004237605467577535 0.0034668446240008954 0.0 0.0
0.0 0.002752020273789745 0.001691578291819893 -0.0020295927603791054 0.0003380144685592118 -0.0024141732300410504 0.0 0.0
0.0 0.0 0.0 0.0 0.0 0.0 0.0 0.0
0.0 0.0 0.0 0.0 0.0 0.0 0.0 0.0
0.0 1.2459832782016668e-06 -8.711175530045244e-08 6.722946238267231e-08 1.9882292917777628e-08 2.0432140011233723e-07 0.0 0.0
0.0 4.636904608440137e-05 2.3225101638479848e-05 -1.8473247293975883e-05 -4.7518543445039666e-06 -4.072970191890626e-05 0.0 0.0
0.0 0.0005414458114311905 0.0004013368360069359 -0.0003260775802460808 -7.525925576085484e-05 -0.0005098728970891902 0.0 0.0
0.0 0.0023050919875807884 0.0018009999890921371 -0.0015285918608670705 -0.0002724081282250661 -0.001724762621969093 0.0 0.0
0.0 0.005645631125016349 0.004571312152099155 -0.004078491992763052 -0.0004928201593361011 -0.003685485082383511 0.0 0.0
0.0 0.010519143182736595 0.008683767416261262 -0.008035874759088263 -0.0006478926571729977 -0.00633200357591654 0.0 0.0
0.0 0.016709116421784444 0.013897927487430628 -0.013147448226853459 -0.0007504792605771708 -0.009347091215985016 0.0 0.0
0.0 0.02394911144814467 0.019995600278628664 -0.01916351937192101 -0.0008320809067076521 -0.012409203889304197 0.0 0.0
0.0 0.03209649985249837 0.026870915999992598 -0.02596490467452227 -0.0009060113254703301 -0.015394353902094189 0.0 0.0
0.0 0.041131540406864335 0.034521331778228644 -0.03354495773036143 -0.0009763740478672136 -0.01835911960018812 0.0 0.0
0.0 0.05109577316130687 0.04298020043124351 -0.041935046673892945 -0.0010451537573505781 -0.02133194582177564 0.0 0.0
0.0 0.061981005867541815 0.052225996177045285 -0.05111217381458293 -0.0011138223624623772 -0.02419520606483986 0.0 0.0
0.0 0.07334518381138835 0.06212030182887121 -0.06093858384772288 -0.0011817179811483374 -0.02663713725581147 0.0 0.0
0.0 0.08526521063894683 0.07238529753693466 -0.0711357249122759 -0.0012495726246587113 -0.028143916231483712 0.0 0.0
0.0 0.09685020010648653 0.08257434100023277 -0.08125234100579706 -0.0013219999944357088 -0.0278397444654191 0.0 0.0
0.0 0.10696592205829428 0.09189532032485888 -0.09049578318017101 -0.0013995371446878025 -0.024071791483530013 0.0 0.0
0.0 0.11468453360924846 0.09915363895181796 -0.0976839261372531 -0.001469712814564809 -0.014900405928406754 0.0 0.0
0.0 0.11468453360924324 0.09915363895181115 -0.09768392613724709 -0.001469712814564048 0.014900405928457136 0.0 0.0
0.0 0.10696592205827365 0.09189532032483642 -0.09049578318014913 -0.0013995371446873274 0.024071791483595607 0.0 0.0
0.0 0.09685020010645472 0.08257434100020093 -0.08125234100576535 -0.001321999994435603 0.02783974446546666 0.0 0.0
0.0 0.08526521063890513 0.07238529753689622 -0.07113572491223757 -0.0012495726246586321 0.028143916231504015 0.0 0.0
0.0 0.07334518381133658 0.062120301828826344 -0.06093858384767873 -0.0011817179811475888 0.026637137255802287 0.0 0.0
0.0 0.061981005867486574 0.05222599617699763 -0.051112173814535804 -0.0011138223624618025 0.024195206064827057 0.0 0.0
0.0 0.051095773161257574 0.04298020043120038 -0.04193504667385066 -0.00104515375734973 0.021331945821765792 0.0 0.0
0.0 0.041131540406814555 0.03452133177818538 -0.03354495773031875 -0.0009763740478666477 0.018359119600177724 0.0 0.0
0.0 0.03209649985245004 0.026870915999951644 -0.025964904674481794 -0.0009060113254698545 0.015394353902075802 0.0 0.0
0.0 0.023949111448101346 0.019995600278592242 -0.019163519371885283 -0.0008320809067069683 0.012409203889283477 0.0 0.0
0.0 0.016709116421746197 0.013897927487399306 -0.013147448226822978 -0.0007504792605763255 0.009347091215959677 0.0 0.0
0.0 0.010519143182706395 0.008683767416236022 -0.008035874759063708 -0.0006478926571723137 0.006332003575899802 0.0 0.0
0.0 0.005645631124995514 0.004571312152082255 -0.004078491992747096 -0.0004928201593351576 0.003685485082370879 0.0 0.0
0.0 0.0023050919875694832 0.0018009999890834507 -0.0015285918608593228 -0.00027240812822412806 0.0017247626219617142 0.0 0.0
0.0 0.0005414458114261856 0.00040133683600379047 -0.00032607758024346344 -7.525925576032693e-05 0.0005098728970854016 0.0 0.0
0.0 4.636904608338792e-05 2.3225101638432607e-05 -1.847324729392157e-05 -4.751854344511029e-06 4.072970191871827e-05 0.0 0.0
0.0 1.245983277765114e-06 -8.711175526903953e-08 6.722946235833695e-08 1.9882292910690027e-08 -2.0432140003799813e-07 0.0 0.0
0.0 0.0 0.0 0.0 0.0 0.0 0.0 0.0
0.0 0.0 0.0 0.0 0.0 0.0 0.0 0.0
0.0 0.0027520202737791703 0.001691578291813344 -0.0020295927603717857 0.0003380144685584426 0.0024141732300315046 0.0 0.0
0.0 0.0017551127845906707 0.0010279764711781866 -0.001269247071187709 0.00024127060000952218 -0.0015488211525371215 0.0 0.0
0.0 4.3237046965141747e-07 -5.414833726629138e-09 5.131917599336839e-09 2.829161272924473e-10 8.656951798426124e-08 0.0 0.0
0.0 0.0 0.0 0.0 0.0 0.0 0.0 0.0
0.0 1.343535810957597e-06 -6.745450613659108e-08 5.1836617700734505e-08 1.5617888435866596e-08 2.5068220686766373e-07 0.0 0.0
0.0 2.4452876693011145e-05 1.106249923605686e-05 -8.749778804847104e-06 -2.3127204312097567e-06 -2.8672632893757248e-05 0.0 0.0
0.0 0.0002812913274704127 0.00015983102062430671 -0.00012889909366072664 -3.093192696358009e-05 -0.00030829052027530924 0.0 0.0
0.0 0.00136492296926368 0.0009722788360925568 -0.0008074312661663954 -0.00016484756992616106 -0.0013564671107345085 0.0 0.0
0.0 0.003817062136195914 0.002909731835582497 -0.002531587479328504 -0.00037814435625399187 -0.003195383512775327 0.0 0.0
0.0 0.007641909964846762 0.006019677991221831 -0.00546048587822551 -0.0005591921129963173 -0.005689272689340459 0.0 0.0
0.0 0.012537092693016475 0.010082801057753877 -0.009404445703231729 -0.0006783553545221501 -0.008617082332774 0.0 0.0
0.0 0.01825825663336836 0.014839487739177348 -0.014079452148167557 -0.0007600355910097889 -0.011637465828073405 0.0 0.0
0.0 0.024659764275462986 0.020173305468491734 -0.019344504171962568 -0.0008288012965291657 -0.014560181293952793 0.0 0.0
0.0 0.03175374879428652 0.026088075319829693 -0.025197303366325013 -0.0008907719535046649 -0.01744382314745168 0.0 0.0
0.0 0.03953697026455342 0.03264484377882852 -0.03169555802560124 -0.000949285753227261 -0.020340909972388473 0.0 0.0
0.0 0.04810280804948335 0.03987457244426385 -0.03886802883960894 -0.001006543604654924 -0.02314385973863168 0.0 0.0
0.0 0.057296114757813474 0.04771655163981846 -0.04665176205619683 -0.0010647895836216484 -0.025555029133948543 0.0 0.0
0.0 0.06683361469984449 0.056014290262799776 -0.05489600799837123 -0.0011182822644285426 -0.02717826594155609 0.0 0.0
0.0 0.07654881023949629 0.06459823571304527 -0.06342704140453444 -0.0011711943085108286 -0.027327749928742526 0.0 0.0
0.0 0.08592146205439734 0.0730865166996675 -0.07185057404680056 -0.0012359426528669108 -0.02433580633983162 0.0 0.0
0.0 0.09375025470124196 0.08051981604656105 -0.07920932805149652 -0.0013104879950645394 -0.015774350562795376 0.0 0.0
0.0 0.0937502547012394 0.08051981604655639 -0.07920932805149244 -0.0013104879950639513 0.015774350562843507 0.0 0.0
0.0 0.08592146205437892 0.07308651669964628 -0.07185057404677916 -0.0012359426528671892 0.024335806339895898 0.0 0.0
0.0 0.07654881023947036 0.06459823571301751 -0.06342704140450708 -0.001171194308510416 0.027327749928789676 0.0 0.0
0.0 0.06683361469981089 0.05601429026276743 -0.05489600799833959 -0.0011182822644278624 0.027178265941575803 0.0 0.0
0.0 0.05729611475777178 0.047716551639782466 -0.04665176205616136 -0.0010647895836210994 0.025555029133938235 0.0 0.0
0.0 0.04810280804943859 0.039874572444226 -0.038868028839571106 -0.0010065436046548903 0.02314385973861688 0.0 0.0
0.0 0.039536970264511855 0.032644843778792954 -0.031695558025565514 -0.0009492857532274399 0.020340909972377315 0.0 0.0
0.0 0.03175374879425115 0.026088075319799037 -0.02519730336629493 -0.0008907719535041072 0.017443823147442403 0.0 0.0
0.0 0.024659764275428334 0.020173305468462657 -0.019344504171934278 -0.0008288012965283866 0.014560181293935732 0.0 0.0
0.0 0.018258256633335017 0.014839487739150312 -0.014079452148140976 -0.0007600355910093266 0.01163746582805265 0.0 0.0
0.0 0.012537092692984576 0.010082801057729148 -0.009404445703207366 -0.0006783553545217767 0.008617082332749163 0.0 0.0
0.0 0.007641909964822224 0.006019677991202642 -0.005460485878206866 -0.0005591921129957778 0.005689272689324099 0.0 0.0
0.0 0.0038170621361803304 0.002909731835570452 -0.0025315874793175354 -0.00037814435625291493 0.0031953835127644208 0.0 0.0
0.0 0.0013649229692549612 0.0009722788360864085 -0.0008074312661610514 -0.00016484756992535645 0.0013564671107270815 0.0 0.0
0.0 0.0002812913274674923 0.00015983102062298174 -0.00012889909365965813 -3.093192696332342e-05 0.00030829052027295386 0.0 0.0
0.0 2.4452876692332e-05 1.1062499236049992e-05 -8.749778804840222e-06 -2.3127204312097745e-06 2.8672632893759006e-05 0.0 0.0
0.0 1.343535810551308e-06 -6.74545061154224e-08 5.1836617684484416e-08 1.561788843093987e-08 -2.5068220678900275e-07 0.0 0.0
0.0 0.0 0.0 0.0 0.0 0.0 0.0 0.0
0.0 4.3237046913438544e-07 -5.414833720036132e-09 5.131917593071955e-09 2.82916126964362e-10 -8.656951787897293e-08 0.0 0.0
0.0 0.0017551127845824852 0.0010279764711735291 -0.0012692470711823094 0.0002412706000087799 0.001548821152530157 0.0 0.0
0.0 0.0009883639921145874 0.0005390679553088584 -0.0006873486510346918 0.00014828069572583305 -0.0008647388946293217 0.0 0.0
0.0 9.476279338942807e-07 6.081678292407911e-09 -3.0489716429092008e-09 -3.0327066495000505e-09 -2.0464847983101414e-07 0.0 0.0
0.0 6.305102464673167e-07 -7.0898921551877894e-09 5.074535917472657e-09 2.0153562377156586e-09 1.2874703632778445e-07 0.0 0.0
0.0 1.0243076101783305e-06 5.861637808489246e-09 -6.771519745030991e-09 9.098819365439452e-10 -8.659733757104528e-08 0.0 0.0
0.0 2.0126691103253523e-05 6.538105291326187e-06 -5.152771732327035e-06 -1.3853335589991646e-06 -2.6545496360972734e-05 0.0 0.0
0.0 0.00015198260630297646 6.283859995200128e-05 -5.037751849663703e-05 -1.2461081455364235e-05 -0.0001946791461381881 0.0 0.0
0.0 0.0007123484793477503 0.0004046492611185223 -0.00032991156407943844 -7.473769703908384e-05 -0.0008988597285679008 0.0 0.0
0.0 0.0022373358273381156 0.0015069877636328815 -0.0012715549313890389 -0.0002354328322438425 -0.0024344490478706354 0.0 0.0
0.0 0.00494017598511802 0.003565321239458911 -0.0031398266712094353 -0.0004254945682494715 -0.004602034894355553 0.0 0.0
0.0 0.008439776843789049 0.006422737233542115 -0.005852329078506873 -0.0005704081550352419 -0.007179018296524446 0.0 0.0
0.0 0.01271967952809241 0.009813783420549345 -0.009149555785993916 -0.0006642276345554265 -0.009909669093063882 0.0 0.0
0.0 0.017343391147410386 0.013608918252775062 -0.012876235433503185 -0.0007326828192718726 -0.01259502624947378 0.0 0.0
0.0 0.022454678049910356 0.017799900898204716 -0.017010736813684084 -0.000789164084520632 -0.01523929305732316 0.0 0.0
0.0 0.02812476500214192 0.022456751040998594 -0.02161831766704349 -0.0008384333739550935 -0.017870634200331362 0.0 0.0
0.0 0.034448735176135815 0.027657087347465942 -0.02677252270144763 -0.0008845646460183064 -0.020442209599117713 0.0 0.0
0.0 0.04128656115335823 0.03342238250882174 -0.03249073111127305 -0.0009316513975486878 -0.022703718337279563 0.0 0.0
0.0 0.04862388400772407 0.03969256349987412 -0.038715732916508885 -0.0009768305833652488 -0.02425226329300919 0.0 0.0
0.0 0.056279790793478515 0.046497626073135415 -0.045489040297485316 -0.0010085857756500837 -0.024783222498666584 0.0 0.0
0.0 0.06435971693815068 0.05395604159305248 -0.0529065043626775 -0.001049537230374935 -0.023105914456458442 0.0 0.0
0.0 0.0722154130375743 0.061562120288216934 -0.06043331006595459 -0.001128810222262387 -0.01626417817368563 0.0 0.0
0.0 0.0722154130375728 0.061562120288213056 -0.0604333100659508 -0.0011288102222622623 0.016264178173726235 0.0 0.0
0.0 0.06435971693814246 0.05395604159303905 -0.0529065043626644 -0.0010495372303746702 0.02310591445651805 0.0 0.0
0.0 0.05627979079346333 0.04649762607311654 -0.04548904029746698 -0.001008585775649544 0.02478322249870823 0.0 0.0
0.0 0.0486238840077039 0.03969256349985377 -0.0387157329164892 -0.0009768305833645846 0.024252263293025204 0.0 0.0
0.0 0.0412865611533262 0.03342238250879483 -0.03249073111124667 -0.0009316513975481538 0.022703718337268024 0.0 0.0
0.0 0.03444873517610304 0.027657087347438707 -0.02677252270142125 -0.0008845646460174794 0.0204422095991027 0.0 0.0
0.0 0.02812476500211561 0.02245675104097627 -0.021618317667021898 -0.0008384333739543826 0.017870634200322647 0.0 0.0
0.0 0.022454678049884963 0.017799900898182917 -0.01701073681366269 -0.00078916408452023 0.015239293057315473 0.0 0.0
0.0 0.017343391147382477 0.013608918252752542 -0.012876235433481124 -0.0007326828192714203 0.012595026249457481 0.0 0.0
0.0 0.012719679528064933 0.009813783420527833 -0.0091495557859729 -0.0006642276345549258 0.009909669093044393 0.0 0.0
0.0 0.00843977684376626 0.006422737233525623 -0.005852329078491077 -0.0005704081550345422 0.007179018296503749 0.0 0.0
0.0 0.0049401759851013605 0.0035653212394465327 -0.003139826671197845 -0.0004254945682486873 0.004602034894342138 0.0 0.0
0.0 0.0022373358273286895 0.0015069877636262028 -0.0012715549313831234 -0.00023543283224307875 0.0024344490478620004 0.0 0.0
0.0 0.0007123484793425995 0.00040464926111568667 -0.00032991156407706696 -7.473769703861957e-05 0.0008988597285626452 0.0 0.0
0.0 0.0001519826063012401 6.283859995166957e-05 -5.037751849635664e-05 -1.246108145531293e-05 0.00019467914613702383 0.0 0.0
0.0 2.0126691102871162e-05 6.53810529139352e-06 -5.152771732379637e-06 -1.385333559013873e-06 2.65454963612781e-05 0.0 0.0
0.0 1.024307609907553e-06 5.861637884485386e-09 -6.771519804557625e-09 9.098819200692206e-10 8.659733811453974e-08 0.0 0.0
0.0 6.305102458760242e-07 -7.089892147158693e-09 5.074535912009278e-09 2.015356235150372e-09 -1.2874703620679312e-07 0.0 0.0
0.0 9.476279333788432e-07 6.081678334770667e-09 -3.048971692192152e-09 -3.0327066425785704e-09 2.0464848086476896e-07 0.0 0.0
0.0 0.0009883639921078843 0.0005390679553055015 -0.0006873486510306785 0.00014828069572517697 0.0008647388946238215 0.0 0.0
0.0 0.00041528534096821925 0.000223196219606387 -0.00029699657456755564 7.380035496116866e-05 -0.00038414875742975814 0.0 0.0
0.0 2.259153169984393e-06 -2.2824979415799276e-09 6.944471102361811e-09 -4.661973160781663e-09 1.1244020334043389e-07 0.0 0.0
0.0 8.165028386882788e-07 -9.64958471269084e-10 -4.972399570312503e-10 1.4621984282999863e-09 1.606328142058379e-07 0.0 0.0
0.0 1.7800763577916791e-06 2.9573750443916634e-08 -2.081799134003005e-08 -8.75575910388338e-09 -3.7454764325619263e-07 0.0 0.0
0.0 2.15668409912455e-05 3.995068150112801e-06 -3.091703984764398e-06 -9.033641653484086e-07 -3.0505695209097216e-05 0.0 0.0
0.0 0.0001180320982898161 2.86637462883831e-05 -2.296402138265608e-05 -5.69972490572702e-06 -0.00016227775157782732 0.0 0.0
0.0 0.0003755152591499935 0.00012835502423403814 -0.0001035679007325953 -2.4787123501442768e-05 -0.0005457325023166661 0.0 0.0
0.0 0.0010569092623836669 0.000508757754138793 -0.0004160146700820537 -9.274308405673911e-05 -0.0015096047641150465 0.0 0.0
0.0 0.0025360385765122047 0.001477838729694662 -0.0012460864105449999 -0.00023175231914966224 -0.003119441719475204 0.0 0.0
0.0 0.004685707508419457 0.003053568127234392 -0.0026686061668091425 -0.00038496196042524787 -0.005112985105950941 0.0 0.0
0.0 0.007290148438658033 0.005039429691303728 -0.004535507180309032 -0.0005039225109946934 -0.0072908769234780015 0.0 0.0
0.0 0.010279588177814892 0.007275674248923392 -0.006690632411514627 -0.0005850418374087625 -0.009511621404869407 0.0 0.0
0.0 0.013517204123151622 0.009751303397759706 -0.009105367803077198 -0.0006459355946825094 -0.011762254844932126 0.0 0.0
0.0 0.01710676028893203 0.012521316896647835 -0.011828989959955316 -0.0006923269366925136 -0.013997492427868893 0.0 0.0
0.0 0.021126869241158256 0.01567890908057395 -0.014949253892613729 -0.0007296551879602175 -0.016196702926600342 0.0 0.0
0.0 0.02564225606391916 0.019330696514868625 -0.018566174198192543 -0.0007645223166760863 -0.018228438546378737 0.0 0.0
0.0 0.030678963753374654 0.023542118355738315 -0.022738851999996534 -0.0008032663557417989 -0.019714095990280768 0.0 0.0
0.0 0.03626432688063215 0.028422975934554548 -0.027591115682436284 -0.0008318602521182705 -0.02033804011931108 0.0 0.0
0.0 0.04292320730638399 0.034438501347959 -0.033608330701554695 -0.0008301706464043067 -0.01996490078284344 0.0 0.0
0.0 0.05065941472430205 0.04200868352655607 -0.04110701963233272 -0.0009016638942233574 -0.016086736162477515 0.0 0.0
0.0 0.05065941472430045 0.04200868352655189 -0.04110701963232795 -0.0009016638942239534 0.016086736162511765 0.0 0.0
0.0 0.042923207306380794 0.03443850134794993 -0.03360833070154547 -0.0008301706464044394 0.01996490078289412 0.0 0.0
0.0 0.03626432688062148 0.028422975934539886 -0.02759111568242184 -0.0008318602521180478 0.020338040119345376 0.0 0.0
0.0 0.030678963753357845 0.02354211835572217 -0.022738851999980526 -0.0008032663557416425 0.019714095990287755 0.0 0.0
0.0 0.02564225606389764 0.019330696514852596 -0.018566174198176244 -0.0007645223166763554 0.018228438546365303 0.0 0.0
0.0 0.021126869241138227 0.01567890908055896 -0.014949253892598513 -0.0007296551879604458 0.01619670292658745 0.0 0.0
0.0 0.017106760288914356 0.012521316896633704 -0.011828989959941551 -0.000692326936692157 0.013997492427860967 0.0 0.0
0.0 0.013517204123139538 0.009751303397749551 -0.00910536780306737 -0.0006459355946821842 0.011762254844928275 0.0 0.0
0.0 0.010279588177798348 0.0072756742489112165 -0.0066906324115029985 -0.0005850418374082185 0.009511621404857083 0.0 0.0
0.0 0.007290148438640334 0.005039429691291888 -0.004535507180297626 -0.000503922510994262 0.007290876923460772 0.0 0.0
0.0 0.004685707508406119 0.0030535681272262694 -0.0026686061668016424 -0.00038496196042462586 0.005112985105936389 0.0 0.0
0.0 0.002536038576504908 0.0014778387296899107 -0.0012460864105408147 -0.00023175231914909647 0.003119441719467643 0.0 0.0
0.0 0.0010569092623785446 0.0005087577541361534 -0.00041601467007985573 -9.274308405629764e-05 0.0015096047641089258 0.0 0.0
0.0 0.0003755152591477678 0.00012835502423342367 -0.00010356790073209383 -2.478712350132979e-05 0.0005457325023143199 0.0 0.0
0.0 0.00011803209828827453 2.8663746288333336e-05 -2.296402138261201e-05 -5.699724905721315e-06 0.00016227775157720916 0.0 0.0
0.0 2.15668409906482e-05 3.995068150110096e-06 -3.0917039847608868e-06 -9.033641653492101e-07 3.0505695209068702e-05 0.0 0.0
0.0 1.780076357701446e-06 2.9573750497242576e-08 -2.0817991377167177e-08 -8.755759120072745e-09 3.7454764405142295e-07 0.0 0.0
0.0 8.165028384555135e-07 -9.649584707066734e-10 -4.972399559582023e-10 1.4621984266653407e-09 -1.6063281373836584e-07 0.0 0.0
0.0 2.2591531694501003e-06 -2.2824979356356125e-09 6.94447108889817e-09 -4.661973153262879e-09 -1.124402028970827e-07 0.0 0.0
0.0 0.00041528534096447523 0.00022319621960484778 -0.0002969965745656309 7.380035496078293e-05 0.0003841487574270772 0.0 0.0
0.0 0.00011206026363229047 5.674032080057626e-05 -7.925316983458275e-05 2.251284903400649e-05 -0.00010332715736442381 0.0 0.0
0.0 2.606409322801898e-06 1.936181732253223e-10 8.189870552678983e-09 -8.383488725903053e-09 2.7555498134166092e-08 0.0 0.0
0.0 2.0598738981870354e-06 -7.085944807208344e-08 6.58195089366309e-08 5.039939135452498e-09 -1.9584868434402333e-06 0.0 0.0
0.0 4.433504676228576e-06 -7.076568345464311e-08 9.183543265626983e-08 -2.10697492016261e-08 -5.6698245761888525e-06 0.0 0.0
0.0 2.6040247206192617e-05 9.112726180817544e-07 -6.120746519500448e-07 -2.991979661317159e-07 -3.43557021426252e-05 0.0 0.0
0.0 0.00011297973877155117 8.749968936620602e-06 -6.901104355995738e-06 -1.8488645806248507e-06 -0.0001682342581289902 0.0 0.0
0.0 0.0002853912833694751 3.236212226729434e-05 -2.609550637749981e-05 -6.266615889794541e-06 -0.00045691268993551895 0.0 0.0
0.0 0.0005976913454836646 8.73709005233418e-05 -7.083122743917944e-05 -1.653967308416224e-05 -0.0009258713977712532 0.0 0.0
0.0 0.0010746164592380263 0.00022279372326052186 -0.0001811665216787582 -4.16272015817636e-05 -0.0017354676669619259 0.0 0.0
0.0 0.0019055404813670292 0.0005140898426407537 -0.00041775721073078367 -9.633263190997e-05 -0.0029213913474375516 0.0 0.0
0.0 0.002910478321965088 0.0009844781706051114 -0.0008035590448661902 -0.00018091912573892118 -0.0044261041498827825 0.0 0.0
0.0 0.0042300554205244294 0.0015919153179026198 -0.0013261918181998902 -0.00026572349970272895 -0.006113412535348634 0.0 0.0
0.0 0.00576510728390692 0.002330324590301511 -0.001991301792449483 -0.00033902279785202606 -0.00795581281728715 0.0 0.0
0.0 0.007537991300675282 0.003204792676486301 -0.002807466692219955 -0.00039732598426634716 -0.009929984564076972 0.0 0.0
0.0 0.009555004688251734 0.004298238713769812 -0.003856148462754768 -0.00044209025101504086 -0.012018865697183538 0.0 0.0
0.0 0.011943740045606806 0.005775953213904229 -0.005297973481637552 -0.0004779797322666746 -0.014087425463784074 0.0 0.0
0.0 0.014739529940994589 0.007879566768209277 -0.007364921603764027 -0.0005146451644452473 -0.01575198793144067 0.0 0.0
0.0 0.01801691575583406 0.010823185957161825 -0.010260810678405641 -0.0005623752787561786 -0.016400274202883286 0.0 0.0
0.0 0.02242363458469496 0.014979592757051708 -0.014409901669539855 -0.0005696910875118516 -0.01614399964866168 0.0 0.0
0.0 0.029255017303414267 0.021682320238655965 -0.021135309249250802 -0.000547010989405161 -0.015223746302163539 0.0 0.0
0.0 0.029255017303416682 0.021682320238654948 -0.021135309249249817 -0.000547010989405128 0.015223746302191242 0.0 0.0
0.0 0.022423634584698506 0.014979592757048932 -0.014409901669536906 -0.0005696910875120312 0.016143999648699725 0.0 0.0
0.0 0.01801691575583218 0.010823185957156346 -0.010260810678400196 -0.0005623752787561461 0.016400274202905067 0.0 0.0
0.0 0.01473952994098817 0.007879566768204452 -0.007364921603759393 -0.0005146451644450519 0.01575198793144109 0.0 0.0
0.0 0.011943740045598285 0.005775953213901369 -0.0052979734816353576 -0.00047797973226601113 0.014087425463771303 0.0 0.0
0.0 0.00955500468824241 0.004298238713765838 -0.0038561484627509775 -0.0004420902510148591 0.01201886569717249 0.0 0.0
0.0 0.007537991300668665 0.003204792676484066 -0.0028074666922176415 -0.00039732598426642576 0.009929984564068732 0.0 0.0
0.0 0.005765107283902963 0.0023303245903009443 -0.001991301792449103 -0.0003390227978518409 0.00795581281728122 0.0 0.0
0.0 0.004230055420517454 0.001591915317901109 -0.0013261918181985076 -0.0002657234997026015 0.006113412535337973 0.0 0.0
0.0 0.002910478321957193 0.0009844781706027145 -0.0008035590448642984 -0.0001809191257384155 0.004426104149871567 0.0 0.0
0.0 0.0019055404813608646 0.0005140898426395979 -0.00041775721072987945 -9.633263190971849e-05 0.00292139134742834 0.0 0.0
0.0 0.0010746164592356166 0.00022279372326000171 -0.00018116652167835472 -4.1627201581646835e-05 0.0017354676669578575 0.0 0.0
0.0 0.0005976913454814178 8.737090052294185e-05 -7.083122743885914e-05 -1.6539673084082606e-05 0.0009258713977675379 0.0 0.0
0.0 0.00028539128336802237 3.236212226729114e-05 -2.609550637747296e-05 -6.266615889818168e-06 0.0004569126899346193 0.0 0.0
0.0 0.00011297973877028144 8.749968936615277e-06 -6.901104355992185e-06 -1.8488645806230891e-06 0.00016823425812858572 0.0 0.0
0.0 2.60402472056287e-05 9.112726180816344e-07 -6.120746519514915e-07 -2.9919796613014657e-07 3.435570214262627e-05 0.0 0.0
0.0 4.433504676139151e-06 -7.076568346811448e-08 9.183543267223628e-08 -2.1069749204121866e-08 5.669824577041639e-06 0.0 0.0
0.0 2.059873898134133e-06 -7.085944810362936e-08 6.581950896573774e-08 5.039939137891427e-09 1.958486844217381e-06 0.0 0.0
0.0 2.6064093223017774e-06 1.936181730891758e-10 8.189870544369289e-09 -8.383488717455926e-09 -2.7555497687949877e-08 0.0 0.0
0.0 0.00011206026363085171 5.6740320800247426e-05 -7.925316983411462e-05 2.2512849033867135e-05 0.0001033271573640382 0.0 0.0
0.0 1.0040781072076314e-05 4.13973350332513e-06 -6.004849830017098e-06 1.8651163266919576e-06 -8.381263834970982e-06 0.0 0.0
0.0 2.4006175366956373e-06 -2.5799826899708428e-08 1.7038071426375345e-08 8.761755473337953e-09 -4.5495608541039533e-07 0.0 0.0
0.0 4.571915286661234e-06 -3.8780570913021716e-07 3.2911720528717217e-07 5.8688503843045805e-08 -4.622341067765334e-06 0.0 0.0
0.0 8.112179240043573e-06 -9.387662203159539e-07 8.240423753905889e-07 1.147238449253658e-07 -1.1223762765634841e-05 0.0 0.0
0.0 3.278916792122568e-05 -2.9730831238442333e-06 2.5698760353251062e-06 4.0320708851913717e-07 -4.2844070451021785e-05 0.0 0.0
0.0 0.00012063382896178976 -1.1434441238696625e-05 9.420424098013478e-06 2.0140171406831406e-06 -0.00017272353884648027 0.0 0.0
0.0 0.0002888476158085842 -3.4383268503677794e-05 2.788152402613112e-05 6.501744477546657e-06 -0.0004627361458221729 0.0 0.0
0.0 0.0005986274972067465 -8.785933612312831e-05 7.122411135816432e-05 1.663522476496392e-05 -0.0009285084524306422 0.0 0.0
0.0 0.0010738789740475517 -0.0002226763033643316 0.00018107563940439694 4.160066395993458e-05 -0.0017366218697650062 0.0 0.0
0.0 0.0019042100637213452 -0.0005133594958494627 0.00041711677844697684 9.624271740248596e-05 -0.002920219205106125 0.0 0.0
0.0 0.0029225046929063567 -0.0009867006073051464 0.0008065560722776016 0.000180144535027544 -0.004427945066898315 0.0 0.0
0.0 0.0042518250109372215 -0.001618155511826993 0.0013522685744975283 0.0002658869373294636 -0.00612721367907851 0.0 0.0
0.0 0.005816438640919462 -0.002393026325650404 0.0020516337657764828 0.00034139255987391783 -0.007972080285715916 0.0 0.0
0.0 0.007579426821036754 -0.003262959317563749 0.00285672292565218 0.0004062363919115669 -0.009932009955204574 0.0 0.0
0.0 0.009397526597927107 -0.004116621480029909 0.003653811967634919 0.0004628095123949901 -0.012001427859948104 0.0 0.0
0.0 0.011135811934868522 -0.004721096043325053 0.004208876158228927 0.0005122198850961208 -0.014139694696412453 0.0 0.0
0.0 0.012470474939835722 -0.004722628084707676 0.0041689602525091084 0.0005536678321985667 -0.01633237071099575 0.0 0.0
0.0 0.013269593784880232 -0.0038446352633243535 0.003265496655749805 0.0005791386075745472 -0.018645568855061707 0.0 0.0
0.0 0.013518441596266093 -0.0021248038098637717 0.0015789900850444226 0.0005458137248193466 -0.020705696357880488 0.0 0.0
0.0 0.013273132557963092 0.003061708473862247 -0.003126702614450407 6.4994140588157e-05 -0.0195925300532645 0.0 0.0
0.0 0.013273132557968123 0.0030617084738619195 -0.003126702614450155 6.499414058823904e-05 0.01959253005327733 0.0 0.0
0.0 0.01351844159626922 -0.0021248038098644687 0.0015789900850448591 0.0005458137248196082 0.020705696357892406 0.0 0.0
0.0 0.0132695937848759 -0.0038446352633225442 0.0032654966557481226 0.000579138607574419 0.018645568855062324 0.0 0.0
0.0 0.01247047493982562 -0.004722628084702685 0.004168960252504383 0.0005536678321983 0.01633237071098676 0.0 0.0
0.0 0.01113581193485427 -0.004721096043316792 0.004208876158221149 0.0005122198850956415 0.01413969469639867 0.0 0.0
0.0 0.009397526597915769 -0.004116621480024 0.003653811967629447 0.000462809512394551 0.012001427859935937 0.0 0.0
0.0 0.007579426821023813 -0.0032629593175555124 0.002856722925644495 0.00040623639191101745 0.009932009955195007 0.0 0.0
0.0 0.00581643864090668 -0.002393026325642312 0.00205163376576886 0.0003413925598734517 0.00797208028570576 0.0 0.0
0.0 0.004251825010923457 -0.0016181555118198409 0.0013522685744910457 0.000265886937328795 0.006127213679064729 0.0 0.0
0.0 0.0029225046928962415 -0.0009867006073003624 0.0008065560722736363 0.00018014453502672635 0.0044279450668863515 0.0 0.0
0.0 0.0019042100637122416 -0.0005133594958460806 0.0004171167784440948 9.624271740198546e-05 0.002920219205094201 0.0 0.0
0.0 0.0010738789740448468 -0.0002226763033633652 0.00018107563940364174 4.160066395972346e-05 0.0017366218697614266 0.0 0.0
0.0 0.0005986274972052587 -8.78593361227903e-05 7.122411135786005e-05 1.663522476493027e-05 0.000928508452428765 0.0 0.0
0.0 0.00028884761580711267 -3.4383268503629696e-05 2.7881524026124705e-05 6.501744477504984e-06 0.0004627361458210801 0.0 0.0
0.0 0.00012063382896026516 -1.1434441238675847e-05 9.420424098004874e-06 2.014017140670981e-06 0.00017272353884577898 0.0 0.0
0.0 3.2789167920183225e-05 -2.973083123831923e-06 2.5698760353143565e-06 4.0320708851756195e-07 4.284407045086316e-05 0.0 0.0
0.0 8.112179239828825e-06 -9.387662203672454e-07 8.240423754353265e-07 1.1472384493191942e-07 1.1223762766202858e-05 0.0 0.0
0.0 4.571915286232506e-06 -3.878057092195733e-07 3.291172053623538e-07 5.868850385722003e-08 4.622341068785445e-06 0.0 0.0
0.0 2.4006175360964944e-06 -2.5799826913938684e-08 1.7038071426129553e-08 8.761755487814039e-09 4.5495608589864667e-07 0.0 0.0
0.0 1.0040781071590214e-05 4.1397335035093535e-06 -6.00484983028996e-06 1.8651163267806083e-06 8.381263835372611e-06 0.0 0.0
0.0 5.791226492451869e-07 -3.285152939261594e-08 4.863961923435166e-08 -1.578808984173702e-08 8.324711323925464e-08 0.0 0.0
0.0 1.3928165244222036e-06 -4.6891381955514745e-08 2.8725846229338795e-08 1.8165535726174405e-08 -8.869319595043666e-07 0.0 0.0
0.0 5.62772205932191e-06 -7.56233694908537e-07 6.265397612643484e-07 1.296939336441848e-07 -5.875125940503896e-06 0.0 0.0
0.0 1.2473745274396754e-05 -1.7315264752226459e-06 1.4791065216581473e-06 2.524199535645117e-07 -1.1652527588755804e-05 0.0 0.0
0.0 3.972411990766728e-05 -8.888069734601748e-06 7.397959662732358e-06 1.4901100718693933e-06 -5.3525899227585263e-05 0.0 0.0
0.0 0.00013252199125615336 -3.5006911147597634e-05 2.8392302122386982e-05 6.61460902521063e-06 -0.0001853257272130027 0.0 0.0
0.0 0.00039137664880759654 -0.00013373143763825487 0.00010811421950442607 2.561721813382885e-05 -0.0005604418188266809 0.0 0.0
0.0 0.0010642821550887291 -0.0005122644112519255 0.00041896312402402993 9.330128722789542e-05 -0.0015188100786895904 0.0 0.0
0.0 0.002534344954907371 -0.0014770674216306402 0.0012454255957380792 0.00023164182589256033 -0.0031203242034099263 0.0 0.0
0.0 0.004684273338160157 -0.0030529789988162897 0.0026683447090528004 0.00038463428976348905 -0.005112585145534651 0.0 0.0
0.0 0.007298803715902715 -0.005047521888264938 0.004544376665752123 0.000503145222512812 -0.007293916559199638 0.0 0.0
0.0 0.010309975640613072 -0.007307799553358727 0.006723838702643491 0.000583960850715235 -0.009510002117608055 0.0 0.0
0.0 0.013574726012038636 -0.009818431803290605 0.009171949073118253 0.0006464827301723487 -0.011734010203211317 0.0 0.0
0.0 0.017140277705728704 -0.012570772831541592 0.011870526017399335 0.0007002468141422614 -0.013945371882212775 0.0 0.0
0.0 0.0209063460413896 -0.01545520184149336 0.014703289594335915 0.0007519122471574362 -0.016218689536416506 0.0 0.0
0.0 0.02458886568340701 -0.018191077403849447 0.017389096904576493 0.0008019804992729514 -0.018632209141866873 0.0 0.0
0.0 0.027779650926036504 -0.020329835944675464 0.019485352784524554 0.0008444831601509177 -0.021262596564598536 0.0 0.0
0.0 0.029857383746984486 -0.02132910736180137 0.020456713164719566 0.0008723941970818169 -0.024018196580250947 0.0 0.0
0.0 0.0291840670276977 -0.020112206106253753 0.01914509873733181 0.0009671073689219297 -0.02517728139748357 0.0 0.0
0.0 0.02314453347109706 -0.013878576651284478 0.012812185156871835 0.0010663914944126355 -0.022674811062165498 0.0 0.0
0.0 0.02314453347110665 -0.01387857665128573 0.012812185156872692 0.0010663914944130338 0.022674811062195932 0.0 0.0
0.0 0.029184067027704885 -0.02011220610625131 0.019145098737329072 0.000967107368922226 0.025177281397524738 0.0 0.0
0.0 0.02985738374697733 -0.0213291073617899 0.020456713164708214 0.0008723941970816729 0.02401819658027489 0.0 0.0
0.0 0.02777965092601704 -0.02032983594465788 0.0194853527845075 0.0008444831601503856 0.021262596564598318 0.0 0.0
0.0 0.02458886568338291 -0.018191077403830573 0.017389096904557665 0.0008019804992729179 0.018632209141851343 0.0 0.0
0.0 0.02090634604136672 -0.015455201841475507 0.014703289594318183 0.0007519122471573254 0.016218689536402764 0.0 0.0
0.0 0.017140277705708196 -0.012570772831525686 0.011870526017383533 0.0007002468141421537 0.013945371882200196 0.0 0.0
0.0 0.01357472601201801 -0.009818431803273348 0.009171949073101482 0.0006464827301718608 0.011734010203201629 0.0 0.0
0.0 0.010309975640588637 -0.0073077995533403235 0.006723838702625638 0.0005839608507146835 0.00951000211759054 0.0 0.0
0.0 0.007298803715878427 -0.0050475218882476665 0.00454437666573569 0.0005031452225119763 0.007293916559178749 0.0 0.0
0.0 0.004684273338140421 -0.0030529789988030147 0.002668344709040417 0.0003846342897625975 0.0051125851455153595 0.0 0.0
0.0 0.0025343449548946434 -0.0014770674216216559 0.0012454255957301162 0.00023164182589154018 0.003120324203397591 0.0 0.0
0.0 0.0010642821550831956 -0.0005122644112487212 0.0004189631240213875 9.330128722733378e-05 0.0015188100786830716 0.0 0.0
0.0 0.00039137664880497364 -0.0001337314376375186 0.00010811421950385497 2.5617218133663654e-05 0.0005604418188241442 0.0 0.0
0.0 0.0001325219912545598 -3.5006911147512274e-05 2.8392302122311694e-05 6.614609025200563e-06 0.0001853257272123759 0.0 0.0
0.0 3.9724119906562585e-05 -8.888069734569119e-06 7.397959662707502e-06 1.4901100718616002e-06 5.352589922738835e-05 0.0 0.0
0.0 1.2473745273839767e-05 -1.7315264753262405e-06 1.4791065217457191e-06 2.5241995358052353e-07 1.165252758942127e-05 0.0 0.0
0.0 5.62772205877338e-06 -7.56233695021129e-07 6.265397613565722e-07 1.2969393366455647e-07 5.875125941369139e-06 0.0 0.0
0.0 1.3928165241718647e-06 -4.6891381990930205e-08 2.8725846234236664e-08 1.81655357566939e-08 8.869319603285573e-07 0.0 0.0
0.0 5.791226488939735e-07 -3.285152937202806e-08 4.863961920387383e-08 -1.57880898318369e-08 -8.324711318699175e-08 0.0 0.0
0.0 0.0 0.0 0.0 0.0 0.0 0.0 0.0
0.0 1.546319917433396e-06 2.096489414379388e-08 -7.102539574969584e-09 -1.3862354568826943e-08 3.138160816275471e-07 0.0 0.0
0.0 5.078518518290236e-06 -4.578599790799312e-07 3.757400127986259e-07 8.211996628130145e-08 -2.5900978061388434e-06 0.0 0.0
0.0 1.4891032042467543e-05 -2.4866804439775096e-06 2.0530951179239696e-06 4.3358532605354825e-07 -1.0768517224330642e-05 0.0 0.0
0.0 4.801819062902805e-05 -1.594697891948915e-05 1.3033591837895873e-05 2.913387081593288e-06 -5.83613503161114e-05 0.0 0.0
0.0 0.0001851309795021774 -7.921923289329127e-05 6.406934542075377e-05 1.5149887472537452e-05 -0.00023714676526944163 0.0 0.0
0.0 0.0007396990804310733 -0.0004177891636260609 0.0003412228841259575 7.65662795001033e-05 -0.0009250358709107265 0.0 0.0
0.0 0.002242003939177977 -0.0015083943693517494 0.0012730018474750178 0.000235392521876732 -0.0024418853335078598 0.0 0.0
0.0 0.00493537148652606 -0.0035626036530183912 0.003137328988427188 0.00042527466459120114 -0.004599372077125393 0.0 0.0
0.0 0.008440092653349319 -0.006423846910994404 0.005853666130894728 0.0005701807800996739 -0.007178706534521143 0.0 0.0
0.0 0.012729626287910887 -0.0098233251291762 0.009159804029576495 0.0006635210995997111 -0.00991002077179344 0.0 0.0
0.0 0.01736380391405332 -0.013634202843090392 0.012902762422108721 0.0007314404209816758 -0.01256969865370403 0.0 0.0
0.0 0.02247812170560661 -0.01784630205825661 0.017057223534640776 0.0007890785236158358 -0.015136894657518324 0.0 0.0
0.0 0.02810649991218353 -0.022479599699753546 0.021634974042420096 0.0008446256573334367 -0.0176955700968328 0.0 0.0
0.0 0.03421477243994678 -0.02743997797709785 0.02653652623572297 0.0009034517413748613 -0.020447701546875793 0.0 0.0
0.0 0.04040369454411145 -0.032413725485191766 0.03144928578476562 0.0009644397004261273 -0.023672100564752097 0.0 0.0
0.0 0.04618474138167481 -0.03683416286129525 0.03581154074671081 0.0010226221145844257 -0.02754279050725332 0.0 0.0
0.0 0.050126437335540105 -0.0397503405269558 0.03865396744093706 0.0010963730860187428 -0.03135337651227958 0.0 0.0
0.0 0.05028814043583213 -0.03935800385783714 0.03816785428110438 0.0011901495767327461 -0.033233757972843586 0.0 0.0
0.0 0.04166093976500489 -0.032002581857683496 0.030587698852310503 0.001414883005372986 -0.0293403237015733 0.0 0.0
0.0 0.04166093976501284 -0.03200258185768254 0.03058769885230953 0.0014148830053730094 0.02934032370161343 0.0 0.0
0.0 0.05028814043583627 -0.039358003857831086 0.03816785428109857 0.0011901495767325083 0.03323375797289562 0.0 0.0
0.0 0.05012643733552816 -0.03975034052693863 0.03865396744092037 0.0010963730860182271 0.031353376512313624 0.0 0.0
0.0 0.04618474138164462 -0.03683416286126736 0.035811540746683454 0.0010226221145839434 0.027542790507256238 0.0 0.0
0.0 0.04040369454407761 -0.0324137254851629 0.03144928578473788 0.0009644397004250222 0.023672100564739184 0.0 0.0
0.0 0.034214772439910154 -0.0274399779770676 0.0265365262356931 0.0009034517413744946 0.020447701546858606 0.0 0.0
0.0 0.028106499912150272 -0.02247959969972611 0.021634974042393132 0.0008446256573329755 0.017695570096816313 0.0 0.0
0.0 0.022478121705573922 -0.017846302058228753 0.017057223534613277 0.0007890785236154658 0.015136894657506178 0.0 0.0
0.0 0.01736380391402124 -0.01363420284306419 0.012902762422083306 0.0007314404209808845 0.012569698653685606 0.0 0.0
0.0 0.012729626287877521 -0.009823325129149973 0.009159804029550946 0.0006635210995990239 0.00991002077176983 0.0 0.0
0.0 0.008440092653318772 -0.006423846910971316 0.005853666130872176 0.0005701807800991398 0.007178706534497297 0.0 0.0
0.0 0.004935371486506994 -0.0035626036530037163 0.003137328988413308 0.0004252746645904063 0.004599372077110903 0.0 0.0
0.0 0.0022420039391680964 -0.0015083943693445117 0.0012730018474687566 0.00023539252187575475 0.0024418853334996406 0.0 0.0
0.0 0.0007396990804247924 -0.0004177891636226925 0.0003412228841232015 7.656627949949092e-05 0.0009250358709044502 0.0 0.0
0.0 0.00018513097950027422 -7.921923289296006e-05 6.406934542050237e-05 1.5149887472457663e-05 0.00023714676526844018 0.0 0.0
0.0 4.801819062797869e-05 -1.5946978919533365e-05 1.3033591837930879e-05 2.9133870816024488e-06 5.836135031627665e-05 0.0 0.0
0.0 1.4891032041866515e-05 -2.4866804441385077e-06 2.053095118057545e-06 4.3358532608095135e-07 1.0768517225037291e-05 0.0 0.0
0.0 5.078518517950581e-06 -4.578599792453759e-07 3.7574001293353867e-07 8.211996631184347e-08 2.590097807095493e-06 0.0 0.0
0.0 1.5463199168796422e-06 2.0964894136532813e-08 -7.10253957316928e-09 -1.3862354563367244e-08 -3.138160815128601e-07 0.0 0.0
0.0 0.0 0.0 0.0 0.0 0.0 0.0 0.0
0.0 0.0 0.0 0.0 0.0 0.0 0.0 0.0
0.0 3.8538157917848767e-07 8.524370000021943e-09 -5.889213621647465e-09 -2.6351563783748637e-09 7.625979648851619e-08 0.0 0.0
0.0 2.8288268290089656e-06 -1.792181631184538e-07 1.4560867972384647e-07 3.3609483394602394e-08 -7.600700884033358e-07 0.0 0.0
0.0 1.441870179482138e-05 -4.008749166903969e-06 3.30512295255183e-06 7.036262143521345e-07 -1.3117065857573408e-05 0.0 0.0
0.0 6.108410714886641e-05 -2.5876525759075488e-05 2.1063519691933826e-05 4.813006067141684e-06 -6.578683971393686e-05 0.0 0.0
0.0 0.00032600346101656515 -0.00019344567697202774 0.00015680043183071766 3.664524514131008e-05 -0.00037100897382192824 0.0 0.0
0.0 0.0013951368472000535 -0.0009829808393084253 0.0008177380283002712 0.00016524281100815412 -0.0013803600941700363 0.0 0.0
0.0 0.003814196824797585 -0.002905529926620674 0.002527960203832974 0.00037756972278769874 -0.003195577122735269 0.0 0.0
0.0 0.007637064721219521 -0.0060170436848699825 0.005457885028267509 0.0005591586566024744 -0.005684213151014628 0.0 0.0
0.0 0.012538423551610856 -0.010086546415848073 0.009408331975270318 0.000678214440577753 -0.008617731073197216 0.0 0.0
0.0 0.018267455795513376 -0.014848380287928769 0.014088785212691336 0.0007595950752374331 -0.011635118550480125 0.0 0.0
0.0 0.02466103165529203 -0.02018342344863614 0.019355400969403056 0.0008280224792330724 -0.014513718197599565 0.0 0.0
0.0 0.03172581850642689 -0.026093728391826596 0.025203446269091774 0.0008902821227347933 -0.01727332161508019 0.0 0.0
0.0 0.03945298969644121 -0.03262073037071651 0.03166846037069854 0.0009522700000179738 -0.02003759764800276 0.0 0.0
0.0 0.04789567176218939 -0.03969536415092975 0.0386768767212162 0.0010184874297135091 -0.02309049329234349 0.0 0.0
0.0 0.05670602327712939 -0.0469817219803062 0.045889603041233885 0.0010921189390722978 -0.02687534880098022 0.0 0.0
0.0 0.06494493934656086 -0.053695758095690424 0.05251991137104182 0.0011758467246485841 -0.03154476778299849 0.0 0.0
0.0 0.07092709900311472 -0.05836757700599248 0.05709346851977693 0.0012741084862154931 -0.03622741207605047 0.0 0.0
0.0 0.0713941144297926 -0.05844134879168917 0.05702661038179169 0.0014147384098974532 -0.03846429531100917 0.0 0.0
0.0 0.060767641391947805 -0.04934009105745396 0.04770654853061433 0.0016335425268396537 -0.03486941718586862 0.0 0.0
0.0 0.06076764139195068 -0.049340091057449506 0.047706548530609495 0.001633542526839979 0.034869417185912105 0.0 0.0
0.0 0.07139411442978914 -0.058441348791677276 0.05702661038177989 0.001414738409897363 0.03846429531106672 0.0 0.0
0.0 0.0709270990030961 -0.058367577005969534 0.05709346851975477 0.0012741084862147392 0.03622741207609138 0.0 0.0
0.0 0.06494493934652282 -0.05369575809565506 0.052519911371006825 0.0011758467246482185 0.03154476778300732 0.0 0.0
0.0 0.056706023277084794 -0.04698172198026774 0.045889603041195895 0.0010921189390718346 0.026875348800968688 0.0 0.0
0.0 0.047895671762143294 -0.039695364150890686 0.03867687672117733 0.0010184874297133164 0.023090493292327804 0.0 0.0
0.0 0.03945298969639305 -0.03262073037067609 0.03166846037065829 0.0009522700000177996 0.02003759764798386 0.0 0.0
0.0 0.031725818506380225 -0.02609372839178663 0.025203446269052368 0.0008902821227342646 0.01727332161506513 0.0 0.0
0.0 0.024661031655245785 -0.020183423448597373 0.019355400969364705 0.0008280224792326608 0.014513718197578011 0.0 0.0
0.0 0.01826745579546919 -0.01484838028789304 0.014088785212655917 0.0007595950752371206 0.011635118550452822 0.0 0.0
0.0 0.012538423551573535 -0.010086546415818229 0.009408331975241126 0.0006782144405771002 0.008617731073171831 0.0 0.0
0.0 0.007637064721192811 -0.006017043684848839 0.005457885028247138 0.0005591586566017035 0.005684213150997739 0.0 0.0
0.0 0.0038141968247799255 -0.002905529926606822 0.002527960203820315 0.0003775697227865058 0.0031955771227229644 0.0 0.0
0.0 0.0013951368471897731 -0.000982980839301287 0.0008177380282940853 0.00016524281100720135 0.0013803600941612432 0.0 0.0
0.0 0.0003260034610130946 -0.00019344567697056824 0.00015680043182949286 3.664524514107541e-05 0.0003710089738192113 0.0 0.0
0.0 6.108410714823233e-05 -2.5876525759327226e-05 2.10635196921291e-05 4.8130060671980655e-06 6.578683971445002e-05 0.0 0.0
0.0 1.441870179407619e-05 -4.008749167032531e-06 3.3051229526558578e-06 7.036262143766655e-07 1.3117065857991815e-05 0.0 0.0
0.0 2.828826828582794e-06 -1.7921816327966873e-07 1.4560867985375052e-07 3.3609483425916216e-08 7.600700891257611e-07 0.0 0.0
0.0 3.8538157904294466e-07 8.52436999717895e-09 -5.889213619678072e-09 -2.6351563774992616e-09 -7.62597964614563e-08 0.0 0.0
0.0 0.0 0.0 0.0 0.0 0.0 0.0 0.0
0.0 0.0 0.0 0.0 0.0 0.0 0.0 0.0
0.0 0.0 0.0 0.0 0.0 0.0 0.0 0.0
0.0 7.580968092466002e-07 -2.372561501910389e-08 1.950764065349706e-08 4.2179743656099505e-09 -8.273945231612131e-08 0.0 0.0
0.0 1.3712793933841325e-05 -2.6934108539727528e-06 2.1843830309496843e-06 5.090278230230791e-07 -6.439716372012942e-06 0.0 0.0
0.0 9.836007926073614e-05 -4.6872508286337994e-05 3.78856192898618e-05 8.986888996476174e-06 -8.322493629172816e-05 0.0 0.0
0.0 0.0006064769172811345 -0.0004343955313149988 0.000354837451833612 7.955807948138684e-05 -0.0005612108561882849 0.0 0.0
0.0 0.002321132603413527 -0.0018028901812942172 0.0015318349959063094 0.0002710551853879074 -0.0017410642676592813 0.0 0.0
0.0 0.005638656786513629 -0.004564384677465732 0.0040719529794583445 0.0004924316980073868 -0.0036809268567878375 0.0 0.0
0.0 0.010516902919578701 -0.008683202579331088 0.008035166640412922 0.0006480359389181662 -0.006325657701938633 0.0 0.0
0.0 0.016715757472156107 -0.013903949908861601 0.013153511384492285 0.0007504385243693186 -0.009347407253917485 0.0 0.0
0.0 0.023954149255174292 -0.020001566221153986 0.01916954896255947 0.0008320172585945149 -0.01240176429518347 0.0 0.0
0.0 0.032073241630315816 -0.02685992176545289 0.0259540205702037 0.0009059011952492044 -0.015331945832034202 0.0 0.0
0.0 0.04104326017408011 -0.03447251690241514 0.03349701165896049 0.0009755052434546196 -0.01814929788659426 0.0 0.0
0.0 0.050940488535361414 -0.042891548054330805 0.0418477286546399 0.0010438193996909057 -0.02095102489770836 0.0 0.0
0.0 0.061807447792075296 -0.052088384063915485 0.050970583829312764 0.001117800234602722 -0.024044779302344624 0.0 0.0
0.0 0.07303398350374182 -0.061693024583746627 0.06048709939340866 0.0012059251903379633 -0.02791719665072928 0.0 0.0
0.0 0.08389928565189711 -0.07065775112751987 0.06934475313676898 0.0013129979907508936 -0.03279862268964714 0.0 0.0
0.0 0.09168265459224648 -0.07695127354931122 0.07550661209413695 0.001444661455174258 -0.037888227343137015 0.0 0.0
0.0 0.09231204484348579 -0.0772100590543251 0.07560095250680701 0.001609106547518063 -0.040912479416056226 0.0 0.0
0.0 0.08001000301386571 -0.06637131950662847 0.06456615640891877 0.0018051630977096854 -0.03969968478846017 0.0 0.0
0.0 0.08001000301386788 -0.06637131950662366 0.0645661564089142 0.0018051630977094142 0.03969968478850595 0.0 0.0
0.0 0.09231204484347308 -0.0772100590543067 0.07560095250678835 0.0016091065475183032 0.04091247941611341 0.0 0.0
0.0 0.09168265459221357 -0.0769512735492775 0.07550661209410289 0.0014446614551745186 0.037888227343177816 0.0 0.0
0.0 0.0838992856518509 -0.07065775112747744 0.06934475313672697 0.00131299799075041 0.032798622689658864 0.0 0.0
0.0 0.07303398350368401 -0.061693024583696486 0.06048709939335895 0.0012059251903375123 0.027917196650718495 0.0 0.0
0.0 0.0618074477920163 -0.05208838406386462 0.05097058382926243 0.0011178002346022018 0.02404477930233031 0.0 0.0
0.0 0.05094048853530549 -0.04289154805428279 0.04184772865459256 0.0010438193996902291 0.020951024897690865 0.0 0.0
0.0 0.04104326017402281 -0.03447251690236573 0.033497011658911495 0.0009755052434542281 0.018149297886579117 0.0 0.0
0.0 0.03207324163025888 -0.026859921765404547 0.02595402057015553 0.0009059011952490041 0.01533194583201278 0.0 0.0
0.0 0.02395414925512338 -0.020001566221111534 0.019169548962517605 0.0008320172585939177 0.012401764295157141 0.0 0.0
0.0 0.016715757472109814 -0.013903949908823186 0.013153511384454402 0.0007504385243687909 0.00934740725389028 0.0 0.0
0.0 0.010516902919546052 -0.00868320257930398 0.008035166640386367 0.0006480359389176165 0.006325657701921445 0.0 0.0
0.0 0.0056386567864914455 -0.004564384677447578 0.0040719529794411265 0.0004924316980064525 0.0036809268567755127 0.0 0.0
0.0 0.0023211326034015154 -0.0018028901812851082 0.001531834995898292 0.00027105518538681644 0.001741064267651372 0.0 0.0
0.0 0.0006064769172752207 -0.00043439553131126497 0.0003548374518305463 7.955807948071864e-05 0.0005612108561839596 0.0 0.0
0.0 9.836007925909722e-05 -4.6872508286009806e-05 3.7885619289580216e-05 8.986888996429502e-06 8.322493629110925e-05 0.0 0.0
0.0 1.371279393323345e-05 -2.693410854115943e-06 2.1843830310649083e-06 5.090278230510447e-07 6.439716372370101e-06 0.0 0.0
0.0 7.58096809195341e-07 -2.3725615138028158e-08 1.9507640749825867e-08 4.217974388201502e-09 8.273945273520027e-08 0.0 0.0
0.0 0.0 0.0 0.0 0.0 0.0 0.0 0.0
0.0 0.0 0.0 0.0 0.0 0.0 0.0 0.0
0.0 0.0 0.0 0.0 0.0 0.0 0.0 0.0
0.0 0.0 0.0 0.0 0.0 0.0 0.0 0.0
0.0 9.159772724021529e-07 5.630253744311479e-08 -4.536700834069255e-08 -1.0935529102421052e-08 1.5681455061216043e-07 0.0 0.0
0.0 1.0794388930903724e-05 -4.5072125329333845e-06 3.6246330561607275e-06 8.825794767726969e-07 -8.292630911520811e-06 0.0 0.0
0.0 0.00016269350172031378 -0.00010569730924108299 8.521449480566022e-05 2.0482814435422794e-05 -0.00013443404132483234 0.0 0.0
0.0 0.001065808181143533 -0.0008243286432805625 0.0006808738605130214 0.00014345478276754157 -0.0007298612947869684 0.0 0.0
0.0 0.003496296420508866 -0.002825588861353715 0.0024520794104657584 0.0003735094508879569 -0.0019352246878424325 0.0 0.0
0.0 0.007573564983977172 -0.006406815121572323 0.005828599689151646 0.0005782154324206754 -0.0038782118422302915 0.0 0.0
0.0 0.013497742034972988 -0.011465713424672286 0.010756630567023907 0.0007090828576483803 -0.006445590617309331 0.0 0.0
0.0 0.02097286046519763 -0.017802930197903973 0.01699655997163799 0.0008063702262659923 -0.009325888294617248 0.0 0.0
0.0 0.029714866164977705 -0.02522820901064341 0.02433571150286561 0.0008924975077777877 -0.012261724718911888 0.0 0.0
0.0 0.039539351967449905 -0.033614205836927064 0.032640490801278677 0.0009737150356483515 -0.015078948852514549 0.0 0.0
0.0 0.05048979556987103 -0.042935667563233394 0.04188407401387111 0.001051593549362275 -0.01779996176874521 0.0 0.0
0.0 0.06242401731758774 -0.0532397478230733 0.052112573233444315 0.0011271745896289827 -0.02050934304169799 0.0 0.0
0.0 0.0755742870882399 -0.06451246262517012 0.0633043305995642 0.0012081320256059366 -0.023361274277931245 0.0 0.0
0.0 0.08952501558102446 -0.07636442281176226 0.07505489464150618 0.0013095281702560685 -0.02678696803382391 0.0 0.0
0.0 0.1025221464347394 -0.0875187144994527 0.08607828171736276 0.0014404327820898856 -0.03128681014462034 0.0 0.0
0.0 0.11189287560622072 -0.09536933706998224 0.09376820752899667 0.0016011295409854931 -0.036552661302475996 0.0 0.0
0.0 0.11293959866373796 -0.09585212428656868 0.09407280249843097 0.001779321788137632 -0.041197617589203275 0.0 0.0
0.0 0.09968539874311551 -0.08354407332088848 0.08158240255703877 0.0019616707638497044 -0.044197079524268296 0.0 0.0
0.0 0.09968539874311524 -0.08354407332088228 0.08158240255703263 0.0019616707638495873 0.04419707952431533 0.0 0.0
0.0 0.1129395986637173 -0.09585212428654467 0.094072802498407 0.001779321788137642 0.041197617589259744 0.0 0.0
0.0 0.11189287560618086 -0.09536933706994319 0.09376820752895794 0.0016011295409852073 0.03655266130251825 0.0 0.0
0.0 0.10252214643468656 -0.08751871449940474 0.08607828171731591 0.0014404327820887774 0.031286810144632464 0.0 0.0
0.0 0.08952501558095871 -0.0763644228117048 0.0750548946414496 0.0013095281702551831 0.02678696803381722 0.0 0.0
0.0 0.07557428708817229 -0.06451246262511115 0.06330433059950615 0.001208132025604993 0.023361274277922513 0.0 0.0
0.0 0.06242401731752089 -0.053239747823015326 0.05211257323338726 0.0011271745896280405 0.020509343041683226 0.0 0.0
0.0 0.050489795569804104 -0.042935667563175225 0.04188407401381353 0.0010515935493616803 0.017799961768730267 0.0 0.0
0.0 0.039539351967380836 -0.03361420583686766 0.0326404908012193 0.0009737150356483378 0.015078948852494969 0.0 0.0
0.0 0.029714866164914415 -0.025228209010589957 0.02433571150281236 0.0008924975077775948 0.012261724718884847 0.0 0.0
0.0 0.020972860465144568 -0.017802930197859407 0.016996559971593668 0.0008063702262657302 0.009325888294591668 0.0 0.0
0.0 0.01349774203493242 -0.01146571342463766 0.010756630566989844 0.0007090828576478195 0.006445590617292045 0.0 0.0
0.0 0.007573564983948816 -0.006406815121548223 0.005828599689128513 0.0005782154324197085 0.003878211842217086 0.0 0.0
0.0 0.0034962964204904275 -0.0028255888613386904 0.002452079410452043 0.0003735094508866484 0.001935224687833007 0.0 0.0
0.0 0.0010658081811356034 -0.0008243286432748404 0.0006808738605081296 0.0001434547827667105 0.0007298612947821333 0.0 0.0
0.0 0.00016269350171811562 -0.00010569730924025648 8.521449480497058e-05 2.048281443528586e-05 0.00013443404132379568 0.0 0.0
0.0 1.0794388930653168e-05 -4.507212533175426e-06 3.624633056350922e-06 8.825794768244832e-07 8.292630911956125e-06 0.0 0.0
0.0 9.159772720464821e-07 5.630253742091469e-08 -4.5367008322703315e-08 -1.0935529098212496e-08 -1.5681455054918204e-07 0.0 0.0
0.0 0.0 0.0 0.0 0.0 0.0 0.0 0.0
0.0 0.0 0.0 0.0 0.0 0.0 0.0 0.0
0.0 0.0 0.0 0.0 0.0 0.0 0.0 0.0
0.0 0.0 0.0 0.0 0.0 0.0 0.0 0.0
0.0 1.689842663827738e-07 1.2417531491820355e-08 -9.875132672039358e-09 -2.542398819781851e-09 2.52211868254362e-08 0.0 0.0
0.0 1.0520436950629412e-05 -5.641172963629106e-06 4.495342539901037e-06 1.1458304237280892e-06 -7.659698878607418e-06 0.0 0.0
0.0 0.0002963492967661492 -0.00021798067450609754 0.0001760721128024748 4.190856170362281e-05 -0.00019272032883655823 0.0 0.0
0.0 0.0017060098926179872 -0.0013654780568093724 0.001144957996495671 0.0002205200603137023 -0.0008226521719068292 0.0 0.0
0.0 0.0046530687553093 -0.004025150392149213 0.00356177610328387 0.0004633742888653457 -0.0019707974898048263 0.0 0.0
0.0 0.009626406977912094 -0.008350781354749832 0.007712580116476661 0.0006382012382731722 -0.003731005005377323 0.0 0.0
0.0 0.016592237961634226 -0.01430225049299514 0.013547007000740498 0.0007552434922546384 -0.006002304753756854 0.0 0.0
0.0 0.025285086878156095 -0.02174409397109619 0.020891021030914222 0.0008530729401819881 -0.008591081839077868 0.0 0.0
0.0 0.035501712590514635 -0.030489814181117937 0.02954478733360224 0.0009450268475156892 -0.011231284861278595 0.0 0.0
0.0 0.04706695581605602 -0.040407465787259664 0.03937306085432019 0.0010344049329394517 -0.01377118160209115 0.0 0.0
0.0 0.05990598245819795 -0.051450529921132276 0.05032929218497156 0.001121237736160707 -0.016252663146085304 0.0 0.0
0.0 0.07406696741419563 -0.06362405815852042 0.062417581830498364 0.0012064763280220262 -0.018705365168710963 0.0 0.0
0.0 0.08945600721887703 -0.07688238605636576 0.07558769831181812 0.0012946877445476406 -0.021120672736216685 0.0 0.0
0.0 0.10542403846651015 -0.09083184753815148 0.08942825009995624 0.0014035974381951827 -0.02368053251695156 0.0 0.0
0.0 0.12082102967234383 -0.1040763662971061 0.10252176752620176 0.001554598770904313 -0.027107061136120644 0.0 0.0
0.0 0.13204406327093265 -0.1135709174429017 0.1118306444283585 0.001740273014543226 -0.032282665926701704 0.0 0.0
0.0 0.1338354984684283 -0.11461122283129886 0.11267470314145402 0.0019365196898448078 -0.03940568735811848 0.0 0.0
0.0 0.11989344878804012 -0.10124319377034395 0.0991267548300991 0.002116438940244749 -0.048377163918923646 0.0 0.0
0.0 0.11989344878803386 -0.10124319377033338 0.09912675483008837 0.0021164389402450446 0.048377163918966716 0.0 0.0
0.0 0.13383549846840292 -0.11461122283127204 0.11267470314142758 0.001936519689844511 0.03940568735817164 0.0 0.0
0.0 0.13204406327088275 -0.11357091744285559 0.11183064442831242 0.0017402730145430374 0.03228266592673916 0.0 0.0
0.0 0.12082102967227117 -0.1040763662970426 0.10252176752613765 0.001554598770904993 0.027107061136128704 0.0 0.0
0.0 0.10542403846643328 -0.09083184753808479 0.08942825009988961 0.0014035974381951116 0.02368053251694706 0.0 0.0
0.0 0.0894560072187979 -0.07688238605629708 0.07558769831174997 0.001294687744547092 0.02112067273620876 0.0 0.0
0.0 0.07406696741411395 -0.06362405815844999 0.06241758183042839 0.001206476328021527 0.018705365168697044 0.0 0.0
0.0 0.05990598245811795 -0.05145052992106288 0.05032929218490303 0.0011212377361598507 0.01625266314607094 0.0 0.0
0.0 0.0470669558159789 -0.04040746578719265 0.039373060854254086 0.0010344049329385919 0.013771181602074061 0.0 0.0
0.0 0.035501712590446044 -0.03048981418105877 0.029544787333543855 0.000945026847514906 0.01123128486125513 0.0 0.0
0.0 0.025285086878098977 -0.021744093971046926 0.020891021030865868 0.000853072940181044 0.008591081839055853 0.0 0.0
0.0 0.016592237961588503 -0.014302250492955335 0.013547007000701378 0.0007552434922539588 0.006002304753742111 0.0 0.0
0.0 0.009626406977879027 -0.008350781354720976 0.00771258011644867 0.0006382012382723079 0.0037310050053654823 0.0 0.0
0.0 0.004653068755287184 -0.004025150392130253 0.0035617761032660207 0.0004633742888642321 0.001970797489795957 0.0 0.0
0.0 0.0017060098926075173 -0.0013654780568014132 0.001144957996488705 0.000220520060312708 0.0008226521719022287 0.0 0.0
0.0 0.00029634929676317594 -0.00021798067450459012 0.00017607211280123172 4.1908561703358135e-05 0.00019272032883534736 0.0 0.0
0.0 1.052043695038432e-05 -5.641172964028848e-06 4.495342540212007e-06 1.1458304238168524e-06 7.659698879124286e-06 0.0 0.0
0.0 1.6898426617536985e-07 1.2417531476370223e-08 -9.875132659750366e-09 -2.5423988166177494e-09 -2.522118679403248e-08 0.0 0.0
0.0 0.0 0.0 0.0 0.0 0.0 0.0 0.0
0.0 0.0 0.0 0.0 0.0 0.0 0.0 0.0
0.0 0.0 0.0 0.0 0.0 0.0 0.0 0.0
0.0 0.0 0.0 0.0 0.0 0.0 0.0 0.0
0.0 0.0 0.0 0.0 0.0 0.0 0.0 0.0
0.0 1.545344869684414e-05 -9.944421183223316e-06 7.946921371233801e-06 1.9974998119895058e-06 -9.665175610735075e-06 0.0 0.0
0.0 0.000540809823343351 -0.00041728880557481815 0.000338546072424153 7.874273315066501e-05 -0.00023691608239318656 0.0 0.0
0.0 0.002459342139974295 -0.0020559935257488428 0.0017517861143898136 0.00030420741135902857 -0.0008137156485754898 0.0 0.0
0.0 0.006008161443677079 -0.005323922435989723 0.00478924307459881 0.000534679361390911 -0.0017593584232052078 0.0 0.0
0.0 0.011800799607229063 -0.010338399046335696 0.009656393174968528 0.0006820058713671664 -0.0031749609350007774 0.0 0.0
0.0 0.01972796996509862 -0.01716281746848598 0.016370529136363207 0.0007922883321227635 -0.005029508711169237 0.0 0.0
0.0 0.029633562927701657 -0.025691935540777897 0.024798914269153628 0.0008930212716242694 -0.007156000606856084 0.0 0.0
0.0 0.04133523516578139 -0.035751492758721984 0.03475977277441819 0.000991719984303769 -0.009331763724732843 0.0 0.0
0.0 0.054584084875601444 -0.04720523528312437 0.046116037501116876 0.001089197782007493 -0.011421691632707408 0.0 0.0
0.0 0.06946696886269446 -0.05997908618497155 0.05879321516335951 0.001185871021612011 -0.013475609588966693 0.0 0.0
0.0 0.08558125500829919 -0.07401680786205567 0.0727343274552939 0.0012824804067617544 -0.015545681730576803 0.0 0.0
0.0 0.10301331055133679 -0.08916153547956597 0.08778047010896296 0.0013810653706030447 -0.01744546065825407 0.0 0.0
0.0 0.12122045517307145 -0.10495702374776583 0.10346388686847544 0.001493136879290358 -0.01890183751123567 0.0 0.0
0.0 0.13867546140482173 -0.12009934483818024 0.11845398569951811 0.001645359138662099 -0.020565800097004337 0.0 0.0
0.0 0.15194880981002484 -0.1314845160045597 0.1296243203187584 0.001860195685801213 -0.025030172983629778 0.0 0.0
0.0 0.15514493615298036 -0.13370809295790806 0.13162334610655052 0.0020847468513575766 -0.035102444926673436 0.0 0.0
0.0 0.14132814392061122 -0.11990262221560942 0.11762014055329525 0.0022824816623141213 -0.05193007042411707 0.0 0.0
0.0 0.1413281439206016 -0.11990262221559746 0.11762014055328315 0.0022824816623143234 0.051930070424150765 0.0 0.0
0.0 0.1551449361529437 -0.13370809295787325 0.13162334610651577 0.0020847468513574686 0.03510244492671844 0.0 0.0
0.0 0.15194880980996744 -0.13148451600450786 0.1296243203187075 0.001860195685800336 0.02503017298366242 0.0 0.0
0.0 0.1386754614047433 -0.12009934483811188 0.11845398569945018 0.0016453591386617397 0.020565800097011033 0.0 0.0
0.0 0.1212204551729836 -0.10495702374768939 0.10346388686839977 0.0014931368792896096 0.018901837511234622 0.0 0.0
0.0 0.1030133105512451 -0.08916153547948633 0.0877804701088839 0.001381065370602505 0.01744546065824913 0.0 0.0
0.0 0.08558125500820618 -0.07401680786197525 0.07273432745521373 0.0012824804067614922 0.015545681730567315 0.0 0.0
0.0 0.0694669688626032 -0.059979086184892325 0.058793215163280774 0.0011858710216115951 0.013475609588956494 0.0 0.0
0.0 0.05458408487551324 -0.04720523528304793 0.04611603750104093 0.0010891977820069818 0.011421691632696122 0.0 0.0
0.0 0.04133523516570086 -0.03575149275865212 0.034759772774348725 0.0009917199843034066 0.009331763724713569 0.0 0.0
0.0 0.02963356292763314 -0.025691935540718552 0.024798914269094655 0.0008930212716239066 0.007156000606836388 0.0 0.0
0.0 0.01972796996504648 -0.017162817468440485 0.016370529136318156 0.0007922883321223239 0.005029508711156418 0.0 0.0
0.0 0.011800799607190654 -0.01033839904630198 0.009656393174935364 0.000682005871366615 0.003174960934990494 0.0 0.0
0.0 0.006008161443651648 -0.005323922435967237 0.004789243074577332 0.0005346793613899076 0.0017593584231977199 0.0 0.0
0.0 0.002459342139961564 -0.002055993525738261 0.0017517861143803398 0.00030420741135792014 0.0008137156485711355 0.0 0.0
0.0 0.000540809823338916 -0.0004172888055718241 0.0003385460724216981 7.87427331501262e-05 0.00023691608239175807 0.0 0.0
0.0 1.5453448696473642e-05 -9.944421183627703e-06 7.946921371539379e-06 1.9974998120883325e-06 9.665175611062374e-06 0.0 0.0
0.0 0.0 0.0 0.0 0.0 0.0 0.0 0.0
0.0 0.0 0.0 0.0 0.0 0.0 0.0 0.0
0.0 0.0 0.0 0.0 0.0 0.0 0.0 0.0
0.0 0.0 0.0 0.0 0.0 0.0 0.0 0.0
0.0 0.0 0.0 0.0 0.0 0.0 0.0 0.0
0.0 0.0 0.0 0.0 0.0 0.0 0.0 0.0
0.0 3.6493020496734726e-05 -2.515291554514869e-05 2.0052937454152046e-05 5.0999780909966675e-06 -1.503820152785379e-05 0.0 0.0
0.0 0.0009272657162550932 -0.0007263865764744019 0.0005954061723179558 0.00013098040415644623 -0.0002360144670090502 0.0 0.0
0.0 0.003174496537896801 -0.002877051323406674 0.0024904098935707207 0.00038664142983595206 -0.0006511303366517247 0.0 0.0
0.0 0.007492275798191825 -0.006673183743936326 0.006086626375966453 0.0005865573679698763 -0.0012925893857014682 0.0 0.0
0.0 0.014018244405478707 -0.012346891774503096 0.011630730794065087 0.0007161609804380133 -0.002251217883633662 0.0 0.0
0.0 0.02288390577131571 -0.020015566126267082 0.019193144455267472 0.0008224216709996005 -0.003533637960368722 0.0 0.0
0.0 0.033987032766733094 -0.029613826509801145 0.028686413047870413 0.0009274134619307214 -0.005027477906255611 0.0 0.0
0.0 0.04715080755613135 -0.04098173064008148 0.03994833303103 0.0010333976090514821 -0.0065581789082334 0.0 0.0
0.0 0.06225013232091266 -0.053973365887724806 0.05283401936347886 0.001139346524245942 -0.00802950383554492 0.0 0.0
0.0 0.07887255077142855 -0.0684865712807407 0.06724049365501567 0.0012460776257250288 -0.00950664982264685 0.0 0.0
0.0 0.09714686315051027 -0.08437549028373191 0.08302046576987965 0.001355024513852224 -0.01098351525793696 0.0 0.0
0.0 0.1167059674375366 -0.10133271885893036 0.09986521447723429 0.0014675043816960599 -0.01224184286311729 0.0 0.0
0.0 0.13674513276509337 -0.11873814482188674 0.1171525482214853 0.0015855966004014108 -0.01282986667646649 0.0 0.0
0.0 0.15587843649853275 -0.13538069168934436 0.13365710740963627 0.0017235842797081284 -0.012673494612285572 0.0 0.0
0.0 0.17128781393694434 -0.1487195495818841 0.14679863445350616 0.0019209151283778722 -0.014634822774022688 0.0 0.0
0.0 0.17713060371374428 -0.1533160823657308 0.15107886340442886 0.0022372189613018667 -0.026741421722581964 0.0 0.0
0.0 0.16455304686083283 -0.14017950685867195 0.1377026506567176 0.00247685620195432 -0.05407393829882765 0.0 0.0
0.0 0.16455304686082126 -0.1401795068586593 0.1377026506567055 0.002476856201953795 0.05407393829885233 0.0 0.0
0.0 0.17713060371369999 -0.15331608236569091 0.15107886340438897 0.0022372189613019447 0.026741421722617273 0.0 0.0
0.0 0.17128781393687303 -0.14871954958182187 0.14679863445344385 0.0019209151283781003 0.014634822774047145 0.0 0.0
0.0 0.15587843649844588 -0.13538069168926878 0.1336571074095611 0.0017235842797076785 0.012673494612288238 0.0 0.0
0.0 0.13674513276499448 -0.11873814482180065 0.11715254822140032 0.0015855966004003404 0.012829866676464938 0.0 0.0
0.0 0.1167059674374376 -0.10133271885884391 0.09986521447714948 0.0014675043816944362 0.012241842863115068 0.0 0.0
0.0 0.09714686315041003 -0.08437549028364484 0.0830204657697935 0.0013550245138513133 0.010983515257932008 0.0 0.0
0.0 0.0788725507713265 -0.06848657128065216 0.06724049365492776 0.0012460776257244021 0.009506649822639395 0.0 0.0
0.0 0.06225013232081231 -0.0539733658876374 0.052834019363392194 0.001139346524245176 0.00802950383553749 0.0 0.0
0.0 0.047150807556043395 -0.040981730640005015 0.03994833303095452 0.0010333976090504868 0.0065581789082189545 0.0 0.0
0.0 0.0339870327666612 -0.029613826509738553 0.028686413047808498 0.000927413461930063 0.005027477906241968 0.0 0.0
0.0 0.02288390577125881 -0.02001556612621687 0.019193144455217935 0.0008224216709989275 0.003533637960361112 0.0 0.0
0.0 0.014018244405435046 -0.012346891774464495 0.011630730794027207 0.0007161609804372819 0.0022512178836268555 0.0 0.0
0.0 0.007492275798165089 -0.006673183743912311 0.006086626375943299 0.0005865573679690105 0.0012925893856965028 0.0 0.0
0.0 0.0031744965378824267 -0.0028770513233936424 0.0024904098935588596 0.00038664142983478296 0.0006511303366489302 0.0 0.0
0.0 0.0009272657162488694 -0.0007263865764697575 0.0005954061723140312 0.00013098040415572594 0.00023601446700772881 0.0 0.0
0.0 3.6493020496100535e-05 -2.5152915545468424e-05 2.0052937454384597e-05 5.099978091083774e-06 1.5038201527973836e-05 0.0 0.0
0.0 0.0 0.0 0.0 0.0 0.0 0.0 0.0
0.0 0.0 0.0 0.0 0.0 0.0 0.0 0.0
0.0 0.0 0.0 0.0 0.0 0.0 0.0 0.0
0.0 0.0 0.0 0.0 0.0 0.0 0.0 0.0
0.0 0.0 0.0 0.0 0.0 0.0 0.0 0.0
0.0 0.0 0.0 0.0 0.0 0.0 0.0 0.0
0.0 0.00010757633386974026 -8.641242940997798e-05 6.852463883448807e-05 1.788779057549005e-05 -2.189140570188321e-05 0.0 0.0
0.0 0.001463615072401831 -0.001143970229549919 0.0009483453869632108 0.00019562484258670783 -0.00014610008342814712 0.0 0.0
0.0 0.004144090387100363 -0.003755496196060743 0.0032997230449421607 0.00045577315111858317 -0.00030927536670179547 0.0 0.0
0.0 0.00902910333784308 -0.008052615699749334 0.0074262486243258955 0.0006263670754234359 -0.0005700051527472493 0.0 0.0
0.0 0.016275628353445756 -0.01434802614602062 0.01360529545841496 0.0007427306876056526 -0.0009632291091134174 0.0 0.0
0.0 0.026060933147756645 -0.022829234542362818 0.021981601652329676 0.0008476328900331391 -0.0015232924825060842 0.0 0.0
0.0 0.03837266364197566 -0.03347615764078659 0.03251912413009178 0.0009570335106948063 -0.0022033361799937592 0.0 0.0
0.0 0.053073609671129285 -0.046149403151836396 0.04507901866266674 0.0010703844891696444 -0.002911968894828207 0.0 0.0
0.0 0.06969183019604688 -0.06068779315842362 0.059502152691305724 0.00118564046711788 -0.0036124969095943653 0.0 0.0
0.0 0.08834514675727298 -0.07692628048168697 0.07562387228445266 0.001302408197234312 -0.004309092137586113 0.0 0.0
0.0 0.10877022396056647 -0.09464118756022638 0.09321792996232336 0.0014232575979029809 -0.004966260130126443 0.0 0.0
0.0 0.1303775278752878 -0.11338340883254383 0.1118331638678316 0.0015502449647122828 -0.005456633273817088 0.0 0.0
0.0 0.15219905775814996 -0.13229590360994298 0.1306138707444482 0.0016820328654947284 -0.005464306530746378 0.0 0.0
0.0 0.17263295518714183 -0.15001913594269511 0.14820456874023782 0.0018145672024572836 -0.004559699944487739 0.0 0.0
0.0 0.1893672658489259 -0.16456625995281834 0.16260716078674273 0.0019590991660755003 -0.003418800903691388 0.0 0.0
0.0 0.19857707764570223 -0.17239080807058316 0.17020029864734731 0.0021905094232357453 -0.01065884804587249 0.0 0.0
0.0 0.19116619814208125 -0.1638727322939444 0.16102325732226763 0.0028494749716767047 -0.049898962831572156 0.0 0.0
0.0 0.19116619814206207 -0.16387273229392746 0.16102325732225006 0.002849474971677324 0.0498989628315801 0.0 0.0
0.0 0.19857707764565044 -0.17239080807053814 0.17020029864730207 0.002190509423235933 0.010658848045890618 0.0 0.0
0.0 0.18936726584884572 -0.1645662599527487 0.16260716078667364 0.001959099166075019 0.0034188009037026622 0.0 0.0
0.0 0.17263295518704633 -0.15001913594261176 0.14820456874015606 0.001814567202455722 0.004559699944484944 0.0 0.0
0.0 0.15219905775804016 -0.1322959036098479 0.13061387074435343 0.0016820328654943712 0.0054643065307456665 0.0 0.0
0.0 0.1303775278751735 -0.11338340883244488 0.11183316386773272 0.0015502449647121007 0.005456633273817084 0.0 0.0
0.0 0.10877022396045141 -0.0946411875601266 0.09321792996222417 0.001423257597902364 0.004966260130123253 0.0 0.0
0.0 0.088345146757161 -0.07692628048158966 0.07562387228435642 0.001302408197233203 0.004309092137582223 0.0 0.0
0.0 0.06969183019593926 -0.06068779315833003 0.05950215269121312 0.001185640467116899 0.0036124969095925564 0.0 0.0
0.0 0.05307360967103179 -0.046149403151751534 0.04507901866258275 0.00107038448916878 0.0029119688948211044 0.0 0.0
0.0 0.03837266364189554 -0.03347615764071686 0.03251912413002314 0.0009570335106937294 0.0022033361799867197 0.0 0.0
0.0 0.026060933147695822 -0.022829234542309375 0.021981601652276948 0.0008476328900324199 0.001523292482502857 0.0 0.0
0.0 0.016275628353399574 -0.014348026145979622 0.013605295458374519 0.0007427306876050949 0.0009632291091100409 0.0 0.0
0.0 0.009029103337812695 -0.00805261569972212 0.007426248624299403 0.0006263670754227144 0.0005700051527455358 0.0 0.0
0.0 0.0041440903870819555 -0.0037554961960438735 0.0032997230449261974 0.0004557731511176746 0.0003092753667000663 0.0 0.0
0.0 0.0014636150723933425 -0.001143970229543265 0.000948345386957424 0.00019562484258584193 0.00014610008342744448 0.0 0.0
0.0 0.00010757633386863857 -8.641242940967206e-05 6.85246388342215e-05 1.7887790575450526e-05 2.1891405701745898e-05 0.0 0.0
0.0 0.0 0.0 0.0 0.0 0.0 0.0 0.0
0.0 0.0 0.0 0.0 0.0 0.0 0.0 0.0
0.0 0.0 0.0 0.0 0.0 0.0 0.0 0.0