# vtk DataFile Version 3.0
Some data
ASCII
DATASET UNSTRUCTURED_GRID
POINTS 861 float
0.0 0.0 0.0
0.4 0.0 0.0
0.8 0.0 0.0
1.2000000000000002 0.0 0.0
1.6 0.0 0.0
2.0 0.0 0.0
2.4000000000000004 0.0 0.0
2.8000000000000003 0.0 0.0
3.2 0.0 0.0
3.6 0.0 0.0
4.0 0.0 0.0
4.4 0.0 0.0
4.800000000000001 0.0 0.0
5.2 0.0 0.0
5.6000000000000005 0.0 0.0
6.0 0.0 0.0
6.4 0.0 0.0
6.800000000000001 0.0 0.0
7.2 0.0 0.0
7.6000000000000005 0.0 0.0
8.0 0.0 0.0
8.4 0.0 0.0
8.8 0.0 0.0
9.200000000000001 0.0 0.0
9.600000000000001 0.0 0.0
10.0 0.0 0.0
10.4 0.0 0.0
10.8 0.0 0.0
11.200000000000001 0.0 0.0
11.600000000000001 0.0 0.0
12.0 0.0 0.0
12.4 0.0 0.0
12.8 0.0 0.0
13.200000000000001 0.0 0.0
13.600000000000001 0.0 0.0
14.0 0.0 0.0
14.4 0.0 0.0
14.8 0.0 0.0
15.200000000000001 0.0 0.0
15.600000000000001 0.0 0.0
16.0 0.0 0.0
0.0 0.1 0.0
0.4 0.1 0.0
0.8 0.1 0.0
1.2000000000000002 0.1 0.0
1.6 0.1 0.0
2.0 0.1 0.0
2.4000000000000004 0.1 0.0
2.8000000000000003 0.1 0.0
3.2 0.1 0.0
3.6 0.1 0.0
4.0 0.1 0.0
4.4 0.1 0.0
4.800000000000001 0.1 0.0
5.2 0.1 0.0
5.6000000000000005 0.1 0.0
6.0 0.1 0.0
6.4 0.1 0.0
6.800000000000001 0.1 0.0
7.2 0.1 0.0
7.6000000000000005 0.1 0.0
8.0 0.1 0.0
8.4 0.1 0.0
8.8 0.1 0.0
9.200000000000001 0.1 0.0
9.600000000000001 0.1 0.0
10.0 0.1 0.0
10.4 0.1 0.0
10.8 0.1 0.0
11.200000000000001 0.1 0.0
11.600000000000001 0.1 0.0
12.0 0.1 0.0
12.4 0.1 0.0
12.8 0.1 0.0
13.200000000000001 0.1 0.0
13.600000000000001 0.1 0.0
14.0 0.1 0.0
14.4 0.1 0.0
14.8 0.1 0.0
15.200000000000001 0.1 0.0
15.600000000000001 0.1 0.0
16.0 0.1 0.0
0.0 0.2 0.0
0.4 0.2 0.0
0.8 0.2 0.0
1.2000000000000002 0.2 0.0
1.6 0.2 0.0
2.0 0.2 0.0
2.4000000000000004 0.2 0.0
2.8000000000000003 0.2 0.0
3.2 0.2 0.0
3.6 0.2 0.0
4.0 0.2 0.0
4.4 0.2 0.0
4.800000000000001 0.2 0.0
5.2 0.2 0.0
5.6000000000000005 0.2 0.0
6.0 0.2 0.0
6.4 0.2 0.0
6.800000000000001 0.2 0.0
7.2 0.2 0.0
7.6000000000000005 0.2 0.0
8.0 0.2 0.0
8.4 0.2 0.0
8.8 0.2 0.0
9.200000000000001 0.2 0.0
9.600000000000001 0.2 0.0
10.0 0.2 0.0
10.4 0.2 0.0
10.8 0.2 0.0
11.200000000000001 0.2 0.0
11.600000000000001 0.2 0.0
12.0 0.2 0.0
12.4 0.2 0.0
12.8 0.2 0.0
13.200000000000001 0.2 0.0
13.600000000000001 0.2 0.0
14.0 0.2 0.0
14.4 0.2 0.0
14.8 0.2 0.0
15.200000000000001 0.2 0.0
15.600000000000001 0.2 0.0
16.0 0.2 0.0
0.0 0.30000000000000004 0.0
0.4 0.30000000000000004 0.0
0.8 0.30000000000000004 0.0
1.2000000000000002 0.30000000000000004 0.0
1.6 0.30000000000000004 0.0
2.0 0.30000000000000004 0.0
2.4000000000000004 0.30000000000000004 0.0
2.8000000000000003 0.30000000000000004 0.0
3.2 0.30000000000000004 0.0
3.6 0.30000000000000004 0.0
4.0 0.30000000000000004 0.0
4.4 0.30000000000000004 0.0
4.800000000000001 0.30000000000000004 0.0
5.2 0.30000000000000004 0.0
5.6000000000000005 0.30000000000000004 0.0
6.0 0.30000000000000004 0.0
6.4 0.30000000000000004 0.0
6.800000000000001 0.30000000000000004 0.0
7.2 0.30000000000000004 0.0
7.6000000000000005 0.30000000000000004 0.0
8.0 0.30000000000000004 0.0
8.4 0.30000000000000004 0.0
8.8 0.30000000000000004 0.0
9.200000000000001 0.30000000000000004 0.0
9.600000000000001 0.30000000000000004 0.0
10.0 0.30000000000000004 0.0
10.4 0.30000000000000004 0.0
10.8 0.30000000000000004 0.0
11.200000000000001 0.30000000000000004 0.0
11.600000000000001 0.30000000000000004 0.0
12.0 0.30000000000000004 0.0
12.4 0.30000000000000004 0.0
12.8 0.30000000000000004 0.0
13.200000000000001 0.30000000000000004 0.0
13.600000000000001 0.30000000000000004 0.0
14.0 0.30000000000000004 0.0
14.4 0.30000000000000004 0.0
14.8 0.30000000000000004 0.0
15.200000000000001 0.30000000000000004 0.0
15.600000000000001 0.30000000000000004 0.0
16.0 0.30000000000000004 0.0
0.0 0.4 0.0
0.4 0.4 0.0
0.8 0.4 0.0
1.2000000000000002 0.4 0.0
1.6 0.4 0.0
2.0 0.4 0.0
2.4000000000000004 0.4 0.0
2.8000000000000003 0.4 0.0
3.2 0.4 0.0
3.6 0.4 0.0
4.0 0.4 0.0
4.4 0.4 0.0
4.800000000000001 0.4 0.0
5.2 0.4 0.0
5.6000000000000005 0.4 0.0
6.0 0.4 0.0
6.4 0.4 0.0
6.800000000000001 0.4 0.0
7.2 0.4 0.0
7.6000000000000005 0.4 0.0
8.0 0.4 0.0
8.4 0.4 0.0
8.8 0.4 0.0
9.200000000000001 0.4 0.0
9.600000000000001 0.4 0.0
10.0 0.4 0.0
10.4 0.4 0.0
10.8 0.4 0.0
11.200000000000001 0.4 0.0
11.600000000000001 0.4 0.0
12.0 0.4 0.0
12.4 0.4 0.0
12.8 0.4 0.0
13.200000000000001 0.4 0.0
13.600000000000001 0.4 0.0
14.0 0.4 0.0
14.4 0.4 0.0
14.8 0.4 0.0
15.200000000000001 0.4 0.0
15.600000000000001 0.4 0.0
16.0 0.4 0.0
0.0 0.5 0.0
0.4 0.5 0.0
0.8 0.5 0.0
1.2000000000000002 0.5 0.0
1.6 0.5 0.0
2.0 0.5 0.0
2.4000000000000004 0.5 0.0
2.8000000000000003 0.5 0.0
3.2 0.5 0.0
3.6 0.5 0.0
4.0 0.5 0.0
4.4 0.5 0.0
4.800000000000001 0.5 0.0
5.2 0.5 0.0
5.6000000000000005 0.5 0.0
6.0 0.5 0.0
6.4 0.5 0.0
6.800000000000001 0.5 0.0
7.2 0.5 0.0
7.6000000000000005 0.5 0.0
8.0 0.5 0.0
8.4 0.5 0.0
8.8 0.5 0.0
9.200000000000001 0.5 0.0
9.600000000000001 0.5 0.0
10.0 0.5 0.0
10.4 0.5 0.0
10.8 0.5 0.0
11.200000000000001 0.5 0.0
11.600000000000001 0.5 0.0
12.0 0.5 0.0
12.4 0.5 0.0
12.8 0.5 0.0
13.200000000000001 0.5 0.0
13.600000000000001 0.5 0.0
14.0 0.5 0.0
14.4 0.5 0.0
14.8 0.5 0.0
15.200000000000001 0.5 0.0
15.600000000000001 0.5 0.0
16.0 0.5 0.0
0.0 0.6000000000000001 0.0
0.4 0.6000000000000001 0.0
0.8 0.6000000000000001 0.0
1.2000000000000002 0.6000000000000001 0.0
1.6 0.6000000000000001 0.0
2.0 0.6000000000000001 0.0
2.4000000000000004 0.6000000000000001 0.0
2.8000000000000003 0.6000000000000001 0.0
3.2 0.6000000000000001 0.0
3.6 0.6000000000000001 0.0
4.0 0.6000000000000001 0.0
4.4 0.6000000000000001 0.0
4.800000000000001 0.6000000000000001 0.0
5.2 0.6000000000000001 0.0
5.6000000000000005 0.6000000000000001 0.0
6.0 0.6000000000000001 0.0
6.4 0.6000000000000001 0.0
6.800000000000001 0.6000000000000001 0.0
7.2 0.6000000000000001 0.0
7.6000000000000005 0.6000000000000001 0.0
8.0 0.6000000000000001 0.0
8.4 0.6000000000000001 0.0
8.8 0.6000000000000001 0.0
9.200000000000001 0.6000000000000001 0.0
9.600000000000001 0.6000000000000001 0.0
10.0 0.6000000000000001 0.0
10.4 0.6000000000000001 0.0
10.8 0.6000000000000001 0.0
11.200000000000001 0.6000000000000001 0.0
11.600000000000001 0.6000000000000001 0.0
12.0 0.6000000000000001 0.0
12.4 0.6000000000000001 0.0
12.8 0.6000000000000001 0.0
13.200000000000001 0.6000000000000001 0.0
13.600000000000001 0.6000000000000001 0.0
14.0 0.6000000000000001 0.0
14.4 0.6000000000000001 0.0
14.8 0.6000000000000001 0.0
15.200000000000001 0.6000000000000001 0.0
15.600000000000001 0.6000000000000001 0.0
16.0 0.6000000000000001 0.0
0.0 0.7000000000000001 0.0
0.4 0.7000000000000001 0.0
0.8 0.7000000000000001 0.0
1.2000000000000002 0.7000000000000001 0.0
1.6 0.7000000000000001 0.0
2.0 0.7000000000000001 0.0
2.4000000000000004 0.7000000000000001 0.0
2.8000000000000003 0.7000000000000001 0.0
3.2 0.7000000000000001 0.0
3.6 0.7000000000000001 0.0
4.0 0.7000000000000001 0.0
4.4 0.7000000000000001 0.0
4.800000000000001 0.7000000000000001 0.0
5.2 0.7000000000000001 0.0
5.6000000000000005 0.7000000000000001 0.0
6.0 0.7000000000000001 0.0
6.4 0.7000000000000001 0.0
6.800000000000001 0.7000000000000001 0.0
7.2 0.7000000000000001 0.0
7.6000000000000005 0.7000000000000001 0.0
8.0 0.7000000000000001 0.0
8.4 0.7000000000000001 0.0
8.8 0.7000000000000001 0.0
9.200000000000001 0.7000000000000001 0.0
9.600000000000001 0.7000000000000001 0.0
10.0 0.7000000000000001 0.0
10.4 0.7000000000000001 0.0
10.8 0.7000000000000001 0.0
11.200000000000001 0.7000000000000001 0.0
11.600000000000001 0.7000000000000001 0.0
12.0 0.7000000000000001 0.0
12.4 0.7000000000000001 0.0
12.8 0.7000000000000001 0.0
13.200000000000001 0.7000000000000001 0.0
13.600000000000001 0.7000000000000001 0.0
14.0 0.7000000000000001 0.0
14.4 0.7000000000000001 0.0
14.8 0.7000000000000001 0.0
15.200000000000001 0.7000000000000001 0.0
15.600000000000001 0.7000000000000001 0.0
16.0 0.7000000000000001 0.0
0.0 0.8 0.0
0.4 0.8 0.0
0.8 0.8 0.0
1.2000000000000002 0.8 0.0
1.6 0.8 0.0
2.0 0.8 0.0
2.4000000000000004 0.8 0.0
2.8000000000000003 0.8 0.0
3.2 0.8 0.0
3.6 0.8 0.0
4.0 0.8 0.0
4.4 0.8 0.0
4.800000000000001 0.8 0.0
5.2 0.8 0.0
5.6000000000000005 0.8 0.0
6.0 0.8 0.0
6.4 0.8 0.0
6.800000000000001 0.8 0.0
7.2 0.8 0.0
7.6000000000000005 0.8 0.0
8.0 0.8 0.0
8.4 0.8 0.0
8.8 0.8 0.0
9.200000000000001 0.8 0.0
9.600000000000001 0.8 0.0
10.0 0.8 0.0
10.4 0.8 0.0
10.8 0.8 0.0
11.200000000000001 0.8 0.0
11.600000000000001 0.8 0.0
12.0 0.8 0.0
12.4 0.8 0.0
12.8 0.8 0.0
13.200000000000001 0.8 0.0
13.600000000000001 0.8 0.0
14.0 0.8 0.0
14.4 0.8 0.0
14.8 0.8 0.0
15.200000000000001 0.8 0.0
15.600000000000001 0.8 0.0
16.0 0.8 0.0
0.0 0.9 0.0
0.4 0.9 0.0
0.8 0.9 0.0
1.2000000000000002 0.9 0.0
1.6 0.9 0.0
2.0 0.9 0.0
2.4000000000000004 0.9 0.0
2.8000000000000003 0.9 0.0
3.2 0.9 0.0
3.6 0.9 0.0
4.0 0.9 0.0
4.4 0.9 0.0
4.800000000000001 0.9 0.0
5.2 0.9 0.0
5.6000000000000005 0.9 0.0
6.0 0.9 0.0
6.4 0.9 0.0
6.800000000000001 0.9 0.0
7.2 0.9 0.0
7.6000000000000005 0.9 0.0
8.0 0.9 0.0
8.4 0.9 0.0
8.8 0.9 0.0
9.200000000000001 0.9 0.0
9.600000000000001 0.9 0.0
10.0 0.9 0.0
10.4 0.9 0.0
10.8 0.9 0.0
11.200000000000001 0.9 0.0
11.600000000000001 0.9 0.0
12.0 0.9 0.0
12.4 0.9 0.0
12.8 0.9 0.0
13.200000000000001 0.9 0.0
13.600000000000001 0.9 0.0
14.0 0.9 0.0
14.4 0.9 0.0
14.8 0.9 0.0
15.200000000000001 0.9 0.0
15.600000000000001 0.9 0.0
16.0 0.9 0.0
0.0 1.0 0.0
0.4 1.0 0.0
0.8 1.0 0.0
1.2000000000000002 1.0 0.0
1.6 1.0 0.0
2.0 1.0 0.0
2.4000000000000004 1.0 0.0
2.8000000000000003 1.0 0.0
3.2 1.0 0.0
3.6 1.0 0.0
4.0 1.0 0.0
4.4 1.0 0.0
4.800000000000001 1.0 0.0
5.2 1.0 0.0
5.6000000000000005 1.0 0.0
6.0 1.0 0.0
6.4 1.0 0.0
6.800000000000001 1.0 0.0
7.2 1.0 0.0
7.6000000000000005 1.0 0.0
8.0 1.0 0.0
8.4 1.0 0.0
8.8 1.0 0.0
9.200000000000001 1.0 0.0
9.600000000000001 1.0 0.0
10.0 1.0 0.0
10.4 1.0 0.0
10.8 1.0 0.0
11.200000000000001 1.0 0.0
11.600000000000001 1.0 0.0
12.0 1.0 0.0
12.4 1.0 0.0
12.8 1.0 0.0
13.200000000000001 1.0 0.0
13.600000000000001 1.0 0.0
14.0 1.0 0.0
14.4 1.0 0.0
14.8 1.0 0.0
15.200000000000001 1.0 0.0
15.600000000000001 1.0 0.0
16.0 1.0 0.0
0.0 1.1 0.0
0.4 1.1 0.0
0.8 1.1 0.0
1.2000000000000002 1.1 0.0
1.6 1.1 0.0
2.0 1.1 0.0
2.4000000000000004 1.1 0.0
2.8000000000000003 1.1 0.0
3.2 1.1 0.0
3.6 1.1 0.0
4.0 1.1 0.0
4.4 1.1 0.0
4.800000000000001 1.1 0.0
5.2 1.1 0.0
5.6000000000000005 1.1 0.0
6.0 1.1 0.0
6.4 1.1 0.0
6.800000000000001 1.1 0.0
7.2 1.1 0.0
7.6000000000000005 1.1 0.0
8.0 1.1 0.0
8.4 1.1 0.0
8.8 1.1 0.0
9.200000000000001 1.1 0.0
9.600000000000001 1.1 0.0
10.0 1.1 0.0
10.4 1.1 0.0
10.8 1.1 0.0
11.200000000000001 1.1 0.0
11.600000000000001 1.1 0.0
12.0 1.1 0.0
12.4 1.1 0.0
12.8 1.1 0.0
13.200000000000001 1.1 0.0
13.600000000000001 1.1 0.0
14.0 1.1 0.0
14.4 1.1 0.0
14.8 1.1 0.0
15.200000000000001 1.1 0.0
15.600000000000001 1.1 0.0
16.0 1.1 0.0
0.0 1.2000000000000002 0.0
0.4 1.2000000000000002 0.0
0.8 1.2000000000000002 0.0
1.2000000000000002 1.2000000000000002 0.0
1.6 1.2000000000000002 0.0
2.0 1.2000000000000002 0.0
2.4000000000000004 1.2000000000000002 0.0
2.8000000000000003 1.2000000000000002 0.0
3.2 1.2000000000000002 0.0
3.6 1.2000000000000002 0.0
4.0 1.2000000000000002 0.0
4.4 1.2000000000000002 0.0
4.800000000000001 1.2000000000000002 0.0
5.2 1.2000000000000002 0.0
5.6000000000000005 1.2000000000000002 0.0
6.0 1.2000000000000002 0.0
6.4 1.2000000000000002 0.0
6.800000000000001 1.2000000000000002 0.0
7.2 1.2000000000000002 0.0
7.6000000000000005 1.2000000000000002 0.0
8.0 1.2000000000000002 0.0
8.4 1.2000000000000002 0.0
8.8 1.2000000000000002 0.0
9.200000000000001 1.2000000000000002 0.0
9.600000000000001 1.2000000000000002 0.0
10.0 1.2000000000000002 0.0
10.4 1.2000000000000002 0.0
10.8 1.2000000000000002 0.0
11.200000000000001 1.2000000000000002 0.0
11.600000000000001 1.2000000000000002 0.0
12.0 1.2000000000000002 0.0
12.4 1.2000000000000002 0.0
12.8 1.2000000000000002 0.0
13.200000000000001 1.2000000000000002 0.0
13.600000000000001 1.2000000000000002 0.0
14.0 1.2000000000000002 0.0
14.4 1.2000000000000002 0.0
14.8 1.2000000000000002 0.0
15.200000000000001 1.2000000000000002 0.0
15.600000000000001 1.2000000000000002 0.0
16.0 1.2000000000000002 0.0
0.0 1.3 0.0
0.4 1.3 0.0
0.8 1.3 0.0
1.2000000000000002 1.3 0.0
1.6 1.3 0.0
2.0 1.3 0.0
2.4000000000000004 1.3 0.0
2.8000000000000003 1.3 0.0
3.2 1.3 0.0
3.6 1.3 0.0
4.0 1.3 0.0
4.4 1.3 0.0
4.800000000000001 1.3 0.0
5.2 1.3 0.0
5.6000000000000005 1.3 0.0
6.0 1.3 0.0
6.4 1.3 0.0
6.800000000000001 1.3 0.0
7.2 1.3 0.0
7.6000000000000005 1.3 0.0
8.0 1.3 0.0
8.4 1.3 0.0
8.8 1.3 0.0
9.200000000000001 1.3 0.0
9.600000000000001 1.3 0.0
10.0 1.3 0.0
10.4 1.3 0.0
10.8 1.3 0.0
11.200000000000001 1.3 0.0
11.600000000000001 1.3 0.0
12.0 1.3 0.0
12.4 1.3 0.0
12.8 1.3 0.0
13.200000000000001 1.3 0.0
13.600000000000001 1.3 0.0
14.0 1.3 0.0
14.4 1.3 0.0
14.8 1.3 0.0
15.200000000000001 1.3 0.0
15.600000000000001 1.3 0.0
16.0 1.3 0.0
0.0 1.4000000000000001 0.0
0.4 1.4000000000000001 0.0
0.8 1.4000000000000001 0.0
1.2000000000000002 1.4000000000000001 0.0
1.6 1.4000000000000001 0.0
2.0 1.4000000000000001 0.0
2.4000000000000004 1.4000000000000001 0.0
2.8000000000000003 1.4000000000000001 0.0
3.2 1.4000000000000001 0.0
3.6 1.4000000000000001 0.0
4.0 1.4000000000000001 0.0
4.4 1.4000000000000001 0.0
4.800000000000001 1.4000000000000001 0.0
5.2 1.4000000000000001 0.0
5.6000000000000005 1.4000000000000001 0.0
6.0 1.4000000000000001 0.0
6.4 1.4000000000000001 0.0
6.800000000000001 1.4000000000000001 0.0
7.2 1.4000000000000001 0.0
7.6000000000000005 1.4000000000000001 0.0
8.0 1.4000000000000001 0.0
8.4 1.4000000000000001 0.0
8.8 1.4000000000000001 0.0
9.200000000000001 1.4000000000000001 0.0
9.600000000000001 1.4000000000000001 0.0
10.0 1.4000000000000001 0.0
10.4 1.4000000000000001 0.0
10.8 1.4000000000000001 0.0
11.200000000000001 1.4000000000000001 0.0
11.600000000000001 1.4000000000000001 0.0
12.0 1.4000000000000001 0.0
12.4 1.4000000000000001 0.0
12.8 1.4000000000000001 0.0
13.200000000000001 1.4000000000000001 0.0
13.600000000000001 1.4000000000000001 0.0
14.0 1.4000000000000001 0.0
14.4 1.4000000000000001 0.0
14.8 1.4000000000000001 0.0
15.200000000000001 1.4000000000000001 0.0
15.600000000000001 1.4000000000000001 0.0
16.0 1.4000000000000001 0.0
0.0 1.5 0.0
0.4 1.5 0.0
0.8 1.5 0.0
1.2000000000000002 1.5 0.0
1.6 1.5 0.0
2.0 1.5 0.0
2.4000000000000004 1.5 0.0
2.8000000000000003 1.5 0.0
3.2 1.5 0.0
3.6 1.5 0.0
4.0 1.5 0.0
4.4 1.5 0.0
4.800000000000001 1.5 0.0
5.2 1.5 0.0
5.6000000000000005 1.5 0.0
6.0 1.5 0.0
6.4 1.5 0.0
6.800000000000001 1.5 0.0
7.2 1.5 0.0
7.6000000000000005 1.5 0.0
8.0 1.5 0.0
8.4 1.5 0.0
8.8 1.5 0.0
9.200000000000001 1.5 0.0
9.600000000000001 1.5 0.0
10.0 1.5 0.0
10.4 1.5 0.0
10.8 1.5 0.0
11.200000000000001 1.5 0.0
11.600000000000001 1.5 0.0
12.0 1.5 0.0
12.4 1.5 0.0
12.8 1.5 0.0
13.200000000000001 1.5 0.0
13.600000000000001 1.5 0.0
14.0 1.5 0.0
14.4 1.5 0.0
14.8 1.5 0.0
15.200000000000001 1.5 0.0
15.600000000000001 1.5 0.0
16.0 1.5 0.0
0.0 1.6 0.0
0.4 1.6 0.0
0.8 1.6 0.0
1.2000000000000002 1.6 0.0
1.6 1.6 0.0
2.0 1.6 0.0
2.4000000000000004 1.6 0.0
2.8000000000000003 1.6 0.0
3.2 1.6 0.0
3.6 1.6 0.0
4.0 1.6 0.0
4.4 1.6 0.0
4.800000000000001 1.6 0.0
5.2 1.6 0.0
5.6000000000000005 1.6 0.0
6.0 1.6 0.0
6.4 1.6 0.0
6.800000000000001 1.6 0.0
7.2 1.6 0.0
7.6000000000000005 1.6 0.0
8.0 1.6 0.0
8.4 1.6 0.0
8.8 1.6 0.0
9.200000000000001 1.6 0.0
9.600000000000001 1.6 0.0
10.0 1.6 0.0
10.4 1.6 0.0
10.8 1.6 0.0
11.200000000000001 1.6 0.0
11.600000000000001 1.6 0.0
12.0 1.6 0.0
12.4 1.6 0.0
12.8 1.6 0.0
13.200000000000001 1.6 0.0
13.600000000000001 1.6 0.0
14.0 1.6 0.0
14.4 1.6 0.0
14.8 1.6 0.0
15.200000000000001 1.6 0.0
15.600000000000001 1.6 0.0
16.0 1.6 0.0
0.0 1.7000000000000002 0.0
0.4 1.7000000000000002 0.0
0.8 1.7000000000000002 0.0
1.2000000000000002 1.7000000000000002 0.0
1.6 1.7000000000000002 0.0
2.0 1.7000000000000002 0.0
2.4000000000000004 1.7000000000000002 0.0
2.8000000000000003 1.7000000000000002 0.0
3.2 1.7000000000000002 0.0
3.6 1.7000000000000002 0.0
4.0 1.7000000000000002 0.0
4.4 1.7000000000000002 0.0
4.800000000000001 1.7000000000000002 0.0
5.2 1.7000000000000002 0.0
5.6000000000000005 1.7000000000000002 0.0
6.0 1.7000000000000002 0.0
6.4 1.7000000000000002 0.0
6.800000000000001 1.7000000000000002 0.0
7.2 1.7000000000000002 0.0
7.6000000000000005 1.7000000000000002 0.0
8.0 1.7000000000000002 0.0
8.4 1.7000000000000002 0.0
8.8 1.7000000000000002 0.0
9.200000000000001 1.7000000000000002 0.0
9.600000000000001 1.7000000000000002 0.0
10.0 1.7000000000000002 0.0
10.4 1.7000000000000002 0.0
10.8 1.7000000000000002 0.0
11.200000000000001 1.7000000000000002 0.0
11.600000000000001 1.7000000000000002 0.0
12.0 1.7000000000000002 0.0
12.4 1.7000000000000002 0.0
12.8 1.7000000000000002 0.0
13.200000000000001 1.7000000000000002 0.0
13.600000000000001 1.7000000000000002 0.0
14.0 1.7000000000000002 0.0
14.4 1.7000000000000002 0.0
14.8 1.7000000000000002 0.0
15.200000000000001 1.7000000000000002 0.0
15.600000000000001 1.7000000000000002 0.0
16.0 1.7000000000000002 0.0
0.0 1.8 0.0
0.4 1.8 0.0
0.8 1.8 0.0
1.2000000000000002 1.8 0.0
1.6 1.8 0.0
2.0 1.8 0.0
2.4000000000000004 1.8 0.0
2.8000000000000003 1.8 0.0
3.2 1.8 0.0
3.6 1.8 0.0
4.0 1.8 0.0
4.4 1.8 0.0
4.800000000000001 1.8 0.0
5.2 1.8 0.0
5.6000000000000005 1.8 0.0
6.0 1.8 0.0
6.4 1.8 0.0
6.800000000000001 1.8 0.0
7.2 1.8 0.0
7.6000000000000005 1.8 0.0
8.0 1.8 0.0
8.4 1.8 0.0
8.8 1.8 0.0
9.200000000000001 1.8 0.0
9.600000000000001 1.8 0.0
10.0 1.8 0.0
10.4 1.8 0.0
10.8 1.8 0.0
11.200000000000001 1.8 0.0
11.600000000000001 1.8 0.0
12.0 1.8 0.0
12.4 1.8 0.0
12.8 1.8 0.0
13.200000000000001 1.8 0.0
13.600000000000001 1.8 0.0
14.0 1.8 0.0
14.4 1.8 0.0
14.8 1.8 0.0
15.200000000000001 1.8 0.0
15.600000000000001 1.8 0.0
16.0 1.8 0.0
0.0 1.9000000000000001 0.0
0.4 1.9000000000000001 0.0
0.8 1.9000000000000001 0.0
1.2000000000000002 1.9000000000000001 0.0
1.6 1.9000000000000001 0.0
2.0 1.9000000000000001 0.0
2.4000000000000004 1.9000000000000001 0.0
2.8000000000000003 1.9000000000000001 0.0
3.2 1.9000000000000001 0.0
3.6 1.9000000000000001 0.0
4.0 1.9000000000000001 0.0
4.4 1.9000000000000001 0.0
4.800000000000001 1.9000000000000001 0.0
5.2 1.9000000000000001 0.0
5.6000000000000005 1.9000000000000001 0.0
6.0 1.9000000000000001 0.0
6.4 1.9000000000000001 0.0
6.800000000000001 1.9000000000000001 0.0
7.2 1.9000000000000001 0.0
7.6000000000000005 1.9000000000000001 0.0
8.0 1.9000000000000001 0.0
8.4 1.9000000000000001 0.0
8.8 1.9000000000000001 0.0
9.200000000000001 1.9000000000000001 0.0
9.600000000000001 1.9000000000000001 0.0
10.0 1.9000000000000001 0.0
10.4 1.9000000000000001 0.0
10.8 1.9000000000000001 0.0
11.200000000000001 1.9000000000000001 0.0
11.600000000000001 1.9000000000000001 0.0
12.0 1.9000000000000001 0.0
12.4 1.9000000000000001 0.0
12.8 1.9000000000000001 0.0
13.200000000000001 1.9000000000000001 0.0
13.600000000000001 1.9000000000000001 0.0
14.0 1.9000000000000001 0.0
14.4 1.9000000000000001 0.0
14.8 1.9000000000000001 0.0
15.200000000000001 1.9000000000000001 0.0
15.600000000000001 1.9000000000000001 0.0
16.0 1.9000000000000001 0.0
0.0 2.0 0.0
0.4 2.0 0.0
0.8 2.0 0.0
1.2000000000000002 2.0 0.0
1.6 2.0 0.0
2.0 2.0 0.0
2.4000000000000004 2.0 0.0
2.8000000000000003 2.0 0.0
3.2 2.0 0.0
3.6 2.0 0.0
4.0 2.0 0.0
4.4 2.0 0.0
4.800000000000001 2.0 0.0
5.2 2.0 0.0
5.6000000000000005 2.0 0.0
6.0 2.0 0.0
6.4 2.0 0.0
6.800000000000001 2.0 0.0
7.2 2.0 0.0
7.6000000000000005 2.0 0.0
8.0 2.0 0.0
8.4 2.0 0.0
8.8 2.0 0.0
9.200000000000001 2.0 0.0
9.600000000000001 2.0 0.0
10.0 2.0 0.0
10.4 2.0 0.0
10.8 2.0 0.0
11.200000000000001 2.0 0.0
11.600000000000001 2.0 0.0
12.0 2.0 0.0
12.4 2.0 0.0
12.8 2.0 0.0
13.200000000000001 2.0 0.0
13.600000000000001 2.0 0.0
14.0 2.0 0.0
14.4 2.0 0.0
14.8 2.0 0.0
15.200000000000001 2.0 0.0
15.600000000000001 2.0 0.0
16.0 2.0 0.0
CELLS 800 4000
4 0 1 42 41
4 1 2 43 42
4 2 3 44 43
4 3 4 45 44
4 4 5 46 45
4 5 6 47 46
4 6 7 48 47
4 7 8 49 48
4 8 9 50 49
4 9 10 51 50
4 10 11 52 51
4 11 12 53 52
4 12 13 54 53
4 13 14 55 54
4 14 15 56 55
4 15 16 57 56
4 16 17 58 57
4 17 18 59 58
4 18 19 60 59
4 19 20 61 60
4 20 21 62 61
4 21 22 63 62
4 22 23 64 63
4 23 24 65 64
4 24 25 66 65
4 25 26 67 66
4 26 27 68 67
4 27 28 69 68
4 28 29 70 69
4 29 30 71 70
4 30 31 72 71
4 31 32 73 72
4 32 33 74 73
4 33 34 75 74
4 34 35 76 75
4 35 36 77 76
4 36 37 78 77
4 37 38 79 78
4 38 39 80 79
4 39 40 81 80
4 41 42 83 82
4 42 43 84 83
4 43 44 85 84
4 44 45 86 85
4 45 46 87 86
4 46 47 88 87
4 47 48 89 88
4 48 49 90 89
4 49 50 91 90
4 50 51 92 91
4 51 52 93 92
4 52 53 94 93
4 53 54 95 94
4 54 55 96 95
4 55 56 97 96
4 56 57 98 97
4 57 58 99 98
4 58 59 100 99
4 59 60 101 100
4 60 61 102 101
4 61 62 103 102
4 62 63 104 103
4 63 64 105 104
4 64 65 106 105
4 65 66 107 106
4 66 67 108 107
4 67 68 109 108
4 68 69 110 109
4 69 70 111 110
4 70 71 112 111
4 71 72 113 112
4 72 73 114 113
4 73 74 115 114
4 74 75 116 115
4 75 76 117 116
4 76 77 118 117
4 77 78 119 118
4 78 79 120 119
4 79 80 121 120
4 80 81 122 121
4 82 83 124 123
4 83 84 125 124
4 84 85 126 125
4 85 86 127 126
4 86 87 128 127
4 87 88 129 128
4 88 89 130 129
4 89 90 131 130
4 90 91 132 131
4 91 92 133 132
4 92 93 134 133
4 93 94 135 134
4 94 95 136 135
4 95 96 137 136
4 96 97 138 137
4 97 98 139 138
4 98 99 140 139
4 99 100 141 140
4 100 101 142 141
4 101 102 143 142
4 102 103 144 143
4 103 104 145 144
4 104 105 146 145
4 105 106 147 146
4 106 107 148 147
4 107 108 149 148
4 108 109 150 149
4 109 110 151 150
4 110 111 152 151
4 111 112 153 152
4 112 113 154 153
4 113 114 155 154
4 114 115 156 155
4 115 116 157 156
4 116 117 158 157
4 117 118 159 158
4 118 119 160 159
4 119 120 161 160
4 120 121 162 161
4 121 122 163 162
4 123 124 165 164
4 124 125 166 165
4 125 126 167 166
4 126 127 168 167
4 127 128 169 168
4 128 129 170 169
4 129 130 171 170
4 130 131 172 171
4 131 132 173 172
4 132 133 174 173
4 133 134 175 174
4 134 135 176 175
4 135 136 177 176
4 136 137 178 177
4 137 138 179 178
4 138 139 180 179
4 139 140 181 180
4 140 141 182 181
4 141 142 183 182
4 142 143 184 183
4 143 144 185 184
4 144 145 186 185
4 145 146 187 186
4 146 147 188 187
4 147 148 189 188
4 148 149 190 189
4 149 150 191 190
4 150 151 192 191
4 151 152 193 192
4 152 153 194 193
4 153 154 195 194
4 154 155 196 195
4 155 156 197 196
4 156 157 198 197
4 157 158 199 198
4 158 159 200 199
4 159 160 201 200
4 160 161 202 201
4 161 162 203 202
4 162 163 204 203
4 164 165 206 205
4 165 166 207 206
4 166 167 208 207
4 167 168 209 208
4 168 169 210 209
4 169 170 211 210
4 170 171 212 211
4 171 172 213 212
4 172 173 214 213
4 173 174 215 214
4 174 175 216 215
4 175 176 217 216
4 176 177 218 217
4 177 178 219 218
4 178 179 220 219
4 179 180 221 220
4 180 181 222 221
4 181 182 223 222
4 182 183 224 223
4 183 184 225 224
4 184 185 226 225
4 185 186 227 226
4 186 187 228 227
4 187 188 229 228
4 188 189 230 229
4 189 190 231 230
4 190 191 232 231
4 191 192 233 232
4 192 193 234 233
4 193 194 235 234
4 194 195 236 235
4 195 196 237 236
4 196 197 238 237
4 197 198 239 238
4 198 199 240 239
4 199 200 241 240
4 200 201 242 241
4 201 202 243 242
4 202 203 244 243
4 203 204 245 244
4 205 206 247 246
4 206 207 248 247
4 207 208 249 248
4 208 209 250 249
4 209 210 251 250
4 210 211 252 251
4 211 212 253 252
4 212 213 254 253
4 213 214 255 254
4 214 215 256 255
4 215 216 257 256
4 216 217 258 257
4 217 218 259 258
4 218 219 260 259
4 219 220 261 260
4 220 221 262 261
4 221 222 263 262
4 222 223 264 263
4 223 224 265 264
4 224 225 266 265
4 225 226 267 266
4 226 227 268 267
4 227 228 269 268
4 228 229 270 269
4 229 230 271 270
4 230 231 272 271
4 231 232 273 272
4 232 233 274 273
4 233 234 275 274
4 234 235 276 275
4 235 236 277 276
4 236 237 278 277
4 237 238 279 278
4 238 239 280 279
4 239 240 281 280
4 240 241 282 281
4 241 242 283 282
4 242 243 284 283
4 243 244 285 284
4 244 245 286 285
4 246 247 288 287
4 247 248 289 288
4 248 249 290 289
4 249 250 291 290
4 250 251 292 291
4 251 252 293 292
4 252 253 294 293
4 253 254 295 294
4 254 255 296 295
4 255 256 297 296
4 256 257 298 297
4 257 258 299 298
4 258 259 300 299
4 259 260 301 300
4 260 261 302 301
4 261 262 303 302
4 262 263 304 303
4 263 264 305 304
4 264 265 306 305
4 265 266 307 306
4 266 267 308 307
4 267 268 309 308
4 268 269 310 309
4 269 270 311 310
4 270 271 312 311
4 271 272 313 312
4 272 273 314 313
4 273 274 315 314
4 274 275 316 315
4 275 276 317 316
4 276 277 318 317
4 277 278 319 318
4 278 279 320 319
4 279 280 321 320
4 280 281 322 321
4 281 282 323 322
4 282 283 324 323
4 283 284 325 324
4 284 285 326 325
4 285 286 327 326
4 287 288 329 328
4 288 289 330 329
4 289 290 331 330
4 290 291 332 331
4 291 292 333 332
4 292 293 334 333
4 293 294 335 334
4 294 295 336 335
4 295 296 337 336
4 296 297 338 337
4 297 298 339 338
4 298 299 340 339
4 299 300 341 340
4 300 301 342 341
4 301 302 343 342
4 302 303 344 343
4 303 304 345 344
4 304 305 346 345
4 305 306 347 346
4 306 307 348 347
4 307 308 349 348
4 308 309 350 349
4 309 310 351 350
4 310 311 352 351
4 311 312 353 352
4 312 313 354 353
4 313 314 355 354
4 314 315 356 355
4 315 316 357 356
4 316 317 358 357
4 317 318 359 358
4 318 319 360 359
4 319 320 361 360
4 320 321 362 361
4 321 322 363 362
4 322 323 364 363
4 323 324 365 364
4 324 325 366 365
4 325 326 367 366
4 326 327 368 367
4 328 329 370 369
4 329 330 371 370
4 330 331 372 371
4 331 332 373 372
4 332 333 374 373
4 333 334 375 374
4 334 335 376 375
4 335 336 377 376
4 336 337 378 377
4 337 338 379 378
4 338 339 380 379
4 339 340 381 380
4 340 341 382 381
4 341 342 383 382
4 342 343 384 383
4 343 344 385 384
4 344 345 386 385
4 345 346 387 386
4 346 347 388 387
4 347 348 389 388
4 348 349 390 389
4 349 350 391 390
4 350 351 392 391
4 351 352 393 392
4 352 353 394 393
4 353 354 395 394
4 354 355 396 395
4 355 356 397 396
4 356 357 398 397
4 357 358 399 398
4 358 359 400 399
4 359 360 401 400
4 360 361 402 401
4 361 362 403 402
4 362 363 404 403
4 363 364 405 404
4 364 365 406 405
4 365 366 407 406
4 366 367 408 407
4 367 368 409 408
4 369 370 411 410
4 370 371 412 411
4 371 372 413 412
4 372 373 414 413
4 373 374 415 414
4 374 375 416 415
4 375 376 417 416
4 376 377 418 417
4 377 378 419 418
4 378 379 420 419
4 379 380 421 420
4 380 381 422 421
4 381 382 423 422
4 382 383 424 423
4 383 384 425 424
4 384 385 426 425
4 385 386 427 426
4 386 387 428 427
4 387 388 429 428
4 388 389 430 429
4 389 390 431 430
4 390 391 432 431
4 391 392 433 432
4 392 393 434 433
4 393 394 435 434
4 394 395 436 435
4 395 396 437 436
4 396 397 438 437
4 397 398 439 438
4 398 399 440 439
4 399 400 441 440
4 400 401 442 441
4 401 402 443 442
4 402 403 444 443
4 403 404 445 444
4 404 405 446 445
4 405 406 447 446
4 406 407 448 447
4 407 408 449 448
4 408 409 450 449
4 410 411 452 451
4 411 412 453 452
4 412 413 454 453
4 413 414 455 454
4 414 415 456 455
4 415 416 457 456
4 416 417 458 457
4 417 418 459 458
4 418 419 460 459
4 419 420 461 460
4 420 421 462 461
4 421 422 463 462
4 422 423 464 463
4 423 424 465 464
4 424 425 466 465
4 425 426 467 466
4 426 427 468 467
4 427 428 469 468
4 428 429 470 469
4 429 430 471 470
4 430 431 472 471
4 431 432 473 472
4 432 433 474 473
4 433 434 475 474
4 434 435 476 475
4 435 436 477 476
4 436 437 478 477
4 437 438 479 478
4 438 439 480 479
4 439 440 481 480
4 440 441 482 481
4 441 442 483 482
4 442 443 484 483
4 443 444 485 484
4 444 445 486 485
4 445 446 487 486
4 446 447 488 487
4 447 448 489 488
4 448 449 490 489
4 449 450 491 490
4 451 452 493 492
4 452 453 494 493
4 453 454 495 494
4 454 455 496 495
4 455 456 497 496
4 456 457 498 497
4 457 458 499 498
4 458 459 500 499
4 459 460 501 500
4 460 461 502 501
4 461 462 503 502
4 462 463 504 503
4 463 464 505 504
4 464 465 506 505
4 465 466 507 506
4 466 467 508 507
4 467 468 509 508
4 468 469 510 509
4 469 470 511 510
4 470 471 512 511
4 471 472 513 512
4 472 473 514 513
4 473 474 515 514
4 474 475 516 515
4 475 476 517 516
4 476 477 518 517
4 477 478 519 518
4 478 479 520 519
4 479 480 521 520
4 480 481 522 521
4 481 482 523 522
4 482 483 524 523
4 483 484 525 524
4 484 485 526 525
4 485 486 527 526
4 486 487 528 527
4 487 488 529 528
4 488 489 530 529
4 489 490 531 530
4 490 491 532 531
4 492 493 534 533
4 493 494 535 534
4 494 495 536 535
4 495 496 537 536
4 496 497 538 537
4 497 498 539 538
4 498 499 540 539
4 499 500 541 540
4 500 501 542 541
4 501 502 543 542
4 502 503 544 543
4 503 504 545 544
4 504 505 546 545
4 505 506 547 546
4 506 507 548 547
4 507 508 549 548
4 508 509 550 549
4 509 510 551 550
4 510 511 552 551
4 511 512 553 552
4 512 513 554 553
4 513 514 555 554
4 514 515 556 555
4 515 516 557 556
4 516 517 558 557
4 517 518 559 558
4 518 519 560 559
4 519 520 561 560
4 520 521 562 561
4 521 522 563 562
4 522 523 564 563
4 523 524 565 564
4 524 525 566 565
4 525 526 567 566
4 526 527 568 567
4 527 528 569 568
4 528 529 570 569
4 529 530 571 570
4 530 531 572 571
4 531 532 573 572
4 533 534 575 574
4 534 535 576 575
4 535 536 577 576
4 536 537 578 577
4 537 538 579 578
4 538 539 580 579
4 539 540 581 580
4 540 541 582 581
4 541 542 583 582
4 542 543 584 583
4 543 544 585 584
4 544 545 586 585
4 545 546 587 586
4 546 547 588 587
4 547 548 589 588
4 548 549 590 589
4 549 550 591 590
4 550 551 592 591
4 551 552 593 592
4 552 553 594 593
4 553 554 595 594
4 554 555 596 595
4 555 556 597 596
4 556 557 598 597
4 557 558 599 598
4 558 559 600 599
4 559 560 601 600
4 560 561 602 601
4 561 562 603 602
4 562 563 604 603
4 563 564 605 604
4 564 565 606 605
4 565 566 607 606
4 566 567 608 607
4 567 568 609 608
4 568 569 610 609
4 569 570 611 610
4 570 571 612 611
4 571 572 613 612
4 572 573 614 613
4 574 575 616 615
4 575 576 617 616
4 576 577 618 617
4 577 578 619 618
4 578 579 620 619
4 579 580 621 620
4 580 581 622 621
4 581 582 623 622
4 582 583 624 623
4 583 584 625 624
4 584 585 626 625
4 585 586 627 626
4 586 587 628 627
4 587 588 629 628
4 588 589 630 629
4 589 590 631 630
4 590 591 632 631
4 591 592 633 632
4 592 593 634 633
4 593 594 635 634
4 594 595 636 635
4 595 596 637 636
4 596 597 638 637
4 597 598 639 638
4 598 599 640 639
4 599 600 641 640
4 600 601 642 641
4 601 602 643 642
4 602 603 644 643
4 603 604 645 644
4 604 605 646 645
4 605 606 647 646
4 606 607 648 647
4 607 608 649 648
4 608 609 650 649
4 609 610 651 650
4 610 611 652 651
4 611 612 653 652
4 612 613 654 653
4 613 614 655 654
4 615 616 657 656
4 616 617 658 657
4 617 618 659 658
4 618 619 660 659
4 619 620 661 660
4 620 621 662 661
4 621 622 663 662
4 622 623 664 663
4 623 624 665 664
4 624 625 666 665
4 625 626 667 666
4 626 627 668 667
4 627 628 669 668
4 628 629 670 669
4 629 630 671 670
4 630 631 672 671
4 631 632 673 672
4 632 633 674 673
4 633 634 675 674
4 634 635 676 675
4 635 636 677 676
4 636 637 678 677
4 637 638 679 678
4 638 639 680 679
4 639 640 681 680
4 640 641 682 681
4 641 642 683 682
4 642 643 684 683
4 643 644 685 684
4 644 645 686 685
4 645 646 687 686
4 646 647 688 687
4 647 648 689 688
4 648 649 690 689
4 649 650 691 690
4 650 651 692 691
4 651 652 693 692
4 652 653 694 693
4 653 654 695 694
4 654 655 696 695
4 656 657 698 697
4 657 658 699 698
4 658 659 700 699
4 659 660 701 700
4 660 661 702 701
4 661 662 703 702
4 662 663 704 703
4 663 664 705 704
4 664 665 706 705
4 665 666 707 706
4 666 667 708 707
4 667 668 709 708
4 668 669 710 709
4 669 670 711 710
4 670 671 712 711
4 671 672 713 712
4 672 673 714 713
4 673 674 715 714
4 674 675 716 715
4 675 676 717 716
4 676 677 718 717
4 677 678 719 718
4 678 679 720 719
4 679 680 721 720
4 680 681 722 721
4 681 682 723 722
4 682 683 724 723
4 683 684 725 724
4 684 685 726 725
4 685 686 727 726
4 686 687 728 727
4 687 688 729 728
4 688 689 730 729
4 689 690 731 730
4 690 691 732 731
4 691 692 733 732
4 692 693 734 733
4 693 694 735 734
4 694 695 736 735
4 695 696 737 736
4 697 698 739 738
4 698 699 740 739
4 699 700 741 740
4 700 701 742 741
4 701 702 743 742
4 702 703 744 743
4 703 704 745 744
4 704 705 746 745
4 705 706 747 746
4 706 707 748 747
4 707 708 749 748
4 708 709 750 749
4 709 710 751 750
4 710 711 752 751
4 711 712 753 752
4 712 713 754 753
4 713 714 755 754
4 714 715 756 755
4 715 716 757 756
4 716 717 758 757
4 717 718 759 758
4 718 719 760 759
4 719 720 761 760
4 720 721 762 761
4 721 722 763 762
4 722 723 764 763
4 723 724 765 764
4 724 725 766 765
4 725 726 767 766
4 726 727 768 767
4 727 728 769 768
4 728 729 770 769
4 729 730 771 770
4 730 731 772 771
4 731 732 773 772
4 732 733 774 773
4 733 734 775 774
4 734 735 776 775
4 735 736 777 776
4 736 737 778 777
4 738 739 780 779
4 739 740 781 780
4 740 741 782 781
4 741 742 783 782
4 742 743 784 783
4 743 744 785 784
4 744 745 786 785
4 745 746 787 786
4 746 747 788 787
4 747 748 789 788
4 748 749 790 789
4 749 750 791 790
4 750 751 792 791
4 751 752 793 792
4 752 753 794 793
4 753 754 795 794
4 754 755 796 795
4 755 756 797 796
4 756 757 798 797
4 757 758 799 798
4 758 759 800 799
4 759 760 801 800
4 760 761 802 801
4 761 762 803 802
4 762 763 804 803
4 763 764 805 804
4 764 765 806 805
4 765 766 807 806
4 766 767 808 807
4 767 768 809 808
4 768 769 810 809
4 769 770 811 810
4 770 771 812 811
4 771 772 813 812
4 772 773 814 813
4 773 774 815 814
4 774 775 816 815
4 775 776 817 816
4 776 777 818 817
4 777 778 819 818
4 779 780 821 820
4 780 781 822 821
4 781 782 823 822
4 782 783 824 823
4 783 784 825 824
4 784 785 826 825
4 785 786 827 826
4 786 787 828 827
4 787 788 829 828
4 788 789 830 829
4 789 790 831 830
4 790 791 832 831
4 791 792 833 832
4 792 793 834 833
4 793 794 835 834
4 794 795 836 835
4 795 796 837 836
4 796 797 838 837
4 797 798 839 838
4 798 799 840 839
4 799 800 841 840
4 800 801 842 841
4 801 802 843 842
4 802 803 844 843
4 803 804 845 844
4 804 805 846 845
4 805 806 847 846
4 806 807 848 847
4 807 808 849 848
4 808 809 850 849
4 809 810 851 850
4 810 811 852 851
4 811 812 853 852
4 812 813 854 853
4 813 814 855 854
4 814 815 856 855
4 815 816 857 856
4 816 817 858 857
4 817 818 859 858
4 818 819 860 859
CELL_TYPES 800
9
9
9
9
9
9
9
9
9
9
9
9
9
9
9
9
9
9
9
9
9
9
9
9
9
9
9
9
9
9
9
9
9
9
9
9
9
9
9
9
9
9
9
9
9
9
9
9
9
9
9
9
9
9
9
9
9
9
9
9
9
9
9
9
9
9
9
9
9
9
9
9
9
9
9
9
9
9
9
9
9
9
9
9
9
9
9
9
9
9
9
9
9
9
9
9
9
9
9
9
9
9
9
9
9
9
9
9
9
9
9
9
9
9
9
9
9
9
9
9
9
9
9
9
9
9
9
9
9
9
9
9
9
9
9
9
9
9
9
9
9
9
9
9
9
9
9
9
9
9
9
9
9
9
9
9
9
9
9
9
9
9
9
9
9
9
9
9
9
9
9
9
9
9
9
9
9
9
9
9
9
9
9
9
9
9
9
9
9
9
9
9
9
9
9
9
9
9
9
9
9
9
9
9
9
9
9
9
9
9
9
9
9
9
9
9
9
9
9
9
9
9
9
9
9
9
9
9
9
9
9
9
9
9
9
9
9
9
9
9
9
9
9
9
9
9
9
9
9
9
9
9
9
9
9
9
9
9
9
9
9
9
9
9
9
9
9
9
9
9
9
9
9
9
9
9
9
9
9
9
9
9
9
9
9
9
9
9
9
9
9
9
9
9
9
9
9
9
9
9
9
9
9
9
9
9
9
9
9
9
9
9
9
9
9
9
9
9
9
9
9
9
9
9
9
9
9
9
9
9
9
9
9
9
9
9
9
9
9
9
9
9
9
9
9
9
9
9
9
9
9
9
9
9
9
9
9
9
9
9
9
9
9
9
9
9
9
9
9
9
9
9
9
9
9
9
9
9
9
9
9
9
9
9
9
9
9
9
9
9
9
9
9
9
9
9
9
9
9
9
9
9
9
9
9
9
9
9
9
9
9
9
9
9
9
9
9
9
9
9
9
9
9
9
9
9
9
9
9
9
9
9
9
9
9
9
9
9
9
9
9
9
9
9
9
9
9
9
9
9
9
9
9
9
9
9
9
9
9
9
9
9
9
9
9
9
9
9
9
9
9
9
9
9
9
9
9
9
9
9
9
9
9
9
9
9
9
9
9
9
9
9
9
9
9
9
9
9
9
9
9
9
9
9
9
9
9
9
9
9
9
9
9
9
9
9
9
9
9
9
9
9
9
9
9
9
9
9
9
9
9
9
9
9
9
9
9
9
9
9
9
9
9
9
9
9
9
9
9
9
9
9
9
9
9
9
9
9
9
9
9
9
9
9
9
9
9
9
9
9
9
9
9
9
9
9
9
9
9
9
9
9
9
9
9
9
9
9
9
9
9
9
9
9
9
9
9
9
9
9
9
9
9
9
9
9
9
9
9
9
9
9
9
9
9
9
9
9
9
9
9
9
9
9
9
9
9
9
9
9
9
9
9
9
9
9
9
9
9
9
9
9
9
9
9
9
9
9
9
9
9
9
9
9
9
9
9
9
9
9
9
9
9
9
9
9
9
9
9
9
9
9
9
9
9
9
9
9
9
9
9
9
9
9
9
9
9
9
9
9
9
9
9
9
9
9
9
9
9
9
9
9
9
9
9
9
9
9
9
9
9
9
9
9
9
9
9
9
9
9
9
9
9
9
9
9
9
9
9
9
9
9
9
9
9
9
9
9
9
9
9
9
9
9
9
9
9
9
9
9
9
9
9
9
9
9
9
9
9
9
9
9
9
9
9
9
9
9
9
9
9
9
9
9
9
9
9
9
9
9
9
9
9
9
9
9
9
9
9
9
9
9
9
9
9
9
9
9
9
9
POINT_DATA 861
SCALARS Disp float 2
LOOKUP_TABLE default
0.0 0.0
0.004894179430218633 -0.17070834495041318
0.006013667970462343 -0.33348162637578854
0.006755209311184814 -0.4954372380070559
0.007664491432514123 -0.6570827053821006
0.009000978696724901 -0.8181300510696169
0.011176385473105685 -0.9782101267542352
0.014653379296220185 -1.1368736951812133
0.019963581000743035 -1.293565594260191
0.02768003597126262 -1.4475737370408837
0.0383858351725234 -1.5979445214631274
0.052672247868481153 -1.7434173017522845
0.07114407899571093 -1.8824185793058794
0.09441224329393494 -2.0131217586082806
0.12309308272343931 -2.133500445651766
0.15774002610399698 -2.241368994537307
0.19871540238043137 -2.33442838778387
0.2460276776328882 -2.4103430519061932
0.2991826405185034 -2.4668954987510676
0.3571087341203391 -2.502219393936108
0.4180590074925713 -2.5150293057865585
0.4790092808648004 -2.5022193939360347
0.5369353744666253 -2.466895498750916
0.5900903373522218 -2.410343051905975
0.6374026126046539 -2.3344283877835963
0.6783779888810626 -2.2413689945369972
0.7130249322615949 -2.133500445651425
0.7417057716910735 -2.013121758607919
0.7649739359892708 -1.8824185793055082
0.7834457671164754 -1.7434173017519161
0.79773217981241 -1.5979445214627708
0.8084379790136521 -1.4475737370405473
0.8161544339841568 -1.2935655942598796
0.8214646356886686 -1.1368736951809315
0.8249416295117752 -0.9782101267539859
0.8271170362881515 -0.818130051069405
0.8284535235523599 -0.6570827053819256
0.8293628056736885 -0.4954372380069212
0.8301043470144107 -0.33348162637569284
0.8312238355546534 -0.17070834495035878
0.8361180149848687 0.0
0.04258915965610015 -0.002093711412417426
0.04593584799694217 -0.17088916326929784
0.04653860951282912 -0.3335428788035195
0.04720230822207232 -0.4955199424155508
0.04801049880319629 -0.6571981435675884
0.04916151714232965 -0.818359662625308
0.05104540603881705 -0.9786604443575465
0.05410137871649621 -1.137667053495103
0.05882896957621755 -1.2948374750939506
0.06575009345652406 -1.449460702228701
0.07538334655228052 -1.6005821289665638
0.08824205845486745 -1.7469434972797198
0.1048545653147854 -1.8869767403393483
0.12577997586984901 -2.018859967816329
0.1515845388914704 -2.1405644911009247
0.18278642360221903 -2.2498781291036245
0.21973422611382348 -2.3444385333216267
0.26245964986151893 -2.42180797230378
0.31054436604748187 -2.479636336193552
0.36300111971421645 -2.515906735569263
0.41805900749256236 -2.5290985876956276
0.4731168952709049 -2.515906735569188
0.5255736489376294 -2.4796363361933973
0.573658365123576 -2.421807972303557
0.6163837888712501 -2.3444385333213478
0.6533315913828319 -2.249878129103308
0.6845334760935575 -2.1405644911005774
0.7103380391151556 -2.0188599678159607
0.7312634496701953 -1.8869767403389712
0.7478759565300905 -1.7469434972793454
0.7607346684326568 -1.6005821289662028
0.7703679215283961 -1.4494607022283608
0.777289045408689 -1.2948374750936362
0.7820166362684003 -1.1376670534948192
0.7850726089460726 -0.9786604443572958
0.786956497842556 -0.8183596626250954
0.7881075161816875 -0.6571981435674134
0.788915706762811 -0.4955199424154161
0.789579405472054 -0.33354287880342376
0.7901821669879409 -0.17088916326924314
0.7935288553287779 -0.0020937114124150503
0.08431485730171417 -0.003737247685759555
0.08673495074280828 -0.1709757159823379
0.08708458475304459 -0.3335793473872229
0.08762747050443713 -0.4955937744367227
0.08834203000101587 -0.6572934478684265
0.08932682341549127 -0.8185420148320321
0.09092266614757412 -0.9790323028223016
0.09355844186058658 -1.1383442001849526
0.09769383236248913 -1.295946037755904
0.10380285770595007 -1.4511241393343128
0.11234230727700542 -1.6029194279616337
0.12375535829725318 -1.7500735565803882
0.13849671790890097 -1.8910257619036135
0.15705835373034427 -2.0239634786113743
0.1799607392243913 -2.146856944050999
0.20768228389235266 -2.2574719303310515
0.2405631457221037 -2.353391418311934
0.27867472010720806 -2.43208734615145
0.3216795347922272 -2.4910870607425544
0.36866648565965465 -2.528207544713476
0.4180590074925537 -2.541750874840068
0.46745152932544937 -2.5282075447133994
0.5144384801928678 -2.491087060742397
0.5574432948778721 -2.4320873461512225
0.5955548692629585 -2.353391418311651
0.6284357310926894 -2.25747193033073
0.6561572757606302 -2.146856944050646
0.6790596612546562 -2.023963478611001
0.6976212970760785 -1.8910257619032311
0.7123626566877062 -1.7500735565800092
0.7237757077079355 -1.6029194279612682
0.7323151572789756 -1.4511241393339693
0.7384241826224243 -1.295946037755587
0.7425595731243178 -1.1383442001846669
0.7451953488373242 -0.9790323028220497
0.7467911915694037 -0.8185420148318189
0.7477759849838777 -0.6572934478682514
0.748490544480456 -0.4955937744365879
0.7490334302318485 -0.33357934738712725
0.7493830642420849 -0.17097571598228284
0.7518031576831742 -0.003737247685754701
0.12558954001506348 -0.005050764084152509
0.12739560689313748 -0.17103400998613127
0.12761006993835086 -0.3335999251392163
0.12803517837127398 -0.4956548075845558
0.12865330068874667 -0.657374796039806
0.12949309363961034 -0.8186834179115928
0.13081660584247343 -0.9793278967706451
0.13303436675715535 -1.138906405523426
0.13657383915357632 -1.296889816850612
0.14186033255873157 -1.452561182008666
0.14929272757154885 -1.6049531107622341
0.15924718456078915 -1.7528056679307094
0.1721091081255403 -1.8945646119283983
0.18830175321540235 -2.0284289681221597
0.20828361556108183 -2.1523724428660143
0.23249997333604966 -2.2641433169843306
0.2612850939176812 -2.361279836585453
0.29475102237776696 -2.4411764308159363
0.3326466893417174 -2.5012440043310993
0.37420084870153963 -2.539147268978658
0.41805900749254526 -2.5530434077621704
0.46191716628354773 -2.5391472689785792
0.5034713256433618 -2.5012440043309394
0.5413669926072991 -2.4411764308157053
0.5748329210673692 -2.361279836585165
0.6036180416489834 -2.264143316984004
0.6278343994239332 -2.152372442865657
0.647816261769594 -2.0284289681217818
0.6640089068594376 -1.8945646119280113
0.6768708304241713 -1.7528056679303257
0.6868252874133955 -1.6049531107618649
0.6942576824261993 -1.4525611820083195
0.6995441758313438 -1.2968898168502927
0.7030836482277567 -1.1389064055231388
0.7053014091424336 -0.9793278967703924
0.7066249213452939 -0.8186834179113792
0.7074647142961568 -0.6573747960396309
0.708082836613629 -0.49565480758442104
0.7085079450465521 -0.33359992513912073
0.7087224080917657 -0.1710340099860759
0.7105284749698354 -0.005050764084145405
0.16660417055126758 -0.006106137806753307
0.1679586304097973 -0.17108142314896257
0.16809878938014022 -0.3336116866461326
0.1684232696256832 -0.4957022513008506
0.16894217880035461 -0.6574440789560919
0.16965142589377627 -0.818793860882468
0.17073283297804215 -0.9795533225662593
0.17253890068141908 -1.1393557012614954
0.1754848907482896 -1.297669565594324
0.17994510186615797 -1.4537708551411859
0.18626370416992144 -1.6066821659311787
0.19475464519680302 -1.7551390931248374
0.20573362435377018 -1.8975935178514296
0.21955489033038839 -2.0322567892085126
0.23661768079651382 -2.157108849818365
0.2573177856908956 -2.269887978937424
0.2819833048929056 -2.368097718405389
0.31076946107746606 -2.4490673628645663
0.3435264761234463 -2.510105851790033
0.3796617933058246 -2.5487440664455634
0.418059007492537 -2.5630087540596493
0.45645622167924665 -2.548744066445484
0.49259153886161755 -2.5101058517898704
0.5253485539075862 -2.4490673628643322
0.554134710092133 -2.3680977184050973
0.5788002292941283 -2.269887978937093
0.5995003341884942 -2.1571088498180035
0.6165631246546035 -2.0322567892081307
0.6303843906312061 -1.8975935178510386
0.6413633697881583 -1.7551390931244504
0.6498543108150264 -1.606682165930806
0.6561729131187781 -1.4537708551408368
0.6606331242366372 -1.297669565594003
0.6635791143035009 -1.1393557012612068
0.6653851820068736 -0.9795533225660058
0.6664665890911374 -0.8187938608822541
0.6671758361845586 -0.6574440789559168
0.6676947453592297 -0.49570225130071577
0.6680192256047727 -0.333611686646037
0.6681593845751156 -0.17108142314890692
0.6695138444336417 -0.00610613780674427
0.20744622290611195 -0.006948970818133851
0.20845266112066912 -0.17112348220149307
0.20854885902247286 -0.33361947825093546
0.20878928580264014 -0.4957370720990498
0.2092076528853568 -0.6575020406640292
0.20979593591338466 -0.8188807237239681
0.2106627014152797 -0.9797198443636598
0.21208870361757265 -1.1396958838786262
0.21444339019611453 -1.2982876909657364
0.21808031597380675 -1.4547544798054222
0.22328539699074504 -1.6081072038073496
0.230313251987298 -1.7570752161843624
0.23941395418903386 -1.9001145043599494
0.2508718994906798 -2.0354490619421988
0.26501887579736993 -2.161068367230122
0.2822091752071941 -2.274705608269121
0.3027483352785344 -2.3738401925061625
0.32682137861528116 -2.4557519489130404
0.3543994559889665 -2.5176683234555877
0.3850985134852005 -2.557005647521319
0.4180590074925287 -2.571665636023563
0.4510195014998544 -2.5570056475212377
0.48171855899608185 -2.517668323455424
0.5092966363697571 -2.4557519489128032
0.5333696797064925 -2.3738401925058676
0.5539088397778205 -2.274705608268786
0.5710991391876311 -2.161068367229757
0.5852461154943079 -2.0354490619418133
0.596704060795941 -1.9001145043595549
0.6058047629976644 -1.7570752161839722
0.612832617994206 -1.6081072038069744
0.6180376990111346 -1.4547544798050707
0.6216746247888191 -1.2982876909654133
0.6240293113673554 -1.1396958838783364
0.625455313569645 -0.9797198443634059
0.6263220790715386 -0.8188807237237541
0.6269103620995661 -0.657502040663854
0.6273287291822826 -0.49573707209891493
0.6275691559624499 -0.3336194782508399
0.6276653538642536 -0.17112348220143722
0.628671792078808 -0.006948970818123149
0.2481627590019676 -0.007614395309740068
0.248897818693848 -0.17116187537426292
0.2489644625843843 -0.333625781870866
0.2491326885147137 -0.4957607202669099
0.24945139651841103 -0.6575483123409123
0.2499219457079295 -0.8189490990963
0.2505960309906763 -0.9798400831051353
0.25167865696602637 -1.139939343859102
0.25347138291062765 -1.2987484918958045
0.2562903543024818 -1.45551544841305
0.260389459401152 -1.6092312609313244
0.26596143796574356 -1.7586172367226367
0.2731940142389605 -1.9021318357429517
0.28230347410668494 -2.0380109349984834
0.29355514214676387 -2.16425528866599
0.30724658533391624 -2.2785996774969126
0.3236626238346848 -2.378506569609556
0.34300711368605313 -2.461222604057883
0.36535642460918505 -2.523921767815356
0.3905619601738379 -2.5639286453786685
0.4180590074925203 -2.579020935152724
0.4455560548112006 -2.5639286453785863
0.47076159037584747 -2.5239217678151897
0.4931109012989712 -2.4612226040576433
0.5124553911503305 -2.3785065696092587
0.5288714296510889 -2.278599677496575
0.5425628728382301 -2.1642552886656223
0.5538145408782985 -2.038010934998095
0.5629240007460129 -1.9021318357425547
0.5701565770192198 -1.7586172367222441
0.5757285555838025 -1.6092312609309467
0.5798276606824647 -1.4555154484126966
0.5826466320743128 -1.2987484918954804
0.5844393580189099 -1.1399393438588112
0.5855219839942575 -0.9798400831048809
0.5861960692770034 -0.8189490990960859
0.5866666184665216 -0.6575483123407371
0.5869853264702188 -0.495760720266775
0.5871535524005481 -0.3336257818707704
0.5872201962910844 -0.17116187537420696
0.5879552559829627 -0.007614395309727997
0.2887858364586196 -0.008130307902214851
0.28930903371437955 -0.17119808468544612
0.28935177845939175 -0.33363114716090386
0.28945481625751995 -0.4957746134499894
0.28967612781101065 -0.6575820621854198
0.29002598595039947 -0.8190022465989205
0.29052831223777303 -0.9799236155575143
0.29130109414697175 -1.1401020796173316
0.29257525136070306 -1.2990644263941973
0.29460534170018193 -1.4560601187574338
0.2976100620508956 -1.6100597704840225
0.3017386172549509 -1.7597707521940102
0.307120362536347 -1.9036522607796464
0.3139047436247882 -2.039950444174269
0.3222875390302932 -2.166678270928767
0.3325077790660614 -2.281576701153888
0.344816461836633 -2.382099799164721
0.3594233687134447 -2.4654748891040166
0.37649364997439677 -2.528851830812767
0.39611073861994717 -2.569497379768987
0.4180590074925114 -2.5850691336519116
0.44000727636507425 -2.569497379768904
0.45962436501062 -2.5288518308125996
0.47669464627156555 -2.4654748891037754
0.4913015531483704 -2.3820997991644215
0.503610235918934 -2.2815767011535475
0.5138304759546938 -2.1666782709283967
0.5222132713601909 -2.0399504441738787
0.5289976524486248 -1.9036522607792472
0.5343793977300137 -1.7597707521936155
0.5385079529340622 -1.6100597704836435
0.5415126732847699 -1.456060118757079
0.5435427636242445 -1.2990644263938722
0.5448169208379728 -1.1401020796170402
0.5455897027471701 -0.9799236155572598
0.5460920290345431 -0.8190022465987064
0.5464418871739317 -0.6575820621852446
0.5466631987274223 -0.49577461344985446
0.5467662365255505 -0.3336311471608083
0.5468089812705624 -0.1711980846853901
0.5473321785263209 -0.008130307902201742
0.3293338708419904 -0.008523751420848534
0.3297002997978987 -0.1712332707932421
0.32971629358787463 -0.3336348848642754
0.3297584051375848 -0.4957798361330849
0.3298855132760853 -0.657602963971821
0.33011065837297676 -0.8190399873038023
0.3304468321003127 -0.97998042912367
0.33094821151781034 -1.1402008508771895
0.3317518694909343 -1.2992552612527366
0.3330422188292243 -1.456403452611693
0.33498459472594766 -1.6106026098594939
0.33769165227065484 -1.7605451064237725
0.3412435434742158 -1.904685982857306
0.34573190794342906 -2.0412795182072743
0.35128312351249885 -2.168349983497809
0.35806861217822944 -2.283648032457184
0.36629553786377994 -2.384628203233445
0.3761790858520596 -2.4685087054256423
0.3879254323656684 -2.5324415474037254
0.4018165775289625 -2.573683134183387
0.4180590074925022 -2.589791307574158
0.4343014374560414 -2.573683134183303
0.44819258261933215 -2.532441547403557
0.45993892913293644 -2.4685087054254
0.46982247712121106 -2.3846282032331443
0.47804940280675606 -2.2836480324568416
0.48483489147248116 -2.1683499834974373
0.4903861070415459 -2.0412795182068826
0.49487447151075487 -1.9046859828569056
0.4984263627143111 -1.7605451064233764
0.5011334202590139 -1.6106026098591137
0.5030757961557333 -1.4564034526113372
0.5043661454940208 -1.2992552612524109
0.505169803467143 -1.140200850876898
0.5056711828846397 -0.9799804291234154
0.5060073566119754 -0.8190399873035884
0.5062325017088668 -0.6576029639716459
0.5063596098473672 -0.49577983613295
0.5064017213970773 -0.3336348848641798
0.506417715187053 -0.1712332707931861
0.5067841441429606 -0.008523751420834627
0.3698189772426956 -0.008822914292201552
0.3700768066594784 -0.17126900542388449
0.3700633654213881 -0.33363558614999544
0.37004720180892914 -0.49577720466690506
0.3700831261263814 -0.6576112107219014
0.370182297087671 -0.8190609123032595
0.37034728686573665 -0.9800145452705443
0.370598819458108 -1.1402543185593748
0.37098715449359126 -1.2993482403671892
0.37160339011364596 -1.4565725337380302
0.37253926919198516 -1.610881934524525
0.37386568374515095 -1.7609586804261423
0.3756178405639881 -1.905250422145913
0.37784101129034287 -2.0420170780036835
0.38060094527545235 -2.169290738288489
0.3839943602278532 -2.284832618506884
0.38817040348617227 -2.386106427789927
0.3933405353485583 -2.470335394942975
0.399768435784414 -2.5346809596234725
0.40779032137203797 -2.5764432021907995
0.4180590074924929 -2.5931490183462036
0.42832769361294754 -2.576443202190715
0.43634957920056994 -2.5346809596233033
0.4427774796364229 -2.470335394942732
0.44794761149880585 -2.3861064277896253
0.4521236547571226 -2.284832618506541
0.45551706970952077 -2.169290738288117
0.45827700369462826 -2.0420170780032914
0.46050017442098146 -1.905250422145512
0.46225233123981646 -1.7609586804257453
0.46357874579298025 -1.6108819345241439
0.46451462487131784 -1.456572533737674
0.46513086049137153 -1.2993482403668632
0.4655191955268542 -1.1402543185590828
0.4657707281192252 -0.9800145452702895
0.4659357178972909 -0.8190609123030456
0.4660348888585803 -0.6576112107217262
0.4660708131760325 -0.49577720466677017
0.46605464956357356 -0.3336355861498998
0.46604120832548324 -0.17126900542382856
0.46629903774226544 -0.00882291429218713
0.4102569294499245 -0.00905094131219129
0.4104383073985987 -0.17130625634203447
0.41039764860354344 -0.3336323146397472
0.4103255126272771 -0.49576724606243444
0.4102732075895027 -0.6576070672106229
0.4102471013164947 -0.8190645985002712
0.4102374612879781 -0.9800251976434664
0.410235004154865 -1.1402719001461659
0.41023467177726586 -1.2993763125422082
0.410234942782172 -1.4566180640725075
0.41023515689504386 -1.610953747516639
0.4102352141860444 -1.7610654770443288
0.41023246516609885 -1.9053968485607653
0.41022387852934095 -2.04221160407146
0.41021084867728147 -2.1695477529231324
0.41022108757004405 -2.2851744433252406
0.41034811495116774 -2.3865727862469686
0.41080461349958936 -2.4709891719109005
0.411930647199283 -2.535602717449167
0.41411758665842746 -2.577747691446942
0.41805900749248315 -2.595085930352336
0.4220004283265392 -2.5777476914468576
0.4241873677856833 -2.5356027174489975
0.42531340148537594 -2.4709891719106563
0.4257699000337975 -2.3865727862466666
0.425896927414922 -2.2851744433248973
0.42590716630768505 -2.1695477529227603
0.4258941364556262 -2.0422116040710674
0.42588554981886945 -1.9053968485603645
0.4258828007989247 -1.7610654770439316
0.42588285808992604 -1.610953747516258
0.42588307220279853 -1.456618064072151
0.42588334320770493 -1.2993763125418818
0.425883010830106 -1.1402719001458739
0.42588055369699307 -0.9800251976432117
0.4258709136684766 -0.8190645985000571
0.42584480739546865 -0.6576070672104477
0.42579250235769434 -0.4957672460622995
0.425720366381428 -0.3336323146396515
0.42567970758637275 -0.1713062563419786
0.42586108553504676 -0.00905094131217654
0.4506589183693702 -0.009227998444309169
0.4507881866371402 -0.17134291281872585
0.4507229402355075 -0.33362533332012106
0.4505979544455403 -0.4957501948620287
0.4504602946705213 -0.6575910013876792
0.45031095859234976 -0.819051102414144
0.4501277210065798 -0.9800118436622218
0.4498709456905203 -1.1402538163600338
0.44948209702925807 -1.2993483041568563
0.44886645733784103 -1.4565725836078962
0.4479315056256662 -1.6108821441683934
0.4466049498958793 -1.7609581374557948
0.4448467714273382 -1.9052480562874792
0.44260601852456083 -2.042011889892688
0.4398210707574694 -2.169287695593185
0.43645004627953427 -2.284855889549428
0.4325215064929138 -2.3862203145703273
0.4282042640487518 -2.4706630107104908
0.42384551839670004 -2.535380373855704
0.419982810671537 -2.5777085231429355
0.4180590074924736 -2.595716563096139
0.4161352043134096 -2.577708523142851
0.4122724965882469 -2.5353803738555345
0.4079137509361968 -2.470663010710247
0.40359650849203854 -2.3862203145700263
0.39966796870542215 -2.2848558895490862
0.3962969442274904 -2.1692876955928124
0.39351199646040236 -2.042011889892296
0.3912712435576289 -1.9052480562870788
0.3895130650890914 -1.7609581374553982
0.3881865093593082 -1.610882144168013
0.3872515576471361 -1.45657258360754
0.3866359179557209 -1.2993483041565301
0.3862470692944596 -1.140253816359742
0.3859902939784008 -0.9800118436619673
0.3858070563926311 -0.8190511024139298
0.3856577203144597 -0.6575910013875041
0.38552006053944093 -0.4957501948618938
0.38539507474947376 -0.33362533332002536
0.3853298283478411 -0.17134291281866998
0.38545909661561095 -0.009227998444294215
0.49104058748116924 -0.009364500961500832
0.4911311376147714 -0.17137703858582531
0.4910436310836267 -0.3336149118171975
0.49086908357773607 -0.4957263852065118
0.49064936139550935 -0.6575636039237422
0.4903798320765537 -0.8190207251132097
0.49002680965018486 -0.97997508027571
0.4895211267633705 -1.1401998545862773
0.48871711912602334 -1.2992554073781821
0.48742797115944014 -1.4564037322168333
0.4854863973638342 -1.610602867858791
0.4827785997212734 -1.7605438162376315
0.4792213705059704 -1.904680800912251
0.4747177652599521 -2.0412686832374463
0.46914413091591856 -2.1683436270357257
0.46237773457675135 -2.283695044839889
0.4543738530746335 -2.3848550060355156
0.4452548051396101 -2.4691513460645145
0.4353942217462761 -2.533836904186915
0.4257104505075868 -2.5764202876284346
0.4180590074924642 -2.5951994919596078
0.41040756447734106 -2.57642028762835
0.4007237932386531 -2.533836904186746
0.39086320984532286 -2.4691513460642716
0.38174416191030597 -2.3848550060352163
0.37374028040819524 -2.283695044839548
0.3669738840690342 -2.1683436270353544
0.36140024972500673 -2.041268683237056
0.35689664447899516 -1.9046808009118517
0.3533394152636985 -1.7605438162372358
0.350631617621144 -1.6106028678584114
0.3486900438255431 -1.456403732216478
0.3474008958589632 -1.2992554073778564
0.34659688822161827 -1.1401998545859857
0.346091205334805 -0.9799750802754554
0.3457381829084368 -0.8190207251129956
0.3454686535894815 -0.657563603923567
0.34524893140725493 -0.4957263852063769
0.34507438390136436 -0.33361491181710173
0.3449868773702197 -0.17137703858576947
0.3450774275038218 -0.009364500961485684
0.5314151916712478 -0.009466419059724484
0.531472919675461 -0.17140705593939282
0.531364600629099 -0.3336011907707024
0.5311436054223038 -0.49569625809441165
0.5308455446667852 -0.6575254853036029
0.530460224871621 -0.8189745366651628
0.5299440287421482 -0.9799155061196535
0.529167102332627 -1.1401006326994065
0.5278940287554781 -1.2990648627850627
0.5258653711110945 -1.456060683689339
0.5228608831620526 -1.6100599226843784
0.518731092323276 -1.7597687295017874
0.5133459117837843 -1.9036449303010072
0.506553090053476 -2.0399353260723787
0.4981572333848055 -2.1666692312248976
0.48795068633228644 -2.2816426590440586
0.4758008945224485 -2.382419716796005
0.4617844693518556 -2.4663879069308274
0.44641084895149064 -2.5309216547268787
0.4309511470754614 -2.5737361270845622
0.4180590074924548 -2.593551950633785
0.40516686790944884 -2.573736127084478
0.38970716603342165 -2.5309216547267104
0.37433354563306254 -2.466387906930586
0.3603171204624783 -2.3824197167957073
0.3481673286526501 -2.2816426590437193
0.33796078160014026 -2.1666692312245277
0.32956492493147843 -2.03993532607199
0.3227721032011794 -1.9036449303006102
0.31738692266169694 -1.7597687295013937
0.3132571318229289 -1.6100599226840007
0.31025264387389423 -1.4560606836889851
0.3082239862295159 -1.2990648627847377
0.30695091265237034 -1.140100632699115
0.3061739862428511 -0.979915506119399
0.30565779011337907 -0.8189745366649488
0.30527247031821525 -0.6575254853034278
0.304974409562697 -0.4956962580942768
0.304753414355902 -0.33360119077060657
0.3046450953095401 -0.171407055939337
0.3047028233137531 -0.009466419059709208
0.5717909743649646 -0.00953899370017257
0.5718196505102913 -0.1714316318072847
0.5716908537229445 -0.33358416837095095
0.5714261342704524 -0.4956602484472999
0.5710531427239592 -0.6574774993624479
0.570559422305099 -0.8189139232301864
0.5698733777702014 -0.9798290560515128
0.5687894907103699 -1.1399378420351653
0.5669986812417733 -1.2987494323037307
0.564180815601533 -1.4555161877100617
0.5600811189700136 -1.6092311131865769
0.5545076707494623 -1.7586146117311217
0.5472744828277195 -1.9021236530723598
0.5381674300497772 -2.0379946140675917
0.5269201165038093 -2.164245848550358
0.5132375348578977 -2.2786762309820463
0.49688986297949395 -2.378885119534059
0.4779330255763948 -2.462351022528034
0.45703806235148114 -2.5266221262706634
0.43593195254835543 -2.5697057356466035
0.4180590074924457 -2.590827460136178
0.4001860624365372 -2.5697057356465196
0.3790799526334152 -2.526622126270496
0.35818498940850896 -2.4623510225277943
0.33922815200542067 -2.378885119533764
0.3228804801270289 -2.2786762309817097
0.30919789848112916 -2.1642458485499905
0.297950584935173 -2.0379946140672054
0.2888435321572425 -1.9021236530719652
0.2816103442355114 -1.7586146117307302
0.27603689601497106 -1.6092311131862012
0.27193719938346117 -1.4555161877097094
0.2691193337432276 -1.2987494323034066
0.267328524274636 -1.1399378420348745
0.26624463721480723 -0.9798290560512586
0.26555859267991067 -0.8189139232299725
0.265064872261051 -0.6574774993622727
0.26469188071455807 -0.49566024844716505
0.2644271612620662 -0.33358416837085525
0.26429836447471966 -0.17143163180722887
0.2643270406200463 -0.009538993700157207
0.6121737469085456 -0.009587129884560576
0.6121767958039785 -0.17144987988913923
0.6120275836998518 -0.3335637211862562
0.6117214460263602 -0.49561877501207874
0.611278014473763 -0.6574208038199737
0.61068013686165 -0.8188393030826292
0.609805958170202 -0.9797064999642802
0.6083803063742875 -1.1396948030526013
0.6060277707111124 -1.298289136841602
0.6023910915438034 -1.454755190950816
0.5971847675238 -1.6081066177854424
0.590155491342653 -1.7570722157309182
0.581057632762817 -1.9001071373347072
0.5696147826793663 -2.0354358457135553
0.5554944005474601 -2.161062524558113
0.53831465620012 -2.274783712723635
0.5177641284037569 -2.37424076084868
0.49388061775497455 -2.4570340733751634
0.4675070940903959 -2.5209474721817045
0.44085156439132234 -2.564361931176414
0.41805900749243674 -2.587043970623418
0.395266450593553 -2.564361931176331
0.3686109208944846 -2.520947472181539
0.3422373972299153 -2.457034073374926
0.31835388658114555 -2.374240760848388
0.2978033587847967 -2.274783712723302
0.28062361443747114 -2.1610625245577486
0.2665032323055796 -2.0354358457131725
0.25506038222214317 -1.900107137334316
0.24596252364232143 -1.7570722157305299
0.23893324746118766 -1.6081066177850696
0.23372692344119558 -1.454755190950466
0.23009024427389518 -1.2982891368412797
0.22773770861072642 -1.1396948030523113
0.22631205681481573 -0.9797064999640263
0.2254378781233694 -0.8188393030824154
0.224840000511257 -0.6574208038197987
0.2243965689586602 -0.4956187750119439
0.2240904312851688 -0.33356372118616057
0.2239412191810422 -0.1714498798890834
0.22394426807647516 -0.009587129884545145
0.6525676951613733 -0.00961560655614445
0.6525489992878138 -0.17146138718445686
0.6523799545959633 -0.33353969856708676
0.6520344516681238 -0.4955723011023344
0.6515244645721696 -0.6573564351610138
0.6508188649363726 -0.8187474889476537
0.6497365208910291 -0.9795385745902209
0.6479322912979852 -1.1393552662817275
0.6449872303164047 -1.2976712809915225
0.6405262842159523 -1.4537713353087665
0.6342059970138008 -1.6066810837694399
0.6257143411434757 -1.7551360878486655
0.6147421301681913 -1.8975887102737914
0.6009472558233465 -2.032251044740058
0.5839321523363544 -2.1571118156167075
0.563260093666743 -2.2699636401244705
0.5385482369249468 -2.368491658902738
0.5098077309140315 -2.450446497706241
0.47803472519338536 -2.5139111534101852
0.4458537595980443 -2.557708500253129
0.4180590074924281 -2.582182346823809
0.3902642553868139 -2.557708500253047
0.35808328979147963 -2.5139111534100214
0.3263102840708448 -2.4504464977060065
0.2975697780599438 -2.3684916589024496
0.2728579213181641 -2.269963640124141
0.2521858626485699 -2.157111815616347
0.23517075916159483 -2.0322510447396787
0.22137588481676695 -1.8975887102734041
0.21040367384149952 -1.7551360878482807
0.2019120179711899 -1.6066810837690702
0.19559173076905162 -1.453771335308419
0.1911307846686094 -1.2976712809912017
0.18818572368703657 -1.1393552662814386
0.18638149409399762 -0.9795385745899676
0.18529915004865635 -0.8187474889474399
0.18459355041286007 -0.657356435160839
0.18408356331690637 -0.4955723011021995
0.18373806038906715 -0.3335396985669911
0.18356901569721684 -0.17146138718440104
0.18355031982365744 -0.009615606556128973
0.6929755332676863 -0.009629225457002141
0.6929400632621394 -0.17146619591092752
0.6927531124850937 -0.33351207817740924
0.6923702691298554 -0.4955212261384502
0.6917956687232356 -0.6572849732534597
0.6909739623065122 -0.8186344946125322
0.6896563326467672 -0.9793130920926558
0.6874394834578116 -1.138906277405183
0.6838989932509058 -1.2968914424001565
0.6786107710869564 -1.4525612690226217
0.6711766212977205 -1.6049515989434924
0.6612228852246136 -1.7528032201888277
0.6483718932414918 -1.894563930023412
0.6322133425583772 -2.02843389466863
0.6122939410349745 -2.152389721010849
0.588138586248409 -2.2642218296236827
0.5593492433216379 -2.361658516769007
0.5259010308904678 -2.442614830667258
0.48883376815150936 -2.5055230460273044
0.45107296365795574 -2.549720421913661
0.4180590074924195 -2.576191049011932
0.3850450513268855 -2.54972042191358
0.34728424683333986 -2.5055230460271427
0.31021698409439474 -2.442614830667027
0.27676877166324104 -2.3616585167687227
0.247979428736489 -2.264221829623358
0.22382407394994303 -2.152389721010493
0.20390467242655996 -2.0284338946682547
0.1877461217434649 -1.8945639300230293
0.1748951297603623 -1.7528032201884471
0.16494139368727329 -1.6049515989431262
0.15750724389805237 -1.4525612690222773
0.15221902173411486 -1.2968914423998381
0.148678531527218 -1.1389062774048957
0.14646168233826837 -0.9793130920924032
0.14514405267852626 -0.8186344946123187
0.14432234626180404 -0.6572849732532848
0.14374774585518457 -0.49552122613831534
0.1433649024999466 -0.3335120781773136
0.1431779517229011 -0.17146619591087167
0.1431424817173543 -0.009629225456986648
0.7333982782311415 -0.009632881598035808
0.7333528774521454 -0.17146487247726802
0.7331525107386037 -0.333481042736444
0.7327341762361408 -0.4954660419886226
0.7320938344554463 -0.6572053290573493
0.7311412517843471 -0.8184941517553621
0.7295553586403277 -0.9790180132575798
0.7269181010030934 -1.1383436832590195
0.722779359398042 -1.2959471868141759
0.7166678403412876 -1.4511237328750775
0.7081269095713723 -1.6029176838180443
0.6967166161071087 -1.7500723866285228
0.6819901591538206 -1.8910304426675881
0.6634667521396275 -2.0239807168016166
0.6406342297103693 -2.14689296090872
0.6130117253931779 -2.257567403053522
0.5802474285738554 -2.3537781010950445
0.5423241241903416 -2.433585697588685
0.5001293399014034 -2.4957922937223174
0.4566845690256808 -2.5403434303859864
0.41805900749241054 -2.5689781385769077
0.37943344595914297 -2.5403434303859056
0.33598867508343 -2.4957922937221584
0.29379389079450713 -2.4335856975884576
0.25587058641101224 -2.3537781010947647
0.22310628959171097 -2.257567403053202
0.1954837852745416 -2.146892960908369
0.17265126284530566 -2.0239807168012467
0.15412785583113484 -1.8910304426672107
0.13940139887786837 -1.7500723866281471
0.1279911054136247 -1.6029176838176828
0.119450174643726 -1.4511237328747366
0.11333865558698486 -1.2959471868138601
0.10919991398194391 -1.138343683258734
0.10656265634471639 -0.979018013257328
0.1049767632007009 -0.8184941517551491
0.10402418052960315 -0.6572053290571744
0.1033838387489091 -0.4954660419884878
0.10296550424644664 -0.3334810427363483
0.10276513753290498 -0.17146487247721218
0.10271973675390898 -0.009632881598020322
0.7738345889538852 -0.009631556275342214
0.7737893425078836 -0.1714586897247646
0.7735844154663769 -0.33344722388078407
0.7731318770377116 -0.4954067675793211
0.7724192036787868 -0.6571156270412496
0.7713115289163737 -0.8183159995404538
0.7694383637185624 -0.9786464376899937
0.7663772710419438 -1.137665320110242
0.7616444383546388 -1.2948378123793853
0.7547202198590133 -1.4494597570092185
0.74508600430869 -1.6005804463373086
0.7322323311792394 -1.746944384843033
0.7156381842409028 -1.8869876758239101
0.694752942616247 -2.0188900420062237
0.6690219656218556 -2.140622314086468
0.6379559004029567 -2.2500087661159
0.6012815105816605 -2.344885929698554
0.5591232801209017 -2.423439389336183
0.5122380290936756 -2.4847545306520873
0.462983655542542 -2.5294834361393033
0.41805900749240127 -2.5603848892597525
0.3731343594422642 -2.529483436139224
0.3238799858911416 -2.484754530651932
0.27699473486393267 -2.42343938933596
0.2348365044031959 -2.3448859296982794
0.19816211458192326 -2.2500087661155854
0.16709604936304903 -2.140622314086123
0.14136507236868232 -2.0188900420058595
0.12047983074405143 -1.8869876758235387
0.10388568380573882 -1.7469443848426627
0.09103201067631042 -1.6005804463369515
0.0813977951260053 -1.4494597570088814
0.07447357663039454 -1.2948378123790727
0.06974074394310097 -1.1376653201099587
0.06667965126649024 -0.9786464376897432
0.06480648606868367 -0.8183159995402411
0.06369881130627243 -0.6571156270410747
0.0629861379473483 -0.49540676757918634
0.06253359951868329 -0.3334472238806884
0.06232867247717685 -0.1714586897247088
0.0622834260311752 -0.00963155627532673
0.8142794210060148 -0.009630140514267272
0.8142503335465215 -0.17145014997322294
0.8140569234105957 -0.3334118094635704
0.8135695261597039 -0.4953427723593672
0.8127682315220116 -0.6570105213643154
0.8114807821429313 -0.8180929024343605
0.809312009449707 -0.9781951769662036
0.8058269386164718 -1.1368702333715979
0.8005100943845597 -1.2935648316079835
0.7927900052692431 -1.447572241812232
0.7820839179295198 -1.5979432306572439
0.7678045924272446 -1.7434209611553753
0.7493539480596719 -1.8824364314959223
0.7261277681009985 -2.013164890152978
0.6975258541332272 -2.1335829929196835
0.6630539447625036 -2.241553613407988
0.622509767219779 -2.3350011790527283
0.5762123488186379 -2.4122493618476875
0.5251721707221199 -2.472577837808228
0.47103033364108504 -2.517046206443074
0.41805900749239183 -2.549999999999999
0.3650876813437027 -2.5170462064429966
0.31094584426268007 -2.472577837808076
0.25990566616618194 -2.41224936184747
0.21360824776506598 -2.3350011790524596
0.1730640702223676 -2.2415536134076794
0.13859216085167103 -2.133582992919344
0.10999024688392728 -2.0131648901526202
0.08676406692528134 -1.8824364314955568
0.06831342255773494 -1.7434209611550107
0.054034097055484266 -1.5979432306568921
0.04332800971578058 -1.447572241811899
0.0356079206004802 -1.2935648316076742
0.030291076368580618 -1.1368702333713172
0.026806005535354255 -0.9781951769659548
0.024637232842135315 -0.8180929024341487
0.023349783463057404 -0.6570105213641407
0.02254848882536597 -0.4953427723592324
0.02206109157447454 -0.33341180946347476
0.021867681438548732 -0.17145014997316715
0.021838593979055614 -0.009630140514251788
SCALARS Stress float 6
LOOKUP_TABLE default
-1081.7505888243297 -1870.2258496527961 -1398.8563358366832 -14.885930881501206 0.0 0.0
1240.310838335159 719.8497894200186 894.2902593603972 -24.298549368086604 0.0 0.0
544.5449544728582 110.6162535352994 201.72032894077444 -37.058705326530436 0.0 0.0
456.28822793629405 18.175300363921988 143.77909300761672 -3.140252937532829 0.0 0.0
565.3130030084793 54.60958280569504 206.49235270936668 0.5431776719346253 0.0 0.0
657.0195128212447 90.20577386275217 299.65071022999734 1.1322681893161373 0.0 0.0
760.7112800094699 121.85687665307435 398.59420146624575 0.5541112103679846 0.0 0.0
862.5916953936849 168.9036459567501 493.7102939747856 -0.40925013422228274 0.0 0.0
969.7941618275285 227.51826255178997 584.943828723208 -1.6262860346607186 0.0 0.0
1090.045481838566 303.502687291901 685.5347491470845 -2.9579313689500073 0.0 0.0
1227.9603185187066 400.59794757283566 803.5366524868524 -4.293221455863547 0.0 0.0
1383.4641482207776 519.1075576333077 940.353046462014 -5.489222894786824 0.0 0.0
1552.4493901745861 652.9521998762154 1091.2903835136112 -6.251149780188044 0.0 0.0
1729.4552353884505 796.5542876244269 1251.0717665772543 -6.88489895853839 0.0 0.0
1906.3506136680385 941.7261013467894 1411.560295480142 -7.338501997032817 0.0 0.0
2074.286819968324 1079.901269830639 1564.0888642358948 -7.580569480825276 0.0 0.0
2224.8720179922734 1203.4620319002615 1700.7204668813847 -7.4715864961400165 0.0 0.0
2349.439054462219 1304.668108622099 1813.3146852773432 -6.862463900092576 0.0 0.0
2443.5525906292114 1380.0476116948953 1897.872889914043 -5.738939568784321 0.0 0.0
2496.5623412976233 1420.1025970911269 1944.3562546280011 -5.727230779459429 0.0 0.0
2491.158170592792 1412.2290577831436 1938.0449415671474 -7.128519996513205e-12 0.0 0.0
2496.562341297167 1420.1025970907056 1944.3562546275316 5.727230779565909 0.0 0.0
2443.55259062767 1380.0476116933833 1897.8728899127768 5.7389395688664635 0.0 0.0
2349.439054461544 1304.6681086215035 1813.3146852766981 6.862463900094809 0.0 0.0
2224.872017990407 1203.4620318984637 1700.7204668799352 7.471586496107474 0.0 0.0
2074.286819967794 1079.901269830235 1564.088864235318 7.580569480808814 0.0 0.0
1906.3506136683925 941.7261013472917 1411.5602954802528 7.338501997061487 0.0 0.0
1729.4552353886318 796.5542876248013 1251.0717665771706 6.884898958511979 0.0 0.0
1552.449390173728 652.952199875526 1091.2903835127897 6.251149780227719 0.0 0.0
1383.4641482200789 519.1075576328261 940.3530464613293 5.4892228946634365 0.0 0.0
1227.960318517894 400.5979475722518 803.536652486157 4.293221455877973 0.0 0.0
1090.0454818370176 303.5026872905531 685.5347491459163 2.957931368740713 0.0 0.0
969.794161827469 227.5182625519967 584.9438287230115 1.626286034598051 0.0 0.0
862.5916953927474 168.9036459560711 493.7102939740587 0.4092501341152417 0.0 0.0
760.711280008916 121.85687665277408 398.5942014657097 -0.554111210273696 0.0 0.0
657.0195128210567 90.20577386291333 299.65071022970943 -1.1322681892411186 0.0 0.0
565.3130030077882 54.60958280515404 206.4923527088916 -0.5431776718919572 0.0 0.0
456.2882279359455 18.17530036368318 143.77909300743923 3.1402529375165145 0.0 0.0
544.544954472568 110.61625353511292 201.72032894059546 37.058705326488486 0.0 0.0
1240.310838334845 719.8497894197818 894.2902593599298 24.298549368023394 0.0 0.0
-1081.750588821714 -1870.2258496502209 -1398.8563358340903 14.885930880853946 0.0 0.0
-1378.456318481558 -2136.500623315518 -1644.801846549244 -14.360833540317909 0.0 0.0
840.948028146571 401.6764011399311 557.3541513572394 -34.90670943825719 0.0 0.0
377.54667299342475 44.54536135569391 125.1430777713712 -30.444531374117005 0.0 0.0
404.6265922006771 1.8519060017365208 122.1112341100943 -16.395724389367565 0.0 0.0
503.93602969120366 23.581574902520757 170.13175475271092 -15.209274334366876 0.0 0.0
593.8353189114091 31.92560012894635 241.1466971845831 -19.22793261497044 0.0 0.0
668.3706513287959 44.01501338833186 319.58764897106624 -21.488633478276455 0.0 0.0
741.3698643188778 60.319003585785644 386.77583362315846 -22.274361141903196 0.0 0.0
809.9007358994533 79.5290772166992 439.90816011801445 -22.56847811844193 0.0 0.0
878.0467304344496 103.56521832470946 488.8679277081352 -22.849161732070844 0.0 0.0
947.7838492273311 133.1214415210374 539.3065869500424 -22.892792434128047 0.0 0.0
1019.368120299217 167.1791306668357 592.3274053411021 -22.69325608644386 0.0 0.0
1091.1187694916161 205.00721908796788 647.115901447814 -22.17828355361108 0.0 0.0
1160.5675467499436 241.401617065741 699.9643138791487 -21.564403648476457 0.0 0.0
1221.539885037669 271.05131173088006 745.1926378812142 -20.934134415652714 0.0 0.0
1269.0635004030175 289.1979506862559 777.9535785212743 -20.082083294405994 0.0 0.0
1299.8072824285734 293.136909433225 795.245900040716 -18.749109227420945 0.0 0.0
1313.95023825704 283.94186518007814 797.7097419586212 -16.756567655132386 0.0 0.0
1311.2691371050355 262.48940323974335 785.7551388748598 -14.217370555398723 0.0 0.0
1273.06379881309 211.45222688692402 741.7579340539343 -12.41503410566394 0.0 0.0
1204.480496557848 140.74539403179062 673.2111985676576 1.5359269411874266e-11 0.0 0.0
1273.063798813454 211.4522268873296 741.7579340542072 12.415034105737215 0.0 0.0
1311.2691371041662 262.489403238907 785.7551388742065 14.217370555516164 0.0 0.0
1313.9502382573173 283.94186518043006 797.7097419588048 16.756567655075983 0.0 0.0
1299.807282427287 293.136909432025 795.2459000398345 18.74910922743368 0.0 0.0
1269.0635004023718 289.19795068572535 777.9535785207097 20.08208329445226 0.0 0.0
1221.5398850380486 271.0513117313983 745.1926378813985 20.93413441573591 0.0 0.0
1160.5675467499166 241.4016170658487 699.9643138790794 21.56440364838911 0.0 0.0
1091.1187694916264 205.00721908818463 647.1159014478112 22.178283553632802 0.0 0.0
1019.368120298411 167.17913066619994 592.3274053405992 22.693256086343467 0.0 0.0
947.7838492270528 133.1214415210071 539.3065869498345 22.89279243419545 0.0 0.0
878.0467304335782 103.56521832405107 488.8679277075259 22.84916173200732 0.0 0.0
809.9007358994448 79.52907721693882 439.90816011793777 22.568478118479653 0.0 0.0
741.3698643184179 60.31900358557577 386.7758336227863 22.274361141834866 0.0 0.0
668.3706513286072 44.01501338842519 319.58764897079936 21.48863347828987 0.0 0.0
593.8353189112458 31.925600129122365 241.14669718435957 19.227932614982116 0.0 0.0
503.93602969056474 23.581574902061917 170.13175475232168 15.209274334298918 0.0 0.0
404.62659220039353 1.85190600170765 122.11123411000872 16.39572438935465 0.0 0.0
377.54667299320397 44.54536135551575 125.14307777125933 30.444531374043493 0.0 0.0
840.9480281461061 401.67640113961505 557.3541513566831 34.90670943821621 0.0 0.0
-1378.4563184796577 -2136.5006233135355 -1644.8018465471996 14.360833539761492 0.0 0.0
-1134.8695138842136 -1858.668821749815 -1373.9765423360411 -53.07576543351244 0.0 0.0
644.2240092075971 309.98042356389954 414.7584322264593 -101.0727502943034 0.0 0.0
267.4562920738324 51.935343676282066 95.81737602589256 -31.943881068635086 0.0 0.0
345.5136441541479 -0.29763851548641684 103.52435183099551 -36.82018752116689 0.0 0.0
458.5900705645639 15.276855161433573 146.59746313915127 -37.43116525998035 0.0 0.0
561.7882377121771 27.986963876474892 213.7341742984503 -37.81175958187586 0.0 0.0
639.8845515190751 41.33254783085275 294.9133960875953 -40.54175271828086 0.0 0.0
714.6714661826185 54.005376704083815 364.9219706287215 -41.926409326118524 0.0 0.0
781.8147146858128 70.75012131226079 419.34067570010166 -42.70395288671559 0.0 0.0
846.8388721875007 91.10006566689265 466.1584338058197 -43.24609881573488 0.0 0.0
912.6805710379833 116.9798955332623 513.1979138178101 -43.21571437976868 0.0 0.0
980.0882888283007 148.18541599897617 562.8063126346467 -42.49367068199884 0.0 0.0
1048.640605008295 182.01234911333424 614.0402189347053 -41.43926269719192 0.0 0.0
1113.7743258284636 215.45371293233293 663.2845188435712 -40.24461649877339 0.0 0.0
1171.7707293894912 242.54940346175164 705.7568056796129 -38.986006551940584 0.0 0.0
1217.462420001814 259.21102053506365 736.860918769406 -37.35764251458783 0.0 0.0
1248.6247988429113 263.73306734460084 754.6566085325628 -34.91839850803865 0.0 0.0
1263.498502089756 255.22985603557507 757.8685303107446 -31.48866847212416 0.0 0.0
1255.8993979582308 228.71599785759742 741.067730594372 -27.270203602136323 0.0 0.0
1232.2321562493423 192.24176590673827 711.36299206016 -22.4559611281727 0.0 0.0
1146.8983241025194 105.12719630590945 626.5766043566313 -4.675371201301459e-11 0.0 0.0
1232.2321562501966 192.24176590765768 711.3629920608088 22.45596112822191 0.0 0.0
1255.8993979576253 228.71599785703856 741.0677305939791 27.270203602329325 0.0 0.0
1263.49850209017 255.2298560360399 757.868530311073 31.488668472118256 0.0 0.0
1248.6247988426223 263.7330673444062 754.6566085323448 34.91839850800769 0.0 0.0
1217.4624200005896 259.21102053394645 736.8609187684805 37.3576425145793 0.0 0.0
1171.7707293898309 242.54940346225754 705.7568056796725 38.98600655204433 0.0 0.0
1113.7743258275877 215.45371293158274 663.284518842932 40.244616498754425 0.0 0.0
1048.6406050082578 182.01234911347325 614.0402189346668 41.43926269720238 0.0 0.0
980.0882888274773 148.18541599833543 562.806312634108 42.493670681881525 0.0 0.0
912.6805710378043 116.97989553329779 513.1979138176621 43.21571437975389 0.0 0.0
846.8388721868987 91.10006566652227 466.1584338054292 43.246098815713495 0.0 0.0
781.8147146857058 70.75012131239455 419.3406756999605 42.7039528867073 0.0 0.0
714.6714661820017 54.005376703725645 364.9219706282473 41.92640932604651 0.0 0.0
639.8845515187245 41.332547830752645 294.9133960872217 40.54175271825164 0.0 0.0
561.788237711867 27.986963876501854 213.73417429816107 37.811759581828234 0.0 0.0
458.59007056400293 15.276855161174359 146.5974631388787 37.431165259903075 0.0 0.0
345.51364415404817 -0.29763851552076503 103.52435183095537 36.8201875211706 0.0 0.0
267.45629207376504 51.93534367606658 95.81737602580782 31.94388106848996 0.0 0.0
644.2240092070326 309.98042356359576 414.7584322258988 101.07275029419162 0.0 0.0
-1134.8695138823855 -1858.6688217478813 -1373.976542334022 53.07576543320907 0.0 0.0
-918.7515971005275 -1611.8381462697268 -1134.0519615216488 -66.61606119209698 0.0 0.0
485.8665192156353 215.37236338353887 297.3244028938094 -144.13162468402956 0.0 0.0
196.58313654033924 48.71226850663929 73.58862151409355 -54.228758657880505 0.0 0.0
288.51092547469455 4.433185493971803 87.88294770900823 -56.894435572910616 0.0 0.0
403.64662215638685 7.317775424488062 123.65492596547546 -61.36660499346959 0.0 0.0
515.7822903614053 22.930747644954685 183.7375569832156 -58.20317460611383 0.0 0.0
609.5381793100477 36.121737168634375 265.08642209297744 -61.04059046590298 0.0 0.0
682.9143728482122 47.926367006688764 338.67738822737385 -61.91475113980319 0.0 0.0
749.7146579999732 62.08093103594754 395.61344089902565 -62.66215553166483 0.0 0.0
811.9974950744468 79.1433424798422 441.3749064958306 -63.10663779932886 0.0 0.0
873.6744000090803 101.18723620331139 485.0759412116051 -62.745432807991754 0.0 0.0
937.2193941425905 128.2835225790177 530.893568400704 -61.58275831644348 0.0 0.0
1001.5270133282752 159.4350897201221 578.7534365446309 -59.942717355894324 0.0 0.0
1063.1800954813914 188.50930294355 624.1012559420044 -58.34984810466778 0.0 0.0
1117.6867672135456 212.92937848489407 663.5070112903667 -56.56454517217665 0.0 0.0
1162.4391658280017 229.33297833953702 694.0303127776862 -54.195837556035784 0.0 0.0
1194.3109546877579 234.38761314570147 712.4568496034603 -50.8997128650549 0.0 0.0
1209.380340814856 225.8062108340716 715.7688055820818 -46.44994936571959 0.0 0.0
1205.0204975821578 202.1447239816162 701.9986120967224 -40.527919501686846 0.0 0.0
1189.0988153524984 172.7290971883284 679.5666015086833 -31.62518962947055 0.0 0.0
1068.0890591598443 49.977900399222136 559.9334802418199 5.88507020893303e-12 0.0 0.0
1189.0988153520573 172.72909718793127 679.5666015083275 31.62518962958984 0.0 0.0
1205.0204975822896 202.1447239818126 701.9986120969004 40.527919501843385 0.0 0.0
1209.380340814801 225.80621083409997 715.7688055820993 46.44994936585649 0.0 0.0
1194.3109546875537 234.38761314553892 712.4568496032716 50.899712864979506 0.0 0.0
1162.4391658279685 229.3329783396489 694.0303127777491 54.195837556067865 0.0 0.0
1117.6867672135145 212.92937848499056 663.5070112902658 56.56454517225607 0.0 0.0
1063.1800954808243 188.5093029430976 624.1012559416574 58.34984810458161 0.0 0.0
1001.5270133279419 159.4350897199603 578.753436544362 59.94271735585451 0.0 0.0
937.2193941419415 128.28352257851907 530.8935684002322 61.58275831637594 0.0 0.0
873.6744000087053 101.18723620312244 485.07594121133246 62.74543280789958 0.0 0.0
811.9974950737057 79.14334247930896 441.3749064953163 63.106637799246776 0.0 0.0
749.7146579992462 62.08093103542531 395.6134408985226 62.66215553161015 0.0 0.0
682.9143728479241 47.92636700666607 338.6773882270608 61.914751139744645 0.0 0.0
609.5381793093846 36.12173716821518 265.08642209242225 61.0405904657901 0.0 0.0
515.7822903611725 22.930747645073684 183.73755698302855 58.203174606060145 0.0 0.0
403.64662215607814 7.317775424626385 123.65492596542977 61.36660499339891 0.0 0.0
288.51092547448735 4.43318549383806 87.88294770890369 56.89443557283259 0.0 0.0
196.5831365403296 48.712268506529476 73.58862151405769 54.22875865768681 0.0 0.0
485.86651921518836 215.3723633833209 297.3244028933635 144.13162468389405 0.0 0.0
-918.7515970988553 -1611.8381462679486 -1134.0519615198054 66.61606119187486 0.0 0.0
-732.1636494835308 -1396.4846476157957 -923.7937146918957 -66.80476330109236 0.0 0.0
369.3926222985715 133.74073974882688 207.32286759351075 -173.88384869087182 0.0 0.0
145.08832550830934 40.69377497715687 55.734630145639855 -83.23767455768015 0.0 0.0
236.3701303069944 10.904066814423217 74.18290427745093 -78.45640444051622 0.0 0.0
341.2837208370742 4.742501964899763 103.45988419784975 -84.73793685477239 0.0 0.0
463.026638275215 11.293874572893163 151.57381726838017 -84.2796499661734 0.0 0.0
566.5003223207132 29.30819193068103 228.99424548925913 -81.71127529010688 0.0 0.0
645.2987855434153 43.116822915400874 307.9246099449198 -82.1774866429056 0.0 0.0
712.5696455210855 53.87758282828969 367.7432243015428 -82.4550822637303 0.0 0.0
772.488841207593 67.51011033508149 413.51494508711653 -82.39970863451269 0.0 0.0
830.6997640295159 85.47185044172534 454.56035439348665 -81.55111908844299 0.0 0.0
889.8599939084413 108.44320280283617 496.52628406152104 -79.86678673990602 0.0 0.0
950.1120658635657 135.07648457556644 540.2335791741376 -77.8437964042877 0.0 0.0
1007.7111929606738 162.02967605656085 582.5598575992444 -75.81333943535371 0.0 0.0
1059.4187401307756 183.4646912136934 619.1152587036648 -73.59567617609702 0.0 0.0
1102.3911496351122 197.7107238326597 647.6849748017465 -70.692004873911 0.0 0.0
1135.1136249488598 204.08133314614187 667.2123567389508 -66.7325846614725 0.0 0.0
1153.5092621975125 198.50324688792955 673.6742672414827 -61.527458345952006 0.0 0.0
1153.9087106509621 178.77724371303358 664.2238771373866 -53.875904533826166 0.0 0.0
1141.319301570848 151.21639390564974 644.3500535525194 -41.13244471642866 0.0 0.0
975.7502736023002 -16.10216021230889 481.2989665159341 3.604405662827048e-11 0.0 0.0
1141.319301570569 151.21639390544462 644.3500535523805 41.13244471658319 0.0 0.0
1153.9087106507068 178.77724371282804 664.2238771371482 53.875904533995815 0.0 0.0
1153.509262197957 198.50324688847593 673.6742672418662 61.52745834604581 0.0 0.0
1135.1136249474255 204.08133314471468 667.2123567378677 66.73258466137467 0.0 0.0
1102.3911496356286 197.7107238333532 647.6849748020861 70.69200487400381 0.0 0.0
1059.4187401301572 183.46469121317205 619.1152587031628 73.59567617608873 0.0 0.0
1007.7111929608211 162.02967605691512 582.5598575993398 75.81333943539926 0.0 0.0
950.1120658632428 135.07648457536447 540.2335791738611 77.84379640422918 0.0 0.0
889.8599939078416 108.44320280242135 496.5262840611027 79.8667867398634 0.0 0.0
830.699764029021 85.47185044141857 454.5603543931079 81.5511190884273 0.0 0.0
772.4888412070663 67.51011033473534 413.51494508672636 82.39970863438867 0.0 0.0
712.5696455204488 53.877582827936784 367.74322430105667 82.45508226374469 0.0 0.0
645.2987855435917 43.11682291596665 307.9246099448895 82.17748664296295 0.0 0.0
566.500322320071 29.308191930295884 228.99424548872366 81.71127529000384 0.0 0.0
463.02663827492444 11.293874572942233 151.5738172682105 84.27964996613608 0.0 0.0
341.2837208369296 4.742501965234477 103.45988419792344 84.73793685464538 0.0 0.0
236.37013030698802 10.904066814620283 74.18290427750772 78.45640444034814 0.0 0.0
145.08832550821776 40.69377497696987 55.73463014555628 83.23767455757181 0.0 0.0
369.39262229806445 133.74073974866928 207.32286759312004 173.88384869078646 0.0 0.0
-732.1636494822093 -1396.4846476142782 -923.7937146903172 66.80476330096738 0.0 0.0
-568.8725374039341 -1205.6254917748784 -738.0979600916107 -66.07938618657127 0.0 0.0
277.80325076196937 70.96781310477294 139.24594560790553 -190.0322367598505 0.0 0.0
105.15529216330079 29.5772958355179 40.419776399645606 -110.66318082504687 0.0 0.0
187.9717103547707 16.314471670099103 61.28756712920686 -100.46395481699277 0.0 0.0
279.24816008668967 4.390737274306723 84.93395980350549 -106.84975031628565 0.0 0.0
394.4135627143611 4.734965102366375 122.16126880520991 -109.34709506547733 0.0 0.0
505.0353035832749 22.11208071507155 188.93108362948942 -104.25466054209353 0.0 0.0
600.558291493624 34.741345303078326 268.5243572085749 -103.81655571362774 0.0 0.0
666.972094950003 46.61097829860753 333.85889569677386 -101.76173809804749 0.0 0.0
727.4854755370745 55.991709896149516 381.29388155075094 -101.2036495734063 0.0 0.0
782.3697705628331 69.87589390955846 420.60184359573987 -99.63983793590553 0.0 0.0
837.2839865570937 88.62519361150711 459.08007426356096 -97.35685533016047 0.0 0.0
893.0604141892036 111.39601751336092 498.9035291060732 -94.89684113033834 0.0 0.0
946.6704313901762 133.91550465821962 537.1255942342507 -92.64403613419738 0.0 0.0
995.2902498400465 153.25395263060403 571.1560012886248 -90.1360395079846 0.0 0.0
1036.5599830536346 166.60325442998592 598.5025395216244 -86.67297049093153 0.0 0.0
1069.9224462995799 172.48007954349922 618.0965937943741 -82.30077662823365 0.0 0.0
1093.1574122498846 171.48792398924255 629.2021244882172 -76.60774009685261 0.0 0.0
1100.0633334184158 157.49634357772186 625.8595533957374 -67.59924108104732 0.0 0.0
1089.402421758984 129.56949602383148 606.8004391816655 -51.583892529464116 0.0 0.0
869.9948048306289 -91.43281890844025 391.60279054935313 8.046718846799195e-11 0.0 0.0
1089.4024217592214 129.56949602412885 606.8004391818326 51.583892529698886 0.0 0.0
1100.0633334178854 157.4963435772744 625.8595533953401 67.59924108120896 0.0 0.0
1093.157412250403 171.48792398988513 629.2021244885836 76.60774009701332 0.0 0.0
1069.9224462986508 172.48007954266225 618.0965937937079 82.30077662833632 0.0 0.0
1036.5599830537162 166.60325443022066 598.502539521569 86.67297049107451 0.0 0.0
995.2902498393076 153.2539526299419 571.1560012880565 90.13603950791668 0.0 0.0
946.6704313901819 133.91550465845654 537.1255942341687 92.64403613435316 0.0 0.0
893.0604141887696 111.39601751305551 498.9035291057297 94.89684113035332 0.0 0.0
837.2839865567568 88.62519361134953 459.08007426334217 97.35685533010326 0.0 0.0
782.3697705626938 69.87589390967734 420.60184359555745 99.63983793595511 0.0 0.0
727.4854755366948 55.991709895945704 381.29388155045564 101.20364957331245 0.0 0.0
666.9720949495132 46.61097829834412 333.8588956963664 101.7617380980343 0.0 0.0
600.5582914937955 34.74134530369386 268.52435720854703 103.8165557136464 0.0 0.0
505.03530358274037 22.11208071486753 188.9310836290772 104.25466054204824 0.0 0.0
394.4135627138906 4.734965102255669 122.16126880501393 109.34709506538059 0.0 0.0
279.24816008652124 4.390737274274894 84.93395980344629 106.84975031619365 0.0 0.0
187.9717103548497 16.314471670364423 61.28756712930952 100.4639548168741 0.0 0.0
105.15529216330468 29.57729583545688 40.419776399628454 110.6631808248965 0.0 0.0
277.8032507615496 70.96781310460715 139.24594560758854 190.03223675968877 0.0 0.0
-568.872537402733 -1205.6254917734343 -738.0979600901883 66.07938618655186 0.0 0.0
-429.1982151989386 -1030.119746766005 -575.2001333870246 -66.34374051087434 0.0 0.0
205.8230371617604 20.917707143340007 87.81778482267495 -199.10960618239224 0.0 0.0
72.31066473263762 18.167306898123385 27.1433914892283 -133.38145624726533 0.0 0.0
142.21179682137077 19.69570044267455 48.57283415368092 -121.18950988590643 0.0 0.0
219.50847568354445 6.067420783373365 67.65604581648783 -126.46600048683834 0.0 0.0
317.97362656674073 -0.896885457968356 94.51261667613646 -134.8302204501932 0.0 0.0
432.4938034402526 10.001583853690704 146.02116438067972 -131.22548275860868 0.0 0.0
533.1392738749987 27.76115853011258 220.70517080081606 -124.960697635697 0.0 0.0
615.0810663724665 35.40843085330772 289.9827669067117 -123.43558177440055 0.0 0.0
672.8806992379382 44.96252479519157 341.85720251519353 -119.22483496192115 0.0 0.0
727.152511086514 54.412201958900084 381.4458848113539 -116.96658790956907 0.0 0.0
778.094256350618 68.70471445767613 417.2077787024755 -114.09617789741988 0.0 0.0
829.1384108122745 87.10867064018497 453.13445739328625 -111.20712674206392 0.0 0.0
878.377388333728 106.17232978772373 487.69964407987527 -108.70474291442 0.0 0.0
923.4306729319349 122.60165492639524 518.6529425484833 -106.03083731907854 0.0 0.0
962.6806708590007 133.1109910668868 543.6521811048616 -102.5168989609107 0.0 0.0
996.2304567351274 140.7954471863383 564.2876697683997 -97.4114185406519 0.0 0.0
1025.726131203927 144.69427174947344 580.8546036683637 -91.43518006714602 0.0 0.0
1041.0649053900097 137.08744465676386 584.8583118697769 -81.98967347954259 0.0 0.0
1033.1421249637 109.28032536214116 567.3612325901362 -63.63876881540257 0.0 0.0
748.6909388356198 -176.0063695485146 289.88050819352134 1.7463364088143862e-11 0.0 0.0
1033.1421249633897 109.2803253618778 567.3612325900295 63.63876881554481 0.0 0.0
1041.0649053900122 137.08744465687624 584.858311869884 81.98967347969308 0.0 0.0
1025.7261312036505 144.69427174930985 580.854603668174 91.43518006735292 0.0 0.0
996.2304567344073 140.79544718569247 564.2876697679134 97.41141854080301 0.0 0.0
962.6806708601122 133.11099106823795 543.6521811055726 102.5168989610732 0.0 0.0
923.4306729316721 122.60165492629073 518.6529425482132 106.0308373190982 0.0 0.0
878.377388333091 106.17232978719828 487.69964407943064 108.7047429144626 0.0 0.0
829.1384108120242 87.10867064010455 453.1344573930873 111.20712674210476 0.0 0.0
778.094256350554 68.70471445783954 417.2077787024676 114.0961778974289 0.0 0.0
727.1525110861515 54.412201958692364 381.4458848110345 116.96658790956866 0.0 0.0
672.8806992378386 44.96252479531222 341.8572025150661 119.22483496181161 0.0 0.0
615.0810663717232 35.408430852785926 289.982766906128 123.43558177433029 0.0 0.0
533.1392738750114 27.761158530597584 220.70517080074492 124.960697635729 0.0 0.0
432.4938034397951 10.00158385355514 146.02116438038342 131.22548275858185 0.0 0.0
317.97362656625694 -0.8968854580754639 94.5126166759823 134.8302204500186 0.0 0.0
219.50847568338062 6.067420783198407 67.65604581638372 126.46600048675192 0.0 0.0
142.21179682138532 19.695700442753093 48.572834153708676 121.18950988575313 0.0 0.0
72.3106647325696 18.167306898114305 27.143391489205168 133.38145624709205 0.0 0.0
205.82303716137665 20.91770714309842 87.81778482239177 199.10960618214858 0.0 0.0
-429.19821519793044 -1030.1197467647548 -575.2001333858294 66.3437405108093 0.0 0.0
-306.206679331473 -879.7566217993033 -433.43040694048153 -76.60143721982169 0.0 0.0
143.96515389649136 -16.62808829990116 47.88813743805943 -199.28838411116732 0.0 0.0
43.809843410983504 8.772142177010874 15.774620351239822 -150.88737242784137 0.0 0.0
98.12624052156116 21.04924980804996 35.75318899457961 -139.23053489014137 0.0 0.0
160.78720783246456 8.734397567414478 50.83037537758261 -143.5433564267135 0.0 0.0
236.18738143726523 -0.9031263425929241 70.1104928760068 -154.77693163098527 0.0 0.0
340.7652062221179 0.346293062200427 104.96607723637824 -158.8354748565012 0.0 0.0
446.30536190677384 14.882170005764939 164.38187470026713 -148.84225643035617 0.0 0.0
538.1062935062654 26.710112069961053 233.4149228496603 -142.9851945890785 0.0 0.0
607.0496559242829 30.409448190975368 289.2870806477659 -138.83450553176326 0.0 0.0
659.9144074946319 38.10650584694574 331.90398796595656 -133.4859935892533 0.0 0.0
708.0718529361105 48.874941650051326 367.3167559806568 -129.82685627637355 0.0 0.0
755.0916832850437 62.88883012484152 400.48068185313286 -126.5669876759627 0.0 0.0
799.2387186878485 77.68876962282442 431.09979842891414 -123.88393000061406 0.0 0.0
840.5536327446334 90.7522101064922 458.8542283968518 -121.2517966588378 0.0 0.0
877.1627628264579 100.25811309695041 482.2684773599018 -117.74761546911338 0.0 0.0
910.3227404326403 105.93952969376599 501.89719976641334 -112.47861358372809 0.0 0.0
944.9428182738649 114.74175588048658 523.3045925493852 -105.83677220235963 0.0 0.0
972.4845293280381 118.64152076057961 539.0311705514353 -96.69761072969385 0.0 0.0
971.5038356927853 93.82160327112595 526.8009980616706 -78.09446168456799 0.0 0.0
606.0540115054899 -270.0114583321867 173.3624839467523 3.1608493600288057e-11 0.0 0.0
971.5038356927649 93.82160327122725 526.8009980617016 78.0944616847809 0.0 0.0
972.4845293273819 118.64152075995256 539.0311705510455 96.69761072979718 0.0 0.0
944.9428182735171 114.74175588028206 523.3045925491492 105.83677220254486 0.0 0.0
910.3227404319774 105.93952969320394 501.8971997658814 112.47861358385093 0.0 0.0
877.1627628273435 100.25811309795257 482.26847736053236 117.74761546914814 0.0 0.0
840.5536327444828 90.7522101063935 458.85422839676045 121.25179665879497 0.0 0.0
799.2387186869395 77.68876962201634 431.0997984283054 123.88393000056305 0.0 0.0
755.0916832847757 62.88883012474722 400.48068185293835 126.56698767609689 0.0 0.0
708.0718529361752 48.87494165029092 367.3167559806924 129.82685627635743 0.0 0.0
659.9144074937902 38.10650584616066 331.9039879653187 133.48599358910897 0.0 0.0
607.0496559240344 30.409448190945174 289.2870806475685 138.83450553167745 0.0 0.0
538.106293506101 26.71011207024572 233.41492284949214 142.98519458912622 0.0 0.0
446.3053619062193 14.882170005466282 164.38187469988569 148.8422564303579 0.0 0.0
340.76520622180146 0.3462930623364935 104.9660772362773 158.8354748564488 0.0 0.0
236.18738143681065 -0.9031263430293026 70.11049287575644 154.77693163076293 0.0 0.0
160.7872078324437 8.734397567518378 50.83037537760508 143.54335642662832 0.0 0.0
98.12624052148558 21.04924980794669 35.753188994525814 139.23053488991025 0.0 0.0
43.80984341091783 8.772142176956557 15.774620351203783 150.88737242767755 0.0 0.0
143.96515389606813 -16.628088300203288 47.88813743778725 199.28838411092792 0.0 0.0
-306.20667933073344 -879.7566217981524 -433.43040693954356 76.60143721991429 0.0 0.0
-217.01094839985447 -733.306009115853 -323.16282256565506 -86.20979953811954 0.0 0.0
90.64666625980968 -46.611621374454906 17.677325196507496 -193.26018074697018 0.0 0.0
16.994324731767573 2.4032139942186 5.820825848817825 -163.5210721334704 0.0 0.0
55.454252804265046 20.918541268763637 22.911468769607094 -153.71799666033863 0.0 0.0
101.7896325961201 11.522008058883204 33.97529026076949 -157.12792914221544 0.0 0.0
155.57625422070717 1.5668536548840384 47.01689641890445 -169.4006707589272 0.0 0.0
231.4450856137601 -3.270256145240287 67.97160347694061 -183.32846877077543 0.0 0.0
331.9699376079859 -1.4453795911616205 104.52645601404392 -180.3885792525549 0.0 0.0
430.1720836216486 9.733187918693304 159.31436561389947 -165.35449820489106 0.0 0.0
508.9668354924609 15.667928103741684 214.78105679661144 -155.81653583135588 0.0 0.0
568.1879320269139 20.944487640588108 261.3533799705568 -148.38036289040764 0.0 0.0
616.5285860992485 27.33271735198202 298.16108388469684 -143.95407389401547 0.0 0.0
660.4189933590065 38.09455382272106 331.2428326362494 -140.50421532541336 0.0 0.0
699.873166260493 48.77348954925028 359.5062945811943 -137.81170844407717 0.0 0.0
736.4389365732601 58.3863065730694 384.4465042997209 -135.3954539839054 0.0 0.0
770.578666216119 66.00075742175173 406.3861634226614 -132.44006170010388 0.0 0.0
803.6709822689454 72.02035241424593 426.78314844465785 -127.44014112624426 0.0 0.0
838.8393305205208 80.08251762328398 448.49761814041653 -119.92995010730483 0.0 0.0
880.1307722907305 94.51245197355708 475.96704703690864 -111.12408247578463 0.0 0.0
900.1835094764709 85.86742277706318 482.87746748632895 -96.16257900016225 0.0 0.0
433.6557534471623 -370.2216077487909 39.891572995839134 1.2432721518962353e-10 0.0 0.0
900.1835094762386 85.86742277687344 482.8774674861933 96.16257900039055 0.0 0.0
880.13077229042 94.51245197348237 475.96704703675454 111.12408247603554 0.0 0.0
838.8393305202123 80.08251762315155 448.49761814020457 119.92995010767774 0.0 0.0
803.6709822690883 72.02035241453149 426.78314844466115 127.44014112642876 0.0 0.0
770.5786662158114 66.00075742143319 406.38616342240607 132.44006170004408 0.0 0.0
736.4389365721327 58.38630657182638 384.44650429902197 135.39545398368827 0.0 0.0
699.8731662598843 48.773489548778045 359.50629458074843 137.8117084441073 0.0 0.0
660.4189933583457 38.09455382222122 331.2428326358276 140.50421532553423 0.0 0.0
616.5285860995027 27.332717352516795 298.1610838847982 143.9540738940383 0.0 0.0
568.18793202705 20.94448764108503 261.35337997059764 148.38036289044075 0.0 0.0
508.96683549192267 15.66792810330995 214.781056796174 155.816535831246 0.0 0.0
430.17208362139 9.733187918831195 159.31436561373704 165.3544982049175 0.0 0.0
331.9699376076055 -1.4453795910098375 104.52645601391063 180.38857925264688 0.0 0.0
231.44508561361457 -3.2702561446666465 67.9716034770913 183.32846877055798 0.0 0.0
155.57625422050438 1.566853654762694 47.01689641882102 169.4006707586944 0.0 0.0
101.78963259606851 11.522008058870602 33.97529026074843 157.12792914208575 0.0 0.0
55.45425280414787 20.91854126866995 22.911468769543823 153.71799666007448 0.0 0.0
16.9943247317181 2.4032139943453514 5.820825848840682 163.52107213328318 0.0 0.0
90.64666625937838 -46.611621374820984 17.67732519623976 193.26018074672282 0.0 0.0
-217.01094839923655 -733.3060091148162 -323.16282256494065 86.20979953825636 0.0 0.0
-148.75230768159443 -608.6451456212359 -238.29050407549417 -102.62559389267435 0.0 0.0
42.971166458686696 -66.97454872680787 -5.717878029956598 -181.2371134233426 0.0 0.0
-8.480516421471101 -0.8099101463913224 -2.7870437049459076 -171.42690439298207 0.0 0.0
13.912215321846913 19.799565427598218 10.113836497647256 -164.15955790352808 0.0 0.0
43.09637582579331 13.962983861929256 17.117092520916184 -166.68585625480617 0.0 0.0
75.07998561442763 4.669755059618491 23.822730250422826 -180.23507655453884 0.0 0.0
114.8330075927878 -0.597067089699896 34.16924152854078 -195.6619559993877 0.0 0.0
174.2731522637318 -3.2958944225566373 51.31683712689462 -202.11934788231613 0.0 0.0
257.2337690168312 -8.428624159052529 76.42329117501696 -196.35050621839167 0.0 0.0
344.2345965608973 -16.684400105774905 105.99283800517854 -182.56692832644688 0.0 0.0
413.74271462137966 -16.872464454698513 139.21912666123987 -168.98171547622758 0.0 0.0
461.64340624920845 -9.639308074760304 171.17645793601892 -158.41531644155998 0.0 0.0
501.3437141552424 4.090969014774817 201.98077392722325 -153.36676167627633 0.0 0.0
537.836456309274 15.873291195420606 230.51603669539986 -151.10902317332457 0.0 0.0
570.3532662397068 24.46576526055713 256.60049113485655 -150.19814168619743 0.0 0.0
601.7688866176932 31.72626071167427 281.3890642297365 -150.31330875205546 0.0 0.0
635.549828749956 37.59619489673334 306.7558929842272 -147.4070296305837 0.0 0.0
673.0813803849395 42.12924363432736 332.3933492361223 -139.35231217698342 0.0 0.0
717.6435335675651 50.14252132044918 360.40509618329963 -128.13369934402152 0.0 0.0
783.6125735685315 77.23133153818304 409.3702535557826 -119.5868125912486 0.0 0.0
198.59256115031076 -475.20156035601997 -124.09029567179617 4.772005013364833e-11 0.0 0.0
783.6125735676949 77.23133153738117 409.3702535553658 119.5868125913447 0.0 0.0
717.6435335678732 50.14252132097134 360.405096183558 128.13369934442352 0.0 0.0
673.0813803852119 42.129243634832804 332.39334923632384 139.35231217722492 0.0 0.0
635.5498287502766 37.59619489721479 306.75589298437654 147.40702963074602 0.0 0.0
601.768886617299 31.72626071112895 281.38906422944405 150.3133087520291 0.0 0.0
570.3532662388538 24.465765259447892 256.60049113430296 150.19814168597028 0.0 0.0
537.8364563101877 15.873291196922377 230.51603669595661 151.10902317347336 0.0 0.0
501.34371415435425 4.0909690136903745 201.98077392663285 153.36676167631072 0.0 0.0
461.6434062493816 -9.63930807427894 171.17645793614696 158.41531644159335 0.0 0.0
413.7427146212063 -16.87246445483913 139.21912666114622 168.98171547631233 0.0 0.0
344.23459656045935 -16.684400105876673 105.99283800499472 182.5669283263258 0.0 0.0
257.23376901685657 -8.428624158396367 76.42329117519884 196.35050621843226 0.0 0.0
174.2731522636958 -3.2958944220700017 51.31683712703437 202.11934788230843 0.0 0.0
114.83300759282584 -0.5970670893586294 34.16924152865319 195.66195599918797 0.0 0.0
75.07998561469344 4.669755060397024 23.82273025073897 180.23507655428074 0.0 0.0
43.09637582581916 13.96298386208328 17.117092520969763 166.68585625461074 0.0 0.0
13.912215321903693 19.799565427629666 10.113836497673635 164.15955790332606 0.0 0.0
-8.48051642130989 -0.809910146123781 -2.7870437048174286 171.42690439284897 0.0 0.0
42.97116645830984 -66.97454872709326 -5.717878030173965 181.23711342307 0.0 0.0
-148.75230768133738 -608.645145620536 -238.2905040751038 102.62559389273821 0.0 0.0
-113.24169535960156 -490.466696031785 -182.2795530348461 -109.4383044197274 0.0 0.0
4.9681996794673555 -79.56803315369544 -22.21918261739589 -167.11303104679843 0.0 0.0
-32.04582927406689 -2.467968795484852 -10.35085932022004 -175.31639526202358 0.0 0.0
-26.3009675428516 18.414807314850183 -2.364961356506549 -170.38449279307338 0.0 0.0
-14.750205818543453 15.915711855418554 0.35076027940135 -172.19412534298442 0.0 0.0
-6.348887319346051 8.026172917855815 0.5059987368642971 -184.20631221980148 0.0 0.0
-2.4343716603453505 1.8160528254076962 -0.18838637780353285 -200.61367082368645 0.0 0.0
-0.5717281931148364 0.19642999256798443 -0.11264764220180545 -206.67008623262103 0.0 0.0
-0.053253334190699775 -0.09977164759990309 -0.044807118613849894 -201.0829403089541 0.0 0.0
0.10869993284406831 0.01869124261517996 0.051132770688287366 -189.2176438179419 0.0 0.0
0.11120796626710217 -0.3068954927699217 -0.15879472448451892 -186.2102042210869 0.0 0.0
-0.9498976495092535 0.6172200806294512 0.007772847422252482 -183.6691581556885 0.0 0.0
-1.9235890029958398 0.7383574938366806 0.015092153475087855 -180.70825103850936 0.0 0.0
-1.865250068250731 0.9720903636303078 0.35313168280254104 -173.2096214406876 0.0 0.0
1.9221753831753006 2.8285184442656615 1.1116948723051792 -166.70528877633174 0.0 0.0
16.788485278299078 7.38533192979952 3.4399976108869055 -160.7903831133078 0.0 0.0
53.97769038486666 16.648457760230443 9.360606819980717 -155.34921792492096 0.0 0.0
135.70203810503648 20.86533920607185 13.475858971427257 -147.9550164782325 0.0 0.0
329.568748317223 -38.10885861589429 30.61275399396706 -142.22561455928323 0.0 0.0
501.65632293395925 -12.52642845675527 177.79290843288015 -168.71014484029834 0.0 0.0
-374.1774244494088 -669.3160428801948 -448.59236493956394 5.172751116333529e-12 0.0 0.0
501.6563229337164 -12.5264284571156 177.79290843265875 168.71014484025008 0.0 0.0
329.56874831736377 -38.10885861567347 30.612753994174028 142.22561456006926 0.0 0.0
135.70203810504916 20.865339205899232 13.475858971342532 147.95501647873925 0.0 0.0
53.97769038472881 16.648457759636365 9.360606819722506 155.34921792529275 0.0 0.0
16.78848527777184 7.385331928978857 3.439997610370554 160.79038311319337 0.0 0.0
1.9221753834322897 2.828518444501128 1.1116948724802853 166.70528877606012 0.0 0.0
-1.8652500675581791 0.9720903642589391 0.3531316832696092 173.20962144101634 0.0 0.0
-1.9235890024965343 0.7383574936025248 0.015092153567607625 180.7082510386531 0.0 0.0
-0.9498976493409046 0.6172200799186314 0.007772847245643533 183.66915815567828 0.0 0.0
0.11120796632378216 -0.3068954935814574 -0.15879472473405798 186.2102042209546 0.0 0.0
0.10869993302455327 0.018691242540342046 0.05113277072212519 189.21764381790635 0.0 0.0
-0.05325333392594089 -0.09977164731357391 -0.04480711844291463 201.0829403090916 0.0 0.0
-0.5717281931301965 0.19642999222678403 -0.11264764230464586 206.67008623257047 0.0 0.0
-2.4343716602970122 1.8160528253422539 -0.18838637780834855 200.61367082350768 0.0 0.0
-6.348887318999539 8.026172918623114 0.5059987371978718 184.20631221945905 0.0 0.0
-14.750205818428629 15.915711855649347 0.3507602795055025 172.19412534276046 0.0 0.0
-26.300967542858444 18.414807314761788 -2.364961356534664 170.38449279295693 0.0 0.0
-32.04582927406866 -2.4679687955309686 -10.350859320234031 175.31639526187143 0.0 0.0
4.968199679377267 -79.56803315380334 -22.219182617454948 167.1130310466011 0.0 0.0
-113.24169535946109 -490.46669603109746 -182.27955303460797 109.43830441967248 0.0 0.0
-93.88078490862901 -384.828708519342 -143.6042951333782 -105.31845479681466 0.0 0.0
-19.29183359919786 -86.04768283594856 -31.60242670609556 -156.35170496128057 0.0 0.0
-53.98013087323814 -4.010250569207133 -17.39768193309495 -175.31423565001967 0.0 0.0
-64.83552017857856 17.139271246592994 -14.305089377803576 -172.31210189515423 0.0 0.0
-71.53771238445516 17.14031839296454 -16.316797051031294 -172.80306010549333 0.0 0.0
-86.7108051663702 11.157758745300532 -22.622025888670347 -182.33729365468974 0.0 0.0
-119.65317687061426 4.372079063089665 -34.433546444737196 -197.27894276381159 0.0 0.0
-175.4129969885965 3.5974739259504096 -51.585563041710316 -202.35678027668973 0.0 0.0
-257.17861667619314 8.15400602547701 -76.51769970836577 -196.3278722159961 0.0 0.0
-344.02037542344476 16.659559249938916 -105.92917188584146 -182.5222290336547 0.0 0.0
-414.4559042101686 17.242143147230617 -139.02924554380246 -169.11845025625738 0.0 0.0
-461.6945408113602 9.426426699178037 -171.5387430990047 -158.19986222648743 0.0 0.0
-502.2891963689757 -4.011649569703991 -202.9121398506877 -152.89159622203846 0.0 0.0
-538.7918268528847 -14.0552536179761 -230.91375316229914 -150.46868818792444 0.0 0.0
-567.0785914717943 -18.258015752690795 -251.8313273988474 -149.85588669069702 0.0 0.0
-584.8984430291364 -17.035138958209757 -261.79786998254315 -152.30595666778734 0.0 0.0
-590.0637457974689 -10.779108579988502 -258.3205112290002 -157.62519851189595 0.0 0.0
-585.7950291833376 -3.1504090218700327 -238.98250596244236 -168.3547851038267 0.0 0.0
-570.1507783023867 37.95946060803317 -191.6838874350712 -179.29541379370983 0.0 0.0
-330.38167021495656 87.00936976386792 -54.687468421110566 -126.0415388893938 0.0 0.0
-903.333865772639 -892.1038457805212 -893.2202804556471 -1.2387602055241587e-10 0.0 0.0
-330.3816702149969 87.00936976363911 -54.687468421178465 126.04153888997621 0.0 0.0
-570.1507783019873 37.959460608355506 -191.6838874348186 179.29541379402224 0.0 0.0
-585.7950291843174 -3.150409023328976 -238.9825059631232 168.35478510408183 0.0 0.0
-590.0637457978285 -10.779108580832926 -258.3205112292389 157.62519851214088 0.0 0.0
-584.8984430282258 -17.03513895735393 -261.79786998181487 152.30595666765765 0.0 0.0
-567.0785914717575 -18.258015752708324 -251.8313273988117 149.85588669077018 0.0 0.0
-538.7918268534269 -14.055253619190086 -230.91375316272254 150.46868818811043 0.0 0.0
-502.2891963678334 -4.011649568340296 -202.91213984989952 152.8915962220069 0.0 0.0
-461.69454081149183 9.426426698686871 -171.53874309901178 158.19986222657155 0.0 0.0
-414.455904209651 17.242143147484537 -139.02924554344003 169.11845025626556 0.0 0.0
-344.02037542311484 16.659559249222355 -105.92917188593864 182.52222903368303 0.0 0.0
-257.17861667591427 8.154006024819537 -76.51769970845966 196.32787221605656 0.0 0.0
-175.41299698826143 3.597473925727745 -51.585563041673495 202.35678027666273 0.0 0.0
-119.65317687048758 4.372079062788153 -34.43354644479346 197.27894276366334 0.0 0.0
-86.71080516626074 11.15775874523119 -22.622025888661078 182.33729365445728 0.0 0.0
-71.53771238422915 17.140318393169895 -16.316797050906157 172.80306010521824 0.0 0.0
-64.83552017853866 17.139271246527755 -14.30508937781273 172.31210189499785 0.0 0.0
-53.98013087327844 -4.010250569242936 -17.397681933120545 175.31423564980722 0.0 0.0
-19.291833599277552 -86.04768283603481 -31.602426706144918 156.35170496112656 0.0 0.0
-93.88078490846092 -384.8287085188152 -143.60429513317465 105.31845479671789 0.0 0.0
-76.60314973817206 -294.83059759692435 -111.43012420052892 -96.15211934020368 0.0 0.0
-35.98107241835229 -85.90768477876198 -36.566792934396595 -145.3320339109387 0.0 0.0
-74.27244661141917 -5.289674671157252 -23.865278317809803 -171.45334672161212 0.0 0.0
-101.52948479010577 15.70880478929429 -25.755956030035325 -169.68906179232155 0.0 0.0
-126.98207612272368 17.736885611754996 -32.74678753725276 -168.95386127313955 0.0 0.0
-166.45964162642545 14.175447517740999 -45.39627426586445 -176.60860475112077 0.0 0.0
-233.98842146688347 6.291364507501942 -68.14990735917638 -182.80798046959166 0.0 0.0
-332.1558770947886 1.3288890098477797 -104.77043794822671 -180.57045279009333 0.0 0.0
-430.21636915307425 -9.99745242454178 -159.40500139407393 -165.39055541892864 0.0 0.0
-508.9338619940216 -15.742112827624009 -214.77533015386817 -155.76001423906172 0.0 0.0
-568.1217397297347 -20.877722034564826 -261.30397705298805 -148.31020856218362 0.0 0.0
-616.647705606563 -27.226967820295094 -298.247227719406 -143.7263436292758 0.0 0.0
-660.9230247619486 -37.794092784732804 -331.48945459973027 -139.79098618062375 0.0 0.0
-700.171136038601 -47.45907746597639 -359.2349795049191 -136.63521575380398 0.0 0.0
-732.7756654597499 -53.192923033359165 -380.3896677888671 -134.84150911203162 0.0 0.0
-754.6459628622008 -51.97237951795597 -391.72904499906826 -135.53010502568992 0.0 0.0
-763.7452647558389 -44.099075297228424 -392.49212235352263 -139.60541057981487 0.0 0.0
-758.8235870798558 -31.97534703231615 -383.7111969525271 -147.24153306189265 0.0 0.0
-721.9971551704934 2.9487592690290825 -349.37542704908856 -156.42795705293747 0.0 0.0
-658.8982391488491 52.28748180595552 -296.9080053561908 -161.36820666922884 0.0 0.0
-1629.2018135264357 -1169.30218303229 -1354.26861646089 -4.0817127455738955e-11 0.0 0.0
-658.898239148616 52.28748180597478 -296.908005356024 161.3682066695812 0.0 0.0
-721.9971551706801 2.948759268684995 -349.37542704925215 156.4279570531734 0.0 0.0
-758.8235870801838 -31.975347032789344 -383.7111969527203 147.2415330620382 0.0 0.0
-763.745264756213 -44.099075297812476 -392.49212235381964 139.6054105799342 0.0 0.0
-754.6459628612183 -51.97237951694178 -391.72904499844486 135.53010502563018 0.0 0.0
-732.7756654598527 -53.192923033663945 -380.38966778886396 134.84150911206595 0.0 0.0
-700.1711360384869 -47.459077466064116 -359.2349795048399 136.63521575378329 0.0 0.0
-660.9230247618291 -37.79409278469775 -331.4894545996484 139.79098618057475 0.0 0.0
-616.6477056063266 -27.226967820413748 -298.2472277192126 143.72634362933064 0.0 0.0
-568.121739729655 -20.877722034807746 -261.30397705288857 148.31020856214744 0.0 0.0
-508.9338619938157 -15.742112827881233 -214.77533015365668 155.7600142390524 0.0 0.0
-430.2163691528409 -9.997452424910339 -159.40500139392276 165.39055541902218 0.0 0.0
-332.15587709378144 1.3288890106330513 -104.77043794762102 180.57045279007033 0.0 0.0
-233.98842146640843 6.29136450737852 -68.14990735908623 182.80798046945986 0.0 0.0
-166.45964162637142 14.17544751722568 -45.39627426600655 176.6086047509316 0.0 0.0
-126.98207612258975 17.736885611761277 -32.74678753720888 168.95386127304621 0.0 0.0
-101.52948478991853 15.708804789456607 -25.755956029934676 169.6890617921182 0.0 0.0
-74.27244661130229 -5.289674671061496 -23.86527831774639 171.45334672145884 0.0 0.0
-35.98107241838411 -85.90768477887593 -36.56679293444001 145.33203391082353 0.0 0.0
-76.60314973802129 -294.8305975965034 -111.4301242003574 96.15211934012126 0.0 0.0
-61.81350024406901 -218.24176238124693 -84.01657878759477 -84.58906001492706 0.0 0.0
-48.521221620966486 -80.78809023115568 -38.793143139300916 -132.75744061993692 0.0 0.0
-93.09222362017081 -6.1111609386728265 -29.759408048042154 -163.50524565227204 0.0 0.0
-136.58018007532684 14.21096225610619 -36.698860597006785 -163.18801973997148 0.0 0.0
-180.68408779404328 17.647364823546198 -48.814717970434444 -160.5016583454121 0.0 0.0
-242.09694013014393 14.003238110624691 -68.34904332036315 -160.53815290305965 0.0 0.0
-341.9318895449097 3.3041983134476203 -104.51333514676162 -161.76221919796572 0.0 0.0
-446.5594740960629 -15.117286462789878 -164.54185333078965 -149.40315452868816 0.0 0.0
-538.1523341734285 -26.9886918078122 -233.50330134759446 -142.97827899653285 0.0 0.0
-607.0640021852784 -30.464106731585225 -289.3266200452673 -138.7964428320903 0.0 0.0
-659.7704935121045 -37.97457343868771 -331.792494900987 -133.42881559105152 0.0 0.0
-707.9963712537367 -48.6422630140174 -367.2072108756729 -129.58578237704447 0.0 0.0
-755.3172703265926 -62.572244718170765 -400.4923038530016 -125.74798912753276 0.0 0.0
-799.6857933487155 -76.9842903051915 -431.08099107040493 -122.38023616971492 0.0 0.0
-838.369711237681 -87.36553941731896 -456.3208616703201 -120.26392496190492 0.0 0.0
-865.1634227313547 -89.3839699581738 -471.12975167612444 -120.89595089152775 0.0 0.0
-876.4885303182398 -80.27618121547215 -472.4046475930646 -125.5045956847966 0.0 0.0
-862.3460390615232 -53.366169445306724 -452.2574321405236 -132.7048920976709 0.0 0.0
-818.958843804591 -6.499567621004289 -408.42322069212787 -139.2666217005034 0.0 0.0
-710.7263678573469 89.43110414488461 -312.22569360763515 -144.52418476473372 0.0 0.0
-2070.7388417898883 -1409.238608846395 -1705.1174695474067 1.9454660105111543e-11 0.0 0.0
-710.7263678567355 89.43110414531014 -312.2256936072621 144.5241847649668 0.0 0.0
-818.9588438039725 -6.499567620621875 -408.4232206916922 139.26662170081426 0.0 0.0
-862.3460390615621 -53.366169445522466 -452.25743214055717 132.70489209794303 0.0 0.0
-876.4885303183886 -80.27618121586264 -472.40464759313346 125.5045956850211 0.0 0.0
-865.16342273136 -89.3839699583623 -471.1297516761464 120.89595089160645 0.0 0.0
-838.3697112372618 -87.3655394169849 -456.3208616699951 120.26392496189332 0.0 0.0
-799.6857933484112 -76.98429030510273 -431.08099107022235 122.38023616981036 0.0 0.0
-755.3172703263998 -62.57224471824085 -400.4923038528749 125.74798912762188 0.0 0.0
-707.9963712532797 -48.6422630138023 -367.20721087536066 129.58578237709713 0.0 0.0
-659.7704935117179 -37.97457343850597 -331.7924949007022 133.42881559091157 0.0 0.0
-607.0640021849218 -30.46410673154881 -289.3266200449647 138.79644283207577 0.0 0.0
-538.152334172821 -26.9886918076035 -233.50330134708415 142.97827899652572 0.0 0.0
-446.5594740949186 -15.11728646182013 -164.541853330014 149.4031545286884 0.0 0.0
-341.9318895443903 3.304198313441157 -104.51333514655221 161.76221919798726 0.0 0.0
-242.0969401297597 14.003238110369459 -68.34904332035701 160.53815290279604 0.0 0.0
-180.68408779379476 17.64736482358399 -48.81471797036053 160.50165834523355 0.0 0.0
-136.58018007521954 14.21096225617762 -36.698860596951825 163.18801973981925 0.0 0.0
-93.09222362013114 -6.111160938660901 -29.759408048026764 163.50524565214693 0.0 0.0
-48.52122162104894 -80.78809023123569 -38.793143139349624 132.75744061981788 0.0 0.0
-61.81350024407297 -218.24176238099767 -84.01657878752118 84.58906001484556 0.0 0.0
-50.33960882018049 -154.2233761274344 -61.36889548428444 -72.21685240702593 0.0 0.0
-58.400571687411976 -72.08810187306818 -39.14660206814405 -118.23751506803511 0.0 0.0
-110.81419084109962 -6.318992057796571 -35.14050588512716 -151.60003280486407 0.0 0.0
-169.88563507292116 12.30428917306129 -47.280322633786966 -152.0708185685121 0.0 0.0
-231.9311346759624 16.428772732922155 -64.48890732949044 -147.27096634383133 0.0 0.0
-320.4831962214232 13.169923501027599 -91.95586704426113 -143.35905451696107 0.0 0.0
-429.7325048357002 -8.42097181103912 -145.53838162575948 -131.84875145431036 0.0 0.0
-533.1673650109993 -28.176881109262283 -220.76696713403928 -125.27539757482822 0.0 0.0
-615.2333107315346 -35.71423538468704 -290.15953825515345 -123.40436084087223 0.0 0.0
-672.8818521692677 -44.97090072027812 -341.8918206527759 -119.19413999249744 0.0 0.0
-726.9782708617632 -54.19806991681418 -381.2769444257433 -116.93736688715079 0.0 0.0
-777.752069852497 -68.25862859562336 -416.8524633127345 -113.86313303844646 0.0 0.0
-828.8884354117495 -86.52618643853954 -452.75339970342065 -110.39344418779437 0.0 0.0
-878.9104703108412 -105.96388468473403 -487.90370038827126 -107.12703465109607 0.0 0.0
-923.7526048629649 -122.02869877632756 -518.6365243240497 -104.78984194305997 0.0 0.0
-956.4094056489995 -127.29706016715377 -537.8361858224722 -105.1807036891317 0.0 0.0
-965.7889953113045 -115.3143553532241 -536.8250819616527 -109.04728725820402 0.0 0.0
-942.107979391086 -75.25296767008709 -505.4305562861067 -115.41430347524084 0.0 0.0
-875.691396424236 -2.3431570982378958 -437.17972606753244 -121.04136628506335 0.0 0.0
-739.4503156200943 123.42988515225346 -310.39908605984346 -125.39578218441348 0.0 0.0
-2415.643576085669 -1650.3609411420982 -2005.2267767405694 3.0599522915508715e-11 0.0 0.0
-739.4503156195498 123.42988515272553 -310.39908605952587 125.39578218450275 0.0 0.0
-875.6913964235976 -2.343157097645431 -437.1797260670662 121.04136628519608 0.0 0.0
-942.10797939081 -75.25296766989567 -505.43055628587916 115.4143034753003 0.0 0.0
-965.788995311535 -115.31435535362715 -536.8250819619165 109.04728725829672 0.0 0.0
-956.4094056488323 -127.29706016707038 -537.8361858223263 105.18070368910318 0.0 0.0
-923.7526048626028 -122.02869877609182 -518.6365243237988 104.78984194302133 0.0 0.0
-878.910470311008 -105.96388468511708 -487.9037003883549 107.12703465117198 0.0 0.0
-828.8884354112517 -86.52618643821206 -452.75339970309574 110.39344418778049 0.0 0.0
-777.7520698520717 -68.25862859543632 -416.8524633124751 113.8631330384826 0.0 0.0
-726.9782708613606 -54.198069916642694 -381.2769444255316 116.93736688710663 0.0 0.0
-672.8818521690112 -44.97090072032947 -341.89182065255613 119.19413999251043 0.0 0.0
-615.2333107312218 -35.71423538469395 -290.1595382548429 123.4043608408345 0.0 0.0
-533.1673650106675 -28.176881109379035 -220.7669671337121 125.27539757486407 0.0 0.0
-429.7325048350765 -8.420971810776965 -145.53838162537068 131.8487514542379 0.0 0.0
-320.48319622088513 13.169923501152516 -91.9558670440728 143.3590545168555 0.0 0.0
-231.93113467583194 16.428772732662928 -64.48890732952952 147.27096634372063 0.0 0.0
-169.8856350727011 12.304289173138145 -47.28032263369997 152.07081856835973 0.0 0.0
-110.81419084096619 -6.318992057882211 -35.140505885112574 151.6000328047327 0.0 0.0
-58.40057168732023 -72.08810187302767 -39.146602068104364 118.23751506794594 0.0 0.0
-50.339608820094426 -154.22337612722293 -61.368895484195214 72.21685240695022 0.0 0.0
-42.1475834424089 -102.25320166419286 -43.32023553198052 -59.482386877182066 0.0 0.0
-66.35610514053738 -61.13654744720489 -38.24779577632267 -101.84578765434406 0.0 0.0
-127.58445845640428 -5.814353900890245 -40.02028899347559 -135.8124195099463 0.0 0.0
-201.5248348334752 10.283089443193564 -57.370658501657815 -136.910743739265 0.0 0.0
-280.9493877405122 13.084391610500639 -80.2927282281494 -128.7514382476109 0.0 0.0
-391.86400404356596 6.3917221659103465 -118.47720151635154 -119.13698014523833 0.0 0.0
-503.35863564736616 -20.03086938634216 -187.80089633824173 -106.07143647298349 0.0 0.0
-600.8400293677373 -35.3460730691704 -268.74167589891846 -103.91313226410608 0.0 0.0
-667.0960961077345 -46.78246627458637 -334.00242614913054 -101.72682977695533 0.0 0.0
-727.4735634874455 -55.96547967539516 -381.3069456696162 -101.1924896461212 0.0 0.0
-782.1538227118745 -69.62704082281438 -420.395719341693 -99.60835307191337 0.0 0.0
-836.6917698105291 -87.9649553153475 -458.49279434781715 -97.12349153353037 0.0 0.0
-892.2000135831631 -110.38613842229387 -497.99976612747764 -94.16174694485738 0.0 0.0
-946.9581904886062 -133.88772962432918 -537.2508956501894 -91.26390780758527 0.0 0.0
-998.1314382026726 -155.60772503302115 -573.7575521658772 -88.92462036850004 0.0 0.0
-1035.9698327869337 -165.92060533704657 -598.0525077501946 -88.36710899636728 0.0 0.0
-1044.2849350096 -149.1544214195484 -594.1830934834238 -91.26982460733755 0.0 0.0
-1006.8100920513668 -94.03410596972566 -548.4901933474994 -96.73293139022489 0.0 0.0
-915.4325054669974 4.500279076808624 -454.793974696584 -101.9891824219412 0.0 0.0
-758.2426287545028 151.63472239584755 -305.3577336806911 -108.66607768849128 0.0 0.0
-2716.8104575003726 -1883.6188679193956 -2277.4835172626713 9.15072462248645e-11 0.0 0.0
-758.2426287546187 151.63472239570126 -305.35773368079765 108.66607768861252 0.0 0.0
-915.4325054667934 4.500279076909905 -454.7939746964719 101.989182422043 0.0 0.0
-1006.8100920505085 -94.03410596897062 -548.4901933468726 96.73293139040767 0.0 0.0
-1044.2849350098747 -149.1544214199152 -594.183093483705 91.26982460734233 0.0 0.0
-1035.969832786999 -165.92060533730054 -598.0525077502506 88.36710899648085 0.0 0.0
-998.1314382024789 -155.60772503293617 -573.7575521657791 88.92462036859389 0.0 0.0
-946.9581904882535 -133.8877296241123 -537.2508956498609 91.26390780748041 0.0 0.0
-892.2000135836174 -110.38613842295827 -497.9997661278301 94.1617469448705 0.0 0.0
-836.6917698100602 -87.96495531507674 -458.4927943475254 97.12349153352105 0.0 0.0
-782.1538227119497 -69.62704082314315 -420.395719341774 99.6083530718682 0.0 0.0
-727.4735634869237 -55.9654796750949 -381.30694566922114 101.19248964604816 0.0 0.0
-667.0960961076685 -46.78246627488234 -334.00242614898025 101.72682977697879 0.0 0.0
-600.8400293674406 -35.34607306924839 -268.7416758985487 103.91313226407195 0.0 0.0
-503.35863564682717 -20.030869386109195 -187.80089633779772 106.07143647285169 0.0 0.0
-391.86400404291066 6.391722166338156 -118.477201515991 119.13698014511897 0.0 0.0
-280.9493877404577 13.08439160985417 -80.29272822834666 128.75143824744472 0.0 0.0
-201.52483483318687 10.28308944352614 -57.37065850147383 136.91074373913307 0.0 0.0
-127.58445845640814 -5.814353901106847 -40.020288993541335 135.81241950983738 0.0 0.0
-66.35610514046374 -61.136547447211186 -38.247795776302475 101.84578765428986 0.0 0.0
-42.147583442299876 -102.2532016640243 -43.320235531897254 59.48238687711928 0.0 0.0
-36.8696682274632 -62.06015719810861 -29.678947627671533 -46.578444236726625 0.0 0.0
-72.59501054467299 -49.0418416491153 -36.49105565813649 -83.75213252877353 0.0 0.0
-143.3693602631844 -4.695478636067939 -44.419901289457705 -116.22847652336577 0.0 0.0
-231.6052186391349 7.910386384543166 -67.11424854512919 -117.43396308408137 0.0 0.0
-332.98685202860474 9.377306600957477 -96.55574563208026 -107.68545685975148 0.0 0.0
-449.3636833518031 -7.61303347107483 -148.46690864770304 -89.47070736375763 0.0 0.0
-565.1483168542222 -27.713496030846972 -227.7270320460451 -82.96358734185453 0.0 0.0
-645.4760776320742 -43.46435781111852 -308.0520551512792 -82.09702741856547 0.0 0.0
-712.685875795612 -53.96875377622798 -367.8636930847031 -82.42274060674053 0.0 0.0
-772.4752785824253 -67.47314765345983 -413.5175674059169 -82.41043297052059 0.0 0.0
-830.4345410890635 -85.1768535829609 -454.3059207508152 -81.51344261425751 0.0 0.0
-889.0643129790105 -107.61253811737353 -495.7510721832956 -79.62900796232897 0.0 0.0
-948.7664932290195 -133.7275861285107 -538.9159674853099 -77.23751339691134 0.0 0.0
-1007.3805865932256 -161.74382929087403 -582.2341167007436 -74.82734608334776 0.0 0.0
-1062.9513810987523 -186.9398496887773 -622.576248929249 -72.65795294000623 0.0 0.0
-1106.6476359626618 -201.67978461695105 -651.9119616674493 -71.26450689824925 0.0 0.0
-1116.5727235670183 -186.05139512334245 -649.4924025708933 -72.3063187380615 0.0 0.0
-1066.3305272400705 -116.29482583424357 -590.2127093882343 -76.83042296542104 0.0 0.0
-949.3275247521528 9.162095623021898 -470.00125736117457 -83.42023382167902 0.0 0.0
-767.0242139970293 180.64825538130498 -294.674447600282 -94.28394112685399 0.0 0.0
-2984.779982433432 -2101.7977809618496 -2524.5583399074153 8.15951750610111e-11 0.0 0.0
-767.0242139967954 180.648255381482 -294.67444760009187 94.28394112693209 0.0 0.0
-949.3275247520619 9.162095623031448 -470.0012573611664 83.42023382182386 0.0 0.0
-1066.3305272401421 -116.29482583447088 -590.2127093882585 76.83042296570129 0.0 0.0
-1116.57272356694 -186.05139512332926 -649.492402570805 72.30631873806395 0.0 0.0
-1106.6476359635806 -201.67978461804216 -651.9119616680349 71.26450689838582 0.0 0.0
-1062.9513810983572 -186.9398496885198 -622.5762489288876 72.65795294003301 0.0 0.0
-1007.3805865924866 -161.74382929023156 -582.2341167001097 74.82734608322754 0.0 0.0
-948.7664932289988 -133.72758612870228 -538.9159674853339 77.23751339693197 0.0 0.0
-889.064312978516 -107.61253811706534 -495.7510721829203 79.6290079622746 0.0 0.0
-830.4345410886713 -85.17685358277679 -454.30592075056745 81.51344261417094 0.0 0.0
-772.4752785819566 -67.47314765327904 -413.51756740558443 82.41043297054364 0.0 0.0
-712.6858757952381 -53.968753776165094 -367.8636930843985 82.42274060680532 0.0 0.0
-645.4760776314124 -43.4643578107153 -308.05205515069935 82.09702741847352 0.0 0.0
-565.148316853766 -27.713496030815367 -227.7270320456245 82.96358734181463 0.0 0.0
-449.36368335127685 -7.613033470921678 -148.46690864740376 89.47070736369355 0.0 0.0
-332.98685202805655 9.377306601133284 -96.55574563189072 107.68545685969336 0.0 0.0
-231.6052186388476 7.91038638472087 -67.11424854498912 117.43396308394564 0.0 0.0
-143.36936026307635 -4.695478636134063 -44.41990128944511 116.22847652319987 0.0 0.0
-72.5950105445926 -49.04184164909864 -36.49105565810736 83.75213252869449 0.0 0.0
-36.86966822739877 -62.06015719801058 -29.678947627622797 46.57844423677532 0.0 0.0
-33.840412516958324 -33.48659645381036 -20.198102691230602 -33.80852199786577 0.0 0.0
-76.86389384048171 -36.771660888962266 -34.090666418833194 -64.1673137578097 0.0 0.0
-157.9177383785948 -3.222073983382308 -48.34194370859313 -92.76977470793125 0.0 0.0
-260.94517544427777 4.9735459806586535 -76.78293741829633 -93.68122755960799 0.0 0.0
-382.94429758232667 2.4413971051777663 -114.42360495154843 -81.20351350698624 0.0 0.0
-507.7633830662695 -16.986572634853708 -178.99211136282116 -64.6141865421421 0.0 0.0
-608.0812135571686 -35.417273375694 -264.1474619021735 -61.486421922458284 0.0 0.0
-682.905060072067 -47.86183958944144 -338.6126659817072 -61.77064318722412 0.0 0.0
-749.8399296540405 -62.14493561603184 -395.7249231480772 -62.64031591212575 0.0 0.0
-811.9909282578902 -79.1081369904454 -441.3773212700171 -63.13247714816803 0.0 0.0
-873.3402618588428 -100.83288451179905 -484.7556391052143 -62.69904597897624 0.0 0.0
-936.3074473788879 -127.3769067967485 -530.0176306112951 -61.35445523503094 0.0 0.0
-999.9916528886151 -158.0056378096293 -577.2978601908104 -59.49735636175851 0.0 0.0
-1062.0863901975947 -187.67770279651882 -623.1361899756104 -57.78572339117788 0.0 0.0
-1119.3718150240747 -214.904665509752 -665.3094432285693 -56.032928024745225 0.0 0.0
-1167.1284415529983 -233.97530497341853 -698.7396469374098 -54.01043999388929 0.0 0.0
-1185.3959762852219 -225.28448941420515 -703.8971137783126 -52.93631233258562 0.0 0.0
-1130.8486493813657 -149.68046936171456 -639.6425686971442 -55.99291647497886 0.0 0.0
-985.4340140824936 5.355647491446263 -490.31443405768886 -64.86715056814549 0.0 0.0
-763.7452220168734 216.68975385967028 -274.4952759181088 -80.97058405008667 0.0 0.0
-3219.6466404553216 -2295.239753979155 -2742.038195231159 4.4003911625623005e-11 0.0 0.0
-763.7452220152666 216.6897538612649 -274.4952759169445 80.97058405006051 0.0 0.0
-985.4340140828215 5.355647491033565 -490.31443405794596 64.86715056830141 0.0 0.0
-1130.848649381132 -149.68046936157305 -639.6425686969432 55.99291647507292 0.0 0.0
-1185.3959762854067 -225.28448941449426 -703.8971137784594 52.93631233263712 0.0 0.0
-1167.1284415525736 -233.97530497314406 -698.7396469370152 54.0104399939408 0.0 0.0
-1119.3718150231896 -214.90466550898924 -665.3094432279593 56.03292802477931 0.0 0.0
-1062.0863901974503 -187.67770279654152 -623.136189975425 57.78572339119516 0.0 0.0
-999.9916528886555 -158.00563780986033 -577.2978601908658 59.497356361804165 0.0 0.0
-936.3074473780086 -127.3769067960803 -530.0176306106407 61.35445523503248 0.0 0.0
-873.3402618589653 -100.83288451215442 -484.75563910530286 62.69904597895304 0.0 0.0
-811.9909282577876 -79.10813699063154 -441.3773212699362 63.132477148202696 0.0 0.0
-749.8399296537583 -62.14493561603481 -395.7249231478284 62.640315912114175 0.0 0.0
-682.9050600716079 -47.86183958926544 -338.6126659812742 61.770643187199894 0.0 0.0
-608.0812135562807 -35.41727337506828 -264.14746190145166 61.486421922343595 0.0 0.0
-507.7633830660149 -16.98657263508835 -178.99211136264194 64.61418654213753 0.0 0.0
-382.94429758161914 2.4413971056462027 -114.42360495120494 81.20351350699795 0.0 0.0
-260.9451754441033 4.973545980614425 -76.78293741825686 93.68122755952608 0.0 0.0
-157.91773837839952 -3.2220739832576903 -48.34194370849717 92.76977470778192 0.0 0.0
-76.86389384038361 -36.771660888911626 -34.09066641878857 64.16731375771177 0.0 0.0
-33.84041251688248 -33.486596453771924 -20.198102691196322 33.80852199787099 0.0 0.0
-31.90291952047268 -16.23401862973466 -14.441081445062197 -21.899905160505806 0.0 0.0
-78.37972181777187 -25.342753127481412 -31.11674248357598 -43.36963032998893 0.0 0.0
-170.80081502550917 -1.931891466820748 -51.819811947698966 -64.99592175216316 0.0 0.0
-290.39936903606446 1.5020362508165457 -86.62894636544344 -65.23791120621279 0.0 0.0
-428.604264797896 -8.557664967903346 -135.05032207997795 -51.70840280908623 0.0 0.0
-555.01547150602 -25.418762003026245 -209.87547074419805 -41.49344301829307 0.0 0.0
-638.4823727373274 -40.40641011340557 -293.94444877784525 -40.60972967759046 0.0 0.0
-714.4536407917471 -53.549798183442775 -364.6028501004806 -41.79227215881272 0.0 0.0
-781.9900891138248 -70.85339676225871 -419.49437582465634 -42.696968228736665 0.0 0.0
-846.8179523048856 -91.04447333841405 -466.1386825181711 -43.272665247993515 0.0 0.0
-912.2675409081024 -116.56222560472523 -512.8038643885022 -43.16787822264408 0.0 0.0
-979.1541402594263 -147.30212234351472 -561.9243838810344 -42.30633948926443 0.0 0.0
-1047.1574851327466 -180.7024800351224 -612.6695157527904 -41.16143510406469 0.0 0.0
-1112.030270810682 -214.05869060066206 -661.7352847293167 -40.004860899346625 0.0 0.0
-1170.1196862635632 -241.3811005003626 -704.3736188152097 -38.80187194685906 0.0 0.0
-1215.7392682222621 -257.9353946096487 -735.4172780328281 -36.972845781140094 0.0 0.0
-1242.1358328248264 -257.5709032148253 -748.5763395981814 -34.459159610757006 0.0 0.0
-1215.2698534828842 -208.56565627882063 -711.3665828341784 -34.62627668006087 0.0 0.0
-1043.6270914809757 -24.989204907827855 -534.8172434812179 -44.54127071030614 0.0 0.0
-738.6541955449766 271.44177547371925 -234.28089965404533 -67.53814029923893 0.0 0.0
-3406.8585197475286 -2445.8814982923627 -2913.8125180980214 -2.3213431177282473e-11 0.0 0.0
-738.6541955442452 271.4417754744416 -234.2808996536031 67.53814029924808 0.0 0.0
-1043.6270914805866 -24.989204907501943 -534.8172434809369 44.541270710398344 0.0 0.0
-1215.269853481523 -208.5656562775453 -711.3665828331913 34.62627668008972 0.0 0.0
-1242.13583282561 -257.57090321571695 -748.5763395987296 34.459159610945385 0.0 0.0
-1215.7392682212321 -257.9353946087314 -735.4172780320159 36.97284578115525 0.0 0.0
-1170.1196862634238 -241.3811005003378 -704.3736188151025 38.801871946849374 0.0 0.0
-1112.0302708107006 -214.05869060084876 -661.7352847292406 40.00486089933118 0.0 0.0
-1047.1574851331143 -180.70248003569665 -612.669515753085 41.161435104061255 0.0 0.0
-979.1541402584513 -147.30212234274623 -561.9243838803413 42.306339489252856 0.0 0.0
-912.2675409084303 -116.56222560532905 -512.8038643887278 43.16787822270692 0.0 0.0
-846.8179523044563 -91.04447333823445 -466.13868251784874 43.272665247980484 0.0 0.0
-781.990089113495 -70.85339676218061 -419.4943758243753 42.69696822864946 0.0 0.0
-714.4536407915901 -53.549798183595186 -364.6028501002427 41.7922721587798 0.0 0.0
-638.4823727365147 -40.40641011285551 -293.9444487771736 40.609729677534794 0.0 0.0
-555.0154715054991 -25.418762002837745 -209.87547074377136 41.49344301824005 0.0 0.0
-428.6042647973288 -8.55766496777132 -135.05032207976075 51.70840280903054 0.0 0.0
-290.3993690358693 1.5020362507434983 -86.62894636540425 65.23791120620311 0.0 0.0
-170.80081502529842 -1.9318914666719331 -51.81981194759109 64.99592175207549 0.0 0.0
-78.37972181775298 -25.342753127549734 -31.116742483590816 43.369630329949445 0.0 0.0
-31.902919520424554 -16.23401862971056 -14.441081445040533 21.89990516044789 0.0 0.0
-28.872944173113854 -9.361938965917828 -11.470464941709503 -12.470749937627971 0.0 0.0
-75.69924827002109 -16.263959099126374 -27.588962210744228 -21.715694993948198 0.0 0.0
-181.32014503463267 -1.6281139449433781 -54.8844776938728 -31.77184294117093 0.0 0.0
-321.24620424590563 -1.9282174566533716 -96.90887240265207 -31.517446374853833 0.0 0.0
-477.07804744051793 -16.644940193898677 -156.9753556168665 -23.13179345537155 0.0 0.0
-588.8320342504818 -32.20843640245386 -238.86120198336243 -20.574276022192365 0.0 0.0
-666.432294617417 -42.29216802039868 -318.0959804410765 -21.520036454119712 0.0 0.0
-741.0962126013644 -59.96140788398585 -386.52101341278274 -22.21258039948485 0.0 0.0
-810.1195538204078 -79.59709124891776 -440.05232878108563 -22.569570057722753 0.0 0.0
-877.998645411555 -103.47895296897315 -488.81602322516176 -22.86234753452215 0.0 0.0
-947.2998470661771 -132.65026167693895 -538.8474141128822 -22.858474325071395 0.0 0.0
-1018.4658684263326 -166.36674958649064 -591.4912414857845 -22.582313572974847 0.0 0.0
-1089.7875430919687 -203.8855280717073 -645.9168515425423 -22.051963696713887 0.0 0.0
-1158.2519859359636 -239.44648516397663 -697.8715442087382 -21.51000657197417 0.0 0.0
-1216.3832981113587 -266.4548160627747 -740.3932965403297 -20.904335999104664 0.0 0.0
-1257.596732090205 -278.6380026942296 -767.0755515018762 -19.75692464558458 0.0 0.0
-1278.921313054885 -273.81589455463234 -775.3453628838199 -17.55298093290299 0.0 0.0
-1284.278916803837 -257.1642998657952 -769.8933608268028 -15.303746885649362 0.0 0.0
-1204.5502071784795 -162.77778549654352 -683.7975835765636 -20.925994463334547 0.0 0.0
-725.3503840484547 313.2441936134939 -206.72245307978594 -48.870219222314674 0.0 0.0
-3404.7948922230116 -2408.455668666504 -2897.2130595129 -2.8670399387920042e-12 0.0 0.0
-725.3503840479101 313.2441936139977 -206.7224530793689 48.87021922238394 0.0 0.0
-1204.5502071783026 -162.7777854964237 -683.7975835764871 20.925994463392684 0.0 0.0
-1284.2789168037473 -257.1642998657522 -769.8933608267929 15.303746885533256 0.0 0.0
-1278.9213130545927 -273.8158945544654 -775.3453628836784 17.552980932978247 0.0 0.0
-1257.5967320901384 -278.63800269428435 -767.0755515017399 19.75692464558687 0.0 0.0
-1216.383298110877 -266.4548160624412 -740.3932965399241 20.904335999136755 0.0 0.0
-1158.251985935408 -239.44648516359274 -697.8715442082239 21.510006571998005 0.0 0.0
-1089.787543091621 -203.8855280715554 -645.9168515423397 22.0519636967771 0.0 0.0
-1018.465868425234 -166.3667495856006 -591.4912414850393 22.582313572987232 0.0 0.0
-947.299847066432 -132.65026167742664 -538.8474141130448 22.858474325084693 0.0 0.0
-877.9986454106374 -103.47895296828962 -488.8160232244887 22.862347534395848 0.0 0.0
-810.1195538201807 -79.59709124896612 -440.05232878089237 22.569570057730648 0.0 0.0
-741.0962126014952 -59.96140788443272 -386.52101341277347 22.212580399458616 0.0 0.0
-666.4322946168438 -42.29216802012671 -318.09598044055184 21.52003645411088 0.0 0.0
-588.8320342499557 -32.208436402246 -238.86120198291397 20.57427602218661 0.0 0.0
-477.0780474400422 -16.644940193836312 -156.97535561663102 23.131793455358206 0.0 0.0
-321.24620424564006 -1.9282174567823611 -96.90887240262656 31.517446374943574 0.0 0.0
-181.32014503450083 -1.6281139449553217 -54.88447769383685 31.771842941136857 0.0 0.0
-75.69924827001495 -16.263959099207185 -27.588962210766635 21.715694993914298 0.0 0.0
-28.872944173099455 -9.361938965892183 -11.47046494169749 12.470749937642344 0.0 0.0
-17.944527264753773 -4.57894888283623 -6.7570428442770005 -7.823317391741746 0.0 0.0
-65.02543898721495 -9.099360573267331 -22.237439868144683 -9.01352309600231 0.0 0.0
-188.25508147089866 -2.8468652156544287 -57.330584005965896 -10.822964653173637 0.0 0.0
-359.88732992384143 -13.492009905603052 -112.07699076601368 -9.529116796211785 0.0 0.0
-537.790338614012 -49.20005585981971 -192.94623133823774 -2.3697426783108746 0.0 0.0
-661.1024841714781 -86.62806108765895 -296.92271946481685 0.3704558724033866 0.0 0.0
-759.2667321987894 -120.54586978437382 -397.53598310433483 0.5992950984932115 0.0 0.0
-862.9094267322174 -168.93495153555756 -493.91884422815514 -0.38738354531989927 0.0 0.0
-970.1573785188953 -227.76952329115684 -585.252583199128 -1.6355464626186738 0.0 0.0
-1089.9578565475485 -303.3759133674224 -685.4505295538927 -2.971563377333217 0.0 0.0
-1227.1761697233208 -399.83758827323 -802.7908679281377 -4.288255020704117 0.0 0.0
-1382.13021217165 -517.8838803487588 -939.0986378456033 -5.450734384986099 0.0 0.0
-1550.6972981734193 -651.4172480787295 -1089.679017713042 -6.231709641576268 0.0 0.0
-1725.8254990861328 -793.2750855599137 -1247.6988531558136 -6.953823370674785 0.0 0.0
-1894.2752626301635 -930.2519094226632 -1400.006580582213 -7.45368512983606 0.0 0.0
-2037.1957435689774 -1044.0037887831738 -1528.0912489918971 -7.502078820391706 0.0 0.0
-2131.0364135848895 -1112.1070398179982 -1609.1007823866794 -6.687860417389693 0.0 0.0
-2152.7376436354416 -1112.6908511143924 -1620.4318738069665 -4.60656511378642 0.0 0.0
-2150.523034209667 -1095.011715536887 -1609.7605169278095 -7.552473763924359 0.0 0.0
-2120.9674727380398 -1062.9698340942225 -1575.6412306017519 -37.158803091946965 0.0 0.0
-5284.337592022175 -4259.963796013734 -4745.409999060581 3.510081114654895e-12 0.0 0.0
-2120.967472736351 -1062.969834092551 -1575.6412306002878 37.15880309192381 0.0 0.0
-2150.5230342090554 -1095.0117155363178 -1609.7605169273702 7.552473763939599 0.0 0.0
-2152.7376436362656 -1112.6908511153194 -1620.4318738074599 4.606565113668097 0.0 0.0
-2131.036413582475 -1112.1070398156546 -1609.100782384978 6.687860417389814 0.0 0.0
-2037.195743568051 -1044.0037887823703 -1528.0912489910415 7.502078820303989 0.0 0.0
-1894.2752626284778 -930.2519094210988 -1400.0065805808886 7.453685129833708 0.0 0.0
-1725.825499084485 -793.2750855584216 -1247.6988531544303 6.953823370500054 0.0 0.0
-1550.6972981720885 -651.4172480775896 -1089.6790177119894 6.231709641583858 0.0 0.0
-1382.1302121698627 -517.8838803471676 -939.0986378442226 5.45073438499551 0.0 0.0
-1227.1761697237334 -399.8375882739186 -802.7908679282434 4.288255020680516 0.0 0.0
-1089.9578565462116 -303.37591336633335 -685.4505295528322 2.971563377309508 0.0 0.0
-970.1573785180391 -227.7695232905557 -585.2525831984558 1.635546462733874 0.0 0.0
-862.9094267323278 -168.93495153599764 -493.9188442281019 0.3873835453764727 0.0 0.0
-759.2667321980266 -120.54586978391218 -397.5359831036584 -0.5992950984190024 0.0 0.0
-661.1024841711564 -86.62806108768352 -296.922719464415 -0.370455872296489 0.0 0.0
-537.790338613416 -49.20005585952776 -192.94623133784296 2.3697426783275333 0.0 0.0
-359.88732992349344 -13.492009905531887 -112.0769907658892 9.529116796369639 0.0 0.0
-188.25508147081905 -2.846865215735793 -57.33058400596646 10.822964653200877 0.0 0.0
-65.02543898716264 -9.099360573297838 -22.23743986813814 9.013523095902212 0.0 0.0
-17.9445272646657 -4.578948882782275 -6.757042844234394 7.823317391740296 0.0 0.0
SCALARS Strain float 6
LOOKUP_TABLE default
0.012235448575546592 -0.02093711412417419 0.0 -0.0008792658150313653 0.0 0.0
0.00751708496307793 -0.00180818318884678 0.0 -0.006435347302500349 0.0 0.0
0.002326287351207724 -0.0006125242773098602 0.0 -0.0006617008971355619 0.0 0.0
0.002063529327564726 -0.0008270440849490605 0.0 -3.0359649014885595e-05 0.0 0.0
0.002807211731925112 -0.0011543818548780318 0.0 9.405737862053043e-05 0.0 0.0
0.004389867550739458 -0.002296115556911468 0.0 0.00019610774087927676 0.0 0.0
0.0070655007493691125 -0.004503176033111532 0.0 0.0002606505176183674 0.0 0.0
0.010983994409546696 -0.00793358313889626 0.0 0.00028565982031547945 0.0 0.0
0.01628332084380305 -0.01271880833759799 0.0 0.00027883343015690465 0.0 0.0
0.023027817714725465 -0.018869651878170385 0.0 0.0002269158489436342 0.0 0.0
0.03124026487152317 -0.026376075034366363 0.0 0.00017065790832002082 0.0 0.0
0.04094780477898442 -0.03526195527435224 0.0 0.00010553356042298373 0.0 0.0
0.05217499428181728 -0.04558161033468848 0.0 -2.5707879250475192e-05 0.0 0.0
0.06493625465966056 -0.0573820920804803 0.0 -0.00017500717321724851 0.0 0.0
0.07915972851257772 -0.07064045449158766 0.0 -0.00039448323097314637 0.0 0.0
0.09452789957124016 -0.08509134566317045 0.0 -0.0006959526829102235 0.0 0.0
0.11035956441111391 -0.10010145537756604 0.0 -0.001029334377186033 0.0 0.0
0.12558404767259002 -0.11464920397586653 0.0 -0.0012641664226887778 0.0 0.0
0.13885132060931368 -0.12740837442483746 0.0 -0.001228172247608204 0.0 0.0
0.1485954587175851 -0.13687341633155167 0.0 -0.0012434028555893583 0.0 0.0
0.15237568343057692 -0.14069281909069062 0.0 1.966309060019711e-15 0.0 0.0
0.1485954587175675 -0.1368734163315366 0.0 0.00124340285559809 0.0 0.0
0.1388513206092769 -0.12740837442480915 0.0 0.0012281722476154147 0.0 0.0
0.12558404767253592 -0.11464920397581638 0.0 0.0012641664226913313 0.0 0.0
0.11035956441105094 -0.10010145537751336 0.0 0.0010293343771842628 0.0 0.0
0.09452789957117623 -0.08509134566310961 0.0 0.0006959526829073606 0.0 0.0
0.07915972851251359 -0.0706404544915216 0.0 0.00039448323097350003 0.0 0.0
0.06493625465959475 -0.057382092080413574 0.0 0.00017500717321616843 0.0 0.0
0.052174994281752374 -0.04558161033462824 0.0 2.5707879248937793e-05 0.0 0.0
0.04094780477892398 -0.03526195527429551 0.0 -0.00010553356042644494 0.0 0.0
0.031240264871470837 -0.026376075034318214 0.0 -0.00017065790832093675 0.0 0.0
0.02302781771468363 -0.018869651878136676 0.0 -0.00022691584894793805 0.0 0.0
0.01628332084377057 -0.012718808337565602 0.0 -0.0002788334301579246 0.0 0.0
0.010983994409522815 -0.007933583138877065 0.0 -0.00028565982031657623 0.0 0.0
0.0070655007493535486 -0.0045031760330987445 0.0 -0.0002606505176170142 0.0 0.0
0.004389867550730965 -0.002296115556903604 0.0 -0.00019610774087754133 0.0 0.0
0.0028072117319213516 -0.0011543818548776824 0.0 -9.405737861947e-05 0.0 0.0
0.0020635293275636166 -0.00082704408494948 0.0 3.0359649014722483e-05 0.0 0.0
0.0023262873512062137 -0.00061252427730966 0.0 0.0006617008971340775 0.0 0.0
0.007517084963072591 -0.0018081831888434705 0.0 0.006435347302490289 0.0 0.0
0.012235448575538495 -0.020937114124150554 0.0 0.0008792658149898554 0.0 0.0
0.008366720852105053 -0.01868623842879771 0.0 -0.0004143431336301989 0.0 0.0
0.004936812320911221 -0.001336855159623734 0.0 -0.0051076026759294445 0.0 0.0
0.0015830752814126915 -0.0004886050571717111 0.0 -0.00043389001990487173 0.0 0.0
0.001839861612958967 -0.000782682148333951 0.0 -0.00020777498882452517 0.0 0.0
0.0024490111503216645 -0.0010537124316287929 0.0 -0.00016195741968778128 0.0 0.0
0.0037936340445259313 -0.002059818812076056 0.0 -0.00019865239361567424 0.0 0.0
0.0061748269677081805 -0.004110880340331788 0.0 -0.0004028352149017129 0.0 0.0
0.00972945442175063 -0.007352525018694987 0.0 -0.0006959755986733732 0.0 0.0
0.014560893425034836 -0.011902217478566493 0.0 -0.0010908041082668275 0.0 0.0
0.020692971220078727 -0.01775201146714413 0.0 -0.0015667086673290965 0.0 0.0
0.028114956247929222 -0.02487453249253243 0.0 -0.0020711332913632896 0.0 0.0
0.03683902345313111 -0.03328127414051676 0.0 -0.0025777120721198477 0.0 0.0
0.04692239676872697 -0.043035912988672126 0.0 -0.0031323936048109134 0.0 0.0
0.05841246697085627 -0.05420860001546659 0.0 -0.003754136269924545 0.0 0.0
0.07125805966546263 -0.06678249199616308 0.0 -0.004434419104359983 0.0 0.0
0.08518710902794142 -0.08051467896872035 0.0 -0.005131263834098804 0.0 0.0
0.09959153282412474 -0.0948151526403196 0.0 -0.005673587291832168 0.0 0.0
0.11351267491707286 -0.10872147122628148 0.0 -0.0057620412183065186 0.0 0.0
0.12567683731587184 -0.12095780995743252 0.0 -0.00513898271323478 0.0 0.0
0.1343933018063508 -0.1299407538868429 0.0 -0.004039056681016903 0.0 0.0
0.13764471944586065 -0.13360784526754615 0.0 5.590146401335261e-15 0.0 0.0
0.1343933018063336 -0.12994075388682366 0.0 0.0040390566810327615 0.0 0.0
0.12567683731583898 -0.12095780995740435 0.0 0.005138982713251757 0.0 0.0
0.11351267491702591 -0.1087214712262327 0.0 0.005762041218312923 0.0 0.0
0.09959153282406989 -0.0948151526402716 0.0 0.005673587291833829 0.0 0.0
0.08518710902788436 -0.08051467896866663 0.0 0.005131263834096577 0.0 0.0
0.0712580596654046 -0.06678249199610299 0.0 0.004434419104360085 0.0 0.0
0.05841246697079748 -0.054208600015407754 0.0 0.0037541362699216123 0.0 0.0
0.046922396768668724 -0.04303591298861349 0.0 0.0031323936048074904 0.0 0.0
0.03683902345307686 -0.033281274140466416 0.0 0.0025777120721143703 0.0 0.0
0.02811495624788199 -0.024874532492486227 0.0 0.0020711332913591366 0.0 0.0
0.020692971220040192 -0.01775201146710988 0.0 0.0015667086673245064 0.0 0.0
0.014560893425005349 -0.011902217478536703 0.0 0.0010908041082648614 0.0 0.0
0.009729454421729539 -0.007352525018675974 0.0 0.0006959755986704122 0.0 0.0
0.006174826967694655 -0.00411088034031899 0.0 0.00040283521490059405 0.0 0.0
0.0037936340445188085 -0.002059818812069354 0.0 0.00019865239361578665 0.0 0.0
0.002449011150318735 -0.001053712431628838 0.0 0.00016195741968723918 0.0 0.0
0.0018398616129578975 -0.0007826821483336775 0.0 0.00020777498882436352 0.0 0.0
0.0015830752814123003 -0.0004886050571723417 0.0 0.0004338900199037472 0.0 0.0
0.004936812320905012 -0.0013368551596202034 0.0 0.005107602675918244 0.0 0.0
0.008366720852092712 -0.01868623842877351 0.0 0.00041434313359875387 0.0 0.0
0.006050233602735277 -0.014785263358675423 0.0 -0.0030942689466291846 0.0 0.0
0.003462159314163028 -0.0007242335841671152 0.0 -0.00500383014585268 0.0 0.0
0.0011156497020360565 -0.00028523167848404227 0.0 -0.0004152709403721805 0.0 0.0
0.0015718065599640918 -0.0006743258450247776 0.0 -0.00047827485549615015 0.0 0.0
0.0021241911388176662 -0.0008832623610873689 0.0 -0.0004712910663851581 0.0 0.0
0.00322579518319781 -0.0016187764314236038 0.0 -0.0005156862059403609 0.0 0.0
0.00528952305636916 -0.003337262065494116 0.0 -0.0008967326728684219 0.0 0.0
0.008463957768643776 -0.006196760141612927 0.0 -0.0014772284637075458 0.0 0.0
0.01280551980670436 -0.010261708783308003 0.0 -0.002250576049906993 0.0 0.0
0.018310593643145363 -0.015502398899824948 0.0 -0.0031655422461248843 0.0 0.0
0.02494062573912889 -0.021854908978350754 0.0 -0.004139866461252836 0.0 0.0
0.032693013289869434 -0.029310853254945562 0.0 -0.005107286897866225 0.0 0.0
0.041628744291363845 -0.03793935794525122 0.0 -0.00608968848495824 0.0 0.0
0.05183002664436293 -0.04784500152915416 0.0 -0.0071800909564648735 0.0 0.0
0.0632799127025106 -0.059039758825448915 0.0 -0.008390181301540223 0.0 0.0
0.07575300812214052 -0.07132593940352791 0.0 -0.009600344157016893 0.0 0.0
0.08874054526856912 -0.08420651631912897 0.0 -0.010514930756209698 0.0 0.0
0.10139548633765429 -0.09684229256078208 0.0 -0.0106626904570351 0.0 0.0
0.11248970694055814 -0.10803834068773764 0.0 -0.009638631731355646 0.0 0.0
0.12047434087540816 -0.11620266704697563 0.0 -0.007331122685276323 0.0 0.0
0.12348130458224349 -0.1197241003327133 0.0 9.996344030316351e-15 0.0 0.0
0.12047434087539247 -0.11620266704695523 0.0 0.007331122685302252 0.0 0.0
0.11248970694052847 -0.10803834068771126 0.0 0.009638631731384337 0.0 0.0
0.1013954863376135 -0.09684229256073883 0.0 0.010662690457048995 0.0 0.0
0.08874054526852157 -0.08420651631908281 0.0 0.010514930756211203 0.0 0.0
0.07575300812208952 -0.07132593940348346 0.0 0.009600344157013026 0.0 0.0
0.06327991270245843 -0.05903975882539493 0.0 0.008390181301539162 0.0 0.0
0.051830026644310336 -0.04784500152910612 0.0 0.007180090956462212 0.0 0.0
0.041628744291312456 -0.037939357945199675 0.0 0.006089688484951722 0.0 0.0
0.03269301328982146 -0.02931085325490159 0.0 0.0051072868978570924 0.0 0.0
0.02494062573908693 -0.021854908978309398 0.0 0.004139866461244271 0.0 0.0
0.018310593643110943 -0.015502398899793227 0.0 0.003165542246117415 0.0 0.0
0.012805519806677601 -0.010261708783281484 0.0 0.002250576049901795 0.0 0.0
0.008463957768624823 -0.006196760141596872 0.0 0.0014772284637027478 0.0 0.0
0.005289523056357505 -0.003337262065484105 0.0 0.0008967326728657379 0.0 0.0
0.003225795183191764 -0.0016187764314187034 0.0 0.0005156862059391993 0.0 0.0
0.002124191138815297 -0.000883262361087185 0.0 0.00047129106638442984 0.0 0.0
0.0015718065599637 -0.0006743258450247345 0.0 0.00047827485549618387 0.0 0.0
0.0011156497020361725 -0.0002852316784848935 0.0 0.00041527094037029316 0.0 0.0
0.003462159314157 -0.0007242335841639434 0.0 0.00500383014583953 0.0 0.0
0.006050233602723117 -0.014785263358651698 0.0 0.003094268946608947 0.0 0.0
0.004515167195184984 -0.011844450604968798 0.0 -0.0035115485071797164 0.0 0.0
0.002525662404109197 -0.0005285358331232286 0.0 -0.004568052983884834 0.0 0.0
0.000799464347670597 -0.00016169629454845273 0.0 -0.0007049738625524464 0.0 0.0
0.0013040384379947286 -0.0005423843206393792 0.0 -0.0007395930195068944 0.0 0.0
0.0018223940854204556 -0.0007531554383277546 0.0 -0.0007850189121026142 0.0 0.0
0.0027041314421584937 -0.0012592302521793422 0.0 -0.0008183635221237416 0.0 0.0
0.0044265913969312965 -0.0026050987197879746 0.0 -0.001227900362451138 0.0 0.0
0.007196541638878616 -0.005057505382714071 0.0 -0.0020501059957961157 0.0 0.0
0.011032457251970279 -0.008617639192100386 0.0 -0.0031131786775477057 0.0 0.0
0.015898610522465696 -0.013233579034365455 0.0 -0.004367896588488344 0.0 0.0
0.021733565002571956 -0.018813689847723948 0.0 -0.005698622937974193 0.0 0.0
0.028520475692489305 -0.025327682722244685 0.0 -0.00701794195995568 0.0 0.0
0.036318210818266514 -0.03283877973908047 0.0 -0.008344593014967068 0.0 0.0
0.04521813429442692 -0.04146655298569303 0.0 -0.009777105671799716 0.0 0.0
0.055247775150809225 -0.051259528836831575 0.0 -0.011358228217101201 0.0 0.0
0.06625184794574923 -0.06208024303185879 0.0 -0.012956733156584107 0.0 0.0
0.07781381130214653 -0.07353150046727268 0.0 -0.014190596435497827 0.0 0.0
0.08920199428004522 -0.08490008356558319 0.0 -0.014481504830767235 0.0 0.0
0.09931228290471578 -0.0950939552373947 0.0 -0.01322884104730592 0.0 0.0
0.10676539768853503 -0.10268260866043609 0.0 -0.009772716057988452 0.0 0.0
0.10964539697751037 -0.1062893960979086 0.0 1.44879767904893e-14 0.0 0.0
0.10676539768852066 -0.102682608660424 0.0 0.009772716058024569 0.0 0.0
0.09931228290468935 -0.09509395523736733 0.0 0.013228841047341226 0.0 0.0
0.08920199428000918 -0.08490008356554717 0.0 0.014481504830788968 0.0 0.0
0.07781381130210512 -0.07353150046723242 0.0 0.014190596435499414 0.0 0.0
0.06625184794570509 -0.06208024303181432 0.0 0.012956733156579622 0.0 0.0
0.05524777515076331 -0.05125952883678579 0.0 0.011358228217097519 0.0 0.0
0.04521813429438057 -0.041466552985649385 0.0 0.009777105671793409 0.0 0.0
0.03631821081822184 -0.03283877973903729 0.0 0.008344593014958513 0.0 0.0
0.02852047569244752 -0.025327682722206157 0.0 0.007017941959944188 0.0 0.0
0.021733565002534958 -0.018813689847688636 0.0 0.005698622937962226 0.0 0.0
0.01589861052243526 -0.013233579034338593 0.0 0.004367896588477551 0.0 0.0
0.011032457251946657 -0.008617639192080272 0.0 0.003113178677540428 0.0 0.0
0.007196541638862111 -0.005057505382698807 0.0 0.002050105995790166 0.0 0.0
0.0044265913969215006 -0.002605098719781454 0.0 0.001227900362447003 0.0 0.0
0.002704131442154198 -0.0012592302521756485 0.0 0.0008183635221225356 0.0 0.0
0.0018223940854189685 -0.0007531554383266996 0.0 0.000785018912101951 0.0 0.0
0.001304038437993997 -0.000542384320639539 0.0 0.0007395930195058403 0.0 0.0
0.0007994643476707671 -0.0001616962945489335 0.0 0.0007049738625499285 0.0 0.0
0.0025256624041042623 -0.0005285358331205191 0.0 0.004568052983873121 0.0 0.0
0.004515167195174542 -0.011844450604947753 0.0 0.00351154850716492 0.0 0.0
0.003386149646324276 -0.00949103366990672 0.0 -0.0031547989002808 0.0 0.0
0.0018682735360907973 -0.0004473610768089783 0.0 -0.004096664911565958 0.0 0.0
0.0005807990198573518 -9.776555859513932e-05 0.0 -0.0010820897692498414 0.0 0.0
0.0010542367752679992 -0.0004113225724702619 0.0 -0.001019953230618512 0.0 0.0
0.0015351953351163902 -0.0006362231211167427 0.0 -0.001092750993970847 0.0 0.0
0.002238317722109469 -0.0009865290618764923 0.0 -0.0011223431438372466 0.0 0.0
0.0036093434845535415 -0.0019597379650722344 0.0 -0.001471822609752815 0.0 0.0
0.0059400722128093155 -0.003947391776001843 0.0 -0.0023736194829942856 0.0 0.0
0.009257751480923629 -0.006989370575621785 0.0 -0.003671187136921829 0.0 0.0
0.013473516777039816 -0.010966488983780229 0.0 -0.005165833345692756 0.0 0.0
0.018511929163306347 -0.015770465225576902 0.0 -0.006746950383583162 0.0 0.0
0.024337400229810912 -0.021347741268265302 0.0 -0.008308852767769184 0.0 0.0
0.03100030641698169 -0.027749462157755117 0.0 -0.009872889787126507 0.0 0.0
0.03860507055342965 -0.03510046910019668 0.0 -0.011543433582282405 0.0 0.0
0.047203619200634095 -0.04347962182053783 0.0 -0.013362685979698878 0.0 0.0
0.056707030120489665 -0.05281145642395061 0.0 -0.015190076378059018 0.0 0.0
0.066814594233213 -0.06280177960354502 0.0 -0.016658023104661933 0.0 0.0
0.0769289640381759 -0.0728775904855221 0.0 -0.017158385543234202 0.0 0.0
0.0861154152854482 -0.08212159562244546 0.0 -0.01583204624000138 0.0 0.0
0.09316566421136349 -0.08929189271330538 0.0 -0.01164030391871547 0.0 0.0
0.09599303546677768 -0.09311114130696585 0.0 1.6753959330984003e-14 0.0 0.0
0.09316566421135063 -0.08929189271329367 0.0 0.011640303918756572 0.0 0.0
0.0861154152854243 -0.08212159562242295 0.0 0.01583204624004026 0.0 0.0
0.07692896403814421 -0.07287759048548764 0.0 0.017158385543256757 0.0 0.0
0.06681459423317766 -0.06280177960351764 0.0 0.016658023104665787 0.0 0.0
0.05670703012045137 -0.05281145642390919 0.0 0.015190076378053006 0.0 0.0
0.04720361920059388 -0.043479621820500886 0.0 0.013362685979692621 0.0 0.0
0.03860507055338993 -0.03510046910015578 0.0 0.011543433582276792 0.0 0.0
0.031000306416943464 -0.027749462157718514 0.0 0.009872889787117553 0.0 0.0
0.024337400229775357 -0.02134774126823262 0.0 0.008308852767756843 0.0 0.0
0.0185119291632748 -0.01577046522554771 0.0 0.006746950383569513 0.0 0.0
0.01347351677701349 -0.010966488983756432 0.0 0.005165833345679439 0.0 0.0
0.00925775148090343 -0.006989370575604539 0.0 0.0036711871369141426 0.0 0.0
0.005940072212795317 -0.003947391775986424 0.0 0.0023736194829885766 0.0 0.0
0.0036093434845455817 -0.001959737965067401 0.0 0.001471822609748885 0.0 0.0
0.0022383177221063076 -0.0009865290618741528 0.0 0.0011223431438361845 0.0 0.0
0.0015351953351154083 -0.0006362231211152331 0.0 0.0010927509939695124 0.0 0.0
0.0010542367752675774 -0.00041132257246934514 0.0 0.0010199532306163145 0.0 0.0
0.0005807990198572998 -9.776555859581183e-05 0.0 0.0010820897692484335 0.0 0.0
0.0018682735360862133 -0.0004473610768065042 0.0 0.004096664911556745 0.0 0.0
0.0033861496463150733 -0.009491033669888689 0.0 0.003154798900270726 0.0 0.0
0.0025160955363929165 -0.007541287514933765 0.0 -0.0026433362048981736 0.0 0.0
0.0013782951454511321 -0.0004022611265018362 0.0 -0.003642192870748691 0.0 0.0
0.00042078085246375886 -7.04761236668301e-05 0.0 -0.001438621350725609 0.0 0.0
0.0008234923286048806 -0.0002923448302967271 0.0 -0.0013061085712144963 0.0 0.0
0.0012583126384305822 -0.0005211669241015783 0.0 -0.001383475940865679 0.0 0.0
0.0018188106624035878 -0.0007761910691597129 0.0 -0.0014196555537720047 0.0 0.0
0.0028659596302349857 -0.0014338026943793128 0.0 -0.0017029601301522014 0.0 0.0
0.004725860976043526 -0.0029182129880329717 0.0 -0.002511026829559535 0.0 0.0
0.007489515445292609 -0.005394631507401838 0.0 -0.0038907840968047903 0.0 0.0
0.011052508493288133 -0.008722966359320187 0.0 -0.005548128870397407 0.0 0.0
0.01529117001686403 -0.012745475000727766 0.0 -0.007272144317522655 0.0 0.0
0.020160696497861046 -0.017390717988996714 0.0 -0.008975161846047084 0.0 0.0
0.025698309379227263 -0.022691589457610014 0.0 -0.010665357771344202 0.0 0.0
0.0320061520104201 -0.028770728949854822 0.0 -0.012449409706234005 0.0 0.0
0.039171594645642904 -0.035732194238124355 0.0 -0.014383376157403384 0.0 0.0
0.047161824351455564 -0.043558492797445045 0.0 -0.016320783379948238 0.0 0.0
0.055765254260108754 -0.05204425602083384 0.0 -0.017911331096003034 0.0 0.0
0.06456390088804004 -0.06077620596658535 0.0 -0.018596900643846156 0.0 0.0
0.07284641858739922 -0.06907958012661547 0.0 -0.017417380831654547 0.0 0.0
0.07957443937945291 -0.07592289466552386 0.0 -0.012995806369902987 0.0 0.0
0.08240123501831743 -0.0800609054653744 0.0 1.8197249262996706e-14 0.0 0.0
0.0795744393794413 -0.07592289466551101 0.0 0.012995806369944234 0.0 0.0
0.07284641858737825 -0.06907958012659722 0.0 0.017417380831694 0.0 0.0
0.06456390088801328 -0.060776205966555516 0.0 0.01859690064387133 0.0 0.0
0.05576525426007921 -0.05204425602080917 0.0 0.017911331096010036 0.0 0.0
0.04716182435142331 -0.043558492797412286 0.0 0.01632078337994261 0.0 0.0
0.039171594645609334 -0.03573219423809472 0.0 0.01438337615739492 0.0 0.0
0.03200615201038721 -0.028770728949821613 0.0 0.0124494097062289 0.0 0.0
0.02569830937919558 -0.02269158945758045 0.0 0.010665357771335812 0.0 0.0
0.020160696497831188 -0.017390717988968282 0.0 0.008975161846033686 0.0 0.0
0.015291170016837673 -0.012745475000701823 0.0 0.007272144317508266 0.0 0.0
0.011052508493266333 -0.008722966359300133 0.0 0.005548128870383275 0.0 0.0
0.007489515445275964 -0.005394631507387519 0.0 0.0038907840967958443 0.0 0.0
0.004725860976032454 -0.0029182129880203807 0.0 0.0025110268295535356 0.0 0.0
0.0028659596302289987 -0.0014338026943756285 0.0 0.001702960130149242 0.0 0.0
0.0018188106624013648 -0.0007761910691590441 0.0 0.0014196555537709368 0.0 0.0
0.0012583126384299024 -0.0005211669241014173 0.0 0.0013834759408645587 0.0 0.0
0.0008234923286047102 -0.0002923448302956628 0.0 0.001306108571212926 0.0 0.0
0.0004207808524638954 -7.047612366711533e-05 0.0 0.0014386213507236543 0.0 0.0
0.0013782951454476648 -0.0004022611265001737 0.0 0.003642192870740228 0.0 0.0
0.002516095536385928 -0.007541287514918643 0.0 0.0026433362048918787 0.0 0.0
0.0018376492297009742 -0.005906685420404912 0.0 -0.002170632398768894 0.0 0.0
0.0010021294780208389 -0.0003730124197652877 0.0 -0.0032323702328554893 0.0 0.0
0.00029358727608216065 -5.8344549842181926e-05 0.0 -0.0017339589312144498 0.0 0.0
0.0006086674175334557 -0.00018770675469800322 0.0 -0.0015755108131588922 0.0 0.0
0.0009865714915197608 -0.00040010760695294897 0.0 -0.00164309890846849 0.0 0.0
0.0014307930903316008 -0.000607614374761783 0.0 -0.0017144632702044155 0.0 0.0
0.0021958890726210783 -0.0010188559692718324 0.0 -0.0019097518410359777 0.0 0.0
0.0035941898999392007 -0.002030978693527345 0.0 -0.0025735583413411555 0.0 0.0
0.005764621670569323 -0.003883677142304351 0.0 -0.003810824869492131 0.0 0.0
0.008647595613155439 -0.006528194760058796 0.0 -0.005478332662523945 0.0 0.0
0.01208885457907722 -0.009762833383363681 0.0 -0.007253910086231155 0.0 0.0
0.01600569354726066 -0.013477680048239116 0.0 -0.008998892176269709 0.0 0.0
0.020427545176176672 -0.017688782098485175 0.0 -0.010710081108242401 0.0 0.0
0.025451409884754216 -0.022506911160351552 0.0 -0.012490095483255826 0.0 0.0
0.03117888903403923 -0.028049518493225595 0.0 -0.014392611958421097 0.0 0.0
0.03763435210990118 -0.03435546442383969 0.0 -0.016321081885122293 0.0 0.0
0.04470066044017105 -0.04129803329279137 0.0 -0.017938025410719715 0.0 0.0
0.052117250968125264 -0.048614700954881664 0.0 -0.01875904726643173 0.0 0.0
0.05944355810973084 -0.05591753678589773 0.0 -0.017911581723829957 0.0 0.0
0.06587822860416914 -0.06245866123833721 0.0 -0.013812833497977203 0.0 0.0
0.06874261829670351 -0.06701748814174223 0.0 1.5725268309729756e-14 0.0 0.0
0.06587822860415898 -0.0624586612383283 0.0 0.013812833498016819 0.0 0.0
0.05944355810971337 -0.05591753678587985 0.0 0.017911581723869512 0.0 0.0
0.05211725096810377 -0.048614700954861506 0.0 0.018759047266457475 0.0 0.0
0.0447006604401471 -0.04129803329277104 0.0 0.01793802541072517 0.0 0.0
0.03763435210987453 -0.0343554644238067 0.0 0.016321081885114053 0.0 0.0
0.031178889034011947 -0.028049518493199577 0.0 0.01439261195841341 0.0 0.0
0.025451409884728497 -0.022506911160329053 0.0 0.012490095483250101 0.0 0.0
0.020427545176151696 -0.017688782098461264 0.0 0.01071008110823379 0.0 0.0
0.016005693547237205 -0.013477680048215495 0.0 0.008998892176257583 0.0 0.0
0.012088854579056304 -0.009762833383344549 0.0 0.0072539100862161025 0.0 0.0
0.008647595613137922 -0.006528194760041491 0.0 0.005478332662509312 0.0 0.0
0.005764621670556598 -0.0038836771422953225 0.0 0.0038108248694841 0.0 0.0
0.003594189899930915 -0.0020309786935182057 0.0 0.002573558341335813 0.0 0.0
0.0021958890726170117 -0.0010188559692695443 0.0 0.001909751841033844 0.0 0.0
0.0014307930903301122 -0.0006076143747617843 0.0 0.001714463270203111 0.0 0.0
0.0009865714915193037 -0.0004001076069533781 0.0 0.0016430989084672853 0.0 0.0
0.0006086674175333659 -0.0001877067546976714 0.0 0.0015755108131568836 0.0 0.0
0.0002935872760818689 -5.834454984209062e-05 0.0 0.0017339589312121962 0.0 0.0
0.001002129478018212 -0.00037301241976447864 0.0 0.00323237023284746 0.0 0.0
0.0018376492296959049 -0.005906685420392932 0.0 0.002170632398763716 0.0 0.0
0.0013079931393998536 -0.004546780555542369 0.0 -0.0018138827579639947 0.0 0.0
0.0007074275009651402 -0.00035697709489584126 0.0 -0.0028636435531078836 0.0 0.0
0.00018222817892539587 -4.5514967046927445e-05 0.0 -0.0019615059382270933 0.0 0.0
0.0004054366895235387 -9.557933087515713e-05 0.0 -0.0018100606662893488 0.0 0.0
0.0007139621160993318 -0.0002732581545444087 0.0 -0.0018639576477923313 0.0 0.0
0.0010652305334529022 -0.0004544410375115439 0.0 -0.001983378389881592 0.0 0.0
0.0015938852457153209 -0.0007017300926739274 0.0 -0.002120785724831545 0.0 0.0
0.002558673903662552 -0.0013075350904369397 0.0 -0.0025782407869339614 0.0 0.0
0.004130309441512786 -0.002533846784661011 0.0 -0.003545116023594244 0.0 0.0
0.006293513362740757 -0.004440020993214706 0.0 -0.00498485747856904 0.0 0.0
0.008916594443461236 -0.006856744640846163 0.0 -0.006662615171742332 0.0 0.0
0.011887875606814273 -0.009639348505680653 0.0 -0.008339541344973576 0.0 0.0
0.015207657962296676 -0.012770735571770624 0.0 -0.00997696879904684 0.0 0.0
0.018958970617432784 -0.016342916043953604 0.0 -0.011640343502680138 0.0 0.0
0.023253794301591534 -0.02047347415909558 0.0 -0.013392914395849038 0.0 0.0
0.02816115350792485 -0.025241774801358204 0.0 -0.015166776073377086 0.0 0.0
0.03364448705922917 -0.030608168119443523 0.0 -0.016708164792184493 0.0 0.0
0.03959648517220461 -0.036430506838797116 0.0 -0.017580178730025462 0.0 0.0
0.04585921238312806 -0.04259889794184798 0.0 -0.017183074548796556 0.0 0.0
0.05195669689764335 -0.04877244402359222 0.0 -0.0139985417733075 0.0 0.0
0.05487067218140885 -0.053851862107168746 0.0 1.3671789395042211e-14 0.0 0.0
0.05195669689763561 -0.04877244402358419 0.0 0.013998541773344229 0.0 0.0
0.04585921238311401 -0.04259889794183726 0.0 0.017183074548833176 0.0 0.0
0.03959648517218797 -0.036430506838782115 0.0 0.017580178730048388 0.0 0.0
0.033644487059210575 -0.030608168119428424 0.0 0.016708164792187202 0.0 0.0
0.028161153507904293 -0.025241774801332658 0.0 0.0151667760733665 0.0 0.0
0.023253794301571176 -0.020473474159075897 0.0 0.013392914395840599 0.0 0.0
0.018958970617413855 -0.016342916043939344 0.0 0.011640343502674266 0.0 0.0
0.015207657962278597 -0.012770735571753667 0.0 0.009976968799040047 0.0 0.0
0.011887875606796683 -0.009639348505662356 0.0 0.008339541344960871 0.0 0.0
0.008916594443445126 -0.006856744640834582 0.0 0.006662615171727263 0.0 0.0
0.006293513362727819 -0.0044400209932027234 0.0 0.004984857478556574 0.0 0.0
0.004130309441503804 -0.002533846784652126 0.0 0.0035451160235885504 0.0 0.0
0.0025586739036571288 -0.0013075350904339857 0.0 0.0025782407869301637 0.0 0.0
0.0015938852457128244 -0.000701730092671994 0.0 0.002120785724829649 0.0 0.0
0.0010652305334520617 -0.0004544410375129861 0.0 0.0019833783898798715 0.0 0.0
0.0007139621160989755 -0.0002732581545438412 0.0 0.001863957647791058 0.0 0.0
0.0004054366895233943 -9.557933087547805e-05 0.0 0.0018100606662863309 0.0 0.0
0.000182228178925205 -4.551496704704861e-05 0.0 0.0019615059382250264 0.0 0.0
0.0007074275009630921 -0.0003569770948957879 0.0 0.0028636435531017583 0.0 0.0
0.001307993139396216 -0.0045467805555330755 0.0 0.0018138827579621932 0.0 0.0
0.0009160723897708709 -0.003463031949933597 0.0 -0.001608094510603951 0.0 0.0
0.00047802843235541284 -0.0003546036921916883 0.0 -0.002550052078789632 0.0 0.0
7.263167460773823e-05 -2.2194945458130227e-05 0.0 -0.0021252718648214425 0.0 0.0
0.0002115246102634387 -1.2956084578167143e-05 0.0 -0.0019981711273862396 0.0 0.0
0.00044031654424001265 -0.000145742682408467 0.0 -0.0020401973865428204 0.0 0.0
0.0007016485302842269 -0.0002933285216952354 0.0 -0.002190275753453665 0.0 0.0
0.0010469414310418806 -0.00045464856515095976 0.0 -0.002356206326915467 0.0 0.0
0.0016312967382769753 -0.0007611947102152382 0.0 -0.0026049136056520345 0.0 0.0
0.0026175091392674444 -0.0014190698649589602 0.0 -0.0031937365036885153 0.0 0.0
0.0040409065437666475 -0.0025620749029810195 0.0 -0.004193943691126601 0.0 0.0
0.005811791801788138 -0.004110820202512018 0.0 -0.005531031559651262 0.0 0.0
0.007823685935335221 -0.0059396411606633635 0.0 -0.006968883796264739 0.0 0.0
0.0100503195909678 -0.007990806831331842 0.0 -0.008430624591171401 0.0 0.0
0.012549475047853781 -0.010333169147071894 0.0 -0.009898662472855495 0.0 0.0
0.01542088029350049 -0.013062336798608392 0.0 -0.01139361158659136 0.0 0.0
0.01876551793910129 -0.01627958676498023 0.0 -0.012914868860586163 0.0 0.0
0.02263809209228763 -0.020033143126031917 0.0 -0.014306132962876503 0.0 0.0
0.02703736812736062 -0.024302529194792227 0.0 -0.01518084703728313 0.0 0.0
0.03204686459612864 -0.02914564405352621 0.0 -0.015094106897094013 0.0 0.0
0.03766696890854236 -0.034729112109062626 0.0 -0.01328928645258688 0.0 0.0
0.040606074908848745 -0.04039942347146036 0.0 1.225668871951413e-14 0.0 0.0
0.037666968908537435 -0.03472911210905882 0.0 0.013289286452617913 0.0 0.0
0.03204686459611886 -0.029145644053517522 0.0 0.015094106897128957 0.0 0.0
0.027037368127348728 -0.02430252919478157 0.0 0.015180847037303869 0.0 0.0
0.022638092092274565 -0.020033143126018005 0.0 0.014306132962875848 0.0 0.0
0.01876551793908761 -0.016279586764968296 0.0 0.012914868860576845 0.0 0.0
0.015420880293487257 -0.013062336798601292 0.0 0.011393611586583367 0.0 0.0
0.012549475047842035 -0.010333169147063212 0.0 0.009898662472851491 0.0 0.0
0.010050319590956393 -0.00799080683132361 0.0 0.008430624591166842 0.0 0.0
0.007823685935323682 -0.005939641160650045 0.0 0.006968883796253749 0.0 0.0
0.005811791801777703 -0.004110820202500236 0.0 0.005531031559640055 0.0 0.0
0.00404090654375872 -0.002562074902975907 0.0 0.0041939436911178525 0.0 0.0
0.0026175091392621626 -0.0014190698649542458 0.0 0.0031937365036841673 0.0 0.0
0.0016312967382736377 -0.0007611947102126251 0.0 0.0026049136056506936 0.0 0.0
0.0010469414310404928 -0.00045464856514841417 0.0 0.0023562063269132955 0.0 0.0
0.0007016485302838329 -0.00029332852169565665 0.0 0.0021902757534522006 0.0 0.0
0.0004403165442397609 -0.00014574268240838571 0.0 0.002040197386540955 0.0 0.0
0.00021152461026308542 -1.2956084578362166e-05 0.0 0.0019981711273828295 0.0 0.0
7.263167460726819e-05 -2.2194945457459906e-05 0.0 0.0021252718648191427 0.0 0.0
0.00047802843235412193 -0.00035460369219252736 0.0 0.0025500520787855906 0.0 0.0
0.0009160723897688885 -0.003463031949926877 0.0 0.0016080945106033578 0.0 0.0
0.0006445735419571155 -0.0026359494567137643 0.0 -0.0014999347895367828 0.0 0.0
0.00030548522336561467 -0.0003649277439617704 0.0 -0.0023258018187423462 0.0 0.0
-3.700606318669893e-05 1.2851122641082265e-05 0.0 -0.0022284739754310588 0.0 0.0
2.47008812414791e-05 6.29503532527057e-05 0.0 -0.0021339932664209867 0.0 0.0
0.00016886909842718444 -2.0516194009906886e-05 0.0 -0.0021661629783557494 0.0 0.0
0.00033020092419408373 -0.00012305598234514583 0.0 -0.0023219534682137207 0.0 0.0
0.0005206529630463352 -0.00022384259898307782 0.0 -0.0025386118818169013 0.0 0.0
0.0007998345348182483 -0.0003552463448821088 0.0 -0.002733155685532602 0.0 0.0
0.0012557133194224133 -0.0006052564473568214 0.0 -0.002983757541661302 0.0 0.0
0.001940143372992424 -0.0010730573040718227 0.0 -0.003453497931931112 0.0 0.0
0.0028278670393812847 -0.0017556882857254412 0.0 -0.004229872514659073 0.0 0.0
0.00384821421500364 -0.0026018531027827063 0.0 -0.0052427999497869065 0.0 0.0
0.004969159431489858 -0.0035543285172953726 0.0 -0.006378388512510845 0.0 0.0
0.0062288808893302995 -0.004660429320930109 0.0 -0.007590542248660726 0.0 0.0
0.0076916861718878925 -0.005988847126617648 0.0 -0.0088807998050878 0.0 0.0
0.009461822763399817 -0.007632054340281608 0.0 -0.010257234917724001 0.0 0.0
0.011682718900881264 -0.009722915067619426 0.0 -0.011615585108174205 0.0 0.0
0.014497540372802145 -0.012402332426291357 0.0 -0.012590526554283905 0.0 0.0
0.018062232529349572 -0.01580585022720696 0.0 -0.012608684891707191 0.0 0.0
0.022863214635098633 -0.020322786317773626 0.0 -0.011580027756089215 0.0 0.0
0.025671715301137023 -0.026473113890892037 0.0 9.054389182860945e-15 0.0 0.0
0.02286321463509626 -0.02032278631777539 0.0 0.01158002775611416 0.0 0.0
0.018062232529344153 -0.015805850227199346 0.0 0.012608684891734664 0.0 0.0
0.014497540372794864 -0.012402332426282131 0.0 0.012590526554295121 0.0 0.0
0.011682718900874576 -0.009722915067610841 0.0 0.01161558510817085 0.0 0.0
0.00946182276339364 -0.007632054340277899 0.0 0.010257234917714957 0.0 0.0
0.0076916861718821245 -0.0059888471266169125 0.0 0.008880799805081269 0.0 0.0
0.0062288808893258656 -0.004660429320919737 0.0 0.007590542248658299 0.0 0.0
0.004969159431485267 -0.0035543285172959104 0.0 0.006378388512506028 0.0 0.0
0.0038482142149985684 -0.002601853102776069 0.0 0.005242799949778541 0.0 0.0
0.002827867039376706 -0.0017556882857216773 0.0 0.00422987251465094 0.0 0.0
0.0019401433729890525 -0.0010730573040698976 0.0 0.0034534979319263814 0.0 0.0
0.0012557133194205548 -0.0006052564473532361 0.0 0.0029837575416594856 0.0 0.0
0.0007998345348171384 -0.00035524634487981793 0.0 0.002733155685531132 0.0 0.0
0.0005206529630458268 -0.00022384259898158593 0.0 0.002538611881814182 0.0 0.0
0.00033020092419383946 -0.00012305598234218048 0.0 0.0023219534682113155 0.0 0.0
0.00016886909842699064 -2.051619400924619e-05 0.0 0.0021661629783531282 0.0 0.0
2.470088124167187e-05 6.295035325274216e-05 0.0 0.0021339932664184557 0.0 0.0
-3.700606318648699e-05 1.2851122641984788e-05 0.0 0.0022284739754293865 0.0 0.0
0.0003054852233648781 -0.00036492774396279287 0.0 0.0023258018187398044 0.0 0.0
0.0006445735419555365 -0.0026359494567094913 0.0 0.0014999347895358229 0.0 0.0
0.00045344487168558244 -0.002025420760538048 0.0 -0.0014385819412346664 0.0 0.0
0.00017589894202368127 -0.0003695369742069293 0.0 -0.00216981677113595 0.0 0.0
-0.0001409934641520253 5.12641493724817e-05 0.0 -0.0022783630799029586 0.0 0.0
-0.00015555126755091163 0.00013504902438189563 0.0 -0.002214677530538752 0.0 0.0
-9.801413847791216e-05 0.00010104667111046509 0.0 -0.0022358478265964063 0.0 0.0
-4.468287690565718e-05 4.904944557640532e-05 0.0 -0.0023793555176605443 0.0 0.0
-1.5121452037112596e-05 1.3508041611630222e-05 0.0 -0.002606956353152482 0.0 0.0
-3.486888390386497e-06 2.5109967048891628e-06 0.0 -0.0028282624613657666 0.0 0.0
-7.67158663560522e-08 -3.1894833445281516e-07 0.0 -0.0029579922295929666 0.0 0.0
6.063972224648281e-07 -2.4934933016966694e-07 0.0 -0.003156457597063161 0.0 0.0
3.3925484049470616e-07 -1.0482193424694473e-06 0.0 -0.003598084046371939 0.0 0.0
-3.364661181246367e-06 2.7148517383317075e-06 0.0 -0.004357545551516276 0.0 0.0
-1.4169570879340727e-05 1.1829292167972363e-05 0.0 -0.0052880044671628395 0.0 0.0
-2.7020611021770394e-05 2.594055497813502e-05 0.0 -0.00636359428186909 0.0 0.0
-3.48869912110872e-06 1.5213476520600734e-05 0.0 -0.007602921657141036 0.0 0.0
0.00017158284235783115 -0.00011635521271986067 0.0 -0.009002861396390898 0.0 0.0
0.0007294074119315879 -0.0005694339020014326 0.0 -0.010512895698367003 0.0 0.0
0.0019781653101440966 -0.0016380788375790277 0.0 -0.011968770501780465 0.0 0.0
0.00414121644854759 -0.0034970711611569958 0.0 -0.01306273635862161 0.0 0.0
0.007660450366500067 -0.006326604760679898 0.0 -0.013391569631466378 0.0 0.0
0.009853552085139593 -0.012837723749677921 0.0 8.197435785728402e-15 0.0 0.0
0.007660450366500121 -0.006326604760681599 0.0 0.013391569631483729 0.0 0.0
0.004141216448545915 -0.0034970711611541846 0.0 0.01306273635863655 0.0 0.0
0.00197816531014278 -0.0016380788375781998 0.0 0.011968770501783021 0.0 0.0
0.0007294074119325766 -0.0005694339020044008 0.0 0.010512895698361899 0.0 0.0
0.00017158284235943935 -0.00011635521272519559 0.0 0.009002861396380114 0.0 0.0
-3.488699119775043e-06 1.521347652060106e-05 0.0 0.007602921657135508 0.0 0.0
-2.702061101948869e-05 2.5940554979428853e-05 0.0 0.006363594281865901 0.0 0.0
-1.4169570876881648e-05 1.1829292166228776e-05 0.0 0.005288004467157657 0.0 0.0
-3.364661179405717e-06 2.7148517350523754e-06 0.0 0.0043575455515084726 0.0 0.0
3.392548421638354e-07 -1.048219346146912e-06 0.0 0.0035980840463657703 0.0 0.0
6.063972235913683e-07 -2.4934933101734364e-07 0.0 0.003156457597061781 0.0 0.0
-7.671586565153763e-08 -3.1894833371345026e-07 0.0 0.002957992229593193 0.0 0.0
-3.4868883897995777e-06 2.5109967033835346e-06 0.0 0.0028282624613636532 0.0 0.0
-1.51214520367555e-05 1.3508041611229297e-05 0.0 0.0026069563531501564 0.0 0.0
-4.468287690560188e-05 4.904944557924478e-05 0.0 0.0023793555176570063 0.0 0.0
-9.801413847785616e-05 0.0001010466711113086 0.0 0.0022358478265937522 0.0 0.0
-0.00015555126755075334 0.00013504902438149068 0.0 0.0022146775305370257 0.0 0.0
-0.00014099346415194324 5.1264149372275897e-05 0.0 0.0022783630799009394 0.0 0.0
0.00017589894202345524 -0.0003695369742072174 0.0 0.002169816771133398 0.0 0.0
0.0004534448716850202 -0.002025420760535353 0.0 0.0014385819412342596 0.0 0.0
0.0003231706694250203 -0.0015677982465477193 0.0 -0.0013689957798176933 0.0 0.0
8.00273326717102e-05 -0.0003539112189541942 0.0 -0.002032517513901378 0.0 0.0
-0.0002377902394997732 8.701411274869271e-05 0.0 -0.0022791901537126884 0.0 0.0
-0.0003283069562327264 0.00020430427961314813 0.0 -0.002239230332152884 0.0 0.0
-0.0003587448164881492 0.00021731643440310534 0.0 -0.0022453654101114266 0.0 0.0
-0.00041571707992688327 0.00021936693530740328 0.0 -0.0023623990428830676 0.0 0.0
-0.0005500161272867984 0.0002505868387822744 0.0 -0.002556650621328028 0.0 0.0
-0.0008070299716520827 0.0003602277994433696 0.0 -0.002739962575765664 0.0 0.0
-0.0012556104408490826 0.0006045258201309182 0.0 -0.002986222316040692 0.0 0.0
-0.0019382392544898008 0.0010716592783711059 0.0 -0.003452158128080911 0.0 0.0
-0.0028268843024520885 0.0017543982892386074 0.0 -0.004225739965921614 0.0 0.0
-0.0038559177479099488 0.002608304033487575 0.0 -0.0052404624727121945 0.0 0.0
-0.004998664214148047 0.0035802382425693113 0.0 -0.006372663846758854 0.0 0.0
-0.00628212583733604 0.004714604170069724 0.0 -0.007580115479077096 0.0 0.0
-0.007694965306283273 0.006020629437036608 0.0 -0.00888858837774058 0.0 0.0
-0.009124455330694482 0.007396992426754704 0.0 -0.010382538687892453 0.0 0.0
-0.010307227788478077 0.008588901057265164 0.0 -0.01213021083399932 0.0 0.0
-0.010844985120267207 0.009189129231931893 0.0 -0.01419911590661727 0.0 0.0
-0.01027681672151855 0.008829066311259709 0.0 -0.016489017805589923 0.0 0.0
-0.007233138630283072 0.006637019092538677 0.0 -0.01745591730474703 0.0 0.0
-0.004809507947659164 -0.0005678080363584553 0.0 1.004057947895376e-14 0.0 0.0
-0.007233138630283305 0.006637019092538235 0.0 0.017455917304764923 0.0 0.0
-0.01027681672151593 0.008829066311259038 0.0 0.0164890178056049 0.0 0.0
-0.010844985120260383 0.009189129231918843 0.0 0.014199115906620222 0.0 0.0
-0.010307227788468279 0.008588901057252482 0.0 0.01213021083399388 0.0 0.0
-0.009124455330685148 0.007396992426750355 0.0 0.010382538687884283 0.0 0.0
-0.007694965306274702 0.0060206294370281485 0.0 0.008888588377733594 0.0 0.0
-0.006282125837326904 0.004714604170056227 0.0 0.0075801154790709965 0.0 0.0
-0.00499866421413873 0.003580238242566581 0.0 0.006372663846751616 0.0 0.0
-0.003855917747900825 0.002608304033477192 0.0 0.005240462472701737 0.0 0.0
-0.002826884302444081 0.0017543982892328667 0.0 0.00422573996591256 0.0 0.0
-0.0019382392544841746 0.0010716592783645115 0.0 0.003452158128076372 0.0 0.0
-0.0012556104408456457 0.0006045258201265368 0.0 0.0029862223160389686 0.0 0.0
-0.0008070299716501626 0.00036022779944174795 0.0 0.0027399625757643644 0.0 0.0
-0.0005500161272856951 0.00025058683878070924 0.0 0.0025566506213264457 0.0 0.0
-0.00041571707992632957 0.0002193669353069483 0.0 0.0023623990428807457 0.0 0.0
-0.0003587448164876538 0.0002173164344037228 0.0 0.0022453654101089945 0.0 0.0
-0.0003283069562324515 0.00020430427961280417 0.0 0.0022392303321513607 0.0 0.0
-0.00023779023949989603 8.701411274861214e-05 0.0 0.002279190153710469 0.0 0.0
8.002733267151578e-05 -0.00035391121895443037 0.0 0.002032517513899254 0.0 0.0
0.00032317066942481117 -0.0015677982465457133 0.0 0.0013689957798165273 0.0 0.0
0.0002263753340053195 -0.0011921030770765703 0.0 -0.0012499775514226482 0.0 0.0
3.8045030717397964e-06 -0.00032071560333476155 0.0 -0.0018893483780172133 0.0 0.0
-0.0003275675462942762 0.00012071274709350368 0.0 -0.0022283813079010564 0.0 0.0
-0.0004928371101467671 0.0002696838380850735 0.0 -0.00220761024936338 0.0 0.0
-0.0006115643764779268 0.0003275804203814841 0.0 -0.002191674902052552 0.0 0.0
-0.0007781896816555467 0.00038282874490644885 0.0 -0.002268014043603423 0.0 0.0
-0.0010733816414790066 0.0004816877128418907 0.0 -0.002392373163491701 0.0 0.0
-0.0016371131552019077 0.0007659183031355724 0.0 -0.0026196256675561666 0.0 0.0
-0.0026164445049129 0.00141720685896952 0.0 -0.0031951884070951617 0.0 0.0
-0.00403840220273641 0.002559499592785381 0.0 -0.004189756734493142 0.0 0.0
-0.005811714297708426 0.004111107420073853 0.0 -0.0055282173440656624 0.0 0.0
-0.00783128357232972 0.005947039770037193 0.0 -0.006966704179841633 0.0 0.0
-0.010076043076651662 0.008015629932358836 0.0 -0.008410381967538209 0.0 0.0
-0.012596549487564754 0.01038281910154576 0.0 -0.009843175009767818 0.0 0.0
-0.015425038354000845 0.013092321841436888 0.0 -0.011352138866373583 0.0 0.0
-0.018462847301606296 0.016066152526847847 0.0 -0.013136023485976731 0.0 0.0
-0.021403661796426564 0.01900298887161338 0.0 -0.015423436383108169 0.0 0.0
-0.023724539160446756 0.021375518898317365 0.0 -0.018326346173731006 0.0 0.0
-0.024430443290029084 0.022293595644127962 0.0 -0.021259524180947693 0.0 0.0
-0.02166901781726494 0.01986198029186675 0.0 -0.021861552696243937 0.0 0.0
-0.019128607537807322 0.010823062311768085 0.0 1.1765761975812694e-14 0.0 0.0
-0.021669017817263984 0.01986198029186665 0.0 0.021861552696272865 0.0 0.0
-0.024430443290022766 0.02229359564412027 0.0 0.0212595241809718 0.0 0.0
-0.02372453916043391 0.021375518898302526 0.0 0.018326346173740116 0.0 0.0
-0.021403661796409602 0.01900298887159391 0.0 0.015423436383103725 0.0 0.0
-0.018462847301589765 0.016066152526836568 0.0 0.013136023485967235 0.0 0.0
-0.01542503835398562 0.013092321841420859 0.0 0.011352138866363479 0.0 0.0
-0.012596549487548812 0.01038281910153002 0.0 0.009843175009758618 0.0 0.0
-0.010076043076635266 0.00801562993234291 0.0 0.008410381967527667 0.0 0.0
-0.00783128357231396 0.005947039770022053 0.0 0.006966704179828493 0.0 0.0
-0.005811714297694215 0.004111107420059509 0.0 0.005528217344051462 0.0 0.0
-0.004038402202725904 0.002559499592775196 0.0 0.004189756734484212 0.0 0.0
-0.002616444504905972 0.0014172068589626224 0.0 0.003195188407090085 0.0 0.0
-0.001637113155197735 0.0007659183031361959 0.0 0.002619625667553918 0.0 0.0
-0.0010733816414769074 0.0004816877128406747 0.0 0.00239237316349044 0.0 0.0
-0.0007781896816543839 0.00038282874490407927 0.0 0.002268014043601489 0.0 0.0
-0.0006115643764772867 0.00032758042038121194 0.0 0.0021916749020511163 0.0 0.0
-0.0004928371101463392 0.000269683838085546 0.0 0.0022076102493615466 0.0 0.0
-0.00032756754629392244 0.00012071274709370207 0.0 0.0022283813078990676 0.0 0.0
3.8045030718191194e-06 -0.00032071560333521925 0.0 0.0018893483780156725 0.0 0.0
0.00022637533400518477 -0.0011921030770749492 0.0 0.0012499775514215761 0.0 0.0
0.00014432001053291742 -0.0008724636933587391 0.0 -0.0010996577801940517 0.0 0.0
-6.32388026859583e-05 -0.00027296610729688793 0.0 -0.0017259001611230783 0.0 0.0
-0.00041164281644633257 0.00015371723123256084 0.0 -0.0021253894971844972 0.0 0.0
-0.0006488199528920147 0.00033068379605955965 0.0 -0.0021201147025434147 0.0 0.0
-0.0008542256883533282 0.00043052280647146504 0.0 -0.002078941571188612 0.0 0.0
-0.0011268949057963243 0.0005340094151165593 0.0 -0.00208957487733628 0.0 0.0
-0.0016164031737425978 0.00073012112098615 0.0 -0.0021747794427207905 0.0 0.0
-0.0025624999833376958 0.001310062755558411 0.0 -0.0025948760967641807 0.0 0.0
-0.004127164026915641 0.002529875372257967 0.0 -0.003542253158665556 0.0 0.0
-0.006291431991781843 0.004437722533857583 0.0 -0.004979602663680573 0.0 0.0
-0.008917848484773118 0.006858773361069558 0.0 -0.0066614492346634396 0.0 0.0
-0.01189371422283534 0.009646022532548476 0.0 -0.008335904379841027 0.0 0.0
-0.015222502837250063 0.012785739199454537 0.0 -0.00994268410449289 0.0 0.0
-0.01898584799872373 0.01637034584927511 0.0 -0.01153205220573731 0.0 0.0
-0.023253004651487042 0.020488892426836415 0.0 -0.013254238275146334 0.0 0.0
-0.027945423577946153 0.02509406928921484 0.0 -0.015389105558152025 0.0 0.0
-0.03270777122553851 0.029849432507284952 0.0 -0.01835151033415781 0.0 0.0
-0.03673755696369731 0.034001617682402584 0.0 -0.022236320229668195 0.0 0.0
-0.038541652845492734 0.036073889581257304 0.0 -0.025966072166142898 0.0 0.0
-0.035439801823794845 0.033572759909154634 0.0 -0.027180359679790354 0.0 0.0
-0.03223034895751573 0.02186015911714834 0.0 1.2811800231826709e-14 0.0 0.0
-0.03543980182379137 0.03357275990915401 0.0 0.027180359679824552 0.0 0.0
-0.038541652845482874 0.03607388958125026 0.0 0.025966072166176857 0.0 0.0
-0.03673755696367914 0.03400161768238386 0.0 0.022236320229684588 0.0 0.0
-0.032707771225515485 0.029849432507260736 0.0 0.018351510334157172 0.0 0.0
-0.027945423577922596 0.02509406928919084 0.0 0.015389105558142702 0.0 0.0
-0.02325300465146462 0.02048889242681613 0.0 0.01325423827513584 0.0 0.0
-0.018985847998701184 0.01637034584925371 0.0 0.01153205220572926 0.0 0.0
-0.015222502837226932 0.012785739199431892 0.0 0.009942684104482733 0.0 0.0
-0.011893714222813042 0.009646022532528161 0.0 0.008335904379826568 0.0 0.0
-0.008917848484753325 0.006858773361051472 0.0 0.00666144923464629 0.0 0.0
-0.006291431991766303 0.004437722533843432 0.0 0.004979602663668542 0.0 0.0
-0.004127164026904903 0.002529875372249882 0.0 0.003542253158658769 0.0 0.0
-0.0025624999833309937 0.0013100627555574882 0.0 0.0025948760967608392 0.0 0.0
-0.0016164031737390973 0.0007301211209840944 0.0 0.0021747794427193832 0.0 0.0
-0.0011268949057947721 0.0005340094151152771 0.0 0.002089574877334363 0.0 0.0
-0.0008542256883525834 0.0004305228064714407 0.0 0.0020789415711874957 0.0 0.0
-0.0006488199528916257 0.0003306837960596381 0.0 0.0021201147025413153 0.0 0.0
-0.0004116428164461735 0.00015371723123253577 0.0 0.002125389497182866 0.0 0.0
-6.323880268617715e-05 -0.0002729661072970915 0.0 0.0017259001611215278 0.0 0.0
0.00014432001053241335 -0.000872463693357597 0.0 0.001099657780192992 0.0 0.0
7.169036331667575e-05 -0.0006035541241804746 0.0 -0.000938819081291337 0.0 0.0
-0.0001251508025252417 -0.00021411974873200676 0.0 -0.0015370876958844563 0.0 0.0
-0.0004918952997988114 0.00018734792223076453 0.0 -0.00197085544625439 0.0 0.0
-0.0007971387487317514 0.0003874154116644574 0.0 -0.001977460719088472 0.0 0.0
-0.0010833899566917826 0.0005234074181467211 0.0 -0.0019047444437188471 0.0 0.0
-0.0014747061921972508 0.0006761679126679373 0.0 -0.0018398859111854798 0.0 0.0
-0.0022124144934113294 0.0010450307768663316 0.0 -0.001970251365953791 0.0 0.0
-0.0035933706605350904 0.002029148234026488 0.0 -0.0025844501069689366 0.0 0.0
-0.005760843886046301 0.0038786297173035496 0.0 -0.003804222315448598 0.0 0.0
-0.008646952839699814 0.006527463692615174 0.0 -0.005473498940012429 0.0 0.0
-0.01209143106508832 0.009766524494679667 0.0 -0.007253608217587601 0.0 0.0
-0.016008295177867404 0.013482568854345688 0.0 -0.008993679760342235 0.0 0.0
-0.020425300874606273 0.01768896483149886 0.0 -0.01066639802542447 0.0 0.0
-0.025442957904887903 0.022497401794120193 0.0 -0.01234428121804725 0.0 0.0
-0.03116236898984951 0.0280335333339228 0.0 -0.014166185329795541 0.0 0.0
-0.037537816905394226 0.03429473160211701 0.0 -0.016479239390458218 0.0 0.0
-0.04413063660187859 0.04089477973662614 0.0 -0.01977732002594239 0.0 0.0
-0.04981475078501599 0.046769167778321484 0.0 -0.024190516405161372 0.0 0.0
-0.052501341285049206 0.04987091272586914 0.0 -0.028712165703686114 0.0 0.0
-0.048723818573794396 0.046870979540739016 0.0 -0.030754580752589154 0.0 0.0
-0.044682362639772794 0.032539900051836095 0.0 1.46748932450258e-14 0.0 0.0
-0.04872381857378807 0.046870979540735346 0.0 0.030754580752622565 0.0 0.0
-0.052501341285035356 0.04987091272585877 0.0 0.028712165703720753 0.0 0.0
-0.04981475078499313 0.04676916777829989 0.0 0.024190516405178275 0.0 0.0
-0.04413063660185002 0.04089477973659584 0.0 0.01977732002594128 0.0 0.0
-0.0375378169053644 0.034294731602087944 0.0 0.016479239390448718 0.0 0.0
-0.031162368989819854 0.028033533333894863 0.0 0.01416618532978374 0.0 0.0
-0.025442957904858298 0.02249740179408932 0.0 0.01234428121803707 0.0 0.0
-0.02042530087457697 0.017688964831471855 0.0 0.01066639802541277 0.0 0.0
-0.016008295177839336 0.013482568854319367 0.0 0.00899367976032772 0.0 0.0
-0.012091431065062832 0.00976652449465577 0.0 0.007253608217569889 0.0 0.0
-0.008646952839679279 0.00652746369259548 0.0 0.005473498939998932 0.0 0.0
-0.005760843886031421 0.003878629717289905 0.0 0.003804222315438797 0.0 0.0
-0.0035933706605254636 0.002029148234017948 0.0 0.0025844501069636388 0.0 0.0
-0.0022124144934067445 0.0010450307768642953 0.0 0.001970251365951023 0.0 0.0
-0.0014747061921953088 0.0006761679126676979 0.0 0.0018398859111846706 0.0 0.0
-0.0010833899566906888 0.0005234074181452912 0.0 0.0019047444437174134 0.0 0.0
-0.0007971387487309471 0.00038741541166442103 0.0 0.0019774607190866595 0.0 0.0
-0.0004918952997980311 0.00018734792223010918 0.0 0.0019708554462526564 0.0 0.0
-0.0001251508025249031 -0.00021411974873200145 0.0 0.0015370876958832973 0.0 0.0
7.169036331665508e-05 -0.0006035541241796804 0.0 0.0009388190812903525 0.0 0.0
7.622238582215535e-06 -0.00038306427985938015 0.0 -0.0007732710294033667 0.0 0.0
-0.00018270401086739558 -0.0001487768858607344 0.0 -0.001323995239506473 0.0 0.0
-0.0005691872220228739 0.00022234901932133348 0.0 -0.0017656145385803609 0.0 0.0
-0.0009369615326108331 0.000439736724826954 0.0 -0.0017797663037901175 0.0 0.0
-0.0013016364558876223 0.0006053210071713004 0.0 -0.0016690508471363093 0.0 0.0
-0.0018400703794511399 0.0008321714126631254 0.0 -0.0015599070240153062 0.0 0.0
-0.0028747881092030976 0.0014524073064591972 0.0 -0.001753659358327447 0.0 0.0
-0.004722734323862076 0.0029128787671904234 0.0 -0.0025142931585754487 0.0 0.0
-0.007486518538105051 0.005390756561042144 0.0 -0.003882739499611259 0.0 0.0
-0.011053753984140356 0.008724262006475443 0.0 -0.005544508107703287 0.0 0.0
-0.015294500251438144 0.012750147085685377 0.0 -0.007271890756192294 0.0 0.0
-0.02015891845122894 0.01739261941228155 0.0 -0.008967297466513533 0.0 0.0
-0.02567588582910833 0.022674713992842436 0.0 -0.010616300775938114 0.0 0.0
-0.03195404026919597 0.028717846637669735 0.0 -0.012295105161412164 0.0 0.0
-0.03912515809905795 0.03567016466825478 0.0 -0.014124654599874387 0.0 0.0
-0.047162840179629094 0.043562954287880776 0.0 -0.016360001318980855 0.0 0.0
-0.055542548056431634 0.051967303156606505 0.0 -0.01952108108714538 0.0 0.0
-0.06282129289170103 0.05952262410896379 0.0 -0.024009862478096434 0.0 0.0
-0.06628631670456515 0.06355486430239164 0.0 -0.029176508042042526 0.0 0.0
-0.06181010824744901 0.0599861769673703 0.0 -0.033011587803698055 0.0 0.0
-0.05698139224721177 0.04322556656184688 0.0 1.6426963955762375e-14 0.0 0.0
-0.0618101082474401 0.059986176967360694 0.0 0.033011587803732874 0.0 0.0
-0.06628631670454714 0.06355486430237442 0.0 0.02917650804207788 0.0 0.0
-0.0628212928916739 0.05952262410894117 0.0 0.02400986247811727 0.0 0.0
-0.055542548056398286 0.051967303156571214 0.0 0.019521081087145672 0.0 0.0
-0.047162840179592984 0.043562954287843944 0.0 0.016360001318975498 0.0 0.0
-0.03912515809902128 0.0356701646682189 0.0 0.014124654599865706 0.0 0.0
-0.03195404026916 0.028717846637635547 0.0 0.012295105161400368 0.0 0.0
-0.02567588582907274 0.022674713992803904 0.0 0.010616300775926214 0.0 0.0
-0.02015891845119441 0.017392619412249077 0.0 0.008967297466498655 0.0 0.0
-0.015294500251407335 0.0127501470856536 0.0 0.007271890756174388 0.0 0.0
-0.011053753984115582 0.008724262006453112 0.0 0.00554450810768916 0.0 0.0
-0.007486518538086483 0.005390756561023418 0.0 0.0038827394996017424 0.0 0.0
-0.004722734323849344 0.0029128787671788663 0.0 0.00251429315856862 0.0 0.0
-0.0028747881091962866 0.0014524073064548187 0.0 0.0017536593583226878 0.0 0.0
-0.0018400703794484402 0.0008321714126633124 0.0 0.0015599070240135606 0.0 0.0
-0.0013016364558865266 0.000605321007168626 0.0 0.0016690508471346908 0.0 0.0
-0.0009369615326102216 0.00043973672482795225 0.0 0.0017797663037885493 0.0 0.0
-0.0005691872220224591 0.0002223490193203464 0.0 0.0017656145385789132 0.0 0.0
-0.00018270401086704826 -0.00014877688586090664 0.0 0.001323995239505768 0.0 0.0
7.622238582382926e-06 -0.0003830642798588259 0.0 0.0007732710294025509 0.0 0.0
-4.673968389864582e-05 -0.00021047786220784094 0.0 -0.0006055197750774461 0.0 0.0
-0.00023467570676248735 -8.158010894136231e-05 0.0 -0.0010887777228740562 0.0 0.0
-0.0006431845246125325 0.0002582150442351123 0.0 -0.0015109984711385678 0.0 0.0
-0.0010693625297421468 0.00048774436814270504 0.0 -0.0015268052249336709 0.0 0.0
-0.001519483414689016 0.0006791528325695609 0.0 -0.001380713559286486 0.0 0.0
-0.002234929601425826 0.0010240423504846638 0.0 -0.0012585470621982286 0.0 0.0
-0.0036082170479842844 0.0019670393581220553 0.0 -0.0015078492847671217 0.0 0.0
-0.00593661321828046 0.003942628237091515 0.0 -0.0023699975840079358 0.0 0.0
-0.009257508852541362 0.0069884722072282805 0.0 -0.00366397358483179 0.0 0.0
-0.013476541628255043 0.010969609640971439 0.0 -0.005163855756631871 0.0 0.0
-0.018514928840595725 0.015775094209750033 0.0 -0.0067466718052725284 0.0 0.0
-0.024329833557011647 0.021344977710452285 0.0 -0.008297563720637096 0.0 0.0
-0.03095885665016148 0.027716036556475802 0.0 -0.009822393720867156 0.0 0.0
-0.03851247228979624 0.03500975522462657 0.0 -0.011411082283591521 0.0 0.0
-0.04710895269575442 0.0433640177363209 0.0 -0.013143041792944885 0.0 0.0
-0.056729894264259506 0.052809415499765276 0.0 -0.015105153866094284 0.0 0.0
-0.06681545344088918 0.06291122039836665 0.0 -0.017677997387807766 0.0 0.0
-0.07564188966445169 0.07209621353952661 0.0 -0.021672302456841958 0.0 0.0
-0.07994246414498404 0.07712213077200335 0.0 -0.027444132878043197 0.0 0.0
-0.07496964712619679 0.07320754631376475 0.0 -0.03423199543386347 0.0 0.0
-0.06948688026403818 0.054264608057432814 0.0 1.567409396718844e-14 0.0 0.0
-0.07496964712618549 0.07320754631375469 0.0 0.034231995433897405 0.0 0.0
-0.07994246414496141 0.07712213077198089 0.0 0.02744413287807678 0.0 0.0
-0.07564188966441983 0.07209621353949412 0.0 0.021672302456862344 0.0 0.0
-0.0668154534408508 0.0629112203983287 0.0 0.017677997387810652 0.0 0.0
-0.05672989426421736 0.05280941549971796 0.0 0.01510515386609058 0.0 0.0
-0.04710895269571157 0.043364017736280056 0.0 0.013143041792937793 0.0 0.0
-0.03851247228975373 0.03500975522458806 0.0 0.011411082283581337 0.0 0.0
-0.030958856650119174 0.027716036556433128 0.0 0.009822393720857135 0.0 0.0
-0.024329833556971367 0.021344977710414343 0.0 0.008297563720622797 0.0 0.0
-0.01851492884055997 0.01577509420971594 0.0 0.0067466718052566505 0.0 0.0
-0.013476541628225655 0.010969609640944004 0.0 0.005163855756619698 0.0 0.0
-0.00925750885251877 0.006988472207207164 0.0 0.003663973584823771 0.0 0.0
-0.005936613218264657 0.0039426282370790015 0.0 0.002369997584000673 0.0 0.0
-0.0036082170479752474 0.0019670393581148328 0.0 0.0015078492847633894 0.0 0.0
-0.002234929601421919 0.001024042350482713 0.0 0.0012585470621967118 0.0 0.0
-0.001519483414687473 0.0006791528325698453 0.0 0.001380713559286489 0.0 0.0
-0.001069362529741167 0.000487744368142935 0.0 0.0015268052249318496 0.0 0.0
-0.0006431845246119116 0.0002582150442346006 0.0 0.00151099847113641 0.0 0.0
-0.00023467570676215395 -8.158010894144328e-05 0.0 0.0010887777228730286 0.0 0.0
-4.673968389854376e-05 -0.00021047786220752053 0.0 0.0006055197750780792 0.0 0.0
-8.867501386723023e-05 -8.637520945676842e-05 0.0 -0.0004395107859722551 0.0 0.0
-0.0002780259782407154 -1.7426464055838995e-05 0.0 -0.0008341750788515262 0.0 0.0
-0.0007122426653550111 0.0002932791532138704 0.0 -0.0012060070712031062 0.0 0.0
-0.0011968047023227305 0.0005312955685588993 0.0 -0.0012174960049788274 0.0 0.0
-0.001745383529179125 0.0007555305183217308 0.0 -0.0010447361762195983 0.0 0.0
-0.0026741700955855777 0.0012666859614576885 0.0 -0.0009232143091231533 0.0 0.0
-0.004418098560875819 0.0026028066632057434 0.0 -0.0012455397443203264 0.0 0.0
-0.007196674244826746 0.005057915113540315 0.0 -0.0020438893588359862 0.0 0.0
-0.01103589046356876 0.008620470886732455 0.0 -0.0031080941136120764 0.0 0.0
-0.01590296494148152 0.013238012168444818 0.0 -0.004367415052492722 0.0 0.0
-0.02173485732792867 0.018816999756976954 0.0 -0.0056978761699001705 0.0 0.0
-0.028505910070285863 0.02531850610071198 0.0 -0.007004039031734386 0.0 0.0
-0.03626192833279528 0.032791338031017164 0.0 -0.008298198171607617 0.0 0.0
-0.04509744025814672 0.04135163969220724 0.0 -0.009684757152892324 0.0 0.0
-0.055093445387460374 0.051094273539935564 0.0 -0.011224531823741465 0.0 0.0
-0.06618087214167066 0.06198118535474312 0.0 -0.012827836065522123 0.0 0.0
-0.07779694419742647 0.07356778903847093 0.0 -0.014495293059925805 0.0 0.0
-0.0881443439626607 0.08430400058778025 0.0 -0.01724869519132103 0.0 0.0
-0.09353508404064005 0.09059429843934264 0.0 -0.023408915517913596 0.0 0.0
-0.08846845082386237 0.08682534933571188 0.0 -0.03418095659260158 0.0 0.0
-0.08253489041383787 0.06602104123450658 0.0 1.3732938397570393e-14 0.0 0.0
-0.08846845082384944 0.08682534933570757 0.0 0.034180956592631505 0.0 0.0
-0.09353508404061352 0.09059429843931403 0.0 0.023408915517943198 0.0 0.0
-0.0881443439626236 0.08430400058774426 0.0 0.017248695191336674 0.0 0.0
-0.0777969441973822 0.07356778903842544 0.0 0.01449529305992895 0.0 0.0
-0.06618087214162253 0.0619811853546971 0.0 0.012827836065520688 0.0 0.0
-0.055093445387411254 0.05109427353989097 0.0 0.011224531823737062 0.0 0.0
-0.04509744025809775 0.041351639692158895 0.0 0.00968475715288468 0.0 0.0
-0.03626192833274716 0.03279133803096839 0.0 0.008298198171599908 0.0 0.0
-0.028505910070239553 0.025318506100670105 0.0 0.007004039031723837 0.0 0.0
-0.021734857327887467 0.01881699975693462 0.0 0.005697876169887019 0.0 0.0
-0.015902964941448026 0.01323801216841131 0.0 0.004367415052482077 0.0 0.0
-0.011035890463542954 0.008620470886707705 0.0 0.0031080941136043135 0.0 0.0
-0.007196674244808122 0.0050579151135238315 0.0 0.002043889358830039 0.0 0.0
-0.004418098560864683 0.002602806663199083 0.0 0.0012455397443161674 0.0 0.0
-0.0026741700955804013 0.0012666859614529115 0.0 0.0009232143091220794 0.0 0.0
-0.0017453835291771312 0.0007555305183227749 0.0 0.0010447361762203015 0.0 0.0
-0.0011968047023218319 0.0005312955685583399 0.0 0.0012174960049777031 0.0 0.0
-0.0007122426653543657 0.00029327915321405664 0.0 0.001206007071201165 0.0 0.0
-0.00027802597824036783 -1.742646405579982e-05 0.0 0.0008341750788502525 0.0 0.0
-8.867501386696007e-05 -8.637520945674146e-05 0.0 0.0004395107859723228 0.0 0.0
-0.0001135019474901681 -1.165409170037099e-05 0.0 -0.0002846987670865755 0.0 0.0
-0.00030720936567227324 3.7530930814614664e-05 0.0 -0.0005638051942898561 0.0 0.0
-0.0007733765200057662 0.0003242714831257085 0.0 -0.0008449469827781212 0.0 0.0
-0.0013233453539467073 0.0005722927956453248 0.0 -0.000847318361851165 0.0 0.0
-0.0019911555647420406 0.0008467310610504855 0.0 -0.0006674624306690173 0.0 0.0
-0.003173094768898207 0.001592475360391716 0.0 -0.000578022200981296 0.0 0.0
-0.00527893847656726 0.0033332720133101034 0.0 -0.0009017590205947536 0.0 0.0
-0.00846999905285707 0.006204786474705733 0.0 -0.0014725290250848539 0.0 0.0
-0.012812825827257186 0.010268150103855702 0.0 -0.002247836501408455 0.0 0.0
-0.01831556228333739 0.015507560067014436 0.0 -0.0031658773945513422 0.0 0.0
-0.024939030292723773 0.021855763030921085 0.0 -0.0041389021369582935 0.0 0.0
-0.03267093802193967 0.029294176728971708 0.0 -0.005093718788799713 0.0 0.0
-0.0415623299593516 0.03788127099751027 0.0 -0.006053957719313401 0.0 0.0
-0.05169491180431417 0.047719263312032814 0.0 -0.007130147512066564 0.0 0.0
-0.06306878343306216 0.058837034621903955 0.0 -0.008343234880477364 0.0 0.0
-0.07548350142064263 0.07106531753891304 0.0 -0.009519854460166507 0.0 0.0
-0.0883595015035453 0.08386293535226978 0.0 -0.010361531868840276 0.0 0.0
-0.10014761084056488 0.09587720665537307 0.0 -0.011406494631920637 0.0 0.0
-0.107049443955826 0.10384257687608592 0.0 -0.01642586128579534 0.0 0.0
-0.10258791551124116 0.10118492887179036 0.0 -0.031928846645306465 0.0 0.0
-0.09656390383317237 0.07903079876089647 0.0 9.688430613330468e-15 0.0 0.0
-0.10258791551122563 0.10118492887177884 0.0 0.031928846645329856 0.0 0.0
-0.10704944395579477 0.10384257687605673 0.0 0.016425861285819236 0.0 0.0
-0.10014761084052222 0.09587720665533767 0.0 0.011406494631931838 0.0 0.0
-0.08835950150349524 0.08386293535221517 0.0 0.010361531868844765 0.0 0.0
-0.07548350142058831 0.0710653175388644 0.0 0.009519854460166026 0.0 0.0
-0.0630687834330066 0.058837034621848874 0.0 0.008343234880473739 0.0 0.0
-0.051694911804258524 0.047719263311976956 0.0 0.007130147512060061 0.0 0.0
-0.04156232995929665 0.03788127099745286 0.0 0.006053957719307636 0.0 0.0
-0.03267093802188765 0.029294176728924516 0.0 0.005093718788792754 0.0 0.0
-0.02493903029267801 0.021855763030873044 0.0 0.004138902136949309 0.0 0.0
-0.018315562283299808 0.015507560066978728 0.0 0.0031658773945430203 0.0 0.0
-0.012812825827227599 0.010268150103827502 0.0 0.0022478365014014894 0.0 0.0
-0.008469999052835605 0.0062047864746847484 0.0 0.001472529025079974 0.0 0.0
-0.005278938476553792 0.0033332720133007017 0.0 0.0009017590205917148 0.0 0.0
-0.0031730947688915685 0.0015924753603873507 0.0 0.0005780222009801072 0.0 0.0
-0.0019911555647397564 0.0008467310610500336 0.0 0.0006674624306688126 0.0 0.0
-0.001323345353945609 0.0005722927956445487 0.0 0.0008473183618509582 0.0 0.0
-0.0007733765200050975 0.00032427148312597456 0.0 0.0008449469827769815 0.0 0.0
-0.00030720936567205423 3.753093081426703e-05 0.0 0.000563805194289343 0.0 0.0
-0.0001135019474899961 -1.1654091700355206e-05 0.0 0.0002846987670858226 0.0 0.0
-0.00011311611500412826 1.3705418842645883e-05 0.0 -0.00016211974918916363 0.0 0.0
-0.0003127168593852995 7.361252022551604e-05 0.0 -0.0002823040349213266 0.0 0.0
-0.0008218318377149392 0.00034616636436804124 0.0 -0.00041303395823522217 0.0 0.0
-0.0014565147344876234 0.0006163481462772007 0.0 -0.0004087543327651285 0.0 0.0
-0.002275435151672387 0.0009740384651698198 0.0 -0.0002645546185890686 0.0 0.0
-0.003726049950280385 0.002006246605007787 0.0 -0.00021586151800825703 0.0 0.0
-0.00616782234303732 0.004114181456879533 0.0 -0.0004033966653378239 0.0 0.0
-0.009742406704904711 0.007367249437108444 0.0 -0.0006950302948467607 0.0 0.0
-0.014571313978663146 0.011911776030962318 0.0 -0.001089371191132046 0.0 0.0
-0.020698042557435906 0.017757455314224513 0.0 -0.001567467807626553 0.0 0.0
-0.02810986084971725 0.024872265804005266 0.0 -0.0020707430015300524 0.0 0.0
-0.03680977508473385 0.03325712736573664 0.0 -0.0025691552575708328 0.0 0.0
-0.046849235703740395 0.04297005585832795 0.0 -0.003113126924730787 0.0 0.0
-0.05827027327380893 0.05407913324319155 0.0 -0.0037382180213415845 0.0 0.0
-0.07099630276661277 0.06654983994518388 0.0 -0.004440283022806048 0.0 0.0
-0.08467556880024385 0.08006894822767124 0.0 -0.005118422668479135 0.0 0.0
-0.09854077535256874 0.09388461021158205 0.0 -0.005476585795734026 0.0 0.0
-0.11130435185998108 0.10668167870498832 0.0 -0.005394628050435171 0.0 0.0
-0.1201745307229495 0.11607227957044619 0.0 -0.007340904400317139 0.0 0.0
-0.11772377700159303 0.11648611971456355 0.0 -0.02280912518256005 0.0 0.0
-0.1123116201253475 0.09489069288454255 0.0 5.422745585903499e-15 0.0 0.0
-0.11772377700157452 0.11648611971454792 0.0 0.022809125182573727 0.0 0.0
-0.1201745307229145 0.11607227957041191 0.0 0.007340904400330693 0.0 0.0
-0.11130435185993222 0.10668167870493962 0.0 0.0053946280504393405 0.0 0.0
-0.09854077535251178 0.09388461021152635 0.0 0.00547658579573675 0.0 0.0
-0.08467556880018358 0.08006894822761121 0.0 0.005118422668478551 0.0 0.0
-0.07099630276655114 0.06654983994512464 0.0 0.0044402830228044065 0.0 0.0
-0.058270273273747106 0.05407913324313257 0.0 0.003738218021339202 0.0 0.0
-0.04684923570367947 0.042970055858268415 0.0 0.003113126924728947 0.0 0.0
-0.03680977508467628 0.03325712736568453 0.0 0.0025691552575671885 0.0 0.0
-0.028109860849666934 0.02487226580395311 0.0 0.0020707430015246553 0.0 0.0
-0.020698042557394852 0.017757455314188025 0.0 0.0015674678076205845 0.0 0.0
-0.01457131397863041 0.01191177603093032 0.0 0.0010893711911289536 0.0 0.0
-0.00974240670488034 0.007367249437082933 0.0 0.0006950302948439079 0.0 0.0
-0.006167822343021614 0.004114181456866569 0.0 0.00040339666533644944 0.0 0.0
-0.0037260499502722675 0.002006246605002036 0.0 0.00021586151800809613 0.0 0.0
-0.0022754351516692216 0.0009740384651682021 0.0 0.00026455461858928224 0.0 0.0
-0.001456514734486443 0.0006163481462763451 0.0 0.0004087543327663061 0.0 0.0
-0.0008218318377143161 0.00034616636436772996 0.0 0.0004130339582347791 0.0 0.0
-0.00031271685938511406 7.361252022513645e-05 0.0 0.0002823040349208859 0.0 0.0
-0.00011311611500411278 1.3705418842734504e-05 0.0 0.0001621197491893505 0.0 0.0
-7.271864873309905e-05 1.4157610749365009e-05 0.0 -0.0001017031260926427 0.0 0.0
-0.0002781219942739568 8.53975154167028e-05 0.0 -0.00011717580024803005 0.0 0.0
-0.0008510092335220624 0.00035414417213702455 0.0 -0.0001406985404912573 0.0 0.0
-0.00161086486072999 0.0006399521995390735 0.0 -0.00012189865600540168 0.0 0.0
-0.002610930020965751 0.0010510567693416113 0.0 5.2615838507225944e-05 0.0 0.0
-0.004320277590380786 0.0022309710609328777 0.0 0.00021171276321840755 0.0 0.0
-0.007067304408074419 0.004512607237899422 0.0 0.0002647936399007935 0.0 0.0
-0.011002393831434186 0.007950867386442323 0.0 0.0002846074430571016 0.0 0.0
-0.016296166684035843 0.01272980771401748 0.0 0.00027904974841833335 0.0 0.0
-0.023032720568799875 0.018875151969862145 0.0 0.00022485529072492866 0.0 0.0
-0.03123176605249813 0.026372156800648736 0.0 0.00016823702937078218 0.0 0.0
-0.0409124623373099 0.03523423687657787 0.0 0.00010611143170683075 0.0 0.0
-0.05209603040780768 0.04551244327987725 0.0 -2.2273059310625593e-05 0.0 0.0
-0.06478511740805606 0.057251518532452285 0.0 -0.00018494693218589625 0.0 0.0
-0.0788422791731189 0.07039321166784873 0.0 -0.0004470189550447763 0.0 0.0
-0.09377010864181022 0.08455152707912206 0.0 -0.0007922890708380783 0.0 0.0
-0.10855199492983184 0.0988475064582526 0.0 -0.0010871191684371454 0.0 0.0
-0.12167199562207381 0.11190027488496004 0.0 -0.0010801364670127 0.0 0.0
-0.13147751897194113 0.12176692843859241 0.0 -0.0016546394597894568 0.0 0.0
-0.13389145403716018 0.12437229696229213 0.0 -0.01631092175428371 0.0 0.0
-0.132428315371728 0.10384889259753492 0.0 2.6229018956769323e-15 0.0 0.0
-0.13389145403713953 0.12437229696228104 0.0 0.01631092175428695 0.0 0.0
-0.13147751897190096 0.12176692843855548 0.0 0.0016546394597923425 0.0 0.0
-0.12167199562201762 0.11190027488489959 0.0 0.0010801364670121032 0.0 0.0
-0.10855199492976789 0.09884750645820142 0.0 0.0010871191684370674 0.0 0.0
-0.09377010864174368 0.08455152707906069 0.0 0.0007922890708361892 0.0 0.0
-0.07884227917305033 0.07039321166778939 0.0 0.00044701895504250383 0.0 0.0
-0.06478511740798715 0.05725151853239248 0.0 0.00018494693218233833 0.0 0.0
-0.05209603040774047 0.04551244327981712 0.0 2.227305931006788e-05 0.0 0.0
-0.04091246233724637 0.035234236876523856 0.0 -0.00010611143170903732 0.0 0.0
-0.031231766052442992 0.02637215680059121 0.0 -0.00016823702937314314 0.0 0.0
-0.02303272056875505 0.018875151969824304 0.0 -0.00022485529072614925 0.0 0.0
-0.016296166683999927 0.012729807713985831 0.0 -0.00027904974841764336 0.0 0.0
-0.011002393831407416 0.007950867386414564 0.0 -0.0002846074430563187 0.0 0.0
-0.007067304408056635 0.004512607237885439 0.0 -0.0002647936398994965 0.0 0.0
-0.004320277590371081 0.0022309710609245696 0.0 -0.0002117127632162623 0.0 0.0
-0.0026109300209616847 0.0010510567693401114 0.0 -5.261583850640244e-05 0.0 0.0
-0.0016108648607285803 0.0006399521995387512 0.0 0.00012189865600747962 0.0 0.0
-0.000851009233521542 0.0003541441721364992 0.0 0.0001406985404916114 0.0 0.0
-0.00027812199427365927 8.539751541646197e-05 0.0 0.00011717580024672871 0.0 0.0
-7.271864873280352e-05 1.4157610749438762e-05 0.0 0.00010170312609262381 0.0 0.0
SCALARS Statev float 8
LOOKUP_TABLE default
0.0 0.015997206620757657 0.012740578241434024 -0.015306895262901733 0.002566317021467729 -0.0006857487135718496 0.0 0.0
0.0 0.005159278255991755 0.0037367408445727586 -0.0022055304894035375 -0.0015312103551692194 -0.006119466160715222 0.0 0.0
0.0 2.9827991099436855e-05 7.206745255754436e-05 -4.6207619865908134e-05 -2.5859832691636256e-05 -0.00017993772789066617 0.0 0.0
0.0 0.00010850057713718221 2.5019777940564044e-05 -1.781960535280437e-05 -7.200172587759768e-06 1.0463639173041182e-05 0.0 0.0
0.0 0.0006762862618828817 0.00037229962015530903 -0.00026972173532973764 -0.0001025778848255717 8.699606888538027e-05 0.0 0.0
0.0 0.001657641261842439 0.0016895547127723587 -0.0013121390916483655 -0.0003774156211239913 0.00018138825441816695 0.0 0.0
0.0 0.004376026938127617 0.004042620966500741 -0.003373502194163329 -0.0006691187723374121 0.0002534470718835836 0.0 0.0
0.0 0.008414695445174352 0.007664956842475577 -0.006743648384627305 -0.0009213084578482749 0.00029098007206036916 0.0 0.0
0.0 0.01406605481789851 0.012653043171577904 -0.011524292664530835 -0.0011287505070470627 0.0002999751486074939 0.0 0.0
0.0 0.021423589399840435 0.01906114646019112 -0.01772379496815141 -0.001337351492039722 0.00026536895673998464 0.0 0.0
0.0 0.030493114551785508 0.026906665179019167 -0.025331819315722193 -0.001574845863296948 0.00022646978724624723 0.0 0.0
0.0 0.0409758670058624 0.036219674944023526 -0.03437176727049458 -0.0018479076735289422 0.0001768934580552126 0.0 0.0
0.0 0.05326465279912377 0.04702911120602908 -0.04488076167353727 -0.0021483495324918535 5.555706789197028e-05 0.0 0.0
0.0 0.06732752773007727 0.05936041756402083 -0.056894073015653884 -0.002466344548366954 -8.550348675624914e-05 0.0 0.0
0.0 0.08310533374686974 0.07315790503947793 -0.07037221863459933 -0.0027856864048784688 -0.0002990827050117189 0.0 0.0
0.0 0.10029762242067836 0.08812245067249837 -0.08503328848601734 -0.0030891621864810297 -0.000597405279659494 0.0 0.0
0.0 0.1181043924540327 0.103591478069325 -0.10023037680975685 -0.003361101259568122 -0.0009322037527362127 0.0 0.0
0.0 0.13530089082538108 0.1185138265911281 -0.11492841390936766 -0.0035854126817602395 -0.001174954391987572 0.0 0.0
0.0 0.15033307790291917 0.13155043840858102 -0.12779647426249707 -0.0037539641460840574 -0.0011535660332140083 0.0 0.0
0.0 0.16120450761629512 0.14115933528867572 -0.13731255142311893 -0.003846783865556877 -0.001168948855456387 0.0 0.0
0.0 0.16556013151931298 0.14494530357663837 -0.14111015971136648 -0.003835143865271835 2.0582494042464816e-15 0.0 0.0
0.0 0.16120450761627658 0.141159335288659 -0.1373125514231031 -0.0038467838655558513 0.0011689488554637332 0.0 0.0
0.0 0.1503330779028816 0.13155043840854777 -0.1277964742624654 -0.003753964146082306 0.001153566033220155 0.0 0.0
0.0 0.1353008908253211 0.11851382659107546 -0.11492841390931653 -0.00358541268175892 0.0011749543919901025 0.0 0.0
0.0 0.11810439245396565 0.10359147806926652 -0.10023037680970018 -0.003361101259566371 0.0009322037527348653 0.0 0.0
0.0 0.10029762242060716 0.0881224506724356 -0.08503328848595612 -0.003089162186479546 0.0005974052796568464 0.0 0.0
0.0 0.08310533374679496 0.07315790503941294 -0.07037221863453512 -0.002785686404877738 0.0002990827050117031 0.0 0.0
0.0 0.06732752773000131 0.05936041756395455 -0.05689407301558889 -0.0024663445483657023 8.550348675551286e-05 0.0 0.0
0.0 0.05326465279905187 0.04702911120596621 -0.0448807616734761 -0.0021483495324900676 -5.555706789402235e-05 0.0 0.0
0.0 0.04097586700579559 0.03621967494396483 -0.03437176727043753 -0.0018479076735272901 -0.00017689345805706864 0.0 0.0
0.0 0.0304931145517283 0.026906665178968982 -0.025331819315673396 -0.0015748458632955688 -0.0002264697872473504 0.0 0.0
0.0 0.021423589399797296 0.019061146460153243 -0.01772379496811504 -0.0013373514920382253 -0.00026536895674156714 0.0 0.0
0.0 0.01406605481786233 0.012653043171545742 -0.011524292664499863 -0.0011287505070458595 -0.0002999751486076992 0.0 0.0
0.0 0.008414695445151077 0.0076649568424542736 -0.006743648384607212 -0.0009213084578470655 -0.00029098007206007436 0.0 0.0
0.0 0.004376026938113075 0.004042620966486695 -0.0033735021941506764 -0.0006691187723360138 -0.0002534470718834561 0.0 0.0
0.0 0.0016576412618350491 0.0016895547127646158 -0.0013121390916420214 -0.0003774156211225928 -0.00018138825441740665 0.0 0.0
0.0 0.0006762862618798163 0.0003722996201534784 -0.00026972173532843275 -0.00010257788482504474 -8.699606888487462e-05 0.0 0.0
0.0 0.00010850057713633154 2.50197779405726e-05 -1.781960535281895e-05 -7.200172587753173e-06 -1.0463639172992177e-05 0.0 0.0
0.0 2.9827991098583625e-05 7.206745255693584e-05 -4.620761986547939e-05 -2.5859832691456028e-05 0.00017993772788972727 0.0 0.0
0.0 0.005159278255982524 0.0037367408445679335 -0.002205530489400218 -0.0015312103551677093 0.0061194661607059855 0.0 0.0
0.0 0.015997206620738006 0.012740578241420594 -0.015306895262883162 0.0025663170214625507 0.0006857487135387544 0.0 0.0
0.0 0.012918497433427156 0.009587048739715697 -0.012538622559766318 0.002951573820050608 -0.0002276522976060655 0.0 0.0
0.0 0.0030366442923105124 0.0021706180089241223 -0.0012477838960676742 -0.0009228341128564441 -0.004653815453232102 0.0 0.0
0.0 -4.3388433758229156e-05 -5.012542486383483e-05 4.2702762197013016e-05 7.422662666821816e-06 -3.811111204135068e-05 0.0 0.0
0.0 1.0923371286444439e-05 2.67336212332766e-06 -1.834938876476437e-06 -8.384232468512584e-07 5.369428237253146e-06 0.0 0.0
0.0 0.00032367615070688616 0.00021990099634849286 -0.00016051862947552464 -5.938236687296807e-05 3.5763146658988064e-05 0.0 0.0
0.0 0.0014710009303467975 0.00123406589593918 -0.0009669737885767994 -0.00026709210736238246 5.131073037894156e-05 0.0 0.0
0.0 0.0036565169673005546 0.0033783777046032986 -0.002849017956823654 -0.0005293597477796406 -0.00012348297968411902 0.0 0.0
0.0 0.0074015159006573595 0.006693247355969656 -0.005961901489710861 -0.000731345866258797 -0.0004064089038286318 0.0 0.0
0.0 0.012671292052478156 0.011290545601539635 -0.010425149520623787 -0.0008653960809158443 -0.0007974138927270827 0.0 0.0
0.0 0.019457193754826584 0.01719138728695574 -0.016219465571553807 -0.0009719217154019377 -0.0012696695648121762 0.0 0.0
0.0 0.027772064325952858 0.02438467904449919 -0.02330950404587155 -0.0010751749986276592 -0.0017735269897196262 0.0 0.0
0.0 0.03772823710263347 0.03288144265564692 -0.03169962650539045 -0.0011818161502564312 -0.0022826997429960787 0.0 0.0
0.0 0.048810053406097724 0.04274498760207257 -0.04145359707770282 -0.0012913905243696943 -0.002844075918613968 0.0 0.0
0.0 0.06181338849526958 0.05402167813352387 -0.05262481030985166 -0.0013968678236722172 -0.003473799022494351 0.0 0.0
0.0 0.07639741631544586 0.06667472616469243 -0.06518764977043917 -0.0014870763942532476 -0.004162275356956497 0.0 0.0
0.0 0.09229541962811828 0.08044251881973762 -0.0788901431037652 -0.0015523757159724607 -0.004870196751271524 0.0 0.0
0.0 0.10884274900275864 0.09472507062619279 -0.09313825741378179 -0.0015868132124108826 -0.005429848871875698 0.0 0.0
0.0 0.12492724424064115 0.10856540113649572 -0.10697369058185842 -0.001591710554637431 -0.005544205838789799 0.0 0.0
0.0 0.13902359634798186 0.1206928584435186 -0.11912472055966136 -0.0015681378838571303 -0.0049541568960145945 0.0 0.0
0.0 0.1492749174758648 0.12945779805369667 -0.127975782421977 -0.0014820156317196498 -0.003877661237643275 0.0 0.0
0.0 0.15351085837457462 0.1328432518519706 -0.1314950346950169 -0.0013482171569538302 5.391954244204911e-15 0.0 0.0
0.0 0.14927491747584448 0.12945779805367866 -0.12797578242195878 -0.0014820156317198615 0.0038776612376581767 0.0 0.0
0.0 0.1390235963479467 0.12069285844348784 -0.11912472055963134 -0.001568137883856424 0.004954156896030047 0.0 0.0
0.0 0.12492724424058604 0.10856540113644814 -0.10697369058181067 -0.001591710554637403 0.0055442058387969355 0.0 0.0
0.0 0.10884274900269898 0.09472507062614124 -0.09313825741373104 -0.0015868132124102047 0.0054298488718771895 0.0 0.0
0.0 0.09229541962805482 0.08044251881968213 -0.07889014310371063 -0.001552375715971402 0.004870196751268698 0.0 0.0
0.0 0.07639741631537811 0.06667472616463355 -0.06518764977038081 -0.0014870763942528215 0.004162275356955518 0.0 0.0
0.0 0.06181338849520201 0.05402167813346527 -0.052624810309793504 -0.00139686782367175 0.003473799022492555 0.0 0.0
0.0 0.048810053406030694 0.042744987602014596 -0.041453597077645246 -0.00129139052436934 0.002844075918610263 0.0 0.0
0.0 0.03772823710257394 0.03288144265559499 -0.031699626505338904 -0.0011818161502560806 0.002282699742991905 0.0 0.0
0.0 0.027772064325899674 0.02438467904445298 -0.023309504045825928 -0.0010751749986270833 0.0017735269897145957 0.0 0.0
0.0 0.01945719375478594 0.017191387286919668 -0.016219465571518477 -0.0009719217154011856 0.0012696695648084112 0.0 0.0
0.0 0.012671292052445661 0.011290545601510436 -0.010425149520595322 -0.0008653960809151138 0.000797413892724626 0.0 0.0
0.0 0.007401515900635806 0.006693247355949991 -0.005961901489692048 -0.0007313458662579409 0.00040640890382655876 0.0 0.0
0.0 0.0036565169672869427 0.0033783777045904573 -0.002849017956812006 -0.0005293597477784483 0.0001234829796828257 0.0 0.0
0.0 0.0014710009303394958 0.001234065895932803 -0.0009669737885715578 -0.0002670921073612455 -5.131073037898092e-05 0.0 0.0
0.0 0.00032367615070491416 0.00021990099634748567 -0.0001605186294748176 -5.938236687266829e-05 -3.576314665864679e-05 0.0 0.0
0.0 1.0923371285923674e-05 2.6733621235046085e-06 -1.8349388766123085e-06 -8.384232468921184e-07 -5.369428237246923e-06 0.0 0.0
0.0 -4.338843375800799e-05 -5.012542486355767e-05 4.270276219677448e-05 7.422662666783037e-06 3.8111112041181706e-05 0.0 0.0
0.0 0.0030366442923010946 0.0021706180089189277 -0.0012477838960640952 -0.000922834112854833 0.004653815453221434 0.0 0.0
0.0 0.012918497433406504 0.009587048739699896 -0.01253862255974611 0.002951573820046208 0.00022765229758185413 0.0 0.0
0.0 0.009472183683075865 0.00687561312602756 -0.009255188334256727 0.002379575208229163 -0.002404283995993523 0.0 0.0
0.0 0.0021094078069791937 0.0013281475518105805 -0.0006856620398355285 -0.0006424855119750517 -0.0036898843920267353 0.0 0.0
0.0 2.5678426942533087e-08 -2.678779843523035e-09 2.105284134767642e-09 5.734957087552363e-10 -4.864799241920996e-10 0.0 0.0
0.0 9.41522257557445e-07 -9.215908333844049e-07 7.193415303694969e-07 2.022493030147824e-07 3.8758227901939127e-07 0.0 0.0
0.0 0.00010705063706916695 7.405226344572396e-05 -5.1865336338963996e-05 -2.21869271067603e-05 1.5314081994586647e-05 0.0 0.0
0.0 0.0010038517731100645 0.0007794357018993112 -0.0005954276327900371 -0.00018400806910927366 -2.4133331375974598e-05 0.0 0.0
0.0 0.002741591964816179 0.0025944692146514566 -0.0021417278832383743 -0.00045274133141308496 -0.00036968988753077086 0.0 0.0
0.0 0.006094161538895445 0.0055189914587298935 -0.004847396869916336 -0.0006715945888135545 -0.0009321851424680049 0.0 0.0
0.0 0.010780756179379415 0.009631582428793835 -0.008813726304290432 -0.0008178561245033982 -0.00169542466237969 0.0 0.0
0.0 0.016912820826285993 0.01491228703141693 -0.01398840326916943 -0.0009238837622475086 -0.002603342961520331 0.0 0.0
0.0 0.02436054468184265 0.021322489597965583 -0.020300990728733377 -0.001021498869232183 -0.003578062174315842 0.0 0.0
0.0 0.033003237029618306 0.028859059438678364 -0.027737438432746023 -0.0011216210059323173 -0.004554869179000239 0.0 0.0
0.0 0.04325839799733249 0.03757962011839443 -0.03635539845490339 -0.0012242216634910834 -0.005550978069894743 0.0 0.0
0.0 0.054533138256863546 0.04757926236288446 -0.04625668182680778 -0.0013225805360766608 -0.006656910941980819 0.0 0.0
0.0 0.06755020037443071 0.05884351836927519 -0.057436214540154004 -0.0014073038291212013 -0.007883363216364994 0.0 0.0
0.0 0.08178322043711926 0.07115980393108817 -0.0696905094980464 -0.0014692944330417137 -0.009114694804327252 0.0 0.0
0.0 0.09666772560896336 0.08402500578817028 -0.08252025954478877 -0.0015047462433815464 -0.010060991575605195 0.0 0.0
0.0 0.11121835459854346 0.09659764140672497 -0.0950863912923592 -0.0015112501143657267 -0.010253337766897486 0.0 0.0
0.0 0.1240594251673257 0.10766488554344489 -0.10618646998419672 -0.0014784155592481184 -0.009284119084527876 0.0 0.0
0.0 0.13338588381572755 0.11566858723111184 -0.1142484831540451 -0.0014201040770666798 -0.007039195190610081 0.0 0.0
0.0 0.13738120159372744 0.11884436866272471 -0.11758952392155414 -0.0012548447411705138 1.0601762523432257e-14 0.0 0.0
0.0 0.13338588381570804 0.11566858723109417 -0.114248483154027 -0.001420104077067263 0.007039195190635368 0.0 0.0
0.0 0.12405942516729378 0.10766488554341687 -0.10618646998416906 -0.0014784155592478985 0.009284119084554059 0.0 0.0
0.0 0.11121835459849524 0.09659764140668331 -0.09508639129231718 -0.0015112501143660505 0.01025333776691146 0.0 0.0
0.0 0.09666772560890893 0.08402500578812358 -0.0825202595447424 -0.001504746243381181 0.010060991575607102 0.0 0.0
0.0 0.08178322043706458 0.07115980393104018 -0.06969050949799958 -0.0014692944330405979 0.009114694804323496 0.0 0.0
0.0 0.06755020037436987 0.05884351836922218 -0.057436214540101956 -0.0014073038291202316 0.007883363216362583 0.0 0.0
0.0 0.054533138256805794 0.04757926236283418 -0.046256681826758274 -0.0013225805360759044 0.0066569109419784035 0.0 0.0
0.0 0.043258397997273434 0.03757962011834338 -0.03635539845485266 -0.0012242216634907371 0.005550978069888092 0.0 0.0
0.0 0.03300323702956556 0.028859059438632737 -0.027737438432700892 -0.0011216210059318212 0.004554869178992631 0.0 0.0
0.0 0.024360544681795788 0.021322489597924352 -0.020300990728692694 -0.0010214988692316574 0.0035780621743074703 0.0 0.0
0.0 0.016912820826249283 0.014912287031384376 -0.013988403269137344 -0.0009238837622470152 0.0026033429615131393 0.0 0.0
0.0 0.01078075617934995 0.009631582428767601 -0.008813726304264958 -0.0008178561245026521 0.0016954246623746001 0.0 0.0
0.0 0.00609416153887626 0.005518991458712774 -0.004847396869900126 -0.0006715945888126457 0.0009321851424641426 0.0 0.0
0.0 0.0027415919648050365 0.0025944692146408423 -0.0021417278832289487 -0.00045274133141189293 0.0003696898875284665 0.0 0.0
0.0 0.001003851773104144 0.0007794357018944239 -0.0005954276327861713 -0.00018400806910825204 2.4133331375432117e-05 0.0 0.0
0.0 0.0001070506370679661 7.405226344536214e-05 -5.186533633873429e-05 -2.2186927106627828e-05 -1.5314081994310057e-05 0.0 0.0
0.0 9.415222572463741e-07 -9.215908333889674e-07 7.193415303747195e-07 2.0224930301426918e-07 -3.8758227903400815e-07 0.0 0.0
0.0 2.5678426919816804e-08 -2.678779841143436e-09 2.1052841328877173e-09 5.734957082559921e-10 4.864799235722653e-10 0.0 0.0
0.0 0.002109407806971786 0.0013281475518060778 -0.0006856620398325249 -0.0006424855119735514 0.0036898843920150385 0.0 0.0
0.0 0.009472183683055073 0.006875613126012193 -0.009255188334236901 0.00237957520822471 0.0024042839959772296 0.0 0.0
0.0 0.007072233754352115 0.004990090019000559 -0.006864465211553428 0.0018743751925528618 -0.0026455397116824557 0.0 0.0
0.0 0.0014668419499739515 0.000865374957447043 -0.00043061126687675633 -0.00043476369057028597 -0.0026943418629924495 0.0 0.0
0.0 0.0 0.0 0.0 0.0 0.0 0.0 0.0
0.0 -3.8232902855557397e-07 -4.198957427426172e-08 4.056166631597273e-08 1.4279079582853926e-09 3.464294094366905e-08 0.0 0.0
0.0 2.360804682434823e-05 6.200267234669543e-07 1.2080067325984285e-06 -1.8280334560651128e-06 1.2746952812490534e-05 0.0 0.0
0.0 0.0005231009193196394 0.0004352224472937223 -0.000324604219387184 -0.00011061822790653776 -6.172225224426178e-05 0.0 0.0
0.0 0.0021093985682605234 0.0018307127392734762 -0.0014737705035266088 -0.00035694223574686415 -0.0004343726863943988 0.0 0.0
0.0 0.004824670485861254 0.00436187540748865 -0.0037647495761341365 -0.0005971258313545178 -0.0012452142309786745 0.0 0.0
0.0 0.008962034773013846 0.007970425519872874 -0.007210051698931623 -0.000760373820941248 -0.0022985706556360626 0.0 0.0
0.0 0.014373114375360846 0.012619400420556976 -0.011749237144409251 -0.0008701632761477194 -0.0035475102970970677 0.0 0.0
0.0 0.02087633092804631 0.018244587768648932 -0.01728150051690948 -0.0009630872517394383 -0.0048829323114703 0.0 0.0
0.0 0.028575729663891936 0.024823144358245935 -0.023766930891324825 -0.0010562134669211082 -0.006217366101841913 0.0 0.0
0.0 0.03723438178865137 0.03241785854102227 -0.031265534512871715 -0.0011523240281505578 -0.007565337689340442 0.0 0.0
0.0 0.047543292998146504 0.04112114965534829 -0.03987817747327568 -0.001242972182072611 -0.009018557646439034 0.0 0.0
0.0 0.0588432457048302 0.05097399589940437 -0.04965238506150017 -0.0013216108379041733 -0.010622889129862905 0.0 0.0
0.0 0.07121514104076485 0.06182469705328505 -0.06044220370564793 -0.0013824933476371227 -0.012252187268355638 0.0 0.0
0.0 0.08452856080995916 0.07326252322283149 -0.07184328682656436 -0.0014192363962671141 -0.013528900168252117 0.0 0.0
0.0 0.09761367814044732 0.08456745510059517 -0.08314139090015815 -0.001426064200437018 -0.013877655489012881 0.0 0.0
0.0 0.10925126598004663 0.09464339542092251 -0.09324415019278448 -0.0013992452281379514 -0.01270197809378399 0.0 0.0
0.0 0.11783400392573298 0.10209834715981804 -0.10074325602108597 -0.001355091138732177 -0.009361588592805335 0.0 0.0
0.0 0.12179922301312837 0.10521981875267272 -0.10409725179080223 -0.0011225669618705 1.4411215276677325e-14 0.0 0.0
0.0 0.11783400392571948 0.10209834715980474 -0.10074325602107309 -0.0013550911387316554 0.009361588592839901 0.0 0.0
0.0 0.10925126598001678 0.09464339542089595 -0.09324415019275761 -0.0013992452281383482 0.01270197809381726 0.0 0.0
0.0 0.09761367814040654 0.08456745510055945 -0.08314139090012232 -0.0014260642004371449 0.01387765548903283 0.0 0.0
0.0 0.08452856080991146 0.07326252322279059 -0.07184328682652388 -0.0014192363962667186 0.013528900168254674 0.0 0.0
0.0 0.07121514104071426 0.06182469705324134 -0.060442203705604006 -0.0013824933476373207 0.012252187268350733 0.0 0.0
0.0 0.058843245704777586 0.05097399589935864 -0.04965238506145508 -0.0013216108379035716 0.01062288912985819 0.0 0.0
0.0 0.047543292998095045 0.041121149655303585 -0.03987817747323114 -0.0012429721820724044 0.009018557646433846 0.0 0.0
0.0 0.03723438178860065 0.03241785854097861 -0.03126553451282863 -0.0011523240281499578 0.007565337689332406 0.0 0.0
0.0 0.028575729663846364 0.024823144358205936 -0.023766930891285492 -0.0010562134669204715 0.0062173661018313 0.0 0.0
0.0 0.020876330928005265 0.018244587768613117 -0.017281500516874188 -0.0009630872517389209 0.004882932311459531 0.0 0.0
0.0 0.014373114375328547 0.012619400420528669 -0.011749237144381603 -0.0008701632761470598 0.003547510297087342 0.0 0.0
0.0 0.008962034772989328 0.007970425519851351 -0.007210051698910743 -0.0007603738209406059 0.002298570655629496 0.0 0.0
0.0 0.004824670485844582 0.004361875407473082 -0.00376474957611966 -0.0005971258313534187 0.0012452142309734855 0.0 0.0
0.0 0.0021093985682508892 0.0018307127392655324 -0.0014737705035198201 -0.00035694223574571186 0.00043437268639173174 0.0 0.0
0.0 0.0005231009193152125 0.0004352224472904898 -0.0003246042193847159 -0.00011061822790577383 6.172225224375377e-05 0.0 0.0
0.0 2.360804682366359e-05 6.200267236619586e-07 1.208006732430025e-06 -1.8280334560920256e-06 -1.2746952812234749e-05 0.0 0.0
0.0 -3.8232902846743564e-07 -4.198957432687927e-08 4.056166635714981e-08 1.4279079697418263e-09 -3.464294098334654e-08 0.0 0.0
0.0 0.0 0.0 0.0 0.0 0.0 0.0 0.0
0.0 0.0014668419499675248 0.0008653749574433477 -0.00043061126687429655 -0.0004347636905690541 0.002694341862982498 0.0 0.0
0.0 0.00707223375433493 0.004990090018987188 -0.006864465211535999 0.0018743751925488225 0.002645539711670547 0.0 0.0
0.0 0.005075040601573877 0.0035665503502803923 -0.00499254647809088 0.00142599612781049 -0.0022863369773665986 0.0 0.0
0.0 0.0011692818996036569 0.0005329058356114461 -0.0002509915407149895 -0.000281914294896456 -0.0018361748785846242 0.0 0.0
0.0 0.0 0.0 0.0 0.0 0.0 0.0 0.0
0.0 -1.7918878968638495e-07 1.6580370838373166e-08 -1.3354665710081564e-08 -3.22570512829003e-09 -1.9972891801069645e-08 0.0 0.0
0.0 -1.7610168200803857e-05 -8.919689824856715e-06 7.17977661114441e-06 1.7399132137122948e-06 8.842185141194101e-06 0.0 0.0
0.0 0.00024353374472687353 0.00016748606849530448 -0.00012109775142556542 -4.638831706973893e-05 -2.670769427699203e-05 0.0 0.0
0.0 0.0014899730842465905 0.001164295529079886 -0.0009130370730106811 -0.00025125845606920445 -0.00040957603098142596 0.0 0.0
0.0 0.0036219226142145088 0.003240140434382718 -0.0027331407973463454 -0.0005069996370363743 -0.0013053121566365129 0.0 0.0
0.0 0.007178762219642066 0.0063273344640129466 -0.005638289185029292 -0.0006890452789836507 -0.0025992710674933345 0.0 0.0
0.0 0.011833930949158761 0.010332610154135148 -0.009525033856013575 -0.0008075762981215707 -0.0040946371334440925 0.0 0.0
0.0 0.017489023198751962 0.01516847865041159 -0.014269934300151022 -0.0008985443502605716 -0.0056867858354334045 0.0 0.0
0.0 0.024084008328821932 0.02079555449056524 -0.019810377865324538 -0.0009851766252406899 -0.007270584540150404 0.0 0.0
0.0 0.03172360345329105 0.02726271118328842 -0.0261893261130764 -0.0010733850702119897 -0.008860920433870769 0.0 0.0
0.0 0.040143157627933274 0.03468339888910999 -0.0335252109046396 -0.0011581879844703707 -0.010557860169622806 0.0 0.0
0.0 0.05004301853881234 0.04311039542485626 -0.04187914427835464 -0.0012312511465016212 -0.012405942189409616 0.0 0.0
0.0 0.060994401484361326 0.0524631679202657 -0.05117489585645861 -0.0012882720638070742 -0.014271080314698176 0.0 0.0
0.0 0.07241224177037045 0.06244596664329631 -0.06111869729674402 -0.001327269346552252 -0.015790499504062794 0.0 0.0
0.0 0.08398378241005977 0.07246968399838247 -0.07112933142580326 -0.0013403525725792513 -0.01635852858473683 0.0 0.0
0.0 0.09451099552965 0.08161037341346902 -0.0802882829593281 -0.0013220904541409392 -0.015131659481061634 0.0 0.0
0.0 0.10257118280983125 0.08865241737469652 -0.08736947065014858 -0.0012829467245478487 -0.011105582137401902 0.0 0.0
0.0 0.10663916872417328 0.09181207930822162 -0.09084505664572695 -0.0009670226624946839 1.6286885035077248e-14 0.0 0.0
0.0 0.10257118280981965 0.0886524173746845 -0.08736947065013648 -0.0012829467245478838 0.011105582137440987 0.0 0.0
0.0 0.0945109955296248 0.08161037341344574 -0.08028828295930532 -0.0013220904541404394 0.015131659481098316 0.0 0.0
0.0 0.08398378241002297 0.07246968399834994 -0.0711293314257703 -0.0013403525725796818 0.01635852858475816 0.0 0.0
0.0 0.07241224177033377 0.06244596664326438 -0.061118697296713265 -0.00132726934655113 0.015790499504067912 0.0 0.0
0.0 0.060994401484315765 0.05246316792022638 -0.05117489585641938 -0.0012882720638069578 0.014271080314690956 0.0 0.0
0.0 0.05004301853876808 0.0431103954248176 -0.04187914427831678 -0.0012312511465008209 0.012405942189403472 0.0 0.0
0.0 0.040143157627887394 0.03468339888907021 -0.03352521090460012 -0.0011581879844700953 0.0105578601696166 0.0 0.0
0.0 0.03172360345324831 0.027262711183251083 -0.02618932611303968 -0.0010733850702113947 0.008860920433862574 0.0 0.0
0.0 0.024084008328783147 0.02079555449053144 -0.01981037786529131 -0.0009851766252401185 0.0072705845401386145 0.0 0.0
0.0 0.017489023198716987 0.015168478650381484 -0.01426993430012161 -0.0008985443502598797 0.005686785835419956 0.0 0.0
0.0 0.011833930949130047 0.01033261015411035 -0.009525033855989417 -0.0008075762981209296 0.004094637133432385 0.0 0.0
0.0 0.007178762219621441 0.0063273344639946764 -0.005638289185011967 -0.000689045278982705 0.0025992710674854628 0.0 0.0
0.0 0.0036219226141987124 0.0032401404343686438 -0.002733140797333536 -0.0005069996370351099 0.0013053121566300584 0.0 0.0
0.0 0.0014899730842386429 0.001164295529073756 -0.0009130370730056886 -0.0002512584560680685 0.0004095760309788348 0.0 0.0
0.0 0.00024353374472381114 0.00016748606849341464 -0.00012109775142416163 -4.638831706925245e-05 2.670769427641551e-05 0.0 0.0
0.0 -1.7610168201032267e-05 -8.91968982450334e-06 7.179776610874279e-06 1.7399132136289989e-06 -8.84218514087754e-06 0.0 0.0
0.0 -1.7918878958620634e-07 1.6580370829333657e-08 -1.3354665703083526e-08 -3.225705126253981e-09 1.9972891788994082e-08 0.0 0.0
0.0 0.0 0.0 0.0 0.0 0.0 0.0 0.0
0.0 0.001169281899597569 0.0005329058356085749 -0.000250991540713074 -0.0002819142948954996 0.0018361748785765213 0.0 0.0
0.0 0.005075040601559587 0.003566550350269227 -0.00499254647807609 0.0014259961278068555 0.002286336977358151 0.0 0.0
0.0 0.0036161269003644925 0.002444873045612853 -0.003473615802302689 0.0010287427566898356 -0.001784304184472747 0.0 0.0
0.0 0.0006482579998297672 0.0003045995297103029 -0.00013152639747088864 -0.00017307313223941445 -0.0011717737928706351 0.0 0.0
0.0 0.0 0.0 0.0 0.0 0.0 0.0 0.0
0.0 -4.930754295569554e-07 3.68350299857422e-08 -2.8272421256256188e-08 -8.562608729485888e-09 -7.715859359061078e-08 0.0 0.0
0.0 -3.7731398077339994e-06 -3.941116386147643e-06 3.1525693621805206e-06 7.885470239671327e-07 5.570813246034326e-06 0.0 0.0
0.0 3.882706387553186e-05 3.708719969314706e-05 -2.5003647392188548e-05 -1.2083552300958674e-05 1.8566820792009834e-06 0.0 0.0
0.0 0.0007467046507497021 0.0006573478588354515 -0.0005034135171355244 -0.00015393434169992738 -0.0003476495431049857 0.0 0.0
0.0 0.0027716828296792434 0.0021779680723428866 -0.0017882957414950655 -0.00038967233084782134 -0.0011614116052823748 0.0 0.0
0.0 0.005322536214726006 0.004725359781535666 -0.004126439912924711 -0.000598919868610954 -0.0025678815015301717 0.0 0.0
0.0 0.009375122418701294 0.00807100950277311 -0.007339755873169196 -0.0007312536296039185 -0.004232481425943126 0.0 0.0
0.0 0.014119634191627836 0.012115037770307814 -0.011290397049037698 -0.0008246407212701121 -0.005976826424355883 0.0 0.0
0.0 0.01961447729920956 0.016795834466888173 -0.015889297865823267 -0.0009065366010649032 -0.007709522726755 0.0 0.0
0.0 0.025896978416889604 0.022148456628210397 -0.0211606236302339 -0.000987832997976519 -0.009431698836649804 0.0 0.0
0.0 0.03316565340311451 0.028279361501807924 -0.027214612434709278 -0.0010647490670986604 -0.011245037236489437 0.0 0.0
0.0 0.04130221499034011 0.03528175832732152 -0.03414879462458436 -0.001132963702737149 -0.013211607643799582 0.0 0.0
0.0 0.05031706285106827 0.0431266831271148 -0.04193891528573208 -0.0011877678413826918 -0.015194034763566126 0.0 0.0
0.0 0.06046081480133194 0.05160150703861764 -0.050374627858410397 -0.0012268791802072514 -0.016841420999835998 0.0 0.0
0.0 0.07042662803660313 0.06029914889950682 -0.059050106281424423 -0.0012490426180823953 -0.017601000022587073 0.0 0.0
0.0 0.07967807321038045 0.06852113576576732 -0.06727817751428286 -0.0012429582514844797 -0.016538590697600938 0.0 0.0
0.0 0.08736839741588617 0.07523198217346624 -0.07402643785423205 -0.0012055443192341049 -0.012325215767019953 0.0 0.0
0.0 0.09166590971719109 0.07850151595162566 -0.0777113449777622 -0.0007901709738634826 1.7151644687851686e-14 0.0 0.0
0.0 0.08736839741587493 0.07523198217345414 -0.07402643785422008 -0.0012055443192341376 0.012325215767058147 0.0 0.0
0.0 0.07967807321036062 0.06852113576574775 -0.06727817751426377 -0.001242958251483962 0.016538590697638286 0.0 0.0
0.0 0.07042662803657214 0.06029914889947896 -0.05905010628139647 -0.0012490426180824864 0.017601000022610162 0.0 0.0
0.0 0.060460814801300534 0.05160150703859052 -0.05037462785838394 -0.0012268791802065703 0.01684142099984166 0.0 0.0
0.0 0.0503170628510309 0.043126683127082406 -0.04193891528570047 -0.0011877678413819404 0.015194034763558635 0.0 0.0
0.0 0.041302214990303746 0.035281758327289796 -0.03414879462455339 -0.0011329637027364084 0.013211607643792004 0.0 0.0
0.0 0.033165653403077325 0.028279361501775242 -0.027214612434677373 -0.0010647490670978872 0.011245037236482307 0.0 0.0
0.0 0.02589697841685415 0.022148456628179904 -0.02116062363020399 -0.0009878329979759112 0.009431698836641217 0.0 0.0
0.0 0.01961447729917595 0.016795834466859446 -0.01588929786579488 -0.0009065366010645523 0.007709522726742345 0.0 0.0
0.0 0.014119634191597227 0.012115037770282059 -0.011290397049012833 -0.0008246407212692306 0.0059768264243408465 0.0 0.0
0.0 0.009375122418677306 0.00807100950275246 -0.007339755873149136 -0.0007312536296033181 0.004232481425930214 0.0 0.0
0.0 0.005322536214709037 0.004725359781520465 -0.00412643991291042 -0.0005989198686100464 0.0025678815015213992 0.0 0.0
0.0 0.002771682829665475 0.0021779680723318364 -0.0017882957414853352 -0.00038967233084650105 0.0011614116052761328 0.0 0.0
0.0 0.0007467046507441357 0.000657347858831214 -0.0005034135171322395 -0.00015393434169897423 0.0003476495431026146 0.0 0.0
0.0 3.882706387446977e-05 3.7087199692816664e-05 -2.5003647391966113e-05 -1.2083552300850581e-05 -1.8566820790104882e-06 0.0 0.0
0.0 -3.7731398089319212e-06 -3.9411163861221525e-06 3.152569362159406e-06 7.885470239627203e-07 -5.570813245958879e-06 0.0 0.0
0.0 -4.930754293848574e-07 3.683502997241244e-08 -2.8272421245946087e-08 -8.562608726462763e-09 7.715859356278835e-08 0.0 0.0
0.0 0.0 0.0 0.0 0.0 0.0 0.0 0.0
0.0 0.0006482579998249231 0.00030459952970821047 -0.00013152639746950227 -0.0001730731322387077 0.001171773792864274 0.0 0.0
0.0 0.0036161269003533426 0.00244487304560416 -0.0034736158022908546 0.0010287427566866912 0.0017843041844667045 0.0 0.0
0.0 0.002298380928020091 0.0015756604854661226 -0.0022626842094538315 0.0006870237239877081 -0.001308163772127527 0.0 0.0
0.0 0.0003616924281810112 0.00013611753016105912 -3.713972250533482e-05 -9.897780765572413e-05 -0.00064394535248439 0.0 0.0
0.0 0.0 0.0 0.0 0.0 0.0 0.0 0.0
0.0 -2.4436484517163937e-07 1.123532113513199e-08 -8.310448798480903e-09 -2.924872336655857e-09 -4.7184642108198884e-08 0.0 0.0
0.0 -2.3736802817998924e-06 -3.856869981701466e-07 3.0207138023260264e-07 8.361561793757176e-08 9.590978604086548e-07 0.0 0.0
0.0 -2.39946519864763e-05 -1.8651445674850765e-05 1.5599417392374675e-05 3.052028282476154e-06 3.8329595648095583e-05 0.0 0.0
0.0 0.0003523546402278685 0.0002674541777713716 -0.0002010914368088878 -6.636274096248394e-05 -0.00020382056517406454 0.0 0.0
0.0 0.00153628907005113 0.0013011930245605985 -0.0010390178191641856 -0.00026217520539641354 -0.0009490692720770947 0.0 0.0
0.0 0.004088109834978547 0.0031773031353470203 -0.0027031235466521224 -0.0004741795886948972 -0.0022061623064249234 0.0 0.0
0.0 0.006839805821135615 0.005863421707931324 -0.005230900531405056 -0.0006325211765262737 -0.003928409808018969 0.0 0.0
0.0 0.010819377433235964 0.009106879153800028 -0.008371996799311377 -0.0007348823544886481 -0.005733344443406758 0.0 0.0
0.0 0.015257647000902567 0.012844091005247795 -0.012028250567947856 -0.0008158404372999367 -0.007515641863603246 0.0 0.0
0.0 0.020270023949394457 0.017092217814165502 -0.01620091614937776 -0.0008913016647877424 -0.009264388460595567 0.0 0.0
0.0 0.026005844364490716 0.021950330903886962 -0.020988657260669764 -0.0009616736432171981 -0.011076933825368363 0.0 0.0
0.0 0.032528989625117806 0.02752361756559188 -0.026499401344636936 -0.0010242162209549213 -0.013014211073273071 0.0 0.0
0.0 0.04019439316572457 0.0338360935138638 -0.03276152010122833 -0.0010745734126354762 -0.014988362198630445 0.0 0.0
0.0 0.04795265188161166 0.040777132831927534 -0.03966123333896778 -0.0011158994929598015 -0.016671676969691244 0.0 0.0
0.0 0.056617294488139736 0.04807694362523238 -0.046928301211320606 -0.0011486424139117183 -0.01757038992555883 0.0 0.0
0.0 0.06507353777411688 0.055321152217570606 -0.05416408918329187 -0.0011570630342787242 -0.016845715968595906 0.0 0.0
0.0 0.07226537727418206 0.061727480316279046 -0.060604307828817185 -0.00112317248746192 -0.012985529503376968 0.0 0.0
0.0 0.07694710082298231 0.06516997481049293 -0.06457959912345594 -0.0005903756870369494 1.5499320576983777e-14 0.0 0.0
0.0 0.07226537727417473 0.06172748031626989 -0.060604307828807574 -0.0011231724874622459 0.01298552950341474 0.0 0.0
0.0 0.06507353777409985 0.05532115221755346 -0.05416408918327437 -0.0011570630342790877 0.016845715968633497 0.0 0.0
0.0 0.056617294488117705 0.048076943625211754 -0.04692830121130033 -0.0011486424139114306 0.017570389925581888 0.0 0.0
0.0 0.04795265188158569 0.04077713283190546 -0.03966123333894602 -0.0011158994929594168 0.016671676969694727 0.0 0.0
0.0 0.040194393165690304 0.03383609351383469 -0.03276152010119936 -0.001074573412635339 0.0149883621986201 0.0 0.0
0.0 0.032528989625087754 0.02752361756556534 -0.02649940134461121 -0.0010242162209541216 0.013014211073265135 0.0 0.0
0.0 0.026005844364463238 0.02195033090386299 -0.02098865726064626 -0.0009616736432167209 0.011076933825362087 0.0 0.0
0.0 0.020270023949365928 0.017092217814141362 -0.016200916149354115 -0.000891301664787244 0.00926438846058643 0.0 0.0
0.0 0.015257647000875093 0.012844091005224894 -0.012028250567925164 -0.0008158404372997474 0.0075156418635910095 0.0 0.0
0.0 0.010819377433211772 0.009106879153780141 -0.00837199679929223 -0.0007348823544879073 0.005733344443391709 0.0 0.0
0.0 0.006839805821115166 0.005863421707914296 -0.005230900531388696 -0.0006325211765256044 0.003928409808005762 0.0 0.0
0.0 0.004088109834964685 0.0031773031353363535 -0.0027031235466424756 -0.0004741795886938764 0.0022061623064178063 0.0 0.0
0.0 0.001536289070041401 0.0013011930245528714 -0.0010390178191575588 -0.00026217520539531134 0.0009490692720713361 0.0 0.0
0.0 0.00035235464022394437 0.0002674541777689442 -0.00020109143680705253 -6.636274096189186e-05 0.00020382056517227984 0.0 0.0
0.0 -2.3994651986676624e-05 -1.8651445674312845e-05 1.5599417391951928e-05 3.052028282360826e-06 -3.832959564713006e-05 0.0 0.0
0.0 -2.373680281906669e-06 -3.8568699822604167e-07 3.02071380276212e-07 8.361561794983764e-08 -9.590978604895183e-07 0.0 0.0
0.0 -2.4436484509791044e-07 1.123532113164423e-08 -8.310448795894743e-09 -2.924872335750786e-09 4.718464209339819e-08 0.0 0.0
0.0 0.0 0.0 0.0 0.0 0.0 0.0 0.0
0.0 0.00036169242817720614 0.0001361175301595641 -3.7139722504317873e-05 -9.897780765524638e-05 0.0006439453524795292 0.0 0.0
0.0 0.0022983809280117504 0.0015756604854596807 -0.0022626842094447975 0.0006870237239851199 0.0013081637721231948 0.0 0.0
0.0 0.0017256175712869353 0.0008692459929475415 -0.0012574530759537845 0.00038820708300624354 -0.0008180640741063125 0.0 0.0
0.0 6.703815628442249e-05 3.449180518992121e-05 1.3943283605490629e-05 -4.843508879541197e-05 -0.00027289455966270754 0.0 0.0
0.0 1.501239477888374e-07 -8.943371455963241e-10 1.017711353153143e-09 -1.233742075570957e-10 2.99033348444305e-08 0.0 0.0
0.0 -3.110318095085595e-07 9.145119677157732e-09 -6.435641195785186e-09 -2.7094784813723947e-09 -6.371271751080803e-08 0.0 0.0
0.0 -7.612570174001204e-07 -6.267636454951634e-07 4.962324335896832e-07 1.3053121190548554e-07 2.1059857549443537e-06 0.0 0.0
0.0 -1.9817165008277418e-05 -1.1895323933303152e-05 9.521405671328816e-06 2.373918261974309e-06 2.8721721321217195e-05 0.0 0.0
0.0 7.594180931992389e-05 4.802777005259888e-05 -3.486463279718537e-05 -1.3163137255413618e-05 -5.5924551697028755e-05 0.0 0.0
0.0 0.0007354619286496124 0.0005960431611877306 -0.0004659150855552031 -0.00013012807563252756 -0.0006432914533393311 0.0 0.0
0.0 0.0022935315888074894 0.00182996552636089 -0.0015101155204769272 -0.0003198500058839621 -0.0016863084939362225 0.0 0.0
0.0 0.0048836493969008805 0.003737809876377456 -0.00324756312931151 -0.0004902467470659426 -0.0031800089066561163 0.0 0.0
0.0 0.0076090320961944855 0.00617203814670743 -0.005559549576890009 -0.0006124885698174168 -0.004927297255082042 0.0 0.0
0.0 0.010926169025734272 0.008971803888579783 -0.008270640300555757 -0.0007011635880240412 -0.006651792213380719 0.0 0.0
0.0 0.01474566002598264 0.01212725381383842 -0.01135182117468757 -0.000775432639150837 -0.008331597959259324 0.0 0.0
0.0 0.01903742303182922 0.01572595987607115 -0.014885852116392585 -0.0008401077596785611 -0.010029852412672154 0.0 0.0
0.0 0.024067457048739208 0.019875435795623383 -0.018978123417915816 -0.0008973123777075708 -0.011816641039284145 0.0 0.0
0.0 0.02970036683014262 0.02464912957947784 -0.023703918506563417 -0.0009452110729143965 -0.013636057072278612 0.0 0.0
0.0 0.036202300359648436 0.030004628451256243 -0.029019535857613767 -0.0009850925936424576 -0.01524594281559603 0.0 0.0
0.0 0.042930919077929806 0.0358288406034801 -0.03480184450196467 -0.001026996101515399 -0.016204300691394783 0.0 0.0
0.0 0.04982388904792443 0.04198329877345589 -0.04092483199583167 -0.0010584667776242507 -0.01592600560931054 0.0 0.0
0.0 0.05678431311370904 0.04803011162117862 -0.046994094789316175 -0.0010360168318624859 -0.01298331377140811 0.0 0.0
0.0 0.06205346489772426 0.051695428662303256 -0.051332680072329454 -0.00036274858997380633 1.325675680341476e-14 0.0 0.0
0.0 0.05678431311370423 0.048030111621171184 -0.046994094789308626 -0.0010360168318625201 0.012983313771442073 0.0 0.0
0.0 0.04982388904791377 0.0419832987734436 -0.04092483199581939 -0.0010584667776242264 0.015926005609345813 0.0 0.0
0.0 0.042930919077913576 0.03582884060346455 -0.03480184450194952 -0.001026996101515048 0.016204300691415305 0.0 0.0
0.0 0.036202300359628556 0.030004628451239315 -0.029019535857597662 -0.0009850925936416355 0.015245942815597135 0.0 0.0
0.0 0.029700366830115028 0.02464912957945531 -0.023703918506540602 -0.0009452110729147183 0.013636057072267572 0.0 0.0
0.0 0.024067457048715962 0.019875435795603493 -0.018978123417896002 -0.0008973123777074874 0.01181664103927626 0.0 0.0
0.0 0.019037423031810028 0.01572595987605464 -0.01488585211637656 -0.0008401077596780935 0.010029852412666945 0.0 0.0
0.0 0.014745660025961803 0.012127253813821251 -0.011351821174670833 -0.000775432639150408 0.008331597959250786 0.0 0.0
0.0 0.010926169025712999 0.008971803888562283 -0.00827064030053851 -0.0007011635880237638 0.0066517922133682225 0.0 0.0
0.0 0.007609032096176723 0.006172038146693395 -0.005559549576876722 -0.0006124885698166672 0.004927297255068845 0.0 0.0
0.0 0.004883649396885207 0.003737809876365418 -0.003247563129300046 -0.0004902467470653735 0.003180008906644767 0.0 0.0
0.0 0.002293531588797261 0.0018299655263529072 -0.0015101155204699647 -0.0003198500058829412 0.0016863084939299096 0.0 0.0
0.0 0.000735461928644482 0.0005960431611840599 -0.0004659150855521598 -0.0001301280756319003 0.0006432914533355103 0.0 0.0
0.0 7.59418093183222e-05 4.8027770051737734e-05 -3.486463279655823e-05 -1.316313725517952e-05 5.592455169581516e-05 0.0 0.0
0.0 -1.9817165008829768e-05 -1.1895323932900882e-05 9.521405671011116e-06 2.3739182618898084e-06 -2.8721721320045403e-05 0.0 0.0
0.0 -7.612570175630865e-07 -6.267636455576501e-07 4.962324336400138e-07 1.305312119176254e-07 -2.105985755109786e-06 0.0 0.0
0.0 -3.1103180944933557e-07 9.145119675171675e-09 -6.435641194459957e-09 -2.709478480710289e-09 6.371271749740787e-08 0.0 0.0
0.0 1.5012394747879627e-07 -8.94337143643398e-10 1.0177113510135556e-09 -1.2337420737023362e-10 -2.990333478189685e-08 0.0 0.0
0.0 6.703815628224995e-05 3.449180518912722e-05 1.394328360601175e-05 -4.843508879513909e-05 0.00027289455965969574 0.0 0.0
0.0 0.0017256175712796154 0.0008692459929433391 -0.0012574530759477287 0.0003882070830043897 0.0008180640741033077 0.0 0.0
0.0 0.0007529663304274673 0.000416423884247881 -0.0006067625608025956 0.0001903386765547146 -0.0004873671166083969 0.0 0.0
0.0 -2.584741971607826e-05 -1.8606343210556656e-05 4.0940401865062045e-05 -2.2334058654505366e-05 -3.7669729079019414e-05 0.0 0.0
0.0 2.3116250982612743e-06 -3.889286545003302e-09 1.1710441654874343e-08 -7.821155109869604e-09 5.020729136728286e-07 0.0 0.0
0.0 7.864306231303351e-07 -1.6387003304045022e-09 -2.085611771306629e-10 1.847261507534281e-09 1.628291981626507e-07 0.0 0.0
0.0 -1.1378425163466072e-06 -3.8567126110875713e-07 2.9466158245132334e-07 9.100967865743292e-08 2.4656923059809225e-06 0.0 0.0
0.0 -1.4682877903848805e-05 -3.3571157086263354e-06 2.7269359897618486e-06 6.301797188644877e-07 1.1932966412387707e-05 0.0 0.0
0.0 5.22861204759707e-07 -1.3231976029369355e-05 1.0827749211292737e-05 2.4042268180765602e-06 2.7063767104614962e-05 0.0 0.0
0.0 0.00027519531715014994 0.0001260686648713685 -9.922322182638518e-05 -2.684544304498319e-05 -0.0002598620753688201 0.0 0.0
0.0 0.0010452408071322155 0.0007202200514580895 -0.0005835061306991047 -0.0001367139207589846 -0.0010441280270249318 0.0 0.0
0.0 0.0025779324117607048 0.001841745843654872 -0.0015547927050661194 -0.00028695313858875354 -0.0021683287253189748 0.0 0.0
0.0 0.004419981735174123 0.0033942989430702846 -0.002971230672718753 -0.0004230682703515308 -0.0036020868420759623 0.0 0.0
0.0 0.006761252398841471 0.005229283706693995 -0.004704270242447356 -0.0005250134642466384 -0.005097480835642539 0.0 0.0
0.0 0.009345633836410357 0.007302230703861223 -0.006693786861452563 -0.0006084438424086557 -0.006604069791941029 0.0 0.0
0.0 0.012255464246314268 0.00966252889274698 -0.008987967403555615 -0.0006745614891913577 -0.008107110263082492 0.0 0.0
0.0 0.015662965001150348 0.01240293482694337 -0.011672940170164266 -0.0007299946567791109 -0.009633470684800591 0.0 0.0
0.0 0.01966977179463879 0.015621204989287313 -0.014844143307630817 -0.0007770616816565009 -0.01119314805848481 0.0 0.0
0.0 0.024259797139270508 0.019367942432231257 -0.018547563692032743 -0.0008203787401985015 -0.01264941112823533 0.0 0.0
0.0 0.029204885083574293 0.02363604167840357 -0.02277193635991724 -0.0008641053184863759 -0.013621757685888167 0.0 0.0
0.0 0.034794981053314994 0.028501929983190687 -0.02758405958440253 -0.0009178703987881118 -0.013649493824908808 0.0 0.0
0.0 0.0413092969185516 0.03401916869655509 -0.03308385775750374 -0.0009353109390513438 -0.012039172925584771 0.0 0.0
0.0 0.0470666669530261 0.03794230108948351 -0.03783799444305191 -0.0001043066464316387 1.0636890673820787e-14 0.0 0.0
0.0 0.041309296918551605 0.03401916869655083 -0.03308385775749953 -0.0009353109390512985 0.012039172925612834 0.0 0.0
0.0 0.034794981053308874 0.028501929983182114 -0.027584059584394173 -0.0009178703987879188 0.013649493824940498 0.0 0.0
0.0 0.029204885083562494 0.023636041678392703 -0.022771936359906698 -0.0008641053184859775 0.01362175768590406 0.0 0.0
0.0 0.024259797139253605 0.019367942432217913 -0.018547563692020038 -0.0008203787401978758 0.012649411128232271 0.0 0.0
0.0 0.019669771794622468 0.015621204989274313 -0.014844143307618138 -0.0007770616816561635 0.011193148058476269 0.0 0.0
0.0 0.01566296500113767 0.01240293482693287 -0.011672940170153693 -0.0007299946567791711 0.009633470684795418 0.0 0.0
0.0 0.012255464246302207 0.009662528892736902 -0.008987967403546153 -0.000674561489190749 0.008107110263078096 0.0 0.0
0.0 0.009345633836398724 0.007302230703851738 -0.006693786861443455 -0.0006084438424082874 0.006604069791934899 0.0 0.0
0.0 0.006761252398825435 0.00522928370668214 -0.004704270242436179 -0.0005250134642459619 0.005097480835631251 0.0 0.0
0.0 0.004419981735160684 0.0033942989430599747 -0.00297123067270919 -0.0004230682703507855 0.0036020868420643276 0.0 0.0
0.0 0.0025779324117513828 0.001841745843648334 -0.0015547927050603128 -0.00028695313858802143 0.002168328725311654 0.0 0.0
0.0 0.0010452408071263272 0.0007202200514540645 -0.0005835061306957111 -0.00013671392075835317 0.001044128027020239 0.0 0.0
0.0 0.00027519531714746015 0.00012606866486996192 -9.922322182530187e-05 -2.6845443044659937e-05 0.00025986207536628453 0.0 0.0
0.0 5.228612037278898e-07 -1.323197602894323e-05 1.0827749210977903e-05 2.4042268179653837e-06 -2.7063767103956956e-05 0.0 0.0
0.0 -1.4682877904336585e-05 -3.357115708313428e-06 2.726935989517953e-06 6.301797187954426e-07 -1.1932966410827e-05 0.0 0.0
0.0 -1.1378425170313416e-06 -3.856712611531201e-07 2.946615824866536e-07 9.100967866647804e-08 -2.4656923061595312e-06 0.0 0.0
0.0 7.864306230353753e-07 -1.6387003332195712e-09 -2.0856117435996048e-10 1.847261507578611e-09 -1.6282919813890725e-07 0.0 0.0
0.0 2.311625097642687e-06 -3.8892865432529645e-09 1.1710441651487585e-08 -7.821155108233517e-09 -5.020729135380154e-07 0.0 0.0
0.0 -2.58474197169792e-05 -1.8606343210641986e-05 4.094040186500481e-05 -2.2334058654362752e-05 3.766972907819368e-05 0.0 0.0
0.0 0.0007529663304225982 0.0004164238842454359 -0.0006067625607990609 0.00019033867655362426 0.00048736711660602583 0.0 0.0
0.0 0.00027765999809281817 0.00011793160581999281 -0.0001732879462432182 5.535634042322555e-05 -0.0001658020689320161 0.0 0.0
0.0 -3.701279088222511e-05 -1.8409249062965506e-05 2.582493231536423e-05 -7.415683252398716e-06 3.0280655761108024e-05 0.0 0.0
0.0 3.752924145788859e-07 1.0881436507427485e-09 -6.668165866363456e-10 -4.213270641053044e-10 7.578167770759034e-08 0.0 0.0
0.0 4.096640072979324e-07 9.90752011270457e-09 -8.396156044114786e-09 -1.5113640685919163e-09 8.098632487915903e-08 0.0 0.0
0.0 -2.931752023156977e-07 7.333872486022951e-09 -1.091079948892017e-08 3.576927002905546e-09 7.531529567314269e-07 0.0 0.0
0.0 -9.660586702010009e-06 -2.460275912992438e-06 1.9493161540373928e-06 5.1095975895502e-07 2.110252699528427e-05 0.0 0.0
0.0 1.0086760411250834e-05 -3.1538132593424585e-06 2.646110147414489e-06 5.077031119279955e-07 4.993546175139386e-06 0.0 0.0
0.0 8.022723138764544e-05 5.001875560963616e-07 -3.818886833860209e-07 -1.1829887271043579e-07 -0.00010560416306249211 0.0 0.0
0.0 0.0002878865182446052 7.153647486220366e-05 -6.262773627378666e-05 -8.908738588416755e-06 -0.0004312009608222099 0.0 0.0
0.0 0.000805818706025883 0.0003529330470370432 -0.0003142941516938345 -3.8638895343209334e-05 -0.0010801278636873009 0.0 0.0
0.0 0.001845492263412492 0.0009426734595841975 -0.0008418832015280191 -0.00010079025805617753 -0.002033110213468115 0.0 0.0
0.0 0.002944412346705872 0.0017823029085494851 -0.0016044267661310635 -0.0001778761424184222 -0.0031834008360466276 0.0 0.0
0.0 0.0043635950782882045 0.002771548475126643 -0.002519796630245549 -0.0002517518448810903 -0.0043846206107192535 0.0 0.0
0.0 0.006009963144438329 0.00390928259962016 -0.0035872670374002013 -0.00032201556221995715 -0.005626124947407505 0.0 0.0
0.0 0.007903085377204992 0.0052615192252824785 -0.004870745316858589 -0.00039077390842388675 -0.006928223963167237 0.0 0.0
0.0 0.010180444769359753 0.0069226513177234675 -0.006465948717568834 -0.00045670260015463136 -0.008303161903947283 0.0 0.0
0.0 0.013014728052741691 0.009021497888952923 -0.008497437459501819 -0.0005240604294511032 -0.009699293722976616 0.0 0.0
0.0 0.016506690145030176 0.011693917360183118 -0.011104766550031404 -0.0005891508101517112 -0.010778946495983124 0.0 0.0
0.0 0.02052971505238304 0.01508983628776737 -0.014439489889182913 -0.0006503463985844765 -0.010942946800234913 0.0 0.0
0.0 0.025593938970079867 0.019675054144896918 -0.01891946873477807 -0.0007555854101188418 -0.010025399192402985 0.0 0.0
0.0 0.03286688049709384 0.023779814711343744 -0.023985352690894163 0.00020553797955041698 8.436827625413201e-15 0.0 0.0
0.0 0.025593938970085196 0.019675054144896908 -0.018919468734777706 -0.0007555854101192161 0.01002539919242668 0.0 0.0
0.0 0.02052971505237876 0.015089836287761579 -0.014439489889177058 -0.000650346398584523 0.010942946800257154 0.0 0.0
0.0 0.016506690145020382 0.011693917360175544 -0.01110476655002399 -0.0005891508101515526 0.010778946495991197 0.0 0.0
0.0 0.013014728052729647 0.009021497888945578 -0.008497437459494937 -0.0005240604294506461 0.00969929372297115 0.0 0.0
0.0 0.010180444769351116 0.006922651317718006 -0.006465948717563428 -0.00045670260015457807 0.008303161903938578 0.0 0.0
0.0 0.007903085377199852 0.005261519225278483 -0.004870745316854418 -0.0003907739084240617 0.006928223963163654 0.0 0.0
0.0 0.006009963144429834 0.003909282599614245 -0.0035872670373951324 -0.00032201556221911814 0.005626124947403145 0.0 0.0
0.0 0.004363595078282875 0.00277154847512398 -0.0025197966302428817 -0.00025175184488109736 0.004384620610713989 0.0 0.0
0.0 0.00294441234669733 0.0017823029085444625 -0.0016044267661263808 -0.00017787614241808103 0.003183400836037828 0.0 0.0
0.0 0.0018454922634045822 0.0009426734595801347 -0.0008418832015239529 -0.00010079025805618025 0.0020331102134588793 0.0 0.0
0.0 0.0008058187060221284 0.00035293304703543223 -0.000314294151692333 -3.8638895343099586e-05 0.0010801278636841452 0.0 0.0
0.0 0.0002878865182429597 7.153647486147562e-05 -6.262773627317117e-05 -8.908738588304052e-06 0.0004312009608198668 0.0 0.0
0.0 8.022723138651953e-05 5.001875561057305e-07 -3.818886833726778e-07 -1.1829887273316271e-07 0.00010560416306112228 0.0 0.0
0.0 1.0086760409937746e-05 -3.1538132593605494e-06 2.646110147425722e-06 5.077031119348353e-07 -4.9935461752616316e-06 0.0 0.0
0.0 -9.66058670183836e-06 -2.4602759129238722e-06 1.9493161539830463e-06 5.109597589408278e-07 -2.1102526994333516e-05 0.0 0.0
0.0 -2.9317520282361756e-07 7.333872474373336e-09 -1.091079947920555e-08 3.5769270048290116e-09 -7.531529568116145e-07 0.0 0.0
0.0 4.096640068308793e-07 9.90752010832275e-09 -8.39615604017302e-09 -1.5113640681489081e-09 -8.098632478345155e-08 0.0 0.0
0.0 3.752924143091098e-07 1.0881436506432341e-09 -6.668165872929771e-10 -4.213270633542405e-10 -7.578167765116563e-08 0.0 0.0
0.0 -3.701279088219287e-05 -1.8409249062571846e-05 2.5824932314877232e-05 -7.415683252305373e-06 -3.0280655760105307e-05 0.0 0.0
0.0 0.0002776599980896519 0.00011793160581876399 -0.00017328794624147276 5.535634042270864e-05 0.0001658020689302257 0.0 0.0
0.0 1.5662572905652738e-05 1.0533974883643846e-05 -1.6369152970794637e-05 5.835178087150733e-06 -1.588398377821012e-05 0.0 0.0
0.0 -2.2904765322014066e-06 -1.6228800302924501e-06 2.4267171546551463e-06 -8.038371243626832e-07 2.652632472430082e-06 0.0 0.0
0.0 3.576066970416092e-06 7.440044751823724e-09 8.960458475576703e-09 -1.6400503227405056e-08 7.500585033471007e-07 0.0 0.0
0.0 1.201678456501646e-06 2.8339100861893603e-08 -2.3905541392496246e-08 -4.4335594693940745e-09 3.2087577120190773e-07 0.0 0.0
0.0 -1.4761744744779871e-06 1.3659881703497101e-07 -1.310564753408676e-07 -5.5423416941035165e-09 2.67580286239209e-06 0.0 0.0
0.0 -7.355556811552132e-06 -1.4018282684680415e-07 1.5424811340364067e-07 -1.406528655683355e-08 1.5326541196874555e-05 0.0 0.0
0.0 1.4048486082542808e-05 -5.080940639796049e-07 4.936404273684043e-07 1.4453636611189611e-08 1.021367555442463e-06 0.0 0.0
0.0 8.119542156334871e-05 -5.025738992630429e-07 5.022829890743109e-07 2.909101887469558e-10 -0.00014155134034169378 0.0 0.0
0.0 0.00024867484393725027 -2.7317344723228517e-08 3.281922433989067e-08 -5.501879616651379e-09 -0.00034391400557656256 0.0 0.0
0.0 0.0004061620868843002 1.676335781996079e-07 -1.0305648794712359e-07 -6.45770902525057e-08 -0.0006966282274299163 0.0 0.0
0.0 0.0007266815125638695 -9.153203167225961e-07 4.1487798405413876e-07 5.004423326683727e-07 -0.0011773513914978082 0.0 0.0
0.0 0.0009830477348349 2.322316458377375e-06 -1.7844358679461417e-06 -5.378805904309116e-07 -0.001969846495492326 0.0 0.0
0.0 0.0014252611393739613 -3.4214513933934277e-06 5.274759424507997e-06 -1.8533080311142848e-06 -0.002938797203662218 0.0 0.0
0.0 0.0021113408411438 -1.570652761086742e-05 1.8811925581810774e-05 -3.1053979709433414e-06 -0.00411186920314015 0.0 0.0
0.0 0.0030105502849233096 -7.18925606212848e-06 5.621689682493386e-06 1.5675663796353375e-06 -0.005435752903048723 0.0 0.0
0.0 0.004046617395827545 0.00010387841027736499 -0.00012293914803507934 1.9060737757713424e-05 -0.0069125864159178966 0.0 0.0
0.0 0.005290406731754634 0.0004985325568775718 -0.0005576687449953137 5.913618811774203e-05 -0.008493355865343031 0.0 0.0
0.0 0.006708195334394156 0.0013511669168851624 -0.0015186386879946908 0.00016747177110952642 -0.01004535528756344 0.0 0.0
0.0 0.008841717908392653 0.0024821285500285844 -0.0027662546146107387 0.0002841260645821577 -0.011213803369350931 0.0 0.0
0.0 0.01300759565808076 0.0054000684717944595 -0.005244798771345863 -0.00015526970044859532 -0.011198337748542495 0.0 0.0
0.0 0.02267440731253371 0.010047576595657004 -0.010725298219360404 0.0006777216237034144 8.1302152510343e-15 0.0 0.0
0.0 0.013007595658087134 0.005400068471794852 -0.005244798771346457 -0.00015526970044839246 0.011198337748560473 0.0 0.0
0.0 0.008841717908390265 0.0024821285500268462 -0.002766254614608511 0.00028412606458166537 0.01121380336935565 0.0 0.0
0.0 0.006708195334384946 0.0013511669168833965 -0.001518638687993107 0.0001674717711097101 0.010045355287559416 0.0 0.0
0.0 0.005290406731745263 0.0004985325568779708 -0.0005576687449959058 5.9136188117934964e-05 0.008493355865333091 0.0 0.0
0.0 0.004046617395821846 0.00010387841027960463 -0.00012293914803787636 1.9060737758273225e-05 0.006912586415908598 0.0 0.0
0.0 0.0030105502849210744 -7.189256061463918e-06 5.621689681964404e-06 1.567566379498606e-06 0.0054357529030467245 0.0 0.0
0.0 0.0021113408411379086 -1.5706527610404464e-05 1.8811925581701703e-05 -3.1053979712968184e-06 0.004111869203132687 0.0 0.0
0.0 0.0014252611393705387 -3.4214513936436344e-06 5.2747594248226325e-06 -1.8533080311790726e-06 0.0029387972036551665 0.0 0.0
0.0 0.0009830477348294572 2.3223164580449588e-06 -1.784435867683575e-06 -5.378805903616073e-07 0.001969846495484656 0.0 0.0
0.0 0.0007266815125611923 -9.153203169286488e-07 4.148779841449881e-07 5.004423327837623e-07 0.0011773513914933602 0.0 0.0
0.0 0.00040616208688412127 1.6763357836229413e-07 -1.0305648809899405e-07 -6.457709026328314e-08 0.0006966282274289981 0.0 0.0
0.0 0.00024867484393608985 -2.7317344656583475e-08 3.2819224301211894e-08 -5.501879644672465e-09 0.0003439140055750017 0.0 0.0
0.0 8.11954215624288e-05 -5.02573899265419e-07 5.022829890973091e-07 2.909101681272291e-10 0.0001415513403402374 0.0 0.0
0.0 1.4048486081395937e-05 -5.080940639696274e-07 4.936404273600214e-07 1.4453636609620129e-08 -1.021367555443417e-06 0.0 0.0
0.0 -7.3555568116790854e-06 -1.4018282687270293e-07 1.5424811342670018e-07 -1.4065286554003963e-08 -1.5326541195960566e-05 0.0 0.0
0.0 -1.476174474869636e-06 1.365988170192197e-07 -1.3105647532278354e-07 -5.542341696432902e-09 -2.6758028621333004e-06 0.0 0.0
0.0 1.2016784557841187e-06 2.833910087952266e-08 -2.3905541407870443e-08 -4.4335594716531395e-09 -3.208757714137482e-07 0.0 0.0
0.0 3.57606697009131e-06 7.440044752589411e-09 8.9604584766918e-09 -1.640050322927202e-08 -7.500585033888182e-07 0.0 0.0
0.0 -2.290476532604264e-06 -1.6228800303184964e-06 2.4267171546828553e-06 -8.038371243643725e-07 -2.652632472416161e-06 0.0 0.0
0.0 1.566257290472568e-05 1.0533974883767658e-05 -1.6369152970969823e-05 5.835178087202265e-06 1.5883983778517583e-05 0.0 0.0
0.0 1.2392568618169737e-06 -7.491151091484791e-08 1.1767598598030642e-07 -4.2764475065472074e-08 1.441325408975938e-07 0.0 0.0
0.0 9.194045480202918e-08 1.1336354633376925e-08 -1.4195232391601378e-08 2.858877758225301e-09 5.4650595269933264e-08 0.0 0.0
0.0 -3.9263914181663877e-07 -1.4838870355885142e-09 -1.3536147712586515e-09 2.8375018068470846e-09 -1.0509026243236044e-07 0.0 0.0
0.0 1.017594048954125e-06 1.219174633504443e-07 -1.0299095438999956e-07 -1.892650896044633e-08 8.269924841211414e-07 0.0 0.0
0.0 -1.7038178960028812e-06 1.790274470264674e-07 -1.6692171494702515e-07 -1.2105732079439759e-08 1.0743712599860453e-06 0.0 0.0
0.0 -8.114243671825173e-06 6.405451899129588e-07 -4.2110500166016616e-07 -2.1944018825276178e-07 7.985774627898925e-06 0.0 0.0
0.0 2.8071190358769827e-05 3.1575559938019534e-06 -2.40364150620113e-06 -7.539144876008833e-07 7.975634601523416e-06 0.0 0.0
0.0 8.698835434345791e-05 -1.947120382739913e-06 1.7425897681574069e-06 2.0453061458252e-07 -0.00010932443216869682 0.0 0.0
0.0 0.000288992766133578 -7.22628979924494e-05 6.321131542669475e-05 9.051582565754577e-06 -0.00043395997723274143 0.0 0.0
0.0 0.0008037674053115475 -0.0003520417963264302 0.00031343716115748196 3.860463516894852e-05 -0.0010793691506434007 0.0 0.0
0.0 0.001850388729533892 -0.0009372854349961039 0.0008379598488714979 9.932558612460549e-05 -0.002027200112590268 0.0 0.0
0.0 0.00296148778824482 -0.0017906135184528878 0.0016113219741261367 0.00017929154432675033 -0.003183864263767857 0.0 0.0
0.0 0.004395010232497056 -0.002797603916433758 0.0025424944860883347 0.00025510943034541913 -0.004385073095872354 0.0 0.0
0.0 0.006063005405418336 -0.00395562021324203 0.003630322068136828 0.00032529814510520445 -0.005624022532634081 0.0 0.0
0.0 0.007889748809531597 -0.005264706363651605 0.004883554637494099 0.0003811517261575098 -0.006940461850761517 0.0 0.0
0.0 0.009837223293441404 -0.006618212628959929 0.0062121236520282334 0.0004060889769316963 -0.00840256125121122 0.0 0.0
0.0 0.011625918247657109 -0.007760558489204214 0.007370220214625401 0.00039033827457881514 -0.010081083253344676 0.0 0.0
0.0 0.013070818778652495 -0.008279209346826986 0.007967714974322575 0.00031149437250440015 -0.012010503700267528 0.0 0.0
0.0 0.013273480768637958 -0.007656649470247171 0.007496517009613358 0.00016013246063382503 -0.0141581774262717 0.0 0.0
0.0 0.010996769616803397 -0.005532747427194155 0.005624368535765239 -9.16211085710803e-05 -0.015817377299184913 0.0 0.0
0.0 0.021641093306340356 -0.00297082480815022 0.0011978799732017213 0.0017729448349484967 1.1652571269005207e-14 0.0 0.0
0.0 0.010996769616807414 -0.005532747427194628 0.005624368535765777 -9.162110857114397e-05 0.015817377299195225 0.0 0.0
0.0 0.013273480768637335 -0.007656649470245689 0.007496517009612047 0.00016013246063364495 0.014158177426282616 0.0 0.0
0.0 0.013070818778641028 -0.008279209346818474 0.007967714974314326 0.0003114943725041465 0.012010503700267156 0.0 0.0
0.0 0.011625918247643117 -0.007760558489194243 0.007370220214616044 0.00039033827457820225 0.01008108325333605 0.0 0.0
0.0 0.009837223293432236 -0.006618212628952771 0.006212123652022066 0.0004060889769307048 0.008402561251204732 0.0 0.0
0.0 0.007889748809521268 -0.005264706363643193 0.004883554637485835 0.00038115172615736003 0.006940461850753583 0.0 0.0
0.0 0.00606300540540591 -0.00395562021323264 0.003630322068127952 0.0003252981451046875 0.00562402253262556 0.0 0.0
0.0 0.0043950102324876155 -0.002797603916426923 0.0025424944860816838 0.00025510943034523747 0.004385073095865525 0.0 0.0
0.0 0.002961487788231937 -0.0017906135184438537 0.0016113219741180022 0.00017929154432585152 0.0031838642637563048 0.0 0.0
0.0 0.0018503887295232434 -0.0009372854349897592 0.0008379598488658084 9.932558612395051e-05 0.0020272001125811066 0.0 0.0
0.0 0.0008037674053053782 -0.0003520417963236745 0.00031343716115481997 3.8604635168854414e-05 0.0010793691506384923 0.0 0.0
0.0 0.000288992766131218 -7.22628979915342e-05 6.321131542587818e-05 9.051582565656153e-06 0.0004339599772302333 0.0 0.0
0.0 8.698835434232014e-05 -1.9471203827738383e-06 1.742589768206766e-06 2.045306145670553e-07 0.00010932443216774942 0.0 0.0
0.0 2.8071190357428296e-05 3.1575559937349493e-06 -2.403641506153127e-06 -7.539144875818151e-07 -7.97563460117757e-06 0.0 0.0
0.0 -8.114243671917226e-06 6.405451898292234e-07 -4.211050015903088e-07 -2.194401882389069e-07 -7.985774627199196e-06 0.0 0.0
0.0 -1.7038178959062928e-06 1.7902744688767728e-07 -1.6692171482957786e-07 -1.2105732058103218e-08 -1.0743712588419287e-06 0.0 0.0
0.0 1.0175940487029215e-06 1.219174633143717e-07 -1.0299095436167763e-07 -1.89265089526934e-08 -8.269924836111188e-07 0.0 0.0
0.0 -3.926391420112819e-07 -1.483887049018236e-09 -1.3536147716594808e-09 2.837501820673469e-09 1.0509026297561334e-07 0.0 0.0
0.0 9.194045447201572e-08 1.1336354634009065e-08 -1.4195232390013555e-08 2.858877756008327e-09 -5.4650595390343676e-08 0.0 0.0
0.0 1.2392568610875138e-06 -7.491151086901853e-08 1.1767598590977797e-07 -4.276447504077999e-08 -1.441325408055337e-07 0.0 0.0
0.0 0.0 0.0 0.0 0.0 0.0 0.0 0.0
0.0 -1.59855136193298e-07 -1.8514062365601714e-09 1.0225299249188145e-09 8.288763116405632e-10 -3.193717500959494e-08 0.0 0.0
0.0 7.570946348072505e-07 6.225727936907328e-08 -4.546694455347403e-08 -1.67903348156094e-08 5.121994799008373e-07 0.0 0.0
0.0 -5.219589877421468e-07 -2.604130573498064e-07 2.1165290839036853e-07 4.8760148959430866e-08 -1.6524460631996672e-06 0.0 0.0
0.0 4.528259247564303e-06 8.311512474448721e-07 -6.973031672556049e-07 -1.3384808018922056e-07 4.72529449826266e-06 0.0 0.0
0.0 4.258947500633215e-06 7.277286354395271e-06 -5.832366520690966e-06 -1.444919833704282e-06 2.7897818161147454e-05 0.0 0.0
0.0 2.0680033857069636e-06 3.7726515778990614e-06 -2.976602934708769e-06 -7.96048643190235e-07 -1.5869417387010154e-05 0.0 0.0
0.0 0.0002884810839115314 -0.00013149609313553302 0.00010388438552181046 2.7611707613722348e-05 -0.0002722097812849528 0.0 0.0
0.0 0.0010442292416516369 -0.0007194663398754522 0.0005827620652715067 0.0001367042746039456 -0.0010451111866490888 0.0 0.0
0.0 0.002573612234770678 -0.0018395090572385392 0.0015526463687016655 0.0002868626885368727 -0.002164876549385339 0.0 0.0
0.0 0.004419085015250091 -0.0033943781476910816 0.0029713574550725924 0.0004230206926184908 -0.0036001846327572756 0.0 0.0
0.0 0.006769772284716175 -0.0052362563376064574 0.004710832209149713 0.0005254241284567429 -0.005098261712661047 0.0 0.0
0.0 0.00937086756786294 -0.007325353273918614 0.006715981677239983 0.0006093715966786292 -0.0065930991471901 0.0 0.0
0.0 0.012295406286890702 -0.009705734892828093 0.009031005315560366 0.0006747295772677297 -0.008066917204968363 0.0 0.0
0.0 0.015654760288132594 -0.012411533912935434 0.01168853845673076 0.0007229954562046722 -0.009599199247917172 0.0 0.0
0.0 0.019361836601223953 -0.015355169624070828 0.014606451912645717 0.000748717711425106 -0.011374132120642762 0.0 0.0
0.0 0.023052582650350022 -0.018239822269123497 0.017489128167435485 0.0007506941016880121 -0.013608566045570578 0.0 0.0
0.0 0.026002965408736874 -0.020553951041024737 0.019821593457430363 0.0007323575835943775 -0.01641220624392639 0.0 0.0
0.0 0.02763694750366764 -0.0213400975158467 0.02067179297445345 0.0006683045413932464 -0.01922596073925951 0.0 0.0
0.0 0.025589175026468118 -0.01874145740684603 0.01816683351607941 0.0005746238907666137 -0.019763766009543958 0.0 0.0
0.0 0.02672699377067428 -0.014767954669414909 0.012194367581948543 0.0025735870874663627 1.2292250550771655e-14 0.0 0.0
0.0 0.025589175026474745 -0.018741457406845984 0.018166833516079815 0.0005746238907661587 0.019763766009568307 0.0 0.0
0.0 0.02763694750366405 -0.021340097515840227 0.020671792974446948 0.0006683045413932687 0.019225960739280543 0.0 0.0
0.0 0.026002965408721743 -0.020553951041011254 0.019821593457417117 0.0007323575835941414 0.01641220624393362 0.0 0.0
0.0 0.02305258265032837 -0.018239822269105983 0.017489128167417923 0.0007506941016880604 0.013608566045564575 0.0 0.0
0.0 0.019361836601206425 -0.015355169624056749 0.014606451912631782 0.0007487177114249843 0.011374132120634043 0.0 0.0
0.0 0.015654760288113828 -0.012411533912920148 0.0116885384567161 0.0007229954562040455 0.00959919924790662 0.0 0.0
0.0 0.012295406286872926 -0.009705734892812732 0.00903100531554535 0.0006747295772673732 0.008066917204959435 0.0 0.0
0.0 0.009370867567843066 -0.007325353273902639 0.006715981677224181 0.0006093715966784524 0.006593099147180194 0.0 0.0
0.0 0.006769772284696912 -0.005236256337591768 0.004710832209135814 0.0005254241284559537 0.005098261712647195 0.0 0.0
0.0 0.004419085015232632 -0.00339437814767748 0.002971357455059731 0.00042302069261774796 0.0036001846327435453 0.0 0.0
0.0 0.002573612234758011 -0.0018395090572291318 0.0015526463686933933 0.00028686268853573806 0.0021648765493765313 0.0 0.0
0.0 0.0010442292416438196 -0.0007194663398700161 0.000582762065267029 0.00013670427460298708 0.0010451111866427967 0.0 0.0
0.0 0.00028848108390924364 -0.0001314960931343097 0.00010388438552092684 2.7611707613382606e-05 0.0002722097812830031 0.0 0.0
0.0 2.0680033846926772e-06 3.772651577573472e-06 -2.9766029344598036e-06 -7.960486431136911e-07 1.586941738746118e-05 0.0 0.0
0.0 4.258947499350322e-06 7.277286354301924e-06 -5.832366520616224e-06 -1.4449198336858008e-06 -2.7897818160621697e-05 0.0 0.0
0.0 4.5282592468961635e-06 8.311512474905558e-07 -6.97303167292369e-07 -1.338480801981886e-07 -4.725294498485141e-06 0.0 0.0
0.0 -5.219589876277453e-07 -2.604130574636879e-07 2.1165290848317984e-07 4.876014898051802e-08 1.6524460640101319e-06 0.0 0.0
0.0 7.570946338015184e-07 6.225727937710662e-08 -4.5466944563445405e-08 -1.6790334813657094e-08 -5.121994798980048e-07 0.0 0.0
0.0 -1.598551359760529e-07 -1.8514062343378152e-09 1.022529924327987e-09 8.28876310009049e-10 3.1937174965589786e-08 0.0 0.0
0.0 0.0 0.0 0.0 0.0 0.0 0.0 0.0
0.0 0.0 0.0 0.0 0.0 0.0 0.0 0.0
0.0 -2.601208151042033e-07 -4.54463681070783e-09 2.796718489368658e-09 1.747918321339569e-09 -5.343306389855201e-08 0.0 0.0
0.0 8.768806017353131e-07 1.2448174449155846e-08 -4.41157639447504e-09 -8.036598054674761e-09 1.786962950399552e-07 0.0 0.0
0.0 1.6524549159876996e-06 3.4909997326889e-07 -2.8957622947182304e-07 -5.952374379706951e-08 1.3295540762141147e-06 0.0 0.0
0.0 -2.9115982290878e-07 2.4437208965555977e-06 -1.9622262929824275e-06 -4.814946035732056e-07 7.579987301745922e-06 0.0 0.0
0.0 -1.5583038117535586e-05 2.0710870397879207e-06 -1.6757506123247763e-06 -3.953364274630912e-07 -2.578889596503706e-06 0.0 0.0
0.0 0.00013566524128334122 -5.855743126801991e-05 4.3932292381404887e-05 1.4625138886614787e-05 -7.187059314723681e-05 0.0 0.0
0.0 0.0007492673182474427 -0.0005991913225477507 0.00046899719673208177 0.00013019412581566933 -0.0006526350878912347 0.0 0.0
0.0 0.002289871230592565 -0.0018271403457816072 0.0015073353780154937 0.00031980496776611126 -0.0016835355317106285 0.0 0.0
0.0 0.004880760768084987 -0.00373579807102073 0.0032454571341696903 0.0004903409368510415 -0.0031752489068634002 0.0 0.0
0.0 0.007606041819651568 -0.006173646619722106 0.005561301745643359 0.0006123448740787469 -0.004926874631979771 0.0 0.0
0.0 0.01093352550768225 -0.00897750657740119 0.008276428474424452 0.0007010781029767333 -0.006651289208939449 0.0 0.0
0.0 0.014758507345513832 -0.012140513308473863 0.011364886061775999 0.0007756272466978633 -0.008307960245834965 0.0 0.0
0.0 0.019050267505644158 -0.015749516954043547 0.014909117124172382 0.000840399829871164 -0.009941109135531014 0.0 0.0
0.0 0.024037892266084205 -0.0198766856969301 0.018983684264561002 0.0008930014323691008 -0.011690807250641574 0.0 0.0
0.0 0.029468984751293618 -0.024460377046740832 0.02353654937739449 0.0009238276693463293 -0.013817458196562164 0.0 0.0
0.0 0.035352727578413214 -0.02915434981716012 0.02822747364649535 0.0009268761706647554 -0.016719950590255453 0.0 0.0
0.0 0.04040370164986915 -0.03318426217076842 0.03229654332282604 0.000887718847942373 -0.02051115663239847 0.0 0.0
0.0 0.043148173387324844 -0.03506924280893947 0.034265314322617244 0.0008039284863222468 -0.024155606084036347 0.0 0.0
0.0 0.0404001761933676 -0.03222036186870224 0.03159117629623273 0.000629185572469482 -0.025301545277848798 0.0 0.0
0.0 0.03763531373981498 -0.026548188866156994 0.02324256769437437 0.0033056211717826097 1.2557663242596107e-14 0.0 0.0
0.0 0.04040017619337274 -0.03222036186870062 0.03159117629623146 0.0006291855724691729 0.02530154527787999 0.0 0.0
0.0 0.04314817338732117 -0.035069242808931485 0.034265314322609874 0.0008039284863215703 0.024155606084066267 0.0 0.0
0.0 0.040403701649849945 -0.03318426217075045 0.032296543322808284 0.0008877188479421592 0.02051115663241132 0.0 0.0
0.0 0.03535272757838607 -0.029154349817137035 0.02822747364647277 0.0009268761706642907 0.0167199505902519 0.0 0.0
0.0 0.029468984751265987 -0.024460377046717555 0.02353654937737139 0.0009238276693461493 0.013817458196551816 0.0 0.0
0.0 0.024037892266058538 -0.01987668569690878 0.018983684264540175 0.0008930014323686058 0.011690807250631227 0.0 0.0
0.0 0.01905026750561903 -0.015749516954022116 0.014909117124151274 0.0008403998298708413 0.009941109135521726 0.0 0.0
0.0 0.014758507345487056 -0.012140513308451603 0.011364886061754186 0.0007756272466974138 0.008307960245823646 0.0 0.0
0.0 0.010933525507656302 -0.008977506577380386 0.008276428474404213 0.00070107810297618 0.006651289208924303 0.0 0.0
0.0 0.00760604181962831 -0.006173646619703546 0.005561301745625371 0.0006123448740781749 0.00492687463196444 0.0 0.0
0.0 0.00488076076806698 -0.0037357980710064635 0.0032454571341563464 0.000490340936850118 0.0031752489068515586 0.0 0.0
0.0 0.002289871230581199 -0.001827140345772828 0.0015073353780080418 0.0003198049677647843 0.0016835355317039342 0.0 0.0
0.0 0.0007492673182424975 -0.000599191322544151 0.0004689971967291899 0.00013019412581496165 0.0006526350878878902 0.0 0.0
0.0 0.00013566524128067113 -5.855743126681235e-05 4.3932292380475075e-05 1.462513888633739e-05 7.187059314554914e-05 0.0 0.0
0.0 -1.5583038117568106e-05 2.071087039045456e-06 -1.675750611745236e-06 -3.953364273001954e-07 2.5788895980139843e-06 0.0 0.0
0.0 -2.9115982333185386e-07 2.4437208962257427e-06 -1.9622262927122633e-06 -4.814946035134761e-07 -7.579987300540544e-06 0.0 0.0
0.0 1.652454915050057e-06 3.4909997331073015e-07 -2.8957622950697443e-07 -5.952374380376012e-08 -1.3295540763349812e-06 0.0 0.0
0.0 8.768806017548074e-07 1.2448174450744215e-08 -4.411576396546859e-09 -8.036598054201751e-09 -1.7869629504425285e-07 0.0 0.0
0.0 -2.601208150903466e-07 -4.544636810377973e-09 2.7967184891725414e-09 1.7479183212069819e-09 5.3433063895465725e-08 0.0 0.0
0.0 0.0 0.0 0.0 0.0 0.0 0.0 0.0
0.0 0.0 0.0 0.0 0.0 0.0 0.0 0.0
0.0 0.0 0.0 0.0 0.0 0.0 0.0 0.0
0.0 -2.95889627028445e-07 -1.3592507698731995e-08 1.083743040721265e-08 2.7550772915178707e-09 -5.501979115714737e-08 0.0 0.0
0.0 -1.1730072656652248e-06 -1.7462355823377604e-07 1.4502923908876277e-07 2.9594319145023683e-08 -5.400776978144402e-07 0.0 0.0
0.0 2.6667360189988533e-06 4.175514793176808e-06 -3.3665085260688084e-06 -8.090062671079942e-07 9.778118750960053e-06 0.0 0.0
0.0 2.5295680924086397e-05 9.530873595014621e-06 -8.34029973572705e-06 -1.1905738592876344e-06 2.3781797535013672e-05 0.0 0.0
0.0 0.0003720347144023857 -0.000294690999388026 0.00022422930622933762 7.046169315868845e-05 -0.00025621759704775687 0.0 0.0
0.0 0.0015437650224238554 -0.0013009496078450465 0.0010391311413552417 0.0002618184664898043 -0.0009558699384961688 0.0 0.0
0.0 0.004082645003161522 -0.0031734879928483894 0.0026991116207469522 0.00047437637210143515 -0.002199965624517258 0.0 0.0
0.0 0.006837381080861095 -0.005862837660913054 0.005230157686983499 0.000632679973929561 -0.003923975120109963 0.0 0.0
0.0 0.010823516019942017 -0.00910975223229334 0.00837513202133248 0.0007346202109608506 -0.005733422448054641 0.0 0.0
0.0 0.01526171064134688 -0.012847201466467456 0.01203195519757596 0.0008152462688914922 -0.0075134590308424285 0.0 0.0
0.0 0.02026534966143048 -0.01708977807676047 0.016199133011018805 0.0008906450657416704 -0.00923128325098314 0.0 0.0
0.0 0.02597914876488673 -0.021939206930943204 0.020976999961495196 0.0009622069694479932 -0.010951629767583003 0.0 0.0
0.0 0.032471173602560424 -0.027504603800185254 0.026480093134023917 0.0010245106661613103 -0.012803917384535762 0.0 0.0
0.0 0.04006987863261384 -0.033753469746133684 0.032689848515745565 0.0010636212303881325 -0.0151118902424995 0.0 0.0
0.0 0.047492073615163416 -0.0402799007812944 0.039217430397482836 0.0010624703838114698 -0.01835970529158573 0.0 0.0
0.0 0.05468537524600321 -0.04597523617399485 0.04497412481315613 0.0010011113608387734 -0.022690130459983245 0.0 0.0
0.0 0.05868885334057422 -0.04878216862767666 0.047913321827622674 0.0008688468000539517 -0.0271386279419803 0.0 0.0
0.0 0.055216916228988125 -0.04530702079705532 0.04467905601245785 0.0006279647845974561 -0.029124435584191772 0.0 0.0
0.0 0.04951720989027915 -0.038087526336168465 0.03416039922830723 0.003927127107861194 1.4281978377717053e-14 0.0 0.0
0.0 0.055216916228988604 -0.0453070207970505 0.0446790560124531 0.0006279647845973931 0.029124435584224034 0.0 0.0
0.0 0.05868885334056511 -0.04878216862766445 0.047913321827611 0.0008688468000534676 0.027138627942013195 0.0 0.0
0.0 0.05468537524597949 -0.045975236173972756 0.04497412481313433 0.0010011113608383382 0.022690130459999378 0.0 0.0
0.0 0.04749207361512979 -0.040279900781265664 0.03921743039745379 0.0010624703838118396 0.01835970529158342 0.0 0.0
0.0 0.040069878632579485 -0.03375346974610433 0.03268984851571657 0.001063621230387778 0.015111890242490374 0.0 0.0
0.0 0.032471173602526965 -0.027504603800156666 0.02648009313399572 0.0010245106661609519 0.012803917384524462 0.0 0.0
0.0 0.025979148764852127 -0.02193920693091346 0.020976999961465858 0.0009622069694475874 0.010951629767571832 0.0 0.0
0.0 0.020265349661397657 -0.017089778076732683 0.016199133010991396 0.0008906450657412831 0.009231283250971622 0.0 0.0
0.0 0.015261710641315237 -0.012847201466440847 0.012031955197549734 0.0008152462688911137 0.007513459030827445 0.0 0.0
0.0 0.010823516019913078 -0.009109752232269291 0.008375132021308643 0.0007346202109606533 0.005733422448037504 0.0 0.0
0.0 0.0068373810808381496 -0.005862837660893549 0.005230157686964778 0.0006326799739287696 0.003923975120096297 0.0 0.0
0.0 0.0040826450031437094 -0.0031734879928346166 0.002699111620734277 0.0004743763721003409 0.0021999656245079487 0.0 0.0
0.0 0.0015437650224132834 -0.0013009496078367642 0.0010391311413482734 0.0002618184664884907 0.000955869938490405 0.0 0.0
0.0 0.00037203471439838375 -0.0002946909993855829 0.00022422930622750938 7.046169315807326e-05 0.00025621759704593064 0.0 0.0
0.0 2.5295680923385603e-05 9.530873594736391e-06 -8.340299735501516e-06 -1.190573859234905e-06 -2.378179753445083e-05 0.0 0.0
0.0 2.666736017747085e-06 4.175514793171455e-06 -3.3665085260656087e-06 -8.090062671058262e-07 -9.778118750955421e-06 0.0 0.0
0.0 -1.1730072664360288e-06 -1.746235582843465e-07 1.4502923912880943e-07 2.9594319155555516e-08 5.40077697982926e-07 0.0 0.0
0.0 -2.9588962689353585e-07 -1.3592507692400482e-08 1.0837430402124616e-08 2.755077290274585e-09 5.50197911312241e-08 0.0 0.0
0.0 0.0 0.0 0.0 0.0 0.0 0.0 0.0
0.0 0.0 0.0 0.0 0.0 0.0 0.0 0.0
0.0 0.0 0.0 0.0 0.0 0.0 0.0 0.0
0.0 0.0 0.0 0.0 0.0 0.0 0.0 0.0
0.0 -3.008317283811859e-07 -1.6894082401111415e-08 1.3667650964936457e-08 3.226431436173586e-09 -5.3084951058647605e-08 0.0 0.0
0.0 8.87223109987786e-07 3.1287968846606504e-08 -2.1962391713228927e-08 -9.32557713335259e-09 7.336482032746862e-08 0.0 0.0
0.0 -1.3059709556302011e-05 2.297977888465682e-06 -1.964124834195313e-06 -3.338530542703738e-07 4.717850082632117e-06 0.0 0.0
0.0 0.00011655410059781916 -4.887857825897145e-05 3.470099349369719e-05 1.4177584765274357e-05 -1.112628212720796e-05 0.0 0.0
0.0 0.0007867634711572365 -0.0006697425795531425 0.0005158223554124962 0.00015392022414064652 -0.0003747306841786613 0.0 0.0
0.0 0.0027727120329362597 -0.002174665800475523 0.001785236574636293 0.0003894292258392309 -0.0011634224391420685 0.0 0.0
0.0 0.0053188446747892155 -0.004722215396201954 0.004123021109029778 0.0005991942871721717 -0.002560290712510841 0.0 0.0
0.0 0.009375459728464097 -0.008072294804720642 0.007340918641116826 0.0007313761636038199 -0.004229005742303711 0.0 0.0
0.0 0.014123862826217384 -0.012118765278125531 0.011294457976719097 0.0008243073014064324 -0.005976982166257419 0.0 0.0
0.0 0.019613963860233178 -0.01679514622667104 0.015889667342620768 0.0009054788840502719 -0.007704692076577639 0.0 0.0
0.0 0.025871343419590753 -0.02212746461801717 0.02114134501538795 0.0009861196026292028 -0.009392198065654967 0.0 0.0
0.0 0.03309294830725521 -0.02822595725466471 0.027160971656583183 0.0010649855980815442 -0.011108674359913553 0.0 0.0
0.0 0.0412089201953977 -0.035228548823842944 0.03409036980786705 0.0011381790159758452 -0.01296863453508389 0.0 0.0
0.0 0.0502856685096371 -0.0431289506853253 0.04194152380376032 0.0011874268815650038 -0.015211228902028081 0.0 0.0
0.0 0.06033168250239209 -0.051436129653738095 0.0502553732209647 0.0011807564327733966 -0.018334573367249987 0.0 0.0
0.0 0.06902293258854475 -0.05875102888042002 0.057659844210714115 0.001091184669705858 -0.02275233437002351 0.0 0.0
0.0 0.07357244824833595 -0.06238459472065983 0.06147702318676222 0.000907571533897636 -0.027850648670557292 0.0 0.0
0.0 0.06968231977063236 -0.05824947962060377 0.05763260281173827 0.0006168768088654726 -0.03159892879374766 0.0 0.0
0.0 0.06235792429654509 -0.04963899353748301 0.045152219939299305 0.004486773598183707 1.5235208927766308e-14 0.0 0.0
0.0 0.06968231977062735 -0.05824947962059464 0.057632602811729064 0.0006168768088656125 0.0315989287937809 0.0 0.0
0.0 0.0735724482483203 -0.06238459472064252 0.06147702318674497 0.0009075715338975343 0.027850648670591317 0.0 0.0
0.0 0.06902293258851781 -0.058751028880395115 0.05765984421068995 0.0010911846697051449 0.022752334370041972 0.0 0.0
0.0 0.06033168250235296 -0.051436129653704366 0.05025537322093042 0.0011807564327738402 0.018334573367250216 0.0 0.0
0.0 0.05028566850959534 -0.04312895068528931 0.04194152380372456 0.0011874268815648043 0.015211228902021243 0.0 0.0
0.0 0.041208920195355575 -0.035228548823806966 0.034090369807831186 0.0011381790159757735 0.012968634535073981 0.0 0.0
0.0 0.033092948307215195 -0.028225957254629702 0.027160971656548936 0.0010649855980807562 0.01110867435990312 0.0 0.0
0.0 0.025871343419548325 -0.022127464617980833 0.021141345015351528 0.0009861196026292888 0.009392198065642897 0.0 0.0
0.0 0.019613963860194268 -0.016795146226638014 0.015889667342588076 0.0009054788840499212 0.007704692076562882 0.0 0.0
0.0 0.01412386282618105 -0.012118765278094962 0.011294457976688732 0.0008243073014062308 0.0059769821662401 0.0 0.0
0.0 0.009375459728436824 -0.008072294804697438 0.007340918641094369 0.0007313761636030783 0.004229005742290534 0.0 0.0
0.0 0.005318844674769505 -0.004722215396183936 0.004123021109012858 0.000599194287171075 0.0025602907125010176 0.0 0.0
0.0 0.00277271203292159 -0.0021746658004638355 0.0017852365746261244 0.0003894292258377097 0.0011634224391356845 0.0 0.0
0.0 0.0007867634711506063 -0.0006697425795480106 0.0005158223554084274 0.00015392022413958413 0.00037473068417561616 0.0 0.0
0.0 0.00011655410059583038 -4.887857825836533e-05 3.470099349326906e-05 1.4177584765096068e-05 1.1126282127013632e-05 0.0 0.0
0.0 -1.3059709556746588e-05 2.297977888023479e-06 -1.9641248338514885e-06 -3.33853054172018e-07 -4.71785008209057e-06 0.0 0.0
0.0 8.872231093267268e-07 3.1287968791448897e-08 -2.1962391669566317e-08 -9.325577121877984e-09 -7.336482018017148e-08 0.0 0.0
0.0 -3.0083172820327663e-07 -1.6894082390560128e-08 1.3667650956397697e-08 3.226431434162971e-09 5.3084951026648725e-08 0.0 0.0
0.0 0.0 0.0 0.0 0.0 0.0 0.0 0.0
0.0 0.0 0.0 0.0 0.0 0.0 0.0 0.0
0.0 0.0 0.0 0.0 0.0 0.0 0.0 0.0
0.0 0.0 0.0 0.0 0.0 0.0 0.0 0.0
0.0 -1.680433764396781e-07 -1.0793184899027673e-08 8.54508648894806e-09 2.2480984100807976e-09 -2.827633481288059e-08 0.0 0.0
0.0 -9.714604579491118e-07 -1.422297873515614e-07 1.1323544359307063e-07 2.8994343758461953e-08 -1.637048406130969e-07 0.0 0.0
0.0 -2.0512605397351732e-07 1.4683186907323738e-05 -1.2047596926254091e-05 -2.6355899810695988e-06 1.9197379890283086e-05 0.0 0.0
0.0 0.00022336520032801904 -0.00022223109784497754 0.000165361629840779 5.686946800419845e-05 -9.542786646937973e-05 0.0 0.0
0.0 0.0015198091010726902 -0.0011656362558285116 0.0009162938149258893 0.0002493424409026222 -0.0004293226493230126 0.0 0.0
0.0 0.00361865288290858 -0.003236507449563685 0.0027296578269720775 0.0005068496225916074 -0.0013027362275665846 0.0 0.0
0.0 0.0071781966045921415 -0.006326828143854696 0.005637491622788947 0.0006893365210657555 -0.002592477956944162 0.0 0.0
0.0 0.011837064677461847 -0.01033565130793198 0.009527986110256223 0.000807665197675757 -0.0040925201280151025 0.0 0.0
0.0 0.017493245122106406 -0.015171980296651073 0.014273867784905022 0.00089811251174604 -0.005686997051287178 0.0 0.0
0.0 0.02407740648397007 -0.020789557407567605 0.019805817323295696 0.0009837400842719023 -0.007262386617126819 0.0 0.0
0.0 0.031677939020751875 -0.02722398951443712 0.026153150796046867 0.0010708387183902541 -0.008818306046707306 0.0 0.0
0.0 0.040030388951047415 -0.03459153627581754 0.03343405231613998 0.001157483959677568 -0.010438326784508 0.0 0.0
0.0 0.04990538657293676 -0.043008469938187716 0.04177042553972278 0.0012380443984649505 -0.012198488404724803 0.0 0.0
0.0 0.06097657195292275 -0.05247704370387277 0.05117997502640485 0.001297068677467827 -0.014178715276417047 0.0 0.0
0.0 0.07246552339755852 -0.06248590551959544 0.06119237968477647 0.0012935258348189265 -0.016738015244212968 0.0 0.0
0.0 0.08293504836740098 -0.07136999833108505 0.07019287281375539 0.0011771255173297001 -0.02067350695829149 0.0 0.0
0.0 0.08864197457623361 -0.0758870852638305 0.07494732712071826 0.0009397581431121771 -0.02635966983836137 0.0 0.0
0.0 0.08420361237315979 -0.0713055653445401 0.07071175704446227 0.000593808300077823 -0.03300630419921436 0.0 0.0
0.0 0.0754079582513204 -0.061502514533174915 0.0565095894787308 0.004992925054444154 1.460984111467667e-14 0.0 0.0
0.0 0.0842036123731525 -0.07130556534452943 0.07071175704445194 0.0005938083000774895 0.0330063041992473 0.0 0.0
0.0 0.08864197457621109 -0.07588708526380832 0.07494732712069588 0.0009397581431122861 0.02635966983839307 0.0 0.0
0.0 0.08293504836736516 -0.0713699983310532 0.07019287281372387 0.001177125517329373 0.020673506958308222 0.0 0.0
0.0 0.07246552339751497 -0.06248590551955731 0.061192379684738736 0.0012935258348186205 0.01673801524421582 0.0 0.0
0.0 0.06097657195287167 -0.05247704370382856 0.05117997502636075 0.0012970686774677407 0.014178715276411555 0.0 0.0
0.0 0.049905386572888635 -0.043008469938145895 0.041770425539681785 0.001238044398464122 0.01219848840471736 0.0 0.0
0.0 0.040030388951000695 -0.0345915362757768 0.033434052316100304 0.0011574839596764702 0.010438326784499378 0.0 0.0
0.0 0.03167793902070375 -0.027223989514395232 0.026153150796005144 0.0010708387183901186 0.008818306046697016 0.0 0.0
0.0 0.024077406483925146 -0.020789557407528768 0.019805817323257525 0.0009837400842712294 0.007262386617113228 0.0 0.0
0.0 0.017493245122066434 -0.015171980296616627 0.014273867784870966 0.0008981125117456653 0.0056869970512724265 0.0 0.0
0.0 0.011837064677429933 -0.010335651307904165 0.00952798611022909 0.0008076651976750693 0.004092520128002632 0.0 0.0
0.0 0.007178196604568239 -0.006326828143833423 0.005637491622768534 0.0006893365210648882 0.0025924779569353015 0.0 0.0
0.0 0.003618652882892767 -0.0032365074495497173 0.0027296578269594115 0.0005068496225903055 0.0013027362275605178 0.0 0.0
0.0 0.0015198091010630377 -0.0011656362558210768 0.0009162938149198243 0.00024934244090125013 0.0004293226493197995 0.0 0.0
0.0 0.00022336520032484645 -0.00022223109784302235 0.0001653616298393006 5.6869468003721504e-05 9.542786646869556e-05 0.0 0.0
0.0 -2.0512605433219067e-07 1.4683186906672793e-05 -1.2047596925741612e-05 -2.6355899809310517e-06 -1.9197379889524287e-05 0.0 0.0
0.0 -9.714604581798739e-07 -1.42229787331247e-07 1.132354435757921e-07 2.899434375545633e-08 1.637048405562574e-07 0.0 0.0
0.0 -1.6804337643450485e-07 -1.0793184898566844e-08 8.545086488621468e-09 2.248098409945835e-09 2.8276334812116163e-08 0.0 0.0
0.0 0.0 0.0 0.0 0.0 0.0 0.0 0.0
0.0 0.0 0.0 0.0 0.0 0.0 0.0 0.0
0.0 0.0 0.0 0.0 0.0 0.0 0.0 0.0
0.0 0.0 0.0 0.0 0.0 0.0 0.0 0.0
0.0 0.0 0.0 0.0 0.0 0.0 0.0 0.0
0.0 -1.096510783348822e-06 2.0708774220234368e-07 -1.6433063825520867e-07 -4.275710394712674e-08 3.599532960764521e-07 0.0 0.0
0.0 2.4564285444757092e-05 1.3646469629517333e-06 -2.7283210049704196e-06 1.3636740420189107e-06 1.0909499371222664e-05 0.0 0.0
0.0 0.0005395581806560985 -0.000429321206250742 0.0003214855829883209 0.00010783562326242108 -8.3229884075306e-05 0.0 0.0
0.0 0.0021112524121167688 -0.0018270395960067777 0.0014715500168952008 0.00035548957911157435 -0.0004462162593283689 0.0 0.0
0.0 0.0048263447340235275 -0.0043618607028231325 0.0037649477224068603 0.0005969129804162736 -0.0012408709974020729 0.0 0.0
0.0 0.008965714962242771 -0.007973495603444724 0.007212848285609438 0.0007606473178352778 -0.0022937700067544413 0.0 0.0
0.0 0.014378230956681054 -0.012623738487582758 0.011753500479105183 0.0008702380084775823 -0.003546692849566536 0.0 0.0
0.0 0.02087904580776577 -0.01824653880405998 0.017284020328089865 0.0009625184759701085 -0.004882788572173477 0.0 0.0
0.0 0.028561494197285528 -0.02481046463950348 0.023755903017710453 0.0010545616217930206 -0.006206431113678982 0.0 0.0
0.0 0.0371727606531883 -0.03236492531535287 0.031215431950446168 0.0011494933649066864 -0.007524732538904754 0.0 0.0
0.0 0.04740451651583919 -0.04100322914631695 0.03976219433593003 0.0012410348103868817 -0.008933542748807012 0.0 0.0
0.0 0.05865445841657743 -0.050816907475447495 0.04949177498010536 0.0013251324953421069 -0.010496103759419778 0.0 0.0
0.0 0.0711045066266687 -0.06174430236177195 0.06035225974687459 0.0013920426148974238 -0.012125700345601556 0.0 0.0
0.0 0.08450401999194769 -0.07326373672078915 0.07186027185044665 0.0014034648703424237 -0.013807120999602192 0.0 0.0
0.0 0.09664321674154254 -0.08367408527284219 0.08239666610747103 0.0012774191653711006 -0.0165207872771463 0.0 0.0
0.0 0.10356026134262082 -0.08933535215007694 0.08835389752967514 0.0009814546204018734 -0.022565642560527704 0.0 0.0
0.0 0.09924826419856252 -0.08473643299686569 0.08418453981951106 0.0005518931773547395 -0.03312833899995045 0.0 0.0
0.0 0.08969173125028138 -0.07399257413537672 0.06855471275087266 0.005437861384504081 1.3160479650498047e-14 0.0 0.0
0.0 0.09924826419855634 -0.08473643299685664 0.08418453981950291 0.0005518931773537208 0.033128338999980717 0.0 0.0
0.0 0.1035602613425912 -0.08933535215004978 0.08835389752964772 0.000981454620402048 0.022565642560555276 0.0 0.0
0.0 0.096643216741501 -0.08367408527280572 0.08239666610743504 0.0012774191653706591 0.016520787277160727 0.0 0.0
0.0 0.08450401999189631 -0.07326373672074463 0.07186027185040211 0.0014034648703424456 0.013807120999604666 0.0 0.0
0.0 0.07110450662661483 -0.06174430236172488 0.06035225974682843 0.0013920426148965 0.012125700345599457 0.0 0.0
0.0 0.058654458416523475 -0.05081690747540073 0.04949177498005919 0.0013251324953415283 0.010496103759414932 0.0 0.0
0.0 0.04740451651578349 -0.04100322914626845 0.03976219433588229 0.0012410348103861378 0.008933542748799142 0.0 0.0
0.0 0.03717276065313275 -0.03236492531530496 0.031215431950398408 0.0011494933649065558 0.007524732538896451 0.0 0.0
0.0 0.02856149419723569 -0.02481046463945959 0.023755903017667536 0.0010545616217920695 0.006206431113668413 0.0 0.0
0.0 0.02087904580771838 -0.018246538804018837 0.01728402032804898 0.0009625184759698343 0.004882788572160629 0.0 0.0
0.0 0.014378230956643315 -0.012623738487549933 0.01175350047907288 0.0008702380084770527 0.0035466928495554426 0.0 0.0
0.0 0.008965714962214977 -0.007973495603419959 0.007212848285585499 0.0007606473178344531 0.0022937700067468298 0.0 0.0
0.0 0.004826344734004836 -0.004361860702805894 0.0037649477223908345 0.0005969129804150612 0.0012408709973964404 0.0 0.0
0.0 0.002111252412106484 -0.0018270395959980592 0.0014715500168878258 0.0003554895791102349 0.0004462162593257007 0.0 0.0
0.0 0.0005395581806508263 -0.00042932120624692306 0.000321485582985368 0.00010783562326155489 8.322988407429179e-05 0.0 0.0
0.0 2.4564285444261984e-05 1.3646469626268585e-06 -2.728321004692257e-06 1.3636740420652728e-06 -1.090949937067168e-05 0.0 0.0
0.0 -1.0965107838794045e-06 2.0708774222113103e-07 -1.6433063827227874e-07 -4.27571039488467e-08 -3.599532961358539e-07 0.0 0.0
0.0 0.0 0.0 0.0 0.0 0.0 0.0 0.0
0.0 0.0 0.0 0.0 0.0 0.0 0.0 0.0
0.0 0.0 0.0 0.0 0.0 0.0 0.0 0.0
0.0 0.0 0.0 0.0 0.0 0.0 0.0 0.0
0.0 0.0 0.0 0.0 0.0 0.0 0.0 0.0
0.0 0.0 0.0 0.0 0.0 0.0 0.0 0.0
0.0 -3.1378545096292994e-07 9.611260616742865e-07 -7.598587110197621e-07 -2.0126735065453936e-07 7.744838296013437e-07 0.0 0.0
0.0 6.357082296039986e-05 -6.354622132438217e-05 4.4037505573191546e-05 1.9508715751190674e-05 4.746805849103801e-06 0.0 0.0
0.0 0.0009676358302892349 -0.0007509587604889418 0.0005722327570315199 0.00017872600345742086 -3.860744174348624e-05 0.0 0.0
0.0 0.0027350789272731152 -0.002588052901217499 0.0021366638316043726 0.00045138906961312663 -0.0003738325347860774 0.0 0.0
0.0 0.006110150245196706 -0.005524959821324218 0.004853950729284605 0.0006710090920396185 -0.0009292294870202882 0.0 0.0
0.0 0.010787665178763384 -0.009638397040568436 0.008820190390259275 0.0008182066503091569 -0.0016927759144348784 0.0 0.0
0.0 0.016919140503338207 -0.014917247255597836 0.013993347481471921 0.0009238997741259066 -0.0026033327463274255 0.0 0.0
0.0 0.024360408666244098 -0.021321741723173103 0.0203009670509998 0.001020774672173269 -0.00357771972006392 0.0 0.0
0.0 0.032980682337934025 -0.028839007079979356 0.02771906955447859 0.001119937525500761 -0.0045437363754392765 0.0 0.0
0.0 0.04318593131009889 -0.037516600527369735 0.036295042896357585 0.0012215576310121493 -0.00551885906296056 0.0 0.0
0.0 0.05438266131617944 -0.047448451413255724 0.04612890843172612 0.0013195429815295685 -0.006610084320375057 0.0 0.0
0.0 0.06731372931352989 -0.05863681708071769 0.05723220016678761 0.0014046169139301605 -0.007838810545168195 0.0 0.0
0.0 0.08147728865860765 -0.070894834088495 0.06942825969257864 0.001466574395916275 -0.00903920746501168 0.0 0.0
0.0 0.09622468582650828 -0.08365804320364068 0.0821647216097094 0.0014933215939314294 -0.009913562793900436 0.0 0.0
0.0 0.10984832109240855 -0.09545115993181998 0.0940300802822916 0.0014210796495283346 -0.010956353035079844 0.0 0.0
0.0 0.11842749787543405 -0.10267101817100471 0.10159985639818175 0.001071161772822884 -0.01584682476656136 0.0 0.0
0.0 0.11501677907306221 -0.09883890321978674 0.0983683173516232 0.0004705858681633414 -0.031050850821416363 0.0 0.0
0.0 0.10529211665863965 -0.08756915225902033 0.08177919969558996 0.005789952563430273 9.994609306840374e-15 0.0 0.0
0.0 0.11501677907304884 -0.09883890321977315 0.09836831735160986 0.0004705858681633102 0.031050850821439633 0.0 0.0
0.0 0.11842749787540041 -0.10267101817097453 0.10159985639815196 0.0010711617728225518 0.01584682476658406 0.0 0.0
0.0 0.10984832109236362 -0.09545115993178072 0.09403008028225333 0.0014210796495273533 0.010956353035090672 0.0 0.0
0.0 0.09622468582644826 -0.08365804320358888 0.08216472160965725 0.001493321593931658 0.009913562793902476 0.0 0.0
0.0 0.0814772886585485 -0.07089483408844328 0.06942825969252821 0.0014665743959151336 0.009039207465011006 0.0 0.0
0.0 0.06731372931346616 -0.05863681708066265 0.05723220016673276 0.0014046169139298695 0.0078388105451647 0.0 0.0
0.0 0.05438266131611541 -0.047448451413200164 0.046128908431671306 0.0013195429815288796 0.006610084320368755 0.0 0.0
0.0 0.043185931310034856 -0.037516600527314266 0.036295042896302046 0.0012215576310122083 0.005518859062954839 0.0 0.0
0.0 0.03298068233787717 -0.028839007079930028 0.027719069554430053 0.0011199375254999106 0.004543736375432466 0.0 0.0
0.0 0.02436040866619162 -0.02132174172312694 0.020300967050953952 0.0010207746721729999 0.0035777197200541192 0.0 0.0
0.0 0.016919140503297507 -0.014917247255561646 0.013993347481436446 0.0009238997741252069 0.002603332746319274 0.0 0.0
0.0 0.010787665178731677 -0.009638397040539957 0.008820190390231597 0.0008182066503083629 0.0016927759144290458 0.0 0.0
0.0 0.006110150245173954 -0.005524959821303411 0.004853950729264974 0.0006710090920384359 0.0009292294870158367 0.0 0.0
0.0 0.00273507892726119 -0.002588052901206261 0.002136663831594448 0.00045138906961181264 0.0003738325347837623 0.0 0.0
0.0 0.0009676358302831857 -0.0007509587604839857 0.0005722327570276337 0.00017872600345635115 3.8607441742986494e-05 0.0 0.0
0.0 6.35708229594248e-05 -6.354622132440983e-05 4.403750557325593e-05 1.950871575115375e-05 -4.746805848584546e-06 0.0 0.0
0.0 -3.1378545140853164e-07 9.61126061746535e-07 -7.598587110791442e-07 -2.0126735066741135e-07 -7.744838296820731e-07 0.0 0.0
0.0 0.0 0.0 0.0 0.0 0.0 0.0 0.0
0.0 0.0 0.0 0.0 0.0 0.0 0.0 0.0
0.0 0.0 0.0 0.0 0.0 0.0 0.0 0.0
0.0 0.0 0.0 0.0 0.0 0.0 0.0 0.0
0.0 0.0 0.0 0.0 0.0 0.0 0.0 0.0
0.0 0.0 0.0 0.0 0.0 0.0 0.0 0.0
0.0 -2.3156983783715666e-06 1.460651952947171e-06 -1.2433814123689914e-06 -2.1727054057817597e-07 9.724701079711966e-07 0.0 0.0
0.0 0.00022426939326003557 -0.0001504753581859444 0.00010618306155323656 4.429229663270783e-05 3.615869633076162e-05 0.0 0.0
0.0 0.001370765312671736 -0.0011884942366066995 0.0009257489326692904 0.00026274530393740887 5.1604070280243806e-05 0.0 0.0
0.0 0.0036465800485932336 -0.003376243092642445 0.002848849884393786 0.000527393208248659 -0.00012363619143426776 0.0 0.0
0.0 0.007405151031030313 -0.006706649273843044 0.0059756306375071495 0.0007310186363358888 -0.0004062667496534578 0.0 0.0
0.0 0.012688464268643897 -0.011300190339606112 0.010434503663304668 0.0008656866763014403 -0.0007959667803816502 0.0 0.0
0.0 0.0194639034576709 -0.01719649179466933 0.0162246280761143 0.0009718637185550166 -0.0012702572896777652 0.0 0.0
0.0 0.027768226697869543 -0.024380608128071087 0.023306296220621376 0.0010743119074497376 -0.0017735828353041242 0.0 0.0
0.0 0.03769771635948061 -0.0328542327292106 0.03167402544880091 0.0011802072804096876 -0.00227558518112216 0.0 0.0
0.0 0.04872995185349225 -0.042675001557701944 0.041385926906734725 0.0012890746509671973 -0.002826451396673507 0.0 0.0
0.0 0.06165783415165871 -0.053884990388188184 0.0524921803737944 0.0013928100143937806 -0.00345858793590592 0.0 0.0
0.0 0.07611602341232976 -0.06642465844496065 0.06494694913352021 0.0014777093114404487 -0.004168526654817687 0.0 0.0
0.0 0.09174580679607483 -0.079956155471087 0.07842512981575427 0.00153102565533273 -0.004861582648086535 0.0 0.0
0.0 0.10767856022868612 -0.093719910673452 0.09217228967044716 0.0015476210030048246 -0.005248397043606285 0.0 0.0
0.0 0.12238095239673259 -0.10642354376700078 0.10488624178787133 0.0015373019791295657 -0.005195679340921733 0.0 0.0
0.0 0.13279402069810473 -0.11542164274066676 0.11405364681179635 0.001367995928870284 -0.00706886647229379 0.0 0.0
0.0 0.13181865836945394 -0.1139372424705502 0.11352178949080373 0.00041545297974648925 -0.022173812332669955 0.0 0.0
0.0 0.12332129006404506 -0.10324614875650154 0.09747995930027122 0.005766189456230225 5.4539706084710815e-15 0.0 0.0
0.0 0.13181865836943554 -0.11393724247053305 0.11352178949078699 0.000415452979745976 0.02217381233268273 0.0 0.0
0.0 0.13279402069806528 -0.11542164274063235 0.1140536468117618 0.0013679959288703468 0.007068866472306586 0.0 0.0
0.0 0.12238095239667607 -0.10642354376695229 0.10488624178782256 0.0015373019791297142 0.00519567934092741 0.0 0.0
0.0 0.1076785602286215 -0.09371991067339602 0.09217228967039129 0.001547621003004806 0.005248397043608034 0.0 0.0
0.0 0.09174580679600575 -0.07995615547102694 0.0784251298156948 0.0015310256553320674 0.0048615826480859214 0.0 0.0
0.0 0.07611602341226038 -0.06642465844490028 0.06494694913346068 0.0014777093114396432 0.004168526654815629 0.0 0.0
0.0 0.06165783415158935 -0.053884990388127774 0.05249218037373508 0.0013928100143926184 0.00345858793590323 0.0 0.0
0.0 0.04872995185342337 -0.0426750015576422 0.04138592690667525 0.0012890746509669336 0.0028264513966708435 0.0 0.0
0.0 0.03769771635941816 -0.03285423272915606 0.031674025448747124 0.0011802072804089443 0.002275585181118355 0.0 0.0
0.0 0.027768226697811087 -0.024380608128020478 0.02330629622057103 0.0010743119074494369 0.0017735828352985535 0.0 0.0
0.0 0.01946390345762757 -0.017196491794630828 0.016224628076076785 0.0009718637185540523 0.0012702572896734383 0.0 0.0
0.0 0.012688464268608462 -0.011300190339574292 0.010434503663273541 0.0008656866763007414 0.000795966780378455 0.0 0.0
0.0 0.007405151031003505 -0.006706649273818674 0.005975630637483695 0.0007310186363349752 0.0004062667496509462 0.0 0.0
0.0 0.0036465800485784503 -0.0033762430926284133 0.002848849884381108 0.0005273932082473044 0.00012363619143300795 0.0 0.0
0.0 0.0013707653126642393 -0.0011884942366002286 0.0009257489326639618 0.00026274530393626726 -5.160407028032978e-05 0.0 0.0
0.0 0.0002242693932577124 -0.00015047535818471102 0.00010618306155237384 4.4292296632337314e-05 -3.615869633037443e-05 0.0 0.0
0.0 -2.3156983785641654e-06 1.46065195264404e-06 -1.2433814121430814e-06 -2.1727054050089837e-07 -9.724701079604675e-07 0.0 0.0
0.0 0.0 0.0 0.0 0.0 0.0 0.0 0.0
0.0 0.0 0.0 0.0 0.0 0.0 0.0 0.0
0.0 0.0 0.0 0.0 0.0 0.0 0.0 0.0
0.0 0.0 0.0 0.0 0.0 0.0 0.0 0.0
0.0 0.0 0.0 0.0 0.0 0.0 0.0 0.0
0.0 0.0 0.0 0.0 0.0 0.0 0.0 0.0
0.0 1.1959360048825198e-06 2.1828788179263868e-07 -5.342319676941777e-07 3.159440859016585e-07 1.979862345351597e-06 0.0 0.0
0.0 0.00044377852175861844 -0.0002851977586927768 0.00020095219371233568 8.424556498044114e-05 8.342249332526729e-05 0.0 0.0
0.0 0.0018252275119584273 -0.0015900913403521088 0.0012270735609167297 0.00036301777943537864 0.00020689683687716347 0.0 0.0
0.0 0.004362970020369178 -0.004048093526413534 0.0033801325138666043 0.0006679610125469298 0.00025700280362038176 0.0 0.0
0.0 0.008440582246915209 -0.0076821273914186704 0.006760299737679554 0.0009218276537391135 0.00028964342914626043 0.0 0.0
0.0 0.01408113243549193 -0.012664912951176792 0.011535540387896233 0.0011293725632805626 0.00030031185243237636 0.0 0.0
0.0 0.02143032994693459 -0.019066170950444102 0.017728918957547093 0.001337251992897008 0.0002634856146302611 0.0 0.0
0.0 0.03048633232366111 -0.02689982788818358 0.0253263941855377 0.0015734337026458629 0.0002239843446399355 0.0 0.0
0.0 0.0409396292769391 -0.03618728505374319 0.03434181300329578 0.0018454720504474031 0.00017697097871164974 0.0 0.0
0.0 0.05317964112054398 -0.04695418831562823 0.04480896504644122 0.002145223269186987 5.8739166029864696e-05 0.0 0.0
0.0 0.06716627102734328 -0.05921745082069897 0.05675760743188893 0.002459843388809998 -9.45472283671242e-05 0.0 0.0
0.0 0.08277964202586394 -0.07286629059497539 0.0701030484501435 0.0027632421448318266 -0.00035012104835690713 0.0 0.0
0.0 0.09954271870215883 -0.08744227248062794 0.08442361553419664 0.0030186569464312587 -0.0006947620461729871 0.0 0.0
0.0 0.1163145251745597 -0.1019786245952144 0.09879783586338522 0.003180788731829066 -0.0010001769830110807 0.0 0.0
0.0 0.13139162743316526 -0.11500799149127865 0.11180397486436841 0.003204016626910081 -0.0010202511205334754 0.0 0.0
0.0 0.14256197790715597 -0.12478206214958981 0.12160156168957062 0.0031805004600192178 -0.0015564573008584404 0.0 0.0
0.0 0.14485751521862988 -0.12724453327051394 0.12414223307775354 0.0031023001927603655 -0.015827857314088402 0.0 0.0
0.0 0.14064298992540067 -0.11951468810422859 0.11010409019097946 0.00941059791324905 2.581268532253489e-15 0.0 0.0
0.0 0.1448575152186117 -0.127244533270497 0.12414223307773882 0.003102300192758087 0.015827857314091948 0.0 0.0
0.0 0.14256197790711117 -0.12478206214955118 0.12160156168953244 0.0031805004600187928 0.0015564573008611284 0.0 0.0
0.0 0.13139162743309812 -0.11500799149122044 0.1118039748643106 0.0032040166269099203 0.001020251120534419 0.0 0.0
0.0 0.11631452517449362 -0.10197862459515646 0.0987978358633285 0.003180788731827697 0.0010001769830109974 0.0 0.0
0.0 0.09954271870208527 -0.08744227248056353 0.0844236155341339 0.0030186569464295755 0.0006947620461722377 0.0 0.0
0.0 0.08277964202579044 -0.07286629059491093 0.07010304845008083 0.0027632421448300793 0.00035012104835466587 0.0 0.0
0.0 0.06716627102726937 -0.05921745082063401 0.0567576074318262 0.0024598433888077934 9.45472283658379e-05 0.0 0.0
0.0 0.05317964112047111 -0.0469541883155644 0.04480896504637895 0.0021452232691854304 -5.873916603052216e-05 0.0 0.0
0.0 0.040939629276871725 -0.03618728505368414 0.034341813003238575 0.0018454720504455671 -0.00017697097871397904 0.0 0.0
0.0 0.030486332323597175 -0.026899827888127573 0.025326394185482836 0.0015734337026447388 -0.00022398434464198941 0.0 0.0
0.0 0.021430329946887407 -0.019066170950402736 0.017728918957507406 0.0013372519928953443 -0.0002634856146311727 0.0 0.0
0.0 0.014081132435454108 -0.012664912951143248 0.011535540387863866 0.0011293725632793873 -0.00030031185243318366 0.0 0.0
0.0 0.008440582246885691 -0.007682127391391926 0.006760299737653906 0.0009218276537380215 -0.0002896434291462127 0.0 0.0
0.0 0.00436297002035267 -0.004048093526397856 0.0033801325138524724 0.000667961012545384 -0.0002570028036200495 0.0 0.0
0.0 0.0018252275119494542 -0.001590091340343445 0.00122707356090963 0.0003630177794338154 -0.00020689683687640797 0.0 0.0
0.0 0.00044377852175545105 -0.00028519775869066054 0.0002009521937108623 8.424556497979903e-05 -8.34224933246606e-05 0.0 0.0
0.0 1.1959360047062286e-06 2.1828788175461368e-07 -5.342319676630272e-07 3.1594408590839133e-07 -1.9798623453256515e-06 0.0 0.0
0.0 0.0 0.0 0.0 0.0 0.0 0.0 0.0
0.0 0.0 0.0 0.0 0.0 0.0 0.0 0.0
0.0 0.0 0.0 0.0 0.0 0.0 0.0 0.0
SCALARS Wm float 4
LOOKUP_TABLE default
11.123861985957138 1.9543522847946413 4.484637991440281 4.684871709722211
5.241255871696227 2.5713599834653285 1.1727280409439735 1.4971678472869272
0.5853241516806085 0.5714193964875558 -0.0017423608378460912 0.015647116030898682
0.47252724570772087 0.46124020508392505 0.0030854372927570867 0.00820160333103858
0.8719523484543934 0.6931550243821959 0.06292556597298624 0.11587175809921078
1.7640707868185568 0.948865231241837 0.2813406105255764 0.5338649450511437
3.5148367875030555 1.312191464909869 0.89968012214762 1.3029652004455687
6.296950918354655 1.736515029400917 2.0400227692817827 2.520413119671952
10.34151403057174 2.2479963495468205 3.87699046019985 4.216527220825068
15.843167986423925 2.882099396383404 6.555278327469505 6.405790262571025
22.947085865024828 3.6793614418888043 10.179405472243978 9.088318950892049
31.680638514918442 4.666972343147676 14.741775354921199 12.271890816849584
42.27605547094649 5.842739769211768 20.46406094635301 15.96925475538172
54.82035799009988 7.204412116199515 27.422624135369794 20.193321738530557
69.25103988510719 8.655255100909953 35.67753302212101 24.918251762076224
85.18886518554213 10.014169727546566 45.13542483288106 30.039270625114508
101.75529422742339 11.04791439655877 55.35205053649936 35.355329294365255
117.64371160433151 11.560420106841491 65.59255544470959 40.4907360527804
131.35103761474235 11.553608118700632 74.81549000612286 44.9819394899189
140.9423575948621 11.001370602916346 81.63318388729388 48.30780310465181
144.15268706574588 10.063516135236139 84.40095665768382 49.688214272825974
140.94235759484178 11.001370602913383 81.63318388728207 48.307803104646396
131.35103761469844 11.553608118691425 74.81549000609937 44.98193948990762
117.64371160427912 11.560420106843805 65.5925554446732 40.49073605276213
101.7552942273456 11.047914396540396 55.35205053646008 35.35532929434508
85.1888651854731 10.014169727539208 45.135424832840975 30.03927062509297
69.25103988504853 8.65525510091399 35.677533022080866 24.91825176205364
54.82035799004283 7.204412116203966 27.42262413533112 20.193321738507716
42.27605547088429 5.8427397692056475 20.464060946318483 15.969254755360204
31.680638514863748 4.666972343143132 14.741775354891121 12.271890816829494
22.94708586497882 3.6793614418839033 10.179405472220038 9.088318950874863
15.843167986387503 2.88209939637632 6.555278327453035 6.4057902625581535
10.341514030546522 2.247996349545044 3.8769904601873733 4.216527220814109
6.296950918337342 1.7365150293978577 2.0400227692747195 2.5204131196647666
3.5148367874920545 1.3121914649072828 0.8996801221438409 1.302965200440932
1.764070786813751 0.948865231241073 0.2813406105242496 0.5338649450484279
0.8719523484520955 0.6931550243808136 0.06292556597263539 0.11587175809864675
0.472527245707167 0.4612402050833858 0.003085437292745076 0.008201603331036134
0.585324151679862 0.5714193964870116 -0.0017423608378892056 0.015647116030739223
5.241255871691662 2.5713599834661345 1.1727280409414051 1.497167847284119
11.12386198593178 1.9543522847821508 4.484637991433295 4.684871709716346
13.067320824440447 5.815013308783284 3.437312155153242 3.814995360503921
1.9743090686344917 0.43406049235886285 0.6276871751225216 0.9125614011531074
0.2422922112707454 0.2687494761259483 -0.007238653742755895 -0.019218611112447048
0.37447010573270295 0.3737642794166407 -4.255193122709059e-05 0.0007483782472893872
0.6663923786302167 0.5701252719715597 0.027909256775979358 0.06835784988267796
1.41770771337944 0.8164481563070485 0.2121120580451482 0.38914749902724344
2.8881309842270193 1.0775497472878686 0.7175092009490756 1.0930720359900752
5.333569979275537 1.385025976599572 1.734792273548162 2.2137517291278046
8.908696799585776 1.7204382148479724 3.399276442524082 3.7889821422137224
13.726463355874726 2.094657274916144 5.810362172910273 5.821443908048308
19.88564724681575 2.5179434318820895 9.06390577573624 8.303798039197417
27.52354417893225 3.0091215982131634 13.279078605619947 11.23534397509914
36.57259917213575 3.581466020376875 18.350477197059973 14.640655954698905
47.4024587565287 4.220064480399791 24.646726583473804 18.535667692655107
59.90761808386725 4.882864973894246 32.11059564490373 22.914157465069266
73.80993983397826 5.4652358842887745 40.66397656639573 27.68072738329377
88.42921809632149 5.833841006867873 49.981105955265484 32.61427113418813
102.67154197964484 5.890687733035587 59.37684185338251 37.40401239322674
115.0585701344088 5.5887750035570845 67.8582466872773 41.6115484435744
123.80011247547182 4.974370641571267 74.16393469510248 44.66180713879803
127.02972501554743 4.311581713026509 76.80160122564257 45.916542076878386
123.80011247546139 4.974370641579518 74.16393469508992 44.66180713879195
115.0585701343778 5.58877500355823 67.85824668725579 41.611548443563805
102.67154197960315 5.890687733043117 59.37684185334968 37.404012393210394
88.42921809626186 5.833841006860358 49.9811059552313 32.61427113417021
73.80993983391669 5.465235884281199 40.663976566360695 27.680727383274785
59.90761808380834 4.882864973891413 32.11059564486802 22.9141574650489
47.40245875647282 4.220064480397828 24.646726583440092 18.53566769263489
36.57259917208339 3.581466020376176 18.350477197028468 14.640655954678724
27.5235441788826 3.009121598207788 13.279078605593684 11.235343975081134
19.88564724677624 2.5179434318803158 9.063905775714517 8.303798039181414
13.726463355844224 2.094657274913249 5.810362172895034 5.821443908035938
8.90869679956278 1.7204382148459731 3.399276442513116 3.788982142203689
5.333569979260857 1.3850259765978976 1.7347922735418422 2.213751729121118
2.8881309842181944 1.0775497472866302 0.7175092009457701 1.0930720359857935
1.4177077133753078 0.8164481563062995 0.2121120580437757 0.38914749902523277
0.6663923786286311 0.5701252719704604 0.027909256775798485 0.06835784988237241
0.374470105732282 0.37376427941615986 -4.255193121977515e-05 0.0007483782473419971
0.24229221127063683 0.2687494761256807 -0.007238653742704759 -0.01921861111233905
1.9743090686287066 0.4340604923581908 0.6276871751201025 0.912561401150414
13.067320824416493 5.815013308772541 3.437312155146283 3.8149953604976643
9.724681131761205 4.569988048015222 2.336127311330794 2.8185657724151896
1.204939680414468 0.15966637312553272 0.4121678810595071 0.6331054262294274
0.1527727172249417 0.1527736024546428 -3.6811495252537546e-08 -8.48418205815541e-07
0.2819220535047216 0.2822723541819441 -4.1933227195963126e-05 -0.00030836745002658125
0.5129239527087346 0.4841095601439269 0.006459406180125121 0.022354986384682717
1.1036183109692197 0.7330286933934292 0.12626068059960724 0.2443289369761839
2.3287510813836594 0.9860563688989458 0.5064880641586657 0.8362066483260484
4.461785662149714 1.2807111679676753 1.3582893035151622 1.8227851906668755
7.60242944128436 1.5909555352567097 2.777287191973989 3.234186714053661
11.857055097305166 1.9244799641007788 4.874305528111878 5.058269605092506
17.259413259783187 2.294563533349114 7.689349316241857 7.275500410192219
23.84807050709282 2.7173271524996956 11.247682590102432 9.883060764490684
31.869771178635258 3.2162376406034445 15.757597971463484 12.895935566568324
41.21573300094311 3.785249884611788 21.073725954276945 16.35675716205435
52.1679398146353 4.377821618411978 27.53421561913003 20.255902577093263
64.40883904727657 4.921592295609527 34.96137483691425 24.525871914752802
77.37876628595777 5.309339018330575 43.072544876113255 28.996882391513967
90.10115072491205 5.42458306627325 51.3284979041529 33.34806975448588
101.20044070275685 5.180560147918555 58.84768733671564 37.172193218122686
109.07907947481883 4.704672856258822 64.44023797220295 39.93416864635702
111.90987945380272 3.9231323388598414 66.85730920971467 41.12943790522825
109.07907947480327 4.70467285626118 64.44023797219113 39.93416864635091
101.20044070272938 5.180560147919711 58.847687336696666 37.172193218113044
90.10115072487044 5.424583066273991 51.32849790412518 33.34806975447126
77.37876628591737 5.309339018336874 43.07254487608289 28.996882391497614
64.4088390472269 4.921592295605433 34.96137483688502 24.52587191473644
52.16793981458783 4.3778216184137175 27.53421561909904 20.25590257707507
41.21573300089386 3.785249884607819 21.07372595424905 16.356757162037002
31.86977117858766 3.2162376406005753 15.757597971436551 12.895935566550527
23.84807050705186 2.7173271524970275 11.247682590079975 9.883060764474866
17.259413259748257 2.2945635333471257 7.689349316223258 7.275500410177871
11.857055097277915 1.9244799640980725 4.8743055280985885 5.05826960508125
7.602429441264466 1.5909555352553684 2.7772871919644864 3.2341867140446117
4.461785662136263 1.2807111679653793 1.3582893035098411 1.8227851906610426
2.3287510813759877 0.9860563688973657 0.5064880641561955 0.8362066483224262
1.1036183109658082 0.73302869339253 0.1262606805986474 0.2443289369746309
0.5129239527075479 0.48410956014291284 0.0064594061800587795 0.02235498638457581
0.28192205350455574 0.28227235418178304 -4.193322719767727e-05 -0.00030836745002962087
0.1527727172248885 0.1527736024545888 -3.68114952114993e-08 -8.484182050657688e-07
1.2049396804099264 0.15966637312523804 0.4121678810576127 0.6331054262270752
9.724681131738855 4.569988048005773 2.336127311324263 2.8185657724088196
7.278182410471785 3.549323553260124 1.6200558663694675 2.1088029908421952
0.792547777239896 0.08413898408477676 0.2614895003311194 0.44691929282399984
0.10781285248200141 0.10781285248200141 0.0 0.0
0.2129147934242021 0.2129280288687678 2.892796098669498e-06 -1.61282406643268e-05
0.39704245765665086 0.39851365511907744 -0.0008843912408699987 -0.000586806221556446
0.8246163213686787 0.6306533839320972 0.057635596412721826 0.1363273410238599
1.8338611442358934 0.9004737438964614 0.3426437562106094 0.590743644128822
3.624747847910515 1.1705649551343298 1.0116006989958204 1.4425821937803651
6.34450305253894 1.4578994224479591 2.2007089336818284 2.6858946964091506
10.029250067121776 1.7554248973448996 3.9746012495491687 4.299223920227713
14.670536137679067 2.074878999132505 6.3418489622881795 6.253808176258383
20.36359740706019 2.4409522846277674 9.385065655398535 8.537579467033893
27.120033009389747 2.8683117769159994 13.080968354865291 11.170752877608445
35.279129307424355 3.3610989357758787 17.733502626482164 14.184527745166317
44.65899644206341 3.8945275557994905 23.159646039992428 17.604822846271496
55.19655435645744 4.403784175187043 29.41615893691376 21.376611244356635
66.58099798154845 4.804109304531733 36.4300116866907 25.346876990326002
77.85107326316418 4.979888388756161 43.60156334394425 29.269621530463773
87.78326619259404 4.837689927575449 50.18021222901982 32.76536403599875
94.95267733559761 4.45756782009005 55.1498058763917 35.345303639115954
97.53429484853255 3.5228106279945868 57.49415598049868 36.517328240039255
94.95267733557935 4.457567820083607 55.14980587638376 35.34530363911194
87.7832661925753 4.83768992758292 50.18021222900266 32.76536403598976
77.85107326312865 4.979888388755568 43.60156334392143 29.269621530451673
66.5809979815021 4.804109304525506 36.430011686665 25.346876990311603
55.196554356419384 4.403784175190329 29.416158936887626 21.37661124434145
44.65899644201739 3.8945275557952215 23.159646039966493 17.604822846255665
35.2791293073827 3.3610989357737706 17.73350262645813 14.184527745150804
27.1200330093505 2.8683117769142252 13.080968354843044 11.170752877593241
20.363597407024013 2.440952284624337 9.385065655379716 8.537579467019965
14.670536137648018 2.0748789991296492 6.34184896227255 6.253808176245823
10.029250067098086 1.755424897342244 3.9746012495379635 4.299223920217875
6.344503052521086 1.457899422445126 2.200708933674286 2.6858946964016726
3.624747847899581 1.1705649551330775 1.0116006989915112 1.4425821937749923
1.8338611442294577 0.9004737438946013 0.3426437562086435 0.5907436441262119
0.8246163213662506 0.6306533839312819 0.05763559641212847 0.13632734102284033
0.39704245765602686 0.3985136551183737 -0.0008843912408632489 -0.0005868062214835203
0.21291479342389233 0.21292802886847725 2.892796097059534e-06 -1.6128240681957385e-05
0.1078128524818757 0.1078128524818757 0.0 0.0
0.792547777236467 0.08413898408477022 0.2614895003296104 0.4469192928220865
7.2781824104533035 3.549323553252285 1.6200558663644187 2.108802990836602
5.362602561540294 2.734401530505275 1.08091245405942 1.5472885769755989
0.5802384236817447 0.10688729717707009 0.18053855737542296 0.29281256912925235
0.09808033690166161 0.09808033690166161 0.0 0.0
0.1696541559571698 0.16964786639017682 3.5059575947504334e-07 5.938971233487455e-06
0.31073238493390326 0.3152514074041072 -0.0012310007836974573 -0.003288021686506399
0.6112569842087884 0.5432894758694564 0.016905523464246782 0.05106198487508487
1.384746095256734 0.7940769466647197 0.21320397151009507 0.37746517708192023
2.8357016453605843 1.0557891128644807 0.7022381884277383 1.0776743440683647
5.1293586344084 1.319604898867809 1.6628070321697062 2.1469467033708853
8.247649301376502 1.5848032232207472 3.1154647842051717 3.5473812939505827
12.18133612681931 1.8625604125416388 5.079772178821316 5.239003535456351
16.952690856152184 2.1729054829408074 7.577198224793317 7.202587148418067
22.67821236851522 2.5383727523668576 10.685786861609046 9.454052754539315
29.361235733672224 2.962779376973634 14.362916992980873 12.035539363717714
37.30549026760316 3.4259100429500706 18.91289346690325 14.966686757749843
46.336253208082994 3.899906589726032 24.212960675828356 18.22338594252862
56.03650410661952 4.314769157742189 30.019510279806234 21.70222466907109
65.87198017547297 4.560269072947003 36.1328420180628 25.178869084463134
74.74042080775426 4.528847477332285 41.87644784911935 28.335125481302654
81.36400698982357 4.229587193934284 46.38336512652216 30.7510546693671
83.78838339354485 3.1242528854530076 48.692864409241274 31.971266098850585
81.36400698981949 4.229587193940256 46.38336512651563 30.751054669363622
74.74042080772651 4.528847477326042 41.87644784910534 28.33512548129509
65.87198017544722 4.560269072952183 36.13284201804296 25.17886908445207
56.03650410658142 4.314769157734158 30.01951027978718 21.702224669060072
46.336253208046344 3.8999065897256773 24.212960675805697 18.22338594251496
37.30549026756644 3.4259100429475358 18.91289346688235 14.966686757736554
29.361235733637802 2.962779376973558 14.362916992960333 12.035539363703908
22.678212368482615 2.5383727523654165 10.68578686159093 9.454052754526266
16.95269085612389 2.172905482939707 7.577198224777982 7.202587148406193
12.181336126793413 1.8625604125391944 5.079772178808567 5.239003535445654
8.247649301356475 1.5848032232188727 3.1154647841957224 3.5473812939418834
5.129358634394513 1.3196048988662747 1.662807032163768 2.1469467033644696
2.8357016453512083 1.0557891128637822 0.7022381884238869 1.0776743440635383
1.3847460952516126 0.7940769466630444 0.21320397150868398 0.37746517707988453
0.6112569842070891 0.5432894758686413 0.01690552346396227 0.05106198487448551
0.31073238493346633 0.31525140740351926 -0.001231000783669387 -0.0032880216863835354
0.1696541559568963 0.16964786638990692 3.5059575927603094e-07 5.938971230153005e-06
0.09808033690156004 0.09808033690156004 0.0 0.0
0.5802384236788776 0.10688729717693754 0.18053855737420046 0.2928125691277399
5.362602561526114 2.7344015304996554 1.0809124540555253 1.5472885769709346
3.8742296656439006 2.091461980332079 0.698419983640801 1.084347701671022
0.41036375922262897 0.1427394359866352 0.08780645498863894 0.1798178682473544
0.11001955201126357 0.11001955201126357 0.0 0.0
0.14817220016425067 0.1481544714127915 1.169214643420643e-06 1.655953681576686e-05
0.252842894506008 0.2547486543940001 -0.0003208448134989005 -0.0015849150744931912
0.451542075372151 0.4422454955203561 -0.0005911817055699038 0.009887761557364925
0.9770752776125874 0.667235556248416 0.09293072472871408 0.2169089966354571
2.1440499669110045 0.93472923681964 0.4750989870532592 0.7342217430381043
3.947844394666675 1.1719248092513077 1.1550155631111778 1.6209040223041904
6.5395638598456305 1.4125011888864827 2.321686664691603 2.8053760062675432
9.769586732921956 1.6522121469741433 3.884293443381669 4.2330811425661405
13.656431192826195 1.914844188405306 5.861992069523366 5.879594934897522
18.27237338898655 2.221385585836114 8.296711943938709 7.754275859211719
23.77812296991154 2.5798436194526717 11.299097990626663 9.899181359832204
30.20291637352052 2.9884647942084297 14.866108261362204 12.3483433179499
37.55408456532273 3.4115689699618805 19.052336532226516 15.090179063134327
45.80965832263548 3.8225046973570627 23.944735719268724 18.042417906009682
54.20394815580793 4.14941983621179 28.982762306215832 21.071766013380294
61.98965315721241 4.240645597084409 33.83643369653548 23.912573863592513
68.17887658277054 4.022213912203053 37.963073886727734 26.193588783839765
70.5285023029254 2.73539394916636 40.312087206397656 27.481021147361368
68.17887658275934 4.022213912201418 37.96307388672162 26.193588783836276
61.989653157199655 4.240645597088155 33.83643369652494 23.912573863586577
54.203948155779834 4.149419836208924 28.982762306199824 21.07176601337107
45.80965832261084 3.82250469735728 23.944735719253213 18.042417906000345
37.55408456529308 3.411568969961152 19.05233653220883 15.09017906312312
30.202916373487376 2.9884647942026406 14.866108261345769 12.348343317938976
23.778122969881213 2.5798436194495715 11.299097990610743 9.899181359820895
18.27237338896009 2.2213855858345917 8.296711943924482 7.754275859201017
13.656431192801548 1.914844188403486 5.861992069510761 5.879594934887301
9.769586732901558 1.6522121469736022 3.884293443371122 4.233081142556842
6.53956385982926 1.4125011888849466 2.321686664684164 2.805376006260146
3.947844394654451 1.171924809249126 1.1550155631065144 1.620904022298812
2.144049966903826 0.9347292368193075 0.4750989870502274 0.7342217430342903
0.9770752776090802 0.6672355562471809 0.09293072472787618 0.2169089966340234
0.4515420753710615 0.4422454955193817 -0.0005911817056090718 0.009887761557288972
0.25284289450567043 0.25474865439364935 -0.0003208448134974493 -0.0015849150744814881
0.14817220016405125 0.14815447141259847 1.1692146428938903e-06 1.6559536809874406e-05
0.11001955201106667 0.11001955201106667 0.0 0.0
0.4103637592204602 0.1427394359864979 0.08780645498778007 0.17981786824618248
3.874229665632746 2.0914619803273564 0.6984199836380265 1.0843477016673644
2.6946989831437285 1.5753389853776107 0.4048406926041099 0.7145193051620079
0.3118019388124123 0.18465877533069783 0.03729967418620929 0.08984348929550533
0.13169558952459443 0.13169558952459443 0.0 0.0
0.14330015922208786 0.1432913598576355 5.916227772428284e-07 8.207741675143951e-06
0.2152098428964045 0.21547049904536902 -4.901152454704325e-05 -0.00021164462441748214
0.34468286989220565 0.35754507558774984 -0.003998944057268077 -0.008863261638276004
0.678225433706661 0.556537330031749 0.030143814837423344 0.09154428883748866
1.4637348798382936 0.7780609011846482 0.2333909669712686 0.452283011682377
2.926090916664439 1.0262383076400514 0.7843163779731331 1.115536231051253
4.879833222176518 1.2310114547070774 1.5738026802553162 2.075019087214123
7.458491965068744 1.4416820437792448 2.7775021977828764 3.2393077235066228
10.509588044951396 1.662978502710004 4.276930360778468 4.5696791814629245
14.093573640438674 1.916982743561732 6.103814674627896 6.072776222249049
18.33921687624906 2.2160215273013626 8.33718280914338 7.786012539804319
23.348675276257143 2.560927349343262 11.035941634320512 9.751806292593367
29.271584602017025 2.945366512865776 14.353173202676931 11.973044886474318
35.68610550943141 3.3373067366638893 17.93813336815733 14.410665404610201
42.726798330278 3.717558005906123 22.06745574298399 16.941784581387886
49.644490083578646 3.9511616816490944 26.251222570251336 19.442105831678195
55.39741975103968 3.840055603221548 29.93457572344641 21.622788424371734
57.76880825162773 2.3668638617636106 32.37995764769756 23.02198674216658
55.39741975103429 3.8400556032221314 29.93457572344257 21.622788424369585
49.64449008356302 3.9511616816472452 26.251222570242692 19.442105831673086
42.72679833025897 3.7175580059045377 22.067455742973188 16.941784581381228
35.68610550940581 3.3373067366581575 17.938133368145152 14.410665404602508
29.27158460199889 2.945366512873262 14.353173202661585 11.973044886464036
23.348675276237568 2.560927349345584 11.035941634307747 9.751806292584227
18.33921687622642 2.216021527298108 8.337182809132331 7.78601253979598
14.093573640418818 1.9169827435612599 6.103814674617121 6.072776222240437
10.509588044932983 1.6629785027095414 4.2769303607688105 4.569679181454632
7.458491965051309 1.4416820437770386 2.77750219777507 3.239307723499199
4.879833222163931 1.2310114547065794 1.5738026802494223 2.0750190872079295
2.9260909166557094 1.0262383076384747 0.7843163779697745 1.115536231047462
1.4637348798329513 0.7780609011839502 0.23339096696936695 0.4522830116796344
0.6782254337043395 0.5565373300307153 0.030143814836977215 0.09154428883664663
0.34468286989159547 0.35754507558683 -0.0039989440571952485 -0.008863261638039186
0.21520984289613312 0.2154704990451244 -4.901152455215885e-05 -0.0002116446244391472
0.14330015922180583 0.14329135985735625 5.916227770131883e-07 8.20774167260772e-06
0.1316955895242901 0.1316955895242901 0.0 0.0
0.31180193881067747 0.1846587753303942 0.03729967418564201 0.0898434892946409
2.694698983135522 1.5753389853740543 0.4048406926022482 0.7145193051592204
1.8557381483408426 1.2117810568203504 0.2381219689810778 0.40583512253941445
0.23480502967023373 0.20276926709442206 0.0014976255632046633 0.030538137012606912
0.1551299062147049 0.15513509166055786 -2.1719582759986377e-07 -4.968250025342334e-06
0.14966007298723177 0.149648733652072 8.207922390617571e-07 1.0518542920683493e-05
0.19285646724236122 0.19333670374969344 -6.506723080282387e-05 -0.0004151692765293668
0.27952923849360367 0.2879337881701694 -0.002130601982991482 -0.006273947693574345
0.4620318028304883 0.44377997748866016 3.944496878409385e-05 0.018212380373044016
0.93864666613262 0.6249402746885028 0.08967574895500574 0.2240306424891118
1.8957221300985092 0.8368085063828468 0.38630162466758194 0.6726119990480803
3.4061745061005877 1.0439305947442212 0.9925827752752635 1.3696611360811024
5.258958465543668 1.22174200347577 1.7774998589828275 2.2597166030850726
7.500515293151945 1.4072502496348078 2.8149464824902637 3.2783185610268712
10.127244038251044 1.6170221382791576 4.095695193883443 4.414526706088443
13.205173335190128 1.8597967880146484 5.641922365553753 5.703454181621731
16.89651785590412 2.149776667894398 7.560440028341159 7.1863011596685595
21.21291065968074 2.484594842959593 9.83958984632147 8.88872597039968
26.22908041107805 2.850343514056352 12.598304719045196 10.780432177976508
31.6711896726468 3.2574249838556417 15.588016770627068 12.8257479181641
37.38431608955717 3.625387995041673 18.809971917626346 14.948956176889151
42.82637954782114 3.674627259790427 22.14852593310009 17.00322635493062
45.34066184320071 2.0245118626120004 24.75658427704658 18.559565703542106
42.826379547819 3.6746272597919925 22.148525933097723 17.003226354929282
37.384316089545095 3.6253879950379124 18.80997191762123 14.948956176885957
31.6711896726336 3.257424983854755 15.588016770619646 12.825747918159196
26.229080411063197 2.8503435140562208 12.598304719036486 10.780432177970479
21.21291065965566 2.484594842954256 9.839589846309986 8.88872597039142
16.896517855883523 2.1497766678900034 7.560440028331973 7.186301159661553
13.2051733351739 1.8597967880113124 5.641922365546624 5.703454181615961
10.12724403823582 1.6170221382775205 4.0956951938761605 4.414526706082144
7.500515293137544 1.407250249633873 2.8149464824833537 3.278318561020318
5.258958465531174 1.2217420034739246 1.7774998589776196 2.2597166030796307
3.4061745060903004 1.0439305947425495 0.9925827752711698 1.3696611360765811
1.8957221300929252 0.836808506382329 0.3863016246654083 0.6726119990451875
0.9386466661290955 0.6249402746871915 0.0896757489541934 0.22403064248770985
0.4620318028292843 0.44377997748791914 3.944496867338502e-05 0.018212380372691662
0.279529238493072 0.28793378816935816 -0.002130601982948246 -0.006273947693338157
0.19285646724213545 0.19333670374950498 -6.506723080533355e-05 -0.0004151692765641647
0.1496600729867582 0.14964873365160086 8.207922387916424e-07 1.0518542918553883e-05
0.15512990621439318 0.1551350916602353 -2.171958270000216e-07 -4.968250015090288e-06
0.23480502966910904 0.20276926709405882 0.0014976255629555167 0.030538137012094665
1.8557381483352302 1.2117810568178948 0.23812196897975582 0.40583512253758
1.194823117247457 0.8995877814596519 0.09114600490943159 0.20408933087837358
0.19494458206437962 0.2065412304988697 -0.006613071890573495 -0.004983576543916398
0.17577655923484165 0.17586389116663792 -7.364109696389855e-06 -7.996782209991661e-05
0.16249605417827498 0.16252435593345263 -1.911838206656354e-06 -2.6389916971011686e-05
0.1833541205710298 0.18387059623478197 -7.306461422157808e-05 -0.00044341104953057593
0.23938999956799573 0.24277433812818616 -0.0010414280170087042 -0.0023429105431817653
0.337536291887676 0.34805531292250946 -0.0044454728023098035 -0.006073548232523644
0.5660418866170832 0.4858126626752864 0.01766004046733789 0.06256918347445874
1.0817084245610915 0.6393456321361476 0.1377410513305878 0.304621741094356
1.986066662813191 0.8091531929317799 0.4425098932363327 0.7344035766450789
3.193550183236581 0.9654356840921279 0.9020721006884572 1.326042398455997
4.679658005604997 1.1242493672600924 1.5359782880974955 2.0194303502474065
6.4040133421997725 1.2964025952952558 2.3114537528583687 2.7961569940461466
8.412343207216852 1.4897448045918003 3.2495689463373454 3.6730294562877046
10.82276424432293 1.7225274065638008 4.416617679589455 4.683619158169674
13.740072602393052 2.0086972740895663 5.869083426814554 5.86229190148893
17.198297946557133 2.3498689494309244 7.6267783581138255 7.221650639012384
21.10065991942195 2.721815481264088 9.64001518428109 8.738829253876784
25.62049848409805 3.1882980836870027 12.00272108169117 10.429479318719869
30.69134047215722 3.5142438395515914 14.857454675846062 12.31964195675955
33.41366486714844 1.743187706454052 17.519788614558653 14.150688546135749
30.691340472154504 3.514243839548975 14.857454675846006 12.31964195675952
25.62049848409667 3.1882980836901726 12.002721081688508 10.42947931871799
21.10065991941161 2.721815481262076 9.640015184276207 8.738829253873327
17.198297946545853 2.3498689494314235 7.6267783581071384 7.221650639007296
13.740072602381044 2.008697274088549 5.869083426808444 5.862291901484053
10.822764244311859 1.7225274065609537 4.416617679585 4.683619158165903
8.412343207208046 1.489744804590605 3.2495689463333375 3.673029456284106
6.40401334219045 1.296402595293321 2.31145375285468 2.7961569940424478
4.679658005596305 1.124249367260669 1.5359782880929282 2.01943035024271
3.193550183229596 0.9654356840928374 0.902072100684961 1.3260423984517984
1.9860666628074024 0.8091531929305459 0.442509893234328 0.7344035766425285
1.0817084245577584 0.6393456321354226 0.1377410513295819 0.304621741092754
0.566041886615779 0.48581266267489054 0.01766004046707386 0.06256918347381471
0.33753629188683026 0.34805531292149033 -0.004445472802299077 -0.006073548232361039
0.23938999956776671 0.24277433812762444 -0.001041428016960341 -0.00234291054289731
0.18335412057068348 0.18387059623447513 -7.306461422682173e-05 -0.0004434110495647549
0.16249605417771373 0.16252435593288736 -1.91183820609508e-06 -2.638991696751545e-05
0.1757765592344688 0.17586389116624165 -7.364109694593524e-06 -7.996782207820683e-05
0.19494458206387516 0.20654123049849607 -0.0066130718906129765 -0.0049835765440080365
1.1948231172436883 0.8995877814577404 0.09114600490872471 0.20408933087722356
0.7682519775506723 0.6851844609445082 0.022131711551066927 0.06093580505509725
0.17694572526735708 0.19031647702243543 -0.0035569967835398656 -0.00981375497153852
0.19115264506663898 0.1911653259879144 -6.695763111968447e-07 -1.2011344964188092e-05
0.1779524691604894 0.1779665526116223 -6.269657850398564e-07 -1.3456485347957748e-05
0.18472505050845972 0.18488017255161385 -2.4876749129487254e-05 -0.00013024529402463913
0.21830943216206944 0.22314451502047508 -0.0011072909619563032 -0.003727791896449291
0.2769019720352112 0.27946482289462016 -0.001553227676240838 -0.0010096231831681003
0.3601720780554938 0.33930879403359143 0.0036781826832810384 0.017185101338621504
0.5243853546712285 0.420481010541962 0.02552904826982433 0.07837529585944228
0.8660512657055385 0.530551229452131 0.10423197963476133 0.2312680566186464
1.4468681321511743 0.6506220520128397 0.29286213954295837 0.5033839405953757
2.167577227857079 0.7507193108382713 0.5431512528824245 0.8737066641363838
3.05813131756905 0.8646630639989438 0.8914229961543193 1.3020452574157875
4.125208475568488 1.0043022190827429 1.3319468383501187 1.788959418135627
5.410424247369078 1.173501336952281 1.8794149626460304 2.3575079477707668
7.024253487270832 1.3988403979430453 2.5808733218345195 3.044539767493265
9.09194962707327 1.6993325566329063 3.5042634216200628 3.888353648820299
11.666687429151862 2.0515602817454077 4.713009358899882 4.902117788506574
14.708345573297597 2.431889558381168 6.182168920870309 6.094287094046124
18.935992076508054 3.1346472398026832 8.157971015254441 7.643373821450927
22.58536055903749 1.5890862040015754 11.168083718644631 9.828190636391284
18.935992076508924 3.134647239799898 8.157971015256539 7.643373821452481
14.708345573294226 2.431889558380694 6.182168920868658 6.094287094044872
11.666687429149363 2.0515602817493606 4.713009358896366 4.902117788503637
9.091949627064748 1.6993325566319908 3.504263421615974 3.8883536488167816
7.024253487262322 1.3988403979399977 2.5808733218317164 3.044539767490609
5.410424247364421 1.173501336950795 1.8794149626445036 2.3575079477691228
4.125208475567935 1.0043022190868247 1.331946838347873 1.7889594181332362
3.0581313175637543 0.8646630639967595 0.8914229961528491 1.3020452574141446
2.1675772278515115 0.7507193108372716 0.5431512528803892 0.8737066641338509
1.446868132145572 0.6506220520112733 0.29286213954122037 0.5033839405930789
0.8660512657035195 0.5305512294514336 0.1042319796342548 0.2312680566178311
0.5243853546705485 0.4204810105419682 0.025529048269620734 0.07837529585895955
0.36017207805470197 0.339308794033129 0.0036781826831669673 0.01718510133840588
0.27690197203455685 0.27946482289400676 -0.0015532276762532076 -0.0010096231831967757
0.21830943216169732 0.22314451501989696 -0.0011072909619148678 -0.00372779189628478
0.184725050508023 0.1848801725511967 -2.487674913380599e-05 -0.0001302452940399427
0.1779524691600745 0.1779665526111909 -6.269657839693201e-07 -1.3456485332418166e-05
0.19115264506633534 0.19116532598760114 -6.695763105209002e-07 -1.2011344955200635e-05
0.1769457252671143 0.19031647702188506 -0.00355699678347223 -0.009813754971298525
0.7682519775486556 0.6851844609434168 0.022131711550778442 0.06093580505446038
0.49571401807030485 0.48932121253262034 0.0007383617680939865 0.005654443769590437
0.17098996539666353 0.17197581548691898 -0.0001151681933104649 -0.0008706818969449555
0.2008589862112153 0.20098875681003195 -1.0534873959163486e-05 -0.00011923572485746491
0.1932541198177805 0.19331130300958815 -3.927441243922222e-06 -5.3255750563758115e-05
0.19418069789175066 0.19473533681874175 -8.749710998079526e-05 -0.00046714181701032963
0.2162704956768039 0.21982596482612476 -0.0009079704828911534 -0.0026474986664297134
0.25865312448131067 0.25980812130911585 -0.0010493295385481313 -0.00010566728925705398
0.30550610796615707 0.27488232986069155 0.006111614028466869 0.024512164076998594
0.343016624076709 0.25871534110982647 0.024612003728043997 0.05968927923883877
0.391720518147645 0.21936371237985158 0.0527880667576555 0.11956873901013779
0.510745711371986 0.21232771506355344 0.10947210270591205 0.1889458936025208
0.7032697746856453 0.23343142505493358 0.17578512744070376 0.29405322219000807
0.9818467333631283 0.279608029628634 0.2775762799737995 0.4246624237606949
1.3496751976998311 0.29579573140660165 0.4263688123770332 0.627510653916197
1.8339737238713136 0.2976485263017492 0.6406432353377401 0.8956819622318236
2.435181975405504 0.3161932340005204 0.9059379390315312 1.2130508023734523
3.204309439341045 0.36669580272023466 1.256443816668587 1.5811698199522228
4.166989135360867 0.45636662813265033 1.7041322829677743 2.006490224260441
5.668034299806595 0.6860553836912995 2.3600530312887606 2.6219258848265343
9.111978458122474 1.7479872965199124 3.4925947778963895 3.871396383706175
15.126383536808044 1.5070504288712603 6.8594280638102845 6.759905044126503
9.111978458129691 1.747987296523331 3.4925947778985034 3.871396383707861
5.668034299804427 0.6860553836901875 2.360053031288151 2.621925884826085
4.166989135349577 0.4563666281262116 1.7041322829653425 2.006490224258026
3.2043094393327287 0.36669580271712504 1.256443816666029 1.5811698199495727
2.4351819754020907 0.3161932340006377 0.9059379390298952 1.2130508023715567
1.8339737238727607 0.29764852630403726 0.6406432353373008 0.8956819622314227
1.349675197693231 0.2957957314028259 0.4263688123759172 0.6275106539144892
0.9818467333633462 0.2796080296306205 0.27757627997288564 0.42466242375983965
0.7032697746829033 0.23343142505403386 0.17578512743991243 0.29405322218895763
0.5107457113713073 0.21232771506404363 0.10947210270539148 0.18894589360187175
0.3917205181475374 0.21936371237997548 0.05278806675759317 0.11956873900996887
0.3430166240762683 0.25871534110980743 0.024612003727895463 0.0596892792385655
0.3055061079656412 0.2748823298605516 0.006111614028344628 0.024512164076744912
0.25865312448076955 0.25980812130859066 -0.0010493295385601785 -0.0001056672892609709
0.21627049567616258 0.21982596482529412 -0.000907970482857737 -0.0026474986662738858
0.1941806978913044 0.19473533681824579 -8.74971099751815e-05 -0.0004671418169662526
0.19325411981746538 0.1933113030093167 -3.927441248779287e-06 -5.325575060257092e-05
0.20085898621085538 0.20098875680968006 -1.0534873958634931e-05 -0.00011923572486604092
0.17098996539637693 0.17197581548663285 -0.00011516819330905856 -0.000870681896946876
0.4957140180691606 0.48932121253141747 0.0007383617680801089 0.005654443769662882
0.32837404137395687 0.3284174700823521 -2.4699665670363174e-06 -4.095874182818501e-05
0.16256146887035164 0.16256876300272574 -6.148390770402269e-07 -6.679293297078855e-06
0.20471792487943108 0.20469958472540525 1.8978871462697514e-06 1.6442266879601524e-05
0.20635643063284728 0.20652098490164694 -2.0261735604121708e-05 -0.00014429253319558807
0.20924091007321996 0.2095038130102256 -6.32203764093942e-05 -0.00019968256059624387
0.23279739294803894 0.2350154743877411 -0.0008118033757621211 -0.0014062780639401329
0.2847359563898046 0.2873740334341843 -0.0011928126165119475 -0.001445264427867821
0.3629680942264567 0.3407977042514182 0.00422500262333828 0.017945387351700162
0.5248713559699755 0.42015859855499704 0.02580077443115853 0.07891198298381974
0.8649660976252133 0.5299980707303601 0.10398422932981194 0.23098379756504162
1.446696767950554 0.6527395063152732 0.2922563001563594 0.5017009614789217
2.1746602758733142 0.7516958124864594 0.5471070933328276 0.875857370054027
3.0768631523770087 0.8680029860629815 0.8985240042646698 1.310336162049356
4.155869693795612 1.0082315843270004 1.345431960465204 1.8022061490034087
5.394900289640784 1.164672693274909 1.876991296485905 2.3532362998799683
6.757063777572504 1.3410650515191929 2.4784733209932615 2.937525405060048
8.070376804510374 1.5259755785172797 3.0652750216485396 3.4791262043445554
9.149404420672855 1.726387018033286 3.5670605679448366 3.855956834694733
9.529194593693738 1.8508354980020174 3.736270277669016 3.9420888180227105
7.607638010359102 1.0202611173158327 3.28258424133037 3.3047926517128974
15.312599679685622 2.648071393228732 6.2469667729722955 6.4175615134846
7.607638010361349 1.0202611173143223 3.282584241332419 3.304792651714601
9.529194593692733 1.85083549800146 3.7362702776687655 3.9420888180225107
9.149404420665528 1.7263870180335101 3.5670605679407794 3.8559568346912387
8.070376804502851 1.5259755785187952 3.0652750216438136 3.4791262043402473
6.757063777570053 1.341065051522371 2.4784733209904335 2.937525405057249
5.394900289629238 1.1646726932700182 1.876991296482646 2.3532362998765715
4.155869693789281 1.0082315843278395 1.3454319604617029 1.8022061489997374
3.0768631523691696 0.8680029860605092 0.8985240042621822 1.3103361620464795
2.1746602758662545 0.7516958124863433 0.5471070933297661 0.8758573700501445
1.4466967679445484 0.6527395063141102 0.2922563001543183 0.50170096147612
0.8649660976217921 0.5299980707291038 0.10398422932895479 0.2309837975637336
0.5248713559686596 0.4201585985544992 0.02580077443088577 0.07891198298327456
0.3629680942257832 0.34079770425096134 0.0042250026232680095 0.017945387351553876
0.2847359563893328 0.2873740334336453 -0.0011928126165030954 -0.0014452644278094844
0.2327973929474745 0.23501547438703463 -0.0008118033757419062 -0.0014062780638182427
0.20924091007280404 0.20950381300958093 -6.32203763820856e-05 -0.00019968256039469307
0.20635643063255135 0.20652098490125628 -2.0261735596918018e-05 -0.00014429253310800435
0.20471792487904608 0.20469958472492136 1.8978871516131374e-06 1.6442266973058836e-05
0.1625614688701201 0.16256876300251874 -6.148390790647763e-07 -6.679293319559208e-06
0.3283740413732102 0.3284174700815787 -2.4699665649585164e-06 -4.095874180351584e-05
0.21235415455596576 0.21235415455596576 0.0 0.0
0.14893411560069228 0.14892856446297745 2.702453418794739e-07 5.280892372970864e-06
0.20185710323626443 0.20195491748506245 -8.03905020587802e-06 -8.977519859213041e-05
0.21596108766243527 0.21563243717217262 3.652418312727228e-05 0.00029212630713542536
0.22804344695292117 0.2290586107829452 -0.00017914145910228352 -0.0008360223709218105
0.2667429362898698 0.2735025552475307 -0.0014783799435678507 -0.005281239014093204
0.3495752302690143 0.35045493275462336 -0.0026610022554219514 0.00178129976981309
0.5709261953775259 0.4863855992798089 0.019192912690268543 0.06534768340744831
1.0813761828699753 0.6391667346216567 0.1376580953139241 0.30455135293439484
1.9840323247927372 0.8089491157362539 0.4416054761609307 0.7334777328955516
3.1933013703871347 0.9654506100445147 0.9018630605163458 1.325987699826273
4.68536948948758 1.125032610336241 1.5383688287180877 2.0219680504332516
6.42091972555766 1.2982522528955882 2.319186989959768 2.803480482702304
8.437515307461734 1.4904624204235306 3.262721706087411 3.684331180950791
10.801463163232109 1.7082530355379144 4.413792036915091 4.679418090779103
13.468262613469545 1.944682381569804 5.75564694570943 5.767933286190307
16.220146738894304 2.1939835005899035 7.161709423116412 6.864453815187986
18.649552260366647 2.4712487709609934 8.364073835980712 7.814229653424947
19.90485427519495 2.562400163362817 9.046159074956346 8.296295036875785
18.3936037401247 2.534372841170794 8.28361447484726 7.575616424106637
22.34300125141531 5.713566842497025 8.601419504648229 8.028014904270043
18.393603740130608 2.53437284117198 8.283614474850035 7.575616424108591
19.90485427518795 2.56240016335841 9.046159074954822 8.296295036874719
18.64955226036165 2.4712487709666 8.364073835974594 7.81422965342045
16.22014673887765 2.1939835005881934 7.161709423107938 6.864453815181516
13.468262613448845 1.9446823815609742 5.755646945702841 5.767933286185031
10.80146316322306 1.7082530355411536 4.413792036908466 4.679418090773442
8.437515307451198 1.4904624204244277 3.2627217060814555 3.684331180945314
6.420919725542525 1.2982522528926577 2.3191869899535456 2.80348048269632
4.685369489475917 1.1250326103358068 1.538368828712582 2.021968050427528
3.193301370376168 0.9654506100434215 0.9018630605117997 1.325987699820946
1.9840323247861085 0.8089491157358644 0.44160547615818724 0.7334777328920574
1.0813761828657085 0.6391667346208746 0.1376580953125813 0.30455135293225255
0.5709261953757611 0.4863855992787801 0.019192912690059745 0.06534768340692124
0.3495752302682073 0.35045493275369205 -0.002661002255414463 0.0017812997699296774
0.2667429362893332 0.27350255524687167 -0.001478379943533758 -0.005281239014004622
0.22804344695255718 0.22905861078263304 -0.0001791414591105058 -0.0008360223709653094
0.21596108766208533 0.2156324371716642 3.652418314166452e-05 0.00029212630727952233
0.2018571032358879 0.20195491748468894 -8.039050206858718e-06 -8.977519859416614e-05
0.14893411560053046 0.1489285644628233 2.7024534145801815e-07 5.280892365722374e-06
0.21235415455546874 0.21235415455546874 0.0 0.0
0.13086804903196383 0.13086804903196383 0.0 0.0
0.1300226465221816 0.13001327433176657 6.316936465528355e-07 8.74049676847986e-06
0.1923522323820049 0.1923832835530793 -1.8256901364633365e-06 -2.9225480937948953e-05
0.22162776481539323 0.22191271000987942 -3.354887238190672e-05 -0.00025139632210430414
0.2503797182666662 0.25224916006523945 -0.0003562721458778904 -0.0015131696526953253
0.3116863197002723 0.3131448467369201 -0.0013715500947436622 -8.697694190404196e-05
0.48122550817742094 0.4548727985301258 0.0035607248483937133 0.022791984798901717
0.943570902179788 0.6260361628340338 0.09159976626350894 0.22593497308224492
1.8938427871143526 0.8367450239854762 0.3854883474218768 0.6716094157069991
3.4046219298678877 1.04403064421627 0.9920653505663346 1.3685259350852834
5.2588745079963 1.2216431143510356 1.776288789770244 2.2609426038750238
7.505171670901637 1.4074389552810689 2.817309986842404 3.280422728778165
10.136292386253178 1.6176537144483545 4.10025228304881 4.418386388756013
13.21303850853781 1.8590229181366342 5.6468181329713065 5.707197457429868
16.860383376147166 2.1345185755395972 7.548869297626146 7.176995502981422
20.988797810204545 2.426893567136617 9.74373950426832 8.818164738799611
25.48036170253692 2.725220766768272 12.230614154313383 10.524526781455277
29.456351535105988 2.927573785103604 14.457511183126217 12.071266566876155
31.568304974890076 2.9247943519052924 15.730382219024253 12.913128403960537
29.23780230104722 2.575002323490665 14.551609918703418 12.111190058853145
32.86084417850292 8.367364791106832 13.235395286445325 11.258084100950768
29.237802301048884 2.575002323488425 14.551609918705768 12.111190058854689
31.568304974894627 2.924794351912583 15.73038221902258 12.91312840395946
29.456351535087627 2.9275737850997214 14.457511183117564 12.071266566870358
25.48036170251949 2.725220766770714 12.230614154301605 10.524526781447166
20.988797810184764 2.426893567136603 9.743739504256869 8.81816473879129
16.860383376125046 2.134518575535284 7.548869297616024 7.176995502973734
13.213038508518862 1.8590229181345501 5.646818132961965 5.707197457422343
10.136292386236924 1.6176537144494616 4.100252283039493 4.418386388747973
7.5051716708833585 1.4074389552789335 2.8173099868340272 3.280422728770396
5.258874507981925 1.2216431143504365 1.7762887897634194 2.2609426038680698
3.404621929856391 1.0440306442146607 0.9920653505616495 1.3685259350800818
1.893842787107798 0.8367450239844405 0.3854883474194951 0.671609415703863
0.9435709021757435 0.6260361628320942 0.09159976626273825 0.22593497308091068
0.48122550817580395 0.4548727985291826 0.003560724848210979 0.022791984798410263
0.31168631969953264 0.3131448467357842 -0.0013715500946970562 -8.697694155447512e-05
0.25037971826635963 0.25224916006466275 -0.0003562721458386125 -0.0015131696524645168
0.22162776481499433 0.22191271000951326 -3.3548872387850745e-05 -0.0002513963221310973
0.19235223238172083 0.19238328355279605 -1.8256901365811306e-06 -2.9225480938672146e-05
0.1300226465219962 0.13001327433158172 6.316936464977709e-07 8.740496767980233e-06
0.13086804903169122 0.13086804903169122 0.0 0.0
0.07645597527064824 0.07645597527064824 0.0 0.0
0.10763263713937454 0.10763263713937454 0.0 0.0
0.17726686468442007 0.1772564238589711 6.169848764971448e-07 9.823840572470336e-06
0.22379030649404716 0.22367372921373282 1.6858748712349843e-05 9.971853160196451e-05
0.2744096714272098 0.27705761689715697 -0.0005046312938178615 -0.0021433141761292994
0.3791745175597829 0.3866458519505051 -0.002660752014702152 -0.00481058237602003
0.6930320721529456 0.5536517155057555 0.035261776998280765 0.1041185796489091
1.4659204598106765 0.7784830643830589 0.23449975267809559 0.4529376427495219
2.9234751506524126 1.0265431052620548 0.7829361891440267 1.1139958562463301
4.87894814156503 1.2312554269865201 1.5730686188997152 2.0746240956787956
7.460565881725003 1.4415154935161727 2.7789021008806376 3.240148287328193
10.511393010018427 1.662113622193683 4.278391269552195 4.570888118272548
14.088324049246685 1.9148592906831596 6.102165169841236 6.071299588722296
18.317025623182207 2.21256859536609 8.326640141447614 7.7778168863685
23.298492856873942 2.552634610370842 11.011470830798038 9.734387415705058
29.154138025456298 2.9203391920301423 14.297562219481359 11.936236613944804
35.219172976949736 3.2240981431604148 17.72256063913217 14.27251419465716
40.81971823289355 3.32402780283447 21.132296161428954 16.363394268630103
43.686483226131706 3.076666553482811 23.089320407221486 17.52049626542741
40.60305478943645 2.6488384041664546 21.43887119363212 16.515345191637888
44.42806369461388 10.911461740837657 18.668263100329447 14.84833885344678
40.60305478943558 2.6488384041651454 21.43887119363241 16.515345191638023
43.68648322611347 3.0766665534718425 23.089320407216924 17.52049626542472
40.81971823288016 3.3240278028396446 21.132296161417443 16.363394268623075
35.21917297691964 3.2240981431561897 17.72256063911645 14.272514194646988
29.154138025429024 2.92033919202852 14.297562219465973 11.936236613934518
23.298492856849705 2.552634610371017 11.011470830783802 9.734387415694874
18.31702562315748 2.2125685953656986 8.326640141433701 7.777816886358082
14.08832404922115 1.914859290679895 6.1021651698288455 6.07129958871241
10.511393009995725 1.6621136221918074 4.278391269541052 4.570888118262867
7.460565881704104 1.441515493513529 2.778902100871294 3.240148287319279
4.8789481415501985 1.2312554269853404 1.573068618893085 2.074624095671775
2.9234751506413463 1.0265431052602705 0.7829361891396671 1.1139958562414085
1.4659204598044566 0.7784830643817839 0.23449975267606238 0.45293764274661047
0.6930320721504409 0.5536517155045511 0.03526177699782268 0.10411857964806698
0.3791745175590313 0.38664585194958306 -0.002660752014657952 -0.004810582375893739
0.27440967142664785 0.2770576168965968 -0.0005046312938163591 -0.0021433141761325295
0.22379030649363468 0.22367372921328627 1.685874871436006e-05 9.971853163406236e-05
0.17726686468407188 0.1772564238586278 6.169848761276928e-07 9.823840567913113e-06
0.10763263713920299 0.10763263713920299 0.0 0.0
0.07645597527046467 0.07645597527046467 0.0 0.0
0.04205291117890729 0.04205291117890729 0.0 0.0
0.0844386264356293 0.0844386264356293 0.0 0.0
0.1583176908371171 0.15830703224282272 6.366593226293898e-07 1.002193497175889e-05
0.22335854182196463 0.22337404420480175 2.043731953828531e-06 -1.7546114790963963e-05
0.30081938803969516 0.3025449207424422 -0.0005747091001256566 -0.001150823602621557
0.4806809624236512 0.4635823797435941 0.0025836299869149513 0.014514952693142135
0.9895848069096682 0.6686231785742165 0.09796012093137516 0.22300150740407634
2.143661620146427 0.9353350975627691 0.4748005258050589 0.7335259967785995
3.9460383779393853 1.172520530987865 1.1540126843053966 1.6195051626461248
6.5401679587812644 1.4127441320398975 2.321807220733854 2.8056166060075136
9.772030570207216 1.6518744237802592 3.8857653089250355 4.234390837501922
13.653800764998593 1.91250000154555 5.861841117262735 5.879459646190306
18.247809185693345 2.214767154948867 8.28652467092438 7.746517359820102
23.717512020442392 2.5720056650818357 11.268243666039801 9.877262689320759
30.13904457773354 2.9941417845220597 14.824386554985935 12.320516238225547
37.54492481626174 3.4264471382599027 19.037235591013136 15.081242086988699
45.61575900342929 3.7311697277729134 23.880239555572594 18.004349720083773
52.58070206931502 3.670197110563885 28.26092465855769 20.649580300193467
55.859719294545926 3.1362756132076313 30.634588565670423 22.08885511566787
52.29195598876993 2.7789615499701346 28.65365322781127 20.859341210988532
57.037873039336844 13.51924348828884 24.89841087034892 18.620218680699075
52.29195598876109 2.7789615499653504 28.653653227808704 20.859341210987036
55.859719294537626 3.136275613212259 30.63458856566228 22.088855115663087
52.58070206928818 3.6701971105589695 28.26092465854383 20.649580300185384
45.61575900340226 3.731169727776963 23.880239555553185 18.004349720072128
37.54492481622788 3.42644713825839 19.037235590993355 15.081242086976141
30.13904457769669 2.9941417845169496 14.824386554966916 12.320516238212818
23.71751202041311 2.572005665081788 11.268243666022697 9.877262689308628
18.247809185663307 2.214767154948749 8.286524670907335 7.746517359807223
13.653800764969587 1.9125000015429137 5.861841117248165 5.879459646178509
9.772030570183409 1.6518744237800282 3.885765308912508 4.234390837490873
6.540167958762615 1.4127441320379202 2.3218072207254123 2.8056166059992824
3.9460383779273402 1.1725205309875404 1.1540126843000111 1.6195051626397898
2.143661620138087 0.9353350975616529 0.4748005258018431 0.7335259967745906
0.9895848069053446 0.6686231785726786 0.0979601209303432 0.22300150740232288
0.4806809624222918 0.4635823797424964 0.0025836299868390966 0.014514952692956325
0.30081938803915576 0.3025449207417167 -0.000574709100104722 -0.001150823602456129
0.22335854182162654 0.22337404420443144 2.043731956666916e-06 -1.754611476158437e-05
0.15831769083688152 0.1583070322425936 6.366593221431451e-07 1.0021934965748754e-05
0.08443862643553189 0.08443862643553189 0.0 0.0
0.04205291117879836 0.04205291117879836 0.0 0.0
0.021711255375959367 0.021711255375959367 0.0 0.0
0.06279280344824013 0.06279280344824013 0.0 0.0
0.13780963130560314 0.1378036571625595 3.662909033654852e-07 5.6078521402870744e-06
0.2221235765098289 0.22207050480786883 5.412615020078281e-06 4.765908693999886e-05
0.33766608841351 0.3451336362752126 -0.0017674898685338335 -0.0057000579931687605
0.6203840747663341 0.5278833321605612 0.021061230623040803 0.07143951198273188
1.3903292303815384 0.7947640300950904 0.21621793719799684 0.3793472630884507
2.834653264749437 1.0565807908968048 0.7012402562687949 1.076832217583837
5.129276891681666 1.3202050812009993 1.6626991938039266 2.146372616676742
8.24980946814147 1.5850272206594438 3.1164996083677767 3.548282639114253
12.183448392788883 1.8618504477657503 5.081321357262883 5.240276587760248
16.944014940153355 2.1688011760102492 7.574626943805599 7.200586820337502
22.63390160524599 2.5270303015465254 10.66657143121946 9.44029987248
29.263936331381032 2.9496625056572543 14.312611984068496 12.001661841655277
37.212758491393096 3.4391210227378197 18.8480764598577 14.925561008797565
46.3744624924249 3.950881629272275 24.204574665380864 18.219006197771776
56.017712168228314 4.251713759775239 30.046922757129103 21.719075651323987
64.41606888554028 3.984747249209551 35.56754192825076 24.86377970807997
68.40397802297797 3.1777714850323506 38.65268736112199 26.573519176823634
64.45613750848163 2.919950452829344 36.28351691175001 25.25267014390227
70.38963407299185 16.173054680760988 31.590720782415396 22.625858609815477
64.4561375084777 2.919950452831473 36.28351691174613 25.252670143900055
68.40397802295148 3.1777714850250547 38.652687361109564 26.57351917681685
64.41606888550717 3.984747249206341 35.56754192823154 24.863779708069288
56.01771216819143 4.251713759774139 30.046922757106472 21.719075651310824
46.37446249238274 3.950881629270916 24.20457466535543 18.219006197756414
37.212758491358365 3.4391210227402826 18.848076459834974 14.925561008783104
29.263936331342677 2.949662505653858 14.312611984047603 12.001661841641214
22.633901605211495 2.5270303015470303 10.666571431199097 9.440299872465367
16.944014940119676 2.1688011760079866 7.574626943787871 7.20058682032382
12.183448392760939 1.861850447764572 5.081321357248316 5.240276587748047
8.249809468118773 1.585027220657038 3.1164996083572354 3.548282639104502
5.129276891665374 1.320205081199096 1.6626991937970328 2.146372616669244
2.83465326473873 1.0565807908947351 0.7012402562648967 1.0768322175790985
1.3903292303760293 0.7947640300937638 0.2162179371962691 0.3793472630859954
0.6203840747641312 0.5278833321593229 0.02106123062271243 0.07143951198209586
0.33766608841302015 0.3451336362744144 -0.0017674898684705176 -0.005700057992923696
0.22212357650933576 0.22207050480739038 5.412615016732776e-06 4.7659086928658837e-05
0.1378096313052692 0.13780365716222576 3.662909033509835e-07 5.607852140109466e-06
0.06279280344813601 0.06279280344813601 0.0 0.0
0.02171125537596285 0.02171125537596285 0.0 0.0
0.010658539842620387 0.010658539842620387 0.0 0.0
0.04446474209213227 0.04446474209213227 0.0 0.0
0.11819221568137668 0.11819221568137668 0.0 0.0
0.22322085149220805 0.2233264867928921 -1.4699425691638673e-05 -9.09358749925078e-05
0.3910658989306265 0.3932562054098626 -0.001049015319137636 -0.0011412911600982359
0.8206233013433043 0.627044594878422 0.05809235833704403 0.13548634812783827
1.8330227606880436 0.8998405655019939 0.3425843613471774 0.5905978338388724
3.6258801709724646 1.1711279646277082 1.0121155289793373 1.4426366773654187
6.346981393309529 1.458427236120063 2.2018019396891244 2.6867522175003424
10.03252876724186 1.7555305615689982 3.976352297193835 4.300645908479026
14.670984039888609 2.0735279528443087 6.342880602756194 6.254575484288106
20.347536497365336 2.4350460014103525 9.379220459645602 8.533270036309391
27.060097129856548 2.8539141143304194 13.0539397068749 11.152243308651231
35.154938032911275 3.3431682351275938 17.668814546216 14.142955251567695
44.51417375890266 3.8987474199757255 23.06701923050774 17.548407108419184
55.1585477097709 4.455447285088196 29.35963064242375 21.343469782258957
66.52593036173802 4.768430145304122 36.417659718224996 25.339840498208908
76.37415359603789 4.338057784765004 43.05841254099994 28.97768327027295
81.22109697735779 3.2355769860109094 46.92438331073932 31.061136680607543
77.31585880872929 3.0236523554118095 44.53521203187488 29.75699442144263
84.94554272626411 18.819905261009122 39.23764345845528 26.887994006799694
77.31585880871896 3.0236523554066608 44.53521203187138 29.756994421440908
81.22109697733835 3.2355769860171235 46.92438331072256 31.06113668059866
76.37415359600597 4.338057784768585 43.05841254097677 28.977683270260606
66.52593036169614 4.768430145305423 36.41765971819732 25.339840498193418
55.15854770973033 4.455447285091455 29.359630642395985 21.343469782242863
44.51417375885561 3.8987474199714844 23.067019230481165 17.548407108402976
35.154938032866134 3.3431682351252476 17.668814546189942 14.142955251550955
27.06009712981192 2.853914114326858 13.053939706850539 11.15224330863452
20.347536497325773 2.43504600140663 9.379220459625033 8.533270036294105
14.670984039854435 2.0735279528426447 6.342880602738131 6.2545754842736665
10.032528767215675 1.755530561567328 3.976352297180752 4.300645908467591
6.346981393291353 1.4584272361190138 2.201801939680555 2.686752217491782
3.62588017095999 1.1711279646260384 1.012115528974585 1.4426366773593662
1.833022760680857 0.8998405654997764 0.34258436134505754 0.5905978338360229
0.8206233013404685 0.6270445948775145 0.05809235833634083 0.13548634812661306
0.39106589892987575 0.39325620540894946 -0.0010490153191105745 -0.0011412911599630734
0.2232208514918385 0.22332648679253647 -1.469942569445019e-05 -9.093587500345681e-05
0.11819221568107824 0.11819221568107824 0.0 0.0
0.044464742092023085 0.044464742092023085 0.0 0.0
0.01065853984262532 0.01065853984262532 0.0 0.0
0.005189233079102701 0.005189233079102701 0.0 0.0
0.030470799276927925 0.030470799276927925 0.0 0.0
0.10212941663159639 0.10212941663159639 0.0 0.0
0.23130227953449606 0.23168592125236293 -5.241578673022058e-05 -0.0003312259311366469
0.4688074092876827 0.44555863172753246 0.004283775319578476 0.018965002240571738
1.0819323088701944 0.725456251483869 0.12086042133429903 0.23561563605202618
2.325789525451756 0.9856810457239276 0.5045962612174593 0.8355122185103685
4.468235704088686 1.280924899840999 1.36266966750699 1.824641136740699
7.607301553989705 1.5912859784252371 2.779602267083828 3.2364133084806377
11.86086005636855 1.924365662692585 4.876532583693674 5.059961809982292
17.256912955442797 2.2922889976959113 7.689267869106337 7.275356088640542
23.824212148602506 2.7099181600407225 11.238058530756337 9.876235457805443
31.79957893357468 3.200909047666976 15.72453199231045 12.874137893597242
41.07688072171597 3.764213392726623 21.001065806098907 16.311601522890438
51.95815740285313 4.359219927811875 27.413951839476322 20.18498563556495
64.13972178634918 4.9069019257066655 34.79875741559252 24.434062445049992
76.92273075810962 5.232080775035208 42.830410403097915 28.86023957997651
88.30980883065389 4.834147680760662 50.53022582799829 32.945435321894976
94.33961911093766 3.3397444277930153 55.52222846509468 35.47764621804994
91.01550784893172 3.0138122461564536 53.55258566267469 34.44910994010055
100.82000685497927 21.316289938701367 47.92644082361436 31.577276092663574
91.0155078489059 3.0138122461424866 53.552585662666914 34.449109940096506
94.3396191109069 3.339744427792243 55.522228465074896 35.47764621803982
88.30980883061036 4.834147680756455 50.53022582797243 32.94543532188147
76.92273075805929 5.23208077503628 42.830410403064434 28.86023957995857
64.13972178628812 4.906901925694963 34.79875741556094 24.434062445032193
51.95815740280014 4.359219927810411 27.41395183944385 20.184985635545882
41.076880721665276 3.7642133927261243 21.001065806067988 16.311601522871193
31.799578933526675 3.2009090476674293 15.724531992281268 12.874137893577972
23.82421214855697 2.7099181600365037 11.23805853073211 9.876235457788358
17.256912955406303 2.2922889976963625 7.689267869085506 7.275356088624444
11.860860056339552 1.9243656626908228 4.8765325836789435 5.059961809969786
7.6073015539676465 1.5912859784232538 2.7796022670735816 3.2364133084708104
4.468235704073663 1.2809248998394438 1.3626696675006167 1.824641136733604
2.3257895254432372 0.985681045721866 0.5045962612149187 0.8355122185064514
1.0819323088663833 0.7254562514826023 0.12086042133332564 0.23561563605045552
0.46880740928654735 0.4455586317264198 0.004283775319530304 0.01896500224059729
0.231302279534148 0.23168592125204662 -5.2415786734623315e-05 -0.00033122593116401
0.10212941663137308 0.10212941663137308 0.0 0.0
0.03047079927687615 0.03047079927687615 0.0 0.0
0.005189233079076322 0.005189233079076322 0.0 0.0
0.002462671567046367 0.002462671567046367 0.0 0.0
0.020856758643113673 0.020856758643113673 0.0 0.0
0.09314679843689186 0.09314679843689186 0.0 0.0
0.25385254185542694 0.2544880176293025 -0.00014125326146760032 -0.000494222512408002
0.590795309365465 0.5265169124660315 0.018203596861415997 0.046074800038017685
1.382084250244094 0.8085159740101197 0.19898456839989753 0.374583707834077
2.8848173489940834 1.0766012857048795 0.7154334661166326 1.0927825971725713
5.339149922093988 1.3844019460462123 1.7362185481156498 2.2185294279321273
8.91749038067502 1.7206732281549835 3.4045338741062054 3.7922832784138354
13.730218356066151 2.0942016314930574 5.8128048577098665 5.823211866863231
19.879401152929866 2.5145859218253444 9.062294680031702 8.302520551072828
27.49227895518996 3.000615697718285 13.265572541096915 11.22609071637476
36.49604009980655 3.5666121480805613 18.312812062001967 14.616615889724036
47.25478621075054 4.196589537292163 24.5692029369203 18.488993736538077
59.62733607904645 4.834796888217106 31.96313346823254 22.82940572259681
73.2182937018682 5.3400438480504455 40.361728202210934 27.516521651606816
87.12678059628463 5.542891549680654 49.31243928843579 32.271449758168174
99.83518761985118 5.316773461039507 57.86976135030806 36.64865280850361
107.6767952678115 3.8535073378733182 64.0746284941378 39.74865943580037
105.62966595139474 2.717805083759666 63.490416266773394 39.42144460086171
118.04628632303177 22.678816119146923 58.43169440681906 36.93577579706579
105.62966595138118 2.717805083762678 63.49041626676228 39.42144460085623
107.67679526777518 3.853507337872839 64.07462849411391 39.74865943578844
99.83518761979552 5.316773461034167 57.86976135027464 36.648652808486744
87.12678059623126 5.542891549683752 49.31243928839882 32.27144975814866
73.21829370180981 5.340043848050752 40.3617282021729 27.516521651586178
59.62733607898876 4.834796888216704 31.96313346819608 22.82940572257597
47.25478621069309 4.196589537290016 24.569202936885763 18.4889937365173
36.496040099752015 3.566612148079055 18.31281206196958 14.616615889703358
27.4922789551393 3.0006156977140734 13.265572541069357 11.22609071635587
19.87940115288579 2.514585921822652 9.062294680007849 8.302520551055295
13.730218356033246 2.0942016314895975 5.812804857693628 5.823211866850016
8.91749038065038 1.7206732281532604 3.404533874094245 3.7922832784028753
5.339149922076644 1.3844019460450507 1.736218548107801 2.2185294279237953
2.8848173489842095 1.0766012857032699 0.7154334661130537 1.092782597167886
1.3820842502391326 0.8085159740085792 0.19898456839851364 0.37458370783204026
0.5907953093638336 0.5265169124649886 0.01820359686120265 0.046074800037642256
0.2538525418550618 0.25448801762883666 -0.00014125326146022178 -0.0004942225123147655
0.09314679843672449 0.09314679843672449 0.0 0.0
0.020856758643087125 0.020856758643087125 0.0 0.0
0.002462671567048622 0.002462671567048622 0.0 0.0
0.0006979726420870574 0.0006979726420870574 0.0 0.0
0.015030922268904222 0.015030922268904222 0.0 0.0
0.09631250413371069 0.09631250413371069 0.0 0.0
0.3045620745928999 0.3049231451859563 -0.0002211325915370488 -0.00013993800151931293
0.7693017472333614 0.6390786955390504 0.04211451949526633 0.08810853219904452
1.7554308917890342 0.9690361510459727 0.28594742171348386 0.5004473190295771
3.5128001752332016 1.3105974177519286 0.8967853129469496 1.3054174445343243
6.310706351363885 1.736902024272057 2.047451576503371 2.526352750588455
10.350892639820362 2.2482489473208336 3.8820726201976576 4.220571072301875
15.845964893680605 2.8806489543565084 6.557770683851528 6.407545255472567
22.93557838259717 3.6729398481098032 10.176495430106884 9.086143104380483
31.640077424488048 4.653660152136897 14.725427099355265 12.260990172995882
42.18912894594784 5.822205983653454 20.423178017155127 15.943744945139265
54.6441397491563 7.158724362401884 27.340482792531812 20.144932594222603
68.82259579478064 8.498466188663848 35.50180301634877 24.822326589767975
84.05371731875329 9.526935312258974 44.711023458139465 29.815758548354847
98.98439183575871 9.855071399962796 54.30596699799959 34.82335343779633
111.8560865385375 9.297062458024776 63.23351320994627 39.325510870566546
121.09333682048944 8.413305294705253 70.01567436002878 42.66435716575542
117.57852161659235 2.732059870244611 71.41947811511125 43.42698363123645
169.21652343092308 58.39849547746538 68.82216422159064 41.995863731867075
117.5785216165609 2.732059870229884 71.41947811510002 43.42698363123101
121.09333682044807 8.41330529470452 70.01567436000144 42.664357165742075
111.85608653849013 9.297062458038262 63.23351320990583 39.3255108705461
98.98439183567989 9.855071399942307 54.305966997961015 34.8233534377766
84.05371731868357 9.526935312252647 44.71102345809819 29.81575854833269
68.82259579470829 8.498466188653108 35.50180301630931 24.822326589745867
54.644139749084374 7.1587243623898225 27.34048279249416 20.144932594200416
42.18912894588249 5.822205983644956 20.42317801712015 15.943744945117402
31.640077424427822 4.653660152127202 14.725427099324959 12.260990172975655
22.935578382549643 3.6729398481082445 10.176495430080157 9.086143104361245
15.84596489364286 2.8806489543508333 6.557770683833537 6.407545255458492
10.3508926397913 2.248248947316264 3.8820726201846085 4.220571072290433
6.310706351344804 1.7369020242710218 2.047451576494416 2.5263527505793646
3.5128001752214923 1.3105974177496136 0.8967853129427417 1.305417444529138
1.7554308917830248 0.9690361510445412 0.2859474217117614 0.5004473190267217
0.7693017472311036 0.6390786955378036 0.04211451949490514 0.0881085321983949
0.3045620745923613 0.3049231451853974 -0.00022113259152841628 -0.00013993800150774015
0.09631250413359504 0.09631250413359504 0.0 0.0
0.015030922268871795 0.015030922268871795 0.0 0.0
0.0006979726420802098 0.0006979726420802098 0.0 0.0
CELL_DATA 800
SCALARS Stress float 6
LOOKUP_TABLE default
155.605902351353 -508.7228493483397 -182.66502434536798 -107.39744078830694 0.0 0.0
396.9368464233543 -42.664594478621595 116.95716659774561 58.30233728344631 0.0 0.0
390.5966997706182 8.310320743890667 119.47592014944792 -4.323370851182038 0.0 0.0
451.1010802802522 -9.212203475896771 136.17507727214823 -13.685152708879226 0.0 0.0
524.9279415919292 -14.076167622086174 181.214875173035 -11.297007566789823 0.0 0.0
594.806959727474 -7.206411312814392 249.6363496216964 -9.702952314613984 0.0 0.0
662.4355635815413 0.4660115012879942 311.01269491141863 -9.780867926586225 0.0 0.0
730.0979946181097 16.068398173722358 364.3560907375103 -10.859167654253934 0.0 0.0
798.9529410402334 38.31298830122311 414.1057984828798 -12.180900680392641 0.0 0.0
869.3690385115531 66.38326055612094 464.72365843345926 -13.156155680020643 0.0 0.0
940.637051518805 98.5565098332164 517.0017355587632 -13.615276934011847 0.0 0.0
1011.9478007664538 134.10716150341824 570.7648774373936 -13.560670843852892 0.0 0.0
1083.3084257487762 171.42173673007068 625.328517033744 -13.33330153560631 0.0 0.0
1155.4090703326963 211.0100378793885 681.3207807244984 -13.06302804931995 0.0 0.0
1229.0063143954715 253.89958806275456 739.6616159183736 -12.681199615243784 0.0 0.0
1303.6190114190572 300.0532131711866 800.1142577498288 -12.003931462821086 0.0 0.0
1376.9682969377002 348.0723369721874 860.8564028283167 -10.82999389317527 0.0 0.0
1445.720484648152 395.6383734982868 919.0459614136215 -9.170352795974644 0.0 0.0
1506.5047710395509 440.5003328392461 971.8267498794904 -7.782495269467211 0.0 0.0
1575.9386601477581 501.2240653726783 1036.379138030616 -10.091697644623427 0.0 0.0
1575.9386601476363 501.2240653725671 1036.3791380305058 10.091697644676337 0.0 0.0
1506.5047710392512 440.50033283898586 971.826749879219 7.782495269636347 0.0 0.0
1445.720484647359 395.63837349755175 919.045961412899 9.170352795964837 0.0 0.0
1376.9682969360715 348.072336970637 860.856402827114 10.829993893177939 0.0 0.0
1303.61901141849 300.05321317072037 800.114257749397 12.003931462765372 0.0 0.0
1229.0063143960983 253.89958806351785 739.6616159188151 12.681199615317194 0.0 0.0
1155.4090703335362 211.01003788039108 681.3207807250571 13.06302804934187 0.0 0.0
1083.3084257486448 171.4217367301124 625.3285170335809 13.333301535614684 0.0 0.0
1011.9478007661648 134.1071615033303 570.7648774370796 13.56067084381822 0.0 0.0
940.6370515184728 98.55650983309742 517.0017355584997 13.615276933946536 0.0 0.0
869.3690385107896 66.3832605555851 464.72365843289737 13.156155679993944 0.0 0.0
798.9529410396501 38.312988300867545 414.10579848245317 12.180900680251298 0.0 0.0
730.0979946179099 16.068398173767733 364.35609073733326 10.85916765415538 0.0 0.0
662.4355635808723 0.46601150085697185 311.012694910915 9.780867926584568 0.0 0.0
594.8069597275331 -7.206411312448523 249.6363496216205 9.702952314649778 0.0 0.0
524.9279415915415 -14.07616762221906 181.21487517275568 11.297007566872326 0.0 0.0
451.1010802798682 -9.21220347604363 136.17507727198347 13.685152708824564 0.0 0.0
390.5966997704216 8.310320743735845 119.47592014934563 4.323370851164228 0.0 0.0
396.9368464233719 -42.66459447838249 116.95716659778398 -58.302337283443606 0.0 0.0
155.60590235190693 -508.7228493478165 -182.66502434484613 107.39744078789808 0.0 0.0
57.97109148238894 -538.4105872701143 -240.54435645766526 -151.0312467861212 0.0 0.0
249.54540550409726 -28.242076297779892 66.39063276217391 11.824117455741405 0.0 0.0
342.42868444209523 25.543827739089892 110.39126352802762 -10.283027175129064 0.0 0.0
413.12702237596113 -6.681245469844261 122.43221663360805 -33.34203312608869 0.0 0.0
495.46828542114827 -15.118063127900268 160.39085480695152 -32.09303980265723 0.0 0.0
570.1852762039458 -8.541024516865953 227.66133747136635 -28.718952992502505 0.0 0.0
641.9131719375869 -1.0172459475313396 293.9339316804907 -29.150237577085587 0.0 0.0
710.584164609107 13.858411044766981 350.64739585378106 -30.797233870579486 0.0 0.0
778.352381790549 34.68952117109864 400.80194298041926 -32.81334258973739 0.0 0.0
846.1220549500725 60.416170768259676 449.56068933479605 -34.08476964481704 0.0 0.0
913.5039265996677 89.40045381892924 498.5517070078664 -34.270372811514534 0.0 0.0
980.2942642306184 120.32780282824454 547.8423153352974 -33.667318160331035 0.0 0.0
1046.6671629391114 153.5146680810677 597.8912560196983 -32.75477411787726 0.0 0.0
1113.79113623183 188.84608949875138 649.2962337640321 -31.819651156694345 0.0 0.0
1182.0798303079496 226.8578923513495 702.5701952821865 -30.70927761182128 0.0 0.0
1251.0128648888417 267.6558021626041 757.5310019605708 -28.992798952942593 0.0 0.0
1319.0336681394235 310.44278528678177 813.0002846311479 -26.362382987388916 0.0 0.0
1384.0833619957657 354.2093128521228 867.4181278344614 -23.044568845636785 0.0 0.0
1448.01412250672 402.23354312126037 923.2334351833018 -19.97810705691891 0.0 0.0
1494.3978510154036 439.49625296909335 964.8711814098565 -16.47137420654106 0.0 0.0
1494.3978510155869 439.49625296929145 964.8711814100419 16.471374206492456 0.0 0.0
1448.0141225072016 402.2335431217865 923.2334351836906 19.978107057106794 0.0 0.0
1384.0833619955977 354.20931285202647 867.4181278342919 23.04456884568836 0.0 0.0
1319.0336681386243 310.4427852860524 813.0002846305224 26.36238298735826 0.0 0.0
1251.0128648873124 267.6558021611655 757.5310019593195 28.992798952893985 0.0 0.0
1182.0798303068004 226.85789235031376 702.5701952811712 30.709277611821882 0.0 0.0
1113.7911362315012 188.84608949857562 649.296233763678 31.819651156764827 0.0 0.0
1046.6671629384832 153.51466808059098 597.891256019228 32.75477411780339 0.0 0.0
980.2942642300137 120.32780282782923 547.842315334933 33.66731816033331 0.0 0.0
913.5039265990214 89.400453818482 498.5517070074199 34.270372811469905 0.0 0.0
846.12205494977 60.41617076819702 449.56068933459204 34.08476964485578 0.0 0.0
778.3523817899109 34.68952117069861 400.80194297997497 32.813342589775885 0.0 0.0
710.5841646089584 13.858411044880697 350.6473958536211 30.797233870567744 0.0 0.0
641.9131719375621 -1.0172459472557662 293.93393168037625 29.150237577132344 0.0 0.0
570.18527620386 -8.541024516646608 227.66133747120676 28.718952992470278 0.0 0.0
495.46828542077196 -15.118063127985582 160.390854806721 32.093039802642735 0.0 0.0
413.1270223756499 -6.681245469926808 122.43221663349689 33.34203312597186 0.0 0.0
342.4286844419605 25.54382773894815 110.39126352794504 10.28302717515447 0.0 0.0
249.54540550426285 -28.242076297408083 66.39063276233551 -11.824117455858264 0.0 0.0
57.97109148268086 -538.4105872697972 -240.5443564573311 151.031246785868 0.0 0.0
10.989104492656054 -541.700787429119 -257.4641230492965 -165.09897913885916 0.0 0.0
144.337419168577 -24.81336517696173 35.85721619748457 -40.86357840656619 0.0 0.0
278.68406212938675 29.753719125206345 92.53133437637791 -32.359354448734216 0.0 0.0
365.9320104353888 0.87588782021919 110.16493749490495 -52.133855772536386 0.0 0.0
456.2803461397533 -13.479489319041058 140.68749416582617 -55.05278442587101 0.0 0.0
542.5313865529041 -12.155527688792967 201.72840571636786 -49.919071967868106 0.0 0.0
617.1081819861478 -1.6004007912141525 273.45439407229446 -48.82162364716672 0.0 0.0
686.6521172921956 11.666913868653268 333.50919733791113 -50.7039856054447 0.0 0.0
753.9237480670474 31.154582196781604 385.06646496784253 -53.051930295768926 0.0 0.0
819.0894898543546 54.291402094477284 432.2082855879664 -54.35077023058966 0.0 0.0
882.6378654516068 79.70736305416524 477.8619001209205 -54.20541584205226 0.0 0.0
944.7621272894439 106.82630941670331 523.0601107789439 -53.03765620299812 0.0 0.0
1006.6099398608048 135.37215311110407 568.5946376682588 -51.623598598650375 0.0 0.0
1068.6311015549122 166.27495904072015 615.2780247306489 -50.10549938758645 0.0 0.0
1131.401536721843 199.26133269096266 663.3124866822029 -48.3018937461932 0.0 0.0
1194.6236244042193 234.4590234774435 712.6440422388171 -45.70531736059336 0.0 0.0
1257.4251131683116 271.9134368089057 762.8433832533619 -41.97059716683216 0.0 0.0
1320.0460474775584 313.00787737669066 814.6764731735877 -37.33374772254359 0.0 0.0
1377.8938549373925 354.42608068718545 864.2043220899778 -31.448012682035664 0.0 0.0
1417.8223823628628 384.2543467092842 898.9556926580498 -22.14865294362193 0.0 0.0
1417.8223823628168 384.2543467092431 898.9556926580095 22.148652943606013 0.0 0.0
1377.8938549374498 354.4260806873017 864.2043220900073 31.448012682263126 0.0 0.0
1320.046047476683 313.0078773758813 814.6764731729866 37.333747722652674 0.0 0.0
1257.4251131686572 271.91343680933596 762.8433832535325 41.97059716683952 0.0 0.0
1194.6236244042216 234.45902347754043 712.6440422388255 45.705317360571215 0.0 0.0
1131.4015367216875 199.26133269093816 663.3124866819901 48.301893746249085 0.0 0.0
1068.6311015544036 166.27495904036067 615.2780247302308 50.105499387632584 0.0 0.0
1006.6099398602117 135.3721531106561 568.5946376677966 51.62359859860544 0.0 0.0
944.7621272891688 106.82630941661841 523.0601107786546 53.03765620297965 0.0 0.0
882.6378654512426 79.70736305399082 477.8619001206368 54.20541584195816 0.0 0.0
819.0894898537891 54.291402094096014 432.2082855875538 54.35077023046843 0.0 0.0
753.9237480668494 31.154582196831825 385.0664649676815 53.051930295752115 0.0 0.0
686.6521172916382 11.666913868300377 333.50919733750356 50.703985605290114 0.0 0.0
617.1081819853653 -1.6004007917848497 273.45439407170113 48.82162364709009 0.0 0.0
542.5313865526283 -12.155527688768444 201.72840571610587 49.919071967776716 0.0 0.0
456.28034613943595 -13.47948931906485 140.68749416566754 55.05278442581949 0.0 0.0
365.93201043509185 0.875887820180318 110.164937494814 52.13385577250003 0.0 0.0
278.6840621293093 29.753719125075577 92.53133437631544 32.35935444862106 0.0 0.0
144.33741916877312 -24.813365176664156 35.85721619763269 40.86357840634201 0.0 0.0
10.989104492825973 -541.7007874288472 -257.464123049007 165.09897913870185 0.0 0.0
-6.183434452313691 -526.3740341497388 -249.08053460085097 -167.5070358456772 0.0 0.0
85.20471499633328 -28.510803185670774 17.00817354319875 -85.50065542869112 0.0 0.0
218.10856109278063 28.414412763877117 73.95689215699731 -61.365799544525856 0.0 0.0
315.3399561118943 6.8417100070968555 96.64643501907848 -72.50854832006654 0.0 0.0
407.51866430128734 -10.539251389934003 121.85589686405544 -79.57914679526964 0.0 0.0
502.9093084469914 -13.629836329176927 174.12316611434397 -73.27928501138985 0.0 0.0
585.1168327394736 -3.7568770078864464 246.72909634626603 -69.38140488069152 0.0 0.0
658.0493029316619 10.106093067357047 312.6474391048133 -70.7424358926491 0.0 0.0
724.7340489728538 27.470779156099084 365.93080818112355 -72.87992490035427 0.0 0.0
787.5630156635341 47.921100068485124 412.06845346962723 -73.96528231679652 0.0 0.0
847.5016959668261 69.87759455393268 454.79356187442335 -73.42357058655942 0.0 0.0
905.5156707264474 93.03397682486614 496.1867606240636 -71.77455010852644 0.0 0.0
962.363364792209 117.31971907144285 537.1938092257267 -69.86187124085077 0.0 0.0
1019.6110245901315 143.52219643197162 579.2046895964992 -67.91370927313577 0.0 0.0
1076.971295683226 171.2141538726487 621.9314551785969 -65.52414550952564 0.0 0.0
1134.0905398209443 200.777611018156 665.4222813641692 -62.17630410865152 0.0 0.0
1191.9393898387636 233.0259962704214 710.5528453795494 -57.66898764238331 0.0 0.0
1249.8408427248874 268.77087656740844 757.3657680044828 -51.728558759458934 0.0 0.0
1303.109762034335 304.44519292494556 801.7555693171865 -42.85856353098308 0.0 0.0
1340.6903457907383 330.2332941207687 833.3250602001343 -28.18162757127258 0.0 0.0
1340.6903457900503 330.2332941200989 833.3250601996164 28.181627571345924 0.0 0.0
1303.109762034335 304.44519292500536 801.7555693171684 42.85856353115605 0.0 0.0
1249.8408427248837 268.77087656748597 757.3657680044789 51.72855875958973 0.0 0.0
1191.9393898378441 233.02599626958752 710.5528453788986 57.668987642414756 0.0 0.0
1134.090539820477 200.77761101773527 665.4222813637534 62.17630410852142 0.0 0.0
1076.9712956829153 171.2141538724981 621.9314551784057 65.52414550967686 0.0 0.0
1019.611024589877 143.52219643183938 579.2046895963891 67.9137092730663 0.0 0.0
962.36336479201 117.31971907139607 537.1938092256175 69.86187124081646 0.0 0.0
905.5156707256035 93.03397682415348 496.18676062348027 71.77455010841959 0.0 0.0
847.5016959657063 69.87759455296676 454.79356187362043 73.42357058648474 0.0 0.0
787.5630156631946 47.92110006835773 412.0684534693649 73.96528231675013 0.0 0.0
724.7340489718298 27.470779155258256 365.9308081804237 72.87992490027828 0.0 0.0
658.0493029309544 10.10609306690305 312.6474391042844 70.74243589262181 0.0 0.0
585.1168327392613 -3.75687700778024 246.72909634603127 69.38140488067637 0.0 0.0
502.90930844679605 -13.629836328999058 174.12316611417748 73.27928501134464 0.0 0.0
407.51866430112216 -10.539251389706603 121.85589686406264 79.57914679515864 0.0 0.0
315.33995611169036 6.841710007136969 96.64643501903068 72.50854831995522 0.0 0.0
218.10856109277904 28.414412763937435 73.95689215701492 61.365799544367874 0.0 0.0
85.2047149965556 -28.510803185319297 17.008173543370887 85.5006554285374 0.0 0.0
-6.183434452236526 -526.3740341495185 -249.08053460059728 167.50703584551994 0.0 0.0
-9.304209754377283 -500.2799298695667 -227.08472447432425 -165.6351281794347 0.0 0.0
50.783183510910824 -33.01672061983573 5.329938867322525 -120.17866671102256 0.0 0.0
165.52886268973424 24.1141246669237 56.892896206997385 -90.75146400710199 0.0 0.0
261.9050819807841 10.281453350899582 81.65486019464379 -94.3143130654814 0.0 0.0
350.45601629463243 -5.7014926274865845 104.14042864527926 -103.00456715788425 0.0 0.0
451.90377528360364 -13.849933387849324 146.0924272031943 -99.63558292941418 0.0 0.0
545.2883402248726 -6.68247329076198 214.6767877817276 -92.22471249145137 0.0 0.0
623.0428352112792 8.118768430810789 285.99132838295054 -90.90321171008898 0.0 0.0
689.9804626569039 23.867021308244965 342.4879866387898 -92.38020634312501 0.0 0.0
750.8490709180315 41.32842488328442 388.4682286197002 -92.98507549408052 0.0 0.0
807.5936011235342 59.86273015440744 428.8888441286222 -91.9750855469218 0.0 0.0
861.3667633514596 79.06554036077729 466.5946253649572 -89.83827295831838 0.0 0.0
913.7428272949908 99.15208792214688 503.464028182931 -87.57889900784077 0.0 0.0
965.5044522711328 120.65300006416417 540.4714170664845 -85.20254788636396 0.0 0.0
1017.4402791656416 143.21905329290962 577.9764990355818 -82.32884366936801 0.0 0.0
1069.4746901807814 167.0736283310964 616.1176461562285 -78.49341000314573 0.0 0.0
1121.1212211427896 193.13644476970842 655.0916617855797 -73.35002305116578 0.0 0.0
1173.3979457731352 222.4752323074513 695.915299137102 -66.28757310624138 0.0 0.0
1222.9917486986712 252.64080229476605 735.7197698633557 -54.73351874576869 0.0 0.0
1260.568712080081 275.8590577169062 765.9822523046838 -35.06731209126954 0.0 0.0
1260.5687120803452 275.85905771720263 765.9822523048687 35.06731209142634 0.0 0.0
1222.9917486982815 252.64080229445867 735.7197698630216 54.73351874600746 0.0 0.0
1173.3979457723572 222.4752323067549 695.9152991365255 66.28757310633281 0.0 0.0
1121.121221142593 193.13644476962446 655.091661785409 73.3500230512964 0.0 0.0
1069.4746901805756 167.07362833096528 616.1176461559293 78.49341000311723 0.0 0.0
1017.4402791652509 143.21905329265695 577.9764990351661 82.32884366940246 0.0 0.0
965.5044522711058 120.65300006427944 540.4714170663523 85.20254788638753 0.0 0.0
913.7428272953161 99.15208792271348 503.46402818307814 87.57889900799134 0.0 0.0
861.3667633514224 79.06554036090519 466.5946253648341 89.83827295828766 0.0 0.0
807.593601123055 59.86273015414689 428.88884412824234 91.97508554694873 0.0 0.0
750.8490709173947 41.32842488281054 388.468228619215 92.9850754939502 0.0 0.0
689.9804626567945 23.867021308382043 342.48798663864636 92.38020634309785 0.0 0.0
623.0428352113676 8.11876843125745 285.99132838289097 90.9032117101165 0.0 0.0
545.2883402245499 -6.682473290720836 214.67678778143335 92.22471249147728 0.0 0.0
451.9037752833146 -13.849933387725377 146.09242720303672 99.63558292939425 0.0 0.0
350.45601629452455 -5.701492627186732 104.1404286453404 103.00456715774712 0.0 0.0
261.9050819807364 10.281453351127855 81.6548601946991 94.3143130653203 0.0 0.0
165.52886268981297 24.114124667103837 56.89289620707504 90.75146400696536 0.0 0.0
50.78318351101169 -33.016720619621694 5.329938867416999 120.17866671094143 0.0 0.0
-9.304209754354304 -500.2799298692402 -227.08472447404887 165.63512817941265 0.0 0.0
-6.139319281940445 -467.04626735651135 -197.9223827782726 -162.4254074219436 0.0 0.0
29.01591509492908 -36.68196243234958 -2.2998142012261473 -145.85173131581158 0.0 0.0
120.24747692254806 18.62058044959667 41.66041721164341 -116.97184117483908 0.0 0.0
207.72428078851678 12.17956071891134 65.96847564367532 -115.77634172389217 0.0 0.0
289.87895437853444 -1.3663355374289132 86.63989408812489 -124.7739208733214 0.0 0.0
385.1169821855808 -11.997400027332786 118.37687372474383 -126.79982943891278 0.0 0.0
488.79800848948065 -8.262819804124415 178.11061746372073 -118.26824178101586 0.0 0.0
576.5835636213401 4.536182941681526 250.36080404188283 -112.58448732112237 0.0 0.0
647.9088557041766 19.908003076585672 312.6950279460163 -111.83376832693537 0.0 0.0
707.7276898582663 34.682112669038546 360.1421907211998 -111.45171957073404 0.0 0.0
761.2924929191373 49.530997515145415 398.8783296587652 -109.88194838524609 0.0 0.0
811.3116569353939 64.9780477364144 433.62953898251476 -107.31721858766458 0.0 0.0
859.0516889074848 81.0362066776174 466.5292370535558 -104.66846766027973 0.0 0.0
905.7019156122732 97.71023722981406 498.7543335075537 -102.08414740813144 0.0 0.0
952.3323972102012 115.14942780663159 531.1306389435106 -98.88694134985401 0.0 0.0
998.4298771606301 133.73353040078683 563.7198720429334 -94.49156455527665 0.0 0.0
1044.1058308272313 152.92597719017618 596.3458139640097 -88.93146200487443 0.0 0.0
1089.8664078604693 174.44578430556092 630.0567318171873 -81.15453356779011 0.0 0.0
1135.6379746778468 198.65852053818105 664.9686250447253 -67.48684920283293 0.0 0.0
1175.0436846320674 220.01763642119053 695.1595414287807 -43.33311168022783 0.0 0.0
1175.0436846314476 220.01763642060175 695.1595414283051 43.33311168039813 0.0 0.0
1135.637974677643 198.65852053805264 664.9686250445613 67.48684920298253 0.0 0.0
1089.8664078605693 174.44578430577656 630.0567318172536 81.15453356798815 0.0 0.0
1044.105830827065 152.9259771901714 596.3458139638444 88.93146200513897 0.0 0.0
998.4298771602074 133.73353040049543 563.7198720425213 94.49156455539918 0.0 0.0
952.3323972093681 115.1494278059437 531.1306389429053 98.8869413499086 0.0 0.0
905.701915611476 97.71023722912454 498.7543335069604 102.08414740814055 0.0 0.0
859.0516889071396 81.03620667746588 466.52923705326765 104.66846766038826 0.0 0.0
811.311656934637 64.97804773579078 433.6295389819821 107.31721858757902 0.0 0.0
761.2924929190722 49.53099751531899 398.87832965869245 109.88194838530838 0.0 0.0
707.727689858225 34.68211266927605 360.1421907211007 111.45171957075473 0.0 0.0
647.9088557034767 19.908003076060268 312.69502794547833 111.83376832684874 0.0 0.0
576.5835636209351 4.536182941553577 250.3608040414992 112.58448732107763 0.0 0.0
488.7980084891552 -8.26281980400449 178.11061746348247 118.26824178104766 0.0 0.0
385.11698218521724 -11.997400027328041 118.37687372458925 126.79982943879875 0.0 0.0
289.87895437816763 -1.3663355376981334 86.6398940879421 124.77392087321735 0.0 0.0
207.724280788372 12.179560718681842 65.9684756435639 115.77634172381644 0.0 0.0
120.24747692255767 18.620580449661784 41.66041721166583 116.97184117466401 0.0 0.0
29.01591509501661 -36.681962432116855 -2.299814201130072 145.8517313155511 0.0 0.0
-6.139319281833053 -467.04626735619786 -197.9223827779808 162.42540742183232 0.0 0.0
-0.4925734582241148 -428.08857622486966 -165.31301718664406 -158.98251972894712 0.0 0.0
12.828136258968307 -40.18860228578457 -8.20813980804488 -163.7351336447046 0.0 0.0
80.18002027858084 13.199708561820913 28.013918652120516 -138.52213594949515 0.0 0.0
154.2567334477713 13.74829845421619 50.399622372971486 -135.35640467352985 0.0 0.0
225.68258900584033 1.5753962297408763 68.25322751130655 -144.4196170212789 0.0 0.0
309.08390966500065 -7.9588576896757335 92.4322918511034 -152.08483368678807 0.0 0.0
413.9878002438985 -8.704937179594904 138.67653825678727 -147.0456585059988 0.0 0.0
513.0322486853593 1.2275219702210243 205.8665617462977 -137.20407097563313 0.0 0.0
592.5136782383534 14.641832999889353 271.995963903164 -132.1558855750786 0.0 0.0
655.108687750783 27.782682797106187 324.0497926123428 -129.65092247503512 0.0 0.0
706.2309186271116 38.923679141073094 362.6164474565831 -127.21325695210962 0.0 0.0
752.8200557025696 50.80914320351514 395.4705025566112 -124.22225321185438 0.0 0.0
796.1157917703475 62.784857496346326 424.9144171357889 -121.25808888634833 0.0 0.0
837.5163018339297 75.05454244276592 452.74021280586174 -118.48663685854211 0.0 0.0
878.0865135078021 87.10455367055407 479.59614776413014 -115.17373552775572 0.0 0.0
919.4920210283682 100.49668750599085 507.32905570254593 -110.45472362786741 0.0 0.0
958.8851848259523 113.25664890927594 533.6946181317298 -104.24206863589845 0.0 0.0
996.6576218879509 125.72051268942013 558.9968716122945 -96.18936657193082 0.0 0.0
1037.890519144737 141.71814518951018 587.5379977186273 -81.5576937745734 0.0 0.0
1081.0072684362608 161.36251677972882 618.6206105487393 -53.772306273758595 0.0 0.0
1081.0072684360844 161.36251677956938 618.62061054876 53.772306273845075 0.0 0.0
1037.89051914439 141.7181451892278 587.5379977185939 81.55769377470804 0.0 0.0
996.6576218874733 125.7205126890301 558.9968716120171 96.18936657207296 0.0 0.0
958.8851848249672 113.25664890837479 533.6946181310285 104.24206863601961 0.0 0.0
919.4920210288461 100.49668750655613 507.32905570282253 110.45472362786397 0.0 0.0
878.0865135091097 87.10455367211404 479.5961477649885 115.17373552791194 0.0 0.0
837.5163018339252 75.054542442975 452.74021280586413 118.48663685866302 0.0 0.0
796.1157917702325 62.78485749639398 424.91441713571066 121.25808888640981 0.0 0.0
752.8200557025103 50.809143203622185 395.4705025565529 124.2222532118547 0.0 0.0
706.230918626822 38.92367914101085 362.61644745638534 127.21325695212863 0.0 0.0
655.1086877502239 27.782682796607055 324.0497926118748 129.65092247481755 0.0 0.0
592.5136782382201 14.641833000013115 271.9959639030063 132.15588557501547 0.0 0.0
513.0322486850101 1.2275219702425488 205.86656174600813 137.20407097564203 0.0 0.0
413.987800243623 -8.704937179355216 138.67653825666338 147.04565850603532 0.0 0.0
309.08390966470523 -7.958857689652059 92.43229185101424 152.0848336866688 0.0 0.0
225.68258900564098 1.5753962297198383 68.25322751124938 144.41961702112064 0.0 0.0
154.2567334477321 13.748298454201546 50.39962237295593 135.35640467339863 0.0 0.0
80.1800202785248 13.199708561796898 28.0139186520965 138.52213594926027 0.0 0.0
12.828136258925074 -40.188602285736 -8.208139808043278 163.7351336445338 0.0 0.0
-0.49257345819066245 -428.08857622462904 -165.31301718641575 158.98251972879316 0.0 0.0
3.5470437116645286 -384.95139557412267 -134.1533319190106 -155.9180346855157 0.0 0.0
-2.688159894537058 -43.925664909683405 -13.984118747026123 -174.18959959233266 0.0 0.0
43.678884483838175 8.872943386425645 15.765548361079146 -155.38476189460067 0.0 0.0
102.1894142674025 15.081963052087772 35.179756433099925 -151.80942174958108 0.0 0.0
159.54384297544618 4.097616473897855 49.12933501797526 -161.35551061914006 0.0 0.0
224.21317358971794 -3.635920793277644 67.09957880299541 -172.36336571384408 0.0 0.0
314.810479548498 -6.283225461896677 98.86151006445513 -175.69667845209474 0.0 0.0
422.7950859194274 -1.0790278906251687 152.90313776323137 -166.07047306039692 0.0 0.0
514.7021955069615 8.698661882218135 216.45215922039307 -155.37213471815036 0.0 0.0
583.7614784067559 19.845716828824184 272.8948850865513 -148.39673295561374 0.0 0.0
636.5971801994732 27.95039983049277 314.7263748628126 -144.4461557325195 0.0 0.0
679.8959065429522 36.22183062319373 347.21429737747764 -140.65947489425258 0.0 0.0
719.041781016487 44.67767215432468 374.75624370122694 -137.351009208713 0.0 0.0
755.3081844462603 52.542932987552994 398.9392365584244 -134.4706116449045 0.0 0.0
790.2295079816171 59.597357969508614 421.143891641296 -131.26247498239817 0.0 0.0
825.4715999728548 66.92572018230328 443.01953487167765 -126.45694938619644 0.0 0.0
861.1759140476511 74.68161252637036 465.1257882330767 -119.5190343573284 0.0 0.0
891.2083227631127 78.07138482946075 482.2803700483564 -111.01302798226973 0.0 0.0
922.9060607490826 81.28569075074681 499.776865632285 -96.89212480466317 0.0 0.0
970.4787088699186 97.65798035410373 531.2292417247022 -67.47887312125387 0.0 0.0
970.4787088702828 97.65798035452204 531.2292417248293 67.47887312144847 0.0 0.0
922.9060607484954 81.28569075031024 499.7768656318539 96.89212480492975 0.0 0.0
891.2083227622544 78.07138482873367 482.2803700477393 111.01302798254935 0.0 0.0
861.1759140475771 74.68161252653121 465.12578823293586 119.51903435759831 0.0 0.0
825.4715999723196 66.92572018187744 443.01953487129657 126.45694938619746 0.0 0.0
790.2295079809586 59.597357968828135 421.14389164085503 131.2624749822449 0.0 0.0
755.3081844451542 52.54293298640488 398.9392365576696 134.47061164477213 0.0 0.0
719.0417810159971 44.67767215395172 374.7562437008892 137.35100920879523 0.0 0.0
679.8959065423776 36.221830622769886 347.21429737705444 140.65947489422908 0.0 0.0
636.5971801989971 27.950399830165253 314.7263748624489 144.44615573246938 0.0 0.0
583.7614784061877 19.84571682845538 272.8948850861215 148.39673295554022 0.0 0.0
514.7021955067876 8.698661882365698 216.45215922021166 155.37213471817785 0.0 0.0
422.795085918713 -1.079027890888831 152.90313776283554 166.07047306051183 0.0 0.0
314.8104795479934 -6.283225462046762 98.86151006422159 175.69667845198612 0.0 0.0
224.2131735895 -3.6359207933888538 67.09957880288734 172.36336571366485 0.0 0.0
159.5438429752161 4.097616473583981 49.12933501781836 161.35551061895038 0.0 0.0
102.18941426731779 15.081963052054428 35.17975643306533 151.80942174941703 0.0 0.0
43.678884483749044 8.872943386253239 15.765548361000683 155.38476189435727 0.0 0.0
-2.688159894696531 -43.92566490976935 -13.984118747099881 174.1895995921456 0.0 0.0
3.5470437116650295 -384.95139557377917 -134.1533319188141 155.91803468548363 0.0 0.0
0.6998067239580337 -338.48357441511894 -109.29850436530806 -150.94815596732164 0.0 0.0
-20.16074050092713 -48.68246806232152 -20.651237414404434 -180.21436975667314 0.0 0.0
9.846194221531011 6.340888680999003 4.855829028902025 -167.6181904900724 0.0 0.0
51.62975157683737 15.953470686726966 20.273852955568866 -164.5890805317774 0.0 0.0
92.2291059628151 7.570274534674725 29.96878202177442 -173.71879127353122 0.0 0.0
135.2639636236912 -0.505366849400412 40.86572827276016 -188.13196871062746 0.0 0.0
194.48307903297933 -2.614115021904906 59.74146950774984 -197.59960306130284 0.0 0.0
285.22922026750257 -0.0744243958568509 93.72384291346836 -196.02808529674522 0.0 0.0
389.3344913818703 4.364754967995204 142.76575064147158 -184.3165683116316 0.0 0.0
472.14283828084683 10.46336840060231 195.2886743116119 -170.6291108218578 0.0 0.0
531.1456957333231 16.99465229084247 240.53304464317364 -162.38092172371842 0.0 0.0
574.2815453150304 21.091372324258266 274.6238689171667 -157.26489266397567 0.0 0.0
610.5175817058823 26.287465211161233 302.90673777203455 -153.2767904904031 0.0 0.0
642.1647081177678 30.43886854727409 326.07842697410734 -150.07000158532696 0.0 0.0
670.8641945835499 32.56435788322969 345.03410791439916 -146.86392726093408 0.0 0.0
699.4651954119207 33.52593783839147 361.8379412123739 -142.54275173880274 0.0 0.0
731.549581485741 35.18294917035598 379.5321914732837 -135.2959708388509 0.0 0.0
762.729679108391 35.09239083668672 395.8279307700606 -125.23425502963445 0.0 0.0
780.3434816519248 19.066003190310354 397.5341665823646 -112.47717285805584 0.0 0.0
828.5184975849439 23.602960413572774 422.8791458530982 -86.0930441399897 0.0 0.0
828.5184975848821 23.602960413632815 422.8791458531651 86.09304414025613 0.0 0.0
780.3434816518964 19.066003190356412 397.5341665824127 112.47717285829641 0.0 0.0
762.729679108402 35.09239083696221 395.8279307700922 125.23425502999817 0.0 0.0
731.5495814854748 35.18294917021393 379.5321914730836 135.29597083899944 0.0 0.0
699.465195411968 33.52593783858467 361.8379412123805 142.5427517388693 0.0 0.0
670.8641945831292 32.56435788282984 345.03410791412375 146.86392726082647 0.0 0.0
642.1647081170743 30.43886854649196 326.0784269736227 150.0700015853038 0.0 0.0
610.5175817054503 26.28746521089019 302.90673777175397 153.27679049052324 0.0 0.0
574.2815453151588 21.091372324590942 274.623868917165 157.26489266400256 0.0 0.0
531.1456957339936 16.994652291994797 240.53304464357794 162.38092172382184 0.0 0.0
472.14283828084984 10.463368400989026 195.28867431159006 170.62911082181446 0.0 0.0
389.33449138141975 4.3647549677328605 142.7657506411642 184.31656831158858 0.0 0.0
285.22922026737854 -0.07442439525522104 93.72384291355975 196.02808529679584 0.0 0.0
194.48307903303652 -2.6141150211027187 59.74146950800071 197.59960306123583 0.0 0.0
135.26396362384264 -0.5053668488876397 40.86572827295637 188.13196871045335 0.0 0.0
92.22910596279254 7.570274534827457 29.9687820218177 173.7187912733384 0.0 0.0
51.629751576799016 15.953470686711622 20.273852955553163 164.58908053152163 0.0 0.0
9.846194221637218 6.340888681239647 4.8558290290062 167.61819048982179 0.0 0.0
-20.160740500981472 -48.6824680623253 -20.651237414422635 180.21436975654635 0.0 0.0
0.6998067238310703 -338.4835744149344 -109.2985043652354 150.9481559671404 0.0 0.0
-7.820715344478371 -290.0398962000974 -90.82963039407088 -142.29374922661836 0.0 0.0
-37.810346426908595 -53.54641411940324 -27.40427992383816 -183.64356728249814 0.0 0.0
-22.084796532748978 5.07548208579093 -5.102641709180592 -175.6066270110738 0.0 0.0
2.6225577448986805 16.621726006794464 5.77305541963894 -173.1181187914049 0.0 0.0
24.83979315586251 11.162448486051215 10.80647420096665 -181.3141027829064 0.0 0.0
43.50352807161107 3.4977929441380677 14.24584761720605 -196.4126384226824 0.0 0.0
64.96633938088196 -0.03622549277819154 20.15714886518514 -210.19142928917887 0.0 0.0
97.28048270084052 0.07412114920572854 31.01265280234475 -216.31514832115525 0.0 0.0
148.57037827337876 3.066636773235903 49.673351813409994 -209.67797535650578 0.0 0.0
213.27005448851855 4.626195271176044 73.8036782696526 -197.67436898774588 0.0 0.0
273.69352176394614 6.9779660973651545 101.84938899246303 -183.85402238268128 0.0 0.0
322.52592608537515 8.473168713340357 129.32319691174487 -175.69035958575802 0.0 0.0
365.7856417085542 9.458006459993513 156.49020125709274 -170.38576349742306 0.0 0.0
399.31680561634556 8.971170524616312 179.67535096512736 -165.52799711547118 0.0 0.0
425.4107100261825 6.370924880527326 198.4033858206457 -161.33556605604795 0.0 0.0
453.21387907580095 0.6473345900995326 215.09974749049908 -157.52844538055325 0.0 0.0
489.0225543478151 -5.780664659822435 233.06355464985072 -151.44583668067295 0.0 0.0
535.3871891940148 -9.390417346585366 256.3750788215531 -140.92589457266945 0.0 0.0
572.7409115136403 -27.526219545987317 269.68325767014625 -124.79832183166147 0.0 0.0
597.88898204881 -77.35702267052909 257.2817315033372 -108.10904592749947 0.0 0.0
597.8889820486457 -77.35702267070658 257.2817315032531 108.10904592771402 0.0 0.0
572.7409115133979 -27.52621954628671 269.68325766994656 124.79832183204164 0.0 0.0
535.3871891942973 -9.390417346109416 256.3750788217723 140.9258945729974 0.0 0.0
489.022554348111 -5.780664659201165 233.0635546501196 151.44583668091983 0.0 0.0
453.21387907567305 0.6473345900637213 215.0997474904202 157.5284453805227 0.0 0.0
425.41071002614046 6.370924880381338 198.40338582055585 161.33556605593657 0.0 0.0
399.31680561682293 8.9711705250687 179.67535096535647 165.52799711554513 0.0 0.0
365.78564170886875 9.4580064605274 156.4902012573403 170.38576349760228 0.0 0.0
322.5259260848552 8.473168712460243 129.32319691128527 175.6903595857028 0.0 0.0
273.69352176333365 6.977966096369272 101.84938899195498 183.8540223826546 0.0 0.0
213.27005448808694 4.6261952705912925 73.80367826932978 197.67436898764615 0.0 0.0
148.57037827350635 3.0666367738811946 49.673351813622396 209.67797535658252 0.0 0.0
97.28048270099826 0.07412114963516103 31.012652802513937 216.3151483211342 0.0 0.0
64.96633938081938 -0.03622549282585208 20.15714886514967 210.1914292889938 0.0 0.0
43.503528071976554 3.4977929448992775 14.24584761754346 196.41263842241648 0.0 0.0
24.839793156003786 11.16244848652841 10.806474201153089 181.3141027826697 0.0 0.0
2.6225577450170308 16.621726006990997 5.773055419733445 173.11811879123417 0.0 0.0
-22.08479653263291 5.075482085973851 -5.102641709091003 175.60662701090436 0.0 0.0
-37.810346426959384 -53.546414119527846 -27.404279923891742 183.64356728236746 0.0 0.0
-7.820715344604711 -290.0398961998486 -90.82963039403025 142.2937492264851 0.0 0.0
-18.73528660762903 -242.9112857222196 -78.48356441567003 -131.05236722519876 0.0 0.0
-52.762297373145515 -55.22286531412579 -32.39347790581769 -183.47037726207492 0.0 0.0
-52.47280025104044 3.9194964852378655 -14.566500050308678 -179.69198260045985 0.0 0.0
-44.816150010015406 17.175166803039247 -8.294466415405648 -177.12363695303972 0.0 0.0
-41.93004600866797 14.43787861576547 -8.254529417210271 -183.55546322159887 0.0 0.0
-48.75968083840796 7.782381452841132 -12.446041114780177 -197.37663452868156 0.0 0.0
-66.39163226831985 2.7485704804436546 -19.78280050280518 -210.3185638760068 0.0 0.0
-97.41709870676036 0.3413402929374474 -30.931962164696923 -216.44248097237642 0.0 0.0
-148.28985696092974 -3.0224481716211837 -49.5709990288524 -209.69691998399088 0.0 0.0
-213.0512961792479 -4.689044528723439 -73.76112671514224 -197.6418522481439 0.0 0.0
-273.9056690961453 -6.310705008949057 -101.48780818812426 -183.8042583113742 0.0 0.0
-323.655264891521 -7.245392345875366 -129.3493685162273 -175.35714118946612 0.0 0.0
-369.0512836686638 -8.127668667496458 -157.3921297278385 -169.8288980816323 0.0 0.0
-405.19578433983986 -11.035752531356948 -183.07570329868 -165.26095776103537 0.0 0.0
-430.2933037620554 -17.91030666298124 -205.75961590822092 -162.8081986120011 0.0 0.0
-444.7446501849439 -28.558796100935467 -225.0781760154662 -163.08106205072056 0.0 0.0
-438.4270500479275 -41.54450809857687 -236.4111840638803 -164.65272520129818 0.0 0.0
-382.42227713316834 -40.65298468949874 -226.10772371940172 -165.68304238099472 0.0 0.0
-203.90314549264997 -34.29753826163784 -155.37473883418315 -167.6165324822965 0.0 0.0
17.841539145867102 -171.42562682182603 -64.06597744531673 -138.0247508535656 0.0 0.0
17.841539145965555 -171.42562682149918 -64.06597744521588 138.0247508538995 0.0 0.0
-203.90314549269698 -34.29753826173999 -155.3747388342139 167.6165324828313 0.0 0.0
-382.42227713362905 -40.652984690109434 -226.10772371968378 165.683042381253 0.0 0.0
-438.4270500482696 -41.54450809940096 -236.41118406416447 164.65272520148892 0.0 0.0
-444.7446501855304 -28.558796102331115 -225.07817601597586 163.08106205075705 0.0 0.0
-430.29330376199005 -17.91030666330586 -205.75961590823204 162.80819861200484 0.0 0.0
-405.19578433911744 -11.035752530570292 -183.07570329810767 165.26095776113476 0.0 0.0
-369.0512836679184 -8.127668667604937 -157.39212972754558 169.82889808185013 0.0 0.0
-323.65526489139734 -7.245392346567108 -129.34936851626992 175.3571411894897 0.0 0.0
-273.9056690954752 -6.310705008855088 -101.48780818779207 183.8042583113444 0.0 0.0
-213.05129617850855 -4.689044528639233 -73.76112671488335 197.64185224809486 0.0 0.0
-148.28985696069378 -3.0224481721552436 -49.57099902892898 209.69691998410303 0.0 0.0
-97.41709870664572 0.34134029254556 -30.931962164773573 216.44248097240848 0.0 0.0
-66.39163226841126 2.7485704797868333 -19.78280050302145 210.3185638758998 0.0 0.0
-48.75968083806842 7.7823814533810936 -12.446041114514784 197.37663452847397 0.0 0.0
-41.9300460086238 14.437878615802004 -8.254529417186884 183.55546322128333 0.0 0.0
-44.816150009936614 17.17516680296183 -8.294466415407024 177.12363695282423 0.0 0.0
-52.47280025111087 3.919496485037735 -14.566500050392001 179.69198260025507 0.0 0.0
-52.762297373139454 -55.222865314124206 -32.3934779058184 183.47037726190962 0.0 0.0
-18.73528660761625 -242.9112857219562 -78.48356441559052 131.05236722498603 0.0 0.0
-24.462048167709856 -197.9873440401381 -66.73481766235439 -118.17035009808804 0.0 0.0
-65.08327065146233 -53.941035610869164 -35.706937163272755 -179.40188123143216 0.0 0.0
-81.04923559182718 2.873145000940591 -23.454323219077217 -179.695741276457 0.0 0.0
-90.73925828590095 17.39364976222875 -22.000316120421857 -176.67496100494094 0.0 0.0
-107.28879967721701 17.071716348137713 -27.13687769686065 -180.23436234720387 0.0 0.0
-139.4692295783717 11.215627932581196 -39.05718732508802 -190.45466548816424 0.0 0.0
-195.63806935904427 5.247799924701761 -59.333206690748526 -198.56264542060123 0.0 0.0
-285.1670313162066 0.41144979739551424 -93.63322403500038 -196.26546244707134 0.0 0.0
-389.0705050603379 -4.381801868457892 -142.66955497843065 -184.37493411357045 0.0 0.0
-471.9772044855523 -10.368412347367904 -195.1635738669446 -170.5766676135953 0.0 0.0
-530.8381071365079 -16.442423638790622 -240.1965075269183 -162.21471680609994 0.0 0.0
-574.093689614931 -19.96883949131341 -274.1257898177598 -156.76600161182972 0.0 0.0
-611.1806611458827 -25.155910708547317 -302.7321949684947 -152.27320769222632 0.0 0.0
-645.3930568932562 -32.20316520104505 -328.32956560613025 -149.29823439041277 0.0 0.0
-678.0582475390672 -42.528814562952704 -353.0177810909644 -148.59470628231855 0.0 0.0
-708.2782390042964 -56.84369662035188 -377.2582589603297 -150.83483728762388 0.0 0.0
-732.2282314073809 -73.70003407678311 -399.32026953637705 -156.62601511335328 0.0 0.0
-744.5147875059679 -89.5103087587027 -415.2197701864894 -165.79329757233657 0.0 0.0
-781.4395320603377 -144.39365337964048 -461.45320874183847 -174.94758297725784 0.0 0.0
-764.5484168398692 -217.4473769032033 -489.2664500422932 -189.81655836887776 0.0 0.0
-764.5484168400893 -217.4473769035322 -489.2664500424755 189.81655836917318 0.0 0.0
-781.4395320603004 -144.39365337989216 -461.45320874189724 174.9475829776119 0.0 0.0
-744.5147875066361 -89.5103087595457 -415.2197701869294 165.7932975725655 0.0 0.0
-732.2282314070994 -73.70003407674929 -399.3202695362474 156.62601511352472 0.0 0.0
-708.2782390033876 -56.84369661960716 -377.25825895972235 150.83483728764622 0.0 0.0
-678.0582475386229 -42.5288145624461 -353.0177810905627 148.59470628224378 0.0 0.0
-645.3930568939032 -32.203165202013 -328.32956560660284 149.29823439048354 0.0 0.0
-611.1806611458909 -25.155910708921006 -302.7321949685487 152.27320769233205 0.0 0.0
-574.0936896145237 -19.968839490982518 -274.12578981737346 156.76600161174963 0.0 0.0
-530.8381071361774 -16.4424236388193 -240.19650752663733 162.21471680607098 0.0 0.0
-471.97720448537586 -10.368412347711494 -195.1635738667707 170.57666761363302 0.0 0.0
-389.07050506007744 -4.381801868934884 -142.6695549783529 184.37493411367956 0.0 0.0
-285.1670313158104 0.41144979704842743 -93.63322403491763 196.26546244709368 0.0 0.0
-195.63806935877705 5.247799924381432 -59.333206690750885 198.56264542054038 0.0 0.0
-139.46922957829128 11.215627932237426 -39.05718732516469 190.45466548800556 0.0 0.0
-107.28879967711863 17.07171634799341 -27.13687769687717 180.23436234706946 0.0 0.0
-90.73925828565504 17.393649762517786 -22.000316120262912 176.67496100479448 0.0 0.0
-81.04923559176426 2.8731450009654607 -23.45432321905399 179.695741276231 0.0 0.0
-65.08327065143297 -53.94103561084466 -35.706937163257244 179.40188123126939 0.0 0.0
-24.462048167679697 -197.98734403996812 -66.73481766229435 118.17035009796422 0.0 0.0
-26.21531042244238 -156.21914599549578 -54.73033692538144 -104.57975970386171 0.0 0.0
-75.30691803864241 -50.17995752396011 -37.64487806000314 -171.26530908373982 0.0 0.0
-107.83491838907547 1.9901145187900924 -31.748995070244725 -175.48841858537617 0.0 0.0
-134.9287513552205 17.228156476029017 -35.299410612860086 -171.60920128038904 0.0 0.0
-171.0087976848278 18.44846665625065 -45.952694830845886 -171.75320469482608 0.0 0.0
-227.01765542217333 13.394682964122442 -65.23211468473652 -176.15078199396092 0.0 0.0
-314.91788328377515 8.650179828834156 -98.37299943657948 -176.80793178123082 0.0 0.0
-422.32945866232444 1.2860196731439437 -152.7161200954382 -166.46957917688547 0.0 0.0
-514.5615542089866 -8.710637498691987 -216.3735136127034 -155.36330084457782 0.0 0.0
-583.6861484915021 -19.7811215032811 -272.83706564328384 -148.34303997913213 0.0 0.0
-636.3759423508145 -27.5554325760466 -314.48165026773364 -144.30955819408828 0.0 0.0
-679.6164491435683 -35.30598439492282 -346.69029548940443 -140.11973964841053 0.0 0.0
-719.2592917756937 -43.61511041750265 -374.32301723352543 -136.11255575119864 0.0 0.0
-757.5610172500018 -53.58365230075361 -400.4047736504882 -133.13442968762283 0.0 0.0
-796.356913587778 -67.159137859228 -427.6195517106538 -132.33921913495138 0.0 0.0
-834.8334641029646 -85.43127173544636 -456.5934957796511 -134.97366039659553 0.0 0.0
-870.2672092411025 -106.93471444042245 -485.64783433352494 -141.4923566161467 0.0 0.0
-910.4926869405488 -140.86400461205253 -523.2991952012778 -148.88472738031763 0.0 0.0
-954.1974312352482 -191.05402264267616 -570.8942330499816 -156.0426580610565 0.0 0.0
-1030.79714616751 -312.210438124942 -667.476865302445 -167.21891663540157 0.0 0.0
-1030.79714616728 -312.2104381247499 -667.4768653023373 167.2189166355929 0.0 0.0
-954.1974312351243 -191.05402264272578 -570.8942330499153 156.0426580613338 0.0 0.0
-910.4926869408514 -140.86400461262076 -523.2991952015428 148.88472738060736 0.0 0.0
-870.2672092409847 -106.93471444043857 -485.64783433342234 141.49235661625193 0.0 0.0
-834.8334641030365 -85.43127173571412 -456.59349577972824 134.9736603966677 0.0 0.0
-796.3569135874268 -67.15913785906062 -427.61955171045076 132.33921913502397 0.0 0.0
-757.5610172495989 -53.58365230044457 -400.404773650174 133.13442968759227 0.0 0.0
-719.2592917753843 -43.61511041733502 -374.323017233306 136.11255575118577 0.0 0.0
-679.6164491433889 -35.305984394990475 -346.6902954892944 140.1197396484452 0.0 0.0
-636.375942350896 -27.555432576468554 -314.48165026773523 144.30955819409462 0.0 0.0
-583.6861484912184 -19.781121503310303 -272.837065643039 148.3430399790683 0.0 0.0
-514.5615542085927 -8.710637498654517 -216.37351361237873 155.36330084459172 0.0 0.0
-422.32945866135424 1.2860196737529717 -152.7161200948317 166.46957917691105 0.0 0.0
-314.91788328291693 8.650179829384545 -98.37299943611455 176.80793178110397 0.0 0.0
-227.01765542185447 13.394682963942829 -65.23211468469538 176.15078199378465 0.0 0.0
-171.0087976847396 18.44846665596601 -45.95269483090618 171.7532046946556 0.0 0.0
-134.92875135510025 17.22815647598665 -35.29941061284084 171.60920128018978 0.0 0.0
-107.83491838897059 1.990114518878309 -31.748995070188034 175.4884185852733 0.0 0.0
-75.30691803859368 -50.17995752393384 -37.64487805998098 171.26530908362625 0.0 0.0
-26.21531042247401 -156.2191459954201 -54.73033692536822 104.57975970377633 0.0 0.0
-26.970050639460652 -118.31739350478028 -43.586233243272275 -90.69431467231826 0.0 0.0
-84.15636796382475 -44.36752928175865 -38.557169173675014 -159.1092000261764 0.0 0.0
-132.87767578658145 1.3435705334371626 -39.45743964350656 -166.95149533178142 0.0 0.0
-177.3441702316486 16.25649250269027 -48.33104036139556 -162.05267067164962 0.0 0.0
-232.03062558518633 18.472683767847148 -64.34375161931321 -157.9658032851426 0.0 0.0
-309.0498525700426 16.000440428032142 -90.69224529675249 -156.54687863077814 0.0 0.0
-412.8341466044063 10.794979858081343 -137.867420644734 -148.62313745330778 0.0 0.0
-512.653803298726 -1.0884729608133625 -205.63176339884282 -137.42552089761838 0.0 0.0
-592.5269628713743 -14.721553263257334 -272.0123852318012 -132.09350370639172 0.0 0.0
-655.0688155560698 -27.749468892399484 -324.0333857047716 -129.61075458549521 0.0 0.0
-706.0954406242917 -38.660493270282274 -362.45030701716087 -127.1033348287787 0.0 0.0
-752.6615016062957 -50.2097355897358 -395.121552793452 -123.68918210060659 0.0 0.0
-796.1285354069856 -61.86758498694739 -424.4523636761883 -119.91468576097073 0.0 0.0
-838.5189825354963 -75.06760794552378 -453.15809535070787 -116.78635285870641 0.0 0.0
-881.565306565826 -91.35007203325861 -483.2632165400007 -115.7475928291166 0.0 0.0
-927.0213951208814 -113.85479485675967 -517.4753052780372 -118.31961256839548 0.0 0.0
-976.146603135274 -145.41352588659998 -558.0248176869686 -124.16715726066093 0.0 0.0
-1030.3740899504708 -189.1070452991343 -607.3514830278555 -130.58065615510745 0.0 0.0
-1097.1220377083655 -257.0075375340152 -674.7029887942704 -134.70578751925015 0.0 0.0
-1184.378514060601 -378.5604857734621 -778.0340605736762 -142.8062827547933 0.0 0.0
-1184.3785140600598 -378.56048577301294 -778.0340605733641 142.80628275493098 0.0 0.0
-1097.122037707714 -257.0075375335057 -674.7029887938395 134.705787519493 0.0 0.0
-1030.374089949782 -189.1070452985588 -607.3514830273172 130.58065615527698 0.0 0.0
-976.1466031348116 -145.4135258862945 -558.0248176865689 124.16715726077692 0.0 0.0
-927.0213951206063 -113.85479485668455 -517.4753052777497 118.31961256851892 0.0 0.0
-881.5653065661791 -91.35007203377957 -483.26321654018045 115.74759282914857 0.0 0.0
-838.5189825355269 -75.06760794571375 -453.158095350707 116.78635285875663 0.0 0.0
-796.1285354063664 -61.86758498658147 -424.4523636757941 119.91468576110823 0.0 0.0
-752.6615016054527 -50.20973558912728 -395.12155279286424 123.68918210066732 0.0 0.0
-706.0954406235485 -38.66049326971108 -362.45030701664444 127.10333482866716 0.0 0.0
-655.0688155555924 -27.749468892178 -324.0333857044018 129.61075458545912 0.0 0.0
-592.5269628708261 -14.721553263038743 -272.01238523136715 132.0935037063897 0.0 0.0
-512.6538032977622 -1.0884729602010963 -205.63176339814996 137.4255208976685 0.0 0.0
-412.8341466036992 10.794979858329011 -137.86742064432875 148.62313745331988 0.0 0.0
-309.0498525696543 16.00044042790926 -90.69224529666408 156.54687863069654 0.0 0.0
-232.0306255848741 18.472683767942883 -64.34375161919378 157.96580328507278 0.0 0.0
-177.34417023141867 16.25649250286387 -48.33104036127868 162.05267067143996 0.0 0.0
-132.87767578647166 1.3435705333706185 -39.457439643494354 166.951495331595 0.0 0.0
-84.15636796373988 -44.36752928175278 -38.55716917364779 159.10920002599707 0.0 0.0
-26.970050639468724 -118.31739350467815 -43.58623324324406 90.69431467222219 0.0 0.0
-27.621918730455057 -84.78770829386121 -33.72288810729488 -76.51122717469919 0.0 0.0
-92.2919714534793 -37.13710552374369 -38.82872309316689 -143.3535363850645 0.0 0.0
-156.39683226768258 1.0234582631353684 -46.61077994534951 -154.14020394687245 0.0 0.0
-218.21129443372115 14.46889965493185 -61.099597914043116 -148.05032006429894 0.0 0.0
-290.2240962207403 18.213733706731816 -81.94918176547495 -140.35145513142737 0.0 0.0
-383.4716223547679 18.036903334745162 -116.76421047172776 -131.84523207166296 0.0 0.0
-487.29340182492626 9.917255905627304 -177.09796443012695 -119.37641005368242 0.0 0.0
-576.469044718442 -4.548831231796861 -250.23671967486894 -112.5942095507078 0.0 0.0
-648.0215290556973 -20.03693656782025 -312.8014856584802 -111.75961976336227 0.0 0.0
-707.7296791182424 -34.65621192838612 -360.1466152051079 -111.43357605739435 0.0 0.0
-761.262636945441 -49.401635982218586 -398.8099747887994 -109.77612355320518 0.0 0.0
-811.3521098225908 -64.737693410657 -433.53491561366354 -106.8184412888288 0.0 0.0
-858.9523063119138 -80.37410720269713 -466.1526456334451 -103.39625949033761 0.0 0.0
-905.1527845017044 -96.53721134715201 -497.8889371184723 -100.35295173788592 0.0 0.0
-952.4533208352752 -115.57879113791597 -531.3160071691885 -98.96297751401696 0.0 0.0
-1004.697930304249 -143.19575257420667 -571.2887543738266 -100.70189450934186 0.0 0.0
-1065.8228474434186 -183.87839725687485 -622.246692101375 -105.75448113540293 0.0 0.0
-1136.2629344353809 -241.25363037509987 -686.2796365482577 -111.1047834087851 0.0 0.0
-1216.6406095840441 -321.59689089531923 -766.640790525694 -114.5356904870718 0.0 0.0
-1298.3462805099643 -435.380652282181 -863.9768315830237 -124.77011452834589 0.0 0.0
-1298.3462805095464 -435.38065228180574 -863.9768315828348 124.77011452844799 0.0 0.0
-1216.6406095840957 -321.59689089543815 -766.6407905257549 114.53569048719044 0.0 0.0
-1136.2629344351844 -241.2536303750045 -686.2796365481463 111.10478340890181 0.0 0.0
-1065.8228474428815 -183.87839725640487 -622.2466921011066 105.75448113541165 0.0 0.0
-1004.6979303045953 -143.195752574687 -571.2887543741607 100.70189450936881 0.0 0.0
-952.4533208344776 -115.57879113724155 -531.3160071687015 98.96297751407334 0.0 0.0
-905.1527845015223 -96.53721134710588 -497.888937118366 100.35295173785943 0.0 0.0
-858.9523063119408 -80.37410720291646 -466.1526456334132 103.39625949034497 0.0 0.0
-811.3521098221385 -64.73769341039487 -433.53491561336733 106.81844128881448 0.0 0.0
-761.2626369455032 -49.40163598254393 -398.80997478886275 109.77612355320903 0.0 0.0
-707.7296791180648 -34.6562119285128 -360.14661520498885 111.43357605740815 0.0 0.0
-648.0215290559714 -20.036936568415086 -312.80148565858383 111.75961976333869 0.0 0.0
-576.4690447186349 -4.548831232452558 -250.2367196748746 112.59420955073801 0.0 0.0
-487.2934018244174 9.917255905774148 -177.09796442972794 119.37641005360508 0.0 0.0
-383.4716223542383 18.03690333494732 -116.76421047145331 131.84523207151705 0.0 0.0
-290.22409622058336 18.21373370632528 -81.94918176555832 140.3514551312831 0.0 0.0
-218.21129443367266 14.468899654599744 -61.09959791413071 148.05032006420456 0.0 0.0
-156.3968322676061 1.0234582630433184 -46.610779945354764 154.14020394677866 0.0 0.0
-92.29197145339471 -37.13710552384164 -38.8287230931709 143.3535363849684 0.0 0.0
-27.621918730399212 -84.78770829376293 -33.72288810724864 76.51122717465861 0.0 0.0
-28.333483158836692 -56.08134652026709 -25.32444890373113 -61.9157390615043 0.0 0.0
-99.8852733471071 -29.05487115774373 -38.68204335145524 -124.40914999615066 0.0 0.0
-178.6397130034388 0.9195278855497522 -53.31386842954623 -137.14189050104264 0.0 0.0
-256.9380227701368 11.717665437398063 -73.55987625125132 -129.67243826291622 0.0 0.0
-343.8024723252913 18.438047491881907 -98.85187027192461 -118.86617031580008 0.0 0.0
-447.39937580123603 18.063513035346844 -144.1420751418373 -104.61495803067984 0.0 0.0
-544.1185765508428 7.841527505905237 -213.7434567211896 -92.81855707600646 0.0 0.0
-623.1762956641244 -8.279999423875587 -286.0600555005235 -90.73353788010874 0.0 0.0
-690.1181028550777 -23.996019957298202 -342.62293921586934 -92.33274297400925 0.0 0.0
-750.8676600068281 -41.31297682452648 -388.4772318849152 -92.97695582785228 0.0 0.0
-807.6618451533809 -59.85161981593834 -428.91432156201927 -91.85910080903896 0.0 0.0
-861.5672862114486 -79.12221866468273 -466.71660915227164 -89.39322095177302 0.0 0.0
-913.556069155258 -98.76039633367266 -503.1912161624524 -86.55402386961791 0.0 0.0
-963.6866001411984 -118.62271766705052 -538.5944067441342 -83.74992228864598 0.0 0.0
-1014.6922021406062 -140.50784226432495 -575.2229897625357 -81.86228876512902 0.0 0.0
-1073.368668767387 -172.28130683014186 -620.4039979854124 -82.43709536413 0.0 0.0
-1145.0482353046616 -222.17571458999564 -681.0924252556919 -86.1848587765501 0.0 0.0
-1229.9491817987123 -292.95639628794993 -758.9391865742107 -91.26481682147869 0.0 0.0
-1318.8453990297548 -381.74924328339694 -847.8406796847651 -96.52794923841063 0.0 0.0
-1397.1855216100191 -490.75680848920183 -941.488990478588 -111.044405548142 0.0 0.0
-1397.1855216101694 -490.75680848943705 -941.4889904787314 111.04440554830552 0.0 0.0
-1318.845399029084 -381.7492432827786 -847.8406796843144 96.52794923850693 0.0 0.0
-1229.9491817981343 -292.95639628747745 -758.9391865737784 91.26481682167498 0.0 0.0
-1145.0482353044074 -222.17571458988516 -681.0924252553465 86.18485877667283 0.0 0.0
-1073.3686687667823 -172.28130682962083 -620.4039979848782 82.43709536412557 0.0 0.0
-1014.6922021408998 -140.50784226479624 -575.2229897626936 81.86228876523498 0.0 0.0
-963.6866001413982 -118.62271766736835 -538.5944067442339 83.7499222885368 0.0 0.0
-913.5560691552498 -98.76039633378751 -503.1912161624296 86.55402386952906 0.0 0.0
-861.5672862113863 -79.1222186648503 -466.71660915222867 89.39322095181598 0.0 0.0
-807.6618451531917 -59.851619815951004 -428.9143215618614 91.85910080895401 0.0 0.0
-750.8676600063507 -41.31297682427792 -388.47723188455933 92.97695582778529 0.0 0.0
-690.1181028543682 -23.99601995682775 -342.62293921532125 92.33274297397406 0.0 0.0
-623.1762956633298 -8.279999423386545 -286.06005549991545 90.73353788009793 0.0 0.0
-544.1185765504569 7.8415275059724365 -213.7434567208067 92.81855707588826 0.0 0.0
-447.39937580081767 18.063513035329947 -144.14207514160367 104.61495803067524 0.0 0.0
-343.802472324887 18.43804749198749 -98.85187027177878 118.86617031561121 0.0 0.0
-256.9380227698061 11.717665437510083 -73.55987625112499 129.67243826277846 0.0 0.0
-178.63971300326244 0.919527885694301 -53.313868429450785 137.1418905008435 0.0 0.0
-99.88527334699714 -29.054871157800314 -38.68204335143923 124.40914999604817 0.0 0.0
-28.333483158802665 -56.08134652024107 -25.32444890371312 61.915739061463725 0.0 0.0
-28.86022508098931 -32.61880781310301 -18.443709868227693 -46.84064996955779 0.0 0.0
-106.64559248994522 -20.637492158449298 -38.184925394518345 -102.62559570083204 0.0 0.0
-199.7153720578534 0.8861081969366271 -59.648779158275026 -115.94702815783376 0.0 0.0
-294.22815528368324 8.457608281449799 -85.7544635108544 -107.61876212393807 0.0 0.0
-395.91253629389394 18.672695559748405 -116.18583540231239 -94.07356946227918 0.0 0.0
-499.07642667153857 17.00270368680851 -171.71776097927852 -77.26143058496747 0.0 0.0
-584.757823974058 4.095038593164588 -246.33301809500065 -69.32408295460898 0.0 0.0
-658.2812782912063 -10.285634597141737 -312.83391013933294 -70.53979762282061 0.0 0.0
-724.8589202174984 -27.56554459218132 -366.04350666471794 -72.85879960930501 0.0 0.0
-787.6122219979155 -47.933733023456725 -412.09938436583417 -73.95979225531585 0.0 0.0
-847.6370948844797 -69.95936189546397 -454.892293401959 -73.2938084985864 0.0 0.0
-905.7475215909355 -93.23785080163638 -496.3967010688969 -71.40439200733098 0.0 0.0
-962.0524270833591 -117.07559410251554 -536.936816771517 -69.16878765222467 0.0 0.0
-1017.3986854279606 -141.44197211633377 -577.1132807374997 -66.92741042186462 0.0 0.0
-1072.6948804165681 -166.97620036385567 -617.699562713804 -64.70341923435966 0.0 0.0
-1134.225156703707 -201.15797763971605 -665.4850722123617 -63.601875070324105 0.0 0.0
-1214.3848992731037 -257.85944475673915 -733.6817504870094 -65.81023262059949 0.0 0.0
-1311.9294702473712 -340.2328921164787 -823.569370227832 -71.40774016715129 0.0 0.0
-1411.1425024062792 -439.22461914065934 -922.7748781404564 -80.07054098708828 0.0 0.0
-1490.8624592572908 -548.6051208782158 -1017.5347109720472 -99.68572262908077 0.0 0.0
-1490.8624592571116 -548.605120878106 -1017.53471097193 99.68572262921515 0.0 0.0
-1411.1425024059727 -439.2246191404173 -922.774878140229 80.07054098721996 0.0 0.0
-1311.9294702479638 -340.23289211717866 -823.5693702282472 71.40774016732486 0.0 0.0
-1214.3848992734602 -257.85944475721965 -733.681750487255 65.81023262072318 0.0 0.0
-1134.2251567041146 -201.1579776402491 -665.4850722125684 63.601875070387045 0.0 0.0
-1072.6948804170534 -166.97620036453395 -617.6995627140653 64.70341923456739 0.0 0.0
-1017.3986854269214 -141.44197211543442 -577.1132807366154 66.92741042185885 0.0 0.0
-962.0524270821662 -117.07559410147118 -536.9368167705926 69.16878765221368 0.0 0.0
-905.7475215902416 -93.23785080113394 -496.39670106835547 71.40439200730061 0.0 0.0
-847.637094884024 -69.95936189522149 -454.8922934016301 73.2938084985423 0.0 0.0
-787.6122219972001 -47.93373302296468 -412.0993843653613 73.95979225527094 0.0 0.0
-724.8589202174636 -27.565544592476595 -366.0435066646907 72.85879960941183 0.0 0.0
-658.2812782909928 -10.285634597257726 -312.83391013911773 70.53979762284285 0.0 0.0
-584.7578239733662 4.095038593569086 -246.33301809443108 69.32408295452726 0.0 0.0
-499.0764266711195 17.002703686817444 -171.71776097898118 77.26143058496383 0.0 0.0
-395.912536293506 18.672695559656304 -116.18583540220575 94.07356946227085 0.0 0.0
-294.22815528331336 8.457608281639734 -85.75446351069606 107.61876212393804 0.0 0.0
-199.71537205771648 0.8861081968611035 -59.64877915825661 115.94702815766294 0.0 0.0
-106.64559248980882 -20.637492158390852 -38.1849253944599 102.62559570069114 0.0 0.0
-28.86022508090764 -32.61880781301922 -18.443709868178054 46.84064996956633 0.0 0.0
-28.56192212937139 -14.804238466626455 -13.009848178799349 -31.4158383955308 0.0 0.0
-111.67865089494123 -12.303076070659207 -37.19451808968013 -78.19257226868585 0.0 0.0
-219.88509203823688 0.5103350526016479 -65.81242709569055 -90.4736321191061 0.0 0.0
-331.00650595894683 6.20228516602407 -97.46378143402141 -82.14773396962511 0.0 0.0
-443.2198023373311 18.656851883259684 -134.40009623423012 -66.68157777307692 0.0 0.0
-539.9813261170597 13.63317620481713 -199.79937182503227 -52.13998694358815 0.0 0.0
-617.3652700127768 1.3759532367548815 -273.6449964935131 -48.529466680392915 0.0 0.0
-686.8887891157191 -11.796900885462364 -333.7098621116785 -50.52695108415618 0.0 0.0
-754.0174468216519 -31.203340511715027 -385.1381417949141 -53.04773139667748 0.0 0.0
-819.1773168041717 -54.345542585687085 -432.2743075994347 -54.34317548772113 0.0 0.0
-882.7966201943962 -79.8484549087248 -478.0016713707774 -54.07686486620839 0.0 0.0
-944.88298605364 -107.01112138994702 -523.2091874898057 -52.76520909890449 0.0 0.0
-1006.1569336710813 -135.13617416060936 -568.2673958919945 -51.233960422506996 0.0 0.0
-1066.7565168582673 -164.74106455015263 -613.6099661490041 -49.586407702062786 0.0 0.0
-1127.6697456410116 -195.78442989482164 -659.7410835873466 -47.503128528489306 0.0 0.0
-1192.0038773594038 -231.93159463772304 -709.9837590032823 -45.060761550928696 0.0 0.0
-1270.7273467941427 -286.3436660596659 -776.255114984416 -44.99308397048615 0.0 0.0
-1380.8885863984694 -380.1800888410904 -877.997258295846 -50.94883592286424 0.0 0.0
-1496.501635245098 -494.4941031184269 -993.1292857801202 -63.98597888235983 0.0 0.0
-1587.7960138984186 -613.4930441251088 -1098.654596983075 -89.43007342298175 0.0 0.0
-1587.796013897494 -613.4930441241839 -1098.654596982374 89.4300734229638 0.0 0.0
-1496.501635243669 -494.4941031170007 -993.1292857790547 63.985978882356264 0.0 0.0
-1380.8885863975208 -380.1800888402116 -877.9972582951351 50.94883592294208 0.0 0.0
-1270.7273467935695 -286.3436660591916 -776.2551149839052 44.99308397060673 0.0 0.0
-1192.0038773577983 -231.93159463621822 -709.9837590021041 45.060761550932696 0.0 0.0
-1127.669745640298 -195.78442989423186 -659.7410835868459 47.50312852852055 0.0 0.0
-1066.7565168579854 -164.74106455000322 -613.6099661488747 49.586407702002795 0.0 0.0
-1006.1569336710977 -135.13617416080646 -568.2673958919793 51.2339604225176 0.0 0.0
-944.8829860536382 -107.01112139015984 -523.209187489738 52.765209098949484 0.0 0.0
-882.7966201945876 -79.84845490918573 -478.00167137083054 54.076864866275294 0.0 0.0
-819.1773168044238 -54.34554258620777 -432.2743075995628 54.343175487730065 0.0 0.0
-754.0174468214356 -31.20334051176697 -385.1381417947251 53.047731396652964 0.0 0.0
-686.8887891151179 -11.79690088513664 -333.7098621112239 50.526951084123894 0.0 0.0
-617.3652700120717 1.3759532371849268 -273.64499649295044 48.52946668032615 0.0 0.0
-539.9813261165824 13.633176204973239 -199.799371824626 52.139986943521336 0.0 0.0
-443.2198023368302 18.656851883382025 -134.40009623399644 66.68157777309706 0.0 0.0
-331.00650595860384 6.202285166205783 -97.4637814338731 82.14773396955026 0.0 0.0
-219.88509203794567 0.510335052750833 -65.81242709555845 90.47363211900787 0.0 0.0
-111.67865089485703 -12.303076070592624 -37.19451808963489 78.19257226859833 0.0 0.0
-28.561922129315473 -14.80423846661698 -13.009848178779734 31.415838395406965 0.0 0.0
-26.17469579901089 -2.9670946863475227 -8.742537145607521 -16.15588603145607 0.0 0.0
-113.31908593164275 -4.607511373599925 -35.37797919157279 -51.07935395676863 0.0 0.0
-239.3745835750307 -0.28881608005927717 -71.89901989652698 -60.203926282695974 0.0 0.0
-369.23313801313657 5.267611536114853 -109.2278722816954 -53.39410940481987 0.0 0.0
-483.2450126417118 18.683203233031108 -153.4635090164053 -39.29119587318949 0.0 0.0
-569.3221334875803 8.434165480656553 -226.70403940151414 -29.457920428223304 0.0 0.0
-642.5543127899839 0.4831034740876987 -294.55094593348366 -28.884953573544905 0.0 0.0
-710.6983211737299 -13.921296158565774 -350.77035647036405 -30.67488115195096 0.0 0.0
-778.4210867051404 -34.69914826231967 -400.83998364641343 -32.813341764436046 0.0 0.0
-846.2486883621235 -60.51755275473235 -449.6668425451097 -34.073565249419865 0.0 0.0
-913.6363495241353 -89.55559805162476 -498.68900793145497 -34.171257829290184 0.0 0.0
-980.2281703025262 -120.38764103383093 -547.8400480099863 -33.50608115103851 0.0 0.0
-1046.103102815324 -153.22420629507894 -597.4739924928473 -32.585653865973526 0.0 0.0
-1112.563136766448 -188.03284141357472 -648.2871174886577 -31.59839708091398 0.0 0.0
-1180.3664877923475 -225.6605395001478 -701.1195330790679 -30.13992687952325 0.0 0.0
-1249.3501930170573 -266.64370186898617 -756.1644202181874 -27.528810395815935 0.0 0.0
-1322.4916498235198 -315.3375489520164 -816.9309564129635 -24.984008210287715 0.0 0.0
-1418.21243764681 -393.3352066089428 -903.2961215171097 -28.895904206302582 0.0 0.0
-1579.496447747307 -550.5436459957382 -1062.5318807586525 -46.1529657818876 0.0 0.0
-1698.070326705208 -693.644298032279 -1194.057455298173 -79.30994823598115 0.0 0.0
-1698.0703267052663 -693.6442980323524 -1194.0574552982853 79.30994823604186 0.0 0.0
-1579.4964477473554 -550.5436459958482 -1062.5318807587441 46.15296578200471 0.0 0.0
-1418.2124376460363 -393.3352066082317 -903.2961215165167 28.8959042062963 0.0 0.0
-1322.49164982287 -315.3375489514415 -816.9309564123837 24.984008210287854 0.0 0.0
-1249.3501930176087 -266.64370186966494 -756.1644202184552 27.528810395884385 0.0 0.0
-1180.3664877926092 -225.6605395005552 -701.1195330791325 30.139926879593517 0.0 0.0
-1112.5631367663586 -188.03284141363756 -648.2871174884259 31.59839708092717 0.0 0.0
-1046.103102815162 -153.22420629510498 -597.4739924926682 32.585653866031166 0.0 0.0
-980.2281703020734 -120.38764103358481 -547.8400480096697 33.50608115105554 0.0 0.0
-913.6363495232914 -89.55559805099136 -498.68900793087994 34.17125782923202 0.0 0.0
-846.2486883616192 -60.51755275446865 -449.66684254474444 34.073565249372436 0.0 0.0
-778.4210867048669 -34.69914826230221 -400.8399836461857 32.81334176435923 0.0 0.0
-710.6983211735741 -13.921296158692215 -350.77035647017135 30.674881151845575 0.0 0.0
-642.5543127899691 0.4831034737847979 -294.55094593335014 28.88495357351598 0.0 0.0
-569.3221334868903 8.434165481071378 -226.70403940097194 29.457920428165053 0.0 0.0
-483.24501264124683 18.683203233185388 -153.46350901613116 39.291195873175184 0.0 0.0
-369.2331380128951 5.267611535875722 -109.22787228170637 53.39410940480523 0.0 0.0
-239.37458357481583 -0.2888160800526016 -71.89901989646052 60.20392628262978 0.0 0.0
-113.31908593161391 -4.607511373703476 -35.377979191595216 51.079353956721654 0.0 0.0
-26.174695799035977 -2.9670946864398635 -8.74253714564275 16.155886031515852 0.0 0.0
-19.272653224289492 2.680415229809502 -4.977671398343997 -2.293321664143405 0.0 0.0
-108.69760658478401 1.7165958102087693 -32.09430323237257 -20.788241821063387 0.0 0.0
-258.9727937926891 -1.7469806719924215 -78.21593233940445 -24.026762450741074 0.0 0.0
-408.9890606651073 6.93666165943096 -121.42535665979264 -21.684723234079712 0.0 0.0
-517.9902183048493 16.314111728886953 -174.7695242887289 -13.544624484633545 0.0 0.0
-595.6429825690554 5.548599520823537 -250.22222414100483 -9.578207710911702 0.0 0.0
-662.9835470741939 -0.9193816853897374 -311.58060881342755 -9.697732366131943 0.0 0.0
-730.2848123776882 -16.09557480065945 -364.4989122174726 -10.797905804236372 0.0 0.0
-799.0145646456715 -38.30679053192286 -414.13098069126795 -12.171490534035293 0.0 0.0
-869.5077267311137 -66.507968032059 -464.8464188880431 -13.146318532415219 0.0 0.0
-940.7202609952503 -98.69509923933228 -517.1103652878936 -13.57389803143234 0.0 0.0
-1011.7019216216418 -134.02036452115735 -570.6022409364107 -13.511710139977552 0.0 0.0
-1082.6984139502665 -171.0904123915513 -624.8592101564606 -13.290306169229403 0.0 0.0
-1154.9102859635536 -210.93834944859304 -681.0256658640762 -12.940084317281128 0.0 0.0
-1229.4793905106048 -255.09861099473045 -740.4714302665518 -12.221430216972202 0.0 0.0
-1305.6039170713334 -303.47242019717885 -802.7698809004214 -10.711853188071562 0.0 0.0
-1379.5280734873497 -353.54689788554793 -864.7602315111751 -7.995110669344656 0.0 0.0
-1451.5641809808385 -407.5161616760624 -927.5120287958082 -7.009517408336254 0.0 0.0
-1556.272693964896 -504.05769318482777 -1027.4949077339486 -21.790531139447523 0.0 0.0
-1894.930929787019 -859.3979431193109 -1375.3576114081438 -64.43797182677962 0.0 0.0
-1894.9309297862917 -859.3979431186011 -1375.357611407565 64.43797182680179 0.0 0.0
-1556.2726939640884 -504.0576931840526 -1027.4949077332988 21.790531139447257 0.0 0.0
-1451.5641809809683 -407.51616167626383 -927.5120287958664 7.009517408308934 0.0 0.0
-1379.5280734865382 -353.5468978848164 -864.7602315106469 7.995110669299386 0.0 0.0
-1305.6039170704792 -303.47242019643295 -802.7698808998648 10.711853188045374 0.0 0.0
-1229.4793905097345 -255.09861099398262 -740.471430265943 12.221430216968846 0.0 0.0
-1154.9102859623322 -210.93834944751833 -681.0256658631737 12.940084317216542 0.0 0.0
-1082.6984139492856 -171.0904123907367 -624.8592101557323 13.290306169200448 0.0 0.0
-1011.7019216207049 -134.02036452042307 -570.6022409356899 13.51171014001872 0.0 0.0
-940.7202609945516 -98.69509923887466 -517.1103652873613 13.573898031402493 0.0 0.0
-869.5077267310902 -66.50796803228151 -464.84641888797387 13.146318532402795 0.0 0.0
-799.0145646449222 -38.30679053142106 -414.1309806907327 12.171490534072099 0.0 0.0
-730.2848123775416 -16.095574800810503 -364.4989122173488 10.797905804280575 0.0 0.0
-662.9835470741789 -0.91938168569758 -311.58060881335115 9.69773236619611 0.0 0.0
-595.6429825686577 5.5485995209161345 -250.2222241406373 9.578207710964598 0.0 0.0
-517.9902183046372 16.31411172873777 -174.76952428856322 13.544624484719169 0.0 0.0
-408.9890606647127 6.936661659383681 -121.42535665969626 21.68472323412167 0.0 0.0
-258.9727937925096 -1.7469806719887142 -78.2159323393495 24.026762450809397 0.0 0.0
-108.69760658472482 1.7165958101609302 -32.094303232369164 20.788241821001474 0.0 0.0
-19.272653224254466 2.680415229795157 -4.977671398337792 2.2933216641049743 0.0 0.0
SCALARS Strain float 6
LOOKUP_TABLE default
0.010301084713825816 -0.011372648656510526 0.0 -0.006225604894998571 0.0 0.0
0.0021528125701633302 -0.0012103537330783731 0.0 0.001049304345955182 0.0 0.0
0.001756550062457082 -0.0007197841811291683 0.0 -5.564178785175122e-05 0.0 0.0
0.002146840878066606 -0.0009907129699135986 0.0 -0.00018905425100448903 0.0 0.0
0.0031093820041801674 -0.001725248705894411 0.0 -0.00022835185011030323 0.0 0.0
0.005074119591085219 -0.003399645795012507 0.0 -0.00032827671449034423 0.0 0.0
0.008166208125992072 -0.006218379586003575 0.0 -0.0005026220257313696 0.0 0.0
0.012547240705305246 -0.010326195738246557 0.0 -0.000760960868529198 0.0 0.0
0.018296973563532624 -0.015794230107883944 0.0 -0.0011119820906240752 0.0 0.0
0.025423815371271558 -0.022622863456269293 0.0 -0.0015274196250406602 0.0 0.0
0.03393140574818082 -0.030819015154359253 0.0 -0.001956075922173922 0.0 0.0
0.04385542248393468 -0.040421782804520134 0.0 -0.0023916662392252097 0.0 0.0
0.05524196856660952 -0.051481851207584306 0.0 -0.0028419139992842957 0.0 0.0
0.06810675306390726 -0.06401127328603406 0.0 -0.003308069190376406 0.0 0.0
0.08231103511413304 -0.07786590007737981 0.0 -0.0037884652790360074 0.0 0.0
0.09740397348504846 -0.09259640052036833 0.0 -0.004198640672635118 0.0 0.0
0.1125471237501901 -0.1073753296767137 0.0 -0.0043511490704806755 0.0 0.0
0.1265495988394727 -0.12102878920035254 0.0 -0.00400752463026155 0.0 0.0
0.13797855908571277 -0.13214089537819618 0.0 -0.003222312586659948 0.0 0.0
0.14501020143822307 -0.13878311771112095 0.0 -0.003040277001676639 0.0 0.0
0.14501020143821436 -0.13878311771111296 0.0 0.003040277001682301 0.0 0.0
0.13797855908568665 -0.13214089537817175 0.0 0.003222312586679821 0.0 0.0
0.12654959883942912 -0.12102878920031346 0.0 0.004007524630268211 0.0 0.0
0.11254712375013254 -0.10737532967666485 0.0 0.004351149070485949 0.0 0.0
0.09740397348498825 -0.09259640052031104 0.0 0.004198640672626541 0.0 0.0
0.08231103511407228 -0.07786590007731542 0.0 0.003788465279038089 0.0 0.0
0.06810675306384587 -0.0640112732859679 0.0 0.003308069190375851 0.0 0.0
0.05524196856654637 -0.05148185120752169 0.0 0.002841913999284129 0.0 0.0
0.04385542248387467 -0.040421782804461515 0.0 0.0023916662392199917 0.0 0.0
0.033931405748126114 -0.030819015154305962 0.0 0.0019560759221703417 0.0 0.0
0.02542381537122676 -0.022622863456228215 0.0 0.0015274196250350536 0.0 0.0
0.01829697356349702 -0.01579423010785108 0.0 0.001111982090620689 0.0 0.0
0.012547240705278823 -0.0103261957382208 0.0 0.000760960868525784 0.0 0.0
0.008166208125973545 -0.006218379585988254 0.0 0.0005026220257304259 0.0 0.0
0.005074119591074705 -0.0033996457950012937 0.0 0.00032827671448995566 0.0 0.0
0.0031093820041750153 -0.0017252487058908583 0.0 0.0002283518501109416 0.0 0.0
0.002146840878064993 -0.0009907129699133765 0.0 0.00018905425100371187 0.0 0.0
0.0017565500624565633 -0.0007197841811295569 0.0 5.564178785152918e-05 0.0 0.0
0.002152812570161977 -0.0012103537330764302 0.0 -0.0010493043459537943 0.0 0.0
0.010301084713815578 -0.011372648656497094 0.0 0.006225604894967929 0.0 0.0
0.00720847722742016 -0.008650444931910944 0.0 -0.007418398234422696 0.0 0.0
0.001190494407654081 -0.0006151064837170983 0.0 0.00015370625652461056 0.0 0.0
0.0015082305757946578 -0.000551503024376232 0.0 -0.000133675714012238 0.0 0.0
0.0019034375971283927 -0.0008456816100489428 0.0 -0.00043887582875482 0.0 0.0
0.0026697646920109362 -0.0013882825378105368 0.0 -0.0005284201717506432 0.0 0.0
0.004349664535712807 -0.002771053357395914 0.0 -0.0007760052435411835 0.0 0.0
0.007114685488364532 -0.005245025773023437 0.0 -0.0012265168610221533 0.0 0.0
0.011078726702029865 -0.008928546759014555 0.0 -0.001855694310439332 0.0 0.0
0.016287686529709317 -0.013859998837825183 0.0 -0.0026635257129607737 0.0 0.0
0.02271587833351476 -0.020003680503408505 0.0 -0.0035872693357254792 0.0 0.0
0.030339703653543337 -0.027336791478690392 0.0 -0.004533068329334394 0.0 0.0
0.03919233308945719 -0.03589540432466887 0.0 -0.005454548296060652 0.0 0.0
0.04935880797063363 -0.04576266179655386 0.0 -0.0064235279578724325 0.0 0.0
0.060883685644585565 -0.05697981872559632 0.0 -0.007474594938195467 0.0 0.0
0.07365428672338764 -0.06943127088750467 0.0 -0.008550477238168513 0.0 0.0
0.08728583042669429 -0.08273343108867026 0.0 -0.009475965756536975 0.0 0.0
0.10104624766599957 -0.09616129418988484 0.0 -0.009861759257239255 0.0 0.0
0.11386191358872756 -0.10865049198336285 0.0 -0.009283903148923023 0.0 0.0
0.12430463066770238 -0.11875766846607982 0.0 -0.007735930732373775 0.0 0.0
0.13056301201405662 -0.12476548144326793 0.0 -0.005092148089047621 0.0 0.0
0.13056301201404757 -0.12476548144325772 0.0 0.005092148089063164 0.0 0.0
0.12430463066767851 -0.11875766846605318 0.0 0.007735930732405527 0.0 0.0
0.11386191358868897 -0.1086504919833251 0.0 0.009283903148941675 0.0 0.0
0.10104624766595047 -0.09616129418983999 0.0 0.009861759257248304 0.0 0.0
0.08728583042664101 -0.08273343108862541 0.0 0.009475965756529536 0.0 0.0
0.07365428672333285 -0.06943127088745626 0.0 0.008550477238167709 0.0 0.0
0.06088368564453012 -0.056979818725542586 0.0 0.007474594938194468 0.0 0.0
0.04935880797057762 -0.045762661796501014 0.0 0.006423527957869435 0.0 0.0
0.03919233308940359 -0.03589540432461802 0.0 0.005454548296053463 0.0 0.0
0.030339703653494726 -0.027336791478644873 0.0 0.004533068329327261 0.0 0.0
0.022715878333474104 -0.02000368050336898 0.0 0.0035872693357169583 0.0 0.0
0.016287686529677048 -0.013859998837795873 0.0 0.0026635257129571377 0.0 0.0
0.011078726702005937 -0.008928546758991018 0.0 0.0018556943104346413 0.0 0.0
0.007114685488348371 -0.005245025773007006 0.0 0.0012265168610199328 0.0 0.0
0.004349664535703762 -0.002771053357386921 0.0 0.0007760052435387688 0.0 0.0
0.0026697646920068874 -0.0013882825378078723 0.0 0.0005284201717496995 0.0 0.0
0.0019034375971272721 -0.0008456816100488318 0.0 0.00043887582875334896 0.0 0.0
0.0015082305757943282 -0.0005515030243766206 0.0 0.00013367571401257106 0.0 0.0
0.001190494407654119 -0.0006151064837157383 0.0 -0.00015370625652613712 0.0 0.0
0.007208477227407917 -0.008650444931896812 0.0 0.007418398234397661 0.0 0.0
0.00528270039896013 -0.006859052010931649 0.0 -0.006850448429803979 0.0 0.0
0.0007051213193121006 -0.0003943587789339009 0.0 -0.0005312265192853605 0.0 0.0
0.0012099927303945573 -0.00040805449913261516 0.0 -0.00042067160783354485 0.0 0.0
0.0016658522675642648 -0.0007119065960632387 0.0 -0.0006796845858542955 0.0 0.0
0.0022807329566738588 -0.0011137562547007818 0.0 -0.0008087814849915831 0.0 0.0
0.0036491936686824378 -0.002184985139521478 0.0 -0.0011174089665600129 0.0 0.0
0.006066920784617992 -0.004288996434083536 0.0 -0.0017636846869495126 0.0 0.0
0.009593578622904386 -0.007529922165906866 0.0 -0.0027019026843925487 0.0 0.0
0.014244398435770252 -0.011904108845306904 0.0 -0.00387442520123521 0.0 0.0
0.0199648057298408 -0.0173536273747672 0.0 -0.0051945459894871815 0.0 0.0
0.02670938501186005 -0.02382897075460666 0.0 -0.006547124443639862 0.0 0.0
0.03450410397049868 -0.031354806875528496 0.0 -0.00786785425026651 0.0 0.0
0.04344285113913168 -0.04002169767785135 0.0 -0.009223642618415406 0.0 0.0
0.05360530979965819 -0.049904941629005606 0.0 -0.010714796120606523 0.0 0.0
0.06492237805366163 -0.060934427341471586 0.0 -0.012279496596024397 0.0 0.0
0.07708247801422811 -0.07279902463398713 0.0 -0.013621821281134316 0.0 0.0
0.08947187855648751 -0.08488751469002631 0.0 -0.014249400256816758 0.0 0.0
0.10112560206121199 -0.09623014126515628 0.0 -0.013616826032588625 0.0 0.0
0.1106763877840619 -0.10548333926863274 0.0 -0.01127209781622418 0.0 0.0
0.1165633507798813 -0.11116128593642083 0.0 -0.006627520928247754 0.0 0.0
0.11656335077987258 -0.11116128593641239 0.0 0.006627520928274011 0.0 0.0
0.1106763877840405 -0.10548333926861098 0.0 0.01127209781626537 0.0 0.0
0.10112560206117727 -0.09623014126512608 0.0 0.013616826032617158 0.0 0.0
0.08947187855644537 -0.08488751468998235 0.0 0.014249400256829081 0.0 0.0
0.07708247801418125 -0.07279902463394006 0.0 0.0136218212811261 0.0 0.0
0.06492237805361328 -0.06093442734142407 0.0 0.01227949659602312 0.0 0.0
0.053605309799608536 -0.04990494162895853 0.0 0.010714796120603998 0.0 0.0
0.0434428511390825 -0.04002169767780517 0.0 0.009223642618410355 0.0 0.0
0.034504103970451866 -0.03135480687548298 0.0 0.007867854250255102 0.0 0.0
0.026709385011817105 -0.02382897075456536 0.0 0.006547124443628816 0.0 0.0
0.019964805729804774 -0.017353627374733893 0.0 0.005194545989473609 0.0 0.0
0.014244398435741434 -0.011904108845278705 0.0 0.0038744252012275493 0.0 0.0
0.009593578622882876 -0.007529922165887992 0.0 0.0027019026843841387 0.0 0.0
0.006066920784604107 -0.004288996434073544 0.0 0.001763684686944822 0.0 0.0
0.0036491936686748605 -0.002184985139514928 0.0 0.0011174089665562936 0.0 0.0
0.0022807329566710832 -0.0011137562546990054 0.0 0.0008087814849901676 0.0 0.0
0.0016658522675631893 -0.0007119065960630167 0.0 0.0006796845858539624 0.0 0.0
0.0012099927303944602 -0.00040805449913305925 0.0 0.0004206716078320738 0.0 0.0
0.0007051213193124128 -0.0003943587789329295 0.0 0.0005312265192824461 0.0 0.0
0.0052827003989488475 -0.006859052010918902 0.0 0.006850448429783829 0.0 0.0
0.003950658420754635 -0.005513934427160444 0.0 -0.005809893790915344 0.0 0.0
0.00044327751944537447 -0.0002958733487376519 0.0 -0.0011115085205729847 0.0 0.0
0.0009369858480825916 -0.0002960261160552813 0.0 -0.0007977553940788362 0.0 0.0
0.0014212893651801353 -0.0005836331629039959 0.0 -0.0009424233080286559 0.0 0.0
0.0019363000553566934 -0.0008986294358058755 0.0 -0.0010869529188341498 0.0 0.0
0.0030061491089112616 -0.0016793438324469445 0.0 -0.001382128729880694 0.0 0.0
0.005029785772573583 -0.0033736076684178773 0.0 -0.002122304010858972 0.0 0.0
0.008106828079114357 -0.006145222408906692 0.0 -0.003293666980133003 0.0 0.0
0.012183380653779545 -0.009947109381159391 0.0 -0.004736713870446302 0.0 0.0
0.017188746645725964 -0.014693641507322663 0.0 -0.006350319900456619 0.0 0.0
0.023056747520152347 -0.02031240181536198 0.0 -0.007994669280734668 0.0 0.0
0.02980112840214788 -0.026811655585797123 0.0 -0.009606826584133032 0.0 0.0
0.037517388833100324 -0.03428363504692156 0.0 -0.011271267722475886 0.0 0.0
0.046305816014756224 -0.042821140193519014 0.0 -0.013058407440044106 0.0 0.0
0.05614557833668708 -0.05240534452721812 0.0 -0.014928116095329402 0.0 0.0
0.06681329972955181 -0.06281271886514528 0.0 -0.01660270718600887 0.0 0.0
0.0778151058058077 -0.0735440693428302 0.0 -0.017499549987457508 0.0 0.0
0.08831585251241342 -0.08376389753781988 0.0 -0.01689145064364772 0.0 0.0
0.09711184567775058 -0.09229322462919765 0.0 -0.013973192198791728 0.0 0.0
0.1028192162221479 -0.0978107188219246 0.0 -0.007896309975614357 0.0 0.0
0.1028192162221401 -0.0978107188219206 0.0 0.007896309975648441 0.0 0.0
0.09711184567773112 -0.0922932246291781 0.0 0.013973192198839635 0.0 0.0
0.0883158525123825 -0.08376389753778879 0.0 0.016891450643679473 0.0 0.0
0.07781510580577086 -0.07354406934279822 0.0 0.017499549987473162 0.0 0.0
0.06681329972951192 -0.06281271886510797 0.0 0.01660270718600043 0.0 0.0
0.05614557833664449 -0.05240534452717682 0.0 0.014928116095325628 0.0 0.0
0.04630581601471259 -0.04282114019347638 0.0 0.013058407440037945 0.0 0.0
0.03751738883305786 -0.03428363504687981 0.0 0.011271267722469336 0.0 0.0
0.029801128402107413 -0.02681165558576093 0.0 0.009606826584120043 0.0 0.0
0.023056747520115467 -0.020312401815330894 0.0 0.007994669280722455 0.0 0.0
0.01718874664569431 -0.014693641507292465 0.0 0.006350319900441159 0.0 0.0
0.012183380653754433 -0.009947109381139407 0.0 0.004736713870436893 0.0 0.0
0.008106828079095657 -0.006145222408891371 0.0 0.00329366698012562 0.0 0.0
0.005029785772561801 -0.003373607668406775 0.0 0.0021223040108537816 0.0 0.0
0.0030061491089053427 -0.0016793438324413934 0.0 0.0013821287298772245 0.0 0.0
0.0019363000553551668 -0.0008986294358042102 0.0 0.0010869529188324012 0.0 0.0
0.001421289365179157 -0.0005836331629034408 0.0 0.0009424233080272404 0.0 0.0
0.0009369858480824667 -0.00029602611605500373 0.0 0.0007977553940767823 0.0 0.0
0.0004432775194457006 -0.0002958733487364862 0.0 0.0011115085205709863 0.0 0.0
0.003950658420744796 -0.005513934427149501 0.0 0.005809893790899079 0.0 0.0
0.0029511225913585876 -0.0044244603195551235 0.0 -0.004756830578379612 0.0 0.0
0.0002954460901833239 -0.0002492532866665287 0.0 -0.0015623226672432933 0.0 0.0
0.0007061337821377897 -0.00021306201501047894 0.0 -0.001179769032092326 0.0 0.0
0.0011715953217351083 -0.0004639125306824532 0.0 -0.001226043965479956 0.0 0.0
0.0016219126518118784 -0.0007241227471870282 0.0 -0.0013606607098406998 0.0 0.0
0.002435215732701175 -0.0012669231945032777 0.0 -0.0016263356201235424 0.0 0.0
0.004040087382087346 -0.0025335220726556695 0.0 -0.0023246658957978283 0.0 0.0
0.0066258458067655 -0.004791539942715417 0.0 -0.0035905773550308495 0.0 0.0
0.010121421119450753 -0.008008750178242874 0.0 -0.005241530205816192 0.0 0.0
0.014404604150877215 -0.01204331270203518 0.0 -0.007045508847538462 0.0 0.0
0.01939849502929316 -0.01680580467848003 0.0 -0.008879676406746057 0.0 0.0
0.02509960169837879 -0.022285547840224407 0.0 -0.010672457998931129 0.0 0.0
0.031599014097830155 -0.028566296211030018 0.0 -0.012510591196390586 0.0 0.0
0.03901220846601958 -0.03575895072721602 0.0 -0.014498186566482718 0.0 0.0
0.04736300538025741 -0.043885733717269115 0.0 -0.01655754011179994 0.0 0.0
0.05650584909168779 -0.05280051716235157 0.0 -0.018398305121622605 0.0 0.0
0.06607399940163391 -0.06213530074623774 0.0 -0.019517011465348455 0.0 0.0
0.075418865524582 -0.0712352885701466 0.0 -0.019069092318341307 0.0 0.0
0.08354296834826537 -0.07912026370655179 0.0 -0.015920923177096646 0.0 0.0
0.08919713524255103 -0.08459231519834765 0.0 -0.008972244248574013 0.0 0.0
0.0891971352425441 -0.08459231519833921 0.0 0.008972244248610983 0.0 0.0
0.0835429683482478 -0.07912026370653624 0.0 0.01592092317714533 0.0 0.0
0.07541886552455479 -0.07123528857012351 0.0 0.019069092318375613 0.0 0.0
0.06607399940160277 -0.062135300746207545 0.0 0.019517011465365774 0.0 0.0
0.0565058490916541 -0.05280051716231915 0.0 0.018398305121616998 0.0 0.0
0.04736300538022062 -0.043885733717234476 0.0 0.016557540111793112 0.0 0.0
0.039012208465982634 -0.03575895072717916 0.0 0.014498186566477722 0.0 0.0
0.0315990140977945 -0.02856629621099227 0.0 0.012510591196385645 0.0 0.0
0.025099601698344548 -0.022285547840190212 0.0 0.010672457998917861 0.0 0.0
0.019398495029262053 -0.016805804678451164 0.0 0.008879676406732706 0.0 0.0
0.014404604150850486 -0.012043312702011644 0.0 0.007045508847519977 0.0 0.0
0.01012142111942943 -0.00800875017822178 0.0 0.0052415302058053115 0.0 0.0
0.006625845806750019 -0.004791539942698986 0.0 0.0035905773550221065 0.0 0.0
0.004040087382077756 -0.002533522072647232 0.0 0.0023246658957929434 0.0 0.0
0.002435215732696866 -0.001266923194499614 0.0 0.001626335620120739 0.0 0.0
0.0016219126518108307 -0.0007241227471854739 0.0 0.0013606607098388956 0.0 0.0
0.00117159532173447 -0.00046391253068134297 0.0 0.001226043965477902 0.0 0.0
0.0007061337821377967 -0.0002130620150098128 0.0 0.0011797690320905496 0.0 0.0
0.00029544609018336554 -0.00024925328666575153 0.0 0.0015623226672422386 0.0 0.0
0.0029511225913505523 -0.00442446031954584 0.0 0.004756830578368759 0.0 0.0
0.0021768723830469378 -0.003519088321880387 0.0 -0.0038440209646802004 0.0 0.0
0.00020355224042500897 -0.00022348396350230226 0.0 -0.0018960725071055506 0.0 0.0
0.0005108158881208802 -0.00014975893895330383 0.0 -0.0015206339352729081 0.0 0.0
0.0009213438580174538 -0.00034959922371524677 0.0 -0.001504969073088308 0.0 0.0
0.0013235402719329048 -0.0005732352460744439 0.0 -0.0016255701311633508 0.0 0.0
0.0019260634808022925 -0.0009430705690363084 0.0 -0.0018659339609516101 0.0 0.0
0.0031357852220537663 -0.0018184936097556115 0.0 -0.0024777107169153267 0.0 0.0
0.00518426565392896 -0.003521304552719151 0.0 -0.0036614635899320236 0.0 0.0
0.00806987146193297 -0.006108847688479413 0.0 -0.005352026480222816 0.0 0.0
0.011630232644510602 -0.009425128658013593 0.0 -0.00726516695484275 0.0 0.0
0.015749791951430656 -0.013330388311244556 0.0 -0.009181243266143724 0.0 0.0
0.02041659809369102 -0.017796759606382384 0.0 -0.011051128853016623 0.0 0.0
0.025709256461712918 -0.022896022196435606 0.0 -0.01295889771756753 0.0 0.0
0.031748305433461396 -0.0287439724607621 0.0 -0.01499036886729288 0.0 0.0
0.03860217824622074 -0.03540495331830007 0.0 -0.01710865495682279 0.0 0.0
0.04619399821513602 -0.042802231655927336 0.0 -0.019043352022744153 0.0 0.0
0.05427191648514379 -0.05068516124118094 0.0 -0.020284620434393386 0.0 0.0
0.06240923537102154 -0.05862049752305509 0.0 -0.020055904420072823 0.0 0.0
0.06988074132610853 -0.065882211085587 0.0 -0.017078175492025338 0.0 0.0
0.07557192665751351 -0.07139148493254943 0.0 -0.009873114402230487 0.0 0.0
0.07557192665750745 -0.07139148493254677 0.0 0.009873114402267458 0.0 0.0
0.06988074132609286 -0.06588221108557235 0.0 0.01707817549207219 0.0 0.0
0.06240923537099874 -0.058620497523031556 0.0 0.02005590442010885 0.0 0.0
0.054271916485118255 -0.050685161241156074 0.0 0.020284620434411704 0.0 0.0
0.046193998215108056 -0.04280223165590158 0.0 0.01904335202273999 0.0 0.0
0.03860217824618986 -0.035404953318273424 0.0 0.017108654956815017 0.0 0.0
0.03174830543343146 -0.028743972460736344 0.0 0.014990368867286996 0.0 0.0
0.02570925646168426 -0.022896022196408516 0.0 0.012958897717561868 0.0 0.0
0.020416598093663002 -0.01779675960635818 0.0 0.011051128853003356 0.0 0.0
0.015749791951405412 -0.013330388311219243 0.0 0.009181243266130734 0.0 0.0
0.011630232644488592 -0.009425128657991388 0.0 0.0072651669548255415 0.0 0.0
0.008069871461915679 -0.006108847688465646 0.0 0.005352026480211325 0.0 0.0
0.005184265653916914 -0.003521304552708937 0.0 0.0036614635899237524 0.0 0.0
0.003135785222046439 -0.0018184936097491722 0.0 0.002477710716910775 0.0 0.0
0.0019260634807994892 -0.000943070569034532 0.0 0.0018659339609485015 0.0 0.0
0.0013235402719319334 -0.00057323524607511 0.0 0.0016255701311623239 0.0 0.0
0.0009213438580172595 -0.0003495992237160239 0.0 0.0015049690730873644 0.0 0.0
0.0005108158881207969 -0.00014975893895302628 0.0 0.0015206339352706322 0.0 0.0
0.00020355224042495346 -0.00022348396350141408 0.0 0.0018960725071021645 0.0 0.0
0.002176872383040901 -0.0035190883218729242 0.0 0.0038440209646702916 0.0 0.0
0.0015728211845504325 -0.002760609518289908 0.0 -0.0030976086737747877 0.0 0.0
0.0001367357944355857 -0.000207873006105308 0.0 -0.00212855673738116 0.0 0.0
0.000339079660571992 -9.629236558694743e-05 0.0 -0.001800787767343437 0.0 0.0
0.0006750244464850119 -0.00023821513793509386 0.0 -0.0017595058347613934 0.0 0.0
0.0010255091611340583 -0.0004344867356402826 0.0 -0.001882356285762471 0.0 0.0
0.0014705144626503963 -0.0006833997749975396 0.0 -0.002083833761452436 0.0 0.0
0.0023192598556859706 -0.0012313410530437885 0.0 -0.002573563877019347 0.0 0.0
0.0038336039479157785 -0.002393351283112022 0.0 -0.0035828403618563542 0.0 0.0
0.006061327164166325 -0.004303024213883511 0.0 -0.005109031861724456 0.0 0.0
0.008879781811729853 -0.006865899485409388 0.0 -0.006966380068860967 0.0 0.0
0.012125667210808586 -0.009910125120359048 0.0 -0.008882287181870119 0.0 0.0
0.01576790194326637 -0.013369702540340977 0.0 -0.010727496574469753 0.0 0.0
0.01986730119520702 -0.017299671062402044 0.0 -0.01258351423524412 0.0 0.0
0.024543079306980006 -0.021812457192814882 0.0 -0.014546893519342408 0.0 0.0
0.029889604028650776 -0.027000029598765796 0.0 -0.016585570741682765 0.0 0.0
0.035905901589175254 -0.032851266060701434 0.0 -0.018462328983879006 0.0 0.0
0.04243924591022495 -0.039227573006491046 0.0 -0.01976344033782884 0.0 0.0
0.049274490230104925 -0.045911740217725594 0.0 -0.019827729869762944 0.0 0.0
0.05602828026275403 -0.05249398693864826 0.0 -0.017385514092810583 0.0 0.0
0.06180664523905849 -0.05808466444752902 0.0 -0.01058616234072296 0.0 0.0
0.06180664523905388 -0.058084664447525025 0.0 0.0105861623407556 0.0 0.0
0.05602828026274069 -0.05249398693863627 0.0 0.01738551409285699 0.0 0.0
0.049274490230086676 -0.04591174021770961 0.0 0.019827729869797417 0.0 0.0
0.04243924591020512 -0.03922757300647639 0.0 0.019763440337844163 0.0 0.0
0.03590590158915258 -0.03285126606067612 0.0 0.01846232898387179 0.0 0.0
0.029889604028626254 -0.02700002959873382 0.0 0.016585570741673106 0.0 0.0
0.024543079306956872 -0.021812457192791346 0.0 0.014546893519336801 0.0 0.0
0.0198673011951854 -0.017299671062380728 0.0 0.01258351423523818 0.0 0.0
0.015767901943244816 -0.01336970254031944 0.0 0.010727496574456818 0.0 0.0
0.01212566721078906 -0.009910125120340618 0.0 0.008882287181856297 0.0 0.0
0.008879781811712367 -0.006865899485394955 0.0 0.006966380068841982 0.0 0.0
0.006061327164153335 -0.004303024213870854 0.0 0.005109031861713131 0.0 0.0
0.003833603947906994 -0.0023933512831044723 0.0 0.00358284036184936 0.0 0.0
0.0023192598556809885 -0.0012313410530391256 0.0 0.0025735638770152947 0.0 0.0
0.0014705144626487865 -0.0006833997749966514 0.0 0.0020838337614503266 0.0 0.0
0.0010255091611333922 -0.0004344867356401716 0.0 0.001882356285761 0.0 0.0
0.0006750244464848731 -0.00023821513793509386 0.0 0.001759505834759728 0.0 0.0
0.00033907966057178385 -9.629236558694743e-05 0.0 0.0018007877673403838 0.0 0.0
0.00013673579443529427 -0.0002078730061050027 0.0 0.0021285567373789394 0.0 0.0
0.0015728211845460194 -0.0027606095182844907 0.0 0.003097608673766794 0.0 0.0
0.0011120327645853662 -0.0021431481321483037 0.0 -0.0025251178600812496 0.0 0.0
7.342316873518162e-05 -0.0001946190558376748 0.0 -0.0022644396231036035 0.0 0.0
0.00018143668479793373 -4.480193233524776e-05 0.0 -0.002020001904629809 0.0 0.0
0.0004355246149890246 -0.00013062234748384416 0.0 -0.0019733489920103486 0.0 0.0
0.0007187540453503088 -0.0002932124564156702 0.0 -0.0021012202435927163 0.0 0.0
0.0010481250183868446 -0.0004727713551879731 0.0 -0.0023113020474914425 0.0 0.0
0.001592701658370388 -0.0007779241300682749 0.0 -0.0026704210997794964 0.0 0.0
0.0025972689835691287 -0.0014480305919850611 0.0 -0.00340226893516693 0.0 0.0
0.0041505495972110895 -0.0026708435639919426 0.0 -0.004612378356372571 0.0 0.0
0.006183870309296333 -0.004430866148652068 0.0 -0.006191462197515152 0.0 0.0
0.008544515935953068 -0.00658596802616751 0.0 -0.007929009389052277 0.0 0.0
0.011167045606196427 -0.009040381537109177 0.0 -0.009646901506098315 0.0 0.0
0.014090931947068022 -0.011813980553323944 0.0 -0.011362922148190457 0.0 0.0
0.017417513718218536 -0.01500393301023406 0.0 -0.013134121052058079 0.0 0.0
0.021257160876873474 -0.01871521936168863 0.0 -0.014963511008752484 0.0 0.0
0.025669510570152612 -0.022998676860098932 0.0 -0.016679540287292294 0.0 0.0
0.03061306858136416 -0.02781110195174996 0.0 -0.01789552433555691 0.0 0.0
0.03602078471820107 -0.0331176645629192 0.0 -0.018199731959109622 0.0 0.0
0.0418852922610556 -0.03887735502679135 0.0 -0.01667081316841712 0.0 0.0
0.047738373545130094 -0.044539641683232656 0.0 -0.011070714547089189 0.0 0.0
0.0477383735451275 -0.044539641683228215 0.0 0.011070714547117666 0.0 0.0
0.041885292261045565 -0.038877355026784244 0.0 0.016670813168459364 0.0 0.0
0.03602078471818734 -0.033117664562909876 0.0 0.01819973195914265 0.0 0.0
0.030613068581349392 -0.027811101951735306 0.0 0.017895524335569735 0.0 0.0
0.025669510570135723 -0.02299867686008472 0.0 0.01667954028728469 0.0 0.0
0.02125716087685614 -0.018715219361674862 0.0 0.014963511008741048 0.0 0.0
0.0174175137182023 -0.015003933010223847 0.0 0.013134121052051584 0.0 0.0
0.014090931947053631 -0.011813980553311954 0.0 0.011362922148187016 0.0 0.0
0.01116704560618137 -0.009040381537096964 0.0 0.00964690150608788 0.0 0.0
0.008544515935938968 -0.006585968026155742 0.0 0.007929009389039121 0.0 0.0
0.006183870309283829 -0.0044308661486422984 0.0 0.00619146219750083 0.0 0.0
0.00415054959720268 -0.002670843563983949 0.0 0.004612378356364744 0.0 0.0
0.0025972689835632723 -0.0014480305919819525 0.0 0.003402268935163766 0.0 0.0
0.0015927016583675013 -0.0007779241300671647 0.0 0.00267042109977611 0.0 0.0
0.0010481250183858593 -0.00047277135518786206 0.0 0.0023113020474883617 0.0 0.0
0.0007187540453500174 -0.0002932124564167804 0.0 0.002101220243590912 0.0 0.0
0.0004355246149887193 -0.00013062234748384416 0.0 0.0019733489920083225 0.0 0.0
0.00018143668479786434 -4.4801932335858385e-05 0.0 0.002020001904626645 0.0 0.0
7.342316873462651e-05 -0.00019461905583775807 0.0 0.002264439623101272 0.0 0.0
0.0011120327645825767 -0.0021431481321444335 0.0 0.0025251178600776136 0.0 0.0
0.000780322965863986 -0.001674487509976924 0.0 -0.0021364468186712837 0.0 0.0
3.190689857018869e-06 -0.00018217958181232508 0.0 -0.0023423500209646675 0.0 0.0
3.243492156398964e-05 9.650902298874442e-06 0.0 -0.002178869707859854 0.0 0.0
0.00020379056994090927 -2.8076419502642835e-05 0.0 -0.0021393697589636995 0.0 0.0
0.0004053950727263278 -0.00014585874768779927 0.0 -0.0022621483167226397 0.0 0.0
0.000626454381752059 -0.00027520573165795703 0.0 -0.0025071260833496867 0.0 0.0
0.0009411400123362085 -0.0004379191452985598 0.0 -0.002819930274329585 0.0 0.0
0.0014899912607590077 -0.0007322339831887792 0.0 -0.003255950514429118 0.0 0.0
0.002383231197930824 -0.0013103012039481499 0.0 -0.0039833244768537335 0.0 0.0
0.0035978187188282357 -0.0022420289568421126 0.0 -0.005056468790574531 0.0 0.0
0.005041840122341171 -0.003464493337006491 0.0 -0.00638052337970163 0.0 0.0
0.006630060027997681 -0.004890066454884767 0.0 -0.0077991298702879686 0.0 0.0
0.008389418994459955 -0.006509995425081794 0.0 -0.009283236826242713 0.0 0.0
0.010388936942724095 -0.00839157293544579 0.0 -0.010795531419839077 0.0 0.0
0.012723629522664287 -0.010626704201901926 0.0 -0.012332062409326328 0.0 0.0
0.015503711179836857 -0.013314053030911488 0.0 -0.013814406714049043 0.0 0.0
0.018817099813332044 -0.016524570369073288 0.0 -0.014955261087101823 0.0 0.0
0.022717808686830696 -0.020330508685400428 0.0 -0.015325743747004406 0.0 0.0
0.027391288438647493 -0.02499740113579829 0.0 -0.014671050374629846 0.0 0.0
0.033138895104993474 -0.030588893897290248 0.0 -0.011148767717388652 0.0 0.0
0.033138895104992266 -0.030588893897288916 0.0 0.011148767717413799 0.0 0.0
0.027391288438641415 -0.024997401135792074 0.0 0.014671050374666816 0.0 0.0
0.022717808686821578 -0.020330508685390658 0.0 0.015325743747032217 0.0 0.0
0.018817099813321955 -0.016524570369064406 0.0 0.014955261087108984 0.0 0.0
0.015503711179827143 -0.013314053030901274 0.0 0.01381440671404105 0.0 0.0
0.0127236295226541 -0.010626704201893933 0.0 0.01233206240931578 0.0 0.0
0.010388936942715282 -0.008391572935440905 0.0 0.01079553141983508 0.0 0.0
0.008389418994452655 -0.006509995425076465 0.0 0.00928323682624177 0.0 0.0
0.006630060027989049 -0.004890066454875219 0.0 0.007799129870279364 0.0 0.0
0.005041840122333191 -0.0034644933369940567 0.0 0.006380523379690917 0.0 0.0
0.0035978187188211996 -0.002242028956834341 0.0 0.0050564687905623185 0.0 0.0
0.0023832311979265636 -0.0013103012039459294 0.0 0.003983324476847905 0.0 0.0
0.0014899912607561488 -0.0007322339831847824 0.0 0.00325595051442662 0.0 0.0
0.0009411400123346542 -0.00043791914529478504 0.0 0.002819930274327309 0.0 0.0
0.0006264543817516705 -0.0002752057316558476 0.0 0.002507126083346911 0.0 0.0
0.0004053950727260086 -0.00014585874768713314 0.0 0.0022621483167208356 0.0 0.0
0.0002037905699407705 -2.8076419502642835e-05 0.0 0.00213936975896048 0.0 0.0
3.2434921564003516e-05 9.65090229976262e-06 0.0 0.00217886970785669 0.0 0.0
3.1906898567829467e-06 -0.0001821795818122418 0.0 0.0023423500209631687 0.0 0.0
0.0007803229658622096 -0.0016744875099748875 0.0 0.00213644681866787 0.0 0.0
0.0005490092068213548 -0.0013263896906986483 0.0 -0.0018794929701612673 0.0 0.0
-6.762504143198456e-05 -0.00016989703950831547 0.0 -0.0023868791734008576 0.0 0.0
-0.00011037448590665855 6.615057359438126e-05 0.0 -0.002282717421978969 0.0 0.0
-2.0475900402744385e-05 7.051057874540856e-05 0.0 -0.0022503225966342966 0.0 0.0
9.133086035204019e-05 2.286571333720566e-06 0.0 -0.0023596126290326425 0.0 0.0
0.0001941871869363676 -7.169284967045719e-05 0.0 -0.002617896882773252 0.0 0.0
0.00031134432407284307 -0.00014116979856626521 0.0 -0.002976299144419603 0.0 0.0
0.0004850033223550293 -0.00022826880905024716 0.0 -0.003329407852662558 0.0 0.0
0.0007706332812010275 -0.0003680125474809781 0.0 -0.003687206365421636 0.0 0.0
0.0011701164890138699 -0.0005867166329551754 0.0 -0.00416915343035934 0.0 0.0
0.0016580898052079157 -0.0008930480515003669 0.0 -0.004908503566872391 0.0 0.0
0.002186759748614514 -0.0012661151651935931 0.0 -0.005858116330237806 0.0 0.0
0.002768230111996048 -0.001704762413144767 0.0 -0.006989305005036972 0.0 0.0
0.0034336301663124846 -0.0022577035121003064 0.0 -0.008298408216461661 0.0 0.0
0.004254567306454321 -0.0029941972649996096 0.0 -0.00977755955552928 0.0 0.0
0.005378838299303357 -0.004040916376990555 0.0 -0.0113179962200321 0.0 0.0
0.007033288013509498 -0.005600677124833808 0.0 -0.012597742941091616 0.0 0.0
0.009442417669436765 -0.007877673968098797 0.0 -0.013067439943955206 0.0 0.0
0.012761031308460416 -0.011131235409184814 0.0 -0.012436637200084588 0.0 0.0
0.017762633693138297 -0.01620700631137506 0.0 -0.010918742394099568 0.0 0.0
0.01776263369313834 -0.01620700631137595 0.0 0.010918742394117942 0.0 0.0
0.012761031308458043 -0.011131235409183926 0.0 0.012436637200115008 0.0 0.0
0.00944241766943206 -0.007877673968092136 0.0 0.013067439943973136 0.0 0.0
0.007033288013505654 -0.005600677124827591 0.0 0.012597742941093282 0.0 0.0
0.005378838299301539 -0.004040916376989223 0.0 0.01131799622002283 0.0 0.0
0.0042545673064515455 -0.002994197264997389 0.0 0.009777559555519066 0.0 0.0
0.0034336301663108054 -0.0022577035120963096 0.0 0.00829840821645883 0.0 0.0
0.002768230111995576 -0.0017047624131421024 0.0 0.006989305005033586 0.0 0.0
0.002186759748612793 -0.0012661151651955915 0.0 0.005858116330230312 0.0 0.0
0.0016580898052063475 -0.0008930480515030315 0.0 0.004908503566865063 0.0 0.0
0.0011701164890125237 -0.0005867166329565077 0.0 0.004169153430352346 0.0 0.0
0.0007706332812001115 -0.00036801254747809153 0.0 0.003687206365420248 0.0 0.0
0.0004850033223547656 -0.0002282688090484708 0.0 0.003329407852660393 0.0 0.0
0.00031134432407255164 -0.00014116979856626521 0.0 0.0029762991444156617 0.0 0.0
0.00019418718693652026 -7.169284966768164e-05 0.0 0.002617896882769255 0.0 0.0
9.133086035176263e-05 2.2865713356079453e-06 0.0 0.002359612629030061 0.0 0.0
-2.047590040259173e-05 7.051057874607469e-05 0.0 0.002250322596632187 0.0 0.0
-0.00011037448590649201 6.615057359499188e-05 0.0 0.00228271742197686 0.0 0.0
-6.762504143197068e-05 -0.00016989703950878732 0.0 0.0023868791733993033 0.0 0.0
0.0005490092068202862 -0.0013263896906972536 0.0 0.0018794929701596852 0.0 0.0
0.0003883077705553045 -0.0010685680440463419 0.0 -0.0017034459653892386 0.0 0.0
-0.00013238149585995118 -0.00014837578532622686 0.0 -0.0023847441463573926 0.0 0.0
-0.0002464022077919015 0.00012016260015967895 0.0 -0.0023360739546076092 0.0 0.0
-0.00023745601599178823 0.00016558511674702459 0.0 -0.002303140095890166 0.0 0.0
-0.00021930293897431952 0.00014780954535409396 0.0 -0.002392318610773686 0.0 0.0
-0.00024109701785823834 0.00013425033685754428 0.0 -0.002631090516807627 0.0 0.0
-0.00032404056146567717 0.0001571888368843144 0.0 -0.002979837729355006 0.0 0.0
-0.000486476298576774 0.0002304608574197342 0.0 -0.0033317913028440005 0.0 0.0
-0.0007692108581386359 0.00036744424981582924 0.0 -0.0036878396883680553 0.0 0.0
-0.0011684219991286715 0.0005854190642824442 0.0 -0.004167238574329213 0.0 0.0
-0.0016581230484828957 0.0008947146838964581 0.0 -0.004904231316578245 0.0 0.0
-0.0022011593606082874 0.0012806593091010399 0.0 -0.005856403079779859 0.0 0.0
-0.0028116744244190833 0.0017425322602910853 0.0 -0.00699100511258316 0.0 0.0
-0.003497472023938686 0.002298857543598931 0.0 -0.00830313281317313 0.0 0.0
-0.004200981981465665 0.002893055528799149 0.0 -0.009797701499549949 0.0 0.0
-0.0047518905068709705 0.003355127262268276 0.0 -0.011441708672103257 0.0 0.0
-0.004825929869675491 0.003393164385254721 0.0 -0.013208641800576626 0.0 0.0
-0.0040408899404476145 0.002742523969363475 0.0 -0.015091027121453215 0.0 0.0
-0.002094710332523342 0.0013075594873463992 0.0 -0.016690928053625098 0.0 0.0
0.0025220220687403733 -0.0029573221989829257 0.0 -0.014856728507747774 0.0 0.0
0.0025220220687400957 -0.0029573221989815934 0.0 0.014856728507761596 0.0 0.0
-0.0020947103325232586 0.001307559487345955 0.0 0.016690928053641085 0.0 0.0
-0.004040889940446768 0.0027425239693599224 0.0 0.015091027121458322 0.0 0.0
-0.004825929869670842 0.0033931643852471716 0.0 0.01320864180057263 0.0 0.0
-0.00475189050686485 0.0033551272622571737 0.0 0.011441708672092599 0.0 0.0
-0.004200981981460877 0.0028930555287938198 0.0 0.009797701499541067 0.0 0.0
-0.0034974720239336343 0.002298857543598043 0.0 0.008303132813169856 0.0 0.0
-0.002811674424412783 0.0017425322602866444 0.0 0.0069910051125798844 0.0 0.0
-0.0022011593606028473 0.0012806593090943785 0.0 0.0058564030797726985 0.0 0.0
-0.0016581230484773724 0.0008947146838931275 0.0 0.004904231316569585 0.0 0.0
-0.0011684219991245082 0.0005854190642804458 0.0 0.004167238574323384 0.0 0.0
-0.0007692108581360546 0.00036744424981249857 0.0 0.0036878396883672226 0.0 0.0
-0.0004864762985752613 0.00023046085741751376 0.0 0.0033317913028429458 0.0 0.0
-0.0003240405614647196 0.00015718883688142782 0.0 0.002979837729352175 0.0 0.0
-0.00024109701785772486 0.00013425033685932064 0.0 0.002631090516804574 0.0 0.0
-0.00021930293897422237 0.00014780954535420499 0.0 0.002392318610770078 0.0 0.0
-0.00023745601599134414 0.0001655851167465805 0.0 0.00230314009588814 0.0 0.0
-0.0002464022077918876 0.0001201626001589573 0.0 0.0023360739546055553 0.0 0.0
-0.0001323814958599373 -0.00014837578532622686 0.0 0.002384744146355755 0.0 0.0
0.0003883077705548882 -0.0010685680440452143 0.0 0.0017034459653865464 0.0 0.0
0.0002747730017151895 -0.0008531414214555944 0.0 -0.0015362145512751446 0.0 0.0
-0.00019094116597173638 -0.0001185213208794722 0.0 -0.0023321580372072936 0.0 0.0
-0.0003744166198223209 0.0001711557922023932 0.0 -0.002336318762452494 0.0 0.0
-0.0004467274465571325 0.0002560355972689443 0.0 -0.0022965522676823835 0.0 0.0
-0.0005235817464089298 0.0002888738243570499 0.0 -0.002356826723955152 0.0 0.0
-0.0006703250151735285 0.0003357034372317713 0.0 -0.0025540598741767007 0.0 0.0
-0.0009530727535922989 0.00045362580134211683 0.0 -0.0028370851781965856 0.0 0.0
-0.0014910703732617103 0.0007342927621540873 0.0 -0.003261534887831763 0.0 0.0
-0.002380984572500272 0.0013087408486858187 0.0 -0.003983075770291777 0.0 0.0
-0.003595656884725962 0.002240638503326231 0.0 -0.005053842454233126 0.0 0.0
-0.005042941715434596 0.003467987638830161 0.0 -0.006378469264991582 0.0 0.0
-0.006644259604805108 0.0049078829669571 0.0 -0.007792384862748747 0.0 0.0
-0.008430447685994658 0.006552310152348806 0.0 -0.009257915842888487 0.0 0.0
-0.010448227638906196 0.008436376063505335 0.0 -0.010764402404268736 0.0 0.0
-0.012671776021377965 0.010524566334991992 0.0 -0.012395772422177376 0.0 0.0
-0.01491552661092281 0.012630766221752854 0.0 -0.014255308375972997 0.0 0.0
-0.016795362973981806 0.014384865903940725 0.0 -0.016409356848562595 0.0 0.0
-0.017774161306732122 0.015275671573829808 0.0 -0.01875742938234537 0.0 0.0
-0.016933098704815477 0.014158525916451836 0.0 -0.019757699982808574 0.0 0.0
-0.01196905774273252 0.009026533255161784 0.0 -0.017345856175268626 0.0 0.0
-0.011969057742733977 0.009026533255161784 0.0 0.017345856175292163 0.0 0.0
-0.016933098704813354 0.014158525916449172 0.0 0.01975769998283905 0.0 0.0
-0.017774161306725378 0.01527567157381915 0.0 0.018757429382363577 0.0 0.0
-0.016795362973968928 0.014384865903928734 0.0 0.016409356848562928 0.0 0.0
-0.01491552661090896 0.012630766221743528 0.0 0.014255308375963505 0.0 0.0
-0.012671776021365933 0.010524566334982666 0.0 0.012395772422168605 0.0 0.0
-0.010448227638894386 0.008436376063489348 0.0 0.010764402404259021 0.0 0.0
-0.008430447685981321 0.006552310152334595 0.0 0.009257915842881104 0.0 0.0
-0.006644259604792646 0.004907882966946886 0.0 0.007792384862737312 0.0 0.0
-0.005042941715422106 0.003467987638818837 0.0 0.006378469264977482 0.0 0.0
-0.003595656884716178 0.002240638503316461 0.0 0.005053842454221358 0.0 0.0
-0.0023809845724938883 0.0013087408486791574 0.0 0.003983075770285893 0.0 0.0
-0.0014910703732576719 0.0007342927621503126 0.0 0.0032615348878279327 0.0 0.0
-0.0009530727535901895 0.0004536258013398964 0.0 0.002837085178194587 0.0 0.0
-0.0006703250151724321 0.00033570343722999496 0.0 0.0025540598741743137 0.0 0.0
-0.0005235817464082776 0.00028887382435627273 0.0 0.002356826723953903 0.0 0.0
-0.0004467274465566329 0.0002560355972698325 0.0 0.0022965522676808847 0.0 0.0
-0.00037441661982215435 0.0001711557922024487 0.0 0.002336318762450107 0.0 0.0
-0.00019094116597165312 -0.00011852132087941669 0.0 0.0023321580372052675 0.0 0.0
0.0002747730017149952 -0.0008531414214548796 0.0 0.0015362145512735348 0.0 0.0
0.00018534767226910387 -0.0006596772589557431 0.0 -0.0013595368761502025 0.0 0.0
-0.00024478197188335105 -8.148153536186031e-05 0.0 -0.002226252047543592 0.0 0.0
-0.0004944283908572544 0.00021924079297619414 0.0 -0.0022807189410792295 0.0 0.0
-0.0006472286721815601 0.00034122866119745687 0.0 -0.0022295318288091392 0.0 0.0
-0.0008185613926497692 0.00042153534093092304 0.0 -0.0022498353570681306 0.0 0.0
-0.0010865231948021248 0.0005288130205165498 0.0 -0.0023810963360851867 0.0 0.0
-0.0016032616204194328 0.0007939802146363917 0.0 -0.0026964028068011126 0.0 0.0
-0.002596351518120099 0.0014488323999508612 0.0 -0.003410302603395199 0.0 0.0
-0.004147257013708466 0.0026679656030677013 0.0 -0.004608634273113699 0.0 0.0
-0.006182577180809834 0.004429968509533699 0.0 -0.006188539546882144 0.0 0.0
-0.008546985601671692 0.006590159551282504 0.0 -0.00792730199420677 0.0 0.0
-0.011178012193493375 0.009054786735437581 0.0 -0.009631312443216578 0.0 0.0
-0.01412053372040839 0.011846138881554946 0.0 -0.011298517264019092 0.0 0.0
-0.01746186376588013 0.01503876487947764 0.0 -0.013018924876444293 0.0 0.0
-0.02121617923960778 0.018633908033292457 0.0 -0.014975785907045291 0.0 0.0
-0.02519209163994468 0.022438375176708547 0.0 -0.017421307667715547 0.0 0.0
-0.028919341382020403 0.02599364186599029 0.0 -0.020547134404474365 0.0 0.0
-0.03154275474212366 0.0283934429686159 0.0 -0.0237926753107654 0.0 0.0
-0.03142934139339815 0.027997050019542336 0.0 -0.02546070088355845 0.0 0.0
-0.025679478247661605 0.0216585093484718 0.0 -0.02204030201116991 0.0 0.0
-0.025679478247661425 0.021658509348472688 0.0 0.02204030201119822 0.0 0.0
-0.031429341393393886 0.02799705001953834 0.0 0.025460700883596254 0.0 0.0
-0.031542754742111725 0.02839344296860169 0.0 0.023792675310790212 0.0 0.0
-0.02891934138200132 0.02599364186597164 0.0 0.02054713440447764 0.0 0.0
-0.02519209163992374 0.022438375176686787 0.0 0.017421307667706887 0.0 0.0
-0.021216179239588573 0.018633908033274693 0.0 0.014975785907035855 0.0 0.0
-0.017461863765861646 0.015038764879461208 0.0 0.013018924876433413 0.0 0.0
-0.01412053372038835 0.011846138881536294 0.0 0.011298517264010655 0.0 0.0
-0.011178012193473835 0.009054786735418485 0.0 0.009631312443203477 0.0 0.0
-0.008546985601653165 0.006590159551262964 0.0 0.007927301994190061 0.0 0.0
-0.006182577180794402 0.0044299685095192665 0.0 0.00618853954686599 0.0 0.0
-0.00414725701369785 0.0026679656030585974 0.0 0.00460863427310515 0.0 0.0
-0.002596351518113063 0.0014488323999481967 0.0 0.003410302603389981 0.0 0.0
-0.0016032616204156858 0.0007939802146363917 0.0 0.0026964028067973933 0.0 0.0
-0.0010865231948003207 0.0005288130205151065 0.0 0.0023810963360827164 0.0 0.0
-0.0008185613926488394 0.00042153534092947975 0.0 0.0022498353570660212 0.0 0.0
-0.0006472286721810327 0.0003412286611971238 0.0 0.002229531828807002 0.0 0.0
-0.0004944283908569769 0.0002192407929764162 0.0 0.0022807189410780637 0.0 0.0
-0.0002447819718831845 -8.148153536183256e-05 0.0 0.0022262520475421765 0.0 0.0
0.00018534767226881244 -0.0006596772589553372 0.0 0.0013595368761490922 0.0 0.0
0.00010800518692477556 -0.0004857525416998021 0.0 -0.0011790260907401373 0.0 0.0
-0.0002963947921359733 -3.776734070254362e-05 0.0 -0.0020684196003402933 0.0 0.0
-0.0006071433241091884 0.00026516023431588653 0.0 -0.0021700245401011786 0.0 0.0
-0.0008388153775145679 0.00041997794133386 0.0 -0.0021074631288103274 0.0 0.0
-0.0010988002675304809 0.0005429968806571761 0.0 -0.0020728665833617543 0.0 0.0
-0.001502800830463058 0.0007353175155855318 0.0 -0.0021773955371136577 0.0 0.0
-0.0023260168366908696 0.0012462036619087513 0.0 -0.0026087036752759363 0.0 0.0
-0.0038298538071819266 0.0023911057278651615 0.0 -0.003584571122585145 0.0 0.0
-0.00605815410577995 0.004299632303047085 0.0 -0.00510273550459045 0.0 0.0
-0.008880230725701654 0.006866527385395171 0.0 -0.0069643040974461945 0.0 0.0
-0.012129048824159827 0.009914636342336358 0.0 -0.008881310531705211 0.0 0.0
-0.015772960576542955 0.013376974996563984 0.0 -0.010705805324963846 0.0 0.0
-0.01987484313531332 0.017309946167173074 0.0 -0.012487140757072024 0.0 0.0
-0.024553962768298188 0.021820473396634732 0.0 -0.014345308967582127 0.0 0.0
-0.029861410873038313 0.026949053682760127 0.0 -0.01650610459048585 0.0 0.0
-0.035621829610302025 0.03250512661979066 0.0 -0.019353347966664547 0.0 0.0
-0.041216578217115024 0.03785740832369733 0.0 -0.023104993003073226 0.0 0.0
-0.04533572953159824 0.041682064295043286 0.0 -0.02712721630070236 0.0 0.0
-0.045707264598943656 0.041649599470870324 0.0 -0.029332507802606655 0.0 0.0
-0.03845635579864555 0.033774409677830075 0.0 -0.026267907684072445 0.0 0.0
-0.038456355798642955 0.033774409677830075 0.0 0.026267907684103642 0.0 0.0
-0.04570726459893645 0.04164959947086633 0.0 0.029332507802648178 0.0 0.0
-0.04533572953158174 0.04168206429503041 0.0 0.027127216300733115 0.0 0.0
-0.0412165782170905 0.037857408323675124 0.0 0.023104993003079555 0.0 0.0
-0.035621829610275005 0.0325051266197649 0.0 0.019353347966658163 0.0 0.0
-0.029861410873011987 0.026949053682731705 0.0 0.016506104590475912 0.0 0.0
-0.02455396276827243 0.02182047339660853 0.0 0.014345308967570192 0.0 0.0
-0.01987484313528702 0.017309946167149537 0.0 0.01248714075706453 0.0 0.0
-0.015772960576516892 0.013376974996542002 0.0 0.010705805324951467 0.0 0.0
-0.012129048824135513 0.009914636342315708 0.0 0.00888131053168667 0.0 0.0
-0.008880230725680643 0.006866527385376298 0.0 0.0069643040974287085 0.0 0.0
-0.006058154105764893 0.0042996323030344286 0.0 0.005102735504579903 0.0 0.0
-0.0038298538071713933 0.0023911057278591663 0.0 0.003584571122579039 0.0 0.0
-0.002326016836685041 0.0012462036619056427 0.0 0.0026087036752719395 0.0 0.0
-0.001502800830460796 0.0007353175155839775 0.0 0.0021773955371119647 0.0 0.0
-0.0010988002675293151 0.0005429968806570651 0.0 0.0020728665833610327 0.0 0.0
-0.0008388153775139712 0.0004199779413343041 0.0 0.002107463128807996 0.0 0.0
-0.0006071433241085777 0.00026516023431538693 0.0 0.002170024540098847 0.0 0.0
-0.0002963947921355986 -3.7767340702682395e-05 0.0 0.002068419600337962 0.0 0.0
0.00010800518692453964 -0.00048575254169932157 0.0 0.0011790260907388883 0.0 0.0
3.965630094945882e-05 -0.0003319213312126812 0.0 -0.0009946459532710894 0.0 0.0
-0.00034751111434203064 1.0995514201250778e-05 0.0 -0.0018635959730058382 0.0 0.0
-0.0007135714074795185 0.000309603099579725 0.0 -0.0020037087136384746 0.0 0.0
-0.001020528873862947 0.000490844888477282 0.0 -0.0019231821252456704 0.0 0.0
-0.0013644975387163971 0.0006565784501574301 0.0 -0.0018407223812188511 0.0 0.0
-0.0019502790329319897 0.0009858811739484885 0.0 -0.0019614373459634626 0.0 0.0
-0.0031369235696824538 0.0018279753489836015 0.0 -0.0025043810203756456 0.0 0.0
-0.00517918141471474 0.003516672223464523 0.0 -0.003657879405674025 0.0 0.0
-0.008068181009436626 0.006106461106872629 0.0 -0.00534418483638277 0.0 0.0
-0.011632525814403522 0.009427460801900045 0.0 -0.007263317908641598 0.0 0.0
-0.015753405502122925 0.013334457006690004 0.0 -0.009179024877638886 0.0 0.0
-0.02041380812697341 0.017794558689279594 0.0 -0.01102510103984311 0.0 0.0
-0.025687378576741193 0.022876420458445068 0.0 -0.01284707389416806 0.0 0.0
-0.03170961959734267 0.02871046173140801 0.0 -0.014739208292956607 0.0 0.0
-0.038577907491564783 0.03537921125328003 0.0 -0.016932436317146693 0.0 0.0
-0.04612274959345855 0.04268438471895397 0.0 -0.019825487013895304 0.0 0.0
-0.05355043506485166 0.049806539191248334 0.0 -0.023714731386359267 0.0 0.0
-0.059085608611865334 0.054958016209147864 0.0 -0.028147508598990845 0.0 0.0
-0.05970204937774905 0.055092292795738906 0.0 -0.031179367553904103 0.0 0.0
-0.050831877443494364 0.045636469914744016 0.0 -0.030156645705933405 0.0 0.0
-0.05083187744349019 0.045636469914741795 0.0 0.03015664570596649 0.0 0.0
-0.059702049377737945 0.05509229279572736 0.0 0.031179367553944848 0.0 0.0
-0.059085608611844545 0.05495801620912788 0.0 0.028147508599021487 0.0 0.0
-0.0535504350648225 0.04980653919122169 0.0 0.023714731386365706 0.0 0.0
-0.0461227495934258 0.04268438471891889 0.0 0.019825487013888976 0.0 0.0
-0.038577907491531546 0.03537921125325072 0.0 0.016932436317139032 0.0 0.0
-0.031709619597309585 0.02871046173137559 0.0 0.014739208292943728 0.0 0.0
-0.025687378576708747 0.022876420458412206 0.0 0.012847073894157512 0.0 0.0
-0.020413808126940977 0.017794558689249174 0.0 0.011025101039829233 0.0 0.0
-0.01575340550209274 0.013334457006658917 0.0 0.009179024877620623 0.0 0.0
-0.011632525814377417 0.009427460801874288 0.0 0.007263317908623362 0.0 0.0
-0.008068181009417474 0.006106461106851535 0.0 0.00534418483637053 0.0 0.0
-0.0051791814147004595 0.003516672223448536 0.0 0.0036578794056645325 0.0 0.0
-0.003136923569674349 0.0018279753489776063 0.0 0.002504381020368762 0.0 0.0
-0.0019502790329286451 0.0009858811739471562 0.0 0.001961437345959771 0.0 0.0
-0.0013644975387150649 0.0006565784501554317 0.0 0.0018407223812172968 0.0 0.0
-0.0010205288738621351 0.0004908448884757277 0.0 0.001923182125244588 0.0 0.0
-0.000713571407479005 0.00030960309957916987 0.0 0.002003708713637309 0.0 0.0
-0.0003475111143414547 1.0995514200640155e-05 0.0 0.0018635959730045892 0.0 0.0
3.965630094952127e-05 -0.0003319213312123429 0.0 0.000994645953270562 0.0 0.0
-1.9558722658186145e-05 -0.00019991983450748374 0.0 -0.0008049046077995559 0.0 0.0
-0.00039782099497173706 6.257661925912483e-05 0.0 -0.0016173189499499585 0.0 0.0
-0.0008145507516637562 0.00035248264456888556 0.0 -0.0017826877619629422 0.0 0.0
-0.001191773310689287 0.0005542128435213067 0.0 -0.0016854248823673645 0.0 0.0
-0.0016293465598873902 0.000780913969676722 0.0 -0.0015860504459735691 0.0 0.0
-0.002445653420989541 0.0012986975451740879 0.0 -0.001726399177524346 0.0 0.0
-0.0040373517361978195 0.0025373107246655646 0.0 -0.002343505252161815 0.0 0.0
-0.006621995805944719 0.004786963104767672 0.0 -0.00358071297854462 0.0 0.0
-0.010122031584701707 0.008008557460645216 0.0 -0.005234374145866527 0.0 0.0
-0.01440826402769374 0.012046948290261206 0.0 -0.007044358308377796 0.0 0.0
-0.019401165064340115 0.01680830949127743 0.0 -0.0088753560767601 0.0 0.0
-0.02508758694390037 0.022272774715843546 0.0 -0.010642694005158604 0.0 0.0
-0.03154715553536938 0.028516140172066606 0.0 -0.012403950809621311 0.0 0.0
-0.03891935702362284 0.035677549574518075 0.0 -0.014258187487137919 0.0 0.0
-0.047314753771189516 0.04385390770285458 0.0 -0.016300319564020227 0.0 0.0
-0.05657798067269909 0.052845872725533205 0.0 -0.01883360369007525 0.0 0.0
-0.06578002082462178 0.061683388074321055 0.0 -0.02237908076124795 0.0 0.0
-0.07268316173153092 0.06811947220220915 0.0 -0.026948846827874573 0.0 0.0
-0.07354561911801824 0.06844874847402238 0.0 -0.031365625748509984 0.0 0.0
-0.06323413625562754 0.0575752736144719 0.0 -0.03393388148853954 0.0 0.0
-0.0632341362556224 0.05757527361446568 0.0 0.03393388148857329 0.0 0.0
-0.07354561911800322 0.06844874847401083 0.0 0.03136562574855184 0.0 0.0
-0.0726831617315053 0.0681194722021865 0.0 0.026948846827907047 0.0 0.0
-0.06578002082458836 0.06168338807428908 0.0 0.02237908076125711 0.0 0.0
-0.056577980672660705 0.05284587272549812 0.0 0.01883360369007281 0.0 0.0
-0.04731475377114963 0.04385390770281283 0.0 0.01630031956401501 0.0 0.0
-0.03891935702358323 0.03567754957447722 0.0 0.014258187487125623 0.0 0.0
-0.031547155535330475 0.028516140172027526 0.0 0.012403950809610376 0.0 0.0
-0.025087586943861408 0.022272774715804466 0.0 0.01064269400514642 0.0 0.0
-0.01940116506430436 0.016808309491242346 0.0 0.008875356076741642 0.0 0.0
-0.014408264027662945 0.012046948290232562 0.0 0.007044358308360116 0.0 0.0
-0.010122031584678268 0.008008557460625232 0.0 0.005234374145855286 0.0 0.0
-0.006621995805926949 0.004786963104753683 0.0 0.003580712978536349 0.0 0.0
-0.004037351736187043 0.002537310724656461 0.0 0.002343505252154293 0.0 0.0
-0.0024456534209844963 0.001298697545170313 0.0 0.0017263991775212928 0.0 0.0
-0.0016293465598858567 0.0007809139696765 0.0 0.0015860504459711822 0.0 0.0
-0.001191773310688149 0.0005542128435213067 0.0 0.0016854248823658657 0.0 0.0
-0.0008145507516632566 0.00035248264456921863 0.0 0.0017826877619604165 0.0 0.0
-0.00039782099497112644 6.257661925865299e-05 0.0 0.0016173189499486262 0.0 0.0
-1.955872265808206e-05 -0.0001999198345074317 0.0 0.0008049046077990285 0.0 0.0
-6.770734888295049e-05 -9.213813664168957e-05 0.0 -0.0006089284496042513 0.0 0.0
-0.0004449943361202746 0.00011405831603444883 0.0 -0.0013341327441108164 0.0 0.0
-0.0009104328538472595 0.00039347676780887575 0.0 -0.001507311366051839 0.0 0.0
-0.0013557343782175935 0.0006126843571914176 0.0 -0.0013997434031242095 0.0 0.0
-0.0019091325656505898 0.0009222812133776737 0.0 -0.0012942113261132648 0.0 0.0
-0.0029999671313608867 0.0016923841634328696 0.0 -0.0014625582739754284 0.0 0.0
-0.005026348477499276 0.0033723568705474882 0.0 -0.002127326677221153 0.0 0.0
-0.008106938985607909 0.006144137339552547 0.0 -0.0032816991593249134 0.0 0.0
-0.012186460330502163 0.009949524387553366 0.0 -0.004731102147110533 0.0 0.0
-0.017193046239234344 0.014697755560459935 0.0 -0.006349542202311043 0.0 0.0
-0.02305673992929 0.020311762428926183 0.0 -0.007987439830413445 0.0 0.0
-0.02977900369800751 0.02678823955108456 0.0 -0.009575129552447326 0.0 0.0
-0.03744178128494924 0.03420965160903444 0.0 -0.011186124847700762 0.0 0.0
-0.046168131262993684 0.04269622338643009 0.0 -0.012881369355332462 0.0 0.0
-0.05603426682022117 0.052319525533232714 0.0 -0.014653509999316139 0.0 0.0
-0.06687649958570904 0.06287476317259744 0.0 -0.01655838751270422 0.0 0.0
-0.07773589805260658 0.07332404586357288 0.0 -0.019167409011555114 0.0 0.0
-0.08605033557450581 0.08109887210932243 0.0 -0.023504374157186425 0.0 0.0
-0.08742721261111824 0.08188092861174345 0.0 -0.029902168321448597 0.0 0.0
-0.07601088533894086 0.06989688075672573 0.0 -0.03758457178667468 0.0 0.0
-0.07601088533893513 0.06989688075672085 0.0 0.037584571786707655 0.0 0.0
-0.0874272126110998 0.08188092861172658 0.0 0.02990216832148762 0.0 0.0
-0.08605033557447511 0.08109887210928823 0.0 0.023504374157214014 0.0 0.0
-0.07773589805256835 0.07332404586353247 0.0 0.019167409011563163 0.0 0.0
-0.06687649958566472 0.06287476317255081 0.0 0.016558387512703387 0.0 0.0
-0.05603426682017517 0.052319525533183864 0.0 0.014653509999313918 0.0 0.0
-0.04616813126294764 0.042696223386389676 0.0 0.012881369355324634 0.0 0.0
-0.03744178128490382 0.03420965160899536 0.0 0.01118612484769238 0.0 0.0
-0.029779003697962485 0.026788239551043036 0.0 0.009575129552436001 0.0 0.0
-0.02305673992924842 0.02031176242888666 0.0 0.007987439830397208 0.0 0.0
-0.017193046239199018 0.01469775556042796 0.0 0.006349542202296249 0.0 0.0
-0.01218646033047465 0.009949524387525388 0.0 0.004731102147102151 0.0 0.0
-0.008106938985587078 0.006144137339532341 0.0 0.003281699159317031 0.0 0.0
-0.0050263484774857314 0.003372356870537274 0.0 0.002127326677214769 0.0 0.0
-0.0029999671313542184 0.0016923841634276515 0.0 0.0014625582739724585 0.0 0.0
-0.0019091325656481195 0.0009222812133760083 0.0 0.0012942113261126265 0.0 0.0
-0.0013557343782164902 0.0006126843571917506 0.0 0.0013997434031245148 0.0 0.0
-0.0009104328538464893 0.0003934767678082651 0.0 0.0015073113660496185 0.0 0.0
-0.0004449943361197681 0.00011405831603444883 0.0 0.0013341327441089845 0.0 0.0
-6.770734888274232e-05 -9.213813664146753e-05 0.0 0.0006089284496043623 0.0 0.0
-0.00010108848067871823 -1.1663536870876179e-05 0.0 -0.0004084058991419004 0.0 0.0
-0.0004841468632341972 0.00016179437312363598 0.0 -0.0010165034394929162 0.0 0.0
-0.001001472322126551 0.00043109795396389927 0.0 -0.0011761572175483792 0.0 0.0
-0.001518677734142937 0.0006741417296890484 0.0 -0.0010684285371904412 0.0 0.0
-0.0022178613597782226 0.0010999352664016193 0.0 -0.0009706540211287529 0.0 0.0
-0.0036294035047055306 0.002177108461230981 0.0 -0.0011714963709491544 0.0 0.0
-0.00606763353273751 0.004288364906198439 0.0 -0.0017603514482470994 0.0 0.0
-0.009599039764946332 0.0075342486607206105 0.0 -0.0026909172255721314 0.0 0.0
-0.014249676525879662 0.011908958667623093 0.0 -0.0038707888468709206 0.0 0.0
-0.01996885069893925 0.01735725636496066 0.0 -0.005193563439881699 0.0 0.0
-0.026705036921713166 0.023823743428765365 0.0 -0.0065378092890315265 0.0 0.0
-0.03447181117051229 0.03132160458064548 0.0 -0.007838473367943244 0.0 0.0
-0.04335244712163461 0.039933326114187206 0.0 -0.00916692100616362 0.0 0.0
-0.053439904940826316 0.04974968984571149 0.0 -0.010616596778428411 0.0 0.0
-0.06472232387969615 0.0607559333614498 0.0 -0.01206604934622535 0.0 0.0
-0.07694204968261703 0.07267421122061624 0.0 -0.013202609498625839 0.0 0.0
-0.08921439601835474 0.08454774376267826 0.0 -0.014348495229407288 0.0 0.0
-0.09907755878487084 0.09379942691779997 0.0 -0.017800189118258647 0.0 0.0
-0.10150696921159517 0.09553871916330792 0.0 -0.02639975509943676 0.0 0.0
-0.08954939712350839 0.08294950981349514 0.0 -0.04082364227290969 0.0 0.0
-0.08954939712350188 0.0829495098134938 0.0 0.04082364227293489 0.0 0.0
-0.10150696921157319 0.0955387191632937 0.0 0.026399755099468902 0.0 0.0
-0.09907755878483512 0.09379942691776932 0.0 0.01780018911828346 0.0 0.0
-0.08921439601831072 0.0845477437626374 0.0 0.014348495229414504 0.0 0.0
-0.07694204968256671 0.07267421122057449 0.0 0.013202609498625645 0.0 0.0
-0.06472232387964413 0.06075593336140139 0.0 0.012066049346224489 0.0 0.0
-0.05343990494077372 0.04974968984565997 0.0 0.0106165967784215 0.0 0.0
-0.04335244712158255 0.039933326114134804 0.0 0.009166921006156153 0.0 0.0
-0.03447181117046126 0.03132160458059419 0.0 0.007838473367936638 0.0 0.0
-0.026705036921665946 0.023823743428716737 0.0 0.006537809289020119 0.0 0.0
-0.019968850698899525 0.017357256364919138 0.0 0.005193563439868987 0.0 0.0
-0.014249676525848305 0.01190895866759245 0.0 0.003870788846862261 0.0 0.0
-0.00959903976492225 0.007534248660699294 0.0 0.002690917225565137 0.0 0.0
-0.006067633532721457 0.004288364906185782 0.0 0.0017603514482414928 0.0 0.0
-0.003629403504697013 0.0021771084612245417 0.0 0.0011714963709456017 0.0 0.0
-0.0022178613597749544 0.001099935266400065 0.0 0.0009706540211282533 0.0 0.0
-0.0015186777341419239 0.0006741417296893815 0.0 0.001068428537189664 0.0 0.0
-0.001001472322125517 0.0004310979539640103 0.0 0.0011761572175471025 0.0 0.0
-0.00048414686323394393 0.00016179437312377476 0.0 0.0010165034394917782 0.0 0.0
-0.0001010884806784823 -1.1663536870942098e-05 0.0 0.0004084058991402906 0.0 0.0
-0.00011330903124712188 3.754037598519e-05 0.0 -0.00021002651840892894 0.0 0.0
-0.0005066171938104547 0.00020000804081682366 0.0 -0.0006640316014379921 0.0 0.0
-0.001088591163910274 0.0004654663248070401 0.0 -0.0007826510416750476 0.0 0.0
-0.0016912689245240642 0.0007448821270066297 0.0 -0.0006948330387630541 0.0 0.0
-0.0025753217918903504 0.0013392711550401781 0.0 -0.0006332622196864868 0.0 0.0
-0.004323822927288223 0.002748638912471346 0.0 -0.0008014635133906656 0.0 0.0
-0.0071229378923163555 0.005249693581817594 0.0 -0.0012198149416846604 0.0 0.0
-0.011089467865445457 0.008938687917840138 0.0 -0.0018487498031400373 0.0 0.0
-0.016294671940474875 0.013866751503247121 0.0 -0.0026608209918072 0.0 0.0
-0.02271893290029839 0.020006066732974448 0.0 -0.003585929063604998 0.0 0.0
-0.03032995824214263 0.027326196331128205 0.0 -0.0045242525980110915 0.0 0.0
-0.03915075486453087 0.03585384314583817 0.0 -0.005432982978863576 0.0 0.0
-0.04926081079856115 0.045667208195354636 0.0 -0.006394722576919254 0.0 0.0
-0.06070437427956196 0.056806608088224575 0.0 -0.007436013293656396 0.0 0.0
-0.0733607119201129 0.06914641879936978 0.0 -0.008416563111467656 0.0 0.0
-0.08679835830077351 0.08225404167056505 0.0 -0.008968541942301123 0.0 0.0
-0.10010191855534054 0.09519239824496362 0.0 -0.00878513047226026 0.0 0.0
-0.11135004414520544 0.10592035661365973 0.0 -0.009862946197759292 0.0 0.0
-0.11587393053357009 0.10948878658456662 0.0 -0.019561174142938453 0.0 0.0
-0.1044377619792641 0.09726621781919276 0.0 -0.04292476905495307 0.0 0.0
-0.10443776197925572 0.09726621781918388 0.0 0.04292476905497267 0.0 0.0
-0.11587393053354438 0.10948878658454042 0.0 0.019561174142963822 0.0 0.0
-0.11135004414516492 0.10592035661362331 0.0 0.009862946197776779 0.0 0.0
-0.10010191855528952 0.0951923982449161 0.0 0.008785130472262898 0.0 0.0
-0.08679835830071746 0.08225404167050598 0.0 0.008968541942301372 0.0 0.0
-0.07336071192005442 0.06914641879930983 0.0 0.008416563111467545 0.0 0.0
-0.06070437427950327 0.0568066080881664 0.0 0.007436013293653232 0.0 0.0
-0.049260810798502336 0.04566720819529646 0.0 0.006394722576914286 0.0 0.0
-0.03915075486447378 0.035853843145783104 0.0 0.005432982978859746 0.0 0.0
-0.030329958242090144 0.0273261963310798 0.0 0.004524252598001488 0.0 0.0
-0.0227189329002548 0.020006066732933148 0.0 0.0035859290635956165 0.0 0.0
-0.016294671940439858 0.013866751503213148 0.0 0.002660820991801205 0.0 0.0
-0.011089467865418149 0.00893868791781327 0.0 0.00184874980313382 0.0 0.0
-0.0071229378922977905 0.00524969358179872 0.0 0.001219814941680497 0.0 0.0
-0.0043238229272776 0.0027486389124640187 0.0 0.00080146351338789 0.0 0.0
-0.002575321791886232 0.0013392711550378467 0.0 0.0006332622196856263 0.0 0.0
-0.0016912689245227493 0.0007448821270052974 0.0 0.0006948330387630264 0.0 0.0
-0.0010885911639093096 0.0004654663248066515 0.0 0.0007826510416741872 0.0 0.0
-0.0005066171938101216 0.0002000080408162963 0.0 0.0006640316014373815 0.0 0.0
-0.00011330903124705596 3.754037598481877e-05 0.0 0.0002100265184097061 0.0 0.0
-9.291738186864573e-05 4.9777563082997744e-05 0.0 -2.981318163386426e-05 0.0 0.0
-0.0004979214717906744 0.0002197708437767787 0.0 -0.0002702471436738241 0.0 0.0
-0.0011749195994463502 0.0004970481858381781 0.0 -0.00031234791185963395 0.0 0.0
-0.0018924599957712562 0.0008455044844403181 0.0 -0.0002873757575085345 0.0 0.0
-0.0029939051768668734 0.0016410139151374903 0.0 -0.0002620366126476481 0.0 0.0
-0.005052422363794301 0.003371789149415827 0.0 -0.000326396063215606 0.0 0.0
-0.008182704387317441 0.006231737312171415 0.0 -0.0005008570036886817 0.0 0.0
-0.012562096149021429 0.010340337550229783 0.0 -0.0007572451096650168 0.0 0.0
-0.018305384513677553 0.01580247984193983 0.0 -0.0011094863418463774 0.0 0.0
-0.025425378612558253 0.02262365438525582 0.0 -0.001526102561077547 0.0 0.0
-0.03391624828965717 0.030803196838612212 0.0 -0.001951211910642514 0.0 0.0
-0.043805989132386675 0.04037334007822824 0.0 -0.002383326317906498 0.0 0.0
-0.05513927697916143 0.05138198090616486 0.0 -0.0028355845316073713 0.0 0.0
-0.06791611370270353 0.06382236510015105 0.0 -0.0032943985780701235 0.0 0.0
-0.08192246823702823 0.07747236937348445 0.0 -0.0036866762925783503 0.0 0.0
-0.09652320920502591 0.09169951676868804 0.0 -0.0037744065459143217 0.0 0.0
-0.11056956107737462 0.10537389067160641 0.0 -0.00316542636146111 0.0 0.0
-0.12240678640468028 0.11683360166177481 0.0 -0.0019384699646526338 0.0 0.0
-0.12924526329021035 0.12306961270044292 0.0 -0.006592494017640449 0.0 0.0
-0.12236996774854289 0.11411059477991392 0.0 -0.03958566785404993 0.0 0.0
-0.12236996774853266 0.1141105947799077 0.0 0.03958566785405776 0.0 0.0
-0.12924526329018143 0.1230696127004185 0.0 0.006592494017650052 0.0 0.0
-0.12240678640463401 0.11683360166172774 0.0 0.001938469964660905 0.0 0.0
-0.11056956107731583 0.10537389067155178 0.0 0.003165426361458945 0.0 0.0
-0.09652320920496386 0.09169951676863031 0.0 0.003774406545913961 0.0 0.0
-0.08192246823696342 0.07747236937342405 0.0 0.003686676292577712 0.0 0.0
-0.06791611370263805 0.06382236510009198 0.0 0.0032943985780676532 0.0 0.0
-0.05513927697909623 0.051381980906104685 0.0 0.0028355845316045958 0.0 0.0
-0.043805989132323725 0.04037334007817006 0.0 0.00238332631790647 0.0 0.0
-0.033916248289598945 0.030803196838557367 0.0 0.0019512119106370185 0.0 0.0
-0.025425378612510992 0.022623654385208303 0.0 0.0015261025610730783 0.0 0.0
-0.018305384513638903 0.01580247984190475 0.0 0.0011094863418449896 0.0 0.0
-0.012562096148991432 0.01034033755020003 0.0 0.0007572451096636013 0.0 0.0
-0.008182704387296333 0.0062317373121498765 0.0 0.00050085700368796 0.0 0.0
-0.005052422363781927 0.003371789149405169 0.0 0.0003263960632154117 0.0 0.0
-0.0029939051768614194 0.0016410139151324943 0.0 0.0002620366126482865 0.0 0.0
-0.0018924599957694807 0.0008455044844394299 0.0 0.00028737575750906186 0.0 0.0
-0.001174919599445541 0.000497048185837845 0.0 0.00031234791186052213 0.0 0.0
-0.0004979214717903118 0.00021977084377644562 0.0 0.00027024714367301916 0.0 0.0
-9.291738186845838e-05 4.977756308286417e-05 0.0 2.981318163336466e-05 0.0 0.0
SCALARS Statev float 8
LOOKUP_TABLE default
0.0 0.011067474434654565 0.00848597339152849 -0.008869623092759849 0.0003836497012313602 -0.0048294381647505805 0.0 0.0
0.0 0.00043591748921961037 0.0002795671962252444 -0.00022618974115361535 -5.3377455071628994e-05 0.00029137396127037996 0.0 0.0
0.0 3.342380937738801e-05 -4.754075056001044e-06 3.773145031477424e-06 9.809300245235895e-07 5.62033213615258e-07 0.0 0.0
0.0 0.00015546631033600407 8.177978735972224e-05 -6.373771620551413e-05 -1.8042071154208218e-05 -1.1147265789059072e-05 0.0 0.0
0.0 0.000980694566853528 0.0007354503575469443 -0.0005956536426365339 -0.00013979671491041074 -8.149075174203554e-05 0.0 0.0
0.0 0.002687786379869211 0.0024637296999111716 -0.0020969487744246793 -0.0003667809254864928 -0.00020213833440036247 0.0 0.0
0.0 0.005902747620461142 0.005321248367703426 -0.004760537255770575 -0.0005607111119328497 -0.00037547074268574866 0.0 0.0
0.0 0.010637685289093972 0.009467387465581546 -0.00876485660108174 -0.0007025308644998035 -0.0006197916890238968 0.0 0.0
0.0 0.016985978218800026 0.014980837038507609 -0.01416620694010539 -0.0008146300984022145 -0.0009536303817789708 0.0 0.0
0.0 0.024956913277328248 0.02187363055719816 -0.020953640713632378 -0.0009199898435657855 -0.0013563896012003917 0.0 0.0
0.0 0.03457689569827543 0.030151557858674766 -0.02912533952290898 -0.001026218335765784 -0.001779077322031768 0.0 0.0
0.0 0.04560353187680666 0.03985299153851363 -0.038718249594731455 -0.0011347419437821597 -0.002215377518255122 0.0 0.0
0.0 0.05839454265428985 0.05102055181851136 -0.04977600447706088 -0.0012445473414504499 -0.0026685810793214138 0.0 0.0
0.0 0.07296380226354943 0.06366820394014962 -0.062311228698845214 -0.0013569752413043648 -0.0031382498257352467 0.0 0.0
0.0 0.08908657306332032 0.07765634534812738 -0.07618239612222281 -0.0014739492259045295 -0.0036236096840378384 0.0 0.0
0.0 0.10627994250161406 0.0925361296343347 -0.09094106668247093 -0.0015950629518637783 -0.0040425895636184445 0.0 0.0
0.0 0.12355044356493528 0.10747567537520236 -0.10575895431192561 -0.0017167210632767532 -0.004210359149869397 0.0 0.0
0.0 0.1395145287000341 0.1212930229185998 -0.1194598313987513 -0.0018331915198484495 -0.0038883100439138793 0.0 0.0
0.0 0.15252974928542767 0.1325645258545931 -0.13062589976101385 -0.0019386260935792573 -0.0031211401481568736 0.0 0.0
0.0 0.16030302882787825 0.13943691294258925 -0.13737076134071677 -0.0020661516018724265 -0.0029090849322965344 0.0 0.0
0.0 0.16030302882786873 0.13943691294258082 -0.13737076134070858 -0.0020661516018722257 0.0029090849323015087 0.0 0.0
0.0 0.15252974928539872 0.1325645258545677 -0.13062589976098898 -0.0019386260935787395 0.0031211401481745483 0.0 0.0
0.0 0.13951452869998643 0.12129302291855801 -0.11945983139871083 -0.0018331915198471294 0.003888310043920668 0.0 0.0
0.0 0.12355044356487403 0.10747567537514881 -0.10575895431187327 -0.0017167210632755077 0.004210359149874636 0.0 0.0
0.0 0.10627994250154647 0.09253612963427596 -0.09094106668241281 -0.0015950629518631694 0.0040425895636105914 0.0 0.0
0.0 0.08908657306324856 0.07765634534806529 -0.07618239612216063 -0.001473949225904651 0.0036236096840389655 0.0 0.0
0.0 0.07296380226347624 0.06366820394008636 -0.06231122869878196 -0.0013569752413043952 0.0031382498257344063 0.0 0.0
0.0 0.058394542654217736 0.05102055181844869 -0.04977600447699891 -0.001244547341449769 0.0026685810793211384 0.0 0.0
0.0 0.04560353187673881 0.03985299153845446 -0.0387182495946733 -0.0011347419437811557 0.0022153775182503547 0.0 0.0
0.0 0.034576895698214094 0.030151557858621145 -0.02912533952285599 -0.0010262183357651435 0.0017790773220290367 0.0 0.0
0.0 0.02495691327727936 0.02187363055715554 -0.020953640713590613 -0.0009199898435649252 0.0013563896011951323 0.0 0.0
0.0 0.016985978218761844 0.01498083703847375 -0.014166206940072265 -0.0008146300984014896 0.0009536303817774221 0.0 0.0
0.0 0.010637685289065538 0.009467387465555924 -0.008764856601056775 -0.0007025308644991504 0.0006197916890217641 0.0 0.0
0.0 0.005902747620443186 0.005321248367686842 -0.004760537255754858 -0.0005607111119319809 0.00037547074268482654 0.0 0.0
0.0 0.002687786379858391 0.002463729699900797 -0.0020969487744153205 -0.0003667809254854756 0.00020213833439950855 0.0 0.0
0.0 0.000980694566848705 0.0007354503575431122 -0.0005956536426333172 -0.00013979671490979483 8.149075174160139e-05 0.0 0.0
0.0 0.00015546631033478073 8.177978735956145e-05 -6.373771620538092e-05 -1.8042071154180558e-05 1.11472657889925e-05 0.0 0.0
0.0 3.342380937687491e-05 -4.754075055922566e-06 3.7731450314146314e-06 9.80930024507978e-07 -5.620332136057866e-07 0.0 0.0
0.0 0.0004359174892176124 0.00027956719622421975 -0.00022618974115278396 -5.337745507143591e-05 -0.00029137396126902737 0.0 0.0
0.0 0.011067474434637644 0.00848597339151705 -0.008869623092747417 0.000383649701230366 0.004829438164725254 0.0 0.0
0.0 0.00799956703757823 0.005750189354416547 -0.006232251893023287 0.0004820625386067384 -0.005454992026203121 0.0 0.0
0.0 9.735811856412316e-08 -9.785169814275069e-09 7.955171207828274e-09 1.8299986064463344e-09 -7.27040002772591e-09 0.0 0.0
0.0 9.430826945183483e-08 -1.020951514236367e-08 7.758883502814768e-09 2.450631639548195e-09 3.6392644398315674e-09 0.0 0.0
0.0 4.47180949749068e-05 1.1428941994232553e-05 -8.936524185367737e-06 -2.4924178088650505e-06 -5.429398115667106e-06 0.0 0.0
0.0 0.0006111315026312454 0.00041033245242377153 -0.0003289035118288858 -8.142894059488569e-05 -0.00011121065431609909 0.0 0.0
0.0 0.001990811079432074 0.0018274186241248286 -0.001531578314298616 -0.0002958403098262122 -0.00040265885463865094 0.0 0.0
0.0 0.0048195268473811 0.0043444946572760365 -0.0038361688878586647 -0.00050832576941737 -0.0008475637725200406 0.0 0.0
0.0 0.009076523255063248 0.008072564589332152 -0.007405991473544058 -0.0006665731157880946 -0.0014553302701217985 0.0 0.0
0.0 0.014800494207734334 0.013049161816983849 -0.012264714956524224 -0.000784446860459625 -0.002236952259294187 0.0 0.0
0.0 0.021961141404692193 0.01925023334891898 -0.0183622372408225 -0.000887996108096482 -0.003144167330342858 0.0 0.0
0.0 0.030530630237064857 0.02665411226178519 -0.025665710297373738 -0.0009884019644114373 -0.004087553482784705 0.0 0.0
0.0 0.04058895016012573 0.03529311694554941 -0.03420483846946122 -0.0010882784760881921 -0.005016873159976348 0.0 0.0
0.0 0.051939309502889885 0.04525258104208922 -0.044063397508520986 -0.001189183533568223 -0.005997715894340028 0.0 0.0
0.0 0.06492637885864475 0.056571943448320595 -0.055279418118096287 -0.0012925253302242885 -0.00706093947315844 0.0 0.0
0.0 0.07941770731730263 0.06913802970329819 -0.0677385853108762 -0.0013994443924219848 -0.008151256629214837 0.0 0.0
0.0 0.09489791819410336 0.08256854630843485 -0.08105889429920916 -0.0015096520092256862 -0.009099059370148722 0.0 0.0
0.0 0.11053844107278271 0.09613624393017933 -0.0945154571871629 -0.0016207867430164322 -0.0095190482784032 0.0 0.0
0.0 0.12511472597485795 0.10877393793977862 -0.10704428631287813 -0.0017296516269004751 -0.008984323753929744 0.0 0.0
0.0 0.13695237103249266 0.11905276052262562 -0.1172119648451511 -0.0018407956774745386 -0.00747621534063383 0.0 0.0
0.0 0.14400369829794318 0.12519757391054803 -0.12327405915947551 -0.0019235147510725367 -0.004878020224362588 0.0 0.0
0.0 0.14400369829793233 0.12519757391053862 -0.12327405915946574 -0.0019235147510728934 0.004878020224378762 0.0 0.0
0.0 0.13695237103246416 0.1190527605226007 -0.11721196484512576 -0.001840795677474972 0.007476215340663139 0.0 0.0
0.0 0.12511472597481454 0.10877393793974045 -0.1070442863128404 -0.001729651626900024 0.008984323753947726 0.0 0.0
0.0 0.11053844107272887 0.09613624393013222 -0.09451545718711653 -0.0016207867430155973 0.009519048278412646 0.0 0.0
0.0 0.09489791819404672 0.08256854630838517 -0.08105889429916129 -0.0015096520092238816 0.009099059370141913 0.0 0.0
0.0 0.0794177073172434 0.06913802970324608 -0.06773858531082588 -0.0013994443924201848 0.008151256629214024 0.0 0.0
0.0 0.06492637885858216 0.05657194344826599 -0.0552794181180427 -0.001292525330223275 0.007060939473156525 0.0 0.0
0.0 0.05193930950282757 0.04525258104203493 -0.0440633975084674 -0.0011891835335675284 0.005997715894337991 0.0 0.0
0.0 0.040588950160066126 0.035293116945497666 -0.03420483846940975 -0.0010882784760879007 0.00501687315996913 0.0 0.0
0.0 0.030530630237011212 0.026654112261738472 -0.025665710297327622 -0.0009884019644108447 0.004087553482778152 0.0 0.0
0.0 0.02196114140464695 0.019250233348879438 -0.018362237240783424 -0.00088799610809601 0.003144167330333833 0.0 0.0
0.0 0.014800494207700361 0.013049161816953505 -0.012264714956494538 -0.0007844468604589608 0.002236952259290051 0.0 0.0
0.0 0.009076523255037244 0.008072564589308898 -0.0074059914735215525 -0.0006665731157873474 0.0014553302701172607 0.0 0.0
0.0 0.00481952684736396 0.004344494657260241 -0.0038361688878438193 -0.0005083257694164218 0.0008475637725172124 0.0 0.0
0.0 0.0019908110794226263 0.0018274186241163024 -0.0015315783142910882 -0.0002958403098252138 0.00040265885463665514 0.0 0.0
0.0 0.0006111315026273709 0.0004103324524211304 -0.00032890351182670484 -8.142894059442557e-05 0.00011121065431534395 0.0 0.0
0.0 4.4718094974359866e-05 1.1428941994377754e-05 -8.936524185477705e-06 -2.4924178088999114e-06 5.429398115714824e-06 0.0 0.0
0.0 9.430826938068039e-08 -1.0209515134588993e-08 7.758883496907494e-09 2.4506316376819497e-09 -3.6392644370560787e-09 0.0 0.0
0.0 9.735811846572097e-08 -9.78516980428818e-09 7.9551711997036e-09 1.8299986045861706e-09 7.270400020323914e-09 0.0 0.0
0.0 0.007999567037559075 0.00575018935440382 -0.0062322518930098 0.0004820625386059811 0.005454992026181377 0.0 0.0
0.0 0.005937184437149556 0.0040290075107792265 -0.004520260601621014 0.0004912530908417883 -0.00470416170099881 0.0 0.0
0.0 0.0 0.0 0.0 0.0 0.0 0.0 0.0
0.0 0.0 0.0 0.0 0.0 0.0 0.0 0.0
0.0 6.2197515042985685e-06 2.753453360006888e-06 -2.140613268894043e-06 -6.128400911128661e-07 -1.9444608113224447e-06 0.0 0.0
0.0 0.00028956655560589815 0.00019014323324527 -0.00015090704764720742 -3.923618559806254e-05 -9.309528745525989e-05 0.0 0.0
0.0 0.0015142455939811616 0.0012208960529592795 -0.0010078178126736055 -0.00021307824028567277 -0.00046846103097772737 0.0 0.0
0.0 0.003778930387305206 0.003389160864608873 -0.0029451505660398024 -0.000444010298569072 -0.0011290035795363453 0.0 0.0
0.0 0.007536039171812128 0.006678082203253255 -0.006058014763304972 -0.0006200674399482825 -0.002042750871521768 0.0 0.0
0.0 0.012643936327771301 0.01109911126618195 -0.010351396436738478 -0.0007477148294434694 -0.003184750107390214 0.0 0.0
0.0 0.0190113681879829 0.016599107812092694 -0.015748137722076103 -0.0008509700900165844 -0.004487985976489516 0.0 0.0
0.0 0.026608018890433183 0.023132549579364645 -0.022186757921518693 -0.0009457916578459449 -0.005842454037693183 0.0 0.0
0.0 0.035371567233248774 0.030725122964344934 -0.029687205065509432 -0.0010379178988354993 -0.007178364719627534 0.0 0.0
0.0 0.04557428030048988 0.039465751625996706 -0.03833575157711328 -0.0011300000488834309 -0.00855253583663295 0.0 0.0
0.0 0.05697357333168468 0.049434483767540685 -0.04821045273478087 -0.001224031032759796 -0.0100634246285679 0.0 0.0
0.0 0.06976462605963017 0.06055923109911216 -0.05923866296982033 -0.0013205681292918063 -0.011651571977323886 0.0 0.0
0.0 0.08357769989715896 0.0725300144907814 -0.07111041825140979 -0.001419596239371591 -0.013027652155446602 0.0 0.0
0.0 0.0976254853162991 0.08473688822073937 -0.08321667912943832 -0.0015202090913009844 -0.01370378249364794 0.0 0.0
0.0 0.11078258277117144 0.09621689834964961 -0.094593096871063 -0.0016238014785865656 -0.013131487312195558 0.0 0.0
0.0 0.12151129824219299 0.10561486411354068 -0.10389232240652763 -0.001722541707013023 -0.010863273651357717 0.0 0.0
0.0 0.1280589903831552 0.11139905392711798 -0.10960739055743587 -0.0017916633696820287 -0.00633958843998067 0.0 0.0
0.0 0.12805899038314578 0.11139905392710937 -0.10960739055742738 -0.0017916633696819578 0.006339588440007133 0.0 0.0
0.0 0.12151129824216941 0.10561486411351921 -0.1038923224065063 -0.0017225417070129091 0.010863273651395949 0.0 0.0
0.0 0.11078258277113529 0.09621689834961715 -0.09459309687103097 -0.0016238014785860868 0.013131487312222672 0.0 0.0
0.0 0.09762548531625027 0.08473688822069639 -0.08321667912939575 -0.0015202090913006736 0.013703782493660166 0.0 0.0
0.0 0.0835776998971047 0.07253001449073469 -0.07111041825136319 -0.0014195962393714848 0.013027652155438675 0.0 0.0
0.0 0.06976462605957537 0.06055923109906424 -0.059238662969773245 -0.0013205681292910122 0.011651571977321883 0.0 0.0
0.0 0.05697357333162937 0.049434483767492404 -0.048210452734733386 -0.0012240310327590073 0.010063424628564775 0.0 0.0
0.0 0.04557428030043541 0.03946575162594912 -0.03833575157706643 -0.001130000048882681 0.008552535836628485 0.0 0.0
0.0 0.03537156723319571 0.030725122964298933 -0.029687205065464333 -0.0010379178988345924 0.007178364719616366 0.0 0.0
0.0 0.026608018890385464 0.02313254957932283 -0.022186757921477493 -0.0009457916578453334 0.0058424540376833594 0.0 0.0
0.0 0.019011368187943682 0.016599107812058304 -0.01574813772204236 -0.0008509700900159415 0.004487985976477519 0.0 0.0
0.0 0.01264393632773951 0.011099111266153957 -0.010351396436711067 -0.0007477148294428857 0.003184750107382772 0.0 0.0
0.0 0.007536039171789825 0.00667808220323339 -0.006058014763285781 -0.0006200674399476102 0.002042750871515367 0.0 0.0
0.0 0.0037789303872924045 0.0033891608645971556 -0.0029451505660290206 -0.0004440102985681351 0.0011290035795326506 0.0 0.0
0.0 0.0015142455939731877 0.001220896052952725 -0.0010078178126679844 -0.00021307824028473965 0.00046846103097519624 0.0 0.0
0.0 0.00028956655560348824 0.00019014323324380728 -0.000150907047646026 -3.9236185597781123e-05 9.309528745451419e-05 0.0 0.0
0.0 6.219751503947438e-06 2.753453360221235e-06 -2.140613269059512e-06 -6.128400911617418e-07 1.944460811461994e-06 0.0 0.0
0.0 0.0 0.0 0.0 0.0 0.0 0.0 0.0
0.0 0.0 0.0 0.0 0.0 0.0 0.0 0.0
0.0 0.005937184437133113 0.004029007510767937 -0.00452026060160894 0.0004912530908410034 0.004704161700980704 0.0 0.0
0.0 0.004348235501555857 0.002818393739890319 -0.003264960209991497 0.0004465664701011763 -0.00363230232492154 0.0 0.0
0.0 0.0 0.0 0.0 0.0 0.0 0.0 0.0
0.0 0.0 0.0 0.0 0.0 0.0 0.0 0.0
0.0 1.7764958665315978e-06 -1.7819784007305854e-07 1.3787375697884427e-07 4.03240830942293e-08 1.8782013220909485e-07 0.0 0.0
0.0 0.00011142905252363321 6.568170206143893e-05 -5.187133710819147e-05 -1.3810364953247334e-05 -5.2424010495644465e-05 0.0 0.0
0.0 0.0009652612737453628 0.0007323425613540548 -0.0005956459389590569 -0.0001366966223949981 -0.00042949802473262583 0.0 0.0
0.0 0.0028417538668782313 0.002468659937883785 -0.002107054389749836 -0.0003616055481339496 -0.0012203457474099823 0.0 0.0
0.0 0.0060382056482746575 0.005300711862714303 -0.004739707761188764 -0.0005610041015255383 -0.002374015313528565 0.0 0.0
0.0 0.010508926678569687 0.00914981278992111 -0.008448465991208921 -0.0007013467987121888 -0.0037892748467416963 0.0 0.0
0.0 0.016076412752735466 0.013940915897715461 -0.013133799803965347 -0.0008071160937501075 -0.005388771230338265 0.0 0.0
0.0 0.022682563190345298 0.01960624577496075 -0.01870834690136977 -0.0008978988735909788 -0.007040162863109396 0.0 0.0
0.0 0.030319214926283207 0.026157381154689036 -0.02517427182289569 -0.000983109331793348 -0.008673757432722189 0.0 0.0
0.0 0.03907026748490572 0.03368734230158503 -0.032620897881251866 -0.0010664444203331565 -0.010363063396344825 0.0 0.0
0.0 0.04908944765679788 0.042291851220848276 -0.04114052760439893 -0.0011513236164493415 -0.012175529219493341 0.0 0.0
0.0 0.06031256424761254 0.05195044027184782 -0.050713061170288634 -0.0012373791015591728 -0.014076302203705569 0.0 0.0
0.0 0.07225635950518995 0.06244214686902058 -0.061117337688458395 -0.0013248091805621955 -0.0157944152325964 0.0 0.0
0.0 0.08471798159639223 0.07327077711908883 -0.07185546097135483 -0.0014153161477339692 -0.016749853148106522 0.0 0.0
0.0 0.09652521272119349 0.08360585326564682 -0.08209694200456286 -0.0015089112610839714 -0.016218979379774755 0.0 0.0
0.0 0.10630095713621668 0.0922555980109421 -0.09065815259679508 -0.0015974454141470121 -0.01341603087288895 0.0 0.0
0.0 0.11252916656438952 0.09786110202467557 -0.09620086218354214 -0.0016602398411334114 -0.007529948817187814 0.0 0.0
0.0 0.11252916656438343 0.09786110202466944 -0.0962008621835366 -0.0016602398411328587 0.007529948817220944 0.0 0.0
0.0 0.10630095713619633 0.09225559801092272 -0.09065815259677587 -0.0015974454141468317 0.013416030872934605 0.0 0.0
0.0 0.09652521272115974 0.08360585326561602 -0.08209694200453219 -0.0015089112610838402 0.016218979379804807 0.0 0.0
0.0 0.0847179815963539 0.07327077711905437 -0.07185546097132105 -0.0014153161477333458 0.01674985314812177 0.0 0.0
0.0 0.07225635950514518 0.062442146868981765 -0.06111733768842031 -0.0013248091805614492 0.01579441523258965 0.0 0.0
0.0 0.06031256424756449 0.05195044027180627 -0.050713061170247334 -0.0012373791015589085 0.014076302203699828 0.0 0.0
0.0 0.04908944765674857 0.04229185122080555 -0.04114052760435618 -0.0011513236164493715 0.012175529219488081 0.0 0.0
0.0 0.03907026748485776 0.03368734230154333 -0.03262089788121035 -0.0010664444203329784 0.010363063396338721 0.0 0.0
0.0 0.03031921492623938 0.026157381154650845 -0.02517427182285807 -0.0009831093317927658 0.008673757432710589 0.0 0.0
0.0 0.02268256319030671 0.019606245774926815 -0.018708346901336735 -0.0008978988735900928 0.007040162863098153 0.0 0.0
0.0 0.016076412752700005 0.01394091589768492 -0.013133799803935416 -0.0008071160937494959 0.005388771230323408 0.0 0.0
0.0 0.010508926678544318 0.009149812789898808 -0.008448465991187318 -0.0007013467987114866 0.003789274846733275 0.0 0.0
0.0 0.006038205648255913 0.005300711862697666 -0.004739707761173028 -0.0005610041015246359 0.0023740153135215366 0.0 0.0
0.0 0.0028417538668656464 0.0024686599378728707 -0.002107054389739935 -0.00036160554813293485 0.0012203457474049884 0.0 0.0
0.0 0.0009652612737385364 0.0007323425613491299 -0.0005956459389549379 -0.00013669662239419196 0.0004294980247297442 0.0 0.0
0.0 0.00011142905252219289 6.568170206108971e-05 -5.187133710789995e-05 -1.3810364953189854e-05 5.242401049533884e-05 0.0 0.0
0.0 1.7764958662467406e-06 -1.7819784004332652e-07 1.3787375695581053e-07 4.032408308752122e-08 -1.8782013217738892e-07 0.0 0.0
0.0 0.0 0.0 0.0 0.0 0.0 0.0 0.0
0.0 0.0 0.0 0.0 0.0 0.0 0.0 0.0
0.0 0.0043482355015414045 0.002818393739880805 -0.0032649602099811595 0.00044656647010035406 0.0036323023249073194 0.0 0.0
0.0 0.003066819762531302 0.0019065966586146376 -0.002277644071550342 0.0003710474129357054 -0.0026035739120469606 0.0 0.0
0.0 0.0 0.0 0.0 0.0 0.0 0.0 0.0
0.0 0.0 0.0 0.0 0.0 0.0 0.0 0.0
0.0 3.1234164431588785e-07 -2.5617850497127908e-08 2.0115826190663957e-08 5.502024306463789e-09 4.21043713021938e-08 0.0 0.0
0.0 3.794890562315207e-05 1.72909743654054e-05 -1.3720616639727846e-05 -3.5703577256775705e-06 -2.1601336788204325e-05 0.0 0.0
0.0 0.0005255521742596633 0.0003740605970061742 -0.00030067922383383427 -7.338137317234003e-05 -0.000331073042041158 0.0 0.0
0.0 0.0020694928798667372 0.0016256371526994313 -0.0013601620141919595 -0.00026547513850747214 -0.0011257446334089604 0.0 0.0
0.0 0.004642723474767352 0.0039517967759297445 -0.0034685825394781267 -0.00048321423645161755 -0.0024088356027996928 0.0 0.0
0.0 0.008411076321084811 0.007221051318086785 -0.006579382610840559 -0.0006416687072462255 -0.004040587523355566 0.0 0.0
0.0 0.013182362768506551 0.011295053776541534 -0.010540978877145005 -0.0007540748993965274 -0.0058367028661154155 0.0 0.0
0.0 0.018815698804454967 0.016093654385100034 -0.015250394661373833 -0.0008432597237261989 -0.007684000294636073 0.0 0.0
0.0 0.025270750040104074 0.021611258130210094 -0.02068893345895367 -0.0009223246712564308 -0.009504560450472991 0.0 0.0
0.0 0.03271870577874916 0.027934224135512817 -0.02693624636742387 -0.0009979777680889485 -0.011372065509288655 0.0 0.0
0.0 0.04109255436189312 0.03517637283035989 -0.03410325192353042 -0.0010731209068294775 -0.013390553443959985 0.0 0.0
0.0 0.05063803744619273 0.04335759731292194 -0.042208703816431825 -0.0011488934964900828 -0.015487265144098155 0.0 0.0
0.0 0.061155572978617734 0.05233326255251487 -0.05110749679950154 -0.001225765753013326 -0.01737789079158171 0.0 0.0
0.0 0.07184078774707728 0.0617407354557529 -0.060436663645693736 -0.001304071810059152 -0.0185634611656833 0.0 0.0
0.0 0.08223729033722625 0.07092946159288316 -0.0695436948643185 -0.0013857667285646308 -0.01820735386796017 0.0 0.0
0.0 0.09116626405995681 0.0789105504630092 -0.07744540044018258 -0.0014651500228266229 -0.015209387433401654 0.0 0.0
0.0 0.09721804021065211 0.084457053647183 -0.08293178404035503 -0.0015252696068279387 -0.00851636919138751 0.0 0.0
0.0 0.09721804021064445 0.08445705364717548 -0.0829317840403474 -0.0015252696068280215 0.008516369191422441 0.0 0.0
0.0 0.0911662640599406 0.07891055046299261 -0.07744540044016658 -0.0014651500228259977 0.015209387433447233 0.0 0.0
0.0 0.08223729033720005 0.07092946159285793 -0.06954369486429397 -0.0013857667285639603 0.018207353867993287 0.0 0.0
0.0 0.07184078774704378 0.061740735455722354 -0.06043666364566366 -0.001304071810058719 0.018563461165698923 0.0 0.0
0.0 0.061155572978579736 0.05233326255248155 -0.051107496799469215 -0.001225765753012335 0.01737789079157647 0.0 0.0
0.0 0.05063803744615183 0.043357597312886104 -0.04220870381639714 -0.001148893496488969 0.01548726514409088 0.0 0.0
0.0 0.04109255436185108 0.03517637283032306 -0.03410325192349437 -0.0010731209068286836 0.013390553443954685 0.0 0.0
0.0 0.03271870577870797 0.02793422413547661 -0.02693624636738825 -0.0009979777680883468 0.011372065509281758 0.0 0.0
0.0 0.02527075004006487 0.021611258130176045 -0.020688933458920353 -0.0009223246712556789 0.009504560450460121 0.0 0.0
0.0 0.018815698804420657 0.01609365438507036 -0.015250394661344951 -0.0008432597237254088 0.007684000294622373 0.0 0.0
0.0 0.013182362768476742 0.011295053776516552 -0.010540978877120782 -0.0007540748993957673 0.005836702866098624 0.0 0.0
0.0 0.008411076321060772 0.007221051318066 -0.006579382610820529 -0.0006416687072454672 0.004040587523345039 0.0 0.0
0.0 0.004642723474749234 0.003951796775914404 -0.0034685825394638855 -0.0004832142364505175 0.0024088356027905924 0.0 0.0
0.0 0.0020694928798563185 0.0016256371526910756 -0.001360162014184653 -0.00026547513850642333 0.0011257446334037387 0.0 0.0
0.0 0.0005255521742552241 0.00037406059700326015 -0.00030067922383146024 -7.338137317179987e-05 0.0003310730420386139 0.0 0.0
0.0 3.794890562235177e-05 1.729097436543828e-05 -1.3720616639742835e-05 -3.570357725695374e-06 2.160133678818311e-05 0.0 0.0
0.0 3.1234164401444015e-07 -2.5617850471780222e-08 2.0115826170972936e-08 5.502024300809174e-09 -4.2104371261965705e-08 0.0 0.0
0.0 0.0 0.0 0.0 0.0 0.0 0.0 0.0
0.0 0.0 0.0 0.0 0.0 0.0 0.0 0.0
0.0 0.003066819762519875 0.0019065966586073904 -0.002277644071542244 0.00037104741293485276 0.002603573912036395 0.0 0.0
0.0 0.002012696636222386 0.0012101160042544642 -0.0014899495381881498 0.00027983353393368546 -0.001732490668194934 0.0 0.0
0.0 0.0 0.0 0.0 0.0 0.0 0.0 0.0
0.0 0.0 0.0 0.0 0.0 0.0 0.0 0.0
0.0 7.616774122468806e-07 -5.549138125016537e-08 4.2107338484635224e-08 1.338404276552882e-08 1.233693222903045e-07 0.0 0.0
0.0 1.4772007690981102e-05 2.0558378662765857e-06 -1.6252956873103828e-06 -4.3054217896620265e-07 -3.5091598101724948e-06 0.0 0.0
0.0 0.00023119632740305616 0.00016004778042050483 -0.0001278427850341575 -3.220499538634716e-05 -0.00021753617824574387 0.0 0.0
0.0 0.0012564413947981196 0.0009465668760957571 -0.0007768165718051873 -0.0001697503042905694 -0.0009402235737621206 0.0 0.0
0.0 0.003338437054383471 0.002683693316297606 -0.0023035689159327244 -0.000380124400364882 -0.002197865254757433 0.0 0.0
0.0 0.006412996208812817 0.005329231729945989 -0.004767481878387052 -0.000561749851558938 -0.003898187491972656 0.0 0.0
0.0 0.010343153476525018 0.008683830650304626 -0.007996734400489586 -0.0006870962498150418 -0.005816294600423208 0.0 0.0
0.0 0.014983037217146146 0.012615943477595835 -0.01183778706495343 -0.0007781564126424024 -0.007752777937135524 0.0 0.0
0.0 0.02029474960347478 0.017107951189092446 -0.016254238051187593 -0.0008537131379048621 -0.009656005011376983 0.0 0.0
0.0 0.026344804655693627 0.022235346182772252 -0.021312831840882132 -0.0009225143418901262 -0.011598207637983894 0.0 0.0
0.0 0.033274876701530946 0.02811449271150608 -0.027125839273231433 -0.0009886534382746379 -0.013663274950987172 0.0 0.0
0.0 0.04118493944994597 0.034809936360294946 -0.03375550590310266 -0.0010544304571923043 -0.015823124719274686 0.0 0.0
0.0 0.04970828862454669 0.04224802893299845 -0.041127674684125926 -0.0011203542488725413 -0.017814961683525556 0.0 0.0
0.0 0.058948638597782495 0.05017529501773891 -0.04898911365994496 -0.0011861813577939372 -0.019128511428330015 0.0 0.0
0.0 0.06805421070013479 0.05816665710590332 -0.056912841735066416 -0.0012538153708368915 -0.019000895483691552 0.0 0.0
0.0 0.07600059020716471 0.06549799217109364 -0.06417459378869406 -0.0013233983823995842 -0.01620084645238851 0.0 0.0
0.0 0.08196753234279433 0.07106947400112813 -0.06968626827556411 -0.0013832057255640168 -0.009309783950387528 0.0 0.0
0.0 0.08196753234279072 0.07106947400112357 -0.06968626827556014 -0.0013832057255634524 0.009309783950422283 0.0 0.0
0.0 0.07600059020715084 0.06549799217107856 -0.0641745937886793 -0.0013233983823992628 0.016200846452433415 0.0 0.0
0.0 0.06805421070011176 0.05816665710588044 -0.056912841735043705 -0.0012538153708367495 0.019000895483725 0.0 0.0
0.0 0.05894863859775578 0.05017529501771395 -0.04898911365992057 -0.0011861813577933682 0.019128511428344895 0.0 0.0
0.0 0.04970828862451583 0.04224802893297154 -0.04112767468409996 -0.0011203542488715521 0.0178149616835198 0.0 0.0
0.0 0.04118493944991295 0.034809936360266296 -0.03375550590307473 -0.0010544304571915592 0.015823124719266203 0.0 0.0
0.0 0.03327487670149931 0.028114492711478208 -0.027125839273204312 -0.0009886534382739015 0.013663274950981168 0.0 0.0
0.0 0.02634480465566206 0.022235346182744663 -0.021312831840855237 -0.0009225143418894301 0.01159820763797682 0.0 0.0
0.0 0.02029474960344429 0.017107951189066477 -0.016254238051162207 -0.0008537131379042693 0.009656005011364828 0.0 0.0
0.0 0.01498303721711686 0.012615943477571069 -0.011837787064929193 -0.000778156412641876 0.0077527779371217255 0.0 0.0
0.0 0.010343153476498904 0.008683830650283032 -0.00799673440046878 -0.0006870962498142521 0.00581629460040573 0.0 0.0
0.0 0.006412996208794706 0.005329231729930602 -0.004767481878372516 -0.0005617498515580864 0.0038981874919622912 0.0 0.0
0.0 0.003338437054370378 0.002683693316286817 -0.0023035689159230533 -0.000380124400363763 0.0021978652547497432 0.0 0.0
0.0 0.0012564413947903329 0.0009465668760898797 -0.0007768165718001934 -0.0001697503042896865 0.0009402235737571553 0.0 0.0
0.0 0.00023119632740050723 0.00016004778041929448 -0.0001278427850331821 -3.22049953861124e-05 0.00021753617824411773 0.0 0.0
0.0 1.4772007690583518e-05 2.0558378664610326e-06 -1.6252956874547858e-06 -4.305421790062365e-07 3.5091598104983204e-06 0.0 0.0
0.0 7.616774120036076e-07 -5.54913812317514e-08 4.210733847065235e-08 1.3384042761090036e-08 -1.2336932224923908e-07 0.0 0.0
0.0 0.0 0.0 0.0 0.0 0.0 0.0 0.0
0.0 0.0 0.0 0.0 0.0 0.0 0.0 0.0
0.0 0.0020126966362130003 0.0012101160042487984 -0.0014899495381816559 0.00027983353393285784 0.0017324906681864716 0.0 0.0
0.0 0.0012075608698812325 0.0006851816617242824 -0.000868875023132862 0.00018369336140857978 -0.0010308359172984752 0.0 0.0
0.0 0.0 0.0 0.0 0.0 0.0 0.0 0.0
0.0 0.0 0.0 0.0 0.0 0.0 0.0 0.0
0.0 6.928205378478581e-07 -3.733951306313336e-08 2.7903524939343766e-08 9.435988123798777e-09 1.2742599449485983e-07 0.0 0.0
0.0 7.009503287309069e-06 1.8391517164276408e-06 -1.459992013266675e-06 -3.7915970316096977e-07 -4.901264485845291e-06 0.0 0.0
0.0 0.00011701214398077545 5.1805065567534484e-05 -4.13311842750048e-05 -1.0473881292529728e-05 -0.0001067309235241909 0.0 0.0
0.0 0.0006604377231037862 0.0004442782560822664 -0.00035881985939478534 -8.545839668748101e-05 -0.0006619703164413625 0.0 0.0
0.0 0.00211735230702322 0.0015790838300637606 -0.0013211406773156417 -0.00025794315274811836 -0.0017991874391731235 0.0 0.0
0.0 0.004495278215811097 0.003528715468329138 -0.0030794689156706813 -0.00044924655265845626 -0.0033910053492484343 0.0 0.0
0.0 0.00757813471090574 0.006131987086090113 -0.00553607517885023 -0.0005959119072398804 -0.00528091807668551 0.0 0.0
0.0 0.011226663156602167 0.009196822807569512 -0.00850147246693887 -0.0006953503406306385 -0.007228514841492693 0.0 0.0
0.0 0.015380445163944254 0.012673221133393711 -0.011901312418969781 -0.000771908714423929 -0.009112607282715644 0.0 0.0
0.0 0.02010979994476783 0.016618271148303485 -0.015782050036524574 -0.0008362211117789041 -0.011007159079721591 0.0 0.0
0.0 0.025477943414819845 0.021147189930683298 -0.020252345133069026 -0.0008948447976142652 -0.01300656724018136 0.0 0.0
0.0 0.031657521557125874 0.026349222513263795 -0.02539902837521067 -0.0009501941380531168 -0.01508831217982194 0.0 0.0
0.0 0.03856384199069774 0.03222018009884622 -0.031213517883135016 -0.0010066622157111913 -0.01702641757671673 0.0 0.0
0.0 0.04591862494585083 0.0386152468866567 -0.0375549865466009 -0.0010602603400558074 -0.018408293445562163 0.0 0.0
0.0 0.05351159189406009 0.04531827819711774 -0.04420686104092232 -0.0011114171561954164 -0.018577268104327842 0.0 0.0
0.0 0.06086141852374248 0.05193271188139255 -0.05076443488930077 -0.0011682769920917655 -0.016325264073741127 0.0 0.0
0.0 0.0668639349617048 0.05757158358786989 -0.05634203521295017 -0.001229548374919712 -0.009887122359164098 0.0 0.0
0.0 0.06686393496170126 0.05757158358786595 -0.056342035212945604 -0.0012295483749203192 0.009887122359195616 0.0 0.0
0.0 0.06086141852373218 0.05193271188138047 -0.05076443488928793 -0.0011682769920925424 0.016325264073785786 0.0 0.0
0.0 0.053511591894044655 0.04531827819710089 -0.04420686104090552 -0.0011114171561953312 0.01857726810436047 0.0 0.0
0.0 0.045918624945833465 0.03861524688663939 -0.037554986546584276 -0.00106026034005513 0.01840829344557591 0.0 0.0
0.0 0.03856384199067003 0.03222018009882242 -0.0312135178831114 -0.0010066622157110093 0.017026417576709557 0.0 0.0
0.0 0.03165752155709334 0.026349222513236355 -0.025399028375183246 -0.0009501941380531064 0.01508831217981025 0.0 0.0
0.0 0.025477943414793466 0.021147189930660504 -0.020252345133046537 -0.0008948447976139705 0.013006567240174183 0.0 0.0
0.0 0.02010979994474349 0.016618271148282397 -0.015782050036503785 -0.0008362211117786141 0.011007159079714852 0.0 0.0
0.0 0.01538044516391886 0.012673221133372527 -0.011901312418948954 -0.0007719087144235657 0.009112607282702707 0.0 0.0
0.0 0.011226663156579534 0.009196822807551044 -0.00850147246692086 -0.0006953503406301777 0.007228514841478625 0.0 0.0
0.0 0.0075781347108852095 0.006131987086073969 -0.0055360751788348424 -0.0005959119072391272 0.005280918076669354 0.0 0.0
0.0 0.004495278215795301 0.0035287154683167634 -0.00307946891565908 -0.0004492465526576818 0.0033910053492379297 0.0 0.0
0.0 0.00211735230701336 0.0015790838300563195 -0.001321140677309158 -0.0002579431527471619 0.0017991874391660137 0.0 0.0
0.0 0.0006604377230985399 0.00044427825607883564 -0.00035881985939191995 -8.545839668691531e-05 0.0006619703164368355 0.0 0.0
0.0 0.00011701214397942145 5.180506556730352e-05 -4.133118427481191e-05 -1.047388129249153e-05 0.0001067309235236326 0.0 0.0
0.0 7.0095032871296335e-06 1.8391517166409844e-06 -1.459992013435292e-06 -3.791597032056978e-07 4.901264486431497e-06 0.0 0.0
0.0 6.928205376352142e-07 -3.733951305122376e-08 2.7903524930424694e-08 9.435988120799248e-09 -1.2742599445425477e-07 0.0 0.0
0.0 0.0 0.0 0.0 0.0 0.0 0.0 0.0
0.0 0.0 0.0 0.0 0.0 0.0 0.0 0.0
0.0 0.0012075608698741522 0.0006851816617204056 -0.0008688750231282551 0.0001836933614078494 0.001030835917292483 0.0 0.0
0.0 0.0006147119809462287 0.0003156404547873437 -0.0004143005865887096 9.866013180136603e-05 -0.0004981834091695455 0.0 0.0
0.0 1.266647607192392e-07 -7.072771973675951e-10 8.507483974345466e-10 -1.4347120006705642e-10 2.5171596720899338e-08 0.0 0.0
0.0 0.0 0.0 0.0 0.0 0.0 0.0 0.0
0.0 8.694762653476193e-07 -2.987712020632065e-08 2.159330647060148e-08 8.283813735721381e-09 1.7349073420562356e-07 0.0 0.0
0.0 5.586295116591567e-06 8.752577108875224e-07 -6.907717950272972e-07 -1.844859158602386e-07 -3.5986055438953816e-06 0.0 0.0
0.0 6.823247988606042e-05 2.2254637452831633e-05 -1.7622622632514924e-05 -4.632014820316707e-06 -7.057829321146989e-05 0.0 0.0
0.0 0.00031204136718445227 0.00015751668753173558 -0.00012600001833936188 -3.15166691923737e-05 -0.00038636427990226455 0.0 0.0
0.0 0.0011140079155380824 0.0007110297187809009 -0.0005790881170079471 -0.00013194160177295355 -0.00124335278538177 0.0 0.0
0.0 0.0027300521186719674 0.001914764851330199 -0.0016176053413120015 -0.00029715951001819604 -0.002592540605036616 0.0 0.0
0.0 0.004872113414105635 0.0037041738201356155 -0.003245110187556229 -0.00045906363257938645 -0.004262304669092173 0.0 0.0
0.0 0.007612388847698399 0.0058755451969956605 -0.005298734692726545 -0.000576810504269114 -0.006051209364529524 0.0 0.0
0.0 0.010581337991339913 0.008342720265482674 -0.0076808253843445 -0.0006618948811381697 -0.007818328332473031 0.0 0.0
0.0 0.01395461782298998 0.011124873915768914 -0.010396671877018995 -0.000728202038749917 -0.009577359028477188 0.0 0.0
0.0 0.017838632197449102 0.0143181960503062 -0.0135352765436648 -0.0007829195066414023 -0.01138600310067432 0.0 0.0
0.0 0.022371158155138522 0.018027125211381598 -0.017196146052101804 -0.0008309791592797919 -0.013257098833981308 0.0 0.0
0.0 0.02746867384178293 0.02230707045286931 -0.021430568758743652 -0.0008765016941256514 -0.01503559994527174 0.0 0.0
0.0 0.03313142630428738 0.02711690011226507 -0.026195057460960722 -0.0009218426513043516 -0.01634177688891164 0.0 0.0
0.0 0.039064778184592065 0.032405270736702234 -0.031447788447849304 -0.0009574822888529218 -0.016756562595340117 0.0 0.0
0.0 0.04527808453318075 0.03814235579188473 -0.03714975909097303 -0.000992596700911681 -0.0154112155459565 0.0 0.0
0.0 0.0511982503974213 0.04382931083389871 -0.042775369659111245 -0.001053941174787478 -0.010193489196512888 0.0 0.0
0.0 0.0511982503974191 0.043829310833895116 -0.042775369659108164 -0.0010539411747869396 0.010193489196538836 0.0 0.0
0.0 0.04527808453317581 0.03814235579187634 -0.037149759090965274 -0.0009925967009110613 0.015411215545995277 0.0 0.0
0.0 0.03906477818458354 0.03240527073669078 -0.031447788447838555 -0.0009574822888522149 0.01675656259536951 0.0 0.0
0.0 0.03313142630427303 0.027116900112250708 -0.02619505746094719 -0.0009218426513035173 0.016341776888920957 0.0 0.0
0.0 0.02746867384176442 0.022307070452853885 -0.021430568758728688 -0.0008765016941251876 0.015035599945264122 0.0 0.0
0.0 0.02237115815511926 0.018027125211365874 -0.017196146052086282 -0.0008309791592795952 0.013257098833971866 0.0 0.0
0.0 0.017838632197433268 0.01431819605029264 -0.013535276543651636 -0.0007829195066410096 0.011386003100669546 0.0 0.0
0.0 0.013954617822974967 0.011124873915755906 -0.010396671877006382 -0.000728202038749523 0.009577359028472678 0.0 0.0
0.0 0.010581337991323369 0.008342720265469217 -0.007680825384331666 -0.0006618948811375513 0.0078183283324629 0.0 0.0
0.0 0.007612388847682004 0.005875545196982903 -0.005298734692714399 -0.0005768105042685012 0.006051209364517019 0.0 0.0
0.0 0.004872113414090677 0.0037041738201247553 -0.0032451101875461113 -0.00045906363257864334 0.004262304669078807 0.0 0.0
0.0 0.002730052118661735 0.0019147648513226075 -0.0016176053413052788 -0.00029715951001732847 0.002592540605028432 0.0 0.0
0.0 0.001114007915533144 0.0007110297187776271 -0.0005790881170051854 -0.00013194160177244153 0.001243352785377112 0.0 0.0
0.0 0.00031204136718211955 0.0001575166875307964 -0.00012600001833860838 -3.1516669192188074e-05 0.0003863642799002906 0.0 0.0
0.0 6.823247988458866e-05 2.2254637452606753e-05 -1.7622622632336793e-05 -4.6320148202699425e-06 7.05782932107185e-05 0.0 0.0
0.0 5.586295116434165e-06 8.752577110402926e-07 -6.907717951486074e-07 -1.844859158916782e-07 3.5986055445572663e-06 0.0 0.0
0.0 8.694762648168817e-07 -2.987712019000699e-08 2.1593306458356525e-08 8.283813731647456e-09 -1.7349073409897767e-07 0.0 0.0
0.0 0.0 0.0 0.0 0.0 0.0 0.0 0.0
0.0 1.2666476022059354e-07 -7.072771946710994e-10 8.50748394078545e-10 -1.4347119940746084e-10 -2.5171596621278046e-08 0.0 0.0
0.0 0.000614711980941778 0.0003156404547853617 -0.00041430058658626105 9.866013180089934e-05 0.0004981834091663266 0.0 0.0
0.0 0.00020837043402269838 0.0001051508140735554 -0.00014496768436335445 3.981687028979906e-05 -0.0001741207910961024 0.0 0.0
0.0 2.0717276247831737e-06 -6.165853434397743e-09 1.47916262852059e-08 -8.625772850807937e-09 4.367858720835785e-07 0.0 0.0
0.0 8.129603515550081e-07 -9.729788138728575e-10 -5.062304710215263e-10 1.479209284894036e-09 1.6676851108718092e-07 0.0 0.0
0.0 1.3942118126280809e-06 -1.7202479833820512e-08 1.1633862331670308e-08 5.568617502153395e-09 2.882879494068393e-07 0.0 0.0
0.0 5.721305968956553e-06 5.58127746926055e-07 -4.1328838428865144e-07 -1.4483936263740805e-07 -3.804030166733745e-06 0.0 0.0
0.0 5.656278046618845e-05 1.0675105768642583e-05 -8.484359566277969e-06 -2.1907462023646152e-06 -6.14104901115299e-05 0.0 0.0
0.0 0.0001873466720531973 5.441564890007913e-05 -4.3511747377941514e-05 -1.0903901522137567e-05 -0.00025113543453264813 0.0 0.0
0.0 0.0004822288036152915 0.0002043192871979118 -0.00016343226643803857 -4.08870207598732e-05 -0.0007075854055714301 0.0 0.0
0.0 0.0012454647860746888 0.0006572544994356725 -0.0005339746157531131 -0.0001232798836825597 -0.0015872090888025224 0.0 0.0
0.0 0.0024875113795807483 0.0015457325914923228 -0.0012931985299564361 -0.00025253406153588593 -0.0028382903498903795 0.0 0.0
0.0 0.004082946434590509 0.002772403189075579 -0.0023919484878959585 -0.00038045470117962 -0.004269571397293291 0.0 0.0
0.0 0.006001025451680332 0.004202225163284666 -0.0037221651951577627 -0.00048005996812690044 -0.0057546862656562845 0.0 0.0
0.0 0.00812131315579699 0.005830622390405336 -0.0052712962719207255 -0.0005593261184846077 -0.007290638549867473 0.0 0.0
0.0 0.010555146422974011 0.007712889345417327 -0.007091402575544348 -0.0006214867698729742 -0.008844621399229827 0.0 0.0
0.0 0.013387008033727775 0.00993570624844298 -0.009265678537571152 -0.0006700277108718263 -0.010422831354934183 0.0 0.0
0.0 0.01669758296392274 0.012599431021353401 -0.011889728015167005 -0.0007097030061864011 -0.011961350941444609 0.0 0.0
0.0 0.02055132258988285 0.0157814246168688 -0.01503386245548653 -0.0007475621613822731 -0.01319641346619676 0.0 0.0
0.0 0.024879046961823442 0.019550540773698864 -0.018768134224766184 -0.0007824065489326862 -0.013697698431619157 0.0 0.0
0.0 0.029915684800688288 0.02411447128504688 -0.02332591467939841 -0.0007885566056484701 -0.01320884712747512 0.0 0.0
0.0 0.03559842840072862 0.029666025776468763 -0.02882981223420105 -0.0008362135422677159 -0.010029558143568785 0.0 0.0
0.0 0.035598428400729694 0.029666025776468055 -0.02882981223420001 -0.0008362135422680535 0.010029558143590469 0.0 0.0
0.0 0.02991568480068616 0.024114471285041083 -0.023325914679392393 -0.0007885566056486845 0.013208847127508963 0.0 0.0
0.0 0.024879046961817676 0.01955054077369015 -0.018768134224757725 -0.0007824065489324152 0.01369769843164224 0.0 0.0
0.0 0.02055132258987357 0.015781424616859527 -0.015033862455477639 -0.0007475621613818854 0.01319641346620199 0.0 0.0
0.0 0.016697582963909705 0.01259943102134375 -0.011889728015157674 -0.0007097030061860728 0.011961350941435748 0.0 0.0
0.0 0.013387008033715377 0.009935706248433885 -0.009265678537562202 -0.0006700277108716802 0.010422831354925036 0.0 0.0
0.0 0.010555146422965157 0.007712889345410083 -0.007091402575537319 -0.0006214867698727643 0.008844621399226132 0.0 0.0
0.0 0.00812131315578999 0.00583062239039937 -0.00527129627191511 -0.000559326118484259 0.007290638549864968 0.0 0.0
0.0 0.006001025451668451 0.004202225163275888 -0.003722165195149688 -0.00048005996812620043 0.005754686265647331 0.0 0.0
0.0 0.004082946434577472 0.0027724031890665815 -0.002391948487887673 -0.00038045470117890716 0.004269571397281233 0.0 0.0
0.0 0.0024875113795700546 0.001545732591485819 -0.0012931985299506263 -0.00025253406153519215 0.0028382903498787304 0.0 0.0
0.0 0.0012454647860699669 0.0006572544994328101 -0.0005339746157507178 -0.00012327988368209214 0.0015872090887972534 0.0 0.0
0.0 0.0004822288036125309 0.00020431928719671298 -0.00016343226643709892 -4.088702075961393e-05 0.0007075854055682738 0.0 0.0
0.0 0.0001873466720516316 5.441564889981855e-05 -4.3511747377715634e-05 -1.0903901522102898e-05 0.00025113543453124376 0.0 0.0
0.0 5.656278046504896e-05 1.0675105768560238e-05 -8.484359566210904e-06 -2.190746202349317e-06 6.141049011101745e-05 0.0 0.0
0.0 5.721305968791929e-06 5.581277470135718e-07 -4.132883843550651e-07 -1.4483936265850838e-07 3.804030167435948e-06 0.0 0.0
0.0 1.3942118121365584e-06 -1.7202479827439693e-08 1.1633862327329383e-08 5.568617500112952e-09 -2.8828794930130727e-07 0.0 0.0
0.0 8.12960351106587e-07 -9.729788137991681e-10 -5.062304704954294e-10 1.479209284295063e-09 -1.667685109932312e-07 0.0 0.0
0.0 2.0717276240791394e-06 -6.165853431574411e-09 1.4791626278552993e-08 -8.625772846978897e-09 -4.3678587193397695e-07 0.0 0.0
0.0 0.000208370434020365 0.00010515081407279956 -0.0001449676843623217 3.9816870289522014e-05 0.00017412079109504483 0.0 0.0
0.0 3.979892365660727e-05 1.6808493652494203e-05 -2.416572830598486e-05 7.357234653490656e-06 -2.9674230215228514e-05 0.0 0.0
0.0 2.3409661729961703e-06 6.496376963596438e-10 1.3091562580591183e-08 -1.3741200276949575e-08 4.872012716183131e-07 0.0 0.0
0.0 8.28283976103979e-07 8.757322001854407e-09 -7.994197467743662e-09 -7.631245341108108e-10 1.6872916499049268e-07 0.0 0.0
0.0 1.0341171999299922e-06 3.4830124123105497e-09 -4.631541757330647e-09 1.1485293450206947e-09 2.129476539670559e-07 0.0 0.0
0.0 7.632310559843156e-06 8.527860325443543e-08 -5.627006129177698e-08 -2.900854196266482e-08 -2.529292854859492e-06 0.0 0.0
0.0 5.191765093559527e-05 3.285007420328415e-06 -2.557750857921856e-06 -7.27256562406549e-07 -6.453258327838048e-05 0.0 0.0
0.0 0.00016101922857320093 1.669401222704364e-05 -1.3303438733273601e-05 -3.390573493770054e-06 -0.00024381056366027775 0.0 0.0
0.0 0.00035521921198613756 4.523106977815236e-05 -3.6199711541497906e-05 -9.031358236654402e-06 -0.0005173109244875399 0.0 0.0
0.0 0.0006046079432499563 0.00010689137271410259 -8.598013621697456e-05 -2.0911236497128034e-05 -0.0009613926857870608 0.0 0.0
0.0 0.001047700084208012 0.00022141102688252008 -0.00017923701017379898 -4.2174016708721103e-05 -0.0015993866335186442 0.0 0.0
0.0 0.001576315304940375 0.0004528632290229273 -0.00036462351585257903 -8.82397131703483e-05 -0.002518401275897535 0.0 0.0
0.0 0.0023442772446735536 0.0007808246666252661 -0.0006307073242646149 -0.00015011734236065126 -0.003574141655622951 0.0 0.0
0.0 0.003259876145151778 0.0011882242150289067 -0.000968638680996264 -0.00021958553403264244 -0.004774290079570471 0.0 0.0
0.0 0.004401938680128386 0.001720015920465372 -0.0014340711298511785 -0.000285944790614194 -0.006146544253960536 0.0 0.0
0.0 0.005776487246464894 0.002434675222375167 -0.002090330745632004 -0.0003443444767431637 -0.007680197196800657 0.0 0.0
0.0 0.007478796285374414 0.0034363895270452497 -0.0030416826100916035 -0.0003947069169536447 -0.009270126430084909 0.0 0.0
0.0 0.009546940690561629 0.004929099576755465 -0.004488644638038197 -0.0004404549387172649 -0.01062894706424287 0.0 0.0
0.0 0.012071377259026688 0.007135958715679142 -0.006643078479342519 -0.0004928802363366215 -0.011235403314510502 0.0 0.0
0.0 0.015341670411920586 0.010260562308078452 -0.009729968057679199 -0.0005305942503992519 -0.01081425901627299 0.0 0.0
0.0 0.02017399855988783 0.015043075846143457 -0.014537465127694195 -0.0005056107184492645 -0.009513324797042075 0.0 0.0
0.0 0.020173998559890115 0.015043075846143929 -0.014537465127694568 -0.0005056107184493566 0.00951332479705766 0.0 0.0
0.0 0.015341670411922945 0.010260562308076543 -0.009729968057677476 -0.0005305942503990663 0.010814259016298466 0.0 0.0
0.0 0.012071377259023686 0.007135958715674068 -0.006643078479337485 -0.0004928802363365799 0.01123540331452417 0.0 0.0
0.0 0.009546940690555884 0.004929099576751477 -0.004488644638034239 -0.0004404549387172337 0.010628947064241324 0.0 0.0
0.0 0.007478796285369359 0.003436389527043899 -0.0030416826100904014 -0.00039470691695349603 0.009270126430076036 0.0 0.0
0.0 0.005776487246458019 0.002434675222372249 -0.0020903307456292515 -0.00034434447674299654 0.007680197196791891 0.0 0.0
0.0 0.00440193868012313 0.0017200159204623282 -0.001434071129848384 -0.00028594479061394497 0.006146544253956743 0.0 0.0
0.0 0.003259876145148225 0.0011882242150280335 -0.0009686386809954258 -0.0002195855340326072 0.004774290079564756 0.0 0.0
0.0 0.002344277244669162 0.0007808246666241351 -0.000630707324263682 -0.00015011734236045318 0.0035741416556161754 0.0 0.0
0.0 0.0015763153049364463 0.00045286322902216567 -0.0003646235158519449 -8.82397131702206e-05 0.0025184012758905534 0.0 0.0
0.0 0.0010477000842040911 0.00022141102688197052 -0.00017923701017333906 -4.217401670863154e-05 0.001599386633512946 0.0 0.0
0.0 0.0006046079432484521 0.00010689137271383521 -8.598013621680441e-05 -2.091123649703074e-05 0.0009613926857846749 0.0 0.0
0.0 0.000355219211984936 4.5231069777997956e-05 -3.6199711541378345e-05 -9.03135823661957e-06 0.0005173109244856486 0.0 0.0
0.0 0.0001610192285713681 1.669401222694045e-05 -1.3303438733182377e-05 -3.3905734937580704e-06 0.00024381056365874258 0.0 0.0
0.0 5.191765093475701e-05 3.2850074203015557e-06 -2.5577508578980085e-06 -7.272565624035508e-07 6.453258327784043e-05 0.0 0.0
0.0 7.632310559565258e-06 8.52786032659596e-08 -5.627006129880703e-08 -2.9008541967155925e-08 2.5292928553553884e-06 0.0 0.0
0.0 1.0341171994111593e-06 3.4830124097744975e-09 -4.63154175459075e-09 1.1485293448161685e-09 -2.1294765385734702e-07 0.0 0.0
0.0 8.282839756553083e-07 8.757321996808003e-09 -7.99419746324245e-09 -7.631245335657651e-10 -1.687291648967851e-07 0.0 0.0
0.0 2.340966172321822e-06 6.496376968874008e-10 1.3091562575233056e-08 -1.3741200272117913e-08 -4.87201271473837e-07 0.0 0.0
0.0 3.979892365573512e-05 1.6808493652491506e-05 -2.4165728305962847e-05 7.3572346534712915e-06 2.9674230215379065e-05 0.0 0.0
0.0 1.746363269014452e-06 -1.080716133846742e-07 1.601080298073669e-07 -5.203641642269867e-08 2.3480853834527648e-07 0.0 0.0
0.0 1.9228494694066624e-06 5.476175861176968e-09 4.87832595730891e-09 -1.035450181848102e-08 3.7075804958130636e-07 0.0 0.0
0.0 1.1730303717297902e-06 -8.711884305468455e-09 6.167281465939062e-09 2.5446028395307073e-09 -7.818080163129034e-08 0.0 0.0
0.0 1.8621281018318593e-06 -5.421536026077656e-08 4.335809369678279e-08 1.0857266563993877e-08 -5.328155006497541e-07 0.0 0.0
0.0 1.0724572068913908e-05 -3.776851331468378e-07 3.4328913644923995e-07 3.4395996697607214e-08 -6.097588892901004e-06 0.0 0.0
0.0 5.7024179143095515e-05 -4.294103159107099e-06 3.5298466635564393e-06 7.642564955506522e-07 -6.519426793476663e-05 0.0 0.0
0.0 0.00016205241184129394 -1.7633745157620224e-05 1.4184335325408604e-05 3.449409832211619e-06 -0.0002456963989669176 0.0 0.0
0.0 0.0003564614434196701 -4.52767378506114e-05 3.6230564647861064e-05 9.046173202750275e-06 -0.0005180390502031063 0.0 0.0
0.0 0.0006044815638515294 -0.00010665174413469766 8.576520668926202e-05 2.0886537445435666e-05 -0.0009617797285761741 0.0 0.0
0.0 0.0010463101101789063 -0.0002208407750982303 0.00017864565258447616 4.2195122513754145e-05 -0.0015978944951033423 0.0 0.0
0.0 0.0015821739402552934 -0.0004502924727977792 0.0003631779930147991 8.711447978297984e-05 -0.0025147759585303804 0.0 0.0
0.0 0.0023502215698183856 -0.0007877751774438362 0.0006373793207187943 0.00015039585672504187 -0.0035767602443167994 0.0 0.0
0.0 0.0032803362289671825 -0.0012146977036687665 0.0009935054835338143 0.00022119222013495203 -0.00478322943752194 0.0 0.0
0.0 0.004435983514625015 -0.001762660285984542 0.0014716290747979362 0.0002910312111866049 -0.00615474036227967 0.0 0.0
0.0 0.005735306809563165 -0.002385020346512191 0.0020285276826086406 0.0003564926639035497 -0.007681194917593934 0.0 0.0
0.0 0.007093609393687328 -0.002908622714120853 0.002493187003472338 0.0004154357106485119 -0.009321654865443889 0.0 0.0
0.0 0.00823924591248893 -0.0030507281576795395 0.002588629574579894 0.00046209858309964515 -0.01106815637295975 0.0 0.0
0.0 0.009010652601853327 -0.002528919617395123 0.0020329938915321136 0.000495925725863008 -0.012937147570500285 0.0 0.0
0.0 0.009326700130164529 -0.001359703020703823 0.0009401303521643387 0.00041957266853948397 -0.014511913131355244 0.0 0.0
0.0 0.008903587010748141 0.002079576966610324 -0.00216953072232297 8.995375571264533e-05 -0.01306240674665142 0.0 0.0
0.0 0.008903587010751252 0.002079576966610195 -0.002169530722322973 8.995375571277912e-05 0.013062406746660902 0.0 0.0
0.0 0.009326700130167318 -0.0013597030207037047 0.000940130352164289 0.00041957266853941415 0.014511913131364278 0.0 0.0
0.0 0.009010652601849993 -0.002528919617393312 0.0020329938915305003 0.0004959257258628112 0.012937147570502034 0.0 0.0
0.0 0.008239245912480465 -0.003050728157674842 0.0025886295745755255 0.00046209858309931686 0.011068156372953272 0.0 0.0
0.0 0.007093609393676346 -0.0029086227141146585 0.00249318700346657 0.00041543571064808717 0.009321654865432755 0.0 0.0
0.0 0.005735306809555125 -0.002385020346508234 0.0020285276826050164 0.0003564926639032164 0.007681194917585004 0.0 0.0
0.0 0.004435983514619169 -0.0017626602859810638 0.0014716290747950568 0.0002910312111860068 0.006154740362275104 0.0 0.0
0.0 0.0032803362289613317 -0.0012146977036659164 0.0009935054835314733 0.0002211922201344429 0.0047832294375158325 0.0 0.0
0.0 0.002350221569810576 -0.0007877751774401163 0.0006373793207157133 0.00015039585672440295 0.0035767602443093323 0.0 0.0
0.0 0.0015821739402491128 -0.00045029247279496684 0.000363177993012502 8.711447978246498e-05 0.002514775958522108 0.0 0.0
0.0 0.0010463101101747135 -0.00022084077509724933 0.00017864565258355415 4.21951225136951e-05 0.0015978944950981507 0.0 0.0
0.0 0.0006044815638498352 -0.00010665174413421213 8.576520668884069e-05 2.0886537445371443e-05 0.0009617797285738834 0.0 0.0
0.0 0.00035646144341843346 -4.527673785037472e-05 3.6230564647657024e-05 9.046173202717657e-06 0.0005180390502016353 0.0 0.0
0.0 0.00016205241183961207 -1.7633745157515233e-05 1.4184335325344604e-05 3.449409832170629e-06 0.0002456963989654773 0.0 0.0
0.0 5.702417914224561e-05 -4.294103159083301e-06 3.52984666354037e-06 7.642564955429409e-07 6.51942679344124e-05 0.0 0.0
0.0 1.0724572068495703e-05 -3.776851331806753e-07 3.43289136478931e-07 3.43959967017404e-08 6.097588893394663e-06 0.0 0.0
0.0 1.8621281017379515e-06 -5.421536032883863e-08 4.3358093755888884e-08 1.0857266572950161e-08 5.328155014246762e-07 0.0 0.0
0.0 1.1730303714050573e-06 -8.711884364627267e-09 6.167281514319152e-09 2.544602850308596e-09 7.818080223922047e-08 0.0 0.0
0.0 1.922849468820777e-06 5.4761758461039e-09 4.8783259573621916e-09 -1.03545018034612e-08 -3.7075804907011536e-07 0.0 0.0
0.0 1.7463632684856744e-06 -1.0807161335057875e-07 1.601080297566021e-07 -5.2036416406020456e-08 -2.3480853827189452e-07 0.0 0.0
0.0 0.0 0.0 0.0 0.0 0.0 0.0 0.0
0.0 3.3206270015814023e-07 3.228124362425176e-09 -1.4545472289870203e-09 -1.773577133437446e-09 6.641880132428198e-08 0.0 0.0
0.0 2.3045110399248156e-06 -4.220919038988007e-08 3.472898133365917e-08 7.480209056216798e-09 -2.7412585855312156e-07 0.0 0.0
0.0 4.874462347140934e-06 5.8845335082633695e-08 -4.2013151683629173e-08 -1.683218339899103e-08 2.222253818489083e-07 0.0 0.0
0.0 1.4668750040412607e-05 -2.2354900459291564e-06 1.8767265552448523e-06 3.587634906843113e-07 -1.3780013441501718e-05 0.0 0.0
0.0 6.621773630425173e-05 -1.4741206370430203e-05 1.1835672213675765e-05 2.905534156754403e-06 -7.814922283056562e-05 0.0 0.0
0.0 0.00019615323171269007 -5.601051694614774e-05 4.492988764391889e-05 1.1080629302228868e-05 -0.0002557707877287698 0.0 0.0
0.0 0.0004846913957524142 -0.0002050678780370847 0.0001640351301402994 4.1032747896785345e-05 -0.0007100838760198356 0.0 0.0
0.0 0.0012428495925098156 -0.0006562090824689151 0.0005330397679699553 0.00012316931449895963 -0.0015862016268153613 0.0 0.0
0.0 0.002484431530832969 -0.001544068841619669 0.0012917693975343252 0.0002522994440853428 -0.0028363457752563865 0.0 0.0
0.0 0.0040839655503261555 -0.0027737095765006194 0.0023936478350289753 0.00038006174147164396 -0.004269677946512282 0.0 0.0
0.0 0.006012957137390466 -0.004214933100694063 0.003735397945264631 0.00047953515542943246 -0.00575442684179496 0.0 0.0
0.0 0.008153445616263343 -0.005866376538780807 0.005307220421719976 0.0005591561170608285 -0.007278364142889544 0.0 0.0
0.0 0.010599606675876108 -0.007762061450650677 0.0071368079557614815 0.0006252534948891992 -0.008823525357193369 0.0 0.0
0.0 0.013338784252668748 -0.009874804677163505 0.009190596364861707 0.0006842083123017925 -0.010464041240507236 0.0 0.0
0.0 0.016197749648611582 -0.012025288349272351 0.011286679957907674 0.0007386083913646763 -0.012294455491233886 0.0 0.0
0.0 0.01884021759365613 -0.013843752272364642 0.013056043322909005 0.0007877089494556391 -0.014373218652089003 0.0 0.0
0.0 0.020669451767032956 -0.014808682487620071 0.013983621281084636 0.0008250612065354413 -0.016602116513904995 0.0 0.0
0.0 0.020214617094515656 -0.013934671337696006 0.013016155072146773 0.0009185162655492253 -0.017483381404104225 0.0 0.0
0.0 0.015405316314921655 -0.009206386398951417 0.008233047839354557 0.0009733385595968575 -0.014878240916473214 0.0 0.0
0.0 0.015405316314928311 -0.009206386398952542 0.008233047839355597 0.000973338559596946 0.01487824091649291 0.0 0.0
0.0 0.020214617094520375 -0.013934671337694535 0.013016155072145336 0.0009185162655491975 0.017483381404130097 0.0 0.0
0.0 0.020669451767027176 -0.01480868248761191 0.013983621281076532 0.0008250612065353748 0.016602116513920226 0.0 0.0
0.0 0.018840217593642777 -0.013843752272352924 0.01305604332289746 0.0007877089494554637 0.014373218652087107 0.0 0.0
0.0 0.016197749648597246 -0.012025288349261016 0.0112866799578969 0.0007386083913641197 0.012294455491224104 0.0 0.0
0.0 0.013338784252654882 -0.009874804677152332 0.009190596364851117 0.0006842083123012105 0.010464041240499437 0.0 0.0
0.0 0.010599606675859375 -0.007762061450637793 0.007136807955748654 0.00062525349488914 0.008823525357182735 0.0 0.0
0.0 0.00815344561624772 -0.005866376538768071 0.00530722042170754 0.0005591561170605257 0.007278364142880787 0.0 0.0
0.0 0.006012957137375371 -0.004214933100682562 0.003735397945253953 0.00047953515542860825 0.005754426841784566 0.0 0.0
0.0 0.004083965550310242 -0.002773709576489403 0.0023936478350187113 0.00038006174147069165 0.00426967794649856 0.0 0.0
0.0 0.002484431530820111 -0.0015440688416110218 0.0012917693975267987 0.0002522994440842225 0.002836345775244128 0.0 0.0
0.0 0.001242849592502945 -0.0006562090824644327 0.0005330397679661864 0.00012316931449824606 0.001586201626808059 0.0 0.0
0.0 0.0004846913957490417 -0.00020506787803542385 0.00016403513013897852 4.103274789644537e-05 0.0007100838760157149 0.0 0.0
0.0 0.00019615323171097069 -5.601051694585846e-05 4.492988764369737e-05 1.108062930216102e-05 0.00025577078772756216 0.0 0.0
0.0 6.621773630309573e-05 -1.4741206370366562e-05 1.1835672213623884e-05 2.9055341567426677e-06 7.814922283024155e-05 0.0 0.0
0.0 1.4668750040103484e-05 -2.235490046010035e-06 1.8767265553119847e-06 3.5876349069803326e-07 1.3780013441999906e-05 0.0 0.0
0.0 4.874462346857846e-06 5.884533502469267e-08 -4.2013151633363366e-08 -1.683218339132544e-08 -2.2222538144345417e-07 0.0 0.0
0.0 2.304511039190638e-06 -4.220919046575648e-08 3.472898139399971e-08 7.480209071756865e-09 2.741258591042478e-07 0.0 0.0
0.0 3.3206269971330245e-07 3.2281243589135146e-09 -1.4545472286881782e-09 -1.7735771302251563e-09 -6.64188012348373e-08 0.0 0.0
0.0 0.0 0.0 0.0 0.0 0.0 0.0 0.0
0.0 0.0 0.0 0.0 0.0 0.0 0.0 0.0
0.0 9.659038647247042e-07 1.536493391610939e-08 -9.441890028047111e-09 -5.923043888061976e-09 1.9697054502569396e-07 0.0 0.0
0.0 3.123797815057657e-06 1.0788026094104876e-07 -8.564980673659911e-08 -2.2230454204453356e-08 6.305005306608872e-07 0.0 0.0
0.0 6.938209678294224e-06 3.082033892959123e-07 -2.5436413480908526e-07 -5.3839254486816005e-08 1.3877878359182664e-06 0.0 0.0
0.0 2.0767534191079307e-05 -4.77374648752298e-06 3.850768876159288e-06 9.229776113637046e-07 -1.7043696035391164e-05 0.0 0.0
0.0 8.520317508400528e-05 -2.919106527217911e-05 2.346495053557279e-05 5.726114736606291e-06 -9.113617016369436e-05 0.0 0.0
0.0 0.0003276672786070333 -0.00016325643341217507 0.0001307929914116891 3.2463442000486e-05 -0.0003978996936451119 0.0 0.0
0.0 0.0011166427557461806 -0.0007118493754419179 0.0005798339334484975 0.00013201544199342035 -0.0012461980740956877 0.0 0.0
0.0 0.002724965386435984 -0.001912075469330626 0.0016151161888286261 0.0002969592805019992 -0.002588911362134187 0.0 0.0
0.0 0.004869498208258851 -0.003703073719072171 0.003244089295847926 0.0004589844232242447 -0.004260080027153426 0.0 0.0
0.0 0.0076149637998989845 -0.005878161514183289 0.005301650325234915 0.0005765111889483767 -0.006051277737683622 0.0 0.0
0.0 0.010590342955842253 -0.008352924367602025 0.007691856540462736 0.0006610678271392857 -0.007809755827787241 0.0 0.0
0.0 0.013970618266185529 -0.011151144453006464 0.01042384097012863 0.0007273034828778331 -0.00952905403925351 0.0 0.0
0.0 0.017854439327851523 -0.014355041318556985 0.013569734454630673 0.0007853068639263081 -0.011288177290505196 0.0 0.0
0.0 0.022314825539759324 -0.017976562706023713 0.01713373902464095 0.0008428236813827603 -0.013255376058290923 0.0 0.0
0.0 0.027084496239480886 -0.021830961470702504 0.020928391095561855 0.0009025703751406395 -0.015666650082559803 0.0 0.0
0.0 0.03179402781597844 -0.02545687915897581 0.024494442872830462 0.0009624362861453374 -0.01870773376846446 0.0 0.0
0.0 0.03514627783668049 -0.027986536107140914 0.026947075168463425 0.0010394609386774872 -0.02185717385482127 0.0 0.0
0.0 0.03543242718292661 -0.027801276620760894 0.02666468263632787 0.0011365939844330216 -0.023432146328764718 0.0 0.0
0.0 0.028495627765846524 -0.021995023471965136 0.020672150521891575 0.001322872950073548 -0.019866456094909692 0.0 0.0
0.0 0.02849562776585278 -0.021995023471965656 0.02067215052189201 0.0013228729500736418 0.019866456094935512 0.0 0.0
0.0 0.035432427182929764 -0.027801276620757227 0.02666468263632441 0.001136593984432802 0.023432146328798916 0.0 0.0
0.0 0.03514627783667112 -0.027986536107128715 0.026947075168451202 0.0010394609386775065 0.021857173854842316 0.0 0.0
0.0 0.031794027815958234 -0.02545687915895719 0.024494442872812223 0.0009624362861449767 0.018707733768466364 0.0 0.0
0.0 0.02708449623945612 -0.02183096147068172 0.02092839109554121 0.0009025703751405153 0.015666650082550207 0.0 0.0
0.0 0.022314825539737487 -0.017976562706005707 0.01713373902462318 0.000842823681382523 0.013255376058280543 0.0 0.0
0.0 0.017854439327830544 -0.014355041318539579 0.013569734454613772 0.0007853068639258046 0.011288177290494713 0.0 0.0
0.0 0.01397061826616329 -0.01115114445298739 0.010423840970109935 0.0007273034828774511 0.00952905403924524 0.0 0.0
0.0 0.010590342955819166 -0.008352924367583317 0.007691856540444414 0.0006610678271389028 0.00780975582777369 0.0 0.0
0.0 0.007614963799875742 -0.00587816151416499 0.00530165032521736 0.0005765111889476293 0.006051277737666831 0.0 0.0
0.0 0.004869498208239772 -0.0037030737190578335 0.003244089295834432 0.0004589844232234019 0.004260080027138102 0.0 0.0
0.0 0.0027249653864242023 -0.001912075469321436 0.001615116188820413 0.00029695928050102303 0.002588911362125458 0.0 0.0
0.0 0.0011166427557401369 -0.0007118493754379096 0.0005798339334451529 0.0001320154419927567 0.0012461980740901368 0.0 0.0
0.0 0.0003276672786043153 -0.00016325643341119598 0.00013079299141092172 3.2463442000274235e-05 0.0003978996936430414 0.0 0.0
0.0 8.520317508269139e-05 -2.9191065272177026e-05 2.346495053556756e-05 5.726114736609415e-06 9.113617016351613e-05 0.0 0.0
0.0 2.0767534190389785e-05 -4.773746487551651e-06 3.850768876181048e-06 9.229776113705613e-07 1.7043696035498544e-05 0.0 0.0
0.0 6.938209677724971e-06 3.0820338918718335e-07 -2.543641347210514e-07 -5.3839254466142e-08 -1.3877878354651514e-06 0.0 0.0
0.0 3.1237978142420583e-06 1.0788026091149483e-07 -8.564980671326711e-08 -2.2230454198221235e-08 -6.305005304893692e-07 0.0 0.0
0.0 9.659038644330307e-07 1.5364933911636078e-08 -9.441890025310556e-09 -5.923043886328447e-09 -1.969705449648645e-07 0.0 0.0
0.0 0.0 0.0 0.0 0.0 0.0 0.0 0.0
0.0 0.0 0.0 0.0 0.0 0.0 0.0 0.0
0.0 0.0 0.0 0.0 0.0 0.0 0.0 0.0
0.0 1.762862297087584e-06 7.425115861487428e-08 -6.029149643128876e-08 -1.3959662183589334e-08 3.448992119798501e-07 0.0 0.0
0.0 5.763463818545584e-06 -2.0634814438271734e-07 1.8266293084243283e-07 2.3685213540280682e-08 -7.784100788822259e-07 0.0 0.0
0.0 2.783503506661915e-05 -7.453741381748473e-06 6.071896011191165e-06 1.3818453705573402e-06 -1.9311140654900364e-05 0.0 0.0
0.0 0.00013841553323734918 -6.958927491592516e-05 5.570216664517839e-05 1.3887108270746753e-05 -0.00014228611491354167 0.0 0.0
0.0 0.0006853185881372899 -0.00045245476484881636 0.00036617641174463395 8.627835310418256e-05 -0.0006766028883829354 0.0 0.0
0.0 0.002115940917648635 -0.0015766651452277804 0.0013191197426228752 0.0002575454026049051 -0.001798039350916106 0.0 0.0
0.0 0.004489790933892755 -0.0035256201991656667 0.0030764310472086087 0.00044918915195705876 -0.003385519956407358 0.0 0.0
0.0 0.007575446386078562 -0.006132560929817062 0.005536621427965907 0.0005959395018511541 -0.005279364287834757 0.0 0.0
0.0 0.011230577408296747 -0.009200237821469533 0.00850512018722559 0.0006951176342439437 -0.007228967178931088 0.0 0.0
0.0 0.015382440232776613 -0.012677650001086258 0.011906349092913042 0.0007713009081732128 -0.009097845957655962 0.0 0.0
0.0 0.020100350695645593 -0.016623680381273095 0.015788412743483048 0.0008352676377900423 -0.010928249842179404 0.0 0.0
0.0 0.025451342968394318 -0.021153706410565055 0.020258295819533045 0.0008954105910320093 -0.012827086380418944 0.0 0.0
0.0 0.0316039895709614 -0.02631550427306907 0.02535856125826768 0.000956943014801377 -0.015001385883707332 0.0 0.0
0.0 0.03837732935214687 -0.03193371778489981 0.03090765554347608 0.0010260622414237247 -0.017815193003275408 0.0 0.0
0.0 0.045032903620611964 -0.037391002716799 0.03628321882189696 0.0011077838949020325 -0.021490819958684633 0.0 0.0
0.0 0.050111154505015 -0.041378546874336376 0.04017101116207147 0.0012075357122648695 -0.025429667770685966 0.0 0.0
0.0 0.05074339889830309 -0.04161922019989426 0.040276899618786444 0.0013423205811077814 -0.027581332564856405 0.0 0.0
0.0 0.04209377161105224 -0.03426935504786325 0.03272359324474597 0.001545761803117287 -0.024411426008260132 0.0 0.0
0.0 0.04209377161105668 -0.03426935504786222 0.032723593244745004 0.0015457618031172115 0.02441142600828954 0.0 0.0
0.0 0.0507433988983039 -0.0416192201998889 0.040276899618781524 0.0013423205811073683 0.02758133256489477 0.0 0.0
0.0 0.050111154505003544 -0.041378546874321645 0.040171011162057554 0.0012075357122640748 0.025429667770714513 0.0 0.0
0.0 0.04503290362058703 -0.03739100271677574 0.036283218821874526 0.0011077838949011857 0.021490819958689455 0.0 0.0
0.0 0.038377329352116796 -0.031933717784873625 0.03090765554345079 0.0010260622414228126 0.017815193003267418 0.0 0.0
0.0 0.03160398957092972 -0.02631550427304203 0.025358561258241062 0.0009569430148009645 0.01500138588369698 0.0 0.0
0.0 0.02545134296836384 -0.021153706410539427 0.02025829581950775 0.0008954105910316745 0.012827086380406355 0.0 0.0
0.0 0.02010035069561722 -0.016623680381248753 0.015788412743459206 0.000835267637789549 0.010928249842170123 0.0 0.0
0.0 0.01538244023274881 -0.012677650001062616 0.011906349092890163 0.0007713009081724512 0.009097845957642792 0.0 0.0
0.0 0.0112305774082695 -0.009200237821447304 0.008505120187203974 0.0006951176342433329 0.0072289671789139975 0.0 0.0
0.0 0.007575446386054251 -0.00613256092979755 0.005536621427947196 0.0005959395018503533 0.00527936428781774 0.0 0.0
0.0 0.0044897909338760065 -0.003525620199152371 0.003076431047196333 0.00044918915195603853 0.0033855199563968368 0.0 0.0
0.0 0.0021159409176388015 -0.0015766651452201086 0.0013191197426163036 0.00025754540260380476 0.0017980393509093484 0.0 0.0
0.0 0.0006853185881320967 -0.00045245476484554446 0.0003661764117419558 8.627835310358862e-05 0.0006766028883787808 0.0 0.0
0.0 0.00013841553323564373 -6.958927491565666e-05 5.570216664495375e-05 1.388710827070292e-05 0.00014228611491290969 0.0 0.0
0.0 2.7835035065719026e-05 -7.453741381821218e-06 6.07189601124898e-06 1.3818453705721929e-06 1.9311140655086718e-05 0.0 0.0
0.0 5.763463818049954e-06 -2.063481445000283e-07 1.8266293093874497e-07 2.368521356127325e-08 7.784100792762093e-07 0.0 0.0
0.0 1.7628622966370727e-06 7.425115859493936e-08 -6.029149641515662e-08 -1.3959662179784548e-08 -3.4489921188806817e-07 0.0 0.0
0.0 0.0 0.0 0.0 0.0 0.0 0.0 0.0
0.0 0.0 0.0 0.0 0.0 0.0 0.0 0.0
0.0 0.0 0.0 0.0 0.0 0.0 0.0 0.0
0.0 0.0 0.0 0.0 0.0 0.0 0.0 0.0
0.0 6.301117771691601e-07 3.177133557320747e-08 -2.5610055499987776e-08 -6.161280073216576e-09 1.139376708674144e-07 0.0 0.0
0.0 7.970808409918044e-06 5.815509169919215e-07 -4.6594831902360824e-07 -1.1560259796830223e-07 1.4720355902156086e-06 0.0 0.0
0.0 4.2423942981064636e-05 -8.980229700810156e-06 7.249864644448162e-06 1.7303650563619967e-06 -1.61534645102951e-05 0.0 0.0
0.0 0.00027833271479780537 -0.00018101188186362392 0.00014534290803501918 3.566897382860471e-05 -0.00024744932903184426 0.0 0.0
0.0 0.0012741408027436224 -0.0009512276233445716 0.0007818020200728851 0.00016942560327168625 -0.0009524876896777739 0.0 0.0
0.0 0.003334054671483641 -0.002679014517482528 0.002299357733033541 0.00037965678444898637 -0.0021941546815148236 0.0 0.0
0.0 0.006409116586953121 -0.005327330997497589 0.004765411267640464 0.0005619197298571247 -0.0038913097794590606 0.0 0.0
0.0 0.010345231032294708 -0.00868608165951255 0.00799892742005695 0.0006871542394555968 -0.005814681419895472 0.0 0.0
0.0 0.014986666483495854 -0.012619409733552245 0.011841356268999735 0.0007780534645525078 -0.0077519352714472195 0.0 0.0
0.0 0.020287536708056126 -0.017104456491396934 0.0162509166181785 0.0008535398732184461 -0.009636461303088336 0.0 0.0
0.0 0.026304196696620624 -0.022212407174435837 0.021290633566540516 0.0009217736078953091 -0.011502922520793669 0.0 0.0
0.0 0.03319803583869503 -0.028075494897532586 0.027088585205713507 0.0009869096918190773 -0.01343461992036409 0.0 0.0
0.0 0.04113436863526999 -0.034785983084849065 0.033731451216962915 0.0010545318678861558 -0.015645917609464474 0.0 0.0
0.0 0.0497121270669695 -0.04217098670235935 0.041036383454807895 0.0011346032475514495 -0.01851636238527386 0.0 0.0
0.0 0.05850016193298289 -0.04943050846167194 0.048193826868215515 0.001236681593456435 -0.022339923131599028 0.0 0.0
0.0 0.06513135299041703 -0.05479559384007346 0.053430470504547904 0.001365123335525568 -0.02670314641467664 0.0 0.0
0.0 0.0659730979620246 -0.05525120285196035 0.05372535515005089 0.0015258477019094254 -0.029690403577572168 0.0 0.0
0.0 0.055751305000785296 -0.04628918226674235 0.04456988850801544 0.0017192937587269012 -0.02853463421706491 0.0 0.0
0.0 0.05575130500078723 -0.04628918226673941 0.04456988850801225 0.0017192937587271469 0.028534634217096667 0.0 0.0
0.0 0.06597309796201775 -0.05525120285194926 0.053725355150039775 0.0015258477019094742 0.029690403577611373 0.0 0.0
0.0 0.06513135299039818 -0.05479559384005335 0.053430470504527906 0.0013651233355254488 0.02670314641470576 0.0 0.0
0.0 0.058500161932952356 -0.04943050846164436 0.048193826868187725 0.0012366815934566043 0.022339923131605356 0.0 0.0
0.0 0.049712127066930775 -0.042170986702326094 0.04103638345477419 0.0011346032475518803 0.01851636238526718 0.0 0.0
0.0 0.04113436863523409 -0.034785983084818076 0.03373145121693216 0.001054531867885929 0.015645917609456078 0.0 0.0
0.0 0.03319803583865712 -0.028075494897500178 0.02708858520568129 0.0009869096918188878 0.013434619920351557 0.0 0.0
0.0 0.026304196696583317 -0.022212407174403537 0.021290633566508756 0.0009217736078947803 0.011502922520783027 0.0 0.0
0.0 0.020287536708019895 -0.01710445649136593 0.01625091661814789 0.0008535398732180367 0.009636461303074644 0.0 0.0
0.0 0.014986666483460056 -0.012619409733522335 0.01184135626897009 0.0007780534645522434 0.007751935271428906 0.0 0.0
0.0 0.010345231032264559 -0.008686081659487345 0.007998927420032272 0.0006871542394550777 0.005814681419877056 0.0 0.0
0.0 0.006409116586929955 -0.005327330997478116 0.004765411267621778 0.0005619197298563393 0.0038913097794471274 0.0 0.0
0.0 0.0033340546714663265 -0.0026790145174682752 0.0022993577330205346 0.00037965678444774165 0.0021941546815049387 0.0 0.0
0.0 0.0012741408027349467 -0.0009512276233381925 0.0007818020200675176 0.00016942560327067483 0.0009524876896718961 0.0 0.0
0.0 0.0002783327147947994 -0.00018101188186221232 0.00014534290803388226 3.5668973828330026e-05 0.00024744932903004974 0.0 0.0
0.0 4.242394298020016e-05 -8.98022970099745e-06 7.249864644592824e-06 1.7303650564045252e-06 1.615346451061676e-05 0.0 0.0
0.0 7.970808409158845e-06 5.815509169319078e-07 -4.659483189760668e-07 -1.1560259795583037e-07 -1.4720355900711992e-06 0.0 0.0
0.0 6.301117768796378e-07 3.177133555832444e-08 -2.5610055487985994e-08 -6.161280070339225e-09 -1.1393767081387647e-07 0.0 0.0
0.0 0.0 0.0 0.0 0.0 0.0 0.0 0.0
0.0 0.0 0.0 0.0 0.0 0.0 0.0 0.0
0.0 0.0 0.0 0.0 0.0 0.0 0.0 0.0
0.0 0.0 0.0 0.0 0.0 0.0 0.0 0.0
0.0 9.159772724021529e-07 5.630253744311479e-08 -4.536700834069255e-08 -1.0935529102421052e-08 1.5681455061216043e-07 0.0 0.0
0.0 3.7850087649535353e-06 1.5348694061722618e-07 -1.2233219776573953e-07 -3.115474285144546e-08 3.168150505461038e-07 0.0 0.0
0.0 6.637094839992999e-05 -3.0954932430997684e-05 2.474221832148865e-05 6.2127141095090466e-06 -4.079023186816799e-05 0.0 0.0
0.0 0.0005570595134566645 -0.0003977743851430963 0.0003210678035827437 7.670658156035279e-05 -0.00036640472312550796 0.0 0.0
0.0 0.0020776717350341773 -0.0016256117472665318 0.00136131003722799 0.00026430171003854173 -0.001136864010173731 0.0 0.0
0.0 0.004637773629456133 -0.003947624410010696 0.003464508575140078 0.00048311583487061784 -0.002401176986103206 0.0 0.0
0.0 0.008410358672673326 -0.007221369509186069 0.0065794259973252864 0.0006419435118607829 -0.004034048487204407 0.0 0.0
0.0 0.013186184903159537 -0.011298611040723761 0.010544495836546226 0.0007541152041775443 -0.005835657882615716 0.0 0.0
0.0 0.018817814520921006 -0.016096004750640148 0.01525270334028402 0.0008433014103561178 -0.007681187766242593 0.0 0.0
0.0 0.025252836673548475 -0.021598508754568556 0.020675959966121378 0.0009225487884471613 -0.009480582132785555 0.0 0.0
0.0 0.032648288791768586 -0.027882302608337278 0.026884821225758405 0.0009974813825788659 -0.011278748499316277 0.0 0.0
0.0 0.040966559654816534 -0.03508674970953363 0.03401724165252533 0.0010695080570082979 -0.013169438497385522 0.0 0.0
0.0 0.05056477028705537 -0.04331488900852677 0.0421715741263215 0.0011433148822052818 -0.015236109810073551 0.0 0.0
0.0 0.06126556206843775 -0.05240016528608549 0.05116662025955472 0.0012335450265307686 -0.017761921450341563 0.0 0.0
0.0 0.07170888180792812 -0.06140968185786701 0.0600550556564305 0.0013546262014364743 -0.0212586775971528 0.0 0.0
0.0 0.07968510709587776 -0.06811125919683059 0.06660092163108952 0.0015103375657410604 -0.025762404209195348 0.0 0.0
0.0 0.08091978832357047 -0.0687957770073217 0.06710746557236758 0.001688311434954098 -0.030110762408410645 0.0 0.0
0.0 0.06971829697727401 -0.05839657734602914 0.056521045888784996 0.0018755314572441086 -0.03249030421641369 0.0 0.0
0.0 0.0697182969772727 -0.0583965773460238 0.056521045888779514 0.0018755314572442474 0.03249030421644532 0.0 0.0
0.0 0.08091978832356046 -0.06879577700730845 0.06710746557235463 0.0016883114349537781 0.03011076240845125 0.0 0.0
0.0 0.07968510709585373 -0.06811125919680651 0.06660092163106601 0.0015103375657404747 0.02576240420922527 0.0 0.0
0.0 0.07170888180789202 -0.06140968185783418 0.060055055656398876 0.0013546262014352936 0.02125867759716036 0.0 0.0
0.0 0.06126556206839585 -0.052400165286048545 0.051166620259518736 0.0012335450265297861 0.017761921450339176 0.0 0.0
0.0 0.0505647702870089 -0.04331488900848637 0.04217157412628142 0.0011433148822049244 0.015236109810066956 0.0 0.0
0.0 0.04096655965477019 -0.03508674970949364 0.03401724165248561 0.00106950805700802 0.013169438497374644 0.0 0.0
0.0 0.03264828879172413 -0.027882302608298548 0.026884821225719946 0.0009974813825785922 0.011278748499306497 0.0 0.0
0.0 0.025252836673504125 -0.021598508754530094 0.020675959966083297 0.0009225487884467886 0.009480582132772811 0.0 0.0
0.0 0.018817814520879963 -0.016096004750605117 0.015252703340249522 0.000843301410355593 0.00768118776622524 0.0 0.0
0.0 0.013186184903125083 -0.011298611040694448 0.010544495836517587 0.0007541152041768539 0.0058356578825989065 0.0 0.0
0.0 0.008410358672648739 -0.00722136950916465 0.006579425997304836 0.0006419435118598126 0.004034048487193623 0.0 0.0
0.0 0.004637773629438314 -0.003947624409995253 0.003464508575125748 0.00048311583486950296 0.002401176986095076 0.0 0.0
0.0 0.0020776717350223994 -0.00162561174725701 0.0013613100372197031 0.00026430171003730693 0.0011368640101677456 0.0 0.0
0.0 0.0005570595134516433 -0.0003977743851398185 0.0003210678035800316 7.670658155978687e-05 0.00036640472312251475 0.0 0.0
0.0 6.637094839892046e-05 -3.095493243110858e-05 2.4742218321563916e-05 6.212714109544679e-06 4.079023186823642e-05 0.0 0.0
0.0 3.785008764581629e-06 1.5348694045922767e-07 -1.2233219764027981e-07 -3.115474281897046e-08 -3.168150502542811e-07 0.0 0.0
0.0 9.159772720464821e-07 5.630253742091469e-08 -4.5367008322703315e-08 -1.0935529098212496e-08 -1.5681455054918204e-07 0.0 0.0
0.0 0.0 0.0 0.0 0.0 0.0 0.0 0.0
0.0 0.0 0.0 0.0 0.0 0.0 0.0 0.0
0.0 0.0 0.0 0.0 0.0 0.0 0.0 0.0
0.0 0.0 0.0 0.0 0.0 0.0 0.0 0.0
0.0 0.0 0.0 0.0 0.0 0.0 0.0 0.0
0.0 3.7899296276395225e-06 -5.388846432840485e-07 4.2238759236214053e-07 1.1649705092192658e-07 -6.994955130146064e-07 0.0 0.0
0.0 0.00012909069775285422 -7.583959394496578e-05 6.0770178034622156e-05 1.5069415910343753e-05 -7.12549231036355e-05 0.0 0.0
0.0 0.000985565954048786 -0.0007366575839418988 0.0006011793635226014 0.00013547822041929774 -0.00045815967637085123 0.0 0.0
0.0 0.002841383964360836 -0.00246591632688174 0.0021052454144780772 0.00036067091240366304 -0.0012261135988112363 0.0 0.0
0.0 0.006037842009295576 -0.005300211911256589 0.0047388927298924475 0.0005613191813641428 -0.0023646817902282452 0.0 0.0
0.0 0.01051193743863912 -0.009152579306300021 0.008450998470190948 0.00070158083610907 -0.0037839377521895682 0.0 0.0
0.0 0.01608112473827543 -0.013945034805328702 0.013137856816031596 0.0008071779892971126 -0.005388064902991936 0.0 0.0
0.0 0.022681346257929644 -0.019605831937813734 0.018707765155973846 0.0008980667818398798 -0.0070346203199318225 0.0 0.0
0.0 0.030290247155880877 -0.02613471791785863 0.025151212471102993 0.0009835054467556268 -0.008646872456352022 0.0 0.0
0.0 0.038977722221684476 -0.03361253776584349 0.0325465457137647 0.0010659920520787733 -0.010286930608221842 0.0 0.0
0.0 0.04892472229030631 -0.04215897071513463 0.041011665297763567 0.0011473054173710574 -0.012011313019848221 0.0 0.0
0.0 0.060175164148120325 -0.05184780606275482 0.05061881487035644 0.0012289911923983841 -0.013812365549269463 0.0 0.0
0.0 0.07232007605151519 -0.06250533837696863 0.06118098771742191 0.0013243506595466744 -0.015731563136790007 0.0 0.0
0.0 0.08466948703618639 -0.07315128534910668 0.07169124311271641 0.0014600422363902832 -0.018311875987487323 0.0 0.0
0.0 0.09419687947158267 -0.08123639161678542 0.07959678830919202 0.001639603307593386 -0.02257607353501346 0.0 0.0
0.0 0.09605941488618128 -0.08241449934500852 0.08057617563662665 0.0018383237083818742 -0.02886125128861645 0.0 0.0
0.0 0.08404492745480355 -0.0709057827904298 0.0688773106057728 0.002028472184656977 -0.03628865739249663 0.0 0.0
0.0 0.0840449274548023 -0.07090578279042463 0.06887731060576781 0.0020284721846568245 0.03628865739252786 0.0 0.0
0.0 0.09605941488616501 -0.08241449934499091 0.08057617563660936 0.0018383237083815607 0.028861251288653758 0.0 0.0
0.0 0.09419687947154777 -0.08123639161675343 0.07959678830915981 0.0016396033075935228 0.022576073535038793 0.0 0.0
0.0 0.08466948703614206 -0.07315128534906776 0.0716912431126775 0.0014600422363902558 0.018311875987493762 0.0 0.0
0.0 0.07232007605146329 -0.06250533837692338 0.061180987717377025 0.0013243506595462962 0.015731563136788355 0.0 0.0
0.0 0.060175164148066236 -0.0518478060627078 0.05061881487030986 0.0012289911923979457 0.013812365549264542 0.0 0.0
0.0 0.04892472229025661 -0.0421589707150911 0.041011665297721545 0.0011473054173695434 0.012011313019840469 0.0 0.0
0.0 0.03897772222163612 -0.03361253776580109 0.032546545713723576 0.0010659920520775064 0.010286930608213602 0.0 0.0
0.0 0.030290247155831687 -0.02613471791781551 0.02515121247106081 0.0009835054467547141 0.008646872456341093 0.0 0.0
0.0 0.022681346257883397 -0.019605831937773578 0.018707765155934288 0.0008980667818392828 0.007034620319916159 0.0 0.0
0.0 0.016081124738237224 -0.013945034805295506 0.013137856815998944 0.0008071779892965593 0.005388064902977727 0.0 0.0
0.0 0.010511937438608478 -0.009152579306273084 0.00845099847016454 0.0007015808361085433 0.003783937752179797 0.0 0.0
0.0 0.006037842009273132 -0.005300211911236677 0.0047388927298734635 0.000561319181363213 0.002364681790220074 0.0 0.0
0.0 0.002841383964347601 -0.0024659163268701935 0.002105245414467733 0.0003606709124024599 0.0012261135988059148 0.0 0.0
0.0 0.0009855659540417773 -0.0007366575839368662 0.0006011793635184134 0.00013547822041845285 0.0004581596763679287 0.0 0.0
0.0 0.00012909069775097695 -7.58395939444136e-05 6.077017803415924e-05 1.5069415910254215e-05 7.125492310310535e-05 0.0 0.0
0.0 3.789929627172683e-06 -5.388846435078083e-07 4.223875925379152e-07 1.1649705096990538e-07 6.994955133202981e-07 0.0 0.0
0.0 0.0 0.0 0.0 0.0 0.0 0.0 0.0
0.0 0.0 0.0 0.0 0.0 0.0 0.0 0.0
0.0 0.0 0.0 0.0 0.0 0.0 0.0 0.0
0.0 0.0 0.0 0.0 0.0 0.0 0.0 0.0
0.0 0.0 0.0 0.0 0.0 0.0 0.0 0.0
0.0 0.0 0.0 0.0 0.0 0.0 0.0 0.0
0.0 4.178841222724088e-06 -5.374487501986643e-07 4.248727694757174e-07 1.1257598072293679e-07 -5.079955853147659e-07 0.0 0.0
0.0 0.0002701489846740027 -0.00017537721461802298 0.00014022115912797926 3.5156055490043645e-05 -0.000103793510078753 0.0 0.0
0.0 0.001503943821473465 -0.001208746167550555 0.0009992715332937576 0.0002094746342567976 -0.0004936765406825084 0.0 0.0
0.0 0.003778658393265048 -0.003389210747558763 0.0029449697402552295 0.00044424100730353273 -0.0011294683814019914 0.0 0.0
0.0 0.007542442290829827 -0.006682855963863448 0.006062335188306826 0.0006205207755566205 -0.0020340668614781013 0.0 0.0
0.0 0.012649929935892285 -0.011104101515231345 0.01035624198725682 0.0007478595279745204 -0.0031811683387141135 0.0 0.0
0.0 0.019015916762617324 -0.016602893890196074 0.015751806641283686 0.0008510872489123854 -0.004487102158541324 0.0 0.0
0.0 0.026601904965646003 -0.023127829010160438 0.022181788265961226 0.0009460407441992057 -0.005834810045770817 0.0 0.0
0.0 0.035332235710303715 -0.030692726703563718 0.029654521927280048 0.001038204776283648 -0.007152525649657486 0.0 0.0
0.0 0.04546904829179203 -0.03937676780835811 0.03824737049064564 0.0011293973177124365 -0.00850087952067103 0.0 0.0
0.0 0.05678492927451317 -0.04927364890258371 0.048052845443951345 0.0012208034586323907 -0.009971973478301595 0.0 0.0
0.0 0.06953322233873144 -0.06036726342171434 0.059053739267081365 0.001313524154632983 -0.011448508675354989 0.0 0.0
0.0 0.08339158299148838 -0.07239490332628151 0.07098088773926083 0.0014140155870207218 -0.012616819598463766 0.0 0.0
0.0 0.0972714611651641 -0.08445465745595014 0.08290898840030875 0.0015456690556413675 -0.013763585137790968 0.0 0.0
0.0 0.10842630714576172 -0.0940603818735839 0.09231199859496395 0.0017483832786198905 -0.01713785425126141 0.0 0.0
0.0 0.11146366126162034 -0.0962558961187175 0.09427674329736223 0.001979152821355314 -0.025567937373966083 0.0 0.0
0.0 0.09935891825663803 -0.08417863851567857 0.08198729911779845 0.002191339397880085 -0.039661051318410925 0.0 0.0
0.0 0.0993589182566369 -0.08417863851567423 0.08198729911779493 0.0021913393978793523 0.039661051318436356 0.0 0.0
0.0 0.1114636612616019 -0.09625589611869893 0.09427674329734462 0.00197915282135427 0.025567937373998272 0.0 0.0
0.0 0.10842630714572495 -0.09406038187355054 0.0923119985949314 0.0017483832786190775 0.017137854251285212 0.0 0.0
0.0 0.09727146116511573 -0.08445465745590752 0.08290898840026714 0.0015456690556403842 0.013763585137796616 0.0 0.0
0.0 0.0833915829914356 -0.07239490332623522 0.07098088773921574 0.0014140155870194957 0.01261681959846352 0.0 0.0
0.0 0.06953322233867398 -0.06036726342166425 0.059053739267031835 0.0013135241546324353 0.011448508675353722 0.0 0.0
0.0 0.05678492927445343 -0.04927364890253211 0.04805284544389969 0.0012208034586323913 0.009971973478295464 0.0 0.0
0.0 0.045469048291732324 -0.03937676780830624 0.03824737049059422 0.0011293973177120406 0.008500879520663425 0.0 0.0
0.0 0.03533223571024533 -0.030692726703512918 0.02965452192722992 0.0010382047762829937 0.007152525649650295 0.0 0.0
0.0 0.026601904965591963 -0.02312782901011303 0.022181788265914538 0.0009460407441984924 0.00583481004575854 0.0 0.0
0.0 0.019015916762571597 -0.01660289389015606 0.015751806641244197 0.0008510872489118671 0.004487102158528496 0.0 0.0
0.0 0.01264992993585785 -0.011104101515200866 0.010356241987227045 0.0007478595279738218 0.0031811683387057725 0.0 0.0
0.0 0.007542442290805055 -0.006682855963841202 0.006062335188285465 0.0006205207755557377 0.0020340668614715262 0.0 0.0
0.0 0.003778658393249625 -0.003389210747544746 0.0029449697402423244 0.00044424100730242207 0.0011294683813972528 0.0 0.0
0.0 0.0015039438214650145 -0.0012087461675435807 0.000999271533287863 0.0002094746342557166 0.0004936765406798242 0.0 0.0
0.0 0.00027014898467142654 -0.00017537721461672494 0.00014022115912691498 3.5156055489810026e-05 0.00010379351007799137 0.0 0.0
0.0 4.178841222136168e-06 -5.374487504057679e-07 4.248727696372538e-07 1.1257598076852241e-07 5.079955855107814e-07 0.0 0.0
0.0 0.0 0.0 0.0 0.0 0.0 0.0 0.0
0.0 0.0 0.0 0.0 0.0 0.0 0.0 0.0
0.0 0.0 0.0 0.0 0.0 0.0 0.0 0.0
0.0 0.0 0.0 0.0 0.0 0.0 0.0 0.0
0.0 0.0 0.0 0.0 0.0 0.0 0.0 0.0
0.0 0.0 0.0 0.0 0.0 0.0 0.0 0.0
0.0 9.657526385891505e-06 -1.0436255767520194e-06 8.525538838075836e-07 1.9107169294446521e-07 -7.096165003957832e-07 0.0 0.0
0.0 0.0005274594180178773 -0.0003612671873568524 0.00029079235638784697 7.047483096900555e-05 -0.00012247667333502342 0.0 0.0
0.0 0.00196906208924401 -0.001804617070731608 0.001512428825734422 0.0002921882449971851 -0.0004185105478237626 0.0 0.0
0.0 0.004825746672625166 -0.004351268092055529 0.003841620176361954 0.0005096479156935739 -0.0008443105452285767 0.0 0.0
0.0 0.009080797271789624 -0.008083013738520202 0.007416091382166826 0.0006669223563533766 -0.0014499763481646748 0.0 0.0
0.0 0.014809094549856695 -0.013055875204812273 0.01227135563903139 0.000784519565780877 -0.0022342475488695314 0.0 0.0
0.0 0.021964590779429468 -0.01925296605143753 0.01836478120038726 0.0008881848510502647 -0.0031429727153625396 0.0 0.0
0.0 0.03051872783231953 -0.026644143403496568 0.025655486285202943 0.0009886571182936344 -0.004080026246230319 0.0 0.0
0.0 0.04054061074751903 -0.03525195554658397 0.034163679023538555 0.0010882765230453956 -0.0049974039239000755 0.0 0.0
0.0 0.05182785075722471 -0.04515634258266642 0.04396796358386777 0.0011883789987986323 -0.0059711090766615986 0.0 0.0
0.0 0.06472362623325459 -0.05639603853408308 0.05510549691390979 0.0012905416201732544 -0.007025234131604515 0.0 0.0
0.0 0.07907894118659056 -0.06884904959001999 0.0674524924655634 0.0013965571244565966 -0.008024744062033854 0.0 0.0
0.0 0.0943125319996177 -0.08208581951881898 0.0805789882600571 0.0015068312587618719 -0.008610667407155517 0.0 0.0
0.0 0.10936504905869458 -0.0951878630642704 0.09355995208036896 0.0016279109839015134 -0.00846033836552652 0.0 0.0
0.0 0.12205795593878352 -0.10620392894916048 0.10440476980795857 0.0017991591412019193 -0.009487299443077359 0.0 0.0
0.0 0.12729316040323557 -0.11039606158496515 0.10827846232178637 0.002117599263178696 -0.018961185587773915 0.0 0.0
0.0 0.11612448815001557 -0.09877896297573374 0.09639624763634908 0.002382715339384634 -0.04189373972788532 0.0 0.0
0.0 0.11612448815000793 -0.09877896297572536 0.09639624763634032 0.0023827153393849976 0.04189373972790412 0.0 0.0
0.0 0.12729316040320698 -0.11039606158493949 0.10827846232176051 0.0021175992631789152 0.01896118558779776 0.0 0.0
0.0 0.12205795593873975 -0.10620392894912185 0.10440476980792064 0.0017991591412011814 0.009487299443094926 0.0 0.0
0.0 0.10936504905863798 -0.0951878630642209 0.09355995208032043 0.0016279109839004513 0.008460338365529155 0.0 0.0
0.0 0.09431253199955164 -0.0820858195187616 0.08057898826000022 0.0015068312587613666 0.008610667407154875 0.0 0.0
0.0 0.07907894118652264 -0.0688490495899609 0.067452492465505 0.0013965571244559168 0.008024744062032829 0.0 0.0
0.0 0.06472362623318752 -0.05639603853402458 0.055105496913852414 0.0012905416201721357 0.007025234131601178 0.0 0.0
0.0 0.051827850757157734 -0.045156342582608186 0.04396796358381024 0.0011883789987979414 0.00597110907665588 0.0 0.0
0.0 0.04054061074745531 -0.03525195554652829 0.03416367902348342 0.0010882765230448613 0.004997403923896024 0.0 0.0
0.0 0.03051872783226205 -0.026644143403446494 0.0256554862851535 0.0009886571182929757 0.0040800262462214725 0.0 0.0
0.0 0.02196459077938156 -0.019252966051395523 0.018364781200345945 0.0008881848510495908 0.003142972715353775 0.0 0.0
0.0 0.014809094549818602 -0.013055875204778255 0.012271355638998081 0.0007845195657801752 0.002234247548864535 0.0 0.0
0.0 0.00908079727175996 -0.008083013738493574 0.0074160913821411135 0.0006669223563524575 0.0014499763481598277 0.0 0.0
0.0 0.004825746672605289 -0.004351268092037293 0.0038416201763448177 0.0005096479156924745 0.0008443105452247894 0.0 0.0
0.0 0.0019690620892347296 -0.0018046170707229996 0.0015124288257268687 0.00029218824499613154 0.0004185105478217443 0.0 0.0
0.0 0.0005274594180141128 -0.00036126718735441667 0.0002907923563858528 7.047483096856374e-05 0.00012247667333434894 0.0 0.0
0.0 9.657526385216525e-06 -1.0436255770194483e-06 8.525538840166464e-07 1.9107169300275572e-07 7.096165005583653e-07 0.0 0.0
0.0 0.0 0.0 0.0 0.0 0.0 0.0 0.0
0.0 0.0 0.0 0.0 0.0 0.0 0.0 0.0
0.0 0.0 0.0 0.0 0.0 0.0 0.0 0.0
0.0 0.0 0.0 0.0 0.0 0.0 0.0 0.0
0.0 0.0 0.0 0.0 0.0 0.0 0.0 0.0
0.0 0.0 0.0 0.0 0.0 0.0 0.0 0.0
0.0 3.570954241275443e-05 -1.924773494626215e-05 1.5199550155813433e-05 4.048184790448867e-06 -5.474355465498192e-06 0.0 0.0
0.0 0.0009156073603914683 -0.0006416372041823893 0.0005203037426026884 0.00012133346157970084 -8.595649434741202e-05 0.0 0.0
0.0 0.002663017206084518 -0.0024412178878792956 0.002075248341746619 0.0003659695461326763 -0.0002018793629737539 0.0 0.0
0.0 0.005911119518809372 -0.005336536637694697 0.004774487986766931 0.0005620486509277625 -0.00037478648292896635 0.0 0.0
0.0 0.010655813866754672 -0.009481563817660184 0.008778639837340339 0.0007029239803198416 -0.0006168723342099439 0.0 0.0
0.0 0.016996559482945886 -0.014988968347283981 0.014174295476594035 0.0008146728706899485 -0.0009512569649039185 0.0 0.0
0.0 0.024958769715338638 -0.021874871559282836 0.020954663006987378 0.0009202085522954569 -0.0013552004201561492 0.0 0.0
0.0 0.03455926580973916 -0.030136355181471758 0.029109926395384157 0.001026428786087595 -0.0017747512362338938 0.0 0.0
0.0 0.045547293539613794 -0.03980441343246482 0.03866998565699695 0.0011344277754678556 -0.0022076740860867902 0.0 0.0
0.0 0.05827853325631953 -0.05091970934323212 0.049676096531962526 0.0012436128112695765 -0.002662810551407389 0.0 0.0
0.0 0.07274609571899851 -0.06347950829585478 0.06212315291965256 0.0013563553762021615 -0.003126177481945469 0.0 0.0
0.0 0.08863166459201266 -0.07726842634636713 0.07579293619729237 0.0014754901490747568 -0.003527797699757712 0.0 0.0
0.0 0.1052290236441364 -0.09165455307131563 0.09005431817271631 0.001600234898599339 -0.0036351524544693914 0.0 0.0
0.0 0.12119214917222382 -0.10549938140403295 0.10377519270353637 0.0017241887004965293 -0.0030614899227596297 0.0 0.0
0.0 0.13458305729763118 -0.1171515077854839 0.11530256815549014 0.00184893962999369 -0.0018473462383442624 0.0 0.0
0.0 0.14231447152680252 -0.12376122872176402 0.1217142497638188 0.0020469789579451577 -0.0063092171128276316 0.0 0.0
0.0 0.13567665806034607 -0.11624744643139898 0.11350215168371773 0.0027452947476812256 -0.038747974220301795 0.0 0.0
0.0 0.1356766580603374 -0.11624744643139046 0.11350215168370993 0.002745294747680486 0.03874797422030934 0.0 0.0
0.0 0.14231447152677196 -0.123761228721737 0.12171424976379268 0.002046978957944283 0.0063092171128372385 0.0 0.0
0.0 0.13458305729757744 -0.11715150778543737 0.1153025681554438 0.0018489396299934836 0.0018473462383528888 0.0 0.0
0.0 0.12119214917215858 -0.10549938140397634 0.1037751927034801 0.0017241887004962033 0.003061489922758053 0.0 0.0
0.0 0.10522902364406761 -0.09165455307125592 0.09005431817265695 0.0016002348985989564 0.003635152454469371 0.0 0.0
0.0 0.08863166459194073 -0.07726842634630463 0.07579293619723046 0.0014754901490741396 0.003527797699757117 0.0 0.0
0.0 0.07274609571892698 -0.06347950829579242 0.06212315291959132 0.001356355376201093 0.003126177481943838 0.0 0.0
0.0 0.05827853325624764 -0.05091970934316951 0.04967609653190084 0.0012436128112686279 0.00266281055140499 0.0 0.0
0.0 0.045547293539544564 -0.039804413432404366 0.038669985656937585 0.0011344277754667578 0.002207674086086227 0.0 0.0
0.0 0.03455926580967489 -0.03013635518141554 0.02910992639532887 0.001026428786086668 0.0017747512362287863 0.0 0.0
0.0 0.02495876971528465 -0.021874871559235922 0.020954663006941116 0.0009202085522948121 0.001355200420151842 0.0 0.0
0.0 0.016996559482904766 -0.01498896834724752 0.01417429547655837 0.0008146728706891489 0.0009512569649020523 0.0 0.0
0.0 0.01065581386672217 -0.009481563817630963 0.008778639837311747 0.0007029239803192159 0.0006168723342079538 0.0 0.0
0.0 0.0059111195187865825 -0.00533653663767401 0.0047744879867470695 0.0005620486509269411 0.0003747864829274106 0.0 0.0
0.0 0.002663017206072953 -0.0024412178878682207 0.002075248341736646 0.0003659695461315744 0.0002018793629728719 0.0 0.0
0.0 0.0009156073603855148 -0.0006416372041779714 0.000520303742599005 0.0001213334615789669 8.595649434693726e-05 0.0 0.0
0.0 3.570954241211871e-05 -1.9247734946386014e-05 1.5199550155898175e-05 4.048184790487826e-06 5.474355465480144e-06 0.0 0.0
0.0 0.0 0.0 0.0 0.0 0.0 0.0 0.0
0.0 0.0 0.0 0.0 0.0 0.0 0.0 0.0
0.0 0.0 0.0 0.0 0.0 0.0 0.0 0.0