# vtk DataFile Version 3.0
Some data
ASCII
DATASET UNSTRUCTURED_GRID
POINTS 861 float
0.0 0.0 0.0
0.4 0.0 0.0
0.8 0.0 0.0
1.2000000000000002 0.0 0.0
1.6 0.0 0.0
2.0 0.0 0.0
2.4000000000000004 0.0 0.0
2.8000000000000003 0.0 0.0
3.2 0.0 0.0
3.6 0.0 0.0
4.0 0.0 0.0
4.4 0.0 0.0
4.800000000000001 0.0 0.0
5.2 0.0 0.0
5.6000000000000005 0.0 0.0
6.0 0.0 0.0
6.4 0.0 0.0
6.800000000000001 0.0 0.0
7.2 0.0 0.0
7.6000000000000005 0.0 0.0
8.0 0.0 0.0
8.4 0.0 0.0
8.8 0.0 0.0
9.200000000000001 0.0 0.0
9.600000000000001 0.0 0.0
10.0 0.0 0.0
10.4 0.0 0.0
10.8 0.0 0.0
11.200000000000001 0.0 0.0
11.600000000000001 0.0 0.0
12.0 0.0 0.0
12.4 0.0 0.0
12.8 0.0 0.0
13.200000000000001 0.0 0.0
13.600000000000001 0.0 0.0
14.0 0.0 0.0
14.4 0.0 0.0
14.8 0.0 0.0
15.200000000000001 0.0 0.0
15.600000000000001 0.0 0.0
16.0 0.0 0.0
0.0 0.1 0.0
0.4 0.1 0.0
0.8 0.1 0.0
1.2000000000000002 0.1 0.0
1.6 0.1 0.0
2.0 0.1 0.0
2.4000000000000004 0.1 0.0
2.8000000000000003 0.1 0.0
3.2 0.1 0.0
3.6 0.1 0.0
4.0 0.1 0.0
4.4 0.1 0.0
4.800000000000001 0.1 0.0
5.2 0.1 0.0
5.6000000000000005 0.1 0.0
6.0 0.1 0.0
6.4 0.1 0.0
6.800000000000001 0.1 0.0
7.2 0.1 0.0
7.6000000000000005 0.1 0.0
8.0 0.1 0.0
8.4 0.1 0.0
8.8 0.1 0.0
9.200000000000001 0.1 0.0
9.600000000000001 0.1 0.0
10.0 0.1 0.0
10.4 0.1 0.0
10.8 0.1 0.0
11.200000000000001 0.1 0.0
11.600000000000001 0.1 0.0
12.0 0.1 0.0
12.4 0.1 0.0
12.8 0.1 0.0
13.200000000000001 0.1 0.0
13.600000000000001 0.1 0.0
14.0 0.1 0.0
14.4 0.1 0.0
14.8 0.1 0.0
15.200000000000001 0.1 0.0
15.600000000000001 0.1 0.0
16.0 0.1 0.0
0.0 0.2 0.0
0.4 0.2 0.0
0.8 0.2 0.0
1.2000000000000002 0.2 0.0
1.6 0.2 0.0
2.0 0.2 0.0
2.4000000000000004 0.2 0.0
2.8000000000000003 0.2 0.0
3.2 0.2 0.0
3.6 0.2 0.0
4.0 0.2 0.0
4.4 0.2 0.0
4.800000000000001 0.2 0.0
5.2 0.2 0.0
5.6000000000000005 0.2 0.0
6.0 0.2 0.0
6.4 0.2 0.0
6.800000000000001 0.2 0.0
7.2 0.2 0.0
7.6000000000000005 0.2 0.0
8.0 0.2 0.0
8.4 0.2 0.0
8.8 0.2 0.0
9.200000000000001 0.2 0.0
9.600000000000001 0.2 0.0
10.0 0.2 0.0
10.4 0.2 0.0
10.8 0.2 0.0
11.200000000000001 0.2 0.0
11.600000000000001 0.2 0.0
12.0 0.2 0.0
12.4 0.2 0.0
12.8 0.2 0.0
13.200000000000001 0.2 0.0
13.600000000000001 0.2 0.0
14.0 0.2 0.0
14.4 0.2 0.0
14.8 0.2 0.0
15.200000000000001 0.2 0.0
15.600000000000001 0.2 0.0
16.0 0.2 0.0
0.0 0.30000000000000004 0.0
0.4 0.30000000000000004 0.0
0.8 0.30000000000000004 0.0
1.2000000000000002 0.30000000000000004 0.0
1.6 0.30000000000000004 0.0
2.0 0.30000000000000004 0.0
2.4000000000000004 0.30000000000000004 0.0
2.8000000000000003 0.30000000000000004 0.0
3.2 0.30000000000000004 0.0
3.6 0.30000000000000004 0.0
4.0 0.30000000000000004 0.0
4.4 0.30000000000000004 0.0
4.800000000000001 0.30000000000000004 0.0
5.2 0.30000000000000004 0.0
5.6000000000000005 0.30000000000000004 0.0
6.0 0.30000000000000004 0.0
6.4 0.30000000000000004 0.0
6.800000000000001 0.30000000000000004 0.0
7.2 0.30000000000000004 0.0
7.6000000000000005 0.30000000000000004 0.0
8.0 0.30000000000000004 0.0
8.4 0.30000000000000004 0.0
8.8 0.30000000000000004 0.0
9.200000000000001 0.30000000000000004 0.0
9.600000000000001 0.30000000000000004 0.0
10.0 0.30000000000000004 0.0
10.4 0.30000000000000004 0.0
10.8 0.30000000000000004 0.0
11.200000000000001 0.30000000000000004 0.0
11.600000000000001 0.30000000000000004 0.0
12.0 0.30000000000000004 0.0
12.4 0.30000000000000004 0.0
12.8 0.30000000000000004 0.0
13.200000000000001 0.30000000000000004 0.0
13.600000000000001 0.30000000000000004 0.0
14.0 0.30000000000000004 0.0
14.4 0.30000000000000004 0.0
14.8 0.30000000000000004 0.0
15.200000000000001 0.30000000000000004 0.0
15.600000000000001 0.30000000000000004 0.0
16.0 0.30000000000000004 0.0
0.0 0.4 0.0
0.4 0.4 0.0
0.8 0.4 0.0
1.2000000000000002 0.4 0.0
1.6 0.4 0.0
2.0 0.4 0.0
2.4000000000000004 0.4 0.0
2.8000000000000003 0.4 0.0
3.2 0.4 0.0
3.6 0.4 0.0
4.0 0.4 0.0
4.4 0.4 0.0
4.800000000000001 0.4 0.0
5.2 0.4 0.0
5.6000000000000005 0.4 0.0
6.0 0.4 0.0
6.4 0.4 0.0
6.800000000000001 0.4 0.0
7.2 0.4 0.0
7.6000000000000005 0.4 0.0
8.0 0.4 0.0
8.4 0.4 0.0
8.8 0.4 0.0
9.200000000000001 0.4 0.0
9.600000000000001 0.4 0.0
10.0 0.4 0.0
10.4 0.4 0.0
10.8 0.4 0.0
11.200000000000001 0.4 0.0
11.600000000000001 0.4 0.0
12.0 0.4 0.0
12.4 0.4 0.0
12.8 0.4 0.0
13.200000000000001 0.4 0.0
13.600000000000001 0.4 0.0
14.0 0.4 0.0
14.4 0.4 0.0
14.8 0.4 0.0
15.200000000000001 0.4 0.0
15.600000000000001 0.4 0.0
16.0 0.4 0.0
0.0 0.5 0.0
0.4 0.5 0.0
0.8 0.5 0.0
1.2000000000000002 0.5 0.0
1.6 0.5 0.0
2.0 0.5 0.0
2.4000000000000004 0.5 0.0
2.8000000000000003 0.5 0.0
3.2 0.5 0.0
3.6 0.5 0.0
4.0 0.5 0.0
4.4 0.5 0.0
4.800000000000001 0.5 0.0
5.2 0.5 0.0
5.6000000000000005 0.5 0.0
6.0 0.5 0.0
6.4 0.5 0.0
6.800000000000001 0.5 0.0
7.2 0.5 0.0
7.6000000000000005 0.5 0.0
8.0 0.5 0.0
8.4 0.5 0.0
8.8 0.5 0.0
9.200000000000001 0.5 0.0
9.600000000000001 0.5 0.0
10.0 0.5 0.0
10.4 0.5 0.0
10.8 0.5 0.0
11.200000000000001 0.5 0.0
11.600000000000001 0.5 0.0
12.0 0.5 0.0
12.4 0.5 0.0
12.8 0.5 0.0
13.200000000000001 0.5 0.0
13.600000000000001 0.5 0.0
14.0 0.5 0.0
14.4 0.5 0.0
14.8 0.5 0.0
15.200000000000001 0.5 0.0
15.600000000000001 0.5 0.0
16.0 0.5 0.0
0.0 0.6000000000000001 0.0
0.4 0.6000000000000001 0.0
0.8 0.6000000000000001 0.0
1.2000000000000002 0.6000000000000001 0.0
1.6 0.6000000000000001 0.0
2.0 0.6000000000000001 0.0
2.4000000000000004 0.6000000000000001 0.0
2.8000000000000003 0.6000000000000001 0.0
3.2 0.6000000000000001 0.0
3.6 0.6000000000000001 0.0
4.0 0.6000000000000001 0.0
4.4 0.6000000000000001 0.0
4.800000000000001 0.6000000000000001 0.0
5.2 0.6000000000000001 0.0
5.6000000000000005 0.6000000000000001 0.0
6.0 0.6000000000000001 0.0
6.4 0.6000000000000001 0.0
6.800000000000001 0.6000000000000001 0.0
7.2 0.6000000000000001 0.0
7.6000000000000005 0.6000000000000001 0.0
8.0 0.6000000000000001 0.0
8.4 0.6000000000000001 0.0
8.8 0.6000000000000001 0.0
9.200000000000001 0.6000000000000001 0.0
9.600000000000001 0.6000000000000001 0.0
10.0 0.6000000000000001 0.0
10.4 0.6000000000000001 0.0
10.8 0.6000000000000001 0.0
11.200000000000001 0.6000000000000001 0.0
11.600000000000001 0.6000000000000001 0.0
12.0 0.6000000000000001 0.0
12.4 0.6000000000000001 0.0
12.8 0.6000000000000001 0.0
13.200000000000001 0.6000000000000001 0.0
13.600000000000001 0.6000000000000001 0.0
14.0 0.6000000000000001 0.0
14.4 0.6000000000000001 0.0
14.8 0.6000000000000001 0.0
15.200000000000001 0.6000000000000001 0.0
15.600000000000001 0.6000000000000001 0.0
16.0 0.6000000000000001 0.0
0.0 0.7000000000000001 0.0
0.4 0.7000000000000001 0.0
0.8 0.7000000000000001 0.0
1.2000000000000002 0.7000000000000001 0.0
1.6 0.7000000000000001 0.0
2.0 0.7000000000000001 0.0
2.4000000000000004 0.7000000000000001 0.0
2.8000000000000003 0.7000000000000001 0.0
3.2 0.7000000000000001 0.0
3.6 0.7000000000000001 0.0
4.0 0.7000000000000001 0.0
4.4 0.7000000000000001 0.0
4.800000000000001 0.7000000000000001 0.0
5.2 0.7000000000000001 0.0
5.6000000000000005 0.7000000000000001 0.0
6.0 0.7000000000000001 0.0
6.4 0.7000000000000001 0.0
6.800000000000001 0.7000000000000001 0.0
7.2 0.7000000000000001 0.0
7.6000000000000005 0.7000000000000001 0.0
8.0 0.7000000000000001 0.0
8.4 0.7000000000000001 0.0
8.8 0.7000000000000001 0.0
9.200000000000001 0.7000000000000001 0.0
9.600000000000001 0.7000000000000001 0.0
10.0 0.7000000000000001 0.0
10.4 0.7000000000000001 0.0
10.8 0.7000000000000001 0.0
11.200000000000001 0.7000000000000001 0.0
11.600000000000001 0.7000000000000001 0.0
12.0 0.7000000000000001 0.0
12.4 0.7000000000000001 0.0
12.8 0.7000000000000001 0.0
13.200000000000001 0.7000000000000001 0.0
13.600000000000001 0.7000000000000001 0.0
14.0 0.7000000000000001 0.0
14.4 0.7000000000000001 0.0
14.8 0.7000000000000001 0.0
15.200000000000001 0.7000000000000001 0.0
15.600000000000001 0.7000000000000001 0.0
16.0 0.7000000000000001 0.0
0.0 0.8 0.0
0.4 0.8 0.0
0.8 0.8 0.0
1.2000000000000002 0.8 0.0
1.6 0.8 0.0
2.0 0.8 0.0
2.4000000000000004 0.8 0.0
2.8000000000000003 0.8 0.0
3.2 0.8 0.0
3.6 0.8 0.0
4.0 0.8 0.0
4.4 0.8 0.0
4.800000000000001 0.8 0.0
5.2 0.8 0.0
5.6000000000000005 0.8 0.0
6.0 0.8 0.0
6.4 0.8 0.0
6.800000000000001 0.8 0.0
7.2 0.8 0.0
7.6000000000000005 0.8 0.0
8.0 0.8 0.0
8.4 0.8 0.0
8.8 0.8 0.0
9.200000000000001 0.8 0.0
9.600000000000001 0.8 0.0
10.0 0.8 0.0
10.4 0.8 0.0
10.8 0.8 0.0
11.200000000000001 0.8 0.0
11.600000000000001 0.8 0.0
12.0 0.8 0.0
12.4 0.8 0.0
12.8 0.8 0.0
13.200000000000001 0.8 0.0
13.600000000000001 0.8 0.0
14.0 0.8 0.0
14.4 0.8 0.0
14.8 0.8 0.0
15.200000000000001 0.8 0.0
15.600000000000001 0.8 0.0
16.0 0.8 0.0
0.0 0.9 0.0
0.4 0.9 0.0
0.8 0.9 0.0
1.2000000000000002 0.9 0.0
1.6 0.9 0.0
2.0 0.9 0.0
2.4000000000000004 0.9 0.0
2.8000000000000003 0.9 0.0
3.2 0.9 0.0
3.6 0.9 0.0
4.0 0.9 0.0
4.4 0.9 0.0
4.800000000000001 0.9 0.0
5.2 0.9 0.0
5.6000000000000005 0.9 0.0
6.0 0.9 0.0
6.4 0.9 0.0
6.800000000000001 0.9 0.0
7.2 0.9 0.0
7.6000000000000005 0.9 0.0
8.0 0.9 0.0
8.4 0.9 0.0
8.8 0.9 0.0
9.200000000000001 0.9 0.0
9.600000000000001 0.9 0.0
10.0 0.9 0.0
10.4 0.9 0.0
10.8 0.9 0.0
11.200000000000001 0.9 0.0
11.600000000000001 0.9 0.0
12.0 0.9 0.0
12.4 0.9 0.0
12.8 0.9 0.0
13.200000000000001 0.9 0.0
13.600000000000001 0.9 0.0
14.0 0.9 0.0
14.4 0.9 0.0
14.8 0.9 0.0
15.200000000000001 0.9 0.0
15.600000000000001 0.9 0.0
16.0 0.9 0.0
0.0 1.0 0.0
0.4 1.0 0.0
0.8 1.0 0.0
1.2000000000000002 1.0 0.0
1.6 1.0 0.0
2.0 1.0 0.0
2.4000000000000004 1.0 0.0
2.8000000000000003 1.0 0.0
3.2 1.0 0.0
3.6 1.0 0.0
4.0 1.0 0.0
4.4 1.0 0.0
4.800000000000001 1.0 0.0
5.2 1.0 0.0
5.6000000000000005 1.0 0.0
6.0 1.0 0.0
6.4 1.0 0.0
6.800000000000001 1.0 0.0
7.2 1.0 0.0
7.6000000000000005 1.0 0.0
8.0 1.0 0.0
8.4 1.0 0.0
8.8 1.0 0.0
9.200000000000001 1.0 0.0
9.600000000000001 1.0 0.0
10.0 1.0 0.0
10.4 1.0 0.0
10.8 1.0 0.0
11.200000000000001 1.0 0.0
11.600000000000001 1.0 0.0
12.0 1.0 0.0
12.4 1.0 0.0
12.8 1.0 0.0
13.200000000000001 1.0 0.0
13.600000000000001 1.0 0.0
14.0 1.0 0.0
14.4 1.0 0.0
14.8 1.0 0.0
15.200000000000001 1.0 0.0
15.600000000000001 1.0 0.0
16.0 1.0 0.0
0.0 1.1 0.0
0.4 1.1 0.0
0.8 1.1 0.0
1.2000000000000002 1.1 0.0
1.6 1.1 0.0
2.0 1.1 0.0
2.4000000000000004 1.1 0.0
2.8000000000000003 1.1 0.0
3.2 1.1 0.0
3.6 1.1 0.0
4.0 1.1 0.0
4.4 1.1 0.0
4.800000000000001 1.1 0.0
5.2 1.1 0.0
5.6000000000000005 1.1 0.0
6.0 1.1 0.0
6.4 1.1 0.0
6.800000000000001 1.1 0.0
7.2 1.1 0.0
7.6000000000000005 1.1 0.0
8.0 1.1 0.0
8.4 1.1 0.0
8.8 1.1 0.0
9.200000000000001 1.1 0.0
9.600000000000001 1.1 0.0
10.0 1.1 0.0
10.4 1.1 0.0
10.8 1.1 0.0
11.200000000000001 1.1 0.0
11.600000000000001 1.1 0.0
12.0 1.1 0.0
12.4 1.1 0.0
12.8 1.1 0.0
13.200000000000001 1.1 0.0
13.600000000000001 1.1 0.0
14.0 1.1 0.0
14.4 1.1 0.0
14.8 1.1 0.0
15.200000000000001 1.1 0.0
15.600000000000001 1.1 0.0
16.0 1.1 0.0
0.0 1.2000000000000002 0.0
0.4 1.2000000000000002 0.0
0.8 1.2000000000000002 0.0
1.2000000000000002 1.2000000000000002 0.0
1.6 1.2000000000000002 0.0
2.0 1.2000000000000002 0.0
2.4000000000000004 1.2000000000000002 0.0
2.8000000000000003 1.2000000000000002 0.0
3.2 1.2000000000000002 0.0
3.6 1.2000000000000002 0.0
4.0 1.2000000000000002 0.0
4.4 1.2000000000000002 0.0
4.800000000000001 1.2000000000000002 0.0
5.2 1.2000000000000002 0.0
5.6000000000000005 1.2000000000000002 0.0
6.0 1.2000000000000002 0.0
6.4 1.2000000000000002 0.0
6.800000000000001 1.2000000000000002 0.0
7.2 1.2000000000000002 0.0
7.6000000000000005 1.2000000000000002 0.0
8.0 1.2000000000000002 0.0
8.4 1.2000000000000002 0.0
8.8 1.2000000000000002 0.0
9.200000000000001 1.2000000000000002 0.0
9.600000000000001 1.2000000000000002 0.0
10.0 1.2000000000000002 0.0
10.4 1.2000000000000002 0.0
10.8 1.2000000000000002 0.0
11.200000000000001 1.2000000000000002 0.0
11.600000000000001 1.2000000000000002 0.0
12.0 1.2000000000000002 0.0
12.4 1.2000000000000002 0.0
12.8 1.2000000000000002 0.0
13.200000000000001 1.2000000000000002 0.0
13.600000000000001 1.2000000000000002 0.0
14.0 1.2000000000000002 0.0
14.4 1.2000000000000002 0.0
14.8 1.2000000000000002 0.0
15.200000000000001 1.2000000000000002 0.0
15.600000000000001 1.2000000000000002 0.0
16.0 1.2000000000000002 0.0
0.0 1.3 0.0
0.4 1.3 0.0
0.8 1.3 0.0
1.2000000000000002 1.3 0.0
1.6 1.3 0.0
2.0 1.3 0.0
2.4000000000000004 1.3 0.0
2.8000000000000003 1.3 0.0
3.2 1.3 0.0
3.6 1.3 0.0
4.0 1.3 0.0
4.4 1.3 0.0
4.800000000000001 1.3 0.0
5.2 1.3 0.0
5.6000000000000005 1.3 0.0
6.0 1.3 0.0
6.4 1.3 0.0
6.800000000000001 1.3 0.0
7.2 1.3 0.0
7.6000000000000005 1.3 0.0
8.0 1.3 0.0
8.4 1.3 0.0
8.8 1.3 0.0
9.200000000000001 1.3 0.0
9.600000000000001 1.3 0.0
10.0 1.3 0.0
10.4 1.3 0.0
10.8 1.3 0.0
11.200000000000001 1.3 0.0
11.600000000000001 1.3 0.0
12.0 1.3 0.0
12.4 1.3 0.0
12.8 1.3 0.0
13.200000000000001 1.3 0.0
13.600000000000001 1.3 0.0
14.0 1.3 0.0
14.4 1.3 0.0
14.8 1.3 0.0
15.200000000000001 1.3 0.0
15.600000000000001 1.3 0.0
16.0 1.3 0.0
0.0 1.4000000000000001 0.0
0.4 1.4000000000000001 0.0
0.8 1.4000000000000001 0.0
1.2000000000000002 1.4000000000000001 0.0
1.6 1.4000000000000001 0.0
2.0 1.4000000000000001 0.0
2.4000000000000004 1.4000000000000001 0.0
2.8000000000000003 1.4000000000000001 0.0
3.2 1.4000000000000001 0.0
3.6 1.4000000000000001 0.0
4.0 1.4000000000000001 0.0
4.4 1.4000000000000001 0.0
4.800000000000001 1.4000000000000001 0.0
5.2 1.4000000000000001 0.0
5.6000000000000005 1.4000000000000001 0.0
6.0 1.4000000000000001 0.0
6.4 1.4000000000000001 0.0
6.800000000000001 1.4000000000000001 0.0
7.2 1.4000000000000001 0.0
7.6000000000000005 1.4000000000000001 0.0
8.0 1.4000000000000001 0.0
8.4 1.4000000000000001 0.0
8.8 1.4000000000000001 0.0
9.200000000000001 1.4000000000000001 0.0
9.600000000000001 1.4000000000000001 0.0
10.0 1.4000000000000001 0.0
10.4 1.4000000000000001 0.0
10.8 1.4000000000000001 0.0
11.200000000000001 1.4000000000000001 0.0
11.600000000000001 1.4000000000000001 0.0
12.0 1.4000000000000001 0.0
12.4 1.4000000000000001 0.0
12.8 1.4000000000000001 0.0
13.200000000000001 1.4000000000000001 0.0
13.600000000000001 1.4000000000000001 0.0
14.0 1.4000000000000001 0.0
14.4 1.4000000000000001 0.0
14.8 1.4000000000000001 0.0
15.200000000000001 1.4000000000000001 0.0
15.600000000000001 1.4000000000000001 0.0
16.0 1.4000000000000001 0.0
0.0 1.5 0.0
0.4 1.5 0.0
0.8 1.5 0.0
1.2000000000000002 1.5 0.0
1.6 1.5 0.0
2.0 1.5 0.0
2.4000000000000004 1.5 0.0
2.8000000000000003 1.5 0.0
3.2 1.5 0.0
3.6 1.5 0.0
4.0 1.5 0.0
4.4 1.5 0.0
4.800000000000001 1.5 0.0
5.2 1.5 0.0
5.6000000000000005 1.5 0.0
6.0 1.5 0.0
6.4 1.5 0.0
6.800000000000001 1.5 0.0
7.2 1.5 0.0
7.6000000000000005 1.5 0.0
8.0 1.5 0.0
8.4 1.5 0.0
8.8 1.5 0.0
9.200000000000001 1.5 0.0
9.600000000000001 1.5 0.0
10.0 1.5 0.0
10.4 1.5 0.0
10.8 1.5 0.0
11.200000000000001 1.5 0.0
11.600000000000001 1.5 0.0
12.0 1.5 0.0
12.4 1.5 0.0
12.8 1.5 0.0
13.200000000000001 1.5 0.0
13.600000000000001 1.5 0.0
14.0 1.5 0.0
14.4 1.5 0.0
14.8 1.5 0.0
15.200000000000001 1.5 0.0
15.600000000000001 1.5 0.0
16.0 1.5 0.0
0.0 1.6 0.0
0.4 1.6 0.0
0.8 1.6 0.0
1.2000000000000002 1.6 0.0
1.6 1.6 0.0
2.0 1.6 0.0
2.4000000000000004 1.6 0.0
2.8000000000000003 1.6 0.0
3.2 1.6 0.0
3.6 1.6 0.0
4.0 1.6 0.0
4.4 1.6 0.0
4.800000000000001 1.6 0.0
5.2 1.6 0.0
5.6000000000000005 1.6 0.0
6.0 1.6 0.0
6.4 1.6 0.0
6.800000000000001 1.6 0.0
7.2 1.6 0.0
7.6000000000000005 1.6 0.0
8.0 1.6 0.0
8.4 1.6 0.0
8.8 1.6 0.0
9.200000000000001 1.6 0.0
9.600000000000001 1.6 0.0
10.0 1.6 0.0
10.4 1.6 0.0
10.8 1.6 0.0
11.200000000000001 1.6 0.0
11.600000000000001 1.6 0.0
12.0 1.6 0.0
12.4 1.6 0.0
12.8 1.6 0.0
13.200000000000001 1.6 0.0
13.600000000000001 1.6 0.0
14.0 1.6 0.0
14.4 1.6 0.0
14.8 1.6 0.0
15.200000000000001 1.6 0.0
15.600000000000001 1.6 0.0
16.0 1.6 0.0
0.0 1.7000000000000002 0.0
0.4 1.7000000000000002 0.0
0.8 1.7000000000000002 0.0
1.2000000000000002 1.7000000000000002 0.0
1.6 1.7000000000000002 0.0
2.0 1.7000000000000002 0.0
2.4000000000000004 1.7000000000000002 0.0
2.8000000000000003 1.7000000000000002 0.0
3.2 1.7000000000000002 0.0
3.6 1.7000000000000002 0.0
4.0 1.7000000000000002 0.0
4.4 1.7000000000000002 0.0
4.800000000000001 1.7000000000000002 0.0
5.2 1.7000000000000002 0.0
5.6000000000000005 1.7000000000000002 0.0
6.0 1.7000000000000002 0.0
6.4 1.7000000000000002 0.0
6.800000000000001 1.7000000000000002 0.0
7.2 1.7000000000000002 0.0
7.6000000000000005 1.7000000000000002 0.0
8.0 1.7000000000000002 0.0
8.4 1.7000000000000002 0.0
8.8 1.7000000000000002 0.0
9.200000000000001 1.7000000000000002 0.0
9.600000000000001 1.7000000000000002 0.0
10.0 1.7000000000000002 0.0
10.4 1.7000000000000002 0.0
10.8 1.7000000000000002 0.0
11.200000000000001 1.7000000000000002 0.0
11.600000000000001 1.7000000000000002 0.0
12.0 1.7000000000000002 0.0
12.4 1.7000000000000002 0.0
12.8 1.7000000000000002 0.0
13.200000000000001 1.7000000000000002 0.0
13.600000000000001 1.7000000000000002 0.0
14.0 1.7000000000000002 0.0
14.4 1.7000000000000002 0.0
14.8 1.7000000000000002 0.0
15.200000000000001 1.7000000000000002 0.0
15.600000000000001 1.7000000000000002 0.0
16.0 1.7000000000000002 0.0
0.0 1.8 0.0
0.4 1.8 0.0
0.8 1.8 0.0
1.2000000000000002 1.8 0.0
1.6 1.8 0.0
2.0 1.8 0.0
2.4000000000000004 1.8 0.0
2.8000000000000003 1.8 0.0
3.2 1.8 0.0
3.6 1.8 0.0
4.0 1.8 0.0
4.4 1.8 0.0
4.800000000000001 1.8 0.0
5.2 1.8 0.0
5.6000000000000005 1.8 0.0
6.0 1.8 0.0
6.4 1.8 0.0
6.800000000000001 1.8 0.0
7.2 1.8 0.0
7.6000000000000005 1.8 0.0
8.0 1.8 0.0
8.4 1.8 0.0
8.8 1.8 0.0
9.200000000000001 1.8 0.0
9.600000000000001 1.8 0.0
10.0 1.8 0.0
10.4 1.8 0.0
10.8 1.8 0.0
11.200000000000001 1.8 0.0
11.600000000000001 1.8 0.0
12.0 1.8 0.0
12.4 1.8 0.0
12.8 1.8 0.0
13.200000000000001 1.8 0.0
13.600000000000001 1.8 0.0
14.0 1.8 0.0
14.4 1.8 0.0
14.8 1.8 0.0
15.200000000000001 1.8 0.0
15.600000000000001 1.8 0.0
16.0 1.8 0.0
0.0 1.9000000000000001 0.0
0.4 1.9000000000000001 0.0
0.8 1.9000000000000001 0.0
1.2000000000000002 1.9000000000000001 0.0
1.6 1.9000000000000001 0.0
2.0 1.9000000000000001 0.0
2.4000000000000004 1.9000000000000001 0.0
2.8000000000000003 1.9000000000000001 0.0
3.2 1.9000000000000001 0.0
3.6 1.9000000000000001 0.0
4.0 1.9000000000000001 0.0
4.4 1.9000000000000001 0.0
4.800000000000001 1.9000000000000001 0.0
5.2 1.9000000000000001 0.0
5.6000000000000005 1.9000000000000001 0.0
6.0 1.9000000000000001 0.0
6.4 1.9000000000000001 0.0
6.800000000000001 1.9000000000000001 0.0
7.2 1.9000000000000001 0.0
7.6000000000000005 1.9000000000000001 0.0
8.0 1.9000000000000001 0.0
8.4 1.9000000000000001 0.0
8.8 1.9000000000000001 0.0
9.200000000000001 1.9000000000000001 0.0
9.600000000000001 1.9000000000000001 0.0
10.0 1.9000000000000001 0.0
10.4 1.9000000000000001 0.0
10.8 1.9000000000000001 0.0
11.200000000000001 1.9000000000000001 0.0
11.600000000000001 1.9000000000000001 0.0
12.0 1.9000000000000001 0.0
12.4 1.9000000000000001 0.0
12.8 1.9000000000000001 0.0
13.200000000000001 1.9000000000000001 0.0
13.600000000000001 1.9000000000000001 0.0
14.0 1.9000000000000001 0.0
14.4 1.9000000000000001 0.0
14.8 1.9000000000000001 0.0
15.200000000000001 1.9000000000000001 0.0
15.600000000000001 1.9000000000000001 0.0
16.0 1.9000000000000001 0.0
0.0 2.0 0.0
0.4 2.0 0.0
0.8 2.0 0.0
1.2000000000000002 2.0 0.0
1.6 2.0 0.0
2.0 2.0 0.0
2.4000000000000004 2.0 0.0
2.8000000000000003 2.0 0.0
3.2 2.0 0.0
3.6 2.0 0.0
4.0 2.0 0.0
4.4 2.0 0.0
4.800000000000001 2.0 0.0
5.2 2.0 0.0
5.6000000000000005 2.0 0.0
6.0 2.0 0.0
6.4 2.0 0.0
6.800000000000001 2.0 0.0
7.2 2.0 0.0
7.6000000000000005 2.0 0.0
8.0 2.0 0.0
8.4 2.0 0.0
8.8 2.0 0.0
9.200000000000001 2.0 0.0
9.600000000000001 2.0 0.0
10.0 2.0 0.0
10.4 2.0 0.0
10.8 2.0 0.0
11.200000000000001 2.0 0.0
11.600000000000001 2.0 0.0
12.0 2.0 0.0
12.4 2.0 0.0
12.8 2.0 0.0
13.200000000000001 2.0 0.0
13.600000000000001 2.0 0.0
14.0 2.0 0.0
14.4 2.0 0.0
14.8 2.0 0.0
15.200000000000001 2.0 0.0
15.600000000000001 2.0 0.0
16.0 2.0 0.0
CELLS 800 4000
4 0 1 42 41
4 1 2 43 42
4 2 3 44 43
4 3 4 45 44
4 4 5 46 45
4 5 6 47 46
4 6 7 48 47
4 7 8 49 48
4 8 9 50 49
4 9 10 51 50
4 10 11 52 51
4 11 12 53 52
4 12 13 54 53
4 13 14 55 54
4 14 15 56 55
4 15 16 57 56
4 16 17 58 57
4 17 18 59 58
4 18 19 60 59
4 19 20 61 60
4 20 21 62 61
4 21 22 63 62
4 22 23 64 63
4 23 24 65 64
4 24 25 66 65
4 25 26 67 66
4 26 27 68 67
4 27 28 69 68
4 28 29 70 69
4 29 30 71 70
4 30 31 72 71
4 31 32 73 72
4 32 33 74 73
4 33 34 75 74
4 34 35 76 75
4 35 36 77 76
4 36 37 78 77
4 37 38 79 78
4 38 39 80 79
4 39 40 81 80
4 41 42 83 82
4 42 43 84 83
4 43 44 85 84
4 44 45 86 85
4 45 46 87 86
4 46 47 88 87
4 47 48 89 88
4 48 49 90 89
4 49 50 91 90
4 50 51 92 91
4 51 52 93 92
4 52 53 94 93
4 53 54 95 94
4 54 55 96 95
4 55 56 97 96
4 56 57 98 97
4 57 58 99 98
4 58 59 100 99
4 59 60 101 100
4 60 61 102 101
4 61 62 103 102
4 62 63 104 103
4 63 64 105 104
4 64 65 106 105
4 65 66 107 106
4 66 67 108 107
4 67 68 109 108
4 68 69 110 109
4 69 70 111 110
4 70 71 112 111
4 71 72 113 112
4 72 73 114 113
4 73 74 115 114
4 74 75 116 115
4 75 76 117 116
4 76 77 118 117
4 77 78 119 118
4 78 79 120 119
4 79 80 121 120
4 80 81 122 121
4 82 83 124 123
4 83 84 125 124
4 84 85 126 125
4 85 86 127 126
4 86 87 128 127
4 87 88 129 128
4 88 89 130 129
4 89 90 131 130
4 90 91 132 131
4 91 92 133 132
4 92 93 134 133
4 93 94 135 134
4 94 95 136 135
4 95 96 137 136
4 96 97 138 137
4 97 98 139 138
4 98 99 140 139
4 99 100 141 140
4 100 101 142 141
4 101 102 143 142
4 102 103 144 143
4 103 104 145 144
4 104 105 146 145
4 105 106 147 146
4 106 107 148 147
4 107 108 149 148
4 108 109 150 149
4 109 110 151 150
4 110 111 152 151
4 111 112 153 152
4 112 113 154 153
4 113 114 155 154
4 114 115 156 155
4 115 116 157 156
4 116 117 158 157
4 117 118 159 158
4 118 119 160 159
4 119 120 161 160
4 120 121 162 161
4 121 122 163 162
4 123 124 165 164
4 124 125 166 165
4 125 126 167 166
4 126 127 168 167
4 127 128 169 168
4 128 129 170 169
4 129 130 171 170
4 130 131 172 171
4 131 132 173 172
4 132 133 174 173
4 133 134 175 174
4 134 135 176 175
4 135 136 177 176
4 136 137 178 177
4 137 138 179 178
4 138 139 180 179
4 139 140 181 180
4 140 141 182 181
4 141 142 183 182
4 142 143 184 183
4 143 144 185 184
4 144 145 186 185
4 145 146 187 186
4 146 147 188 187
4 147 148 189 188
4 148 149 190 189
4 149 150 191 190
4 150 151 192 191
4 151 152 193 192
4 152 153 194 193
4 153 154 195 194
4 154 155 196 195
4 155 156 197 196
4 156 157 198 197
4 157 158 199 198
4 158 159 200 199
4 159 160 201 200
4 160 161 202 201
4 161 162 203 202
4 162 163 204 203
4 164 165 206 205
4 165 166 207 206
4 166 167 208 207
4 167 168 209 208
4 168 169 210 209
4 169 170 211 210
4 170 171 212 211
4 171 172 213 212
4 172 173 214 213
4 173 174 215 214
4 174 175 216 215
4 175 176 217 216
4 176 177 218 217
4 177 178 219 218
4 178 179 220 219
4 179 180 221 220
4 180 181 222 221
4 181 182 223 222
4 182 183 224 223
4 183 184 225 224
4 184 185 226 225
4 185 186 227 226
4 186 187 228 227
4 187 188 229 228
4 188 189 230 229
4 189 190 231 230
4 190 191 232 231
4 191 192 233 232
4 192 193 234 233
4 193 194 235 234
4 194 195 236 235
4 195 196 237 236
4 196 197 238 237
4 197 198 239 238
4 198 199 240 239
4 199 200 241 240
4 200 201 242 241
4 201 202 243 242
4 202 203 244 243
4 203 204 245 244
4 205 206 247 246
4 206 207 248 247
4 207 208 249 248
4 208 209 250 249
4 209 210 251 250
4 210 211 252 251
4 211 212 253 252
4 212 213 254 253
4 213 214 255 254
4 214 215 256 255
4 215 216 257 256
4 216 217 258 257
4 217 218 259 258
4 218 219 260 259
4 219 220 261 260
4 220 221 262 261
4 221 222 263 262
4 222 223 264 263
4 223 224 265 264
4 224 225 266 265
4 225 226 267 266
4 226 227 268 267
4 227 228 269 268
4 228 229 270 269
4 229 230 271 270
4 230 231 272 271
4 231 232 273 272
4 232 233 274 273
4 233 234 275 274
4 234 235 276 275
4 235 236 277 276
4 236 237 278 277
4 237 238 279 278
4 238 239 280 279
4 239 240 281 280
4 240 241 282 281
4 241 242 283 282
4 242 243 284 283
4 243 244 285 284
4 244 245 286 285
4 246 247 288 287
4 247 248 289 288
4 248 249 290 289
4 249 250 291 290
4 250 251 292 291
4 251 252 293 292
4 252 253 294 293
4 253 254 295 294
4 254 255 296 295
4 255 256 297 296
4 256 257 298 297
4 257 258 299 298
4 258 259 300 299
4 259 260 301 300
4 260 261 302 301
4 261 262 303 302
4 262 263 304 303
4 263 264 305 304
4 264 265 306 305
4 265 266 307 306
4 266 267 308 307
4 267 268 309 308
4 268 269 310 309
4 269 270 311 310
4 270 271 312 311
4 271 272 313 312
4 272 273 314 313
4 273 274 315 314
4 274 275 316 315
4 275 276 317 316
4 276 277 318 317
4 277 278 319 318
4 278 279 320 319
4 279 280 321 320
4 280 281 322 321
4 281 282 323 322
4 282 283 324 323
4 283 284 325 324
4 284 285 326 325
4 285 286 327 326
4 287 288 329 328
4 288 289 330 329
4 289 290 331 330
4 290 291 332 331
4 291 292 333 332
4 292 293 334 333
4 293 294 335 334
4 294 295 336 335
4 295 296 337 336
4 296 297 338 337
4 297 298 339 338
4 298 299 340 339
4 299 300 341 340
4 300 301 342 341
4 301 302 343 342
4 302 303 344 343
4 303 304 345 344
4 304 305 346 345
4 305 306 347 346
4 306 307 348 347
4 307 308 349 348
4 308 309 350 349
4 309 310 351 350
4 310 311 352 351
4 311 312 353 352
4 312 313 354 353
4 313 314 355 354
4 314 315 356 355
4 315 316 357 356
4 316 317 358 357
4 317 318 359 358
4 318 319 360 359
4 319 320 361 360
4 320 321 362 361
4 321 322 363 362
4 322 323 364 363
4 323 324 365 364
4 324 325 366 365
4 325 326 367 366
4 326 327 368 367
4 328 329 370 369
4 329 330 371 370
4 330 331 372 371
4 331 332 373 372
4 332 333 374 373
4 333 334 375 374
4 334 335 376 375
4 335 336 377 376
4 336 337 378 377
4 337 338 379 378
4 338 339 380 379
4 339 340 381 380
4 340 341 382 381
4 341 342 383 382
4 342 343 384 383
4 343 344 385 384
4 344 345 386 385
4 345 346 387 386
4 346 347 388 387
4 347 348 389 388
4 348 349 390 389
4 349 350 391 390
4 350 351 392 391
4 351 352 393 392
4 352 353 394 393
4 353 354 395 394
4 354 355 396 395
4 355 356 397 396
4 356 357 398 397
4 357 358 399 398
4 358 359 400 399
4 359 360 401 400
4 360 361 402 401
4 361 362 403 402
4 362 363 404 403
4 363 364 405 404
4 364 365 406 405
4 365 366 407 406
4 366 367 408 407
4 367 368 409 408
4 369 370 411 410
4 370 371 412 411
4 371 372 413 412
4 372 373 414 413
4 373 374 415 414
4 374 375 416 415
4 375 376 417 416
4 376 377 418 417
4 377 378 419 418
4 378 379 420 419
4 379 380 421 420
4 380 381 422 421
4 381 382 423 422
4 382 383 424 423
4 383 384 425 424
4 384 385 426 425
4 385 386 427 426
4 386 387 428 427
4 387 388 429 428
4 388 389 430 429
4 389 390 431 430
4 390 391 432 431
4 391 392 433 432
4 392 393 434 433
4 393 394 435 434
4 394 395 436 435
4 395 396 437 436
4 396 397 438 437
4 397 398 439 438
4 398 399 440 439
4 399 400 441 440
4 400 401 442 441
4 401 402 443 442
4 402 403 444 443
4 403 404 445 444
4 404 405 446 445
4 405 406 447 446
4 406 407 448 447
4 407 408 449 448
4 408 409 450 449
4 410 411 452 451
4 411 412 453 452
4 412 413 454 453
4 413 414 455 454
4 414 415 456 455
4 415 416 457 456
4 416 417 458 457
4 417 418 459 458
4 418 419 460 459
4 419 420 461 460
4 420 421 462 461
4 421 422 463 462
4 422 423 464 463
4 423 424 465 464
4 424 425 466 465
4 425 426 467 466
4 426 427 468 467
4 427 428 469 468
4 428 429 470 469
4 429 430 471 470
4 430 431 472 471
4 431 432 473 472
4 432 433 474 473
4 433 434 475 474
4 434 435 476 475
4 435 436 477 476
4 436 437 478 477
4 437 438 479 478
4 438 439 480 479
4 439 440 481 480
4 440 441 482 481
4 441 442 483 482
4 442 443 484 483
4 443 444 485 484
4 444 445 486 485
4 445 446 487 486
4 446 447 488 487
4 447 448 489 488
4 448 449 490 489
4 449 450 491 490
4 451 452 493 492
4 452 453 494 493
4 453 454 495 494
4 454 455 496 495
4 455 456 497 496
4 456 457 498 497
4 457 458 499 498
4 458 459 500 499
4 459 460 501 500
4 460 461 502 501
4 461 462 503 502
4 462 463 504 503
4 463 464 505 504
4 464 465 506 505
4 465 466 507 506
4 466 467 508 507
4 467 468 509 508
4 468 469 510 509
4 469 470 511 510
4 470 471 512 511
4 471 472 513 512
4 472 473 514 513
4 473 474 515 514
4 474 475 516 515
4 475 476 517 516
4 476 477 518 517
4 477 478 519 518
4 478 479 520 519
4 479 480 521 520
4 480 481 522 521
4 481 482 523 522
4 482 483 524 523
4 483 484 525 524
4 484 485 526 525
4 485 486 527 526
4 486 487 528 527
4 487 488 529 528
4 488 489 530 529
4 489 490 531 530
4 490 491 532 531
4 492 493 534 533
4 493 494 535 534
4 494 495 536 535
4 495 496 537 536
4 496 497 538 537
4 497 498 539 538
4 498 499 540 539
4 499 500 541 540
4 500 501 542 541
4 501 502 543 542
4 502 503 544 543
4 503 504 545 544
4 504 505 546 545
4 505 506 547 546
4 506 507 548 547
4 507 508 549 548
4 508 509 550 549
4 509 510 551 550
4 510 511 552 551
4 511 512 553 552
4 512 513 554 553
4 513 514 555 554
4 514 515 556 555
4 515 516 557 556
4 516 517 558 557
4 517 518 559 558
4 518 519 560 559
4 519 520 561 560
4 520 521 562 561
4 521 522 563 562
4 522 523 564 563
4 523 524 565 564
4 524 525 566 565
4 525 526 567 566
4 526 527 568 567
4 527 528 569 568
4 528 529 570 569
4 529 530 571 570
4 530 531 572 571
4 531 532 573 572
4 533 534 575 574
4 534 535 576 575
4 535 536 577 576
4 536 537 578 577
4 537 538 579 578
4 538 539 580 579
4 539 540 581 580
4 540 541 582 581
4 541 542 583 582
4 542 543 584 583
4 543 544 585 584
4 544 545 586 585
4 545 546 587 586
4 546 547 588 587
4 547 548 589 588
4 548 549 590 589
4 549 550 591 590
4 550 551 592 591
4 551 552 593 592
4 552 553 594 593
4 553 554 595 594
4 554 555 596 595
4 555 556 597 596
4 556 557 598 597
4 557 558 599 598
4 558 559 600 599
4 559 560 601 600
4 560 561 602 601
4 561 562 603 602
4 562 563 604 603
4 563 564 605 604
4 564 565 606 605
4 565 566 607 606
4 566 567 608 607
4 567 568 609 608
4 568 569 610 609
4 569 570 611 610
4 570 571 612 611
4 571 572 613 612
4 572 573 614 613
4 574 575 616 615
4 575 576 617 616
4 576 577 618 617
4 577 578 619 618
4 578 579 620 619
4 579 580 621 620
4 580 581 622 621
4 581 582 623 622
4 582 583 624 623
4 583 584 625 624
4 584 585 626 625
4 585 586 627 626
4 586 587 628 627
4 587 588 629 628
4 588 589 630 629
4 589 590 631 630
4 590 591 632 631
4 591 592 633 632
4 592 593 634 633
4 593 594 635 634
4 594 595 636 635
4 595 596 637 636
4 596 597 638 637
4 597 598 639 638
4 598 599 640 639
4 599 600 641 640
4 600 601 642 641
4 601 602 643 642
4 602 603 644 643
4 603 604 645 644
4 604 605 646 645
4 605 606 647 646
4 606 607 648 647
4 607 608 649 648
4 608 609 650 649
4 609 610 651 650
4 610 611 652 651
4 611 612 653 652
4 612 613 654 653
4 613 614 655 654
4 615 616 657 656
4 616 617 658 657
4 617 618 659 658
4 618 619 660 659
4 619 620 661 660
4 620 621 662 661
4 621 622 663 662
4 622 623 664 663
4 623 624 665 664
4 624 625 666 665
4 625 626 667 666
4 626 627 668 667
4 627 628 669 668
4 628 629 670 669
4 629 630 671 670
4 630 631 672 671
4 631 632 673 672
4 632 633 674 673
4 633 634 675 674
4 634 635 676 675
4 635 636 677 676
4 636 637 678 677
4 637 638 679 678
4 638 639 680 679
4 639 640 681 680
4 640 641 682 681
4 641 642 683 682
4 642 643 684 683
4 643 644 685 684
4 644 645 686 685
4 645 646 687 686
4 646 647 688 687
4 647 648 689 688
4 648 649 690 689
4 649 650 691 690
4 650 651 692 691
4 651 652 693 692
4 652 653 694 693
4 653 654 695 694
4 654 655 696 695
4 656 657 698 697
4 657 658 699 698
4 658 659 700 699
4 659 660 701 700
4 660 661 702 701
4 661 662 703 702
4 662 663 704 703
4 663 664 705 704
4 664 665 706 705
4 665 666 707 706
4 666 667 708 707
4 667 668 709 708
4 668 669 710 709
4 669 670 711 710
4 670 671 712 711
4 671 672 713 712
4 672 673 714 713
4 673 674 715 714
4 674 675 716 715
4 675 676 717 716
4 676 677 718 717
4 677 678 719 718
4 678 679 720 719
4 679 680 721 720
4 680 681 722 721
4 681 682 723 722
4 682 683 724 723
4 683 684 725 724
4 684 685 726 725
4 685 686 727 726
4 686 687 728 727
4 687 688 729 728
4 688 689 730 729
4 689 690 731 730
4 690 691 732 731
4 691 692 733 732
4 692 693 734 733
4 693 694 735 734
4 694 695 736 735
4 695 696 737 736
4 697 698 739 738
4 698 699 740 739
4 699 700 741 740
4 700 701 742 741
4 701 702 743 742
4 702 703 744 743
4 703 704 745 744
4 704 705 746 745
4 705 706 747 746
4 706 707 748 747
4 707 708 749 748
4 708 709 750 749
4 709 710 751 750
4 710 711 752 751
4 711 712 753 752
4 712 713 754 753
4 713 714 755 754
4 714 715 756 755
4 715 716 757 756
4 716 717 758 757
4 717 718 759 758
4 718 719 760 759
4 719 720 761 760
4 720 721 762 761
4 721 722 763 762
4 722 723 764 763
4 723 724 765 764
4 724 725 766 765
4 725 726 767 766
4 726 727 768 767
4 727 728 769 768
4 728 729 770 769
4 729 730 771 770
4 730 731 772 771
4 731 732 773 772
4 732 733 774 773
4 733 734 775 774
4 734 735 776 775
4 735 736 777 776
4 736 737 778 777
4 738 739 780 779
4 739 740 781 780
4 740 741 782 781
4 741 742 783 782
4 742 743 784 783
4 743 744 785 784
4 744 745 786 785
4 745 746 787 786
4 746 747 788 787
4 747 748 789 788
4 748 749 790 789
4 749 750 791 790
4 750 751 792 791
4 751 752 793 792
4 752 753 794 793
4 753 754 795 794
4 754 755 796 795
4 755 756 797 796
4 756 757 798 797
4 757 758 799 798
4 758 759 800 799
4 759 760 801 800
4 760 761 802 801
4 761 762 803 802
4 762 763 804 803
4 763 764 805 804
4 764 765 806 805
4 765 766 807 806
4 766 767 808 807
4 767 768 809 808
4 768 769 810 809
4 769 770 811 810
4 770 771 812 811
4 771 772 813 812
4 772 773 814 813
4 773 774 815 814
4 774 775 816 815
4 775 776 817 816
4 776 777 818 817
4 777 778 819 818
4 779 780 821 820
4 780 781 822 821
4 781 782 823 822
4 782 783 824 823
4 783 784 825 824
4 784 785 826 825
4 785 786 827 826
4 786 787 828 827
4 787 788 829 828
4 788 789 830 829
4 789 790 831 830
4 790 791 832 831
4 791 792 833 832
4 792 793 834 833
4 793 794 835 834
4 794 795 836 835
4 795 796 837 836
4 796 797 838 837
4 797 798 839 838
4 798 799 840 839
4 799 800 841 840
4 800 801 842 841
4 801 802 843 842
4 802 803 844 843
4 803 804 845 844
4 804 805 846 845
4 805 806 847 846
4 806 807 848 847
4 807 808 849 848
4 808 809 850 849
4 809 810 851 850
4 810 811 852 851
4 811 812 853 852
4 812 813 854 853
4 813 814 855 854
4 814 815 856 855
4 815 816 857 856
4 816 817 858 857
4 817 818 859 858
4 818 819 860 859
CELL_TYPES 800
9
9
9
9
9
9
9
9
9
9
9
9
9
9
9
9
9
9
9
9
9
9
9
9
9
9
9
9
9
9
9
9
9
9
9
9
9
9
9
9
9
9
9
9
9
9
9
9
9
9
9
9
9
9
9
9
9
9
9
9
9
9
9
9
9
9
9
9
9
9
9
9
9
9
9
9
9
9
9
9
9
9
9
9
9
9
9
9
9
9
9
9
9
9
9
9
9
9
9
9
9
9
9
9
9
9
9
9
9
9
9
9
9
9
9
9
9
9
9
9
9
9
9
9
9
9
9
9
9
9
9
9
9
9
9
9
9
9
9
9
9
9
9
9
9
9
9
9
9
9
9
9
9
9
9
9
9
9
9
9
9
9
9
9
9
9
9
9
9
9
9
9
9
9
9
9
9
9
9
9
9
9
9
9
9
9
9
9
9
9
9
9
9
9
9
9
9
9
9
9
9
9
9
9
9
9
9
9
9
9
9
9
9
9
9
9
9
9
9
9
9
9
9
9
9
9
9
9
9
9
9
9
9
9
9
9
9
9
9
9
9
9
9
9
9
9
9
9
9
9
9
9
9
9
9
9
9
9
9
9
9
9
9
9
9
9
9
9
9
9
9
9
9
9
9
9
9
9
9
9
9
9
9
9
9
9
9
9
9
9
9
9
9
9
9
9
9
9
9
9
9
9
9
9
9
9
9
9
9
9
9
9
9
9
9
9
9
9
9
9
9
9
9
9
9
9
9
9
9
9
9
9
9
9
9
9
9
9
9
9
9
9
9
9
9
9
9
9
9
9
9
9
9
9
9
9
9
9
9
9
9
9
9
9
9
9
9
9
9
9
9
9
9
9
9
9
9
9
9
9
9
9
9
9
9
9
9
9
9
9
9
9
9
9
9
9
9
9
9
9
9
9
9
9
9
9
9
9
9
9
9
9
9
9
9
9
9
9
9
9
9
9
9
9
9
9
9
9
9
9
9
9
9
9
9
9
9
9
9
9
9
9
9
9
9
9
9
9
9
9
9
9
9
9
9
9
9
9
9
9
9
9
9
9
9
9
9
9
9
9
9
9
9
9
9
9
9
9
9
9
9
9
9
9
9
9
9
9
9
9
9
9
9
9
9
9
9
9
9
9
9
9
9
9
9
9
9
9
9
9
9
9
9
9
9
9
9
9
9
9
9
9
9
9
9
9
9
9
9
9
9
9
9
9
9
9
9
9
9
9
9
9
9
9
9
9
9
9
9
9
9
9
9
9
9
9
9
9
9
9
9
9
9
9
9
9
9
9
9
9
9
9
9
9
9
9
9
9
9
9
9
9
9
9
9
9
9
9
9
9
9
9
9
9
9
9
9
9
9
9
9
9
9
9
9
9
9
9
9
9
9
9
9
9
9
9
9
9
9
9
9
9
9
9
9
9
9
9
9
9
9
9
9
9
9
9
9
9
9
9
9
9
9
9
9
9
9
9
9
9
9
9
9
9
9
9
9
9
9
9
9
9
9
9
9
9
9
9
9
9
9
9
9
9
9
9
9
9
9
9
9
9
9
9
9
9
9
9
9
9
9
9
9
9
9
9
9
9
9
9
9
9
9
9
9
9
9
9
9
9
9
9
9
9
9
9
9
9
9
9
9
9
9
9
9
9
9
9
9
9
9
9
9
9
9
9
9
9
9
9
9
9
9
9
9
9
9
9
9
9
9
9
9
9
9
9
9
9
9
9
9
9
9
9
9
9
9
9
9
9
9
9
9
9
9
9
9
9
9
9
9
9
9
9
9
9
9
9
9
9
9
9
9
9
9
9
9
9
9
9
POINT_DATA 861
SCALARS Disp float 2
LOOKUP_TABLE default
0.0 0.0
0.006079005665879225 -0.2785613691553313
0.007477289206929957 -0.547528474353224
0.008277332845856317 -0.815371321700909
0.009331794806940297 -1.0828243569149685
0.011091746117034814 -1.3494331909265966
0.01425181792015229 -1.614588478683113
0.019670844638604752 -1.8775210437401555
0.028362568808061133 -2.137265618755978
0.04143150259771906 -2.392557135298775
0.05997470710308005 -2.641683917552378
0.08501397401134518 -2.8824082348244735
0.11746450379828677 -3.112007264226425
0.15812508218566204 -3.327401747443721
0.20767154278560657 -3.5252460219630293
0.2665871355450296 -3.7020029870359337
0.33504059354648363 -3.8540432536971405
0.4127434218968728 -3.9778025311085075
0.4988318218867213 -4.070027363142485
0.5918231977683209 -4.128026349758599
0.6893720691384551 -4.149988320666229
0.7869209405085833 -4.128026349758468
0.879912316390164 -4.07002736314222
0.9660007163799778 -3.9778025311081233
1.0437035447303233 -3.854043253696659
1.112157002731731 -3.7020029870353834
1.1710725954911057 -3.525246021962426
1.2206190560910022 -3.327401747443083
1.2612796344783301 -3.1120072642257712
1.293730164265227 -2.882408234823825
1.3187694311734517 -2.641683917551752
1.3373126356787788 -2.3925571352981874
1.3503815694684111 -2.1372656187554355
1.3590732936378485 -1.877521043739666
1.3644923203562882 -1.6145884786826823
1.367652392159398 -1.3494331909262318
1.3694123434694887 -1.0828243569146703
1.370466805430572 -0.8153713217006812
1.3712668490694981 -0.5475284743530648
1.3726651326105472 -0.278561369155244
1.3787441382764232 0.0
0.06948165858859581 -0.002511777529210664
0.07376127368366737 -0.27885310700142
0.07448467756881767 -0.5475916097257117
0.07519156084308326 -0.8154633232002731
0.07611186388591856 -1.0829815696863083
0.07760217257447559 -1.3497915595123293
0.08031538363390944 -1.6153411575986978
0.08506218863198102 -1.8788993852942177
0.0927938870046862 -2.139528348687776
0.10451825762385777 -2.3959677753567847
0.12121397210913805 -2.646492109081504
0.14377780134305354 -2.888840755254415
0.17301851086139794 -3.12026676443435
0.20966156937661123 -3.337665574739898
0.2543233907251614 -3.5376579649754545
0.3074547680053383 -3.7166502062315847
0.3692331504750564 -3.870923430492021
0.43943591385576636 -3.9967911377072785
0.5173227478606839 -4.090851316896401
0.6014740635348613 -4.150236028679722
0.6893720691384391 -4.172773155852425
0.7772700747420107 -4.150236028679588
0.8614213904161705 -4.09085131689613
0.9393082244210578 -3.996791137706885
1.0095109878017297 -3.870923430491529
1.0712893702714064 -3.716650206231023
1.1244207475515398 -3.5376579649748403
1.1690825689000466 -3.3376655747392476
1.2057256274152175 -3.1202667644336852
1.2349663369335215 -2.888840755253757
1.2575301661674005 -2.64649210908087
1.2742258806526503 -2.39596777535619
1.2859502512717984 -2.1395283486872283
1.2936819496444865 -1.8788993852937246
1.2984287546425464 -1.6153411575982648
1.3011419657019736 -1.3497915595119634
1.3026322743905276 -1.08298156968601
1.3035525774333625 -0.8154633232000452
1.3042594607076279 -0.5475916097255525
1.304982864592778 -0.27885310700133226
1.3092624796878438 -0.0025117775292081684
0.13794674232468362 -0.0045133703395522865
0.1410992929774712 -0.27899898441633053
0.14151173912843112 -0.5476233266044658
0.14208752085160148 -0.8155440827967756
0.1428844500051214 -1.0831057966481406
0.14413234841610456 -1.3500750986529153
0.1464103320349032 -1.6159655213286963
0.15048794113375497 -1.8800837195561433
0.1572424523330795 -2.141512531689344
0.1675878713810208 -2.3989893330226995
0.1823902873788906 -2.650771024096024
0.20243175143840872 -2.894575032049335
0.2284165378523869 -3.12763586505544
0.26098526163783325 -3.346830422487498
0.300699431471756 -3.548750582895828
0.3479798149443166 -3.7297547585583195
0.4030242229794346 -3.8860482898019653
0.4656918564062723 -4.013836692708608
0.5353509866066561 -4.1095737924863505
0.6106458271734984 -4.170175701089486
0.6893720691384233 -4.19322807978342
0.7680983111033428 -4.1701757010893505
0.8433931516701684 -4.109573792486073
0.9130522818705262 -4.013836692708207
0.9757199152973306 -3.8860482898014643
1.0307643233324117 -3.729754758557748
1.078044706804934 -3.5487505828952037
1.1177588766388178 -3.3468304224868377
1.1503276004242264 -3.1276358650547658
1.176312386838169 -2.8945750320486674
1.1963538508976546 -2.6507710240953823
1.2111562668954974 -2.3989893330220986
1.2215016859434176 -2.1415125316887917
1.2282561971427266 -1.880083719555647
1.2323338062415679 -1.6159655213282613
1.234611789860361 -1.3500750986525485
1.2358596882713422 -1.0831057966478417
1.2366566174248617 -0.8155440827965476
1.2372323991480318 -0.5476233266043067
1.2376448452989919 -0.2789989844162424
1.240797395951774 -0.004513370339547007
0.2058735849783853 -0.006125387921181311
0.20826559267129272 -0.27909856055614357
0.2085164035171033 -0.5476405960571012
0.2089663869400278 -0.8156087942978161
0.20964478147886048 -1.0832057104144512
0.21067911876115586 -1.3502924435314463
0.2125471800665947 -1.6164659737280351
0.21596400169451635 -1.8810749730818515
0.22173547081228773 -2.143214271843617
0.23068207624840978 -2.401614690734254
0.24356237132622843 -2.6545118752988075
0.2610480665689692 -2.8996024562094473
0.28374314854882626 -3.134105535542922
0.3122023031844657 -3.3548847732654146
0.3469218405528889 -3.558510650037413
0.3882996491507281 -3.7413032725234583
0.4365580957190483 -3.8994064041353953
0.4916362085059636 -4.0289307993689585
0.5530203760066867 -4.126186205901782
0.619552967613349 -4.187897249891896
0.6893720691384082 -4.21146993636804
0.7591911706634622 -4.187897249891757
0.8257237622701096 -4.126186205901499
0.8871079297708097 -4.02893079936855
0.9421860425576959 -3.8994064041348855
0.990444489125984 -3.7413032725228788
1.0318222977237894 -3.5585106500367796
1.0665418350921785 -3.3548847732647458
1.095000989727785 -3.1341055355422394
1.117696071707611 -2.8996024562087728
1.1351817669503235 -2.6545118752981587
1.1480620620281183 -2.4016146907336475
1.1570086674642215 -2.1432142718430605
1.1627801365819794 -1.8810749730813525
1.166196958209892 -1.6164659737275981
1.1680650195153264 -1.3502924435310788
1.1690993567976202 -1.0832057104141521
1.169777751336453 -0.815608794297588
1.1702277347593772 -0.5476405960569422
1.1704785456051878 -0.27909856055605503
1.17287055329809 -0.006125387921173443
0.273494190822343 -0.0074305284293513865
0.2753154337515723 -0.2791756011013184
0.27547877108442737 -0.5476504743765243
0.2758232448771562 -0.8156588063743087
0.2763889455061325 -1.083286081289894
0.27723491257959854 -1.350456065530275
0.27873318954920023 -1.6168510617677336
0.28150517648722473 -1.881876199302421
0.28630041038121695 -2.1446334931980977
0.2938425260653323 -2.4038407059153823
0.30478716823059415 -2.657710210240289
0.31970017929676786 -2.90391769724306
0.33908477164684914 -3.1396701523413375
0.36341133623557526 -3.3618224552982574
0.39311486686173086 -3.566929957610311
0.42855724466041184 -3.7512855817482755
0.46998059236426726 -3.9109855380249234
0.5174063321909215 -4.042059398814404
0.5704792306088875 -4.140690444569087
0.6283029568148079 -4.2034398848921155
0.6893720691383933 -4.227562106894804
0.7504411814619739 -4.203439884891973
0.8082649076678812 -4.1406904445688
0.8613378060858267 -4.042059398813989
0.9087635459124562 -3.9109855380244065
0.9501868936162837 -3.751285581747688
0.9856292714149355 -3.5669299576096694
1.0153328020410617 -3.361822455297581
1.0396593666297598 -3.1396701523406474
1.0590439589798142 -2.9039176972423784
1.073956970045964 -2.657710210239635
1.0849016122112054 -2.403840705914771
1.0924437278953045 -2.1446334931975373
1.0972389617892853 -1.8818761993019193
1.1000109487273024 -1.6168510617672958
1.1015092256969006 -1.3504560655299072
1.1023551927703656 -1.0832860812895946
1.1029208933993417 -0.8156588063740806
1.1032653671920707 -0.5476504743763654
1.1034287045249256 -0.2791756011012296
1.1052499474541506 -0.007430528429341215
0.34091292671738654 -0.008481042412401035
0.34228423714159534 -0.2792382170755236
0.34239695561582323 -0.5476576675554023
0.3426548037367512 -0.815695908526365
0.3431120124225178 -1.0833506792825762
0.34379362976958705 -1.3505774646803335
0.3449615632529678 -1.617134747013269
0.3471326818584445 -1.8824938872341965
0.35096477302178664 -2.1457733297575268
0.3571107983373149 -2.40566837844271
0.36612139453379916 -2.660365434709379
0.3784593072499793 -2.9075196454160714
0.3945301358720507 -3.144328022883378
0.41471876103542205 -3.367641241435488
0.43939554126991687 -3.574006021334421
0.4688915043929477 -3.7596961060067207
0.5034487640288209 -3.920773955159972
0.5431619546193586 -4.053208609260999
0.5878688369077896 -4.153083955910058
0.636982208017863 -4.216823671629397
0.6893720691383782 -4.24154223035223
0.7417619302588893 -4.216823671629254
0.7908753013689507 -4.153083955909767
0.8355821836573648 -4.053208609260579
0.8752953742478815 -3.92077395515945
0.909852633883731 -3.7596961060061265
0.9393485970067372 -3.5740060213337737
0.9640253772412076 -3.367641241434805
0.9842140024045556 -3.1443280228826818
1.0002848310266048 -2.907519645415384
1.012622743742765 -2.6603654347087202
1.0216333399392326 -2.4056683784420945
1.0277793652547471 -2.1457733297569628
1.0316114564180798 -1.882493887233693
1.033782575023551 -1.6171347470128299
1.034950508506929 -1.3505774646799653
1.0356321258539978 -1.083350679282277
1.0360893345397642 -0.8156959085261368
1.0363471826606923 -0.5476576675552434
1.03645990113492 -0.27923821707543445
1.0378312115591253 -0.008481042412388944
0.408184153305387 -0.009316859900629271
0.40919616064919884 -0.27928962921765044
0.40927637796848576 -0.5476645406294307
0.4094608496552264 -0.8157216090462329
0.4098119938940127 -1.0834017716788058
0.4103471969299433 -1.3506666264510132
0.41122347492222805 -1.617333937693771
0.41284568684683537 -1.8829431590071173
0.41575955543231374 -2.1466408255827605
0.42052921134898447 -2.4071025628198983
0.4276224864590528 -2.6624813037562487
0.43739873949923747 -2.9104113717436135
0.4501676561248043 -3.1480820399369236
0.46622984322222405 -3.372343717465019
0.48589088818559795 -3.5797403053024537
0.5094412723076411 -3.766534313900508
0.5371195991592252 -3.9287648491915683
0.5690777025608263 -4.062364412610617
0.6053418637947744 -4.163354448315927
0.6456763341521806 -4.22804954577265
0.689372069138363 -4.253426815670553
0.7330678041245418 -4.228049545772503
0.7734022744819381 -4.163354448315632
0.8096664357158719 -4.062364412610193
0.8416245391174556 -3.9287648491910416
0.8693028659690208 -3.766534313899908
0.8928532500910439 -3.5797403053018013
0.9125142950543984 -3.372343717464331
0.9285764821517998 -3.148082039936223
0.9413453987773489 -2.9104113717429216
0.9511216518175176 -2.6624813037555857
0.9582149269275725 -2.4071025628192797
0.9629845828442326 -2.1466408255821943
0.9658984514297038 -1.8829431590066124
0.9675206633543069 -1.617333937693331
0.9683969413465897 -1.3506666264506448
0.9689321443825201 -1.0834017716785065
0.9692832886213063 -0.8157216090460048
0.9694677603080468 -0.5476645406292716
0.9695479776273338 -0.2792896292175611
0.9705599849711429 -0.009316859900615582
0.47534394670679314 -0.00997019005520497
0.47606920447381607 -0.27933227085978335
0.47612485760874834 -0.5476715884415572
0.4762433856747826 -0.8157371749602553
0.4764899525579064 -1.0834397323014247
0.4768870796531374 -1.3507314412315758
0.4775131681216317 -1.6174653818752502
0.47864084624851244 -1.88324467747841
0.48070013472383455 -2.14725197300348
0.4841433503285215 -2.408153034748768
0.48935006396663355 -2.6640658713883805
0.4965918508444206 -2.9126005376758273
0.506088273910436 -3.150940129395814
0.5180538979232491 -3.375937565747835
0.5327243175420223 -3.584139623166182
0.5503500579786182 -3.771804750464655
0.5711595915044203 -3.9349574623268464
0.5953351798995661 -4.069514866614574
0.6230647982798933 -4.171479261481724
0.6544818034120932 -4.237097514958749
0.6893720691383473 -4.263211060928547
0.7242623348645989 -4.237097514958601
0.7556793399967909 -4.171479261481427
0.7834089583771068 -4.0695148666141465
0.8075845467722391 -3.9349574623263157
0.8283940802980265 -3.7718047504640504
0.8460198207346071 -3.5841396231655254
0.8606902403533663 -3.3759375657471438
0.8726558643661659 -3.150940129395109
0.8821522874321683 -2.9126005376751323
0.8893940743099434 -2.664065871387715
0.8946007879480454 -2.408153034748146
0.8980440035527247 -2.1472519730029123
0.9001032920280418 -1.8832446774779037
0.9012309701549196 -1.61746538187481
0.9018570586234128 -1.3507314412312075
0.9022541857186437 -1.0834397323011256
0.9025007526017674 -0.8157371749600272
0.9026192806678016 -0.5476715884413982
0.9026749338027338 -0.279332270859694
0.9034001915697548 -0.009970190055190006
0.5424146431759549 -0.01047114061761381
0.5429199572290689 -0.27936834239504693
0.5429496173757261 -0.5476779774880463
0.5430057692704953 -0.8157436082717087
0.543150054691212 -1.083463938164246
0.5434083269803213 -1.3507764064241645
0.5438149063447955 -1.6175467679012543
0.5445130758402563 -1.8834236432640428
0.5457930575316396 -2.1476319192469746
0.5479855886213613 -2.4088391013007584
0.5513647660222093 -2.6651334211831155
0.5561188664335125 -2.9141004927004333
0.5623859641288639 -3.152916021126454
0.5703015498085814 -3.3784367637600616
0.580027191983682 -3.5872164576236187
0.5917618179730085 -3.7755177906348285
0.6057275026875204 -3.939359669716436
0.6221347659398758 -4.074654181307488
0.6412414759201196 -4.177427150896309
0.6635203361122416 -4.243923685403116
0.689372069138331 -4.2708661568143516
0.7152238021644189 -4.243923685402967
0.7375026623565354 -4.177427150896009
0.7566093723367715 -4.074654181307057
0.773016635589117 -3.939359669715903
0.7869823203036188 -3.775517790634222
0.7987169462929354 -3.587216457622958
0.8084425884680271 -3.378436763759367
0.816358174147736 -3.1529160211257468
0.8226252718430792 -2.9141004926997356
0.8273793722543747 -2.6651334211824476
0.8307585496552163 -2.408839101300135
0.832951080744933 -2.1476319192464057
0.8342310624363134 -1.8834236432635358
0.8349292319317725 -1.6175467679008138
0.8353358112962462 -1.350776406423796
0.8355940835853554 -1.0834639381639468
0.8357383690060721 -0.8157436082714804
0.8357945209008412 -0.5476779774878872
0.8358241810474983 -0.2793683423949574
0.836329495100611 -0.010471140617597874
0.6094123935001663 -0.010849697592449286
0.6097587333504942 -0.27940058872545864
0.6097574169230577 -0.5476818773745089
0.6097521275974386 -0.8157416573021298
0.609796917786631 -1.0834740627943575
0.6099125387510923 -1.3508020121202258
0.6101122879002917 -1.6175919743850509
0.6104449311508765 -1.8835108015515056
0.6110366997846667 -2.147817407097014
0.6120769216439725 -2.4091938466112266
0.6137157220008579 -2.665711093828654
0.616054741386686 -2.9149346964814615
0.6191531419783453 -3.15403210516505
0.6230771493075148 -3.3798643802044417
0.6279179186485536 -3.588992927631961
0.6338103665525769 -3.7776913700606904
0.6409555761800737 -3.9419869600670276
0.6496175182242491 -4.0777942358610755
0.6601026324222257 -4.181172118982124
0.6729783804444304 -4.248455643951352
0.6893720691383145 -4.2763292058386035
0.7057657578321976 -4.248455643951202
0.7186415058543999 -4.181172118981823
0.7291266200523715 -4.077794235860643
0.7377885620965412 -3.9419869600664916
0.7449337717240332 -3.777691370060081
0.7508262196280517 -3.5889929276312995
0.7556669889690871 -3.3798643802037462
0.7595909962982531 -3.154032105164341
0.7626893968899088 -2.914934696480762
0.7650284162757336 -2.665711093827985
0.766667216632616 -2.409193846610602
0.7677074384919201 -2.147817407096445
0.768299207125709 -1.8835108015509983
0.7686318503762931 -1.6175919743846106
0.7688315995254926 -1.3508020121198572
0.7689472204899538 -1.0834740627940582
0.7689920106791462 -0.8157416573019015
0.7689867213535269 -0.5476818773743496
0.7689854049260902 -0.2794005887253691
0.7693317447764175 -0.010849697592432641
0.6763548451720774 -0.011131978357406078
0.676588913311401 -0.27943216712735813
0.6765533254693369 -0.5476813004610682
0.6764870717466633 -0.8157317829835794
0.676434872932715 -1.083470181233607
0.6764080048492839 -1.3508074285739868
0.6763975201285409 -1.6176061438096345
0.6763936791809501 -1.8835364928604754
0.6763921537693327 -2.1478653858319774
0.6763920075979801 -2.4092830877380487
0.6763921063443281 -2.66585934419857
0.6763904087331257 -2.915157193945723
0.676380651095945 -3.154339947087756
0.676360621128475 -3.380270131105738
0.6763485227569409 -3.5895166225682336
0.6764179801465379 -3.778367667582103
0.6767443144982968 -3.942874084563386
0.6776528633869884 -4.078974930909033
0.6795907036254012 -4.182744224028147
0.6830566631257081 -4.250622352254943
0.6893720691382972 -4.279492684584316
0.6956874751508867 -4.250622352254793
0.6991534346511925 -4.182744224027845
0.7010912748896041 -4.078974930908599
0.7019998237782953 -3.9428740845628494
0.7023261581300553 -3.7783676675814934
0.702395615519653 -3.589516622567572
0.7023835171481202 -3.3802701311050423
0.7023634871806519 -3.1543399470870477
0.7023537295434727 -2.915157193945023
0.7023520319322717 -2.6658593441979006
0.7023521306786205 -2.4092830877374243
0.7023519845072687 -2.147865385831408
0.7023504590956515 -1.8835364928599683
0.7023466181480608 -1.617606143809194
0.702336133427318 -1.3508074285736185
0.702309265343887 -1.0834701812333078
0.7022570665299388 -0.815731782983351
0.7021908128072651 -0.5476813004609088
0.7021552249652009 -0.2794321671272687
0.7023892931045241 -0.011131978357388932
0.7432532667439683 -0.011343690809319159
0.7434094577907785 -0.27946396952810354
0.7433418285699155 -0.5476754381376892
0.7432157991771887 -0.8157141545647403
0.7430692991147732 -1.0834526750561306
0.742902137894433 -1.350792395315198
0.7426819208856169 -1.6175894388730447
0.7423412820911461 -1.8835099930808517
0.7417470542413113 -2.1478171882711172
0.7407070097248325 -2.4091938499937453
0.7390686467341593 -2.665710921326667
0.7367246854452324 -2.914932067674952
0.7336060433672569 -3.154024868224365
0.7296433798907563 -3.379854840660303
0.7247833167320015 -3.5889997310324255
0.7190362541630511 -3.7777684061410444
0.7125360243686358 -3.9422453291595163
0.705602470502209 -4.078413910968429
0.6987289208095461 -4.182352552170342
0.6926263861898768 -4.250538942601244
0.6893720691382798 -4.280449040205048
0.6861177520866814 -4.250538942601093
0.6800152174670124 -4.18235255217004
0.6731416677743537 -4.0784139109679955
0.666208113907933 -3.9422453291589807
0.6597078841135249 -3.777768406140436
0.6539608215445806 -3.5889997310317643
0.649100758385832 -3.3798548406596085
0.6451380949093379 -3.154024868223657
0.6420194528313694 -2.9149320676742536
0.6396754915424485 -2.665710921325998
0.6380371285517802 -2.409193849993122
0.6369970840353045 -2.147817188270548
0.6364028561854715 -1.8835099930803445
0.6360622173910017 -1.6175894388726044
0.6358420003821861 -1.3507923953148295
0.6356748391618462 -1.0834526750558313
0.6355283390994306 -0.8157141545645121
0.6354023097067039 -0.5476754381375297
0.6353346804858411 -0.27946396952801417
0.635490871532651 -0.011343690809301745
0.8101189081693855 -0.011504837366736576
0.8102228894219936 -0.2794943749078069
0.8101267231105228 -0.547664640944106
0.8099437489029336 -0.8156889162011676
0.8097063205739936 -1.0834221507246662
0.809402588957151 -1.3507573648729523
0.8089758823817662 -1.6175414681632947
0.8082704972437672 -1.8834218217975582
0.8069897148806217 -2.147631584977435
0.8047985093646498 -2.4088392642683765
0.801419060931165 -2.665132660641851
0.7966591947317686 -2.914094853871702
0.7903743557097304 -3.152901483276058
0.7824273330187076 -3.378418406352791
0.7726921129291027 -3.587232233248515
0.7611063238294054 -3.7756757385256914
0.7477565612877424 -3.9398757881183557
0.7329432655383609 -4.075868460705393
0.7172475244145149 -4.179790523783908
0.7018876449379527 -4.248322764118548
0.689372069138263 -4.2793751718141655
0.6768564933385723 -4.248322764118397
0.6614966138620129 -4.179790523783608
0.6458008727381735 -4.075868460704961
0.6309875769888034 -3.9398757881178224
0.6176378144471532 -3.775675738525086
0.6060520253474674 -3.5872322332478555
0.596316805257874 -3.3784184063520986
0.5883697825668621 -3.1529014832753517
0.5820849435448358 -2.914094853871005
0.57732507734545 -2.6651326606411834
0.5739456289119738 -2.4088392642677543
0.5717544233960079 -2.1476315849768666
0.5704736410328662 -1.8834218217970515
0.5697682558948691 -1.6175414681628546
0.5693415493194853 -1.350757364872584
0.5690378177026431 -1.083422150724367
0.5688003893737033 -0.8156889162009394
0.5686174151661142 -0.5476646409439466
0.5685212488546434 -0.27949437490771756
0.5686252301072515 -0.011504837366718937
0.8769694472484169 -0.011625070617956293
0.877034053519646 -0.2795217277825507
0.8769127654350917 -0.5476494456221508
0.8766763556876342 -0.8156564296957804
0.8763518706995674 -1.083379431566033
0.8759168556819942 -1.3507032388931282
0.8752722282645955 -1.617456716963085
0.8741399297930154 -1.883242171312513
0.8720827438497708 -2.147251999137638
0.8686409238752265 -2.408153286326631
0.8634326942783008 -2.6640642307586235
0.8561854513540826 -2.9125922835611266
0.8466784476174629 -3.150920351995705
0.8346986514016236 -3.37591387576173
0.8200369532542005 -3.584166418396899
0.802546276586739 -3.7720366568997172
0.7822421594511609 -3.9357013303188344
0.7594268685730804 -4.071269269378525
0.7349087767771806 -4.175012504055499
0.710378302865302 -4.243860703404691
0.6893720691382463 -4.276333620976056
0.6683658354111913 -4.243860703404541
0.6438353614993174 -4.1750125040552
0.6193172697034276 -4.071269269378096
0.5965019788253623 -3.935701330318305
0.5761978616898016 -3.772036656899115
0.558707185022357 -3.5841664183962427
0.5440454868749506 -3.375913875761041
0.5320656906591271 -3.1509203519950035
0.5225586869225237 -2.912592283560433
0.5153114439983205 -2.664064230757959
0.5101032144014075 -2.408153286326011
0.5066613944268719 -2.147251999137071
0.5046042084836334 -1.883242171312007
0.5034719100120564 -1.6174567169626448
0.5028272825946593 -1.3507032388927598
0.5023922675770865 -1.083379431565734
0.5020677825890201 -0.8156564296955522
0.5018313728415628 -0.5476494456219914
0.5017100847570085 -0.27952172778246137
0.5017746910282376 -0.011625070617938523
0.9438177518922664 -0.011710860936440486
0.9438491925683734 -0.27954454098313897
0.9437045977105366 -0.5476302097583682
0.9434183204543414 -0.8156172486544243
0.9430110793039891 -1.0833255520330263
0.942447624393391 -1.35062942175962
0.9415561932056123 -1.617321983718166
0.9399346041617236 -1.8829410274536136
0.9370240985138348 -2.1466414550566153
0.9322549419505731 -2.4071026110043876
0.9251588394236215 -2.6624785764514614
0.9153787811384406 -2.910401534485241
0.9026106406838603 -3.148060928331726
0.8865610057694988 -3.372321143172442
0.8669359025316329 -3.5797803797897214
0.8434921699742989 -3.7668227812435844
0.8161656191100047 -3.9296858361823963
0.7853016026921718 -4.0645932631049515
0.7519789287243361 -4.168015563162805
0.7185317167889208 -4.23723789835855
0.6893720691382301 -4.271422822889219
0.6602124214875412 -4.2372378983584005
0.626765209552133 -4.168015563162506
0.5934425355843107 -4.064593263104526
0.5625785191664965 -3.929685836181872
0.5352519683022239 -3.7668227812429866
0.5118082357449117 -3.5797803797890695
0.4921831325070679 -3.372321143171758
0.4761334975927274 -3.1480609283310286
0.4633653571381676 -2.9104015344845515
0.4535852988530061 -2.662478576450801
0.44648919632607065 -2.4071026110037708
0.4417200397628208 -2.1466414550560504
0.4388095341149402 -1.8829410274531087
0.4371879450710561 -1.6173219837177268
0.43629651388327956 -1.3506294217592518
0.43573305897268233 -1.083325552032727
0.43532581782233043 -0.815617248654196
0.43503954056613525 -0.5476302097582088
0.43489494570829856 -0.27954454098304965
0.4349263863844055 -0.011710860936422566
1.0106718790200813 -0.011768068474238856
1.0106746332073657 -0.27956159994472274
1.0105074907512046 -0.5476070965833444
1.0101746827151707 -0.8155720079986981
1.0096899319947106 -1.0832617467412629
1.0089922155757327 -1.350532362158037
1.0078167243819673 -1.6171208382946307
1.0056486460673053 -1.8824929022638763
1.0018197943360305 -2.145774428589623
0.99567287513317 -2.405667876691627
0.9866587199841909 -2.6603616129830705
0.974320031704911 -2.90750977493565
0.9582638372657604 -3.1443107401659423
0.9381190527060415 -3.3676284016985667
0.9135116868506447 -3.574062498233012
0.8841008314447503 -3.7600207289989074
0.8497547284805185 -3.9218180085210497
0.8108710959361075 -4.055837659664114
0.7688422445897953 -4.158827186803133
0.7266301946541893 -4.228505392405287
0.6893720691382145 -4.264661539118115
0.6521139436222414 -4.22850539240514
0.6099018936866455 -4.158827186802838
0.56787304234035 -4.055837659663693
0.5289894097959612 -3.9218180085205305
0.4946433068317549 -3.760020728998316
0.46523245142588715 -3.5740624982323657
0.4406250855705175 -3.367628401697889
0.42048030101082456 -3.144310740165251
0.40442410657169925 -2.9075097749349657
0.3920854182924424 -2.6603616129824146
0.3830712631434827 -2.405667876691014
0.376924343940637 -2.1457744285890605
0.3730954922093732 -1.8824929022633732
0.3709274138947173 -1.6171208382941924
0.36975192270095514 -1.3505323621576693
0.3690542062819783 -1.0832617467409635
0.3685694555615183 -0.8155720079984701
0.36823664752548474 -0.5476070965831851
0.36806950506932357 -0.2795615999446334
0.3680722592566081 -0.011768068474220829
1.077537339741819 -0.011802300469451443
1.0775158686340909 -0.27957217599124023
1.0773269628446671 -0.5475801006246704
1.0769503445938253 -0.8155214635914978
1.076390819298146 -1.0831881235295306
1.0755443767563908 -1.3504052466317702
1.0740466120349215 -1.616836771514913
1.0712785177615265 -1.8818763750162866
1.06648474557831 -2.1446347198199476
1.0589403465130267 -2.4038393728790557
1.047992299498772 -2.657705576772369
1.0330831647229013 -2.903909735773267
1.0137273113902399 -3.1396620610836616
0.9894730597042497 -3.361828372189586
0.9598765230221192 -3.5670087787050853
0.92453153589227 -3.751633706626873
0.8832407096710915 -3.912107906418879
0.8364449301078936 -4.045020921541555
0.7858202029989619 -4.1474713064502415
0.7348644076480465 -4.217667020321671
0.6893720691381985 -4.256017180451723
0.6438797306283539 -4.2176670203215245
0.5929239352774509 -4.147471306449951
0.5422992081685396 -4.0450209215411395
0.49550342860536706 -3.9121079064183664
0.45421260238421846 -3.751633706626288
0.41886761525440047 -3.5670087787044458
0.3892710785723015 -3.3618283721889144
0.3650168268863424 -3.139662061082978
0.3456609735537108 -2.9039097357725883
0.33075183877786685 -2.6577055767717193
0.3198037917636353 -2.4038393728784473
0.3122593926983698 -2.144634719819388
0.30746562051516607 -1.8818763750157856
0.3046975262417792 -1.6168367715144754
0.303199761520314 -1.3504052466314027
0.30235331897856016 -1.0831881235292318
0.3017937936828812 -0.8155214635912698
0.3014171754320396 -0.5475801006245111
0.301228269642616 -0.2795721759911509
0.3012067985348879 -0.011802300469433348
1.1444176961639916 -0.011819113416929691
1.1443774364504453 -0.2795760653427093
1.1441686407347151 -0.5475492279983787
1.143750453337465 -0.8154662752017751
1.1431156614379998 -1.083103852541994
1.1420988252827355 -1.3502395025170952
1.14023721175833 -1.6164523951931498
1.1368224429077463 -1.8810757329559868
1.1310498944750305 -2.1432151639961137
1.1220997865087454 -2.4016123917597003
1.1092174212261 -2.654507070218408
1.0917415673696327 -2.899598574172541
1.0690876463810033 -3.1341111632121605
1.0407215626036068 -3.3549170805474096
1.0061461261426405 -3.558621863596267
0.9649248920918351 -3.741679176720351
0.9168392010897862 -3.900588183107333
0.8623249630410496 -4.032177327805874
0.8032121415614192 -4.13395716929925
0.7434089861637116 -4.204685031856452
0.6893720691381826 -4.24541539080234
0.6353351521126583 -4.204685031856308
0.5755319967149652 -4.133957169298963
0.5164191752353586 -4.0321773278054645
0.46190493718665127 -3.900588183106828
0.41381924618463695 -3.741679176719774
0.37259801213386723 -3.5586218635956355
0.33802257567293703 -3.3549170805467465
0.3096564918955761 -3.1341111632114846
0.2870025709069815 -2.8995985741718706
0.269526717050545 -2.654507070217765
0.25664435176792555 -2.401612391759097
0.24769424380166105 -2.143215163995559
0.24192169536896022 -1.8810757329554886
0.23850692651838648 -1.6164523951927137
0.23664531299398592 -1.3502395025167286
0.2356284768387238 -1.0831038525416954
0.234993684939259 -0.815466275201547
0.23457549754200901 -0.5475492279982193
0.23436670182627908 -0.27957606534262
0.23432644211273287 -0.011819113416911546
1.2113144949857655 -0.011824121161990187
1.211262834891149 -0.2795736686246647
1.2110385752523523 -0.5475146360220269
1.2105804421108795 -0.8154070086796937
1.2098640972062864 -1.0830059899477522
1.2086490263990146 -1.3500239712172435
1.20637998306055 -1.6159526406717986
1.2023012430173892 -1.8800842160189146
1.1955426762455146 -2.141512586855207
1.1851930466049494 -2.3989861276275986
1.170390938501005 -2.6507670059958413
1.1503658590726424 -2.8945773909385215
1.1244321419274286 -3.127658490795016
1.091969709852675 -3.34689452631308
1.0524315418370012 -3.548906887510659
1.005403206862446 -3.730183715885796
0.9507213586154674 -3.88731531067752
0.8887921737964446 -4.017359906688825
0.8213339131243673 -4.118283132935993
0.752487181067248 -4.1894808703682775
0.6893720691381667 -4.232730923604764
0.6262569572090909 -4.189480870368136
0.5574102251519888 -4.118283132935712
0.4899519644799384 -4.017359906688423
0.4280227796609495 -3.8873153106770233
0.37334093141400976 -3.730183715885228
0.32631259643949523 -3.5489068875100376
0.2867744284238618 -3.346894526312426
0.25431199634914853 -3.1276584907943494
0.22837827920397372 -2.89457739093786
0.20835319977564612 -2.6507670059952058
0.19355109167173068 -2.3989861276270013
0.18320146203118892 -2.141512586854657
0.17644289525933105 -1.8800842160184195
0.1723641552161818 -1.6159526406713642
0.1700951118777235 -1.3500239712168776
0.1688800410704546 -1.0830059899474538
0.168163696165862 -0.8154070086794656
0.16770556302438946 -0.5475146360218676
0.16748130338559308 -0.2795736686245754
0.1674296432909765 -0.011824121161971986
1.2782266419566144 -0.011823008223211804
1.2781744376112676 -0.27956618929547145
1.2779438288441194 -0.5474769270947523
1.2774458910246702 -0.8153433524782128
1.2766331894444056 -1.0828898695526583
1.2751859564888344 -1.3497448100150125
1.2724814274989624 -1.615328351462745
1.2677290857563475 -1.8788986300084884
1.2599907850164396 -2.139527143086112
1.2482620867804395 -2.3959639022842443
1.2315695842437795 -2.6464900021684934
1.209028432109085 -2.888851311933938
1.1798465284684418 -3.1203086413045065
1.143319020448965 -3.3377652026423936
1.0988620531673974 -3.5378726201188977
1.0460918776840624 -3.7171727899713476
0.9849712103218241 -3.872353771204241
0.9160073661568694 -4.000664754122166
0.8406472658616835 -4.1004647683367486
0.7624590288234283 -4.1719194094147545
0.6893720691381504 -4.217759244374804
0.6162851094528793 -4.171919409414616
0.5380968724146439 -4.100464768336473
0.46273677211948816 -4.000664754121772
0.3937729279545722 -3.872353771203755
0.33265226059237746 -3.71717278997079
0.2798820851090879 -3.5378726201182866
0.2354251178275659 -3.3377652026417497
0.19889760980813329 -3.12030864130385
0.16971570616753373 -2.888851311933286
0.1471745540328781 -2.6464900021678663
0.13048205149624997 -2.395963902283654
0.11875335326027557 -2.139527143085567
0.11101505252038661 -1.878898630007997
0.10626271077778447 -1.6153283514623131
0.10355818178792027 -1.3497448100146474
0.1021109488323523 -1.08288986955236
0.10129824725208868 -0.8153433524779848
0.10080030943264001 -0.5474769270945931
0.10056970066549188 -0.27956618929538213
0.10051749632014527 -0.01182300822319361
1.345149070093107 -0.011821345187364872
1.3451133583940467 -0.2795561854322869
1.3448937965106298 -0.5474373963074936
1.3443516630697099 -0.815273111850204
1.3434170246678125 -1.0827469442439912
1.3417064005513613 -1.3493921252485013
1.3385503894140878 -1.6145744714934505
1.3331217810553153 -1.8775182479586152
1.324421778505559 -2.1372628778775553
1.3113488033901017 -2.392552928603496
1.2928116587944634 -2.6416848170995166
1.2678004392471194 -2.882428656574305
1.2354153991034917 -3.112070186173152
1.1948803953772187 -3.3275403998448594
1.145571726064682 -3.5255329090823757
1.087132220055561 -3.702665208172635
1.0196551194521286 -3.855748087883128
0.9438921333002085 -3.9822072235142305
0.8613906769546197 -4.080668240358779
0.7746274803481056 -4.151836636822176
0.6893720691381336 -4.199999999999993
0.6041166579281692 -4.15183663682204
0.5173534613216773 -4.080668240358512
0.4348520049761233 -3.982207223513846
0.35908901882424715 -3.8557480878826533
0.2916119182208632 -3.702665208172089
0.2331724122117924 -3.525532909081776
0.18386374289930632 -3.327540399844228
0.14332873917308186 -3.1120701861725073
0.11094369902950216 -2.882428656573664
0.08593247948220101 -2.6416848170988985
0.06739533488659752 -2.392552928602913
0.054322359771168026 -2.137262877877016
0.045622357221432715 -1.8775182479581278
0.040193748862674586 -1.6145744714930206
0.03703773772540999 -1.3493921252481378
0.03532711360896257 -1.0827469442436932
0.034392475207066495 -0.8152731118499761
0.03385034176614701 -0.5474373963073342
0.03363077988273054 -0.27955618543219757
0.033595068183670196 -0.011821345187346682
SCALARS Stress float 6
LOOKUP_TABLE default
-1276.758778235906 -2080.610132058513 -1602.7616534099125 -28.474941169703772 0.0 0.0
1374.1633873394192 809.1324027067296 1031.3207338415632 -20.1763793936517 0.0 0.0
627.2063157655537 171.1731035940201 259.89820568769 -41.983153875065284 0.0 0.0
500.26322562743223 32.47175031505545 166.32352724330295 -0.9125136560816598 0.0 0.0
627.6416534528903 84.45769291628079 260.8450914188324 3.0235817803981675 0.0 0.0
752.5500457365604 138.65560060338765 391.96587075378346 1.7815774693895445 0.0 0.0
885.5616847066533 196.3736994928347 516.6066138584716 0.42421717828504324 0.0 0.0
1022.7388350187312 271.5512503694255 633.221449245086 -1.0571427181840969 0.0 0.0
1169.9423807685152 362.30019593548377 754.5189887548463 -2.7897154762991025 0.0 0.0
1334.9160234510637 475.5197512186677 893.9503696690945 -4.677660929095115 0.0 0.0
1523.2595224167903 616.4691893981301 1058.358276070223 -6.457795566183089 0.0 0.0
1734.912729032015 785.3744331998287 1248.2336225642975 -7.815969662958128 0.0 0.0
1964.2421822250312 975.285289585973 1457.414097511608 -8.644385772479877 0.0 0.0
2203.6311138967912 1178.390059129705 1678.2417131648804 -9.272599854235791 0.0 0.0
2443.3662962257285 1384.797231040329 1900.9047602115543 -9.669060651627023 0.0 0.0
2672.1521292980665 1583.25211477869 2114.156503216608 -9.742152599196634 0.0 0.0
2878.137160312258 1762.2813327542901 2306.376502429888 -9.324478154905417 0.0 0.0
3049.6373698777597 1910.7004471123971 2466.146901803705 -8.379325374776526 0.0 0.0
3185.243633431811 2027.644308157085 2592.2032084858083 -7.315130362682943 0.0 0.0
3270.09496491929 2099.0743221213083 2670.0906396749315 -9.661739378359119 0.0 0.0
3261.3548685516425 2089.4621246461343 2661.096288490638 3.894307099017169e-11 0.0 0.0
3270.0949649195504 2099.0743221215857 2670.0906396748064 9.661739378350552 0.0 0.0
3185.243633430221 2027.644308155568 2592.203208484529 7.31513036263434 0.0 0.0
3049.637369876108 1910.700447110827 2466.146901802352 8.379325374929785 0.0 0.0
2878.1371603113203 1762.281332753471 2306.3765024288173 9.324478154936731 0.0 0.0
2672.152129297674 1583.2521147784394 2114.1565032160634 9.74215259913021 0.0 0.0
2443.3662962243534 1384.7972310391067 1900.9047602104556 9.669060651661738 0.0 0.0
2203.631113897148 1178.3900591302754 1678.241713164755 9.272599854247385 0.0 0.0
1964.2421822236483 975.2852895847984 1457.414097510334 8.64438577238363 0.0 0.0
1734.9127290305003 785.3744331985417 1248.2336225630238 7.815969662942345 0.0 0.0
1523.2595224155261 616.4691893970901 1058.358276069183 6.45779556597137 0.0 0.0
1334.9160234493058 475.51975121718476 893.9503696677175 4.677660928997593 0.0 0.0
1169.9423807664698 362.3001959336839 754.5189887533433 2.7897154763613514 0.0 0.0
1022.7388350180316 271.5512503689936 633.2214492444948 1.0571427183578734 0.0 0.0
885.5616847060548 196.373699492516 516.6066138578819 -0.4242171781881403 0.0 0.0
752.5500457360229 138.65560060316096 391.9658707532267 -1.7815774696197675 0.0 0.0
627.6416534522727 84.45769291583201 260.84509141832643 -3.0235817802566043 0.0 0.0
500.263225627485 32.471750315412656 166.323527243386 0.912513656143628 0.0 0.0
627.206315764923 171.17310359342315 259.89820568726213 41.98315387483316 0.0 0.0
1374.1633873390804 809.1324027064885 1031.3207338411366 20.176379393609032 0.0 0.0
-1276.758778233042 -2080.6101320558114 -1602.7616534071465 28.474941168822657 0.0 0.0
-1625.83289758287 -2401.2321332936162 -1906.8419491647983 -30.746151161013035 0.0 0.0
937.9914421036896 446.4827731815453 648.3744948554508 -27.99310145918511 0.0 0.0
438.6204253982145 67.33704909759061 150.84137203477678 -36.59663109763302 0.0 0.0
440.46821627953784 7.511871655106771 137.1086205869812 -15.60110595616889 0.0 0.0
555.790790950437 38.01799240927954 209.2242158309747 -16.79631948915653 0.0 0.0
659.5432841880599 54.86252321012049 308.0247192991381 -22.631755456793915 0.0 0.0
748.7880800428031 74.73098527791826 396.3843566622482 -24.134469979869515 0.0 0.0
834.1987720148993 96.49918048882645 461.6771142627517 -24.474128022355305 0.0 0.0
912.0730032583324 117.32883066847023 513.3589525825604 -25.147705497020908 0.0 0.0
984.0665381224379 137.8550431404892 560.1372992086629 -26.00207071473779 0.0 0.0
1053.1707504429103 160.2504202115652 606.0272947270527 -26.48470838467689 0.0 0.0
1121.7026907193735 185.95988063047776 653.1810866586791 -26.49689368702137 0.0 0.0
1189.231682428401 215.09150895899413 701.5297570483145 -26.103348773599755 0.0 0.0
1253.143623680529 243.1789255015566 747.5397562273495 -25.51252948742826 0.0 0.0
1308.0640226119885 265.241470703705 786.0413176417551 -24.735696531194964 0.0 0.0
1349.6268574366832 276.88654118296245 812.6576391004846 -23.540415337402663 0.0 0.0
1375.13871434842 275.67210026560446 824.8150798398661 -21.682753419746206 0.0 0.0
1384.989192296577 262.4677331834326 823.1374402858532 -19.231808073807297 0.0 0.0
1373.3207114389209 232.18153830685142 802.2679400254174 -16.98811921619809 0.0 0.0
1296.0986908659488 142.04736239706176 719.3014181140956 -17.775677425343332 0.0 0.0
1167.6350779321567 13.545351666743485 591.9287818921758 -1.1116441100966767e-11 0.0 0.0
1296.0986908657285 142.04736239685172 719.301418113876 17.775677425287803 0.0 0.0
1373.3207114378838 232.18153830586692 802.2679400246839 16.98811921600233 0.0 0.0
1384.9891922957627 262.46773318271084 823.1374402853629 19.23180807388858 0.0 0.0
1375.13871434843 275.6721002657323 824.8150798398802 21.682753419738738 0.0 0.0
1349.62685743667 276.88654118307596 812.6576391004993 23.540415337332774 0.0 0.0
1308.0640226116939 265.24147070360294 786.041317641597 24.735696531338817 0.0 0.0
1253.1436236810466 243.17892550226583 747.5397562275642 25.51252948755459 0.0 0.0
1189.2316824283214 215.09150895912308 701.52975704826 26.103348773578944 0.0 0.0
1121.702690719426 185.95988063078437 653.1810866587414 26.496893687043894 0.0 0.0
1053.1707504426272 160.25042021152137 606.0272947269257 26.484708384613054 0.0 0.0
984.0665381212667 137.85504313957676 560.1372992078537 26.002070714770028 0.0 0.0
912.073003256798 117.32883066718762 513.3589525815371 25.147705497061892 0.0 0.0
834.1987720146893 96.49918048888188 461.6771142625847 24.474128022329577 0.0 0.0
748.7880800423928 74.73098527780505 396.38435666187723 24.134469979847644 0.0 0.0
659.5432841877197 54.86252321005293 308.02471929874315 22.631755456533458 0.0 0.0
555.7907909500891 38.01799240928456 209.22421583070107 16.796319489223688 0.0 0.0
440.46821627943785 7.511871655354188 137.10862058702423 15.601105956156943 0.0 0.0
438.62042539795027 67.3370490972453 150.84137203459156 36.59663109731134 0.0 0.0
937.9914421031365 446.4827731811787 648.3744948548502 27.993101459240748 0.0 0.0
-1625.832897580841 -2401.232133291578 -1906.8419491627055 30.746151160364846 0.0 0.0
-1366.3503244711676 -2106.8230061935787 -1620.1643332774106 -69.09945627358269 0.0 0.0
754.9841767741746 354.6630842760865 504.84185448325206 -96.13284507940057 0.0 0.0
304.06185639833893 76.81010988797657 114.3046265711608 -40.28349770727484 0.0 0.0
378.02592913702 2.0721641297079687 114.16846080744298 -37.36231047222168 0.0 0.0
510.6209865174411 28.124676129902 178.9197448102291 -39.26887831056882 0.0 0.0
625.828084164901 49.151836711069365 276.4862999447637 -42.69781570272289 0.0 0.0
718.646565712806 69.34263157777765 372.2159278977516 -44.68793036512242 0.0 0.0
803.8038943035846 87.29095028820134 440.010872684054 -45.56807025936856 0.0 0.0
878.5515677054462 104.4254094571576 489.67153777773643 -46.97266870070137 0.0 0.0
946.5676805687391 120.92483137475605 532.6159480157743 -48.20688508996145 0.0 0.0
1012.2649451154545 140.39797249109435 575.3465750008573 -48.529540902548824 0.0 0.0
1077.7948798083569 164.27341538802312 620.0858631578477 -48.02109279640046 0.0 0.0
1142.7009090038607 190.58132513165918 665.7338690739414 -47.109379097441675 0.0 0.0
1203.2910278683848 216.50294483032064 709.0182256141471 -45.90351426552453 0.0 0.0
1256.488536695767 237.3501249934723 746.0444999686235 -44.37000691444629 0.0 0.0
1298.0769283286506 249.39350329333973 772.8585309936178 -42.216272871605106 0.0 0.0
1325.451266026912 250.18503454889546 786.9555047108469 -39.10887341604025 0.0 0.0
1334.4664667989384 236.1027261783467 784.5039198368703 -35.28812613073885 0.0 0.0
1311.6487994410786 194.6921136048837 752.6683030172325 -31.785486751730087 0.0 0.0
1268.21473479381 138.63057100177141 703.2782461236737 -29.672128009310143 0.0 0.0
1119.3600728557055 -9.548904459637896 556.0399987168912 -1.2591527820404735e-10 0.0 0.0
1268.2147347945363 138.6305710025848 703.2782461243169 29.672128009334934 0.0 0.0
1311.6487994414597 194.69211360533953 752.6683030174632 31.785486751750355 0.0 0.0
1334.4664667980915 236.1027261776107 784.5039198363681 35.28812613090474 0.0 0.0
1325.4512660271218 250.18503454924883 786.9555047109651 39.10887341616088 0.0 0.0
1298.0769283276186 249.39350329240486 772.8585309928746 42.21627287155921 0.0 0.0
1256.488536695221 237.35012499314354 746.0444999682369 44.37000691464251 0.0 0.0
1203.2910278676118 216.5029448296764 709.0182256135911 45.90351426554477 0.0 0.0
1142.7009090046843 190.58132513271818 665.7338690745055 47.10937909742073 0.0 0.0
1077.7948798077844 164.2734153876773 620.0858631575359 48.02109279643118 0.0 0.0
1012.2649451160977 140.3979724920205 575.346575001309 48.52954090258248 0.0 0.0
946.5676805677116 120.92483137397119 532.615948015054 48.20688508997136 0.0 0.0
878.5515677041567 104.42540945614944 489.6715377768928 46.97266870078211 0.0 0.0
803.8038943028589 87.29095028773874 440.0108726835839 45.568070259338704 0.0 0.0
718.646565712686 69.34263157797128 372.2159278975346 44.687930365115285 0.0 0.0
625.8280841649366 49.15183671141373 276.4862999445869 42.69781570254114 0.0 0.0
510.6209865174576 28.124676130298766 178.91974481023775 39.26887831052754 0.0 0.0
378.02592913690313 2.0721641298122706 114.16846080745216 37.362310472220415 0.0 0.0
304.06185639821837 76.81010988772495 114.30462657104864 40.283497707045946 0.0 0.0
754.984176773618 354.6630842758505 504.8418544826751 96.13284507929026 0.0 0.0
-1366.350324468908 -2106.823006191315 -1620.1643332751562 69.09945627324326 0.0 0.0
-1120.1382206413552 -1829.9052847766902 -1352.8421029454653 -82.82781621534292 0.0 0.0
577.6478492204457 259.1212835639176 373.45074144475154 -145.7325379090586 0.0 0.0
220.18204886748737 64.53101868112856 85.41392026458473 -61.74095362380206 0.0 0.0
314.27501958543314 7.743210891737566 96.40905178816693 -60.10608118546454 0.0 0.0
454.97251763117623 16.440313625920524 148.33295256494156 -64.27343297911501 0.0 0.0
579.8261664043606 41.960681549387054 239.79507598007902 -64.02184318344206 0.0 0.0
684.9918188654711 62.0471840880425 342.1617328036432 -66.55893480750804 0.0 0.0
768.5318507035342 78.25810819583978 414.6923914649017 -66.8621179972647 0.0 0.0
840.9200130060306 91.77731701394035 463.6954942800649 -68.41304875724074 0.0 0.0
905.3400256625647 104.61981235543931 503.420751487974 -69.63717315945483 0.0 0.0
967.2683182789385 120.83663695433052 542.6736344526722 -69.63073435141948 0.0 0.0
1029.849582608969 141.926315991274 584.5468812092588 -68.71569349140007 0.0 0.0
1091.5946040296144 166.3686794283331 627.7163864834603 -67.28702201203637 0.0 0.0
1149.3829911469336 189.16641201808358 668.0510724750233 -65.5718129073409 0.0 0.0
1200.4809840858602 208.60693201319515 703.3165266088015 -63.350320306957286 0.0 0.0
1242.7206408176398 221.83525924114892 731.0456039005608 -60.3641256415651 0.0 0.0
1271.5978829351188 224.01860817894607 746.6125485137934 -56.42886999821752 0.0 0.0
1279.8395699298785 208.96169301800387 743.3586523376088 -51.72195995925154 0.0 0.0
1263.9221263554552 174.17529451701662 718.246814403889 -46.48824369436864 0.0 0.0
1238.1689393132015 135.13411575791315 686.0456456794631 -39.9835567461406 0.0 0.0
1030.089026831008 -71.7952984360485 480.51539946653173 -4.271427656021842e-11 0.0 0.0
1238.1689393153251 135.1341157601595 686.0456456810496 39.983556746353806 0.0 0.0
1263.9221263551997 174.17529451681162 718.2468144034829 46.48824369460969 0.0 0.0
1279.839569929444 208.96169301766227 743.3586523373613 51.721959959226325 0.0 0.0
1271.597882935104 224.01860817904185 746.612548513779 56.42886999833168 0.0 0.0
1242.7206408174172 221.83525924108244 731.0456039004031 60.3641256415508 0.0 0.0
1200.480984085617 208.60693201313748 703.3165266086557 63.35032030709862 0.0 0.0
1149.3829911463913 189.1664120177412 668.0510724746631 65.57181290735005 0.0 0.0
1091.594604029831 166.36867942871862 627.7163864835946 67.28702201202695 0.0 0.0
1029.8495826088433 141.9263159914268 584.5468812092893 68.71569349146269 0.0 0.0
967.2683182793668 120.83663695498994 542.6736344529777 69.63073435144977 0.0 0.0
905.3400256624764 104.61981235560305 503.42075148788854 69.63717315943387 0.0 0.0
840.9200130057411 91.77731701397482 463.6954942798395 68.41304875726391 0.0 0.0
768.5318507032231 78.25810819582796 414.69239146463804 66.86211799725939 0.0 0.0
684.9918188648473 62.04718408774856 342.1617328031182 66.5589348075372 0.0 0.0
579.8261664042246 41.96068154965169 239.795075979849 64.02184318338115 0.0 0.0
454.97251763088616 16.440313625918172 148.3329525648099 64.27343297906287 0.0 0.0
314.2750195854369 7.743210891870984 96.40905178820813 60.106081185366435 0.0 0.0
220.18204886725118 64.53101868071182 85.4139202643889 61.74095362368754 0.0 0.0
577.6478492197954 259.12128356354384 373.45074144413275 145.7325379088091 0.0 0.0
-1120.13822063959 -1829.9052847748205 -1352.8421029435146 82.82781621509596 0.0 0.0
-905.5283212225329 -1589.3798579870263 -1117.6743873031228 -81.36393054312296 0.0 0.0
446.79704752484736 174.14595760257993 270.2783602252768 -178.41906915496696 0.0 0.0
161.04903362858983 50.26112616934123 63.393047939379294 -92.40354597214056 0.0 0.0
256.08425779500146 13.978518602140175 81.0106657958331 -84.83267647896056 0.0 0.0
389.48292972623335 9.391156103301718 120.99605788537585 -90.53175954607426 0.0 0.0
524.5374670780999 29.288890707891753 198.77329691325343 -89.27410229532443 0.0 0.0
639.938335858394 53.42945421477823 303.6139391082408 -88.67119776959626 0.0 0.0
727.4444832033867 69.84725458217137 384.93590136244313 -88.56864548229095 0.0 0.0
798.5343027469982 79.73004941081788 434.9343493839165 -89.40109677076443 0.0 0.0
859.4665767420933 88.68468663426789 471.8531213444485 -90.25424183718874 0.0 0.0
917.9734271517651 101.40354368806317 507.7577723798103 -89.81774915707423 0.0 0.0
977.0797642553817 119.52303585295276 546.4263184885305 -88.48323517820789 0.0 0.0
1035.7561570886126 140.92834917092244 586.5702293561761 -86.70979486248699 0.0 0.0
1090.6289848947094 162.260898031732 624.7492011914794 -84.46663142573217 0.0 0.0
1139.8323221147552 179.80324799255814 658.1289528954646 -81.6093785414644 0.0 0.0
1181.5148230727627 192.28766618251697 685.1922416728223 -78.03117386357722 0.0 0.0
1212.2764124556193 196.69830075031345 702.827431921057 -73.61644408978839 0.0 0.0
1225.7813416547428 186.63239713775846 704.7104339947631 -68.24164446068022 0.0 0.0
1218.5129699102768 159.68200526514093 687.8203940651468 -61.04867403898013 0.0 0.0
1201.1839189358423 127.55415346045423 663.231664787381 -50.54105994653397 0.0 0.0
920.5458961742523 -151.31022082508608 386.4197686590088 -2.3861801423663564e-11 0.0 0.0
1201.1839189364348 127.55415346111828 663.2316647878782 50.54105994668527 0.0 0.0
1218.5129699094816 159.6820052644561 687.820394064594 61.04867403922503 0.0 0.0
1225.781341654877 186.6323971380122 704.7104339948131 68.24164446081923 0.0 0.0
1212.276412454607 196.69830074941052 702.8274319203714 73.6164440899532 0.0 0.0
1181.5148230733587 192.28766618325528 685.1922416734096 78.03117386361853 0.0 0.0
1139.8323221138594 179.80324799178155 658.1289528949856 81.60937854148584 0.0 0.0
1090.6289848947135 162.26089803192198 624.7492011913785 84.46663142576793 0.0 0.0
1035.7561570883806 140.92834917078616 586.5702293559953 86.70979486225734 0.0 0.0
977.0797642564828 119.52303585432627 546.4263184893113 88.4832351782338 0.0 0.0
917.9734271508983 101.40354368733621 507.75777237919505 89.8177491569134 0.0 0.0
859.4665767423129 88.68468663476925 471.85312134461986 90.25424183719994 0.0 0.0
798.5343027474613 79.73004941159766 434.93434938418255 89.40109677078536 0.0 0.0
727.4444832032891 69.84725458231115 384.93590136227203 88.56864548215685 0.0 0.0
639.9383358577115 53.42945421446646 303.61393910764303 88.67119776958054 0.0 0.0
524.5374670776157 29.288890707643944 198.77329691283694 89.27410229517696 0.0 0.0
389.4829297256367 9.39115610290084 120.99605788508383 90.53175954602628 0.0 0.0
256.084257795039 13.978518602304723 81.0106657958891 84.83267647877854 0.0 0.0
161.04903362848802 50.26112616916156 63.39304793929486 92.40354597205179 0.0 0.0
446.79704752425806 174.14595760235997 270.2783602247966 178.41906915487152 0.0 0.0
-905.528321220887 -1589.379857985176 -1117.674387301326 81.36393054307655 0.0 0.0
-716.550327661764 -1376.891235049002 -908.2490852229944 -76.93715620613571 0.0 0.0
343.93163627548415 107.94396947941684 190.57216493809503 -197.76104438628752 0.0 0.0
116.59476592375363 34.51176461960678 45.33195916300811 -121.85229948154706 0.0 0.0
204.3960006536509 18.603229581803838 66.90459413769665 -109.85160123865624 0.0 0.0
319.26854868229384 6.218381470001354 97.05336809091457 -116.656067465142 0.0 0.0
454.4322620819828 17.256091515797053 157.87861358804238 -115.83464255371362 0.0 0.0
578.7573493553753 44.02326262237893 256.93712846497783 -112.043079387577 0.0 0.0
678.8435697418556 59.03918278696672 346.7240912422058 -111.26622121490422 0.0 0.0
748.5490443354533 68.06722764440474 401.3755656559667 -109.92766922503172 0.0 0.0
808.1404307433604 72.93209215430885 437.1736608201773 -110.05501835439789 0.0 0.0
863.154572691861 82.06518564176575 469.8645221824977 -109.06131898691649 0.0 0.0
918.799975240319 97.15144584232667 505.3256639404429 -107.2746207926817 0.0 0.0
974.0573161602654 115.91197510218639 542.4703356754977 -105.14895589846827 0.0 0.0
1025.9000718710436 134.1854477872426 577.6374371044895 -102.59734798573554 0.0 0.0
1072.8171833521646 150.15851523153108 609.119669514036 -99.22515058722763 0.0 0.0
1113.5815096346726 162.28991248396113 635.5624216149678 -95.03178935367974 0.0 0.0
1146.86682707523 168.54671832035402 655.3399294983558 -90.40669935456367 0.0 0.0
1168.4850692959258 166.34267205127338 665.1833174743579 -84.69640430145111 0.0 0.0
1171.27137795589 148.4856655064638 657.8919635040941 -75.99129164665163 0.0 0.0
1159.0436626742717 119.09422086143869 637.2300592451329 -62.11482563808818 0.0 0.0
792.8968977904478 -244.15563515905555 276.81319863925216 -7.87494514042919e-11 0.0 0.0
1159.0436626750873 119.09422086239945 637.2300592458505 62.114825638182964 0.0 0.0
1171.2713779566955 148.4856655073292 657.8919635047523 75.99129164676617 0.0 0.0
1168.4850692959092 166.3426720512784 665.1833174743479 84.69640430137163 0.0 0.0
1146.8668270745688 168.5467183197414 655.3399294978984 90.40669935444465 0.0 0.0
1113.5815096348226 162.28991248426283 635.5624216152091 95.03178935370089 0.0 0.0
1072.8171833503186 150.15851522987458 609.1196695128194 99.22515058726836 0.0 0.0
1025.90007187033 134.185447786648 577.6374371040142 102.59734798580453 0.0 0.0
974.0573161595676 115.91197510155581 542.4703356749775 105.14895589828926 0.0 0.0
918.7999752405818 97.1514458427333 505.3256639405784 107.27462079255466 0.0 0.0
863.1545726917751 82.06518564192635 469.86452218240896 109.06131898682975 0.0 0.0
808.1404307426816 72.93209215389614 437.1736608197554 110.0550183544139 0.0 0.0
748.54904433564 68.06722764489257 401.3755656560558 109.92766922506536 0.0 0.0
678.8435697411536 59.03918278645875 346.7240912416678 111.26622121472442 0.0 0.0
578.7573493551947 44.02326262261156 256.93712846471243 112.04307938760218 0.0 0.0
454.43226208173684 17.256091515738145 157.8786135878011 115.8346425534911 0.0 0.0
319.26854868181033 6.2183814695746085 97.0533680906643 116.65606746492739 0.0 0.0
204.39600065370172 18.603229582020756 66.90459413777712 109.85160123852326 0.0 0.0
116.59476592388634 34.51176461986034 45.331959163124004 121.85229948130292 0.0 0.0
343.9316362748933 107.94396947917042 190.57216493765216 197.7610443861889 0.0 0.0
-716.5503276604665 -1376.8912350475032 -908.2490852214726 76.93715620610331 0.0 0.0
-552.7804590898255 -1183.3833805928307 -721.6960875623474 -72.75991464813248 0.0 0.0
262.44454925943285 55.793214032136156 129.26819049580445 -209.95464848427778 0.0 0.0
81.04656142830845 19.4367419275898 30.14511002452323 -146.19173467122306 0.0 0.0
156.44694687527988 21.70214343117086 53.44477842200838 -132.9748734773446 0.0 0.0
248.61451086062164 6.597990028652903 76.12199868772008 -139.57972654346992 0.0 0.0
373.2835685529723 5.245027841852427 118.7056681332107 -145.2686721983657 0.0 0.0
502.78849824691156 29.558139853679137 202.6224050044151 -138.59766043276377 0.0 0.0
612.0682205003116 49.03250342516121 296.97398434438423 -133.7646869022409 0.0 0.0
691.6920146006148 53.825458497758696 360.0772258621997 -131.66197116145733 0.0 0.0
748.1567551281933 57.32355246131249 397.2108189771565 -128.91802709210066 0.0 0.0
801.4212400843514 62.914208701254374 428.02794761687466 -127.25953338887197 0.0 0.0
853.5293437102797 74.73224938781316 460.23879860727885 -125.03129393876046 0.0 0.0
904.8958265113527 90.34652251555958 493.9311967501869 -122.57811551546155 0.0 0.0
953.5036046571682 106.33358757663493 526.3720648938038 -119.79401746433119 0.0 0.0
997.6287167893569 120.0940153564533 555.415866837567 -116.15457770796922 0.0 0.0
1036.6138178411995 129.89455288446652 579.8248429557934 -111.60006680880777 0.0 0.0
1072.1525643598316 139.50012729627795 602.3482993976219 -106.4348255725184 0.0 0.0
1104.2661144511833 146.85853288017387 622.1473659505874 -100.83951891985329 0.0 0.0
1119.6607091050535 139.68782838175042 626.5322779462537 -91.73868719163691 0.0 0.0
1112.4072621743533 112.36701497966934 609.4957392103299 -75.53515115020129 0.0 0.0
645.4850116035157 -349.3217459067789 151.42902623228878 1.603126520421938e-10 0.0 0.0
1112.4072621752541 112.3670149806668 609.4957392110474 75.5351511504846 0.0 0.0
1119.6607091044534 139.6878283812071 626.5322779458347 91.73868719180096 0.0 0.0
1104.266114449168 146.85853287803542 622.1473659492689 100.83951891973452 0.0 0.0
1072.1525643601326 139.5001272967839 602.3482993978755 106.43482557258258 0.0 0.0
1036.6138178413566 129.8945528846503 579.824842955947 111.600066808823 0.0 0.0
997.6287167887282 120.09401535607097 555.4158668370623 116.15457770799262 0.0 0.0
953.5036046560965 106.33358757567512 526.3720648930699 119.79401746437831 0.0 0.0
904.895826510517 90.3465225149504 493.9311967495966 122.57811551552723 0.0 0.0
853.5293437096931 74.7322493873881 460.2387986069672 125.03129393875074 0.0 0.0
801.4212400844423 62.914208701577095 428.0279476169489 127.25953338891341 0.0 0.0
748.1567551283191 57.323552461760926 397.21081897725537 128.91802709207633 0.0 0.0
691.692014600149 53.82545849752475 360.07722586186 131.66197116143664 0.0 0.0
612.0682204998068 49.03250342498299 296.9739843439547 133.764686902135 0.0 0.0
502.78849824607005 29.558139853072507 202.6224050037786 138.59766043272938 0.0 0.0
373.2835685527348 5.245027842036953 118.70566813311375 145.2686721982101 0.0 0.0
248.614510860319 6.597990028303587 76.12199868752664 139.57972654319255 0.0 0.0
156.4469468752699 21.702143431264414 53.444778422033856 132.97487347716276 0.0 0.0
81.04656142815867 19.4367419273606 30.145110024409504 146.19173467095354 0.0 0.0
262.4445492590106 55.793214031905805 129.26819049546947 209.95464848403867 0.0 0.0
-552.7804590887222 -1183.3833805914962 -721.6960875610289 72.75991464805966 0.0 0.0
-408.3686209588715 -1014.4064409456622 -556.3545217781315 -76.34989692251139 0.0 0.0
193.46633496687986 16.334532350126352 81.48550291364273 -214.12108924462697 0.0 0.0
50.85753383682761 7.043407722493372 17.370162505982684 -164.51875918255496 0.0 0.0
110.17023883428715 23.048556859625396 39.967483840537895 -152.7157225238868 0.0 0.0
181.60460403898293 8.485520665967288 56.8023981666375 -159.29149792736825 0.0 0.0
281.1934420749219 -0.6938344048205558 84.56018677999414 -172.08904919733328 0.0 0.0
405.61843016121634 13.35873210360292 145.0514411358993 -167.51530459559967 0.0 0.0
524.6002861006486 33.79089415039435 232.2523038124787 -157.7157869884 0.0 0.0
615.0495330170123 41.17077663546249 305.11057981818766 -152.1036301613605 0.0 0.0
677.641123818348 39.39282535560554 347.82562542527666 -148.13989228452277 0.0 0.0
728.3478355348789 43.046185825418775 378.6252339094716 -144.27564265031353 0.0 0.0
777.478589233508 52.3924904666848 408.70774312832964 -141.4875772286485 0.0 0.0
825.0180200125242 64.76896379623238 439.03946663154477 -138.7156460317134 0.0 0.0
869.3920015925564 77.65361566703005 467.8659148745644 -135.82749632030846 0.0 0.0
910.8105310671708 89.3418282592683 494.5668723664201 -132.30003763795972 0.0 0.0
947.6967559145818 98.12533902787862 517.5322957546373 -127.5511945249587 0.0 0.0
983.0691990373865 106.29548869857467 539.2852006856227 -121.857692122248 0.0 0.0
1024.8212889611716 123.09131561286469 568.4198879210658 -116.21268651748699 0.0 0.0
1059.2921228101732 134.1303145144673 591.4608070510013 -108.20196058710323 0.0 0.0
1061.8193478684325 112.44733317021323 582.4285293294068 -91.8389627855996 0.0 0.0
472.70955007156186 -466.16253074826375 7.932278992871261 4.515854357123317e-11 0.0 0.0
1061.8193478686833 112.44733317057245 582.4285293296314 91.83896278580637 0.0 0.0
1059.2921228093526 134.13031451354132 591.460807050498 108.20196058694327 0.0 0.0
1024.8212889603376 123.09131561221034 568.4198879204873 116.21268651756073 0.0 0.0
983.0691990373895 106.29548869873709 539.2852006855079 121.85769212245447 0.0 0.0
947.6967559137204 98.1253390269612 517.5322957540734 127.5511945248027 0.0 0.0
910.8105310680853 89.3418282604942 494.566872367024 132.3000376381133 0.0 0.0
869.39200159247 77.65361566710635 467.8659148744698 135.82749632038346 0.0 0.0
825.0180200127841 64.76896379666513 439.0394666317009 138.71564603171748 0.0 0.0
777.4785892322496 52.39249046549714 408.7077431275164 141.4875772284656 0.0 0.0
728.3478355345077 43.046185825439224 378.6252339092221 144.27564265046587 0.0 0.0
677.641123818616 39.392825356215454 347.82562542550386 148.13989228464146 0.0 0.0
615.0495330167364 41.17077663550045 305.1105798179093 152.1036301612911 0.0 0.0
524.6002861002205 33.79089415039269 232.25230381215363 157.71578698846966 0.0 0.0
405.61843016069105 13.358732103402428 145.0514411355225 167.51530459554468 0.0 0.0
281.19344207447534 -0.6938344050105205 84.56018677980087 172.0890491970789 0.0 0.0
181.60460403888618 8.485520666011384 56.802398166632265 159.2914979271337 0.0 0.0
110.17023883426707 23.04855685964554 39.96748384053664 152.71572252371038 0.0 0.0
50.8575338368007 7.043407722523549 17.37016250598364 164.51875918243994 0.0 0.0
193.4663349665891 16.334532350101256 81.48550291346088 214.12108924447625 0.0 0.0
-408.36862095793697 -1014.4064409444933 -556.3545217770427 76.34989692250103 0.0 0.0
-295.12919277034786 -852.5972268582033 -419.3998570896004 -81.27378279678405 0.0 0.0
134.37671234429263 -15.666206232313076 44.85370455697568 -211.96605859116076 0.0 0.0
22.943061435650556 -1.4748213454785142 6.441953421788746 -177.45268317876116 0.0 0.0
64.89074048220199 22.859311072846197 26.31741593721869 -168.46559248501376 0.0 0.0
116.0747695455417 11.524616058615996 38.172950704915394 -174.56156513884167 0.0 0.0
184.4515717836643 -0.33149295619594366 54.98498303799082 -191.9029553335669 0.0 0.0
284.9377938638184 -0.6940011748641228 89.74297026835357 -199.05238218791993 0.0 0.0
405.85020780253245 12.107553546620974 153.07654768932514 -186.4825868508762 0.0 0.0
509.13299520234267 22.13786965632189 225.46438949517304 -172.4346365457894 0.0 0.0
581.1181719165661 21.438528200225903 277.73145034189145 -164.9330611296922 0.0 0.0
634.1955288791128 22.76835535858998 313.2786476732089 -159.47216342032183 0.0 0.0
681.14918526589 29.02133953776807 342.68127777158315 -156.13456586021863 0.0 0.0
724.7295591708498 38.873907242233145 370.63421991454743 -153.10231243544786 0.0 0.0
764.3410036879545 48.60252985707281 395.7877342006044 -150.24053438207983 0.0 0.0
801.7993311968409 58.06163361046078 419.5454735125405 -147.17126902990495 0.0 0.0
837.6426181148244 66.49988934478515 442.0026923488244 -143.00079100258844 0.0 0.0
872.2746580095949 73.74950112179025 463.32396970656697 -137.02266371005922 0.0 0.0
915.0671622000012 89.98433543493447 492.7586564839009 -130.3627141710182 0.0 0.0
973.4076317944897 122.36832605988657 538.0616488769525 -124.6080951666834 0.0 0.0
1005.0493567176359 124.90233455983962 556.3465885969074 -112.78601833503589 0.0 0.0
265.2578911050689 -590.2230730604147 -155.73081057626962 8.928324746193539e-11 0.0 0.0
1005.0493567182223 124.90233456061375 556.3465885975402 112.78601833532817 0.0 0.0
973.4076317944514 122.36832606010674 538.0616488769232 124.60809516693726 0.0 0.0
915.0671622012949 89.98433543647062 492.7586564848123 130.36271417153517 0.0 0.0
872.2746580098718 73.74950112233739 463.3239697066618 137.0226637102208 0.0 0.0
837.6426181158954 66.49988934617241 442.0026923495119 143.00079100273697 0.0 0.0
801.799331196829 58.06163361045377 419.5454735126144 147.17126902999897 0.0 0.0
764.3410036871101 48.60252985624524 395.7877342000936 150.24053438201588 0.0 0.0
724.7295591711825 38.87390724268364 370.63421991472825 153.10231243546 0.0 0.0
681.1491852651598 29.02133953718385 342.6812777711119 156.13456586008743 0.0 0.0
634.1955288790151 22.76835535869032 313.27864767311945 159.47216342032826 0.0 0.0
581.1181719160408 21.438528199939803 277.7314503415333 164.93306112958624 0.0 0.0
509.13299520228264 22.137869656680344 225.4643894950989 172.43463654587157 0.0 0.0
405.85020780224465 12.107553546811646 153.07654768914452 186.4825868508983 0.0 0.0
284.93779386339276 -0.6940011749576374 89.74297026816346 199.05238218783228 0.0 0.0
184.4515717832144 -0.33149295672406165 54.98498303771679 191.90295533326136 0.0 0.0
116.07476954574436 11.524616059204568 38.17295070515833 174.561565138636 0.0 0.0
64.89074048235275 22.859311073177512 26.317415937363478 168.4655924849481 0.0 0.0
22.943061435895796 -1.474821344888058 6.441953422038154 177.45268317859234 0.0 0.0
134.37671234401077 -15.666206232340286 44.85370455682395 211.96605859098182 0.0 0.0
-295.1291927697571 -852.5972268572456 -419.39985708879215 81.27378279684405 0.0 0.0
-203.40242548909455 -708.6865455488177 -307.08056553285087 -94.29964630645715 0.0 0.0
81.27962721612677 -41.13314005011361 15.931321363114112 -203.78480282160479 0.0 0.0
-4.148198339204357 -5.408041536135836 -2.879788339684846 -184.94274371880257 0.0 0.0
20.13486956146846 21.598777201957624 12.51761329287627 -179.34424002692776 0.0 0.0
50.559460495076756 14.584429636426425 19.505407499524907 -185.43176423012898 0.0 0.0
88.87085543807947 3.1770055521587652 27.50308549164309 -204.62040565210052 0.0 0.0
144.06030215340718 -2.539275089712524 42.78445185110596 -220.4353956495667 0.0 0.0
231.63009269231117 -6.492852239833837 70.49619619970076 -219.89829974759485 0.0 0.0
339.8023313485389 -13.1228101647211 109.64807449324096 -201.52906851368567 0.0 0.0
426.008506308698 -13.980137218242618 152.394422803432 -178.966854522038 0.0 0.0
484.2686576368668 -4.82321631733096 191.88435924014794 -169.1741939980323 0.0 0.0
528.5666356715554 3.8356289451459915 224.23210808986204 -166.487493639115 0.0 0.0
565.8458407905149 11.852932942612313 251.49127353039128 -165.53069322144225 0.0 0.0
599.4688178760413 19.747882993523405 275.35035381921864 -164.69990343759446 0.0 0.0
631.7924042926056 27.806387664343347 298.24962467082736 -163.52002620729456 0.0 0.0
665.6077238324665 36.093717816475305 322.14214736224125 -161.3042323143113 0.0 0.0
702.2629694496111 43.68121402637344 347.48849394268007 -156.31656955941307 0.0 0.0
741.5614478785211 50.016583265905936 373.45811633701385 -148.3939283636017 0.0 0.0
806.6872035076788 79.96670377109669 421.20215074322124 -141.90124738763438 0.0 0.0
904.9066920374037 139.18595943861118 502.63816651084466 -140.93197200331016 0.0 0.0
-10.1470630127464 -713.8497323063172 -350.21176223624576 6.52207177154196e-11 0.0 0.0
904.9066920362184 139.1859594374021 502.63816651018055 140.93197200347703 0.0 0.0
806.6872035067038 79.96670376998848 421.20215074261773 141.90124738794594 0.0 0.0
741.5614478795026 50.01658326753099 373.45811633778544 148.39392836397263 0.0 0.0
702.2629694504442 43.68121402754751 347.48849394314055 156.31656955974705 0.0 0.0
665.6077238344674 36.09371781887247 322.1421473636438 161.30423231444257 0.0 0.0
631.7924042915271 27.806387663049833 298.249624670192 163.52002620714848 0.0 0.0
599.4688178752003 19.747882992701363 275.35035381859177 164.69990343740642 0.0 0.0
565.8458407901089 11.852932941988257 251.49127353006287 165.53069322156904 0.0 0.0
528.5666356711893 3.835628944797051 224.23210808965126 166.4874936390425 0.0 0.0
484.26865763660925 -4.82321631737031 191.88435924003278 169.17419399798592 0.0 0.0
426.00850630832144 -13.980137218692196 152.39442280314464 178.96685452194643 0.0 0.0
339.80233134830956 -13.12281016440793 109.64807449321907 201.5290685137723 0.0 0.0
231.63009269209152 -6.492852239530235 70.49619619971567 219.89829974767244 0.0 0.0
144.06030215312634 -2.53927509005361 42.78445185091796 220.43539564937905 0.0 0.0
88.87085543793512 3.177005551883524 27.50308549152841 204.6204056517758 0.0 0.0
50.55946049499062 14.584429636260124 19.50540749945217 185.4317642298408 0.0 0.0
20.134869561567193 21.598777202289845 12.517613293005537 179.34424002677414 0.0 0.0
-4.1481983391652895 -5.408041535785793 -2.8797883395705814 184.9427437186468 0.0 0.0
81.27962721583097 -41.13314005035022 15.931321362931627 203.78480282139836 0.0 0.0
-203.4024254885471 -708.6865455478625 -307.08056553220615 94.2996463065618 0.0 0.0
-141.88269388663008 -575.9568825756702 -224.55829155773304 -107.49619351106332 0.0 0.0
32.35548810488187 -59.7395460922193 -7.0177628376595536 -188.98976147575297 0.0 0.0
-30.583841482322683 -5.998873298123651 -10.970171131277098 -188.87249776804617 0.0 0.0
-23.950646967754423 19.900248990052567 -1.2255939370889726 -185.67738522167494 0.0 0.0
-14.203665109717367 17.322078081342852 0.9341217332038796 -191.10012373970085 0.0 0.0
-6.821228139633728 7.3504089380704105 0.1673291622697035 -209.33440538831206 0.0 0.0
-3.0562261547540786 1.045510626827316 -0.6040471648492147 -226.86695897292896 0.0 0.0
-1.1131808506253265 0.0917066448711763 -0.3113236640929866 -229.7360601665564 0.0 0.0
-0.3858610225980357 0.008223462647286794 -0.12003705506560536 -222.36700687530535 0.0 0.0
-0.022994299343778835 -0.008507375792380145 -0.006595248774196705 -218.1586165471854 0.0 0.0
-0.45123393618248997 0.011080091544052095 -0.12788172231711314 -212.20874524824293 0.0 0.0
-0.9973401969629236 0.1683097188520719 0.24151651214920378 -199.11949141874007 0.0 0.0
-1.9059318555370908 0.9018552763330945 0.47917538510937163 -189.93617373756624 0.0 0.0
-0.015811148563756205 2.7323744172797433 1.0520852002434964 -183.00815303436647 0.0 0.0
9.44012443866518 6.921067152609581 2.4796935367541266 -178.06829928122738 0.0 0.0
33.66742711796152 14.625955745888561 6.486254599053083 -173.8015571574139 0.0 0.0
82.52265638757805 27.790253285914076 15.566384384570199 -168.39067589321928 0.0 0.0
170.46687698836516 37.87324957370683 21.46530949439179 -159.18152655907917 0.0 0.0
391.62705869928305 -3.667681732090628 38.332489188446246 -154.24000624251502 0.0 0.0
621.8245952585438 33.74303463704623 249.53919093456767 -201.6160046615601 0.0 0.0
-693.4257053095994 -962.6032194518111 -749.2994756124658 -1.524114168205415e-11 0.0 0.0
621.8245952572458 33.74303463545968 249.53919093359525 201.61600466147692 0.0 0.0
391.6270586989994 -3.667681731674236 38.332489188488154 154.24000624314226 0.0 0.0
170.46687698843326 37.87324957362455 21.4653094942405 159.18152655976525 0.0 0.0
82.52265638788718 27.790253286300384 15.566384384715036 168.39067589344597 0.0 0.0
33.667427117983706 14.62595574551574 6.48625459890917 173.80155715738823 0.0 0.0
9.4401244388974 6.921067153149082 2.4796935369779476 178.06829928104264 0.0 0.0
-0.01581114883668988 2.732374416824669 1.052085199951179 183.00815303448914 0.0 0.0
-1.9059318555229652 0.9018552760662004 0.47917538496341194 189.9361737375757 0.0 0.0
-0.997340197190411 0.16830971785518756 0.24151651171242605 199.11949141892774 0.0 0.0
-0.4512339352456891 0.01108009284991951 -0.127881721641792 212.2087452480794 0.0 0.0
-0.02299429938460662 -0.008507376972485048 -0.006595249164043082 218.1586165469135 0.0 0.0
-0.3858610219424783 0.008223463427987632 -0.1200370546295968 222.36700687536324 0.0 0.0
-1.1131808505871383 0.09170664469117806 -0.31132366413293155 229.73606016664448 0.0 0.0
-3.056226154824895 1.0455106265323284 -0.6040471649577404 226.86695897274797 0.0 0.0
-6.821228139486008 7.350408938119275 0.1673291623284907 209.33440538801906 0.0 0.0
-14.203665109589048 17.322078081266795 0.9341217332189835 191.10012373945705 0.0 0.0
-23.950646967792004 19.9002489898465 -1.2255939371633342 185.67738522140948 0.0 0.0
-30.58384148240717 -5.9988732980802535 -10.970171131290664 188.87249776782974 0.0 0.0
32.35548810452856 -59.739546092422785 -7.0177628378466945 188.98976147557886 0.0 0.0
-141.8826938863461 -575.9568825749488 -224.55829155736262 107.49619351103625 0.0 0.0
-110.18739858036156 -456.48476566131063 -170.23655057163492 -113.76045588225946 0.0 0.0
-6.0366627615631305 -71.04581482614579 -23.085832316995724 -172.84587503979208 0.0 0.0
-55.58475663032735 -5.473521697281569 -18.329562760552868 -187.98910169380966 0.0 0.0
-66.93117050994128 18.355680480180876 -14.588463404691256 -187.17563920265562 0.0 0.0
-77.75455698898668 19.327399730861945 -17.53487211220748 -191.16215442044847 0.0 0.0
-101.29388755808166 11.311432486490054 -26.969685564323477 -206.21378162070025 0.0 0.0
-149.63197262793716 4.684182933261947 -43.89797150940581 -221.5398656232521 0.0 0.0
-233.08040243287695 6.5403231770970365 -71.07391614243446 -220.29578823139636 0.0 0.0
-340.0350404819742 12.956924179610361 -109.8399762875129 -201.55740807380434 0.0 0.0
-426.0068531047657 13.956968165929286 -152.39613285125705 -178.93095308306061 0.0 0.0
-484.7730654705871 4.697769340720484 -192.1684868220256 -169.1900444185668 0.0 0.0
-529.357844382724 -3.77133638666033 -225.14773849313667 -166.32734020376805 0.0 0.0
-566.9257965046916 -10.474897001726916 -252.25574879478648 -164.86323165816847 0.0 0.0
-597.7325799520152 -14.62690740882634 -272.5327773055598 -163.90692006018432 0.0 0.0
-619.1929697224309 -15.051789412788864 -284.2355213836932 -164.0594271113313 0.0 0.0
-629.2213680002776 -10.437540501801024 -285.07617757184437 -166.05266795274582 0.0 0.0
-626.3272690048914 -0.9419168138923055 -273.1044896336389 -170.53943780140253 0.0 0.0
-618.7954281280054 6.3930263300896115 -250.86181353389767 -179.91829947864642 0.0 0.0
-596.0053794774548 57.90320371830536 -187.69990885437022 -193.77341822909455 0.0 0.0
-321.55165375630486 178.07564272906774 44.41405747541178 -160.3053781738016 0.0 0.0
-1263.2232779054584 -1231.7790374209244 -1279.1120737942497 -1.872493271548592e-10 0.0 0.0
-321.5516537570842 178.07564272792985 44.41405747478427 160.30537817455541 0.0 0.0
-596.0053794772807 57.9032037184235 -187.69990885444722 193.77341822966778 0.0 0.0
-618.7954281285627 6.393026329000534 -250.86181353430678 179.91829947881243 0.0 0.0
-626.3272690043073 -0.94191681324142 -273.1044896332028 170.53943780137985 0.0 0.0
-629.2213680011072 -10.437540503261445 -285.0761775723795 166.05266795279124 0.0 0.0
-619.1929697217477 -15.051789412082748 -284.23552138317814 164.05942711130672 0.0 0.0
-597.7325799521868 -14.62690740939236 -272.5327773056048 163.9069200603121 0.0 0.0
-566.92579650391 -10.474897000678858 -252.25574879417348 164.86323165802293 0.0 0.0
-529.357844382131 -3.7713363864834335 -225.14773849268872 166.32734020369517 0.0 0.0
-484.7730654700528 4.697769341256116 -192.16848682165914 169.19004441862182 0.0 0.0
-426.00685310477706 13.956968165206003 -152.39613285132432 178.9309530830323 0.0 0.0
-340.0350404812182 12.95692417999124 -109.83997628709687 201.5574080739473 0.0 0.0
-233.08040243231196 6.540323177294074 -71.07391614216007 220.29578823135077 0.0 0.0
-149.63197262784246 4.684182932746668 -43.89797150953409 221.5398656231267 0.0 0.0
-101.29388755797548 11.311432486219495 -26.969685564382683 206.21378162041808 0.0 0.0
-77.75455698891969 19.3273997309406 -17.534872112166497 191.16215442020206 0.0 0.0
-66.93117051009759 18.35568047985028 -14.58846340484077 187.17563920241312 0.0 0.0
-55.58475663028688 -5.473521697354462 -18.329562760564944 187.98910169367494 0.0 0.0
-6.036662761648701 -71.04581482632969 -23.085832317073965 172.84587503982135 0.0 0.0
-110.18739858036119 -456.48476566066483 -170.23655057147718 113.76045588213026 0.0 0.0
-92.3289785376419 -348.81437375065775 -132.32960354434985 -107.17038695267726 0.0 0.0
-30.697555698768234 -76.62151995198602 -32.1922222563271 -159.7854689931434 0.0 0.0
-79.01978763561834 -5.20824533599118 -25.253502594805305 -183.96219499411282 0.0 0.0
-108.08171210381593 16.996364119848383 -27.35406494744236 -183.68899232134808 0.0 0.0
-140.1235583874029 20.75048115502488 -35.74316363744644 -186.6895518685365 0.0 0.0
-194.10973326535105 14.431223992437172 -53.954305694928465 -196.74467902370617 0.0 0.0
-286.89473985311326 1.8442902606967095 -90.70209637243813 -198.72966446260915 0.0 0.0
-406.0664109193107 -12.319800456460069 -153.4140559934977 -187.087345558272 0.0 0.0
-509.1220362387427 -22.337818506482 -225.5597360058057 -172.55621828248272 0.0 0.0
-581.0480941691928 -21.4691043698489 -277.7323520859379 -164.93002506868837 0.0 0.0
-634.2538602150468 -22.748529645632345 -313.3428355799619 -159.3923152119571 0.0 0.0
-681.6270462768456 -28.894767721129597 -342.9586648347229 -155.62154785514724 0.0 0.0
-725.1941655514036 -37.86663401562613 -370.5621994458759 -151.92475362552022 0.0 0.0
-761.8846201151442 -44.34935649195317 -392.75551485283694 -149.04794945063767 0.0 0.0
-789.1942814576855 -45.72587064259076 -407.4290023967642 -148.0450239185379 0.0 0.0
-803.916699117988 -39.62286551314321 -411.8071079014512 -149.355895662881 0.0 0.0
-806.7843332054335 -28.049558987142063 -407.0804380061684 -153.22239213156553 0.0 0.0
-798.2317216013516 -13.411616413923525 -394.90073299377366 -159.54086945347714 0.0 0.0
-748.0701357069913 34.3144724324675 -345.88692487340865 -166.86785584984247 0.0 0.0
-627.9225576451146 137.6915734141037 -236.3305720444272 -174.60024898383867 0.0 0.0
-2061.0498739110362 -1531.0059816357411 -1763.865821585244 8.659384320708341e-11 0.0 0.0
-627.9225576447262 137.69157341424727 -236.33057204402317 174.60024898418138 0.0 0.0
-748.0701357080986 34.314472430919565 -345.8869248742083 166.8678558502814 0.0 0.0
-798.2317216003266 -13.41161641302243 -394.90073299300775 159.54086945369687 0.0 0.0
-806.7843332053908 -28.049558987056827 -407.080438006162 153.22239213158875 0.0 0.0
-803.9166991179735 -39.622865513461306 -411.80710790144593 149.3558956628718 0.0 0.0
-789.1942814572249 -45.72587064234652 -407.4290023964395 148.04502391866498 0.0 0.0
-761.8846201148139 -44.34935649203003 -392.755514852689 149.04794945085519 0.0 0.0
-725.194165551968 -37.866634016325136 -370.5621994462693 151.92475362562485 0.0 0.0
-681.6270462758591 -28.894767720196228 -342.95866483403296 155.621547854947 0.0 0.0
-634.2538602154773 -22.74852964644934 -313.342835580284 159.39231521192116 0.0 0.0
-581.0480941686374 -21.46910436955108 -277.7323520855312 164.930025068582 0.0 0.0
-509.12203623835785 -22.337818506485572 -225.559736005448 172.5562182824498 0.0 0.0
-406.0664109185997 -12.319800456065812 -153.41405599296587 187.0873455582801 0.0 0.0
-286.8947398526029 1.8442902607342326 -90.70209637221481 198.72966446255222 0.0 0.0
-194.1097332650332 14.431223992357786 -53.95430569486666 196.74467902345583 0.0 0.0
-140.1235583873597 20.75048115473383 -35.743163637525264 186.68955186836672 0.0 0.0
-108.08171210359467 16.996364120054814 -27.354064947319415 183.68899232127998 0.0 0.0
-79.01978763560929 -5.208245336160541 -25.2535025948588 183.9621949940013 0.0 0.0
-30.697555698807587 -76.62151995214602 -32.1922222563852 159.78546899312485 0.0 0.0
-92.32897853743779 -348.8143737501637 -132.32960354413947 107.1703869525585 0.0 0.0
-75.37476150188883 -258.70299636225263 -100.22332735924243 -95.95571516003636 0.0 0.0
-48.01755835335289 -75.70715768729534 -37.11660561781872 -146.07500674912137 0.0 0.0
-100.58813573538262 -5.183006809571252 -31.712038117618498 -175.50670120650227 0.0 0.0
-147.59447747948195 15.728305997504753 -39.52417136202325 -176.28580323304357 0.0 0.0
-200.0736950430549 20.64886468762062 -53.76594406996913 -175.54429848274526 0.0 0.0
-283.3666957893337 11.835783318798558 -83.38782605633222 -175.80505045775885 0.0 0.0
-405.6888728838768 -11.319740598312961 -144.8589543072937 -170.20813928395071 0.0 0.0
-524.7113115853845 -34.28186606873875 -232.44872175006253 -158.35359114144822 0.0 0.0
-614.9916340582105 -41.37315038462645 -305.18911212768245 -152.17418225342388 0.0 0.0
-677.5306594950628 -39.33427349162531 -347.78288921038404 -148.1710647366006 0.0 0.0
-728.1762697514887 -42.82158962808208 -378.4619903611149 -144.184465574656 0.0 0.0
-777.5171198224754 -52.00528062861271 -408.583296420282 -140.8995077164601 0.0 0.0
-825.1877332094168 -63.8958306688678 -438.7790455780023 -137.28394855779723 0.0 0.0
-867.618664040462 -74.5412784801083 -465.61608364579155 -134.18590912060927 0.0 0.0
-900.9570027376376 -79.58451583817427 -485.05909374369867 -132.9567120321863 0.0 0.0
-920.5012895766596 -75.78267667322422 -493.0689553818248 -134.65025312788165 0.0 0.0
-924.7414454169807 -61.76900119339609 -488.2397220267678 -139.2705708851278 0.0 0.0
-904.0012759017089 -29.591308349863368 -461.7775858849208 -144.9907078614122 0.0 0.0
-846.1971020170088 31.2458966524257 -403.0008092384786 -149.33652721614118 0.0 0.0
-683.1848736600671 183.35353559539755 -248.44653627383633 -150.2851291426299 0.0 0.0
-2504.0057528098787 -1763.1469850389951 -2109.7671086069477 1.617941336462536e-10 0.0 0.0
-683.1848736602196 183.35353559518407 -248.44653627380745 150.2851291429025 0.0 0.0
-846.1971020157412 31.245896653692313 -403.0008092376789 149.33652721613063 0.0 0.0
-904.0012759001821 -29.591308348579503 -461.7775858838702 144.9907078617495 0.0 0.0
-924.7414454182715 -61.76900119487084 -488.23972202763537 139.27057088532248 0.0 0.0
-920.5012895755792 -75.78267667218267 -493.0689553811089 134.65025312768762 0.0 0.0
-900.9570027368385 -79.58451583745979 -485.05909374316474 132.95671203211361 0.0 0.0
-867.6186640405886 -74.54127848052002 -465.61608364584663 134.18590912072816 0.0 0.0
-825.1877332105205 -63.89583067042385 -438.77904557875735 137.28394855801164 0.0 0.0
-777.5171198216187 -52.0052806279061 -408.5832964196768 140.89950771635088 0.0 0.0
-728.1762697510665 -42.82158962780467 -378.4619903609073 144.18446557452674 0.0 0.0
-677.5306594944989 -39.33427349133617 -347.7828892100453 148.17106473655377 0.0 0.0
-614.9916340577056 -41.37315038448651 -305.1891121272465 152.17418225345625 0.0 0.0
-524.7113115845327 -34.281866068212125 -232.44872174936413 158.3535911414103 0.0 0.0
-405.68887288362805 -11.319740598757793 -144.85895430719114 170.20813928405107 0.0 0.0
-283.366695788784 11.835783318961877 -83.38782605609384 175.80505045761066 0.0 0.0
-200.07369504255138 20.648864688005535 -53.765944069723005 175.54429848247463 0.0 0.0
-147.59447747937813 15.72830599741814 -39.52417136202285 176.2858032329266 0.0 0.0
-100.58813573528641 -5.1830068094376 -31.712038117547728 175.50670120639012 0.0 0.0
-48.01755835339546 -75.70715768738484 -37.11660561785948 146.07500674902855 0.0 0.0
-75.3747615017596 -258.7029963618521 -100.2233273590835 95.95571515990713 0.0 0.0
-61.33676970630597 -183.4276884263964 -73.4293374398107 -82.46471218638675 0.0 0.0
-61.08347222977907 -69.99467611927275 -39.32362066207089 -130.48182381329704 0.0 0.0
-120.62329798391757 -5.096535626438835 -37.702640643928554 -162.97095655841642 0.0 0.0
-184.8119939389077 13.719384693956226 -51.302152141319866 -163.730009634717 0.0 0.0
-259.3100829399501 18.89674349747572 -72.05963672619177 -160.0374998927012 0.0 0.0
-370.33379597533724 4.709228809848295 -116.48740659225062 -151.7381438448036 0.0 0.0
-500.5527937466657 -28.529327784805776 -201.85885212493602 -139.61449149631716 0.0 0.0
-612.3045875894162 -49.811524075205114 -297.27044910459557 -134.09705429599592 0.0 0.0
-691.6840176387282 -53.97975604329211 -360.1987382503239 -131.72202513956626 0.0 0.0
-747.9916458961901 -57.174390920812456 -397.0968070564846 -128.9525751836438 0.0 0.0
-801.0120019037105 -62.426385407327686 -427.61768138876596 -127.16623725959712 0.0 0.0
-852.9391595843797 -73.86517441980584 -459.54831465529236 -124.43530128888548 0.0 0.0
-904.5144402268111 -89.30715068051377 -493.25844027389087 -121.10967323862882 0.0 0.0
-952.862523340687 -104.79530403764815 -525.3683598564862 -117.96203542710552 0.0 0.0
-992.5948543711521 -115.05545654879768 -550.5716513613378 -116.46096074661641 0.0 0.0
-1016.6616330314703 -113.11808462941457 -561.827668831126 -118.11637888940305 0.0 0.0
-1016.2226023698165 -92.90165233716442 -551.6758021603375 -122.3630370568783 0.0 0.0
-982.4025551860026 -44.49031581645892 -510.7643340128406 -127.310825436137 0.0 0.0
-895.294445396677 48.77167076704623 -421.3627839845569 -129.49454211610333 0.0 0.0
-714.8751320772792 220.7671021886223 -246.90171291950074 -127.7279792863917 0.0 0.0
-2854.6779417128178 -2003.6975092441237 -2410.9794675548974 1.8527757106312492e-10 0.0 0.0
-714.8751320768705 220.76710218891668 -246.90171291912873 127.72797928651552 0.0 0.0
-895.2944453960431 48.7716707676764 -421.3627839841955 129.49454211627042 0.0 0.0
-982.402555185693 -44.49031581628306 -510.76433401271765 127.31082543628465 0.0 0.0
-1016.222602369988 -92.90165233748087 -551.675802160531 122.36303705693089 0.0 0.0
-1016.6616330311318 -113.118084629153 -561.8276688310023 118.116378889321 0.0 0.0
-992.5948543704054 -115.05545654821228 -550.5716513608396 116.4609607466288 0.0 0.0
-952.8625233409556 -104.79530403813492 -525.3683598566588 117.96203542709698 0.0 0.0
-904.5144402264272 -89.30715068041941 -493.2584402737049 121.10967323880107 0.0 0.0
-852.9391595837867 -73.86517441942321 -459.5483146548741 124.43530128888484 0.0 0.0
-801.0120019029255 -62.42638540667307 -427.6176813882273 127.16623725939826 0.0 0.0
-747.9916458961421 -57.17439092109381 -397.0968070564936 128.95257518362408 0.0 0.0
-691.684017637718 -53.979756042480524 -360.1987382495908 131.7220251394548 0.0 0.0
-612.3045875886203 -49.81152407479441 -297.27044910398354 134.09705429604975 0.0 0.0
-500.55279374647625 -28.529327785321183 -201.85885212475515 139.61449149637636 0.0 0.0
-370.3337959749471 4.709228809589513 -116.48740659212679 151.73814384486542 0.0 0.0
-259.31008293938413 18.89674349778325 -72.05963672595114 160.0374998925768 0.0 0.0
-184.8119939388718 13.719384693548918 -51.30215214144578 163.73000963452125 0.0 0.0
-120.62329798374624 -5.096535626242776 -37.70264064381722 162.97095655827562 0.0 0.0
-61.08347222978947 -69.99467611925719 -39.32362066206933 130.48182381318145 0.0 0.0
-61.33676970628413 -183.42768842609073 -73.42933743971246 82.46471218632787 0.0 0.0
-50.89979683414536 -122.29720195192355 -51.95909963582068 -68.14534064965768 0.0 0.0
-71.2662490073406 -60.910818916669776 -39.6531203772031 -112.7234467534438 0.0 0.0
-139.35523410651922 -4.644436149613808 -43.196553121258866 -146.26415240415275 0.0 0.0
-220.30584488912945 11.369233645238982 -62.57495424945647 -147.21728483316852 0.0 0.0
-316.8741639933676 13.268676988017063 -91.86521640414969 -137.78497799513758 0.0 0.0
-448.4066760172012 -7.898708254244205 -154.0115540685043 -123.5572745492643 0.0 0.0
-577.5950138611959 -43.19873118481874 -255.90668958863574 -113.20729786954152 0.0 0.0
-679.3384464170645 -59.87008294755913 -347.2416560283365 -111.41514466736633 0.0 0.0
-748.5042751989504 -68.08936932753805 -401.42509763817185 -109.98498905977347 0.0 0.0
-807.9092519741376 -72.68919911370823 -436.9777054816696 -110.08647816294953 0.0 0.0
-862.489962384077 -81.33144568634357 -469.20653686048746 -108.93991935909003 0.0 0.0
-917.538678476606 -95.74101242223792 -504.025228185195 -106.70250298716857 0.0 0.0
-972.86102059972 -114.4403735359646 -541.1423599989015 -103.85755703731371 0.0 0.0
-1026.2324041105269 -134.14687168191548 -577.7872765154173 -100.94750640733545 0.0 0.0
-1072.8725360705967 -150.21481639195903 -609.2982242535813 -99.1257260489649 0.0 0.0
-1100.6046970382827 -150.99926396058208 -623.8084785499318 -99.91594849510743 0.0 0.0
-1094.7658066717659 -122.23081876890274 -606.7636586672543 -103.58521709422817 0.0 0.0
-1041.1869879936646 -52.709933431694054 -545.5516017841965 -107.69371433213692 0.0 0.0
-927.8644250946824 67.39895965974941 -429.45605435296955 -109.28331726848499 0.0 0.0
-740.7344956418979 246.36641209905036 -247.29648150396986 -109.45104487593487 0.0 0.0
-3152.5244735960396 -2229.454983252777 -2676.5713443776126 9.565326308802469e-11 0.0 0.0
-740.7344956384569 246.36641210250326 -247.29648150148523 109.45104487590444 0.0 0.0
-927.8644250964992 67.39895965771345 -429.45605435420896 109.283317268876 0.0 0.0
-1041.1869879940436 -52.7099334322386 -545.5516017844507 107.69371433239729 0.0 0.0
-1094.765806671615 -122.23081876880741 -606.7636586672274 103.58521709422844 0.0 0.0
-1100.6046970383634 -150.99926396083168 -623.8084785500778 99.91594849513326 0.0 0.0
-1072.8725360700596 -150.21481639156008 -609.2982242532247 99.12572604899731 0.0 0.0
-1026.2324041094462 -134.14687168098433 -577.7872765146311 100.947506407178 0.0 0.0
-972.8610205996497 -114.4403735361762 -541.1423599989636 103.8575570374926 0.0 0.0
-917.5386784761026 -95.74101242203963 -504.02522818484994 106.70250298728858 0.0 0.0
-862.4899623834741 -81.3314456858384 -469.2065368600845 108.93991935886473 0.0 0.0
-807.9092519745699 -72.68919911446399 -436.97770548199395 110.08647816294226 0.0 0.0
-748.5042751975134 -68.08936932625521 -401.4250976372102 109.98498905957797 0.0 0.0
-679.3384464164554 -59.87008294718444 -347.2416560277858 111.41514466721632 0.0 0.0
-577.5950138602471 -43.198731184264226 -255.90668958787595 113.2072978695101 0.0 0.0
-448.4066760166754 -7.898708254306392 -154.0115540682197 123.55727454937423 0.0 0.0
-316.8741639932268 13.268676987475535 -91.86521640427033 137.7849779950631 0.0 0.0
-220.30584488895883 11.36923364528786 -62.57495424939363 147.2172848328986 0.0 0.0
-139.35523410658917 -4.644436149827985 -43.19655312134289 146.26415240401383 0.0 0.0
-71.2662490072784 -60.9108189165444 -39.65312037714684 112.72344675332856 0.0 0.0
-50.899796833945466 -122.2972019516802 -51.959099635687686 68.14534064967415 0.0 0.0
-43.90071252322339 -74.90793469763402 -35.642594166257226 -53.50792960919169 0.0 0.0
-79.14533922610792 -49.815472840493065 -38.688243619980284 -92.94107527902239 0.0 0.0
-156.932954808529 -3.6674723093465347 -48.18063563383618 -125.44826913614122 0.0 0.0
-254.46412317898978 7.6508043229534515 -73.94440541242098 -125.83168172845018 0.0 0.0
-376.3458991713626 5.901623119250001 -113.55012417230193 -112.55170846550817 0.0 0.0
-513.2519427235145 -24.824024211912178 -194.90447022501905 -93.39331978918088 0.0 0.0
-639.3030829849652 -52.99403638811987 -302.7569987139508 -89.29659987616213 0.0 0.0
-727.726571589605 -70.2648469627895 -385.2518471074711 -88.58734732384288 0.0 0.0
-798.5138464398871 -79.716333581811 -434.9653665162383 -89.44837883319069 0.0 0.0
-859.1552185695193 -88.34434877956612 -471.56690254548255 -90.27868274595414 0.0 0.0
-917.068892498697 -100.44597697474579 -506.86683769972717 -89.6648209353138 0.0 0.0
-975.2819335131295 -117.69081913217201 -544.6429074162808 -87.965413926267 0.0 0.0
-1033.7738734529207 -138.9934209324232 -584.6059578178981 -85.74483647135773 0.0 0.0
-1090.8450167822048 -162.59900050726066 -624.9958348946923 -83.28343610594759 0.0 0.0
-1142.7661108244974 -182.89410449631086 -661.2055753047364 -81.169487249463 0.0 0.0
-1175.8871955855025 -187.36554409664797 -680.249908319508 -80.75914579450729 0.0 0.0
-1166.40665992329 -153.97768747811614 -659.180733540566 -83.07806608992549 0.0 0.0
-1094.152282732146 -64.26315457965305 -578.5715871693295 -86.86305768179899 0.0 0.0
-956.3599271661201 81.02094012264362 -437.44379065329383 -90.09516300524302 0.0 0.0
-757.3141663779901 271.29712164926156 -243.16524616402677 -94.1560615132979 0.0 0.0
-3408.69786265615 -2432.438534080055 -2908.9159511343278 2.865263581952604e-11 0.0 0.0
-757.3141663765122 271.2971216508054 -243.16524616289036 94.15606151331292 0.0 0.0
-956.3599271656797 81.0209401229522 -437.4437906531216 90.09516300527132 0.0 0.0
-1094.152282731886 -64.26315457961705 -578.5715871690932 86.86305768212802 0.0 0.0
-1166.406659924289 -153.97768747923817 -659.1807335412725 83.07806609007915 0.0 0.0
-1175.887195584397 -187.3655440957533 -680.2499083186923 80.75914579462972 0.0 0.0
-1142.766110823512 -182.89410449540966 -661.2055753040513 81.16948724943866 0.0 0.0
-1090.8450167805172 -162.5990005056878 -624.9958348934621 83.28343610577005 0.0 0.0
-1033.7738734532668 -138.99342093302525 -584.6059578181996 85.74483647136769 0.0 0.0
-975.2819335127064 -117.69081913197957 -544.6429074159963 87.96541392632305 0.0 0.0
-917.06889249797 -100.4459769741693 -506.8668376992625 89.66482093511372 0.0 0.0
-859.1552185687708 -88.34434877914003 -471.566902545034 90.2786827458686 0.0 0.0
-798.5138464400395 -79.71633358231188 -434.9653665163466 89.44837883338087 0.0 0.0
-727.7265715885388 -70.26484696190363 -385.2518471066605 88.58734732355488 0.0 0.0
-639.3030829844081 -52.99403638790146 -302.75699871342266 89.29659987614986 0.0 0.0
-513.2519427232027 -24.824024212048116 -194.90447022474564 93.39331978913754 0.0 0.0
-376.3458991711992 5.901623118823234 -113.55012417234835 112.55170846539559 0.0 0.0
-254.46412317869863 7.650804323140631 -73.94440541228816 125.83168172829235 0.0 0.0
-156.93295480840115 -3.667472309309274 -48.18063563378658 125.44826913607179 0.0 0.0
-79.1453392260049 -49.81547284034146 -38.6882436199039 92.9410752789679 0.0 0.0
-43.90071252318631 -74.90793469751486 -35.64259416621034 53.50792960930252 0.0 0.0
-39.686745197706834 -40.987388094289756 -24.202239987598976 -38.96950728584885 0.0 0.0
-84.67786567446286 -37.93077037100312 -36.782590813639786 -71.37014934780446 0.0 0.0
-173.23507346399543 -2.30547924826393 -52.66238629138207 -100.36073849808326 0.0 0.0
-288.9676061985436 2.7224136248157067 -85.72958836309199 -99.8565867436992 0.0 0.0
-432.9367390709548 -5.545615238903464 -138.4512254502863 -82.69927693424913 0.0 0.0
-573.0474092861217 -37.428366827527256 -235.36673736275225 -67.96973794299312 0.0 0.0
-684.19221763072 -61.72529076749715 -341.49436818319026 -66.70783144585658 0.0 0.0
-768.6113277230976 -78.31048396307492 -414.75399694671046 -66.81539783708935 0.0 0.0
-840.9027873693159 -91.72438746218613 -463.7006626940514 -68.44996799500943 0.0 0.0
-904.946172241572 -104.19087264583273 -503.04560705108946 -69.64986122482878 0.0 0.0
-966.1605817006418 -119.70906254474575 -541.5903763813268 -69.45968833640752 0.0 0.0
-1027.780744224409 -139.92825861407792 -582.5381884831095 -68.29132036238103 0.0 0.0
-1089.0948960335857 -164.1342332694579 -625.3481278484874 -66.68211390656585 0.0 0.0
-1148.2386656948338 -188.47866182519775 -667.1181301942605 -64.9207877023529 0.0 0.0
-1202.1693183110442 -210.75365388783865 -705.2681115921066 -62.847648406942454 0.0 0.0
-1241.1733592039975 -220.72674119061716 -729.9512049458713 -61.06441780886616 0.0 0.0
-1237.6871478195474 -191.69652282659214 -714.082632696164 -61.44755399123109 0.0 0.0
-1153.897780768728 -89.14302186737567 -621.3342707709298 -65.19638832824171 0.0 0.0
-987.1055434254379 85.81140752449795 -450.75762681532944 -71.33380036583766 0.0 0.0
-760.399265951507 304.0754769811593 -228.34659206836747 -80.36283562735908 0.0 0.0
-3623.4044428344887 -2603.26408514457 -3103.835636533847 1.3839596135767351e-11 0.0 0.0
-760.3992659517519 304.075476980776 -228.34659206854866 80.36283562751076 0.0 0.0
-987.1055434240204 85.81140752585814 -450.75762681450544 71.33380036615732 0.0 0.0
-1153.8977807673405 -89.1430218660509 -621.3342707699686 65.19638832817697 0.0 0.0
-1237.6871478197952 -191.69652282697356 -714.082632696298 61.447553991295315 0.0 0.0
-1241.1733592036906 -220.72674119048673 -729.951204945685 61.064417808978654 0.0 0.0
-1202.169318311424 -210.7536538883509 -705.2681115922915 62.84764840698855 0.0 0.0
-1148.2386656935073 -188.4786618240456 -667.1181301932903 64.92078770226003 0.0 0.0
-1089.094896032927 -164.13423326905928 -625.3481278481731 66.682113906663 0.0 0.0
-1027.78074422489 -139.92825861480455 -582.538188483405 68.29132036245207 0.0 0.0
-966.1605816997346 -119.70906254418702 -541.5903763807607 69.45968833657459 0.0 0.0
-904.9461722407442 -104.19087264522062 -503.04560705058276 69.64986122478025 0.0 0.0
-840.9027873693879 -91.72438746259587 -463.7006626940286 68.44996799501408 0.0 0.0
-768.6113277222441 -78.31048396245345 -414.7539969460815 66.81539783691686 0.0 0.0
-684.1922176307365 -61.72529076784344 -341.49436818297414 66.70783144569447 0.0 0.0
-573.0474092857626 -37.42836682768621 -235.36673736240007 67.96973794297254 0.0 0.0
-432.93673907025504 -5.5456152384610125 -138.45122544988882 82.69927693422065 0.0 0.0
-288.96760619824 2.72241362494972 -85.72958836298628 99.85658674373867 0.0 0.0
-173.23507346397855 -2.3054792484655646 -52.662386291437244 100.36073849800128 0.0 0.0
-84.67786567436163 -37.93077037088355 -36.78259081357355 71.37014934781277 0.0 0.0
-39.68674519758969 -40.98738809412854 -24.202239987515465 38.969507285887694 0.0 0.0
-37.01822115464612 -20.144958826830216 -17.1489539944429 -25.31843796704709 0.0 0.0
-87.15988303071738 -26.50143642217216 -34.09839583586687 -48.318290071857035 0.0 0.0
-187.93935665227556 -1.0938961184298885 -56.70997583121165 -70.44111705892031 0.0 0.0
-325.42990766308486 -3.0057781641434476 -98.3062840584214 -68.74834341513458 0.0 0.0
-485.1192054537945 -20.072830430814122 -166.98531069208644 -51.851937126844064 0.0 0.0
-620.6213622295086 -46.99540474186177 -273.223318906412 -44.810177180830216 0.0 0.0
-717.5409924195668 -68.44808549602696 -371.26620958808843 -44.63745546281994 0.0 0.0
-803.702944744328 -87.03639652616872 -439.82004938091154 -45.50004334779062 0.0 0.0
-878.5425603170598 -104.3577011929273 -489.67022126161646 -47.00501907956694 0.0 0.0
-946.0748038938752 -120.39985238878313 -532.1377453948137 -48.2047489400559 0.0 0.0
-1011.0143216423313 -139.1729971818061 -574.1347640812462 -48.37191957350907 0.0 0.0
-1075.6889811635392 -162.32565031528642 -618.077630498924 -47.724318778084786 0.0 0.0
-1139.93355000393 -188.18996881295857 -663.1649745276695 -46.80219628765012 0.0 0.0
-1200.2668031273386 -214.09431934268386 -706.3191715084621 -45.65360583240149 0.0 0.0
-1253.1113377471956 -234.73756603791915 -743.1067716854728 -44.026945933645656 0.0 0.0
-1291.8018346752015 -243.94686234039628 -767.1489439334146 -41.71499249683041 0.0 0.0
-1302.3865422405192 -228.5166571588399 -764.9627091203564 -39.95987882316561 0.0 0.0
-1242.2527063657144 -148.24027406487082 -695.2262422392137 -42.29190903466428 0.0 0.0
-1038.3530384205305 65.53431464367108 -486.799325718249 -51.524930892570524 0.0 0.0
-735.6731298860606 361.14086181964376 -187.56411906357238 -66.90458603444114 0.0 0.0
-3783.0311156861217 -2724.4679177027897 -3246.024809121623 -9.837464176598587e-12 0.0 0.0
-735.6731298853707 361.14086182028416 -187.564119063006 66.90458603446221 0.0 0.0
-1038.3530384210226 65.53431464304842 -486.79932571864197 51.52493089286786 0.0 0.0
-1242.2527063645052 -148.24027406371397 -695.2262422383848 42.29190903465622 0.0 0.0
-1302.386542241331 -228.51665715977134 -764.9627091208524 39.959878823141494 0.0 0.0
-1291.8018346755648 -243.94686234088218 -767.1489439337707 41.71499249673931 0.0 0.0
-1253.1113377474123 -234.73756603834715 -743.1067716855747 44.026945933619736 0.0 0.0
-1200.2668031260962 -214.09431934162296 -706.3191715075644 45.65360583252482 0.0 0.0
-1139.9335500033224 -188.18996881255725 -663.1649745273933 46.8021962876189 0.0 0.0
-1075.6889811635197 -162.325650315524 -618.0776304988754 47.72431877809846 0.0 0.0
-1011.0143216415189 -139.17299718131204 -574.134764080753 48.371919573722124 0.0 0.0
-946.0748038947228 -120.39985238996059 -532.1377453953421 48.20474894023363 0.0 0.0
-878.5425603165808 -104.35770119271115 -489.67022126124436 47.00501907947827 0.0 0.0
-803.7029447437867 -87.03639652589709 -439.82004938051244 45.500043347685896 0.0 0.0
-717.5409924194777 -68.44808549625661 -371.2662095878301 44.637455462611314 0.0 0.0
-620.6213622289483 -46.99540474171815 -273.2233189058761 44.81017718078548 0.0 0.0
-485.11920545287194 -20.072830430126402 -166.98531069150533 51.85193712665671 0.0 0.0
-325.4299076627888 -3.005778164175041 -98.30628405835928 68.74834341523442 0.0 0.0
-187.93935665234918 -1.0938961190063365 -56.70997583140666 70.44111705890796 0.0 0.0
-87.15988303060982 -26.501436422096443 -34.098395835811864 48.318290071899575 0.0 0.0
-37.0182211546492 -20.144958826778353 -17.14895399442826 25.318437967138856 0.0 0.0
-33.536016315016866 -11.322056854435125 -13.457421950835595 -14.236703380106071 0.0 0.0
-85.09103264095393 -17.255286101323748 -30.703895622683305 -24.213928841184472 0.0 0.0
-200.6225736431756 -1.1022958101870737 -60.51746083600879 -34.25751438754425 0.0 0.0
-363.65176598492985 -8.66112846638309 -112.09465664589729 -32.14531843878355 0.0 0.0
-535.2628285897395 -32.27248200920479 -197.3095148959118 -23.483063588611323 0.0 0.0
-655.3636703285079 -53.943172936947 -305.92945078045875 -23.3588223054749 0.0 0.0
-747.1234296412583 -73.15181957505538 -394.84601271713126 -24.05678829304607 0.0 0.0
-834.0188197014365 -96.24885878643016 -461.46372234015416 -24.44655362171764 0.0 0.0
-912.0705762526352 -117.2079956718766 -513.3233438882967 -25.16960305529622 0.0 0.0
-983.4667526079589 -137.23367076031536 -559.5524992874616 -25.988086874730207 0.0 0.0
-1051.8338111113171 -158.98435590727524 -604.7437617668895 -26.37959185406078 0.0 0.0
-1119.6657637588567 -184.14023859477714 -651.2679466927248 -26.340048505042926 0.0 0.0
-1186.2693569084313 -212.5494543480635 -698.8019216584308 -25.991947171191256 0.0 0.0
-1248.166400051241 -238.8677783726595 -742.946714177988 -25.452040168597307 0.0 0.0
-1298.4299216471445 -256.5897913002317 -776.9984444098122 -24.5139074097831 0.0 0.0
-1330.9477298911168 -259.68331533311874 -794.8764503566167 -22.729196341302792 0.0 0.0
-1343.581977381689 -246.53026887830237 -794.6504722546313 -20.209645558446436 0.0 0.0
-1332.6395528843386 -214.71151095309594 -773.406287263809 -19.61473362103565 0.0 0.0
-1208.7063562807114 -78.03562383694614 -643.7374102488006 -27.858704521876565 0.0 0.0
-708.9716672301225 418.4691291241061 -145.91154884618817 -50.64027471227761 0.0 0.0
-3726.519573362817 -2631.6812546400934 -3173.1897666641808 -2.1591617382910044e-11 0.0 0.0
-708.9716672293977 418.46912912480406 -145.91154884560083 50.64027471221848 0.0 0.0
-1208.7063562812368 -78.03562383756181 -643.7374102492247 27.858704521903967 0.0 0.0
-1332.6395528844935 -214.71151095331348 -773.406287263975 19.61473362099138 0.0 0.0
-1343.5819773827836 -246.53026887956722 -794.6504722554324 20.209645558440016 0.0 0.0
-1330.9477298909696 -259.68331533310413 -794.8764503565723 22.729196341404272 0.0 0.0
-1298.4299216462127 -256.5897912994676 -776.9984444091594 24.513907409721273 0.0 0.0
-1248.1664000509675 -238.86777837257364 -742.9467141778083 25.45204016873201 0.0 0.0
-1186.2693569084897 -212.5494543483382 -698.8019216585509 25.991947171063355 0.0 0.0
-1119.6657637580975 -184.1402385942617 -651.2679466922202 26.34004850505115 0.0 0.0
-1051.8338111101577 -158.98435590639133 -604.743761766141 26.379591854067847 0.0 0.0
-983.4667526078347 -137.23367076048328 -559.5524992873442 25.988086874817235 0.0 0.0
-912.0705762527161 -117.2079956722477 -513.3233438883159 25.169603055154834 0.0 0.0
-834.0188197010527 -96.24885878637272 -461.4637223398654 24.446553621732654 0.0 0.0
-747.1234296407393 -73.15181957489075 -394.8460127166813 24.056788293096083 0.0 0.0
-655.3636703284027 -53.94317293725491 -305.9294507801909 23.358822305553133 0.0 0.0
-535.2628285889324 -32.272482008703584 -197.30951489535514 23.48306358855372 0.0 0.0
-363.651765984499 -8.66112846641621 -112.09465664577843 32.14531843878681 0.0 0.0
-200.62257364316537 -1.1022958104686849 -60.517460836090194 34.25751438756565 0.0 0.0
-85.09103264086048 -17.255286101267025 -30.703895622638242 24.213928841282126 0.0 0.0
-33.53601631486774 -11.322056854401609 -13.457421950780798 14.236703380079499 0.0 0.0
-22.11783300571941 -5.8240474487273595 -8.382564136334029 -8.678403644545837 0.0 0.0
-74.36645965928882 -9.884827360559804 -25.27538610595458 -10.065851720557347 0.0 0.0
-210.7273257762163 -3.430859928587477 -64.24745571144112 -11.267796714624094 0.0 0.0
-409.85251241093255 -27.8487410223141 -134.07800828416177 -7.336544613953418 0.0 0.0
-607.9879918468947 -81.32384001379378 -249.35069877122902 0.5577855167741355 0.0 0.0
-753.9732615151067 -134.63550139681314 -389.61443810968746 1.4422525884140818 0.0 0.0
-884.6554034961559 -195.56887423958293 -515.7630608195076 0.4815416489224198 0.0 0.0
-1023.1722584279638 -271.76977166827504 -633.5295383674521 -1.0652338523104987 0.0 0.0
-1169.98565824763 -362.2476697219786 -754.5516700063088 -2.815976691888622 0.0 0.0
-1333.9303982863314 -474.52243211675676 -893.0035852902927 -4.687373507609488 0.0 0.0
-1521.1063658691173 -614.4130963032019 -1056.2827823086254 -6.424503385897161 0.0 0.0
-1731.7392484234465 -782.4450095249849 -1245.2012507450374 -7.772278368512504 0.0 0.0
-1959.2828735515131 -970.7544774213812 -1452.7144109434792 -8.666352887892424 0.0 0.0
-2192.5810087015957 -1168.0220304196923 -1667.6786224641194 -9.361082536040822 0.0 0.0
-2414.355252361652 -1356.9009239765915 -1872.798217087302 -9.648293930765263 0.0 0.0
-2601.104657496932 -1514.1423314802987 -2044.7231503038493 -9.226565943954839 0.0 0.0
-2726.052566644344 -1613.6420690448304 -2156.9429808398495 -7.754577950770987 0.0 0.0
-2780.1519137309438 -1647.1333863833795 -2200.3382211507733 -6.4614958544266266 0.0 0.0
-2847.872587660367 -1700.4678337944856 -2259.4277837643385 -13.560151984773475 0.0 0.0
-2945.993542461844 -1797.2388682566352 -2354.5345116904327 -40.54551263910636 0.0 0.0
-6493.6575261201815 -5370.882938234303 -5908.501674051402 6.671996288787341e-11 0.0 0.0
-2945.9935424605274 -1797.23886825531 -2354.5345116894287 40.54551263899172 0.0 0.0
-2847.872587659911 -1700.46783379413 -2259.427783763792 13.56015198475712 0.0 0.0
-2780.151913730958 -1647.1333863834825 -2200.3382211505204 6.4614958543815035 0.0 0.0
-2726.052566643817 -1613.642069044471 -2156.9429808393115 7.7545779508428865 0.0 0.0
-2601.1046574959296 -1514.1423314794336 -2044.7231503028402 9.226565944115634 0.0 0.0
-2414.3552523605936 -1356.9009239757138 -1872.7982170862595 9.648293930703758 0.0 0.0
-2192.5810087007553 -1168.022030419044 -1667.678622463201 9.361082536022394 0.0 0.0
-1959.2828735505836 -970.7544774206912 -1452.7144109425865 8.666352887828552 0.0 0.0
-1731.7392484216814 -782.445009523477 -1245.201250743707 7.772278368594947 0.0 0.0
-1521.1063658666903 -614.4130963010169 -1056.2827823068108 6.424503385861129 0.0 0.0
-1333.9303982844172 -474.5224321151002 -893.0035852888767 4.687373507588081 0.0 0.0
-1169.9856582467344 -362.24766972139236 -754.5516700055589 2.815976691850622 0.0 0.0
-1023.1722584271859 -271.7697716678113 -633.5295383667965 1.0652338523748668 0.0 0.0
-884.655403494716 -195.56887423841013 -515.7630608184296 -0.4815416488385047 0.0 0.0
-753.9732615152049 -134.63550139737208 -389.61443810949106 -1.4422525883102963 0.0 0.0
-607.9879918460923 -81.3238400132252 -249.35069877058874 -0.5577855165535226 0.0 0.0
-409.85251241051 -27.84874102207046 -134.07800828393627 7.3365446138284796 0.0 0.0
-210.72732577597714 -3.4308599285861483 -64.24745571136896 11.267796714507542 0.0 0.0
-74.36645965909118 -9.884827360431416 -25.275386105856775 10.06585172072048 0.0 0.0
-22.117833005706714 -5.824047448774981 -8.382564136344506 8.67840364434645 0.0 0.0
SCALARS Strain float 6
LOOKUP_TABLE default
0.015197514164698077 -0.025117775292106757 0.0 -0.0015868370023700822 0.0 0.0
0.009346611508662447 -0.002917378460887021 0.0 -0.007587912763648757 0.0 0.0
0.002747908974971364 -0.0006313537248768365 0.0 -0.0009385570630948748 0.0 0.0
0.0023181320000129294 -0.0009200149936413478 0.0 2.2426770088917797e-05 0.0 0.0
0.0035180165889731217 -0.0015721277133971135 0.0 0.00022335425767307064 0.0 0.0
0.00615002889151499 -0.003583685857327528 0.0 0.0003991123642276376 0.0 0.0
0.010723873151962424 -0.007526789155846496 0.0 0.0005258411206233826 0.0 0.0
0.01763843860988606 -0.013783415540619577 0.0 0.0005670148426815511 0.0 0.0
0.02720082244889291 -0.0226272993179752 0.0 0.0005180675179771678 0.0 0.0
0.0395151728687737 -0.034106400580096084 0.0 0.00034467676588729345 0.0 0.0
0.05447808926703271 -0.04808191529126235 0.0 7.877565345599863e-05 0.0 0.0
0.07186224586900841 -0.06432520429941606 0.0 -0.0002659100254747903 0.0 0.0
0.09138888521789616 -0.08259500207925091 0.0 -0.0007018201429483919 0.0 0.0
0.11275879873415004 -0.10263827296176697 0.0 -0.0011835752612645682 0.0 0.0
0.13557756669920976 -0.12411943012425436 0.0 -0.0017330700947177848 0.0 0.0
0.15921131345109635 -0.1464721919565096 0.0 -0.002320215064552441 0.0 0.0
0.18269535793980382 -0.1688017679488111 0.0 -0.0028238608049885967 0.0 0.0
0.2047390354252971 -0.18988606598770935 0.0 -0.003055217217744041 0.0 0.0
0.22384971983931023 -0.20823953753916058 0.0 -0.0028705135729885593 0.0 0.0
0.2381753090646676 -0.222096789211237 0.0 -0.003442539239275834 0.0 0.0
0.24387217842532838 -0.22784835186195124 0.0 4.6455894686658894e-15 0.0 0.0
0.23817530906463613 -0.22209678921120446 0.0 0.00344253923928591 0.0 0.0
0.22384971983924323 -0.20823953753910224 0.0 0.0028705135729956144 0.0 0.0
0.20473903542519922 -0.18988606598762053 0.0 0.0030552172177516924 0.0 0.0
0.1826953579396918 -0.1688017679487048 0.0 0.0028238608049879713 0.0 0.0
0.15921131345097855 -0.14647219195639416 0.0 0.0023202150645456783 0.0 0.0
0.13557756669908907 -0.12411943012414106 0.0 0.0017330700947179338 0.0 0.0
0.11275879873403066 -0.1026382729616464 0.0 0.001183575261264956 0.0 0.0
0.0913888852177816 -0.08259500207914393 0.0 0.0007018201429431648 0.0 0.0
0.0718622458689023 -0.06432520429931803 0.0 0.00026591002546990294 0.0 0.0
0.05447808926693955 -0.048081915291175906 0.0 -7.87756534645829e-05 0.0 0.0
0.039515172868699135 -0.03410640058003079 0.0 -0.0003446767658907531 0.0 0.0
0.027200822448837238 -0.022627299317930217 0.0 -0.0005180675179762703 0.0 0.0
0.01763843860984644 -0.013783415540583384 0.0 -0.0005670148426797644 0.0 0.0
0.010723873151936921 -0.007526789155824009 0.0 -0.0005258411206214293 0.0 0.0
0.006150028891500938 -0.0035836858573161223 0.0 -0.0003991123642296723 0.0 0.0
0.003518016588968066 -0.001572127713395202 0.0 -0.0002233542576702808 0.0 0.0
0.002318132000011845 -0.0009200149936392761 0.0 -2.2426770087960223e-05 0.0 0.0
0.0027479089749689782 -0.0006313537248777601 0.0 0.0009385570630902704 0.0 0.0
0.009346611508656344 -0.002917378460882924 0.0 0.007587912763638469 0.0 0.0
0.015197514164689788 -0.02511777529208181 0.0 0.0015868370023154302 0.0 0.0
0.01069903773767888 -0.022566851697761455 0.0 -0.001119612057105184 0.0 0.0
0.0062537737252773146 -0.0021880763049959345 0.0 -0.0062483536876665816 0.0 0.0
0.0017878589492698648 -0.00047426125620870065 0.0 -0.0005905206410604763 0.0 0.0
0.0020339828963761167 -0.0008638054793328647 0.0 -0.00018650992201998742 0.0 0.0
0.003013264664240416 -0.0014071986658590338 0.0 -0.00014701939916499635 0.0 0.0
0.0052543996849886134 -0.0032095386315939786 0.0 -0.00024647339513781096 0.0 0.0
0.009325020071881802 -0.006885213227915861 0.0 -0.0005922116536058608 0.0 0.0
0.015598129213470969 -0.01281337907993802 0.0 -0.0011485063855966723 0.0 0.0
0.024320086239845946 -0.02123456466682721 0.0 -0.0019360699531171658 0.0 0.0
0.03552510638056481 -0.032160988619621626 0.0 -0.002922856575651643 0.0 0.0
0.04907442964899469 -0.04543553271823166 0.0 -0.004013323492984734 0.0 0.0
0.06475567344032486 -0.060833986124307765 0.0 -0.005129432055739166 0.0 0.0
0.08235471004194714 -0.07814300414507566 0.0 -0.006270854086352524 0.0 0.0
0.10163109982970436 -0.09714337521888544 0.0 -0.007438103415524157 0.0 0.0
0.12224149828590894 -0.1175228046639939 0.0 -0.008591345933861797 0.0 0.0
0.14363719968736877 -0.13875885761192866 0.0 -0.009618434899272943 0.0 0.0
0.16497643231303477 -0.1600251805241269 0.0 -0.010258017179862277 0.0 0.0
0.1851119967320342 -0.18017080800050253 0.0 -0.01016768545847825 0.0 0.0
0.20254768709886864 -0.19773214671932615 0.0 -0.009210290115880797 0.0 0.0
0.21506165159719423 -0.21074675665443998 0.0 -0.00828915166914312 0.0 0.0
0.21974501400893703 -0.21619879558595503 0.0 7.971054372113429e-15 0.0 0.0
0.21506165159716406 -0.21074675665441106 0.0 0.008289151669165284 0.0 0.0
0.2025476870988089 -0.19773214671927186 0.0 0.009210290115900126 0.0 0.0
0.18511199673194917 -0.1801708080004215 0.0 0.010167685458493086 0.0 0.0
0.164976432312936 -0.160025180524028 0.0 0.010258017179863854 0.0 0.0
0.1436371996872626 -0.13875885761182177 0.0 0.009618434899265858 0.0 0.0
0.12224149828580017 -0.11752280466388637 0.0 0.00859134593386154 0.0 0.0
0.1016310998295973 -0.09714337521877545 0.0 0.007438103415523125 0.0 0.0
0.08235471004184353 -0.0781430041449721 0.0 0.006270854086344242 0.0 0.0
0.06475567344022862 -0.06083398612421072 0.0 0.005129432055731884 0.0 0.0
0.049074429648911094 -0.04543553271814898 0.0 0.004013323492973463 0.0 0.0
0.03552510638049731 -0.03216098861955986 0.0 0.002922856575644882 0.0 0.0
0.024320086239794945 -0.021234564666783907 0.0 0.0019360699531139381 0.0 0.0
0.015598129213435057 -0.012813379079902768 0.0 0.0011485063855922683 0.0 0.0
0.009325020071859253 -0.006885213227895092 0.0 0.0005922116536035088 0.0 0.0
0.005254399684976528 -0.003209538631583494 0.0 0.0002464733951336821 0.0 0.0
0.003013264664235744 -0.0014071986658555947 0.0 0.00014701939916633057 0.0 0.0
0.0020339828963752355 -0.0008638054793316028 0.0 0.00018650992201998425 0.0 0.0
0.001787858949269441 -0.0004742612562098668 0.0 0.0005905206410559021 0.0 0.0
0.006253773725270081 -0.002188076304991748 0.0 0.006248353687655911 0.0 0.0
0.010699037737664901 -0.022566851697735164 0.0 0.0011196120570640667 0.0 0.0
0.007881376631968974 -0.01806805195985329 0.0 -0.00425440324299822 0.0 0.0
0.004456246004684391 -0.0012272677736173683 0.0 -0.006365850393015295 0.0 0.0
0.001235284842662848 -0.0002449316569478951 0.0 -0.0005227432341283521 0.0 0.0
0.001715888595862843 -0.0007273554877145009 0.0 -0.0004789570698705652 0.0 0.0
0.002556034455628826 -0.0011207036407136813 0.0 -0.0004991818554650918 0.0 0.0
0.004407352537227197 -0.0025044200955857275 0.0 -0.0006899249172932358 0.0 0.0
0.00794449089706301 -0.005624080646686338 0.0 -0.001351793965608291 0.0 0.0
0.013540150372720404 -0.010877938938168717 0.0 -0.00242469763813329 0.0 0.0
0.0213749128090823 -0.0184296157792016 0.0 -0.0039240977951876 0.0 0.0
0.03143479380726391 -0.028234576887345368 0.0 -0.005754022385589724 0.0 0.0
0.04355485007173492 -0.0400988310865201 0.0 -0.0077401276978418376 0.0 0.0
0.0575328130918704 -0.05380850477516194 0.0 -0.009729725069690973 0.0 0.0
0.0731918877492807 -0.06919385554286167 0.0 -0.011696049610562967 0.0 0.0
0.09035361702421144 -0.0860959926275858 0.0 -0.013689728261213474 0.0 0.0
0.10874319163310435 -0.10426342530978877 0.0 -0.015663170949889803 0.0 0.0
0.12790598938459824 -0.12326533145936686 0.0 -0.017397727905721534 0.0 0.0
0.14714005182744433 -0.14241486821687116 0.0 -0.01847769146790018 0.0 0.0
0.1654084545340268 -0.16069830830839874 0.0 -0.018405405104495134 0.0 0.0
0.1811924634590325 -0.1766744450269058 0.0 -0.016935619746084353 0.0 0.0
0.19252635316470906 -0.18830610606087014 0.0 -0.014173338728900406 0.0 0.0
0.1968156049123058 -0.19348390257807985 0.0 1.4222130417795853e-14 0.0 0.0
0.19252635316468114 -0.188306106060838 0.0 0.014173338728941238 0.0 0.0
0.18119246345897924 -0.17667444502685084 0.0 0.016935619746125966 0.0 0.0
0.16540845453395275 -0.16069830830832846 0.0 0.01840540510452217 0.0 0.0
0.14714005182735673 -0.1424148682167822 0.0 0.01847769146790525 0.0 0.0
0.12790598938450407 -0.12326533145927823 0.0 0.017397727905713666 0.0 0.0
0.10874319163300752 -0.10426342530969432 0.0 0.01566317094988758 0.0 0.0
0.09035361702411573 -0.08609599262749404 0.0 0.013689728261208428 0.0 0.0
0.07319188774918903 -0.06919385554276522 0.0 0.011696049610550548 0.0 0.0
0.05753281309178496 -0.053808504775078876 0.0 0.00972972506967797 0.0 0.0
0.043554850071660225 -0.04009883108644138 0.0 0.007740127697826145 0.0 0.0
0.031434793807203695 -0.02823457688729019 0.0 0.0057540223855780575 0.0 0.0
0.021374912809036695 -0.018429615779162294 0.0 0.003924097795181 0.0 0.0
0.013540150372687803 -0.010877938938139417 0.0 0.0024246976381255194 0.0 0.0
0.007944490897042938 -0.0056240806466665546 0.0 0.0013517939656037302 0.0 0.0
0.004407352537218149 -0.0025044200955762746 0.0 0.0006899249172893627 0.0 0.0
0.0025560344556262203 -0.0011207036407102316 0.0 0.0004991818554646983 0.0 0.0
0.0017158885958623675 -0.0007273554877140326 0.0 0.0004789570698706542 0.0 0.0
0.001235284842662757 -0.00024493165694877277 0.0 0.0005227432341253972 0.0 0.0
0.004456246004677841 -0.0012272677736135458 0.0 0.006365850393000388 0.0 0.0
0.007881376631955697 -0.018068051959826477 0.0 0.004254403242972269 0.0 0.0
0.005980019232268536 -0.014585790448995585 0.0 -0.004695689099108847 0.0 0.0
0.0033035231733974787 -0.0008830834249392431 0.0 -0.005813306299394504 0.0 0.0
0.0008759928359188668 -0.0001357388602924653 0.0 -0.0008026323971094269 0.0 0.0
0.0014104724521964672 -0.0005736178876657917 0.0 -0.0007777728189138698 0.0 0.0
0.0021409147764100524 -0.0009014232087659749 0.0 -0.0008320840369819106 0.0 0.0
0.003627998234667789 -0.0019048343868001342 0.0 -0.001062508324509874 0.0 0.0
0.0066061036667006134 -0.004427702195186299 0.0 -0.0018638743665210875 0.0 0.0
0.011485363432116263 -0.008962398731387699 0.0 -0.0033491958771287946 0.0 0.0
0.018397593192366734 -0.015604807543766658 0.0 -0.005384856824815842 0.0 0.0
0.027283625642425847 -0.02425686446341387 0.0 -0.007848730897431499 0.0 0.0
0.03795748790069923 -0.034695930721327296 0.0 -0.010500302585474052 0.0 0.0
0.05022597152824732 -0.04671332596862832 0.0 -0.013149936013347572 0.0 0.0
0.06394279576937063 -0.06017143642948779 0.0 -0.015761727347648427 0.0 0.0
0.0789733650050783 -0.07496016405379818 0.0 -0.018376020129404237 0.0 0.0
0.09512168245782818 -0.09089687357241236 0.0 -0.02094594712268096 0.0 0.0
0.11204531895769923 -0.10765411594978054 0.0 -0.023232544042002028 0.0 0.0
0.1291706991940442 -0.1246862411147884 0.0 -0.024752561632711383 0.0 0.0
0.1455778503595479 -0.14111353052897677 0.0 -0.024902373284737874 0.0 0.0
0.1598959488842316 -0.15558326041367893 0.0 -0.023066843142514847 0.0 0.0
0.1704396164146522 -0.16632091901315144 0.0 -0.01831901487627477 0.0 0.0
0.17454775381264184 -0.1716701355569187 0.0 2.3266978621538925e-14 0.0 0.0
0.17043961641462646 -0.16632091901311363 0.0 0.018319014876331148 0.0 0.0
0.15989594888418426 -0.15558326041363316 0.0 0.023066843142572395 0.0 0.0
0.14557785035948292 -0.14111353052891387 0.0 0.0249023732847685 0.0 0.0
0.12917069919396806 -0.12468624111471216 0.0 0.024752561632716913 0.0 0.0
0.11204531895761694 -0.1076541159496991 0.0 0.0232325440419922 0.0 0.0
0.0951216824577428 -0.09089687357232805 0.0 0.02094594712267465 0.0 0.0
0.07897336500499438 -0.07496016405371683 0.0 0.018376020129395654 0.0 0.0
0.06394279576929056 -0.06017143642940617 0.0 0.015761727347633456 0.0 0.0
0.050225971528172986 -0.04671332596855393 0.0 0.01314993601332885 0.0 0.0
0.03795748790063411 -0.03469593072125941 0.0 0.010500302585454126 0.0 0.0
0.027283625642372373 -0.024256864463360436 0.0 0.00784873089741338 0.0 0.0
0.01839759319232633 -0.015604807543727214 0.0 0.0053848568248044265 0.0 0.0
0.0114853634320885 -0.008962398731361114 0.0 0.0033491958771194458 0.0 0.0
0.006606103666683573 -0.004427702195172143 0.0 0.0018638743665159944 0.0 0.0
0.0036279982346599056 -0.0019048343867924546 0.0 0.0010625083245070022 0.0 0.0
0.0021409147764081945 -0.0009014232087649653 0.0 0.000832084036981557 0.0 0.0
0.0014104724521962265 -0.0005736178876651944 0.0 0.0007777728189125835 0.0 0.0
0.0008759928359186048 -0.00013573886029390078 0.0 0.0008026323971079381 0.0 0.0
0.0033035231733908503 -0.0008830834249359108 0.0 0.005813306299378748 0.0 0.0
0.005980019232255299 -0.014585790448971151 0.0 0.004695689099090125 0.0 0.0
0.004553107323073318 -0.011778272456098677 0.0 -0.004165972984911413 0.0 0.0
0.0024807253276055105 -0.0006982825969001019 0.0 -0.005181710082453047 0.0 0.0
0.0006347639069798682 -8.535749150524745e-05 0.0 -0.0012012460976378273 0.0 0.0
0.0011377180271314395 -0.00043557114274549017 0.0 -0.0011024246580948773 0.0 0.0
0.0017645846280529864 -0.0007248443406231639 0.0 -0.0011604192266710298 0.0 0.0
0.0029303050538347373 -0.0014251057444362478 0.0 -0.0013836705551432018 0.0 0.0
0.00533782988453275 -0.0033438664261699184 0.0 -0.0022032512833162726 0.0 0.0
0.009459026040020926 -0.007094570761724929 0.0 -0.0038846384683152097 0.0 0.0
0.015421686972634456 -0.012795289569551003 0.0 -0.006309122218707458 0.0 0.0
0.023108447311721465 -0.02026843854227983 0.0 -0.009202285858213838 0.0 0.0
0.032322066539294404 -0.029267797052855128 0.0 -0.012301123121742502 0.0 0.0
0.04287200427031865 -0.0395859460331249 0.0 -0.015393724221259439 0.0 0.0
0.054638946173509284 -0.05111243670227784 0.0 -0.01844601095287513 0.0 0.0
0.06753761901860221 -0.06378234085036641 0.0 -0.021492467331435602 0.0 0.0
0.08143238553104579 -0.07747685648504021 0.0 -0.024460404477382673 0.0 0.0
0.0960821568781705 -0.0919641674163143 0.0 -0.027110199307167647 0.0 0.0
0.11106135941313679 -0.10683775512288277 0.0 -0.029013929783795748 0.0 0.0
0.12562329780577522 -0.12138904946020063 0.0 -0.02950240261322855 0.0 0.0
0.13862078077985804 -0.1344887500413767 0.0 -0.027483303091624424 0.0 0.0
0.14861604816188256 -0.14463210868751508 0.0 -0.021443375884576305 0.0 0.0
0.15267278080895796 -0.1503614699209416 0.0 2.7663635271402143e-14 0.0 0.0
0.14861604816185983 -0.14463210868748877 0.0 0.021443375884639744 0.0 0.0
0.1386207807798159 -0.13448875004133873 0.0 0.02748330309168715 0.0 0.0
0.12562329780571882 -0.12138904946014356 0.0 0.029502402613267018 0.0 0.0
0.11106135941307134 -0.1068377551228225 0.0 0.029013929783805355 0.0 0.0
0.09608215687809915 -0.09196416741623911 0.0 0.027110199307157058 0.0 0.0
0.08143238553097251 -0.07747685648497127 0.0 0.024460404477371814 0.0 0.0
0.06753761901853063 -0.06378234085029454 0.0 0.021492467331424736 0.0 0.0
0.05463894617344102 -0.05111243670221065 0.0 0.018446010952855748 0.0 0.0
0.042872004270255254 -0.03958594603305501 0.0 0.015393724221236478 0.0 0.0
0.03232206653923884 -0.029267797052803975 0.0 0.012301123121716663 0.0 0.0
0.023108447311675728 -0.020268438542232304 0.0 0.009202285858192667 0.0 0.0
0.015421686972599536 -0.012795289569513046 0.0 0.006309122218692111 0.0 0.0
0.009459026039997107 -0.007094570761701362 0.0 0.0038846384683023753 0.0 0.0
0.005337829884519203 -0.0033438664261595578 0.0 0.002203251283311011 0.0 0.0
0.00293030505382884 -0.001425105744432647 0.0 0.0013836705551394505 0.0 0.0
0.0017645846280513438 -0.0007248443406241009 0.0 0.0011604192266710452 0.0 0.0
0.0011377180271311962 -0.00043557114274473036 0.0 0.0011024246580923843 0.0 0.0
0.0006347639069797553 -8.535749150586643e-05 0.0 0.0012012460976366737 0.0 0.0
0.0024807253276000535 -0.0006982825968972226 0.0 0.005181710082442177 0.0 0.0
0.004553107323062716 -0.011778272456077507 0.0 0.0041659729849000396 0.0 0.0
0.0034282760605219963 -0.009431657356389518 0.0 -0.0034431242425868036 0.0 0.0
0.0018550361230458502 -0.0005701405816598583 0.0 -0.0045671469406196935 0.0 0.0
0.00046320824394484566 -7.03312645321087e-05 0.0 -0.0015840798932601119 0.0 0.0
0.0008938210083682711 -0.0003140133596219682 0.0 -0.0014282407686165824 0.0 0.0
0.0014235325410448295 -0.0005784519445584097 0.0 -0.0014867032530601928 0.0 0.0
0.002311938538062508 -0.0010528046036908632 0.0 -0.0016686629116422632 0.0 0.0
0.004173815111071831 -0.002414379630186368 0.0 -0.0024441013271898357 0.0 0.0
0.007504012211023555 -0.0053347985234814925 0.0 -0.004095676632269199 0.0 0.0
0.012472645598588109 -0.010036661923316465 0.0 -0.006672388755158382 0.0 0.0
0.018945776890015725 -0.016309284522580028 0.0 -0.009806704771554643 0.0 0.0
0.02668563614083041 -0.02385546757979816 0.0 -0.013137492574408704 0.0 0.0
0.03551092667281446 -0.03246837250276823 0.0 -0.016460434205151774 0.0 0.0
0.045324317231803524 -0.04205943797792763 0.0 -0.019737572634495354 0.0 0.0
0.056081756747332706 -0.05260631083380716 0.0 -0.023004963130560625 0.0 0.0
0.06771592919690714 -0.0640517384607117 0.0 -0.02618847409470661 0.0 0.0
0.08006652844863008 -0.07624366076116283 0.0 -0.029039779045792965 0.0 0.0
0.09283806278301354 -0.08889655583322556 0.0 -0.03119559509305732 0.0 0.0
0.10552509109871075 -0.10152506898106776 0.0 -0.032030649088083736 0.0 0.0
0.11727531674813044 -0.11332001873419759 0.0 -0.030205662031064 0.0 0.0
0.12687904028823596 -0.1230483044026742 0.0 -0.023705956365851533 0.0 0.0
0.130974652801283 -0.12932354387874156 0.0 2.6303612066236326e-14 0.0 0.0
0.12687904028821545 -0.1230483044026488 0.0 0.023705956365916367 0.0 0.0
0.11727531674809433 -0.11332001873415681 0.0 0.030205662031127622 0.0 0.0
0.10552509109866344 -0.10152506898102023 0.0 0.032030649088121275 0.0 0.0
0.09283806278295778 -0.0888965558331733 0.0 0.031195595093061593 0.0 0.0
0.0800665284485696 -0.07624366076110113 0.0 0.029039779045781415 0.0 0.0
0.06771592919684562 -0.06405173846065958 0.0 0.026188474094694617 0.0 0.0
0.05608175674727298 -0.05260631083375101 0.0 0.023004963130549807 0.0 0.0
0.04532431723174655 -0.04205943797787433 0.0 0.019737572634476317 0.0 0.0
0.03551092667276193 -0.03246837250271411 0.0 0.016460434205127057 0.0 0.0
0.026685636140784768 -0.023855467579752567 0.0 0.013137492574381043 0.0 0.0
0.018945776889977527 -0.016309284522544844 0.0 0.009806704771532702 0.0 0.0
0.012472645598559312 -0.01003666192328615 0.0 0.006672388755142467 0.0 0.0
0.0075040122110050095 -0.005334798523466451 0.0 0.004095676632256913 0.0 0.0
0.004173815111061687 -0.002414379630176649 0.0 0.0024441013271843453 0.0 0.0
0.002311938538058936 -0.0010528046036883832 0.0 0.0016686629116378078 0.0 0.0
0.0014235325410439194 -0.0005784519445598208 0.0 0.0014867032530579821 0.0 0.0
0.0008938210083680818 -0.0003140133596210826 0.0 0.0014282407686148522 0.0 0.0
0.0004632082439449553 -7.03312645312138e-05 0.0 0.0015840798932569384 0.0 0.0
0.0018550361230411528 -0.0005701405816577196 0.0 0.00456714694061033 0.0 0.0
0.003428276060512888 -0.009431657356371779 0.0 0.0034431242425786656 0.0 0.0
0.002530018359529594 -0.007445738214019608 0.0 -0.002776823345519838 0.0 0.0
0.0013652808288735277 -0.00047026892129878 0.0 -0.004009764249898755 0.0 0.0
0.00033086125753458486 -6.960443077374188e-05 0.0 -0.0019004648211031622 0.0 0.0
0.0006695199069086841 -0.00020633216945176576 0.0 -0.0017286291215624417 0.0 0.0
0.0011079340933961772 -0.00044526509424218765 0.0 -0.0017915710790328068 0.0 0.0
0.0017643512852692613 -0.0007698827562131902 0.0 -0.0019479581009546696 0.0 0.0
0.0031231123961150357 -0.0016531743099050236 0.0 -0.002587641351810611 0.0 0.0
0.005670100637607068 -0.003753951221067353 0.0 -0.004092787910897665 0.0 0.0
0.009604405627686349 -0.007393216229765199 0.0 -0.006522446255737125 0.0 0.0
0.014828663783423849 -0.012423281530290521 0.0 -0.009637837760827037 0.0 0.0
0.02108691018781628 -0.01850218339501133 0.0 -0.012992663990472143 0.0 0.0
0.028181462082189322 -0.025404461298778595 0.0 -0.016338202253636448 0.0 0.0
0.03603887965373323 -0.03306053256217898 0.0 -0.0196247419598297 0.0 0.0
0.04465404007599217 -0.041481621561736993 0.0 -0.022897147267777647 0.0 0.0
0.05401428635677146 -0.05066800915880465 0.0 -0.026094364183834515 0.0 0.0
0.06403588871703408 -0.0605432222896712 0.0 -0.028987911933040962 0.0 0.0
0.07454553781648135 -0.07091753583437395 0.0 -0.031233486009638926 0.0 0.0
0.0852778307944363 -0.0815312867678723 0.0 -0.032370872504410356 0.0 0.0
0.09574828948919277 -0.09197652785832677 0.0 -0.031126609592022 0.0 0.0
0.10503775667948595 -0.10136921664675726 0.0 -0.02509248222213086 0.0 0.0
0.10923933746545153 -0.10834415288159356 0.0 2.993091885450383e-14 0.0 0.0
0.10503775667946867 -0.10136921664673476 0.0 0.025092482222198884 0.0 0.0
0.09574828948916281 -0.09197652785829985 0.0 0.03112660959208889 0.0 0.0
0.08527783079439695 -0.08153128676784405 0.0 0.03237087250444804 0.0 0.0
0.0745455378164361 -0.0709175358343265 0.0 0.031233486009644214 0.0 0.0
0.0640358887169854 -0.060543222289621515 0.0 0.02898791193302775 0.0 0.0
0.05401428635672189 -0.05066800915875814 0.0 0.026094364183820332 0.0 0.0
0.04465404007594487 -0.04148162156169516 0.0 0.022897147267767645 0.0 0.0
0.03603887965368819 -0.03306053256213809 0.0 0.019624741959815086 0.0 0.0
0.028181462082147283 -0.02540446129873921 0.0 0.016338202253615073 0.0 0.0
0.021086910187779397 -0.01850218339497346 0.0 0.012992663990445324 0.0 0.0
0.014828663783393679 -0.012423281530259005 0.0 0.009637837760803921 0.0 0.0
0.009604405627664072 -0.007393216229745005 0.0 0.006522446255722121 0.0 0.0
0.005670100637592717 -0.003753951221055222 0.0 0.004092787910887008 0.0 0.0
0.003123112396107341 -0.0016531743099014989 0.0 0.002587641351805525 0.0 0.0
0.001764351285266356 -0.000769882756210585 0.0 0.001947958100951264 0.0 0.0
0.001107934093395559 -0.00044526509424326014 0.0 0.0017915710790294254 0.0 0.0
0.0006695199069084606 -0.00020633216945132422 0.0 0.001728629121560141 0.0 0.0
0.00033086125753435116 -6.960443077449349e-05 0.0 0.0019004648210997053 0.0 0.0
0.001365280828870099 -0.0004702689212973265 0.0 0.004009764249888996 0.0 0.0
0.0025300183595229012 -0.007445738214005401 0.0 0.0027768233455137447 0.0 0.0
0.0018131444175572657 -0.005771403584922596 0.0 -0.002252752658606505 0.0 0.0
0.0009761386274439094 -0.00039356588698261145 0.0 -0.003507765083589675 0.0 0.0
0.00021772650120807245 -6.718429307746503e-05 0.0 -0.0021399330893875326 0.0 0.0
0.00045636868644756314 -0.00010999612737866226 0.0 -0.0019855817484899342 0.0 0.0
0.0008046174729435845 -0.000310832427200409 0.0 -0.0020525288531538354 0.0 0.0
0.0012790194546566885 -0.0005488998657564971 0.0 -0.0022264117153920995 0.0 0.0
0.0021922082442188324 -0.001064151037417395 0.0 -0.002684388195705445 0.0 0.0
0.003983708252753614 -0.0024024212846265693 0.0 -0.003896293943181868 0.0 0.0
0.006878130100011378 -0.0049554683210700536 0.0 -0.0059679360913169315 0.0 0.0
0.010812411553498845 -0.008682692404300375 0.0 -0.008735486619241813 0.0 0.0
0.015560625644873916 -0.013260587134334362 0.0 -0.011847980843041008 0.0 0.0
0.020922762429753012 -0.018445604784095983 0.0 -0.014992187837915658 0.0 0.0
0.026827558848535504 -0.02416990594765488 0.0 -0.01807974506971169 0.0 0.0
0.03329505453948283 -0.030465231475214488 0.0 -0.021140834281173998 0.0 0.0
0.040370200069211465 -0.037380761605825756 0.0 -0.024152461905604616 0.0 0.0
0.04804409245299757 -0.044917383671603334 0.0 -0.026919570623993194 0.0 0.0
0.056231402401184905 -0.052974102624341754 0.0 -0.02909812754592354 0.0 0.0
0.06488150846934126 -0.061448843484350965 0.0 -0.030366932048350902 0.0 0.0
0.07393327939065888 -0.07036351290190748 0.0 -0.029980249803494355 0.0 0.0
0.0828840885730676 -0.07937069815233147 0.0 -0.025444739508223308 0.0 0.0
0.08722566431563226 -0.08719670571899997 0.0 2.4483887139936655e-14 0.0 0.0
0.08288408857305457 -0.07937069815231673 0.0 0.02544473950828488 0.0 0.0
0.07393327939063495 -0.07036351290188816 0.0 0.029980249803554508 0.0 0.0
0.06488150846931016 -0.061448843484324056 0.0 0.030366932048387474 0.0 0.0
0.05623140240114942 -0.052974102624306116 0.0 0.02909812754592843 0.0 0.0
0.04804409245295985 -0.04491738367157041 0.0 0.026919570623977068 0.0 0.0
0.04037020006917469 -0.03738076160578346 0.0 0.024152461905589864 0.0 0.0
0.03329505453944872 -0.030465231475180647 0.0 0.02114083428116451 0.0 0.0
0.026827558848502738 -0.024169905947620418 0.0 0.018079745069696312 0.0 0.0
0.020922762429721915 -0.01844560478407138 0.0 0.01499218783789497 0.0 0.0
0.015560625644846435 -0.013260587134308081 0.0 0.011847980843019672 0.0 0.0
0.010812411553476618 -0.008682692404275943 0.0 0.008735486619222233 0.0 0.0
0.006878130099995477 -0.004955468321055189 0.0 0.0059679360913038205 0.0 0.0
0.0039837082527435655 -0.0024024212846180315 0.0 0.0038962939431745353 0.0 0.0
0.002192208244213664 -0.0010641510374144302 0.0 0.0026843881957002904 0.0 0.0
0.0012790194546550319 -0.0005488998657565003 0.0 0.00222641171538914 0.0 0.0
0.0008046174729432411 -0.0003108324272001815 0.0 0.0020525288531515395 0.0 0.0
0.00045636868644740913 -0.0001099961273785106 0.0 0.001985581748487569 0.0 0.0
0.0002177265012079197 -6.718429307730395e-05 0.0 0.0021399330893866423 0.0 0.0
0.0009761386274415472 -0.00039356588698124455 0.0 0.0035077650835832145 0.0 0.0
0.0018131444175527066 -0.005771403584911653 0.0 0.002252752658602446 0.0 0.0
0.0012632851327853366 -0.004397537686221639 0.0 -0.0019007704767173084 0.0 0.0
0.0006687177497142364 -0.0003415893283763259 0.0 -0.0030609017046494633 0.0 0.0
0.00010726505178292614 -5.144466475900455e-05 0.0 -0.002306285774279672 0.0 0.0
0.0002505466443573036 -2.2411709372769756e-05 0.0 -0.0021887412319691584 0.0 0.0
0.0005031971372824741 -0.00017165246466432788 0.0 -0.0022561715469469395 0.0 0.0
0.000831064566979206 -0.00035285444324828757 0.0 -0.00247624168148663 0.0 0.0
0.0013809360749187656 -0.0006329625490041502 0.0 -0.002813447156547674 0.0 0.0
0.002472688983555237 -0.0013306203654782794 0.0 -0.0035860146703304303 0.0 0.0
0.004340640976381272 -0.002827170467673595 0.0 -0.0050864972417338904 0.0 0.0
0.0069646356132120725 -0.005204059312294709 0.0 -0.007209020842922995 0.0 0.0
0.010166597265188886 -0.008226112201367066 0.0 -0.009748449078472877 0.0 0.0
0.013776497633318119 -0.01167079402816763 0.0 -0.012413797217846634 0.0 0.0
0.01772835421883618 -0.01545987884618092 0.0 -0.015095998484989763 0.0 0.0
0.022051534818522765 -0.019634072283031517 0.0 -0.017759288700127347 0.0 0.0
0.02682533520553397 -0.024266522328894275 0.0 -0.020383278060802822 0.0 0.0
0.03212538837979803 -0.029433097980181164 0.0 -0.022877472246227732 0.0 0.0
0.03796618495858404 -0.03514748870090813 0.0 -0.02494056496255674 0.0 0.0
0.044392466540748916 -0.041396846232511275 0.0 -0.026172659851424477 0.0 0.0
0.05173196271545725 -0.04846428750199457 0.0 -0.02639770940787347 0.0 0.0
0.06016324152276445 -0.05679064496301568 0.0 -0.02431587223586666 0.0 0.0
0.06462933256522171 -0.06559072455028503 0.0 2.2958197842815053e-14 0.0 0.0
0.06016324152275536 -0.05679064496300258 0.0 0.024315872235922388 0.0 0.0
0.051731962715440775 -0.04846428750197779 0.0 0.026397709407933956 0.0 0.0
0.044392466540727274 -0.04139684623248212 0.0 0.026172659851457593 0.0 0.0
0.03796618495855945 -0.03514748870088173 0.0 0.02494056496255518 0.0 0.0
0.03212538837977321 -0.02943309798015 0.0 0.022877472246214434 0.0 0.0
0.026825335205510285 -0.024266522328870492 0.0 0.02038327806079097 0.0 0.0
0.022051534818500747 -0.019634072283013858 0.0 0.017759288700118867 0.0 0.0
0.017728354218815336 -0.015459878846158136 0.0 0.015095998484976347 0.0 0.0
0.013776497633298407 -0.011670794028151488 0.0 0.012413797217828836 0.0 0.0
0.010166597265171277 -0.00822611220134962 0.0 0.009748449078452737 0.0 0.0
0.0069646356131977255 -0.005204059312282702 0.0 0.007209020842906337 0.0 0.0
0.0043406409763712414 -0.0028271704676631156 0.0 0.005086497241725112 0.0 0.0
0.0024726889835494626 -0.0013306203654730618 0.0 0.003586014670324363 0.0 0.0
0.0013809360749161483 -0.0006329625490029508 0.0 0.0028134471565445635 0.0 0.0
0.0008310645669785652 -0.00035285444325015104 0.0 0.0024762416814840893 0.0 0.0
0.0005031971372823543 -0.00017165246466213974 0.0 0.0022561715469453653 0.0 0.0
0.0002505466443573266 -2.2411709371539092e-05 0.0 0.002188741231968544 0.0 0.0
0.00010726505178291904 -5.144466475682725e-05 0.0 0.0023062857742785084 0.0 0.0
0.000668717749712407 -0.00034158932837541757 0.0 0.0030609017046443403 0.0 0.0
0.001263285132781768 -0.0043975376862133595 0.0 0.0019007704767153332 0.0 0.0
0.0008658496258198015 -0.0033041886989613276 0.0 -0.0016762178519104426 0.0 0.0
0.0004312792786142337 -0.0003191236615559792 0.0 -0.002695444315913314 0.0 0.0
-8.257191319671232e-06 -1.6614865110378842e-05 0.0 -0.0024077952527846577 0.0 0.0
4.9376079466414124e-05 5.91264406461906e-05 0.0 -0.0023337193939701904 0.0 0.0
0.00020051394206701599 -3.121534680495973e-05 0.0 -0.0024013523151054017 0.0 0.0
0.00039421264207576166 -0.00015511074911199902 0.0 -0.0026490001435535075 0.0 0.0
0.0006654904997301217 -0.0002968795419005203 0.0 -0.0029729178703717723 0.0 0.0
0.0011555148554686554 -0.0005642479821642995 0.0 -0.003378774186485338 0.0 0.0
0.00203998811636994 -0.001167332925015822 0.0 -0.004108325136185199 0.0 0.0
0.0033487777702390373 -0.0022199321864512615 0.0 -0.00533501353145614 0.0 0.0
0.004972274678391994 -0.0036296150772726237 0.0 -0.007039360727199434 0.0 0.0
0.0067967749718592105 -0.005283506226446089 0.0 -0.009043552672427537 0.0 0.0
0.008778009901035808 -0.007119629806508767 0.0 -0.011188669818319178 0.0 0.0
0.010955970837760445 -0.009166836728382878 0.0 -0.013405671484172123 0.0 0.0
0.013416521556327842 -0.011500824723072295 0.0 -0.01567708345401691 0.0 0.0
0.01629707191440013 -0.014249384736377763 0.0 -0.0179617296761876 0.0 0.0
0.01975893958959004 -0.01757207423475271 0.0 -0.02004452319659927 0.0 0.0
0.02393382030268983 -0.02160374800772695 0.0 -0.021390961408306892 0.0 0.0
0.0292010777752265 -0.0265853656591825 0.0 -0.021580621586437792 0.0 0.0
0.036586795895111074 -0.033493334259137315 0.0 -0.021264723503266608 0.0 0.0
0.040984221734709156 -0.043132638849819736 0.0 1.728738679984687e-14 0.0 0.0
0.03658679589510673 -0.033493334259139175 0.0 0.021264723503313807 0.0 0.0
0.029201077775217382 -0.026585365659178756 0.0 0.02158062158648377 0.0 0.0
0.023933820302676597 -0.02160374800770695 0.0 0.02139096140832712 0.0 0.0
0.01975893958957697 -0.017572074234734728 0.0 0.020044523196593722 0.0 0.0
0.016297071914388055 -0.014249384736354082 0.0 0.017961729676172808 0.0 0.0
0.013416521556317413 -0.011500824723067885 0.0 0.015677083454006403 0.0 0.0
0.010955970837751709 -0.009166836728378727 0.0 0.013405671484163988 0.0 0.0
0.008778009901027143 -0.007119629806502831 0.0 0.011188669818310125 0.0 0.0
0.0067967749718506835 -0.005283506226439405 0.0 0.009043552672413047 0.0 0.0
0.004972274678384101 -0.003629615077265557 0.0 0.007039360727184916 0.0 0.0
0.0033487777702332416 -0.002219932186447693 0.0 0.005335013531445402 0.0 0.0
0.0020399881163661866 -0.0011673329250119447 0.0 0.004108325136182055 0.0 0.0
0.0011555148554661756 -0.0005642479821616212 0.0 0.0033787741864821476 0.0 0.0
0.0006654904997295851 -0.0002968795419016037 0.0 0.0029729178703691832 0.0 0.0
0.0003942126420758767 -0.00015511074911318256 0.0 0.002649000143550782 0.0 0.0
0.00020051394206697766 -3.121534680557181e-05 0.0 0.0024013523151025316 0.0 0.0
4.9376079466195434e-05 5.912644064752975e-05 0.0 0.0023337193939690012 0.0 0.0
-8.257191320167487e-06 -1.661486510887586e-05 0.0 0.002407795252783348 0.0 0.0
0.00043127927861321086 -0.000319123661556386 0.0 0.002695444315909262 0.0 0.0
0.0008658496258180537 -0.0033041886989552856 0.0 0.0016762178519097437 0.0 0.0
0.0005851703483091586 -0.002469966084349226 0.0 -0.0015461057058706708 0.0 0.0
0.0002481003715745286 -0.00031690401322452246 0.0 -0.0024330304281561157 0.0 0.0
-0.00012730195592196685 3.219618409851995e-05 0.0 -0.0024524615859881542 0.0 0.0
-0.0001480656707775118 0.00013751368694793015 0.0 -0.002417743066923419 0.0 0.0
-9.883362172458045e-05 0.00010693869113423914 0.0 -0.002482650347298918 0.0 0.0
-4.6691005217650806e-05 4.80840251390636e-05 0.0 -0.002721957503331192 0.0 0.0
-1.790708541717598e-05 1.2677560031623995e-05 0.0 -0.0030631654314842616 0.0 0.0
-6.7079490103546505e-06 4.042353270660412e-06 0.0 -0.0033422978265813643 0.0 0.0
-2.0894787126014467e-06 1.0941294825687236e-06 0.0 -0.0036314713137425444 0.0 0.0
-5.928125575984603e-08 -1.691259206098271e-08 0.0 -0.00434200755394106 0.0 0.0
-1.9985810679587403e-06 8.625099340481323e-07 0.0 -0.005578009093085842 0.0 0.0
-1.4319060478934411e-05 1.314403254701102e-05 0.0 -0.007251033318749635 0.0 0.0
-3.723450581351621e-05 3.6184703425328325e-05 0.0 -0.009126664505460791 0.0 0.0
-4.016042375514623e-05 4.7697720693065204e-05 0.0 -0.011139691434390742 0.0 0.0
7.169877257860008e-05 -3.4017002322543426e-05 0.0 -0.013294930178218813 0.0 0.0
0.0004947396766947672 -0.0003851804017689645 0.0 -0.015567389441570628 0.0 0.0
0.001543604050563166 -0.0012918454624470394 0.0 -0.017856838215850494 0.0 0.0
0.0035579864088805795 -0.0030983755367676564 0.0 -0.019912912941151363 0.0 0.0
0.006754749673399607 -0.005902165941088325 0.0 -0.02142783474578606 0.0 0.0
0.012226706891119937 -0.010416493249459625 0.0 -0.02269554696797926 0.0 0.0
0.015788515031473202 -0.020599171832220965 0.0 1.3489209749195652e-14 0.0 0.0
0.01222670689111908 -0.01041649324946646 0.0 0.022695546968007824 0.0 0.0
0.0067547496733967455 -0.005902165941085129 0.0 0.02142783474580582 0.0 0.0
0.0035579864088786423 -0.0030983755367660413 0.0 0.01991291294115489 0.0 0.0
0.001543604050564057 -0.0012918454624462486 0.0 0.017856838215840172 0.0 0.0
0.0004947396766971928 -0.00038518040177237616 0.0 0.015567389441555647 0.0 0.0
7.169877258115056e-05 -3.4017002323101357e-05 0.0 0.013294930178207195 0.0 0.0
-4.016042375146818e-05 4.769772068734593e-05 0.0 0.01113969143437988 0.0 0.0
-3.7234505809407735e-05 3.618470342042117e-05 0.0 0.009126664505449135 0.0 0.0
-1.4319060475406634e-05 1.3144032540159621e-05 0.0 0.007251033318738149 0.0 0.0
-1.998581065486651e-06 8.625099374118153e-07 0.0 0.0055780090930738725 0.0 0.0
-5.928125394364476e-08 -1.6912597098592578e-08 0.0 0.004342007553934927 0.0 0.0
-2.0894787112084366e-06 1.0941294849199583e-06 0.0 0.003631471313742059 0.0 0.0
-6.707949009859753e-06 4.0423532698019405e-06 0.0 0.0033422978265794257 0.0 0.0
-1.7907085416911313e-05 1.2677560030410728e-05 0.0 0.0030631654314813945 0.0 0.0
-4.6691005217058784e-05 4.808402513898228e-05 0.0 0.0027219575033274497 0.0 0.0
-9.883362172389054e-05 0.000106938691133684 0.0 0.0024826503472967546 0.0 0.0
-0.00014806567077732457 0.0001375136869471069 0.0 0.002417743066920564 0.0 0.0
-0.00012730195592244314 3.219618409888693e-05 0.0 0.002452461585985904 0.0 0.0
0.00024810037157371316 -0.00031690401322519504 0.0 0.0024330304281553914 0.0 0.0
0.0005851703483081165 -0.0024699660843454318 0.0 0.0015461057058690105 0.0 0.0
0.0003904776170258113 -0.001864295046652426 0.0 -0.0014803818104215686 0.0 0.0
0.00011070228243416586 -0.00031103890224357507 0.0 -0.002244803607499108 0.0 0.0
-0.0002420732669871919 8.329758481086823e-05 0.0 -0.002445743089867022 0.0 0.0
-0.0003406618189278447 0.00021433391205894132 0.0 -0.0024381603667011226 0.0 0.0
-0.0003920766034445536 0.00024015254470388924 0.0 -0.0024905627316794345 0.0 0.0
-0.0004842227864451892 0.00025031850517335895 0.0 -0.002698034231807565 0.0 0.0
-0.0007010697541083993 0.00032337823170023716 0.0 -0.003005185940939717 0.0 0.0
-0.0011685833053818751 0.0005733553145854461 0.0 -0.003400596433506157 0.0 0.0
-0.0020428404578919667 0.0011690042727122128 0.0 -0.004117015584672834 0.0 0.0
-0.0033480093839398997 0.0022191173483597122 0.0 -0.0053346574860899856 0.0 0.0
-0.004977905349500046 0.0036334177835962607 0.0 -0.0070379991673243944 0.0 0.0
-0.006828254208627963 0.0053117003701029205 0.0 -0.009048503628908086 0.0 0.0
-0.008851631943095002 0.007192319058492588 0.0 -0.011184943162762423 0.0 0.0
-0.011028408294069182 0.009258623764736388 0.0 -0.01338501905891335 0.0 0.0
-0.013258907159631687 0.011421946598593863 0.0 -0.015674005990119054 0.0 0.0
-0.015309115454207208 0.013459645282059354 0.0 -0.018115279244526595 0.0 0.0
-0.016792229576052482 0.014991482225147637 0.0 -0.020745647087002522 0.0 0.0
-0.01725887944886214 0.015532351018198522 0.0 -0.02368201800667075 0.0 0.0
-0.016220105390415296 0.014768501221188259 0.0 -0.026872185595449915 0.0 0.0
-0.011696064589083 0.01149794068197934 0.0 -0.028465700982158983 0.0 0.0
-0.00813579262899438 0.0005875638507531109 0.0 1.68363586960929e-14 0.0 0.0
-0.011696064589084045 0.0114979406819753 0.0 0.02846570098218895 0.0 0.0
-0.016220105390409596 0.014768501221182971 0.0 0.026872185595475065 0.0 0.0
-0.017258879448849372 0.015532351018181637 0.0 0.023682018006671385 0.0 0.0
-0.01679222957603598 0.014991482225134491 0.0 0.020745647086990122 0.0 0.0
-0.015309115454190465 0.013459645282036973 0.0 0.01811527924450952 0.0 0.0
-0.013258907159615967 0.011421946598581943 0.0 0.01567400599010598 0.0 0.0
-0.011028408294053268 0.0092586237647189 0.0 0.013385019058903304 0.0 0.0
-0.008851631943078263 0.00719231905848074 0.0 0.011184943162744909 0.0 0.0
-0.006828254208611785 0.005311700370089169 0.0 0.009048503628890541 0.0 0.0
-0.004977905349486535 0.0036334177835856242 0.0 0.007037999167306616 0.0 0.0
-0.0033480093839298687 0.0022191173483480783 0.0 0.005334657486078175 0.0 0.0
-0.002042840457885839 0.0011690042727091911 0.0 0.004117015584668439 0.0 0.0
-0.0011685833053787654 0.0005733553145844091 0.0 0.003400596433501461 0.0 0.0
-0.0007010697541069001 0.00032337823169764017 0.0 0.0030051859409374613 0.0 0.0
-0.00048422278644437455 0.00025031850517209716 0.0 0.0026980342318051955 0.0 0.0
-0.0003920766034444812 0.00024015254470419005 0.0 0.0024905627316768957 0.0 0.0
-0.00034066181892802074 0.00021433391205784451 0.0 0.002438160366698958 0.0 0.0
-0.00024207326698687465 8.329758481046203e-05 0.0 0.002445743089865815 0.0 0.0
0.00011070228243405017 -0.00031103890224415496 0.0 0.002244803607499322 0.0 0.0
0.00039047761702498327 -0.0018642950466499903 0.0 0.0014803818104207102 0.0 0.0
0.0002599531315203631 -0.0014068990431856626 0.0 -0.0013929413304328206 0.0 0.0
9.768676421530803e-06 -0.00028879127223569356 0.0 -0.0020767758273737193 0.0 0.0
-0.0003489256488250794 0.0001299625776922497 0.0 -0.0023884922908201443 0.0 0.0
-0.0005255031706614668 0.0002886243447986469 0.0 -0.002394104673472463 0.0 0.0
-0.000676449932228224 0.00036621745048857494 0.0 -0.0024227029157593686 0.0 0.0
-0.000913047740284146 0.0004457821103484612 0.0 -0.0025755578604796706 0.0 0.0
-0.0014151146417297506 0.0006636095498000414 0.0 -0.002879034260864206 0.0 0.0
-0.0024827093764307915 0.0013391088416922535 0.0 -0.0036194075083293203 0.0 0.0
-0.004339984848896771 0.002825945667394708 0.0 -0.005093355046225947 0.0 0.0
-0.0069633174368207845 0.0052028183355708225 0.0 -0.00720677382854994 0.0 0.0
-0.010174143291101547 0.008233452840220264 0.0 -0.00974924928344981 0.0 0.0
-0.0138058815267934 0.011698920569128012 0.0 -0.012407198748507525 0.0 0.0
-0.01778982714132635 0.015522581143300532 0.0 -0.015042419350330904 0.0 0.0
-0.022102803475784603 0.019704824492864724 0.0 -0.017637079911235733 0.0 0.0
-0.026651261486627845 0.024166563177633753 0.0 -0.020303482605131498 0.0 0.0
-0.031169439551700373 0.028658746206635194 0.0 -0.023254331468859905 0.0 0.0
-0.035203822863805495 0.03271999420340801 0.0 -0.026710227312000567 0.0 0.0
-0.03813629609153423 0.03572320794951616 0.0 -0.030771429227583066 0.0 0.0
-0.038819525750509974 0.036700240574214074 0.0 -0.03466859942827136 0.0 0.0
-0.034844319095314914 0.03339119598276402 0.0 -0.035721226660695 0.0 0.0
-0.03128893949922565 0.020577096144961577 0.0 2.1354445989274495e-14 0.0 0.0
-0.0348443190953128 0.0333911959827638 0.0 0.035721226660746 0.0 0.0
-0.038819525750498726 0.036700240574195936 0.0 0.03466859942831964 0.0 0.0
-0.038136296091511854 0.03572320794949914 0.0 0.030771429227600934 0.0 0.0
-0.03520382286377541 0.03271999420337818 0.0 0.026710227311990783 0.0 0.0
-0.03116943955166994 0.02865874620660415 0.0 0.023254331468842124 0.0 0.0
-0.02665126148659888 0.02416656317760687 0.0 0.020303482605115365 0.0 0.0
-0.02210280347575656 0.019704824492837482 0.0 0.017637079911223073 0.0 0.0
-0.017789827141297763 0.015522581143268634 0.0 0.015042419350313436 0.0 0.0
-0.013805881526765065 0.011698920569104886 0.0 0.012407198748482229 0.0 0.0
-0.0101741432910775 0.00823345284019308 0.0 0.009749249283424489 0.0 0.0
-0.006963317436802723 0.005202818335555285 0.0 0.007206773828532074 0.0 0.0
-0.004339984848884411 0.002825945667383829 0.0 0.005093355046214565 0.0 0.0
-0.002482709376423453 0.001339108841688189 0.0 0.003619407508322436 0.0 0.0
-0.0014151146417262803 0.0006636095497981135 0.0 0.002879034260860732 0.0 0.0
-0.0009130477402827387 0.0004457821103476541 0.0 0.0025755578604769163 0.0 0.0
-0.0006764499322276044 0.0003662174504873022 0.0 0.0024227029157579596 0.0 0.0
-0.0005255031706610034 0.0002886243447992847 0.0 0.0023941046734725735 0.0 0.0
-0.00034892564882474874 0.00012996257769149142 0.0 0.002388492290819619 0.0 0.0
9.768676421683851e-06 -0.0002887912722363616 0.0 0.0020767758273731516 0.0 0.0
0.00025995313152031585 -0.001406899043183798 0.0 0.0013929413304312453 0.0 0.0
0.00016151567807279834 -0.0010301178485195663 0.0 -0.0012474242970804727 0.0 0.0
-7.085226665646237e-05 -0.00025083037666047165 0.0 -0.0018989530233435338 0.0 0.0
-0.0004471222900146412 0.00017215592868949638 0.0 -0.0022790043914676246 0.0 0.0
-0.0007011184194052411 0.0003583377337172403 0.0 -0.00228962467281384 0.0 0.0
-0.0009493750070500224 0.0004829934581992158 0.0 -0.0022847178467073773 0.0 0.0
-0.0013495530437149365 0.000639715566661202 0.0 -0.002371429565113156 0.0 0.0
-0.00222115736122355 0.0010974222256445816 0.0 -0.0027721114049997285 0.0 0.0
-0.003986855518530849 0.002403971719722476 0.0 -0.003923568128408849 0.0 0.0
-0.0068737573972361375 0.004950649604095094 0.0 -0.0059669756015813934 0.0 0.0
-0.010812561964337507 0.008683266319943372 0.0 -0.008733126596614136 0.0 0.0
-0.015569340651429807 0.013270420951948433 0.0 -0.011849854080837293 0.0 0.0
-0.020942808326047307 0.018466596932304558 0.0 -0.014972219512991412 0.0 0.0
-0.026858499940573752 0.024202774721661196 0.0 -0.017970565380103692 0.0 0.0
-0.033301867954078135 0.030486315901745373 0.0 -0.020889219247535794 0.0 0.0
-0.04019046851860572 0.037259267293966725 0.0 -0.023934528409834836 0.0 0.0
-0.04724349225379936 0.044264786410535904 0.0 -0.027489409177951066 0.0 0.0
-0.05389926001707322 0.05094975967979887 0.0 -0.031995476487197035 0.0 0.0
-0.05916672834247548 0.056375988002202476 0.0 -0.03734728140177453 0.0 0.0
-0.06131070713472299 0.05887480310551679 0.0 -0.04208227098360063 0.0 0.0
-0.0569208845486678 0.05542432879999078 0.0 -0.0434310368958558 0.0 0.0
-0.052515584317638406 0.039761744624726786 0.0 2.4369395390522186e-14 0.0 0.0
-0.05692088454866119 0.05542432879998355 0.0 0.043431036895914425 0.0 0.0
-0.06131070713470467 0.05887480310550512 0.0 0.0420822709836563 0.0 0.0
-0.059166728342443756 0.05637598800217847 0.0 0.03734728140180485 0.0 0.0
-0.05389926001703237 0.05094975967975085 0.0 0.03199547648719191 0.0 0.0
-0.047243492253756805 0.04426478641049905 0.0 0.027489409177931523 0.0 0.0
-0.04019046851856373 0.0372592672939288 0.0 0.02393452840981291 0.0 0.0
-0.0333018679540372 0.030486315901703268 0.0 0.020889219247518385 0.0 0.0
-0.02685849994053359 0.024202774721614168 0.0 0.017970565380086078 0.0 0.0
-0.020942808326008432 0.018466596932270034 0.0 0.014972219512965047 0.0 0.0
-0.015569340651395393 0.01327042095191583 0.0 0.011849854080808169 0.0 0.0
-0.010812561964310734 0.008683266319918968 0.0 0.008733126596593097 0.0 0.0
-0.006873757397217612 0.004950649604078733 0.0 0.0059669756015683145 0.0 0.0
-0.003986855518519419 0.002403971719715203 0.0 0.0039235681284006995 0.0 0.0
-0.002221157361217768 0.001097422225638613 0.0 0.0027721114049959446 0.0 0.0
-0.0013495530437122895 0.0006397155666604575 0.0 0.0023714295651105235 0.0 0.0
-0.0009493750070489722 0.00048299345820043433 0.0 0.002284717846705348 0.0 0.0
-0.0007011184194047292 0.00035833773371676364 0.0 0.0022896246728131234 0.0 0.0
-0.00044712229001442176 0.0001721559286898782 0.0 0.0022790043914658427 0.0 0.0
-7.08522666564857e-05 -0.00025083037666079387 0.0 0.0018989530233424275 0.0 0.0
0.00016151567807260538 -0.001030117848517996 0.0 0.0012474242970787924 0.0 0.0
7.860169026778072e-05 -0.0007149892814128071 0.0 -0.0010720412584230273 0.0 0.0
-0.00014144272716210053 -0.00019936081086014494 0.0 -0.0016962875888096752 0.0 0.0
-0.0005385901425401944 0.00021174519403162443 0.0 -0.002117258008541545 0.0 0.0
-0.0008668980081844922 0.0004221084854119494 0.0 -0.0021275427056389115 0.0 0.0
-0.001213370076187973 0.0005884241238506405 0.0 -0.002074909905778138 0.0 0.0
-0.0018186076229711264 0.0008543836754556467 0.0 -0.002118740137730659 0.0 0.0
-0.003141275289584517 0.0016793933422717027 0.0 -0.002667026530631812 0.0 0.0
-0.0056651183647220315 0.0037463452431835955 0.0 -0.004105757801610145 0.0 0.0
-0.009599577763938088 0.007387852740073395 0.0 -0.00651672700716813 0.0 0.0
-0.014831573862766623 0.012427048175019653 0.0 -0.009636645453838192 0.0 0.0
-0.02109520101516567 0.01851308887776606 0.0 -0.01299352582161624 0.0 0.0
-0.0281852484247017 0.025412543127382715 0.0 -0.01630503809618786 0.0 0.0
-0.03602221921117744 0.03304805914881503 0.0 -0.019472562617513074 0.0 0.0
-0.04459342269028445 0.04142737031581479 0.0 -0.022547307800404745 0.0 0.0
-0.05383604474400003 0.05051960081943745 0.0 -0.025753379606706827 0.0 0.0
-0.06346285427703503 0.06007963950405101 0.0 -0.029609046200787324 0.0 0.0
-0.07273820910265863 0.06941660898892393 0.0 -0.034650257179920436 0.0 0.0
-0.08023336298208561 0.07715804857205498 0.0 -0.0406910219103748 0.0 0.0
-0.08346235737906363 0.0809265862618353 0.0 -0.04613845500392391 0.0 0.0
-0.07825857448263254 0.07677655499701626 0.0 -0.04799961571358397 0.0 0.0
-0.07289911912672457 0.058360409289700724 0.0 2.7266383595403454e-14 0.0 0.0
-0.07825857448262136 0.07677655499700717 0.0 0.04799961571364215 0.0 0.0
-0.083462357379038 0.0809265862618128 0.0 0.04613845500398418 0.0 0.0
-0.08023336298204553 0.07715804857201598 0.0 0.040691021910405564 0.0 0.0
-0.07273820910260857 0.0694166089888726 0.0 0.034650257179918646 0.0 0.0
-0.06346285427698083 0.060079639503998195 0.0 0.02960904620076992 0.0 0.0
-0.053836044743944905 0.05051960081938601 0.0 0.025753379606685785 0.0 0.0
-0.04459342269023063 0.04142737031575916 0.0 0.022547307800384955 0.0 0.0
-0.03602221921112549 0.03304805914876439 0.0 0.019472562617494766 0.0 0.0
-0.028185248424651713 0.02541254312733554 0.0 0.016305038096162013 0.0 0.0
-0.02109520101512125 0.018513088877725584 0.0 0.01299352582158442 0.0 0.0
-0.014831573862731609 0.012427048174984159 0.0 0.009636645453813647 0.0 0.0
-0.009599577763913075 0.007387852740053496 0.0 0.006516727007151632 0.0 0.0
-0.00566511836470577 0.003746345243170973 0.0 0.004105757801600788 0.0 0.0
-0.003141275289575753 0.0016793933422626472 0.0 0.00266702653062621 0.0 0.0
-0.0018186076229673178 0.0008543836754523486 0.0 0.0021187401377299117 0.0 0.0
-0.001213370076186506 0.0005884241238514017 0.0 0.002074909905777633 0.0 0.0
-0.000866898008183843 0.0004221084854103054 0.0 0.0021275427056374526 0.0 0.0
-0.0005385901425397639 0.0002117451940321512 0.0 0.0021172580085395704 0.0 0.0
-0.0001414427271621782 -0.0001993608108600539 0.0 0.0016962875888081714 0.0 0.0
7.860169026728409e-05 -0.0007149892814114589 0.0 0.0010720412584222622 0.0 0.0
6.885468210889477e-06 -0.0004571976650546688 0.0 -0.00088588942844555 0.0 0.0
-0.00020548533609589367 -0.00013817504050653328 0.0 -0.001465404807794769 0.0 0.0
-0.0006249381152436322 0.0002505456684888483 0.0 -0.0019011843968169038 0.0 0.0
-0.0010219484456175652 0.0004789253146308711 0.0 -0.0019081919999787474 0.0 0.0
-0.0014780839242975788 0.0006871425174785783 0.0 -0.0018017427283885234 0.0 0.0
-0.0023415095159290858 0.0011208756392491863 0.0 -0.001840102626710474 0.0 0.0
-0.004179461885534312 0.0024260610162650125 0.0 -0.0024985809857529712 0.0 0.0
-0.007496162557420898 0.005323262186634977 0.0 -0.004097419869726695 0.0 0.0
-0.012469713667668927 0.010033676183339604 0.0 -0.006665482712313324 0.0 0.0
-0.01895134293979967 0.016316190626660648 0.0 -0.009806957679540297 0.0 0.0
-0.026691054285323812 0.023864998395461984 0.0 -0.013135072429276315 0.0 0.0
-0.03549360339803801 0.03245899355986996 0.0 -0.016414491056285598 0.0 0.0
-0.04525122374858689 0.04199433624031758 0.0 -0.019564929921747343 0.0 0.0
-0.055940188018894485 0.05246385491427887 0.0 -0.022629427910083162 0.0 0.0
-0.06752277657661408 0.0638580054231818 0.0 -0.02578730667299369 0.0 0.0
-0.079696197962658 0.07594537308356035 0.0 -0.02949755827019202 0.0 0.0
-0.0915371693858035 0.08788964881758769 0.0 -0.0343957105260734 0.0 0.0
-0.10114060486340393 0.09786170781698462 0.0 -0.04054483577399428 0.0 0.0
-0.10530112660239772 0.1027212835628219 0.0 -0.046628294553337155 0.0 0.0
-0.09933771931447619 0.09785439018438256 0.0 -0.05062948609809885 0.0 0.0
-0.09314531378993508 0.0770282121874822 0.0 2.512226537909612e-14 0.0 0.0
-0.09933771931446124 0.09785439018438645 0.0 0.05062948609815866 0.0 0.0
-0.1053011266023644 0.10272128356277839 0.0 0.046628294553398016 0.0 0.0
-0.10114060486335547 0.09786170781693397 0.0 0.04054483577402706 0.0 0.0
-0.09153716938574387 0.08788964881752849 0.0 0.03439571052607306 0.0 0.0
-0.07969619796259256 0.07594537308349401 0.0 0.02949755827017919 0.0 0.0
-0.06752277657654665 0.06385800542311695 0.0 0.02578730667297657 0.0 0.0
-0.05594018801882826 0.05246385491421814 0.0 0.022629427910062283 0.0 0.0
-0.045251223748522966 0.041994336240253345 0.0 0.01956492992172986 0.0 0.0
-0.035493603397977774 0.03245899355981176 0.0 0.01641449105626245 0.0 0.0
-0.026691054285270716 0.023864998395411906 0.0 0.013135072429244799 0.0 0.0
-0.018951342939756775 0.016316190626614713 0.0 0.00980695767951526 0.0 0.0
-0.012469713667636847 0.010033676183314886 0.0 0.0066654827122951555 0.0 0.0
-0.007496162557399639 0.00532326218661679 0.0 0.004097419869713693 0.0 0.0
-0.004179461885522596 0.00242606101625782 0.0 0.0024985809857470623 0.0 0.0
-0.002341509515923645 0.001120875639245241 0.0 0.0018401026267097225 0.0 0.0
-0.001478083924295941 0.0006871425174758973 0.0 0.0018017427283878247 0.0 0.0
-0.0010219484456169626 0.00047892531463083327 0.0 0.0019081919999755386 0.0 0.0
-0.0006249381152435047 0.0002505456684879844 0.0 0.0019011843968150008 0.0 0.0
-0.00020548533609585518 -0.00013817504050608412 0.0 0.0014654048077932715 0.0 0.0
6.8854682113244945e-06 -0.00045719766505395137 0.0 0.000885889428445764 0.0 0.0
-5.367776932028008e-05 -0.0002552247134539492 0.0 -0.0006956030849194919 0.0 0.0
-0.0002629711214398297 -7.232698993333303e-05 0.0 -0.0012082339786272911 0.0 0.0
-0.0007069050503319904 0.00028934292482856697 0.0 -0.001630859582769676 0.0 0.0
-0.0011701794331514775 0.0005286639846145626 0.0 -0.0016311755196058268 0.0 0.0
-0.0017574597967930706 0.0007894709963442414 0.0 -0.0014760815838959556 0.0 0.0
-0.002930259079030422 0.0014642982047095299 0.0 -0.001527761446714021 0.0 0.0
-0.005332323743580183 0.0033422155074061093 0.0 -0.0022364735988339335 0.0 0.0
-0.009452333070764485 0.007085846539444754 0.0 -0.00387845117908984 0.0 0.0
-0.015422714060624971 0.012796322967549088 0.0 -0.006303246633462275 0.0 0.0
-0.023115557599422357 0.020277424659633232 0.0 -0.009204014312651092 0.0 0.0
-0.03232147723765674 0.029272713823310377 0.0 -0.012294447408219457 0.0 0.0
-0.04283123513566538 0.039556003815542196 0.0 -0.015337927065509242 0.0 0.0
-0.054512631273314516 0.050997884768907986 0.0 -0.018279249944185522 0.0 0.0
-0.0673134854601508 0.06355660575578245 0.0 -0.021170847538953735 0.0 0.0
-0.08117690476497472 0.07720317318372376 0.0 -0.024084471586631292 0.0 0.0
-0.09579476668878473 0.09170776139278129 0.0 -0.027253606406818835 0.0 0.0
-0.11010825723047041 0.10614912706858641 0.0 -0.031311655597013245 0.0 0.0
-0.12177563334016187 0.11830165929119968 0.0 -0.036934914514492 0.0 0.0
-0.12697565307480885 0.12435008751941515 0.0 -0.043958138617026785 0.0 0.0
-0.12056016732595451 0.11910180274416893 0.0 -0.051788384954241685 0.0 0.0
-0.11373084627461585 0.09623074157887487 0.0 2.3207130661617725e-14 0.0 0.0
-0.12056016732593441 0.11910180274415713 0.0 0.05178838495429948 0.0 0.0
-0.12697565307476805 0.12435008751937632 0.0 0.04395813861708018 0.0 0.0
-0.12177563334010487 0.1183016592911437 0.0 0.03693491451452444 0.0 0.0
-0.11010825723040135 0.10614912706851172 0.0 0.03131165559701567 0.0 0.0
-0.09579476668870822 0.09170776139271043 0.0 0.02725360640681173 0.0 0.0
-0.08117690476489611 0.07720317318365019 0.0 0.024084471586617716 0.0 0.0
-0.0673134854600727 0.06355660575571331 0.0 0.02117084753893364 0.0 0.0
-0.0545126312732385 0.05099788476882953 0.0 0.018279249944166128 0.0 0.0
-0.042831235135594475 0.0395560038154731 0.0 0.015337927065486045 0.0 0.0
-0.03232147723759433 0.029272713823251542 0.0 0.012294447408190136 0.0 0.0
-0.023115557599371252 0.02027742465958535 0.0 0.009204014312628479 0.0 0.0
-0.015422714060586547 0.01279632296750916 0.0 0.006303246633448436 0.0 0.0
-0.009452333070738244 0.007085846539424031 0.0 0.003878451179075624 0.0 0.0
-0.0053323237435651 0.0033422155073936336 0.0 0.002236473598827453 0.0 0.0
-0.002930259079023853 0.0014642982047038593 0.0 0.0015277614467109103 0.0 0.0
-0.0017574597967910663 0.0007894709963416174 0.0 0.0014760815838943302 0.0 0.0
-0.0011701794331507318 0.0005286639846150395 0.0 0.0016311755196040919 0.0 0.0
-0.0007069050503314797 0.0002893429248284857 0.0 0.001630859582768769 0.0 0.0
-0.0002629711214396564 -7.232698993284411e-05 0.0 0.0012082339786265832 0.0 0.0
-5.367776932034375e-05 -0.0002552247134534794 0.0 0.0006956030849209326 0.0 0.0
-0.00010064928386570112 -0.00010910346269349006 0.0 -0.000506603594716035 0.0 0.0
-0.00031131928659535 -7.463167122861662e-06 0.0 -0.000927811941521458 0.0 0.0
-0.000783728891225358 0.0003273230132180749 0.0 -0.0013047002854078545 0.0 0.0
-0.0013162241208941087 0.0005722745590204687 0.0 -0.001292793094248364 0.0 0.0
-0.0020645350684115917 0.0009106679088913023 0.0 -0.0011001446034501657 0.0 0.0
-0.0035980620995872716 0.0019063770726344673 0.0 -0.001162430100824859 0.0 0.0
-0.006595477968736479 0.004420654215573662 0.0 -0.0018784329204734555 0.0 0.0
-0.01148414660412422 0.00896079498685845 0.0 -0.0033398347243922192 0.0 0.0
-0.01840332049875104 0.015610664823699924 0.0 -0.0053811701686196835 0.0 0.0
-0.027290591561163424 0.02426622625728642 0.0 -0.007851382318254411 0.0 0.0
-0.037947773923891065 0.03469285388263761 0.0 -0.010489533004885001 0.0 0.0
-0.05016221855637061 0.04666172417372747 0.0 -0.013091644493485207 0.0 0.0
-0.06377500595753212 0.06001785144322912 0.0 -0.015623980282640601 0.0 0.0
-0.07867690029795335 0.07466922938252468 0.0 -0.018155124738007074 0.0 0.0
-0.09474583813971464 0.09050945597213265 0.0 -0.02067752614176892 0.0 0.0
-0.11163365631606786 0.10724995370538697 0.0 -0.02309954453795197 0.0 0.0
-0.1282499113134818 0.12396297870679718 0.0 -0.025719444135023025 0.0 0.0
-0.14203382441045878 0.13830507426364472 0.0 -0.02997501429714096 0.0 0.0
-0.14864497109667246 0.14594086757123992 0.0 -0.038066079436195055 0.0 0.0
-0.14230009052904596 0.1409307497669687 0.0 -0.05120890978285596 0.0 0.0
-0.13509229256381677 0.11643128423479077 0.0 2.0209528495129803e-14 0.0 0.0
-0.1423000905290217 0.14093074976694267 0.0 0.05120890978290709 0.0 0.0
-0.14864497109662486 0.14594086757119945 0.0 0.0380660794362456 0.0 0.0
-0.1420338244103926 0.13830507426358585 0.0 0.02997501429716322 0.0 0.0
-0.12824991131340208 0.12396297870671588 0.0 0.025719444135025842 0.0 0.0
-0.11163365631598005 0.10724995370530034 0.0 0.02309954453794774 0.0 0.0
-0.09474583813962482 0.09050945597204062 0.0 0.020677526141757947 0.0 0.0
-0.07867690029786402 0.07466922938244228 0.0 0.018155124737991368 0.0 0.0
-0.06377500595744451 0.060017851443144324 0.0 0.01562398028262733 0.0 0.0
-0.05016221855628891 0.04666172417364272 0.0 0.013091644493465358 0.0 0.0
-0.037947773923819976 0.034692853882570596 0.0 0.010489533004865397 0.0 0.0
-0.027290591561104915 0.024266226257231818 0.0 0.007851382318235053 0.0 0.0
-0.018403320498706664 0.01561066482365462 0.0 0.005381170168605666 0.0 0.0
-0.011484146604093174 0.008960794986831624 0.0 0.003339834724380367 0.0 0.0
-0.0065954779687178436 0.0044206542155547325 0.0 0.0018784329204648825 0.0 0.0
-0.003598062099578374 0.0019063770726266771 0.0 0.001162430100822324 0.0 0.0
-0.0020645350684086396 0.0009106679088914298 0.0 0.0011001446034499913 0.0 0.0
-0.001316224120893462 0.0005722745590209088 0.0 0.0012927930942493295 0.0 0.0
-0.0007837288912248818 0.0003273230132171188 0.0 0.0013047002854067755 0.0 0.0
-0.00031131928659512253 -7.463167122514984e-06 0.0 0.0009278119415215664 0.0 0.0
-0.00010064928386548241 -0.00010910346269298502 0.0 0.00050660359471654 0.0 0.0
-0.00012915023654132095 -1.9474031410517562e-05 0.0 -0.00032913969357161225 0.0 0.0
-0.00034489966676652857 4.938023618901556e-05 0.0 -0.0006281377709341416 0.0 0.0
-0.0008529909753369157 0.00036150451813308143 0.0 -0.0009157345217659641 0.0 0.0
-0.0014680975575824973 0.0006146136178111976 0.0 -0.000887003971129042 0.0 0.0
-0.0024142696398312016 0.0010699149466778112 0.0 -0.0006835631399100315 0.0 0.0
-0.0043551426821706336 0.0024734625104150688 0.0 -0.0007476573745640399 0.0 0.0
-0.007934729227031853 0.005620218652024487 0.0 -0.001354227298927032 0.0 0.0
-0.013546633518794315 0.010885514737491518 0.0 -0.0024167184862553767 0.0 0.0
-0.021385245515549614 0.018440104550006407 0.0 -0.003922936803810625 0.0 0.0
-0.0314396721806368 0.028242447377281862 0.0 -0.005756522567321097 0.0 0.0
-0.04353398441538369 0.040085340249572894 0.0 -0.007728264050254122 0.0 0.0
-0.057448495716970374 0.053736311193014794 0.0 -0.009680032301707091 0.0 0.0
-0.07299518652495937 0.06901260953827033 0.0 -0.011602008781005138 0.0 0.0
-0.09000075011303457 0.08575938952507757 0.0 -0.013573206667763531 0.0 0.0
-0.10820812873778625 0.10374621738684506 0.0 -0.0155318518421127 0.0 0.0
-0.1271377290269171 0.122531933745019 0.0 -0.017175600997439838 0.0 0.0
-0.14576379133250142 0.14117205951546224 0.0 -0.01831019234359823 0.0 0.0
-0.1617343068638747 0.15756286841853503 0.0 -0.020297762243992094 0.0 0.0
-0.17038124091149562 0.16746200481250503 0.0 -0.027975583097993893 0.0 0.0
-0.16495230498275104 0.16382811220849097 0.0 -0.04780952503738203 0.0 0.0
-0.15778777982269657 0.13828073213767547 0.0 1.42785089307651e-14 0.0 0.0
-0.16495230498272223 0.16382811220846596 0.0 0.04780952503742115 0.0 0.0
-0.17038124091144072 0.16746200481244775 0.0 0.027975583098036147 0.0 0.0
-0.16173430686379925 0.157562868418466 0.0 0.020297762244009143 0.0 0.0
-0.14576379133241082 0.1411720595153672 0.0 0.01831019234359845 0.0 0.0
-0.1271377290268179 0.12253193374491747 0.0 0.017175600997434634 0.0 0.0
-0.10820812873768482 0.10374621738674217 0.0 0.015531851842105607 0.0 0.0
-0.09000075011293339 0.08575938952498287 0.0 0.013573206667755838 0.0 0.0
-0.0729951865248602 0.06901260953817358 0.0 0.011602008780994195 0.0 0.0
-0.0574484957168781 0.05373631119292219 0.0 0.00968003230169211 0.0 0.0
-0.04353398441530385 0.04008534024949665 0.0 0.007728264050240612 0.0 0.0
-0.031439672180571455 0.028242447377211384 0.0 0.005756522567308375 0.0 0.0
-0.02138524551549955 0.018440104549958498 0.0 0.00392293680379952 0.0 0.0
-0.013546633518758846 0.010885514737458449 0.0 0.002416718486246483 0.0 0.0
-0.00793472922700941 0.00562021865200229 0.0 0.0013542272989191953 0.0 0.0
-0.004355142682159023 0.002473462510405935 0.0 0.000747657374561755 0.0 0.0
-0.0024142696398268926 0.0010699149466778847 0.0 0.0006835631399078348 0.0 0.0
-0.0014680975575814272 0.0006146136178107809 0.0 0.0008870039711305047 0.0 0.0
-0.0008529909753361266 0.00036150451813060197 0.0 0.0009157345217658036 0.0 0.0
-0.0003448996667661866 4.9380236189150294e-05 0.0 0.0006281377709346945 0.0 0.0
-0.00012915023654143604 -1.9474031410275602e-05 0.0 0.00032913969357280514 0.0 0.0
-0.00013051086336717823 1.3879873126603033e-05 0.0 -0.00018507714394137896 0.0 0.0
-0.00035351639061875913 8.74159618888371e-05 0.0 -0.0003147810749353981 0.0 0.0
-0.0009106832332465842 0.0003861985726678412 0.0 -0.00044534768703807516 0.0 0.0
-0.0016382992496423035 0.0006694841474478831 0.0 -0.00041007327822942377 0.0 0.0
-0.0028249181697949373 0.0012952285188052271 0.0 -0.0002371846133676313 0.0 0.0
-0.005189702431803859 0.0031592298437120307 0.0 -0.000261231625874192 0.0 0.0
-0.00932108841560844 0.006890845891741552 0.0 -0.0005902432241540414 0.0 0.0
-0.015613303103153398 0.012829840301497336 0.0 -0.0011457993395774587 0.0 0.0
-0.02433374871988491 0.021248544888259308 0.0 -0.0019360790444727682 0.0 0.0
-0.035526500965825034 0.03216599512051355 0.0 -0.0029247899272143085 0.0 0.0
-0.04904206833919281 0.04541094448162186 0.0 -0.004005660594823506 0.0 0.0
-0.06465381971917183 0.06074367182107915 0.0 -0.005100398047630339 0.0 0.0
-0.08213676457514997 0.07794152310932002 0.0 -0.006226077505253876 0.0 0.0
-0.10123059412630565 0.09677063234110185 0.0 -0.007401545895270274 0.0 0.0
-0.12153392845612818 0.11686989214141383 0.0 -0.008558563022788087 0.0 0.0
-0.14236355355696653 0.1375925385658046 0.0 -0.009456372891102426 0.0 0.0
-0.16260563940899117 0.15783611397196198 0.0 -0.009696151005215873 0.0 0.0
-0.18040493057517565 0.1757634158729732 0.0 -0.0096389488968144 0.0 0.0
-0.19193542166680136 0.18807446288606822 0.0 -0.013784499964473394 0.0 0.0
-0.1890939959044166 0.188221167730512 0.0 -0.03591659864328187 0.0 0.0
-0.18271739921318644 0.16365461802385223 0.0 8.132383655379272e-15 0.0 0.0
-0.18909399590438306 0.18822116773048259 0.0 0.03591659864330349 0.0 0.0
-0.191935421666739 0.1880744628860029 0.0 0.013784499964495267 0.0 0.0
-0.1804049305750896 0.17576341587288602 0.0 0.009638948896821427 0.0 0.0
-0.1626056394088884 0.15783611397185274 0.0 0.009696151005215179 0.0 0.0
-0.14236355355685543 0.137592538565694 0.0 0.009456372891101952 0.0 0.0
-0.12153392845601439 0.11686989214130483 0.0 0.008558563022784845 0.0 0.0
-0.10123059412619334 0.09677063234099055 0.0 0.007401545895267743 0.0 0.0
-0.0821367645750403 0.07794152310920952 0.0 0.006226077505245873 0.0 0.0
-0.06465381971906901 0.06074367182097985 0.0 0.005100398047622211 0.0 0.0
-0.04904206833910479 0.045410944481539414 0.0 0.004005660594814328 0.0 0.0
-0.03552650096575315 0.03216599512044187 0.0 0.0029247899272069767 0.0 0.0
-0.024333748719829185 0.02124854488820262 0.0 0.001936079044465498 0.0 0.0
-0.015613303103113837 0.012829840301459249 0.0 0.0011457993395737956 0.0 0.0
-0.009321088415582922 0.0068908458917182926 0.0 0.0005902432241521587 0.0 0.0
-0.00518970243179025 0.003159229843698553 0.0 0.0002612316258746089 0.0 0.0
-0.002824918169789502 0.0012952285188035189 0.0 0.00023718461336728338 0.0 0.0
-0.001638299249640363 0.0006694841474469761 0.0 0.00041007327822956607 0.0 0.0
-0.0009106832332459885 0.00038619857266653987 0.0 0.0004453476870383535 0.0 0.0
-0.00035351639061844445 8.741596188891291e-05 0.0 0.00031478107493666764 0.0 0.0
-0.00013051086336656506 1.3879873126464752e-05 0.0 0.00018507714394103353 0.0 0.0
-8.927924765100498e-05 1.6630358469443367e-05 0.0 -0.00011281924737909586 0.0 0.0
-0.0003190919780966724 0.00010003863184506603 0.0 -0.00013085607236724552 0.0 0.0
-0.0009521191554210386 0.00039530787258854874 0.0 -0.00014648135729011322 0.0 0.0
-0.0018459648035212604 0.0007024062800864432 0.0 -7.921447022517857e-05 0.0 0.0
-0.003306578147935505 0.001429253086671669 0.0 0.00018958548620179566 0.0 0.0
-0.0060832940671556555 0.003526847665112435 0.0 0.000420031563447204 0.0 0.0
-0.0107307743700571 0.007538799692946619 0.0 0.0005319657636143262 0.0 0.0
-0.017660763635661155 0.013803820498733771 0.0 0.0005664450095499347 0.0 0.0
-0.02721622208151735 0.02264265208556549 0.0 0.0005165840850948717 0.0 0.0
-0.03951264963886977 0.03410973680748295 0.0 0.00033974206917069573 0.0 0.0
-0.05443545517872822 0.048051850689766314 0.0 7.608554333046486e-05 0.0 0.0
-0.07174532461371484 0.06422655359632791 0.0 -0.0002616399616965238 0.0 0.0
-0.0911500548373756 0.08238455131354284 0.0 -0.0007009727376922886 0.0 0.0
-0.11230459129851177 0.10224802797534104 0.0 -0.0012146543539925288 0.0 0.0
-0.13468521915207196 0.12339711036522075 0.0 -0.001809281436871547 0.0 0.0
-0.15739575826569138 0.1450758179871294 0.0 -0.002365549785951458 0.0 0.0
-0.17905010844419036 0.16605683321113207 0.0 -0.002588427873946631 0.0 0.0
-0.19783055312188616 0.1845753060793557 0.0 -0.002302519161174032 0.0 0.0
-0.21158081619012845 0.19796527977969017 0.0 -0.004602655705568854 0.0 0.0
-0.21502325977060752 0.20082772592578982 0.0 -0.02748018430474443 0.0 0.0
-0.21313852802492061 0.1775924437481083 0.0 2.6506574712925612e-15 0.0 0.0
-0.21502325977057035 0.20082772592575962 0.0 0.027480184304748703 0.0 0.0
-0.2115808161900573 0.1979652797796214 0.0 0.0046026557055765735 0.0 0.0
-0.19783055312178752 0.1845753060792579 0.0 0.00230251916117415 0.0 0.0
-0.17905010844407512 0.16605683321101977 0.0 0.0025884278739453405 0.0 0.0
-0.15739575826556848 0.1450758179870117 0.0 0.0023655497859523325 0.0 0.0
-0.13468521915194592 0.12339711036510066 0.0 0.0018092814368700152 0.0 0.0
-0.11230459129838821 0.10224802797522216 0.0 0.0012146543539898191 0.0 0.0
-0.0911500548372553 0.08238455131342749 0.0 0.0007009727376886456 0.0 0.0
-0.07174532461360114 0.0642265535962233 0.0 0.0002616399616947006 0.0 0.0
-0.05443545517863088 0.048051850689681826 0.0 -7.608554333329333e-05 0.0 0.0
-0.03951264963879118 0.03410973680741433 0.0 -0.000339742069173833 0.0 0.0
-0.027216222081455972 0.022642652085508603 0.0 -0.0005165840850966095 0.0 0.0
-0.017660763635616767 0.013803820498693175 0.0 -0.0005664450095486059 0.0 0.0
-0.010730774370028407 0.007538799692925294 0.0 -0.000531965763612634 0.0 0.0
-0.006083294067140033 0.0035268476650958955 0.0 -0.0004200315634445105 0.0 0.0
-0.003306578147929368 0.0014292530866695575 0.0 -0.00018958548619768035 0.0 0.0
-0.0018459648035194579 0.0007024062800864244 0.0 7.92144702236824e-05 0.0 0.0
-0.0009521191554199531 0.0003953078725880883 0.0 0.00014648135728859808 0.0 0.0
-0.00031909197809602363 0.00010003863184526482 0.0 0.00013085607236936622 0.0 0.0
-8.927924765085433e-05 1.6630358469201908e-05 0.0 0.00011281924737650384 0.0 0.0
SCALARS Statev float 8
LOOKUP_TABLE default
0.0 0.019966867617527417 0.01605625037767497 -0.019034005279282916 0.002977754901607934 -0.0012166627671639334 0.0 0.0
0.0 0.007053020619667946 0.005236474276787792 -0.0033548142926491963 -0.0018816599841385935 -0.007325619831531284 0.0 0.0
0.0 0.00020326985652872637 0.000258484360066161 -0.00015656246066707156 -0.00010192189939908962 -0.00039277606271902594 0.0 0.0
0.0 0.00020089050505740216 0.0001150087882133056 -8.249361591052256e-05 -3.251517230278326e-05 3.428944761797937e-05 0.0 0.0
0.0 0.001224375374258751 0.000897762498211338 -0.0006616860606709331 -0.00023607643754040505 0.00018404769452789443 0.0 0.0
0.0 0.0032662201090050934 0.0031832108698679447 -0.0025601899856089513 -0.0006230208842589956 0.00037595185712557344 0.0 0.0
0.0 0.008068220668037238 0.007365535198456114 -0.006405405205462979 -0.0009601299929931255 0.0005203262973056772 0.0 0.0
0.0 0.015441120015149724 0.013881903484214177 -0.01265723136607098 -0.0012246721181431947 0.0005807576980179445 0.0 0.0
0.0 0.02587111512109903 0.023026339322085823 -0.021552108243367576 -0.0014742310787182315 0.0005543338191690566 0.0 0.0
0.0 0.03949977371762815 0.03489479793285001 -0.03314069974650917 -0.0017540981863408739 0.00040548635796553025 0.0 0.0
0.0 0.05618812581735177 0.04937403285315125 -0.0472918345405225 -0.002082198312628734 0.00016272699581637877 0.0 0.0
0.0 0.07534380101930294 0.06623809430749453 -0.06377735693802072 -0.0024607373694737196 -0.0001643024198563351 0.0 0.0
0.0 0.09701416820399925 0.0852167233874174 -0.08233894410757579 -0.002877779279841536 -0.0005894431279061545 0.0 0.0
0.0 0.12081249974102193 0.10602559082310793 -0.10270741401682301 -0.0033181768062846583 -0.0010630314631595048 0.0 0.0
0.0 0.14631268443350673 0.1282892882049589 -0.12452700969480007 -0.0037622785101586865 -0.0016073723062466343 0.0 0.0
0.0 0.17285648994672928 0.151396665731599 -0.14720898958163098 -0.004187676149967907 -0.002193567080762883 0.0 0.0
0.0 0.199325854504783 0.1744076588910188 -0.16983640411846931 -0.004571254772549619 -0.0027026425889748263 0.0 0.0
0.0 0.2242477409860813 0.19605611959928246 -0.19116589181574917 -0.0048902277835332925 -0.002946285987871944 0.0 0.0
0.0 0.24588610115234677 0.21485327294711554 -0.20971158881706956 -0.005141684130045697 -0.0027754168782736783 0.0 0.0
0.0 0.26190843204712166 0.22897858168276555 -0.2236818824149521 -0.005296699267813761 -0.0033169366273571635 0.0 0.0
0.0 0.26881603738204357 0.2346912417022754 -0.22941198574961852 -0.005279255952656524 4.135580766728708e-15 0.0 0.0
0.0 0.2619084320470845 0.22897858168273297 -0.2236818824149209 -0.00529669926781233 0.0033169366273673555 0.0 0.0
0.0 0.24588610115227527 0.21485327294705223 -0.209711588817008 -0.00514168413004396 0.0027754168782813653 0.0 0.0
0.0 0.22424774098597378 0.19605611959918848 -0.191165891815657 -0.004890227783531357 0.002946285987877607 0.0 0.0
0.0 0.19932585450465634 0.17440765889090856 -0.16983640411836193 -0.004571254772546902 0.0027026425889737976 0.0 0.0
0.0 0.17285648994659558 0.15139666573148194 -0.14720898958151568 -0.004187676149966148 0.0021935670807569875 0.0 0.0
0.0 0.14631268443337206 0.12828928820484164 -0.12452700969468439 -0.003762278510157088 0.0016073723062463305 0.0 0.0
0.0 0.12081249974088389 0.10602559082298746 -0.10270741401670494 -0.0033181768062826413 0.0010630314631597387 0.0 0.0
0.0 0.09701416820387168 0.08521672338730608 -0.08233894410746698 -0.0028777792798390005 0.0005894431279021787 0.0 0.0
0.0 0.07534380101918585 0.06623809430739216 -0.06377735693792046 -0.0024607373694715555 0.00016430241985165546 0.0 0.0
0.0 0.05618812581724868 0.049374032853061335 -0.047291834540434306 -0.00208219831262699 -0.00016272699582221047 0.0 0.0
0.0 0.039499773717548266 0.034894797932779956 -0.033140699746441175 -0.001754098186338851 -0.0004054863579677217 0.0 0.0
0.0 0.02587111512104204 0.023026339322035426 -0.021552108243318914 -0.001474231078716486 -0.000554333819168968 0.0 0.0
0.0 0.015441120015107584 0.013881903484176512 -0.012657231366034558 -0.0012246721181419366 -0.0005807576980184163 0.0 0.0
0.0 0.008068220668011446 0.007365535198432243 -0.006405405205440684 -0.0009601299929915536 -0.0005203262973049835 0.0 0.0
0.0 0.0032662201089923466 0.003183210869855407 -0.002560189985598053 -0.0006230208842573579 -0.00037595185712461533 0.0 0.0
0.0 0.0012243753742540448 0.0008977624982079402 -0.0006616860606684632 -0.0002360764375394753 -0.0001840476945269449 0.0 0.0
0.0 0.00020089050505583527 0.00011500878821261712 -8.249361591003292e-05 -3.2515172302583506e-05 -3.428944761782739e-05 0.0 0.0
0.0 0.00020326985652775018 0.00025848436006539066 -0.00015656246066659814 -0.00010192189939879168 0.00039277606271743943 0.0 0.0
0.0 0.007053020619657183 0.00523647427678238 -0.0033548142926450412 -0.00188165998413733 0.007325619831521553 0.0 0.0
0.0 0.019966867617505712 0.016056250377660564 -0.019034005279263036 0.002977754901602451 0.0012166627671207362 0.0 0.0
0.0 0.01639767686544349 0.012366091101905608 -0.01585970330141488 0.0034936121995092625 -0.0007199120920120136 0.0 0.0
0.0 0.004456044128207219 0.0032061024168143592 -0.0020409412654649496 -0.001165161151349401 -0.005884443368697176 0.0 0.0
0.0 -9.175162177964963e-05 -7.797554602265652e-05 7.324619445283305e-05 4.729351569823468e-06 -0.00011476443679124685 0.0 0.0
0.0 5.72746310420911e-05 4.857255334155941e-05 -3.4999582308620114e-05 -1.3572971032939295e-05 1.6304455410208125e-05 0.0 0.0
0.0 0.0007230169282487785 0.0006051740218486133 -0.00044976611773331386 -0.0001554079041152993 7.133275419403862e-05 0.0 0.0
0.0 0.0028357346686695662 0.0025010141278122015 -0.002032499242413784 -0.00046851488539841974 4.7739425800510056e-05 0.0 0.0
0.0 0.006910159573651988 0.006287752684578037 -0.005541109499247877 -0.0007466431853301587 -0.00027846354386755695 0.0 0.0
0.0 0.013755866853895881 0.01226439979552384 -0.011352061152965673 -0.0009123386425581693 -0.0008303427213060532 0.0 0.0
0.0 0.023489259805362775 0.020705752898430827 -0.01968306088640822 -0.0010226920120225986 -0.0016091497816558948 0.0 0.0
0.0 0.0361242716929348 0.03165176220347635 -0.030533958079327423 -0.0011178041241489231 -0.002584829656360051 0.0 0.0
0.0 0.05152625082494227 0.04495799246918806 -0.04374798775153455 -0.0012100047176535507 -0.0036690222839839337 0.0 0.0
0.0 0.06954076582131634 0.06040587143766172 -0.05910145986139307 -0.001304411576268619 -0.004784972437807887 0.0 0.0
0.0 0.08933080713535813 0.07778348352881609 -0.07638231953065557 -0.0014011639981604805 -0.005931510552295729 0.0 0.0
0.0 0.11136247397534953 0.09685145973389507 -0.09535824477653142 -0.0014932149573636197 -0.007106440532187592 0.0 0.0
0.0 0.1349541753724216 0.1172781023553672 -0.11570785400713178 -0.0015702483482352347 -0.008269781878956262 0.0 0.0
0.0 0.1595158589533272 0.13852338167061057 -0.1368998635730377 -0.0016235180975729545 -0.009312409499886709 0.0 0.0
0.0 0.18410652818395795 0.15975146951145094 -0.1581036103341725 -0.0016478591772782947 -0.009976141385405578 0.0 0.0
0.0 0.20738992203023177 0.17981545853075523 -0.17817095671754604 -0.0016445018132092517 -0.009917671953518753 0.0 0.0
0.0 0.22760067246292054 0.19723275775917243 -0.19562967143366386 -0.0016030863255084302 -0.008989444566070221 0.0 0.0
0.0 0.24236205194626573 0.20987318131363122 -0.2084338933029553 -0.0014392880106759646 -0.008058067862613653 0.0 0.0
0.0 0.24882287047357302 0.2148150498196146 -0.2136271765545522 -0.0011878732650625289 8.120240591047434e-15 0.0 0.0
0.0 0.24236205194623242 0.2098731813136015 -0.2084338933029259 -0.0014392880106755108 0.008058067862636544 0.0 0.0
0.0 0.22760067246285498 0.1972327577591153 -0.19562967143360732 -0.0016030863255077949 0.008989444566092096 0.0 0.0
0.0 0.20738992203013598 0.17981545853067246 -0.17817095671746344 -0.001644501813209105 0.009917671953532535 0.0 0.0
0.0 0.18410652818384354 0.15975146951135227 -0.15810361033407422 -0.001647859177278159 0.009976141385407247 0.0 0.0
0.0 0.1595158589532043 0.13852338167050463 -0.1368998635729314 -0.0016235180975728764 0.009312409499880533 0.0 0.0
0.0 0.13495417537229754 0.11727810235525947 -0.11570785400702446 -0.0015702483482350395 0.008269781878954134 0.0 0.0
0.0 0.11136247397522467 0.09685145973378682 -0.09535824477642388 -0.0014932149573628527 0.0071064405321849145 0.0 0.0
0.0 0.08933080713523878 0.077783483528713 -0.07638231953055283 -0.001401163998160134 0.005931510552287719 0.0 0.0
0.0 0.06954076582120587 0.06040587143756576 -0.0591014598612974 -0.0013044115762683918 0.0047849724378003135 0.0 0.0
0.0 0.05152625082484669 0.044957992469105645 -0.04374798775145224 -0.0012100047176534059 0.003669022283973496 0.0 0.0
0.0 0.036124271692861615 0.03165176220341212 -0.030533958079264064 -0.0011178041241480046 0.0025848296563528725 0.0 0.0
0.0 0.023489259805310053 0.02070575289838404 -0.019683060886362336 -0.0010226920120217078 0.0016091497816521348 0.0 0.0
0.0 0.01375586685385639 0.01226439979548881 -0.011352061152931267 -0.0009123386425575669 0.0008303427213019834 0.0 0.0
0.0 0.006910159573628581 0.006287752684556812 -0.005541109499227714 -0.0007466431853290899 0.0002784635438654896 0.0 0.0
0.0 0.0028357346686569414 0.0025010141278011227 -0.0020324992424040644 -0.000468514885397057 -4.773942580125279e-05 0.0 0.0
0.0 0.0007230169282443853 0.0006051740218452774 -0.0004497661177308323 -0.00015540790411444486 -7.133275419357736e-05 0.0 0.0
0.0 5.727463104152741e-05 4.8572553341614264e-05 -3.499958230868079e-05 -1.3572971032933352e-05 -1.630445541005601e-05 0.0 0.0
0.0 -9.175162178027966e-05 -7.797554602255482e-05 7.324619445271921e-05 4.729351569835463e-06 0.00011476443679085495 0.0 0.0
0.0 0.004456044128196342 0.0032061024168084417 -0.0020409412654606614 -0.001165161151347779 0.005884443368685781 0.0 0.0
0.0 0.016397676865419944 0.012366091101887682 -0.015859703301392587 0.003493612199504902 0.0007199120919793245 0.0 0.0
0.0 0.01235652210577573 0.009122647245118324 -0.012013708915508261 0.0028910616703899357 -0.003356110311441645 0.0 0.0
0.0 0.003079294260797068 0.001970582528952527 -0.0011108441481116624 -0.0008597383808408688 -0.005116123406983086 0.0 0.0
0.0 8.000883203505979e-07 1.6476653598594654e-06 -1.4324819335283576e-06 -2.1518342633110376e-07 9.422360662209354e-07 0.0 0.0
0.0 1.7509871004769652e-06 1.1988758346909433e-07 5.752765536537389e-07 -6.951641371229642e-07 6.752966268316464e-06 0.0 0.0
0.0 0.00035248239206076167 0.00031349615445181676 -0.00022701592437168592 -8.648023008013078e-05 1.1313562572303024e-05 0.0 0.0
0.0 0.0020577682557995046 0.0017666693213864416 -0.0013967077029765772 -0.00036996161840986317 -0.00013485331315783773 0.0 0.0
0.0 0.005435099006175889 0.0050135959077122726 -0.004334500064159389 -0.0006790958435528829 -0.0007708508708616994 0.0 0.0
0.0 0.011565369579683054 0.010312083635660866 -0.009448671539128265 -0.0008634120965325912 -0.001832312724761499 0.0 0.0
0.0 0.020282354708035133 0.017873300391407408 -0.01689940816826261 -0.0009738922231447766 -0.0033134531020784846 0.0 0.0
0.0 0.03169157468408419 0.027682266573506004 -0.02662042560134238 -0.001061840972163629 -0.005127332879420224 0.0 0.0
0.0 0.045511586833442835 0.03956714216739558 -0.0384194036688011 -0.0011477384985944634 -0.007109243666108704 0.0 0.0
0.0 0.06138278460476643 0.053320377610647424 -0.052083050737652764 -0.001237326872994669 -0.009105450863337762 0.0 0.0
0.0 0.07944675853850562 0.06876285599556979 -0.06743411000140329 -0.0013287459941664272 -0.011083627682296222 0.0 0.0
0.0 0.09880552924034604 0.08572544364053625 -0.08431004347151362 -0.0014154001690226772 -0.013092982575761658 0.0 0.0
0.0 0.1198827765764445 0.10393584088706868 -0.10244637637975955 -0.0014894645073092602 -0.015086360860001997 0.0 0.0
0.0 0.14187986066229777 0.12294898279438542 -0.12140589578685015 -0.0015430870075351035 -0.01684891635839067 0.0 0.0
0.0 0.16400382502283767 0.1420685063061994 -0.14049718323350904 -0.0015713230726905232 -0.01796927611349166 0.0 0.0
0.0 0.18505305035675207 0.16026703216905497 -0.15870036635933674 -0.0015666658097184263 -0.017946659464795525 0.0 0.0
0.0 0.2033499559016789 0.17605526008676026 -0.17455142994124273 -0.0015038301455172203 -0.016522408418311856 0.0 0.0
0.0 0.21660778963457314 0.1874481427164282 -0.18604201944450277 -0.0014061232719249973 -0.013787601064779378 0.0 0.0
0.0 0.22269307710553016 0.1920385411894132 -0.19092305794842285 -0.0011154832409903564 1.585970937911796e-14 0.0 0.0
0.0 0.21660778963454064 0.1874481427163988 -0.18604201944447274 -0.0014061232719259041 0.013787601064819886 0.0 0.0
0.0 0.2033499559016171 0.17605526008670613 -0.1745514299411892 -0.001503830145517118 0.016522408418353212 0.0 0.0
0.0 0.1850530503566695 0.1602670321689833 -0.15870036635926482 -0.0015666658097182884 0.01794665946482041 0.0 0.0
0.0 0.16400382502273536 0.14206850630611145 -0.14049718323342125 -0.0015713230726902723 0.017969276113495157 0.0 0.0
0.0 0.1418798606621925 0.12294898279429385 -0.12140589578675949 -0.0015430870075343371 0.01684891635838339 0.0 0.0
0.0 0.11988277657633467 0.10393584088697347 -0.10244637637966486 -0.001489464507308638 0.015086360859997226 0.0 0.0
0.0 0.09880552924023805 0.08572544364044259 -0.08431004347142063 -0.0014154001690220215 0.013092982575756341 0.0 0.0
0.0 0.07944675853839725 0.06876285599547644 -0.06743411000131004 -0.001328745994166424 0.01108362768228408 0.0 0.0
0.0 0.06138278460466933 0.05332037761056386 -0.05208305073756929 -0.0012373268729944872 0.009105450863324364 0.0 0.0
0.0 0.04551158683335529 0.03956714216731973 -0.03841940366872537 -0.0011477384985943678 0.007109243666092573 0.0 0.0
0.0 0.031691574684019105 0.027682266573448685 -0.026620425601285896 -0.0010618409721627464 0.005127332879408428 0.0 0.0
0.0 0.020282354707987418 0.017873300391365463 -0.016899408168221462 -0.0009738922231440056 0.0033134531020708314 0.0 0.0
0.0 0.011565369579648209 0.01031208363563049 -0.009448671539098443 -0.000863412096532023 0.0018323127247541157 0.0 0.0
0.0 0.005435099006154381 0.0050135959076927665 -0.004334500064141079 -0.0006790958435516874 0.0007708508708572316 0.0 0.0
0.0 0.002057768255789051 0.001766669321377467 -0.001396707702969058 -0.00036996161840840926 0.000134853313156328 0.0 0.0
0.0 0.00035248239205778526 0.0003134961544497366 -0.00022701592437018246 -8.648023007955414e-05 -1.1313562572159896e-05 0.0 0.0
0.0 1.7509871005838222e-06 1.1988758374883797e-07 5.752765534390942e-07 -6.951641371879249e-07 -6.752966268211254e-06 0.0 0.0
0.0 8.000883204908787e-07 1.64766535982547e-06 -1.4324819334970881e-06 -2.1518342632838304e-07 -9.422360662001495e-07 0.0 0.0
0.0 0.003079294260788374 0.001970582528947539 -0.00111084414810836 -0.000859738380839173 0.005116123406969613 0.0 0.0
0.0 0.012356522105751666 0.009122647245100531 -0.012013708915485994 0.0028910616703854476 0.0033561103114201065 0.0 0.0
0.0 0.009455141815727871 0.006806589253892079 -0.009145734510492363 0.0023391452566002588 -0.0036189274883093887 0.0 0.0
0.0 0.002266780349792326 0.0013641419648082547 -0.000752041956761035 -0.0006121000080472128 -0.003918783306576743 0.0 0.0
0.0 0.0 0.0 0.0 0.0 0.0 0.0 0.0
0.0 -4.849231889076336e-06 -4.6742517108419235e-06 3.6921649359206007e-06 9.82086774921321e-07 3.606236497169281e-06 0.0 0.0
0.0 0.00013643941726827616 0.0001132120875404645 -7.866657160140108e-05 -3.45455159390629e-05 3.4705917465845135e-06 0.0 0.0
0.0 0.0012848862459167642 0.0011515010389401851 -0.0008852059309704096 -0.0002662951079697744 -0.00023022436312512758 0.0 0.0
0.0 0.004283761252921163 0.003787457947710787 -0.00319720778812284 -0.0005902501595879457 -0.0009986082140234828 0.0 0.0
0.0 0.00942872631505043 0.0083821299280897 -0.007578852909114247 -0.000803277018975447 -0.002479988343164352 0.0 0.0
0.0 0.017148453481863772 0.015026202344277588 -0.014106770867907214 -0.0009194314763703689 -0.004495487190971711 0.0 0.0
0.0 0.02725218292427378 0.023668986359878144 -0.022666822359465256 -0.0010021640004128645 -0.006943447646358585 0.0 0.0
0.0 0.039403194790279476 0.03411641171641503 -0.03303520097700154 -0.0010812107394134575 -0.0095951030389056 0.0 0.0
0.0 0.05349452978746381 0.04616643341100327 -0.045001362852857364 -0.0011650705581459303 -0.01225663199795937 0.0 0.0
0.0 0.06905043246676869 0.059675950348090236 -0.05842431334085985 -0.0012516370072303802 -0.014886996061491957 0.0 0.0
0.0 0.08650181558480569 0.07451227627608331 -0.07317984501845566 -0.0013324312576275914 -0.01752358656160881 0.0 0.0
0.0 0.10492088230402191 0.09048716272533186 -0.08908421196643633 -0.0014029507588954248 -0.02012239295869051 0.0 0.0
0.0 0.12416600194196435 0.1072610370483236 -0.10580264287890902 -0.0014583941694146206 -0.02244781040866169 0.0 0.0
0.0 0.14392362590367408 0.12426865651440772 -0.12277901850850978 -0.0014896380058978718 -0.024018986322734553 0.0 0.0
0.0 0.1628155208342254 0.14060713302793193 -0.13912354166066554 -0.0014835913672662199 -0.024229987805267604 0.0 0.0
0.0 0.17932814961279825 0.15491497141583568 -0.15348088347512506 -0.0014340879407107362 -0.02246249597448805 0.0 0.0
0.0 0.19148080901782458 0.16548054136024223 -0.164110267714452 -0.0013702736457906425 -0.017799228638574943 0.0 0.0
0.0 0.19757887289579742 0.1700103888300325 -0.16904525242529217 -0.0009651364047402194 2.3822957495589492e-14 0.0 0.0
0.0 0.19148080901779085 0.16548054136021165 -0.1641102677144199 -0.001370273645792021 0.01779922863862855 0.0 0.0
0.0 0.17932814961274643 0.15491497141578872 -0.1534808834750792 -0.0014340879407093977 0.022462495974542467 0.0 0.0
0.0 0.16281552083415277 0.14060713302786823 -0.13912354166060198 -0.0014835913672661487 0.02422998780529855 0.0 0.0
0.0 0.14392362590358565 0.12426865651433175 -0.12277901850843402 -0.0014896380058976753 0.0240189863227386 0.0 0.0
0.0 0.1241660019418702 0.10726103704824207 -0.10580264287882782 -0.0014583941694142671 0.022447810408652034 0.0 0.0
0.0 0.10492088230392468 0.09048716272524741 -0.08908421196635233 -0.0014029507588951477 0.020122392958682365 0.0 0.0
0.0 0.086501815584711 0.07451227627600107 -0.07317984501837396 -0.0013324312576271176 0.017523586561600104 0.0 0.0
0.0 0.06905043246667487 0.059675950348009855 -0.058424313340779625 -0.001251637007230149 0.014886996061477099 0.0 0.0
0.0 0.05349452978737871 0.046166433410929845 -0.04500136285278388 -0.0011650705581460405 0.012256631997939834 0.0 0.0
0.0 0.03940319479020293 0.03411641171634924 -0.03303520097693585 -0.0010812107394133543 0.009595103038885281 0.0 0.0
0.0 0.02725218292421263 0.023668986359825228 -0.022666822359412905 -0.001002164000412324 0.006943447646340738 0.0 0.0
0.0 0.017148453481818562 0.015026202344238343 -0.014106770867868717 -0.0009194314763696237 0.004495487190959995 0.0 0.0
0.0 0.009428726315020626 0.008382129928063085 -0.007578852909088464 -0.0008032770189746134 0.002479988343155073 0.0 0.0
0.0 0.004283761252903059 0.0037874579476956357 -0.003197207788108938 -0.0005902501595866971 0.0009986082140180106 0.0 0.0
0.0 0.0012848862459079878 0.0011515010389330338 -0.0008852059309646025 -0.0002662951079684308 0.00023022436312304716 0.0 0.0
0.0 0.00013643941726695222 0.00011321208753985513 -7.866657160101218e-05 -3.454551593884272e-05 -3.4705917462604404e-06 0.0 0.0
0.0 -4.849231889444342e-06 -4.674251710839418e-06 3.6921649359182137e-06 9.820867749212258e-07 -3.606236497180382e-06 0.0 0.0
0.0 0.0 0.0 0.0 0.0 0.0 0.0 0.0
0.0 0.0022667803497840016 0.001364141964803388 -0.0007520419567577377 -0.000612100008045655 0.003918783306564231 0.0 0.0
0.0 0.009455141815706827 0.006806589253875747 -0.009145734510471702 0.002339145256595958 0.003618927488293876 0.0 0.0
0.0 0.007014728926170513 0.005020167561250758 -0.006866177228952028 0.0018460096677012751 -0.0031082418878508144 0.0 0.0
0.0 0.0018143802853830074 0.0009133765667230589 -0.0004933992732878154 -0.00041997729343524337 -0.002862262183438478 0.0 0.0
0.0 0.0 0.0 0.0 0.0 0.0 0.0 0.0
0.0 -7.550422929682667e-07 -2.1948524660778095e-07 1.7864963006084265e-07 4.0835616546939556e-08 4.0013613161010076e-07 0.0 0.0
0.0 3.4015745489755653e-07 1.2750800404835225e-05 -6.081639722258527e-06 -6.669160682576642e-06 1.649364742793539e-05 0.0 0.0
0.0 0.0007611127510657961 0.0006497109998759565 -0.000486584051988677 -0.00016312694788728004 -0.00022310722530398424 0.0 0.0
0.0 0.003172508557147905 0.002673703295225309 -0.0021956852847938566 -0.00047801801043144567 -0.001050525712311521 0.0 0.0
0.0 0.007384431512481037 0.006503978357920911 -0.005775236457787042 -0.0007287419001338788 -0.0027332460770454273 0.0 0.0
0.0 0.014059838336933021 0.012201012057091567 -0.01134373683840872 -0.0008572752186828593 -0.00514690796068752 0.0 0.0
0.0 0.022810771085349308 0.01965192113997907 -0.01871488242832136 -0.0009370387116577003 -0.008028980714330381 0.0 0.0
0.0 0.03337888538852138 0.028645941377637388 -0.027636217971998077 -0.00100972340563931 -0.011133492382700536 0.0 0.0
0.0 0.04551654154142415 0.03898552948055397 -0.0378983020882738 -0.0010872273922801516 -0.014243442163942738 0.0 0.0
0.0 0.05913465435920812 0.05055141325585688 -0.04938358886846528 -0.0011678243873915783 -0.017318783619662798 0.0 0.0
0.0 0.0737470572681479 0.06326498924296349 -0.062020578061395784 -0.0012444111815677363 -0.02039440112290108 0.0 0.0
0.0 0.0898282422949689 0.07699012222180406 -0.07567893081248767 -0.0013111914093163525 -0.023399482556343634 0.0 0.0
0.0 0.10676256151225932 0.09149080262458968 -0.0901255451501085 -0.0013652574744811943 -0.026095794046941134 0.0 0.0
0.0 0.12382304659049274 0.10634926594986571 -0.10494859086006932 -0.0014006750897963844 -0.0280569160106285 0.0 0.0
0.0 0.14053159177376726 0.1208314053442003 -0.11942647378241517 -0.0014049315617850648 -0.028615261235239695 0.0 0.0
0.0 0.15544494636400444 0.13379946952930202 -0.13242766002173934 -0.0013718095075626075 -0.026689670329117683 0.0 0.0
0.0 0.16684767900129632 0.14379630729457513 -0.1424732560792325 -0.00132305121534246 -0.020786342105271364 0.0 0.0
0.0 0.17318745589450985 0.1484227156498376 -0.14764447031956632 -0.0007782453302712952 2.7970681326650038e-14 0.0 0.0
0.0 0.1668476790012716 0.14379630729455112 -0.1424732560792079 -0.0013230512153430617 0.02078634210533284 0.0 0.0
0.0 0.155444946363962 0.13379946952926206 -0.1324276600216999 -0.0013718095075620647 0.026689670329177226 0.0 0.0
0.0 0.14053159177370378 0.12083140534414369 -0.11942647378235906 -0.0014049315617847326 0.02861526123527636 0.0 0.0
0.0 0.12382304659041991 0.10634926594980301 -0.1049485908600071 -0.00140067508979583 0.028056916010635962 0.0 0.0
0.0 0.10676256151217525 0.09149080262451738 -0.09012554515003526 -0.0013652574744821278 0.02609579404693001 0.0 0.0
0.0 0.08982824229488695 0.07699012222173338 -0.07567893081241692 -0.0013111914093164674 0.0233994825563325 0.0 0.0
0.0 0.07374705726806544 0.06326498924289202 -0.06202057806132502 -0.0012444111815669383 0.020394401122889757 0.0 0.0
0.0 0.05913465435912967 0.0505514132557893 -0.04938358886839802 -0.0011678243873912268 0.0173187836196464 0.0 0.0
0.0 0.04551654154134722 0.03898552948048831 -0.037898302088207936 -0.0010872273922803428 0.014243442163919439 0.0 0.0
0.0 0.03337888538845889 0.028645941377584146 -0.02763621797194553 -0.0010097234056386235 0.011133492382676788 0.0 0.0
0.0 0.022810771085295407 0.01965192113993325 -0.018714882428275754 -0.0009370387116574757 0.00802898071430907 0.0 0.0
0.0 0.01405983833689149 0.012201012057055895 -0.011343736838373569 -0.0008572752186823248 0.0051469079606719014 0.0 0.0
0.0 0.007384431512453989 0.006503978357897537 -0.005775236457764575 -0.0007287419001329597 0.0027332460770343367 0.0 0.0
0.0 0.0031725085571337403 0.0026737032952138073 -0.002195685284783858 -0.00047801801042994806 0.0010505257123064639 0.0 0.0
0.0 0.0007611127510598704 0.0006497109998714828 -0.0004865840519851875 -0.0001631269478862953 0.00022310722530214966 0.0 0.0
0.0 3.4015745468055336e-07 1.275080040513716e-05 -6.081639722524401e-06 -6.669160682612875e-06 -1.6493647427296524e-05 0.0 0.0
0.0 -7.550422928469126e-07 -2.1948524670803537e-07 1.7864963013810868e-07 4.083561656992027e-08 -4.001361317366041e-07 0.0 0.0
0.0 0.0 0.0 0.0 0.0 0.0 0.0 0.0
0.0 0.001814380285375805 0.000913376566719498 -0.0004933992732854408 -0.000419977293434056 0.002862262183428846 0.0 0.0
0.0 0.007014728926153495 0.005020167561237399 -0.006866177228934946 0.001846009667697536 0.003108241887840045 0.0 0.0
0.0 0.005165098844042935 0.0035833172184228206 -0.004984400300471645 0.001401083082048824 -0.0024429412119070406 0.0 0.0
0.0 0.001147742865667741 0.0005831521432946976 -0.00030810472723657415 -0.00027504741605812377 -0.0019962533635979537 0.0 0.0
0.0 0.0 0.0 0.0 0.0 0.0 0.0 0.0
0.0 -3.3351531236104305e-07 1.0274067926738001e-07 -7.861534396610154e-08 -2.412533530127844e-08 -1.6995251405151755e-07 0.0 0.0
0.0 -2.4736289027756682e-05 -1.7902578025266048e-05 1.4939023251396e-05 2.963554773870038e-06 2.982562398665343e-05 0.0 0.0
0.0 0.0003305965311262447 0.00030247928530835255 -0.00022061874776481058 -8.186053754354194e-05 -0.00016281255844398604 0.0 0.0
0.0 0.001962221766602313 0.00173146895092599 -0.0013809542265677333 -0.00035051472435825823 -0.0009875412951513348 0.0 0.0
0.0 0.0057342067430693035 0.0047184392733580355 -0.004091642945940234 -0.0006267963274177959 -0.0026492157564754434 0.0 0.0
0.0 0.010915642774538938 0.0094340645668614 -0.008652111146551362 -0.0007819534203100462 -0.005243329055232969 0.0 0.0
0.0 0.018456129694858207 0.01567023336576065 -0.014805973846006265 -0.0008642595197543826 -0.008375989532947468 0.0 0.0
0.0 0.027367110450502774 0.0231977578391075 -0.022266264865695447 -0.0009314929734120483 -0.011719695427578789 0.0 0.0
0.0 0.03754254408559625 0.03182064246128702 -0.030817941273208718 -0.001002701188078247 -0.015065864134846908 0.0 0.0
0.0 0.04886983285710974 0.04144160411716871 -0.04036420637568491 -0.0010773977414838115 -0.018370636207815264 0.0 0.0
0.0 0.061378274906777275 0.05201999071531509 -0.05087193180928007 -0.0011480589060350187 -0.021671197606746066 0.0 0.0
0.0 0.0747559183044814 0.06349076055726467 -0.062279625757570074 -0.001211134799694636 -0.024898547137072645 0.0 0.0
0.0 0.08885298430308508 0.07569539940160512 -0.07443139442670818 -0.0012640049748968876 -0.02780436578419513 0.0 0.0
0.0 0.1038273763824501 0.08833955861936545 -0.08703597928996695 -0.0013035793293984038 -0.030020308001447983 0.0 0.0
0.0 0.11827652439630111 0.10092995473651958 -0.09960627976116872 -0.0013236749753509909 -0.030929595832164876 0.0 0.0
0.0 0.1314935331660136 0.11262852630186679 -0.11131870204953989 -0.0013098242523269397 -0.02921777523965753 0.0 0.0
0.0 0.1423941870573414 0.12221830839502444 -0.12094936492410228 -0.0012689434709220989 -0.022898463632556387 0.0 0.0
0.0 0.14919215203169442 0.12705915465755105 -0.12649820055830174 -0.000560954099249172 2.732883364053862e-14 0.0 0.0
0.0 0.14239418705732065 0.12221830839500236 -0.12094936492407937 -0.0012689434709230254 0.022898463632619992 0.0 0.0
0.0 0.13149353316597365 0.11262852630182894 -0.1113187020495013 -0.0013098242523277232 0.029217775239719662 0.0 0.0
0.0 0.11827652439624878 0.10092995473647234 -0.09960627976112124 -0.001323674975350959 0.030929595832203446 0.0 0.0
0.0 0.10382737638238723 0.08833955861931139 -0.08703597928991333 -0.001303579329398028 0.030020308001453812 0.0 0.0
0.0 0.08885298430301461 0.0756953994015447 -0.07443139442664738 -0.0012640049748974186 0.027804365784183303 0.0 0.0
0.0 0.074755918304416 0.06349076055720808 -0.06227962575751424 -0.0012111347996938077 0.024898547137060124 0.0 0.0
0.0 0.06137827490671102 0.05201999071525734 -0.05087193180922273 -0.001148058906034605 0.02167119760673435 0.0 0.0
0.0 0.04886983285704492 0.0414416041171135 -0.040364206375630304 -0.0010773977414832016 0.01837063620779856 0.0 0.0
0.0 0.03754254408553362 0.03182064246123399 -0.03081794127315603 -0.0010027011880779197 0.015065864134823847 0.0 0.0
0.0 0.02736711045044846 0.023197757839062395 -0.022266264865650913 -0.0009314929734114927 0.011719695427552258 0.0 0.0
0.0 0.018456129694815557 0.0156702333657246 -0.014805973845970672 -0.0008642595197539105 0.008375989532925324 0.0 0.0
0.0 0.010915642774505342 0.009434064566832533 -0.008652111146523065 -0.0007819534203094799 0.005243329055216619 0.0 0.0
0.0 0.005734206743048535 0.0047184392733414324 -0.004091642945924512 -0.0006267963274169206 0.002649215756465495 0.0 0.0
0.0 0.001962221766590726 0.001731468950916699 -0.0013809542265598468 -0.000350514724356853 0.0009875412951455167 0.0 0.0
0.0 0.0003305965311223839 0.0003024792853055605 -0.0002206187477627669 -8.186053754279324e-05 0.00016281255844242414 0.0 0.0
0.0 -2.473628902815692e-05 -1.7902578024774067e-05 1.493902325101815e-05 2.9635547737558867e-06 -2.9825623986074128e-05 0.0 0.0
0.0 -3.3351531219566347e-07 1.0274067927000121e-07 -7.861534396804109e-08 -2.4125335301956956e-08 1.6995251404915726e-07 0.0 0.0
0.0 0.0 0.0 0.0 0.0 0.0 0.0 0.0
0.0 0.0011477428656617508 0.0005831521432919194 -0.00030810472723475345 -0.00027504741605716506 0.001996253363589875 0.0 0.0
0.0 0.005165098844028876 0.0035833172184117574 -0.004984400300457171 0.00140108308204541 0.0024429412118993224 0.0 0.0
0.0 0.0034983607129460857 0.0024363014527459545 -0.003440536131033712 0.001004234678287753 -0.0018309444550941162 0.0 0.0
0.0 0.0007343900790126787 0.00033065018936827463 -0.00016166588182660516 -0.00016898430754166892 -0.0012803538196031433 0.0 0.0
0.0 1.3280241357300783e-07 1.2283212121831877e-09 -6.332324433825165e-10 -5.95088768801013e-10 2.7729622737903038e-08 0.0 0.0
0.0 1.8886392966488113e-07 5.5553120535225025e-09 -5.29866168772279e-09 -2.5665036580239643e-10 4.42336430382282e-08 0.0 0.0
0.0 -1.6871990962447918e-05 -1.1058477832371596e-05 8.849719937060308e-06 2.2087578953113432e-06 2.2965366032302424e-05 0.0 0.0
0.0 9.56243310291675e-05 8.385948646699428e-05 -5.812404039317791e-05 -2.5735446073816465e-05 -5.946536237591498e-05 0.0 0.0
0.0 0.0011644983425253969 0.0009574407221676194 -0.0007428486542964296 -0.00021459206787118967 -0.0007858717661846818 0.0 0.0
0.0 0.003717949113798089 0.0031287692667598286 -0.0026355504309261146 -0.0004932188358337122 -0.002353846981168533 0.0 0.0
0.0 0.008438558927524605 0.00676679958122321 -0.006084689661559771 -0.0006821099196634389 -0.00481084063063818 0.0 0.0
0.0 0.014038747304512303 0.011769681564940583 -0.010991847931439059 -0.0007778336335015244 -0.00796190340862973 0.0 0.0
0.0 0.021427057277082294 0.017816217221871714 -0.016972580656965764 -0.0008436365649059643 -0.011338290056416804 0.0 0.0
0.0 0.029672897905552113 0.024716271935630557 -0.023807470332241315 -0.0009088016033892548 -0.014712795432432561 0.0 0.0
0.0 0.03878299373133293 0.03239081710007508 -0.03141402463986448 -0.0009767924602105667 -0.0180312264581287 0.0 0.0
0.0 0.04878884801355763 0.040835580531411994 -0.0397934759952937 -0.0010421045361183145 -0.021339825040741337 0.0 0.0
0.0 0.05960975449918296 0.05003940759611571 -0.048938912360146525 -0.0011004952359691205 -0.024584354673630918 0.0 0.0
0.0 0.07145717870221682 0.05991739872158849 -0.05876803706289805 -0.001149361658690469 -0.027537111064526453 0.0 0.0
0.0 0.0832091741842758 0.07029754763472303 -0.06910328517521915 -0.0011942624595039446 -0.029849833277196182 0.0 0.0
0.0 0.09569190688431288 0.08091000907042653 -0.07967595921167053 -0.001234049858755903 -0.03105995875845225 0.0 0.0
0.0 0.10773277267654742 0.09129931610315951 -0.09005567751965855 -0.001243638583501064 -0.029934006658530722 0.0 0.0
0.0 0.11807829995403536 0.10055851449989918 -0.09934819721957859 -0.0012103172803206148 -0.02411052525717824 0.0 0.0
0.0 0.1255965227286879 0.10571507332792222 -0.10540217309530595 -0.00031290023261633956 2.783970970421379e-14 0.0 0.0
0.0 0.11807829995401867 0.10055851449987997 -0.09934819721955866 -0.0012103172803213545 0.024110525257242582 0.0 0.0
0.0 0.10773277267652011 0.0912993161031311 -0.09005567751963046 -0.0012436385835006831 0.029934006658595476 0.0 0.0
0.0 0.09569190688427626 0.08091000907039206 -0.07967595921163657 -0.0012340498587555386 0.031059958758491484 0.0 0.0
0.0 0.08320917418422229 0.07029754763467738 -0.06910328517517342 -0.0011942624595040023 0.02984983327720064 0.0 0.0
0.0 0.07145717870215917 0.0599173987215395 -0.058768037062848805 -0.0011493616586907248 0.027537111064513047 0.0 0.0
0.0 0.05960975449912834 0.05003940759606794 -0.04893891236009981 -0.0011004952359681137 0.024584354673616426 0.0 0.0
0.0 0.0487888480135064 0.04083558053136751 -0.03979347599524978 -0.0010421045361176922 0.021339825040730728 0.0 0.0
0.0 0.038782993731282585 0.03239081710003242 -0.031414024639822666 -0.0009767924602097813 0.018031226458113232 0.0 0.0
0.0 0.029672897905503544 0.024716271935590343 -0.02380747033220116 -0.0009088016033892138 0.014712795432411312 0.0 0.0
0.0 0.021427057277036747 0.017816217221834973 -0.016972580656929262 -0.0008436365649057158 0.011338290056389448 0.0 0.0
0.0 0.01403874730447581 0.011769681564910607 -0.010991847931409449 -0.0007778336335011573 0.007961903408606927 0.0 0.0
0.0 0.008438558927497892 0.006766799581202401 -0.006084689661539616 -0.0006821099196627895 0.004810840630623444 0.0 0.0
0.0 0.003717949113782229 0.003128769266747089 -0.0026355504309144946 -0.0004932188358325891 0.002353846981159253 0.0 0.0
0.0 0.0011644983425178014 0.0009574407221622667 -0.0007428486542920881 -0.00021459206787017906 0.0007858717661800439 0.0 0.0
0.0 9.562433102644046e-05 8.385948646540822e-05 -5.812404039199712e-05 -2.573544607341125e-05 5.9465362374531966e-05 0.0 0.0
0.0 -1.687199096297039e-05 -1.1058477832290843e-05 8.849719936990187e-06 2.2087578953006596e-06 -2.296536603207817e-05 0.0 0.0
0.0 1.8886392936387066e-07 5.555312058308123e-09 -5.298661690557003e-09 -2.566503677498569e-10 -4.4233642975248056e-08 0.0 0.0
0.0 1.3280241334748477e-07 1.228321212838292e-09 -6.332324442260281e-10 -5.950887686122834e-10 -2.7729622690830337e-08 0.0 0.0
0.0 0.0007343900790075587 0.0003306501893661088 -0.0001616658818251355 -0.0001689843075409728 0.0012803538195964924 0.0 0.0
0.0 0.0034983607129355806 0.0024363014527377246 -0.003440536131022544 0.0010042346782848173 0.0018309444550889686 0.0 0.0
0.0 0.0026364876261201157 0.0014988460782659327 -0.0021464560942997903 0.0006476100160338574 -0.0012602039986138566 0.0 0.0
0.0 0.00032091967918658194 0.00015553700550516381 -6.281079191245963e-05 -9.272621359270427e-05 -0.0007241909234095236 0.0 0.0
0.0 9.97441802805939e-07 5.918736664840895e-08 -5.978717571644889e-08 5.998090680407224e-10 -1.18922001431809e-06 0.0 0.0
0.0 -8.390892824141513e-07 4.1553326372404725e-08 -3.232766455170137e-08 -9.225661820704022e-09 -2.7735567940513336e-07 0.0 0.0
0.0 -8.570759411943172e-06 -5.473669002422961e-06 4.35047277818517e-06 1.123196224237787e-06 1.826061990195166e-05 0.0 0.0
0.0 -4.789006628351853e-06 -1.148227155160848e-06 3.19974954997951e-06 -2.0515223948187068e-06 1.0745924173232668e-05 0.0 0.0
0.0 0.0005356443812276714 0.00040173135327200475 -0.0003049398909897365 -9.679146228226775e-05 -0.0005066892359626492 0.0 0.0
0.0 0.0021958396674560915 0.0017597716191946804 -0.0014360968705088503 -0.0003236747486858294 -0.0018459887123326683 0.0 0.0
0.0 0.00541866021173199 0.004322304469606791 -0.003781082034994567 -0.0005412224346122259 -0.003990588899219243 0.0 0.0
0.0 0.01023800859746789 0.00800503361057843 -0.007341456407212965 -0.0006635772033654532 -0.0068096680195430135 0.0 0.0
0.0 0.01559042613304711 0.012551393596801859 -0.011815358459294932 -0.000736035137506912 -0.009972397488586932 0.0 0.0
0.0 0.021830636487619227 0.01772701983397799 -0.016928287737886648 -0.0007987320960913585 -0.013152849333943228 0.0 0.0
0.0 0.028790241231069442 0.023458181394114545 -0.02259766453666994 -0.0008605168574445884 -0.016276441671299418 0.0 0.0
0.0 0.03636575051654337 0.029766373827332444 -0.028847612678848965 -0.0009187611484834433 -0.019375076829009984 0.0 0.0
0.0 0.04473630514666584 0.03669201046481415 -0.035719404641971715 -0.0009726058228424427 -0.022432561416311135 0.0 0.0
0.0 0.0536560960088298 0.044229095125598424 -0.0432101667892389 -0.0010189283363594957 -0.025261405095168728 0.0 0.0
0.0 0.06331342125222784 0.05228442744007428 -0.051222048468250105 -0.0010623789718241725 -0.027513977548334324 0.0 0.0
0.0 0.07313824022363255 0.060794668829836286 -0.05967443829709193 -0.0011202305327442747 -0.028856167123623575 0.0 0.0
0.0 0.08321164600605518 0.06972520545895622 -0.06855803507968806 -0.0011671703792680446 -0.028573624315862006 0.0 0.0
0.0 0.09333027617360568 0.07861730562747489 -0.0774665630023858 -0.0011507426250890668 -0.024250832992010512 0.0 0.0
0.0 0.10193138414970844 0.08417477118764134 -0.08414493032166202 -2.9840865979409003e-05 2.3896683243318506e-14 0.0 0.0
0.0 0.09333027617359739 0.07861730562746147 -0.07746656300237215 -0.0011507426250892746 0.024250832992069395 0.0 0.0
0.0 0.08321164600603656 0.06972520545893421 -0.0685580350796661 -0.0011671703792681494 0.028573624315924244 0.0 0.0
0.0 0.07313824022360266 0.06079466882980751 -0.059674438297063856 -0.0011202305327436138 0.028856167123659182 0.0 0.0
0.0 0.06331342125218598 0.052284427440038826 -0.05122204846821546 -0.00106237897182335 0.027513977548336527 0.0 0.0
0.0 0.05365609600878716 0.0442290951255628 -0.04321016678920353 -0.0010189283363593443 0.025261405095154624 0.0 0.0
0.0 0.044736305146620095 0.03669201046477555 -0.035719404641933274 -0.000972605822842251 0.022432561416294395 0.0 0.0
0.0 0.03636575051650412 0.029766373827298742 -0.028847612678815766 -0.0009187611484829839 0.019375076828999527 0.0 0.0
0.0 0.028790241231029134 0.02345818139408137 -0.022597664536637023 -0.0008605168574443318 0.016276441671283982 0.0 0.0
0.0 0.021830636487585278 0.01772701983395019 -0.016928287737859222 -0.0007987320960909626 0.01315284933392492 0.0 0.0
0.0 0.015590426133013912 0.012551393596775888 -0.011815358459269685 -0.0007360351375061898 0.009972397488563614 0.0 0.0
0.0 0.01023800859743889 0.008005033610556118 -0.0073414564071908415 -0.0006635772033652723 0.006809668019521892 0.0 0.0
0.0 0.005418660211712998 0.00432230446959191 -0.003781082034980722 -0.0005412224346111907 0.003990588899207035 0.0 0.0
0.0 0.0021958396674449966 0.0017597716191862824 -0.0014360968705014337 -0.0003236747486848486 0.00184598871232443 0.0 0.0
0.0 0.0005356443812227027 0.0004017313532685947 -0.0003049398909871219 -9.679146228147226e-05 0.0005066892359582101 0.0 0.0
0.0 -4.78900662919384e-06 -1.1482271551593991e-06 3.1997495499666866e-06 -2.051522394807231e-06 -1.074592417288535e-05 0.0 0.0
0.0 -8.570759413230365e-06 -5.473669002224184e-06 4.350472778039271e-06 1.1231962241848943e-06 -1.826061990119891e-05 0.0 0.0
0.0 -8.390892827338298e-07 4.155332634701002e-08 -3.232766453274746e-08 -9.225661814262613e-09 2.7735567933391467e-07 0.0 0.0
0.0 9.97441802595127e-07 5.9187366677057354e-08 -5.978717574519127e-08 5.998090681343676e-10 1.189220014923071e-06 0.0 0.0
0.0 0.0003209196791836269 0.0001555370055039445 -6.281079191167562e-05 -9.272621359226892e-05 0.0007241909234050233 0.0 0.0
0.0 0.0026364876261106758 0.001498846078260088 -0.0021464560942916562 0.0006476100160315687 0.0012602039986099323 0.0 0.0
0.0 0.0013796719332489758 0.0008309354707153706 -0.0012063451267205463 0.0003754096560051761 -0.0008442113003591151 0.0 0.0
0.0 0.00011600467619291788 4.061543547976724e-05 5.587328137141979e-06 -4.6202763616909094e-05 -0.00030534294296437374 0.0 0.0
0.0 1.93539851877232e-06 4.4271913870062064e-10 6.964254546978279e-09 -7.406973685678003e-09 5.991070442230155e-07 0.0 0.0
0.0 1.1875449554331834e-06 -1.419675386091309e-07 1.0396989213027927e-07 3.799764647885149e-08 1.3114703360204699e-06 0.0 0.0
0.0 -7.909740615035288e-06 -2.6303602999373486e-06 2.096035418277772e-06 5.343248816595765e-07 1.3128799858002116e-05 0.0 0.0
0.0 -2.0721469819576642e-05 -9.213056816423397e-06 7.957853765174943e-06 1.2552030512484924e-06 1.849673784974054e-05 0.0 0.0
0.0 0.00018532136288290922 8.982055923990801e-05 -6.747139693157174e-05 -2.234916230833662e-05 -0.0002257661881047151 0.0 0.0
0.0 0.001092067905702187 0.0006912140963964933 -0.0005527679999735976 -0.00013844609642289557 -0.00116174104126904 0.0 0.0
0.0 0.0029977871350234902 0.002166379389096801 -0.0018359637389089314 -0.00033041565018786863 -0.0028448469666386288 0.0 0.0
0.0 0.006105649311415772 0.004507799721442419 -0.004022977519908152 -0.00048482220153426973 -0.005064891048236995 0.0 0.0
0.0 0.009798759414654808 0.007499690125341023 -0.006918742713331531 -0.0005809474120094905 -0.007675310954008695 0.0 0.0
0.0 0.014179489349558507 0.010928305632952698 -0.01028015503130026 -0.0006481506016524292 -0.010384047861663795 0.0 0.0
0.0 0.018943365028788822 0.0147189686137171 -0.014011202713763986 -0.0007077658999531129 -0.013105668423328937 0.0 0.0
0.0 0.024140945862530492 0.018896415196169504 -0.01813689182548404 -0.0007595233706854813 -0.01580616175316031 0.0 0.0
0.0 0.02991315052153294 0.023532749210234263 -0.022724813289882503 -0.0008079359203517503 -0.018470051563414056 0.0 0.0
0.0 0.03631470441616405 0.028699929161764313 -0.027846129461209623 -0.000853799700554708 -0.02101846196319408 0.0 0.0
0.0 0.04325456961029441 0.03441042187477859 -0.033512838264942835 -0.0008975836098357568 -0.023159270334325972 0.0 0.0
0.0 0.050522136266411714 0.04069124521762715 -0.0397350291816601 -0.0009562160359671012 -0.024477944567201246 0.0 0.0
0.0 0.05874853894315187 0.04785556951889005 -0.046808925211286836 -0.0010466443076031994 -0.024777804170706588 0.0 0.0
0.0 0.06842511604626082 0.056159868123911376 -0.055073062717843055 -0.0010868054060683232 -0.022849653997511196 0.0 0.0
0.0 0.07829249190370402 0.062184112284241366 -0.06247531856418976 0.00029120627994833043 2.179680047564858e-14 0.0 0.0
0.0 0.06842511604625744 0.056159868123901474 -0.05507306271783201 -0.001086805406069447 0.02284965399756312 0.0 0.0
0.0 0.05874853894314051 0.04785556951887406 -0.04680892521127126 -0.0010466443076027794 0.024777804170763765 0.0 0.0
0.0 0.05052213626638454 0.040691245217602735 -0.039735029181635316 -0.0009562160359674143 0.02447794456722763 0.0 0.0
0.0 0.043254569610262784 0.034410421874753586 -0.03351283826491862 -0.000897583609834995 0.02315927033432231 0.0 0.0
0.0 0.03631470441613084 0.028699929161737258 -0.02784612946118276 -0.0008537997005544575 0.021018461963178855 0.0 0.0
0.0 0.029913150521503847 0.02353274921021074 -0.0227248132898586 -0.0008079359203521481 0.01847005156340098 0.0 0.0
0.0 0.024140945862506688 0.018896415196149704 -0.01813689182546428 -0.0007595233706854365 0.015806161753152668 0.0 0.0
0.0 0.018943365028761462 0.014718968613695545 -0.014011202713742694 -0.0007077658999528428 0.013105668423315363 0.0 0.0
0.0 0.01417948934953481 0.010928305632935056 -0.010280155031283 -0.0006481506016520448 0.0103840478616477 0.0 0.0
0.0 0.009798759414631554 0.007499690125323916 -0.006918742713314871 -0.000580947412009039 0.007675310953988469 0.0 0.0
0.0 0.006105649311397943 0.004507799721429732 -0.00402297751989604 -0.00048482220153369586 0.005064891048221715 0.0 0.0
0.0 0.002997787135010734 0.002166379389087497 -0.0018359637389004455 -0.00033041565018705017 0.002844846966628782 0.0 0.0
0.0 0.0010920679056955005 0.0006912140963921739 -0.000552767999970036 -0.0001384460964221382 0.001161741041262686 0.0 0.0
0.0 0.00018532136287972343 8.982055923899297e-05 -6.747139693082826e-05 -2.234916230816457e-05 0.00022576618810274374 0.0 0.0
0.0 -2.07214698199404e-05 -9.213056816017643e-06 7.957853764866115e-06 1.2552030511514872e-06 -1.8496737848308914e-05 0.0 0.0
0.0 -7.909740614854738e-06 -2.6303602998232046e-06 2.0960354181914183e-06 5.343248816317974e-07 -1.31287998569031e-05 0.0 0.0
0.0 1.1875449551383965e-06 -1.4196753862562146e-07 1.0396989214767673e-07 3.799764647794558e-08 -1.3114703357822198e-06 0.0 0.0
0.0 1.9353985189471277e-06 4.42719165230114e-10 6.964254513933249e-09 -7.406973679162961e-09 -5.991070431922333e-07 0.0 0.0
0.0 0.00011600467619010679 4.061543547907849e-05 5.5873281375359116e-06 -4.620276361661407e-05 0.0003053429429615766 0.0 0.0
0.0 0.001379671933242252 0.0008309354707114971 -0.0012063451267149553 0.0003754096560034571 0.0008442113003563604 0.0 0.0
0.0 0.0006688489884662727 0.00035921108664277164 -0.0005264804577501574 0.0001672693711073861 -0.00045032244992649956 0.0 0.0
0.0 -9.207200438733314e-06 -1.2921585496899367e-05 3.2358461563450117e-05 -1.943687606655082e-05 -4.624187923245193e-05 0.0 0.0
0.0 3.2246240742489153e-06 5.205556261952222e-08 -1.1663744803346475e-07 6.458188541394301e-08 -3.5395844402243433e-06 0.0 0.0
0.0 1.5488315682129568e-06 -1.2368259867733822e-07 1.1127891791955076e-07 1.2403680757785491e-08 -2.2442736201295845e-06 0.0 0.0
0.0 -3.9394515020166634e-06 -1.1486047044408495e-06 9.598070048106274e-07 1.8879769963023112e-07 9.260619886275007e-06 0.0 0.0
0.0 -4.663302782189727e-06 -4.121498548932861e-06 3.565134521790929e-06 5.563640271418967e-07 1.1065129923799324e-05 0.0 0.0
0.0 7.471991766870014e-05 5.556754105175926e-06 -3.916035445187945e-06 -1.6407186599878884e-06 -0.00010725772692740472 0.0 0.0
0.0 0.00034267027026039723 9.336940794690032e-05 -7.85942876271125e-05 -1.4775120319787936e-05 -0.0005200962897666046 0.0 0.0
0.0 0.0010815522582385462 0.0004857643561200256 -0.000427543265429547 -5.82210906904781e-05 -0.0014884472455072824 0.0 0.0
0.0 0.0025367424059142053 0.0014263566670733312 -0.0012824271066918535 -0.0001439295603814773 -0.0030084444226696457 0.0 0.0
0.0 0.004711975597108452 0.0028315231045918862 -0.002591269470370447 -0.00024025363422143595 -0.004840096205225013 0.0 0.0
0.0 0.00698891653928345 0.004496043399053945 -0.004173486255529693 -0.000322557143524258 -0.006879215255119042 0.0 0.0
0.0 0.009662263061206752 0.00634379700679274 -0.005952888799740468 -0.0003909082070522662 -0.009036770806440424 0.0 0.0
0.0 0.012644981465364892 0.008401274103599353 -0.007953347385807606 -0.0004479267177917465 -0.011264572739483397 0.0 0.0
0.0 0.015957775436312827 0.010746643553367569 -0.01024479361794886 -0.0005018499354187138 -0.013551323113322078 0.0 0.0
0.0 0.019747583332994794 0.013506387093005869 -0.012948228518668076 -0.0005581585743377935 -0.015864774656101564 0.0 0.0
0.0 0.024177203983364516 0.01683437930429556 -0.016215853109796143 -0.0006185261944994236 -0.018012407792326896 0.0 0.0
0.0 0.029274987104716665 0.020861225112701602 -0.020181301577733173 -0.0006799235349684297 -0.019461840339580067 0.0 0.0
0.0 0.035138786162998925 0.025919395039459576 -0.025143365146661635 -0.0007760298927979431 -0.01973590537039854 0.0 0.0
0.0 0.04307329444384977 0.033024998623848244 -0.032077946768507996 -0.0009470518553402014 -0.01943260786722358 0.0 0.0
0.0 0.0557816823192462 0.03943886480795903 -0.04010392842616164 0.0006650636182026328 1.644604591399812e-14 0.0 0.0
0.0 0.043073294443858455 0.03302499862384701 -0.03207794676850659 -0.0009470518553404725 0.019432607867268605 0.0 0.0
0.0 0.03513878616299636 0.025919395039452765 -0.025143365146654714 -0.0007760298927980507 0.01973590537044047 0.0 0.0
0.0 0.029274987104698152 0.020861225112687058 -0.02018130157771867 -0.0006799235349683779 0.019461840339595478 0.0 0.0
0.0 0.024177203983340428 0.016834379304280774 -0.016215853109782092 -0.0006185261944987155 0.01801240779231701 0.0 0.0
0.0 0.019747583332971535 0.013506387092989491 -0.012948228518651276 -0.0005581585743382101 0.015864774656085052 0.0 0.0
0.0 0.015957775436301468 0.010746643553359643 -0.010244793617940557 -0.0005018499354190952 0.013551323113313472 0.0 0.0
0.0 0.012644981465354565 0.008401274103592647 -0.007953347385801543 -0.00044792671779110614 0.011264572739477702 0.0 0.0
0.0 0.009662263061193072 0.006343797006784677 -0.0059528887997325145 -0.00039090820705216917 0.009036770806429728 0.0 0.0
0.0 0.006988916539270121 0.004496043399046408 -0.00417348625552213 -0.0003225571435242773 0.006879215255105493 0.0 0.0
0.0 0.0047119755970960395 0.0028315231045850492 -0.002591269470363742 -0.00024025363422130555 0.004840096205211098 0.0 0.0
0.0 0.0025367424059049627 0.0014263566670683122 -0.001282427106687033 -0.0001439295603812792 0.0030084444226600978 0.0 0.0
0.0 0.001081552258234836 0.000485764356117856 -0.00042754326542761224 -5.822109069024314e-05 0.0014884472455030146 0.0 0.0
0.0 0.0003426702702572856 9.336940794599553e-05 -7.859428762625917e-05 -1.4775120319736298e-05 0.0005200962897624061 0.0 0.0
0.0 7.471991766765313e-05 5.55675410524998e-06 -3.916035445269244e-06 -1.6407186599807456e-06 0.00010725772692725482 0.0 0.0
0.0 -4.663302782420478e-06 -4.1214985486811005e-06 3.5651345215951475e-06 5.563640270859564e-07 -1.1065129922304623e-05 0.0 0.0
0.0 -3.939451502632005e-06 -1.1486047044069625e-06 9.598070047917262e-07 1.8879769961523152e-07 -9.260619885400012e-06 0.0 0.0
0.0 1.5488315682195192e-06 -1.2368259869741517e-07 1.1127891793956141e-07 1.2403680757854465e-08 2.2442736209374557e-06 0.0 0.0
0.0 3.2246240741270455e-06 5.205556262439001e-08 -1.1663744805066979e-07 6.458188542627627e-08 3.5395844409399316e-06 0.0 0.0
0.0 -9.207200440180924e-06 -1.292158549707192e-05 3.2358461563509057e-05 -1.9436876066437064e-05 4.6241879231083095e-05 0.0 0.0
0.0 0.0006688489884619647 0.00035921108664068607 -0.0005264804577471037 0.00016726937110641708 0.0004503224499244405 0.0 0.0
0.0 0.0001635808586342869 9.381105654220407e-05 -0.00013984314963741935 4.603209309521516e-05 -0.00014865519022684773 0.0 0.0
0.0 -2.413763326595201e-05 -1.381303234469924e-05 1.980030513740761e-05 -5.987272792708348e-06 2.38364710286729e-05 0.0 0.0
0.0 3.460005233401919e-06 1.6368484554545845e-07 -1.4046833126146387e-07 -2.3216514283998463e-08 2.8808849964456393e-06 0.0 0.0
0.0 3.2753758366689985e-06 -3.004533592942582e-07 2.480806404021895e-07 5.2372718892071315e-08 -3.937059041643994e-06 0.0 0.0
0.0 -4.2709048630556307e-07 -4.3099645417348154e-07 4.239856627546537e-07 7.0107914188248395e-09 1.6512613171929778e-06 0.0 0.0
0.0 4.872778504806322e-06 -1.3082573689719993e-06 1.3511319826655075e-06 -4.2874613693508534e-08 -6.102332831345934e-07 0.0 0.0
0.0 7.938097577419013e-05 -1.9637594504384355e-06 1.9595969180824907e-06 4.1625323559387345e-09 -0.00011389496483618427 0.0 0.0
0.0 0.0002060450154586534 -1.4714702860607164e-06 1.4470632742270561e-06 2.4407011833700915e-08 -0.000355729044416131 0.0 0.0
0.0 0.00046262538519573814 -3.278939882389519e-07 2.9416505283697225e-07 3.372893540194829e-08 -0.000740700224363575 0.0 0.0
0.0 0.0007746795152687813 3.303630410917823e-08 -1.8760035276114647e-08 -1.4276268833263481e-08 -0.00150594553882765 0.0 0.0
0.0 0.0014859367272929687 8.238616679392594e-08 -6.15640114218067e-08 -2.0822155372065025e-08 -0.0028192954048586816 0.0 0.0
0.0 0.002473780954820396 -8.71762014761809e-06 1.116874842553052e-05 -2.4511282779124155e-06 -0.004662479930306014 0.0 0.0
0.0 0.0037905241584565573 -2.563330054366705e-05 2.9535292338021e-05 -3.901991794352837e-06 -0.006657494246872428 0.0 0.0
0.0 0.005289120206714079 -3.4404678586042424e-05 3.5590259684185454e-05 -1.185581098143545e-06 -0.008760585444943977 0.0 0.0
0.0 0.006944902382034049 3.859929141931994e-05 -5.074261112246166e-05 1.2143319703141478e-05 -0.010980042287562854 0.0 0.0
0.0 0.008715568232231604 0.00035807085662237193 -0.00039807965792288476 4.0008801300509493e-05 -0.013307969198524248 0.0 0.0
0.0 0.01064121520411794 0.001196025725131003 -0.0012836631677183876 8.763744258738731e-05 -0.015667759429238644 0.0 0.0
0.0 0.012647556580251303 0.0027946598625409017 -0.002999843504912055 0.00020518364237114857 -0.017843553095883327 0.0 0.0
0.0 0.015389184371836945 0.004848611591087726 -0.005238888210596278 0.00039027661950855774 -0.019422714664633366 0.0 0.0
0.0 0.02221542877629652 0.009542507253184642 -0.009278162743355186 -0.0002643445098294542 -0.020074538907378973 0.0 0.0
0.0 0.03962675243900305 0.016687789515424788 -0.017950243506345 0.0012624539909202122 1.3684366140243043e-14 0.0 0.0
0.0 0.02221542877630803 0.00954250725318643 -0.009278162743357497 -0.0002643445098289181 0.020074538907408623 0.0 0.0
0.0 0.015389184371833986 0.00484861159108697 -0.005238888210595526 0.0003902766195085472 0.019422714664644968 0.0 0.0
0.0 0.012647556580235069 0.002794659862538274 -0.002999843504910155 0.00020518364237188415 0.017843553095877943 0.0 0.0
0.0 0.010641215204103329 0.0011960257251311436 -0.0012836631677188473 8.763744258770607e-05 0.015667759429225374 0.0 0.0
0.0 0.008715568232219209 0.0003580708566239105 -0.00039807965792461596 4.000880130070332e-05 0.013307969198509604 0.0 0.0
0.0 0.006944902382027752 3.859929142185437e-05 -5.074261112503263e-05 1.2143319703180022e-05 0.01098004228755364 0.0 0.0
0.0 0.005289120206702713 -3.440467858212032e-05 3.559025967989407e-05 -1.1855810977742928e-06 0.00876058544493152 0.0 0.0
0.0 0.003790524158448434 -2.5633300540247694e-05 2.953529233425047e-05 -3.901991794001922e-06 0.00665749424686065 0.0 0.0
0.0 0.0024737809548104387 -8.71762014510285e-06 1.1168748422666545e-05 -2.4511282775649694e-06 0.004662479930292089 0.0 0.0
0.0 0.0014859367272863286 8.23861675541143e-08 -6.156401216906595e-08 -2.0822155384655323e-08 0.00281929540484884 0.0 0.0
0.0 0.0007746795152661591 3.303630377464765e-08 -1.8760035059057372e-08 -1.4276268715403929e-08 0.0015059455388250508 0.0 0.0
0.0 0.00046262538519493675 -3.278939882983865e-07 2.9416505292198387e-07 3.3728935376207804e-08 0.0007407002243623374 0.0 0.0
0.0 0.0002060450154568976 -1.4714702860866847e-06 1.4470632742659468e-06 2.4407011820711665e-08 0.0003557290444130477 0.0 0.0
0.0 7.938097577291732e-05 -1.963759450424941e-06 1.9595969180751266e-06 4.162532349852697e-09 0.00011389496483567043 0.0 0.0
0.0 4.872778503766511e-06 -1.30825736895709e-06 1.3511319826496402e-06 -4.287461369255872e-08 6.10233283202237e-07 0.0 0.0
0.0 -4.270904870525118e-07 -4.3099645421666164e-07 4.239856627949608e-07 7.01079142170498e-09 -1.651261316187309e-06 0.0 0.0
0.0 3.2753758365776553e-06 -3.0045335933978174e-07 2.4808064044136343e-07 5.237271889841806e-08 3.937059042240753e-06 0.0 0.0
0.0 3.460005232559894e-06 1.6368484553635094e-07 -1.4046833125853613e-07 -2.3216514277805968e-08 -2.8808849958823586e-06 0.0 0.0
0.0 -2.413763326570689e-05 -1.3813032344333942e-05 1.9800305136941752e-05 -5.987272792607845e-06 -2.383647102713462e-05 0.0 0.0
0.0 0.00016358085863187337 9.381105654138014e-05 -0.000139843149636251 4.6032093094871095e-05 0.00014865519022553937 0.0 0.0
0.0 5.100336937796535e-06 1.3326355782009861e-06 -2.507142073867576e-06 1.17450649566655e-06 -1.4958839521956874e-06 0.0 0.0
0.0 -1.0780592501119124e-06 -3.118744727307173e-07 5.064292693154608e-07 -1.9455479658474344e-07 2.1927680181887603e-06 0.0 0.0
0.0 1.0314493732517276e-06 1.4588947769330052e-07 -2.0628578904427478e-07 6.039631135097384e-08 -1.884767847496362e-06 0.0 0.0
0.0 5.413595488400727e-06 -3.551407649037923e-07 2.7605878608813435e-07 7.908197881565896e-08 -4.877057066599035e-06 0.0 0.0
0.0 3.22311984582055e-06 -6.150270716386917e-07 5.81402397788342e-07 3.3624673850350746e-08 -5.454724213603843e-06 0.0 0.0
0.0 7.12487762899654e-06 -1.2407282715310304e-06 1.36598305730106e-06 -1.2525478576998935e-07 -1.7255070738461794e-05 0.0 0.0
0.0 0.00010576498199065669 -1.1730573832929468e-05 9.662400827913083e-06 2.0681730050163077e-06 -0.0001251676878374391 0.0 0.0
0.0 0.00035929692043665956 -9.99816826654965e-05 8.442222083699386e-05 1.5559461828502532e-05 -0.0005367511864980039 0.0 0.0
0.0 0.0010864905235139907 -0.0004879898336439491 0.0004294071266599303 5.858270698401891e-05 -0.0014967692797133777 0.0 0.0
0.0 0.00253519335345697 -0.0014256338654440618 0.0012817280285960311 0.0001439058368480306 -0.003008555096010199 0.0 0.0
0.0 0.004727425233316684 -0.002835246098369069 0.002594516608453738 0.00024072948991532821 -0.0048385285898830226 0.0 0.0
0.0 0.007032096692213437 -0.004524843599034041 0.0041987986777224295 0.00032604492131160735 -0.0068862482062591 0.0 0.0
0.0 0.009735896330362601 -0.006411098929266314 0.006015921225552005 0.0003951777037143043 -0.00904172115120623 0.0 0.0
0.0 0.012708862470798374 -0.008470484921380684 0.008026360265894155 0.0004441246554865373 -0.011254229098130956 0.0 0.0
0.0 0.01576612729254076 -0.010611873277214258 0.010142062808998617 0.0004698104682156365 -0.013541233437671753 0.0 0.0
0.0 0.01873361547255114 -0.012606279191316287 0.012140386666210172 0.00046589252510610414 -0.0159565945611409 0.0 0.0
0.0 0.02119203130759777 -0.01407166284069932 0.013647044171259304 0.0004246186694400193 -0.018528634395584293 0.0 0.0
0.0 0.02291833812967867 -0.014531605489027821 0.014195900024055219 0.0003357054649726149 -0.021343080113448334 0.0 0.0
0.0 0.02298106667118349 -0.013434773550732113 0.013303427270098993 0.00013134628063312678 -0.024353131158471677 0.0 0.0
0.0 0.018728526320415474 -0.009754571769994756 0.010191856073912663 -0.00043728430391791435 -0.02638173106589957 0.0 0.0
0.0 0.03829621505357034 -0.00558601290628985 0.0029329560103081775 0.002653056895981673 1.9273645179840315e-14 0.0 0.0
0.0 0.01872852632042229 -0.009754571769994547 0.0101918560739122 -0.0004372843039176529 0.026381731065919737 0.0 0.0
0.0 0.022981066671179728 -0.013434773550727225 0.013303427270093263 0.00013134628063395055 0.024353131158489395 0.0 0.0
0.0 0.02291833812966008 -0.01453160548901452 0.014195900024042335 0.0003357054649721907 0.021343080113446825 0.0 0.0
0.0 0.021192031307576104 -0.014071662840684103 0.01364704417124443 0.00042461866943969105 0.018528634395572174 0.0 0.0
0.0 0.01873361547252675 -0.012606279191298385 0.012140386666193052 0.0004658925251053446 0.015956594561123236 0.0 0.0
0.0 0.015766127292523125 -0.010611873277200125 0.010142062808984966 0.0004698104682151451 0.013541233437658994 0.0 0.0
0.0 0.012708862470778542 -0.008470484921364832 0.008026360265879173 0.0004441246554856554 0.01125422909811925 0.0 0.0
0.0 0.009735896330341047 -0.006411098929250993 0.0060159212255370105 0.00039517770371398447 0.009041721151190608 0.0 0.0
0.0 0.007032096692193416 -0.004524843599019886 0.004198798677709356 0.00032604492131052196 0.006886248206242505 0.0 0.0
0.0 0.004727425233296863 -0.002835246098356874 0.002594516608441775 0.00024072948991510034 0.004838528589864531 0.0 0.0
0.0 0.0025351933534434536 -0.0014256338654351605 0.001281728028587897 0.00014390583684726504 0.0030085550959987536 0.0 0.0
0.0 0.0010864905235079508 -0.00048798983364040636 0.0004294071266567625 5.8582706983643926e-05 0.001496769279707124 0.0 0.0
0.0 0.00035929692043334504 -9.99816826645045e-05 8.442222083623085e-05 1.5559461828273772e-05 0.0005367511864939006 0.0 0.0
0.0 0.00010576498198899267 -1.173057383286875e-05 9.662400827841955e-06 2.068173005026787e-06 0.00012516768783681306 0.0 0.0
0.0 7.1248776284682965e-06 -1.2407282717418615e-06 1.3659830574623783e-06 -1.2525478572051426e-07 1.7255070739759448e-05 0.0 0.0
0.0 3.2231198452338594e-06 -6.150270717216943e-07 5.814023978577716e-07 3.362467386391139e-08 5.454724214268593e-06 0.0 0.0
0.0 5.413595487931694e-06 -3.551407650184017e-07 2.7605878618552567e-07 7.908197883287428e-08 4.87705706758843e-06 0.0 0.0
0.0 1.0314493728050395e-06 1.4588947768070408e-07 -2.0628578904341285e-07 6.039631136270435e-08 1.8847678480408687e-06 0.0 0.0
0.0 -1.0780592502752259e-06 -3.118744728117493e-07 5.064292694095114e-07 -1.9455479659776596e-07 -2.1927680183554788e-06 0.0 0.0
0.0 5.100336936334764e-06 1.3326355785762357e-06 -2.5071420744230413e-06 1.1745064958468276e-06 1.4958839530168454e-06 0.0 0.0
0.0 2.034611343575935e-06 -1.1794173393863115e-07 1.8495244463876623e-07 -6.701071070005743e-08 2.736999519842078e-07 0.0 0.0
0.0 6.517989142729799e-07 3.584160290224589e-08 -1.8339408406470115e-08 -1.7502194495790796e-08 4.35269537145853e-07 0.0 0.0
0.0 -1.1200550142311904e-06 4.806674568175656e-07 -4.0613097342983283e-07 -7.453648338774204e-08 3.0162441033215956e-06 0.0 0.0
0.0 2.9639538558630964e-06 -6.311613837779631e-07 4.888586225174369e-07 1.4230276126051513e-07 -6.147773294938314e-06 0.0 0.0
0.0 6.275242507284122e-06 1.6788359851583114e-06 -1.3350383238234938e-06 -3.4379766133475185e-07 4.261258531605633e-06 0.0 0.0
0.0 3.1476148914310484e-05 -1.7836965111275989e-06 1.5299319458559637e-06 2.5376456527160017e-07 -1.787703317149007e-05 0.0 0.0
0.0 0.00020874107239669367 -0.00011392765163179664 8.799284415823083e-05 2.59348074735659e-05 -0.00029554862285028694 0.0 0.0
0.0 0.0011140010688502284 -0.000700978106509174 0.0005614871436053412 0.00013949096290383244 -0.001187272016071784 0.0 0.0
0.0 0.002998792998136649 -0.002166220999471488 0.001835612101560296 0.0003306088979111917 -0.00285012420855367 0.0 0.0
0.0 0.006103306396380393 -0.0045068791506585005 0.00402199318803737 0.000484885962621127 -0.005062683502656992 0.0 0.0
0.0 0.009807060868338371 -0.007507011037864706 0.006925800444755914 0.0005812105931087911 -0.007677149185694368 0.0 0.0
0.0 0.014210926329415827 -0.010955526444242952 0.010306515841066306 0.0006490106031766521 -0.01038411862639061 0.0 0.0
0.0 0.019000436113392926 -0.014776499563761585 0.014068279765882742 0.0007082197978788347 -0.01306739755319914 0.0 0.0
0.0 0.024171729309021995 -0.01894903768222607 0.018194611072872516 0.0007544266093535386 -0.015699456568377443 0.0 0.0
0.0 0.029704443969591453 -0.023385022388898453 0.022600257605065045 0.0007847647838334071 -0.018378897294190503 0.0 0.0
0.0 0.03532994521020809 -0.02782700101623231 0.027033274823671745 0.00079372619256056 -0.02131270482524245 0.0 0.0
0.0 0.04051624946796902 -0.03182259619326829 0.031039444841526303 0.0007831513517419789 -0.02471833621429021 0.0 0.0
0.0 0.04443774599955997 -0.03475760600763902 0.03400056734969309 0.0007570386579459556 -0.028697397924687857 0.0 0.0
0.0 0.04635369398602985 -0.03554653375063641 0.034887732621181125 0.0006588011294552585 -0.03249931730222341 0.0 0.0
0.0 0.0432395600141659 -0.03185266480503482 0.031406358421159186 0.00044630638387561927 -0.0334514234239051 0.0 0.0
0.0 0.046979266898378266 -0.025925997834501936 0.022494752509895855 0.003431245324606055 2.0224273644675606e-14 0.0 0.0
0.0 0.04323956001417759 -0.03185266480503382 0.031406358421159436 0.00044630638387439667 0.03345142342395164 0.0 0.0
0.0 0.04635369398602276 -0.03554653375062314 0.03488773262116786 0.0006588011294552732 0.032499317302265976 0.0 0.0
0.0 0.04443774599953868 -0.03475760600761924 0.03400056734967424 0.0007570386579450149 0.02869739792470287 0.0 0.0
0.0 0.04051624946793161 -0.03182259619323827 0.031039444841496136 0.0007831513517421388 0.024718336214280132 0.0 0.0
0.0 0.03532994521017159 -0.027827001016202425 0.02703327482364233 0.0007937261925600774 0.021312704825224793 0.0 0.0
0.0 0.02970444396955746 -0.023385022388870937 0.022600257605038105 0.00078476478383284 0.01837889729417272 0.0 0.0
0.0 0.024171729308990725 -0.018949037682199573 0.018194611072846378 0.0007544266093531794 0.01569945656836196 0.0 0.0
0.0 0.019000436113355612 -0.014776499563731811 0.014068279765852901 0.0007082197978789067 0.013067397553180315 0.0 0.0
0.0 0.014210926329382124 -0.010955526444217116 0.01030651584104103 0.000649010603176082 0.010384118626367914 0.0 0.0
0.0 0.009807060868306156 -0.0075070110378402145 0.0069258004447316866 0.0005812105931085308 0.007677149185669513 0.0 0.0
0.0 0.0061033063963585096 -0.00450687915064216 0.004021993188021789 0.000484885962620374 0.005062683502640507 0.0 0.0
0.0 0.002998792998121908 -0.0021662209994605212 0.001835612101550547 0.0003306088979099747 0.0028501242085427177 0.0 0.0
0.0 0.0011140010688426138 -0.0007009781065040023 0.0005614871436011699 0.0001394909629028314 0.0011872720160647956 0.0 0.0
0.0 0.00020874107239309355 -0.0001139276516304864 8.799284415721563e-05 2.5934807473270905e-05 0.0002955486228475529 0.0 0.0
0.0 3.147614891346319e-05 -1.7836965113357894e-06 1.5299319460155363e-06 2.537645653201627e-07 1.7877033171990242e-05 0.0 0.0
0.0 6.27524250638732e-06 1.67883598500706e-06 -1.3350383236945434e-06 -3.4379766131251083e-07 -4.26125853080773e-06 0.0 0.0
0.0 2.963953855691448e-06 -6.311613839268109e-07 4.888586226395187e-07 1.4230276128729722e-07 6.14777329593351e-06 0.0 0.0
0.0 -1.1200550145821765e-06 4.806674567687355e-07 -4.061309734079903e-07 -7.453648336074017e-08 -3.016244102398137e-06 0.0 0.0
0.0 6.517989138461268e-07 3.5841602925004735e-08 -1.8339408420515165e-08 -1.7502194504486897e-08 -4.3526953747075245e-07 0.0 0.0
0.0 2.034611343773175e-06 -1.1794173394994551e-07 1.849524446547311e-07 -6.701071070482646e-08 -2.7369995201493404e-07 0.0 0.0
0.0 0.0 0.0 0.0 0.0 0.0 0.0 0.0
0.0 1.2951345076237668e-07 -1.1984736887160924e-10 4.165819247559616e-09 -4.045971878692226e-09 2.2064395044702225e-08 0.0 0.0
0.0 -7.978071473754413e-08 4.7582127148736993e-07 -3.7929804214907426e-07 -9.652322933828837e-08 2.5827242169049162e-06 0.0 0.0
0.0 1.4478656294840328e-06 1.1601699453907832e-06 -9.817695325412414e-07 -1.7840041284954283e-07 2.090769215726475e-06 0.0 0.0
0.0 5.009762510334063e-06 1.317849091729002e-06 -1.0103239084233771e-06 -3.075251833056705e-07 -2.6419664316886773e-06 0.0 0.0
0.0 5.071844327709278e-05 -4.004762887456889e-05 3.0404867298710506e-05 9.642761575858505e-06 -8.596390916228982e-05 0.0 0.0
0.0 0.0006219582024023778 -0.0004269810391625747 0.0003281991878493907 9.878185131318363e-05 -0.0005594055943083684 0.0 0.0
0.0 0.0022130501879865415 -0.001763394842332129 0.0014396410000629995 0.00032375384226912806 -0.0018649714435700214 0.0 0.0
0.0 0.005414666778011732 -0.0043186426207135475 0.0037772442367393867 0.000541398383974157 -0.003988711232286881 0.0 0.0
0.0 0.010238569230681286 -0.00800558441091521 0.007341967364343329 0.0006636170465718882 -0.006806902755038327 0.0 0.0
0.0 0.015596857932060932 -0.01256038467265616 0.011824571509919933 0.0007358131627362185 -0.009975456028366766 0.0 0.0
0.0 0.021852140510452586 -0.017746105592508273 0.016947472711083485 0.0007986328814247785 -0.013140525912677425 0.0 0.0
0.0 0.028809260192466053 -0.023486573588896987 0.022626303706824412 0.0008602698820725852 -0.016185874048852328 0.0 0.0
0.0 0.036332868435885346 -0.02977401067706468 0.028859170172616532 0.0009148405044481027 -0.01914480242896787 0.0 0.0
0.0 0.044494239104202075 -0.03653264891929034 0.03557816572843559 0.0009544831908547753 -0.022206091153416416 0.0 0.0
0.0 0.05282780598155769 -0.04349426325399865 0.042523344426464285 0.0009709188275342983 -0.0257389558872886 0.0 0.0
0.0 0.06112043733591059 -0.050100565874818564 0.04913913293460022 0.0009614329402182749 -0.030184959065690374 0.0 0.0
0.0 0.06785658069537798 -0.05538377530431912 0.05447527625127188 0.0009084990530472452 -0.035462402199576186 0.0 0.0
0.0 0.07125115507204173 -0.05763735399351703 0.056844776755371425 0.0007925772381455184 -0.04014089612979079 0.0 0.0
0.0 0.06728238597424363 -0.05360259968138511 0.05311011400711292 0.0004924856742721779 -0.04147733021700161 0.0 0.0
0.0 0.06505415875193883 -0.04580492669405793 0.041656820257796524 0.004148106436261428 2.2266910537638296e-14 0.0 0.0
0.0 0.06728238597424788 -0.05360259968137801 0.05311011400710657 0.0004924856742714837 0.041477330217056685 0.0 0.0
0.0 0.0712511550720341 -0.05763735399350194 0.056844776755356534 0.0007925772381453213 0.0401408961298466 0.0 0.0
0.0 0.06785658069534967 -0.05538377530429152 0.05447527625124529 0.000908499053046209 0.0354624021996021 0.0 0.0
0.0 0.06112043733585849 -0.05010056587477478 0.04913913293455634 0.0009614329402184618 0.030184959065682707 0.0 0.0
0.0 0.052827805981510434 -0.04349426325395884 0.04252334442642493 0.0009709188275339023 0.02573895588727158 0.0 0.0
0.0 0.044494239104153864 -0.03653264891925047 0.03557816572839609 0.0009544831908543761 0.02220609115339543 0.0 0.0
0.0 0.03633286843583713 -0.029774010677023805 0.02885917017257622 0.0009148405044475701 0.01914480242894892 0.0 0.0
0.0 0.028809260192415115 -0.023486573588854764 0.022626303706782373 0.0008602698820723711 0.01618587404883193 0.0 0.0
0.0 0.021852140510407243 -0.017746105592471712 0.016947472711047618 0.0007986328814240965 0.013140525912652488 0.0 0.0
0.0 0.015596857932019075 -0.012560384672623128 0.011824571509886896 0.00073581316273623 0.00997545602833932 0.0 0.0
0.0 0.010238569230649797 -0.008005584410890313 0.007341967364318836 0.0006636170465714739 0.006806902755017897 0.0 0.0
0.0 0.005414666777990107 -0.0043186426206966826 0.003777244236723737 0.0005413983839729446 0.003988711232273383 0.0 0.0
0.0 0.00221305018797508 -0.001763394842323121 0.0014396410000554187 0.00032375384226770337 0.0018649714435623674 0.0 0.0
0.0 0.0006219582023960487 -0.00042698103915855086 0.0003281991878461733 9.878185131237713e-05 0.0005594055943032805 0.0 0.0
0.0 5.071844327516833e-05 -4.00476288740674e-05 3.040486729833127e-05 9.6427615757361e-06 8.596390916158425e-05 0.0 0.0
0.0 5.009762510463657e-06 1.3178490912084436e-06 -1.0103239080047345e-06 -3.075251832037009e-07 2.641966433178264e-06 0.0 0.0
0.0 1.4478656287941321e-06 1.1601699452542107e-06 -9.817695324285505e-07 -1.7840041282565883e-07 -2.090769214922334e-06 0.0 0.0
0.0 -7.978071533264838e-08 4.758212715324535e-07 -3.792980421850098e-07 -9.652322934745053e-08 -2.5827242172276303e-06 0.0 0.0
0.0 1.2951345050887865e-07 -1.1984737480867214e-10 4.165819247859846e-09 -4.045971873048284e-09 -2.2064394944427083e-08 0.0 0.0
0.0 0.0 0.0 0.0 0.0 0.0 0.0 0.0
0.0 0.0 0.0 0.0 0.0 0.0 0.0 0.0
0.0 -1.2025212151614905e-07 -2.8111852206668733e-09 1.9303984439410896e-09 8.807867767261456e-10 -2.3879236813071873e-08 0.0 0.0
0.0 -2.4545258792095063e-07 3.2758297384237804e-07 -2.6103577795058987e-07 -6.654719589179071e-08 1.364426717869136e-06 0.0 0.0
0.0 -2.767318043922025e-06 7.878103390008299e-07 -6.596571781730354e-07 -1.2815316082778277e-07 9.474196124094554e-07 0.0 0.0
0.0 5.208127512324492e-06 3.435998668703674e-06 -3.1141731359508498e-06 -3.218255327528199e-07 5.577592826977171e-06 0.0 0.0
0.0 0.00020694713994544615 -0.00013460590976804295 0.00010060572755502328 3.4000182213019595e-05 -0.0001461442677482124 0.0 0.0
0.0 0.001188376248590683 -0.0009840935907158013 0.0007684225123883282 0.00021567107832747294 -0.0008520381411796876 0.0 0.0
0.0 0.0037216849791782687 -0.0031242183865446494 0.0026310403085186046 0.0004931780780260457 -0.002362496095762198 0.0 0.0
0.0 0.0084326401239976 -0.006762425417184868 0.0060799273864562756 0.0006824980307285895 -0.00480434068035377 0.0 0.0
0.0 0.014041397437654396 -0.011773022430251615 0.010995287450194702 0.0007777349800569195 -0.007960261976450823 0.0 0.0
0.0 0.021439116340008075 -0.017825207105841255 0.016982276279863977 0.0008429308259772734 -0.011340364737241475 0.0 0.0
0.0 0.029676637640852037 -0.024720672860392454 0.02381313778812224 0.0009075350722701837 -0.014687379179432346 0.0 0.0
0.0 0.03874858541123145 -0.03237349539647498 0.031397935581466536 0.0009755598150084678 -0.0178981368654109 0.0 0.0
0.0 0.04867399867004302 -0.040774355569422216 0.039734000511207276 0.0010403550582149287 -0.021013801339852367 0.0 0.0
0.0 0.059349390111228834 -0.04987151113400948 0.0487801283435827 0.0010913827904267647 -0.02423938711700082 0.0 0.0
0.0 0.07085579218553426 -0.05939196474206848 0.058277495974404195 0.001114468767664303 -0.028073533275225087 0.0 0.0
0.0 0.08158224502930574 -0.06862396227255578 0.0675292696438145 0.0010946926287412162 -0.03305953769818101 0.0 0.0
0.0 0.09110847739504635 -0.07615423218089955 0.07514074981733902 0.0010134823635605116 -0.03903598117970501 0.0 0.0
0.0 0.0959687555668083 -0.07954477182190653 0.0787077420639282 0.0008370297579783385 -0.04445502595641458 0.0 0.0
0.0 0.0910029873854289 -0.07472340073834245 0.07423005421857796 0.0004933465197645184 -0.04633915198286089 0.0 0.0
0.0 0.0849346185365832 -0.065247744883359 0.06048041072201979 0.004767334161339076 2.4849913793367762e-14 0.0 0.0
0.0 0.09100298738542831 -0.07472340073833232 0.07423005421856861 0.0004933465197637128 0.04633915198291745 0.0 0.0
0.0 0.095968755566789 -0.07954477182188256 0.07870774206390403 0.0008370297579784276 0.04445502595647267 0.0 0.0
0.0 0.0911084773950043 -0.07615423218086056 0.07514074981729978 0.001013482363560626 0.03903598117973386 0.0 0.0
0.0 0.08158224502924749 -0.06862396227250563 0.06752926964376424 0.0010946926287414515 0.03305953769817855 0.0 0.0
0.0 0.07085579218547156 -0.05939196474201539 0.058277495974350745 0.0011144687676645844 0.02807353327520874 0.0 0.0
0.0 0.05934939011116644 -0.04987151113395646 0.04878012834353019 0.0010913827904262701 0.024239387116979608 0.0 0.0
0.0 0.04867399866997969 -0.040774355569368044 0.03973400051115341 0.001040355058214659 0.021013801339832692 0.0 0.0
0.0 0.038748585411171606 -0.03237349539642454 0.0313979355814163 0.0009755598150082536 0.017898136865390355 0.0 0.0
0.0 0.029676637640794486 -0.024720672860344226 0.023813137788074663 0.0009075350722695555 0.014687379179406507 0.0 0.0
0.0 0.02143911633995685 -0.01782520710579897 0.016982276279822225 0.000842930825976738 0.011340364737212243 0.0 0.0
0.0 0.014041397437613005 -0.011773022430217278 0.010995287450160672 0.0007777349800566146 0.007960261976426533 0.0 0.0
0.0 0.008432640123969281 -0.006762425417162593 0.006079927386434935 0.0006824980307276563 0.00480434068033872 0.0 0.0
0.0 0.0037216849791607636 -0.0031242183865308353 0.0026310403085060387 0.0004931780780247956 0.0023624960957521427 0.0 0.0
0.0 0.0011883762485807017 -0.0009840935907084857 0.0007684225123824063 0.0002156710783260795 0.000852038141173318 0.0 0.0
0.0 0.00020694713994237637 -0.00013460590976638746 0.00010060572755379011 3.40001822125974e-05 0.0001461442677466614 0.0 0.0
0.0 5.20812751189858e-06 3.435998668163282e-06 -3.114173135517534e-06 -3.2182553264573563e-07 -5.577592825865625e-06 0.0 0.0
0.0 -2.7673180438744185e-06 7.87810338670959e-07 -6.596571779155395e-07 -1.2815316075540153e-07 -9.4741961132439e-07 0.0 0.0
0.0 -2.4545258815251133e-07 3.2758297387742095e-07 -2.610357779800352e-07 -6.654719589738571e-08 -1.3644267180136317e-06 0.0 0.0
0.0 -1.2025212151506954e-07 -2.8111852205958148e-09 1.930398443898689e-09 8.807867766964716e-10 2.387923681280424e-08 0.0 0.0
0.0 0.0 0.0 0.0 0.0 0.0 0.0 0.0
0.0 0.0 0.0 0.0 0.0 0.0 0.0 0.0
0.0 0.0 0.0 0.0 0.0 0.0 0.0 0.0
0.0 -3.558066448205109e-07 7.657138265489148e-08 -5.98316047497325e-08 -1.6739777905160303e-08 2.4958443708292833e-07 0.0 0.0
0.0 -3.4745490010014884e-06 2.772197921755852e-06 -2.242052303202581e-06 -5.301456185532464e-07 5.632702852443633e-06 0.0 0.0
0.0 4.030357057475817e-06 -1.160791345493991e-05 7.690061942217032e-06 3.917851512722856e-06 -1.0538014451734609e-05 0.0 0.0
0.0 0.0004519044480953936 -0.00034234152932720297 0.00025674183539184923 8.559969393535371e-05 -0.00023385805757003753 0.0 0.0
0.0 0.0020025543102523144 -0.001740144947388515 0.0013918021170143586 0.0003483428303741568 -0.001026886113448931 0.0 0.0
0.0 0.005729549078045805 -0.004710137933799419 0.004082742447704673 0.0006273954860947477 -0.002649022989050932 0.0 0.0
0.0 0.010912622030117438 -0.009431463992122741 0.00864922897072161 0.0007822350214011266 -0.005235677854536269 0.0 0.0
0.0 0.018462614455117543 -0.01567629703682205 0.014812306186045482 0.0008639908507765799 -0.008375833463421951 0.0 0.0
0.0 0.02737542348804389 -0.023204411447223683 0.022274110875026856 0.0009303005721968067 -0.01171885347760814 0.0 0.0
0.0 0.037523381030226635 -0.031805559366566136 0.030805352761988456 0.0010002066045777087 -0.015027358517452405 0.0 0.0
0.0 0.04877485353424021 -0.04137029274589058 0.040295533037099464 0.0010747597087909806 -0.018214781680262263 0.0 0.0
0.0 0.06117561156916147 -0.05187692722063783 0.05072855975174954 0.001148367468888424 -0.021317110326787795 0.0 0.0
0.0 0.07447224203337363 -0.06329768345722941 0.06208582336465532 0.0012118600925740733 -0.02449867223435715 0.0 0.0
0.0 0.08844674288091982 -0.07535538609123235 0.07411374963998092 0.0012416364512513618 -0.028198650939755616 0.0 0.0
0.0 0.10267265711456422 -0.08715683206859892 0.08594850871342366 0.0012083233551752693 -0.03304910270384842 0.0 0.0
0.0 0.1142715396510768 -0.09683206222625944 0.09574514959947633 0.0010869126267829445 -0.039144817487676516 0.0 0.0
0.0 0.11982100453982189 -0.10120489011896411 0.10034830804535164 0.0008565820736124492 -0.045207611428846835 0.0 0.0
0.0 0.11433741335109147 -0.09563544194037407 0.09514051165816852 0.0004949302822055779 -0.049206622514711695 0.0 0.0
0.0 0.10626110586616064 -0.08474173091340048 0.07943184337678562 0.005309887536614835 2.387326447639282e-14 0.0 0.0
0.0 0.11433741335109456 -0.09563544194036744 0.09514051165816403 0.0004949302822034968 0.0492066225147719 0.0 0.0
0.0 0.11982100453978509 -0.10120489011892667 0.10034830804531378 0.0008565820736128674 0.04520761142890263 0.0 0.0
0.0 0.11427153965102296 -0.0968320622262103 0.09574514959942743 0.001086912626782829 0.0391448174877059 0.0 0.0
0.0 0.10267265711449583 -0.08715683206853983 0.08594850871336428 0.0012083233551755043 0.03304910270384808 0.0 0.0
0.0 0.08844674288084373 -0.07535538609116711 0.07411374963991552 0.001241636451251596 0.028198650939742456 0.0 0.0
0.0 0.07447224203329672 -0.06329768345716352 0.06208582336458983 0.0012118600925736952 0.0244986722343396 0.0 0.0
0.0 0.06117561156908838 -0.05187692722057446 0.05072855975168694 0.0011483674688875102 0.021317110326768973 0.0 0.0
0.0 0.04877485353416631 -0.041370292745827424 0.0402955330370363 0.0010747597087910781 0.018214781680242455 0.0 0.0
0.0 0.03752338103015759 -0.03180555936650759 0.030805352761930534 0.0010002066045770364 0.015027358517427697 0.0 0.0
0.0 0.027375423487982442 -0.023204411447172234 0.02227411087497576 0.0009303005721964539 0.011718853477579557 0.0 0.0
0.0 0.01846261445506559 -0.01567629703677861 0.01481230618600219 0.0008639908507764192 0.00837583346339701 0.0 0.0
0.0 0.010912622030085162 -0.009431463992094477 0.008649228970694077 0.0007822350214003979 0.005235677854520641 0.0 0.0
0.0 0.005729549078021481 -0.00471013793377982 0.004082742447686352 0.0006273954860934696 0.002649022989039881 0.0 0.0
0.0 0.0020025543102412282 -0.001740144947379571 0.0013918021170069572 0.00034834283037261346 0.0010268861134434316 0.0 0.0
0.0 0.0004519044480904603 -0.0003423415293240566 0.00025674183538943043 8.559969393462593e-05 0.0002338580575678581 0.0 0.0
0.0 4.030357056617518e-06 -1.1607913454998887e-05 7.690061942274131e-06 3.917851512724704e-06 1.0538014452004409e-05 0.0 0.0
0.0 -3.474549001584344e-06 2.7721979216728418e-06 -2.24205230313461e-06 -5.301456185382253e-07 -5.6327028521433265e-06 0.0 0.0
0.0 -3.558066446449758e-07 7.65713826850354e-08 -5.983160477369352e-08 -1.673977791134048e-08 -2.4958443717929553e-07 0.0 0.0
0.0 0.0 0.0 0.0 0.0 0.0 0.0 0.0
0.0 0.0 0.0 0.0 0.0 0.0 0.0 0.0
0.0 0.0 0.0 0.0 0.0 0.0 0.0 0.0
0.0 0.0 0.0 0.0 0.0 0.0 0.0 0.0
0.0 -1.9259891853480113e-07 -1.2438204119640457e-08 9.900711751953166e-09 2.537492367688598e-09 -3.208399983975565e-08 0.0 0.0
0.0 -4.975001092079585e-06 2.700781109270237e-06 -2.202829887320648e-06 -4.979512219496172e-07 4.636342864025246e-06 0.0 0.0
0.0 5.632795880144256e-05 -3.720305251583538e-05 2.5118845732494642e-05 1.2084206783340837e-05 -1.2909373844349487e-05 0.0 0.0
0.0 0.0007358295948275827 -0.0006935921070682458 0.0005261837063462905 0.00016740840072195537 -0.00031364828945466914 0.0 0.0
0.0 0.0031986560779200465 -0.002669434881308462 0.0021940955667983345 0.0004753393145101268 -0.0010756178004438254 0.0 0.0
0.0 0.007376856690317823 -0.006496975253921848 0.005767703146213086 0.000729272107708764 -0.002726815663879883 0.0 0.0
0.0 0.014061181550738065 -0.012202167378572609 0.011344685816023955 0.000857481562548645 -0.005140417708630797 0.0 0.0
0.0 0.022820024692673732 -0.019659648383562336 0.01872306322185856 0.0009365851617037847 -0.008030391436953688 0.0 0.0
0.0 0.03338094099478728 -0.028647101997174955 0.027639040112886478 0.0010080618842884719 -0.011128804736060377 0.0 0.0
0.0 0.04547202370125574 -0.038948326057922394 0.03786457064980894 0.0010837554081134504 -0.014194376684467769 0.0 0.0
0.0 0.058984465830741906 -0.05042916097417539 0.04926528212666386 0.0011638788475114745 -0.017164567070057868 0.0 0.0
0.0 0.07346385088428276 -0.0630406526293427 0.06179583948080342 0.0012448131485392642 -0.020088162869576414 0.0 0.0
0.0 0.08948453841340946 -0.07672922373055381 0.07541168617701144 0.001317537553542469 -0.023029268252388272 0.0 0.0
0.0 0.10641262313556274 -0.09121675388948144 0.08986038345740702 0.001356370432074315 -0.026203737511490233 0.0 0.0
0.0 0.12293197446125272 -0.10549596156238197 0.10418063441578118 0.0013153271466007212 -0.03023164073784422 0.0 0.0
0.0 0.136881020239366 -0.11726912403912464 0.11611388925924573 0.0011552347798789494 -0.03580569476462861 0.0 0.0
0.0 0.14381448726691298 -0.12272848771477425 0.12185427724207284 0.0008742104727012542 -0.04278690149795862 0.0 0.0
0.0 0.13785134786357955 -0.11673139868083669 0.11624459801710955 0.0004868006637270409 -0.05056435615456881 0.0 0.0
0.0 0.1281924345197462 -0.10469938868915668 0.0989165135285894 0.005782875160567335 2.2842838731662596e-14 0.0 0.0
0.0 0.13785134786356873 -0.11673139868081998 0.11624459801709398 0.00048680066372589197 0.0505643561546264 0.0 0.0
0.0 0.14381448726687285 -0.12272848771473492 0.12185427724203333 0.0008742104727015164 0.04278690149801164 0.0 0.0
0.0 0.13688102023930326 -0.1172691240390685 0.11611388925919032 0.0011552347798782113 0.03580569476465678 0.0 0.0
0.0 0.12293197446117046 -0.1054959615623107 0.10418063441570957 0.001315327146601072 0.030231640737844637 0.0 0.0
0.0 0.10641262313547835 -0.0912167538894079 0.08986038345733459 0.001356370432073236 0.02620373751148155 0.0 0.0
0.0 0.08948453841332119 -0.07672922373047775 0.07541168617693586 0.0013175375535418746 0.023029268252375015 0.0 0.0
0.0 0.07346385088419738 -0.06304065262926882 0.06179583948073078 0.001244813148538002 0.02008816286955863 0.0 0.0
0.0 0.05898446583065339 -0.05042916097409901 0.04926528212658744 0.0011638788475115606 0.01716456707003835 0.0 0.0
0.0 0.045472023701174404 -0.038948326057852894 0.03786457064973993 0.0010837554081129536 0.01419437668444384 0.0 0.0
0.0 0.033380940994716585 -0.02864710199711462 0.027639040112826536 0.0010080618842881032 0.011128804736033657 0.0 0.0
0.0 0.022820024692617066 -0.01965964838351366 0.018723063221810343 0.0009365851617033037 0.008030391436932186 0.0 0.0
0.0 0.01406118155069373 -0.012202167378534337 0.01134468581598614 0.0008574815625482057 0.005140417708614484 0.0 0.0
0.0 0.007376856690290669 -0.006496975253898395 0.005767703146190751 0.0007292721077076389 0.0027268156638694105 0.0 0.0
0.0 0.0031986560779032674 -0.002669434881295045 0.0021940955667863957 0.0004753393145086489 0.0010756178004375048 0.0 0.0
0.0 0.0007358295948207479 -0.0006935921070630317 0.0005261837063421779 0.0001674084007208525 0.000313648289452122 0.0 0.0
0.0 5.6327958799780894e-05 -3.720305251535786e-05 2.5118845732180037e-05 1.2084206783177859e-05 1.2909373844187614e-05 0.0 0.0
0.0 -4.975001092053851e-06 2.700781109040063e-06 -2.2028298871438796e-06 -4.97951221896183e-07 -4.636342863708423e-06 0.0 0.0
0.0 -1.9259891850927365e-07 -1.243820411784055e-08 9.900711750511593e-09 2.5374923673294314e-09 3.208399983580417e-08 0.0 0.0
0.0 0.0 0.0 0.0 0.0 0.0 0.0 0.0
0.0 0.0 0.0 0.0 0.0 0.0 0.0 0.0
0.0 0.0 0.0 0.0 0.0 0.0 0.0 0.0
0.0 0.0 0.0 0.0 0.0 0.0 0.0 0.0
0.0 -7.18462332870173e-08 -5.322214849680892e-09 4.219826328331633e-09 1.102388521349622e-09 -1.0684932772376604e-08 0.0 0.0
0.0 -5.854947686215245e-06 4.103147991194719e-06 -3.3833009460630456e-06 -7.198470451316664e-07 5.34253341972561e-06 0.0 0.0
0.0 0.00014623692364836564 -0.00011584663409060198 8.131403830395793e-05 3.453259578664426e-05 -2.5054003304926937e-05 0.0 0.0
0.0 0.001302791724281759 -0.0011420177094420808 0.0008808976867987928 0.00026112002264328763 -0.0002788235075659485 0.0 0.0
0.0 0.004282166225456351 -0.00377934636900891 0.0031907507906902815 0.000588595578318626 -0.001011231111677319 0.0 0.0
0.0 0.009428236243240393 -0.008380686686873409 0.007577299419669113 0.0008033872672042943 -0.0024712345525100565 0.0 0.0
0.0 0.01715523951681901 -0.015031944137138816 0.014112381585915806 0.000919562551223005 -0.004491320584684561 0.0 0.0
0.0 0.02726194239307212 -0.023676715419500945 0.022675192951576592 0.0010015224679243405 -0.006945934122331637 0.0 0.0
0.0 0.03939546729049584 -0.034108920173776966 0.03302977275823839 0.001079147415538553 -0.009586557056511708 0.0 0.0
0.0 0.05342504714041457 -0.046107014505894356 0.044945887067736584 0.0011611274381578172 -0.012203857328774255 0.0 0.0
0.0 0.06885833627691933 -0.059513755019041124 0.058266858073753286 0.0012468969452878722 -0.014757112801855243 0.0 0.0
0.0 0.08615268711257888 -0.07421910215750835 0.072888587497817 0.0013305146596912548 -0.017311154497876485 0.0 0.0
0.0 0.10446432340644284 -0.09010902419637933 0.08870206809671709 0.0014069560996622095 -0.019860506712478666 0.0 0.0
0.0 0.1236662031855744 -0.10685380643925263 0.10539690056511523 0.0014569058741374348 -0.02230570710643671 0.0 0.0
0.0 0.14294312746372373 -0.12342014430766818 0.12199380665015659 0.0014263376575116109 -0.02492062593313702 0.0 0.0
0.0 0.15922385070286862 -0.1373300514455726 0.13608794129567206 0.001242110149900494 -0.02912746124887381 0.0 0.0
0.0 0.16774228171582087 -0.1442568627084815 0.14335501577825624 0.0009018469302252375 -0.03713874003143915 0.0 0.0
0.0 0.16212410383917394 -0.1383845008719192 0.1379272535950331 0.000457247276886316 -0.05016419291970028 0.0 0.0
0.0 0.1517694891174787 -0.12553591993216195 0.1193567445414611 0.006179175390700647 2.003085197710419e-14 0.0 0.0
0.0 0.16212410383915143 -0.13838450087189455 0.13792725359500832 0.0004572472768862786 0.05016419291974946 0.0 0.0
0.0 0.16774228171577354 -0.1442568627084377 0.14335501577821233 0.000901846930225284 0.03713874003148554 0.0 0.0
0.0 0.15922385070279724 -0.13733005144550992 0.13608794129561014 0.0012421101498997563 0.02912746124889692 0.0 0.0
0.0 0.14294312746363133 -0.123420144307588 0.12199380665007663 0.0014263376575113357 0.024920625933139002 0.0 0.0
0.0 0.1236662031854743 -0.10685380643916587 0.10539690056502872 0.001456905874137159 0.022305707106431025 0.0 0.0
0.0 0.10446432340633768 -0.09010902419628866 0.08870206809662678 0.0014069560996617944 0.0198605067124671 0.0 0.0
0.0 0.08615268711248011 -0.07421910215742246 0.0728885874977323 0.0013305146596901234 0.017311154497861986 0.0 0.0
0.0 0.06885833627682017 -0.059513755018955714 0.05826685807366796 0.0012468969452878868 0.014757112801840715 0.0 0.0
0.0 0.05342504714031899 -0.046107014505811776 0.04494588706765429 0.001161127438157484 0.012203857328753483 0.0 0.0
0.0 0.039395467290416875 -0.03410892017370872 0.03302977275817079 0.0010791474155379213 0.009586557056489926 0.0 0.0
0.0 0.027261942393007083 -0.023676715419444896 0.022675192951520932 0.0010015224679239658 0.006945934122312909 0.0 0.0
0.0 0.017155239516768443 -0.015031944137094657 0.014112381585872477 0.0009195625512221678 0.004491320584670482 0.0 0.0
0.0 0.00942823624320813 -0.008380686686844756 0.007577299419641402 0.0008033872672033619 0.002471234552500448 0.0 0.0
0.0 0.004282166225434669 -0.003779346368990386 0.0031907507906733835 0.0005885955783170002 0.0010112311116708549 0.0 0.0
0.0 0.0013027917242725566 -0.0011420177094346902 0.0008808976867928636 0.00026112002264182705 0.00027882350756368085 0.0 0.0
0.0 0.00014623692364679357 -0.00011584663408988992 8.131403830351941e-05 3.453259578637046e-05 2.505400330512267e-05 0.0 0.0
0.0 -5.854947686492708e-06 4.103147990682978e-06 -3.3833009456790144e-06 -7.198470450039552e-07 -5.342533419272711e-06 0.0 0.0
0.0 -7.184623319621463e-08 -5.322214842869262e-09 4.219826322927047e-09 1.1023885199412321e-09 1.0684932758656047e-08 0.0 0.0
0.0 0.0 0.0 0.0 0.0 0.0 0.0 0.0
0.0 0.0 0.0 0.0 0.0 0.0 0.0 0.0
0.0 0.0 0.0 0.0 0.0 0.0 0.0 0.0
0.0 0.0 0.0 0.0 0.0 0.0 0.0 0.0
0.0 0.0 0.0 0.0 0.0 0.0 0.0 0.0
0.0 -7.713553065686034e-06 7.0838873990798834e-06 -5.9617789503444e-06 -1.1221084487355085e-06 6.724493267707556e-06 0.0 0.0
0.0 0.00027387648916795803 -0.0002692608242465791 0.00019212232461305982 7.713849963351912e-05 -9.487957261058668e-06 0.0 0.0
0.0 0.0020175251714814454 -0.001732363956495501 0.001367672512420497 0.0003646914440750043 -0.00016512507121324707 0.0 0.0
0.0 0.005428866384888418 -0.005006595707560192 0.004329248276493137 0.0006773474310670516 -0.000773940377910373 0.0 0.0
0.0 0.011581417590352552 -0.0103184034639333 0.009455412228934503 0.0008629912349988131 -0.0018252179227340986 0.0 0.0
0.0 0.0202933549731606 -0.017883574597646133 0.01690957388360303 0.0009740007140431031 -0.0033118715557762545 0.0 0.0
0.0 0.031699577723958976 -0.02768810455784282 0.026627127815292747 0.001060976742550082 -0.005129860831100371 0.0 0.0
0.0 0.04549176765591397 -0.03954887444906662 0.038403481606896564 0.0011453928421700254 -0.007099429095798504 0.0 0.0
0.0 0.06129100126528824 -0.05324065573237399 0.05200728952709754 0.0012333662052763823 -0.009059616157591988 0.0 0.0
0.0 0.07922622565836604 -0.06857255118995065 0.06724891159553771 0.0013236395944130157 -0.01099358022926569 0.0 0.0
0.0 0.09840600432246677 -0.08538003633367461 0.0839699821598373 0.001410054173837277 -0.01297970979194231 0.0 0.0
0.0 0.11927435062407604 -0.10340933855563536 0.10192557805288563 0.0014837605027496932 -0.014959501544975308 0.0 0.0
0.0 0.14100048067863633 -0.12219536356295184 0.12066324188880807 0.0015321216741436753 -0.016633306094981037 0.0 0.0
0.0 0.1624413394181237 -0.14074207767071764 0.13921361892421513 0.0015284587465027436 -0.017790713918897083 0.0 0.0
0.0 0.18102228526151432 -0.1567882431065022 0.15539785136595197 0.0013903917405501886 -0.019747967426541464 0.0 0.0
0.0 0.19181269733653097 -0.16582137323600482 0.16484660469307855 0.0009747685429259571 -0.027305758996390483 0.0 0.0
0.0 0.18748264906210985 -0.16101357421918663 0.16063755202596836 0.0003760221932182365 -0.04693976541893427 0.0 0.0
0.0 0.17715571966269905 -0.14782836333450255 0.14135948783897775 0.006468875495524751 1.4417286808843244e-14 0.0 0.0
0.0 0.18748264906208237 -0.1610135742191594 0.160637552025942 0.00037602219321740014 0.046939765418973135 0.0 0.0
0.0 0.19181269733646866 -0.16582137323594906 0.16484660469302295 0.0009747685429262487 0.027305758996428862 0.0 0.0
0.0 0.18102228526143063 -0.1567882431064299 0.15539785136588025 0.001390391740549596 0.019747967426558613 0.0 0.0
0.0 0.1624413394180168 -0.1407420776706251 0.1392136189241228 0.0015284587465026111 0.01779071391889761 0.0 0.0
0.0 0.14100048067852058 -0.12219536356285209 0.12066324188870789 0.0015321216741441812 0.016633306094977027 0.0 0.0
0.0 0.11927435062395851 -0.1034093385555336 0.10192557805278442 0.0014837605027492355 0.014959501544968553 0.0 0.0
0.0 0.09840600432235391 -0.08538003633357669 0.08396998215974047 0.0014100541738362455 0.012979709791933013 0.0 0.0
0.0 0.0792262256582535 -0.06857255118985353 0.06724891159544027 0.0013236395944131478 0.010993580229255147 0.0 0.0
0.0 0.06129100126518179 -0.0532406557322821 0.05200728952700622 0.001233366205275811 0.00905961615757683 0.0 0.0
0.0 0.045491767655825334 -0.03954887444898936 0.0384034816068198 0.0011453928421695202 0.007099429095782227 0.0 0.0
0.0 0.031699577723882266 -0.027688104557775806 0.026627127815226092 0.0010609767425496862 0.0051298608310853385 0.0 0.0
0.0 0.020293354973105526 -0.01788357459759758 0.016909573883555316 0.0009740007140422839 0.003311871555766302 0.0 0.0
0.0 0.011581417590314457 -0.010318403463899525 0.009455412228901483 0.0008629912349980363 0.001825217922726567 0.0 0.0
0.0 0.005428866384863993 -0.005006595707538149 0.0043292482764726095 0.0006773474310655493 0.000773940377905248 0.0 0.0
0.0 0.002017525171469988 -0.001732363956485672 0.0013676725124122891 0.00036469144407338076 0.00016512507121154378 0.0 0.0
0.0 0.000273876489165292 -0.0002692608242449803 0.00019212232461195074 7.713849963302922e-05 9.487957261297616e-06 0.0 0.0
0.0 -7.713553065649719e-06 7.083887398715327e-06 -5.961778950066083e-06 -1.1221084486492867e-06 -6.724493267542487e-06 0.0 0.0
0.0 0.0 0.0 0.0 0.0 0.0 0.0 0.0
0.0 0.0 0.0 0.0 0.0 0.0 0.0 0.0
0.0 0.0 0.0 0.0 0.0 0.0 0.0 0.0
0.0 0.0 0.0 0.0 0.0 0.0 0.0 0.0
0.0 0.0 0.0 0.0 0.0 0.0 0.0 0.0
0.0 0.0 0.0 0.0 0.0 0.0 0.0 0.0
0.0 -8.47280049474625e-07 -1.1740973860751961e-06 -8.298441664419966e-07 2.003941552517201e-06 7.81586147476227e-06 0.0 0.0
0.0 0.0005768472250100836 -0.0004929770222039168 0.00035773241362277447 0.00013524460858114278 6.8095213284316e-05 0.0 0.0
0.0 0.0027328941692176143 -0.002452693015737428 0.0019870060267333156 0.0004656869890041111 4.243306409698177e-05 0.0 0.0
0.0 0.006903086385360432 -0.006287468015840427 0.005543650826079246 0.0007438171897611858 -0.0002775049763444425 0.0 0.0
0.0 0.013761826440702335 -0.012279777876336091 0.0113678607823671 0.0009119170939689705 -0.0008279941424951288 0.0 0.0
0.0 0.023510927852983435 -0.020719192847961993 0.019696493986407288 0.0010226988615547156 -0.0016088742047539175 0.0 0.0
0.0 0.036128664300763426 -0.03165434645785691 0.030537634596471998 0.0011167118613848968 -0.002586944797842816 0.0 0.0
0.0 0.051493765936726506 -0.04492849146014746 0.04372099990184092 0.001207491558306559 -0.0036627259007207163 0.0 0.0
0.0 0.06942992479132025 -0.060308603178308814 0.059007972448375634 0.0013006307299331733 -0.004757977417064782 0.0 0.0
0.0 0.08908888289489446 -0.07757244485461756 0.07617666346321005 0.0013957813914074124 -0.00588818219202839 0.0 0.0
0.0 0.11091805783631982 -0.09646248386487544 0.09497830156162129 0.0014841823032540895 -0.00707066937307851 0.0 0.0
0.0 0.13417300792970108 -0.1165921612014575 0.11503969854882957 0.0015524626526279973 -0.008239882226460906 0.0 0.0
0.0 0.1581054475932069 -0.1372906545560455 0.1357022188720986 0.0015884356839467313 -0.009160893338665484 0.0 0.0
0.0 0.18143433801637676 -0.15744950063378216 0.15586141664189904 0.0015880839918831703 -0.009433425612956068 0.0 0.0
0.0 0.2019918540675551 -0.1752239095080793 0.17367790466751643 0.0015460048405628942 -0.00938395735974094 0.0 0.0
0.0 0.21562339107376846 -0.1869745494365264 0.18568597535545872 0.0012885740810675166 -0.013422336805688996 0.0 0.0
0.0 0.2144222811834957 -0.1851403011978491 0.18484649726077707 0.0002938039370719171 -0.03525827507202227 0.0 0.0
0.0 0.20566535725895058 -0.17279210787832877 0.16646346028701225 0.006328647591316539 8.434225540199236e-15 0.0 0.0
0.0 0.21442228118346132 -0.1851403011978173 0.18484649726074603 0.00029380393707111464 0.03525827507204465 0.0 0.0
0.0 0.21562339107369555 -0.186974549436463 0.18568597535539505 0.0012885740810679258 0.013422336805710512 0.0 0.0
0.0 0.20199185406745515 -0.17522390950799308 0.1736779046674299 0.0015460048405631648 0.009383957359748537 0.0 0.0
0.0 0.18143433801625458 -0.157449500633677 0.15586141664179332 0.0015880839918836374 0.009433425612955456 0.0 0.0
0.0 0.1581054475930797 -0.1372906545559351 0.1357022188719882 0.0015884356839467521 0.009160893338663694 0.0 0.0
0.0 0.13417300792957276 -0.11659216120134626 0.11503969854871912 0.0015524626526272774 0.008239882226458469 0.0 0.0
0.0 0.11091805783619116 -0.0964624838647641 0.09497830156151026 0.0014841823032537298 0.007070669373074225 0.0 0.0
0.0 0.08908888289476785 -0.07757244485450816 0.07617666346310065 0.0013957813914075125 0.005888182192022048 0.0 0.0
0.0 0.06942992479120424 -0.06030860317820824 0.059007972448275686 0.0013006307299325644 0.0047579774170565465 0.0 0.0
0.0 0.051493765936628855 -0.044928491460062794 0.04372099990175694 0.0012074915583058826 0.0036627259007114468 0.0 0.0
0.0 0.03612866430068214 -0.03165434645778571 0.03053763459640151 0.001116711861384244 0.0025869447978343527 0.0 0.0
0.0 0.023510927852920423 -0.02071919284790645 0.019696493986352304 0.0010226988615541343 0.0016088742047484846 0.0 0.0
0.0 0.013761826440659496 -0.012279777876297927 0.011367860782329731 0.0009119170939681887 0.0008279941424912713 0.0 0.0
0.0 0.006903086385334212 -0.006287468015816583 0.005543650826056614 0.0007438171897599615 0.0002775049763419096 0.0 0.0
0.0 0.0027328941692028002 -0.002452693015724405 0.0019870060267219375 0.00046568698900246807 -4.243306409758191e-05 0.0 0.0
0.0 0.0005768472250059369 -0.0004929770222009279 0.00035773241362060536 0.00013524460858032212 -6.809521328391493e-05 0.0 0.0
0.0 -8.472800498760577e-07 -1.1740973861603899e-06 -8.298441663589145e-07 2.0039415525194073e-06 -7.815861474662241e-06 0.0 0.0
0.0 0.0 0.0 0.0 0.0 0.0 0.0 0.0
0.0 0.0 0.0 0.0 0.0 0.0 0.0 0.0
0.0 0.0 0.0 0.0 0.0 0.0 0.0 0.0
0.0 0.0 0.0 0.0 0.0 0.0 0.0 0.0
0.0 0.0 0.0 0.0 0.0 0.0 0.0 0.0
0.0 0.0 0.0 0.0 0.0 0.0 0.0 0.0
0.0 4.089878999096166e-05 -3.9592365426311e-05 2.5754204155372245e-05 1.3838161270938819e-05 1.616060975621587e-05 0.0 0.0
0.0 0.0009394425867887657 -0.000762649996878565 0.0005498642508134524 0.00021278574606511223 0.00018233427448373195 0.0 0.0
0.0 0.0034496862289321415 -0.003099802668839873 0.00248464362265931 0.0006151590461805579 0.000401282279797821 0.0 0.0
0.0 0.008059500876811003 -0.007374495255164956 0.0064160163676710395 0.0009584788874939299 0.0005257057221783347 0.0 0.0
0.0 0.01547137785290792 -0.013902851308574929 0.01267761666188202 0.001225234646692902 0.0005802930496299711 0.0 0.0
0.0 0.02589014718421638 -0.023041492799871634 0.021567084441794473 0.0014744083580771326 0.000553191782089424 0.0 0.0
0.0 0.039500941501976625 -0.03489428667354869 0.0331419479927018 0.0017523386808468316 0.00040067792476961885 0.0 0.0
0.0 0.056146624544454335 -0.049335967167300376 0.04725783244901571 0.0020781347182846476 0.00015960408734712935 0.0 0.0
0.0 0.07521970803126697 -0.06612809776200262 0.06367336789520012 0.002454729866802541 -0.00016060034290586115 0.0 0.0
0.0 0.09675574364864178 -0.08498884380216533 0.08212032777390726 0.0028685160282580563 -0.0005883101501496877 0.0 0.0
0.0 0.12032715369946857 -0.10559523723432952 0.10229774868069094 0.0032974885536386674 -0.0010929602810240014 0.0 0.0
0.0 0.1453812853333188 -0.1274579916018595 0.12375088478093026 0.003707106820929145 -0.0016838536157715977 0.0 0.0
0.0 0.17099449434837424 -0.14972853320088295 0.14567778793282968 0.004050745268053403 -0.0022456044286800463 0.0 0.0
0.0 0.19560521947968756 -0.17107572318579561 0.1668005502351299 0.004275172950665487 -0.0024876183605866097 0.0 0.0
0.0 0.2170939299642176 -0.18970100096453266 0.18534023780894998 0.004360763155582383 -0.0022185197150664873 0.0 0.0
0.0 0.23250863134264865 -0.20328129667816483 0.19880666839152555 0.004474628286639411 -0.004426373729766798 0.0 0.0
0.0 0.23563339176159637 -0.2065209521282189 0.20186312818584456 0.004657823942374446 -0.02695309264043605 0.0 0.0
0.0 0.2316304251057227 -0.19758931731274826 0.18584361963902246 0.011745697673725283 1.7763568394002505e-15 0.0 0.0
0.0 0.23563339176155768 -0.20652095212818483 0.20186312818581123 0.004657823942373389 0.026953092640441816 0.0 0.0
0.0 0.23250863134256813 -0.2032812966780946 0.19880666839145647 0.004474628286637897 0.004426373729774731 0.0 0.0
0.0 0.2170939299641037 -0.18970100096443376 0.18534023780885311 0.004360763155580943 0.0022185197150671916 0.0 0.0
0.0 0.19560521947955697 -0.1710757231856817 0.16680055023501744 0.004275172950664126 0.0024876183605843857 0.0 0.0
0.0 0.1709944943482355 -0.14972853320076224 0.14567778793271072 0.004050745268051159 0.0022456044286788303 0.0 0.0
0.0 0.1453812853331775 -0.1274579916017359 0.12375088478080896 0.003707106820926838 0.0016838536157708674 0.0 0.0
0.0 0.12032715369932923 -0.1055952372342078 0.10229774868057145 0.003297488553636309 0.0010929602810215277 0.0 0.0
0.0 0.09675574364850636 -0.0849888438020473 0.0821203277737912 0.0028685160282560227 0.000588310150146874 0.0 0.0
0.0 0.07521970803114147 -0.0661280977618935 0.0636733678950926 0.002454729866800799 0.00016060034290296676 0.0 0.0
0.0 0.056146624544350224 -0.049335967167209165 0.04725783244892666 0.0020781347182824927 -0.00015960408734948858 0.0 0.0
0.0 0.0395009415018922 -0.03489428667347506 0.033141947992629886 0.0017523386808451077 -0.0004006779247724794 0.0 0.0
0.0 0.025890147184149483 -0.02304149279981273 0.02156708444173713 0.001474408358075606 -0.0005531917820906676 0.0 0.0
0.0 0.015471377852860728 -0.013902851308532749 0.012677616661841258 0.0012252346466914868 -0.0005802930496294795 0.0 0.0
0.0 0.008059500876783827 -0.007374495255140087 0.006416016367647628 0.0009584788874924595 -0.0005257057221777334 0.0 0.0
0.0 0.0034496862289154417 -0.003099802668824302 0.002484643622645712 0.0006151590461785899 -0.00040128227979647634 0.0 0.0
0.0 0.0009394425867837082 -0.0007626499968746275 0.0005498642508106621 0.00021278574606396755 -0.00018233427448248446 0.0 0.0
0.0 4.089878999034574e-05 -3.959236542591831e-05 2.575420415510734e-05 1.3838161270810983e-05 -1.6160609756087833e-05 0.0 0.0
0.0 0.0 0.0 0.0 0.0 0.0 0.0 0.0
0.0 0.0 0.0 0.0 0.0 0.0 0.0 0.0
0.0 0.0 0.0 0.0 0.0 0.0 0.0 0.0
SCALARS Wm float 4
LOOKUP_TABLE default
13.87714089729618 2.067409464088521 5.933961462102356 5.8757699711052975
7.188939994142004 3.404170121506652 1.7194801110809232 2.06528976155443
0.8231889158350918 0.7382666142939519 0.017242589207926318 0.06767971233321331
0.5944039760000484 0.5445496120680451 0.013935779567383472 0.035918584364619706
1.2938960225293406 0.8525789528563767 0.1610185974900048 0.280298472182958
2.939044466744572 1.2813528776987295 0.6412533359530062 1.0164382530928369
6.233206321459936 1.886022376292154 1.9365612772813074 2.410622667886474
11.66750791692484 2.6800474387055133 4.359120314532874 4.628340163686452
19.789715015154727 3.7255053657466375 8.306164423254916 7.758045226153159
30.965259316327106 5.046625306838999 14.089988494744787 11.828645514743345
45.31357119783364 6.642384691513463 21.87436424894968 16.796822257370494
62.65077336292523 8.493141784782575 31.575360652319706 22.582270925822954
82.96488151098518 10.56079922639227 43.309973013723365 29.094109270869538
106.00763344600266 12.800572502020835 56.96824771625627 36.238813227725586
131.29013406794243 15.036318419038764 72.3733587989291 43.880456849974486
157.93657818330456 16.98461443420516 89.14503297217537 51.80693077692401
184.561800631263 18.331358527303866 106.50867427535628 59.721767828602864
209.43813502646586 18.868510611509667 123.39483339263172 67.17479102232429
230.80256457994125 18.711903107813598 138.44281518260888 73.64784628951888
245.80621174121197 17.48417950042853 149.80305286481732 78.51897937596587
250.5306089315717 15.107000145111 154.75862558494663 80.66498320151405
245.80621174118536 17.484179500439048 149.8030528647909 78.51897937595544
230.80256457985593 18.711903107800797 138.4428151825581 73.6478462894969
209.43813502634774 18.8685106114978 123.39483339255764 67.17479102229214
184.56180063113547 18.331358527298686 106.50867427527187 59.72176782856496
157.9365781831774 16.98461443420457 89.14503297208908 51.806930776883746
131.29013406780848 15.036318419028705 72.37335879884597 43.880456849933815
106.00763344588594 12.800572502027208 56.96824771617489 36.23881322768388
82.96488151086456 10.56079922638113 43.309973013652225 29.094109270831204
62.65077336281877 8.493141784772572 31.575360652258272 22.58227092578796
45.31357119774094 6.6423846915018 21.874364248899468 16.796822257339656
30.965259316251732 5.046625306823087 14.089988494709235 11.828645514719419
19.78971501510183 3.725505365733821 8.306164423232063 7.758045226135948
11.667507916892248 2.6800474387006656 4.359120314517974 4.628340163673609
6.233206321441399 1.8860223762894315 1.9365612772735092 2.4106226678784584
2.939044466735082 1.2813528776964584 0.6412533359501144 1.0164382530885079
1.2938960225258191 0.8525789528546647 0.16101859748925126 0.2802984721819034
0.5944039759995451 0.5445496120678713 0.013935779567272296 0.03591858436440155
0.8231889158335142 0.7382666142926964 0.01724258920780065 0.06767971233301621
7.188939994137327 3.404170121508462 1.7194801110776958 2.0652897615511647
13.877140897265647 2.0674094640727056 5.933961462094182 5.875769971098776
16.713686885803 7.211446101988707 4.643492068670385 4.858748715143911
3.0011833820278793 0.6603064830092715 1.0022357389236063 1.3386411600950008
0.29277576012272183 0.34536035423364 -0.018597672319182124 -0.033986921791735965
0.4562688421195184 0.43767554044631407 0.0038697617733172256 0.014723539899887105
0.9691566223464367 0.692118812713124 0.08887772003493766 0.18816008959837538
2.340730421023099 1.0364068032497868 0.5057563461053429 0.798567271667968
5.113293443505084 1.4508279512818647 1.5933013936450175 2.069164098578201
9.868232621175503 1.979844712794468 3.768331286585613 4.120056621795424
17.01115826479302 2.6202580340542623 7.356527860983476 7.034372369755286
26.77824811592496 3.3591915063059576 12.597489353370126 10.821567256248866
39.24003372983613 4.175207426868747 19.63477236256293 15.43005394040444
54.39859578605831 5.072683797596909 28.546809467420196 20.779102521041214
71.91629501967711 6.052111191625093 39.06730185077862 26.796881977273415
91.9248221792622 7.0691563028770465 51.4552726654819 33.40039321090324
113.94688973346395 8.049895610434218 65.41580907969102 40.48118504333876
137.31191514980014 8.849864822236276 80.61519126851907 47.84685905904476
160.9408568172311 9.30211105977741 96.44534095491807 55.19340480253559
183.3612242222368 9.294976140586169 111.92343244088329 62.142815640767395
202.61057680390027 8.71516598504563 125.71073979135872 68.18467102749588
216.22079612291023 7.655263041899046 135.97758704358188 72.5879460374294
221.47528426362743 6.4435242400571475 140.52161739319217 74.51014263037824
216.22079612287484 7.655263041896852 135.97758704355851 72.58794603741948
202.61057680383175 8.715165985042226 125.71073979131344 68.1846710274761
183.3612242221385 9.294976140581277 111.92343244081849 62.14281564073877
160.94085681711786 9.302111059773289 96.44534095484316 55.193404802501306
137.3119151496819 8.849864822232025 80.61519126844142 47.84685905900844
113.94688973334442 8.049895610427306 65.41580907961574 40.481185043301394
91.92482217915091 7.069156302875322 51.455272665409716 33.40039321086585
71.91629501957388 6.0521111916229735 39.06730185071337 26.796881977237515
54.39859578596771 5.072683797596427 28.546809467363413 20.779102521007864
39.24003372975704 4.17520742686388 19.63477236251742 15.430053940375725
26.778248115863118 3.3591915062980617 12.597489353338212 10.82156725622684
17.011158264748804 2.6202580340468837 7.356527860962764 7.034372369739149
9.86823262114735 1.9798447127919354 3.7683312865720584 4.1200566217833545
5.113293443488695 1.4508279512793958 1.5933013936383076 2.06916409857099
2.3407304210152082 1.0364068032483524 0.5057563461024943 0.7985672716643631
0.9691566223437618 0.6921188127121245 0.08887772003429528 0.1881600895973426
0.45626884211909635 0.43767554044589846 0.0038697617732919116 0.014723539899906109
0.2927757601226033 0.34536035423339584 -0.01859767231912357 -0.03398692179166865
3.001183382020482 0.6603064830081158 1.002235738920541 1.338641160091827
16.713686885775385 7.211446101976597 4.643492068661973 4.858748715136798
12.725556087835237 5.776528106868098 3.2651612033699844 3.6838667775971525
1.8827155104162185 0.2883378942760167 0.6711534904752804 0.9232241256649228
0.18117822402267342 0.1804839730129235 0.00013284729220083868 0.0005614037175490966
0.3352103337525518 0.33606278256627947 -0.000573898388502964 -0.0002785504252246053
0.7273329209616396 0.5948392834219348 0.03650910464933324 0.0959845328903714
1.8216511758305074 0.9268757012540088 0.33427181900661773 0.5605036555698816
4.1513999476765875 1.32135813655931 1.185783823482004 1.644257987635274
8.29931222168965 1.8046865949005764 3.0304786015163763 3.464147025272697
14.57558953005064 2.369523866996785 6.121399555900098 6.084666107153755
23.187128220110054 3.0037565847485004 10.69147591323857 9.491895722122981
34.127582718019305 3.701161486863291 16.805608212536985 13.620813018619042
47.30200125013174 4.469911012907378 24.43516524936325 18.396924987861084
62.792588179017486 5.324062503736319 33.71608202071287 23.752443654568328
80.1854547862655 6.241265896939662 44.30571453674541 29.638474352580403
99.51831479816968 7.147693906367662 56.4149455638207 35.9556753279813
120.13114909215483 7.9441100135824065 69.63217518248076 42.554863896091675
141.1245380134377 8.482944544819023 83.44388131322542 49.19771215539331
161.1274050317253 8.585421392688298 97.0435052579443 55.49847838109269
178.26414572266677 8.115526423578364 109.18926723532397 60.95935206376443
190.38614788457994 7.31433989815016 118.17106948621723 64.90073850021257
194.82612955872108 5.772042616241561 122.3310896999628 66.72299724251671
190.38614788456758 7.3143398981702195 118.17106948619498 64.9007385002023
178.26414572262354 8.115526423595389 109.1892672352826 60.95935206374555
161.12740503165134 8.585421392693101 97.04350525789015 55.49847838106811
141.1245380133474 8.482944544824662 83.44388131316025 49.19771215536246
120.131149092049 7.944110013572929 69.63217518241609 42.55486389606004
99.5183147980629 7.147693906358207 56.414945563756106 35.955675327948605
80.18545478616919 6.241265896936368 44.30571453668485 29.638474352547917
62.79258817892814 5.32406250373714 33.71608202065532 23.752443654535703
47.30200125004599 4.4699110128990025 24.43516524931498 18.396924987832026
34.127582717951206 3.7011614868622145 16.8056082124965 13.62081301859248
23.18712822005776 3.0037565847435204 10.691475913211056 9.491895722103175
14.575589530013165 2.369523866991882 6.121399555882054 6.084666107139229
8.2993122216636 1.8046865948964628 3.0304786015049747 3.4641470252621676
4.15139994766179 1.321358136556988 1.1857838234762597 1.644257987628541
1.8216511758245744 0.9268757012531053 0.3342718190044998 0.5605036555669689
0.7273329209602727 0.594839283421553 0.03650910464898821 0.09598453288973158
0.33521033375239073 0.3360627825660074 -0.0005738983884814339 -0.0002785504251352106
0.18117822402258413 0.1804839730128488 0.00013284729219796242 0.0005614037175374012
1.882715510410717 0.28833789427559087 0.6711534904728743 0.9232241256622495
12.725556087806858 5.776528106855125 3.2651612033619184 3.683866777589818
9.667324812618675 4.507619290037306 2.336030617790018 2.823674904791353
1.2756398166231566 0.13097872601106644 0.4577602355247608 0.6869008550873273
0.12636424395891882 0.12636424395891882 0.0 0.0
0.24861316344117723 0.2505539587973908 -0.00032498888779861393 -0.001615806468414886
0.5412693790429945 0.49836312955808526 0.009574078921486335 0.03333217056342304
1.3565542643201562 0.8029234291671464 0.18876798817049886 0.3648628469825111
3.2921247307417527 1.1923824601999304 0.8566906002796468 1.243051670262175
6.7941856367454845 1.626731094380351 2.343656404731199 2.8237981376339354
12.220570553058558 2.121484111053491 4.9572664251849465 5.141820016820117
19.673925883471057 2.662461953181546 8.848519505759988 8.162944424529517
29.09692900444948 3.2508717897566974 14.034189907981201 11.811867306711585
40.48606228620353 3.909872221781045 20.562970593676106 16.013219470746392
53.672087439902455 4.648239630269768 28.308279785579984 20.71556802405269
68.82660370909711 5.457073494256958 37.49744577386271 25.872084440977456
85.4712785549336 6.302551871753357 47.740612933253104 31.428113749927128
103.3043674237753 7.097034664987391 58.94546330082034 37.26186945796757
121.75330558077678 7.706217345508263 70.88169176941875 43.165396465849746
139.45741986901598 7.938807782871237 82.6884378673196 48.83017421882514
154.73951039650984 7.6627496245422755 93.28833207800365 53.78842869396385
165.7095017602728 7.018317712715846 101.25184087141466 57.43934317614231
169.7430728205749 5.1780364089069115 105.31381674946898 59.251219662198984
165.70950176025337 7.018317712728382 101.2518408713924 57.43934317613258
154.7395103964406 7.662749624522287 93.28833207796981 53.788428693948475
139.45741986894723 7.938807782870503 82.68843786727334 48.83017421880342
121.75330558068563 7.706217345498258 70.88169176936435 43.165396465823
103.3043674237048 7.097034665000872 58.94546330076443 37.2618694579395
85.47127855484655 6.302551871751209 47.74061293319773 31.428113749897534
68.82660370901613 5.457073494255931 37.49744577381127 25.872084440948925
53.6720874398199 4.648239630263354 28.308279785531898 20.71556802402462
40.48606228614069 3.9098722217850344 20.56297059363512 16.013219470720543
29.096929004387196 3.250871789751779 14.034189907947042 11.81186730668839
19.673925883427117 2.662461953180949 8.848519505735155 8.162944424511004
12.220570553026889 2.121484111051851 4.957266425168617 5.141820016806424
6.794185636725471 1.6267310943788322 2.3436564047220148 2.8237981376246224
3.2921247307289305 1.1923824601967934 0.8566906002751122 1.2430516702570253
1.3565542643150752 0.802923429165959 0.18876798816893023 0.3648628469801858
0.5412693790420263 0.49836312955738327 0.009574078921379507 0.03333217056326341
0.24861316344107987 0.25055395879729236 -0.0003249888877967794 -0.0016158064684157099
0.12636424395867651 0.12636424395867651 0.0 0.0
1.2756398166178027 0.1309787260103739 0.4577602355225865 0.6869008550848432
9.667324812596542 4.507619290028562 2.3360306177833894 2.8236749047845944
7.241501866611773 3.492701404729006 1.6196057824911472 2.129194679391623
0.9346399540762155 0.1183821791957204 0.3299156733555164 0.48634210152497787
0.11495778923442178 0.11495778923442178 0.0 0.0
0.19873855523418774 0.19884238190282777 -6.573613854831684e-06 -9.725305478525107e-05
0.4027556541137223 0.4029127721821939 -0.0022355674046678565 0.002078449336196278
0.9876545426601633 0.6888272448260587 0.09249163144866158 0.2063356663854421
2.505857758284983 1.0434548181810734 0.5801777326736104 0.8822252074303003
5.375807437008154 1.4486886577463174 1.7206928148363105 2.206425964425527
9.948933397628517 1.8769098178147852 3.8607545579520273 4.211269021861708
16.254966140661146 2.3344206748993788 7.080112251244284 6.8404332145174855
24.234673744232104 2.8291336990017197 11.399577882962982 10.0059621622674
33.81602784248388 3.3844558233597164 16.799224929600136 13.632347089524028
44.99673008157957 4.022678055963393 23.296684041870073 17.6773679837461
57.580933465079795 4.738936835729294 30.725287430552967 22.116709198797523
71.71831185958008 5.503689047351849 39.3123689727835 26.902253839444725
87.01679367214717 6.284237414699369 48.77872234308471 31.95383391436308
102.81756096573858 6.967387379226476 58.724707523798166 37.12546606271394
118.29930621668368 7.361374981031316 68.79471947421403 42.14321176143834
131.9402567783456 7.288912821439312 78.0360336618605 46.61531029504583
142.0703326591487 6.782665412208814 85.25366573029689 50.03400151664299
145.88168102784667 4.62448219074669 89.32145036181068 51.935748475289294
142.0703326591142 6.782665412197532 85.25366573028123 50.03400151663544
131.9402567783167 7.28891282145032 78.03603366183367 46.61531029503276
118.29930621663141 7.361374981037337 68.79471947417517 42.14321176141888
102.81756096566642 6.967387379219114 58.724707523754915 37.1254660626924
87.01679367207099 6.284237414696728 48.778722343036534 31.9538339143377
71.71831185949877 5.50368904734005 39.312368972738625 26.902253839420144
57.58093346500614 4.738936835723228 30.725287430510008 22.1167091987729
44.99673008151547 4.022678055961772 23.296684041831316 17.67736798372238
33.816027842423416 3.384455823358156 16.799224929564552 13.632347089500708
24.234673744183283 2.829133698998631 11.399577882936237 10.005962162248416
16.25496614062028 2.334420674895722 7.080112251223332 6.840433214501229
9.948933397600976 1.8769098178141526 3.860754557937795 4.211269021849028
5.375807436990035 1.4486886577442923 1.720692814828415 2.206425964417327
2.505857758276226 1.043454818179421 0.5801777326704073 0.8822252074263989
0.987654542656482 0.6888272448247286 0.09249163144776776 0.2063356663839854
0.40275565411297437 0.40291277218128735 -0.0022355674046462518 0.0020784493363333934
0.1987385552339214 0.19884238190260276 -6.573613857969421e-06 -9.725305482338369e-05
0.11495778923434258 0.11495778923434258 0.0 0.0
0.9346399540726081 0.11838217919560962 0.32991567335386895 0.48634210152313107
7.241501866593501 3.4927014047212133 1.6196057824861403 2.1291946793861434
5.32717218850117 2.6826039964899593 1.0955291693909213 1.5490390226202897
0.6639839629002829 0.14468198953427772 0.18963864905200684 0.32966332431399864
0.13008735208579264 0.13008735208579264 0.0 0.0
0.17662319617246516 0.17657605575304836 4.345643100457388e-06 4.279477631637461e-05
0.31454579609899963 0.32517622451038114 -0.0029197575148549744 -0.007710670896526358
0.6981650166314445 0.569801785741036 0.030966716795091942 0.09739651409531662
1.784892594059954 0.8810807461656457 0.3222480495919427 0.5815637983023652
4.109105251005598 1.2606191414812242 1.225508389812679 1.6229777197116944
7.757584665300182 1.635920087543909 2.8228294471790067 3.2988351305772663
12.973909263205295 2.020815304487262 5.423416050675951 5.529677908042077
19.526532627127956 2.431670383840262 8.887538287277973 8.207323956009725
27.357193060051642 2.897869264910946 13.20130884730399 11.258014947836724
36.446949063994374 3.4424517252598923 18.35836517916623 14.646132159568248
46.841318699934746 4.070752868985594 24.407598059716502 18.362967771232654
58.389899847357455 4.772596687222991 31.232848873674733 22.384454286459714
70.94751974753936 5.50826547486514 38.788298801563464 26.650955471110777
84.39377783999288 6.238181913759291 47.103209599800905 31.052386326432686
97.6864053128356 6.816676044645633 55.44299448902886 35.426734779161116
109.74538578999568 6.974418874082982 63.313755507703064 39.457211408209616
119.24834248838589 6.607459084902411 69.93955974381079 42.70132365967267
122.99524128976712 4.1169872230708116 74.13936424508633 44.738889821610066
119.2483424883903 6.6074590849259245 69.93955974379799 42.701323659666336
109.74538578996102 6.974418874084543 63.313755507678955 39.45721140819759
97.68640531278609 6.816676044642271 55.44299448899808 35.42673477914571
84.39377783993825 6.2381819137590595 47.103209599765194 31.05238632641394
70.9475197474791 5.5082654748647215 38.788298801525066 26.650955471089368
58.389899847296384 4.772596687215562 31.23284887364057 22.384454286440242
46.8413186998753 4.070752868979296 24.407598059683444 18.36296777121256
36.446949063936465 3.4424517252520097 18.358365179135742 14.646132159548728
27.357193060001634 2.8978692649074644 13.2013088472764 11.25801494781777
19.52653262709032 2.4316703838410842 8.887538287255927 8.207323955993308
12.97390926317331 2.0208153044839583 5.423416050660259 5.52967790802909
7.757584665277295 1.6359200875423077 2.8228294471680897 3.298835130566899
4.1091052509912185 1.2606191414783317 1.2255083898071137 1.6229777197057724
1.784892594053055 0.8810807461643557 0.32224804958957187 0.5815637982991265
0.698165016629302 0.5698017857402667 0.030966716794625284 0.09739651409441011
0.3145457960984444 0.325176224509599 -0.002919757514811976 -0.0077106708963425455
0.17662319617219416 0.17657605575277657 4.34564310040555e-06 4.2794776317117684e-05
0.13008735208544625 0.13008735208544625 0.0 0.0
0.6639839628972641 0.14468198953402 0.18963864905076167 0.32966332431248213
5.327172188487402 2.682603996484523 1.0955291693871176 1.5490390226157622
3.7861639675264604 2.029677033038997 0.6819738412275081 1.074513093259956
0.4941326483213687 0.18830270003816257 0.10422552090339639 0.20160442737980977
0.1565994519871387 0.15660410195090363 -2.498229005542216e-07 -4.400140864375743e-06
0.17318649038916195 0.17319290937470522 -2.382804681920647e-07 -6.18070507507026e-06
0.2632715015319438 0.2700465554754046 -0.0014516895991934036 -0.005323364344267475
0.49716818972825844 0.4674579390639664 0.002535209654105757 0.02717504101018664
1.2237270030415313 0.7282616393434753 0.16027810015783636 0.33518726354022
2.87671841884095 1.050092300990403 0.719846060414582 1.1067800574359663
5.815513249861137 1.397543272673994 1.9973003935331763 2.420669583653967
9.810687419762019 1.7176307067224286 3.858355814227183 4.234700898812411
15.014720125988012 2.058103863880103 6.535004782915713 6.42161147919219
21.169420660487315 2.445879619820833 9.829286645133793 8.89425439553269
28.276742777829362 2.9067924135676786 13.74328323973434 11.626667124527355
36.39268927222278 3.4557061751630234 18.316069495241297 14.62091360181846
45.49975086498571 4.085796635482595 23.537918497169024 17.87603573233409
55.634708935851336 4.78000066388361 29.502827762482692 21.351880509485028
66.24015871810849 5.520923161186048 35.731613524422265 24.987622032500166
77.46243775029046 6.252788549308805 42.545481059440306 28.664168141541346
88.25682954576091 6.685757803919274 49.331195921662626 32.239875820178995
97.20184150951155 6.503157217336615 55.332021137295065 35.36666315487987
101.06016665446647 3.6702700247474254 59.773087602093106 37.61680902762587
97.20184150948101 6.503157217320933 55.332021137285196 35.36666315487487
88.25682954572457 6.685757803906681 49.33119592164697 32.239875820170944
77.46243775024016 6.252788549289927 42.545481059419835 28.664168141530382
66.24015871806654 5.520923161189065 35.73161352439349 24.987622032483994
55.63470893580024 4.780000663879483 29.502827762452863 21.351880509467897
45.49975086494263 4.085796635483113 23.537918497141987 17.876035732317533
36.39268927218135 3.4557061751610694 18.316069495217217 14.620913601803052
28.276742777790123 2.906792413565996 13.743283239711982 11.626667124512158
21.16942066044774 2.445879619816052 9.82928664511362 8.894254395518065
15.014720125953186 2.058103863876519 6.535004782898292 6.421611479178371
9.810687419739661 1.7176307067236183 3.85835581421464 4.2347008988014
5.8155132498425255 1.3975432726709633 1.9973003935252425 2.420669583646321
2.8767184188309534 1.050092300988829 0.719846060410739 1.1067800574313855
1.22372700303639 0.7282616393415973 0.16027810015651903 0.33518726353827355
0.49716818972656995 0.46745793906305333 0.0025352096538790825 0.02717504100963801
0.26327150153129325 0.2700465554746893 -0.0014516895991736284 -0.005323364344222435
0.17318649038882325 0.1731929093743558 -2.3828046750136562e-07 -6.180705065057584e-06
0.1565994519866498 0.1566041019504066 -2.4982290001210207e-07 -4.400140856849962e-06
0.49413264831890646 0.18830270003783117 0.10422552090248048 0.20160442737859446
3.7861639675161154 2.029677033034679 0.6819738412249163 1.0745130932565214
2.65892796827098 1.5455028760172653 0.4343290433248873 0.6790960489288278
0.3608792082599705 0.2172006376158232 0.03717911711630998 0.10649945352783717
0.1841750899464551 0.18394369369065544 2.400470300736774e-05 0.00020739155279233203
0.18124851028640407 0.18119674479817166 4.044736700073469e-06 4.77207515323802e-05
0.23666785430977696 0.24112559887285803 -0.0008547175996610896 -0.003603026963419877
0.3745101133524929 0.38120036062607293 -0.005042561319976173 -0.0016476859536040055
0.7901417975627493 0.5788884713567327 0.055130213895459246 0.15612311231055703
1.8697555238487065 0.8400556393143068 0.3675564788845561 0.662143405649844
3.896973303271137 1.1335181903069511 1.153306056482852 1.6101490564813323
6.951618727267448 1.419432963865099 2.556218229209329 2.9759675341930207
10.730485467272766 1.699383024102655 4.3769682301930715 4.654134212977046
15.262512325493363 2.021121004091041 6.691732738258364 6.549658583143959
20.49731816545256 2.4075282447993915 9.461888937661223 8.627900982991944
26.459093174987014 2.8779130950880427 12.679227704983443 10.901952374915522
33.260752976646934 3.4466050050422514 16.4271924220377 13.386955549566984
40.794223248481785 4.0916721582454905 20.62710643518592 16.075444655050394
49.079121190668154 4.798826468699794 25.366526381705334 18.913768340263015
57.89320305677206 5.628485389429061 30.376773594071548 21.887944073271456
67.06429958794435 6.371239634286258 35.72777729568431 24.96528265797377
75.68089088942756 6.475200431956796 41.23867743449293 27.967013022977827
79.87684819126889 3.301098531510863 46.052812747835524 30.522936911922542
75.68089088943509 6.475200431971221 41.23867743448835 27.967013022975504
67.06429958793873 6.371239634296475 35.72777729567421 24.965282657968043
57.89320305676725 5.628485389448914 30.376773594055983 21.887944073262364
49.07912119062681 4.798826468692153 25.366526381684263 18.9137683402504
40.79422324843961 4.091672158236661 20.62710643516534 16.075444655037575
33.26075297661549 3.4466050050455985 16.42719242201665 13.386955549553253
26.459093174959758 2.877913095089726 12.679227704966332 10.901952374903697
20.497318165423728 2.4075282447992707 9.461888937644618 8.627900982979819
15.262512325464808 2.0211210040858947 6.6917327382453005 6.549658583133609
10.730485467249002 1.6993830241006749 4.376968230181359 4.654134212966966
6.951618727248281 1.419432963863626 2.5562182292001565 2.9759675341845
3.8969733032599456 1.1335181903063396 1.1533060564777937 1.6101490564758112
1.869755523841797 0.8400556393129455 0.3675564788821981 0.6621434056466529
0.7901417975597345 0.5788884713557789 0.05513021389476038 0.15612311230919523
0.3745101133513974 0.38120036062494395 -0.005042561319986828 -0.0016476859535599479
0.23666785430940301 0.2411255988723115 -0.0008547175996298786 -0.003603026963278558
0.18124851028600897 0.1811967447977944 4.044736696135074e-06 4.7720751518474035e-05
0.1841750899463511 0.18394369369043848 2.4004703015947837e-05 0.0002073915528966771
0.360879208258545 0.217200637615646 0.03717911711584017 0.10649945352705881
2.6589279682631553 1.545502876013869 0.434329043322931 0.6790960489263548
1.7402631220272882 1.144433596403437 0.2037285899161927 0.3921009357076579
0.27820624846357267 0.23333966512658658 0.007329413043280042 0.03753717029370611
0.20708291231514628 0.2071934927353871 -1.3289787870192123e-05 -9.72906323704894e-05
0.19566044159571455 0.1959156991512587 -2.7469603054156736e-05 -0.00022778795248994463
0.2253072644032426 0.22838709011881475 -0.0006680489356543053 -0.002411776779917823
0.3108564394244355 0.3188129877991806 -0.0038040013227958005 -0.004152547051949311
0.5126867844170314 0.45517933291341284 0.008146504734174739 0.049360946769443824
1.0850147800093608 0.637021359808667 0.14036282528204488 0.307630594918649
2.289579267671857 0.8589275237007472 0.5402673101465288 0.89038443382458
4.218921180534393 1.0920800394766321 1.3341243681686008 1.792716772889161
6.714434457299465 1.3271211885442675 2.4476390237108956 2.939674245044303
9.731310123053182 1.5959047494246117 3.8905047431618183 4.244900630466749
13.195646243364004 1.9191552084653494 5.601015074588307 5.6754759603103455
17.14602743827636 2.314292523851651 7.593061174598074 7.238673739826636
21.698829922001618 2.8097921986886525 9.930363034863321 8.958674688449635
26.924328499732237 3.4143802772186844 12.654176676300684 10.855771546212884
32.75229942522995 4.087013438837456 15.745203820856425 12.920082165536073
39.12553059255991 4.850585344791425 19.140940928434528 15.134004319333963
46.60720818628483 5.8762387269801595 23.11542362092277 17.615545838381916
54.93992649747733 6.53498630828644 27.950555280152138 20.454384909038737
59.69312289516784 3.069253268757618 33.10543837731167 23.51843124909856
54.939926497468605 6.534986308280512 27.95055528015036 20.454384909037742
46.60720818627088 5.876238726975347 23.11542362091706 17.615545838378466
39.12553059253513 4.850585344787676 19.140940928421553 15.13400431932588
32.752299425212655 4.08701343884412 15.74520382084198 12.920082165526551
26.924328499726656 3.4143802772374254 12.654176676286273 10.855771546202966
21.69882992196788 2.8097921986757544 9.930363034851183 8.958674688440935
17.146027438249888 2.314292523841736 7.5930611745886285 7.238673739819528
13.195646243343528 1.9191552084635062 5.6010150745780845 5.675475960301938
9.7313101230378 1.5959047494243543 3.890504743153702 4.244900630459746
6.714434457282959 1.3271211885422842 2.4476390237035157 2.939674245037159
4.218921180522816 1.0920800394750434 1.334124368163714 1.792716772884061
2.2895792676640836 0.8589275236995731 0.540267310143592 0.8903844338209186
1.0850147800058303 0.6370213598081093 0.14036282528091387 0.30763059491680694
0.5126867844152785 0.455179332912393 0.008146504733911255 0.04936094676897415
0.31085643942380103 0.31881298779822215 -0.0038040013227488446 -0.004152547051672164
0.2253072644029991 0.22838709011835506 -0.0006680489356313112 -0.0024117767797247063
0.19566044159563167 0.19591569915112858 -2.7469603045763395e-05 -0.0002277879524511008
0.20708291231494433 0.2071934927349873 -1.328978785002617e-05 -9.72906321929759e-05
0.2782062484624128 0.23333966512615456 0.007329413043006022 0.03753717029325216
1.7402631220221458 1.1444335964012107 0.20372858991498421 0.39210093570595134
1.1114233054981535 0.8545950512948945 0.0785358291014412 0.1782924251018181
0.22406166453768847 0.23008810522014167 -0.004554379657197191 -0.0014720610252560219
0.2231939618782938 0.22248405051411455 9.383494421979443e-05 0.0006160764199594169
0.21250145021187625 0.21206502003963998 4.7392047413282206e-05 0.0003890381248228917
0.22640465705870508 0.2286070079530755 -0.0005747073298518688 -0.001627643564518556
0.2836764103466489 0.2878793548556895 -0.002086711005861665 -0.0021162335031788167
0.38170788538750744 0.36163701424844935 0.0016917250092393006 0.018379146129818853
0.5689999069259232 0.4431791945070874 0.029682459565037185 0.09613825285379851
1.0258477125100607 0.5639524338831708 0.1453007684766544 0.31659451015023515
1.9002551706102517 0.7100745361311703 0.4394034161867999 0.7507772182922816
3.2041345546342312 0.8787206718450756 0.9618488838180613 1.3635649989710938
4.766659494277784 1.0748256392678726 1.604291021479495 2.0875428335304167
6.627747802788058 1.31959128492676 2.4166647541642203 2.8914917636970756
8.799736250664155 1.6319241880220399 3.388348094735727 3.7794639679063917
11.347476410834737 2.0361671604429157 4.537395072472287 4.773914177919529
14.40546448103125 2.5670628390982557 5.9237210272419665 5.914680614691029
18.078933382139308 3.218950342506167 7.622887439685495 7.237095599947643
22.287650284739247 3.8806091512072354 9.674435159526599 8.732605974005411
27.371245004346473 4.7586052541198445 12.135632509250335 10.477007240976278
34.87795755963428 6.332546057545474 15.65823503372936 12.887176468359463
41.49678321979921 3.1583393722742312 21.635817133945743 16.70262671357923
34.877957559624406 6.332546057529181 15.658235033733234 12.887176468361984
27.371245004333062 4.75860525410837 12.13563250924912 10.477007240975572
22.287650284730343 3.880609151211627 9.674435159518861 8.732605973999853
18.0789333821178 3.218950342501366 7.622887439675899 7.237095599940533
14.405464481006915 2.5670628390897683 5.923721027233172 5.914680614683973
11.347476410826003 2.036167160441718 4.537395072468267 4.773914177916019
8.799736250660285 1.6319241880244841 3.388348094732354 3.7794639679034465
6.627747802774856 1.319591284922091 2.4166647541598203 2.891491763692943
4.766659494267236 1.0748256392652373 1.6042910214755768 2.087542833526422
3.2041345546263282 0.8787206718442014 0.9618488838147428 1.363564998967386
1.90025517060471 0.7100745361300778 0.43940341618483986 0.7507772182897924
1.0258477125083059 0.563952433883115 0.1453007684760404 0.31659451014915063
0.5689999069242362 0.44317919450664317 0.029682459564598324 0.09613825285299508
0.38170788538690104 0.3616370142478831 0.0016917250092223137 0.018379146129795396
0.2836764103461124 0.2878793548548652 -0.00208671100584256 -0.002116233502910151
0.2264046570581053 0.22860700795230354 -0.0005747073298281508 -0.001627643564369968
0.2125014502116804 0.21206502003929145 4.7392047426873894e-05 0.00038903812496190353
0.2231939618780422 0.22248405051372766 9.383494423253322e-05 0.0006160764200820218
0.22406166453707702 0.23008810521979522 -0.004554379657257907 -0.0014720610254601828
1.111423305494865 0.8545950512931769 0.07853582910084873 0.17829242510083876
0.68907690752354 0.6251065681428335 0.013904317305549784 0.05006602207515685
0.19716438786255264 0.20697214293932786 -0.0023153356036172573 -0.007492419473158005
0.23255179289684474 0.23310524140081929 -6.409589240090604e-05 -0.0004893526115736852
0.22896480938322009 0.22817676990532257 9.77396647078606e-05 0.0006902998131896693
0.23783850507752624 0.23847549458310588 -0.0003621806964105394 -0.0002748088091690304
0.2804651032448572 0.2816976104926652 -0.0013597414576498837 0.000127234209841958
0.35126719417026364 0.32737961323306386 0.004145824884082139 0.019741756053117804
0.40734043338300185 0.32544399908151084 0.02075174951671149 0.06114468478477955
0.4641785433463693 0.2811176407830275 0.0597043769089614 0.12335652565438045
0.6227375685170077 0.26844130278350764 0.12601837366239002 0.22827789207111052
0.9929129930080477 0.30498402956397064 0.2730874503368486 0.41484151310722756
1.5481193534147557 0.3091874088170403 0.4991373896013286 0.7397945549963869
2.2850187653149145 0.32076516797987054 0.8294426697362891 1.1348109275987552
3.1864113228764652 0.36591819719330754 1.2396496623972053 1.5808434632859545
4.2738425660967945 0.4668676134333522 1.7309882657380695 2.0759866869253707
5.547938685148544 0.6455039994460989 2.288699556198879 2.6137351295035645
7.057323051092888 0.9267667305733456 2.9441451824341263 3.1864111380854143
8.768063477574165 1.282396264931872 3.6973697335092517 3.7882974791330395
11.122860819845641 1.8284448295289129 4.70825219372974 4.586163796586992
17.411683555434895 3.96080764507844 6.817134640240795 6.633741270115659
29.124648612433575 3.4735360444494763 13.8055067383026 11.845605829681487
17.411683555449677 3.9608076450855783 6.817134640245235 6.633741270118868
11.122860819859163 1.828444829543906 4.708252193728873 4.586163796586384
8.768063477546866 1.2823962649144844 3.697369733503863 3.7882974791285187
7.057323051080152 0.9267667305696626 2.9441451824292963 3.186411138081188
5.547938685134181 0.6455039994394873 2.2886995561950414 2.6137351294996543
4.2738425660968264 0.4668676134369548 1.730988265736121 2.075986686923749
3.1864113228665003 0.3659181971896955 1.2396496623941986 1.5808434632826065
2.2850187653126595 0.32076516798216126 0.8294426697340577 1.1348109275964409
1.5481193534098825 0.3091874088168254 0.49913738959907283 0.739794554993985
0.9929129930064449 0.30498402956516096 0.2730874503354769 0.414841513105806
0.6227375685155625 0.26844130278237777 0.126018373662251 0.22827789207093446
0.4641785433464196 0.28111764078335555 0.059704376908845835 0.12335652565421815
0.4073404333824887 0.32544399908180627 0.02075174951643504 0.06114468478424755
0.3512671941694685 0.3273796132324701 0.00414582488397278 0.019741756053025576
0.28046510324408164 0.2816976104918813 -0.0013597414576474536 0.0001272342098477706
0.23783850507716842 0.23847549458255324 -0.00036218069638784846 -0.0002748088089968855
0.22896480938262506 0.22817676990461425 9.773966471777175e-05 0.0006902998132928277
0.2325517928964232 0.23310524140028527 -6.40958923822854e-05 -0.0004893526114797259
0.1971643878626233 0.20697214293902153 -0.002315335603558487 -0.007492419472839793
0.6890769075215645 0.625106568141526 0.013904317305322756 0.05006602207471606
0.4385201893581192 0.4378356522082106 -7.842976687382019e-05 0.0007629669167825843
0.18350822248627466 0.1840103933956142 -3.7829611210619795e-05 -0.0004643412981289174
0.23548649413690698 0.23516234610794376 7.934607238873216e-06 0.00031621342172444066
0.242834538549245 0.24186353731284735 0.00011519235472685193 0.0008558088816708392
0.2556310199620632 0.2548197356362941 -0.00015413124451633267 0.0009654155702854932
0.3021498685842215 0.3001678879419783 -0.0010017659218420655 0.0029837465640852857
0.3951412595953404 0.36910742815707087 0.004093205549283236 0.021940625888986463
0.5770371767044862 0.4454401810555853 0.03195914457101185 0.09963785107788878
1.0284227422317351 0.563886641751925 0.14635672578034806 0.3181793746994622
1.899580554613558 0.7097281153739861 0.4391824536449089 0.7506699855946621
3.209963395170372 0.8808125240864166 0.9640753645640214 1.3650755065199371
4.792311874106407 1.0790497748712728 1.616313660822545 2.09694843841259
6.677191777720103 1.3257237768956212 2.438867171321114 2.9126008295033703
8.834593733660624 1.6291986497510371 3.409432799283989 3.795962284625597
11.181777630615064 1.9900540103040973 4.47557435368969 4.716149266621274
13.579560417709118 2.4083191495358154 5.564798465823533 5.606442802349769
15.72629143726953 2.8625504176194556 6.514781145262736 6.348959874387344
17.43414680052672 3.401073210406456 7.2228613608793575 6.810212229240896
18.024036690013965 3.7789933512647504 7.390678734272095 6.854364604477112
14.70478625417897 2.7387119137406044 6.341755313954475 5.6243190264838825
29.503371212618354 5.2850949783485035 12.804184444769898 11.414091789499945
14.704786254184171 2.738711913739687 6.341755313958021 5.624319026486457
18.024036689987085 3.7789933512408647 7.390678734270264 6.854364604475964
17.434146800518928 3.401073210411841 7.222861360871803 6.810212229235269
15.726291437252684 2.862550417617694 6.514781145254253 6.348959874380748
13.57956041769147 2.408319149534561 5.564798465814495 5.606442802342405
11.181777630596356 1.9900540102973892 4.475574353683296 4.716149266615678
8.8345937336507 1.6291986497536475 3.409432799277344 3.7959622846197134
6.677191777704413 1.3257237768933434 2.438867171314218 2.912600829496852
4.792311874094775 1.0790497748714585 1.6163136608167255 2.0969484384065926
3.2099633951543334 0.880812524081203 0.9640753645587987 1.3650755065143312
1.899580554606833 0.7097281153737541 0.4391824536420952 0.7506699855909841
1.0284227422278645 0.5638866417507639 0.14635672577930492 0.3181793746977959
0.5770371767026699 0.4454401810549834 0.03195914457059705 0.09963785107708925
0.3951412595946271 0.36910742815653597 0.004093205549218507 0.021940625888872495
0.30214986858355153 0.3001678879410745 -0.0010017659218394517 0.0029837465643164558
0.2556310199615037 0.2548197356356097 -0.0001541312445068229 0.0009654155704009518
0.24283453854885134 0.24186353731226154 0.00011519235474611542 0.0008558088818438478
0.23548649413665912 0.23516234610759945 7.934607242229811e-06 0.0003162134218173549
0.18350822248641332 0.18401039339580205 -3.782961121760395e-05 -0.0004643412981710693
0.43852018935716736 0.43783565220701887 -7.842976685166866e-05 0.0007629669170001581
0.28279061978303227 0.28286423631018076 -5.074825948644306e-06 -6.854170119983136e-05
0.16942192697474823 0.16949829636684127 -5.4872819064526326e-06 -7.088211018658723e-05
0.23203854399296067 0.2326831381738647 -0.00010169441638066312 -0.0005428997645234505
0.25253596055784006 0.2513663952961047 9.70617619501126e-05 0.0010725034997853017
0.27790738080659694 0.27926296091899433 -0.0005031903314134929 -0.0008523897809838984
0.34785566049335226 0.34558204636944484 -0.0008788535663843185 0.0031524676902913596
0.5336392858457981 0.45677611629402204 0.013108181902701214 0.06375498764907507
1.095189786357008 0.6378788615783282 0.14430754539432084 0.313003379384359
2.2900924021406333 0.8585658793975366 0.5406072466243097 0.8909192761187851
4.218009848708057 1.092108862467593 1.333516881255803 1.7923841049846594
6.721026534981604 1.3284098979551153 2.4502376429945576 2.942378994031927
9.754733134280764 1.599152307725444 3.9012673863398057 4.254313440215512
13.236049837495486 1.921574795614827 5.6221244187225405 5.692350623158125
17.154369430317505 2.3015974255746543 7.605544131757386 7.247227872985459
21.48387873508503 2.7440231560373567 9.845532477767675 8.894323101280007
26.028257150350118 3.2378669950549357 12.232024377117877 10.558365778177304
30.418522547799054 3.7901898410424044 14.52477898132492 12.10355372543173
34.116970376874804 4.421622453615925 16.35068419619243 13.344663727066424
35.914133902131965 4.730737605385962 17.27207750463784 13.911318792108183
33.43906151034018 4.626775791807348 15.941553061465486 12.870732657067352
41.26485122530889 9.742328992657502 17.418831372566597 14.103690860084763
33.43906151035584 4.626775791813958 15.941553061471057 12.870732657070818
35.91413390213823 4.730737605397525 17.2720775046346 13.911318792106101
34.11697037686412 4.421622453621493 16.35068419618254 13.344663727060079
30.418522547759856 3.7901898410312644 14.524778981308023 12.103553725420547
26.028257150327203 3.237866995058814 12.232024377102064 10.558365778166326
21.483878735058727 2.744023156035398 9.845532477753538 8.894323101269785
17.154369430289947 2.3015974255690326 7.6055441317449795 7.247227872975934
13.23604983746477 1.9215747956092741 5.622124418708596 5.692350623146902
9.754733134254765 1.5991523077211336 3.9012673863281746 4.254313440205457
6.7210265349625535 1.3284098979559626 2.450237642984407 2.942378994022182
4.218009848694573 1.0921088624663575 1.3335168812498206 1.792384104978396
2.290092402131896 0.8585658793963986 0.54060724662093 0.8909192761145678
1.0951897863521973 0.6378788615769668 0.14430754539299667 0.31300337938223355
0.5336392858439712 0.45677611629318393 0.013108181902360691 0.06375498764842674
0.3478556604925335 0.345582046368513 -0.0008788535663742797 0.0031524676903946338
0.2779073808062601 0.2792629609184839 -0.0005031903313818015 -0.000852389780842059
0.25253596055781047 0.2513663952958796 9.706176196839543e-05 0.0010725034999623287
0.2320385439928297 0.2326831381735603 -0.00010169441636539383 -0.000542899764365094
0.16942192697477473 0.1694982963669299 -5.487281911363371e-06 -7.088211024376207e-05
0.28279061978231085 0.28286423630946644 -5.074825949206164e-06 -6.854170120644613e-05
0.17559195568458083 0.17559195568458083 0.0 0.0
0.15047043683888375 0.1504742123950768 -8.862076817683426e-08 -3.686935424877787e-06
0.22183312332866634 0.22238023684711095 -7.705590691946782e-05 -0.00047005761152508476
0.2584486277306522 0.25908418247682263 -0.00016142828559743643 -0.0004741264605729872
0.3039548885423959 0.3042274346208214 -0.0004897038981987313 0.00021715781977328283
0.41943331099825165 0.39921222146251645 0.0004403880555827514 0.019780701480152756
0.8202737462007259 0.5858603385144879 0.06573357890843995 0.16867982877779736
1.8762121029092982 0.8402775989920616 0.3708652157945154 0.6650692881227223
3.8947799163198917 1.1335495344902498 1.152183835053652 1.6090465467759862
6.952431214072067 1.4199344516472543 2.556629652331757 2.975867110093057
10.737395740636908 1.7002890438136125 4.378919860818835 4.658186836004463
15.278464062844744 2.022397517931685 6.700059539592903 6.556007005320163
20.509296576615238 2.405695075262894 9.469989352977702 8.633612148374631
26.414799684127246 2.857478111999107 12.665343892568988 10.891977679559158
33.002943682814646 3.3723194548643827 16.316724734658216 13.313899493292041
39.99046950150876 3.93356155003375 20.231097016739966 15.825810934735049
47.06532530301694 4.5328178303042845 24.277667993340277 18.254839479372368
52.99170925702559 5.007494578637689 27.67708450353004 20.307130174857875
55.952524913188306 5.144012576937545 29.46448955136791 21.344022784882856
52.27794817628398 4.586799891640448 27.515295912687094 20.175852371956438
58.52105936409834 12.788330837759391 26.248997657757812 19.48373086858116
52.27794817626534 4.586799891618339 27.515295912689297 20.17585237195769
55.9525249131908 5.144012576946318 29.464489551363954 21.344022784880547
52.99170925698885 5.007494578623994 27.677084503515474 20.307130174849398
47.06532530297466 4.532817830303601 24.277667993314324 18.25483947935673
39.990469501468766 3.9335615500305985 20.23109701671731 15.825810934720863
33.00294368277238 3.3723194548587565 16.316724734636065 13.313899493277546
26.4147996840882 2.857478111995582 12.665343892547916 10.891977679544699
20.50929657658439 2.4056950752682957 9.469989352956738 8.633612148359367
15.278464062811365 2.0223975179292735 6.700059539575507 6.556007005306572
10.73739574060761 1.7002890438115954 4.378919860804086 4.658186835991931
6.9524312140492315 1.419934451643595 2.5566296523218166 2.975867110083819
3.8947799163067254 1.133549534489072 1.1521838350478844 1.6090465467697679
1.8762121029018337 0.8402775989903075 0.3708652157920938 0.6650692881194334
0.8202737461973476 0.5858603385136086 0.06573357890753052 0.1686798287762081
0.4194333109968834 0.3992122214614631 0.00044038805546969036 0.019780701479950667
0.3039548885418785 0.30422743461995294 -0.00048970389815267 0.00021715782007841245
0.2584486277304135 0.25908418247642084 -0.0001614282855765072 -0.00047412646043088613
0.22183312332832555 0.22238023684683678 -7.705590692734275e-05 -0.0004700576115838895
0.1504704368387898 0.15047421239496445 -8.86207666237473e-08 -3.686935408063476e-06
0.1755919556841034 0.1755919556841034 0.0 0.0
0.10302838793004526 0.10302838793004526 0.0 0.0
0.12681698762939614 0.12681276155566873 2.3276924337965782e-07 3.99330448403657e-06
0.20576818806035058 0.20606323077225527 -3.74357072472112e-05 -0.0002576070046575559
0.2608390578786612 0.2612897310170864 -0.00017572339578545354 -0.0002749497426396517
0.3341311683933634 0.3368781899809993 -0.001347824021458786 -0.001399197566177038
0.5467747474126122 0.4836469665968623 0.013442912273790098 0.04968486854195997
1.2414741869099846 0.7249830240337563 0.1674702374909517 0.34902092538527646
2.8773175238478537 1.0506670455728888 0.7203378079496716 1.1063126703252935
5.812725165682495 1.3982474061049408 1.9954847516263818 2.4189930079511717
9.813417920678242 1.7183664231999562 3.8592231272826423 4.235828370195645
15.022504534661698 2.0579646002298317 6.539711749600064 6.424828184831803
21.16908106750101 2.4427210114335125 9.830993897575606 8.895366158491896
28.241187376756667 2.89654321672697 13.728373874363632 11.616270285666086
36.2788449280665 3.429997308443476 18.262575793044658 14.586271826578342
45.23887629102528 4.0313468601627935 23.409677141284913 17.79785228957756
55.03479221895938 4.669924769503654 29.192857048326914 21.17201040112883
64.58349084093582 5.222340441184798 34.86158518753365 24.49956521221739
72.80487339068256 5.493795834982267 40.02075283324091 27.290324722459385
76.61716285552747 5.190802860026702 42.72189321299725 28.704466782503545
71.95243506324597 4.663705196968955 40.037565334434774 27.251164531842267
77.94592714123442 15.811165965575833 36.66120854279506 25.473552632863516
71.95243506326003 4.663705196983455 40.037565334434554 27.25116453184203
76.61716285548754 5.190802860003411 42.72189321298639 28.70446678249776
72.80487339064092 5.493795834976305 40.020752833217735 27.29032472244685
64.58349084089862 5.222340441196156 34.861585187502556 24.499565212199894
55.03479221889667 4.6699247694921535 29.192857048294517 21.17201040111001
45.23887629096777 4.031346860154986 23.409677141254082 17.797852289558687
36.278844928015914 3.4299973084417426 18.262575793014893 14.586271826559267
28.241187376712823 2.896543216727646 13.72837387433708 11.616270285648088
21.169081067454158 2.4427210114280546 9.830993897551688 8.895366158474426
15.022504534623215 2.0579646002265135 6.53971174958048 6.4248281848162145
9.813417920649432 1.7183664231979794 3.859223127268368 4.235828370183088
5.812725165663364 1.3982474061022732 1.9954847516179928 2.4189930079431035
2.877317523835875 1.0506670455701637 0.7203378079454099 1.106312670320301
1.241474186904584 0.7249830240327587 0.16747023748918524 0.34902092538263996
0.5467747474109679 0.4836469665960631 0.013442912273529563 0.049684868541375375
0.33413116839281887 0.3368781899801452 -0.0013478240214047955 -0.0013991975659214694
0.26083905787828154 0.2612897310164739 -0.00017572339576774995 -0.0002749497424248094
0.20576818805997021 0.20606323077190586 -3.7435707250598625e-05 -0.0002576070046850247
0.126816987629218 0.12681276155549065 2.3276924336996675e-07 3.9933044839934034e-06
0.10302838792979689 0.10302838792979689 0.0 0.0
0.056836209694599314 0.056836209694599314 0.0 0.0
0.10095678073273051 0.10095678073273051 0.0 0.0
0.18514156570002868 0.1851983822510325 -6.853534932469084e-06 -4.996301607129387e-05
0.260785884805412 0.2624049732530704 -0.0003046719067509258 -0.0013144165409074804
0.374004673979334 0.37145580591292093 -0.0014272984592862842 0.003976166525699367
0.7384074682716333 0.5797490173357278 0.04353839498348912 0.11512005595241624
1.7973243187722119 0.8806184820019347 0.32896738509679163 0.587738451673486
4.106280087893889 1.262039702871442 1.223664479241352 1.6205759057810947
7.756559739656572 1.6370877955650773 2.8218344412917453 3.2976375027997546
12.979035651792037 2.021448281972505 5.4258246260108995 5.531762743808627
19.530529712621785 2.429696769318766 8.890973972381177 8.209858970921852
27.333142445150095 2.8878187119387655 13.193038956523463 11.252284776687869
36.351476151924196 3.419860151455394 18.31404562449869 14.617570375970097
46.65304649965359 4.043787866678104 24.30719699936678 18.30206163360872
58.13991612860402 4.755362903172865 31.085040524971873 22.299512700459275
70.54167817626107 5.445724519832748 38.566389586292196 26.52956407013614
83.06992912564179 5.914539185111044 46.44874843295767 30.70664150757306
93.18165763368481 5.850556697985301 53.10693883875679 34.224162096942685
97.49764183085391 5.150481556407915 56.38373845102609 35.963421823419885
92.36881704034428 4.893429738851507 53.219520933652056 34.25586636784067
99.14401299650771 18.847100315581148 48.505750835747676 31.791161845178898
92.36881704033877 4.893429738843341 53.219520933653925 34.25586636784152
97.4976418308222 5.150481556408851 56.38373845100438 35.963421823408964
93.18165763363686 5.850556697984936 53.10693883872543 34.22416209692651
83.06992912557054 5.91453918509927 46.448748432918826 30.706641507552472
70.54167817620363 5.445724519839511 38.56638958625074 26.529564070113373
58.13991612853558 4.755362903167834 31.085040524931685 22.299512700436086
46.65304649959431 4.043787866677254 24.307196999330426 18.302061633586643
36.351476151862286 3.4198601514505835 18.314045624463937 14.617570375947789
27.333142445097728 2.8878187119376406 13.19303895649306 11.252284776667032
19.530529712573795 2.429696769314339 8.890973972356178 8.209858970903284
12.979035651755186 2.0214482819703856 5.425824625991816 5.531762743792983
7.756559739631088 1.6370877955601553 2.821834441281284 3.297637502789648
4.10628008787808 1.2620397028690802 1.2236644792348113 1.6205759057741882
1.7973243187647794 0.8806184819998426 0.3289673850945409 0.5877384516703975
0.7384074682687816 0.5797490173345466 0.04353839498288785 0.11512005595134699
0.3740046739785306 0.37145580591208816 -0.0014272984592980948 0.003976166525740652
0.2607858848048346 0.26240497325242756 -0.00030467190674159084 -0.0013144165408513985
0.1851415656997167 0.18519838225074098 -6.853534934244975e-06 -4.996301608999179e-05
0.10095678073257641 0.10095678073257641 0.0 0.0
0.05683620969450005 0.05683620969450005 0.0 0.0
0.0293852312299492 0.0293852312299492 0.0 0.0
0.07594136989673514 0.07594136989673514 0.0 0.0
0.1624046409695998 0.16239782420593193 3.960330448053176e-07 6.420730623111643e-06
0.26081504356151625 0.26229712431413044 -0.00029815985280909563 -0.0011839208998050256
0.4381739855984207 0.4255803163118649 0.0013338357836902063 0.011259833502865566
0.9959715431001753 0.675616159322369 0.09517657223285755 0.22517881154494865
2.5101512044341456 1.0437519496598693 0.5833984864008452 0.8830007683734303
5.372916397897807 1.45036228995931 1.718261811957363 2.204292295981134
9.95076585353556 1.8782285146720943 3.861269756848037 4.211267582015425
16.26145793228129 2.3345686043040086 7.083718804733178 6.843170523244107
24.23141581223136 2.824320546927744 11.400509945303524 10.006585320000088
33.76432907156754 3.3665664545592886 16.778790648008645 13.61897196899961
44.84290081103409 3.987772766623871 23.222870157280813 17.6322578871294
57.31816166276005 4.7082985482375594 30.578162744345768 22.031700370176754
71.43606449720177 5.512021958388124 39.12473606393896 26.79930647487467
86.69665813868912 6.267611514992058 48.57922534967466 31.849821274022396
101.66237071068309 6.606936675211312 58.196423753384515 36.859010282087254
113.76588860702012 6.151548620753051 66.5667692674961 41.04757071877097
119.07537367081807 5.1369647125752 70.81313619230015 43.12527276594274
113.73775929119401 5.184276748007124 67.20649525597936 41.34698728720754
121.66935906362173 21.863404793208325 61.34476644969437 38.46118782071902
113.73775929114146 5.184276747964261 67.20649525597271 41.34698728720443
119.07537367080515 5.136964712599266 70.81313619227542 43.1252727659305
113.76588860696782 6.151548620757962 66.56676926745783 41.047570718751984
101.66237071061539 6.606936675217039 58.1964237533357 36.85901028206263
86.69665813861461 6.267611514991194 48.57922534962637 31.84982127399704
71.43606449712483 5.51202195838583 39.124736063890744 26.79930647484824
57.31816166267459 4.708298548222105 30.578162744301324 22.03170037015116
44.84290081096323 3.9877727666234795 23.22287015723712 17.63225788710262
33.76432907150007 3.3665664545539884 16.778790647971057 13.618971968975004
24.23141581217697 2.824320546925068 11.400509945273264 10.006585319978631
16.261457932240155 2.334568604302047 7.08371880471116 6.843170523226956
9.950765853502798 1.8782285146681776 3.8612697568328316 4.211267582001785
5.3729163978785 1.4503622899561097 1.7182618119493949 2.2042922959729943
2.5101512044230416 1.0437519496571857 0.583398486397017 0.8830007683688377
0.9959715430960733 0.6756161593210641 0.09517657223179475 0.2251788115432144
0.43817398559738746 0.4255803163110413 0.0013338357836264456 0.011259833502719727
0.2608150435610929 0.26229712431360586 -0.00029815985279874296 -0.001183920899714179
0.1624046409694036 0.16239782420573662 3.960330447626668e-07 6.4207306222634735e-06
0.07594136989661157 0.07594136989661157 0.0 0.0
0.029385231230001384 0.029385231230001384 0.0 0.0
0.014391190954608281 0.014391190954608281 0.0 0.0
0.05426772427457899 0.05426772427457899 0.0 0.0
0.1404643480959475 0.1404618457712758 1.22441077168008e-07 2.379883594554421e-06
0.2651741932688304 0.26719515758559687 -0.00041318143877889905 -0.0016077828779876785
0.5344368993799858 0.4888413680741595 0.010235045986651741 0.03536048531917453
1.3528810397995412 0.7984897143895481 0.18993500373899272 0.36445632167100067
3.2903617557811904 1.1926983105453974 0.8557922381969351 1.2418712070388584
6.794840954974336 1.6280625747874025 2.343575062925683 2.8232033172612496
12.225989581010447 2.122693375652227 4.95968691475365 5.14360929060457
19.679673732749162 2.6614396842670995 8.85247476976268 8.165759278719376
29.0827413003234 3.2424640771002537 14.030775319574449 11.809501903648723
40.40723701568783 3.885277286068969 20.529623836259223 15.992335893359645
53.47261323900483 4.604718843278678 28.209978449201387 20.657915946524767
68.49039066717557 5.414519529909112 37.30846478491582 25.76740635235063
85.07006501158533 6.297232253824962 47.48146623704553 31.291366520714814
102.84443685146475 7.082790295310476 58.64966796812672 37.11197858802757
120.4632517220517 7.312675794323001 70.27900375103728 42.87157217669144
134.6649309245667 6.500860899330803 80.41219748887768 47.751872536358206
141.2945308015384 5.170388088581669 85.80840029926597 50.3157424136908
136.37088407176864 5.471986963155415 82.2791545188136 48.61974258979967
146.0846679332775 24.81749538188821 75.75586678944339 45.511305761945835
136.3708840717547 5.471986963162543 82.2791545187992 48.61974258979295
141.29453080147232 5.1703880885602205 85.80840029923566 50.3157424136764
134.66493092449696 6.500860899327375 80.41219748883249 47.75187253633708
120.46325172197339 7.312675794329261 70.27900375098054 42.8715721766636
102.84443685136085 7.082790295295803 58.64966796806736 37.1119785879976
85.07006501148338 6.297232253814367 47.481466236985725 31.291366520683276
68.4903906670857 5.414519529902493 37.308464784862295 25.76740635232093
53.47261323892095 4.604718843275361 28.209978449150608 20.657915946494953
40.40723701561043 3.8852772860665734 20.529623836213176 15.992335893330685
29.082741300260043 3.242464077096022 14.030775319539254 11.809501903624774
19.679673732694674 2.661439684258697 8.852474769736224 8.165759278699744
12.225989580976366 2.122693375651835 4.959686914735354 5.143609290589174
6.7948409549508835 1.628062574783959 2.3435750629158005 2.823203317251125
3.2903617557680667 1.192698310544001 0.8557922381914757 1.24187120703259
1.3528810397941604 0.7984897143881824 0.1899350037373816 0.3644563216685961
0.5344368993785485 0.48884136807301487 0.010235045986547665 0.0353604853189857
0.2651741932687371 0.26719515758531465 -0.0004131814387673717 -0.0016077828778099294
0.1404643480957328 0.14046184577106424 1.2244107697319608e-07 2.3798835915387224e-06
0.054267724274556534 0.054267724274556534 0.0 0.0
0.014391190954603368 0.014391190954603368 0.0 0.0
0.006946075424026206 0.006946075424026206 0.0 0.0
0.03751896746651631 0.03751896746651631 0.0 0.0
0.12256791126787184 0.12256791126787184 0.0 0.0
0.2809986722754926 0.2843224900576654 -0.0007726432858928966 -0.002551174496279731
0.6733564014404351 0.5629701237498992 0.028329559448087002 0.08205671824244881
1.7996114693734317 0.9223585510129572 0.3266707013174921 0.5505822170429826
4.1489995290211565 1.3216877734455021 1.1836640720506761 1.643647683524977
8.307442223480564 1.8057484549049438 3.0356730072060194 3.4660207613696015
14.583819681118573 2.3700467686781885 6.125652832709389 6.088120079730994
23.189836223486758 3.0009383090571324 10.694804978522034 9.4940929359076
34.10014551028835 3.688945984636651 16.79643577280932 13.614763752842366
47.19965802248769 4.440832385841212 24.389494543820508 18.36933109282599
62.561161121164744 5.275882002689703 33.59905299466017 23.686226123814844
79.78142044205546 6.180862243105432 44.081953880040416 29.5186043189096
98.9095025291627 7.078743604035248 56.057586990074796 35.773171935052616
119.20318086902179 7.818112177488815 69.09404872273865 42.291019968794295
139.2102175540935 8.029484383537856 82.4554977573038 48.72523541325184
155.73872789833436 7.042775082301125 94.39832926891057 54.2976235471226
164.20709059090223 5.217411167850557 101.49647441430415 57.49320500874751
160.55715851688672 5.700004320878286 98.66828668886296 56.18886750714538
172.62931195523433 27.599990494116252 91.89298129588178 53.136340165236355
160.55715851684937 5.700004320866687 98.66828668884509 56.18886750713754
164.20709059084174 5.217411167850894 101.49647441426248 57.493205008728395
155.73872789824452 7.0427750822908095 94.39832926885626 54.29762354709746
139.21021755399178 8.029484383536033 82.45549775723582 48.72523541322
119.20318086892192 7.818112177494595 69.09404872266778 42.2910199687595
98.90950252906816 7.078743604045051 56.05758699000575 35.77317193501738
79.78142044194473 6.180862243091862 44.08195387997726 29.518604318875667
62.561161121063016 5.2758820026813025 33.5990529946005 23.686226123781196
47.19965802240026 4.440832385838854 24.389494543767512 18.369331092793896
34.10014551021429 3.6889459846305153 16.79643577276828 13.614763752815497
23.189836223430348 3.0009383090564543 10.69480497848958 9.494092935884304
14.58381968107626 2.370046768673532 6.1256528326885755 6.088120079714159
8.307442223452858 1.8057484549014333 3.0356730071935116 3.466020761357912
4.14899952900553 1.3216877734440104 1.1836640720442182 1.6436476835173024
1.7996114693660372 0.9223585510110546 0.32667070131519066 0.5505822170397918
0.6733564014378925 0.5629701237481196 0.028329559447806033 0.08205671824196706
0.28099867227523195 0.2843224900572647 -0.0007726432858706064 -0.0025511744961622938
0.12256791126770739 0.12256791126770739 0.0 0.0
0.03751896746651883 0.03751896746651883 0.0 0.0
0.006946075424048919 0.006946075424048919 0.0 0.0
0.0032978482368882346 0.0032978482368882346 0.0 0.0
0.026051032416380068 0.026051032416380068 0.0 0.0
0.11318557605079557 0.11318557605079557 0.0 0.0
0.31985343328885124 0.3207236825584573 -0.0008165361826537469 -5.371308695253929e-05
0.8805159775722344 0.659827670417326 0.06884014650274418 0.15184816065216408
2.3043553965399557 1.0325395948203613 0.48859380145353876 0.783222000266055
5.112216612814123 1.4508958204725801 1.5915870027337826 2.069733789607759
9.876079608814365 1.9798596977007852 3.7706882527715315 4.125531658342046
17.02336486727888 2.619856582407296 7.3644860315533665 7.039022253318222
26.77623854823224 3.354263617838676 12.59933484368736 10.822640086706208
39.19883647021129 4.15941545101094 19.619238740888402 15.420182278311922
54.27651313792442 5.040931313582981 28.489828644868435 20.74575317947298
71.66011492706622 6.0007674302162695 38.93505239400604 26.72429510284392
91.45172613838733 6.985975286878014 51.19869013437624 33.26706071713303
113.07637086182547 7.886735740327104 64.9431341532472 40.2465009682512
135.64143592779283 8.491624982552313 79.72539712502098 47.42441382021944
157.66143426880345 8.565909745806994 94.69734146524299 54.398183057753485
176.6265696176299 7.799656843451583 108.29498985085175 60.53192292332655
187.54863265332526 5.4598404400699 117.4913233957163 64.5974688175391
186.54680945256547 5.662927546860551 116.68135272790556 64.2025291777993
201.7852273364431 29.374745560579086 110.77150229965063 61.63897947621343
186.54680945252824 5.662927546857314 116.6813527278821 64.20252917778885
187.5486326532564 5.4598404400730125 117.49132339566661 64.59746881751674
176.626569617523 7.799656843442179 108.29498985078455 60.531922923296314
157.66143426870195 8.565909745821589 94.69734146516328 54.39818305771701
135.64143592767016 8.491624982548569 79.7253971249406 47.42441382018107
113.0763708617003 7.886735740318129 64.94313415316954 40.2465009682126
91.45172613826219 6.985975286865504 51.198690134302026 33.267060717094644
71.66011492695995 6.0007674302173 38.93505239393683 26.724295102805772
54.27651313782257 5.040931313575518 28.48982864480893 20.745753179438115
39.19883647012833 4.159415451003894 19.61923874084188 15.420182278282558
26.776238548170824 3.3542636178374066 12.599334843651842 10.822640086681577
17.023364867233372 2.619856582405751 7.364486031528616 7.039022253299
9.8760796087831 1.9798596976973408 3.7706882527568606 4.1255316583289
5.112216612796747 1.4508958204708322 1.5915870027262684 2.0697337895996446
2.3043553965308847 1.0325395948188563 0.4885938014502041 0.7832220002618244
0.8805159775690995 0.6598276704156646 0.06884014650219403 0.15184816065124074
0.31985343328811805 0.3207236825576997 -0.0008165361826590172 -5.371308692232431e-05
0.11318557605066301 0.11318557605066301 0.0 0.0
0.026051032416396416 0.026051032416396416 0.0 0.0
0.0032978482368806314 0.0032978482368806314 0.0 0.0
0.0010570710343608216 0.0010570710343608216 0.0 0.0
0.01919726293412753 0.01919726293412753 0.0 0.0
0.11959331321064925 0.11959331321064925 0.0 0.0
0.4019659752410628 0.3877205001092334 0.0024745578461554674 0.011770917285674028
1.1755072631148917 0.8146174317728505 0.1240820831454676 0.2368077481965739
2.940908616023142 1.2982310054775859 0.6548930789813414 0.9877845315642129
6.234966752658783 1.8862071759424113 1.934383513679363 2.4143760630370075
11.685137951099913 2.6801952843609174 4.369351560176947 4.635591106562051
19.80032342395845 3.7233688817921164 8.313679133640703 7.76327540852564
30.95497908848993 5.035851934318385 14.090398475657741 11.82872867851379
45.25336274171258 6.615086098422875 21.85404594313166 16.78423070015807
62.499386067054814 8.444103957067266 31.51026840534562 22.545013704641917
82.65560384807327 10.473357849164039 43.16567040698742 29.01657559192183
105.3735519094104 12.598254903922463 56.68209972469435 36.09319728079358
129.91102499785129 14.511536468081928 71.796669042916 43.602819486853285
154.93847826774356 15.741185411776208 87.94600167073162 51.251291185235814
178.4680088370556 15.827616175848412 104.0298309469243 58.610561714282866
198.331114669913 14.799603862733957 118.49530904625695 65.03620176092213
211.99159752795188 13.249141711556604 129.09410441560433 69.64835140079104
207.73438576277914 5.8172220837309085 131.25741786863466 70.65974581041357
284.8398160434316 87.0818495522542 128.46588816498004 69.29207832619737
207.73438576273026 5.817222083719763 131.2574178686078 70.65974581040263
211.99159752787557 13.249141711559549 129.0941044155484 69.64835140076755
198.33111466980867 14.799603862742114 118.49530904617951 65.03620176088712
178.46800883693388 15.82761617585344 104.02983094683748 58.61056171424302
154.9384782676038 15.74118541176618 87.94600167064243 51.251291185195115
129.91102499771984 14.511536468080596 71.79666904282858 43.602819486810745
105.37355190927357 12.598254903909577 56.682099724612215 36.093197280751795
82.65560384795751 10.47335784916417 43.16567040691194 29.016575591881445
62.49938606694076 8.44410395705642 31.510268405279938 22.545013704604383
45.25336274161165 6.61508609840395 21.854045943080934 16.784230700126773
30.95497908841348 5.03585193430477 14.090398475620134 11.82872867848858
19.800323423905184 3.7233688817859356 8.313679133613814 7.7632754085054545
11.685137951063846 2.6801952843559103 4.369351560160271 4.635591106547665
6.234966752636846 1.8862071759369745 1.9343835136712344 2.414376063028639
2.9409086160128632 1.2982310054764263 0.6548930789774021 0.9877845315590352
1.1755072631109782 0.8146174317709551 0.12408208314466673 0.23680774819535622
0.40196597524020716 0.38772050010854 0.002474557846112102 0.011770917285554423
0.1195933132103876 0.1195933132103876 0.0 0.0
0.019197262934056714 0.019197262934056714 0.0 0.0
0.0010570710343491244 0.0010570710343491244 0.0 0.0
CELL_DATA 800
SCALARS Stress float 6
LOOKUP_TABLE default
170.01123018109598 -522.7784880275054 -181.883204807751 -110.46856009656234 0.0 0.0
403.7562601689842 -80.61434544107992 115.72968020676514 54.753425955833194 0.0 0.0
417.92984674151813 8.259732221672895 127.79756215232965 -2.7259884567822033 0.0 0.0
476.9235040792777 -15.83946993727014 150.10841654784582 -15.52659515008364 0.0 0.0
554.7947629910358 -22.400691592797116 210.06503507799783 -11.683720194413517 0.0 0.0
629.9296145823786 -18.609171355043785 281.86259257383824 -10.380006424224677 0.0 0.0
702.6102972499477 -12.850195966274647 336.33354742698 -11.221595568357447 0.0 0.0
776.3370126662903 1.1099528481802565 384.513408686973 -13.120874170445859 0.0 0.0
853.213447525324 23.7416248011436 435.435208674544 -14.959707491830011 0.0 0.0
932.6910790943482 53.798830978350935 490.7554912384088 -16.143872631616333 0.0 0.0
1012.7711578289195 88.72987528465902 548.6541580802298 -16.61188096725691 0.0 0.0
1092.022240975347 127.1622561535815 607.7884740085585 -16.57763885289686 0.0 0.0
1170.5933785471113 168.10865050067187 667.7522748160411 -16.39033921614368 0.0 0.0
1249.328969706068 212.14257513148323 729.2789014663048 -16.068070063501036 0.0 0.0
1328.7395043250697 259.7966256236747 792.9146246088364 -15.466303792174678 0.0 0.0
1408.0295435500484 310.4250295590803 857.9557450440609 -14.388095942228649 0.0 0.0
1484.7623024362201 362.06277344721974 922.2112719225429 -12.721698883115135 0.0 0.0
1556.5584180678657 412.9591519294216 983.6027950127271 -10.808986465428346 0.0 0.0
1623.4810565930532 464.0500958537374 1042.5693823151635 -10.408611582355416 0.0 0.0
1723.9655057124733 555.8431857195417 1138.2041488429813 -17.080693753824328 0.0 0.0
1723.9655057120008 555.843185719082 1138.2041488426157 17.080693753820128 0.0 0.0
1623.481056592183 464.0500958529045 1042.5693823143536 10.408611582250199 0.0 0.0
1556.558418067164 412.95915192879255 983.6027950122061 10.808986465515414 0.0 0.0
1484.7623024359432 362.06277344705256 922.2112719222537 12.72169888316284 0.0 0.0
1408.029543550088 310.4250295592521 857.9557450439696 14.388095942226013 0.0 0.0
1328.739504325097 259.7966256238495 792.9146246088781 15.466303792191061 0.0 0.0
1249.3289697065277 212.1425751321292 729.278901466645 16.068070063529856 0.0 0.0
1170.5933785471318 168.1086505008994 667.7522748160204 16.39033921617809 0.0 0.0
1092.022240974838 127.16225615328949 607.7884740081054 16.57763885287022 0.0 0.0
1012.771157827819 88.7298752838004 548.6541580794504 16.611880967250922 0.0 0.0
932.6910790931222 53.79883097736223 490.7554912376354 16.143872631452837 0.0 0.0
853.2134475242053 23.741624800276412 435.43520867380465 14.959707491892438 0.0 0.0
776.337012665733 1.109952847896551 384.51340868658343 13.12087417054387 0.0 0.0
702.6102972497188 -12.850195966211189 336.3335474268024 11.221595568388665 0.0 0.0
629.9296145820101 -18.609171355112238 281.8625925735395 10.380006424187403 0.0 0.0
554.7947629905485 -22.40069159305874 210.0650350776172 11.683720194395658 0.0 0.0
476.92350407930775 -15.839469936968813 150.10841654790633 15.526595150099126 0.0 0.0
417.9298467413206 8.2597322216232 127.79756215226465 2.725988456722864 0.0 0.0
403.7562601688818 -80.61434544103199 115.72968020670368 -54.753425955959756 0.0 0.0
170.01123018172274 -522.7784880269612 -181.88320480719716 110.46856009605698 0.0 0.0
69.26100414719656 -549.5063316802372 -243.32664318533404 -160.43837890078512 0.0 0.0
277.72329697746255 -73.39025469139139 61.58749612160421 8.697211035651097 0.0 0.0
366.74585231481365 33.611798513460286 120.1167844278418 -9.646944616402163 0.0 0.0
441.85082435817714 -14.256273971825477 133.20917649942066 -35.922278969458105 0.0 0.0
527.2303384518343 -22.489184690996844 187.22302740622294 -33.53344466142064 0.0 0.0
606.6413148713348 -19.297421417992307 262.39560398046217 -30.732960144207198 0.0 0.0
682.9449688043959 -12.962832273663686 323.53169423619806 -31.975536107532722 0.0 0.0
757.6297559258738 0.8711860904646898 374.0868817686628 -34.84791419993607 0.0 0.0
833.0599718300011 22.09278174165631 424.1141196666987 -37.592761034183034 0.0 0.0
909.2287138464305 49.35560321961039 476.565533815917 -38.987207326863576 0.0 0.0
984.6490808660316 80.40657759971738 530.2731263298449 -39.06251422384332 0.0 0.0
1058.8730832721574 114.07672433720467 584.5416100677024 -38.45942187482182 0.0 0.0
1132.1789122040332 150.62001043236145 639.694093550275 -37.61194745910171 0.0 0.0
1205.381444694529 189.86275903306267 696.0861153827777 -36.56331531450104 0.0 0.0
1278.6704063146797 231.88540559802223 753.869040778292 -35.05571577888218 0.0 0.0
1351.569898967206 276.44861951599944 812.696455341273 -32.699299006392934 0.0 0.0
1423.130248121656 323.012494128295 871.8194842835342 -29.431688442786214 0.0 0.0
1492.968786030518 371.9676500570743 931.2147140281397 -26.201631186401173 0.0 0.0
1568.22695989286 431.69076472988974 998.5599267309972 -24.763180736982935 0.0 0.0
1624.406872083041 479.044674768452 1050.212331561417 -25.162049486679358 0.0 0.0
1624.4068720828536 479.0446747682689 1050.2123315613414 25.162049486554622 0.0 0.0
1568.2269598919638 431.69076472903953 998.5599267304101 24.763180736912677 0.0 0.0
1492.9687860293654 371.9676500559763 931.2147140273071 26.201631186383477 0.0 0.0
1423.1302481200821 323.01249412683194 871.8194842823362 29.4316884428086 0.0 0.0
1351.5698989665657 276.44861951548546 812.6964553407408 32.69929900640605 0.0 0.0
1278.6704063140655 231.88540559754017 753.8690407777638 35.0557157788265 0.0 0.0
1205.381444694686 189.86275903343778 696.0861153827699 36.563315314762406 0.0 0.0
1132.1789122035173 150.6200104320361 639.6940935497713 37.61194745905232 0.0 0.0
1058.8730832725519 114.07672433783478 584.5416100679324 38.4594218748315 0.0 0.0
984.6490808661371 80.40657760007511 530.2731263299095 39.06251422383363 0.0 0.0
909.2287138457561 49.355603219177794 476.5655338154732 38.98720732684545 0.0 0.0
833.0599718290862 22.092781740993587 424.11411966611996 37.59276103418652 0.0 0.0
757.6297559251725 0.8711860900518786 374.0868817682256 34.84791419995071 0.0 0.0
682.9449688038362 -12.962832273967521 323.53169423580874 31.97553610735148 0.0 0.0
606.6413148712709 -19.297421417749575 262.39560398033905 30.732960144082995 0.0 0.0
527.2303384519153 -22.489184690602286 187.22302740620182 33.53344466129454 0.0 0.0
441.8508243583207 -14.256273971353803 133.20917649958244 35.92227896944526 0.0 0.0
366.7458523147338 33.61179851344064 120.11678442781634 9.646944616294224 0.0 0.0
277.72329697758244 -73.39025469108039 61.58749612173534 -8.697211035822255 0.0 0.0
69.26100414756789 -549.5063316797535 -243.32664318493698 160.43837890063025 0.0 0.0
14.814943453278715 -559.1348652986551 -269.3154157003121 -175.88881129032842 0.0 0.0
155.8005705774696 -61.63007683878911 28.25114812160415 -46.396284530616846 0.0 0.0
297.9127201226963 37.58791996907043 100.65019202753 -34.118511983705076 0.0 0.0
396.7520862964497 -5.0865058205334766 118.8485588667982 -56.33464617296998 0.0 0.0
490.9271057949819 -21.26560489474872 163.58919529412742 -57.48291604895107 0.0 0.0
579.734959630378 -21.198208575943053 238.24813191925733 -52.70669598978204 0.0 0.0
659.2230528425578 -12.23254247723694 307.7638812509207 -53.093756138170214 0.0 0.0
734.4950595265648 0.7242011553446446 361.0342375522711 -56.42959487981592 0.0 0.0
808.7156205517181 20.462118037800593 410.59289938263606 -59.662177870371664 0.0 0.0
881.4978075349162 44.624287166000926 460.0500417587831 -61.01807886764665 0.0 0.0
952.4726418437342 71.68479477371045 509.62872005406314 -60.68855499898481 0.0 0.0
1021.6712701308413 101.17341799432525 559.3364390351652 -59.54435000206652 0.0 0.0
1089.9285124827913 132.87071833811302 609.5716188608787 -58.16828001883911 0.0 0.0
1157.3980484876852 167.03399423763676 660.5901599865327 -56.433948582857646 0.0 0.0
1224.3789210141872 203.211908871105 712.3264473072247 -54.07664978708348 0.0 0.0
1291.04980616273 241.66738925228995 764.9961853127974 -50.725556765414304 0.0 0.0
1357.849075675406 283.3906877754661 819.2991356947241 -46.41536013889075 0.0 0.0
1426.7780329878606 331.30119212374484 877.681648623345 -42.029737190017315 0.0 0.0
1491.9090911951882 380.52972014173616 934.8007524997565 -37.62445662995209 0.0 0.0
1538.50596435283 417.37386892930687 976.4463803850182 -31.95711941608882 0.0 0.0
1538.5059643528784 417.3738689293493 976.4463803850135 31.95711941596726 0.0 0.0
1491.9090911967623 380.5297201434045 934.8007525008011 37.62445663021141 0.0 0.0
1426.7780329888676 331.30119212485226 877.6816486239481 42.02973719014564 0.0 0.0
1357.8490756752476 283.39068777543 819.299135694619 46.415360139006985 0.0 0.0
1291.0498061622234 241.6673892519238 764.9961853123033 50.72555676549945 0.0 0.0
1224.3789210124978 203.21190886954577 712.3264473059835 54.07664978710074 0.0 0.0
1157.3980484872702 167.0339942374148 660.5901599863092 56.43394858295201 0.0 0.0
1089.9285124823577 132.87071833785035 609.5716188606216 58.16828001876719 0.0 0.0
1021.6712701302631 101.17341799396311 559.3364390347399 59.5443500021112 0.0 0.0
952.4726418429158 71.6847947731737 509.62872005350414 60.688554999138425 0.0 0.0
881.4978075352778 44.62428716667236 460.0500417590167 61.01807886780912 0.0 0.0
808.7156205508311 20.46211803714823 410.5928993820278 59.66217787032225 0.0 0.0
734.4950595252576 0.7242011543082754 361.0342375514337 56.42959487984942 0.0 0.0
659.2230528419394 -12.232542477541386 307.7638812504818 53.09375613820899 0.0 0.0
579.7349596306436 -21.19820857526136 238.24813191933325 52.70669598985277 0.0 0.0
490.9271057953607 -21.265604893959818 163.58919529434075 57.48291604886805 0.0 0.0
396.7520862963673 -5.086505820451588 118.84855886680572 56.3346461728208 0.0 0.0
297.9127201226095 37.58791996910645 100.65019202751478 34.11851198367519 0.0 0.0
155.80057057766925 -61.63007683833754 28.251148121799503 46.39628453034783 0.0 0.0
14.814943453527405 -559.1348652984594 -269.31541570006016 175.8888112900593 0.0 0.0
-6.081103154825314 -548.5592986695866 -267.5305927024342 -177.90874004078637 0.0 0.0
89.23129209063529 -57.2732534972689 9.587411578009917 -93.08405632201084 0.0 0.0
232.81325762434167 33.963488525173915 80.03302384485467 -67.27194429702641 0.0 0.0
342.91006928175193 4.3538845086976945 104.33814625196445 -78.57187234536619 0.0 0.0
444.91211528798385 -19.29571467729629 139.5916360614612 -83.93897465235564 0.0 0.0
543.2507084928193 -21.30639441788729 210.2420115065142 -76.4836182132359 0.0 0.0
628.8719123976138 -12.6738917969666 286.0216824460535 -74.88986636776329 0.0 0.0
706.7408712744693 1.1585399608749043 345.1710334906451 -77.94863343012324 0.0 0.0
779.4306858965451 18.651324593369246 394.2773506354842 -81.13672334033741 0.0 0.0
849.0527275875218 39.67746495958346 440.9802778535941 -82.24859780531122 0.0 0.0
915.7749702046842 62.85274765842168 486.62378747119317 -81.49794079444584 0.0 0.0
980.2608990897814 88.01951618557298 531.8714608647945 -79.90155912298393 0.0 0.0
1043.1433426205654 115.05738406923598 577.1267103935111 -77.98233914917806 0.0 0.0
1105.1473577336421 143.9708531291023 622.825271396191 -75.64930588203406 0.0 0.0
1165.9399797381407 174.13832171773726 668.4962020810874 -72.58567034338611 0.0 0.0
1226.1445341793813 206.47950099112484 714.8895990756829 -68.52107740287647 0.0 0.0
1288.1229794814778 243.18621472727042 764.265351838869 -63.537419405777996 0.0 0.0
1351.5869358193493 285.06792514953844 816.9160563402797 -57.7578394149144 0.0 0.0
1410.7404885793255 327.2367718112879 867.5372036628708 -50.14005089959999 0.0 0.0
1454.010843583433 359.0796716182826 905.029322740278 -39.10863667514807 0.0 0.0
1454.0108435847253 359.0796716196029 905.029322741226 39.10863667520865 0.0 0.0
1410.7404885784722 327.23677181053483 867.5372036620512 50.140050899963214 0.0 0.0
1351.586935817838 285.0679251481412 816.9160563390116 57.757839415080426 0.0 0.0
1288.1229794807214 243.1862147266354 764.2653518383094 63.53741940596454 0.0 0.0
1226.1445341800822 206.47950099198505 714.8895990761421 68.52107740298351 0.0 0.0
1165.9399797380354 174.13832171781706 668.49620208092 72.58567034352443 0.0 0.0
1105.1473577335764 143.97085312922877 622.8252713960699 75.6493058820852 0.0 0.0
1043.14334262044 115.05738406931567 577.126710393369 77.98233914922614 0.0 0.0
980.2608990904354 88.01951618639836 531.8714608652865 79.9015591228768 0.0 0.0
915.7749702050784 62.85274765905561 486.6237874714941 81.49794079443164 0.0 0.0
849.0527275873806 39.67746495963007 440.9802778534872 82.2485978051754 0.0 0.0
779.4306858971541 18.651324594258767 394.27735063585726 81.13672334029592 0.0 0.0
706.7408712751087 1.1585399618490726 345.1710334910058 77.94863343012904 0.0 0.0
628.8719123971221 -12.673891797194344 286.02168244567565 74.88986636768652 0.0 0.0
543.2507084922684 -21.306394418102506 210.24201150608707 76.48361821320042 0.0 0.0
444.9121152877409 -19.295714677154496 139.59163606136823 83.93897465239672 0.0 0.0
342.9100692817066 4.353884508841815 104.33814625200438 78.57187234521261 0.0 0.0
232.8132576241191 33.96348852476132 80.03302384466411 67.27194429687269 0.0 0.0
89.2312920906588 -57.27325349710023 9.58741157806757 93.08405632177599 0.0 0.0
-6.081103154719145 -548.5592986693429 -267.53059270220086 177.9087400406634 0.0 0.0
-11.121609104620305 -526.0272633218005 -250.33017481179314 -175.16673555187703 0.0 0.0
52.62888522026043 -54.15811851360031 -0.45876998800196667 -129.4588528278052 0.0 0.0
177.14949155698406 27.245022827307324 61.318354315287394 -100.73071199838519 0.0 0.0
285.4985621914178 10.689536476693853 88.87986120011072 -102.20744145276504 0.0 0.0
387.81863677043236 -14.852251186065402 116.78102039910073 -111.10386615780914 0.0 0.0
495.8928038371081 -20.954295783659756 178.73203607591327 -103.37921583554511 0.0 0.0
591.2845223872204 -13.390973819402323 258.1144728428874 -98.17079104905824 0.0 0.0
672.6671415706464 1.1216050824664023 324.47818616914157 -99.45569604037101 0.0 0.0
744.6251599838712 16.918779798647797 374.7714681027991 -102.03855604586474 0.0 0.0
811.2445053231247 34.55389548451439 418.9830842409083 -102.73286767998833 0.0 0.0
874.0183294189865 53.92050763096577 460.9569216676148 -101.50373238737292 0.0 0.0
933.6492943456304 74.74499229342122 501.69703332663573 -99.47015974497981 0.0 0.0
991.3272874200941 97.00428863410346 542.020320829393 -97.1484313704743 0.0 0.0
1047.5443965867269 120.75002388733976 582.2752140818677 -94.20869543909127 0.0 0.0
1102.4516905414673 145.30679429780736 622.2346348422329 -90.5209995617891 0.0 0.0
1156.6748694061666 171.3351408180986 662.5160933716504 -86.0500202213085 0.0 0.0
1211.7226083728765 201.07531028842067 704.9646379746873 -80.57477646322423 0.0 0.0
1268.862266621589 235.80942647850193 750.8867794794292 -73.55918111583789 0.0 0.0
1323.8960408585374 272.0578739334609 796.4867120697326 -63.0678221469588 0.0 0.0
1367.449832056092 301.65381827834767 832.9792654628617 -47.23308522220538 0.0 0.0
1367.4498320542393 301.6538182764607 832.9792654614964 47.23308522205188 0.0 0.0
1323.8960408576395 272.0578739326198 796.4867120691342 63.06782214703437 0.0 0.0
1268.8622666230601 235.809426480049 750.8867794805843 73.55918111587157 0.0 0.0
1211.7226083721741 201.0753102878158 704.964637974211 80.57477646327403 0.0 0.0
1156.674869405326 171.3351408173304 662.5160933711077 86.05002022120786 0.0 0.0
1102.451690540603 145.30679429706908 622.2346348418091 90.52099956178344 0.0 0.0
1047.5443965851928 120.75002388592964 582.2752140808909 94.20869543905523 0.0 0.0
991.3272874202771 97.00428863446447 542.0203208294466 97.14843137041598 0.0 0.0
933.6492943455374 74.74499229345264 501.69703332649226 99.4701597448082 0.0 0.0
874.018329419175 53.92050763138366 460.95692166764013 101.50373238735675 0.0 0.0
811.2445053221866 34.55389548379776 418.98308424021 102.73286767993525 0.0 0.0
744.6251599837392 16.9187797988332 374.7714681027043 102.03855604591297 0.0 0.0
672.6671415704004 1.1216050825000963 324.47818616894494 99.45569604032477 0.0 0.0
591.2845223871811 -13.390973819121548 258.11447284275727 98.17079104900645 0.0 0.0
495.89280383689186 -20.954295783466183 178.73203607572745 103.37921583551187 0.0 0.0
387.8186367698713 -14.852251186617698 116.78102039875681 111.10386615760089 0.0 0.0
285.4985621911045 10.689536476388575 88.8798611999313 102.20744145263885 0.0 0.0
177.14949155715217 27.245022827550187 61.3183543154107 100.73071199827844 0.0 0.0
52.62888522042588 -54.15811851302919 -0.4587699877809901 129.4588528277753 0.0 0.0
-11.121609104643298 -526.0272633214929 -250.33017481156662 175.16673555190533 0.0 0.0
-8.996315821110258 -495.43850894939635 -224.06564610423482 -171.2096335909816 0.0 0.0
31.30422888184633 -50.63358999035223 -5.798808332551769 -156.63254332651042 0.0 0.0
130.06516956366997 19.947057399410394 45.0036680889241 -130.1381060782976 0.0 0.0
227.75164597679512 13.203941761975074 72.2826998630475 -126.05646981008077 0.0 0.0
321.98173406135186 -8.01572010632133 95.91130814616523 -136.32849121418073 0.0 0.0
432.30720154978144 -19.998318042134166 144.4421608291934 -133.43094401764154 0.0 0.0
540.1241290130009 -13.111305273007593 222.66262400588653 -123.88799043878021 0.0 0.0
628.6973130126037 -0.13114353984762772 295.7396781527962 -121.65617527281195 0.0 0.0
702.7088699200674 14.854680876671331 350.53671327141154 -122.62941203835082 0.0 0.0
766.9668459523859 29.41733466070082 393.40182583605093 -122.47622952592998 0.0 0.0
825.7389623794443 44.82699192727138 431.79920739175117 -120.72582467620134 0.0 0.0
880.7565816120198 61.43584782427436 468.2898976195318 -118.27390503039081 0.0 0.0
932.9809484529926 78.94270904416295 503.6012978074249 -115.55509364712255 0.0 0.0
983.524760695291 97.3311000184795 538.3848940442874 -112.24926460745144 0.0 0.0
1033.0423167998258 116.63904751683617 573.0560093055094 -108.02866433366353 0.0 0.0
1080.7235006147926 136.6466903860843 607.1165502017093 -103.03500733830356 0.0 0.0
1128.0808366401084 158.1009139208506 641.6335414891562 -97.3491518937867 0.0 0.0
1177.7005747698572 184.04956357371987 679.4126744273138 -89.66728680487184 0.0 0.0
1229.1878593820502 214.48908639100085 720.3075985992482 -76.9895014825517 0.0 0.0
1275.8053213902754 243.53620081706788 758.0073905380664 -57.004086389199266 0.0 0.0
1275.8053213919245 243.53620081878034 758.0073905393294 57.00408638933479 0.0 0.0
1229.1878593842507 214.48908639338606 720.307598600949 76.98950148296558 0.0 0.0
1177.700574769754 184.0495635737708 679.4126744270972 89.66728680509391 0.0 0.0
1128.0808366392907 158.10091392002772 641.6335414885544 97.34915189359822 0.0 0.0
1080.7235006144788 136.64669038587562 607.1165502014849 103.0350073383585 0.0 0.0
1033.042316798893 116.63904751601814 573.0560093047214 108.02866433363113 0.0 0.0
983.5247606949661 97.33110001843647 538.3848940440907 112.2492646077134 0.0 0.0
932.9809484511387 78.942709042371 503.60129780614716 115.5550936470031 0.0 0.0
880.7565816110578 61.43584782343868 468.2898976188188 118.27390503029466 0.0 0.0
825.7389623794202 44.82699192740034 431.79920739174025 120.72582467608083 0.0 0.0
766.9668459525179 29.417334661075103 393.4018258361596 122.47622952589296 0.0 0.0
702.7088699194837 14.854680876362337 350.53671327101864 122.62941203834797 0.0 0.0
628.697313012049 -0.1311435402264891 295.73967815238524 121.65617527261924 0.0 0.0
540.1241290125831 -13.111305273075416 222.66262400553268 123.88799043875696 0.0 0.0
432.30720154973153 -19.9983180417171 144.4421608291524 133.43094401752668 0.0 0.0
321.98173406126614 -8.015720106113694 95.91130814619602 136.32849121398203 0.0 0.0
227.75164597659548 13.20394176177333 72.2826998629285 126.05646980976334 0.0 0.0
130.06516956376018 19.94705739957105 45.00366808899936 130.13810607799866 0.0 0.0
31.3042288819424 -50.63358999004264 -5.79880833243007 156.6325433261987 0.0 0.0
-8.996315821041549 -495.4385089491679 -224.06564610399278 171.20963359084584 0.0 0.0
-3.524999336904358 -458.4208728581448 -192.1929253048209 -167.54760181070884 0.0 0.0
17.05987727575093 -47.294232756375024 -9.070246280548462 -175.79081288697645 0.0 0.0
88.9261293137057 13.259313427409428 30.655087371084143 -153.71555406452694 0.0 0.0
170.28246481228763 14.14540685575042 55.32523792272423 -148.1674793950379 0.0 0.0
251.47638466199163 -1.5014971651595215 75.79293652506485 -158.17605023285185 0.0 0.0
353.7782000589269 -16.14741876432323 110.70085158741718 -164.2258989286893 0.0 0.0
470.4627403910743 -13.2183569511296 179.0302668109423 -153.51133980897785 0.0 0.0
570.8530835217242 -1.1482062896441967 256.85355573833306 -145.50638032885394 0.0 0.0
649.3740931943528 11.817950480401144 317.80428320211144 -143.35828968445648 0.0 0.0
713.5230104724454 24.100230413354836 362.27082422259105 -141.6926352701655 0.0 0.0
768.5902958775667 35.57409485700519 397.7766471330505 -139.18653271044758 0.0 0.0
819.1290827915477 48.1907932906412 430.37895339561777 -136.300197455912 0.0 0.0
865.8823799237512 60.916228546795224 460.7389811586212 -133.25037466484338 0.0 0.0
910.3250101729791 74.0048760284669 489.92011127743484 -129.71661685564536 0.0 0.0
953.934902683425 87.83637237780235 518.9205043985542 -125.16921320322227 0.0 0.0
996.7260321712427 102.592033929748 547.9704212028214 -119.61436098776912 0.0 0.0
1035.806685715416 115.7551623312545 574.3276768342856 -113.5501558788262 0.0 0.0
1075.5034536577868 130.74071670728188 601.7001641737793 -105.97491581511412 0.0 0.0
1122.7703914556948 153.40990467967475 636.5360051270155 -92.491802517482 0.0 0.0
1175.2500535228314 183.09003463138686 677.3742468840644 -69.4196182933601 0.0 0.0
1175.2500535216875 183.09003463027784 677.3742468831903 69.41961829349077 0.0 0.0
1122.7703914540932 153.4099046781282 636.5360051258048 92.49180251758872 0.0 0.0
1075.5034536551716 130.7407167046149 601.7001641720383 105.97491581500724 0.0 0.0
1035.8066857141926 115.75516232997222 574.3276768334392 113.55015587871173 0.0 0.0
996.7260321708702 102.59203392956749 547.9704212025852 119.61436098789157 0.0 0.0
953.9349026836629 87.83637237806818 518.9205043987212 125.16921320307756 0.0 0.0
910.3250101727242 74.00487602841338 489.92011127723276 129.71661685576356 0.0 0.0
865.8823799230578 60.91622854623563 460.73898115810664 133.2503746648353 0.0 0.0
819.1290827910329 48.1907932903419 430.37895339528495 136.3001974559449 0.0 0.0
768.5902958767856 35.57409485642739 397.77664713254296 139.18653271047725 0.0 0.0
713.5230104726486 24.1002304138496 362.27082422269916 141.69263527017927 0.0 0.0
649.3740931940013 11.817950480351925 317.8042832019187 143.35828968445847 0.0 0.0
570.8530835214341 -1.1482062896217968 256.8535557380601 145.506380328835 0.0 0.0
470.4627403904391 -13.218356951392867 179.03026681052194 153.51133980899343 0.0 0.0
353.77820005841664 -16.147418764550252 110.70085158712726 164.22589892852892 0.0 0.0
251.47638466176508 -1.501497165298006 75.79293652495798 158.17605023261362 0.0 0.0
170.28246481212426 14.145406855464692 55.32523792259048 148.1674793948098 0.0 0.0
88.92612931354981 13.259313427148678 30.655087370959563 153.71555406432253 0.0 0.0
17.059877275621403 -47.294232756587064 -9.070246280650984 175.79081288676568 0.0 0.0
-3.524999336840601 -458.4208728578628 -192.19292530457827 167.5476018106262 0.0 0.0
1.8705785900334106 -416.3715897274144 -158.9468454580985 -165.05614684791 0.0 0.0
4.2079395617868975 -44.84709233783123 -12.191500612164017 -187.12202092629985 0.0 0.0
51.390101825409076 7.932577957017579 17.796400863480446 -171.417966271853 0.0 0.0
113.8428789614122 15.14203426826245 38.69984098417074 -166.5641713564893 0.0 0.0
178.94166903363063 2.7732023457292283 54.982105309031496 -177.17416656030582 0.0 0.0
259.47738246428503 -8.922475996209748 78.98444265536685 -189.8459765374932 0.0 0.0
372.801293294453 -11.677745618894107 129.15168719557562 -187.03934518367973 0.0 0.0
488.85478789123397 -2.47880539175763 203.38779887215338 -173.42931983303112 0.0 0.0
577.9260492182724 8.329680441082445 271.05396563312 -165.26639887518175 0.0 0.0
643.9526828773817 18.126051652124644 320.0622980070832 -160.7112759651025 0.0 0.0
697.1961488545244 26.095785376491428 355.3755730996932 -157.1455720027886 0.0 0.0
743.0467686040427 34.83953087740388 384.6972882581965 -153.62758216741912 0.0 0.0
784.261298038015 43.19996326716998 410.57043935970404 -150.16634790015337 0.0 0.0
822.3403544777746 50.97231514245959 434.1447773936881 -146.56186576767448 0.0 0.0
859.5013808454366 58.946795013132075 457.0942713180051 -142.08679282671667 0.0 0.0
897.177401757799 68.32253749088568 480.8925615386824 -136.00524825180756 0.0 0.0
931.8628360903663 76.10582492342826 502.5084124132817 -129.05725220383988 0.0 0.0
959.3287101909522 77.95665814831102 517.4095882715797 -121.91709722576144 0.0 0.0
996.7555715156517 87.41265388960363 540.5979549167203 -109.79145560737446 0.0 0.0
1057.2884089391735 117.75693428934702 585.5380515556393 -85.95102654293659 0.0 0.0
1057.2884089400839 117.75693429035965 585.5380515563622 85.95102654321806 0.0 0.0
996.7555715168514 87.41265389099567 540.5979549177437 109.79145560758863 0.0 0.0
959.3287101918133 77.95665814928225 517.4095882722013 121.91709722600994 0.0 0.0
931.8628360906787 76.10582492404808 502.5084124133942 129.05725220415664 0.0 0.0
897.1774017571885 68.32253749039455 480.89256153810686 136.0052482518561 0.0 0.0
859.5013808447968 58.946795012506726 457.09427131742393 142.08679282669294 0.0 0.0
822.3403544787047 50.97231514372888 434.1447773943566 146.56186576789577 0.0 0.0
784.2612980382605 43.199963267645074 410.57043935996836 150.1663479002118 0.0 0.0
743.0467686035224 34.83953087695497 384.69728825780186 153.62758216725564 0.0 0.0
697.1961488538047 26.09578537593309 355.3755730991227 157.14557200277233 0.0 0.0
643.9526828773713 18.126051652491483 320.062298007059 160.7112759651917 0.0 0.0
577.9260492180168 8.32968044117591 271.0539656328954 165.26639887520224 0.0 0.0
488.8547878910418 -2.478805391573978 203.38779887198143 173.4293198330445 0.0 0.0
372.801293294068 -11.677745618723467 129.15168719538755 187.0393451836802 0.0 0.0
259.4773824641602 -8.922475995936075 78.98444265538448 189.84597653728468 0.0 0.0
178.94166903361028 2.773202345866424 54.98210530906729 177.17416656012972 0.0 0.0
113.8428789614862 15.142034268514324 38.69984098427509 166.56417135635803 0.0 0.0
51.39010182552633 7.932577957337609 17.79640086361215 171.41796627164726 0.0 0.0
4.207939561921356 -44.84709233740952 -12.191500611998535 187.12202092618259 0.0 0.0
1.8705785901188108 -416.37158972693055 -158.94684545779893 165.05614684787707 0.0 0.0
3.741749370817267 -370.03466151415364 -128.4316613233287 -162.2126007974404 0.0 0.0
-11.316493825108815 -44.56798115660366 -16.76624269135481 -192.69706934097155 0.0 0.0
15.990992686380125 4.713193857340967 6.21262696545742 -183.46037481618657 0.0 0.0
58.87121870026492 16.29881112282127 22.568075037964157 -180.43680805651223 0.0 0.0
104.16853441382443 6.64423055558332 33.54470307995312 -191.77576173489308 0.0 0.0
156.78553269913107 -2.7139644022637115 47.85330310463135 -208.4515220713567 0.0 0.0
240.9414455354019 -5.47357292730744 77.87816552149422 -216.91743114473175 0.0 0.0
358.5963603395617 -2.549547996445634 132.18179713395705 -207.61135550111482 0.0 0.0
466.4769844654147 4.959151416348803 198.45155598898555 -191.59419674923882 0.0 0.0
541.0023796347095 11.12771831653141 253.06111061437903 -180.86991679249417 0.0 0.0
594.1719713519693 16.852817559498213 292.48401787871876 -174.81342746674446 0.0 0.0
635.6979303015986 21.246702141795538 320.77224787857494 -170.44257741406122 0.0 0.0
671.2103078095117 25.599892947664515 343.6842223588138 -166.42194402417744 0.0 0.0
702.6084029077243 28.637825149424785 362.54483772397145 -162.62555620555912 0.0 0.0
732.1702373440942 30.498689142238277 379.12867134544814 -158.38568526263683 0.0 0.0
763.0749038251021 32.884172924677614 396.1754458704723 -152.66384768734952 0.0 0.0
797.1689622651029 37.11272025424887 415.60936736264983 -144.4582770355745 0.0 0.0
822.2050865555052 33.25618935751143 426.8722369671922 -136.11140631461555 0.0 0.0
837.3631614721094 16.133871712573978 425.81651564431337 -127.8593992526797 0.0 0.0
904.1521306968345 41.25988358052109 470.457629485705 -109.20131498156141 0.0 0.0
904.1521306967852 41.25988358058362 470.4576294857242 109.20131498177196 0.0 0.0
837.3631614716849 16.133871712324662 425.8165156439932 127.85939925305723 0.0 0.0
822.2050865554777 33.25618935779943 426.8722369670927 136.11140631501536 0.0 0.0
797.1689622661689 37.112720255626755 415.6093673634412 144.45827703586644 0.0 0.0
763.074903827412 32.88417292741261 396.1754458721249 152.6638476876058 0.0 0.0
732.1702373444726 30.49868914310187 379.12867134591295 158.38568526284553 0.0 0.0
702.6084029064625 28.637825147912594 362.54483772313034 162.62555620529469 0.0 0.0
671.2103078085942 25.599892946627506 343.68422235814757 166.42194402410865 0.0 0.0
635.6979303016227 21.246702141874607 320.7722478785422 170.4425774139784 0.0 0.0
594.1719713516246 16.85281755937794 292.48401787853186 174.81342746673073 0.0 0.0
541.0023796343082 11.127718316243815 253.06111061406708 180.8699167923403 0.0 0.0
466.47698446522674 4.959151416454127 198.4515559888319 191.59419674925428 0.0 0.0
358.5963603392046 -2.549547996228 132.1817971338051 207.6113555012076 0.0 0.0
240.9414455349793 -5.473572927388513 77.87816552130404 216.9174311446477 0.0 0.0
156.7855326988231 -2.7139644027610617 47.853303104395835 208.45152207116604 0.0 0.0
104.16853441382925 6.644230555737439 33.54470308000234 191.7757617347304 0.0 0.0
58.871218700530825 16.29881112340706 22.56807503822269 180.4368080563714 0.0 0.0
15.990992686466264 4.713193857744901 6.212626965605724 183.46037481594348 0.0 0.0
-11.316493825034 -44.56798115635585 -16.76624269126111 192.69706934079053 0.0 0.0
3.741749370802779 -370.03466151383594 -128.4316613231546 162.21260079736538 0.0 0.0
0.7055643337268371 -320.1615395764011 -102.43694836582789 -156.7171093044229 0.0 0.0
-30.304469813520107 -47.05362222271016 -23.21079754868466 -194.66495469898115 0.0 0.0
-18.019006614718556 3.7231541949804345 -4.290472785681016 -190.6287600443552 0.0 0.0
5.46332856345446 17.420145216005817 6.875834000609234 -189.35366490388913 0.0 0.0
28.739916657486454 10.900998154561668 11.992403305049343 -200.41366550111832 0.0 0.0
50.49323121959941 2.440712672302237 16.391628031144002 -219.0529724152359 0.0 0.0
80.9219680059357 -0.7862724889532382 25.71390997077979 -234.18381945212343 0.0 0.0
137.6831713264118 0.9712461557494727 46.0724865434253 -236.75608434645966 0.0 0.0
222.34313218187813 4.840483280088041 79.81403504539328 -223.48775564838903 0.0 0.0
303.8612561484908 7.0565383861403035 119.6654031417839 -206.90287440799528 0.0 0.0
367.0151551746703 8.470827664894458 158.47054085968742 -194.54829307727937 0.0 0.0
407.7210876897555 8.760108508530493 188.0721829335025 -186.82544997941926 0.0 0.0
436.32932950415403 9.009931736325072 210.66452981492407 -181.36812074039784 0.0 0.0
459.65579094631283 7.049340995767977 227.59963007526432 -176.91819939546534 0.0 0.0
482.42375514700086 2.8692570381828943 240.91665211499003 -172.74922709013788 0.0 0.0
510.14529917245767 -2.730687963895548 253.74533139751082 -168.1078515468657 0.0 0.0
547.5459804576934 -6.303153027049007 270.7651448206497 -160.97517828446502 0.0 0.0
594.1978381012601 -5.97871238768883 294.1271620807621 -149.76024010846174 0.0 0.0
613.4298852609239 -36.513146310857735 289.6170885863362 -140.3580065370587 0.0 0.0
649.5885416707665 -69.67056370709366 287.79859032330137 -139.17178013007918 0.0 0.0
649.5885416697556 -69.67056370808916 287.7985903226867 139.17178013036158 0.0 0.0
613.4298852591742 -36.5131463128061 289.6170885851816 140.3580065373713 0.0 0.0
594.1978381013095 -5.9787123879756905 294.12716208072334 149.76024010861642 0.0 0.0
547.5459804586964 -6.303153025440054 270.76514482136804 160.97517828478124 0.0 0.0
510.14529917308414 -2.7306879629287835 253.74533139786095 168.10785154689137 0.0 0.0
482.42375514638013 2.8692570376320248 240.91665211455353 172.7492270901394 0.0 0.0
459.6557909466449 7.049340996268967 227.59963007548538 176.91819939551334 0.0 0.0
436.32932950381496 9.009931736020448 210.6645298146945 181.3681207405915 0.0 0.0
407.7210876890292 8.760108507376444 188.07218293287127 186.8254499793441 0.0 0.0
367.0151551742829 8.470827664332774 158.4705408593186 194.54829307718038 0.0 0.0
303.8612561482693 7.056538386195086 119.66540314165931 206.90287440793955 0.0 0.0
222.34313218173074 4.840483279956146 79.81403504527009 223.48775564844323 0.0 0.0
137.6831713260314 0.9712461553784966 46.07248654319137 236.75608434651866 0.0 0.0
80.92196800569928 -0.786272489132779 25.71390997065443 234.18381945192857 0.0 0.0
50.49323121986003 2.4407126726498394 16.391628031326828 219.05297241494827 0.0 0.0
28.739916657414835 10.900998154334491 11.99240330495957 200.4136655008267 0.0 0.0
5.463328563334406 17.420145215463833 6.875834000410851 189.35366490367957 0.0 0.0
-18.0190066147126 3.723154195220544 -4.290472785607895 190.6287600441803 0.0 0.0
-30.304469813636963 -47.0536222227833 -23.210797548744466 194.6649546988828 0.0 0.0
0.7055643337096313 -320.1615395761313 -102.43694836570745 156.7171093042601 0.0 0.0
-10.688472190613961 -269.31126110247556 -84.87540701935328 -146.95622713047956 0.0 0.0
-49.689856733529126 -49.81178604388532 -29.85921496791366 -194.48632378181605 0.0 0.0
-51.038388474504686 3.7866360286716363 -14.198339133873649 -193.52009709260187 0.0 0.0
-46.33929832787604 18.408139120806084 -8.419147731589526 -193.0605061864704 0.0 0.0
-45.77722694464137 15.17259512905874 -9.315092378260514 -202.56909252409292 0.0 0.0
-56.850567803053266 7.406429814796313 -15.398954538973886 -220.0269771416943 0.0 0.0
-83.8159282631135 2.632739852113848 -26.104859843148017 -234.33880218135394 0.0 0.0
-138.72162842237617 -0.5640312177728557 -46.3167775577885 -236.93419715853292 0.0 0.0
-222.2362316969028 -4.586032762395309 -79.70865252717392 -223.6134262043929 0.0 0.0
-303.6098628568683 -6.697230967418278 -119.45651836438782 -206.88000024078764 0.0 0.0
-367.24503538262775 -6.9900490662604255 -157.92887144822518 -194.3803972371525 0.0 0.0
-409.51259741820417 -7.097166372587907 -188.1272227777509 -186.3437149928261 0.0 0.0
-440.9098578409696 -9.542855589437778 -212.80741698665616 -180.97082932560332 0.0 0.0
-465.56360107642524 -15.038853952532122 -234.04354829311842 -177.64554012961315 0.0 0.0
-482.0132315054591 -23.925774950093825 -252.1817884733073 -176.20892631443164 0.0 0.0
-487.0694666053705 -35.25468484565258 -266.3183878883444 -176.16521734173784 0.0 0.0
-471.8162508560557 -46.37828040782955 -272.9952186353804 -176.26091223976766 0.0 0.0
-407.04033026983825 -39.91752014972985 -256.13106246790835 -176.00911872002737 0.0 0.0
-224.9608516010985 -38.98264450788872 -196.21217473295252 -179.017227027862 0.0 0.0
-22.637394421272546 -175.78647958600578 -70.76044295414141 -171.33744083634184 0.0 0.0
-22.637394421763588 -175.78647958657547 -70.76044295448537 171.33744083670467 0.0 0.0
-224.96085160091883 -38.98264450728385 -196.21217473286265 179.0172270283959 0.0 0.0
-407.0403302694975 -39.91752014890909 -256.13106246762635 176.0091187202632 0.0 0.0
-471.81625085672044 -46.378280409249385 -272.99521863598665 176.26091223991642 0.0 0.0
-487.06946660566535 -35.254684846233914 -266.3183878885373 176.16521734162995 0.0 0.0
-482.01323150556345 -23.92577495075713 -252.1817884734385 176.20892631442842 0.0 0.0
-465.56360107654245 -15.038853952630404 -234.04354829308483 177.64554012966988 0.0 0.0
-440.9098578405748 -9.54285558924525 -212.80741698639721 180.97082932558587 0.0 0.0
-409.5125974174126 -7.097166371909495 -188.1272227771949 186.34371499277353 0.0 0.0
-367.2450353817417 -6.990049065994228 -157.9288714477539 194.38039723709574 0.0 0.0
-303.6098628558754 -6.697230966658459 -119.45651836371155 206.880000240589 0.0 0.0
-222.23623169636596 -4.586032762794158 -79.70865252707614 223.61342620456475 0.0 0.0
-138.72162842173356 -0.5640312173347048 -46.31677755743986 236.9341971585282 0.0 0.0
-83.8159282631004 2.632739851714673 -26.10485984324771 234.33880218122064 0.0 0.0
-56.850567802917475 7.4064298147121725 -15.398954538956167 220.02697714148113 0.0 0.0
-45.777226944404745 15.172595129355965 -9.31509237810048 202.56909252387428 0.0 0.0
-46.339298327839415 18.408139120813033 -8.419147731577583 193.06050618622342 0.0 0.0
-51.038388474665815 3.7866360283219596 -14.19833913402897 193.520097092281 0.0 0.0
-49.68985673351269 -49.81178604386483 -29.859214967908947 194.48632378163438 0.0 0.0
-10.688472190768056 -269.31126110224625 -84.87540701934091 146.95622713040058 0.0 0.0
-22.941477348081868 -220.35063838862564 -72.980039928696 -134.00645634212782 0.0 0.0
-66.41541702817995 -50.03117026988591 -34.94608571113821 -190.99989685632443 0.0 0.0
-82.98477668104849 3.761181876817174 -23.814762503909805 -192.56758163812913 0.0 0.0
-96.50761637239687 19.241176947024037 -23.282067579029786 -191.6906745033806 0.0 0.0
-118.560894538247 18.58681025609518 -30.44700468110712 -198.04174972084405 0.0 0.0
-162.01817577064432 12.072407616456374 -46.87859198207826 -210.78158374918166 0.0 0.0
-242.4893108843277 7.189907339908256 -78.11057164129106 -217.86732844530584 0.0 0.0
-358.22654312736535 2.893649190735381 -132.11204673673205 -208.13579978242944 0.0 0.0
-466.0598567391103 -4.76196330040252 -198.23690261422965 -191.77966095757512 0.0 0.0
-540.618809340401 -10.676990139829769 -252.7203151554767 -180.83246663617288 0.0 0.0
-593.7041206051367 -15.713712966280653 -291.7881264643567 -174.50388485963006 0.0 0.0
-635.7995816292705 -19.76661526391311 -320.11261172223243 -169.6174812990509 0.0 0.0
-673.3157483093493 -25.96556175984196 -344.72440508330044 -165.42901916470709 0.0 0.0
-708.4262557800332 -35.3556003607475 -368.4399455271032 -163.05171392811974 0.0 0.0
-741.5375752108223 -48.51771935771259 -392.5635001776129 -162.98020448713902 0.0 0.0
-770.5641077742423 -64.2862410040998 -415.873219986951 -165.1448602316795 0.0 0.0
-790.4864687430261 -79.38600044282131 -434.4302802042526 -169.99067370113931 0.0 0.0
-798.7571704894119 -92.37180791148722 -445.9811582433797 -177.61421990906445 0.0 0.0
-831.838345218792 -146.01373240896618 -490.6395596932493 -186.94199485137855 0.0 0.0
-846.8477702049204 -238.19584169454123 -546.0222362079868 -205.9965112651422 0.0 0.0
-846.8477702055275 -238.19584169523023 -546.0222362084078 205.99651126548122 0.0 0.0
-831.8383452200371 -146.0137324107535 -490.63955969420266 186.9419948520366 0.0 0.0
-798.7571704896179 -92.37180791226831 -445.9811582436657 177.61421990944046 0.0 0.0
-790.4864687428487 -79.38600044277874 -434.4302802042084 169.99067370119798 0.0 0.0
-770.5641077743086 -64.28624100412858 -415.87321998694244 165.14486023157406 0.0 0.0
-741.5375752108124 -48.517719358113254 -392.56350017764674 162.98020448738123 0.0 0.0
-708.4262557793645 -35.355600360414016 -368.4399455267419 163.05171392826293 0.0 0.0
-673.3157483093014 -25.965561760179995 -344.72440508329765 165.42901916486517 0.0 0.0
-635.7995816282184 -19.76661526279193 -320.11261172145146 169.61748129884808 0.0 0.0
-593.7041206046794 -15.713712966041527 -291.78812646398455 174.50388485962196 0.0 0.0
-540.6188093405204 -10.676990140427868 -252.72031515552345 180.83246663613414 0.0 0.0
-466.05985673909544 -4.7619633009751325 -198.2369026142137 191.77966095763725 0.0 0.0
-358.22654312664554 2.89364919089666 -132.1120467363227 208.13579978249206 0.0 0.0
-242.4893108838135 7.189907340040524 -78.11057164103545 217.86732844519196 0.0 0.0
-162.01817577038295 12.072407616255031 -46.878591982055035 210.7815837489969 0.0 0.0
-118.56089453846234 18.586810255283712 -30.447004681412594 198.04174972067378 0.0 0.0
-96.5076163724345 19.241176946827892 -23.28206757910133 191.69067450323496 0.0 0.0
-82.98477668097948 3.7611818768476364 -23.814762503884374 192.56758163813322 0.0 0.0
-66.41541702813142 -50.03117027001498 -34.9460857111687 190.99989685629566 0.0 0.0
-22.941477348104893 -220.35063838843809 -72.98003992864889 134.00645634205932 0.0 0.0
-28.40965599527258 -174.35812285899377 -60.830333656279905 -119.17134605090071 0.0 0.0
-80.19872845832595 -47.728616165060956 -38.37553486346458 -183.59548420253824 0.0 0.0
-113.43800590808763 3.5411156091314266 -33.01351324920696 -187.58720478401307 0.0 0.0
-144.94192730143683 19.549440245108194 -37.78917602205353 -185.18637835488437 0.0 0.0
-189.03163850022236 20.77465166113271 -51.34681352784847 -187.41877273973853 0.0 0.0
-261.58630834762926 17.123970561442576 -77.92845761867207 -193.23454819895886 0.0 0.0
-371.8887669310043 13.174614448770193 -128.83389036731344 -188.48694516438889 0.0 0.0
-488.0007718880206 2.843426060888156 -202.9820335619613 -174.04356467108525 0.0 0.0
-577.6495421677955 -8.202555694685302 -270.8793798551754 -165.34293223117228 0.0 0.0
-643.6744123867625 -17.79802879899505 -319.8067653882222 -160.6901969116269 0.0 0.0
-696.8357290896487 -25.273334502712714 -354.8336541592064 -156.829330731193 0.0 0.0
-742.9771353324676 -33.618498142240014 -384.0521133657004 -152.61824014413193 0.0 0.0
-785.7028033422191 -43.22889938889941 -411.17543552369756 -148.65184240384522 0.0 0.0
-827.2455226908228 -56.07617617460622 -438.8885925856398 -146.20813830195894 0.0 0.0
-868.5777848660385 -73.37019304194112 -468.6019325908476 -146.30318168873924 0.0 0.0
-907.3918325173356 -93.77329129630968 -498.66111072353067 -149.35260676828494 0.0 0.0
-941.4654677240067 -115.36745260950747 -526.910905857802 -154.95157529207447 0.0 0.0
-979.501947752264 -148.32944965656304 -562.7865392393245 -161.1112101521776 0.0 0.0
-1023.3798535276942 -198.08960658995943 -609.8003019936634 -166.45530184070853 0.0 0.0
-1126.3357656756452 -336.05824954660886 -729.7080590768326 -171.82306604468943 0.0 0.0
-1126.3357656768392 -336.0582495481486 -729.7080590777282 171.82306604508017 0.0 0.0
-1023.3798535268556 -198.08960658920756 -609.8003019930459 166.45530184090094 0.0 0.0
-979.5019477513271 -148.32944965583715 -562.786539238606 161.11121015250203 0.0 0.0
-941.4654677234005 -115.36745260912491 -526.9109058572553 154.95157529226293 0.0 0.0
-907.3918325170523 -93.77329129606474 -498.66111072327277 149.35260676811765 0.0 0.0
-868.5777848650132 -73.37019304100423 -468.60193259019997 146.30318168870656 0.0 0.0
-827.2455226901968 -56.07617617410139 -438.88859258523325 146.20813830196755 0.0 0.0
-785.70280334363 -43.22889939071845 -411.175435524583 148.65184240406074 0.0 0.0
-742.9771353328616 -33.618498143007955 -384.0521133659968 152.6182401441686 0.0 0.0
-696.8357290892567 -25.273334502478484 -354.83365415896736 156.82933073103612 0.0 0.0
-643.6744123862254 -17.79802879859666 -319.8067653878695 160.69019691146013 0.0 0.0
-577.6495421672581 -8.202555694424502 -270.8793798547793 165.342932231145 0.0 0.0
-488.0007718875464 2.8434260610280284 -202.98203356153476 174.04356467102036 0.0 0.0
-371.8887669304849 13.174614448874344 -128.83389036697935 188.4869451643251 0.0 0.0
-261.58630834692826 17.123970561891618 -77.92845761829547 193.23454819875226 0.0 0.0
-189.03163849983193 20.77465166149073 -51.34681352762543 187.41877273953662 0.0 0.0
-144.94192730128285 19.54944024507522 -37.789176022021906 185.18637835480462 0.0 0.0
-113.43800590789846 3.5411156093307237 -33.01351324909584 187.58720478384086 0.0 0.0
-80.19872845841715 -47.7286161653733 -38.37553486358838 183.59548420239372 0.0 0.0
-28.40965599523635 -174.35812285886655 -60.830333656230856 119.17134605072992 0.0 0.0
-30.332384495936573 -132.3441198086406 -48.80295129137315 -103.5156193254142 0.0 0.0
-91.54499598030016 -43.16324097354475 -40.41194405487779 -171.68868519006256 0.0 0.0
-142.06787955031913 3.1410737566861267 -41.71030864228342 -178.43708108368185 0.0 0.0
-191.45095371627644 18.81911621373814 -52.04556310211476 -173.82912932380964 0.0 0.0
-255.8632366472218 22.602259593710826 -71.541061766096 -171.4875586998119 0.0 0.0
-351.60556194795686 22.413275302379223 -109.46839552205756 -168.27951990425157 0.0 0.0
-468.4596139734935 14.88645176912226 -177.91377541826142 -155.21849490600306 0.0 0.0
-570.3653388943691 1.3080234569102842 -256.5300792167832 -145.79555352852233 0.0 0.0
-649.2708150603706 -11.78970223167262 -317.7513106720527 -143.38421200272694 0.0 0.0
-713.3663150742109 -23.900982237422497 -362.116206598774 -141.68180738398522 0.0 0.0
-768.4584315878982 -35.10466455614939 -397.4917021113222 -138.87229017837888 0.0 0.0
-819.1599664491562 -47.383038789394504 -429.9902645989158 -135.2157655394518 0.0 0.0
-866.614923393739 -60.53552577311123 -460.853374039571 -131.4194989219734 0.0 0.0
-913.081818142816 -76.73068230840147 -492.51037418946265 -128.8146280027371 0.0 0.0
-960.0311882247518 -97.55466755143564 -526.6342514443959 -128.9210878331379 0.0 0.0
-1007.838553544577 -123.93124074519369 -563.9732242025024 -132.18945552314102 0.0 0.0
-1057.472367940979 -157.51981363626547 -605.8238533409046 -137.4272744647788 0.0 0.0
-1111.3804259749904 -201.70960024548828 -655.0206604460648 -141.99405385537167 0.0 0.0
-1184.3414203965517 -274.57278983531285 -727.7745972373448 -142.47420385001212 0.0 0.0
-1282.5251370399208 -398.37791239729336 -838.7649792113747 -142.05041505931916 0.0 0.0
-1282.5251370410588 -398.3779123986228 -838.7649792121922 142.0504150596496 0.0 0.0
-1184.341420395725 -274.5727898346196 -727.7745972368833 142.47420385018606 0.0 0.0
-1111.3804259730277 -201.70960024347164 -655.0206604447378 141.99405385538188 0.0 0.0
-1057.472367941101 -157.51981363656358 -605.8238533410016 137.42727446492745 0.0 0.0
-1007.8385535440723 -123.93124074489012 -563.9732242021493 132.18945552317487 0.0 0.0
-960.031188223798 -97.55466755059705 -526.6342514437603 128.92108783310465 0.0 0.0
-913.0818181430122 -76.73068230877344 -492.5103741896046 128.814628002757 0.0 0.0
-866.6149233938409 -60.535525773520675 -460.853374039619 131.41949892216974 0.0 0.0
-819.1599664483881 -47.383038788925006 -429.9902645984178 135.2157655395233 0.0 0.0
-768.4584315870311 -35.10466455553251 -397.49170211074585 138.87229017837987 0.0 0.0
-713.3663150736783 -23.900982237151997 -362.11620659839764 141.68180738395316 0.0 0.0
-649.2708150603019 -11.78970223207324 -317.75131067201505 143.38421200290128 0.0 0.0
-570.3653388932386 1.3080234576853975 -256.53007921600283 145.79555352856107 0.0 0.0
-468.4596139729304 14.886451769218231 -177.9137754178518 155.2184949060124 0.0 0.0
-351.60556194792025 22.413275301425024 -109.46839552224321 168.27951990435616 0.0 0.0
-255.8632366468126 22.60225959378897 -71.5410617659519 171.4875586996499 0.0 0.0
-191.45095371589926 18.819116214094763 -52.045563101904904 173.82912932363064 0.0 0.0
-142.06787955016128 3.1410737567467173 -41.710308642224305 178.4370810836205 0.0 0.0
-91.54499598015667 -43.163240973325145 -40.41194405476904 171.68868518991957 0.0 0.0
-30.332384495966 -132.34411980851712 -48.802951291344925 103.51561932531172 0.0 0.0
-31.338170617571755 -95.0421823329674 -37.91410588516174 -87.39812018777775 0.0 0.0
-101.41878061080517 -36.812209888099794 -41.46929714967148 -155.56064377008755 0.0 0.0
-168.8512871609779 2.674805237777126 -49.86724884538281 -164.79216725235136 0.0 0.0
-236.29818749258408 17.3424539698519 -65.92431701116554 -158.16105014970168 0.0 0.0
-319.4868852025023 24.803939985757104 -91.38690240213526 -150.98227234771505 0.0 0.0
-428.58669368666096 24.91736530182328 -142.64459728483473 -138.1034353295722 0.0 0.0
-538.4612030032378 14.481110544247187 -221.38547345337943 -124.79655741106157 0.0 0.0
-628.6025869776415 0.053961182786210315 -295.67059435782085 -121.71651506539139 0.0 0.0
-702.7047261161567 -14.879591389256035 -350.56108693891736 -122.65468471612414 0.0 0.0
-766.9602438778485 -29.341147075377677 -393.36520362397164 -122.45862612355101 0.0 0.0
-825.8738930917066 -44.72463365499652 -431.8105310861498 -120.41035323069417 0.0 0.0
-880.9678784748891 -61.127912882022144 -468.2442287892353 -117.23937789984087 0.0 0.0
-932.8738396517588 -78.15894201690662 -503.1552904851251 -113.7376564961759 0.0 0.0
-983.384752592017 -97.17731615371434 -538.1735380817302 -111.08134424574618 0.0 0.0
-1035.8423246753027 -121.66163209527082 -576.7790167800872 -110.8438850343315 0.0 0.0
-1092.9640626597254 -155.41060865627452 -622.3342064524289 -113.6369886901816 0.0 0.0
-1156.632262750766 -200.32541807376245 -676.745165116414 -118.25703700485151 0.0 0.0
-1229.7280482407743 -261.24904038204244 -743.77673144356 -121.29609810550619 0.0 0.0
-1313.5685046066978 -344.14140111955834 -827.1229813243781 -120.65263995059091 0.0 0.0
-1399.0251641396376 -453.13876129505456 -924.4699928156872 -121.19466677060495 0.0 0.0
-1399.0251641393575 -453.13876129492127 -924.46999281553 121.19466677080085 0.0 0.0
-1313.5685046069684 -344.14140111992486 -827.1229813245731 120.65263995083805 0.0 0.0
-1229.728048240982 -261.2490403824287 -743.7767314437174 121.29609810571303 0.0 0.0
-1156.6322627499396 -200.32541807304307 -676.7451651159015 118.25703700488462 0.0 0.0
-1092.9640626595399 -155.41060865611726 -622.3342064523492 113.63698869003471 0.0 0.0
-1035.8423246746306 -121.66163209472191 -576.7790167796995 110.8438850343139 0.0 0.0
-983.3847525918914 -97.17731615374313 -538.1735380816651 111.0813442456682 0.0 0.0
-932.8738396517113 -78.15894201706634 -503.155290485129 113.7376564962602 0.0 0.0
-880.9678784742182 -61.127912881608914 -468.2442287887144 117.23937789991575 0.0 0.0
-825.8738930911004 -44.724633654659215 -431.81053108571155 120.41035323066147 0.0 0.0
-766.9602438771224 -29.341147074739176 -393.3652036234438 122.45862612324598 0.0 0.0
-702.7047261152903 -14.879591388505723 -350.56108693832346 122.65468471585726 0.0 0.0
-628.602586977112 0.053961183108363286 -295.6705943573831 121.71651506525154 0.0 0.0
-538.4612030029169 14.481110544162114 -221.38547345306725 124.7965574110471 0.0 0.0
-428.5866936863242 24.917365301505622 -142.6445972846733 138.1034353296713 0.0 0.0
-319.48688520224476 24.80393998529957 -91.3869024021851 150.98227234782385 0.0 0.0
-236.29818749247337 17.34245396967637 -65.92431701119091 158.1610501495622 0.0 0.0
-168.8512871609802 2.674805237462416 -49.86724884548214 164.79216725215932 0.0 0.0
-101.41878061082973 -36.81220988817132 -41.4692971497003 155.56064376997227 0.0 0.0
-31.3381706175035 -95.04218233278678 -37.91410588508708 87.39812018763683 0.0 0.0
-32.14975691672641 -63.018073546880274 -28.550349139082 -70.82907677124624 0.0 0.0
-110.35090255846437 -29.249384441007216 -41.88008609984147 -135.63376839442327 0.0 0.0
-194.02306662306728 2.0671422247771645 -57.58459021366654 -146.7176870533165 0.0 0.0
-278.42288058583716 15.41927000345397 -79.24985217354822 -138.17732669344576 0.0 0.0
-378.31964955193575 26.805994931969416 -111.73885084070426 -125.923193279925 0.0 0.0
-491.2798473925876 24.74273491826782 -176.29206958614165 -107.37025554190937 0.0 0.0
-590.4470255321911 14.090114154034246 -257.2658878894739 -98.3916597125526 0.0 0.0
-672.7317612170696 -1.261963885622265 -324.5561782906275 -99.41868289617113 0.0 0.0
-744.7019101653601 -16.988932543862973 -374.85161926270223 -102.06675381884413 0.0 0.0
-811.3670938565782 -34.59987191996436 -419.05932806366565 -102.69099343311343 0.0 0.0
-874.3651381115756 -54.12043521350586 -461.215403433132 -101.18831446813365 0.0 0.0
-933.9659032331106 -74.85311752757391 -501.9152249635259 -98.60546347326853 0.0 0.0
-990.5041259435809 -95.98620742489851 -541.1358420469453 -95.67032056149674 0.0 0.0
-1044.9917324387586 -118.3067856805823 -579.7679755664661 -92.97417362271072 0.0 0.0
-1102.1017980952442 -146.1378293998061 -622.3072074422944 -92.00631471412926 0.0 0.0
-1168.1359062800939 -186.57481122632214 -675.558837861169 -93.87527190851978 0.0 0.0
-1245.63145165707 -243.90275640476705 -742.9977973675481 -97.58031933325256 0.0 0.0
-1333.5456781051623 -318.90604285872996 -824.4886249389408 -100.5156007416015 0.0 0.0
-1422.9706062412365 -407.6647844415174 -913.636822128067 -101.69249865460091 0.0 0.0
-1501.0278488821466 -508.12367773077887 -1003.0616145068085 -105.73866895122947 0.0 0.0
-1501.0278488815475 -508.1236777302007 -1003.06161450629 105.73866895131067 0.0 0.0
-1422.970606239846 -407.6647844401397 -913.6368221269886 101.69249865465673 0.0 0.0
-1333.5456781058292 -318.9060428595847 -824.488624939312 100.51560074194325 0.0 0.0
-1245.6314516575344 -243.90275640548754 -742.9977973677555 97.5803193336148 0.0 0.0
-1168.1359062803306 -186.57481122671194 -675.5588378612163 93.87527190856858 0.0 0.0
-1102.1017980941244 -146.13782939889464 -622.3072074414844 92.00631471430184 0.0 0.0
-1044.9917324371263 -118.30678567902523 -579.7679755653959 92.97417362248709 0.0 0.0
-990.5041259432755 -95.98620742476612 -541.1358420466543 95.67032056146542 0.0 0.0
-933.9659032327368 -74.85311752746874 -501.91522496329475 98.60546347335291 0.0 0.0
-874.3651381108373 -54.12043521295709 -461.2154034326517 101.18831446799216 0.0 0.0
-811.3670938565839 -34.59987192017499 -419.0593280636391 102.69099343298896 0.0 0.0
-744.7019101649523 -16.988932543880622 -374.85161926249987 102.0667538190859 0.0 0.0
-672.7317612161249 -1.2619638849326549 -324.55617829000363 99.41868289602317 0.0 0.0
-590.4470255310325 14.090114155037952 -257.2658878886177 98.39165971236478 0.0 0.0
-491.2798473916335 24.74273491888238 -176.29206958549642 107.37025554189859 0.0 0.0
-378.31964955177665 26.805994931599656 -111.73885084071557 125.92319327983259 0.0 0.0
-278.42288058584927 15.419270003034637 -79.24985217367885 138.177326693164 0.0 0.0
-194.0230666228941 2.0671422248715396 -57.58459021358712 146.71768705309387 0.0 0.0
-110.35090255850866 -29.2493844411604 -41.88008609990071 135.6337683943037 0.0 0.0
-32.14975691661213 -63.018073546699 -28.550349138993333 70.82907677130174 0.0 0.0
-32.71842962929576 -36.771963189875684 -20.84711784575143 -53.76254744815512 0.0 0.0
-118.27457875982579 -21.037154828203057 -41.79352007640865 -112.31773687403896 0.0 0.0
-217.83501230532266 1.2182811472823083 -64.98425886332298 -124.16301068129263 0.0 0.0
-319.63881555271456 14.00587600546022 -92.16686426965175 -114.56895025629207 0.0 0.0
-432.97390014384064 27.265897038976675 -133.80342700313327 -97.23320556147621 0.0 0.0
-540.2528409814431 23.85558962255675 -207.91306121691835 -78.8763617257346 0.0 0.0
-628.7235348378499 12.766870421547239 -285.78683291260916 -74.70119758056751 0.0 0.0
-706.8700627922057 -1.2856930738794006 -345.29991875747567 -77.89049249648068 0.0 0.0
-779.571993391411 -18.75507011097929 -394.3974732550595 -81.15582264785023 0.0 0.0
-849.284261587967 -39.840647637443624 -441.1635930474441 -82.1809217862304 0.0 0.0
-916.2062667794519 -63.228807855742616 -487.01243386035173 -81.20086331299737 0.0 0.0
-980.505954583012 -88.30807115046349 -532.1462445052698 -79.27536571323121 0.0 0.0
-1042.0030916760493 -114.11040869645726 -576.1223800512419 -77.00522988661571 0.0 0.0
-1101.6578219051255 -140.79620982050545 -619.5123052262372 -74.57532552109413 0.0 0.0
-1162.897176301265 -171.72518986818284 -665.6533333898359 -72.7180388225768 0.0 0.0
-1234.3299314457727 -216.61717625167768 -723.74311165023 -72.96190089322856 0.0 0.0
-1323.7452717967176 -284.41249868942293 -802.3106189048732 -75.92328150105348 0.0 0.0
-1424.2204883660995 -371.3492657176782 -896.0708970856283 -80.0423574525581 0.0 0.0
-1521.9095298853604 -468.5249867168254 -993.5956607601538 -84.63599247805016 0.0 0.0
-1598.464014945894 -566.7219804995934 -1081.1534276609843 -93.34737681154327 0.0 0.0
-1598.4640149468428 -566.7219805005807 -1081.1534276617297 93.34737681164655 0.0 0.0
-1521.9095298846746 -468.5249867162336 -993.5956607597874 84.63599247823291 0.0 0.0
-1424.2204883640718 -371.34926571569537 -896.0708970843449 80.04235745254131 0.0 0.0
-1323.7452717965352 -284.41249868937115 -802.3106189047212 75.92328150118735 0.0 0.0
-1234.329931444678 -216.61717625070918 -723.7431116494007 72.96190089326703 0.0 0.0
-1162.8971762999734 -171.72518986709875 -665.6533333888392 72.71803882277378 0.0 0.0
-1101.6578219035284 -140.79620981901684 -619.5123052250275 74.57532552092826 0.0 0.0
-1042.0030916754283 -114.11040869603399 -576.1223800508175 77.00522988661584 0.0 0.0
-980.5059545830358 -88.30807115078025 -532.146244505261 79.27536571342274 0.0 0.0
-916.206266779147 -63.22880785571084 -487.0124338600659 81.2008633130334 0.0 0.0
-849.2842615861576 -39.84064763584719 -441.16359304620795 82.18092178607976 0.0 0.0
-779.5719933910924 -18.755070110899993 -394.39747325482745 81.15582264770838 0.0 0.0
-706.8700627925325 -1.2856930745102346 -345.29991875764784 77.89049249637159 0.0 0.0
-628.7235348374338 12.766870421642714 -285.7868329122374 74.70119758046755 0.0 0.0
-540.252840981541 23.855589622049344 -207.91306121687444 78.87636172564686 0.0 0.0
-432.97390014378084 27.265897038429586 -133.8034270031801 97.23320556154748 0.0 0.0
-319.6388155525104 14.005876005412611 -92.16686426962099 114.56895025621782 0.0 0.0
-217.83501230509268 1.2182811474986868 -64.98425886318996 124.16301068118662 0.0 0.0
-118.27457875969314 -21.037154828060807 -41.79352007632618 112.31773687405176 0.0 0.0
-32.71842962921457 -36.77196318975739 -20.847117845691585 53.76254744818074 0.0 0.0
-32.4409125639678 -16.772508698767233 -14.764026378820507 -36.318301783061074 0.0 0.0
-124.40015139084741 -12.667433676919547 -41.12027552033008 -85.84598266046474 0.0 0.0
-240.76643220499096 -0.04440673271618678 -72.24325168131213 -97.08910546699303 0.0 0.0
-360.7905501374419 14.027692592922774 -104.87485418418918 -87.18188265713634 0.0 0.0
-480.29047494537576 26.241387147025122 -157.4080285526432 -67.11527998052378 0.0 0.0
-578.3880412053311 21.888773676808846 -236.94671875822783 -53.667752715855435 0.0 0.0
-659.4042856423732 12.066552049126159 -307.92667893852274 -52.82666789238649 0.0 0.0
-734.6795078786406 -0.8451103777049411 -361.18718966652034 -56.361471931129884 0.0 0.0
-808.9001198024545 -20.591988352757 -410.7407136061412 -59.669211246559314 0.0 0.0
-881.7913741497323 -44.87513265392866 -460.30847314319476 -60.93721421606112 0.0 0.0
-952.8513670542849 -72.09810130011203 -510.0151931975154 -60.444363051542624 0.0 0.0
-1021.7159339214323 -101.42651845663121 -559.4922533633562 -59.15819975790318 0.0 0.0
-1088.8402978072356 -132.20052221779457 -608.714958883028 -57.64971905803777 0.0 0.0
-1154.507808039836 -164.6835241574752 -657.9856658594388 -55.70229225974362 0.0 0.0
-1220.7578818205006 -200.18532876199623 -708.9451298580058 -53.32037435579873 0.0 0.0
-1294.263291642295 -246.0565319461955 -768.5590461313791 -51.746841816655085 0.0 0.0
-1386.4415196973023 -315.65134865220034 -849.3125568469293 -53.45378738795959 0.0 0.0
-1502.6047966258511 -417.3865439180362 -958.2913035113261 -59.21652506120604 0.0 0.0
-1613.9678441946191 -527.5371282914359 -1069.1800582034275 -68.27336854120043 0.0 0.0
-1699.7058104210512 -633.5149558481857 -1165.225615986642 -82.60391409933482 0.0 0.0
-1699.7058104210075 -633.5149558481774 -1165.225615986616 82.60391409936784 0.0 0.0
-1613.967844193509 -527.5371282904114 -1069.1800582025978 68.27336854146156 0.0 0.0
-1502.6047966255453 -417.38654391786895 -958.2913035110007 59.216525061408184 0.0 0.0
-1386.441519696264 -315.65134865123684 -849.3125568460092 53.453787387882514 0.0 0.0
-1294.2632916421803 -246.05653194620743 -768.5590461312718 51.74684181661232 0.0 0.0
-1220.757881821548 -200.18532876321106 -708.9451298587019 53.320374355825976 0.0 0.0
-1154.5078080397811 -164.68352415761638 -657.985665859314 55.70229225980274 0.0 0.0
-1088.8402978063314 -132.20052221706226 -608.7149588824001 57.649719057975645 0.0 0.0
-1021.715933920945 -101.42651845639152 -559.4922533630538 59.15819975791793 0.0 0.0
-952.8513670539962 -72.09810130006895 -510.01519319732495 60.44436305155911 0.0 0.0
-881.7913741495779 -44.87513265413095 -460.3084731431012 60.93721421628566 0.0 0.0
-808.9001198019657 -20.59198835260119 -410.74071360579677 59.66921124669814 0.0 0.0
-734.6795078779048 -0.8451103772760291 -361.1871896659945 56.361471931126104 0.0 0.0
-659.4042856419708 12.066552049239867 -307.9266789381915 52.8266678921759 0.0 0.0
-578.3880412047762 21.888773677093763 -236.94671875774227 53.66775271568012 0.0 0.0
-480.2904749447469 26.241387147263282 -157.40802855226136 67.11527998057137 0.0 0.0
-360.79055013706505 14.027692593074814 -104.87485418405201 87.18188265709954 0.0 0.0
-240.76643220482575 -0.04440673271859685 -72.2432516812633 97.08910546696315 0.0 0.0
-124.40015139084556 -12.667433677174945 -41.12027552040615 85.84598266045192 0.0 0.0
-32.4409125639321 -16.77250869867683 -14.764026378782678 36.31830178309096 0.0 0.0
-29.997301157888774 -3.4139334944347137 -10.023370395697047 -19.012477986921283 0.0 0.0
-127.01056557683113 -4.775674842892693 -39.535872125917145 -56.180764336538196 0.0 0.0
-263.2747683358856 -1.4417921926890855 -79.41496815857239 -64.99884797067219 0.0 0.0
-403.07325318413757 15.242809595963918 -118.38211801084941 -56.137350716837375 0.0 0.0
-519.0432846185909 24.760910192689586 -181.45348403802024 -38.636242938488145 0.0 0.0
-606.5618240138591 18.856459389083852 -262.15131237405205 -30.95215781667324 0.0 0.0
-683.3781611952395 12.613592223760705 -323.9734984383168 -31.754487280453215 0.0 0.0
-757.7815429885627 -0.9748650743000269 -374.2113379981728 -34.7780020324526 0.0 0.0
-833.2663758318397 -22.23833605217783 -424.27742984516857 -37.591265832762424 0.0 0.0
-909.5382270232477 -49.658622676149946 -476.8618739230312 -38.91544040792913 0.0 0.0
-984.8819420924895 -80.74856265296847 -530.5571423374968 -38.90344599681069 0.0 0.0
-1058.7088117575863 -114.20619296476781 -584.5267487061363 -38.27099438046619 0.0 0.0
-1131.3542981493335 -150.30109271251226 -639.1242650423083 -37.38881420259327 0.0 0.0
-1203.9186399648108 -189.09867291054337 -694.9645917829372 -36.13096931854291 0.0 0.0
-1277.1178879979252 -231.23632365837668 -752.7315590036947 -34.09293097723287 0.0 0.0
-1352.4682180650623 -278.76510211384834 -814.1754662640692 -31.419741674621825 0.0 0.0
-1437.7897720550386 -340.8711599959675 -887.752083088071 -30.72354993390401 0.0 0.0
-1549.5195437689326 -436.7577098518814 -991.4054361604547 -36.662043534411794 0.0 0.0
-1707.7073316731385 -591.5413243950641 -1148.0431466206812 -50.916166727992184 0.0 0.0
-1814.0334443707602 -715.8222280470676 -1263.5886278496514 -72.50244663217049 0.0 0.0
-1814.0334443700006 -715.8222280462974 -1263.5886278489766 72.5024466321093 0.0 0.0
-1707.707331672832 -591.541324394824 -1148.0431466203954 50.916166728084754 0.0 0.0
-1549.51954376847 -436.7577098515202 -991.4054361600323 36.66204353455876 0.0 0.0
-1437.7897720561582 -340.87115999720095 -887.7520830888108 30.723549933819 0.0 0.0
-1352.4682180649565 -278.76510211388666 -814.1754662639698 31.419741674730677 0.0 0.0
-1277.11788799651 -231.23632365709076 -752.7315590027061 34.09293097710389 0.0 0.0
-1203.9186399631428 -189.0986729090408 -694.9645917817663 36.13096931862667 0.0 0.0
-1131.3542981492099 -150.30109271261387 -639.1242650422063 37.388814202625085 0.0 0.0
-1058.7088117569278 -114.20619296433934 -584.5267487056097 38.27099438048809 0.0 0.0
-984.8819420922551 -80.74856265300896 -530.5571423372683 38.903445996900444 0.0 0.0
-909.5382270235186 -49.658622676754874 -476.8618739231797 38.91544040815286 0.0 0.0
-833.266375832333 -22.238336052983797 -424.27742984545114 37.591265832696195 0.0 0.0
-757.7815429883701 -0.9748650743814551 -374.21133799799964 34.77800203229786 0.0 0.0
-683.3781611954748 12.613592223173193 -323.97349843838117 31.75448728037415 0.0 0.0
-606.5618240136322 18.856459388982152 -262.1513123737998 30.952157816547928 0.0 0.0
-519.0432846180238 24.760910192939466 -181.45348403761759 38.63624293835072 0.0 0.0
-403.07325318396954 15.24280959552071 -118.38211801092287 56.13735071676517 0.0 0.0
-263.27476833582404 -1.4417921930775415 -79.41496815867048 64.99884797079176 0.0 0.0
-127.01056557682298 -4.775674843035609 -39.535872125957574 56.180764336589434 0.0 0.0
-29.99730115783587 -3.4139334944375825 -10.023370395682033 19.012477986963987 0.0 0.0
-22.856227041986223 3.0252422913264096 -5.949295425197943 -3.137080778212389 0.0 0.0
-122.92205522286653 1.7528009960794648 -36.35077626803612 -22.730276666190676 0.0 0.0
-286.6943192006848 -2.241065077850182 -86.68061528356048 -26.844430766281846 0.0 0.0
-443.0393501404417 17.372323521812085 -133.50562054280252 -22.48832812189089 0.0 0.0
-551.2607345506057 22.409812551537215 -205.7845600691609 -13.0807773043622 0.0 0.0
-630.9019207861331 17.27326256461808 -282.7970817293416 -10.357978749184607 0.0 0.0
-703.088026495029 12.455247541531378 -336.80598649356085 -11.09732376979428 0.0 0.0
-776.5216123011304 -1.1664157373034811 -384.6333819271443 -13.071876113066917 0.0 0.0
-853.4326605047606 -23.903515653271455 -435.61244524048857 -14.946266091022135 0.0 0.0
-932.9748957802663 -54.110470138643564 -491.0472174554365 -16.107691966605827 0.0 0.0
-1012.8510816075833 -88.96698074410168 -548.8131673988224 -16.556152680260336 0.0 0.0
-1091.7236106214345 -127.19038113181233 -607.6496459482848 -16.52368654259573 0.0 0.0
-1170.1595940213833 -168.20060915301826 -667.5648156978868 -16.285572849351304 0.0 0.0
-1249.436654017326 -213.04828283932864 -729.7533493184649 -15.729766929866434 0.0 0.0
-1330.2347249434588 -262.57897226213163 -795.0051474908025 -14.585432410061472 0.0 0.0
-1411.6025520283983 -316.25617860587414 -862.5834483446721 -12.581217129654426 0.0 0.0
-1491.7929382953125 -373.2681264018563 -931.1730607271364 -10.230149783209567 0.0 0.0
-1577.687182180327 -442.21244240390456 -1008.42681113809 -12.129224303944119 0.0 0.0
-1703.9790506042857 -561.4704768376537 -1130.9450741691253 -28.119870969772222 0.0 0.0
-2018.5318326384463 -888.3150594169699 -1452.092499002314 -60.196181614532776 0.0 0.0
-2018.5318326372728 -888.3150594158147 -1452.0924990014917 60.19618161450343 0.0 0.0
-1703.9790506034583 -561.4704768368597 -1130.9450741685362 28.119870969609764 0.0 0.0
-1577.6871821807895 -442.2124424044589 -1008.4268111383142 12.129224304023616 0.0 0.0
-1491.7929382960615 -373.26812640271515 -931.1730607276033 10.230149783067787 0.0 0.0
-1411.6025520280928 -316.2561786057163 -862.5834483444278 12.581217129854585 0.0 0.0
-1330.2347249438803 -262.5789722627259 -795.0051474910484 14.585432410042085 0.0 0.0
-1249.4366540166518 -213.04828283884297 -729.7533493179897 15.72976692990163 0.0 0.0
-1170.1595940220093 -168.20060915385852 -667.5648156981979 16.285572849350434 0.0 0.0
-1091.7236106204957 -127.19038113110783 -607.6496459476779 16.523686542608687 0.0 0.0
-1012.8510816059231 -88.96698074269118 -548.813167397752 16.556152680216545 0.0 0.0
-932.9748957789524 -54.11047013759055 -491.0472174545366 16.10769196659932 0.0 0.0
-853.4326605039862 -23.903515652784577 -435.61244523998187 14.9462660909644 0.0 0.0
-776.5216123006071 -1.1664157370795891 -384.63338192681226 13.071876113059222 0.0 0.0
-703.0880264944333 12.455247541817108 -336.805986493184 11.097323769879981 0.0 0.0
-630.9019207856895 17.27326256469854 -282.7970817289884 10.357978749299036 0.0 0.0
-551.2607345504505 22.409812551324592 -205.78456006899074 13.080777304625233 0.0 0.0
-443.03935014001337 17.372323521866655 -133.50562054262704 22.48832812193256 0.0 0.0
-286.69431920034236 -2.241065077630198 -86.68061528339175 26.844430766166553 0.0 0.0
-122.92205522274091 1.7528009960479132 -36.35077626800789 22.730276666139435 0.0 0.0
-22.85622704188107 3.0252422913573684 -5.949295425157111 3.1370807782422796 0.0 0.0
SCALARS Strain float 6
LOOKUP_TABLE default
0.012948275951188474 -0.014017576876496796 0.0 -0.007808740252506052 0.0 0.0
0.002652109282751291 -0.0017743660928819516 0.0 0.001316271995648599 0.0 0.0
0.0018836586414899409 -0.0007756843592588991 0.0 -3.5119232234370745e-05 0.0 0.0
0.0024684562548991026 -0.0012460713535193957 0.0 -0.00024261674409259415 0.0 0.0
0.004062824998314434 -0.002577906785361961 0.0 -0.00032105211496619157 0.0 0.0
0.007341603578189165 -0.005555237506586819 0.0 -0.0005111464476159067 0.0 0.0
0.012707289645655057 -0.010655102348233747 0.0 -0.0008389424050358474 0.0 0.0
0.020529278177701966 -0.018205357429299074 0.0 -0.0013536120617193559 0.0 0.0
0.030991630511036858 -0.028366849949034822 0.0 -0.0020733129009374296 0.0 0.0
0.0440486487383016 -0.04109415793567939 0.0 -0.0029337948119199653 0.0 0.0
0.05950387017772572 -0.05620355979533809 0.0 -0.0038257426174257425 0.0 0.0
0.0771140491316075 -0.07346010318933249 0.0 -0.004692126253260098 0.0 0.0
0.09662954612823571 -0.09261663752050797 0.0 -0.005539145633253528 0.0 0.0
0.11776035243561854 -0.11337885154301075 0.0 -0.006354155291061314 0.0 0.0
0.14005871254950003 -0.1352958110403848 0.0 -0.00708910591197609 0.0 0.0
0.16278980058896497 -0.15763697995265868 0.0 -0.0075909167076462225 0.0 0.0
0.18488198966387348 -0.17934391696826157 0.0 -0.007608486345948462 0.0 0.0
0.20496904249345763 -0.1990628017634375 0.0 -0.006939174364594902 0.0 0.0
0.2214283644447211 -0.21516816337519717 0.0 -0.0060206642967782775 0.0 0.0
0.2318085962171406 -0.2249725705365906 0.0 -0.0073695437677940845 0.0 0.0
0.23180859621712468 -0.22497257053657727 0.0 0.007369543767804521 0.0 0.0
0.2214283644446753 -0.21516816337515632 0.0 0.006020664296801259 0.0 0.0
0.2049690424933766 -0.19906280176336022 0.0 0.006939174364610445 0.0 0.0
0.1848819896637717 -0.1793439169681612 0.0 0.007608486345956678 0.0 0.0
0.16278980058885595 -0.15763697995254944 0.0 0.0075909167076365636 0.0 0.0
0.140058712549385 -0.13529581104026933 0.0 0.007089105911973759 0.0 0.0
0.11776035243550415 -0.11337885154289351 0.0 0.006354155291062202 0.0 0.0
0.09662954612812374 -0.09261663752039562 0.0 0.00553914563325264 0.0 0.0
0.0771140491315011 -0.07346010318922858 0.0 0.0046921262532511054 0.0 0.0
0.05950387017762965 -0.05620355979524749 0.0 0.003825742617419192 0.0 0.0
0.04404864873822101 -0.04109415793560478 0.0 0.002933794811906365 0.0 0.0
0.03099163051097542 -0.028366849948978867 0.0 0.0020733129009352647 0.0 0.0
0.02052927817765665 -0.01820535742925622 0.0 0.001353612061716969 0.0 0.0
0.012707289645624842 -0.010655102348204215 0.0 0.0008389424050344041 0.0 0.0
0.007341603578171485 -0.0055552375065706094 0.0 0.0005111464476138528 0.0 0.0
0.004062824998305958 -0.0025779067853557436 0.0 0.00032105211496513686 0.0 0.0
0.0024684562548976663 -0.0012460713535171752 0.0 0.00024261674409259415 0.0 0.0
0.0018836586414893164 -0.0007756843592588991 0.0 3.511923223359359e-05 0.0 0.0
0.00265210928274906 -0.0017743660928799532 0.0 -0.001316271995648377 0.0 0.0
0.012948275951177313 -0.014017576876482186 0.0 0.00780874025246775 0.0 0.0
0.009290207184823922 -0.010737351126260675 0.0 -0.009518164286776265 0.0 0.0
0.0014198125451377747 -0.0008879714683224238 0.0 0.00012184812655252619 0.0 0.0
0.0016033312467949312 -0.0005623823762826996 0.0 -0.00012547924293038193 0.0 0.0
0.0021465402454440285 -0.0010249327916724837 0.0 -0.000507219783144941 0.0 0.0
0.003422758874425204 -0.0020388305120910832 0.0 -0.000710304984335608 0.0 0.0
0.0062389933477906 -0.004539514352922991 0.0 -0.0011744047395726431 0.0 0.0
0.011030517621154208 -0.009043489959620343 0.0 -0.001992027889869963 0.0 0.0
0.01810776196503716 -0.015842586317467156 0.0 -0.003200630257612691 0.0 0.0
0.027587237083891082 -0.02502870333741436 0.0 -0.004804389575173429 0.0 0.0
0.03937266310393763 -0.03650236340217372 0.0 -0.006652885862977076 0.0 0.0
0.05325661661679198 -0.05006595904720079 0.0 -0.008539490832237928 0.0 0.0
0.06903186991540326 -0.0655168870800491 0.0 -0.010348667300828951 0.0 0.0
0.08651472787582455 -0.08266974184345122 0.0 -0.01213311341095269 0.0 0.0
0.10546998897809126 -0.10128732833987053 0.0 -0.013892023265775377 0.0 0.0
0.125514700940922 -0.12098585123553995 0.0 -0.015490082720412968 0.0 0.0
0.14602848813104496 -0.141147058183396 0.0 -0.016627847163319 0.0 0.0
0.16608799600943425 -0.16085207155636727 0.0 -0.01683506237795468 0.0 0.0
0.18443245525662672 -0.17884015295639522 0.0 -0.015825692226190236 0.0 0.0
0.19930769530127432 -0.19331073999856674 0.0 -0.013983263560025994 0.0 0.0
0.20828030946062898 -0.20197298170380318 0.0 -0.011128064140190408 0.0 0.0
0.2082803094606138 -0.20197298170378897 0.0 0.011128064140212612 0.0 0.0
0.1993076953012314 -0.19331073999852855 0.0 0.013983263560069403 0.0 0.0
0.18443245525655666 -0.17884015295633127 0.0 0.015825692226220767 0.0 0.0
0.16608799600934512 -0.16085207155628645 0.0 0.016835062377969612 0.0 0.0
0.14602848813094754 -0.14114705818330187 0.0 0.016627847163310894 0.0 0.0
0.12551470094081923 -0.12098585123544048 0.0 0.01549008272040664 0.0 0.0
0.10546998897798843 -0.10128732833976661 0.0 0.013892023265775655 0.0 0.0
0.08651472787572462 -0.08266974184335396 0.0 0.01213311341094625 0.0 0.0
0.06903186991530808 -0.0655168870799514 0.0 0.010348667300815406 0.0 0.0
0.053256616616705554 -0.050065959047113306 0.0 0.008539490832225383 0.0 0.0
0.039372663103865724 -0.03650236340210489 0.0 0.0066528858629599785 0.0 0.0
0.02758723708383526 -0.025028703337362845 0.0 0.004804389575166268 0.0 0.0
0.018107761964996527 -0.01584258631742963 0.0 0.00320063025760553 0.0 0.0
0.01103051762112639 -0.00904348995959503 0.0 0.001992027889862469 0.0 0.0
0.006238993347775612 -0.004539514352907892 0.0 0.0011744047395675916 0.0 0.0
0.0034227588744190074 -0.002038830512083978 0.0 0.0007103049843324438 0.0 0.0
0.0021465402454431404 -0.0010249327916700413 0.0 0.0005072197831444969 0.0 0.0
0.0016033312467946814 -0.0005623823762826996 0.0 0.00012547924292899415 0.0 0.0
0.0014198125451376775 -0.0008879714683212026 0.0 -0.00012184812655474664 0.0 0.0
0.009290207184810384 -0.010737351126244635 0.0 0.00951816428674801 0.0 0.0
0.006930697932118764 -0.008557968607210142 0.0 -0.00885777165205992 0.0 0.0
0.0008290712459631255 -0.0005842279622425561 0.0 -0.000603151698898019 0.0 0.0
0.0012822064326185809 -0.00040990476837998724 0.0 -0.00044354065578816604 0.0 0.0
0.0018441546154407268 -0.0008231263367552977 0.0 -0.0007522996491732825 0.0 0.0
0.002852794616598167 -0.0015862932242094452 0.0 -0.00103453480826049 0.0 0.0
0.005182556155296843 -0.003588986389349458 0.0 -0.0016618492067478896 0.0 0.0
0.009368038408466783 -0.0074585296252343 0.0 -0.002844454014315101 0.0 0.0
0.015657475396369892 -0.013464968399901522 0.0 -0.0046147434188603675 0.0 0.0
0.02411503060507915 -0.021635489329134838 0.0 -0.006910408547004754 0.0 0.0
0.03460338884461059 -0.03183104457169117 0.0 -0.009517150473714264 0.0 0.0
0.046908949127823535 -0.043841376814480526 0.0 -0.012176240690446316 0.0 0.0
0.06084983549229417 -0.05748547323797348 0.0 -0.014740261289476086 0.0 0.0
0.07628484802635715 -0.07262010632699356 0.0 -0.01724898272783021 0.0 0.0
0.09304213400293256 -0.08907208959750879 0.0 -0.019735293336584914 0.0 0.0
0.11082274008799994 -0.1065429055336149 0.0 -0.02203478124794911 0.0 0.0
0.12912856825429753 -0.12453314149284189 0.0 -0.023727293839351737 0.0 0.0
0.14718218276719103 -0.14226110496889977 0.0 -0.02424987347873142 0.0 0.0
0.1638041221263837 -0.1585326003789138 0.0 -0.02317192538959878 0.0 0.0
0.17728429021688044 -0.17166981108920698 0.0 -0.020008541542156366 0.0 0.0
0.1856816793624809 -0.17981702693514645 0.0 -0.013745629263420933 0.0 0.0
0.1856816793624668 -0.17981702693513224 0.0 0.013745629263462344 0.0 0.0
0.17728429021684086 -0.17166981108915902 0.0 0.02000854154222187 0.0 0.0
0.16380412212632267 -0.1585326003788472 0.0 0.023171925389643855 0.0 0.0
0.14718218276711303 -0.1422611049688225 0.0 0.024249873478752182 0.0 0.0
0.1291285682542118 -0.12453314149275885 0.0 0.023727293839341912 0.0 0.0
0.11082274008790921 -0.10654290553353318 0.0 0.022034781247943114 0.0 0.0
0.09304213400284106 -0.08907208959741908 0.0 0.01973529333658075 0.0 0.0
0.07628484802626911 -0.07262010632690741 0.0 0.017248982727821383 0.0 0.0
0.06084983549221057 -0.05748547323789266 0.0 0.01474026128945849 0.0 0.0
0.046908949127747346 -0.04384137681440814 0.0 0.01217624069043155 0.0 0.0
0.034603388844546945 -0.031831044571625 0.0 0.00951715047369417 0.0 0.0
0.02411503060502912 -0.021635489329089097 0.0 0.006910408546991764 0.0 0.0
0.015657475396333775 -0.013464968399871768 0.0 0.004614743418850209 0.0 0.0
0.009368038408442525 -0.007458529625212762 0.0 0.002844454014308828 0.0 0.0
0.005182556155284013 -0.003588986389334581 0.0 0.0016618492067435597 0.0 0.0
0.0028527946165940454 -0.0015862932242025618 0.0 0.0010345348082571593 0.0 0.0
0.0018441546154402966 -0.0008231263367548536 0.0 0.0007522996491713396 0.0 0.0
0.001282206432618116 -0.00040990476837965417 0.0 0.00044354065578777746 0.0 0.0
0.0008290712459631533 -0.0005842279622408908 0.0 0.0006031516988945218 0.0 0.0
0.00693069793210549 -0.008557968607195477 0.0 0.008857771652033775 0.0 0.0
0.005266563277670916 -0.00691090526672461 0.0 -0.0075455720124752435 0.0 0.0
0.000517685223332065 -0.00043459432298931233 0.0 -0.001210092732186141 0.0 0.0
0.0009930715195666656 -0.0002994519795779249 0.0 -0.0008745352758613434 0.0 0.0
0.001555118959761237 -0.0006519147596764086 0.0 -0.0010251289682732256 0.0 0.0
0.002350380444701816 -0.0012199643713575181 0.0 -0.0013211074681465096 0.0 0.0
0.0042079228438007266 -0.0027435501926378336 0.0 -0.0020016415373173 0.0 0.0
0.007736010707432656 -0.005931571301339256 0.0 -0.0034067497340601327 0.0 0.0
0.013208378764704529 -0.011102237875252552 0.0 -0.005590169013614865 0.0 0.0
0.02061090140029667 -0.018226182678045877 0.0 -0.008382592580643722 0.0 0.0
0.029781171553850655 -0.027121750613049223 0.0 -0.01153212750538396 0.0 0.0
0.04049838288614299 -0.037567879875474386 0.0 -0.014738036730940818 0.0 0.0
0.052599592912423 -0.04939928916014269 0.0 -0.017850738910582364 0.0 0.0
0.06598214903045695 -0.06251149415629031 0.0 -0.0209111451036037 0.0 0.0
0.08052883499322361 -0.07678494802870572 0.0 -0.023906427055307933 0.0 0.0
0.09602523299565037 -0.0920080839885764 0.0 -0.026682199187383626 0.0 0.0
0.11210224284021934 -0.1078072155717269 0.0 -0.028853399086216813 0.0 0.0
0.12812981576696164 -0.12353866667486635 0.0 -0.029784718377919406 0.0 0.0
0.1430713323983615 -0.13816419056374318 0.0 -0.028713173923589963 0.0 0.0
0.15544539726572806 -0.15023436833762105 0.0 -0.02453138637312935 0.0 0.0
0.16361026731080658 -0.1581740276349226 0.0 -0.015868689591320706 0.0 0.0
0.1636102673107932 -0.15817402763490218 0.0 0.015868689591375995 0.0 0.0
0.1554453972656931 -0.15023436833759085 0.0 0.02453138637320551 0.0 0.0
0.14307133239830705 -0.138164190563697 0.0 0.028713173923643587 0.0 0.0
0.12812981576689467 -0.12353866667480329 0.0 0.02978471837794472 0.0 0.0
0.11210224284014472 -0.1078072155716483 0.0 0.028853399086207654 0.0 0.0
0.09602523299557136 -0.0920080839884978 0.0 0.026682199187375688 0.0 0.0
0.080528834993144 -0.07678494802862623 0.0 0.023906427055298773 0.0 0.0
0.06598214903038108 -0.06251149415621482 0.0 0.020911145103592377 0.0 0.0
0.05259959291235056 -0.049399289160066306 0.0 0.017850738910558772 0.0 0.0
0.04049838288607771 -0.03756787987540644 0.0 0.014738036730916781 0.0 0.0
0.02978117155379517 -0.027121750612994155 0.0 0.011532127505356038 0.0 0.0
0.0206109014002529 -0.01822618267799836 0.0 0.008382592580625903 0.0 0.0
0.013208378764672957 -0.011102237875217025 0.0 0.005590169013600266 0.0 0.0
0.007736010707412477 -0.00593157130132127 0.0 0.0034067497340503072 0.0 0.0
0.004207922843790346 -0.00274355019262984 0.0 0.002001641537311971 0.0 0.0
0.002350380444698541 -0.0012199643713546315 0.0 0.0013211074681455104 0.0 0.0
0.0015551189597609594 -0.0006519147596758534 0.0 0.0010251289682714493 0.0 0.0
0.0009930715195664575 -0.0002994519795793682 0.0 0.000874535275859345 0.0 0.0
0.000517685223331843 -0.0004345943229885907 0.0 0.0012100927321830879 0.0 0.0
0.005266563277659009 -0.006910905266711537 0.0 0.00754557201245587 0.0 0.0
0.003990691691797624 -0.005565649786274052 0.0 -0.006190112743529208 0.0 0.0
0.0003450697588537055 -0.0003490457654163892 0.0 -0.0016829650867614676 0.0 0.0
0.0007529023920710282 -0.0002214766546718705 0.0 -0.0013094992559790075 0.0 0.0
0.001278636643428685 -0.0005085007236922401 0.0 -0.0013294282098440524 0.0 0.0
0.0019094805256691105 -0.000929985713702175 0.0 -0.0015870415158037443 0.0 0.0
0.0033327630662281227 -0.0020254219779693994 0.0 -0.00225489374421195 0.0 0.0
0.006178881929376434 -0.004506865886555023 0.0 -0.0037009518195820212 0.0 0.0
0.010784156321668 -0.008787622456023492 0.0 -0.006086580464811864 0.0 0.0
0.017110176249554535 -0.014837545433783905 0.0 -0.009214652190323636 0.0 0.0
0.024944047952182635 -0.022414484982085536 0.0 -0.012695707863531358 0.0 0.0
0.03406365472794219 -0.03128586321050708 0.0 -0.016235350854746977 0.0 0.0
0.04431927621519091 -0.041299093575259516 0.0 -0.019678579814915276 0.0 0.0
0.05564398719012187 -0.052383283396354674 0.0 -0.023067956761045727 0.0 0.0
0.06797538857581306 -0.0644742493067012 0.0 -0.02639985672356998 0.0 0.0
0.08117292615213989 -0.07743293991277689 0.0 -0.029482465309221828 0.0 0.0
0.09497575917466068 -0.09099470696746881 0.0 -0.031960099801926045 0.0 0.0
0.10892366302148962 -0.10468813790821763 0.0 -0.03326667314817977 0.0 0.0
0.1222247258829963 -0.11771360893783722 0.0 -0.03240684686798179 0.0 0.0
0.13367137164499204 -0.12888649039126854 0.0 -0.02776715754317327 0.0 0.0
0.14182371680512643 -0.1368195509735317 0.0 -0.01765471989170242 0.0 0.0
0.14182371680511446 -0.13681955097352994 0.0 0.017654719891758153 0.0 0.0
0.13367137164496068 -0.1288864903912419 0.0 0.027767157543248877 0.0 0.0
0.12222472588294953 -0.11771360893778215 0.0 0.0324068468680363 0.0 0.0
0.10892366302143275 -0.10468813790816434 0.0 0.03326667314820653 0.0 0.0
0.09497575917459633 -0.09099470696740886 0.0 0.031960099801915276 0.0 0.0
0.0811729261520723 -0.07743293991271338 0.0 0.029482465309209616 0.0 0.0
0.06797538857574573 -0.0644742493066417 0.0 0.0263998567235596 0.0 0.0
0.05564398719005781 -0.05238328339628939 0.0 0.02306795676103246 0.0 0.0
0.044319276215129655 -0.041299093575198675 0.0 0.019678579814889963 0.0 0.0
0.03406365472788753 -0.031285863210451126 0.0 0.016235350854720276 0.0 0.0
0.024944047952136172 -0.022414484982043792 0.0 0.012695707863502714 0.0 0.0
0.01711017624951716 -0.014837545433746602 0.0 0.009214652190305372 0.0 0.0
0.010784156321641869 -0.008787622455998179 0.0 0.006086580464796154 0.0 0.0
0.006178881929360447 -0.004506865886538813 0.0 0.0037009518195719737 0.0 0.0
0.003332763066220379 -0.002025421977962072 0.0 0.00225489374420601 0.0 0.0
0.0019094805256673064 -0.0009299857137032852 0.0 0.0015870415158005247 0.0 0.0
0.0012786366434279772 -0.0005085007236931283 0.0 0.0013294282098426091 0.0 0.0
0.0007529023920713196 -0.00022147665467109334 0.0 0.0013094992559776197 0.0 0.0
0.0003450697588533447 -0.00034904576541411325 0.0 0.001682965086761079 0.0 0.0
0.003990691691787729 -0.005565649786263137 0.0 0.006190112743516607 0.0 0.0
0.0029791472100258037 -0.004436148151775288 0.0 -0.004996679497160761 0.0 0.0
0.00024116974189358764 -0.000291426080775703 0.0 -0.0020362230632446354 0.0 0.0
0.0005528997595858481 -0.00016286796948183913 0.0 -0.0016917953790178686 0.0 0.0
0.0010104411556911413 -0.0003839645804875058 0.0 -0.0016385297861309378 0.0 0.0
0.00152102547874991 -0.0007012708345475183 0.0 -0.0018468070532006164 0.0 0.0
0.0025552643445818785 -0.0014417622559081966 0.0 -0.0024533478215341686 0.0 0.0
0.004741663162605006 -0.0032423122671132454 0.0 -0.0038358686295871802 0.0 0.0
0.008432449686025661 -0.006583837990774555 0.0 -0.0061824493791277635 0.0 0.0
0.013644601540248782 -0.011508401012112479 0.0 -0.009380005291918514 0.0 0.0
0.02012983913319076 -0.017750267120292484 0.0 -0.012997221819158467 0.0 0.0
0.02764270719545593 -0.025037976872058998 0.0 -0.016652727495012787 0.0 0.0
0.03604968155954781 -0.03322871690543616 0.0 -0.020214044565712408 0.0 0.0
0.0453135153259889 -0.04228246541537972 0.0 -0.023725607902478463 0.0 0.0
0.05542228149733597 -0.05218379998781986 0.0 -0.02716956415804528 0.0 0.0
0.06630793405634261 -0.06286245930909828 0.0 -0.03037954243607144 0.0 0.0
0.07779448310932152 -0.07414550962691635 0.0 -0.03303246532990034 0.0 0.0
0.08958911749017334 -0.08573348690607308 0.0 -0.03460985654073434 0.0 0.0
0.10121380440297378 -0.097131478777432 0.0 -0.034137853800698226 0.0 0.0
0.11180980183434952 -0.10748183274560486 0.0 -0.029707751363565515 0.0 0.0
0.12010699513337242 -0.11555229730788152 0.0 -0.0191491551044074 0.0 0.0
0.1201069951333621 -0.11555229730786198 0.0 0.01914915510446802 0.0 0.0
0.11180980183432204 -0.10748183274556489 0.0 0.029707751363646562 0.0 0.0
0.10121380440293504 -0.09713147877739381 0.0 0.03413785380075729 0.0 0.0
0.08958911749012533 -0.08573348690602955 0.0 0.0346098565407551 0.0 0.0
0.07779448310926854 -0.07414550962686484 0.0 0.033032465329891236 0.0 0.0
0.06630793405628649 -0.06286245930904721 0.0 0.030379542436056894 0.0 0.0
0.055422281497281095 -0.05218379998776612 0.0 0.027169564158036064 0.0 0.0
0.04531351532593683 -0.04228246541533753 0.0 0.023725607902466694 0.0 0.0
0.03604968155949795 -0.03322871690539131 0.0 0.02021404456568998 0.0 0.0
0.02764270719541126 -0.025037976872014145 0.0 0.016652727494985364 0.0 0.0
0.020129839133152916 -0.017750267120253405 0.0 0.012997221819127325 0.0 0.0
0.013644601540218237 -0.011508401012084502 0.0 0.009380005291899196 0.0 0.0
0.008432449686004984 -0.006583837990756569 0.0 0.006182449379110666 0.0 0.0
0.004741663162592669 -0.0032423122671025872 0.0 0.00383586862957791 0.0 0.0
0.0025552643445763135 -0.0014417622559019794 0.0 0.0024533478215271742 0.0 0.0
0.001521025478748883 -0.000701270834546186 0.0 0.0018468070531975078 0.0 0.0
0.0010104411556906556 -0.0003839645804880609 0.0 0.0016385297861268855 0.0 0.0
0.0005528997595859453 -0.00016286796948128401 0.0 0.0016917953790139828 0.0 0.0
0.0002411697418934211 -0.00029142608077448173 0.0 0.002036223063240583 0.0 0.0
0.002979147210017963 -0.004436148151766368 0.0 0.004996679497148049 0.0 0.0
0.002171581388543453 -0.0034798589835431937 0.0 -0.004004376521882125 0.0 0.0
0.0001698380677740141 -0.00024844727129635924 0.0 -0.0022851689175437118 0.0 0.0
0.0003787496909686272 -0.00011306863074422857 0.0 -0.001998240370281512 0.0 0.0
0.0007471389023875896 -0.0002676326832060649 0.0 -0.0019259265499286249 0.0 0.0
0.00116541266395212 -0.0005138770159083261 0.0 -0.002106497692509146 0.0 0.0
0.0018779580759737402 -0.0009812948102096986 0.0 -0.0026036852450509462 0.0 0.0
0.003437362564360086 -0.0021648132638583117 0.0 -0.0038113831402289966 0.0 0.0
0.006216446326000602 -0.004563329460059773 0.0 -0.005952509159901476 0.0 0.0
0.010266089401697154 -0.008308096747943416 0.0 -0.00892990737274213 0.0 0.0
0.015374985935225544 -0.013175197805008754 0.0 -0.012405889534365167 0.0 0.0
0.021272549897464604 -0.018868667821729357 0.0 -0.015977473579694035 0.0 0.0
0.02783167461447772 -0.025236276955522108 0.0 -0.01944417923754671 0.0 0.0
0.03503476388779103 -0.032259688708532686 0.0 -0.022850529916861984 0.0 0.0
0.04291433072768397 -0.03996583073272619 0.0 -0.026210886282480472 0.0 0.0
0.051470155698298936 -0.04834877213937938 0.0 -0.029362844733651583 0.0 0.0
0.06060982547173269 -0.057315248497125104 0.0 -0.03198516886070335 0.0 0.0
0.07016711474593354 -0.06671533569617161 0.0 -0.03370886121379724 0.0 0.0
0.07999222451784405 -0.07637633584876635 0.0 -0.03379097909628204 0.0 0.0
0.08968934436200762 -0.08586391175948282 0.0 -0.030249669942027824 0.0 0.0
0.09823250089054592 -0.09416107222046932 0.0 -0.020336173535141833 0.0 0.0
0.0982325008905379 -0.09416107222046755 0.0 0.020336173535200897 0.0 0.0
0.08968934436198545 -0.0858639117594695 0.0 0.030249669942105317 0.0 0.0
0.07999222451781232 -0.07637633584874859 0.0 0.03379097909633888 0.0 0.0
0.07016711474589482 -0.06671533569613963 0.0 0.03370886121382033 0.0 0.0
0.06060982547169075 -0.05731524849708469 0.0 0.03198516886069491 0.0 0.0
0.051470155698254555 -0.04834877213933364 0.0 0.02936284473363293 0.0 0.0
0.042914330727642086 -0.03996583073268534 0.0 0.026210886282469592 0.0 0.0
0.035034763887751535 -0.032259688708496714 0.0 0.02285052991685077 0.0 0.0
0.027831674614439444 -0.025236276955486137 0.0 0.019444179237525394 0.0 0.0
0.0212725498974298 -0.01886866782169827 0.0 0.015977473579670276 0.0 0.0
0.015374985935196067 -0.013175197804977667 0.0 0.012405889534336079 0.0 0.0
0.0102660894016742 -0.008308096747921656 0.0 0.008929907372723922 0.0 0.0
0.006216446325985309 -0.004563329460045562 0.0 0.0059525091598880975 0.0 0.0
0.0034373625643510097 -0.0021648132638518724 0.0 0.003811383140221114 0.0 0.0
0.001877958075970132 -0.0009812948102081442 0.0 0.002603685245045617 0.0 0.0
0.0011654126639513984 -0.0005138770159085482 0.0 0.0021064976925061485 0.0 0.0
0.0007471389023874231 -0.0002676326832070641 0.0 0.0019259265499257383 0.0 0.0
0.0003787496909684329 -0.00011306863074511675 0.0 0.001998240370278903 0.0 0.0
0.00016983806777384758 -0.0002484472712970809 0.0 0.0022851689175411027 0.0 0.0
0.002171581388537791 -0.0034798589835363554 0.0 0.004004376521873132 0.0 0.0
0.0015382147751712705 -0.00268511048836223 0.0 -0.0032168571054413397 0.0 0.0
0.00010664160198686767 -0.0002123029087632844 0.0 -0.0024336282323127456 0.0 0.0
0.00021834995100414312 -6.411178971232889e-05 0.0 -0.0022283048144977613 0.0 0.0
0.0004885653798006595 -0.00015319587137296864 0.0 -0.0021661803970415283 0.0 0.0
0.0008192492304253396 -0.0003458552770485568 0.0 -0.0023484741851400037 0.0 0.0
0.0012908347912105045 -0.0006317560929636201 0.0 -0.002765449899216732 0.0 0.0
0.002282309527927018 -0.0013017590581847482 0.0 -0.003700374632897241 0.0 0.0
0.004174087708381763 -0.0027945601456385027 0.0 -0.005443702387257721 0.0 0.0
0.007044683368010812 -0.0053300639774258585 0.0 -0.00795949924561501 0.0 0.0
0.010732363798700045 -0.008768081733626865 0.0 -0.010974243910385595 0.0 0.0
0.01499485911136278 -0.012837524096701358 0.0 -0.014168584032617115 0.0 0.0
0.019704400951708362 -0.017379233776229075 0.0 -0.017320371144910585 0.0 0.0
0.024851512115663277 -0.0223754487143335 0.0 -0.020421013213234307 0.0 0.0
0.030495077242342322 -0.027880162348314474 0.0 -0.023474557467420887 0.0 0.0
0.03670045803240318 -0.03394937313805002 0.0 -0.026384903206853605 0.0 0.0
0.04346902280039244 -0.040576237798817694 0.0 -0.028844882792296467 0.0 0.0
0.05072856455937641 -0.04770761041252225 0.0 -0.030477408731424793 0.0 0.0
0.05854541045071368 -0.05543602053749197 0.0 -0.031040387167283412 0.0 0.0
0.06711983165540239 -0.0638702992947584 0.0 -0.02906743327791661 0.0 0.0
0.07592749844042967 -0.07240633165086141 0.0 -0.021127358225630055 0.0 0.0
0.07592749844042435 -0.07240633165085075 0.0 0.021127358225683124 0.0 0.0
0.0671198316553856 -0.06387029929473442 0.0 0.029067433277986887 0.0 0.0
0.058545410450690144 -0.05543602053746355 0.0 0.03104038716733748 0.0 0.0
0.05072856455934738 -0.047707610412491164 0.0 0.03047740873144511 0.0 0.0
0.04346902280036155 -0.04057623779879016 0.0 0.0288448827922837 0.0 0.0
0.036700458032371486 -0.03394937313802204 0.0 0.026384903206838728 0.0 0.0
0.0304950772423134 -0.027880162348279836 0.0 0.02347455746741034 0.0 0.0
0.024851512115635938 -0.02237544871430419 0.0 0.02042101321322476 0.0 0.0
0.019704400951682105 -0.017379233776205538 0.0 0.0173203711448896 0.0 0.0
0.014994859111338216 -0.012837524096680486 0.0 0.014168584032596576 0.0 0.0
0.010732363798679395 -0.008768081733605548 0.0 0.01097424391036228 0.0 0.0
0.007044683367994936 -0.0053300639774107594 0.0 0.0079594992455998 0.0 0.0
0.004174087708371854 -0.002794560145628955 0.0 0.005443702387246396 0.0 0.0
0.002282309527921106 -0.0013017590581796412 0.0 0.003700374632890302 0.0 0.0
0.001290834791208617 -0.0006317560929613997 0.0 0.0027654498992114585 0.0 0.0
0.0008192492304249788 -0.00034585527704789065 0.0 0.0023484741851377278 0.0 0.0
0.0004885653798006317 -0.00015319587137208046 0.0 0.0021661803970406956 0.0 0.0
0.00021834995100405985 -6.411178971110765e-05 0.0 0.002228304814495208 0.0 0.0
0.00010664160198670114 -0.00021230290876167457 0.0 0.002433628232312246 0.0 0.0
0.0015382147751671904 -0.002685110488356412 0.0 0.0032168571054356776 0.0 0.0
0.0010645673793026056 -0.0020540165262359356 0.0 -0.0026274839098689995 0.0 0.0
3.542964902586432e-05 -0.00018073108437199892 0.0 -0.002505776333777243 0.0 0.0
6.357821143740394e-05 -9.744584419046909e-06 0.0 -0.00238597401772922 0.0 0.0
0.000236344512386355 -4.086830266425423e-05 0.0 -0.0023498121191452004 0.0 0.0
0.0004673665669631122 -0.0001786516308643904 0.0 -0.002545147651284052 0.0 0.0
0.000757910642091908 -0.0003540608992889105 0.0 -0.0029424380460569277 0.0 0.0
0.0012885159325570494 -0.0006618238562978718 0.0 -0.0035984438309717426 0.0 0.0
0.0023396879064667975 -0.001363230687512651 0.0 -0.004766114092314699 0.0 0.0
0.004040941186284369 -0.002701165802542871 0.0 -0.0065546505818039336 0.0 0.0
0.006272472197166812 -0.004662089780035572 0.0 -0.008803013868432963 0.0 0.0
0.008866399746414122 -0.007059382132833747 0.0 -0.011304188053544939 0.0 0.0
0.011706872858763206 -0.009751439098119263 0.0 -0.013875907373737784 0.0 0.0
0.0147994912611088 -0.01271850241487682 0.0 -0.01647738534917531 0.0 0.0
0.018208014395174416 -0.01602043226361216 0.0 -0.01905367079482212 0.0 0.0
0.022033842366687373 -0.019750247171023805 0.0 -0.021553343077724718 0.0 0.0
0.02638861792751082 -0.02400434888227032 0.0 -0.023788725999322913 0.0 0.0
0.03133650662066334 -0.02883672452089936 0.0 -0.02532310534674098 0.0 0.0
0.03698978022277544 -0.03442511319701502 0.0 -0.025969021954939775 0.0 0.0
0.04394326026790832 -0.04138463317025032 0.0 -0.025629070173569635 0.0 0.0
0.05280677714996718 -0.04997503786244106 0.0 -0.021229819962247265 0.0 0.0
0.05280677714996368 -0.04997503786243751 0.0 0.021229819962293117 0.0 0.0
0.043943260267898354 -0.041384633170242324 0.0 0.02562907017363658 0.0 0.0
0.03698978022275978 -0.034425113196999035 0.0 0.02596902195498907 0.0 0.0
0.03133650662064408 -0.028836724520873602 0.0 0.02532310534675375 0.0 0.0
0.026388617927492253 -0.024004348882238347 0.0 0.02378872599930748 0.0 0.0
0.022033842366669026 -0.019750247171002044 0.0 0.02155334307771073 0.0 0.0
0.018208014395158734 -0.016020432263603723 0.0 0.019053670794811794 0.0 0.0
0.014799491261093783 -0.01271850241486705 0.0 0.016477385349170093 0.0 0.0
0.01170687285874869 -0.009751439098104608 0.0 0.013875907373720242 0.0 0.0
0.008866399746400383 -0.0070593821328213124 0.0 0.011304188053526842 0.0 0.0
0.0062724721971550434 -0.004662089780025802 0.0 0.008803013868411647 0.0 0.0
0.004040941186275904 -0.0027011658025348773 0.0 0.006554650581791943 0.0 0.0
0.0023396879064615517 -0.001363230687507988 0.0 0.004766114092309259 0.0 0.0
0.0012885159325541073 -0.0006618238562963175 0.0 0.0035984438309660804 0.0 0.0
0.0007579106420916026 -0.00035406089929068685 0.0 0.0029424380460547628 0.0 0.0
0.0004673665669628624 -0.00017865163086372426 0.0 0.0025451476512821647 0.0 0.0
0.00023634451238646603 -4.0868302662144806e-05 0.0 0.00234981211914409 0.0 0.0
6.357821143701536e-05 -9.744584417381574e-06 0.0 0.002385974017726833 0.0 0.0
3.5429649025753296e-05 -0.00018073108437105523 0.0 0.002505776333775911 0.0 0.0
0.0010645673792998855 -0.0020540165262322614 0.0 0.0026274839098645586 0.0 0.0
0.0007255099870644988 -0.0015692958342815033 0.0 -0.0022006917146116245 0.0 0.0
-4.613033687569934e-05 -0.00015500744229413055 0.0 -0.0025325849425199 0.0 0.0
-8.942881036591577e-05 5.2256159955077486e-05 0.0 -0.002483564585145037 0.0 0.0
-9.260780945152813e-06 6.877939650529186e-05 0.0 -0.0024740082012754683 0.0 0.0
0.00011094110128764822 -7.674465053453261e-06 0.0 -0.0026643896114322274 0.0 0.0
0.00023658053557057412 -9.792939172448278e-05 0.0 -0.003082355243386292 0.0 0.0
0.00041100287874251684 -0.00019930366776699238 0.0 -0.0036415689800053386 0.0 0.0
0.0007378040277159215 -0.0003683502196647481 0.0 -0.0042733630725649285 0.0 0.0
0.0013000946099415434 -0.0006860993089268241 0.0 -0.005139977081985325 0.0 0.0
0.002048623879041811 -0.0011874574836889806 0.0 -0.006409528110047025 0.0 0.0
0.0029216522182822224 -0.001853739170883717 0.0 -0.008091557050399656 0.0 0.0
0.003860803693098047 -0.0026516969348344688 0.0 -0.01003431996182913 0.0 0.0
0.004879971702124286 -0.003567964120013478 0.0 -0.01214816912891703 0.0 0.0
0.006035838711881014 -0.0046472291878463245 0.0 -0.014398418965782422 0.0 0.0
0.007452381617025383 -0.005999962288425031 0.0 -0.01674577079150852 0.0 0.0
0.009339429974069474 -0.007817110088857326 0.0 -0.019020749173604856 0.0 0.0
0.011963113666083741 -0.010339097721581147 0.0 -0.020764735269806267 0.0 0.0
0.01552869304548668 -0.013764000469898008 0.0 -0.021316888470628292 0.0 0.0
0.020427134403139424 -0.018694066748066618 0.0 -0.02112029707276497 0.0 0.0
0.02838636838309158 -0.026650935246517626 0.0 -0.020538454364478986 0.0 0.0
0.028386368383090776 -0.026650935246522067 0.0 0.02053845436451418 0.0 0.0
0.02042713440313504 -0.018694066748071947 0.0 0.021120297072817262 0.0 0.0
0.01552869304547902 -0.013764000469890902 0.0 0.02131688847065827 0.0 0.0
0.011963113666076192 -0.010339097721566937 0.0 0.020764735269809154 0.0 0.0
0.009339429974064922 -0.007817110088848889 0.0 0.019020749173588758 0.0 0.0
0.007452381617020387 -0.005999962288423255 0.0 0.016745770791495196 0.0 0.0
0.006035838711878239 -0.00464722918784144 0.0 0.014398418965773985 0.0 0.0
0.004879971702122093 -0.003567964120013034 0.0 0.012148169128910369 0.0 0.0
0.003860803693095688 -0.0026516969348371333 0.0 0.01003431996181714 0.0 0.0
0.0029216522182795857 -0.001853739170883717 0.0 0.008091557050386222 0.0 0.0
0.0020486238790390077 -0.0011874574836867602 0.0 0.006409528110035256 0.0 0.0
0.0013000946099402944 -0.00068609930892638 0.0 0.005139977081980329 0.0 0.0
0.000737804027714617 -0.00036835021966541426 0.0 0.004273363072562764 0.0 0.0
0.0004110028787416564 -0.00019930366776721442 0.0 0.003641568980000842 0.0 0.0
0.00023658053557104597 -9.792939172337256e-05 0.0 0.0030823552433812407 0.0 0.0
0.00011094110128775925 -7.67446505434144e-06 0.0 0.0026643896114281196 0.0 0.0
-9.260780944653213e-06 6.877939650307141e-05 0.0 0.0024740082012733033 0.0 0.0
-8.942881036638761e-05 5.225615995618771e-05 0.0 0.0024835645851435384 0.0 0.0
-4.613033687608792e-05 -0.00015500744229424157 0.0 0.0025325849425194003 0.0 0.0
0.0007255099870631943 -0.0015692958342794529 0.0 0.002200691714608516 0.0 0.0
0.00048782398266750127 -0.001217574263292387 0.0 -0.0019307541045793242 0.0 0.0
-0.00012902132865885707 -0.00012970038683179919 0.0 -0.0025305145293403886 0.0 0.0
-0.0002403538942503669 0.00011745371109095348 0.0 -0.0025253460314340614 0.0 0.0
-0.00024837359545493154 0.00017567298157761257 0.0 -0.0025303803638558886 0.0 0.0
-0.0002425366297141296 0.00016269718132644329 0.0 -0.0027034133632734547 0.0 0.0
-0.00028837716194871077 0.00015869097689424905 0.0 -0.00310202948074223 0.0 0.0
-0.00043059967757694273 0.00021602358106864727 0.0 -0.003653610736950308 0.0 0.0
-0.0007446915768153095 0.0003734867024194344 0.0 -0.004282593291337344 0.0 0.0
-0.0013002383597892353 0.000687176525816291 0.0 -0.00514344154171964 0.0 0.0
-0.0020478303054064784 0.0011883030810291295 0.0 -0.006408947158387579 0.0 0.0
-0.0029320736251615687 0.0018677457133673414 0.0 -0.008094659609608312 0.0 0.0
-0.003910499643945298 0.0027010256708082103 0.0 -0.01004609719721583 0.0 0.0
-0.004978366804963219 0.0036518465441290893 0.0 -0.012159440399435284 0.0 0.0
-0.006090201912861082 0.004660909906216926 0.0 -0.014401463606564024 0.0 0.0
-0.0070970064741919525 0.005580764884334233 0.0 -0.016759310195243238 0.0 0.0
-0.0077173693033204815 0.00614008422464174 0.0 -0.01917925556543154 0.0 0.0
-0.007531256222168853 0.005948876722370322 0.0 -0.02163020026540141 0.0 0.0
-0.00616963681781274 0.0047634589920377834 0.0 -0.02419579640445635 0.0 0.0
-0.003295718899202965 0.0023754075575190825 0.0 -0.026540947080554766 0.0 0.0
0.0038263612012399417 -0.004364729835162784 0.0 -0.0256269220957146 0.0 0.0
0.0038263612012389148 -0.00436472983516456 0.0 0.025626922095733917 0.0 0.0
-0.003295718899203881 0.002375407557521747 0.0 0.026540947080575084 0.0 0.0
-0.0061696368178089656 0.004763458992036895 0.0 0.024195796404461234 0.0 0.0
-0.007531256222161803 0.0059488767223578876 0.0 0.021630200265390642 0.0 0.0
-0.007717369303310184 0.006140084224629305 0.0 0.019179255565412667 0.0 0.0
-0.0070970064741830985 0.005580764884323575 0.0 0.01675931019522736 0.0 0.0
-0.006090201912851673 0.004660909906207156 0.0 0.014401463606553255 0.0 0.0
-0.004978366804953088 0.0036518465441206516 0.0 0.012159440399423849 0.0 0.0
-0.003910499643934584 0.002701025670801549 0.0 0.010046097197199289 0.0 0.0
-0.002932073625152548 0.0018677457133615682 0.0 0.008094659609592214 0.0 0.0
-0.0020478303053994007 0.001188303081026909 0.0 0.006408947158372924 0.0 0.0
-0.0013002383597843226 0.0006871765258118501 0.0 0.005143441541715754 0.0 0.0
-0.0007446915768126727 0.0003734867024196564 0.0 0.004282593291334236 0.0 0.0
-0.0004305996775759158 0.00021602358106664887 0.0 0.003653610736945978 0.0 0.0
-0.00028837716194790586 0.0001586909768935829 0.0 0.0031020294807386772 0.0 0.0
-0.00024253662971363 0.00016269718132733146 0.0 0.0027034133632706236 0.0 0.0
-0.0002483735954548205 0.00017567298157761257 0.0 0.0025303803638531686 0.0 0.0
-0.00024035389425047793 0.00011745371108973224 0.0 0.0025253460314305642 0.0 0.0
-0.00012902132865882932 -0.00012970038683174367 0.0 0.002530514529339001 0.0 0.0
0.0004878239826665298 -0.0012175742632912403 0.0 0.0019307541045788246 0.0 0.0
0.0003252153742730468 -0.0009577596856038539 0.0 -0.0017419050416565551 0.0 0.0
-0.00020474441541734612 -9.804093060106212e-05 0.0 -0.0024855374482436465 0.0 0.0
-0.00038625450039489473 0.00018017778577861243 0.0 -0.0025145182733794513 0.0 0.0
-0.0004799104891944628 0.00027881347518565747 0.0 -0.002514837843784423 0.0 0.0
-0.0005886160464783907 0.00032777386855187274 0.0 -0.002656305399500125 0.0 0.0
-0.0008086544802510809 0.0004150057599785484 0.0 -0.0030043707658997665 0.0 0.0
-0.0013075299155871634 0.0006807099652157422 0.0 -0.0036352515587360634 0.0 0.0
-0.0023437627662255822 0.0013688728848788578 0.0 -0.004786819003020748 0.0 0.0
-0.004039062540563243 0.002700945095255758 0.0 -0.006559624871324221 0.0 0.0
-0.006272264280197448 0.0046642320509260315 0.0 -0.008803515448880472 0.0 0.0
-0.008879784360404125 0.007077372440332574 0.0 -0.01130455705496003 0.0 0.0
-0.011754351375017208 0.009802993757786371 0.0 -0.013860179297162212 0.0 0.0
-0.01488710770940413 0.012799096279099142 0.0 -0.01642229203871537 0.0 0.0
-0.018244104060449656 0.016019660457113893 0.0 -0.01898464995954685 0.0 0.0
-0.02166606458580983 0.01930082699631752 0.0 -0.02162089616496754 0.0 0.0
-0.024812490420097644 0.022311043282567056 0.0 -0.02439318283661518 0.0 0.0
-0.02718356201976027 0.024574956520980074 0.0 -0.027394908218645098 0.0 0.0
-0.02821161352063603 0.025537393247347495 0.0 -0.030528887144932626 0.0 0.0
-0.026828017620289135 0.0238910343456471 0.0 -0.03199897669170204 0.0 0.0
-0.019712366064108755 0.016450234367893835 0.0 -0.029896837883982452 0.0 0.0
-0.01971236606411128 0.016450234367892946 0.0 0.029896837884025085 0.0 0.0
-0.026828017620285555 0.023891034345635553 0.0 0.03199897669175922 0.0 0.0
-0.028211613520622625 0.025537393247331508 0.0 0.030528887144966044 0.0 0.0
-0.027183562019738428 0.024574956520958757 0.0 0.027394908218642988 0.0 0.0
-0.02481249042007294 0.022311043282542187 0.0 0.024393182836594973 0.0 0.0
-0.02166606458578757 0.01930082699629443 0.0 0.021620896164952996 0.0 0.0
-0.018244104060427396 0.016019660457094353 0.0 0.018984649959533417 0.0 0.0
-0.014887107709382508 0.012799096279076938 0.0 0.016422292038705044 0.0 0.0
-0.011754351374993532 0.009802993757768608 0.0 0.013860179297139674 0.0 0.0
-0.008879784360383336 0.007077372440313923 0.0 0.011304557054937714 0.0 0.0
-0.006272264280180767 0.004664232050907824 0.0 0.00880351544885627 0.0 0.0
-0.004039062540551891 0.0027009450952433234 0.0 0.006559624871310676 0.0 0.0
-0.002343762766218338 0.001368872884874195 0.0 0.004786819003013032 0.0 0.0
-0.001307529915583805 0.0006807099652141879 0.0 0.0036352515587301237 0.0 0.0
-0.00080865448024936 0.00041500575997699407 0.0 0.0030043707658964913 0.0 0.0
-0.0005886160464777246 0.00032777386854854207 0.0 0.002656305399497516 0.0 0.0
-0.00047991048919429624 0.0002788134751848803 0.0 0.0025148378437828134 0.0 0.0
-0.00038625450039475595 0.00018017778577872345 0.0 0.0025145182733804505 0.0 0.0
-0.00020474441541690203 -9.804093060172825e-05 0.0 0.002485537448244146 0.0 0.0
0.0003252153742726027 -0.0009577596856029866 0.0 0.0017419050416557225 0.0 0.0
0.0002107344047965476 -0.0007379306298176402 0.0 -0.0015492274986617094 0.0 0.0
-0.00027181799503145365 -6.0787763942249384e-05 0.0 -0.002386447733767838 0.0 0.0
-0.000524229943808241 0.00023840913671191455 0.0 -0.0024458286170167542 0.0 0.0
-0.0007023916462585156 0.00037602832010175113 0.0 -0.0024295109408162263 0.0 0.0
-0.0009234332930197764 0.00048422569228590007 0.0 -0.0025246925921409424 0.0 0.0
-0.0013391674909792872 0.0006943859001695696 0.0 -0.00286891366201103 0.0 0.0
-0.0022971045119739297 0.0013220084262748344 0.0 -0.003753367819227582 0.0 0.0
-0.004172460382987658 0.0027961816242094706 0.0 -0.005462181164266999 0.0 0.0
-0.00704128186314526 0.005327818907709947 0.0 -0.007958990701287583 0.0 0.0
-0.010734597538013091 0.008772039124865127 0.0 -0.010975186718271024 0.0 0.0
-0.015008886404518279 0.012855000969015151 0.0 -0.014163357693194212 0.0 0.0
-0.019739803448322435 0.017418507954641615 0.0 -0.017266629648435394 0.0 0.0
-0.024908523633577706 0.022428309357068077 0.0 -0.020261007100203954 0.0 0.0
-0.030496147796285067 0.027851727213382915 0.0 -0.023252168373548154 0.0 0.0
-0.036345582208948485 0.033524482387950805 0.0 -0.026468214312836524 0.0 0.0
-0.0420673495965512 0.03906769712747682 0.0 -0.030203149160965004 0.0 0.0
-0.04703573328432745 0.0438682456319448 0.0 -0.03460475856771783 0.0 0.0
-0.05026729114968223 0.046886055276385896 0.0 -0.03885734520743511 0.0 0.0
-0.0498629417355507 0.04620040221132804 0.0 -0.04096599815471369 0.0 0.0
-0.04190226190843194 0.037518057759833745 0.0 -0.03695336694706575 0.0 0.0
-0.041902261908432076 0.03751805775982664 0.0 0.03695336694711715 0.0 0.0
-0.049862941735541816 0.0462004022113236 0.0 0.040965998154779304 0.0 0.0
-0.0502672911496615 0.04688605527636991 0.0 0.03885734520748174 0.0 0.0
-0.04703573328429414 0.043868245631914604 0.0 0.03460475856772671 0.0 0.0
-0.04206734959651362 0.03906769712744085 0.0 0.030203149160944687 0.0 0.0
-0.03634558220891304 0.03352448238792061 0.0 0.02646821431281854 0.0 0.0
-0.030496147796249568 0.027851727213350497 0.0 0.023252168373527837 0.0 0.0
-0.024908523633544205 0.022428309357026333 0.0 0.020261007100190076 0.0 0.0
-0.019739803448287158 0.017418507954603424 0.0 0.017266629648410525 0.0 0.0
-0.01500888640448636 0.012855000968984953 0.0 0.01416335769316368 0.0 0.0
-0.010734597537986529 0.008772039124841147 0.0 0.010975186718242158 0.0 0.0
-0.007041281863126886 0.00532781890769396 0.0 0.00795899070127215 0.0 0.0
-0.0041724603829751405 0.0027961816241990345 0.0 0.005462181164253455 0.0 0.0
-0.0022971045119677957 0.0013220084262706155 0.0 0.0037533678192193665 0.0 0.0
-0.0013391674909762341 0.0006943859001695696 0.0 0.0028689136620062006 0.0 0.0
-0.0009234332930187217 0.00048422569228678825 0.0 0.0025246925921383334 0.0 0.0
-0.0007023916462578772 0.00037602832010141807 0.0 0.0024295109408157822 0.0 0.0
-0.0005242299438079079 0.00023840913671258068 0.0 0.0024458286170153665 0.0 0.0
-0.0002718179950312871 -6.078776394347063e-05 0.0 0.0023864477337663947 0.0 0.0
0.00021073440479646433 -0.000737930629817132 0.0 0.001549227498659489 0.0 0.0
0.00012005868417033772 -0.0005430175953622385 0.0 -0.0013457030512303847 0.0 0.0
-0.00033235367798886695 -1.7886684028578514e-05 0.0 -0.0022318766476743246 0.0 0.0
-0.0006533587545660136 0.00029208452569418064 0.0 -0.0023235435013452266 0.0 0.0
-0.000914657673023761 0.00046530287181445473 0.0 -0.002283264705424004 0.0 0.0
-0.0012480874102142048 0.0006384833325749906 0.0 -0.0023347097380180815 0.0 0.0
-0.0019200732564718104 0.0010427518921365397 0.0 -0.0027338817735580445 0.0 0.0
-0.003442359394336292 0.002179385519091026 0.0 -0.0038624260574681712 0.0 0.0
-0.006209614488916604 0.004558439699608119 0.0 -0.005957674121296386 0.0 0.0
-0.010263720672257531 0.008306097016329339 0.0 -0.008926190223901287 0.0 0.0
-0.015380415154846533 0.013181648147025715 0.0 -0.012407821245495665 0.0 0.0
-0.021284126511748908 0.018882016915238165 0.0 -0.015966388896958672 0.0 0.0
-0.027843930239000114 0.025250863699325166 0.0 -0.019356713597551756 0.0 0.0
-0.03503678891275111 0.032260781266338245 0.0 -0.022594436087061465 0.0 0.0
-0.04285850173161143 0.039893855982330084 0.0 -0.025833205839023043 0.0 0.0
-0.05116801153099432 0.04799957131655308 0.0 -0.02941658662089086 0.0 0.0
-0.05953833499984018 0.0561468489628556 0.0 -0.03381289521539166 0.0 0.0
-0.06709913411989174 0.0634575020500554 0.0 -0.039103238588130695 0.0 0.0
-0.07230095720466931 0.06836473583133618 0.0 -0.04423248808729874 0.0 0.0
-0.0724721073091173 0.06809872969417885 0.0 -0.046470338827300006 0.0 0.0
-0.06270735172218306 0.057668015664885885 0.0 -0.04255523300953079 0.0 0.0
-0.0627073517221799 0.057668015664876116 0.0 0.04255523300958741 0.0 0.0
-0.07247210730910267 0.06809872969416819 0.0 0.04647033882737028 0.0 0.0
-0.07230095720464003 0.06836473583131752 0.0 0.04423248808735003 0.0 0.0
-0.06709913411984925 0.06345750205001188 0.0 0.039103238588142575 0.0 0.0
-0.05953833499979164 0.056146848962809415 0.0 0.03381289521537734 0.0 0.0
-0.05116801153094591 0.04799957131650956 0.0 0.02941658662087221 0.0 0.0
-0.042858501731562665 0.0398938559822799 0.0 0.025833205839000173 0.0 0.0
-0.03503678891270512 0.03226078126629117 0.0 0.022594436087046588 0.0 0.0
-0.027843930238954012 0.025250863699282533 0.0 0.019356713597528774 0.0 0.0
-0.02128412651170615 0.01888201691519953 0.0 0.015966388896929196 0.0 0.0
-0.015380415154810423 0.013181648146991964 0.0 0.012407821245465245 0.0 0.0
-0.010263720672231913 0.008306097016303138 0.0 0.008926190223883967 0.0 0.0
-0.006209614488898799 0.004558439699595684 0.0 0.005957674121284118 0.0 0.0
-0.003442359394326383 0.0021793855190832545 0.0 0.0038624260574595115 0.0 0.0
-0.0019200732564671336 0.0010427518921296564 0.0 0.002733881773554714 0.0 0.0
-0.0012480874102124978 0.0006384833325745465 0.0 0.0023347097380159165 0.0 0.0
-0.0009146576730229838 0.00046530287181556496 0.0 0.0022832647054224497 0.0 0.0
-0.0006533587545655695 0.00029208452569429166 0.0 0.002323543501345171 0.0 0.0
-0.0003323536779886449 -1.788668402785687e-05 0.0 0.0022318766476724927 0.0 0.0
0.00012005868416996301 -0.0005430175953616192 0.0 0.0013457030512290524 0.0 0.0
4.274357923933492e-05 -0.0003713324969107368 0.0 -0.0011361755624411107 0.0 0.0
-0.00038967164249736896 3.0271067200215995e-05 0.0 -0.002022288369011138 0.0 0.0
-0.0007738566152864501 0.00034176915374928285 0.0 -0.002143661381774409 0.0 0.0
-0.0011149898385155455 0.0005452297374477499 0.0 -0.0020714778937025446 0.0 0.0
-0.001576464161969937 0.0008043244667321758 0.0 -0.0021008870638925536 0.0 0.0
-0.0025836529769301952 0.0014910251255908502 0.0 -0.0025756858254398773 0.0 0.0
-0.004737084198188524 0.003246353066363783 0.0 -0.0038660192211819044 0.0 0.0
-0.008424196723954336 0.00657575828364898 0.0 -0.0061787537720486285 0.0 0.0
-0.013645094707652738 0.011508803898764075 0.0 -0.009375110038255863 0.0 0.0
-0.02013782209491355 0.01775848890575915 0.0 -0.012998058457314055 0.0 0.0
-0.027648433205575973 0.025043615089910265 0.0 -0.016633244347749154 0.0 0.0
-0.03603041861716377 0.033209738576871484 0.0 -0.020103213104118334 0.0 0.0
-0.04524302434260041 0.04221464819829279 0.0 -0.023416127874461234 0.0 0.0
-0.055290586366578465 0.052053115152923546 0.0 -0.026697510161883153 0.0 0.0
-0.06606823495403569 0.06259966900693437 0.0 -0.03032856132738193 0.0 0.0
-0.07709081728565731 0.07334939953012043 0.0 -0.03483656387136658 0.0 0.0
-0.08718456120280482 0.08311715551092291 0.0 -0.04036583450977638 0.0 0.0
-0.0941894066426848 0.08971989900255206 0.0 -0.04585073844911425 0.0 0.0
-0.09457407733877654 0.08960441156467525 0.0 -0.048816707343735666 0.0 0.0
-0.08302221645833216 0.0774689486218314 0.0 -0.047433949728108216 0.0 0.0
-0.08302221645832752 0.07746894862182785 0.0 0.04743394972816428 0.0 0.0
-0.09457407733875511 0.08960441156465215 0.0 0.04881670734380805 0.0 0.0
-0.09418940664264736 0.08971989900251298 0.0 0.04585073844916521 0.0 0.0
-0.08718456120275367 0.08311715551087584 0.0 0.04036583450978948 0.0 0.0
-0.07709081728559872 0.0733493995300627 0.0 0.03483656387135359 0.0 0.0
-0.06606823495397472 0.06259966900687663 0.0 0.030328561327364945 0.0 0.0
-0.05529058636651685 0.05205311515286226 0.0 0.02669751016185945 0.0 0.0
-0.045243024342542 0.04221464819823417 0.0 0.023416127874443804 0.0 0.0
-0.0360304186171064 0.033209738576817305 0.0 0.02010321310409585 0.0 0.0
-0.027648433205523043 0.025043615089860083 0.0 0.0166332443477179 0.0 0.0
-0.020137822094868904 0.017758488905718295 0.0 0.01299805845727936 0.0 0.0
-0.013645094707619446 0.01150880389873521 0.0 0.009375110038232326 0.0 0.0
-0.008424196723930438 0.006575758283627664 0.0 0.0061787537720311425 0.0 0.0
-0.004737084198174993 0.0032463530663513485 0.0 0.0038660192211713573 0.0 0.0
-0.002583652976923395 0.001491025125584411 0.0 0.002575685825435492 0.0 0.0
-0.0015764641619675501 0.0008043244667292893 0.0 0.0021008870638933863 0.0 0.0
-0.0011149898385148377 0.0005452297374468618 0.0 0.0020714778937011014 0.0 0.0
-0.0007738566152859505 0.0003417691537479506 0.0 0.0021436613817722994 0.0 0.0
-0.0003896716424973412 3.027106719993844e-05 0.0 0.0020222883690096394 0.0 0.0
4.2743579239293283e-05 -0.0003713324969100481 0.0 0.0011361755624392789 0.0 0.0
-2.339615055468869e-05 -0.00022404020865068874 0.0 -0.000920777998026201 0.0 0.0
-0.0004450603069810488 8.209956078242264e-05 0.0 -0.0017632389891275024 0.0 0.0
-0.0008867828585945592 0.0003877018293706458 0.0 -0.0019071731171425022 0.0 0.0
-0.0013053450201744865 0.0006208380946626235 0.0 -0.0018127524402989925 0.0 0.0
-0.001930198700916208 0.0010036936899948667 0.0 -0.0018444307283004835 0.0 0.0
-0.0033415698940432725 0.0020559115299223496 0.0 -0.0023647571066097717 0.0 0.0
-0.0061702157350712605 0.004502970136536 0.0 -0.0037157876023984904 0.0 0.0
-0.010778279893114195 0.008781180086327556 0.0 -0.0060757242292576175 0.0 0.0
-0.017114147835179727 0.01484106291123588 0.0 -0.009210513340709658 0.0 0.0
-0.024952752704042347 0.022422700116361938 0.0 -0.01269467075875752 0.0 0.0
-0.03405977881893818 0.03128037686542173 0.0 -0.016206838528989853 0.0 0.0
-0.04426505971476513 0.04124359122331667 0.0 -0.019558577463511195 0.0 0.0
-0.05549879530713636 0.05224354295630551 0.0 -0.02276756018474846 0.0 0.0
-0.067754878171909 0.0642687451845374 0.0 -0.025923912964017748 0.0 0.0
-0.08094480316967972 0.07720370949980504 0.0 -0.02925124526463274 0.0 0.0
-0.09454616148176292 0.09048562237102775 0.0 -0.033255920952222184 0.0 0.0
-0.1070992651345109 0.10263420112365207 0.0 -0.03836675602037953 0.0 0.0
-0.11581697306905481 0.11086309237724912 0.0 -0.04404092715486807 0.0 0.0
-0.11645980660815175 0.11097126218253006 0.0 -0.04878154232686249 0.0 0.0
-0.10343808003227889 0.09741365375003941 0.0 -0.05196181858439397 0.0 0.0
-0.103438080032272 0.09741365375003586 0.0 0.05196181858444815 0.0 0.0
-0.1164598066081236 0.11097126218250963 0.0 0.04878154232693466 0.0 0.0
-0.11581697306900884 0.11086309237719938 0.0 0.044040927154920584 0.0 0.0
-0.1070992651344515 0.1026342011235899 0.0 0.03836675602039652 0.0 0.0
-0.09454616148169367 0.09048562237095714 0.0 0.0332559209522143 0.0 0.0
-0.08094480316960705 0.07720370949973798 0.0 0.02925124526462436 0.0 0.0
-0.06775487817183569 0.06426874518447256 0.0 0.025923912963996487 0.0 0.0
-0.05549879530706524 0.05224354295623579 0.0 0.02276756018472975 0.0 0.0
-0.04426505971469617 0.041243591223249165 0.0 0.0195585774634901 0.0 0.0
-0.03405977881887601 0.03128037686536311 0.0 0.016206838528957934 0.0 0.0
-0.024952752703989015 0.022422700116308203 0.0 0.012694670758725768 0.0 0.0
-0.017114147835139024 0.014841062911196357 0.0 0.00921051334069295 0.0 0.0
-0.010778279893084372 0.008781180086302243 0.0 0.006075724229240742 0.0 0.0
-0.006170215735053455 0.004502970136524231 0.0 0.0037157876023867775 0.0 0.0
-0.0033415698940341826 0.0020559115299176867 0.0 0.002364757106604609 0.0 0.0
-0.0019301987009133215 0.001003693689991536 0.0 0.0018444307282975414 0.0 0.0
-0.0013053450201737232 0.0006208380946607361 0.0 0.0018127524402953288 0.0 0.0
-0.0008867828585939763 0.0003877018293707568 0.0 0.001907173117139671 0.0 0.0
-0.00044506030698095167 8.209956078181202e-05 0.0 0.0017632389891259481 0.0 0.0
-2.3396150554522155e-05 -0.0002240402086500868 0.0 0.0009207779980269226 0.0 0.0
-7.716352659303816e-05 -0.00010351149473680765 0.0 -0.0006989131168260165 0.0 0.0
-0.0004971268814422114 0.00013491637411333635 0.0 -0.0014601305793625063 0.0 0.0
-0.0009935070601150842 0.00043030508007235735 0.0 -0.0016140795443432832 0.0 0.0
-0.001492896493930418 0.0006972968862966056 0.0 -0.001505542180349484 0.0 0.0
-0.002329098371274263 0.0012500755110582684 0.0 -0.0015445130156833131 0.0 0.0
-0.004199222807343528 0.002750602182191919 0.0 -0.0020802807002318624 0.0 0.0
-0.007728578904973138 0.005925091910315317 0.0 -0.003406052232123702 0.0 0.0
-0.013207900769915515 0.011100989420668395 0.0 -0.005576849590035515 0.0 0.0
-0.020618133789460424 0.018232684715945524 0.0 -0.00837940656617353 0.0 0.0
-0.029788015371125298 0.027127438366579604 0.0 -0.011528294324794852 0.0 0.0
-0.04048123579042251 0.03754834077343139 0.0 -0.014701956823493179 0.0 0.0
-0.05251221790161342 0.0493102973611359 0.0 -0.017737454750044734 0.0 0.0
-0.06577541932923314 0.06231094756838562 0.0 -0.020671096100863595 0.0 0.0
-0.08021496642887088 0.07649103375496713 0.0 -0.02351595685605623 0.0 0.0
-0.09570777647581846 0.09170722507669993 0.0 -0.026288004706909063 0.0 0.0
-0.11172064652903416 0.10737126609033876 0.0 -0.029269769632434772 0.0 0.0
-0.12663752201491799 0.12181658523613592 0.0 -0.03323507801726733 0.0 0.0
-0.13717193573570255 0.13178865443336374 0.0 -0.03892792552451152 0.0 0.0
-0.13844868843577873 0.13248062808105399 0.0 -0.04647188514517864 0.0 0.0
-0.12441156941922171 0.11791889057300864 0.0 -0.0561277562666781 0.0 0.0
-0.12441156941921092 0.11791889057299265 0.0 0.05612775626673039 0.0 0.0
-0.13844868843574512 0.1324806280810238 0.0 0.04647188514524281 0.0 0.0
-0.13717193573564768 0.13178865443331933 0.0 0.03892792552455526 0.0 0.0
-0.12663752201484968 0.12181658523606842 0.0 0.03323507801727943 0.0 0.0
-0.11172064652895379 0.10737126609026415 0.0 0.029269769632430054 0.0 0.0
-0.0957077764757345 0.09170722507662266 0.0 0.02628800470690268 0.0 0.0
-0.08021496642878642 0.07649103375489119 0.0 0.023515956856037468 0.0 0.0
-0.06577541932915026 0.062310947568305686 0.0 0.02067109610084722 0.0 0.0
-0.052512217901532765 0.049310297361054634 0.0 0.01773745475002747 0.0 0.0
-0.04048123579035065 0.03754834077336078 0.0 0.014701956823465367 0.0 0.0
-0.02978801537106364 0.0271274383665272 0.0 0.011528294324768096 0.0 0.0
-0.020618133789412532 0.018232684715898895 0.0 0.008379406566154823 0.0 0.0
-0.013207900769880696 0.011100989420631313 0.0 0.005576849590018695 0.0 0.0
-0.007728578904950725 0.005925091910294666 0.0 0.0034060522321128217 0.0 0.0
-0.004199222807332217 0.0027506021821794846 0.0 0.0020802807002243684 0.0 0.0
-0.0023290983712700025 0.0012500755110529393 0.0 0.0015445130156817588 0.0 0.0
-0.0014928964939297101 0.0006972968862962725 0.0 0.0015055421803489288 0.0 0.0
-0.0009935070601144805 0.00043030508007291246 0.0 0.0016140795443419509 0.0 0.0
-0.0004971268814418853 0.00013491637411372492 0.0 0.0014601305793626729 0.0 0.0
-7.716352659289938e-05 -0.00010351149473642775 0.0 0.0006989131168263496 0.0 0.0
-0.00011489976020345738 -1.3055135079653724e-05 0.0 -0.00047213792317979397 0.0 0.0
-0.0005413191931583627 0.00018494347198216854 0.0 -0.0011159977745860417 0.0 0.0
-0.0010954006734039123 0.00046929249216587365 0.0 -0.0012621583710709094 0.0 0.0
-0.00168892100507273 0.000785645581615313 0.0 -0.0011535755518419233 0.0 0.0
-0.0027898837031700707 0.0015669694704680825 0.0 -0.0011988546329128047 0.0 0.0
-0.005163321078587801 0.0035764291060143005 0.0 -0.0017120905707666556 0.0 0.0
-0.009366886117180673 0.007456357292117133 0.0 -0.002835784328126978 0.0 0.0
-0.015663894005737977 0.013470470389892242 0.0 -0.0046018429448890785 0.0 0.0
-0.024124672008562664 0.021644206365039942 0.0 -0.006908251336530724 0.0 0.0
-0.03460559173323746 0.031831641773343744 0.0 -0.009510559178141254 0.0 0.0
-0.04687616660603716 0.043806237282933314 0.0 -0.012138316231441015 0.0 0.0
-0.060734547667303906 0.057369278255821055 0.0 -0.014648174872966546 0.0 0.0
-0.07603564481518771 0.07237613325737158 0.0 -0.017089227089174375 0.0 0.0
-0.09264200559580033 0.08868765159968683 0.0 -0.01947861559090147 0.0 0.0
-0.11031196128170057 0.10605218460081955 0.0 -0.021599024549169288 0.0 0.0
-0.12845942406128424 0.12384166632184446 0.0 -0.023248389991921248 0.0 0.0
-0.14555427858469894 0.14045146773430606 0.0 -0.025295334481927334 0.0 0.0
-0.15821385268963448 0.15245728740152398 0.0 -0.030433923083962644 0.0 0.0
-0.16081235931853355 0.15439098925715466 0.0 -0.041407167654436305 0.0 0.0
-0.14644003619326332 0.13944314342875153 0.0 -0.05958454071036756 0.0 0.0
-0.1464400361932499 0.1394431434287382 0.0 0.05958454071040764 0.0 0.0
-0.16081235931849394 0.15439098925712091 0.0 0.041407167654493704 0.0 0.0
-0.1582138526895716 0.1524572874014627 0.0 0.030433923084002945 0.0 0.0
-0.14555427858462022 0.14045146773423323 0.0 0.025295334481934162 0.0 0.0
-0.12845942406119276 0.12384166632175342 0.0 0.02324838999191714 0.0 0.0
-0.11031196128160518 0.1060521846007183 0.0 0.021599024549164292 0.0 0.0
-0.09264200559570436 0.08868765159959091 0.0 0.019478615590889148 0.0 0.0
-0.07603564481509299 0.07237613325728143 0.0 0.01708922708916083 0.0 0.0
-0.06073454766721171 0.057369278255730904 0.0 0.01464817487295228 0.0 0.0
-0.04687616660595528 0.04380623728285249 0.0 0.012138316231418367 0.0 0.0
-0.03460559173316853 0.03183164177327491 0.0 0.009510559178122546 0.0 0.0
-0.02412467200850782 0.021644206364987095 0.0 0.006908251336517068 0.0 0.0
-0.015663894005698398 0.013470470389856048 0.0 0.004601842944877477 0.0 0.0
-0.00936688611715366 0.00745635729209182 0.0 0.0028357843281159867 0.0 0.0
-0.0051633210785736045 0.003576429106002754 0.0 0.0017120905707593281 0.0 0.0
-0.002789883703163798 0.0015669694704643078 0.0 0.0011988546329112504 0.0 0.0
-0.0016889210050717307 0.000785645581615646 0.0 0.0011535755518418123 0.0 0.0
-0.001095400673403156 0.0004692924921655406 0.0 0.0012621583710705209 0.0 0.0
-0.0005413191931578562 0.0001849434719810028 0.0 0.0011159977745858751 0.0 0.0
-0.00011489976020347126 -1.3055135079311983e-05 0.0 0.00047213792318018255 0.0 0.0
-0.00012983054995424625 4.296133985820516e-05 0.0 -0.0002471622138299767 0.0 0.0
-0.0005685855074309409 0.00022594128233965893 0.0 -0.0007303499363749966 0.0 0.0
-0.0011950887011525357 0.0005068256437782415 0.0 -0.0008449850236187384 0.0 0.0
-0.0019113081060722625 0.0008988829828742162 0.0 -0.0007591671685800438 0.0 0.0
-0.00332787970355386 0.0019764079866260165 0.0 -0.0008110405251133823 0.0 0.0
-0.006216965410420605 0.004517252056422949 0.0 -0.0011983909866992715 0.0 0.0
-0.011038852232219565 0.009049376097399975 0.0 -0.001980881479221097 0.0 0.0
-0.018121084389728037 0.015855148897605975 0.0 -0.003191347342980544 0.0 0.0
-0.027597909845706425 0.025038345562248043 0.0 -0.004802130231079338 0.0 0.0
-0.039368263300755546 0.036496145853510686 0.0 -0.006645293224290638 0.0 0.0
-0.0532077894538211 0.05001541415965516 0.0 -0.008508524489070468 0.0 0.0
-0.06889452598232099 0.06537964247546402 0.0 -0.01028823864654993 0.0 0.0
-0.08623742511778809 0.0823958658059798 0.0 -0.012047260383423852 0.0 0.0
-0.10499391912155187 0.10081795531223525 0.0 -0.01375061370917341 0.0 0.0
-0.1247481380723624 0.12022596653104234 0.0 -0.015125337024422869 0.0 0.0
-0.14475314451152121 0.1398623269386352 0.0 -0.015698107390905935 0.0 0.0
-0.16361628622997143 0.15828346019969342 0.0 -0.015619253327630811 0.0 0.0
-0.17852295120907896 0.17256758582951637 0.0 -0.018261325088483327 0.0 0.0
-0.18379371136921802 0.1768991277638401 0.0 -0.03188947067038139 0.0 0.0
-0.17025258951794947 0.1626657009174144 0.0 -0.06150312146485104 0.0 0.0
-0.1702525895179335 0.16266570091740284 0.0 0.06150312146488002 0.0 0.0
-0.18379371136917183 0.17689912776379568 0.0 0.031889470670425135 0.0 0.0
-0.17852295120900794 0.17256758582944798 0.0 0.01826132508851297 0.0 0.0
-0.16361628622988092 0.1582834601995966 0.0 0.015619253327632476 0.0 0.0
-0.14475314451141827 0.13986232693853262 0.0 0.01569810739090377 0.0 0.0
-0.12474813807225504 0.12022596653094242 0.0 0.015125337024418983 0.0 0.0
-0.10499391912144415 0.10081795531213622 0.0 0.013750613709169301 0.0 0.0
-0.08623742511768259 0.08239586580587455 0.0 0.012047260383416525 0.0 0.0
-0.06889452598221787 0.0653796424753641 0.0 0.010288238646540604 0.0 0.0
-0.05320778945372921 0.05001541415956412 0.0 0.008508524489055147 0.0 0.0
-0.039368263300679426 0.03649614585343253 0.0 0.006645293224277982 0.0 0.0
-0.02759790984564519 0.02503834556218365 0.0 0.004802130231068846 0.0 0.0
-0.018121084389683524 0.01585514889756201 0.0 0.00319134734297033 0.0 0.0
-0.011038852232189145 0.009049376097367778 0.0 0.001980881479213714 0.0 0.0
-0.0062169654104031954 0.004517252056406296 0.0 0.0011983909866937204 0.0 0.0
-0.0033278797035460918 0.0019764079866206874 0.0 0.0008110405251098296 0.0 0.0
-0.0019113081060702954 0.0008988829828715517 0.0 0.0007591671685788781 0.0 0.0
-0.0011950887011514984 0.0005068256437763541 0.0 0.0008449850236202927 0.0 0.0
-0.0005685855074306252 0.0002259412823389928 0.0 0.0007303499363756627 0.0 0.0
-0.00012983054995399992 4.2961339858088934e-05 0.0 0.00024716221383053183 0.0 0.0
-0.00010989505550912382 5.8334495157408295e-05 0.0 -4.078205011676106e-05 0.0 0.0
-0.0005627133132063977 0.0002476732522167513 0.0 -0.0002954935966604788 0.0 0.0
-0.0013000890754613081 0.000548857076337117 0.0 -0.000348977599961664 0.0 0.0
-0.002184174977702291 0.0010658296833794267 0.0 -0.00032740049305546304 0.0 0.0
-0.00394732134002812 0.0024780503758916606 0.0 -0.00035375540390775173 0.0 0.0
-0.007325675158931455 0.005532823679029741 0.0 -0.0005103297275874663 0.0 0.0
-0.012726187626734109 0.010671310095839992 0.0 -0.0008342826931669323 0.0 0.0
-0.020547879112080447 0.01822323629214928 0.0 -0.0013479848052664334 0.0 0.0
-0.031002091689321887 0.02837619444652484 0.0 -0.0020699619111819167 0.0 0.0
-0.04403705891537285 0.04108079374862417 0.0 -0.002928529673604685 0.0 0.0
-0.05944046460254815 0.05613920214304713 0.0 -0.0038110281066972007 0.0 0.0
-0.0769586797303386 0.07330555245493553 0.0 -0.0046691848463453756 0.0 0.0
-0.09632813968218706 0.0923162896444425 0.0 -0.005507240945473835 0.0 0.0
-0.11720704574263047 0.11282256917028022 0.0 -0.006269669264832078 0.0 0.0
-0.13901210186556978 0.13423646417617707 0.0 -0.0067905098344686055 0.0 0.0
-0.1607472099570882 0.1555663255991302 0.0 -0.006708568670214299 0.0 0.0
-0.18090853789609332 0.1753160696452447 0.0 -0.005619266818065238 0.0 0.0
-0.19732694580096846 0.19127029292952358 0.0 -0.004685397642536726 0.0 0.0
-0.2061892920559614 0.19939650285273913 0.0 -0.013719483838685598 0.0 0.0
-0.19792796361906284 0.18921008483694735 0.0 -0.056661740049031684 0.0 0.0
-0.1979279636190443 0.1892100848369349 0.0 0.05666174004904179 0.0 0.0
-0.2061892920559091 0.19939650285269117 0.0 0.01371948383870325 0.0 0.0
-0.19732694580088728 0.1912702929294401 0.0 0.004685397642551603 0.0 0.0
-0.18090853789598996 0.17531606964513724 0.0 0.005619266818060575 0.0 0.0
-0.1607472099569736 0.15556632559901695 0.0 0.006708568670214632 0.0 0.0
-0.13901210186545035 0.13423646417605495 0.0 0.0067905098344690495 0.0 0.0
-0.11720704574251001 0.11282256917016298 0.0 0.006269669264829525 0.0 0.0
-0.09632813968207164 0.09231628964432348 0.0 0.005507240945469893 0.0 0.0
-0.076958679730224 0.0733055524548254 0.0 0.004669184846342211 0.0 0.0
-0.05944046460244617 0.056139202142953426 0.0 0.003811028106688541 0.0 0.0
-0.04403705891528949 0.04108079374854734 0.0 0.0029285296735969135 0.0 0.0
-0.03100209168925485 0.028376194446461334 0.0 0.002069961911177254 0.0 0.0
-0.020547879112030324 0.01822323629210132 0.0 0.0013479848052627141 0.0 0.0
-0.012726187626700284 0.010671310095808684 0.0 0.000834282693165711 0.0 0.0
-0.0073256751589110495 0.00553282367901109 0.0 0.0005103297275877439 0.0 0.0
-0.003947321340019233 0.002478050375883001 0.0 0.00035375540391036076 0.0 0.0
-0.0021841749776996423 0.0010658296833780945 0.0 0.0003274004930557961 0.0 0.0
-0.0013000890754601788 0.0005488570763374501 0.0 0.0003489775999601652 0.0 0.0
-0.0005627133132057646 0.0002476732522163627 0.0 0.0002954935966598127 0.0 0.0
-0.00010989505550870575 5.833449515734411e-05 0.0 4.078205011714964e-05 0.0 0.0
SCALARS Statev float 8
LOOKUP_TABLE default
0.0 0.014226328743974592 0.01104122726103011 -0.01142149239829925 0.00038026513726914106 -0.006372648971250742 0.0 0.0
0.0 0.0009481039823787681 0.0006860009840548974 -0.0005920654551129279 -9.39355289419694e-05 0.0006044774582227675 0.0 0.0
0.0 3.641424092093184e-05 -1.9046506566462958e-06 1.6080929735080806e-06 2.9655768313818576e-07 3.186177037978819e-07 0.0 0.0
0.0 0.00037247455108659197 0.00028524215441857776 -0.0002263261228923598 -5.891603152621793e-05 -4.077100714150682e-05 0.0 0.0
0.0 0.0018964389414768833 0.001570347698587056 -0.0013186136302944247 -0.0002517340682926312 -0.00016916375243881585 0.0 0.0
0.0 0.005090323286566734 0.004586835637105465 -0.004094503339077274 -0.0004923322980281892 -0.0003762063641009859 0.0 0.0
0.0 0.010914777334842113 0.009679463186596377 -0.009032435601386984 -0.0006470275852093902 -0.0006930616626472006 0.0 0.0
0.0 0.019602430852652675 0.01722602815667324 -0.01646963156151008 -0.0007563965951631593 -0.0011830406975035597 0.0 0.0
0.0 0.03136372502574343 0.027414328523623768 -0.026552585088740737 -0.000861743434883019 -0.0018788367035436396 0.0 0.0
0.0 0.0461520243997455 0.040202024826155 -0.039227982235072005 -0.0009740425910829953 -0.0027239244677089527 0.0 0.0
0.0 0.0637684333541011 0.055396090438628455 -0.05430507119789766 -0.0010910192407307816 -0.003609788164851403 0.0 0.0
0.0 0.08364937970419695 0.07275636402197398 -0.07154619839762455 -0.0012101656243494001 -0.004476616948172439 0.0 0.0
0.0 0.10581186127644981 0.09203037062347524 -0.09069966229296661 -0.0013307083305085315 -0.005326071223443661 0.0 0.0
0.0 0.12991552223825495 0.11292583980198488 -0.11147165261190961 -0.0014541871900751973 -0.006145270380235801 0.0 0.0
0.0 0.15537816005571642 0.13499408190322348 -0.1334123129751023 -0.001581768928121066 -0.006888043962677819 0.0 0.0
0.0 0.1813874215956802 0.15750222403311945 -0.15579012716756294 -0.0017120968655566114 -0.007403871460397251 0.0 0.0
0.0 0.20667846335523377 0.17938458921974704 -0.17754377047395953 -0.001840818745787556 -0.007443104260467966 0.0 0.0
0.0 0.22966216974912615 0.1992810933235315 -0.19731735570346373 -0.0019637376200677048 -0.006798657540544335 0.0 0.0
0.0 0.24847553893174443 0.2155708883790092 -0.21348933819610355 -0.002081550182905632 -0.005885352346207658 0.0 0.0
0.0 0.260056897024678 0.22572983969042199 -0.2234585319833551 -0.0022713077070668844 -0.007147494748994369 0.0 0.0
0.0 0.26005689702466145 0.22572983969040722 -0.22345853198334076 -0.002271307707066454 0.007147494749004859 0.0 0.0
0.0 0.24847553893169474 0.21557088837896526 -0.21348933819606106 -0.0020815501829041373 0.0058853523462320066 0.0 0.0
0.0 0.22966216974903486 0.19928109332345229 -0.19731735570338513 -0.0019637376200670967 0.006798657540558745 0.0 0.0
0.0 0.20667846335511747 0.17938458921964595 -0.17754377047385916 -0.001840818745786776 0.00744310426047556 0.0 0.0
0.0 0.18138742159555438 0.15750222403301034 -0.1557901271674546 -0.0017120968655558386 0.007403871460387625 0.0 0.0
0.0 0.15537816005558383 0.13499408190310863 -0.13341231297498762 -0.0015817689281209708 0.0068880439626752745 0.0 0.0
0.0 0.12991552223812172 0.11292583980186967 -0.1114716526117944 -0.001454187190075241 0.006145270380236314 0.0 0.0
0.0 0.1058118612763209 0.09203037062336346 -0.09069966229285538 -0.001330708330508056 0.005326071223442325 0.0 0.0
0.0 0.08364937970407611 0.072756364021869 -0.07154619839752062 -0.0012101656243483356 0.004476616948163792 0.0 0.0
0.0 0.06376843335399432 0.05539609043853543 -0.054305071197805595 -0.0010910192407298236 0.0036097881648449303 0.0 0.0
0.0 0.04615202439965636 0.04020202482607789 -0.039227982234995455 -0.0009740425910824504 0.002723924467697478 0.0 0.0
0.0 0.031363725025677046 0.027414328523565516 -0.026552585088683238 -0.000861743434882301 0.0018788367035406628 0.0 0.0
0.0 0.019602430852603547 0.017226028156629707 -0.016469631561467225 -0.0007563965951624729 0.0011830406974998986 0.0 0.0
0.0 0.010914777334809353 0.009679463186567136 -0.009032435601358378 -0.0006470275852087508 0.0006930616626453515 0.0 0.0
0.0 0.005090323286548839 0.004586835637089075 -0.004094503339061724 -0.0004923322980273507 0.0003762063640994165 0.0 0.0
0.0 0.0018964389414684504 0.0015703476985800533 -0.0013186136302882014 -0.0002517340682918515 0.0001691637524379933 0.0 0.0
0.0 0.0003724745510844182 0.0002852421544175335 -0.00022632612289151007 -5.8916031526023264e-05 4.0771007141305484e-05 0.0 0.0
0.0 3.641424092053613e-05 -1.904650656455033e-06 1.608092973362744e-06 2.965576830923333e-07 -3.186177038036573e-07 0.0 0.0
0.0 0.0009481039823757798 0.0006860009840531583 -0.0005920654551114149 -9.393552894174375e-05 -0.0006044774582209002 0.0 0.0
0.0 0.014226328743955477 0.011041227261017462 -0.011421492398285592 0.00038026513726812814 0.006372648971219008 0.0 0.0
0.0 0.010663467979273505 0.007754652701789582 -0.008250917926416695 0.0004962652246271094 -0.007432465361066059 0.0 0.0
0.0 1.752032465235567e-05 1.3491922395781155e-05 -1.2054005216866774e-05 -1.4379171789143808e-06 8.784383089061901e-06 0.0 0.0
0.0 7.796185093300077e-07 1.9485963281608824e-07 -1.4741373601796427e-07 -4.7445896798126344e-08 -6.896291715383251e-08 0.0 0.0
0.0 0.00015695685067582192 0.00011571547744453534 -9.106142052695966e-05 -2.465405691757587e-05 -4.023015654198562e-05 0.0 0.0
0.0 0.0012941015759784177 0.0010337079462388714 -0.0008547045398490131 -0.0001790034063898587 -0.0002743702037371396 0.0 0.0
0.0 0.003958860862225742 0.0035704340472776314 -0.003139471867555334 -0.00043096217972229733 -0.0007748762576979495 0.0 0.0
0.0 0.009121773727033081 0.00808164607007603 -0.007468960803691135 -0.0006126852663848922 -0.0015763459204720374 0.0 0.0
0.0 0.016968674116934482 0.014882050287196483 -0.014149367291377673 -0.0007326829958188064 -0.0027476073730135224 0.0 0.0
0.0 0.027616150518432657 0.02409124757685361 -0.023253406108877592 -0.0008378414679760073 -0.00431568368172905 0.0 0.0
0.0 0.040955092455412276 0.03561540124025877 -0.03467045004677825 -0.0009449511934805234 -0.00614605216772785 0.0 0.0
0.0 0.056747203820989835 0.04924939076835616 -0.04819560862440556 -0.0010537821439506017 -0.008031678147327964 0.0 0.0
0.0 0.07479454401261615 0.06478543200064983 -0.06362214866172533 -0.0011632833389244696 -0.009848694816456267 0.0 0.0
0.0 0.09458959974945388 0.08203930447077834 -0.08076503238698157 -0.0012742720837967832 -0.011644158093984367 0.0 0.0
0.0 0.11615566277637483 0.10077200506624238 -0.09938444079491988 -0.0013875642713225018 -0.013416700166686862 0.0 0.0
0.0 0.13904536211921611 0.1205999805789131 -0.11909646909289061 -0.0015035114860224071 -0.0150343584152875 0.0 0.0
0.0 0.16246580271752015 0.14090435624849484 -0.1392829017495133 -0.0016214544989815573 -0.01620275627623589 0.0 0.0
0.0 0.18536320213362456 0.1607645927364437 -0.15902470942840097 -0.001739883308042745 -0.016452450428198456 0.0 0.0
0.0 0.2062988646572925 0.17892238487260195 -0.1770637159565926 -0.0018586689160093109 -0.015485071020767018 0.0 0.0
0.0 0.223218755967957 0.19361193653900133 -0.1916190134922804 -0.0019929230467208626 -0.013661342210445213 0.0 0.0
0.0 0.23336953212171896 0.20245216060970858 -0.20035627627217875 -0.0020958843375298458 -0.010800957496863578 0.0 0.0
0.0 0.23336953212170225 0.20245216060969395 -0.200356276272164 -0.002095884337530023 0.010800957496887403 0.0 0.0
0.0 0.22321875596791116 0.19361193653896075 -0.1916190134922402 -0.0019929230467205464 0.013661342210489539 0.0 0.0
0.0 0.20629886465721603 0.17892238487253476 -0.17706371595652612 -0.0018586689160085227 0.015485071020797781 0.0 0.0
0.0 0.18536320213352703 0.16076459273635846 -0.15902470942831698 -0.001739883308041311 0.0164524504282131 0.0 0.0
0.0 0.16246580271740957 0.14090435624839903 -0.13928290174941832 -0.0016214544989806273 0.016202756276227616 0.0 0.0
0.0 0.13904536211909954 0.12059998057881187 -0.11909646909279044 -0.00150351148602141 0.015034358415281895 0.0 0.0
0.0 0.11615566277625614 0.1007720050661393 -0.09938444079481762 -0.001387564271321663 0.013416700166683743 0.0 0.0
0.0 0.09458959974934061 0.08203930447067974 -0.0807650323868842 -0.0012742720837955264 0.01164415809397857 0.0 0.0
0.0 0.0747945440125054 0.06478543200055396 -0.06362214866162985 -0.0011632833389240824 0.009848694816442596 0.0 0.0
0.0 0.05674720382089013 0.04924939076826984 -0.04819560862431961 -0.0010537821439502296 0.008031678147315546 0.0 0.0
0.0 0.04095509245533173 0.035615401240188915 -0.034670450046708934 -0.000944951193479965 0.006146052167710988 0.0 0.0
0.0 0.027616150518372264 0.0240912475768005 -0.023253406108825005 -0.0008378414679754804 0.004315683681721843 0.0 0.0
0.0 0.016968674116890754 0.01488205028715808 -0.014149367291339792 -0.0007326829958182916 0.002747607373006171 0.0 0.0
0.0 0.009121773727003811 0.00808164607004997 -0.007468960803665724 -0.000612685266384241 0.0015763459204668996 0.0 0.0
0.0 0.003958860862209264 0.0035704340472631417 -0.003139471867541729 -0.00043096217972141365 0.0007748762576945127 0.0 0.0
0.0 0.0012941015759707394 0.0010337079462328304 -0.0008547045398437908 -0.00017900340638903978 0.0002743702037356149 0.0 0.0
0.0 0.00015695685067440034 0.00011571547744387965 -9.106142052641759e-05 -2.4654056917461953e-05 4.023015654170849e-05 0.0 0.0
0.0 7.796185091943977e-07 1.9485963289783343e-07 -1.4741373607766992e-07 -4.7445896820165995e-08 6.896291716922147e-08 0.0 0.0
0.0 1.7520324651939204e-05 1.3491922395747705e-05 -1.2054005216824041e-05 -1.4379171789236669e-06 -8.78438308905733e-06 0.0 0.0
0.0 0.010663467979251934 0.007754652701775508 -0.008250917926401919 0.0004962652246264064 0.007432465361039817 0.0 0.0
0.0 0.00814484491062831 0.005613947793353918 -0.006144044989087416 0.0005300971957334959 -0.006571217105285651 0.0 0.0
0.0 0.0 0.0 0.0 0.0 0.0 0.0 0.0
0.0 0.0 0.0 0.0 0.0 0.0 0.0 0.0
0.0 3.7838230736912235e-05 3.1037263527875135e-05 -2.429283990775844e-05 -6.744423620116718e-06 -1.9949248924672753e-05 0.0 0.0
0.0 0.0007569233608559585 0.0006116444732223256 -0.0004981907481020377 -0.00011345372512028756 -0.00028725689962412596 0.0 0.0
0.0 0.003085765140312339 0.002609456242159925 -0.00225602070914529 -0.0003534355330146346 -0.0009766621588807231 0.0 0.0
0.0 0.0073929589525570955 0.006515220152414521 -0.0059468865117078985 -0.0005683336407066225 -0.002154235184518888 0.0 0.0
0.0 0.014359405940904457 0.012527637756798493 -0.011825295460059991 -0.0007023422967384917 -0.0038811586854227602 0.0 0.0
0.0 0.023887086505694845 0.020718035028451213 -0.01990883713942231 -0.0008091978890289026 -0.006134800234689921 0.0 0.0
0.0 0.035784502207501304 0.030952911300323183 -0.030041844233580625 -0.0009110670667425403 -0.008723915448434857 0.0 0.0
0.0 0.04982406013195603 0.043018556190846526 -0.042006648745502376 -0.0010119074453441485 -0.011387289475459514 0.0 0.0
0.0 0.06570166637803962 0.05673224392718419 -0.05561982876419609 -0.0011124151629880764 -0.013966184739449222 0.0 0.0
0.0 0.0834211415429216 0.07194886896974169 -0.07073520972166862 -0.0012136592480730376 -0.0164927950875853 0.0 0.0
0.0 0.1024475245823265 0.08849657999183039 -0.08718027725598564 -0.0013163027358446815 -0.019001652005007766 0.0 0.0
0.0 0.12270719986271264 0.1060741530171965 -0.10465390702548831 -0.0014202459917081857 -0.021331784800717023 0.0 0.0
0.0 0.14360656778971126 0.12418331458533151 -0.12265740945189005 -0.0015259051334414577 -0.02306786160140135 0.0 0.0
0.0 0.16416352428122535 0.14204697212401926 -0.1404123360907219 -0.0016346360332973122 -0.023646473796925842 0.0 0.0
0.0 0.18300961549616454 0.15848370622256502 -0.15673241681711572 -0.0017512894054493185 -0.022625538806128553 0.0 0.0
0.0 0.19821511672863953 0.17179774046986673 -0.16993239492437326 -0.0018653455454933974 -0.019519423605966986 0.0 0.0
0.0 0.20757806952919428 0.1800798799146882 -0.1781314677626862 -0.0019484121520018862 -0.013330186711011778 0.0 0.0
0.0 0.20757806952917868 0.18007987991467395 -0.17813146776267214 -0.0019484121520017255 0.01333018671105477 0.0 0.0
0.0 0.19821511672859143 0.17179774046982338 -0.16993239492432968 -0.001865345545493756 0.01951942360602912 0.0 0.0
0.0 0.18300961549609307 0.15848370622250155 -0.15673241681705224 -0.0017512894054491613 0.022625538806171963 0.0 0.0
0.0 0.16416352428113712 0.14204697212394185 -0.14041233609064485 -0.00163463603329708 0.02364647379694509 0.0 0.0
0.0 0.14360656778961392 0.124183314585247 -0.12265740945180668 -0.0015259051334402958 0.02306786160139042 0.0 0.0
0.0 0.12270719986261348 0.10607415301711003 -0.10465390702540318 -0.0014202459917068526 0.021331784800710803 0.0 0.0
0.0 0.10244752458222267 0.08849657999174029 -0.08718027725589578 -0.0013163027358445189 0.019001652005002374 0.0 0.0
0.0 0.08342114154282161 0.07194886896965502 -0.07073520972158219 -0.0012136592480727962 0.016492795087577408 0.0 0.0
0.0 0.0657016663779447 0.056732243927102306 -0.055619828764114976 -0.0011124151629873606 0.013966184739431044 0.0 0.0
0.0 0.0498240601318712 0.043018556190772786 -0.04200664874542938 -0.001011907445343387 0.01138728947544275 0.0 0.0
0.0 0.03578450220742707 0.030952911300259088 -0.03004184423351692 -0.0009110670667421587 0.00872391544841265 0.0 0.0
0.0 0.023887086505640427 0.020718035028403727 -0.019908837139375548 -0.0008091978890281701 0.006134800234677575 0.0 0.0
0.0 0.014359405940867466 0.0125276377567661 -0.011825295460028272 -0.0007023422967378198 0.0038811586854121663 0.0 0.0
0.0 0.0073929589525318605 0.006515220152392238 -0.005946886511686423 -0.0005683336407058122 0.0021542351845121113 0.0 0.0
0.0 0.0030857651402967463 0.002609456242146902 -0.0022560207091333086 -0.0003534355330135928 0.0009766621588754736 0.0 0.0
0.0 0.0007569233608500912 0.0006116444732178132 -0.0004981907480982106 -0.0001134537251196025 0.0002872568996218746 0.0 0.0
0.0 3.7838230736435396e-05 3.103726352799147e-05 -2.4292839907836288e-05 -6.744423620155203e-06 1.994924892466929e-05 0.0 0.0
0.0 0.0 0.0 0.0 0.0 0.0 0.0 0.0
0.0 0.0 0.0 0.0 0.0 0.0 0.0 0.0
0.0 0.008144844910608094 0.0056139477933400735 -0.00614404498907298 0.0005300971957329026 0.006571217105263004 0.0 0.0
0.0 0.0061530193938201 0.004072833956387011 -0.004578526317162566 0.0005056923607755534 -0.00523275839194502 0.0 0.0
0.0 0.0 0.0 0.0 0.0 0.0 0.0 0.0
0.0 0.0 0.0 0.0 0.0 0.0 0.0 0.0
0.0 6.808066967236526e-06 3.6066594934702723e-06 -2.811858919322468e-06 -7.948005741477885e-07 -3.694627783465271e-06 0.0 0.0
0.0 0.00038855768006588337 0.00030626375033814413 -0.00024673017094686915 -5.953357939127478e-05 -0.00022990079766588626 0.0 0.0
0.0 0.0021606659457818244 0.0017750727269695708 -0.0015067791405493974 -0.0002682935864201733 -0.0010073545005452335 0.0 0.0
0.0 0.005796184851234959 0.005001672831418218 -0.004495861450088922 -0.0005058113813292968 -0.0024331814712792096 0.0 0.0
0.0 0.011806088173882075 0.010194168768509463 -0.009530162717909255 -0.0006640060506002095 -0.004576836779023263 0.0 0.0
0.0 0.020178919867451822 0.01733314098365723 -0.016558877246214677 -0.0007742637374425498 -0.007327815177219335 0.0 0.0
0.0 0.03061711958028658 0.026256894530132812 -0.025385088429685464 -0.0008718061004473127 -0.010462895733914915 0.0 0.0
0.0 0.042876605077969004 0.03674372283781399 -0.03577854547725268 -0.0009651773605613074 -0.013678563500613023 0.0 0.0
0.0 0.05674366311276937 0.04862812488254964 -0.04757118820113869 -0.0010569366814109412 -0.016812018641983575 0.0 0.0
0.0 0.07207477722661153 0.06180470845904824 -0.06065637599711538 -0.0011483324619328543 -0.019897374694664387 0.0 0.0
0.0 0.08877212460309936 0.07615329239134334 -0.07491284335065648 -0.0012404490406868383 -0.02292298607884149 0.0 0.0
0.0 0.10654083075192311 0.0914594848826579 -0.09012712132443626 -0.0013323635582216204 -0.025738585472919608 0.0 0.0
0.0 0.1247197021476185 0.10735357381942265 -0.10592806187679994 -0.0014255119426226561 -0.027962625079979417 0.0 0.0
0.0 0.14294395631776177 0.12320037821940345 -0.12167601525152219 -0.0015243629678812235 -0.02895873192564429 0.0 0.0
0.0 0.15980882059593393 0.13796637369149947 -0.1363367757012514 -0.001629597990248067 -0.027962322011196077 0.0 0.0
0.0 0.17360878662474977 0.15018385578604268 -0.1484531356583142 -0.0017307201277284338 -0.02387956571143455 0.0 0.0
0.0 0.18252363203549843 0.15823637658442727 -0.15643086574352846 -0.0018055108408988173 -0.015360277314543784 0.0 0.0
0.0 0.1825236320354804 0.1582363765844108 -0.15643086574351128 -0.0018055108408996385 0.015360277314598283 0.0 0.0
0.0 0.17360878662471596 0.15018385578600962 -0.14845313565828275 -0.0017307201277267457 0.02387956571150599 0.0 0.0
0.0 0.1598088205958794 0.1379663736914486 -0.13633677570120245 -0.00162959799024609 0.027962322011247542 0.0 0.0
0.0 0.14294395631768886 0.12320037821933848 -0.12167601525145792 -0.0015243629678805123 0.028958731925667176 0.0 0.0
0.0 0.12471970214753025 0.1073535738193465 -0.10592806187672388 -0.0014255119426226095 0.02796262507996887 0.0 0.0
0.0 0.1065408307518325 0.0914594848825793 -0.09012712132435845 -0.0013323635582208216 0.025738585472909872 0.0 0.0
0.0 0.08877212460300818 0.07615329239126406 -0.0749128433505779 -0.0012404490406861422 0.022922986078831666 0.0 0.0
0.0 0.07207477722652483 0.0618047084589729 -0.060656375997040685 -0.0011483324619322118 0.019897374694652435 0.0 0.0
0.0 0.05674366311268349 0.04862812488247591 -0.04757118820106472 -0.0010569366814111821 0.01681201864196137 0.0 0.0
0.0 0.04287660507789222 0.03674372283774814 -0.03577854547718686 -0.00096517736056127 0.01367856350058917 0.0 0.0
0.0 0.030617119580222077 0.026256894530077943 -0.025385088429631004 -0.0008718061004469201 0.010462895733888759 0.0 0.0
0.0 0.020178919867399565 0.017333140983612307 -0.016558877246170136 -0.0007742637374421672 0.0073278151772020565 0.0 0.0
0.0 0.011806088173843984 0.010194168768476695 -0.009530162717877098 -0.0006640060505995924 0.004576836779008588 0.0 0.0
0.0 0.005796184851213037 0.0050016728313995885 -0.004495861450071102 -0.0005058113813284867 0.0024331814712703825 0.0 0.0
0.0 0.0021606659457706757 0.001775072726960981 -0.0015067791405417945 -0.00026829358641918666 0.0010073545005403657 0.0 0.0
0.0 0.00038855768006252787 0.000306263750336157 -0.00024673017094519546 -5.95335793909616e-05 0.0002299007976643529 0.0 0.0
0.0 6.808066966907546e-06 3.606659493695331e-06 -2.811858919496025e-06 -7.948005741992959e-07 3.6946277836854384e-06 0.0 0.0
0.0 0.0 0.0 0.0 0.0 0.0 0.0 0.0
0.0 0.0 0.0 0.0 0.0 0.0 0.0 0.0
0.0 0.006153019393802483 0.004072833956375289 -0.004578526317150203 0.0005056923607749113 0.0052327583919272455 0.0 0.0
0.0 0.004511270267296244 0.0028817635801203344 -0.0033276911455396687 0.00044592756541933466 -0.003912945181354806 0.0 0.0
0.0 0.0 0.0 0.0 0.0 0.0 0.0 0.0
0.0 0.0 0.0 0.0 0.0 0.0 0.0 0.0
0.0 1.0190087068346797e-06 4.979289868029341e-07 -3.807709884166849e-07 -1.1715799838624901e-07 -7.314709581070573e-07 0.0 0.0
0.0 0.00017079837453798475 0.00012328049563650146 -9.88249720175483e-05 -2.445552361895317e-05 -0.0001426912557522254 0.0 0.0
0.0 0.001375087579706833 0.0010899656574809625 -0.0009087132391815687 -0.0001812524182993939 -0.0009109639383498634 0.0 0.0
0.0 0.004399390470311003 0.003589544565975559 -0.0031658125246128493 -0.0004237320413627097 -0.0024247315359442645 0.0 0.0
0.0 0.009380065676468017 0.007909220300692181 -0.007297512489826142 -0.0006117078108660386 -0.004793656416287041 0.0 0.0
0.0 0.016516000852242814 0.013974585821487348 -0.013243044390647139 -0.0007315414308402169 -0.007888150961727394 0.0 0.0
0.0 0.02548793167379883 0.021568130895155142 -0.020741913075162058 -0.0008262178199930828 -0.01136018058369151 0.0 0.0
0.0 0.03597347162846398 0.030465879224795128 -0.029553002872032007 -0.0009128763527631457 -0.014915802333711129 0.0 0.0
0.0 0.047762377078500555 0.04051569278189285 -0.03951979904521822 -0.0009958937366746016 -0.018385467738230535 0.0 0.0
0.0 0.06084642629003115 0.05164588766721664 -0.05056828342715096 -0.0010776042400656694 -0.02180502715322956 0.0 0.0
0.0 0.0749459790487058 0.06379220444983323 -0.06263327001013501 -0.0011589344396982393 -0.025175143682861792 0.0 0.0
0.0 0.09011243330053988 0.07681197984314261 -0.07557244439619037 -0.0012395354469522531 -0.02830569231491857 0.0 0.0
0.0 0.10600749327864027 0.09044316167891447 -0.08912259622739258 -0.0013205654515218547 -0.030841449539049035 0.0 0.0
0.0 0.12170789580879653 0.1042241099020199 -0.10281848359013838 -0.0014056263118814912 -0.032219201054157855 0.0 0.0
0.0 0.13658207089578198 0.11736045885882523 -0.11586303250107821 -0.00149742635774701 -0.031450577513475894 0.0 0.0
0.0 0.14918662398797844 0.12865470831970416 -0.12706620563154344 -0.001588502688160666 -0.026947275855262808 0.0 0.0
0.0 0.15789312024852803 0.13668841727045777 -0.13502717641864503 -0.0016612408518126495 -0.017040689783813748 0.0 0.0
0.0 0.1578931202485222 0.13668841727045022 -0.13502717641863862 -0.0016612408518114324 0.01704068978387148 0.0 0.0
0.0 0.1491866239879498 0.12865470831967513 -0.12706620563151483 -0.0015885026881602823 0.02694727585533743 0.0 0.0
0.0 0.13658207089572783 0.11736045885877518 -0.11586303250102693 -0.0014974263577482577 0.03145057751352997 0.0 0.0
0.0 0.12170789580873594 0.10422410990196493 -0.10281848359008383 -0.0014056263118810703 0.032219201054183966 0.0 0.0
0.0 0.10600749327856865 0.09044316167885236 -0.08912259622733086 -0.0013205654515215548 0.030841449539039577 0.0 0.0
0.0 0.09011243330046442 0.07681197984307761 -0.07557244439612512 -0.001239535446952537 0.028305692314906435 0.0 0.0
0.0 0.07494597904863298 0.06379220444976999 -0.06263327001007221 -0.0011589344396977716 0.025175143682851883 0.0 0.0
0.0 0.060846426289957296 0.05164588766715229 -0.05056828342708713 -0.0010776042400651212 0.02180502715321705 0.0 0.0
0.0 0.04776237707842945 0.04051569278183188 -0.0395197990451579 -0.0009958937366739762 0.018385467738207456 0.0 0.0
0.0 0.03597347162839945 0.030465879224740186 -0.02955300287197782 -0.000912876352762363 0.014915802333684638 0.0 0.0
0.0 0.025487931673746314 0.021568130895111254 -0.020741913075119186 -0.000826217819992074 0.011360180583663556 0.0 0.0
0.0 0.01651600085219973 0.013974585821450773 -0.013243044390611103 -0.0007315414308396635 0.007888150961708505 0.0 0.0
0.0 0.009380065676437802 0.007909220300667034 -0.00729751248980166 -0.0006117078108653739 0.004793656416271932 0.0 0.0
0.0 0.0043993904702918606 0.0035895445659599946 -0.003165812524598298 -0.0004237320413616972 0.00242473153593489 0.0 0.0
0.0 0.0013750875796978825 0.0010899656574743116 -0.0009087132391758122 -0.00018125241829849883 0.0009109639383443555 0.0 0.0
0.0 0.00017079837453669024 0.00012328049563615833 -9.882497201725462e-05 -2.4455523618903637e-05 0.00014269125575171315 0.0 0.0
0.0 1.0190087066763615e-06 4.979289869343428e-07 -3.8077098851745637e-07 -1.1715799841688431e-07 7.314709583040647e-07 0.0 0.0
0.0 0.0 0.0 0.0 0.0 0.0 0.0 0.0
0.0 0.0 0.0 0.0 0.0 0.0 0.0 0.0
0.0 0.004511270267282432 0.0028817635801113564 -0.0033276911455299867 0.00044592756541862873 0.0039129451813418375 0.0 0.0
0.0 0.0031368534605847815 0.0019448725565509085 -0.002308548549916323 0.0003636759933654143 -0.002770954260478 0.0 0.0
0.0 0.0 0.0 0.0 0.0 0.0 0.0 0.0
0.0 0.0 0.0 0.0 0.0 0.0 0.0 0.0
0.0 1.2459832782016668e-06 -8.711175530045244e-08 6.722946238267231e-08 1.9882292917777628e-08 2.0432140011233723e-07 0.0 0.0
0.0 7.503599759336896e-05 4.296019050291646e-05 -3.4352670704636035e-05 -8.607519798280433e-06 -7.453666741626686e-05 0.0 0.0
0.0 0.0007706008295181875 0.0005803941010135602 -0.00047664662212906366 -0.0001037474788844963 -0.0007187455493048287 0.0 0.0
0.0 0.0029903142292205427 0.0023553694956393195 -0.0020325756112198764 -0.00032279388441944267 -0.002225324753883038 0.0 0.0
0.0 0.007076746230599709 0.005732375922882065 -0.005196526786327217 -0.000535849136554847 -0.0046009191005812085 0.0 0.0
0.0 0.012973633415009095 0.01067914428187057 -0.010002806041708617 -0.0006763382401619497 -0.007785822935419953 0.0 0.0
0.0 0.020418519859509328 0.01692923364417396 -0.016156800785913333 -0.0007724328582606246 -0.011405030835321376 0.0 0.0
0.0 0.02909843025798079 0.024228951682537244 -0.023375804577038563 -0.0008531471054986824 -0.01508329177422217 0.0 0.0
0.0 0.03883496061717194 0.03244048726965342 -0.0315123264257102 -0.0009281608439432182 -0.018676483800317327 0.0 0.0
0.0 0.049563280164073464 0.041522426594001315 -0.040522305591209916 -0.0010001210027913913 -0.02222339168506587 0.0 0.0
0.0 0.0612632809781555 0.05145823168495366 -0.05038759100580289 -0.0010706406791507817 -0.02571032371814841 0.0 0.0
0.0 0.0738665467140772 0.062177265057576994 -0.06103650705752446 -0.0011407580000525538 -0.028975169799733812 0.0 0.0
0.0 0.08689226000712538 0.07350651046712925 -0.07229698300262202 -0.0012095274645072315 -0.03169301023450239 0.0 0.0
0.0 0.10039341598055752 0.08514831499008782 -0.08386941990848344 -0.0012788950816043426 -0.03334431756611511 0.0 0.0
0.0 0.11342868279482896 0.09662049488612606 -0.09526605672150484 -0.0013544381646212048 -0.03297217907223489 0.0 0.0
0.0 0.1247743498732331 0.10706605756492463 -0.10563003499058791 -0.0014360225743366639 -0.02870688784429234 0.0 0.0
0.0 0.13343660591363432 0.11523028391345375 -0.11371925924407436 -0.001511024669379318 -0.018408101981347808 0.0 0.0
0.0 0.13343660591362005 0.11523028391343963 -0.113719259244059 -0.0015110246693805908 0.018408101981406667 0.0 0.0
0.0 0.1247743498732008 0.10706605756489229 -0.10563003499055401 -0.0014360225743382897 0.02870688784436801 0.0 0.0
0.0 0.11342868279479087 0.09662049488608757 -0.09526605672146739 -0.001354438164620199 0.032972179072291066 0.0 0.0
0.0 0.10039341598050777 0.08514831499004175 -0.08386941990843794 -0.0012788950816037955 0.03334431756613833 0.0 0.0
0.0 0.08689226000706507 0.07350651046707718 -0.07229698300257027 -0.0012095274645068934 0.03169301023449257 0.0 0.0
0.0 0.0738665467140152 0.06217726505752313 -0.061036507057471885 -0.0011407580000512407 0.02897516979971969 0.0 0.0
0.0 0.06126328097809379 0.05145823168490006 -0.050387591005749716 -0.0010706406791503498 0.02571032371813579 0.0 0.0
0.0 0.04956328016401925 0.041522426593953915 -0.04052230559116346 -0.0010001210027904713 0.022223391685055653 0.0 0.0
0.0 0.03883496061711619 0.03244048726960605 -0.03151232642566369 -0.0009281608439423497 0.01867648380029615 0.0 0.0
0.0 0.0290984302579275 0.02422895168249287 -0.023375804576994407 -0.0008531471054984707 0.015083291774196313 0.0 0.0
0.0 0.020418519859462646 0.016929233644136177 -0.016156800785875763 -0.0007724328582604087 0.011405030835290717 0.0 0.0
0.0 0.012973633414974593 0.010679144281841892 -0.01000280604168056 -0.0006763382401613244 0.007785822935400673 0.0 0.0
0.0 0.007076746230575949 0.005732375922862977 -0.005196526786308785 -0.0005358491365541925 0.004600919100566616 0.0 0.0
0.0 0.0029903142292065747 0.002355369495628439 -0.0020325756112100366 -0.0003227938844184019 0.0022253247538740694 0.0 0.0
0.0 0.0007706008295111623 0.0005803941010088084 -0.000476646622125068 -0.00010374747888374038 0.0007187455492993274 0.0 0.0
0.0 7.503599759207145e-05 4.296019050267605e-05 -3.435267070442445e-05 -8.607519798251607e-06 7.453666741574156e-05 0.0 0.0
0.0 1.245983277765114e-06 -8.711175526903953e-08 6.722946235833695e-08 1.9882292910690027e-08 -2.0432140003799813e-07 0.0 0.0
0.0 0.0 0.0 0.0 0.0 0.0 0.0 0.0
0.0 0.0 0.0 0.0 0.0 0.0 0.0 0.0
0.0 0.0031368534605728275 0.0019448725565434299 -0.0023085485499080797 0.00036367599336464975 0.002770954260467053 0.0 0.0
0.0 0.0020475118749842245 0.0012132856879835266 -0.0014813315062150575 0.0002680458182315308 -0.00182625769834291 0.0 0.0
0.0 5.610935232125803e-07 -8.037160125762508e-09 8.338978319598262e-09 -3.018181938355691e-10 1.1164998698213293e-07 0.0 0.0
0.0 3.152167117633121e-07 -9.354402161032181e-09 6.627145909053401e-09 2.7272562519795243e-09 6.183255733803838e-08 0.0 0.0
0.0 1.343535810957597e-06 -6.745450613659108e-08 5.1836617700734505e-08 1.5617888435866596e-08 2.5068220686766373e-07 0.0 0.0
0.0 4.027902175528227e-05 1.9467899682020115e-05 -1.5465548301943896e-05 -4.002351380076231e-06 -5.0209039482071644e-05 0.0 0.0
0.0 0.0004164546677558314 0.00025089722491374673 -0.00020383913891856636 -4.705808599518051e-05 -0.00046874855897798516 0.0 0.0
0.0 0.0018457314927322933 0.0013337667271944333 -0.001124481968299639 -0.00020928475889479456 -0.0018157357227122843 0.0 0.0
0.0 0.004891507298683557 0.0037457389325650137 -0.003316028469721466 -0.0004297104628435451 -0.004060926215626375 0.0 0.0
0.0 0.009541041521353962 0.007513652286249159 -0.006916418935750726 -0.0005972333504984265 -0.007066249606844196 0.0 0.0
0.0 0.015439605400002408 0.012386927464817236 -0.011682008205032974 -0.0007049192597842548 -0.010563885275853016 0.0 0.0
0.0 0.02230315389729485 0.018079624531061853 -0.017296987881498457 -0.0007826366495633948 -0.014168048654458216 0.0 0.0
0.0 0.02996201515039308 0.024453883820549367 -0.023602968867694567 -0.0008509149528548059 -0.017672276670619855 0.0 0.0
0.0 0.03839844041144366 0.0314878348027304 -0.030574337809643103 -0.0009134969930872867 -0.02111827504621902 0.0 0.0
0.0 0.04756581229235539 0.03920859315777793 -0.038235487430692904 -0.0009731057270850052 -0.024524570263357085 0.0 0.0
0.0 0.057509273732192716 0.047610616500046346 -0.04657867089064543 -0.00103194560940093 -0.027735644962009694 0.0 0.0
0.0 0.06803806250152822 0.05660203899357533 -0.05551116398671275 -0.0010908750068626218 -0.030430182167862353 0.0 0.0
0.0 0.07886957647713909 0.06602320557610478 -0.06487890996400332 -0.0011442956121014225 -0.0322327091873725 0.0 0.0
0.0 0.08983671391124147 0.07571336857087671 -0.07451423400555542 -0.0011991345653212945 -0.032413305190685554 0.0 0.0
0.0 0.10035594713403112 0.08526041126943917 -0.08399200168800713 -0.0012684095814320235 -0.02904727650930056 0.0 0.0
0.0 0.10915697806044414 0.09364694704520493 -0.0922975859430159 -0.0013493611021889943 -0.01943371849732815 0.0 0.0
0.0 0.10915697806044179 0.09364694704519966 -0.09229758594301163 -0.0013493611021880036 0.019433718497385517 0.0 0.0
0.0 0.10035594713401819 0.08526041126942088 -0.0839920016879903 -0.001268409581430692 0.029047276509376663 0.0 0.0
0.0 0.08983671391121996 0.07571336857085144 -0.07451423400553085 -0.0011991345653205117 0.032413305190743785 0.0 0.0
0.0 0.07886957647710213 0.06602320557606897 -0.06487890996396804 -0.0011442956121009494 0.032232709187397075 0.0 0.0
0.0 0.06803806250148103 0.05660203899353462 -0.05551116398667235 -0.0010908750068622686 0.030430182167852322 0.0 0.0
0.0 0.057509273732139723 0.047610616500001424 -0.0465786708906004 -0.0010319456094010089 0.02773564496199292 0.0 0.0
0.0 0.0475658122923078 0.039208593157736935 -0.038235487430652464 -0.0009731057270844578 0.024524570263344665 0.0 0.0
0.0 0.03839844041140028 0.03148783480269276 -0.030574337809606146 -0.0009134969930865931 0.02111827504620791 0.0 0.0
0.0 0.02996201515034898 0.024453883820512723 -0.02360296886765837 -0.0008509149528543626 0.017672276670598112 0.0 0.0
0.0 0.022303153897254797 0.018079624531029327 -0.017296987881466414 -0.0007826366495628956 0.014168048654434072 0.0 0.0
0.0 0.015439605399964366 0.012386927464787647 -0.011682008205003893 -0.0007049192597837489 0.010563885275823748 0.0 0.0
0.0 0.00954104152132636 0.0075136522862276 -0.006916418935729536 -0.0005972333504980634 0.007066249606825961 0.0 0.0
0.0 0.004891507298665084 0.003745738932550796 -0.003316028469708212 -0.0004297104628425822 0.004060926215613242 0.0 0.0
0.0 0.001845731492722593 0.0013337667271875078 -0.0011244819682934668 -0.0002092847588940404 0.0018157357227041994 0.0 0.0
0.0 0.0004164546677521548 0.0002508972249119141 -0.00020383913891707713 -4.7058085994836756e-05 0.00046874855897474134 0.0 0.0
0.0 4.0279021754166744e-05 1.9467899682062948e-05 -1.546554830197357e-05 -4.002351380089388e-06 5.020903948217128e-05 0.0 0.0
0.0 1.343535810551308e-06 -6.74545061154224e-08 5.1836617684484416e-08 1.561788843093987e-08 -2.5068220678900275e-07 0.0 0.0
0.0 3.152167115246035e-07 -9.35440215378019e-09 6.627145903901019e-09 2.7272562498794715e-09 -6.183255729017234e-08 0.0 0.0
0.0 5.610935225658215e-07 -8.037160116491167e-09 8.3389783100577e-09 -3.018181935663175e-10 -1.1164998685127716e-07 0.0 0.0
0.0 0.002047511874975211 0.0012132856879783327 -0.0014813315062091699 0.00026804581823083634 0.0018262576983349914 0.0 0.0
0.0 0.0011980489471201277 0.0006658842294428341 -0.0008388669400272555 0.00017298271058442113 -0.0010711271964185098 0.0 0.0
0.0 1.433144001499885e-06 4.401475294032603e-08 -4.2788649693920834e-08 -1.226103246406521e-09 -1.0419602708470734e-06 0.0 0.0
0.0 6.305102464673167e-07 -7.0898921551877894e-09 5.074535917472657e-09 2.0153562377156586e-09 1.2874703632778445e-07 0.0 0.0
0.0 1.4774478915581289e-06 1.1379787224825248e-07 -9.196279590650251e-08 -2.18350763417478e-08 -8.461694071671267e-07 0.0 0.0
0.0 3.239453807590557e-05 1.1173846739327479e-05 -8.83562726320979e-06 -2.3382194761177014e-06 -4.5210019856028086e-05 0.0 0.0
0.0 0.00022267339213780758 9.854082887781496e-05 -7.945097530309361e-05 -1.908985357472136e-05 -0.0002974522042293207 0.0 0.0
0.0 0.001011208451846848 0.0005945139738197749 -0.0004904408593552348 -0.00010407311446453978 -0.0012688631455094045 0.0 0.0
0.0 0.002972273376771158 0.0020311772591461866 -0.001743802238534634 -0.00028737502061155254 -0.003189121229428316 0.0 0.0
0.0 0.006295802918757522 0.004574128591030754 -0.004098242357354182 -0.000475886233676568 -0.005811036060237646 0.0 0.0
0.0 0.010545811477822653 0.008019882908801948 -0.007412689520560791 -0.0006071933882411567 -0.008884997322839263 0.0 0.0
0.0 0.01566916083602942 0.012081085404804435 -0.011389145440652488 -0.0006919399641519423 -0.012125691596580864 0.0 0.0
0.0 0.02121547081520301 0.016618472337391547 -0.015861815345322734 -0.0007566569920688126 -0.015323212576734137 0.0 0.0
0.0 0.027312996210639876 0.02161086122941351 -0.02079920092457277 -0.0008116603048407431 -0.018468850690532314 0.0 0.0
0.0 0.03400935198810259 0.027111051108757674 -0.026250296226219577 -0.0008607548825380895 -0.021569253212441117 0.0 0.0
0.0 0.04136948686729658 0.033177012727672706 -0.03226921363487052 -0.0009077990928021726 -0.024537774900106286 0.0 0.0
0.0 0.049219693994223754 0.0398069584401478 -0.038850745541327406 -0.0009562128988203856 -0.027076814565022967 0.0 0.0
0.0 0.0575500982677353 0.046937171734929645 -0.04593658266438392 -0.0010005890705457167 -0.028799664452774876 0.0 0.0
0.0 0.06623503141503602 0.05464181626938876 -0.05361069638053973 -0.0010311198888490038 -0.029455464903348515 0.0 0.0
0.0 0.07537936965213138 0.06307806971103362 -0.06200133227455787 -0.0010767374364757183 -0.02764014435502074 0.0 0.0
0.0 0.0842578979618942 0.07169599887450129 -0.07053087663156592 -0.0011651222429354166 -0.02000999488057188 0.0 0.0
0.0 0.08425789796188927 0.071695998874494 -0.07053087663155788 -0.0011651222429361467 0.020009994880621287 0.0 0.0
0.0 0.07537936965211678 0.06307806971101446 -0.06200133227453751 -0.0010767374364769483 0.027640144355088235 0.0 0.0
0.0 0.06623503141501422 0.054641816269363305 -0.05361069638051394 -0.0010311198888493635 0.02945546490339935 0.0 0.0
0.0 0.05755009826770502 0.04693717173490015 -0.0459365826643553 -0.0010005890705448814 0.028799664452791075 0.0 0.0
0.0 0.049219693994188844 0.03980695844011836 -0.03885074554129919 -0.0009562128988191596 0.02707681456500957 0.0 0.0
0.0 0.04136948686726051 0.033177012727642397 -0.03226921363484125 -0.0009077990928011646 0.02453777490009172 0.0 0.0
0.0 0.03400935198806572 0.027111051108727004 -0.026250296226188886 -0.0008607548825381329 0.021569253212427694 0.0 0.0
0.0 0.027312996210607392 0.021610861229386054 -0.020799200924545076 -0.0008116603048409835 0.018468850690522006 0.0 0.0
0.0 0.021215470815171916 0.01661847233736663 -0.015861815345298326 -0.0007566569920682935 0.015323212576715279 0.0 0.0
0.0 0.015669160836000683 0.012081085404781776 -0.011389145440630761 -0.0006919399641510068 0.012125691596560536 0.0 0.0
0.0 0.0105458114777951 0.008019882908781863 -0.00741268952054136 -0.0006071933882405008 0.008884997322814787 0.0 0.0
0.0 0.006295802918737831 0.004574128591015959 -0.00409824235734027 -0.0004758862336756881 0.00581103606022217 0.0 0.0
0.0 0.0029722733767586574 0.0020311772591372563 -0.0017438022385265503 -0.00028737502061070567 0.0031891212294168176 0.0 0.0
0.0 0.0010112084518400805 0.0005945139738157617 -0.0004904408593518405 -0.000104073114463921 0.001268863145502459 0.0 0.0
0.0 0.00022267339213510087 9.854082887698859e-05 -7.94509753024023e-05 -1.9089853574586263e-05 0.0002974522042267574 0.0 0.0
0.0 3.239453807512154e-05 1.1173846739327914e-05 -8.835627263206433e-06 -2.338219476121473e-06 4.521001985604132e-05 0.0 0.0
0.0 1.4774478914882266e-06 1.1379787238484705e-07 -9.196279601016838e-08 -2.1835076374681664e-08 8.461694080412738e-07 0.0 0.0
0.0 6.305102458760242e-07 -7.089892147158693e-09 5.074535912009278e-09 2.015356235150372e-09 -1.2874703620679312e-07 0.0 0.0
0.0 1.4331440009796366e-06 4.401475298228586e-08 -4.278864974272722e-08 -1.2261032395586827e-09 1.0419602718725245e-06 0.0 0.0
0.0 0.0011980489471135514 0.0006658842294395022 -0.000838866940023279 0.0001729827105837772 0.0010711271964132757 0.0 0.0
0.0 0.0005459892408415807 0.00029815914819229577 -0.0003908780865939345 9.271893840163906e-05 -0.0005187200995022743 0.0 0.0
0.0 2.7370841735495695e-06 1.0782379470693005e-08 -1.5283363676035083e-08 4.500984205342289e-09 -7.144323446133473e-07 0.0 0.0
0.0 1.4805847791174642e-06 1.1979239700895353e-08 -5.1242279954281545e-09 -6.855011705467537e-09 -9.891451187944398e-07 0.0 0.0
0.0 3.96773035256483e-06 2.8874812620846976e-07 -2.0341767101697766e-07 -8.533045519148892e-08 -4.133614410541206e-06 0.0 0.0
0.0 3.437011983170269e-05 6.807295347294713e-06 -5.3029274016407095e-06 -1.504367945654006e-06 -5.2062748730441644e-05 0.0 0.0
0.0 0.00016097343329489125 4.169198664980411e-05 -3.353282357194836e-05 -8.159163077855748e-06 -0.0002325682591292907 0.0 0.0
0.0 0.0005272278152272124 0.00019241559377132007 -0.0001562265750759904 -3.6189018695329534e-05 -0.0007785172260902298 0.0 0.0
0.0 0.0014721692841458973 0.0007411544784752555 -0.0006143157113201446 -0.000126838767155111 -0.0020671664708002066 0.0 0.0
0.0 0.0033618987947208645 0.002013672325065297 -0.0017285687489430146 -0.00028510357612228257 -0.004063926024063829 0.0 0.0
0.0 0.006009856557498819 0.003963743542389629 -0.0035266331362445967 -0.0004371104061450339 -0.006451704950130539 0.0 0.0
0.0 0.00916303829626252 0.0063595451428116005 -0.005813662236785207 -0.0005458829060263924 -0.009031613496477261 0.0 0.0
0.0 0.01274554704765462 0.00904141163228577 -0.008422967341557982 -0.0006184442907277836 -0.011660153867354986 0.0 0.0
0.0 0.016614928853387067 0.01199736589502096 -0.011324160084362654 -0.0006732058106583052 -0.014313900076861005 0.0 0.0
0.0 0.02087017178815763 0.015281746374945887 -0.014565891528411742 -0.0007158548465341337 -0.016939538564149852 0.0 0.0
0.0 0.025581294065077 0.01898743222069843 -0.018235792253700683 -0.0007516399669977425 -0.01949432916931044 0.0 0.0
0.0 0.030796169143389895 0.023216832836578032 -0.022429894222350345 -0.0007869386142276923 -0.02180409597938737 0.0 0.0
0.0 0.03652707227905945 0.02802974494076317 -0.027203120627728977 -0.000826624313034222 -0.023445147745278512 0.0 0.0
0.0 0.042871097065647776 0.03356894742948497 -0.032717778158518535 -0.0008511692709664364 -0.02419957367284977 0.0 0.0
0.0 0.05047033178656307 0.0404193700415831 -0.03957053301313855 -0.000848837028444542 -0.023966897983284798 0.0 0.0
0.0 0.059294658456929196 0.04905359276608234 -0.04811942264006985 -0.0009341701260124912 -0.019810202867486967 0.0 0.0
0.0 0.05929465845693032 0.049053592766079214 -0.04811942264006666 -0.0009341701260125678 0.01981020286753008 0.0 0.0
0.0 0.05047033178656224 0.04041937004157441 -0.03957053301313043 -0.0008488370284439521 0.023966897983346835 0.0 0.0
0.0 0.042871097065638575 0.03356894742946973 -0.03271777815850417 -0.0008511692709655483 0.024199573672893868 0.0 0.0
0.0 0.03652707227903697 0.028029744940741834 -0.02720312062770732 -0.0008266243130345121 0.023445147745287484 0.0 0.0
0.0 0.030796169143358542 0.0232168328365545 -0.022429894222326104 -0.0007869386142283883 0.021804095979368603 0.0 0.0
0.0 0.025581294065052253 0.018987432220680184 -0.018235792253681975 -0.0007516399669982035 0.019494329169293736 0.0 0.0
0.0 0.020870171788141413 0.015281746374932985 -0.014565891528398899 -0.000715854846534089 0.016939538564142962 0.0 0.0
0.0 0.01661492885337176 0.011997365895007975 -0.011324160084350075 -0.000673205810657905 0.014313900076856678 0.0 0.0
0.0 0.012745547047634174 0.009041411632271203 -0.008422967341543734 -0.0006184442907274651 0.011660153867338523 0.0 0.0
0.0 0.00916303829624385 0.006359545142799124 -0.005813662236772968 -0.0005458829060261558 0.009031613496459341 0.0 0.0
0.0 0.0060098565574813745 0.003963743542378968 -0.0035266331362344585 -0.00043711040614450707 0.006451704950111223 0.0 0.0
0.0 0.0033618987947092354 0.002013672325057699 -0.00172856874893606 -0.0002851035761216382 0.004063926024051637 0.0 0.0
0.0 0.0014721692841400112 0.0007411544784718943 -0.0006143157113173336 -0.00012683876715456063 0.002067166470793561 0.0 0.0
0.0 0.0005272278152235287 0.00019241559377008408 -0.00015622657507494993 -3.618901869513407e-05 0.0007785172260856598 0.0 0.0
0.0 0.00016097343329392252 4.169198664993935e-05 -3.3532823572053196e-05 -8.159163077886133e-06 0.00023256825912960433 0.0 0.0
0.0 3.437011983125787e-05 6.8072953473258224e-06 -5.3029274016641165e-06 -1.5043679456617051e-06 5.2062748730669584e-05 0.0 0.0
0.0 3.967730352431205e-06 2.887481262564926e-07 -2.0341767104985369e-07 -8.533045520663622e-08 4.133614411261866e-06 0.0 0.0
0.0 1.4805847790612496e-06 1.1979239709981861e-08 -5.124227998100721e-09 -6.855011711880671e-09 9.891451195673489e-07 0.0 0.0
0.0 2.7370841733500343e-06 1.0782379497866354e-08 -1.528336371865805e-08 4.500984220791362e-09 7.144323456337133e-07 0.0 0.0
0.0 0.0005459892408371716 0.0002981591481903858 -0.0003908780865916094 9.271893840122339e-05 0.0005187200994988084 0.0 0.0
0.0 0.0001691721147170787 8.808443348252114e-05 -0.0001210852124476493 3.300077896512813e-05 -0.00016336929365412658 0.0 0.0
0.0 3.743052714550666e-06 -4.617465191016325e-09 -1.2232223886904068e-08 1.6849689077921637e-08 -1.940531433144848e-06 0.0 0.0
0.0 4.945761849711292e-06 -1.847551783738614e-07 1.7616987957596491e-07 8.585298797897173e-09 -5.390704568419106e-06 0.0 0.0
0.0 8.328154047043343e-06 -1.334549375025452e-07 1.8741427135830107e-07 -5.395933385575513e-08 -1.2410557524909912e-05 0.0 0.0
0.0 4.112925698313954e-05 1.5816201896324495e-06 -1.080975882457916e-06 -5.006443071745398e-07 -5.9011959917689615e-05 0.0 0.0
0.0 0.00015156928599599837 1.2362890527746437e-05 -9.805666209878862e-06 -2.557224317867555e-06 -0.00023466660198822583 0.0 0.0
0.0 0.0003674781531855003 4.3784494935578225e-05 -3.541848835715298e-05 -8.366006578425278e-06 -0.0005971793271277336 0.0 0.0
0.0 0.0007581758264044387 0.00011995377013262459 -9.757296363873987e-05 -2.2380806493884614e-05 -0.001195533976060953 0.0 0.0
0.0 0.0013859140220552956 0.0003153607265203748 -0.0002570659744863573 -5.8294752034017234e-05 -0.002234636258556268 0.0 0.0
0.0 0.0024471861806519145 0.0007194005105912433 -0.0005874501866842703 -0.00013195032390697292 -0.0037197907427430864 0.0 0.0
0.0 0.0037372393277526005 0.0013369884951957432 -0.0011078647651566527 -0.00022912373003909005 -0.005562429240395024 0.0 0.0
0.0 0.005387616600520393 0.0021174466918123186 -0.0018018075714422341 -0.00031563912037008374 -0.00760558911209668 0.0 0.0
0.0 0.007255379335099177 0.0030278367469303894 -0.0026425229897164863 -0.0003853137572139018 -0.009790383559291857 0.0 0.0
0.0 0.009374764737917273 0.004089533213755998 -0.003651592761292799 -0.0004379404524632004 -0.012098482373641374 0.0 0.0
0.0 0.011759847788336891 0.005405941705020138 -0.00492929796272296 -0.0004766437422971749 -0.014500030839336726 0.0 0.0
0.0 0.014544515268059804 0.007165225443357609 -0.006657620703182897 -0.0005076047401747112 -0.016835347103495605 0.0 0.0
0.0 0.017759236871218186 0.009622076751485674 -0.009080115268528388 -0.0005419614829572824 -0.018672057952108224 0.0 0.0
0.0 0.021483443357566287 0.01298992652951999 -0.01240161940768653 -0.0005883071218334536 -0.01937000534921829 0.0 0.0
0.0 0.026566776900492573 0.017739640890248022 -0.017156930555741436 -0.0005827103345065824 -0.019295642987783208 0.0 0.0
0.0 0.03447811290781575 0.025465617714662058 -0.024896501729991055 -0.0005691159846709974 -0.018729221222787956 0.0 0.0
0.0 0.03447811290782209 0.025465617714663893 -0.024896501729992956 -0.0005691159846709342 0.01872922122281948 0.0 0.0
0.0 0.026566776900501125 0.01773964089024773 -0.017156930555741384 -0.0005827103345063562 0.019295642987831436 0.0 0.0
0.0 0.021483443357562127 0.012989926529511595 -0.012401619407677976 -0.0005883071218336165 0.019370005349246256 0.0 0.0
0.0 0.017759236871205817 0.009622076751476602 -0.00908011526851964 -0.0005419614829569565 0.018672057952106996 0.0 0.0
0.0 0.014544515268046315 0.0071652254433519 -0.006657620703177826 -0.0005076047401740722 0.01683534710347917 0.0 0.0
0.0 0.0117598477883273 0.005405941705016765 -0.004929297962720015 -0.0004766437422967499 0.014500030839323384 0.0 0.0
0.0 0.009374764737908804 0.004089533213752644 -0.003651592761289589 -0.00043794045246305563 0.012098482373632312 0.0 0.0
0.0 0.00725537933509271 0.0030278367469290905 -0.002642522989715372 -0.0003853137572137192 0.009790383559282679 0.0 0.0
0.0 0.0053876166005131084 0.0021174466918109135 -0.0018018075714411649 -0.000315639120369748 0.0076055891120856665 0.0 0.0
0.0 0.0037372393277444248 0.001336988495193648 -0.0011078647651549787 -0.00022912373003866946 0.0055624292403828775 0.0 0.0
0.0 0.002447186180644159 0.0007194005105894424 -0.0005874501866828428 -0.00013195032390659998 0.0037197907427320423 0.0 0.0
0.0 0.0013859140220518025 0.0003153607265194801 -0.00025706597448565965 -5.829475203382012e-05 0.002234636258550567 0.0 0.0
0.0 0.0007581758264026558 0.00011995377013231469 -9.75729636384726e-05 -2.238080649384201e-05 0.0011955339760580208 0.0 0.0
0.0 0.000367478153183416 4.3784494935442375e-05 -3.5418488357019956e-05 -8.366006578422402e-06 0.0005971793271257706 0.0 0.0
0.0 0.0001515692859942032 1.2362890527710841e-05 -9.80566620984149e-06 -2.5572243178693496e-06 0.00023466660198691308 0.0 0.0
0.0 4.1129256981772076e-05 1.5816201896261622e-06 -1.080975882452286e-06 -5.006443071738802e-07 5.901195991737232e-05 0.0 0.0
0.0 8.328154046784308e-06 -1.3345493751322156e-07 1.8741427137011675e-07 -5.3959333856895287e-08 1.2410557525469098e-05 0.0 0.0
0.0 4.9457618490359135e-06 -1.8475517840564567e-07 1.761698796042544e-07 8.58529880139056e-09 5.3907045691945066e-06 0.0 0.0
0.0 3.7430527142427156e-06 -4.6174651947454645e-09 -1.22322238972279e-08 1.6849689091975895e-08 1.9405314339237448e-06 0.0 0.0
0.0 0.00016917211471508133 8.808443348188803e-05 -0.00012108521244679286 3.3000778964904796e-05 0.00016336929365313443 0.0 0.0
0.0 2.1642372309967026e-05 9.986341437827868e-06 -1.4363776594960029e-05 4.377435157132148e-06 -2.0323151883090077e-05 0.0 0.0
0.0 3.405286651371318e-06 -7.854650890985725e-08 3.4935835463239863e-08 4.3610673446622266e-08 -2.192320176779451e-06 0.0 0.0
0.0 7.46866671442196e-06 -7.795065356464929e-07 6.654395350278067e-07 1.1406700061868676e-07 -9.584769230237211e-06 0.0 0.0
0.0 1.409651210024301e-05 -1.6936167317265169e-06 1.4946168843838178e-06 1.9899984734270114e-07 -2.0593783431773364e-05 0.0 0.0
0.0 4.911967962801707e-05 -4.8642408647254125e-06 4.195726696796782e-06 6.685141679286387e-07 -7.00151604602467e-05 0.0 0.0
0.0 0.00016080513348342283 -1.6113110019710776e-05 1.3284544307226758e-05 2.828565712484011e-06 -0.00024167877790020405 0.0 0.0
0.0 0.00037349557309748435 -4.672821624792641e-05 3.7978699648685776e-05 8.74951659924061e-06 -0.0006072063085927066 0.0 0.0
0.0 0.0007617790561905664 -0.0001214046478667708 9.874924953805171e-05 2.2655398328719027e-05 -0.0012024487282764167 0.0 0.0
0.0 0.0013856486481793225 -0.0003154992292390752 0.00025718936329215244 5.830986594692256e-05 -0.002236467001062532 0.0 0.0
0.0 0.0024464007375859633 -0.000719011615119846 0.0005871896640343367 0.00013182195108550927 -0.003719507155257339 0.0 0.0
0.0 0.0037537677418295256 -0.0013432268290201586 0.0011149350984523644 0.00022829173056779386 -0.00556771444552533 0.0 0.0
0.0 0.005420109022893141 -0.002155773240579785 0.0018400517723772174 0.0003157214682025664 -0.0076236289023090915 0.0 0.0
0.0 0.00731890305594259 -0.003107342924622512 0.0027189849098348397 0.0003883580147876699 -0.009806819618202442 0.0 0.0
0.0 0.00940175025675165 -0.004136007510847431 0.003686693451925271 0.00044931405892215625 -0.012092071584879053 0.0 0.0
0.0 0.01149741162094068 -0.0051011016617997585 0.0045991012291165525 0.0005020004326832075 -0.014468594153155628 0.0 0.0
0.0 0.013438858958735575 -0.0057343815793946245 0.0051862758671294305 0.0005481057122651874 -0.01688910773998895 0.0 0.0
0.0 0.014880752569975822 -0.005651235216453389 0.005063550920172316 0.0005876842962810743 -0.01933880840628443 0.0 0.0
0.0 0.015708458100398417 -0.004578508040390006 0.003968289503679813 0.0006102185367101895 -0.021907677861095994 0.0 0.0
0.0 0.015925490491893707 -0.002523706870058734 0.0019385612405574495 0.000585145629501282 -0.024213723129192562 0.0 0.0
0.0 0.01582615653186375 0.0035697277895360836 -0.0036258941932958756 5.616640375978956e-05 -0.023399535364842156 0.0 0.0
0.0 0.015826156531869258 0.0035697277895361417 -0.0036258941932960564 5.616640375991793e-05 0.023399535364856755 0.0 0.0
0.0 0.015925490491897565 -0.0025237068700595068 0.0019385612405574937 0.0005851456295020096 0.024213723129205937 0.0 0.0
0.0 0.01570845810039135 -0.004578508040386281 0.0039682895036757555 0.0006102185367105222 0.02190767786109781 0.0 0.0
0.0 0.01488075256996103 -0.005651235216446055 0.005063550920165074 0.0005876842962809787 0.01933880840627173 0.0 0.0
0.0 0.01343885895871741 -0.005734381579384014 0.0051862758671191705 0.0005481057122648374 0.016889107739971477 0.0 0.0
0.0 0.011497411620925265 -0.005101101661791575 0.004599101229108858 0.0005020004326827118 0.014468594153139792 0.0 0.0
0.0 0.009401750256736011 -0.004136007510837533 0.0036866934519158667 0.000449314058921665 0.012092071584867546 0.0 0.0
0.0 0.0073189030559286 -0.003107342924613678 0.00271898490982642 0.00038835801478725616 0.009806819618191232 0.0 0.0
0.0 0.00542010902287723 -0.0021557732405711773 0.0018400517723691852 0.0003157214682019915 0.007623628902293233 0.0 0.0
0.0 0.0037537677418171675 -0.001343226829014462 0.001114935098447296 0.0002282917305671657 0.00556771444550997 0.0 0.0
0.0 0.0024464007375749742 -0.0007190116151155787 0.0005871896640308211 0.00013182195108475705 0.003719507155245267 0.0 0.0
0.0 0.0013856486481748607 -0.0003154992292372982 0.00025718936329065776 5.8309865946640505e-05 0.0022364670010564126 0.0 0.0
0.0 0.0007617790561883456 -0.00012140464786616675 9.874924953756983e-05 2.2655398328596967e-05 0.001202448728273369 0.0 0.0
0.0 0.00037349557309512415 -4.672821624771334e-05 3.797869964855336e-05 8.749516599159987e-06 0.0006072063085901097 0.0 0.0
0.0 0.00016080513348185125 -1.6113110019684467e-05 1.3284544307211591e-05 2.828565712472892e-06 0.00024167877789942256 0.0 0.0
0.0 4.91196796266745e-05 -4.8642408647230535e-06 4.1957266967938e-06 6.685141679292474e-07 7.001516046025786e-05 0.0 0.0
0.0 1.4096512099910461e-05 -1.6936167317702985e-06 1.4946168844219409e-06 1.9899984734835715e-07 2.0593783432264318e-05 0.0 0.0
0.0 7.468666713791484e-06 -7.795065357093399e-07 6.654395350802703e-07 1.140670006290702e-07 9.584769230911473e-06 0.0 0.0
0.0 3.4052866510536216e-06 -7.854650892650263e-08 3.493583544804261e-08 4.361067347846491e-08 2.1923201777536044e-06 0.0 0.0
0.0 2.16423723093918e-05 9.986341437989455e-06 -1.4363776595172604e-05 4.377435157183148e-06 2.0323151883616576e-05 0.0 0.0
0.0 1.2794705618513804e-06 -7.325646252627723e-08 1.1123042410747284e-07 -3.797396158117645e-08 1.788907911065407e-07 0.0 0.0
0.0 2.3508644526630845e-06 -1.3321424798248385e-07 7.266663939021423e-08 6.054760859226812e-08 -2.5387891114290698e-06 0.0 0.0
0.0 8.747669292163044e-06 -1.4109879302911872e-06 1.172567617089127e-06 2.3842031320205644e-07 -1.1139712083772501e-05 0.0 0.0
0.0 1.9201165334922414e-05 -3.4337432804869776e-06 2.923064523397296e-06 5.106787570896933e-07 -2.2859075240475585e-05 0.0 0.0
0.0 5.680151203989081e-05 -1.3601865424673499e-05 1.1327968442365635e-05 2.2738969823078637e-06 -8.176265312915274e-05 0.0 0.0
0.0 0.00018115799868266807 -5.0772877946292144e-05 4.1298570267182695e-05 9.474307679109449e-06 -0.00026421017716040507 0.0 0.0
0.0 0.0005499554366421841 -0.00020146435761759902 0.00016386060472777284 3.760375288982619e-05 -0.0008029762889470873 0.0 0.0
0.0 0.0014828652249834074 -0.0007464576469077504 0.0006188967541290349 0.0001275608927787154 -0.0020810536058491653 0.0 0.0
0.0 0.003361120259582487 -0.0020132615557396398 0.0017283097727277608 0.0002849517830118792 -0.004066489278875745 0.0 0.0
0.0 0.006010018004212548 -0.003964266191438404 0.0035276083148813643 0.0004366578765570378 -0.0064526933826102245 0.0 0.0
0.0 0.009176868499032723 -0.006372516516524397 0.005827702634559738 0.0005448138819646575 -0.00903600655178484 0.0 0.0
0.0 0.0127860184608368 -0.009085172307350073 0.008467958544078683 0.000617213763271387 -0.01165515204027455 0.0 0.0
0.0 0.01667945306601876 -0.012076563918122096 0.011401863857809379 0.0006747000603127155 -0.014271714789574176 0.0 0.0
0.0 0.02087249172217359 -0.015307666100381267 0.014581139156956927 0.0007265269434243453 -0.016864977678481295 0.0 0.0
0.0 0.02521143009770717 -0.018619998539058706 0.01784226398002343 0.0007777345590352623 -0.019502153506634732 0.0 0.0
0.0 0.029353075166979162 -0.021679909072713006 0.020852818495945766 0.000827090576767242 -0.02224629965360335 0.0 0.0
0.0 0.03285564462199813 -0.024001854097015753 0.02313451139977326 0.0008673426972424919 -0.025185029460530285 0.0 0.0
0.0 0.0350727195627006 -0.025025357117421272 0.024132144793805745 0.0008932123236155504 -0.028219902286114786 0.0 0.0
0.0 0.034302229562884035 -0.0236238058323485 0.022637386150323867 0.0009864196820246092 -0.02956873075863412 0.0 0.0
0.0 0.027686296170359594 -0.016654454329937944 0.01555190856674718 0.0011025457631907414 -0.0272188832375356 0.0 0.0
0.0 0.027686296170371147 -0.0166544543299391 0.015551908566748193 0.0011025457631909028 0.027218883237573828 0.0 0.0
0.0 0.034302229562889384 -0.023623805832342804 0.022637386150317962 0.0009864196820248276 0.029568730758682743 0.0 0.0
0.0 0.035072719562693117 -0.025025357117408435 0.02413214479379292 0.0008932123236154994 0.028219902286143315 0.0 0.0
0.0 0.032855644621973976 -0.024001854096994665 0.023134511399752068 0.0008673426972426008 0.025185029460527412 0.0 0.0
0.0 0.029353075166947566 -0.021679909072688006 0.020852818495920952 0.0008270905767670568 0.02224629965358451 0.0 0.0
0.0 0.02521143009767938 -0.018619998539037147 0.017842263980002306 0.0007777345590348453 0.01950215350661704 0.0 0.0
0.0 0.020872491722148067 -0.015307666100361307 0.014581139156937265 0.0007265269434240419 0.016864977678466 0.0 0.0
0.0 0.016679453065993485 -0.012076563918101217 0.011401863857788939 0.0006747000603122664 0.014271714789561796 0.0 0.0
0.0 0.01278601846080879 -0.009085172307328805 0.008467958544058064 0.0006172137632707419 0.011655152040254649 0.0 0.0
0.0 0.009176868499005838 -0.0063725165165049785 0.005827702634541135 0.0005448138819638417 0.00903600655176263 0.0 0.0
0.0 0.006010018004188361 -0.003964266191422092 0.0035276083148658975 0.00043665787655619494 0.006452693382586526 0.0 0.0
0.0 0.0033611202595676256 -0.0020132615557291967 0.0017283097727182355 0.0002849517830109626 0.004066489278861393 0.0 0.0
0.0 0.0014828652249760346 -0.0007464576469032494 0.0006188967541252594 0.00012756089277799024 0.0020810536058406353 0.0 0.0
0.0 0.0005499554366382567 -0.00020146435761622975 0.00016386060472671192 3.760375288951786e-05 0.0008029762889426282 0.0 0.0
0.0 0.00018115799868091806 -5.077287794614526e-05 4.1298570267061935e-05 9.474307679083337e-06 0.00026421017715953153 0.0 0.0
0.0 5.6801512038665246e-05 -1.3601865424606177e-05 1.1327968442311127e-05 2.27389698229504e-06 8.176265312875709e-05 0.0 0.0
0.0 1.9201165334136326e-05 -3.433743280533858e-06 2.9230645234371175e-06 5.106787570967419e-07 2.2859075240758708e-05 0.0 0.0
0.0 8.747669291662374e-06 -1.4109879304135877e-06 1.172567617189484e-06 2.384203132241031e-07 1.1139712084718491e-05 0.0 0.0
0.0 2.350864452441183e-06 -1.332142480204593e-07 7.266663939652644e-08 6.05476086239332e-08 2.538789112302319e-06 0.0 0.0
0.0 1.2794705614589102e-06 -7.325646250320453e-08 1.1123042407310628e-07 -3.797396156990146e-08 -1.7889079104850708e-07 0.0 0.0
0.0 0.0 0.0 0.0 0.0 0.0 0.0 0.0
0.0 1.5581193802036851e-06 1.9420717387820273e-08 -6.078099630383678e-09 -1.3342617757439243e-08 2.935608651587981e-07 0.0 0.0
0.0 7.868215424975774e-06 -1.2485107279160518e-06 1.0262799303155309e-06 2.222307976005165e-07 -7.194954824584206e-06 0.0 0.0
0.0 2.197901636056591e-05 -5.041613416749295e-06 4.18446389097462e-06 8.571495257746846e-07 -2.2088022202729573e-05 0.0 0.0
0.0 6.737618670049855e-05 -2.413334331873811e-05 1.9784755938130254e-05 4.348587380607866e-06 -8.824854652434119e-05 0.0 0.0
0.0 0.00026851444299416617 -0.00012244267982698532 9.949389841290484e-05 2.2948781414080436e-05 -0.00035686453542456474 0.0 0.0
0.0 0.0010445592247814875 -0.000611149591196723 0.0005050513680835069 0.00010609822311321605 -0.0013030375320905265 0.0 0.0
0.0 0.002978000304896603 -0.0020326644347991646 0.001745490285730057 0.00028717414906910787 -0.003199614823542891 0.0 0.0
0.0 0.006291613306637329 -0.004571657055631073 0.004096038303148917 0.0004756187524821557 -0.005809532582282343 0.0 0.0
0.0 0.010548312452692802 -0.008022632667360103 0.0074158075021976255 0.0006068251651624743 -0.008886214158419874 0.0 0.0
0.0 0.0156831129450567 -0.012094868242062915 0.011403863566655431 0.00069100467540749 -0.012124576393688701 0.0 0.0
0.0 0.021239807961377206 -0.016651423688922008 0.015896056572305563 0.0007553671166164408 -0.015282592526561677 0.0 0.0
0.0 0.027331355750236288 -0.021661616119235505 0.0208491364957137 0.0008124796235218103 -0.018328533148953968 0.0 0.0
0.0 0.033947139378431974 -0.027102367335971322 0.026232906921341254 0.0008694604146300558 -0.021351462575622687 0.0 0.0
0.0 0.04098651435513827 -0.032815651473067475 0.031885563776975184 0.0009300876960922685 -0.024566272950882914 0.0 0.0
0.0 0.04797698496284986 -0.03841904203699428 0.037427484169097074 0.0009915578678971852 -0.0282615652729773 0.0 0.0
0.0 0.05436455331103953 -0.043291823483408376 0.04224251833461963 0.001049305148788739 -0.03259038808892086 0.0 0.0
0.0 0.058648595645567 -0.04643645539426475 0.04531426979418133 0.0011221856000833822 -0.0367628994754568 0.0 0.0
0.0 0.05876887356178105 -0.04595787733078766 0.044741080010995804 0.0012167973197918373 -0.03880207923078448 0.0 0.0
0.0 0.049335323959180125 -0.03786923254298887 0.03641428327043807 0.0014549492725507824 -0.034719667088484785 0.0 0.0
0.0 0.04933532395918794 -0.0378692325429867 0.036414283270435534 0.0014549492725511592 0.03471966708853111 0.0 0.0
0.0 0.05876887356178683 -0.04595787733078092 0.04474108001098978 0.0012167973197911353 0.038802079230847594 0.0 0.0
0.0 0.05864859564555595 -0.046436455394246526 0.04531426979416419 0.0011221856000822837 0.03676289947549921 0.0 0.0
0.0 0.05436455331100621 -0.04329182348337671 0.042242518334589245 0.0010493051487874886 0.032590388088927294 0.0 0.0
0.0 0.0479769849628058 -0.03841904203695737 0.03742748416906068 0.0009915578678966887 0.028261565272959158 0.0 0.0
0.0 0.04098651435509884 -0.03281565147303478 0.03188556377694281 0.000930087696091974 0.024566272950865352 0.0 0.0
0.0 0.033947139378390875 -0.027102367335937586 0.02623290692130786 0.000869460414629719 0.02135146257560226 0.0 0.0
0.0 0.02733135575019313 -0.021661616119199006 0.020849136495677604 0.0008124796235213926 0.018328533148937287 0.0 0.0
0.0 0.021239807961333127 -0.016651423688886356 0.015896056572270174 0.0007553671166161797 0.015282592526536335 0.0 0.0
0.0 0.01568311294501721 -0.012094868242032247 0.01140386356662501 0.0006910046754072342 0.012124576393660212 0.0 0.0
0.0 0.010548312452659426 -0.008022632667335102 0.007415807502172987 0.0006068251651621147 0.008886214158393177 0.0 0.0
0.0 0.0062916133066160725 -0.0045716570556144 0.004096038303133026 0.00047561875248137243 0.005809532582267265 0.0 0.0
0.0 0.002978000304881714 -0.0020326644347881686 0.0017454902857202727 0.0002871741490678964 0.0031996148235301897 0.0 0.0
0.0 0.0010445592247741086 -0.0006111495911925286 0.0005050513680800475 0.00010609822311248096 0.00130303753208314 0.0 0.0
0.0 0.0002685144429914392 -0.0001224426798261984 9.949389841227595e-05 2.294878141392241e-05 0.000356864535422421 0.0 0.0
0.0 6.737618669936456e-05 -2.413334331876391e-05 1.9784755938148564e-05 4.348587380615312e-06 8.824854652435744e-05 0.0 0.0
0.0 2.1979016359892595e-05 -5.0416134168829545e-06 4.184463891084848e-06 8.571495257980935e-07 2.2088022203321812e-05 0.0 0.0
0.0 7.86821542457214e-06 -1.2485107280632686e-06 1.0262799304356376e-06 2.2223079762763744e-07 7.194954825435198e-06 0.0 0.0
0.0 1.558119379836601e-06 1.9420717356133677e-08 -6.078099612384388e-09 -1.3342617743753002e-08 -2.9356086472366456e-07 0.0 0.0
0.0 0.0 0.0 0.0 0.0 0.0 0.0 0.0
0.0 0.0 0.0 0.0 0.0 0.0 0.0 0.0
0.0 3.8538157917848767e-07 8.524370000021943e-09 -5.889213621647465e-09 -2.6351563783748637e-09 7.625979648851619e-08 0.0 0.0
0.0 4.766070415276239e-06 -8.732091428138945e-07 7.118746218462096e-07 1.6133452096768e-07 -3.861447257362277e-06 0.0 0.0
0.0 2.1330558475139832e-05 -7.242574774943633e-06 5.962515518177241e-06 1.280059256766382e-06 -2.348602421447866e-05 0.0 0.0
0.0 8.982782069536341e-05 -4.2179430236673244e-05 3.4365586986459724e-05 7.813843250213528e-06 -0.00010537147492052687 0.0 0.0
0.0 0.0004735343739919098 -0.00029262812706154343 0.00023907457941962205 5.355354764192138e-05 -0.0005462480148027742 0.0 0.0
0.0 0.001877642015255834 -0.001344602309942533 0.0011353931761577825 0.00020920913378475055 -0.0018445856236901314 0.0 0.0
0.0 0.00488802172002394 -0.003740620878084567 0.003311556455156839 0.00042906442292772767 -0.004062331925425595 0.0 0.0
0.0 0.009537185413057946 -0.007511678116311266 0.006914512338889067 0.0005971657774221989 -0.007062195467865837 0.0 0.0
0.0 0.015443377450701422 -0.012392609362729774 0.01168792927570335 0.0007046800870264198 -0.010565957749503857 0.0 0.0
0.0 0.022313633940839274 -0.018090728903810624 0.017308615037470082 0.0007821138663405395 -0.014161049124639747 0.0 0.0
0.0 0.02995761247876582 -0.0244641903618368 0.02361405354670003 0.0008501368151367534 -0.017598908645538883 0.0 0.0
0.0 0.03834953921796338 -0.03148579764550144 0.030572256449053835 0.0009135411964475802 -0.02088598260107581 0.0 0.0
0.0 0.04742888465338716 -0.03914695422564415 0.038169121105373675 0.0009778331202704871 -0.02415861567498746 0.0 0.0
0.0 0.05717321027001857 -0.04730413896836431 0.04625734649480654 0.0010467924735576986 -0.027740612479060067 0.0 0.0
0.0 0.06713587034372664 -0.05553099892953884 0.05440878749996095 0.0011222114295778558 -0.032094432293590824 0.0 0.0
0.0 0.07626997795908619 -0.06295678778065261 0.06175015678631391 0.0012066309943386572 -0.03731668402008857 0.0 0.0
0.0 0.08277176607686834 -0.06802915046583169 0.06672368220293202 0.0013054682628996063 -0.04238656538717891 0.0 0.0
0.0 0.0831861040671596 -0.06805392128774353 0.06660341961690458 0.0014505016708389281 -0.04461817417724985 0.0 0.0
0.0 0.0716361151158685 -0.058150440374396456 0.05647797005249541 0.0016724703219010528 -0.04070857761375964 0.0 0.0
0.0 0.07163611511587159 -0.05815044037439082 0.056477970052489355 0.0016724703219014386 0.04070857761381197 0.0 0.0
0.0 0.08318610406715747 -0.0680539212877313 0.06660341961689238 0.0014505016708388997 0.044618174177317865 0.0 0.0
0.0 0.08277176607684972 -0.06802915046580721 0.06672368220290824 0.0013054682628989408 0.04238656538723007 0.0 0.0
0.0 0.07626997795904022 -0.06295678778061009 0.06175015678627155 0.0012066309943385117 0.037316684020098516 0.0 0.0
0.0 0.06713587034367208 -0.055530998929491836 0.05440878749991453 0.0011222114295773027 0.03209443229357606 0.0 0.0
0.0 0.05717321026996464 -0.047304138968318456 0.04625734649476121 0.0010467924735572092 0.02774061247904185 0.0 0.0
0.0 0.0474288846533288 -0.039146954225595165 0.038169121105324846 0.0009778331202703442 0.02415861567496433 0.0 0.0
0.0 0.03834953921790976 -0.03148579764545562 0.030572256449008586 0.0009135411964470526 0.02088598260105838 0.0 0.0
0.0 0.029957612478713827 -0.024464190361793082 0.023614053546656952 0.0008501368151361196 0.01759890864551497 0.0 0.0
0.0 0.022313633940789966 -0.018090728903770413 0.017308615037430527 0.0007821138663398841 0.014161049124610256 0.0 0.0
0.0 0.015443377450658175 -0.012392609362695355 0.011687929275669608 0.000704680087025743 0.010565957749473854 0.0 0.0
0.0 0.009537185413026754 -0.007511678116286537 0.006914512338865029 0.0005971657774215125 0.007062195467846252 0.0 0.0
0.0 0.004888021720005435 -0.003740620878070082 0.0033115564551433954 0.0004290644229266846 0.004062331925412823 0.0 0.0
0.0 0.0018776420152449014 -0.001344602309934681 0.00113539317615099 0.00020920913378369083 0.0018445856236813502 0.0 0.0
0.0 0.0004735343739866076 -0.0002926281270587592 0.00023907457941728605 5.355354764147311e-05 0.0005462480147980838 0.0 0.0
0.0 8.982782069430728e-05 -4.217943023667901e-05 3.436558698645492e-05 7.813843250224028e-06 0.00010537147492046799 0.0 0.0
0.0 2.133055847464164e-05 -7.242574775202744e-06 5.96251551838494e-06 1.2800592568177993e-06 2.34860242152516e-05 0.0 0.0
0.0 4.766070414862248e-06 -8.732091429794488e-07 7.118746219797489e-07 1.6133452099969826e-07 3.861447258104234e-06 0.0 0.0
0.0 3.8538157904294466e-07 8.52436999717895e-09 -5.889213619678072e-09 -2.6351563774992616e-09 -7.62597964614563e-08 0.0 0.0
0.0 0.0 0.0 0.0 0.0 0.0 0.0 0.0
0.0 0.0 0.0 0.0 0.0 0.0 0.0 0.0
0.0 0.0 0.0 0.0 0.0 0.0 0.0 0.0
0.0 2.056539594900823e-06 -3.888448929691856e-07 3.1732355085620705e-07 7.152134211298218e-08 -1.3632074938408804e-06 0.0 0.0
0.0 2.0194386603992845e-05 -6.371695614595508e-06 5.183710842866024e-06 1.1879847717294949e-06 -1.5384241756422665e-05 0.0 0.0
0.0 0.0001450219987781216 -7.890417958199262e-05 6.399408539643401e-05 1.4910094185558605e-05 -0.00013811752337225785 0.0 0.0
0.0 0.0008424611583890672 -0.0006173103564714076 0.0005095913626244903 0.00010771899384691714 -0.0007803411661554385 0.0 0.0
0.0 0.0030047264117818925 -0.002355134727536033 0.002034177498957621 0.0003209572285784115 -0.002243663974838104 0.0 0.0
0.0 0.007068885869008423 -0.00572460873882868 0.0051890787057318555 0.0005355300330968216 -0.0045964390761985404 0.0 0.0
0.0 0.012972922947753852 -0.010679732094564217 0.010003303136127744 0.0006764289584364682 -0.007780599136946249 0.0 0.0
0.0 0.020427289045020457 -0.01693708040157333 0.01616470646988331 0.000772373931690019 -0.01140609631770789 0.0 0.0
0.0 0.02910070317722536 -0.02423386648722916 0.023380711621918463 0.0008531548653106948 -0.015067909755750132 0.0 0.0
0.0 0.03879452814872158 -0.032419637437296214 0.03149155998038541 0.0009280774569108098 -0.018579101191420404 0.0 0.0
0.0 0.049437000961167925 -0.04145062649309467 0.040451399213172 0.0009992272799226277 -0.021937538340010946 0.0 0.0
0.0 0.06104875611791662 -0.05132668888497154 0.0502566642976815 0.001070024587290054 -0.025253452686688452 0.0 0.0
0.0 0.07358693553055243 -0.061936684303972214 0.060789045155227636 0.0011476391487445763 -0.02888759082193562 0.0 0.0
0.0 0.08631190376771641 -0.07279261419502174 0.07155350516973358 0.0012391090252881446 -0.03335928301839421 0.0 0.0
0.0 0.09834525868225615 -0.08271700576383625 0.08136871645949095 0.001348289304345278 -0.03882849302871331 0.0 0.0
0.0 0.10678625014168275 -0.08954830505921932 0.08806588703493579 0.0014824180242835757 -0.04427388917374266 0.0 0.0
0.0 0.10736219601298744 -0.08976313138940896 0.08811408134137642 0.0016490500480325064 -0.047248223024377985 0.0 0.0
0.0 0.09411873408674276 -0.07809350376880009 0.07624939969287368 0.0018441040759263983 -0.04585841906009035 0.0 0.0
0.0 0.0941187340867474 -0.07809350376879641 0.07624939969287012 0.0018441040759262317 0.045858419060143873 0.0 0.0
0.0 0.10736219601297244 -0.08976313138938702 0.08811408134135447 0.0016490500480325259 0.04724822302444716 0.0 0.0
0.0 0.10678625014164658 -0.08954830505918167 0.08806588703489808 0.0014824180242834716 0.04427388917379094 0.0 0.0
0.0 0.09834525868220267 -0.08271700576378739 0.0813687164594423 0.0013482893043450337 0.03882849302872598 0.0 0.0
0.0 0.08631190376764936 -0.07279261419496372 0.07155350516967546 0.0012391090252882606 0.03335928301838314 0.0 0.0
0.0 0.0735869355304837 -0.0619366843039132 0.06078904515516875 0.0011476391487444692 0.028887590821918864 0.0 0.0
0.0 0.06104875611784497 -0.0513266888849105 0.05025666429762064 0.0010700245872898742 0.02525345268666576 0.0 0.0
0.0 0.04943700096110046 -0.04145062649303674 0.04045139921311425 0.0009992272799224785 0.021937538339992423 0.0 0.0
0.0 0.03879452814865681 -0.0324196374372408 0.03149155998033095 0.0009280774569098316 0.018579101191396948 0.0 0.0
0.0 0.029100703177164254 -0.024233866487178096 0.023380711621868163 0.0008531548653099185 0.015067909755719304 0.0 0.0
0.0 0.020427289044968787 -0.016937080401530566 0.016164706469841143 0.0007723739316894266 0.011406096317677163 0.0 0.0
0.0 0.012972922947716414 -0.010679732094533236 0.010003303136097317 0.000676428958435923 0.007780599136926181 0.0 0.0
0.0 0.007068885868980938 -0.0057246087388062895 0.0051890787057103805 0.00053553003309591 0.004596439076182872 0.0 0.0
0.0 0.0030047264117660046 -0.0023551347275237657 0.002034177498946562 0.0003209572285772041 0.002243663974827745 0.0 0.0
0.0 0.0008424611583816536 -0.0006173103564665256 0.0005095913626203866 0.00010771899384613863 0.0007803411661497648 0.0 0.0
0.0 0.00014502199877648963 -7.890417958165456e-05 6.399408539614672e-05 1.4910094185507763e-05 0.00013811752337167618 0.0 0.0
0.0 2.0194386603393328e-05 -6.371695614742538e-06 5.183710842983511e-06 1.1879847717590337e-06 1.5384241756793187e-05 0.0 0.0
0.0 2.056539594780657e-06 -3.888448930790068e-07 3.173235509449722e-07 7.152134213403242e-08 1.3632074942282023e-06 0.0 0.0
0.0 0.0 0.0 0.0 0.0 0.0 0.0 0.0
0.0 0.0 0.0 0.0 0.0 0.0 0.0 0.0
0.0 0.0 0.0 0.0 0.0 0.0 0.0 0.0
0.0 0.0 0.0 0.0 0.0 0.0 0.0 0.0
0.0 9.159772724021529e-07 5.630253744311479e-08 -4.536700834069255e-08 -1.0935529102421052e-08 1.5681455061216043e-07 0.0 0.0
0.0 1.747992496361718e-05 -8.97649050044202e-06 7.232645506275646e-06 1.7438449941664152e-06 -1.644719328419765e-05 0.0 0.0
0.0 0.00023983110345995298 -0.0001659997370196316 0.00013457596474605976 3.1423772273571895e-05 -0.00020742921566145844 0.0 0.0
0.0 0.001411048419686333 -0.001112494659082145 0.0009308399798629166 0.00018165467921922866 -0.0009689437845649498 0.0 0.0
0.0 0.0044005756015155 -0.003582744268013465 0.0031609501956333308 0.00042179407238013446 -0.0024366960261353065 0.0 0.0
0.0 0.009372862466347982 -0.007903348300293222 0.007291557996494121 0.0006117903037990999 -0.004783281351607393 0.0 0.0
0.0 0.016519609656953427 -0.013978399112062773 0.013246677279813102 0.0007317218322496766 -0.007883645541064684 0.0 0.0
0.0 0.025496978408642915 -0.021576406034734902 0.020750059843081394 0.0008263461916535146 -0.011359687844127046 0.0 0.0
0.0 0.03596373015831214 -0.030460956886350254 0.029547608229172198 0.0009133486571780378 -0.014891390440904116 0.0 0.0
0.0 0.04768426966703918 -0.04046038271233623 0.039464035118659584 0.0009963475936766027 -0.018276706438358707 0.0 0.0
0.0 0.06064798992973848 -0.05150195775162622 0.05042601404144421 0.001075943710182008 -0.021523846017449003 0.0 0.0
0.0 0.0746496209267174 -0.06357703165158578 0.062423139550932476 0.0011538921006533198 -0.02471524870692251 0.0 0.0
0.0 0.08983116518095077 -0.07658696173446665 0.07534778513849777 0.0012391765959688967 -0.028055163173349062 0.0 0.0
0.0 0.10561982682586586 -0.0899986824239937 0.08865295431094747 0.0013457281130462209 -0.032035542417411425 0.0 0.0
0.0 0.12004465928436545 -0.10235145870688402 0.10087077103213898 0.001480687674744985 -0.03709821186904725 0.0 0.0
0.0 0.1302116541531874 -0.1108643366802255 0.10922057113697661 0.0016437655432488658 -0.04273422434522725 0.0 0.0
0.0 0.1312493259386649 -0.11132690598679995 0.10950467496218369 0.0018222310246162046 -0.04745953984435268 0.0 0.0
0.0 0.11709718987083731 -0.09819971872622454 0.09619813794360987 0.002001580782614655 -0.05058721588802799 0.0 0.0
0.0 0.11709718987083895 -0.09819971872621899 0.0961981379436051 0.0020015807826138272 0.05058721588808111 0.0 0.0
0.0 0.13124932593864566 -0.11132690598677507 0.10950467496216008 0.0018222310246149651 0.04745953984442412 0.0 0.0
0.0 0.13021165415313868 -0.11086433668017805 0.10922057113692958 0.0016437655432484394 0.04273422434527532 0.0 0.0
0.0 0.12004465928429835 -0.1023514587068237 0.1008707710320794 0.0014806876747442445 0.037098211869059525 0.0 0.0
0.0 0.10561982682578575 -0.08999868242392392 0.08865295431087838 0.0013457281130455179 0.03203554241740291 0.0 0.0
0.0 0.08983116518087081 -0.076586961734397 0.07534778513842905 0.0012391765959678938 0.028055163173338435 0.0 0.0
0.0 0.07464962092663734 -0.0635770316515167 0.062423139550863906 0.0011538921006527527 0.024715248706904155 0.0 0.0
0.0 0.060647989929657545 -0.05150195775155599 0.05042601404137473 0.0010759437101812094 0.021523846017430702 0.0 0.0
0.0 0.04768426966696074 -0.040460382712268636 0.039464035118592464 0.000996347593676166 0.018276706438336513 0.0 0.0
0.0 0.03596373015824119 -0.030460956886290233 0.029547608229112662 0.0009133486571775674 0.014891390440874036 0.0 0.0
0.0 0.02549697840857975 -0.021576406034681812 0.020750059843028745 0.0008263461916530572 0.01135968784409691 0.0 0.0
0.0 0.01651960965690756 -0.013978399112023832 0.01324667727977458 0.00073172183224925 0.007883645541044832 0.0 0.0
0.0 0.009372862466315888 -0.007903348300266151 0.007291557996467714 0.000611790303798432 0.004783281351592441 0.0 0.0
0.0 0.004400575601497203 -0.003582744267998662 0.003160950195619566 0.0004217940723790969 0.0024366960261260353 0.0 0.0
0.0 0.0014110484196778574 -0.001112494659075936 0.00093083997985758 0.0001816546792183555 0.0009689437845599275 0.0 0.0
0.0 0.00023983110345690792 -0.00016599973701811218 0.00013457596474479954 3.142377227331251e-05 0.00020742921565971754 0.0 0.0
0.0 1.7479924963007845e-05 -8.976490500443356e-06 7.232645506270871e-06 1.7438449941724662e-06 1.644719328419679e-05 0.0 0.0
0.0 9.159772720464821e-07 5.630253742091469e-08 -4.5367008322703315e-08 -1.0935529098212496e-08 -1.5681455054918204e-07 0.0 0.0
0.0 0.0 0.0 0.0 0.0 0.0 0.0 0.0
0.0 0.0 0.0 0.0 0.0 0.0 0.0 0.0
0.0 0.0 0.0 0.0 0.0 0.0 0.0 0.0
0.0 0.0 0.0 0.0 0.0 0.0 0.0 0.0
0.0 2.633745482838499e-07 1.9034837468267232e-08 -1.5232417022672714e-08 -3.80242044559584e-09 3.959451352121644e-08 0.0 0.0
0.0 1.880891388025122e-05 -1.1943898563132403e-05 9.55898653575508e-06 2.384912027377346e-06 -1.6145827017686977e-05 0.0 0.0
0.0 0.00042111376066462523 -0.00032403516550129466 0.00026358003514292424 6.0455130358370504e-05 -0.0002804813433841225 0.0 0.0
0.0 0.0021784646248174974 -0.001774044809827854 0.0015090753807815932 0.0002649694290462622 -0.0010548879977973127 0.0 0.0
0.0 0.005790392134558206 -0.004994491174520481 0.0044894920065818925 0.000504999167938592 -0.002434936663576324 0.0 0.0
0.0 0.011805239298462502 -0.01019342887370152 0.009529162913713269 0.0006642659599882508 -0.004564273187581266 0.0 0.0
0.0 0.020186828903053327 -0.017340002637552428 0.016565505866530716 0.0007744967710217121 -0.0073243808717514776 0.0 0.0
0.0 0.030623623737151905 -0.026263100424212794 0.025390969822813705 0.0008721306013991051 -0.010459942341573858 0.0 0.0
0.0 0.04285156466935506 -0.036725566319099394 0.0357596567617504 0.0009659095573489675 -0.013646345600424213 0.0 0.0
0.0 0.056631876506531925 -0.04854036960218196 0.04748285941825579 0.0010575101839261358 -0.016706874995772728 0.0 0.0
0.0 0.07182046516941108 -0.061600753053974444 0.06045431140427697 0.0011464416496974497 -0.019670028112337593 0.0 0.0
0.0 0.08839009565658029 -0.07584714009191537 0.07461325961337262 0.0012338804785427394 -0.022546477624282003 0.0 0.0
0.0 0.10615120909756232 -0.09114935837919916 0.0898230252615042 0.0013263331176950077 -0.025342670202215565 0.0 0.0
0.0 0.12428547368102277 -0.10695953730365815 0.10551724240695315 0.001442294896704975 -0.028321264920822802 0.0 0.0
0.0 0.1413806282894309 -0.12164888033232585 0.12004956389353064 0.001599316438795155 -0.03224807535775363 0.0 0.0
0.0 0.15357224822734977 -0.13195196353807703 0.13016496368377453 0.0017869998543024758 -0.03788737487762827 0.0 0.0
0.0 0.15544831199423859 -0.1330323217575674 0.13104999522866984 0.0019823265288974913 -0.045371617242963985 0.0 0.0
0.0 0.14069506302884885 -0.11889106245673312 0.11673307431159628 0.0021579881451366904 -0.05491424036812803 0.0 0.0
0.0 0.14069506302884038 -0.11889106245672015 0.1167330743115827 0.0021579881451375144 0.05491424036817898 0.0 0.0
0.0 0.1554483119942085 -0.13303232175753577 0.13104999522863825 0.0019823265288975754 0.04537161724302578 0.0 0.0
0.0 0.1535722482272965 -0.13195196353802738 0.13016496368372518 0.0017869998543020744 0.03788737487767223 0.0 0.0
0.0 0.14138062828935424 -0.12164888033225815 0.1200495638934634 0.0015993164387947466 0.03224807535776399 0.0 0.0
0.0 0.1242854736809339 -0.10695953730358057 0.10551724240687657 0.0014422948967039225 0.028321264920817584 0.0 0.0
0.0 0.10615120909746988 -0.09114935837911854 0.08982302526142494 0.0013263331176935887 0.02534267020220662 0.0 0.0
0.0 0.0883900956564874 -0.07584714009183484 0.07461325961329343 0.0012338804785413196 0.022546477624265402 0.0 0.0
0.0 0.07182046516931742 -0.0616007530538934 0.060454311404196485 0.0011464416496968942 0.019670028112321214 0.0 0.0
0.0 0.05663187650643921 -0.048540369602101646 0.04748285941817609 0.0010575101839255816 0.016706874995752977 0.0 0.0
0.0 0.04285156466927277 -0.03672556631902858 0.03575965676168051 0.0009659095573480431 0.013646345600395935 0.0 0.0
0.0 0.03062362373708591 -0.026263100424155934 0.025390969822757892 0.0008721306013980328 0.010459942341549058 0.0 0.0
0.0 0.020186828902999405 -0.01734000263750566 0.016565505866484517 0.000774496771021149 0.007324380871734614 0.0 0.0
0.0 0.011805239298421607 -0.01019342887366627 0.009529162913678594 0.0006642659599876752 0.0045642731875658645 0.0 0.0
0.0 0.005790392134533649 -0.004994491174499448 0.004489492006561947 0.0005049991679375007 0.0024349366635667436 0.0 0.0
0.0 0.002178464624803295 -0.0017740448098167503 0.0015090753807716149 0.0002649694290451349 0.0010548879977909592 0.0 0.0
0.0 0.00042111376065980384 -0.00032403516549822393 0.00026358003514035 6.045513035787375e-05 0.00028048134338164144 0.0 0.0
0.0 1.880891387991633e-05 -1.1943898563470834e-05 9.558986536012504e-06 2.3849120274583362e-06 1.6145827018097453e-05 0.0 0.0
0.0 2.633745479801639e-07 1.90348374459991e-08 -1.5232417004860948e-08 -3.802420441135515e-09 -3.959451347502403e-08 0.0 0.0
0.0 0.0 0.0 0.0 0.0 0.0 0.0 0.0
0.0 0.0 0.0 0.0 0.0 0.0 0.0 0.0
0.0 0.0 0.0 0.0 0.0 0.0 0.0 0.0
0.0 0.0 0.0 0.0 0.0 0.0 0.0 0.0
0.0 0.0 0.0 0.0 0.0 0.0 0.0 0.0
0.0 2.8894069539012615e-05 -2.123899677241964e-05 1.7009012168252428e-05 4.229984604167202e-06 -2.021107729915073e-05 0.0 0.0
0.0 0.0007296061058425524 -0.0005851812905516188 0.0004792147794859286 0.00010596651106569002 -0.0003263559931659957 0.0 0.0
0.0 0.0030727854313943185 -0.0025939677901832747 0.002243983097684918 0.0003499846924983559 -0.001014409785460535 0.0 0.0
0.0 0.0073904781833135005 -0.006513654879302902 0.005945028085000158 0.0005686267943027436 -0.0021490376455259538 0.0 0.0
0.0 0.014367029940546798 -0.01253354491641111 0.011830895895463026 0.0007026490209480836 -0.00386914380978439 0.0 0.0
0.0 0.023897863839038132 -0.020727170462488738 0.019917705056690833 0.0008094654057978889 -0.006132551590325453 0.0 0.0
0.0 0.035785614007973025 -0.030954410271184486 0.030042867665673996 0.0009115426055104827 -0.008718375393332459 0.0 0.0
0.0 0.0497821784397908 -0.04298507971251218 0.041972427949056174 0.0010126517634559816 -0.011352539511770962 0.0 0.0
0.0 0.06556283420092657 -0.056617346155426726 0.05550459856717703 0.0011127475882496865 -0.013879118276113805 0.0 0.0
0.0 0.08312886963760417 -0.07170281654780276 0.07049080298342517 0.001212013564377595 -0.016339780741419885 0.0 0.0
0.0 0.10198131010523356 -0.08810347034062652 0.0867923290096253 0.0013111413310012273 -0.018754485791524805 0.0 0.0
0.0 0.12210011527369342 -0.10557186756052807 0.10415855672711177 0.0014133108334162838 -0.020905859682543906 0.0 0.0
0.0 0.1427835368624823 -0.12351003097018913 0.12197771547491493 0.0015323154952741596 -0.022575681048304732 0.0 0.0
0.0 0.16223622864426085 -0.1403695168444611 0.13867609336275072 0.0016934234817103922 -0.02460043524588386 0.0 0.0
0.0 0.1767125086864259 -0.15276434547764928 0.15085287597090838 0.0019114695067407998 -0.02966410825816697 0.0 0.0
0.0 0.180141960778264 -0.15513759587730275 0.15300395304501477 0.0021336428322880556 -0.0405196138634007 0.0 0.0
0.0 0.16564067966745682 -0.14063961799891028 0.13831332106838093 0.0023262969305293557 -0.058510689827076204 0.0 0.0
0.0 0.1656406796674464 -0.14063961799889707 0.13831332106836763 0.002326296930529304 0.05851068982711585 0.0 0.0
0.0 0.18014196077822614 -0.15513759587726592 0.15300395304497882 0.0021336428322871093 0.040519613863454707 0.0 0.0
0.0 0.1767125086863571 -0.1527643454775872 0.15085287597084723 0.0019114695067398828 0.02966410825820464 0.0 0.0
0.0 0.16223622864417397 -0.14036951684438476 0.138676093362676 0.0016934234817087951 0.02460043524589169 0.0 0.0
0.0 0.1427835368623772 -0.12351003097009805 0.12197771547482428 0.0015323154952737775 0.02257568104830118 0.0 0.0
0.0 0.12210011527358053 -0.1055718675604303 0.10415855672701398 0.0014133108334163716 0.020905859682538552 0.0 0.0
0.0 0.10198131010512305 -0.08810347034053084 0.08679232900953035 0.0013111413310004747 0.01875448579151171 0.0 0.0
0.0 0.08312886963749791 -0.07170281654771053 0.07049080298333364 0.00121201356437691 0.016339780741407146 0.0 0.0
0.0 0.06556283420082185 -0.05661734615533615 0.055504598567086866 0.001112747588249265 0.013879118276099348 0.0 0.0
0.0 0.049782178439697476 -0.04298507971243139 0.041972427948975856 0.0010126517634555271 0.011352539511748097 0.0 0.0
0.0 0.03578561400789456 -0.03095441027111649 0.030042867665606546 0.0009115426055099432 0.008718375393310832 0.0 0.0
0.0 0.023897863838977188 -0.02072717046243559 0.01991770505663846 0.0008094654057971337 0.006132551590309992 0.0 0.0
0.0 0.01436702994050433 -0.01253354491637378 0.01183089589542658 0.0007026490209472013 0.003869143809772837 0.0 0.0
0.0 0.007390478183284304 -0.006513654879277233 0.005945028084975377 0.0005686267943018614 0.0021490376455177 0.0 0.0
0.0 0.003072785431379258 -0.002593967790170696 0.002243983097673508 0.0003499846924971879 0.0010144097854554864 0.0 0.0
0.0 0.0007296061058368519 -0.0005851812905475603 0.00047921477948247905 0.0001059665110650814 0.00032635599316382247 0.0 0.0
0.0 2.8894069538697346e-05 -2.1238996772871106e-05 1.7009012168596418e-05 4.22998460427471e-06 2.021107729951822e-05 0.0 0.0
0.0 0.0 0.0 0.0 0.0 0.0 0.0 0.0
0.0 0.0 0.0 0.0 0.0 0.0 0.0 0.0
0.0 0.0 0.0 0.0 0.0 0.0 0.0 0.0
0.0 0.0 0.0 0.0 0.0 0.0 0.0 0.0
0.0 0.0 0.0 0.0 0.0 0.0 0.0 0.0
0.0 0.0 0.0 0.0 0.0 0.0 0.0 0.0
0.0 6.481176867908216e-05 -5.0650802773902784e-05 4.0485878101916174e-05 1.0164924671986647e-05 -2.9381609261158016e-05 0.0 0.0
0.0 0.001193797381636096 -0.0009677021412289019 0.0008018582826776521 0.00016584385855124945 -0.0003087693669130364 0.0 0.0
0.0 0.0039383298061798425 -0.0035490985698287615 0.003119900054895663 0.00042919851493309735 -0.0007960129350825194 0.0 0.0
0.0 0.009128700495039204 -0.008089001285565202 0.007475280646830838 0.0006137206387343663 -0.0015680731445752054 0.0 0.0
0.0 0.016975782171870752 -0.014894955979393932 0.014162033901497372 0.0007329220778965697 -0.00273923331655866 0.0 0.0
0.0 0.02762850241167188 -0.024101351615393243 0.02326322153399342 0.0008381300813998169 -0.004313443775253427 0.0 0.0
0.0 0.0409488420463336 -0.03561035291053808 0.03466483881547202 0.0009455140950660599 -0.006139392498987559 0.0 0.0
0.0 0.056688718883793385 -0.049200338300844346 0.04814599834627502 0.0010543399545692974 -0.008002779691111928 0.0 0.0
0.0 0.07463456467272785 -0.06464908133603942 0.06348582009959228 0.0011632612364471506 -0.00979071571960387 0.0 0.0
0.0 0.09427020668829231 -0.08176479166367365 0.0804916534247549 0.0012731382389187726 -0.01156120579879014 0.0 0.0
0.0 0.11560645826544279 -0.10030042081876804 0.09891512382916635 0.001385296989601655 -0.01328091110803235 0.0 0.0
0.0 0.13814680301393906 -0.11983850045636589 0.11833737397883179 0.001501126477534021 -0.014682128921718843 0.0 0.0
0.0 0.16093758102729458 -0.13963021427376276 0.13800618692271077 0.0016240273510519808 -0.015289650749135854 0.0 0.0
0.0 0.1823780266345345 -0.1582702722343223 0.1564995032169586 0.0017707690173638469 -0.015219847178490061 0.0 0.0
0.0 0.19932424067308213 -0.17291759820925282 0.1709399869088817 0.001977611300371052 -0.017784718522535974 0.0 0.0
0.0 0.20564437375485028 -0.17786455141737592 0.1755732086683747 0.0022913427490011034 -0.031227560502917494 0.0 0.0
0.0 0.1925491021710178 -0.16415153857994075 0.1616283789493191 0.0025231596306215156 -0.06056058965863283 0.0 0.0
0.0 0.19254910217100485 -0.16415153857992643 0.16162837894930585 0.0025231596306204366 0.060560589658662595 0.0 0.0
0.0 0.20564437375480055 -0.17786455141733049 0.17557320866832996 0.002291342749000493 0.031227560502960036 0.0 0.0
0.0 0.1993242406730027 -0.1729175982091829 0.17093998690881285 0.001977611300370177 0.017784718522563706 0.0 0.0
0.0 0.18237802663442693 -0.15827027223422913 0.15649950321686515 0.0017707690173640158 0.01521984717849283 0.0 0.0
0.0 0.1609375810271763 -0.13963021427366026 0.13800618692260866 0.001624027351051584 0.015289650749132272 0.0 0.0
0.0 0.1381468030138199 -0.1198385004562622 0.11833737397872904 0.0015011264775331302 0.014682128921716633 0.0 0.0
0.0 0.11560645826532383 -0.10030042081866467 0.09891512382906406 0.0013852969896005565 0.013280911108027154 0.0 0.0
0.0 0.09427020668817135 -0.08176479166356877 0.08049165342465049 0.001273138238918296 0.0115612057987824 0.0 0.0
0.0 0.07463456467261159 -0.06464908133593815 0.06348582009949198 0.0011632612364461479 0.009790715719594258 0.0 0.0
0.0 0.056688718883688476 -0.04920033830075335 0.048145998346184875 0.0010543399545684456 0.008002779691095441 0.0 0.0
0.0 0.040948842046245736 -0.03561035291046174 0.034664838815396254 0.0009455140950654885 0.006139392498971994 0.0 0.0
0.0 0.027628502411601145 -0.024101351615331175 0.023263221533931892 0.0008381300813992807 0.0043134437752437955 0.0 0.0
0.0 0.016975782171821125 -0.014894955979350245 0.014162033901454363 0.000732922077895871 0.0027392333165504575 0.0 0.0
0.0 0.009128700495004815 -0.008089001285534582 0.007475280646801128 0.0006137206387334534 0.0015680731445688503 0.0 0.0
0.0 0.003938329806161336 -0.0035490985698122613 0.003119900054880237 0.0004291985149320241 0.0007960129350785973 0.0 0.0
0.0 0.001193797381628415 -0.0009677021412229901 0.0008018582826725281 0.00016584385855046173 0.0003087693669112703 0.0 0.0
0.0 6.481176867770573e-05 -5.065080277355077e-05 4.04858781016096e-05 1.0164924671941127e-05 2.93816092609309e-05 0.0 0.0
0.0 0.0 0.0 0.0 0.0 0.0 0.0 0.0
0.0 0.0 0.0 0.0 0.0 0.0 0.0 0.0
0.0 0.0 0.0 0.0 0.0 0.0 0.0 0.0
0.0 0.0 0.0 0.0 0.0 0.0 0.0 0.0
0.0 0.0 0.0 0.0 0.0 0.0 0.0 0.0
0.0 0.0 0.0 0.0 0.0 0.0 0.0 0.0
0.0 0.00016854346722477726 -0.00014317817253156807 0.0001141506097455 2.902756278606817e-05 -3.5052227470881435e-05 0.0 0.0
0.0 0.00181876247903309 -0.0014660797885515272 0.0012304333712043246 0.00023564641734720188 -0.00018370529895104308 0.0 0.0
0.0 0.005070748828570467 -0.004569451283747874 0.0040759088624334385 0.0004935424213144355 -0.0003756760038480663 0.0 0.0
0.0 0.010926304609401648 -0.009697273602687009 0.00904919283864945 0.0006480807640375584 -0.0006900174841596065 0.0 0.0
0.0 0.019624991506828338 -0.017243970747071465 0.016487335879493387 0.0007566348675780705 -0.0011780504157965636 0.0 0.0
0.0 0.03137605567814965 -0.027424202328138723 0.02656214436617332 0.0008620579619653953 -0.001875660451998629 0.0 0.0
0.0 0.04613797665919482 -0.040189920967862634 0.03921531292946383 0.0009746080383988179 -0.00271912967803881 0.0 0.0
0.0 0.06369482993299234 -0.055332879416724615 0.054241540673258024 0.001091338743466585 -0.0035957981218538164 0.0 0.0
0.0 0.08347085307969512 -0.07260232171785157 0.07139244447574002 0.0012098772421115548 -0.004454376921291631 0.0 0.0
0.0 0.10546542982213539 -0.09173098984935651 0.09040070607562868 0.0013302837737278323 -0.005295528498432268 0.0 0.0
0.0 0.12927462055539257 -0.11237406492078053 0.11091902557947318 0.0014550393413073433 -0.006065182294743815 0.0 0.0
0.0 0.1541520599020727 -0.1339473044204819 0.13236149922883633 0.0015858051916456273 -0.006600899213137807 0.0 0.0
0.0 0.17897173268334815 -0.155457456637372 0.15373632749159996 0.0017211291457719527 -0.00654501284752879 0.0 0.0
0.0 0.20197275403966372 -0.17540623498531024 0.17354796127872033 0.001858273706589929 -0.005486274870883514 0.0 0.0
0.0 0.22063071332513867 -0.19161446877037983 0.18960218415156546 0.0020122846188141033 -0.004527717726585453 0.0 0.0
0.0 0.2307764878373537 -0.20020802012945013 0.1979514690497673 0.002256551079682718 -0.013353925516078561 0.0 0.0
0.0 0.22314437669869777 -0.19134591579349955 0.18844572363657106 0.002900192156928447 -0.05587918968804276 0.0 0.0
0.0 0.22314437669868087 -0.1913459157934839 0.18844572363655585 0.0029001921569278277 0.05587918968805325 0.0 0.0
0.0 0.2307764878372963 -0.20020802012939992 0.1979514690497175 0.0022565510796822043 0.013353925516098323 0.0 0.0
0.0 0.22063071332504391 -0.1916144687702975 0.18960218415148372 0.002012284618813699 0.004527717726599296 0.0 0.0
0.0 0.20197275403954218 -0.17540623498520513 0.1735479612786153 0.0018582737065898523 0.005486274870880694 0.0 0.0
0.0 0.17897173268321703 -0.15545745663725835 0.15373632749148675 0.001721129145771426 0.006545012847526522 0.0 0.0
0.0 0.15415205990193387 -0.1339473044203616 0.1323614992287162 0.0015858051916453333 0.006600899213138503 0.0 0.0
0.0 0.12927462055525585 -0.11237406492066199 0.11091902557935523 0.0014550393413067066 0.0060651822947408035 0.0 0.0
0.0 0.10546542982200063 -0.09173098984923968 0.09040070607551247 0.0013302837737271885 0.0052955284984283375 0.0 0.0
0.0 0.08347085307956599 -0.0726023217177397 0.07139244447562867 0.0012098772421109847 0.004454376921288299 0.0 0.0
0.0 0.0636948299328803 -0.05533287941662722 0.05424154067316137 0.0010913387434658384 0.003595798121845726 0.0 0.0
0.0 0.04613797665910305 -0.04018992096778291 0.03921531292938506 0.0009746080383978687 0.0027191296780311224 0.0 0.0
0.0 0.03137605567807581 -0.02742420232807407 0.026562144366109305 0.0008620579619647537 0.0018756604519947167 0.0 0.0
0.0 0.01962499150677363 -0.017243970747023128 0.016487335879445588 0.0007566348675775319 0.0011780504157929443 0.0 0.0
0.0 0.010926304609365807 -0.009697273602655168 0.009049192838618172 0.0006480807640369958 0.0006900174841572711 0.0 0.0
0.0 0.005070748828549836 -0.004569451283729036 0.00407590886241558 0.0004935424213134557 0.0003756760038468564 0.0 0.0
0.0 0.0018187624790230127 -0.0014660797885434802 0.0012304333711972162 0.00023564641734626502 0.00018370529895023275 0.0 0.0
0.0 0.0001685434672230936 -0.00014317817253071608 0.00011415060974480064 2.902756278591533e-05 3.505222747067281e-05 0.0 0.0
0.0 0.0 0.0 0.0 0.0 0.0 0.0 0.0
0.0 0.0 0.0 0.0 0.0 0.0 0.0 0.0
0.0 0.0 0.0 0.0 0.0 0.0 0.0 0.0