# vtk DataFile Version 3.0
Some data
ASCII
DATASET UNSTRUCTURED_GRID
POINTS 861 float
0.0 0.0 0.0
0.4 0.0 0.0
0.8 0.0 0.0
1.2000000000000002 0.0 0.0
1.6 0.0 0.0
2.0 0.0 0.0
2.4000000000000004 0.0 0.0
2.8000000000000003 0.0 0.0
3.2 0.0 0.0
3.6 0.0 0.0
4.0 0.0 0.0
4.4 0.0 0.0
4.800000000000001 0.0 0.0
5.2 0.0 0.0
5.6000000000000005 0.0 0.0
6.0 0.0 0.0
6.4 0.0 0.0
6.800000000000001 0.0 0.0
7.2 0.0 0.0
7.6000000000000005 0.0 0.0
8.0 0.0 0.0
8.4 0.0 0.0
8.8 0.0 0.0
9.200000000000001 0.0 0.0
9.600000000000001 0.0 0.0
10.0 0.0 0.0
10.4 0.0 0.0
10.8 0.0 0.0
11.200000000000001 0.0 0.0
11.600000000000001 0.0 0.0
12.0 0.0 0.0
12.4 0.0 0.0
12.8 0.0 0.0
13.200000000000001 0.0 0.0
13.600000000000001 0.0 0.0
14.0 0.0 0.0
14.4 0.0 0.0
14.8 0.0 0.0
15.200000000000001 0.0 0.0
15.600000000000001 0.0 0.0
16.0 0.0 0.0
0.0 0.1 0.0
0.4 0.1 0.0
0.8 0.1 0.0
1.2000000000000002 0.1 0.0
1.6 0.1 0.0
2.0 0.1 0.0
2.4000000000000004 0.1 0.0
2.8000000000000003 0.1 0.0
3.2 0.1 0.0
3.6 0.1 0.0
4.0 0.1 0.0
4.4 0.1 0.0
4.800000000000001 0.1 0.0
5.2 0.1 0.0
5.6000000000000005 0.1 0.0
6.0 0.1 0.0
6.4 0.1 0.0
6.800000000000001 0.1 0.0
7.2 0.1 0.0
7.6000000000000005 0.1 0.0
8.0 0.1 0.0
8.4 0.1 0.0
8.8 0.1 0.0
9.200000000000001 0.1 0.0
9.600000000000001 0.1 0.0
10.0 0.1 0.0
10.4 0.1 0.0
10.8 0.1 0.0
11.200000000000001 0.1 0.0
11.600000000000001 0.1 0.0
12.0 0.1 0.0
12.4 0.1 0.0
12.8 0.1 0.0
13.200000000000001 0.1 0.0
13.600000000000001 0.1 0.0
14.0 0.1 0.0
14.4 0.1 0.0
14.8 0.1 0.0
15.200000000000001 0.1 0.0
15.600000000000001 0.1 0.0
16.0 0.1 0.0
0.0 0.2 0.0
0.4 0.2 0.0
0.8 0.2 0.0
1.2000000000000002 0.2 0.0
1.6 0.2 0.0
2.0 0.2 0.0
2.4000000000000004 0.2 0.0
2.8000000000000003 0.2 0.0
3.2 0.2 0.0
3.6 0.2 0.0
4.0 0.2 0.0
4.4 0.2 0.0
4.800000000000001 0.2 0.0
5.2 0.2 0.0
5.6000000000000005 0.2 0.0
6.0 0.2 0.0
6.4 0.2 0.0
6.800000000000001 0.2 0.0
7.2 0.2 0.0
7.6000000000000005 0.2 0.0
8.0 0.2 0.0
8.4 0.2 0.0
8.8 0.2 0.0
9.200000000000001 0.2 0.0
9.600000000000001 0.2 0.0
10.0 0.2 0.0
10.4 0.2 0.0
10.8 0.2 0.0
11.200000000000001 0.2 0.0
11.600000000000001 0.2 0.0
12.0 0.2 0.0
12.4 0.2 0.0
12.8 0.2 0.0
13.200000000000001 0.2 0.0
13.600000000000001 0.2 0.0
14.0 0.2 0.0
14.4 0.2 0.0
14.8 0.2 0.0
15.200000000000001 0.2 0.0
15.600000000000001 0.2 0.0
16.0 0.2 0.0
0.0 0.30000000000000004 0.0
0.4 0.30000000000000004 0.0
0.8 0.30000000000000004 0.0
1.2000000000000002 0.30000000000000004 0.0
1.6 0.30000000000000004 0.0
2.0 0.30000000000000004 0.0
2.4000000000000004 0.30000000000000004 0.0
2.8000000000000003 0.30000000000000004 0.0
3.2 0.30000000000000004 0.0
3.6 0.30000000000000004 0.0
4.0 0.30000000000000004 0.0
4.4 0.30000000000000004 0.0
4.800000000000001 0.30000000000000004 0.0
5.2 0.30000000000000004 0.0
5.6000000000000005 0.30000000000000004 0.0
6.0 0.30000000000000004 0.0
6.4 0.30000000000000004 0.0
6.800000000000001 0.30000000000000004 0.0
7.2 0.30000000000000004 0.0
7.6000000000000005 0.30000000000000004 0.0
8.0 0.30000000000000004 0.0
8.4 0.30000000000000004 0.0
8.8 0.30000000000000004 0.0
9.200000000000001 0.30000000000000004 0.0
9.600000000000001 0.30000000000000004 0.0
10.0 0.30000000000000004 0.0
10.4 0.30000000000000004 0.0
10.8 0.30000000000000004 0.0
11.200000000000001 0.30000000000000004 0.0
11.600000000000001 0.30000000000000004 0.0
12.0 0.30000000000000004 0.0
12.4 0.30000000000000004 0.0
12.8 0.30000000000000004 0.0
13.200000000000001 0.30000000000000004 0.0
13.600000000000001 0.30000000000000004 0.0
14.0 0.30000000000000004 0.0
14.4 0.30000000000000004 0.0
14.8 0.30000000000000004 0.0
15.200000000000001 0.30000000000000004 0.0
15.600000000000001 0.30000000000000004 0.0
16.0 0.30000000000000004 0.0
0.0 0.4 0.0
0.4 0.4 0.0
0.8 0.4 0.0
1.2000000000000002 0.4 0.0
1.6 0.4 0.0
2.0 0.4 0.0
2.4000000000000004 0.4 0.0
2.8000000000000003 0.4 0.0
3.2 0.4 0.0
3.6 0.4 0.0
4.0 0.4 0.0
4.4 0.4 0.0
4.800000000000001 0.4 0.0
5.2 0.4 0.0
5.6000000000000005 0.4 0.0
6.0 0.4 0.0
6.4 0.4 0.0
6.800000000000001 0.4 0.0
7.2 0.4 0.0
7.6000000000000005 0.4 0.0
8.0 0.4 0.0
8.4 0.4 0.0
8.8 0.4 0.0
9.200000000000001 0.4 0.0
9.600000000000001 0.4 0.0
10.0 0.4 0.0
10.4 0.4 0.0
10.8 0.4 0.0
11.200000000000001 0.4 0.0
11.600000000000001 0.4 0.0
12.0 0.4 0.0
12.4 0.4 0.0
12.8 0.4 0.0
13.200000000000001 0.4 0.0
13.600000000000001 0.4 0.0
14.0 0.4 0.0
14.4 0.4 0.0
14.8 0.4 0.0
15.200000000000001 0.4 0.0
15.600000000000001 0.4 0.0
16.0 0.4 0.0
0.0 0.5 0.0
0.4 0.5 0.0
0.8 0.5 0.0
1.2000000000000002 0.5 0.0
1.6 0.5 0.0
2.0 0.5 0.0
2.4000000000000004 0.5 0.0
2.8000000000000003 0.5 0.0
3.2 0.5 0.0
3.6 0.5 0.0
4.0 0.5 0.0
4.4 0.5 0.0
4.800000000000001 0.5 0.0
5.2 0.5 0.0
5.6000000000000005 0.5 0.0
6.0 0.5 0.0
6.4 0.5 0.0
6.800000000000001 0.5 0.0
7.2 0.5 0.0
7.6000000000000005 0.5 0.0
8.0 0.5 0.0
8.4 0.5 0.0
8.8 0.5 0.0
9.200000000000001 0.5 0.0
9.600000000000001 0.5 0.0
10.0 0.5 0.0
10.4 0.5 0.0
10.8 0.5 0.0
11.200000000000001 0.5 0.0
11.600000000000001 0.5 0.0
12.0 0.5 0.0
12.4 0.5 0.0
12.8 0.5 0.0
13.200000000000001 0.5 0.0
13.600000000000001 0.5 0.0
14.0 0.5 0.0
14.4 0.5 0.0
14.8 0.5 0.0
15.200000000000001 0.5 0.0
15.600000000000001 0.5 0.0
16.0 0.5 0.0
0.0 0.6000000000000001 0.0
0.4 0.6000000000000001 0.0
0.8 0.6000000000000001 0.0
1.2000000000000002 0.6000000000000001 0.0
1.6 0.6000000000000001 0.0
2.0 0.6000000000000001 0.0
2.4000000000000004 0.6000000000000001 0.0
2.8000000000000003 0.6000000000000001 0.0
3.2 0.6000000000000001 0.0
3.6 0.6000000000000001 0.0
4.0 0.6000000000000001 0.0
4.4 0.6000000000000001 0.0
4.800000000000001 0.6000000000000001 0.0
5.2 0.6000000000000001 0.0
5.6000000000000005 0.6000000000000001 0.0
6.0 0.6000000000000001 0.0
6.4 0.6000000000000001 0.0
6.800000000000001 0.6000000000000001 0.0
7.2 0.6000000000000001 0.0
7.6000000000000005 0.6000000000000001 0.0
8.0 0.6000000000000001 0.0
8.4 0.6000000000000001 0.0
8.8 0.6000000000000001 0.0
9.200000000000001 0.6000000000000001 0.0
9.600000000000001 0.6000000000000001 0.0
10.0 0.6000000000000001 0.0
10.4 0.6000000000000001 0.0
10.8 0.6000000000000001 0.0
11.200000000000001 0.6000000000000001 0.0
11.600000000000001 0.6000000000000001 0.0
12.0 0.6000000000000001 0.0
12.4 0.6000000000000001 0.0
12.8 0.6000000000000001 0.0
13.200000000000001 0.6000000000000001 0.0
13.600000000000001 0.6000000000000001 0.0
14.0 0.6000000000000001 0.0
14.4 0.6000000000000001 0.0
14.8 0.6000000000000001 0.0
15.200000000000001 0.6000000000000001 0.0
15.600000000000001 0.6000000000000001 0.0
16.0 0.6000000000000001 0.0
0.0 0.7000000000000001 0.0
0.4 0.7000000000000001 0.0
0.8 0.7000000000000001 0.0
1.2000000000000002 0.7000000000000001 0.0
1.6 0.7000000000000001 0.0
2.0 0.7000000000000001 0.0
2.4000000000000004 0.7000000000000001 0.0
2.8000000000000003 0.7000000000000001 0.0
3.2 0.7000000000000001 0.0
3.6 0.7000000000000001 0.0
4.0 0.7000000000000001 0.0
4.4 0.7000000000000001 0.0
4.800000000000001 0.7000000000000001 0.0
5.2 0.7000000000000001 0.0
5.6000000000000005 0.7000000000000001 0.0
6.0 0.7000000000000001 0.0
6.4 0.7000000000000001 0.0
6.800000000000001 0.7000000000000001 0.0
7.2 0.7000000000000001 0.0
7.6000000000000005 0.7000000000000001 0.0
8.0 0.7000000000000001 0.0
8.4 0.7000000000000001 0.0
8.8 0.7000000000000001 0.0
9.200000000000001 0.7000000000000001 0.0
9.600000000000001 0.7000000000000001 0.0
10.0 0.7000000000000001 0.0
10.4 0.7000000000000001 0.0
10.8 0.7000000000000001 0.0
11.200000000000001 0.7000000000000001 0.0
11.600000000000001 0.7000000000000001 0.0
12.0 0.7000000000000001 0.0
12.4 0.7000000000000001 0.0
12.8 0.7000000000000001 0.0
13.200000000000001 0.7000000000000001 0.0
13.600000000000001 0.7000000000000001 0.0
14.0 0.7000000000000001 0.0
14.4 0.7000000000000001 0.0
14.8 0.7000000000000001 0.0
15.200000000000001 0.7000000000000001 0.0
15.600000000000001 0.7000000000000001 0.0
16.0 0.7000000000000001 0.0
0.0 0.8 0.0
0.4 0.8 0.0
0.8 0.8 0.0
1.2000000000000002 0.8 0.0
1.6 0.8 0.0
2.0 0.8 0.0
2.4000000000000004 0.8 0.0
2.8000000000000003 0.8 0.0
3.2 0.8 0.0
3.6 0.8 0.0
4.0 0.8 0.0
4.4 0.8 0.0
4.800000000000001 0.8 0.0
5.2 0.8 0.0
5.6000000000000005 0.8 0.0
6.0 0.8 0.0
6.4 0.8 0.0
6.800000000000001 0.8 0.0
7.2 0.8 0.0
7.6000000000000005 0.8 0.0
8.0 0.8 0.0
8.4 0.8 0.0
8.8 0.8 0.0
9.200000000000001 0.8 0.0
9.600000000000001 0.8 0.0
10.0 0.8 0.0
10.4 0.8 0.0
10.8 0.8 0.0
11.200000000000001 0.8 0.0
11.600000000000001 0.8 0.0
12.0 0.8 0.0
12.4 0.8 0.0
12.8 0.8 0.0
13.200000000000001 0.8 0.0
13.600000000000001 0.8 0.0
14.0 0.8 0.0
14.4 0.8 0.0
14.8 0.8 0.0
15.200000000000001 0.8 0.0
15.600000000000001 0.8 0.0
16.0 0.8 0.0
0.0 0.9 0.0
0.4 0.9 0.0
0.8 0.9 0.0
1.2000000000000002 0.9 0.0
1.6 0.9 0.0
2.0 0.9 0.0
2.4000000000000004 0.9 0.0
2.8000000000000003 0.9 0.0
3.2 0.9 0.0
3.6 0.9 0.0
4.0 0.9 0.0
4.4 0.9 0.0
4.800000000000001 0.9 0.0
5.2 0.9 0.0
5.6000000000000005 0.9 0.0
6.0 0.9 0.0
6.4 0.9 0.0
6.800000000000001 0.9 0.0
7.2 0.9 0.0
7.6000000000000005 0.9 0.0
8.0 0.9 0.0
8.4 0.9 0.0
8.8 0.9 0.0
9.200000000000001 0.9 0.0
9.600000000000001 0.9 0.0
10.0 0.9 0.0
10.4 0.9 0.0
10.8 0.9 0.0
11.200000000000001 0.9 0.0
11.600000000000001 0.9 0.0
12.0 0.9 0.0
12.4 0.9 0.0
12.8 0.9 0.0
13.200000000000001 0.9 0.0
13.600000000000001 0.9 0.0
14.0 0.9 0.0
14.4 0.9 0.0
14.8 0.9 0.0
15.200000000000001 0.9 0.0
15.600000000000001 0.9 0.0
16.0 0.9 0.0
0.0 1.0 0.0
0.4 1.0 0.0
0.8 1.0 0.0
1.2000000000000002 1.0 0.0
1.6 1.0 0.0
2.0 1.0 0.0
2.4000000000000004 1.0 0.0
2.8000000000000003 1.0 0.0
3.2 1.0 0.0
3.6 1.0 0.0
4.0 1.0 0.0
4.4 1.0 0.0
4.800000000000001 1.0 0.0
5.2 1.0 0.0
5.6000000000000005 1.0 0.0
6.0 1.0 0.0
6.4 1.0 0.0
6.800000000000001 1.0 0.0
7.2 1.0 0.0
7.6000000000000005 1.0 0.0
8.0 1.0 0.0
8.4 1.0 0.0
8.8 1.0 0.0
9.200000000000001 1.0 0.0
9.600000000000001 1.0 0.0
10.0 1.0 0.0
10.4 1.0 0.0
10.8 1.0 0.0
11.200000000000001 1.0 0.0
11.600000000000001 1.0 0.0
12.0 1.0 0.0
12.4 1.0 0.0
12.8 1.0 0.0
13.200000000000001 1.0 0.0
13.600000000000001 1.0 0.0
14.0 1.0 0.0
14.4 1.0 0.0
14.8 1.0 0.0
15.200000000000001 1.0 0.0
15.600000000000001 1.0 0.0
16.0 1.0 0.0
0.0 1.1 0.0
0.4 1.1 0.0
0.8 1.1 0.0
1.2000000000000002 1.1 0.0
1.6 1.1 0.0
2.0 1.1 0.0
2.4000000000000004 1.1 0.0
2.8000000000000003 1.1 0.0
3.2 1.1 0.0
3.6 1.1 0.0
4.0 1.1 0.0
4.4 1.1 0.0
4.800000000000001 1.1 0.0
5.2 1.1 0.0
5.6000000000000005 1.1 0.0
6.0 1.1 0.0
6.4 1.1 0.0
6.800000000000001 1.1 0.0
7.2 1.1 0.0
7.6000000000000005 1.1 0.0
8.0 1.1 0.0
8.4 1.1 0.0
8.8 1.1 0.0
9.200000000000001 1.1 0.0
9.600000000000001 1.1 0.0
10.0 1.1 0.0
10.4 1.1 0.0
10.8 1.1 0.0
11.200000000000001 1.1 0.0
11.600000000000001 1.1 0.0
12.0 1.1 0.0
12.4 1.1 0.0
12.8 1.1 0.0
13.200000000000001 1.1 0.0
13.600000000000001 1.1 0.0
14.0 1.1 0.0
14.4 1.1 0.0
14.8 1.1 0.0
15.200000000000001 1.1 0.0
15.600000000000001 1.1 0.0
16.0 1.1 0.0
0.0 1.2000000000000002 0.0
0.4 1.2000000000000002 0.0
0.8 1.2000000000000002 0.0
1.2000000000000002 1.2000000000000002 0.0
1.6 1.2000000000000002 0.0
2.0 1.2000000000000002 0.0
2.4000000000000004 1.2000000000000002 0.0
2.8000000000000003 1.2000000000000002 0.0
3.2 1.2000000000000002 0.0
3.6 1.2000000000000002 0.0
4.0 1.2000000000000002 0.0
4.4 1.2000000000000002 0.0
4.800000000000001 1.2000000000000002 0.0
5.2 1.2000000000000002 0.0
5.6000000000000005 1.2000000000000002 0.0
6.0 1.2000000000000002 0.0
6.4 1.2000000000000002 0.0
6.800000000000001 1.2000000000000002 0.0
7.2 1.2000000000000002 0.0
7.6000000000000005 1.2000000000000002 0.0
8.0 1.2000000000000002 0.0
8.4 1.2000000000000002 0.0
8.8 1.2000000000000002 0.0
9.200000000000001 1.2000000000000002 0.0
9.600000000000001 1.2000000000000002 0.0
10.0 1.2000000000000002 0.0
10.4 1.2000000000000002 0.0
10.8 1.2000000000000002 0.0
11.200000000000001 1.2000000000000002 0.0
11.600000000000001 1.2000000000000002 0.0
12.0 1.2000000000000002 0.0
12.4 1.2000000000000002 0.0
12.8 1.2000000000000002 0.0
13.200000000000001 1.2000000000000002 0.0
13.600000000000001 1.2000000000000002 0.0
14.0 1.2000000000000002 0.0
14.4 1.2000000000000002 0.0
14.8 1.2000000000000002 0.0
15.200000000000001 1.2000000000000002 0.0
15.600000000000001 1.2000000000000002 0.0
16.0 1.2000000000000002 0.0
0.0 1.3 0.0
0.4 1.3 0.0
0.8 1.3 0.0
1.2000000000000002 1.3 0.0
1.6 1.3 0.0
2.0 1.3 0.0
2.4000000000000004 1.3 0.0
2.8000000000000003 1.3 0.0
3.2 1.3 0.0
3.6 1.3 0.0
4.0 1.3 0.0
4.4 1.3 0.0
4.800000000000001 1.3 0.0
5.2 1.3 0.0
5.6000000000000005 1.3 0.0
6.0 1.3 0.0
6.4 1.3 0.0
6.800000000000001 1.3 0.0
7.2 1.3 0.0
7.6000000000000005 1.3 0.0
8.0 1.3 0.0
8.4 1.3 0.0
8.8 1.3 0.0
9.200000000000001 1.3 0.0
9.600000000000001 1.3 0.0
10.0 1.3 0.0
10.4 1.3 0.0
10.8 1.3 0.0
11.200000000000001 1.3 0.0
11.600000000000001 1.3 0.0
12.0 1.3 0.0
12.4 1.3 0.0
12.8 1.3 0.0
13.200000000000001 1.3 0.0
13.600000000000001 1.3 0.0
14.0 1.3 0.0
14.4 1.3 0.0
14.8 1.3 0.0
15.200000000000001 1.3 0.0
15.600000000000001 1.3 0.0
16.0 1.3 0.0
0.0 1.4000000000000001 0.0
0.4 1.4000000000000001 0.0
0.8 1.4000000000000001 0.0
1.2000000000000002 1.4000000000000001 0.0
1.6 1.4000000000000001 0.0
2.0 1.4000000000000001 0.0
2.4000000000000004 1.4000000000000001 0.0
2.8000000000000003 1.4000000000000001 0.0
3.2 1.4000000000000001 0.0
3.6 1.4000000000000001 0.0
4.0 1.4000000000000001 0.0
4.4 1.4000000000000001 0.0
4.800000000000001 1.4000000000000001 0.0
5.2 1.4000000000000001 0.0
5.6000000000000005 1.4000000000000001 0.0
6.0 1.4000000000000001 0.0
6.4 1.4000000000000001 0.0
6.800000000000001 1.4000000000000001 0.0
7.2 1.4000000000000001 0.0
7.6000000000000005 1.4000000000000001 0.0
8.0 1.4000000000000001 0.0
8.4 1.4000000000000001 0.0
8.8 1.4000000000000001 0.0
9.200000000000001 1.4000000000000001 0.0
9.600000000000001 1.4000000000000001 0.0
10.0 1.4000000000000001 0.0
10.4 1.4000000000000001 0.0
10.8 1.4000000000000001 0.0
11.200000000000001 1.4000000000000001 0.0
11.600000000000001 1.4000000000000001 0.0
12.0 1.4000000000000001 0.0
12.4 1.4000000000000001 0.0
12.8 1.4000000000000001 0.0
13.200000000000001 1.4000000000000001 0.0
13.600000000000001 1.4000000000000001 0.0
14.0 1.4000000000000001 0.0
14.4 1.4000000000000001 0.0
14.8 1.4000000000000001 0.0
15.200000000000001 1.4000000000000001 0.0
15.600000000000001 1.4000000000000001 0.0
16.0 1.4000000000000001 0.0
0.0 1.5 0.0
0.4 1.5 0.0
0.8 1.5 0.0
1.2000000000000002 1.5 0.0
1.6 1.5 0.0
2.0 1.5 0.0
2.4000000000000004 1.5 0.0
2.8000000000000003 1.5 0.0
3.2 1.5 0.0
3.6 1.5 0.0
4.0 1.5 0.0
4.4 1.5 0.0
4.800000000000001 1.5 0.0
5.2 1.5 0.0
5.6000000000000005 1.5 0.0
6.0 1.5 0.0
6.4 1.5 0.0
6.800000000000001 1.5 0.0
7.2 1.5 0.0
7.6000000000000005 1.5 0.0
8.0 1.5 0.0
8.4 1.5 0.0
8.8 1.5 0.0
9.200000000000001 1.5 0.0
9.600000000000001 1.5 0.0
10.0 1.5 0.0
10.4 1.5 0.0
10.8 1.5 0.0
11.200000000000001 1.5 0.0
11.600000000000001 1.5 0.0
12.0 1.5 0.0
12.4 1.5 0.0
12.8 1.5 0.0
13.200000000000001 1.5 0.0
13.600000000000001 1.5 0.0
14.0 1.5 0.0
14.4 1.5 0.0
14.8 1.5 0.0
15.200000000000001 1.5 0.0
15.600000000000001 1.5 0.0
16.0 1.5 0.0
0.0 1.6 0.0
0.4 1.6 0.0
0.8 1.6 0.0
1.2000000000000002 1.6 0.0
1.6 1.6 0.0
2.0 1.6 0.0
2.4000000000000004 1.6 0.0
2.8000000000000003 1.6 0.0
3.2 1.6 0.0
3.6 1.6 0.0
4.0 1.6 0.0
4.4 1.6 0.0
4.800000000000001 1.6 0.0
5.2 1.6 0.0
5.6000000000000005 1.6 0.0
6.0 1.6 0.0
6.4 1.6 0.0
6.800000000000001 1.6 0.0
7.2 1.6 0.0
7.6000000000000005 1.6 0.0
8.0 1.6 0.0
8.4 1.6 0.0
8.8 1.6 0.0
9.200000000000001 1.6 0.0
9.600000000000001 1.6 0.0
10.0 1.6 0.0
10.4 1.6 0.0
10.8 1.6 0.0
11.200000000000001 1.6 0.0
11.600000000000001 1.6 0.0
12.0 1.6 0.0
12.4 1.6 0.0
12.8 1.6 0.0
13.200000000000001 1.6 0.0
13.600000000000001 1.6 0.0
14.0 1.6 0.0
14.4 1.6 0.0
14.8 1.6 0.0
15.200000000000001 1.6 0.0
15.600000000000001 1.6 0.0
16.0 1.6 0.0
0.0 1.7000000000000002 0.0
0.4 1.7000000000000002 0.0
0.8 1.7000000000000002 0.0
1.2000000000000002 1.7000000000000002 0.0
1.6 1.7000000000000002 0.0
2.0 1.7000000000000002 0.0
2.4000000000000004 1.7000000000000002 0.0
2.8000000000000003 1.7000000000000002 0.0
3.2 1.7000000000000002 0.0
3.6 1.7000000000000002 0.0
4.0 1.7000000000000002 0.0
4.4 1.7000000000000002 0.0
4.800000000000001 1.7000000000000002 0.0
5.2 1.7000000000000002 0.0
5.6000000000000005 1.7000000000000002 0.0
6.0 1.7000000000000002 0.0
6.4 1.7000000000000002 0.0
6.800000000000001 1.7000000000000002 0.0
7.2 1.7000000000000002 0.0
7.6000000000000005 1.7000000000000002 0.0
8.0 1.7000000000000002 0.0
8.4 1.7000000000000002 0.0
8.8 1.7000000000000002 0.0
9.200000000000001 1.7000000000000002 0.0
9.600000000000001 1.7000000000000002 0.0
10.0 1.7000000000000002 0.0
10.4 1.7000000000000002 0.0
10.8 1.7000000000000002 0.0
11.200000000000001 1.7000000000000002 0.0
11.600000000000001 1.7000000000000002 0.0
12.0 1.7000000000000002 0.0
12.4 1.7000000000000002 0.0
12.8 1.7000000000000002 0.0
13.200000000000001 1.7000000000000002 0.0
13.600000000000001 1.7000000000000002 0.0
14.0 1.7000000000000002 0.0
14.4 1.7000000000000002 0.0
14.8 1.7000000000000002 0.0
15.200000000000001 1.7000000000000002 0.0
15.600000000000001 1.7000000000000002 0.0
16.0 1.7000000000000002 0.0
0.0 1.8 0.0
0.4 1.8 0.0
0.8 1.8 0.0
1.2000000000000002 1.8 0.0
1.6 1.8 0.0
2.0 1.8 0.0
2.4000000000000004 1.8 0.0
2.8000000000000003 1.8 0.0
3.2 1.8 0.0
3.6 1.8 0.0
4.0 1.8 0.0
4.4 1.8 0.0
4.800000000000001 1.8 0.0
5.2 1.8 0.0
5.6000000000000005 1.8 0.0
6.0 1.8 0.0
6.4 1.8 0.0
6.800000000000001 1.8 0.0
7.2 1.8 0.0
7.6000000000000005 1.8 0.0
8.0 1.8 0.0
8.4 1.8 0.0
8.8 1.8 0.0
9.200000000000001 1.8 0.0
9.600000000000001 1.8 0.0
10.0 1.8 0.0
10.4 1.8 0.0
10.8 1.8 0.0
11.200000000000001 1.8 0.0
11.600000000000001 1.8 0.0
12.0 1.8 0.0
12.4 1.8 0.0
12.8 1.8 0.0
13.200000000000001 1.8 0.0
13.600000000000001 1.8 0.0
14.0 1.8 0.0
14.4 1.8 0.0
14.8 1.8 0.0
15.200000000000001 1.8 0.0
15.600000000000001 1.8 0.0
16.0 1.8 0.0
0.0 1.9000000000000001 0.0
0.4 1.9000000000000001 0.0
0.8 1.9000000000000001 0.0
1.2000000000000002 1.9000000000000001 0.0
1.6 1.9000000000000001 0.0
2.0 1.9000000000000001 0.0
2.4000000000000004 1.9000000000000001 0.0
2.8000000000000003 1.9000000000000001 0.0
3.2 1.9000000000000001 0.0
3.6 1.9000000000000001 0.0
4.0 1.9000000000000001 0.0
4.4 1.9000000000000001 0.0
4.800000000000001 1.9000000000000001 0.0
5.2 1.9000000000000001 0.0
5.6000000000000005 1.9000000000000001 0.0
6.0 1.9000000000000001 0.0
6.4 1.9000000000000001 0.0
6.800000000000001 1.9000000000000001 0.0
7.2 1.9000000000000001 0.0
7.6000000000000005 1.9000000000000001 0.0
8.0 1.9000000000000001 0.0
8.4 1.9000000000000001 0.0
8.8 1.9000000000000001 0.0
9.200000000000001 1.9000000000000001 0.0
9.600000000000001 1.9000000000000001 0.0
10.0 1.9000000000000001 0.0
10.4 1.9000000000000001 0.0
10.8 1.9000000000000001 0.0
11.200000000000001 1.9000000000000001 0.0
11.600000000000001 1.9000000000000001 0.0
12.0 1.9000000000000001 0.0
12.4 1.9000000000000001 0.0
12.8 1.9000000000000001 0.0
13.200000000000001 1.9000000000000001 0.0
13.600000000000001 1.9000000000000001 0.0
14.0 1.9000000000000001 0.0
14.4 1.9000000000000001 0.0
14.8 1.9000000000000001 0.0
15.200000000000001 1.9000000000000001 0.0
15.600000000000001 1.9000000000000001 0.0
16.0 1.9000000000000001 0.0
0.0 2.0 0.0
0.4 2.0 0.0
0.8 2.0 0.0
1.2000000000000002 2.0 0.0
1.6 2.0 0.0
2.0 2.0 0.0
2.4000000000000004 2.0 0.0
2.8000000000000003 2.0 0.0
3.2 2.0 0.0
3.6 2.0 0.0
4.0 2.0 0.0
4.4 2.0 0.0
4.800000000000001 2.0 0.0
5.2 2.0 0.0
5.6000000000000005 2.0 0.0
6.0 2.0 0.0
6.4 2.0 0.0
6.800000000000001 2.0 0.0
7.2 2.0 0.0
7.6000000000000005 2.0 0.0
8.0 2.0 0.0
8.4 2.0 0.0
8.8 2.0 0.0
9.200000000000001 2.0 0.0
9.600000000000001 2.0 0.0
10.0 2.0 0.0
10.4 2.0 0.0
10.8 2.0 0.0
11.200000000000001 2.0 0.0
11.600000000000001 2.0 0.0
12.0 2.0 0.0
12.4 2.0 0.0
12.8 2.0 0.0
13.200000000000001 2.0 0.0
13.600000000000001 2.0 0.0
14.0 2.0 0.0
14.4 2.0 0.0
14.8 2.0 0.0
15.200000000000001 2.0 0.0
15.600000000000001 2.0 0.0
16.0 2.0 0.0
CELLS 800 4000
4 0 1 42 41
4 1 2 43 42
4 2 3 44 43
4 3 4 45 44
4 4 5 46 45
4 5 6 47 46
4 6 7 48 47
4 7 8 49 48
4 8 9 50 49
4 9 10 51 50
4 10 11 52 51
4 11 12 53 52
4 12 13 54 53
4 13 14 55 54
4 14 15 56 55
4 15 16 57 56
4 16 17 58 57
4 17 18 59 58
4 18 19 60 59
4 19 20 61 60
4 20 21 62 61
4 21 22 63 62
4 22 23 64 63
4 23 24 65 64
4 24 25 66 65
4 25 26 67 66
4 26 27 68 67
4 27 28 69 68
4 28 29 70 69
4 29 30 71 70
4 30 31 72 71
4 31 32 73 72
4 32 33 74 73
4 33 34 75 74
4 34 35 76 75
4 35 36 77 76
4 36 37 78 77
4 37 38 79 78
4 38 39 80 79
4 39 40 81 80
4 41 42 83 82
4 42 43 84 83
4 43 44 85 84
4 44 45 86 85
4 45 46 87 86
4 46 47 88 87
4 47 48 89 88
4 48 49 90 89
4 49 50 91 90
4 50 51 92 91
4 51 52 93 92
4 52 53 94 93
4 53 54 95 94
4 54 55 96 95
4 55 56 97 96
4 56 57 98 97
4 57 58 99 98
4 58 59 100 99
4 59 60 101 100
4 60 61 102 101
4 61 62 103 102
4 62 63 104 103
4 63 64 105 104
4 64 65 106 105
4 65 66 107 106
4 66 67 108 107
4 67 68 109 108
4 68 69 110 109
4 69 70 111 110
4 70 71 112 111
4 71 72 113 112
4 72 73 114 113
4 73 74 115 114
4 74 75 116 115
4 75 76 117 116
4 76 77 118 117
4 77 78 119 118
4 78 79 120 119
4 79 80 121 120
4 80 81 122 121
4 82 83 124 123
4 83 84 125 124
4 84 85 126 125
4 85 86 127 126
4 86 87 128 127
4 87 88 129 128
4 88 89 130 129
4 89 90 131 130
4 90 91 132 131
4 91 92 133 132
4 92 93 134 133
4 93 94 135 134
4 94 95 136 135
4 95 96 137 136
4 96 97 138 137
4 97 98 139 138
4 98 99 140 139
4 99 100 141 140
4 100 101 142 141
4 101 102 143 142
4 102 103 144 143
4 103 104 145 144
4 104 105 146 145
4 105 106 147 146
4 106 107 148 147
4 107 108 149 148
4 108 109 150 149
4 109 110 151 150
4 110 111 152 151
4 111 112 153 152
4 112 113 154 153
4 113 114 155 154
4 114 115 156 155
4 115 116 157 156
4 116 117 158 157
4 117 118 159 158
4 118 119 160 159
4 119 120 161 160
4 120 121 162 161
4 121 122 163 162
4 123 124 165 164
4 124 125 166 165
4 125 126 167 166
4 126 127 168 167
4 127 128 169 168
4 128 129 170 169
4 129 130 171 170
4 130 131 172 171
4 131 132 173 172
4 132 133 174 173
4 133 134 175 174
4 134 135 176 175
4 135 136 177 176
4 136 137 178 177
4 137 138 179 178
4 138 139 180 179
4 139 140 181 180
4 140 141 182 181
4 141 142 183 182
4 142 143 184 183
4 143 144 185 184
4 144 145 186 185
4 145 146 187 186
4 146 147 188 187
4 147 148 189 188
4 148 149 190 189
4 149 150 191 190
4 150 151 192 191
4 151 152 193 192
4 152 153 194 193
4 153 154 195 194
4 154 155 196 195
4 155 156 197 196
4 156 157 198 197
4 157 158 199 198
4 158 159 200 199
4 159 160 201 200
4 160 161 202 201
4 161 162 203 202
4 162 163 204 203
4 164 165 206 205
4 165 166 207 206
4 166 167 208 207
4 167 168 209 208
4 168 169 210 209
4 169 170 211 210
4 170 171 212 211
4 171 172 213 212
4 172 173 214 213
4 173 174 215 214
4 174 175 216 215
4 175 176 217 216
4 176 177 218 217
4 177 178 219 218
4 178 179 220 219
4 179 180 221 220
4 180 181 222 221
4 181 182 223 222
4 182 183 224 223
4 183 184 225 224
4 184 185 226 225
4 185 186 227 226
4 186 187 228 227
4 187 188 229 228
4 188 189 230 229
4 189 190 231 230
4 190 191 232 231
4 191 192 233 232
4 192 193 234 233
4 193 194 235 234
4 194 195 236 235
4 195 196 237 236
4 196 197 238 237
4 197 198 239 238
4 198 199 240 239
4 199 200 241 240
4 200 201 242 241
4 201 202 243 242
4 202 203 244 243
4 203 204 245 244
4 205 206 247 246
4 206 207 248 247
4 207 208 249 248
4 208 209 250 249
4 209 210 251 250
4 210 211 252 251
4 211 212 253 252
4 212 213 254 253
4 213 214 255 254
4 214 215 256 255
4 215 216 257 256
4 216 217 258 257
4 217 218 259 258
4 218 219 260 259
4 219 220 261 260
4 220 221 262 261
4 221 222 263 262
4 222 223 264 263
4 223 224 265 264
4 224 225 266 265
4 225 226 267 266
4 226 227 268 267
4 227 228 269 268
4 228 229 270 269
4 229 230 271 270
4 230 231 272 271
4 231 232 273 272
4 232 233 274 273
4 233 234 275 274
4 234 235 276 275
4 235 236 277 276
4 236 237 278 277
4 237 238 279 278
4 238 239 280 279
4 239 240 281 280
4 240 241 282 281
4 241 242 283 282
4 242 243 284 283
4 243 244 285 284
4 244 245 286 285
4 246 247 288 287
4 247 248 289 288
4 248 249 290 289
4 249 250 291 290
4 250 251 292 291
4 251 252 293 292
4 252 253 294 293
4 253 254 295 294
4 254 255 296 295
4 255 256 297 296
4 256 257 298 297
4 257 258 299 298
4 258 259 300 299
4 259 260 301 300
4 260 261 302 301
4 261 262 303 302
4 262 263 304 303
4 263 264 305 304
4 264 265 306 305
4 265 266 307 306
4 266 267 308 307
4 267 268 309 308
4 268 269 310 309
4 269 270 311 310
4 270 271 312 311
4 271 272 313 312
4 272 273 314 313
4 273 274 315 314
4 274 275 316 315
4 275 276 317 316
4 276 277 318 317
4 277 278 319 318
4 278 279 320 319
4 279 280 321 320
4 280 281 322 321
4 281 282 323 322
4 282 283 324 323
4 283 284 325 324
4 284 285 326 325
4 285 286 327 326
4 287 288 329 328
4 288 289 330 329
4 289 290 331 330
4 290 291 332 331
4 291 292 333 332
4 292 293 334 333
4 293 294 335 334
4 294 295 336 335
4 295 296 337 336
4 296 297 338 337
4 297 298 339 338
4 298 299 340 339
4 299 300 341 340
4 300 301 342 341
4 301 302 343 342
4 302 303 344 343
4 303 304 345 344
4 304 305 346 345
4 305 306 347 346
4 306 307 348 347
4 307 308 349 348
4 308 309 350 349
4 309 310 351 350
4 310 311 352 351
4 311 312 353 352
4 312 313 354 353
4 313 314 355 354
4 314 315 356 355
4 315 316 357 356
4 316 317 358 357
4 317 318 359 358
4 318 319 360 359
4 319 320 361 360
4 320 321 362 361
4 321 322 363 362
4 322 323 364 363
4 323 324 365 364
4 324 325 366 365
4 325 326 367 366
4 326 327 368 367
4 328 329 370 369
4 329 330 371 370
4 330 331 372 371
4 331 332 373 372
4 332 333 374 373
4 333 334 375 374
4 334 335 376 375
4 335 336 377 376
4 336 337 378 377
4 337 338 379 378
4 338 339 380 379
4 339 340 381 380
4 340 341 382 381
4 341 342 383 382
4 342 343 384 383
4 343 344 385 384
4 344 345 386 385
4 345 346 387 386
4 346 347 388 387
4 347 348 389 388
4 348 349 390 389
4 349 350 391 390
4 350 351 392 391
4 351 352 393 392
4 352 353 394 393
4 353 354 395 394
4 354 355 396 395
4 355 356 397 396
4 356 357 398 397
4 357 358 399 398
4 358 359 400 399
4 359 360 401 400
4 360 361 402 401
4 361 362 403 402
4 362 363 404 403
4 363 364 405 404
4 364 365 406 405
4 365 366 407 406
4 366 367 408 407
4 367 368 409 408
4 369 370 411 410
4 370 371 412 411
4 371 372 413 412
4 372 373 414 413
4 373 374 415 414
4 374 375 416 415
4 375 376 417 416
4 376 377 418 417
4 377 378 419 418
4 378 379 420 419
4 379 380 421 420
4 380 381 422 421
4 381 382 423 422
4 382 383 424 423
4 383 384 425 424
4 384 385 426 425
4 385 386 427 426
4 386 387 428 427
4 387 388 429 428
4 388 389 430 429
4 389 390 431 430
4 390 391 432 431
4 391 392 433 432
4 392 393 434 433
4 393 394 435 434
4 394 395 436 435
4 395 396 437 436
4 396 397 438 437
4 397 398 439 438
4 398 399 440 439
4 399 400 441 440
4 400 401 442 441
4 401 402 443 442
4 402 403 444 443
4 403 404 445 444
4 404 405 446 445
4 405 406 447 446
4 406 407 448 447
4 407 408 449 448
4 408 409 450 449
4 410 411 452 451
4 411 412 453 452
4 412 413 454 453
4 413 414 455 454
4 414 415 456 455
4 415 416 457 456
4 416 417 458 457
4 417 418 459 458
4 418 419 460 459
4 419 420 461 460
4 420 421 462 461
4 421 422 463 462
4 422 423 464 463
4 423 424 465 464
4 424 425 466 465
4 425 426 467 466
4 426 427 468 467
4 427 428 469 468
4 428 429 470 469
4 429 430 471 470
4 430 431 472 471
4 431 432 473 472
4 432 433 474 473
4 433 434 475 474
4 434 435 476 475
4 435 436 477 476
4 436 437 478 477
4 437 438 479 478
4 438 439 480 479
4 439 440 481 480
4 440 441 482 481
4 441 442 483 482
4 442 443 484 483
4 443 444 485 484
4 444 445 486 485
4 445 446 487 486
4 446 447 488 487
4 447 448 489 488
4 448 449 490 489
4 449 450 491 490
4 451 452 493 492
4 452 453 494 493
4 453 454 495 494
4 454 455 496 495
4 455 456 497 496
4 456 457 498 497
4 457 458 499 498
4 458 459 500 499
4 459 460 501 500
4 460 461 502 501
4 461 462 503 502
4 462 463 504 503
4 463 464 505 504
4 464 465 506 505
4 465 466 507 506
4 466 467 508 507
4 467 468 509 508
4 468 469 510 509
4 469 470 511 510
4 470 471 512 511
4 471 472 513 512
4 472 473 514 513
4 473 474 515 514
4 474 475 516 515
4 475 476 517 516
4 476 477 518 517
4 477 478 519 518
4 478 479 520 519
4 479 480 521 520
4 480 481 522 521
4 481 482 523 522
4 482 483 524 523
4 483 484 525 524
4 484 485 526 525
4 485 486 527 526
4 486 487 528 527
4 487 488 529 528
4 488 489 530 529
4 489 490 531 530
4 490 491 532 531
4 492 493 534 533
4 493 494 535 534
4 494 495 536 535
4 495 496 537 536
4 496 497 538 537
4 497 498 539 538
4 498 499 540 539
4 499 500 541 540
4 500 501 542 541
4 501 502 543 542
4 502 503 544 543
4 503 504 545 544
4 504 505 546 545
4 505 506 547 546
4 506 507 548 547
4 507 508 549 548
4 508 509 550 549
4 509 510 551 550
4 510 511 552 551
4 511 512 553 552
4 512 513 554 553
4 513 514 555 554
4 514 515 556 555
4 515 516 557 556
4 516 517 558 557
4 517 518 559 558
4 518 519 560 559
4 519 520 561 560
4 520 521 562 561
4 521 522 563 562
4 522 523 564 563
4 523 524 565 564
4 524 525 566 565
4 525 526 567 566
4 526 527 568 567
4 527 528 569 568
4 528 529 570 569
4 529 530 571 570
4 530 531 572 571
4 531 532 573 572
4 533 534 575 574
4 534 535 576 575
4 535 536 577 576
4 536 537 578 577
4 537 538 579 578
4 538 539 580 579
4 539 540 581 580
4 540 541 582 581
4 541 542 583 582
4 542 543 584 583
4 543 544 585 584
4 544 545 586 585
4 545 546 587 586
4 546 547 588 587
4 547 548 589 588
4 548 549 590 589
4 549 550 591 590
4 550 551 592 591
4 551 552 593 592
4 552 553 594 593
4 553 554 595 594
4 554 555 596 595
4 555 556 597 596
4 556 557 598 597
4 557 558 599 598
4 558 559 600 599
4 559 560 601 600
4 560 561 602 601
4 561 562 603 602
4 562 563 604 603
4 563 564 605 604
4 564 565 606 605
4 565 566 607 606
4 566 567 608 607
4 567 568 609 608
4 568 569 610 609
4 569 570 611 610
4 570 571 612 611
4 571 572 613 612
4 572 573 614 613
4 574 575 616 615
4 575 576 617 616
4 576 577 618 617
4 577 578 619 618
4 578 579 620 619
4 579 580 621 620
4 580 581 622 621
4 581 582 623 622
4 582 583 624 623
4 583 584 625 624
4 584 585 626 625
4 585 586 627 626
4 586 587 628 627
4 587 588 629 628
4 588 589 630 629
4 589 590 631 630
4 590 591 632 631
4 591 592 633 632
4 592 593 634 633
4 593 594 635 634
4 594 595 636 635
4 595 596 637 636
4 596 597 638 637
4 597 598 639 638
4 598 599 640 639
4 599 600 641 640
4 600 601 642 641
4 601 602 643 642
4 602 603 644 643
4 603 604 645 644
4 604 605 646 645
4 605 606 647 646
4 606 607 648 647
4 607 608 649 648
4 608 609 650 649
4 609 610 651 650
4 610 611 652 651
4 611 612 653 652
4 612 613 654 653
4 613 614 655 654
4 615 616 657 656
4 616 617 658 657
4 617 618 659 658
4 618 619 660 659
4 619 620 661 660
4 620 621 662 661
4 621 622 663 662
4 622 623 664 663
4 623 624 665 664
4 624 625 666 665
4 625 626 667 666
4 626 627 668 667
4 627 628 669 668
4 628 629 670 669
4 629 630 671 670
4 630 631 672 671
4 631 632 673 672
4 632 633 674 673
4 633 634 675 674
4 634 635 676 675
4 635 636 677 676
4 636 637 678 677
4 637 638 679 678
4 638 639 680 679
4 639 640 681 680
4 640 641 682 681
4 641 642 683 682
4 642 643 684 683
4 643 644 685 684
4 644 645 686 685
4 645 646 687 686
4 646 647 688 687
4 647 648 689 688
4 648 649 690 689
4 649 650 691 690
4 650 651 692 691
4 651 652 693 692
4 652 653 694 693
4 653 654 695 694
4 654 655 696 695
4 656 657 698 697
4 657 658 699 698
4 658 659 700 699
4 659 660 701 700
4 660 661 702 701
4 661 662 703 702
4 662 663 704 703
4 663 664 705 704
4 664 665 706 705
4 665 666 707 706
4 666 667 708 707
4 667 668 709 708
4 668 669 710 709
4 669 670 711 710
4 670 671 712 711
4 671 672 713 712
4 672 673 714 713
4 673 674 715 714
4 674 675 716 715
4 675 676 717 716
4 676 677 718 717
4 677 678 719 718
4 678 679 720 719
4 679 680 721 720
4 680 681 722 721
4 681 682 723 722
4 682 683 724 723
4 683 684 725 724
4 684 685 726 725
4 685 686 727 726
4 686 687 728 727
4 687 688 729 728
4 688 689 730 729
4 689 690 731 730
4 690 691 732 731
4 691 692 733 732
4 692 693 734 733
4 693 694 735 734
4 694 695 736 735
4 695 696 737 736
4 697 698 739 738
4 698 699 740 739
4 699 700 741 740
4 700 701 742 741
4 701 702 743 742
4 702 703 744 743
4 703 704 745 744
4 704 705 746 745
4 705 706 747 746
4 706 707 748 747
4 707 708 749 748
4 708 709 750 749
4 709 710 751 750
4 710 711 752 751
4 711 712 753 752
4 712 713 754 753
4 713 714 755 754
4 714 715 756 755
4 715 716 757 756
4 716 717 758 757
4 717 718 759 758
4 718 719 760 759
4 719 720 761 760
4 720 721 762 761
4 721 722 763 762
4 722 723 764 763
4 723 724 765 764
4 724 725 766 765
4 725 726 767 766
4 726 727 768 767
4 727 728 769 768
4 728 729 770 769
4 729 730 771 770
4 730 731 772 771
4 731 732 773 772
4 732 733 774 773
4 733 734 775 774
4 734 735 776 775
4 735 736 777 776
4 736 737 778 777
4 738 739 780 779
4 739 740 781 780
4 740 741 782 781
4 741 742 783 782
4 742 743 784 783
4 743 744 785 784
4 744 745 786 785
4 745 746 787 786
4 746 747 788 787
4 747 748 789 788
4 748 749 790 789
4 749 750 791 790
4 750 751 792 791
4 751 752 793 792
4 752 753 794 793
4 753 754 795 794
4 754 755 796 795
4 755 756 797 796
4 756 757 798 797
4 757 758 799 798
4 758 759 800 799
4 759 760 801 800
4 760 761 802 801
4 761 762 803 802
4 762 763 804 803
4 763 764 805 804
4 764 765 806 805
4 765 766 807 806
4 766 767 808 807
4 767 768 809 808
4 768 769 810 809
4 769 770 811 810
4 770 771 812 811
4 771 772 813 812
4 772 773 814 813
4 773 774 815 814
4 774 775 816 815
4 775 776 817 816
4 776 777 818 817
4 777 778 819 818
4 779 780 821 820
4 780 781 822 821
4 781 782 823 822
4 782 783 824 823
4 783 784 825 824
4 784 785 826 825
4 785 786 827 826
4 786 787 828 827
4 787 788 829 828
4 788 789 830 829
4 789 790 831 830
4 790 791 832 831
4 791 792 833 832
4 792 793 834 833
4 793 794 835 834
4 794 795 836 835
4 795 796 837 836
4 796 797 838 837
4 797 798 839 838
4 798 799 840 839
4 799 800 841 840
4 800 801 842 841
4 801 802 843 842
4 802 803 844 843
4 803 804 845 844
4 804 805 846 845
4 805 806 847 846
4 806 807 848 847
4 807 808 849 848
4 808 809 850 849
4 809 810 851 850
4 810 811 852 851
4 811 812 853 852
4 812 813 854 853
4 813 814 855 854
4 814 815 856 855
4 815 816 857 856
4 816 817 858 857
4 817 818 859 858
4 818 819 860 859
CELL_TYPES 800
9
9
9
9
9
9
9
9
9
9
9
9
9
9
9
9
9
9
9
9
9
9
9
9
9
9
9
9
9
9
9
9
9
9
9
9
9
9
9
9
9
9
9
9
9
9
9
9
9
9
9
9
9
9
9
9
9
9
9
9
9
9
9
9
9
9
9
9
9
9
9
9
9
9
9
9
9
9
9
9
9
9
9
9
9
9
9
9
9
9
9
9
9
9
9
9
9
9
9
9
9
9
9
9
9
9
9
9
9
9
9
9
9
9
9
9
9
9
9
9
9
9
9
9
9
9
9
9
9
9
9
9
9
9
9
9
9
9
9
9
9
9
9
9
9
9
9
9
9
9
9
9
9
9
9
9
9
9
9
9
9
9
9
9
9
9
9
9
9
9
9
9
9
9
9
9
9
9
9
9
9
9
9
9
9
9
9
9
9
9
9
9
9
9
9
9
9
9
9
9
9
9
9
9
9
9
9
9
9
9
9
9
9
9
9
9
9
9
9
9
9
9
9
9
9
9
9
9
9
9
9
9
9
9
9
9
9
9
9
9
9
9
9
9
9
9
9
9
9
9
9
9
9
9
9
9
9
9
9
9
9
9
9
9
9
9
9
9
9
9
9
9
9
9
9
9
9
9
9
9
9
9
9
9
9
9
9
9
9
9
9
9
9
9
9
9
9
9
9
9
9
9
9
9
9
9
9
9
9
9
9
9
9
9
9
9
9
9
9
9
9
9
9
9
9
9
9
9
9
9
9
9
9
9
9
9
9
9
9
9
9
9
9
9
9
9
9
9
9
9
9
9
9
9
9
9
9
9
9
9
9
9
9
9
9
9
9
9
9
9
9
9
9
9
9
9
9
9
9
9
9
9
9
9
9
9
9
9
9
9
9
9
9
9
9
9
9
9
9
9
9
9
9
9
9
9
9
9
9
9
9
9
9
9
9
9
9
9
9
9
9
9
9
9
9
9
9
9
9
9
9
9
9
9
9
9
9
9
9
9
9
9
9
9
9
9
9
9
9
9
9
9
9
9
9
9
9
9
9
9
9
9
9
9
9
9
9
9
9
9
9
9
9
9
9
9
9
9
9
9
9
9
9
9
9
9
9
9
9
9
9
9
9
9
9
9
9
9
9
9
9
9
9
9
9
9
9
9
9
9
9
9
9
9
9
9
9
9
9
9
9
9
9
9
9
9
9
9
9
9
9
9
9
9
9
9
9
9
9
9
9
9
9
9
9
9
9
9
9
9
9
9
9
9
9
9
9
9
9
9
9
9
9
9
9
9
9
9
9
9
9
9
9
9
9
9
9
9
9
9
9
9
9
9
9
9
9
9
9
9
9
9
9
9
9
9
9
9
9
9
9
9
9
9
9
9
9
9
9
9
9
9
9
9
9
9
9
9
9
9
9
9
9
9
9
9
9
9
9
9
9
9
9
9
9
9
9
9
9
9
9
9
9
9
9
9
9
9
9
9
9
9
9
9
9
9
9
9
9
9
9
9
9
9
9
9
9
9
9
9
9
9
9
9
9
9
9
9
9
9
9
9
9
9
9
9
9
9
9
9
9
9
9
9
9
9
9
9
9
9
9
9
9
9
9
9
9
9
9
9
9
9
9
9
9
9
9
9
9
9
9
9
9
9
9
9
9
9
9
9
9
9
9
9
9
9
9
9
9
9
9
9
9
9
9
9
9
9
9
9
9
9
9
9
9
9
9
9
9
9
9
9
9
9
9
9
9
9
9
9
9
9
9
9
9
9
9
9
9
9
9
9
9
9
9
9
9
9
9
9
9
9
9
9
9
9
9
9
9
9
POINT_DATA 861
SCALARS Disp float 2
LOOKUP_TABLE default
0.0 0.0
0.005826998456698734 -0.2524429773060873
0.007159799141667906 -0.4956482469475862
0.00794622508266095 -0.7377988306253471
0.008964007514372062 -0.9795818322014163
0.010615194661699679 -1.2205836212261896
0.013524523998081229 -1.4602534199479789
0.018455075699714957 -1.697897562770778
0.026305297507013686 -1.9326487359902038
0.03805481598863024 -2.1633773042583666
0.054681736158999746 -2.388559023028916
0.07710800648713263 -2.606195140089327
0.10617396001992396 -2.813839301482313
0.14262952578485388 -3.008712380452367
0.187131210994599 -3.187786344605211
0.24017466069545407 -3.3478504240204177
0.30197244898568665 -3.485595696027709
0.37230699493105207 -3.5977518861678504
0.45040465470816377 -3.6813109494753373
0.5348835952176848 -3.7337741489853116
0.6235471776224858 -3.7534424658807253
0.7122107600272817 -3.7337741489851934
0.7966897005367852 -3.681310949475098
0.8747873603138661 -3.5977518861675044
0.945121906259192 -3.485595696027276
1.0069196945493821 -3.3478504240199225
1.0599631442501942 -3.1877863446046693
1.1044648294598975 -3.008712380451793
1.140920395224786 -2.813839301481725
1.169986348757536 -2.606195140088743
1.1924126190856323 -2.388559023028352
1.2090395392559714 -2.163377304257837
1.220789057737565 -1.9326487359897138
1.2286392795448464 -1.697897562770336
1.2335698312464682 -1.4602534199475892
1.2364791605828427 -1.2205836212258598
1.238130347730167 -0.9795818322011461
1.2391481301618774 -0.7377988306251402
1.2399345561028703 -0.4956482469474413
1.241267356787838 -0.25244297730600723
1.2470943552445333 0.0
0.06296845112186733 -0.002423268882988026
0.06704700881892955 -0.2527097300625665
0.06774186331907409 -0.49571038499215114
0.06843884759305195 -0.7378885929623973
0.0693310992491872 -0.9797280125239972
0.07073410818300337 -1.2209082743041606
0.07323517687921731 -1.4609284735579344
0.07755490703071437 -1.6991284868611867
0.08453717229230442 -1.9346651785726756
0.09507662412866501 -2.1664132604652275
0.11004604277548465 -2.3928377876822076
0.1302527933448871 -2.6119225046656847
0.15643741571464262 -2.821203041917612
0.18928177578575797 -3.0178816448261583
0.22938553628439817 -3.19890413710668
0.27721106575904103 -3.3610106280143133
0.3329737883203972 -3.5008095453661245
0.39651143127129573 -3.6149138406583505
0.4671630818979789 -3.700171260469647
0.5436188281351496 -3.7539134039180415
0.6235471776224714 -3.7741104347422194
0.703475527109788 -3.7539134039179207
0.7799312733469423 -3.7001712604694017
0.8505829239735985 -3.614913840657996
0.9141205669244628 -3.5008095453656813
0.9698832894857813 -3.361010628013809
1.0177088189603851 -3.198904137106128
1.0578125794589877 -3.0178816448255743
1.0906569395300656 -2.821203041917014
1.116841561899784 -2.611922504665092
1.1370483124691537 -2.3928377876816365
1.1520177311159456 -2.166413260464691
1.1625571829522854 -1.9346651785721811
1.1695394482138595 -1.6991284868607412
1.173859178365346 -1.4609284735575427
1.176360247061554 -1.2209082743038298
1.1777632559953675 -0.9797280125237268
1.1786555076515022 -0.7378885929621904
1.1793524919254799 -0.4957103849920062
1.1800473464256243 -0.252709730062486
1.184125904122681 -0.0024232688829855693
0.12495273156018422 -0.004348107603329846
0.12794583041845609 -0.2528421640258939
0.1283437422227909 -0.49574313605136533
0.12891225225485073 -0.7379676220477658
0.12968887849926228 -0.979844521646569
0.13086890436997933 -1.2211651277426154
0.132971577180777 -1.4614875071871025
0.13668335444643195 -1.7001843375918404
0.14278268133428715 -1.936431191233553
0.15208205755125132 -2.169100671732371
0.1653538562532429 -2.3966432556766395
0.18330079022966128 -2.6170251849014736
0.20656586596768184 -2.827768913369665
0.23575053846957011 -3.0260644335974387
0.2714019919397826 -3.208835244732788
0.3139501978164211 -3.372779937131737
0.3636236429870357 -3.5144367490311237
0.42033190688774097 -3.6303156820295563
0.4835176739834703 -3.7171265069803705
0.551938806957264 -3.771997311224464
0.6235471776224573 -3.7926709863736248
0.6951555482876458 -3.7719973112243403
0.7635766812614245 -3.7171265069801205
0.8267624483571299 -3.6303156820291953
0.8834707122578056 -3.514436749030672
0.933144157428387 -3.372779937131223
0.9756923633049905 -3.208835244732227
1.0113438167751692 -3.026064433596846
1.0405284892770241 -2.8277689133690584
1.0637935650150123 -2.6170251849008728
1.0817404989914012 -2.3966432556760613
1.0950122976933685 -2.1691006717318286
1.1043116739103136 -1.9364311912330543
1.1104110007981547 -1.700184337591392
1.1141227780638003 -1.4614875071867093
1.1162254508745928 -1.2211651277422841
1.117405476745308 -0.9798445216462983
1.1181821029897192 -0.7379676220475588
1.1187506130217788 -0.4957431360512204
1.119148524826114 -0.25284216402581305
1.1221416236843802 -0.004348107603324611
0.186417584013712 -0.005895538295073078
0.18868094700399346 -0.2529324628669293
0.1889235083873658 -0.49576119435913985
0.18936821864887485 -0.7380314933635045
0.19003235584406203 -0.9799394100278678
0.1910162529380834 -1.2213622487278326
0.19274369268615563 -1.4619345168933753
0.19585478943486015 -1.7010662097939886
0.20106616965862573 -1.9379435043117936
0.20910795242055055 -2.171433414797105
0.2206568549058268 -2.3999678875787294
0.2363151996435341 -2.621496121174817
0.25663275915374256 -2.833529714124691
0.2821293186484653 -3.0332511271446796
0.3132880683564009 -3.217568275460305
0.3505137042476774 -3.3831464932168673
0.3940518265826185 -3.526467008538934
0.44388276861469084 -3.643950234044872
0.49956039833682625 -3.732169577003284
0.5600265915427253 -3.788071162870013
0.6235471776224436 -3.809226107123837
0.6870677637021576 -3.7880711628698878
0.7475339569080431 -3.7321695770030296
0.8032115866301571 -3.6439502340445045
0.8530425286622039 -3.526467008538475
0.8965806509971161 -3.3831464932163455
0.933806286888362 -3.217568275459737
0.9649650365962678 -3.0332511271440783
0.9904615960909608 -2.8335297141240767
1.0107791556011416 -2.6214961211742085
1.0264375003388235 -2.399967887578145
1.0379864028240782 -2.171433414796558
1.046028185585986 -1.937943504311291
1.0512395658097393 -1.7010662097935378
1.0543506625584358 -1.4619345168929803
1.0560781023065038 -1.2213622487275007
1.057061999400524 -0.9799394100275971
1.0577261365957107 -0.7380314933632974
1.05817084685722 -0.495761194358995
1.0584134082405923 -0.2529324628668481
1.060676771230869 -0.005895538295065308
0.24758615610054088 -0.0071463220975227166
0.2493039371191317 -0.2530027224068324
0.2494621416885991 -0.4957715647825748
0.24980257604437733 -0.7380810278678008
0.2503578599468975 -0.9800167351098484
0.25116835615389105 -1.2215114911579552
0.25255828781419026 -1.462277546774444
0.255082700991613 -1.7017770198961413
0.2594122210959596 -1.9392022666805482
0.2661912520937634 -2.173408828681052
0.2760051813075938 -2.4028079831991276
0.28936064014446966 -2.625331014431103
0.3067137279409168 -2.838481133425347
0.3285036996777459 -3.0394370137877758
0.35515347314591905 -3.225096438031481
0.3870289776451882 -3.3921015977095834
0.42438932876541136 -3.5368897651634166
0.4672876581629053 -3.6558051120327337
0.5154223811348309 -3.7453015270544596
0.5679772415284517 -3.8021689947431434
0.6235471776224303 -3.8238318162831137
0.6791171137164047 -3.8021689947430155
0.7316719741100136 -3.7453015270542007
0.7798066970819201 -3.6558051120323602
0.8227050264793923 -3.536889765162952
0.8600653775995905 -3.3921015977090554
0.891940882098833 -3.2250964380309055
0.9185906555669804 -3.039437013787168
0.9403806273037845 -2.838481133424726
0.9577337151002078 -2.625331014430489
0.9710891739370622 -2.402807983198538
0.9809031031508738 -2.1734088286805
0.9876821341486631 -1.9392022666800421
0.9920116542529991 -1.7017770198956885
0.9945360674304154 -1.4622775467740479
0.9959259990907114 -1.2215114911576226
0.996736495297704 -0.9800167351095775
0.9972917792002239 -0.7380810278675939
0.9976322135560023 -0.4957715647824299
0.9977904181254696 -0.2530027224067509
0.9995081991440563 -0.0071463220975127376
0.308559083096692 -0.008151367670967379
0.30984864574737037 -0.2530605080275545
0.30995784433896634 -0.49577898067014037
0.3102123022445702 -0.7381177372648019
0.31066128511383756 -0.9800795903429398
0.3113191196356506 -1.2216233844887365
0.31240806934650356 -1.4625299636184548
0.3143870903566796 -1.7023227589944152
0.3178455360737119 -1.9402104582027293
0.3233690150193563 -2.175027940380525
0.3314490787407763 -2.4051631639612854
0.34249963753754753 -2.6285292710807866
0.3568866228059311 -2.8426222807345662
0.3749674954526464 -3.044620808622636
0.39710050554546983 -3.231418305263146
0.4236190724031515 -3.399641031547331
0.4547770840064666 -3.5456951245081276
0.49068960124643796 -3.665867874358518
0.5312301007362511 -3.756519319864033
0.5758680953113682 -3.814307878875634
0.6235471776224168 -3.836521313963246
0.6712262599334617 -3.814307878875504
0.7158642545085683 -3.7565193198637705
0.7564047539983653 -3.6658678743581397
0.7923172712383181 -3.5456951245076582
0.8234752828416121 -3.3996410315467966
0.8499938496992714 -3.2314183052625642
0.8721268597920735 -3.044620808622023
0.890207732438768 -2.8426222807339396
0.9045947177071317 -2.6285292710801675
0.915645276503885 -2.405163163960691
0.9237253402252896 -2.1750279403799695
0.9292488191709218 -1.9402104582022206
0.9327072648879455 -1.7023227589939605
0.9346862858981165 -1.4625299636180578
0.935775235608967 -1.2216233844884037
0.9364330701307796 -0.9800795903426689
0.9368820530000467 -0.7381177372645948
0.9371365109056506 -0.4957789806699957
0.9372457094972466 -0.25306050802747276
0.9385352721479215 -0.008151367670955546
0.36938918014433314 -0.00894961874572629
0.37033831869559486 -0.25310872665598066
0.3704157927226816 -0.49578583438848955
0.37059717451275026 -0.738143072447647
0.3709415112614636 -0.9801295943080324
0.3714610930996631 -1.2217067104761683
0.37228392087141693 -1.4627077150106431
0.37376591568074663 -1.7027179909286907
0.3763948155779295 -1.940974537648334
0.3806791757064284 -2.1762951919998077
0.3870397303522111 -2.407036911460368
0.39579702493629987 -2.6310938956853303
0.40722905124009967 -2.8459563030393955
0.42161295199326626 -3.048805617694144
0.4392421035504467 -3.2365359468635897
0.4604066991853137 -3.405765269400593
0.48535377302128385 -3.5528779150590912
0.5142451437183767 -3.6741261553384676
0.5471214124268408 -3.7658112641877364
0.5837765360788686 -3.82448769313383
0.6235471776224031 -3.8473089163278598
0.6633178191659346 -3.8244876931336975
0.6999729428179534 -3.765811264187471
0.7328492115264041 -3.6741261553380857
0.7617405822234816 -3.5528779150586174
0.7866876560594348 -3.405765269400054
0.8078522516942837 -3.236535946863003
0.825481403251447 -3.048805617693526
0.8398653040045972 -2.8459563030387645
0.8512973303083814 -2.631093895684707
0.8600546248924559 -2.40703691145977
0.8664151795382262 -2.1762951919992495
0.8706995396667154 -1.9409745376478231
0.8733284395638918 -1.7027179909282348
0.8748104343732177 -1.4627077150102459
0.8756332621449701 -1.2217067104758352
0.8761528439831691 -0.9801295943077616
0.8764971807318822 -0.73814307244744
0.876678562521951 -0.4957858343883449
0.8767560365490376 -0.2531087266558988
0.8777051751002968 -0.00894961874571291
0.4301117432023154 -0.009572380428827836
0.430790325121944 -0.2531496086186111
0.43084346579519234 -0.4957926316609287
0.43095903695539894 -0.7381583345905173
0.4312002592203154 -0.9801666783115022
0.4315868113604916 -1.2217682320916168
0.4321802798596065 -1.4628259097432872
0.43321466541710024 -1.702982405684309
0.4350730739567117 -1.9415097424097882
0.43816350128672626 -2.1772194989788547
0.44283065065157634 -2.4084365152973892
0.4493179570324724 -2.633031915087904
0.45782123498512267 -2.8484907624705555
0.4685363749879154 -3.051999166367879
0.4816869990011177 -3.2404565069832034
0.49751958049957457 -3.410479263939409
0.5162669847213177 -3.5584384135713907
0.5381151502190901 -3.6805700048498564
0.5632460615016667 -3.773156725078843
0.5917901738899862 -3.832689434672169
0.6235471776223888 -3.8561897353885946
0.6553041813547896 -3.832689434672036
0.683848293743102 -3.7731567250785747
0.7089792050256684 -3.680570004849472
0.7308273705234285 -3.5584384135709124
0.7495747747451584 -3.4104792639388664
0.7654073562436012 -3.2404565069826132
0.7785579802567913 -3.051999166367257
0.789273120259572 -2.8484907624699214
0.797776398212211 -2.633031915087277
0.8042637045930963 -2.408436515296789
0.8089308539579371 -2.1772194989782943
0.8120212812879449 -1.9415097424092755
0.8138796898275517 -1.7029824056838523
0.814914075385043 -1.4628259097428893
0.815507543884157 -1.2217682320912835
0.8158940960243327 -0.9801666783112313
0.8161353182892492 -0.7381583345903103
0.8162508894494557 -0.4957926316607839
0.8163040301227039 -0.2531496086185291
0.8169826120423309 -0.009572380428813193
0.4907483519378727 -0.010049089882848108
0.49122080444553456 -0.2531851367717225
0.49124775261125164 -0.495798554209151
0.4913010991649337 -0.7381645567027413
0.4914417555611399 -0.9801901668976857
0.49169279724493176 -1.2218113754265503
0.49208199734664554 -1.4629003271127512
0.4927275599787334 -1.7031393657708023
0.4938843338005329 -1.9418401457883585
0.49585052303684524 -2.1778191181647175
0.49887687244385537 -2.40937504931548
0.5031347241628076 -2.634355507327421
0.5087467325241601 -2.850238401487215
0.5158353224571315 -3.054214895085583
0.5245513307972118 -3.243192457526719
0.535085814386597 -3.413793432227512
0.5476575447567743 -3.5623845775959135
0.5624771143143527 -3.6851953240121547
0.5797865411596651 -3.778528057201054
0.6000190385876829 -3.8388727468995847
0.6235471776223743 -3.8631373561461158
0.6470753166570644 -3.83887274689945
0.6673078140850777 -3.7785280572007838
0.6846172409303825 -3.685195324011768
0.6994368104879523 -3.5623845775954335
0.7120085408581204 -3.4137934322269667
0.7225430244474962 -3.243192457526126
0.7312590327875688 -3.0542148950849586
0.738347622720533 -2.8502384014865787
0.7439596310818786 -2.6343555073267924
0.7482174828008236 -2.4093750493148773
0.7512438322078275 -2.1778191181641553
0.753210021444136 -1.941840145787845
0.7543667952659323 -1.703139365770345
0.7550123578980189 -1.4629003271123533
0.7554015579997322 -1.221811375426217
0.7556525996835239 -0.9801901668974147
0.75579325607973 -0.7381645567025343
0.755846602633412 -0.49579855420900615
0.755873550799129 -0.2531851367716405
0.7563460033067897 -0.010049089882832518
0.5513142296210874 -0.010409359414305232
0.5516391802132252 -0.25321783674937937
0.5516350044972647 -0.4958018223988221
0.5516274748195098 -0.7381625009370244
0.5516704536546101 -0.9801998641560415
0.5517824491575644 -1.2218358706649448
0.5519741172335958 -1.4629426252509645
0.5522862901326269 -1.7032168276660324
0.5528241968727411 -1.9420005078335056
0.5537568622416386 -2.178125902449071
0.5552221125699073 -2.4098783580074854
0.5573152587444725 -2.6350866582308035
0.5600889851143637 -2.8512201556541488
0.5636027235632384 -3.0554747107253277
0.5679393168911421 -3.244765400855691
0.5732233144311886 -3.4157257551933085
0.5796436152275422 -3.564731342893841
0.5874527299589387 -3.688014069261671
0.5969453047993215 -3.7819035910342538
0.6086320668239315 -3.8429722650956744
0.6235471776223594 -3.86809463165275
0.6384622884207866 -3.842972265095539
0.6501490504453947 -3.781903591033983
0.6596416252857727 -3.688014069261282
0.667450740017164 -3.5647313428933587
0.6738710408135133 -3.4157257551927604
0.6791550383535556 -3.2447654008550963
0.6834916316814561 -3.055474710724702
0.687005370130328 -2.8512201556535115
0.689779096500216 -2.6350866582301733
0.6918722426747782 -2.409878358006882
0.6933374930030444 -2.178125902448508
0.6942701583719403 -1.9420005078329918
0.6948080651120532 -1.7032168276655748
0.6951202380110838 -1.4629426252505664
0.695311906087115 -1.2218358706646113
0.6954239015900693 -0.9801998641557705
0.6954668804251696 -0.7381625009368175
0.6954593507474146 -0.49580182239867726
0.6954551750314539 -0.25321783674929743
0.6957801256235909 -0.010409359414288947
0.6118264313003858 -0.010678810772255097
0.6120475122934598 -0.2532505629452315
0.6120102861513513 -0.4958006172500857
0.6119426898151541 -0.7381526561457552
0.6118905266263374 -0.9801959088346914
0.6118638571378946 -1.2218408871641795
0.6118536679884737 -1.4629559377421346
0.6118501408799053 -1.7032403611094935
0.6118490117278389 -1.942042966041216
0.6118489809604636 -2.178203489882794
0.6118491298774834 -2.410006710036121
0.6118480461186109 -2.6352789424137435
0.611840109336465 -2.8514869244071357
0.6118222765024653 -3.055827591316093
0.611807490329966 -3.2452224998597097
0.6118573950071737 -3.4163185556906868
0.6121277891141023 -3.5655137378729
0.612918531526728 -3.689064273332571
0.6146528741451761 -3.783314634502257
0.6178020255193809 -3.8449270628857612
0.6235471776223437 -3.8709659860060883
0.6292923297253069 -3.8449270628856262
0.6324414810995113 -3.783314634501986
0.634175823717958 -3.689064273332181
0.6349665661305832 -3.565513737872418
0.6352369602375127 -3.4163185556901388
0.6352868649147214 -3.2452224998591146
0.6352720787422228 -3.0558275913154676
0.6352542459082252 -2.851486924406498
0.6352463091260808 -2.635278942413113
0.6352452253672094 -2.410006710035517
0.6352453742842301 -2.178203489882231
0.6352453435168552 -1.9420429660407024
0.6352442143647892 -1.7032403611090354
0.635240687256221 -1.4629559377417363
0.6352304981068002 -1.2218408871638462
0.6352038286183577 -0.9801959088344205
0.6351516654295409 -0.7381526561455483
0.6350840690933437 -0.4958006172499407
0.6350468429512351 -0.2532505629451496
0.6352679239443086 -0.010678810772238345
0.6722960399534704 -0.01088234209310781
0.6724453289737607 -0.25328350013104123
0.6723778022876196 -0.4957944172513789
0.6722517717664006 -0.7381351884015985
0.672107187580077 -0.9801787110446691
0.6719440352957619 -1.2218262265013424
0.6717325458941389 -1.4629400729930337
0.6714133068768335 -1.7032161410121955
0.6708734152715734 -1.942000367256999
0.669941028713385 -2.1781259192522398
0.6684764576154811 -2.409878332224538
0.6663797831967807 -2.6350846125377676
0.6635894098837469 -2.8512140437248292
0.66004084213782 -3.055465604959973
0.6556785364297719 -3.2447680989821905
0.6504997219805355 -3.4157867264841686
0.6446131181215076 -3.564950732637075
0.6383042218497331 -3.6885592560013776
0.6320327123851174 -3.7829633331368036
0.6264630442738802 -3.8448521864981213
0.623547177622328 -3.8718513290619967
0.620631310970775 -3.8448521864979868
0.6150616428595383 -3.782963333136532
0.6087901333949259 -3.688559256000988
0.602481237123157 -3.564950732636594
0.5965946332641355 -3.4157867264836215
0.5914158188149049 -3.244768098981596
0.5870535131068619 -3.0554656049593487
0.5835049453609414 -2.8512140437241924
0.5807145720479139 -2.635084612537138
0.5786178976292188 -2.409878332223935
0.5771533265313195 -2.178125919251677
0.5762209399731337 -1.9420003672564854
0.5756810483678754 -1.7032161410117375
0.575361809350571 -1.4629400729926356
0.5751503199489484 -1.2218262265010091
0.5749871676646334 -0.9801787110443981
0.5748425834783101 -0.7381351884013915
0.5747165529570911 -0.4957944172512338
0.5746490262709499 -0.2532835001309593
0.57479831529124 -0.010882342093090823
0.7327352945074839 -0.011037928547443092
0.7328360011458207 -0.2533147876678662
0.7327413998139234 -0.495783625075846
0.7325599595202591 -0.7381102773167497
0.7323263653947758 -0.9801488791635599
0.7320302969614931 -1.2217923332786629
0.731622079690757 -1.462895118607909
0.7309699827043875 -1.7031378257839218
0.7298124753571348 -1.9418399341651167
0.727847619641946 -2.1778193307911633
0.7248213665516399 -2.4093746302951398
0.7205591272262425 -2.6343510586479897
0.7149323378260585 -2.8502259731592487
0.7078147434991453 -3.0541970229006963
0.6990808718505992 -3.2431993041272933
0.6886532838220912 -3.4139183657167527
0.6765875158219629 -3.562822768540745
0.6631431150882837 -3.686262804192676
0.6488513606115103 -3.7806463314102303
0.6348631379247748 -3.842860600905842
0.6235471776223127 -3.870924288149089
0.6122312173198506 -3.8428606009057074
0.5982429946331175 -3.7806463314099608
0.5839512401563505 -3.686262804192288
0.5705068394226811 -3.562822768540266
0.5584410714225637 -3.4139183657162078
0.5480134833940666 -3.2431993041267004
0.5392796117455303 -3.0541970229000746
0.5321620174186278 -2.8502259731586137
0.5265352280184541 -2.634351058647362
0.5222729886930665 -2.4093746302945385
0.5192467356027685 -2.1778193307906015
0.5172818798875848 -1.9418399341646033
0.5161243725403357 -1.703137825783464
0.5154722755539679 -1.4628951186075112
0.5150640582832327 -1.2217923332783296
0.5147679898499503 -0.980148879163289
0.5145343957244672 -0.7381102773165427
0.5143529554308031 -0.4957836250757009
0.5142583540989059 -0.2533147876677843
0.5143590607372426 -0.01103792854742592
0.7931615815348492 -0.01115403545775912
0.7932245559679675 -0.25334280413696836
0.7931058796656963 -0.4957686859109987
0.7928725752393833 -0.7380783116055765
0.7925537245317241 -0.980107197659963
0.7921302650033434 -1.221740250082254
0.7915194477674966 -1.4628175248339816
0.7904804334752447 -1.7029802183716871
0.7886238972355797 -1.941509881507857
0.7855349518182971 -2.1772198691269384
0.780866778023472 -2.4084354251217683
0.7743749954495528 -2.633025307771307
0.7658624713535566 -2.848473675157175
0.7551329283034434 -3.0519754838922917
0.7419810114610312 -3.240469250956342
0.7262444193437152 -3.4106617989942287
0.7079032034213232 -3.5590675579677495
0.6872064308652179 -3.682106327357402
0.6648931912111821 -3.776318177026493
0.6425573765287832 -3.8388299487267976
0.6235471776222978 -3.8682353801978375
0.6045369787158131 -3.8388299487266626
0.5822011640334189 -3.7763181770262237
0.5598879243793922 -3.6821063273570163
0.5391911518233006 -3.559067557967274
0.5208499359009239 -3.410661798993687
0.5051133437836229 -3.240469250955752
0.4919614269412254 -3.051975483891672
0.48123188389112725 -2.848473675156543
0.47271935979514534 -2.6330253077706818
0.46622757722123986 -2.4084354251211697
0.4615594034264265 -2.177219869126379
0.4584704580091518 -1.9415098815073453
0.45661392176949234 -1.7029802183712297
0.4555749074772433 -1.462817524833584
0.45496409024139783 -1.2217402500819208
0.45454063071301753 -0.9801071976596921
0.4542217800053588 -0.7380783116053695
0.4539884755790457 -0.4957686859108536
0.45386979927677473 -0.25334280413688653
0.453932773709893 -0.0111540354577418
0.8535865254810515 -0.011236843834247882
0.853617308499041 -0.2533660739842665
0.8534760335397794 -0.49574988120868596
0.8531942269278537 -0.7380398260536403
0.8527943351867752 -0.9800546861755779
0.8522481126297193 -1.221670095705469
0.851410682569061 -1.4626961060564991
0.8499287791683179 -1.7027160607720762
0.847302966422368 -1.9409752809875855
0.8430193457617108 -2.1762954689774348
0.8366564971777585 -2.407034913068392
0.8278956189418702 -2.6310858500512193
0.8164631462341545 -2.845937742933657
0.8020876642132 -3.0487818339186212
0.7844831804314826 -3.2365571295131175
0.7633931683500429 -3.4059902894176775
0.7387123657244453 -3.5536505307972663
0.7107174519922943 -3.676067140164517
0.6803920822828556 -3.769972962846731
0.6499320895693301 -3.832837107249673
0.6235471776222832 -3.863872679492578
0.5971622656752379 -3.8328371072495386
0.5667022729617196 -3.769972962846464
0.5363769032522928 -3.6760671401641343
0.5083819895201588 -3.553650530796795
0.4837011868945802 -3.40599028941714
0.4626111748131601 -3.2365571295125317
0.44500669103146206 -3.048781833918006
0.4306312090105267 -2.845937742933029
0.41919873630282967 -2.631085850050598
0.41043785806695876 -2.407034913067797
0.4040750094830214 -2.176295468976878
0.39979138882237497 -1.9409752809870753
0.3971655760764326 -1.7027160607716199
0.3956836726756937 -1.462696106056102
0.39484624261503737 -1.2216700957051359
0.3943000200579822 -0.9800546861753071
0.3939001283169039 -0.7380398260534332
0.39361832170497846 -0.49574988120854085
0.39347704674571693 -0.2533660739841847
0.39350782976370635 -0.01123684383423044
0.9140176171972816 -0.011291998419832392
0.9140204148518614 -0.25338344850106254
0.9138571084960837 -0.4957273103209622
0.913529898395488 -0.7379953883079258
0.9130542826006344 -0.9799926548553153
0.9123819887359788 -1.2215792053059804
0.9112852462717931 -1.4625162488196561
0.9093086130329504 -1.70232182256032
0.9058532457184781 -1.940211707251935
0.9003292330406462 -2.1750278057030665
0.8922460443645532 -2.405160170263656
0.881193860707806 -2.6285209011694404
0.8668172345794519 -2.84260645910295
0.848771530954293 -3.044604639073779
0.8266952307647404 -3.2314516596578846
0.8002366240194142 -3.399890919549848
0.7692177543126565 -3.546560621134139
0.7339493596237655 -3.6681412155581263
0.6956959572247771 -3.7616335776131296
0.6572516481007947 -3.8249290085674463
0.6235471776222687 -3.8578542593885876
0.5898427071437455 -3.824929008567313
0.5513983980197726 -3.7616335776128653
0.5131449956207992 -3.668141215557748
0.47787660093192813 -3.546560621133673
0.4468577312251932 -3.399890919549316
0.4203991244798909 -3.2314516596573037
0.39832282429036214 -3.0446046390731683
0.3802771206652266 -2.8426064591023277
0.3659004945368952 -2.628520901168824
0.3548483108801692 -2.405160170263066
0.34676512220409406 -2.175027805702513
0.34124110952627584 -1.940211707251427
0.3377857422118133 -1.702321822559865
0.33580910897297633 -1.4625162488192593
0.3347123665087933 -1.2215792053056473
0.3340400726441387 -0.9799926548550446
0.3335644568492852 -0.7379953883077189
0.3332372467486898 -0.4957273103208171
0.33307394039291227 -0.2533834485009807
0.333076738047492 -0.011291998419814873
0.974460046162554 -0.011324922300359202
0.9744391768533417 -0.2533942681238941
0.9742545581949751 -0.49570093111432195
0.9738845078177577 -0.7379456975873202
0.9733363379768634 -0.9799214549102603
0.9725263064189937 -1.221461701750923
0.9711363705932093 -1.4622631691049406
0.9686153537230934 -1.7017771501653995
0.9642872777478533 -1.9392037054971103
0.9575063834646615 -2.1734080042645267
0.9476891791541272 -2.4028041378596474
0.9343354627233906 -2.625323771100112
0.9170039518298755 -2.8384724346361216
0.8952732971890126 -3.039436453789947
0.8687145073855673 -3.2251480839052613
0.8369138744256506 -3.3923659399340793
0.7996243638996632 -3.5378066852350356
0.7571807847478658 -3.6583446929119603
0.7111025478849702 -3.7513215677667713
0.664696196378224 -3.815109567762834
0.6235471776222544 -3.850149877243973
0.5823981588662887 -3.8151095677627023
0.5359918073595543 -3.75132156776651
0.4899135704966769 -3.6583446929115864
0.44746999134490245 -3.537806685234575
0.4101804808189418 -3.392365939933554
0.37837984785905276 -3.225148083904687
0.35182105805563574 -3.0394364537893432
0.3300904034148005 -2.8384724346355057
0.3127588925213122 -2.625323771099502
0.2994051760906003 -2.4028041378590617
0.2895879717800867 -2.173408004263978
0.2828070774969114 -1.9392037054966056
0.27847900152168303 -1.7017771501649466
0.27595798465157445 -1.4622631691045445
0.27456804882579366 -1.2214617017505904
0.2737580172679253 -0.9799214549099895
0.27320984742703125 -0.7379456975871133
0.27283979704981415 -0.495700931114177
0.2726551783914477 -0.25339426812381227
0.27263430908223524 -0.01132492230034161
1.0349171697976467 -0.011341004726146965
1.0348779655182159 -0.253398384741972
1.0346739078542075 -0.49567074187856686
1.034263272013348 -0.7378913800525226
1.0336428437758465 -0.9798406276486252
1.0326765873091939 -1.2213101925584984
1.0309553592102287 -1.4619206556725444
1.0278460334600021 -1.7010668767562906
1.0226336865209813 -1.9379446937001703
1.0145888028961816 -2.1714317332000235
1.003037436459197 -2.3999636332715455
0.987385451045236 -2.6214917051394835
0.9670996529603539 -2.8335318686213067
0.9416796388631309 -3.033272693851758
0.9106431792212558 -3.2176473183613603
0.8735461103012825 -3.3834301260944932
0.8301210220591201 -3.5274187174680414
0.7806866861040349 -3.6467101296554683
0.7268915794419678 -3.739046472740843
0.6724311431074492 -3.803343939557801
0.6235471776222403 -3.8406897263690642
0.5746632121370359 -3.803343939557671
0.520202775802531 -3.7390464727405854
0.46640766914048537 -3.6467101296551
0.4169733331854268 -3.527418717467587
0.37354824494329514 -3.3834301260939745
0.33645117602335345 -3.2176473183607937
0.3054147163815107 -3.033272693851161
0.2799947022843195 -2.8335318686206983
0.2597089041994684 -2.62149170513888
0.24405691878553568 -2.399963633270966
0.23250555234857492 -2.1714317331994795
0.2244606687237939 -1.9379446936996694
0.21924832178478684 -1.7010668767558401
0.216138996034569 -1.4619206556721498
0.21441776793560843 -1.2213101925581664
0.21345151146895774 -0.9798406276483547
0.2128310832314564 -0.7378913800523158
0.2124204473905973 -0.49567074187842197
0.21221638972658924 -0.25339838474189025
0.21217718544715836 -0.011341004726129339
1.0953904056799317 -0.011345699530111511
1.095340138740268 -0.25339623988073745
1.0951210881337212 -0.49563690065065785
1.0946715739644404 -0.7378330170338229
1.093974036368554 -0.9797476830717219
1.0928268075351242 -1.221114725721918
1.0907332332385675 -1.4614742867321509
1.0870202426136955 -1.7001847241784607
1.0809170911742778 -1.936431645941156
1.0716137886014572 -2.169098120393495
1.0583412139525368 -2.396639314820554
1.0404059371215015 -2.61702536493352
1.017180981517793 -2.827784647581247
0.9880833816406662 -3.0261124418829266
0.9525788571523647 -3.2089521934705996
0.9102400215773762 -3.3731057270981983
0.8608554835925618 -3.5154489813046923
0.8047207140048649 -3.633289539582704
0.7433583104407946 -3.7248092807283406
0.6806687862908436 -3.7895590499511185
0.623547177622226 -3.8293555743648438
0.5664255689536135 -3.7895590499509915
0.5037360448036786 -3.7248092807280875
0.44237364123963313 -3.633289539582342
0.3862388716519666 -3.5154489813042455
0.33685433366718714 -3.373105727097688
0.2945154980922343 -3.208952193470041
0.259010973603969 -3.026112441882338
0.22991337372687853 -2.8277846475806467
0.2066884181232046 -2.617025364932924
0.1887531412922011 -2.396639314819981
0.17548056664330736 -2.169098120392956
0.16617726407050784 -1.936431645940659
0.16007411263110605 -1.700184724178013
0.15636112200624397 -1.4614742867317578
0.15426754770969328 -1.2211147257215864
0.1531203188762657 -0.9797476830714517
0.15242278128037992 -0.737833017033616
0.15197326711109954 -0.4956369006505129
0.15175421650455292 -0.2533962398806556
0.1517039495648892 -0.011345699530093884
1.1558785964514273 -0.011344532736456681
1.155827958398067 -0.2533890600803524
1.1556029878445924 -0.49560000582781877
1.155115067208718 -0.7377704292898479
1.1543277662812168 -0.9796386899691163
1.152967904079178 -1.220862256224687
1.1504759800742157 -1.4609153601532396
1.1461508261911586 -1.6991276411417364
1.1391622938987844 -1.9346644773764536
1.128618564677706 -2.166409973058106
1.1136505359407032 -2.392835042916756
1.0934606770310775 -2.6119289333087017
1.0673227907264329 -2.8212342261082073
1.0345724060424397 -3.0179587992819226
0.9946366386201576 -3.1990692967218988
0.9471097324004959 -3.361413603601364
0.8918986046079702 -3.5019553709828464
0.8294141622441491 -3.6181765230272718
0.7609328689818835 -3.708630573237768
0.6897542640635819 -3.7736287977146343
0.6235471776222115 -3.815952941028867
0.5573400911808467 -3.77362879771451
0.4861614862625638 -3.70863057323752
0.4176801930003262 -3.618176523026917
0.3551957506365398 -3.501955370982409
0.29998462284405314 -3.3614136036008633
0.2524577166244316 -3.1990692967213494
0.21252194920218964 -3.0179587992813435
0.17977156451823675 -2.821234226107616
0.15363367821363103 -2.6119289333081137
0.1334438193040401 -2.3928350429161904
0.11847579056706674 -2.166409973057573
0.10793206134601199 -1.9346644773759614
0.10094352905365529 -1.6991276411412919
0.0966183751706098 -1.4609153601528488
0.0941264511656544 -1.2208622562243563
0.0927665889636183 -0.9796386899688462
0.09197928803611786 -0.7377704292896412
0.09149136740024395 -0.49560000582767394
0.09126639684676942 -0.2533890600802706
0.0912157587934093 -0.011344532736439017
1.2163766777187421 -0.01134292016329281
1.2163424732337842 -0.253379398152747
1.2161287103699205 -0.49556132476312625
1.2155989868242976 -0.7377018298993959
1.2146985207922327 -0.9795059136680513
1.2130964709662702 -1.2205434870684153
1.2101918706957349 -1.4602391758904611
1.2052521157765392 -1.6978947506894355
1.197393951858906 -1.9326465804716684
1.185640133947461 -2.1633734966953035
1.169016792198905 -2.3885583524055116
1.1466118964676633 -2.606209239275278
1.1175982875507016 -2.8138873893729586
1.0812440629342737 -3.008821113138863
1.0369348703884662 -3.1880103536558098
0.9842838622461556 -3.3483694163479307
0.9233156450876816 -3.4869757131383903
0.854680337714636 -3.6014777153187665
0.7797974712873494 -3.69067897786337
0.700942155629742 -3.7554049759210533
0.6235471776221966 -3.7999999999999945
0.546152199614657 -3.7554049759209316
0.4672968839570706 -3.690678977863128
0.3924140175298162 -3.60147771531842
0.32377871015681 -3.486975713137962
0.2628104929983794 -3.34836941634744
0.21015948485611344 -3.188010353655271
0.1658502923103501 -3.008821113138294
0.12949606769396677 -2.8138873893723777
0.10048245877704783 -2.6062092392747007
0.07807756304584443 -2.3885583524049543
0.06145422129732043 -2.1633734966947773
0.049700403385900926 -1.932646580471181
0.041842239468287315 -1.6978947506889945
0.03690248454910464 -1.4602391758900726
0.03399788427857668 -1.220543487068086
0.03239583445261805 -0.9795059136677815
0.031495368420553956 -0.7377018298991893
0.030965644874931537 -0.49556132476298137
0.030751882011068293 -0.2533793981526653
0.030717677526110276 -0.011342920163275177
SCALARS Stress float 6
LOOKUP_TABLE default
-1235.9000232462517 -2036.6401708193437 -1560.056150001055 -25.86386126695576 0.0 0.0
1347.0331218855883 790.4557539748976 1003.621805286034 -21.138111655634024 0.0 0.0
609.0421129746569 158.18896173148758 246.59534369536263 -41.00938662867331 0.0 0.0
490.2115974685746 28.149674255645884 160.45727596495564 -1.4611216602433739 0.0 0.0
612.8287384733726 77.06156590929665 247.3140696117428 2.520612241379922 0.0 0.0
730.3207370049753 126.59504790663559 370.14162755080866 1.8053193502871885 0.0 0.0
856.5977838190249 178.2190112949482 489.8408038669087 0.604101579648554 0.0 0.0
985.5786826744973 246.62957637947363 601.154731986377 -0.8093130420402852 0.0 0.0
1123.4303022350368 329.5246113077762 714.6698546693998 -2.4403610078824265 0.0 0.0
1277.7059005661927 433.4353512944987 844.3518713260652 -4.206117496395755 0.0 0.0
1453.8073743147297 563.3690940666531 997.2443267222262 -5.899408817709233 0.0 0.0
1651.8859014554184 719.7985123021974 1174.1326175300703 -7.238175242189746 0.0 0.0
1866.7843211925178 896.1465644031387 1369.3164989858635 -8.06077556001936 0.0 0.0
2091.3155283012616 1085.041056803265 1575.6034051109964 -8.689244061928285 0.0 0.0
2316.1653572606624 1276.9990824867969 1783.582372033184 -9.097925804135027 0.0 0.0
2530.672523109833 1461.4263139043865 1982.6549379359212 -9.217086310705428 0.0 0.0
2723.7643362239214 1627.6835548812217 2162.014314064608 -8.881349874734962 0.0 0.0
2884.309936202698 1765.206918753629 2310.8392690916635 -8.02174651398983 0.0 0.0
3009.830921460904 1872.137086684765 2426.852199455902 -6.915161282817885 0.0 0.0
3086.2062986462897 1935.2201059527495 2496.3757532021236 -8.65665417203392 0.0 0.0
3077.3615167949065 1925.1369730557294 2487.135208674402 1.0818013151947525e-11 0.0 0.0
3086.2062986475853 1935.2201059541064 2496.375753202898 8.656654172219321 0.0 0.0
3009.8309214586193 1872.1370866825027 2426.8521994541925 6.915161282729892 0.0 0.0
2884.309936201345 1765.2069187523714 2310.83926909045 8.021746513963782 0.0 0.0
2723.764336224472 1627.6835548819267 2162.0143140647515 8.881349874784245 0.0 0.0
2530.672523108136 1461.4263139028055 1982.6549379344538 9.217086310778535 0.0 0.0
2316.1653572593696 1276.999082485661 1783.5823720317626 9.09792580417858 0.0 0.0
2091.3155283005954 1085.041056802778 1575.6034051102483 8.689244061951507 0.0 0.0
1866.784321191763 896.1465644026127 1369.316498984987 8.060775559932521 0.0 0.0
1651.8859014548927 719.798512301909 1174.132617529719 7.2381752422304455 0.0 0.0
1453.8073743131806 563.3690940653403 997.2443267209838 5.899408817587377 0.0 0.0
1277.7059005662868 433.4353512948635 844.3518713259662 4.206117496460164 0.0 0.0
1123.4303022349775 329.52461130802624 714.6698546691608 2.4403610079062776 0.0 0.0
985.5786826734616 246.6295763787027 601.1547319855957 0.8093130419211914 0.0 0.0
856.5977838182569 178.21901129443435 489.84080386621514 -0.6041015796812665 0.0 0.0
730.3207370047196 126.59504790673336 370.14162755042076 -1.8053193503337273 0.0 0.0
612.828738473095 77.06156590934984 247.31406961145458 -2.5206122411037946 0.0 0.0
490.21159746806677 28.149674255033652 160.45727596461043 1.4611216600595753 0.0 0.0
609.0421129743895 158.18896173131589 246.59534369515762 41.009386628824416 0.0 0.0
1347.033121885328 790.4557539746496 1003.621805285603 21.138111655528064 0.0 0.0
-1235.9000232436695 -2036.64017081672 -1560.0561499984099 25.86386126660489 0.0 0.0
-1573.9678830622825 -2345.9487668495362 -1852.155237085003 -27.51322396749156 0.0 0.0
919.0392778415262 436.6210683589956 629.7554775371837 -29.196051127808317 0.0 0.0
425.0554515781909 62.596919463659006 145.02410333685287 -35.34689924551026 0.0 0.0
432.058819230328 5.894214027026639 133.3408670167041 -15.759937624221816 0.0 0.0
543.9288643408519 34.38732366930932 199.4980678276079 -16.347160089640862 0.0 0.0
644.590128818786 49.23175571451957 292.4603431705179 -21.81672930371226 0.0 0.0
730.6848149676191 67.28706972651906 379.8092973159722 -23.577205964012165 0.0 0.0
813.4142501513962 87.79036348219525 445.60546688989353 -23.994581193555568 0.0 0.0
889.4902284433344 108.26910120727551 497.1757481955459 -24.560799516547213 0.0 0.0
960.8662418723655 129.52311098586324 544.236014119474 -25.296845381072725 0.0 0.0
1030.178827160892 153.33594543755572 591.0093682314831 -25.69735385318334 0.0 0.0
1099.3850524207005 180.74278757284003 639.3682166132083 -25.674612102721298 0.0 0.0
1167.992856632377 211.85126849983206 689.2401820318157 -25.262667053615342 0.0 0.0
1233.3761430966706 242.03857462959715 737.0277756911607 -24.663939293334128 0.0 0.0
1289.963978271308 266.1937341388428 777.398201949932 -23.90892204804672 0.0 0.0
1333.237809883421 279.79921345167656 805.8377208644999 -22.784285410403466 0.0 0.0
1360.279025047902 280.23884340415304 819.5780681691565 -21.03992275079839 0.0 0.0
1371.3520118962513 268.3176314197698 819.1491884072461 -18.679408899285924 0.0 0.0
1362.0737200101175 240.47005193982227 800.6855053766062 -16.33106549597899 0.0 0.0
1294.5806663924911 160.1142239399742 727.4593395952918 -16.501940084780976 0.0 0.0
1180.1142186471288 45.145037616025974 613.8763706367171 5.10613773485602e-11 0.0 0.0
1294.5806663923404 160.1142239398534 727.4593395950658 16.501940084923923 0.0 0.0
1362.0737200094015 240.47005193914828 800.6855053761864 16.33106549595468 0.0 0.0
1371.3520118956362 268.31763141924057 819.1491884067896 18.679408899252685 0.0 0.0
1360.279025048654 280.2388434050209 819.578068169765 21.03992275073732 0.0 0.0
1333.2378098837594 279.7992134521544 805.8377208647881 22.784285410422925 0.0 0.0
1289.9639782710806 266.1937341387751 777.3982019496715 23.908922048032665 0.0 0.0
1233.3761430971972 242.0385746303201 737.02777569143 24.663939293409495 0.0 0.0
1167.992856632365 211.85126850000995 689.2401820318321 25.26266705350999 0.0 0.0
1099.3850524206937 180.74278757305675 639.3682166132784 25.67461210273919 0.0 0.0
1030.1788271604669 153.3359454373681 591.0093682312533 25.697353853006344 0.0 0.0
960.8662418723834 129.52311098616264 544.2360141194756 25.296845381189904 0.0 0.0
889.4902284428586 108.26910120706947 497.1757481952115 24.5607995165589 0.0 0.0
813.4142501511006 87.7903634821964 445.6054668896418 23.994581193529257 0.0 0.0
730.684814966978 67.28706972613527 379.809297315451 23.57720596409934 0.0 0.0
644.5901288184582 49.23175571445712 292.4603431701514 21.816729303573798 0.0 0.0
543.9288643406343 34.38732366941596 199.49806782743988 16.347160089852967 0.0 0.0
432.05881922996804 5.894214026748168 133.3408670165247 15.75993762411949 0.0 0.0
425.0554515781003 62.59691946368432 145.02410333683267 35.346899245516134 0.0 0.0
919.039277840995 436.6210683585464 629.7554775365619 29.196051127797837 0.0 0.0
-1573.9678830603382 -2345.948766847485 -1852.155237082927 27.513223967166013 0.0 0.0
-1317.001175916434 -2054.2354671953112 -1568.0633142610977 -65.81369196052195 0.0 0.0
731.1630654173196 345.7299466208452 485.65664118406806 -97.50443762914709 0.0 0.0
295.7775514986712 71.12010426797224 110.09257450827889 -38.39981588751735 0.0 0.0
370.6558676962311 1.2697105400459021 111.53359179045242 -37.30688868073548 0.0 0.0
498.8044570477991 24.831994383260515 170.77736084784274 -38.75627769619276 0.0 0.0
611.2394111527142 43.93804771166527 261.5731579024325 -41.56872604094843 0.0 0.0
701.0230631302609 62.50890981496761 355.390986235937 -43.82144991500411 0.0 0.0
784.0163302991441 79.37604149070786 424.240392148657 -44.772188590030105 0.0 0.0
857.3616640716771 96.45193184477 474.5614968005497 -46.016186663319296 0.0 0.0
924.8900722738704 113.7065247795709 518.0018976010487 -47.13518844482109 0.0 0.0
990.6294024264781 134.37853778641426 561.4502424905082 -47.40498116748655 0.0 0.0
1056.5865361564113 159.7243623673355 607.1539001700133 -46.86256632604029 0.0 0.0
1122.4561218371257 187.79698444562646 654.1590259623558 -45.93859968656091 0.0 0.0
1184.2716050812971 215.6048337072175 698.9964974703053 -44.73733254392423 0.0 0.0
1238.7653636398156 238.15915524205215 737.5166888374135 -43.24356806300851 0.0 0.0
1281.5609062099154 251.65813943981078 765.6498524966222 -41.18636436942413 0.0 0.0
1310.132056625899 253.78009222731936 780.9980886982461 -38.208903965942774 0.0 0.0
1320.9206645239037 241.5302289495902 780.3350129934252 -34.44233368189081 0.0 0.0
1302.0355931313413 204.05960554666314 752.4260106785888 -30.749124434208767 0.0 0.0
1263.4050648204654 152.7990295208386 707.8383000971911 -28.05033749336391 0.0 0.0
1128.6373723264783 18.161679589096067 574.4833255311987 3.5079494864476146e-11 0.0 0.0
1263.4050648190548 152.79902951945326 707.8383000961276 28.050337493392227 0.0 0.0
1302.035593132017 204.05960554740267 752.4260106791484 30.74912443426446 0.0 0.0
1320.9206645234037 241.53022894918357 780.3350129930488 34.442333681917745 0.0 0.0
1310.132056625837 253.78009222736972 780.9980886981941 38.208903965916846 0.0 0.0
1281.5609062108267 251.65813944084954 765.6498524973754 41.18636436949794 0.0 0.0
1238.7653636388486 238.15915524123926 737.5166888366512 43.243568062986476 0.0 0.0
1184.2716050823144 215.60483370840734 698.9964974709143 44.737332543932446 0.0 0.0
1122.4561218368863 187.7969844455592 654.1590259622685 45.93859968634793 0.0 0.0
1056.5865361567062 159.7243623678948 607.1539001702199 46.86256632618131 0.0 0.0
990.6294024259374 134.378537786116 561.4502424901905 47.40498116752505 0.0 0.0
924.890072273592 113.7065247795728 518.0018976008328 47.13518844491914 0.0 0.0
857.3616640712995 96.45193184467561 474.5614968002819 46.016186663293404 0.0 0.0
784.0163302989331 79.37604149080767 424.2403921484796 44.772188590123456 0.0 0.0
701.023063129792 62.50890981477198 355.39098623549177 43.82144991498184 0.0 0.0
611.2394111520089 43.93804771119728 261.5731579018333 41.5687260407863 0.0 0.0
498.8044570474359 24.831994383184366 170.77736084763498 38.756277696320566 0.0 0.0
370.6558676960192 1.2697105401276692 111.53359179042305 37.30688868062891 0.0 0.0
295.7775514986096 71.1201042677634 110.09257450819807 38.399815887455496 0.0 0.0
731.1630654167316 345.72994662041333 485.65664118342147 97.50443762906534 0.0 0.0
-1317.001175914368 -2054.235467193156 -1568.0633142589222 65.81369196026836 0.0 0.0
-1076.7447398996949 -1783.3244635300837 -1306.2632942006085 -79.4281960266512 0.0 0.0
557.9945695382784 249.83093369318996 356.98127795588755 -145.46044734613142 0.0 0.0
214.89215094501242 60.85627215286883 82.72452692936434 -60.13775320601067 0.0 0.0
308.2132211088916 6.89859403116639 94.40329520758226 -59.48953607973705 0.0 0.0
443.4297942446189 13.998450201424374 142.05952811039631 -63.58017404776223 0.0 0.0
565.3202339337854 37.212075287279994 226.14467873789746 -62.673651482277904 0.0 0.0
668.1249227358293 55.73992974522716 325.12148965089216 -65.40491218043816 0.0 0.0
749.7187271653004 71.13293504454417 398.99068483233253 -65.78938234756914 0.0 0.0
821.1497242345648 84.85805043047213 449.5304739034682 -67.13785730997665 0.0 0.0
885.2172533514675 98.49927698388142 490.06937746179335 -68.24793826731178 0.0 0.0
947.0464276356646 115.73312516696703 529.9311553412092 -68.19143507577948 0.0 0.0
1009.840462517113 138.0070880965966 572.5187802610851 -67.23576490350827 0.0 0.0
1072.3488605370974 164.05923569725877 616.8661426427986 -65.79853993431693 0.0 0.0
1131.1571343209812 188.450416511965 658.5102249852814 -64.1187978402985 0.0 0.0
1183.1535274452206 209.21849710217435 694.8857282271406 -61.95983449458074 0.0 0.0
1226.1751439197624 223.50103793295526 723.5212649154356 -59.06852937125302 0.0 0.0
1256.0970427159502 226.85197219139636 740.1758837444537 -55.23799657269683 0.0 0.0
1266.3991631400568 213.89812773885834 738.9850475561107 -50.552639844914054 0.0 0.0
1253.44803849516 182.0638059403621 716.8273003632373 -45.162443471299795 0.0 0.0
1230.0932785887744 145.41443406462923 687.0205441583871 -38.1513870923601 0.0 0.0
1041.1892146213318 -42.985217365253206 500.45382866784644 -1.1572964808692632e-11 0.0 0.0
1230.0932785890939 145.41443406503242 687.020544158578 38.151387092492 0.0 0.0
1253.4480384956587 182.0638059409433 716.8273003636496 45.16244347152827 0.0 0.0
1266.3991631403803 213.89812773925468 738.9850475564368 50.55263984492029 0.0 0.0
1256.0970427153125 226.8519721908457 740.1758837438997 55.23799657260935 0.0 0.0
1226.1751439195764 223.5010379328492 723.5212649153905 59.068529371215675 0.0 0.0
1183.1535274443652 209.2184971015054 694.8857282265213 61.95983449460824 0.0 0.0
1131.1571343217827 188.45041651293707 658.5102249858055 64.11879784036032 0.0 0.0
1072.3488605364073 164.0592356967495 616.8661426422561 65.79853993422293 0.0 0.0
1009.8404625164843 138.0070880961482 572.5187802607317 67.23576490352069 0.0 0.0
947.0464276353644 115.73312516696173 529.931155341042 68.19143507588615 0.0 0.0
885.2172533520877 98.49927698478706 490.0693774621694 68.24793826730979 0.0 0.0
821.1497242344404 84.85805043061899 449.53047390335104 67.1378573099567 0.0 0.0
749.7187271644666 71.1329350439602 398.99068483173727 65.78938234746231 0.0 0.0
668.1249227354913 55.739929745177484 325.12148965050005 65.4049121804354 0.0 0.0
565.3202339337059 37.2120752876653 226.14467873773265 62.67365148226171 0.0 0.0
443.4297942444341 13.99845020171665 142.05952811038586 63.58017404770945 0.0 0.0
308.213221108895 6.898594031173835 94.40329520758547 59.489536079577974 0.0 0.0
214.89215094502305 60.85627215274182 82.72452692932946 60.1377532059239 0.0 0.0
557.9945695376675 249.83093369283065 356.9812779553017 145.4604473459314 0.0 0.0
-1076.744739897837 -1783.3244635281403 -1306.2632941986267 79.42819602640229 0.0 0.0
-867.9415674162161 -1548.1498464088613 -1076.2557526721298 -78.18446803816475 0.0 0.0
430.21431087293365 165.6047609112984 256.55901918903174 -177.52211214343228 0.0 0.0
157.54984349587514 47.97596479446762 61.657742487102816 -90.47708216980891 0.0 0.0
251.68167618738153 13.096810583258907 79.4356714223934 -83.54501677989623 0.0 0.0
378.5618121658782 8.047925212035135 116.55204338796594 -89.29552832867597 0.0 0.0
510.62100584929914 24.798364351685805 187.00864459675176 -88.0532462348943 0.0 0.0
623.533381700177 47.60686792624121 286.7084612508812 -87.2016559686461 0.0 0.0
709.5968505422553 63.60751203425502 369.13093746387926 -87.22479840327244 0.0 0.0
780.1499229876703 73.83851653273607 421.4712719845708 -87.87601970290476 0.0 0.0
840.9198957642616 83.66088582739201 459.70539212813327 -88.59337393971917 0.0 0.0
899.2537455361098 97.22299718163147 496.19983258147994 -88.09289210626355 0.0 0.0
958.3538113802003 116.26045627893922 535.3526132459531 -86.69980356156748 0.0 0.0
1017.5810848558634 138.98968252347163 576.4249162311993 -84.92671047213119 0.0 0.0
1073.2078414644404 161.73391756981292 615.6952992006852 -82.7511049707028 0.0 0.0
1123.0309090007306 180.2957853362721 649.8975282112889 -79.98986924495658 0.0 0.0
1165.136334409977 193.43641673248655 677.4911848811234 -76.48867688818551 0.0 0.0
1196.6743772784675 198.76052765602245 695.9504956548748 -72.12034240955023 0.0 0.0
1211.7856379591235 190.3366479736551 699.434660838702 -66.7612700827983 0.0 0.0
1206.58689717559 165.44533154269922 684.6002228763438 -59.485118570951435 0.0 0.0
1190.4661084094664 134.52530705217592 661.216375236434 -48.51478595793095 0.0 0.0
935.0035548833276 -119.956241242089 409.3557053065187 4.311750956276228e-11 0.0 0.0
1190.4661084104678 134.52530705322638 661.2163752372081 48.51478595812722 0.0 0.0
1206.5868971761283 165.44533154333877 684.6002228767693 59.48511857113625 0.0 0.0
1211.7856379592088 190.3366479738183 699.4346608389093 66.76127008282859 0.0 0.0
1196.6743772773189 198.7605276549118 695.9504956539918 72.12034240948906 0.0 0.0
1165.1363344099573 193.4364167326213 677.4911848811103 76.48867688816863 0.0 0.0
1123.0309090007745 180.2957853365138 649.897528211367 79.98986924508631 0.0 0.0
1073.2078414640582 161.73391756959316 615.6952992004504 82.7511049707398 0.0 0.0
1017.5810848552945 138.9896825231093 576.4249162307428 84.9267104722268 0.0 0.0
958.353811378096 116.26045627693637 535.3526132445562 86.69980356144553 0.0 0.0
899.2537455361961 97.22299718197873 496.1998325815198 88.09289210627227 0.0 0.0
840.9198957648554 83.66088582820178 459.7053921285231 88.59337393961457 0.0 0.0
780.1499229871586 73.83851653242994 421.47127198421526 87.8760197027677 0.0 0.0
709.5968505417327 63.6075120339584 369.1309374634118 87.22479840304504 0.0 0.0
623.5333816996628 47.60686792606013 286.7084612503924 87.20165596869215 0.0 0.0
510.6210058494768 24.798364352411312 187.0086445968126 88.05324623491173 0.0 0.0
378.56181216552915 8.047925212123536 116.55204338788941 89.2955283284885 0.0 0.0
251.68167618731331 13.09681058325792 79.43567142236805 83.54501677977667 0.0 0.0
157.54984349573004 47.97596479412063 61.657742486955186 90.4770821696946 0.0 0.0
430.21431087245224 165.6047609111528 256.5590191886074 177.52211214324316 0.0 0.0
-867.9415674146172 -1548.149846407157 -1076.2557526703818 78.18446803795263 0.0 0.0
-684.3258328138908 -1340.2805584642254 -871.681915882855 -74.39431289504692 0.0 0.0
329.7468339322317 100.16461564141943 179.3037039770747 -196.27314305387466 0.0 0.0
114.15193314530268 33.241371441724866 44.217991376108266 -119.48318278050718 0.0 0.0
200.92970408590242 17.944068952307244 65.6652616407178 -107.89641196975343 0.0 0.0
309.8435905676029 5.700863330499583 94.06842006749743 -114.48865409738035 0.0 0.0
441.13034150740145 13.835255926299336 148.72625244989072 -114.45246390368908 0.0 0.0
562.3642170587636 38.70328386885174 240.9936092175451 -110.35065725144722 0.0 0.0
661.9615539766635 53.49377363925068 330.53379551625756 -109.72767926353346 0.0 0.0
731.4227750314146 63.2892203963733 388.31349928072734 -108.18996218631068 0.0 0.0
791.2038965086157 69.0072761013564 426.09469741573974 -108.17918325568871 0.0 0.0
846.0042002011699 78.82239673697134 459.49182382945463 -107.08751312005654 0.0 0.0
901.4514679233478 94.56217820021823 495.24825903083627 -105.21807462922862 0.0 0.0
957.019542441045 114.38717575848635 533.0804436183214 -103.08971198604563 0.0 0.0
1009.3548470486417 133.75647204641635 569.055627196303 -100.63523767920451 0.0 0.0
1056.687003905858 150.59273967565989 601.1837702111528 -97.40783803204187 0.0 0.0
1097.6142291411977 163.14725786494705 627.9208235922574 -93.27543276915475 0.0 0.0
1131.1163459270244 169.66879337503624 647.9206485657439 -88.62588539649117 0.0 0.0
1153.579983508217 168.3509715828087 658.5962366884032 -82.91310230136143 0.0 0.0
1157.7056311574452 151.86787595394009 652.6424502775542 -74.18623074513917 0.0 0.0
1145.970419487193 122.98201759658338 632.4746400547293 -59.88286685541404 0.0 0.0
811.7413913569987 -209.36471280544833 303.7260983918484 7.842793081636046e-11 0.0 0.0
1145.9704194872677 122.98201759673847 632.4746400548797 59.882866855647706 0.0 0.0
1157.7056311584322 151.8678759550514 652.6424502782435 74.18623074534274 0.0 0.0
1153.5799835078565 168.35097158251955 658.5962366881914 82.91310230146647 0.0 0.0
1131.116345925971 169.66879337410742 647.9206485650435 88.62588539651172 0.0 0.0
1097.614229141851 163.1472578656987 627.9208235927623 93.27543276919047 0.0 0.0
1056.6870039062683 150.5927396763386 601.1837702113351 97.40783803219065 0.0 0.0
1009.3548470478202 133.75647204580497 569.0556271957436 100.63523767931748 0.0 0.0
957.0195424402464 114.38717575780659 533.0804436177633 103.089711986059 0.0 0.0
901.4514679222851 94.56217819931074 495.2482590301343 105.21807462911285 0.0 0.0
846.0042002009192 78.82239673700332 459.49182382924295 107.08751312014886 0.0 0.0
791.2038965075623 69.00727610044706 426.0946974150634 108.17918325558274 0.0 0.0
731.4227750309574 63.28922039621292 388.3134992804266 108.1899621862935 0.0 0.0
661.9615539759516 53.493773638745324 330.53379551570066 109.72767926346064 0.0 0.0
562.3642170581535 38.70328386845719 240.9936092169951 110.3506572513374 0.0 0.0
441.13034150700537 13.835255926165562 148.72625244962072 114.45246390352686 0.0 0.0
309.8435905671691 5.700863330184474 94.06842006729791 114.48865409718618 0.0 0.0
200.92970408596653 17.944068952448852 65.66526164077966 107.89641196964335 0.0 0.0
114.151933145177 33.241371441341215 44.21799137595545 119.4831827803551 0.0 0.0
329.74683393174297 100.164615641241 179.30370397668963 196.27314305370265 0.0 0.0
-684.3258328126566 -1340.2805584628163 -871.6819158813832 74.3943128949248 0.0 0.0
-525.5798522175511 -1150.6350817874068 -689.8937715690423 -71.03599917752416 0.0 0.0
250.26966700107386 48.501339448354685 120.11037737678784 -207.89286656392844 0.0 0.0
79.23989745402815 18.9582275146451 29.45928378273054 -143.45258495032593 0.0 0.0
153.49943404430013 21.177260797107653 52.404077608385265 -130.4580921388873 0.0 0.0
241.62122494025158 6.473654912045936 74.13431556226101 -136.55243738615388 0.0 0.0
361.21490974067603 3.271041163818996 112.40104811570146 -143.2903971947647 0.0 0.0
487.0854946066563 24.731415780889268 188.83189070931218 -136.9244833121877 0.0 0.0
595.2701339636372 44.25956929324258 280.6627635785357 -131.98866464278763 0.0 0.0
675.8714329822029 49.921860983088685 346.7837044393428 -129.93226035546482 0.0 0.0
732.7241603685698 54.55994465462408 386.89113307865307 -126.8753194665126 0.0 0.0
785.9055449412735 60.61628482768079 418.7555986404987 -125.08319810098507 0.0 0.0
837.6877477010643 72.8356970580148 451.1920923778814 -122.75113021809054 0.0 0.0
889.145379234749 89.24199127884641 485.3627001183617 -120.28362422619028 0.0 0.0
937.9329160920936 106.01707419652567 518.3133405715911 -117.59650744688032 0.0 0.0
982.2819802459034 120.4769273257467 547.8287873127679 -114.1436296837663 0.0 0.0
1021.2998472234083 130.52270019440311 572.3898916587727 -109.70320104876913 0.0 0.0
1056.4262133804345 139.82629992176177 594.5526617050886 -104.43246682196813 0.0 0.0
1088.363834739681 146.97436514836522 614.1102002368349 -98.7450999628382 0.0 0.0
1104.2719899563776 140.35207166165466 618.9831266655499 -89.65645574152555 0.0 0.0
1097.059416026875 113.13963692681284 602.0147029353238 -73.05423913406001 0.0 0.0
669.599173583965 -310.4577778894053 183.10697035030955 8.6512130792471e-11 0.0 0.0
1097.0594160262344 113.13963692621422 602.0147029349462 73.0542391343134 0.0 0.0
1104.2719899563178 140.35207166168516 618.983126665489 89.65645574165634 0.0 0.0
1088.3638347390856 146.97436514785784 614.1102002364345 98.7450999629815 0.0 0.0
1056.4262133809339 139.82629992247453 594.5526617053256 104.43246682211414 0.0 0.0
1021.2998472233229 130.5227001943844 572.3898916588904 109.70320104876937 0.0 0.0
982.2819802462348 120.47692732630045 547.8287873129067 114.14362968385933 0.0 0.0
937.9329160916818 106.01707419634799 518.3133405712982 117.59650744701634 0.0 0.0
889.1453792337985 89.24199127790598 485.362700117669 120.28362422604447 0.0 0.0
837.6877477015547 72.83569705877794 451.19209237817506 122.7511302180983 0.0 0.0
785.9055449412011 60.616284827887526 418.75559864041924 125.08319810104985 0.0 0.0
732.7241603674648 54.55994465359392 386.8911330779326 126.87531946628984 0.0 0.0
675.8714329821762 49.92186098339215 346.78370443923075 129.93226035549222 0.0 0.0
595.2701339627404 44.25956929250659 280.6627635778193 131.98866464260425 0.0 0.0
487.0854946059357 24.731415780449222 188.83189070877847 136.92448331215527 0.0 0.0
361.21490974027404 3.271041163931201 112.4010481155765 143.2903971946889 0.0 0.0
241.62122494010794 6.473654912177719 74.13431556225854 136.55243738597937 0.0 0.0
153.49943404438082 21.177260797289442 52.40407760846361 130.45809213877214 0.0 0.0
79.2398974540665 18.958227514735814 29.459283782769422 143.4525849500799 0.0 0.0
250.2696670006936 48.50133944812903 120.11037737647875 207.89286656370956 0.0 0.0
-525.5798522163794 -1150.6350817859245 -689.8937715676898 71.03599917755331 0.0 0.0
-385.6881913355677 -985.4834525315644 -529.2787994016749 -75.89728808847183 0.0 0.0
182.83635342724165 9.42617457254555 74.03880319377866 -211.28529456788797 0.0 0.0
49.43508284461582 7.215283706217673 16.99497770495082 -161.57800737796305 0.0 0.0
107.6749273425803 22.5433670162426 39.06695860700974 -149.82524712263503 0.0 0.0
176.91933496529154 8.53306362886849 55.475130455888056 -155.70369100949134 0.0 0.0
271.11899394953747 -1.09431147815096 80.82584112984858 -168.68181668473494 0.0 0.0
391.2974992893859 9.756073703925122 134.8249571173308 -165.73087259579623 0.0 0.0
507.9469177444798 29.6197422990181 216.99254536772185 -155.8880702818076 0.0 0.0
599.5292532304128 38.2747292966561 291.19808592840815 -150.27976636881357 0.0 0.0
663.6148401324087 37.58728717075226 337.46789471223235 -146.150563976739 0.0 0.0
714.4287666439948 41.67422155008282 370.0872151168888 -141.97126828800626 0.0 0.0
763.2409898122733 51.226522031582164 400.61859139502496 -139.04369989987595 0.0 0.0
810.7603723993853 64.13876602004892 431.36596418358516 -136.23886990481898 0.0 0.0
855.0105885557838 77.46999004346083 460.4284528003132 -133.4252446824955 0.0 0.0
896.364020451695 89.54939614501598 487.31337036629486 -130.09296723914306 0.0 0.0
933.1548935003485 98.56213331887783 510.36698100967163 -125.534689716865 0.0 0.0
967.8983990178983 106.14004193649691 531.5362916859006 -119.77409387541744 0.0 0.0
1008.2854577883626 121.49866756131787 559.2171781519436 -113.84451825618349 0.0 0.0
1041.8608223777592 131.72973495590162 581.3167036831733 -105.73961634033378 0.0 0.0
1043.9482962764275 109.72573428393383 571.8891305035633 -89.02052195002375 0.0 0.0
502.9145005934313 -422.8042618017653 45.044881071159715 2.3035795493342448e-11 0.0 0.0
1043.9482962762177 109.72573428386528 571.8891305034787 89.02052195018638 0.0 0.0
1041.86082237762 131.729734955862 581.3167036830517 105.73961634061544 0.0 0.0
1008.285457786601 121.49866755965107 559.2171781508271 113.84451825628048 0.0 0.0
967.8983990186448 106.1400419373352 531.5362916862867 119.77409387568383 0.0 0.0
933.1548934998841 98.56213331842187 510.36698100939464 125.53468971669908 0.0 0.0
896.3640204512994 89.54939614476824 487.3133703660413 130.0929672391008 0.0 0.0
855.0105885558248 77.46999004375633 460.4284528003161 133.42524468261405 0.0 0.0
810.7603723989697 64.1387660198144 431.36596418328304 136.2388699048784 0.0 0.0
763.2409898125142 51.22652203213579 400.6185913952028 139.04369990004685 0.0 0.0
714.4287666438638 41.67422155009766 370.08721511675145 141.97126828796456 0.0 0.0
663.6148401325711 37.58728717122088 337.4678947123501 146.15056397667198 0.0 0.0
599.5292532299843 38.274729296486115 291.19808592805424 150.27976636885742 0.0 0.0
507.9469177441133 29.619742299025436 216.99254536740833 155.8880702817438 0.0 0.0
391.29749928889055 9.75607370362177 134.8249571169738 165.73087259574413 0.0 0.0
271.11899394932436 -1.09431147765277 80.82584112993904 168.6818166844946 0.0 0.0
176.91933496514034 8.533063628891565 55.47513045585324 155.703691009364 0.0 0.0
107.6749273425732 22.54336701640107 39.06695860705577 149.8252471224335 0.0 0.0
49.4350828445747 7.2152837063896555 16.994977704990003 161.5780073776799 0.0 0.0
182.83635342687063 9.426174572284665 74.03880319350749 211.28529456773958 0.0 0.0
-385.6881913345921 -985.4834525302641 -529.2787994005475 75.8972880885345 0.0 0.0
-277.4112139288677 -826.80693223015 -397.66368295722555 -81.8424912618778 0.0 0.0
125.02589501244805 -22.28719034543672 38.81638927412266 -208.3310783611066 0.0 0.0
21.719989519232964 -0.7927547349267795 6.280120106791068 -174.3935972833686 0.0 0.0
62.897512463147436 22.364505188955775 25.57395976003509 -165.2581707408328 0.0 0.0
112.99248262171261 11.572767608824254 37.28143842047747 -170.66186837359012 0.0 0.0
177.87739274716094 0.09178643460782565 53.08550343874741 -187.08484207560306 0.0 0.0
273.1254325842723 -2.109943721603257 83.92245056975534 -196.39865477190392 0.0 0.0
390.08531146267654 8.933978463048721 141.38603944514028 -185.22943413201048 0.0 0.0
493.36265223756664 19.868648415302467 211.7070513740589 -170.87444219860348 0.0 0.0
567.4201622106708 20.559827770880432 266.34798655471684 -162.93733740614613 0.0 0.0
621.3994959449856 22.238010248164002 304.38142229248393 -157.09928374490988 0.0 0.0
668.4277688346 28.477810279952855 334.8991138269477 -153.59617583233404 0.0 0.0
712.084581999656 38.69282416893389 363.6135688015339 -150.51743607930746 0.0 0.0
751.4407390526969 48.57721882722411 388.9950691553431 -147.67917173192737 0.0 0.0
788.5239456565612 58.09371530663331 412.70511373367555 -144.7761925878957 0.0 0.0
823.8712388074011 66.39371852767088 434.8906326459987 -140.84017088922377 0.0 0.0
858.0323126810268 73.33568256450911 455.87115347470103 -134.94131822296364 0.0 0.0
899.1075411470921 87.78786008781677 483.56632103666584 -127.9173466810377 0.0 0.0
954.2133488306573 116.87754150101499 525.4468919714069 -121.64348706371243 0.0 0.0
983.8999260755124 117.62291220833163 541.7988921472861 -109.43139209434457 0.0 0.0
302.60881003264717 -542.1864439899124 -112.48923306681144 1.6962431459432992e-10 0.0 0.0
983.8999260759991 117.62291220879962 541.7988921477184 109.43139209440763 0.0 0.0
954.2133488306965 116.87754150112107 525.4468919714177 121.64348706399623 0.0 0.0
899.1075411466142 87.78786008761118 483.566321036374 127.91734668117763 0.0 0.0
858.0323126812654 73.33568256488894 455.87115347483376 134.94131822313238 0.0 0.0
823.8712388078134 66.3937185283571 434.8906326463151 140.8401708892581 0.0 0.0
788.5239456562698 58.09371530661595 412.7051137335074 144.7761925880634 0.0 0.0
751.4407390528235 48.57721882743783 388.99506915537887 147.6791717320344 0.0 0.0
712.0845819994998 38.69282416895436 363.61356880140056 150.517436079382 0.0 0.0
668.4277688343606 28.477810279921258 334.89911382682 153.59617583235098 0.0 0.0
621.3994959446871 22.238010248040005 304.38142229224707 157.0992837448743 0.0 0.0
567.4201622104741 20.559827770868655 266.3479865545728 162.93733740612137 0.0 0.0
493.3626522363917 19.868648414206696 211.70705137324273 170.87444219850855 0.0 0.0
390.0853114624067 8.933978463339166 141.38603944499474 185.22943413208688 0.0 0.0
273.12543258396613 -2.109943721575086 83.92245056963498 196.39865477174789 0.0 0.0
177.87739274717768 0.09178643517726126 53.085503438946674 187.08484207522352 0.0 0.0
112.99248262150097 11.57276760845843 37.28143842031249 170.6618683733691 0.0 0.0
62.89751246309906 22.36450518890077 25.573959760001905 165.25817074066225 0.0 0.0
21.719989519239753 -0.7927547348861483 6.2801201068046 174.393597283189 0.0 0.0
125.02589501217446 -22.287190345652867 38.81638927392696 208.3310783609603 0.0 0.0
-277.41121392804075 -826.8069322290245 -397.66368295632066 81.84249126183715 0.0 0.0
-190.54712806364543 -686.5850674369913 -290.98178784454655 -95.79844381370212 0.0 0.0
72.9715753944518 -47.09235106371174 11.039639507512103 -199.3587041663868 0.0 0.0
-5.133099067347801 -4.456485942303386 -2.883888399058951 -182.02942039446037 0.0 0.0
18.80470057807527 21.125099567108492 11.977315660742033 -176.05615289483762 0.0 0.0
48.96940552101986 14.51783443442262 19.016878814234687 -181.2378240324762 0.0 0.0
85.77667515343215 3.557523116951791 26.676194522486313 -199.26667662122225 0.0 0.0
137.4182535609346 -2.1943612716646217 40.650143666249996 -215.5450352193745 0.0 0.0
219.03082986186578 -5.959789214126273 65.74038709001607 -217.31621886528623 0.0 0.0
322.9366761174783 -12.658097026960634 101.77835689873098 -201.92753466723667 0.0 0.0
411.24023180731433 -15.828345114865431 142.35612884448204 -180.17411307091052 0.0 0.0
470.8086484937502 -7.428575383209214 181.46593955819768 -168.09947034869464 0.0 0.0
515.9651525266632 2.579114360314861 214.6633575928475 -163.93608937234725 0.0 0.0
554.0691262029918 11.211755378425352 243.07733034612315 -162.6625348628732 0.0 0.0
587.79954684774 19.237667182743152 267.67957018238445 -161.79655475332848 0.0 0.0
619.6928296647325 27.23688677126296 290.8337435549048 -160.8306130127789 0.0 0.0
652.6872149616 35.19782077946279 314.492766574722 -159.03753916854802 0.0 0.0
688.58615004757 42.38126502110036 339.5165973104949 -154.3237579135639 0.0 0.0
727.5072357377098 48.34655817060465 365.32888741195075 -146.17900258089696 0.0 0.0
788.2522401803659 73.74632320361886 408.64372422857076 -138.67463226990995 0.0 0.0
880.1083168567717 126.70839806545622 483.5638340357091 -136.6121338927749 0.0 0.0
35.47874749774792 -662.3605922193528 -300.80430717447837 4.980904577678302e-11 0.0 0.0
880.108316856651 126.70839806517222 483.5638340357368 136.61213389280334 0.0 0.0
788.2522401795765 73.74632320299278 408.6437242281681 138.67463227024194 0.0 0.0
727.5072357382569 48.346558171544835 365.328887412428 146.17900258134028 0.0 0.0
688.5861500470677 42.381265020374215 339.5165973100708 154.3237579136936 0.0 0.0
652.6872149615979 35.19782077935339 314.4927665748032 159.03753916847668 0.0 0.0
619.6928296651196 27.236886771885317 290.83374355525524 160.83061301279463 0.0 0.0
587.799546846997 19.23766718170704 267.67957018186314 161.79655475330514 0.0 0.0
554.06912620302 11.211755378757125 243.0773303461752 162.66253486291288 0.0 0.0
515.9651525268547 2.5791143606513494 214.66335759295993 163.936089372357 0.0 0.0
470.8086484934814 -7.428575383633479 181.46593955794705 168.0994703486169 0.0 0.0
411.24023180680183 -15.828345115482707 142.3561288440693 180.17411307073442 0.0 0.0
322.93667611671054 -12.658097027754192 101.77835689822793 201.9275346671987 0.0 0.0
219.0308298620035 -5.959789213077685 65.74038709034804 217.31621886532884 0.0 0.0
137.41825356074406 -2.194361271599898 40.650143666218995 215.54503521923917 0.0 0.0
85.77667515359522 3.5575231175410904 26.676194522717008 199.26667662088556 0.0 0.0
48.969405520948364 14.517834434242818 19.016878814161586 181.2378240322665 0.0 0.0
18.804700578114648 21.125099567251237 11.977315660797053 176.0561528946653 0.0 0.0
-5.1330990674172075 -4.456485942242772 -2.8838883990647157 182.02942039427302 0.0 0.0
72.97157539407438 -47.09235106389991 11.039639507317956 199.35870416628143 0.0 0.0
-190.5471280632015 -686.5850674361451 -290.9817878439645 95.79844381373536 0.0 0.0
-134.4902925180785 -557.3477742645475 -214.26738888143547 -108.56360640533337 0.0 0.0
25.702875462646393 -64.28316751145437 -10.668880252258845 -184.0381813122248 0.0 0.0
-31.025720431937668 -5.13621899419886 -10.839240907402928 -185.9376584836348 0.0 0.0
-24.52234674482103 19.474358769471223 -1.5203765936006368 -182.3651711830853 0.0 0.0
-14.292275073477848 17.071629489450864 0.8330007276503597 -186.88839489085083 0.0 0.0
-6.692401359429709 7.512901973309794 0.253259726625346 -203.70321810450017 0.0 0.0
-2.89413859091783 1.2077674086803565 -0.5056452342602045 -221.4124927745302 0.0 0.0
-0.9936315519639116 0.08175360368804618 -0.2816503566804194 -224.63561304987047 0.0 0.0
-0.2684248167550507 -0.01569694038986924 -0.08938662674261622 -216.5571698643209 0.0 0.0
0.023382316417752236 -0.003207131130107399 0.011660419853210868 -211.04037900805014 0.0 0.0
-0.3903500766180059 0.013463920130995177 -0.14293263263124345 -208.9456526876491 0.0 0.0
-0.8817850277445842 0.15565278345862055 0.2025266986217602 -197.4567772920982 0.0 0.0
-1.9675607608755001 0.7588131998965366 0.3825607677465115 -187.83354253144782 0.0 0.0
-0.7621858789274825 2.2403630788737985 0.8993571259138946 -180.61575683382392 0.0 0.0
7.1373107367243165 5.919244607101646 2.1471938495749328 -175.50722587768146 0.0 0.0
29.140556995351034 12.907600419325462 5.710355519740176 -171.14369770486886 0.0 0.0
75.46618443103596 25.21198399047144 14.057798216295268 -165.86547879880013 0.0 0.0
161.58123755523977 34.41866775843957 19.211389841068552 -156.739154622708 0.0 0.0
378.90403634134196 -10.052563255471426 33.977015948378764 -150.97882471043957 0.0 0.0
598.1887055997043 25.370893875108308 235.57656763633693 -196.3520655425111 0.0 0.0
-625.0257257676619 -900.7848761202065 -684.4927925233367 -1.3663736808666727e-10 0.0 0.0
598.1887055993054 25.37089387405831 235.57656763608816 196.35206554227491 0.0 0.0
378.90403634108054 -10.052563255577923 33.97701594812965 150.97882471105444 0.0 0.0
161.58123755552623 34.41866775903377 19.211389841481036 156.73915462324237 0.0 0.0
75.4661844297937 25.211983988743896 14.057798215140949 165.86547879894326 0.0 0.0
29.14055699526142 12.907600419009711 5.710355519584056 171.14369770482546 0.0 0.0
7.137310737144787 5.919244607361591 2.147193849875052 175.5072258776872 0.0 0.0
-0.7621858795876619 2.2403630774929084 0.899357125209292 180.6157568338765 0.0 0.0
-1.9675607597606586 0.75881320116126 0.38256076848277587 187.8335425317286 0.0 0.0
-0.8817850274118655 0.155652783361802 0.2025266986898444 197.4567772922397 0.0 0.0
-0.3903500765810932 0.01346391928721502 -0.14293263291328628 208.94565268745723 0.0 0.0
0.023382316635860434 -0.00320713164513009 0.011660419755379792 211.04037900780892 0.0 0.0
-0.26842481673060803 -0.01569694087705109 -0.08938662688378507 216.5571698642577 0.0 0.0
-0.9936315513387495 0.08175360477196358 -0.28165035615650336 224.63561304996574 0.0 0.0
-2.8941385909853476 1.2077674082835284 -0.5056452344003128 221.41249277433639 0.0 0.0
-6.692401359180144 7.512901973668617 0.2532597268070442 203.70321810423087 0.0 0.0
-14.292275073313656 17.071629489703056 0.8330007277748783 186.8883948905842 0.0 0.0
-24.522346744712028 19.474358769620657 -1.5203765935244953 182.36517118292792 0.0 0.0
-31.02572043171036 -5.136218993687321 -10.83924090718054 185.93765848352368 0.0 0.0
25.70287546236232 -64.28316751154173 -10.66888025238438 184.03818131205793 0.0 0.0
-134.4902925178894 -557.3477742638802 -214.2673888811256 108.56360640532596 0.0 0.0
-106.59929157444014 -440.4663898772035 -164.11748115548966 -112.35056690528235 0.0 0.0
-9.547074473496789 -74.65630511771734 -25.256968152269852 -169.11629620615528 0.0 0.0
-55.35099728793221 -5.021589008954775 -18.12023270432051 -185.2045680787379 0.0 0.0
-66.60028565406814 18.000879166502227 -14.587713212632067 -183.95800525142488 0.0 0.0
-76.38173087904809 18.87555996208138 -17.254945403324044 -187.05428478019994 0.0 0.0
-98.03622238880239 11.255831843289613 -25.985949374855984 -201.00315499161215 0.0 0.0
-142.83818106531268 4.732133277593686 -41.55137847856339 -216.78607661426904 0.0 0.0
-220.4118131083499 6.033326979364217 -66.23983904588226 -217.63433307801756 0.0 0.0
-323.128370899969 12.480738640595465 -101.94652964743142 -201.95559655132436 0.0 0.0
-411.1984659356791 15.8280514936664 -142.33039153827804 -180.1405833300316 0.0 0.0
-471.28433932069925 7.35175787620301 -181.64651398015306 -168.1154259335213 0.0 0.0
-516.6310539297838 -2.5756543165163137 -215.48870970272276 -163.8174536987766 0.0 0.0
-555.2505284785786 -10.170426364767067 -244.03908729058082 -162.05633312302126 0.0 0.0
-587.0167257078954 -14.951241654810957 -265.90690288021176 -160.96846405203362 0.0 0.0
-609.7262045308245 -16.120104774009093 -279.3644579569806 -161.05429139695184 0.0 0.0
-621.2144729317474 -12.279033557969058 -281.91800134163094 -163.1118408071146 0.0 0.0
-619.7506261598028 -3.5014656244184295 -271.5121595793188 -167.65312573309473 0.0 0.0
-612.8405024764895 3.609130318293822 -249.8493633490614 -177.2115666549879 0.0 0.0
-592.4918885853559 52.217201087275384 -189.70356734345475 -191.14929932080406 0.0 0.0
-322.30873786394557 159.6470414772333 25.35741944132816 -151.9101269847484 0.0 0.0
-1185.0228745728562 -1158.7579636841713 -1196.8078336824005 -1.738200694489933e-10 0.0 0.0
-322.30873786451326 159.64704147591146 25.3574194406568 151.9101269854427 0.0 0.0
-592.491888585615 52.2172010868953 -189.70356734365197 191.14929932113878 0.0 0.0
-612.8405024752716 3.609130319683885 -249.8493633482436 177.21156665501283 0.0 0.0
-619.7506261600777 -3.5014656250792484 -271.5121595795258 167.65312573321478 0.0 0.0
-621.2144729312629 -12.279033557501734 -281.91800134129295 163.11184080709972 0.0 0.0
-609.7262045305656 -16.120104774017157 -279.36445795684915 161.05429139700408 0.0 0.0
-587.0167257085158 -14.951241656064546 -265.90690288071085 160.96846405220006 0.0 0.0
-555.2505284770671 -10.170426363167444 -244.03908728956017 162.05633312295063 0.0 0.0
-516.6310539297427 -2.5756543170445845 -215.4887097027207 163.81745369889552 0.0 0.0
-471.2843393208134 7.351757875717412 -181.64651398016156 168.11542593363237 0.0 0.0
-411.1984659353154 15.828051493613911 -142.33039153801332 180.1405833300404 0.0 0.0
-323.12837089913063 12.480738640979553 -101.94652964699337 201.95559655133601 0.0 0.0
-220.41181310720737 6.033326980286427 -66.23983904525043 217.63433307806775 0.0 0.0
-142.83818106526726 4.732133276892199 -41.5513784787631 216.78607661405738 0.0 0.0
-98.03622238862806 11.255831843273986 -25.98594937481407 201.00315499133902 0.0 0.0
-76.38173087876962 18.875559962326022 -17.254945403170225 187.05428477987277 0.0 0.0
-66.60028565407688 18.000879166321504 -14.587713212693016 183.9580052512787 0.0 0.0
-55.350997287820284 -5.021589008568423 -18.12023270417338 185.20456807860955 0.0 0.0
-9.54707447357525 -74.6563051178496 -25.256968152330614 169.11629620614252 0.0 0.0
-106.59929157433976 -440.4663898765831 -164.11748115531813 112.35056690518478 0.0 0.0
-88.96791173045108 -336.6835929535332 -127.69860902316364 -104.95051131158715 0.0 0.0
-32.159986498815236 -78.95434584703419 -33.329865947293825 -156.63789490000335 0.0 0.0
-78.10486971607786 -5.133100349183341 -24.959694960222087 -181.25138095770558 0.0 0.0
-106.78679194148776 16.64610851712236 -27.063838487728262 -180.62466939264326 0.0 0.0
-137.29878498985417 20.122419813318583 -35.07927228630732 -182.87068713601332 0.0 0.0
-187.91043036636023 14.52984123601191 -51.856928160876905 -192.54854772027676 0.0 0.0
-275.1751117908367 3.5850132302928497 -84.73591449944547 -195.8873270068392 0.0 0.0
-390.3276876795738 -9.147568373441654 -141.72085119026582 -185.75626805161986 0.0 0.0
-493.375830607818 -20.079583558360582 -211.80712700519894 -170.97917456402988 0.0 0.0
-567.3641100166426 -20.601558883896423 -266.3520212792922 -162.92012102296889 0.0 0.0
-621.4173200594566 -22.205289946784802 -304.4173928843942 -157.03598233269665 0.0 0.0
-668.8418123964027 -28.385495120421155 -335.1537298209106 -153.1637650956822 0.0 0.0
-712.6743322912997 -37.931407052925735 -363.71267095580856 -149.4242261469632 0.0 0.0
-749.8965721847519 -45.14261523913464 -386.82437803431907 -146.3918560758181 0.0 0.0
-778.3869505666895 -47.62293834756022 -402.7823446237703 -145.21538686137757 0.0 0.0
-794.629708359576 -42.764761418304715 -408.63432326967586 -146.43967059413237 0.0 0.0
-798.7492113544863 -32.113527211047625 -405.0560467519331 -150.3435480450123 0.0 0.0
-791.0010078878098 -18.156083649983287 -393.6183050573192 -156.8851762868627 0.0 0.0
-742.8270376274514 27.63843012891364 -346.9068439176258 -164.54317136126747 0.0 0.0
-633.0150458690873 121.35819535826198 -247.86308942830385 -172.15247033223312 0.0 0.0
-1970.5569051752857 -1455.8471501523272 -1678.6741623491102 -3.9321434996963944e-11 0.0 0.0
-633.0150458682276 121.35819535896772 -247.86308942770182 172.15247033228783 0.0 0.0
-742.8270376276755 27.63843012825555 -346.90684391784544 164.54317136168396 0.0 0.0
-791.0010078870635 -18.156083649336836 -393.61830505678535 156.88517628714118 0.0 0.0
-798.749211354652 -32.11352721139026 -405.05604675212714 150.3435480451384 0.0 0.0
-794.6297083589799 -42.764761417803165 -408.63432326926073 146.4396705940594 0.0 0.0
-778.3869505663101 -47.62293834718389 -402.78234462344005 145.2153868612745 0.0 0.0
-749.8965721845472 -45.14261523923428 -386.82437803416775 146.39185607577147 0.0 0.0
-712.6743322904238 -37.931407052066774 -363.71267095525235 149.4242261469491 0.0 0.0
-668.8418123958302 -28.38549511998563 -335.1537298204454 153.1637650954947 0.0 0.0
-621.4173200593011 -22.205289947000377 -304.41739288434246 157.03598233266396 0.0 0.0
-567.364110016586 -20.60155888428941 -266.35202127925066 162.9201210230604 0.0 0.0
-493.37583060741207 -20.079583558355992 -211.80712700486868 170.97917456409155 0.0 0.0
-390.32768767857516 -9.147568372736893 -141.72085118961178 185.75626805167107 0.0 0.0
-275.1751117905894 3.5850132298173443 -84.73591449945619 195.88732700675249 0.0 0.0
-187.910430365852 14.529841236183866 -51.85692816069444 192.5485477200476 0.0 0.0
-137.29878498989441 20.122419812840533 -35.079272286468246 182.87068713581849 0.0 0.0
-106.78679194148106 16.64610851687095 -27.06383848780633 180.62466939250382 0.0 0.0
-78.10486971593308 -5.133100349004501 -24.959694960127436 181.2513809575475 0.0 0.0
-32.15998649889414 -78.95434584719158 -33.32986594736394 156.63789489993823 0.0 0.0
-88.96791173037221 -336.68359295316435 -127.69860902302733 104.95051131152368 0.0 0.0
-72.37218163470489 -249.60487653002187 -96.593117449418 -93.52052539880916 0.0 0.0
-48.33409420095947 -77.07381529293522 -37.62154972748677 -143.21546757898568 0.0 0.0
-99.03126956393051 -5.30756056354311 -31.289457337513046 -172.90920247068178 0.0 0.0
-145.35465905402788 15.350174555857745 -38.964316460953576 -173.44936670734162 0.0 0.0
-195.81084450341058 19.997701711514868 -52.648284777879965 -172.23500272809005 0.0 0.0
-274.15995852439215 12.810855843679557 -79.47994197659955 -172.78883510462808 0.0 0.0
-391.5311980445598 -7.456642173061292 -134.625486319272 -168.4167724768007 0.0 0.0
-508.07827620526683 -30.052053801634266 -217.17622282775815 -156.51781912412343 0.0 0.0
-599.5019909130984 -38.50297908938149 -291.28812176168 -150.33353621333598 0.0 0.0
-663.5361146582907 -37.557404494468415 -337.4514540931158 -146.16737864303477 0.0 0.0
-714.2639543391097 -41.47528796835786 -369.94042128895416 -141.90017880856303 0.0 0.0
-763.265088388611 -50.89403833556851 -400.5110500461134 -138.55233315177398 0.0 0.0
-811.0233901211856 -63.45537789880696 -431.2376343198572 -134.92836580279808 0.0 0.0
-853.989448058127 -75.05771992495063 -458.8928096567039 -131.7052915953234 0.0 0.0
-888.6576881527028 -81.4949741838924 -479.72890205422186 -130.23347601895415 0.0 0.0
-909.8737800277283 -79.20658900434927 -489.3589080976603 -131.73109695038812 0.0 0.0
-915.6780088575638 -66.49368326745548 -485.97674824097254 -136.3891548527592 0.0 0.0
-896.1001969549579 -35.33679738434188 -460.660566600283 -142.40582400753834 0.0 0.0
-840.7827402947352 23.024681469630963 -404.47949269771846 -147.190066808273 0.0 0.0
-687.3974915226677 165.14219448810914 -260.26905559583395 -149.27248693346482 0.0 0.0
-2415.1145226477884 -1691.1372630047354 -2027.4752061768695 3.5711877899302635e-11 0.0 0.0
-687.3974915208696 165.14219448995044 -260.26905559458214 149.27248693341284 0.0 0.0
-840.7827402950871 23.02468146898744 -404.47949269796675 147.19006680866653 0.0 0.0
-896.1001969547677 -35.336797384315304 -460.6605666002031 142.40582400778774 0.0 0.0
-915.6780088580947 -66.49368326809956 -485.976748241378 136.38915485283357 0.0 0.0
-909.8737800269763 -79.20658900374957 -489.35890809720394 131.73109695032937 0.0 0.0
-888.6576881527084 -81.49497418399125 -479.72890205420083 130.23347601900196 0.0 0.0
-853.989448057622 -75.05771992460386 -458.89280965632486 131.7052915952553 0.0 0.0
-811.0233901207296 -63.45537789858277 -431.2376343195995 134.92836580286485 0.0 0.0
-763.2650883879767 -50.89403833505398 -400.5110500456983 138.55233315170753 0.0 0.0
-714.263954338718 -41.475287968170434 -369.94042128878044 141.90017880841253 0.0 0.0
-663.5361146576015 -37.55740449406512 -337.4514540926274 146.16737864299174 0.0 0.0
-599.5019909131825 -38.50297909018748 -291.28812176170175 150.33353621356244 0.0 0.0
-508.07827620469004 -30.05205380148874 -217.17622282728263 156.51781912418775 0.0 0.0
-391.53119804388234 -7.456642172734435 -134.62548631883118 168.4167724767172 0.0 0.0
-274.15995852387175 12.810855843806022 -79.4799419764031 172.78883510447233 0.0 0.0
-195.81084450318843 19.99770171128954 -52.6482847778946 172.23500272788533 0.0 0.0
-145.35465905378337 15.350174556090062 -38.96431646081568 173.4493667071671 0.0 0.0
-99.03126956384668 -5.307560563451072 -31.289457337459222 172.9092024705825 0.0 0.0
-48.334094200948115 -77.07381529299951 -37.62154972750357 143.21546757882092 0.0 0.0
-72.37218163455519 -249.60487652967603 -96.59311744926939 93.52052539869044 0.0 0.0
-58.87467754928355 -176.83965529394672 -70.71429985296905 -80.22285099102187 0.0 0.0
-60.63302703085769 -70.65020171772994 -39.38514478193162 -127.84449379544164 0.0 0.0
-118.53734384774276 -5.30378117657934 -37.14588187636337 -160.51951568050595 0.0 0.0
-181.66790500255672 13.37983040973676 -50.465151908133684 -161.181366322243 0.0 0.0
-253.29976519755192 18.548712566025042 -70.21337208333463 -157.458731496317 0.0 0.0
-359.1727143162622 7.153083077832454 -110.15131414874843 -150.04020133551313 0.0 0.0
-484.7197069759965 -23.54860296128089 -188.12506762540858 -137.89268515467782 0.0 0.0
-595.4630333326509 -44.972860255684736 -280.8971696767549 -132.31595690230907 0.0 0.0
-675.9077228397113 -50.11992112164927 -346.93259536253305 -129.97299533323084 0.0 0.0
-732.6061004691618 -54.45632937059625 -386.822288360893 -126.89827023181051 0.0 0.0
-785.5652350274177 -60.20803876721142 -418.41884332537546 -125.01518234215226 0.0 0.0
-837.1629693570414 -72.07588942376182 -450.5889763038182 -122.25429571550366 0.0 0.0
-888.8240728075618 -88.32693030781314 -484.7805667401639 -118.95139116344673 0.0 0.0
-937.7380137243154 -104.89717052727812 -517.7313961366549 -115.71787055106192 0.0 0.0
-978.8828755186807 -116.75620942163937 -544.4425833890734 -113.94583846568652 0.0 0.0
-1005.0580909726173 -116.76731553637904 -557.735174437798 -115.33876726914026 0.0 0.0
-1006.7705021201957 -98.53516527749659 -549.6749721690587 -119.58420181390731 0.0 0.0
-974.8898092688432 -51.867386606421576 -510.6404569272343 -124.87831313786144 0.0 0.0
-891.6375022044876 37.50113046699005 -425.2166092069826 -127.76227357968531 0.0 0.0
-718.6193620037793 201.65618887326815 -258.7518413484326 -127.23173673118002 0.0 0.0
-2765.8605815082915 -1932.850776457371 -2329.6265527183787 3.065991904804832e-11 0.0 0.0
-718.6193620029885 201.6561888740596 -258.75184134781307 127.2317367312638 0.0 0.0
-891.637502204918 37.50113046633655 -425.21660920739737 127.76227357987273 0.0 0.0
-974.8898092695854 -51.867386607312966 -510.6404569277802 124.87831313813288 0.0 0.0
-1006.7705021204407 -98.53516527789174 -549.6749721693841 119.5842018139561 0.0 0.0
-1005.0580909722606 -116.76731553609221 -557.735174437598 115.33876726909908 0.0 0.0
-978.882875518659 -116.7562094218626 -544.4425833889699 113.94583846576536 0.0 0.0
-937.7380137229716 -104.89717052613771 -517.7313961356907 115.7178705510335 0.0 0.0
-888.8240728081882 -88.3269303087603 -484.78056674069137 118.95139116368937 0.0 0.0
-837.1629693572876 -72.075889424337 -450.5889763040315 122.25429571560355 0.0 0.0
-785.5652350274734 -60.2080387675575 -418.4188433254381 125.01518234215894 0.0 0.0
-732.6061004688829 -54.45632937059729 -386.8222883607294 126.89827023179456 0.0 0.0
-675.9077228393102 -50.11992112166439 -346.9325953622312 129.9729953333166 0.0 0.0
-595.463033332309 -44.97286025581275 -280.8971696764076 132.31595690236122 0.0 0.0
-484.71970697497363 -23.548602960470227 -188.1250676246451 137.8926851545552 0.0 0.0
-359.17271431557793 7.1530830782036325 -110.15131414838383 150.04020133544088 0.0 0.0
-253.29976519712858 18.54871256612864 -70.21337208320321 157.45873149617876 0.0 0.0
-181.66790500239182 13.379830409695726 -50.465151908111146 161.1813663220436 0.0 0.0
-118.5373438476931 -5.303781176587119 -37.14588187634938 160.5195156804329 0.0 0.0
-60.63302703089582 -70.65020171772183 -39.385144781940646 127.84449379526671 0.0 0.0
-58.874677549302824 -176.83965529376235 -70.71429985291954 80.22285099094907 0.0 0.0
-48.93146294325386 -117.76015017494606 -50.00748393545997 -66.23244581250061 0.0 0.0
-70.28320114982732 -61.1039429406282 -39.416143227136644 -110.3690849929782 0.0 0.0
-136.84138355023532 -4.850112894129291 -42.50605287907483 -144.03003827737479 0.0 0.0
-216.17335916898688 11.158547974355194 -61.43020766099164 -144.95225789323877 0.0 0.0
-308.82234615706335 13.44078539781465 -88.983813139791 -135.98163358774437 0.0 0.0
-435.5811635001632 -4.125164955087449 -144.9564907060414 -122.58640201060184 0.0 0.0
-561.0367200579476 -37.58019550039715 -239.9005199384004 -111.62673160350805 0.0 0.0
-662.4302004287548 -54.302622560599254 -330.9910061402444 -109.8636226754648 0.0 0.0
-731.4228070514191 -63.35260511796167 -388.39835683330045 -108.2281850198958 0.0 0.0
-791.0406984690779 -68.83302320506014 -425.9653422579396 -108.20537008762967 0.0 0.0
-845.4722535903973 -78.22841093203083 -458.96902164097423 -106.99647901967094 0.0 0.0
-900.3545957424245 -93.33091076088344 -494.1232314168902 -104.73356273884973 0.0 0.0
-955.8758717962271 -112.98875459770699 -531.820725712033 -101.91335132070738 0.0 0.0
-1009.7639770511528 -133.7742260307838 -569.2638594283794 -98.96798989369049 0.0 0.0
-1057.8292054691801 -151.5491250894559 -602.3244841001807 -96.9220969905218 0.0 0.0
-1088.1837364839175 -154.92254978424293 -619.4427872888768 -97.39668608375571 0.0 0.0
-1085.4810882513843 -129.02188779209953 -605.4233656592273 -101.01535226091268 0.0 0.0
-1035.1060880590533 -62.530677518839695 -547.3682829534341 -105.50966919228992 0.0 0.0
-925.7757044663256 53.56852332593607 -435.374820816125 -107.79839424297785 0.0 0.0
-743.2992849328887 227.4671364025044 -258.3063859390651 -109.17082252731107 0.0 0.0
-3065.2641273529457 -2160.9174139408206 -2597.400935350564 5.441336270450847e-11 0.0 0.0
-743.299284932508 227.46713640277216 -258.306385938753 109.17082252748469 0.0 0.0
-925.7757044666812 53.568523325428146 -435.3748208165155 107.79839424321223 0.0 0.0
-1035.1060880594637 -62.53067751939051 -547.3682829536604 105.50966919247105 0.0 0.0
-1085.4810882510417 -129.02188779181427 -605.423365659093 101.01535226088028 0.0 0.0
-1088.1837364840349 -154.92254978452272 -619.4427872889229 97.39668608382286 0.0 0.0
-1057.8292054685649 -151.54912508900634 -602.3244840997305 96.92209699048759 0.0 0.0
-1009.7639770499237 -133.7742260296518 -569.2638594275129 98.96798989368462 0.0 0.0
-955.8758717970071 -112.98875459876389 -531.8207257126536 101.9133513207543 0.0 0.0
-900.3545957425501 -93.33091076132429 -494.1232314169996 104.73356273895732 0.0 0.0
-845.4722535898036 -78.22841093167574 -458.9690216406158 106.99647901956851 0.0 0.0
-791.0406984697571 -68.83302320610889 -425.96534225840037 108.20537008773337 0.0 0.0
-731.4228070507047 -63.35260511753551 -388.398356832777 108.22818501980393 0.0 0.0
-662.4302004282096 -54.302622560414534 -330.99100613975486 109.86362267547577 0.0 0.0
-561.0367200566558 -37.58019549930058 -239.90051993740798 111.62673160336779 0.0 0.0
-435.58116349938103 -4.125164954576812 -144.95649070555746 122.58640201058202 0.0 0.0
-308.8223461566816 13.440785397745357 -88.98381313970765 135.98163358760902 0.0 0.0
-216.1733591689312 11.158547974066936 -61.43020766106279 144.9522578931197 0.0 0.0
-136.84138355011567 -4.85011289420499 -42.50605287906035 144.03003827726866 0.0 0.0
-70.28320114978892 -61.10394294063779 -39.416143227128 110.3690849928412 0.0 0.0
-48.93146294321021 -117.76015017475638 -50.00748393538998 66.23244581238428 0.0 0.0
-42.31951945896223 -71.9900207731687 -34.29286206963927 -51.9693505394646 0.0 0.0
-77.77166653677926 -49.74416577887306 -38.2547496946957 -90.94289889864294 0.0 0.0
-154.02991048520664 -3.8520385559002843 -47.3650922108056 -123.48138112797625 0.0 0.0
-249.28639382289924 7.797545765087254 -72.37814975403928 -123.99107645740969 0.0 0.0
-366.6109015455405 7.0335813431536955 -109.23053730010207 -111.68868568416359 0.0 0.0
-498.792601070669 -20.368573419966367 -183.28657158752395 -92.48287487332381 0.0 0.0
-622.7135074816249 -46.92410983612736 -285.72494984103866 -87.91519282428973 0.0 0.0
-709.8756129274973 -64.02644422585954 -369.4164611204911 -87.22113342098116 0.0 0.0
-780.1717340334525 -73.86253794684954 -421.53826012881785 -87.90756623455823 0.0 0.0
-840.7021928126012 -83.41634186856078 -459.51182879065885 -88.62066721424014 0.0 0.0
-898.5349936447726 -96.45306390043612 -495.49492547193796 -87.9742190202911 0.0 0.0
-956.7998788166004 -114.66364208658706 -533.8134818615742 -86.24742069324546 0.0 0.0
-1015.6941425210509 -137.1296699488377 -574.5534424082259 -84.02963836016853 0.0 0.0
-1073.3069305038991 -161.9269986254424 -615.8057935110821 -81.57105524723389 0.0 0.0
-1126.5056510806874 -183.84078855786345 -653.4395461512344 -79.345020511068 0.0 0.0
-1162.5989014803858 -191.30418104289936 -675.4529577807843 -78.64610088324667 0.0 0.0
-1157.5456331472835 -162.14024737904217 -658.7360028433743 -80.80659237090751 0.0 0.0
-1089.5893670941064 -76.47454677359801 -582.3563386693502 -84.88331544828203 0.0 0.0
-955.4426748277587 65.2509590639684 -444.91383454384936 -88.73735724680269 0.0 0.0
-758.7722438539295 252.69608558470404 -253.35773181446677 -94.01354368990388 0.0 0.0
-3324.326664817094 -2367.4371776049593 -2833.177053730615 4.2163605940004345e-11 0.0 0.0
-758.7722438532691 252.69608558533253 -253.35773181400754 94.01354368990826 0.0 0.0
-955.4426748273095 65.25095906428609 -444.9138345436121 88.737357246965 0.0 0.0
-1089.589367093629 -76.47454677321072 -582.356338668934 84.88331544837958 0.0 0.0
-1157.5456331470955 -162.14024737898123 -658.7360028433421 80.8065923709702 0.0 0.0
-1162.598901479735 -191.30418104241198 -675.4529577802679 78.64610088335513 0.0 0.0
-1126.5056510807492 -183.84078855807618 -653.4395461513053 79.34502051105365 0.0 0.0
-1073.306930503686 -161.92699862544637 -615.8057935109188 81.57105524724962 0.0 0.0
-1015.6941425212459 -137.129669949244 -574.5534424084726 84.02963836020542 0.0 0.0
-956.7998788166107 -114.66364208691985 -533.8134818615957 86.24742069337977 0.0 0.0
-898.5349936447986 -96.45306390065271 -495.4949254720114 87.97421902019654 0.0 0.0
-840.7021928122033 -83.41634186847347 -459.51182879043046 88.62066721425957 0.0 0.0
-780.1717340330281 -73.86253794673672 -421.53826012850857 87.90756623454467 0.0 0.0
-709.8756129268018 -64.02644422543977 -369.41646111992645 87.22113342087974 0.0 0.0
-622.7135074806843 -46.92410983544364 -285.7249498402558 87.91519282420784 0.0 0.0
-498.79260107044763 -20.368573420240466 -183.28657158732506 92.48287487323688 0.0 0.0
-366.61090154506047 7.033581343263102 -109.23053729991634 111.68868568406607 0.0 0.0
-249.2863938227673 7.7975457648572855 -72.37814975407777 123.9910764572302 0.0 0.0
-154.0299104850497 -3.852038555903496 -47.3650922107594 123.48138112788364 0.0 0.0
-77.77166653684165 -49.74416577900194 -38.25474969475308 90.94289889851618 0.0 0.0
-42.31951945900074 -71.99002077303145 -34.29286206960964 51.96935053932982 0.0 0.0
-38.37435908945993 -39.27827450241322 -23.295790077561936 -37.819419436517464 0.0 0.0
-83.00455222088364 -37.74014528513044 -36.22340925180421 -69.79707737651648 0.0 0.0
-169.92653552972013 -2.4635113198479646 -51.71723453257469 -98.73721227111456 0.0 0.0
-282.42466783004176 3.3333367428973695 -83.62233414508657 -98.52238275019745 0.0 0.0
-421.57988468632925 -3.3443100806780732 -132.3241489835788 -82.45578982601907 0.0 0.0
-558.2204595347583 -32.37744019442604 -221.63988126908072 -67.14430651577081 0.0 0.0
-667.1839397435687 -55.329885906335306 -324.3763981202747 -65.58823477017766 0.0 0.0
-749.7871045792742 -71.16635240224647 -399.0270064503551 -65.71826028064962 0.0 0.0
-821.1846006737712 -84.8539963056263 -449.58161552270616 -67.16387704463129 0.0 0.0
-884.9428582609987 -98.19106157572777 -489.8126911984939 -68.27102565117909 0.0 0.0
-946.1563191257198 -114.81786784264303 -529.0631221393564 -68.05365859241418 0.0 0.0
-1008.0521727072746 -136.2646463410573 -570.7824512473636 -66.85019604862738 0.0 0.0
-1070.0342347762762 -161.96485191203527 -614.6658899401688 -65.21563342507869 0.0 0.0
-1130.0077888707215 -187.7120112978622 -657.5465192156286 -63.47412645212898 0.0 0.0
-1185.1019141609065 -211.57670659942306 -697.0506437388327 -61.41302118150779 0.0 0.0
-1226.8445941338462 -224.44510504717573 -724.526437451367 -59.47824887430348 0.0 0.0
-1228.5943618645153 -200.46621787855554 -713.8197176793924 -59.58394242685217 0.0 0.0
-1150.5179195829414 -103.30669156629742 -626.6937014295195 -63.355681174142255 0.0 0.0
-987.3845712491438 68.1515505071486 -459.7637560461419 -70.03676088150945 0.0 0.0
-761.2248013720198 285.42703409383716 -238.15884076231686 -80.30084767364845 0.0 0.0
-3543.321948548499 -2543.0524351521935 -3032.8252749850685 7.885248010097712e-11 0.0 0.0
-761.224801372225 285.427034093581 -238.15884076246442 80.30084767379178 0.0 0.0
-987.3845712483832 68.15155050787604 -459.7637560457067 70.03676088149687 0.0 0.0
-1150.5179195823634 -103.30669156582425 -626.693701429041 63.35568117415211 0.0 0.0
-1228.5943618636152 -200.46621787774342 -713.8197176788096 59.583942426871765 0.0 0.0
-1226.8445941336258 -224.4451050471009 -724.526437451144 59.478248874342924 0.0 0.0
-1185.1019141609397 -211.57670659964552 -697.0506437388506 61.41302118162682 0.0 0.0
-1130.0077888700305 -187.71201129731656 -657.5465192151271 63.474126452042995 0.0 0.0
-1070.0342347767853 -161.96485191278967 -614.6658899405709 65.2156334251652 0.0 0.0
-1008.0521727066057 -136.26464634058593 -570.782451246914 66.85019604851615 0.0 0.0
-946.1563191262577 -114.8178678434827 -529.0631221397796 68.05365859243058 0.0 0.0
-884.9428582601979 -98.19106157521014 -489.81269119798026 68.27102565123235 0.0 0.0
-821.1846006732725 -84.85399630541266 -449.58161552237715 67.16387704453768 0.0 0.0
-749.7871045790605 -71.16635240235527 -399.02700645012317 65.71826028068375 0.0 0.0
-667.1839397433879 -55.329885906461676 -324.3763981199425 65.58823477002305 0.0 0.0
-558.2204595340676 -32.37744019408316 -221.63988126852018 67.14430651566504 0.0 0.0
-421.57988468609716 -3.344310080807597 -132.32414898348608 82.4557898258233 0.0 0.0
-282.42466782984144 3.3333367427626377 -83.62233414509242 98.52238275008023 0.0 0.0
-169.9265355295131 -2.463511319781171 -51.71723453249227 98.73721227111798 0.0 0.0
-83.00455222081105 -37.74014528512887 -36.22340925178198 69.79707737639562 0.0 0.0
-38.374359089403605 -39.27827450233365 -23.295790077521183 37.81941943650662 0.0 0.0
-35.86890764454759 -19.249323396813743 -16.535469312408395 -24.55520058937894 0.0 0.0
-85.25610019406524 -26.291447753850388 -33.46426438437469 -47.23361549437129 0.0 0.0
-184.18850104890194 -1.2060051219249344 -55.61835185124805 -69.27472995631116 0.0 0.0
-317.1678430997498 -1.8695617418717605 -95.49304170168372 -68.05470989148758 0.0 0.0
-472.33400411347316 -16.9485485915853 -158.85226684508126 -51.798135631609874 0.0 0.0
-605.7330564329244 -41.73230530326118 -258.1957599769385 -44.01303451836503 0.0 0.0
-699.8500175558435 -61.58809790145203 -354.4261621734421 -43.78047345461041 0.0 0.0
-783.894388899349 -79.08578640388257 -424.01957849201096 -44.684809776680474 0.0 0.0
-857.4203608704662 -96.45001674389098 -474.62257074281536 -46.04240816187688 0.0 0.0
-924.5388482513613 -113.32081427684743 -517.6632462647754 -47.14685279206863 0.0 0.0
-989.6050407693391 -133.36681316585188 -560.4594340639361 -47.273968061136564 0.0 0.0
-1054.767404054919 -158.02978274904396 -605.418507955586 -46.581761859898194 0.0 0.0
-1119.9836719936434 -185.64706471186062 -651.8601560668499 -45.62700030254004 0.0 0.0
-1181.56292046313 -213.44974315862885 -696.578640182582 -44.48950849896879 0.0 0.0
-1235.935084281359 -236.0292094535106 -735.0816471662487 -42.939867728554866 0.0 0.0
-1276.8025257321688 -247.6168117472935 -761.3829045743693 -40.66596181092368 0.0 0.0
-1291.5616853468227 -236.29888143326434 -763.3404530528167 -38.68013590973297 0.0 0.0
-1238.4494848792374 -162.7423608879024 -700.5248035960444 -40.655571971423875 0.0 0.0
-1040.3554360416106 45.495608151575595 -497.8462356856928 -50.15264287782805 0.0 0.0
-737.1281494365425 341.2706525433429 -198.24590679497214 -66.87506693664326 0.0 0.0
-3708.634937518646 -2670.3499339391356 -3181.062613819477 4.581224288813246e-12 0.0 0.0
-737.128149437088 341.2706525427328 -198.24590679537982 66.87506693667312 0.0 0.0
-1040.3554360411124 45.49560815201103 -497.84623568533755 50.1526428779389 0.0 0.0
-1238.449484878393 -162.74236088715634 -700.5248035954581 40.65557197143917 0.0 0.0
-1291.5616853467805 -236.2988814333202 -763.340453052787 38.68013590983567 0.0 0.0
-1276.802525732534 -247.61681174782862 -761.3829045744831 40.66596181096763 0.0 0.0
-1235.9350842812778 -236.02920945359307 -735.081647166117 42.939867728626226 0.0 0.0
-1181.562920462418 -213.44974315811564 -696.5786401819906 44.489508498999 0.0 0.0
-1119.9836719940583 -185.6470647124795 -651.8601560671855 45.62700030254961 0.0 0.0
-1054.7674040539623 -158.0297827482887 -605.4185079549114 46.581761859726136 0.0 0.0
-989.6050407687954 -133.3668131655636 -560.4594340636291 47.27396806106823 0.0 0.0
-924.538848250746 -113.32081427649949 -517.6632462643705 47.1468527920469 0.0 0.0
-857.4203608698526 -96.45001674357974 -474.6225707424105 46.0424081618542 0.0 0.0
-783.894388898949 -79.08578640378232 -424.0195784916736 44.68480977670786 0.0 0.0
-699.8500175556594 -61.588097901673876 -354.4261621731721 43.78047345468102 0.0 0.0
-605.7330564320388 -41.73230530266274 -258.1957599762043 44.013034518341044 0.0 0.0
-472.3340041132031 -16.948548591908434 -158.85226684498122 51.798135631489814 0.0 0.0
-317.16784309914533 -1.8695617415151087 -95.4930417014171 68.05470989138574 0.0 0.0
-184.18850104875284 -1.2060051220764747 -55.61835185124876 69.274729956317 0.0 0.0
-85.25610019410433 -26.291447753975273 -33.46426438442388 47.23361549429032 0.0 0.0
-35.8689076446176 -19.249323396776866 -16.535469312418336 24.555200589334273 0.0 0.0
-32.479824289431576 -10.865675444174471 -13.003649920081813 -13.842935822087965 0.0 0.0
-83.03651499803685 -17.079684460186776 -30.034859837467078 -23.666838201520147 0.0 0.0
-196.3138305318414 -1.0840729403872387 -59.219371041668595 -33.73848699007248 0.0 0.0
-353.8040320995685 -6.9085535296884135 -108.33305541337572 -32.09237169370426 0.0 0.0
-522.0728427544688 -28.277274164421947 -187.203329866399 -23.29885373030638 0.0 0.0
-640.311874227783 -48.58656947964715 -290.37130191181456 -22.69219899610395 0.0 0.0
-728.960108754862 -65.6671005472131 -378.2693664852107 -23.508751640426873 0.0 0.0
-813.2181541747276 -87.52303191566037 -445.3789509914784 -23.956711786653653 0.0 0.0
-889.5668614433528 -108.2210867827468 -497.21182396303186 -24.58097683053833 0.0 0.0
-960.426776794495 -129.05484466821216 -543.8078568590887 -25.29404547797532 0.0 0.0
-1029.0630105547316 -152.2716108139477 -589.9391201677795 -25.608316275677154 0.0 0.0
-1097.6326752136374 -179.17140590915497 -637.7225321904095 -25.521162490665088 0.0 0.0
-1165.4486261501947 -209.67324397812527 -686.9019770485099 -25.14218071146109 0.0 0.0
-1229.090937953712 -238.34629670728762 -733.0859716026629 -24.609877038181033 0.0 0.0
-1281.4960363097148 -258.60989472420533 -769.4655582049961 -23.748331095880147 0.0 0.0
-1316.38988045955 -264.2879914619872 -789.8165100275837 -22.087955806898073 0.0 0.0
-1331.2735535042034 -253.42086619415227 -791.866512263354 -19.559918820467853 0.0 0.0
-1324.2243530947821 -225.35081227899585 -774.4489410871495 -18.553683895755565 0.0 0.0
-1209.7296574387296 -97.83417460446267 -654.1153683830057 -26.402198352945817 0.0 0.0
-714.3484496798155 394.19436198381135 -160.71793693686126 -50.266544848358116 0.0 0.0
-3662.603372726374 -2588.2970278546504 -3119.0217390060247 1.311288855276871e-10 0.0 0.0
-714.3484496788467 394.19436198475654 -160.71793693616235 50.2665448483541 0.0 0.0
-1209.7296574385016 -97.83417460431359 -654.1153683828617 26.40219835305767 0.0 0.0
-1324.2243530942085 -225.35081227849614 -774.4489410868408 18.553683895717754 0.0 0.0
-1331.2735535040326 -253.42086619410736 -791.8665122633328 19.559918820389626 0.0 0.0
-1316.3898804583744 -264.2879914609526 -789.8165100267033 22.087955806819583 0.0 0.0
-1281.4960363102698 -258.609894724945 -769.465558205358 23.748331095986096 0.0 0.0
-1229.0909379529912 -238.34629670675432 -733.085971602072 24.609877038290335 0.0 0.0
-1165.448626149948 -209.6732439780934 -686.9019770484434 25.14218071139137 0.0 0.0
-1097.6326752144416 -179.171405910197 -637.7225321909293 25.521162490648095 0.0 0.0
-1029.0630105545833 -152.27161081406012 -589.9391201676483 25.608316275621583 0.0 0.0
-960.426776794259 -129.05484466826147 -543.8078568589245 25.29404547790246 0.0 0.0
-889.5668614422618 -108.22108678197475 -497.21182396232484 24.580976830588842 0.0 0.0
-813.2181541738163 -87.5230319150007 -445.3789509908597 23.956711786619504 0.0 0.0
-728.960108754575 -65.66710054729323 -378.26936648491244 23.508751640577287 0.0 0.0
-640.3118742276798 -48.58656947992177 -290.37130191152977 22.692198995964276 0.0 0.0
-522.0728427542708 -28.277274164753436 -187.20332986628466 23.298853730397497 0.0 0.0
-353.80403209915954 -6.908553529533464 -108.3330554132255 32.09237169357355 0.0 0.0
-196.31383053177336 -1.0840729405288556 -59.219371041690664 33.73848699004073 0.0 0.0
-83.03651499805908 -17.079684460442333 -30.034859837550417 23.66683820158932 0.0 0.0
-32.47982428927312 -10.865675444054643 -13.00364991999833 13.842935821970462 0.0 0.0
-21.16158814792911 -5.525135219726346 -8.006017010296635 -8.490946191284614 0.0 0.0
-72.30217207802056 -9.751639450227414 -24.61614345847439 -9.835184047529173 0.0 0.0
-205.57977470122538 -3.092288734439151 -62.601619030699325 -11.216494617433796 0.0 0.0
-398.20584758513166 -24.12950815256364 -128.53617805765995 -7.9293947777952125 0.0 0.0
-591.5398640480264 -73.3806690727018 -235.2703728209043 0.0013606892050788133 0.0 0.0
-732.3042908465496 -122.72831504008714 -367.7779230673119 1.3667467702053528 0.0 0.0
-855.5686357102867 -177.30107611795384 -488.9309678603771 0.66506681979034 0.0 0.0
-985.9912484023951 -246.81643906902923 -601.4393240427815 -0.8089403315316659 0.0 0.0
-1123.5970179823069 -329.59086599680836 -714.8162352690832 -2.464274099555139 0.0 0.0
-1276.9860082178823 -432.693062869261 -843.6639024016735 -4.2206260819531245 0.0 0.0
-1452.0180415532668 -561.6541456746685 -995.5236814222255 -5.873574192168778 0.0 0.0
-1649.2015471183804 -717.3217168078082 -1171.5719740812185 -7.191490727529434 0.0 0.0
-1862.739272199837 -892.4761824369815 -1365.4968274881983 -8.070142359013804 0.0 0.0
-2082.387866821462 -1076.7145067699398 -1567.1026375078463 -8.779305167551387 0.0 0.0
-2291.7842671581047 -1253.610133601463 -1760.0156988670842 -9.127088245027323 0.0 0.0
-2468.3590319362575 -1400.8727732814468 -1921.8477406071133 -8.823806342192917 0.0 0.0
-2585.3178152455957 -1492.4479887802627 -2026.1478058952564 -7.458341043531949 0.0 0.0
-2629.355833827238 -1515.8730054953803 -2059.591243359297 -5.866998153007593 0.0 0.0
-2678.2700975741454 -1550.2526180965444 -2099.864215394682 -12.194404805027098 0.0 0.0
-2749.477896574791 -1620.0273806206858 -2167.81929562229 -39.93249994042252 0.0 0.0
-6218.824127003438 -5116.626640928227 -5643.566597132985 1.0473399925103877e-10 0.0 0.0
-2749.477896572301 -1620.0273806182156 -2167.819295620334 39.932499940414644 0.0 0.0
-2678.270097573488 -1550.2526180959499 -2099.864215394163 12.194404805092248 0.0 0.0
-2629.35583382566 -1515.8730054938944 -2059.591243358031 5.866998153053331 0.0 0.0
-2585.317815242518 -1492.4479887772732 -2026.1478058929765 7.458341043392579 0.0 0.0
-2468.3590319336163 -1400.8727732789416 -1921.8477406050652 8.823806342115795 0.0 0.0
-2291.7842671582057 -1253.6101336017307 -1760.015698867002 9.127088245125883 0.0 0.0
-2082.387866819964 -1076.7145067686488 -1567.1026375064257 8.779305167656837 0.0 0.0
-1862.7392721982258 -892.4761824355662 -1365.4968274869104 8.070142358941634 0.0 0.0
-1649.2015471201698 -717.321716809889 -1171.571974082185 7.191490727474932 0.0 0.0
-1452.0180415533698 -561.6541456750643 -995.5236814220593 5.873574192197758 0.0 0.0
-1276.9860082174528 -432.6930628691366 -843.6639024012343 4.220626081995523 0.0 0.0
-1123.597017979906 -329.5908659946713 -714.816235267425 2.4642740995092467 0.0 0.0
-985.9912484008335 -246.81643906773445 -601.4393240416806 0.8089403315845303 0.0 0.0
-855.5686357095617 -177.30107611750373 -488.9309678597392 -0.6650668197803604 0.0 0.0
-732.304290846354 -122.72831504028706 -367.77792306694187 -1.3667467703781853 0.0 0.0
-591.5398640476601 -73.38066907282801 -235.27037282058018 -0.0013606890393162985 0.0 0.0
-398.2058475846348 -24.12950815236591 -128.53617805743693 7.929394777810916 0.0 0.0
-205.57977470086746 -3.0922887342899514 -62.601619030547226 11.216494617432542 0.0 0.0
-72.30217207798383 -9.75163945038042 -24.616143458509274 9.835184047709268 0.0 0.0
-21.161588148062936 -5.525135219813523 -8.006017010362937 8.490946191153773 0.0 0.0
SCALARS Strain float 6
LOOKUP_TABLE default
0.014567496141746863 -0.024232688829880174 0.0 -0.0014229320465448444 0.0 0.0
0.008949748927084897 -0.0026675275647918524 0.0 -0.007360205062174583 0.0 0.0
0.0026490332824527668 -0.0006213804456497522 0.0 -0.0008741748750128149 0.0 0.0
0.00225526046588019 -0.0008976233705018381 0.0 9.243536622395025e-06 0.0 0.0
0.0033362119737984077 -0.001461803225809584 0.0 0.00018992909709832767 0.0 0.0
0.005700645604636456 -0.003246530779711621 0.0 0.00034965052983388484 0.0 0.0
0.00979985129751911 -0.006750536099557338 0.0 0.00046410188062526473 0.0 0.0
0.015975966886165587 -0.012309240904084893 0.0 0.0005041682572127712 0.0 0.0
0.02449967536114412 -0.020164425824719674 0.0 0.00046907099342123284 0.0 0.0
0.03547054831498261 -0.030359562068609118 0.0 0.00033022260195701947 0.0 0.0
0.04881648812312801 -0.04278764653292075 0.0 0.00012077137614924314 0.0 0.0
0.06436527982615531 -0.05727364576357985 0.0 -0.0001524794892010261 0.0 0.0
0.08190189912215164 -0.07363740435298856 0.0 -0.0005119935066134912 0.0 0.0
0.10119656371834396 -0.09169264373791267 0.0 -0.000911303894582419 0.0 0.0
0.1219314186382505 -0.1111779250146891 0.0 -0.0013793015620719076 0.0 0.0
0.14355154748885965 -0.1316020399389595 0.0 -0.001897638642251896 0.0 0.0
0.16516541779449737 -0.15213849338415789 0.0 -0.002363434337183994 0.0 0.0
0.18554025715309644 -0.1716195449050004 0.0 -0.0025997034070984293 0.0 0.0
0.203220750358291 -0.18860310994308765 0.0 -0.002443556623675335 0.0 0.0
0.2164281536429029 -0.20139254932730077 0.0 -0.002812066332086189 0.0 0.0
0.22165895601199648 -0.20667968861494623 0.0 3.5301622736128024e-15 0.0 0.0
0.21642815364287415 -0.20139254932726502 0.0 0.002812066332097943 0.0 0.0
0.2032207503582307 -0.18860310994303994 0.0 0.0024435566236809744 0.0 0.0
0.1855402571530087 -0.17161954490492037 0.0 0.002599703407101925 0.0 0.0
0.16516541779439517 -0.15213849338405305 0.0 0.0023634343371838097 0.0 0.0
0.14355154748875282 -0.131602039938862 0.0 0.0018976386422498714 0.0 0.0
0.12193141863814425 -0.11117792501459048 0.0 0.0013793015620717887 0.0 0.0
0.10119656371823987 -0.09169264373781276 0.0 0.0009113038945819376 0.0 0.0
0.08190189912204827 -0.07363740435288949 0.0 0.0005119935066085187 0.0 0.0
0.06436527982605791 -0.0572736457634848 0.0 0.0001524794891971568 0.0 0.0
0.048816488123044365 -0.04278764653284535 0.0 -0.0001207713761540313 0.0 0.0
0.03547054831491586 -0.030359562068541686 0.0 -0.0003302226019583122 0.0 0.0
0.02449967536109369 -0.020164425824669326 0.0 -0.0004690709934205466 0.0 0.0
0.015975966886129307 -0.012309240904053791 0.0 -0.0005041682572146865 0.0 0.0
0.009799851297495379 -0.006750536099537557 0.0 -0.0004641018806254264 0.0 0.0
0.0057006456046234015 -0.0032465307796996513 0.0 -0.00034965052983355806 0.0 0.0
0.003336211973793175 -0.001461803225805375 0.0 -0.00018992909709373282 0.0 0.0
0.0022552604658790205 -0.0008976233705035982 0.0 -9.243536624657924e-06 0.0 0.0
0.0026490332824509705 -0.0006213804456492431 0.0 0.0008741748750133267 0.0 0.0
0.00894974892707867 -0.0026675275647875113 0.0 0.0073602050621634565 0.0 0.0
0.014567496141738067 -0.024232688829855673 0.0 0.0014229320464995844 0.0 0.0
0.010196394242655542 -0.0217405380166492 0.0 -0.0009524951480250814 0.0 0.0
0.005966765246508431 -0.0019959335990330147 0.0 -0.006014735327667113 0.0 0.0
0.001739798467653005 -0.0004744455188955991 0.0 -0.0005538632191731481 0.0 0.0
0.0019865449126414024 -0.0008439571120932842 0.0 -0.00019189855385860863 0.0 0.0
0.002869075737439277 -0.0013134472257637388 0.0 -0.00015024675275317998 0.0 0.0
0.0048800970375376404 -0.0029075325821299957 0.0 -0.00023202775102297774 0.0 0.0
0.008525998559638757 -0.00617043619561853 0.0 -0.0005399997828032254 0.0 0.0
0.014127494266358901 -0.011433874105311936 0.0 -0.001029487534841618 0.0 0.0
0.021902146372438293 -0.01891227621674598 0.0 -0.0017190478686837137 0.0 0.0
0.03188608810397527 -0.02861683737001986 0.0 -0.002579553573809926 0.0 0.0
0.043970211520277615 -0.04042116323861778 0.0 -0.003525954779355991 0.0 0.0
0.057989216173947485 -0.05415022406073399 0.0 -0.004492649081612495 0.0 0.0
0.07378622805108863 -0.06964805943676051 0.0 -0.0054893954618026675 0.0 0.0
0.09118515071219452 -0.08676026572535966 0.0 -0.0065213055627542085 0.0 0.0
0.10991161246660401 -0.10524450063788368 0.0 -0.007557324259276707 0.0 0.0
0.12948531504499883 -0.12464756555659967 0.0 -0.00850407471947137 0.0 0.0
0.14912545689031814 -0.14420526501707565 0.0 -0.009123045798301286 0.0 0.0
0.16773661697197692 -0.16281897930853048 0.0 -0.009077584095957979 0.0 0.0
0.1838842460798172 -0.17907778752516415 0.0 -0.008184357698080479 0.0 0.0
0.19548011965561582 -0.1911158111957603 0.0 -0.007147909142818817 0.0 0.0
0.19982087371829813 -0.1961426024644985 0.0 8.232130255247938e-15 0.0 0.0
0.19548011965558845 -0.19111581119573387 0.0 0.007147909142842115 0.0 0.0
0.18388424607976317 -0.17907778752511352 0.0 0.008184357698101274 0.0 0.0
0.16773661697190045 -0.16281897930845715 0.0 0.00907758409596928 0.0 0.0
0.14912545689022852 -0.14420526501698172 0.0 0.009123045798301272 0.0 0.0
0.1294853150449031 -0.12464756555650139 0.0 0.00850407471946614 0.0 0.0
0.10991161246650802 -0.10524450063778906 0.0 0.007557324259274154 0.0 0.0
0.091185150712101 -0.08676026572526298 0.0 0.00652130556275171 0.0 0.0
0.07378622805099558 -0.06964805943666713 0.0 0.005489395461794326 0.0 0.0
0.05798921617386012 -0.05415022406064605 0.0 0.004492649081605279 0.0 0.0
0.043970211520201995 -0.04042116323854384 0.0 0.003525954779344448 0.0 0.0
0.031886088103914474 -0.02861683736995839 0.0 0.002579553573805014 0.0 0.0
0.021902146372392132 -0.018912276216701857 0.0 0.0017190478686799216 0.0 0.0
0.014127494266325485 -0.011433874105279624 0.0 0.0010294875348377049 0.0 0.0
0.008525998559618232 -0.006170436195601096 0.0 0.0005399997828024416 0.0 0.0
0.004880097037527294 -0.002907532582121158 0.0 0.00023202775102078394 0.0 0.0
0.0028690757374356564 -0.0013134472257606761 0.0 0.00015024675275646405 0.0 0.0
0.001986544912640591 -0.0008439571120941085 0.0 0.00019189855385735058 0.0 0.0
0.0017397984676527094 -0.00047444551889547465 0.0 0.000553863219172851 0.0 0.0
0.005966765246501409 -0.0019959335990292026 0.0 0.006014735327655603 0.0 0.0
0.010196394242641559 -0.021740538016623075 0.0 0.0009524951479900363 0.0 0.0
0.007482747145679668 -0.01736134706042536 0.0 -0.003989476597186853 0.0 0.0
0.0042387633282583645 -0.001113664021813901 0.0 -0.006074094634724957 0.0 0.0
0.0012080272954933195 -0.0002540468349434745 0.0 -0.0004985971858812178 0.0 0.0
0.0016814203455892541 -0.0007145020055357948 0.0 -0.0004798767148903321 0.0 0.0
0.002445815143910779 -0.0010569875193529744 0.0 -0.000490599144188139 0.0 0.0
0.0041033733518933985 -0.002269872118359772 0.0 -0.0006430081502666238 0.0 0.0
0.00726806259556575 -0.005030216677203419 0.0 -0.0012314332768392083 0.0 0.0
0.012263880191887658 -0.009688614664010631 0.0 -0.0021801930373342997 0.0 0.0
0.019248378881024153 -0.016391628695590146 0.0 -0.0035004308440569763 0.0 0.0
0.028213968648694646 -0.025100771659385693 0.0 -0.005108439094430904 0.0 0.0
0.039023415848012444 -0.0356504994826056 0.0 -0.006851580809667184 0.0 0.0
0.05151501214304867 -0.047868082545661134 0.0 -0.008595040623046817 0.0 0.0
0.06556218529988606 -0.06163336103539585 0.0 -0.010322343674457453 0.0 0.0
0.08104515746512603 -0.07684741159260836 0.0 -0.012095199890367373 0.0 0.0
0.09774957418356384 -0.09332069176812545 0.0 -0.013881719057860304 0.0 0.0
0.1152770638090664 -0.11067932601277357 0.0 -0.015488687929738586 0.0 0.0
0.1329771363391497 -0.12828731586404693 0.0 -0.016529489811167492 0.0 0.0
0.14986753874554315 -0.14518196693260943 0.0 -0.016505510719582922 0.0 0.0
0.16450862508690384 -0.15999158266819036 0.0 -0.015115454299396902 0.0 0.0
0.17503687954873395 -0.17078879475985662 0.0 -0.012391782203689472 0.0 0.0
0.17902092666297748 -0.1755783619080839 0.0 1.5626389071599078e-14 0.0 0.0
0.17503687954870897 -0.17078879475983968 0.0 0.012391782203727362 0.0 0.0
0.16450862508685513 -0.1599915826681381 0.0 0.015115454299434953 0.0 0.0
0.14986753874547645 -0.14518196693254504 0.0 0.016505510719604096 0.0 0.0
0.13297713633907138 -0.12828731586396872 0.0 0.016529489811170563 0.0 0.0
0.11527706380898126 -0.11067932601268315 0.0 0.01548868792973164 0.0 0.0
0.0977495741834777 -0.0933206917680442 0.0 0.01388171905785443 0.0 0.0
0.08104515746504212 -0.07684741159251887 0.0 0.012095199890361435 0.0 0.0
0.06556218529980427 -0.061633361035314874 0.0 0.010322343674443795 0.0 0.0
0.051515012142971446 -0.04786808254558172 0.0 0.008595040623036083 0.0 0.0
0.039023415847945046 -0.03565049948254055 0.0 0.006851580809654706 0.0 0.0
0.028213968648640557 -0.025100771659332537 0.0 0.00510843909442082 0.0 0.0
0.01924837888098279 -0.01639162869555028 0.0 0.0035004308440484836 0.0 0.0
0.012263880191858239 -0.009688614663981784 0.0 0.0021801930373290864 0.0 0.0
0.007268062595547674 -0.005030216677187565 0.0 0.0012314332768352595 0.0 0.0
0.00410337335188478 -0.0022698721183547006 0.0 0.0006430081502638114 0.0 0.0
0.0024458151439080227 -0.0010569875193515122 0.0 0.0004905991441899273 0.0 0.0
0.0016814203455883074 -0.000714502005535168 0.0 0.0004798767148890098 0.0 0.0
0.0012080272954934457 -0.0002540468349443033 0.0 0.0004985971858804159 0.0 0.0
0.004238763328251938 -0.0011136640218107996 0.0 0.006074094634710608 0.0 0.0
0.007482747145665815 -0.01736134706039872 0.0 0.003989476597163029 0.0 0.0
0.0056584074757036334 -0.01399107247096442 0.0 -0.004425188727857094 0.0 0.0
0.0031324054670672343 -0.0008027919046925179 0.0 -0.005541536576705622 0.0 0.0
0.0008590895561017124 -0.00014214365604722098 0.0 -0.0007817907916781389 0.0 0.0
0.0013860593208702729 -0.0005670291001749921 0.0 -0.0007711506382769802 0.0 0.0
0.002060042861510698 -0.0008610673163978178 0.0 -0.000818536967233913 0.0 0.0
0.003389171052617002 -0.0017318170766990756 0.0 -0.0009966246623257932 0.0 0.0
0.006048170620970949 -0.003950197936707053 0.0 -0.0016963981656286493 0.0 0.0
0.010403096215587649 -0.007963411521503285 0.0 -0.0030145015471179253 0.0 0.0
0.016566453732113018 -0.013855377234976 0.0 -0.004811307445533273 0.0 0.0
0.024488356559001317 -0.021540784743407013 0.0 -0.006984506371109156 0.0 0.0
0.0340090590287294 -0.030823637612441675 0.0 -0.009321757700384488 0.0 0.0
0.04496988030989471 -0.041529147648145144 0.0 -0.011653033608410121 0.0 0.0
0.057267648756164025 -0.053561100278409726 0.0 -0.013954447596153646 0.0 0.0
0.07081913650332292 -0.06686290095168644 0.0 -0.016282395628638997 0.0 0.0
0.08548048199901523 -0.08130596649346605 0.0 -0.0186118015595532 0.0 0.0
0.1009546977827721 -0.09660830288923575 0.0 -0.02072951720445019 0.0 0.0
0.11671133045876662 -0.1122650806614629 0.0 -0.022176247143127277 0.0 0.0
0.13188571469275956 -0.12744715001588935 0.0 -0.022349454204617182 0.0 0.0
0.14517977866004292 -0.14087510037044548 0.0 -0.02062762527462349 0.0 0.0
0.15498347410702182 -0.15085841759339857 0.0 -0.0161284897947529 0.0 0.0
0.15880146519929056 -0.1558041495474425 0.0 2.1138472916515383e-14 0.0 0.0
0.15498347410699936 -0.1508584175933741 0.0 0.016128489794804357 0.0 0.0
0.14517977865999956 -0.14087510037039896 0.0 0.020627625274675584 0.0 0.0
0.1318857146927008 -0.12744715001582863 0.0 0.022349454204644854 0.0 0.0
0.11671133045869866 -0.11226508066139851 0.0 0.022176247143130563 0.0 0.0
0.10095469778269776 -0.09660830288916206 0.0 0.02072951720444081 0.0 0.0
0.08548048199893941 -0.08130596649339471 0.0 0.018611801559545754 0.0 0.0
0.07081913650324859 -0.06686290095160757 0.0 0.016282395628632 0.0 0.0
0.05726764875609247 -0.05356110027834153 0.0 0.013954447596140368 0.0 0.0
0.044969880309828444 -0.04152914764808177 0.0 0.011653033608392715 0.0 0.0
0.03400905902867076 -0.030823637612384 0.0 0.009321757700368711 0.0 0.0
0.02448835655895298 -0.021540784743354892 0.0 0.00698450637109211 0.0 0.0
0.016566453732076433 -0.013855377234939608 0.0 0.004811307445522094 0.0 0.0
0.01040309621556231 -0.007963411521481972 0.0 0.0030145015471084937 0.0 0.0
0.006048170620955675 -0.003950197936693338 0.0 0.0016963981656236515 0.0 0.0
0.0033891710526101886 -0.0017318170766919805 0.0 0.0009966246623240094 0.0 0.0
0.002060042861508728 -0.000861067316395654 0.0 0.0008185369672334163 0.0 0.0
0.001386059320870271 -0.0005670291001749623 0.0 0.000771150638274901 0.0 0.0
0.0008590895561020085 -0.00014214365604781968 0.0 0.0007817907916770108 0.0 0.0
0.0031324054670610626 -0.0008027919046894645 0.0 0.0055415365766912274 0.0 0.0
0.005658407475691376 -0.013991072470940594 0.0 0.004425188727839185 0.0 0.0
0.004294452546477047 -0.011279146879471461 0.0 -0.003933505358373987 0.0 0.0
0.0023449819850727377 -0.0006402258031262085 0.0 -0.004943059639430695 0.0 0.0
0.00062329865655702 -8.893155500212875e-05 0.0 -0.001176202068207516 0.0 0.0
0.001119647822873056 -0.00043121950648698814 0.0 -0.0010860449306151448 0.0 0.0
0.0017072251368921297 -0.0007009015753603709 0.0 -0.0011434327638152528 0.0 0.0
0.002750534834115942 -0.0013056788045204683 0.0 -0.0013116810929076229 0.0 0.0
0.004892931047152476 -0.002977233625397873 0.0 -0.0020100276209923176 0.0 0.0
0.008567416602211712 -0.006282746002130938 0.0 -0.0034943952735331423 0.0 0.0
0.013885688877687992 -0.011334769454678045 0.0 -0.005642928905707526 0.0 0.0
0.02074120026454284 -0.01797262791710327 0.0 -0.008201832654195825 0.0 0.0
0.02896173506338296 -0.025976381912784507 0.0 -0.010941613012816915 0.0 0.0
0.03838568329165365 -0.035165749529843436 0.0 -0.013669248312707369 0.0 0.0
0.048928824416595254 -0.045462833049374186 0.0 -0.01636318093489847 0.0 0.0
0.06054968150625285 -0.056848407389783 0.0 -0.01907824673676312 0.0 0.0
0.07315659745930293 -0.0692501490142063 0.0 -0.021768543956914816 0.0 0.0
0.0865448195243654 -0.08247269165231821 0.0 -0.024214818137548604 0.0 0.0
0.10032335064714629 -0.09614057984596756 0.0 -0.026003105784697486 0.0 0.0
0.11379131546177443 -0.10958820156823149 0.0 -0.026480539205068335 0.0 0.0
0.12586197920693307 -0.12174871430374373 0.0 -0.02460634139088743 0.0 0.0
0.13515599560949954 -0.13118358002810335 0.0 -0.018955342692603083 0.0 0.0
0.1389248402349415 -0.13647603419704596 0.0 2.5408494752632294e-14 0.0 0.0
0.1351559956094789 -0.13118358002807695 0.0 0.01895534269266199 0.0 0.0
0.12586197920689418 -0.12174871430370157 0.0 0.024606341390944288 0.0 0.0
0.11379131546172347 -0.10958820156817965 0.0 0.026480539205101836 0.0 0.0
0.10032335064708794 -0.09614057984591545 0.0 0.026003105784702413 0.0 0.0
0.08654481952430094 -0.08247269165225356 0.0 0.024214818137538147 0.0 0.0
0.07315659745923737 -0.06925014901414003 0.0 0.02176854395690629 0.0 0.0
0.060549681506189376 -0.05684840738972115 0.0 0.019078246736754078 0.0 0.0
0.048928824416534435 -0.045462833049316094 0.0 0.016363180934885826 0.0 0.0
0.03838568329159739 -0.035165749529798195 0.0 0.01366924831268762 0.0 0.0
0.028961735063332612 -0.025976381912733226 0.0 0.01094161301279461 0.0 0.0
0.02074120026450117 -0.017972627917058007 0.0 0.00820183265417452 0.0 0.0
0.013885688877656658 -0.011334769454649042 0.0 0.005642928905692605 0.0 0.0
0.008567416602190302 -0.0062827460021120975 0.0 0.00349439527352102 0.0 0.0
0.004892931047140469 -0.0029772336253882383 0.0 0.00201002762098821 0.0 0.0
0.002750534834110833 -0.0013056788045134307 0.0 0.0013116810929056759 0.0 0.0
0.0017072251368905403 -0.0007009015753594557 0.0 0.0011434327638134162 0.0 0.0
0.0011196478228726542 -0.0004312195064867755 0.0 0.001086044930613465 0.0 0.0
0.0006232986565570367 -8.893155500342475e-05 0.0 0.0011762020682060297 0.0 0.0
0.002344981985067592 -0.0006402258031231653 0.0 0.004943059639418515 0.0 0.0
0.004294452546466836 -0.011279146879451163 0.0 0.003933505358360997 0.0 0.0
0.0032239066266958535 -0.009016483241017802 0.0 -0.0032577306725066245 0.0 0.0
0.0017484515528429093 -0.000530021245741457 0.0 -0.004362608366650755 0.0 0.0
0.00045457062149976393 -7.134802957349214e-05 0.0 -0.001553281376146594 0.0 0.0
0.0008793009685889705 -0.00031022289923111543 0.0 -0.0014027697491346756 0.0 0.0
0.0013835217388505471 -0.0005642959909193474 0.0 -0.0014638024570882264 0.0 0.0
0.0021834802908324547 -0.0009760965910652719 0.0 -0.0015992818655339615 0.0 0.0
0.0038349634012861287 -0.0021508411809958083 0.0 -0.0022460528459652875 0.0 0.0
0.0067968334090104466 -0.0047048551627460935 0.0 -0.0036845447846753764 0.0 0.0
0.01122740582834589 -0.00886135483892886 0.0 -0.0059685043227880995 0.0 0.0
0.017004428333830444 -0.014431816593779012 0.0 -0.00875126413487068 0.0 0.0
0.023913278147739008 -0.02114464130620381 0.0 -0.011703918152240365 0.0 0.0
0.031796930081443506 -0.02881440627113467 0.0 -0.014641972007449752 0.0 0.0
0.04058482239387365 -0.03737584807023795 0.0 -0.01753780543139765 0.0 0.0
0.050267353424423546 -0.046843019531840835 0.0 -0.020448769083123697 0.0 0.0
0.060814471188131505 -0.05719754416054619 0.0 -0.023332126633231757 0.0 0.0
0.07209572307624597 -0.0683183584550491 0.0 -0.025957416355600057 0.0 0.0
0.08383816105410791 -0.07994074947837224 0.0 -0.027961332234620564 0.0 0.0
0.09556627091223047 -0.09160521652867169 0.0 -0.02874281641752397 0.0 0.0
0.10647311758116275 -0.10254868566638495 0.0 -0.027054849186344588 0.0 0.0
0.11539634610770733 -0.11159349195343019 0.0 -0.02100601987193266 0.0 0.0
0.1191977057776171 -0.11738550022373023 0.0 2.6825763832505345e-14 0.0 0.0
0.11539634610768926 -0.11159349195341159 0.0 0.021006019871993666 0.0 0.0
0.10647311758112935 -0.10254868566634595 0.0 0.02705484918640394 0.0 0.0
0.09556627091218713 -0.09160521652862988 0.0 0.028742816417560206 0.0 0.0
0.08383816105405854 -0.07994074947832826 0.0 0.027961332234625817 0.0 0.0
0.07209572307619175 -0.06831835845499114 0.0 0.025957416355589284 0.0 0.0
0.06081447118807681 -0.057197544160488945 0.0 0.02333212663322135 0.0 0.0
0.050267353424370914 -0.046843019531792186 0.0 0.02044876908311498 0.0 0.0
0.04058482239382292 -0.037375848070191245 0.0 0.017537805431383998 0.0 0.0
0.03179693008139635 -0.028814406271092892 0.0 0.014641972007429237 0.0 0.0
0.02391327814769747 -0.021144641306163153 0.0 0.011703918152217961 0.0 0.0
0.0170044283337959 -0.014431816593749744 0.0 0.008751264134849992 0.0 0.0
0.011227405828319882 -0.008861354838904698 0.0 0.005968504322773605 0.0 0.0
0.006796833408993511 -0.004704855162732715 0.0 0.0036845447846657964 0.0 0.0
0.0038349634012769347 -0.0021508411809897238 0.0 0.0022460528459591206 0.0 0.0
0.0021834802908288977 -0.000976096591063314 0.0 0.001599281865530636 0.0 0.0
0.0013835217388496876 -0.0005642959909203847 0.0 0.0014638024570863173 0.0 0.0
0.0008793009685889883 -0.00031022289923059794 0.0 0.0014027697491332425 0.0 0.0
0.00045457062149994 -7.134802957499257e-05 0.0 0.0015532813761446169 0.0 0.0
0.0017484515528385144 -0.0005300212457391661 0.0 0.004362608366640497 0.0 0.0
0.0032239066266871634 -0.009016483241000878 0.0 0.00325773067249783 0.0 0.0
0.002372846378154203 -0.007105063789302209 0.0 -0.0026344692475195014 0.0 0.0
0.0012832657229355218 -0.0004455029552830885 0.0 -0.0038368726805859668 0.0 0.0
0.0003235697714442091 -6.82549539414014e-05 0.0 -0.0018648249584528303 0.0 0.0
0.0006571481734773845 -0.00020298662857779832 0.0 -0.0016960263452852709 0.0 0.0
0.0010798982336409852 -0.0004354398428118681 0.0 -0.0017596770032623451 0.0 0.0
0.00167801201244175 -0.000724238014401357 0.0 -0.0018841922540591004 0.0 0.0
0.002881028226354461 -0.0014797306241607457 0.0 -0.0024030480001384713 0.0 0.0
0.005138618383140653 -0.0032982334494698214 0.0 -0.003695652995010606 0.0 0.0
0.008641575032102165 -0.006496421035292895 0.0 -0.005833811923897031 0.0 0.0
0.013306143467852008 -0.010957792991648315 0.0 -0.008605535928192402 0.0 0.0
0.018897311537339343 -0.016366756680520442 0.0 -0.011590520052902639 0.0 0.0
0.02523665110986068 -0.022513220035586777 0.0 -0.014557641999160285 0.0 0.0
0.03226990882120799 -0.02934240867994404 0.0 -0.017466591615059444 0.0 0.0
0.0400163153879338 -0.036891788726213404 0.0 -0.020380157103897657 0.0 0.0
0.04849218399005931 -0.04519100860029046 0.0 -0.02326709735482244 0.0 0.0
0.05763958683854646 -0.05419116196039336 0.0 -0.025924919762262105 0.0 0.0
0.06729805566632868 -0.0637164453163142 0.0 -0.02800160384808659 0.0 0.0
0.07720954925694604 -0.07351065245669615 0.0 -0.02903894154754643 0.0 0.0
0.08691424045061469 -0.08318702607404764 0.0 -0.027872118417124957 0.0 0.0
0.09553220649445304 -0.091907778982675 0.0 -0.02226167228206355 0.0 0.0
0.09942660385883273 -0.09834210712674306 0.0 2.5994831287512454e-14 0.0 0.0
0.0955322064944378 -0.09190777898266304 0.0 0.02226167228212491 0.0 0.0
0.08691424045058688 -0.08318702607401994 0.0 0.027872118417183615 0.0 0.0
0.07720954925691027 -0.07351065245666355 0.0 0.02903894154758299 0.0 0.0
0.06729805566628842 -0.06371644531627095 0.0 0.02800160384809236 0.0 0.0
0.057639586838502566 -0.05419116196034939 0.0 0.025924919762249633 0.0 0.0
0.04849218399001507 -0.04519100860024417 0.0 0.023267097354809956 0.0 0.0
0.040016315387891965 -0.036891788726173304 0.0 0.02038015710388851 0.0 0.0
0.032269908821167884 -0.029342408679909164 0.0 0.017466591615044092 0.0 0.0
0.025236651109823247 -0.02251322003554625 0.0 0.014557641999140034 0.0 0.0
0.01889731153730611 -0.01636675668048709 0.0 0.011590520052879633 0.0 0.0
0.01330614346782448 -0.0109577929916265 0.0 0.008605535928170559 0.0 0.0
0.008641575032082032 -0.006496421035272428 0.0 0.005833811923883367 0.0 0.0
0.005138618383127847 -0.0032982334494617116 0.0 0.0036956529950009104 0.0 0.0
0.002881028226347804 -0.0014797306241574775 0.0 0.002403048000134275 0.0 0.0
0.0016780120124391144 -0.0007242380143995507 0.0 0.0018841922540575686 0.0 0.0
0.0010798982336401146 -0.000435439842811026 0.0 0.0017596770032602452 0.0 0.0
0.0006571481734773893 -0.00020298662857712129 0.0 0.0016960263452837467 0.0 0.0
0.00032356977144421065 -6.82549539410671e-05 0.0 0.0018648249584497035 0.0 0.0
0.0012832657229323826 -0.0004455029552817797 0.0 0.0038368726805768673 0.0 0.0
0.0023728463781482593 -0.0071050637892882485 0.0 0.0026344692475152014 0.0 0.0
0.00169645479907149 -0.005497355685609107 0.0 -0.0021472115067601534 0.0 0.0
0.000914653241096186 -0.00038205057870905387 0.0 -0.0033628852904277287 0.0 0.0
0.0002108897918186882 -6.359910330711952e-05 0.0 -0.002101108022032297 0.0 0.0
0.0004459917814038578 -0.00010742127547219238 0.0 -0.0019479350522999621 0.0 0.0
0.0007847180063658402 -0.0003028629482657439 0.0 -0.00201115037799239 0.0 0.0
0.0012250257991138803 -0.0005233247519114098 0.0 -0.0021655185633875284 0.0 0.0
0.0020348175707608582 -0.0009630605105395741 0.0 -0.0025273346147223746 0.0 0.0
0.003615992621381495 -0.0021068742105590553 0.0 -0.0035465693431923065 0.0 0.0
0.0061860448370324485 -0.004328040700121493 0.0 -0.005348775505164312 0.0 0.0
0.009696970868580798 -0.007619630824549998 0.0 -0.007801729457417009 0.0 0.0
0.013943069682182677 -0.011690689275560736 0.0 -0.01057980967809026 0.0 0.0
0.01873823041693288 -0.01630805821045513 0.0 -0.013379312833919015 0.0 0.0
0.02402302244430376 -0.021410492239097707 0.0 -0.016120657679666337 0.0 0.0
0.02983220501999386 -0.027046386957194732 0.0 -0.01884532832148322 0.0 0.0
0.03622900688957402 -0.033282553315648014 0.0 -0.021553985730587536 0.0 0.0
0.04322498215025006 -0.04014081413459222 0.0 -0.024081807228817056 0.0 0.0
0.05074446214939433 -0.047533312684113704 0.0 -0.026094567460606493 0.0 0.0
0.058723845975436104 -0.055345843368432804 0.0 -0.027238036404435107 0.0 0.0
0.06709377958862028 -0.06358396506658659 0.0 -0.026823643613768412 0.0 0.0
0.07537639515090276 -0.0719252688287749 0.0 -0.022578750343116457 0.0 0.0
0.07939250933100432 -0.07914219909127874 0.0 2.2811613709095013e-14 0.0 0.0
0.0753763951508914 -0.07192526882876421 0.0 0.02257875034317311 0.0 0.0
0.06709377958859829 -0.06358396506656525 0.0 0.026823643613827143 0.0 0.0
0.058723845975408126 -0.055345843368413986 0.0 0.02723803640447018 0.0 0.0
0.050744462149362596 -0.04753331268407803 0.0 0.026094567460610424 0.0 0.0
0.04322498215021594 -0.040140814134560596 0.0 0.024081807228800996 0.0 0.0
0.036229006889541095 -0.03328255331561684 0.0 0.021553985730574408 0.0 0.0
0.029832205019963476 -0.027046386957163708 0.0 0.018845328321473977 0.0 0.0
0.024023022444274646 -0.02141049223907049 0.0 0.016120657679654822 0.0 0.0
0.018738230416905182 -0.016308058210425476 0.0 0.013379312833902219 0.0 0.0
0.013943069682157467 -0.011690689275536029 0.0 0.010579809678067181 0.0 0.0
0.009696970868560818 -0.0076196308245285345 0.0 0.007801729457397618 0.0 0.0
0.00618604483701828 -0.004328040700109232 0.0 0.0053487755051537566 0.0 0.0
0.0036159926213727815 -0.0021068742105516867 0.0 0.0035465693431846477 0.0 0.0
0.0020348175707567955 -0.0009630605105378225 0.0 0.002527334614718099 0.0 0.0
0.0012250257991120858 -0.0005233247519088642 0.0 0.002165518563384809 0.0 0.0
0.0007847180063651787 -0.0003028629482654083 0.0 0.0020111503779908324 0.0 0.0
0.00044599178140352535 -0.0001074212754714653 0.0 0.001947935052297471 0.0 0.0
0.00021088979181819287 -6.359910330628413e-05 0.0 0.0021011080220291996 0.0 0.0
0.000914653241093896 -0.00038205057870857053 0.0 0.0033628852904213032 0.0 0.0
0.0016964547990672377 -0.005497355685598047 0.0 0.002147211506757329 0.0 0.0
0.0011811312691545836 -0.004184894927387071 0.0 -0.0018276851283255614 0.0 0.0
0.0006242508417236295 -0.00034114065384136113 0.0 -0.0029425549514726173 0.0 0.0
0.00010036839924893643 -4.595368946674189e-05 0.0 -0.002266581403411851 0.0 0.0
0.00024250368736030114 -2.083173253602447e-05 0.0 -0.002147326540114196 0.0 0.0
0.0004896225999975082 -0.00016592922269547948 0.0 -0.00220755123328761 0.0 0.0
0.0008003022318819953 -0.0003381928666409629 0.0 -0.0024095112834680663 0.0 0.0
0.001293453417252051 -0.0005835775383872021 0.0 -0.0026908010603687287 0.0 0.0
0.0022529205673592722 -0.001172109908617541 0.0 -0.00331664976687633 0.0 0.0
0.003903703822639819 -0.002453827118585961 0.0 -0.004594075912246775 0.0 0.0
0.006240673304153057 -0.004532017351080521 0.0 -0.006451824634340895 0.0 0.0
0.00910525140745288 -0.007209213550481614 0.0 -0.008713176861724903 0.0 0.0
0.012337325100380946 -0.010273715714497934 0.0 -0.011092681654667792 0.0 0.0
0.015875747867904876 -0.013646965917964628 0.0 -0.013485484051497106 0.0 0.0
0.01975574784131459 -0.017377721787244074 0.0 -0.015860827172765185 0.0 0.0
0.02406311491183194 -0.021544469362438194 0.0 -0.0182115819772906 0.0 0.0
0.028882767449453062 -0.026232456269490907 0.0 -0.020471480428422704 0.0 0.0
0.034239124909694385 -0.031464646612253906 0.0 -0.022369212199681094 0.0 0.0
0.04016124550361338 -0.0372203220590703 0.0 -0.023491450807182457 0.0 0.0
0.046927405341662745 -0.04373432977705656 0.0 -0.023600562121014107 0.0 0.0
0.05470079557838664 -0.051414152117524384 0.0 -0.02155215901160249 0.0 0.0
0.058820347586726954 -0.059524481320775105 0.0 2.1543530848155967e-14 0.0 0.0
0.05470079557837914 -0.05141415211751411 0.0 0.021552159011649398 0.0 0.0
0.04692740534164777 -0.04373432977704127 0.0 0.023600562121066704 0.0 0.0
0.04016124550359333 -0.03722032205905212 0.0 0.023491450807210025 0.0 0.0
0.03423912490967238 -0.031464646612230425 0.0 0.022369212199678766 0.0 0.0
0.028882767449429917 -0.026232456269464924 0.0 0.02047148042840908 0.0 0.0
0.024063114911810426 -0.021544469362417645 0.0 0.018211581977282707 0.0 0.0
0.01975574784129603 -0.017377721787224753 0.0 0.015860827172758444 0.0 0.0
0.015875747867887327 -0.01364696591794761 0.0 0.013485484051489166 0.0 0.0
0.01233732510036325 -0.010273715714481036 0.0 0.011092681654651786 0.0 0.0
0.009105251407436305 -0.007209213550466353 0.0 0.008713176861706595 0.0 0.0
0.006240673304140599 -0.004532017351068768 0.0 0.006451824634326516 0.0 0.0
0.0039037038226308867 -0.0024538271185832045 0.0 0.0045940759122388795 0.0 0.0
0.002252920567353487 -0.0011721099086120057 0.0 0.0033166497668714458 0.0 0.0
0.001293453417249803 -0.0005835775383857511 0.0 0.002690801060364419 0.0 0.0
0.0008003022318814132 -0.0003381928666388099 0.0 0.002409511283464856 0.0 0.0
0.00048962259999741 -0.0001659292226968662 0.0 0.0022075512332861078 0.0 0.0
0.00024250368736014838 -2.0831732536144934e-05 0.0 0.0021473265401115425 0.0 0.0
0.00010036839924890667 -4.5953689466590223e-05 0.0 0.002266581403410122 0.0 0.0
0.0006242508417224244 -0.0003411406538415269 0.0 0.002942554951468498 0.0 0.0
0.0011811312691520127 -0.0041848949273787855 0.0 0.0018276851283220894 0.0 0.0
0.000812376480344586 -0.0031486044470349526 0.0 -0.0016307965251197314 0.0 0.0
0.0004009685952216198 -0.0003271308675451155 0.0 -0.0026070394910196414 0.0 0.0
-1.4631742144225143e-05 -1.0315204673195122e-05 0.0 -0.002368162534058269 0.0 0.0
4.4311446681755396e-05 5.9502784930096236e-05 0.0 -0.002289598945421614 0.0 0.0
0.0001937179225681281 -2.8709685028773678e-05 0.0 -0.002347856833913196 0.0 0.0
0.0003795794737321624 -0.00014755868814642192 0.0 -0.002573151903839699 0.0 0.0
0.0006298012188281408 -0.0002780531469171007 0.0 -0.0028678430422178856 0.0 0.0
0.001062599548931544 -0.0005049766934560326 0.0 -0.0032094487223173745 0.0 0.0
0.0018382151362645088 -0.0010141012642860105 0.0 -0.003812953842268034 0.0 0.0
0.002997394621457576 -0.0019218585903837144 0.0 -0.004855023099384162 0.0 0.0
0.004447995628542441 -0.0031583036032049616 0.0 -0.00633965755902514 0.0 0.0
0.006083590680570598 -0.004617175431610953 0.0 -0.008110637279312905 0.0 0.0
0.007859331023457332 -0.006242614599602245 0.0 -0.010018181556631344 0.0 0.0
0.009812914720972999 -0.00806348115254726 0.0 -0.011996786275259314 0.0 0.0
0.012025738584937726 -0.010150211664955928 0.0 -0.014033007921206127 0.0 0.0
0.014630372920500128 -0.012625617315868556 0.0 -0.016099524444804093 0.0 0.0
0.01778676940968766 -0.015645801384929332 0.0 -0.01800917079881266 0.0 0.0
0.02162711196472418 -0.01934474660208365 0.0 -0.019258224113639148 0.0 0.0
0.0264741710812411 -0.023932886506015997 0.0 -0.019366079864947434 0.0 0.0
0.03325234102879756 -0.03027157993088165 0.0 -0.01882386611463002 0.0 0.0
0.03728777699606892 -0.039143149299861076 0.0 1.635323820803336e-14 0.0 0.0
0.033252341028794 -0.030271579930878922 0.0 0.01882386611467059 0.0 0.0
0.02647417108123275 -0.023932886506011296 0.0 0.019366079864989148 0.0 0.0
0.021627111964711815 -0.019344746602067347 0.0 0.019258224113658004 0.0 0.0
0.0177867694096758 -0.015645801384920804 0.0 0.018009170798806734 0.0 0.0
0.014630372920489408 -0.0126256173158579 0.0 0.016099524444788932 0.0 0.0
0.012025738584928426 -0.010150211664943912 0.0 0.014033007921198087 0.0 0.0
0.009812914720965633 -0.008063481152544507 0.0 0.011996786275253092 0.0 0.0
0.007859331023449864 -0.006242614599593964 0.0 0.010018181556623353 0.0 0.0
0.006083590680562739 -0.004617175431601806 0.0 0.00811063727929897 0.0 0.0
0.00444799562853563 -0.0031583036032000393 0.0 0.006339657559011157 0.0 0.0
0.0029973946214526545 -0.0019218585903818786 0.0 0.004855023099374965 0.0 0.0
0.0018382151362609815 -0.001014101264286612 0.0 0.0038129538422627153 0.0 0.0
0.0010625995489293237 -0.000504976693450776 0.0 0.0032094487223147256 0.0 0.0
0.0006298012188272044 -0.0002780531469164781 0.0 0.002867843042215735 0.0 0.0
0.00037957947373182396 -0.00014755868814411726 0.0 0.0025731519038361492 0.0 0.0
0.00019371792256818354 -2.870968502947792e-05 0.0 0.002347856833911428 0.0 0.0
4.431144668163793e-05 5.950278493068798e-05 0.0 0.0022895989454203383 0.0 0.0
-1.4631742144648285e-05 -1.0315204672801114e-05 0.0 0.0023681625340567776 0.0 0.0
0.00040096859522030997 -0.0003271308675453251 0.0 0.0026070394910174565 0.0 0.0
0.0008123764803425191 -0.003148604447029143 0.0 0.0016307965251178326 0.0 0.0
0.000552702482684791 -0.002364913394012914 0.0 -0.0015203287705266451 0.0 0.0
0.0002298185637068361 -0.00032831690830896964 0.0 -0.002371514294609999 0.0 0.0
-0.00013102809788222687 3.7025737215147915e-05 0.0 -0.002413627548880671 0.0 0.0
-0.0001496994062676335 0.00013656267712973264 0.0 -0.0023726297463024415 0.0 0.0
-9.854084657441765e-05 0.00010576555686166443 0.0 -0.0024266191456960334 0.0 0.0
-4.6073297329580665e-05 4.822081801059158e-05 0.0 -0.0026421054433167974 0.0 0.0
-1.7145322486676156e-05 1.2761289653680752e-05 0.0 -0.0029571991289260476 0.0 0.0
-5.8203257936129756e-06 3.4332691837004958e-06 0.0 -0.0032237016528179666 0.0 0.0
-1.449899302196668e-06 7.028825344216081e-07 0.0 -0.0034578189724636626 0.0 0.0
1.4768705571482172e-07 -8.401584543322278e-08 0.0 -0.004033847634898855 0.0 0.0
-1.1685523157384595e-06 1.2891473750225257e-07 0.0 -0.005072590435816513 0.0 0.0
-1.1275676272817846e-05 1.0228465181489558e-05 0.0 -0.0065276457022277945 0.0 0.0
-3.221202018189456e-05 3.055964659543051e-05 0.0 -0.00818368728102036 0.0 0.0
-4.077375812399568e-05 4.55288267757159e-05 0.0 -0.009978876442809455 0.0 0.0
4.389813088545255e-05 -1.3490632498650685e-05 0.0 -0.011917607775093446 0.0 0.0
0.00040037348017032417 -0.0003048564543014922 0.0 -0.013982009769754528 0.0 0.0
0.0013264206494428236 -0.0010969487161672131 0.0 -0.01608463258252696 0.0 0.0
0.0031563562888424906 -0.002725933698533003 0.0 -0.017993661332723808 0.0 0.0
0.0061043674908161675 -0.0052987105127476645 0.0 -0.019391449012507715 0.0 0.0
0.011117879346459487 -0.009399607012237183 0.0 -0.020409302130046564 0.0 0.0
0.014362880257407503 -0.018783487046229924 0.0 1.1710250824581436e-14 0.0 0.0
0.011117879346459488 -0.009399607012240574 0.0 0.020409302130070056 0.0 0.0
0.0061043674908140754 -0.0052987105127468145 0.0 0.019391449012524316 0.0 0.0
0.0031563562888400854 -0.0027259336985280026 0.0 0.01799366133272571 0.0 0.0
0.0013264206494435693 -0.001096948716176209 0.0 0.016084632582519024 0.0 0.0
0.000400373480172838 -0.000304856454305126 0.0 0.013982009769740868 0.0 0.0
4.3898130887525975e-05 -1.3490632498763659e-05 0.0 0.011917607775085149 0.0 0.0
-4.077375812026819e-05 4.5528826766497036e-05 0.0 0.00997887644280165 0.0 0.0
-3.2212020177591256e-05 3.055964659735914e-05 0.0 0.008183687281010732 0.0 0.0
-1.1275676269909148e-05 1.0228465179187851e-05 0.0 0.006527645702216136 0.0 0.0
-1.1685523134316567e-06 1.2891473301742317e-07 0.0 0.005072590435805333 0.0 0.0
1.4768705736833846e-07 -8.401584787586251e-08 0.0 0.004033847634893399 0.0 0.0
-1.449899301140628e-06 7.028825321574823e-07 0.0 0.0034578189724604512 0.0 0.0
-5.82032579287107e-06 3.4332691874245134e-06 0.0 0.0032237016528174215 0.0 0.0
-1.714532248620293e-05 1.2761289651998708e-05 0.0 0.0029571991289237044 0.0 0.0
-4.607329732913253e-05 4.822081801172358e-05 0.0 0.0026421054433134234 0.0 0.0
-9.854084657419973e-05 0.00010576555686252833 0.0 0.002426619145693467 0.0 0.0
-0.00014969940626748828 0.00013656267713025653 0.0 0.0023726297463012684 0.0 0.0
-0.0001310280978821771 3.702573721702061e-05 0.0 0.002413627548878882 0.0 0.0
0.00022981856370610568 -0.0003283169083092333 0.0 0.002371514294609127 0.0 0.0
0.0005527024826836149 -0.0023649133940094056 0.0 0.0015203287705254458 0.0 0.0
0.0003732225507256802 -0.0017955888759399467 0.0 -0.0014585790593437458 0.0 0.0
0.0001022029176863732 -0.0003211236131733412 0.0 -0.0021976496860342514 0.0 0.0
-0.00024194650920002816 8.496087119761314e-05 0.0 -0.0024090420253364752 0.0 0.0
-0.00033826838442811377 0.00021189414502771788 0.0 -0.0023940187160872654 0.0 0.0
-0.00038467058829862367 0.0002351483556580421 0.0 -0.0024346037824882504 0.0 0.0
-0.0004683021074227627 0.00024276942758202523 0.0 -0.0026195033174630285 0.0 0.0
-0.0006634105236604937 0.00030409567112792883 0.0 -0.0028953346271495288 0.0 0.0
-0.0010739132782068778 0.0005126766278571418 0.0 -0.003226158707545324 0.0 0.0
-0.0018403477043106133 0.0010151593804970031 0.0 -0.0038199046535762884 0.0 0.0
-0.0029961970701153345 0.0019207954581547532 0.0 -0.004854262802012962 0.0 0.0
-0.0044515568957554045 0.0031603987049061023 0.0 -0.0063371832361273596 0.0 0.0
-0.00610880966466789 0.004639418828769843 0.0 -0.008114233837205545 0.0 0.0
-0.00792367632370087 0.0063047562394330115 0.0 -0.010015098079790003 0.0 0.0
-0.009888591817468699 0.008152842076982867 0.0 -0.011980234088303359 0.0 0.0
-0.011926400196605713 0.010115978662082078 0.0 -0.014034494302078775 0.0 0.0
-0.013831772885330364 0.012000949869667668 0.0 -0.01624884799401866 0.0 0.0
-0.015244375163502771 0.013454846660775698 0.0 -0.01866702835720633 0.0 0.0
-0.015725507170487717 0.01400734569947322 0.0 -0.021392832816882184 0.0 0.0
-0.014801471969816158 0.013341515460133083 0.0 -0.024373730789259872 0.0 0.0
-0.010606918453486706 0.010332309899595936 0.0 -0.025804432879523054 0.0 0.0
-0.007289666628881727 0.00020848928500286535 0.0 1.3508291707431397e-14 0.0 0.0
-0.010606918453487227 0.010332309899591335 0.0 0.025804432879549304 0.0 0.0
-0.014801471969811408 0.013341515460126657 0.0 0.024373730789278805 0.0 0.0
-0.015725507170476678 0.014007345699469008 0.0 0.021392832816884446 0.0 0.0
-0.015244375163487991 0.013454846660758645 0.0 0.01866702835719812 0.0 0.0
-0.013831772885315227 0.012000949869655114 0.0 0.016248847994002363 0.0 0.0
-0.011926400196591892 0.010115978662069024 0.0 0.014034494302067185 0.0 0.0
-0.009888591817454185 0.008152842076963597 0.0 0.011980234088292917 0.0 0.0
-0.007923676323684964 0.006304756239425375 0.0 0.010015098079776522 0.0 0.0
-0.006108809664653195 0.004639418828754176 0.0 0.008114233837189873 0.0 0.0
-0.0044515568957428295 0.0031603987048923142 0.0 0.006337183236112232 0.0 0.0
-0.0029961970701063295 0.0019207954581469005 0.0 0.00485426280200386 0.0 0.0
-0.0018403477043050826 0.0010151593804947935 0.0 0.00381990465357144 0.0 0.0
-0.0010739132782032887 0.0005126766278589458 0.0 0.003226158707544629 0.0 0.0
-0.0006634105236588173 0.00030409567112454076 0.0 0.0028953346271455263 0.0 0.0
-0.00046830210742206915 0.00024276942758173282 0.0 0.002619503317460634 0.0 0.0
-0.000384670588297928 0.00023514835565870026 0.0 0.002434603782484801 0.0 0.0
-0.00033826838442791585 0.0002118941450270191 0.0 0.0023940187160864422 0.0 0.0
-0.00024194650920028246 8.496087119915821e-05 0.0 0.002409042025335435 0.0 0.0
0.00010220291768617797 -0.00032112361317368894 0.0 0.0021976496860340077 0.0 0.0
0.00037322255072545134 -0.0017955888759379338 0.0 0.0014585790593434438 0.0 0.0
0.00025176659584218234 -0.0013584668232564784 0.0 -0.0013644398941638721 0.0 0.0
7.631633049477451e-06 -0.000296520029635764 0.0 -0.0020359856894700446 0.0 0.0
-0.00034505203195205514 0.00012865670190108844 0.0 -0.0023539751707203705 0.0 0.0
-0.0005187930239345624 0.0002843839801103749 0.0 -0.002352550244728974 0.0 0.0
-0.000662078198457457 0.00035756692353177116 0.0 -0.002369885194155627 0.0 0.0
-0.0008803571300234924 0.0004298820954410416 0.0 -0.002501650767528807 0.0 0.0
-0.0013253928213820905 0.0006127407952621117 0.0 -0.0027473562647850336 0.0 0.0
-0.002262005417027765 0.0011796132025412012 0.0 -0.0033453864544535144 0.0 0.0
-0.003902953828051738 0.002452428745708983 0.0 -0.004599471439020295 0.0 0.0
-0.006238886006868634 0.0045302506265089675 0.0 -0.006448754637967537 0.0 0.0
-0.009110615519629491 0.007214535513848224 0.0 -0.008713057781078433 0.0 0.0
-0.012361285906976749 0.010296523832301282 0.0 -0.011088117316275107 0.0 0.0
-0.01593047965887143 0.013701842838271343 0.0 -0.013442147966834878 0.0 0.0
-0.019814332469323976 0.01745060533840755 0.0 -0.01575623288194006 0.0 0.0
-0.023951824596317527 0.021494240129241483 0.0 -0.018139303363774208 0.0 0.0
-0.028116695035795558 0.02562463744970042 0.0 -0.020805843700915767 0.0 0.0
-0.03188771091725949 0.029415873346624544 0.0 -0.023980121595825434 0.0 0.0
-0.034670194013065855 0.03226464321987563 0.0 -0.02776840850943228 0.0 0.0
-0.035349971454386286 0.03322578055155395 0.0 -0.03144485176113448 0.0 0.0
-0.03163022873649704 0.030111188856618766 0.0 -0.032375784649058804 0.0 0.0
-0.028289900756155333 0.01807974432080186 0.0 1.6894471932538124e-14 0.0 0.0
-0.031630228736494 0.030111188856620084 0.0 0.03237578464910092 0.0 0.0
-0.03534997145437518 0.03322578055154063 0.0 0.03144485176117699 0.0 0.0
-0.034670194013045615 0.03226464321985924 0.0 0.027768408509449782 0.0 0.0
-0.031887710917233525 0.02941587334659719 0.0 0.023980121595818 0.0 0.0
-0.02811669503576813 0.02562463744967604 0.0 0.02080584370089821 0.0 0.0
-0.02395182459629182 0.02149424012921797 0.0 0.018139303363756968 0.0 0.0
-0.01981433246929869 0.01745060533838278 0.0 0.015756232881925646 0.0 0.0
-0.015930479658845444 0.013701842838249951 0.0 0.013442147966819362 0.0 0.0
-0.012361285906951845 0.010296523832279322 0.0 0.011088117316252142 0.0 0.0
-0.009110615519607242 0.007214535513825952 0.0 0.008713057781056473 0.0 0.0
-0.006238886006852181 0.00453025062649193 0.0 0.00644875463795339 0.0 0.0
-0.0039029538280409186 0.002452428745699646 0.0 0.004599471439011901 0.0 0.0
-0.002262005417021198 0.0011796132025393492 0.0 0.0033453864544490857 0.0 0.0
-0.0013253928213788498 0.0006127407952583935 0.0 0.0027473562647807644 0.0 0.0
-0.000880357130021973 0.0004298820954412477 0.0 0.0025016507675274012 0.0 0.0
-0.0006620781984568655 0.00035756692352982144 0.0 0.0023698851941538683 0.0 0.0
-0.0005187930239341679 0.00028438398010933503 0.0 0.002352550244728046 0.0 0.0
-0.00034505203195174804 0.00012865670190161796 0.0 0.002353975170718661 0.0 0.0
7.631633049435848e-06 -0.00029652002963633526 0.0 0.0020359856894690384 0.0 0.0
0.00025176659584179843 -0.0013584668232549265 0.0 0.0013644398941629944 0.0 0.0
0.00015743608279563534 -0.000994576434023925 0.0 -0.0012157668301845195 0.0 0.0
-6.96273364410759e-05 -0.0002564315820016872 0.0 -0.0018617763004473214 0.0 0.0
-0.00043997591073021325 0.00016871933580023986 0.0 -0.002246215706479572 0.0 0.0
-0.0006901939174652509 0.0003522563155470034 0.0 -0.0022518026482319354 0.0 0.0
-0.0009278877950498793 0.0004709649399103278 0.0 -0.0022375741358490906 0.0 0.0
-0.0012928459552843964 0.000611187865969772 0.0 -0.0022988306263918025 0.0 0.0
-0.002062289410123374 0.000995062757049587 0.0 -0.0026069459702709073 0.0 0.0
-0.0036194381648961505 0.002108825059226829 0.0 -0.003571463522692068 0.0 0.0
-0.00618185207118438 0.004323265887656057 0.0 -0.005347108117896502 0.0 0.0
-0.009696399015134565 0.0076193090686428235 0.0 -0.007798298918563458 0.0 0.0
-0.013949945460930417 0.011698586133737565 0.0 -0.010581145174867494 0.0 0.0
-0.018755383337394474 0.01632604298385389 0.0 -0.013365353966118224 0.0 0.0
-0.024052583932636942 0.02144115112795726 0.0 -0.01603367811075033 0.0 0.0
-0.029851824865656712 0.02707594491037712 0.0 -0.018629866178686304 0.0 0.0
-0.03611063619966032 0.03321087307087871 0.0 -0.021346350973004524 0.0 0.0
-0.04259726004963521 0.039640381495375715 0.0 -0.024548461124500674 0.0 0.0
-0.048797485598121554 0.045861188717389534 0.0 -0.028681410941554575 0.0 0.0
-0.053762515262676225 0.050978320140797055 0.0 -0.03369158930337464 0.0 0.0
-0.055811317920543294 0.05336684281749759 0.0 -0.038200918355016086 0.0 0.0
-0.051682516986105355 0.05011746828084457 0.0 -0.039551745741402945 0.0 0.0
-0.04752549726621265 0.03525804328255388 0.0 2.1381334203152136e-14 0.0 0.0
-0.0516825169860986 0.050117468280847635 0.0 0.03955174574145294 0.0 0.0
-0.05581131792052639 0.05336684281747819 0.0 0.038200918355068184 0.0 0.0
-0.0537625152626481 0.05097832014076951 0.0 0.03369158930339928 0.0 0.0
-0.048797485598085354 0.04586118871735023 0.0 0.028681410941549856 0.0 0.0
-0.04259726004959699 0.03964038149534111 0.0 0.024548461124484396 0.0 0.0
-0.03611063619962304 0.033210873070841224 0.0 0.02134635097298514 0.0 0.0
-0.029851824865619603 0.02707594491034247 0.0 0.01862986617867001 0.0 0.0
-0.024052583932600062 0.021441151127922237 0.0 0.01603367811073379 0.0 0.0
-0.018755383337359235 0.016326042983821776 0.0 0.013365353966094215 0.0 0.0
-0.013949945460898564 0.01169858613370722 0.0 0.010581145174840361 0.0 0.0
-0.009696399015110022 0.007619309068621433 0.0 0.007798298918544522 0.0 0.0
-0.006181852071167759 0.00432326588763761 0.0 0.005347108117887043 0.0 0.0
-0.00361943816488575 0.002108825059218828 0.0 0.0035714635226847796 0.0 0.0
-0.0020622894101181956 0.0009950627570472993 0.0 0.00260694597026629 0.0 0.0
-0.001292845955282187 0.0006111878659692496 0.0 0.0022988306263896554 0.0 0.0
-0.0009278877950487882 0.0004709649399092012 0.0 0.002237574135847514 0.0 0.0
-0.0006901939174647297 0.00035225631554771167 0.0 0.002251802648230519 0.0 0.0
-0.00043997591072997863 0.00016871933580046462 0.0 0.0022462157064781114 0.0 0.0
-6.962733644090022e-05 -0.0002564315820020024 0.0 0.0018617763004452367 0.0 0.0
0.0001574360827956421 -0.0009945764340226438 0.0 0.0012157668301829756 0.0 0.0
7.695754497395579e-05 -0.0006898148103663547 0.0 -0.0010428970628832844 0.0 0.0
-0.00013811492659001674 -0.00020322182047102176 0.0 -0.0016620022985775543 0.0 0.0
-0.0005288519639840708 0.00020687795018269986 0.0 -0.0020860459347799526 0.0 0.0
-0.0008521229412551978 0.00041461648825329053 0.0 -0.002094390428090427 0.0 0.0
-0.0011826428726679436 0.0005727140232382205 0.0 -0.0020350467202336687 0.0 0.0
-0.0017295657721426096 0.0008052238813682527 0.0 -0.002043156187973535 0.0 0.0
-0.0028991668267517707 0.0015063800716263983 0.0 -0.0024784638117764015 0.0 0.0
-0.005134645183366278 0.0032919790568360975 0.0 -0.0037080708753281988 0.0 0.0
-0.008636791758258879 0.0064908712796110934 0.0 -0.005827517842204883 0.0 0.0
-0.013308086555762058 0.010960317119360767 0.0 -0.00860313398926112 0.0 0.0
-0.018904658524800663 0.016376274290560655 0.0 -0.01159164463682444 0.0 0.0
-0.025241688679504794 0.022522033009335533 0.0 -0.014534211040313199 0.0 0.0
-0.03225994341083777 0.029336080271126705 0.0 -0.017346163704774993 0.0 0.0
-0.039974957253339945 0.03685422409256343 0.0 -0.020081219970077543 0.0 0.0
-0.04836811982894639 0.045087956492287584 0.0 -0.02293947285527459 0.0 0.0
-0.05721351838379654 0.05385439722190296 0.0 -0.0264057282266909 0.0 0.0
-0.06584464544718574 0.06253468416805216 0.0 -0.031023308976882276 0.0 0.0
-0.07290035430198721 0.06982555899638224 0.0 -0.03668839626909191 0.0 0.0
-0.07598170302870524 0.07342299706681626 0.0 -0.0419486287884708 0.0 0.0
-0.07105613082571557 0.06950470079675773 0.0 -0.04390328794725181 0.0 0.0
-0.06596227986761544 0.05190560404624718 0.0 2.2292931389777948e-14 0.0 0.0
-0.07105613082570454 0.06950470079675111 0.0 0.04390328794730381 0.0 0.0
-0.07598170302868129 0.07342299706678926 0.0 0.04194862878852319 0.0 0.0
-0.07290035430195091 0.06982555899634141 0.0 0.03668839626912134 0.0 0.0
-0.06584464544714073 0.06253468416800535 0.0 0.031023308976881075 0.0 0.0
-0.05721351838374836 0.05385439722185641 0.0 0.026405728226675258 0.0 0.0
-0.048368119828897646 0.04508795649223868 0.0 0.022939472855256538 0.0 0.0
-0.039974957253291844 0.036854224092522245 0.0 0.02008121997006209 0.0 0.0
-0.03225994341079069 0.0293360802710754 0.0 0.01734616370475783 0.0 0.0
-0.025241688679460063 0.022522033009288744 0.0 0.014534211040290356 0.0 0.0
-0.01890465852476042 0.016376274290519494 0.0 0.011591644636797089 0.0 0.0
-0.013308086555729726 0.010960317119329318 0.0 0.008603133989238973 0.0 0.0
-0.008636791758235967 0.006490871279589553 0.0 0.005827517842191767 0.0 0.0
-0.0051346451833516205 0.0032919790568225605 0.0 0.0037080708753191504 0.0 0.0
-0.00289916682674408 0.0015063800716239022 0.0 0.0024784638117709757 0.0 0.0
-0.0017295657721394175 0.0008052238813679006 0.0 0.002043156187971773 0.0 0.0
-0.0011826428726668242 0.0005727140232384182 0.0 0.0020350467202332194 0.0 0.0
-0.0008521229412546776 0.000414616488253063 0.0 0.0020943904280889317 0.0 0.0
-0.0005288519639837899 0.00020687795018253054 0.0 0.0020860459347788332 0.0 0.0
-0.00013811492659020593 -0.00020322182047091068 0.0 0.0016620022985752794 0.0 0.0
7.69575449735086e-05 -0.000689814810365478 0.0 0.0010428970628823379 0.0 0.0
6.9941364493397145e-06 -0.0004403923305566596 0.0 -0.000861021795562508 0.0 0.0
-0.0002006358764974894 -0.000140970698137695 0.0 -0.0014347981049087168 0.0 0.0
-0.0006131455704668223 0.0002447504718199433 0.0 -0.0018723014826009699 0.0 0.0
-0.0010035323693118258 0.0004706423316005791 0.0 -0.0018802762184215328 0.0 0.0
-0.0014348870743866669 0.0006661563265885873 0.0 -0.0017697572971270372 0.0 0.0
-0.002211295411051617 0.001041969772729033 0.0 -0.001763523509053071 0.0 0.0
-0.0038417196287853905 0.0021646847577918996 0.0 -0.0022998314471829456 0.0 0.0
-0.00679000069164362 0.0046945530333844234 0.0 -0.0036864502664702096 0.0 0.0
-0.011224224990380395 0.008857877452375035 0.0 -0.00596092230100735 0.0 0.0
-0.01700900169240618 0.014437323564542026 0.0 -0.008750390249896347 0.0 0.0
-0.02391921541605026 0.02115387604372345 0.0 -0.011702959451124097 0.0 0.0
-0.031786012231376774 0.028810394755536393 0.0 -0.014608642141514437 0.0 0.0
-0.04052791219189134 0.03732654148767936 0.0 -0.017400644401818693 0.0 0.0
-0.050152504768389464 0.04672690064336887 0.0 -0.020128335814604843 0.0 0.0
-0.06066863366859858 0.057045228039280915 0.0 -0.022951215824662485 0.0 0.0
-0.07184684556510497 0.06812174741799089 0.0 -0.02628267146728044 0.0 0.0
-0.0828590804945608 0.07921922781115538 0.0 -0.030752879134258913 0.0 0.0
-0.09190224635984914 0.08861223626278628 0.0 -0.03652453182088052 0.0 0.0
-0.09587213940371331 0.09325697539980024 0.0 -0.042432413251076405 0.0 0.0
-0.09018597450313545 0.08863769743419657 0.0 -0.046455318174853474 0.0 0.0
-0.0842611761963116 0.06861401124302294 0.0 2.2979881886264764e-14 0.0 0.0
-0.09018597450311992 0.08863769743418304 0.0 0.04645531817490741 0.0 0.0
-0.09587213940368293 0.09325697539976739 0.0 0.04243241325112984 0.0 0.0
-0.09190224635980583 0.08861223626274076 0.0 0.0365245318209102 0.0 0.0
-0.08285908049450762 0.0792192278111037 0.0 0.030752879134258407 0.0 0.0
-0.07184684556504656 0.0681217474179316 0.0 0.026282671467268856 0.0 0.0
-0.06066863366853871 0.05704522803922411 0.0 0.02295121582464773 0.0 0.0
-0.050152504768330414 0.04672690064331622 0.0 0.02012833581458892 0.0 0.0
-0.040527912191833715 0.03732654148761685 0.0 0.01740064440179986 0.0 0.0
-0.03178601223132174 0.028810394755479973 0.0 0.014608642141491348 0.0 0.0
-0.02391921541600148 0.021153876043677283 0.0 0.011702959451096962 0.0 0.0
-0.017009001692366722 0.01443732356449819 0.0 0.008750390249874482 0.0 0.0
-0.011224224990350933 0.008857877452348902 0.0 0.005960922300991549 0.0 0.0
-0.006790000691624386 0.004694553033367625 0.0 0.00368645026646043 0.0 0.0
-0.0038417196287750047 0.0021646847577882745 0.0 0.0022998314471771434 0.0 0.0
-0.0022112954110470578 0.0010419697727280257 0.0 0.00176352350905138 0.0 0.0
-0.001434887074385098 0.00066615632658781 0.0 0.001769757297125967 0.0 0.0
-0.0010035323693110443 0.0004706423315991898 0.0 0.0018802762184202044 0.0 0.0
-0.0006131455704661002 0.00024475047181933806 0.0 0.001872301482599488 0.0 0.0
-0.00020063587649729592 -0.00014097069813781362 0.0 0.0014347981049069353 0.0 0.0
6.994136449168458e-06 -0.00044039233055588183 0.0 0.0008610217955609956 0.0 0.0
-5.21732730305993e-05 -0.0002450315315729412 0.0 -0.0006756015570130396 0.0 0.0
-0.0002568599594735433 -7.468120454715283e-05 0.0 -0.0011822576856823583 0.0 0.0
-0.000693336294480094 0.0002828422119762688 0.0 -0.0016052900386635304 0.0 0.0
-0.0011477752726398018 0.000520041277016099 0.0 -0.0016087866556236763 0.0 0.0
-0.0016977517484549312 0.0007601360334499531 0.0 -0.0014521993284437639 0.0 0.0
-0.0027499592295675258 0.0013450637374112064 0.0 -0.0014541498772756563 0.0 0.0
-0.00488869086987562 0.0029779657355580363 0.0 -0.002043745825916866 0.0 0.0
-0.008561366056695174 0.006274729020147476 0.0 -0.0034885683549556444 0.0 0.0
-0.013886212823039815 0.011335067758821576 0.0 -0.005636363611393609 0.0 0.0
-0.020747623242157606 0.017980362515213972 0.0 -0.00820269117549483 0.0 0.0
-0.028963650926588584 0.025982684960554274 0.0 -0.010937748071265027 0.0 0.0
-0.0383565341553147 0.035145980149785185 0.0 -0.013627419283443321 0.0 0.0
-0.04882770691797247 0.04537295240821618 0.0 -0.016228761457784614 0.0 0.0
-0.06036180555538516 0.05665972611010428 0.0 -0.018804022042235958 0.0 0.0
-0.07294927845420265 0.06902170648262321 0.0 -0.021422115397589012 0.0 0.0
-0.0863626793573803 0.08230396727677201 0.0 -0.02427582025287748 0.0 0.0
-0.09966636209723095 0.09570951833049149 0.0 -0.02795710249003289 0.0 0.0
-0.1106522700183662 0.10715542951329214 0.0 -0.03320697076332281 0.0 0.0
-0.11560573546205236 0.11293552436143686 0.0 -0.0399779824776379 0.0 0.0
-0.10944421282839505 0.1079253450482276 0.0 -0.04763791181323071 0.0 0.0
-0.10287254688991938 0.08582266509761406 0.0 2.2338034200153345e-14 0.0 0.0
-0.10944421282837499 0.10792534504821104 0.0 0.047637911813280795 0.0 0.0
-0.11560573546201476 0.11293552436140136 0.0 0.03997798247768765 0.0 0.0
-0.11065227001831492 0.10715542951324342 0.0 0.033206970763349934 0.0 0.0
-0.09966636209716889 0.09570951833043 0.0 0.027957102490035357 0.0 0.0
-0.08636267935731219 0.08230396727670726 0.0 0.024275820252870377 0.0 0.0
-0.07294927845413254 0.06902170648255226 0.0 0.021422115397575603 0.0 0.0
-0.06036180555531534 0.05665972611003521 0.0 0.01880402204222047 0.0 0.0
-0.0488277069179044 0.04537295240814646 0.0 0.0162287614577681 0.0 0.0
-0.03835653415525032 0.035145980149720035 0.0 0.013627419283422797 0.0 0.0
-0.028963650926531984 0.025982684960497077 0.0 0.010937748071239144 0.0 0.0
-0.020747623242111112 0.017980362515168876 0.0 0.0082026911754747 0.0 0.0
-0.013886212823004585 0.011335067758788044 0.0 0.005636363611379377 0.0 0.0
-0.008561366056671115 0.006274729020126778 0.0 0.003488568354944469 0.0 0.0
-0.004888690869861595 0.0029779657355488267 0.0 0.00204374582591054 0.0 0.0
-0.0027499592295613276 0.0013450637374053007 0.0 0.0014541498772720918 0.0 0.0
-0.0016977517484529912 0.0007601360334495638 0.0 0.0014521993284428829 0.0 0.0
-0.0011477752726389225 0.0005200412770149466 0.0 0.0016087866556215758 0.0 0.0
-0.0006933362944793718 0.0002828422119759466 0.0 0.001605290038662323 0.0 0.0
-0.00025685995947357575 -7.468120454761768e-05 0.0 0.0011822576856807103 0.0 0.0
-5.217327303104206e-05 -0.0002450315315722417 0.0 0.0006756015570112875 0.0 0.0
-9.801069857733692e-05 -0.00010388614876153331 0.0 -0.000491652452674727 0.0 0.0
-0.00030407742929901624 -9.858784216620466e-06 0.0 -0.0009073620058947145 0.0 0.0
-0.0007683668810848165 0.0003201523183205308 0.0 -0.0012835944444572615 0.0 0.0
-0.0012888300979512662 0.000563402767486804 0.0 -0.0012770264791604625 0.0 0.0
-0.001983355880192375 0.0008688591926912029 0.0 -0.0010850236740184874 0.0 0.0
-0.00335935570702178 0.001734880145025249 0.0 -0.001097529449246641 0.0 0.0
-0.006038192311489329 0.003944411863948966 0.0 -0.0017115420204486616 0.0 0.0
-0.010402090861559106 0.00796212993469535 0.0 -0.003005603081522723 0.0 0.0
-0.016571538204775516 0.013860297779771304 0.0 -0.0048070034225446145 0.0 0.0
-0.02449531257723044 0.021549419355159985 0.0 -0.006986648780240917 0.0 0.0
-0.03400418981368205 0.03082411519546658 0.0 -0.009314790932277798 0.0 0.0
-0.04492222937355381 0.04149203083296241 0.0 -0.01160792219664866 0.0 0.0
-0.057132265227631485 0.0534389352743746 0.0 -0.01384108745075576 0.0 0.0
-0.0705705921738727 0.06662005953510416 0.0 -0.016093889916801024 0.0 0.0
-0.08516691070231065 0.08097945217331233 0.0 -0.018375041469432977 0.0 0.0
-0.10065269645266971 0.09630106417940502 0.0 -0.020583513124723073 0.0 0.0
-0.11607428024655936 0.11178851965171444 0.0 -0.022944405986725057 0.0 0.0
-0.12903680327144026 0.12527576664628262 0.0 -0.026835047806006415 0.0 0.0
-0.13531942874573194 0.13256143519215569 0.0 -0.03451344959879309 0.0 0.0
-0.1291805022746594 0.12775258905857853 0.0 -0.04719111747217765 0.0 0.0
-0.12220991371301682 0.1039715143956452 0.0 2.0152282620422568e-14 0.0 0.0
-0.12918050227463654 0.12775258905855433 0.0 0.04719111747222276 0.0 0.0
-0.1353194287456883 0.13256143519211577 0.0 0.03451344959883467 0.0 0.0
-0.12903680327138042 0.12527576664622592 0.0 0.026835047806027856 0.0 0.0
-0.11607428024648786 0.11178851965164749 0.0 0.022944405986727284 0.0 0.0
-0.10065269645259173 0.09630106417932803 0.0 0.020583513124718768 0.0 0.0
-0.08516691070223055 0.08097945217323166 0.0 0.01837504146942462 0.0 0.0
-0.07057059217379252 0.06662005953502753 0.0 0.01609388991678676 0.0 0.0
-0.057132265227552916 0.05343893527429268 0.0 0.013841087450743455 0.0 0.0
-0.044922229373479776 0.04149203083289161 0.0 0.011607922196629266 0.0 0.0
-0.0340041898136169 0.03082411519539785 0.0 0.009314790932256388 0.0 0.0
-0.02449531257717725 0.021549419355110455 0.0 0.006986648780224286 0.0 0.0
-0.016571538204735108 0.01386029777973298 0.0 0.0048070034225309735 0.0 0.0
-0.010402090861531122 0.00796212993466805 0.0 0.003005603081514094 0.0 0.0
-0.006038192311473022 0.0039444118639334344 0.0 0.001711542020441425 0.0 0.0
-0.0033593557070140867 0.001734880145020743 0.0 0.0010975294492437608 0.0 0.0
-0.0019833558801900324 0.0008688591926892502 0.0 0.0010850236740158627 0.0 0.0
-0.0012888300979505712 0.0005634027674862285 0.0 0.0012770264791593928 0.0 0.0
-0.0007683668810839983 0.0003201523183204252 0.0 0.0012835944444572922 0.0 0.0
-0.0003040774292986889 -9.858784216754853e-06 0.0 0.0009073620058931428 0.0 0.0
-9.801069857723579e-05 -0.00010388614876128115 0.0 0.000491652452674586 0.0 0.0
-0.00012566734915890474 -1.7640051548634753e-05 0.0 -0.0003192176076619263 0.0 0.0
-0.0003366469327629886 4.662330809840793e-05 0.0 -0.0006140370014268268 0.0 0.0
-0.0008357059697847503 0.0003536802537406003 0.0 -0.0009005714894320452 0.0 0.0
-0.001433814706459351 0.0006047538133727398 0.0 -0.00087950204948136 0.0 0.0
-0.002305958036645524 0.0010096883975452436 0.0 -0.0006775233332677623 0.0 0.0
-0.004051003912483371 0.0022396816690571208 0.0 -0.0007016707256156633 0.0 0.0
-0.007258206151785889 0.005026477596524415 0.0 -0.0012343937507428078 0.0 0.0
-0.012270177580362158 0.009696178072771684 0.0 -0.002172735355474402 0.0 0.0
-0.019258067515297995 0.01640108161858364 0.0 -0.0034987083797781166 0.0 0.0
-0.028219846527176032 0.025108800709590092 0.0 -0.005110777191624725 0.0 0.0
-0.03900981434994418 0.03564295177394591 0.0 -0.006843558267499934 0.0 0.0
-0.05145029054342942 0.0478138591539103 0.0 -0.008555536021660329 0.0 0.0
-0.06540319435104416 0.061488212565499495 0.0 -0.010243157356363409 0.0 0.0
-0.08075265545678566 0.07656947284917698 0.0 -0.011995596465146462 0.0 0.0
-0.09730420007911258 0.09289010819731039 0.0 -0.013774309524581784 0.0 0.0
-0.11465421694975356 0.11008261246564585 0.0 -0.015302874296549111 0.0 0.0
-0.131899134465639 0.12731673242597333 0.0 -0.016341852861380554 0.0 0.0
-0.14687146643970903 0.1426680331409827 0.0 -0.018062993578989474 0.0 0.0
-0.15506490964252667 0.152079497515375 0.0 -0.025130440260940308 0.0 0.0
-0.14976391602321096 0.14857570921583443 0.0 -0.044067262264966295 0.0 0.0
-0.14280402167153786 0.12368392670098327 0.0 1.3872583637386526e-14 0.0 0.0
-0.1497639160231841 0.14857570921580457 0.0 0.04406726226499895 0.0 0.0
-0.15506490964247538 0.15207949751532673 0.0 0.02513044026097662 0.0 0.0
-0.14687146643964002 0.14266803314091803 0.0 0.01806299357900708 0.0 0.0
-0.1318991344655574 0.1273167324258918 0.0 0.016341852861382414 0.0 0.0
-0.11465421694966531 0.11008261246555565 0.0 0.015302874296546243 0.0 0.0
-0.09730420007902255 0.09289010819722061 0.0 0.013774309524577845 0.0 0.0
-0.08075265545669481 0.07656947284908983 0.0 0.011995596465137925 0.0 0.0
-0.06540319435095562 0.06148821256540814 0.0 0.010243157356354808 0.0 0.0
-0.051450290543346815 0.04781385915383243 0.0 0.008555536021645353 0.0 0.0
-0.039009814349871594 0.035642951773875615 0.0 0.0068435582674827595 0.0 0.0
-0.028219846527116555 0.02510880070953333 0.0 0.005110777191611276 0.0 0.0
-0.01925806751525162 0.01640108161853995 0.0 0.0034987083797687344 0.0 0.0
-0.012270177580329826 0.009696178072741011 0.0 0.0021727353554679405 0.0 0.0
-0.007258206151765992 0.005026477596504987 0.0 0.0012343937507392098 0.0 0.0
-0.004051003912472868 0.002239681669051053 0.0 0.0007016707256142847 0.0 0.0
-0.0023059580366417043 0.0010096883975415176 0.0 0.0006775233332660769 0.0 0.0
-0.0014338147064577225 0.0006047538133735674 0.0 0.000879502049480262 0.0 0.0
-0.000835705969783776 0.00035368025373961996 0.0 0.0009005714894321211 0.0 0.0
-0.00033664693276292296 4.6623308097915884e-05 0.0 0.0006140370014257742 0.0 0.0
-0.00012566734915929521 -1.764005154833043e-05 0.0 0.00031921760766134534 0.0 0.0
-0.00012659513340077344 1.3896834093397705e-05 0.0 -0.0001799581656871435 0.0 0.0
-0.0003445107585437034 8.420863995232196e-05 0.0 -0.000307668896619762 0.0 0.0
-0.0008911139866861239 0.0003778794376583289 0.0 -0.00043860033087094233 0.0 0.0
-0.001594026954219074 0.0006559356721338084 0.0 -0.00041129087733571485 0.0 0.0
-0.0026839539119249307 0.0012088470183543513 0.0 -0.00024236155015342875 0.0 0.0
-0.004814732758751687 0.002856193267513196 0.0 -0.00024752057442313914 0.0 0.0
-0.008521347360024297 0.0061755542084497295 0.0 -0.000538543860474026 0.0 0.0
-0.014142107719288952 0.011449867445125201 0.0 -0.0010270307147989754 0.0 0.0
-0.021915326891815568 0.018925327347437314 0.0 -0.0017186114723192671 0.0 0.0
-0.03188969744760144 0.028623118490957833 0.0 -0.002581480195358603 0.0 0.0
-0.04394735955828563 0.04040481207521275 0.0 -0.0035208090814030308 0.0 0.0
-0.057909681517837916 0.05408062829121153 0.0 -0.00446918225850542 0.0 0.0
-0.07361033873579727 0.06948629104144352 0.0 -0.005450802301983854 0.0 0.0
-0.0908576901328441 0.08645664372031672 0.0 -0.00649043179907511 0.0 0.0
-0.10932834205242992 0.10470919907395217 0.0 -0.007538439218794972 0.0 0.0
-0.1284225425152343 0.12368155375133588 0.0 -0.008388389482287583 0.0 0.0
-0.1471194626954333 0.14236634083151 0.0 -0.008652841806785513 0.0 0.0
-0.16370716953260822 0.15905912131968644 0.0 -0.008545884269796165 0.0 0.0
-0.174574872725709 0.1706515143248564 0.0 -0.012119539126428446 0.0 0.0
-0.1717321141995903 0.17077037015032465 0.0 -0.032786113044381594 0.0 0.0
-0.16551771610341925 0.14677787182424498 0.0 8.645861804268407e-15 0.0 0.0
-0.17173211419955955 0.17077037015029908 0.0 0.032786113044400544 0.0 0.0
-0.1745748727256507 0.17065151432479925 0.0 0.012119539126450701 0.0 0.0
-0.16370716953253012 0.15905912131961092 0.0 0.008545884269803532 0.0 0.0
-0.14711946269534137 0.1423663408314185 0.0 0.008652841806783971 0.0 0.0
-0.12842254251513527 0.12368155375124312 0.0 0.008388389482284708 0.0 0.0
-0.10932834205232932 0.10470919907384825 0.0 0.007538439218794383 0.0 0.0
-0.0908576901327437 0.08645664372021994 0.0 0.006490431799071994 0.0 0.0
-0.07361033873569843 0.06948629104134539 0.0 0.005450802301977961 0.0 0.0
-0.05790968151774589 0.05408062829111478 0.0 0.004469182258497611 0.0 0.0
-0.04394735955820542 0.04040481207513286 0.0 0.003520809081392323 0.0 0.0
-0.031889697447535094 0.02862311849089222 0.0 0.0025814801953502335 0.0 0.0
-0.021915326891764286 0.018925327347391153 0.0 0.0017186114723158536 0.0 0.0
-0.014142107719252733 0.01144986744509337 0.0 0.0010270307147951638 0.0 0.0
-0.008521347360001109 0.006175554208427545 0.0 0.0005385438604734299 0.0 0.0
-0.004814732758739398 0.002856193267501135 0.0 0.000247520574420973 0.0 0.0
-0.0026839539119206906 0.0012088470183500726 0.0 0.00024236155015494647 0.0 0.0
-0.0015940269542179292 0.0006559356721340919 0.0 0.0004112908773341604 0.0 0.0
-0.0008911139866855374 0.00037787943765755166 0.0 0.0004386003308705294 0.0 0.0
-0.0003445107585433063 8.420863995120256e-05 0.0 0.0003076688966206612 0.0 0.0
-0.00012659513340028614 1.3896834093633946e-05 0.0 0.000179958165685616 0.0 0.0
-8.551121239461104e-05 1.612573163870688e-05 0.0 -0.0001103823004867 0.0 0.0
-0.0003099591860270501 9.661927605360533e-05 0.0 -0.00012785739261787928 0.0 0.0
-0.0009293580118584191 0.0003868106469256912 0.0 -0.00014581443002663932 0.0 0.0
-0.0017877369721101366 0.0006859939045194255 0.0 -9.153997535810634e-05 0.0 0.0
-0.0031281448225347055 0.00132776301065144 0.0 0.00015547364888660465 0.0 0.0
-0.00563331262062241 0.0031876915627145085 0.0 0.0003690910929129458 0.0 0.0
-0.009805443987163844 0.006761842627786611 0.0 0.0004698266889170535 0.0 0.0
-0.015997398546035928 0.012328904523007514 0.0 0.0005036401272988005 0.0 0.0
-0.024514977286347463 0.020178969047851044 0.0 0.0004681470938830792 0.0 0.0
-0.035471449575001264 0.030364763628023577 0.0 0.0003259777802478961 0.0 0.0
-0.048785296849747146 0.0427669051124468 0.0 0.00011788435705178653 0.0 0.0
-0.06427313081025395 0.05719694033423912 0.0 -0.00014910184345000646 0.0 0.0
-0.0817097919167368 0.07346836735248682 0.0 -0.0005098740867942181 0.0 0.0
-0.10082927145279433 0.09137686143059591 0.0 -0.0009371364352213744 0.0 0.0
-0.1212002508601479 0.1105894306608944 0.0 -0.001453061328249133 0.0 0.0
-0.14202403162598096 0.13044187253433148 0.0 -0.0019654008966277434 0.0 0.0
-0.16200440566439916 0.1497965784445567 0.0 -0.0022149689164307935 0.0 0.0
-0.17939771725041484 0.16698807708505078 0.0 -0.0019673262013548617 0.0 0.0
-0.19217272760611737 0.17951595374398682 0.0 -0.003763052698198781 0.0 0.0
-0.1953128670814413 0.1822382179358057 0.0 -0.02477236200917802 0.0 0.0
-0.19348744501885648 0.15952941028872686 0.0 2.6506574712925612e-15 0.0 0.0
-0.19531286708140733 0.18223821793578554 0.0 0.024772362009184916 0.0 0.0
-0.19217272760605103 0.17951595374392376 0.0 0.003763052698208029 0.0 0.0
-0.1793977172503257 0.16698807708497082 0.0 0.0019673262013564993 0.0 0.0
-0.16200440566429594 0.14979657844447009 0.0 0.0022149689164260716 0.0 0.0
-0.14202403162587063 0.13044187253423517 0.0 0.0019654008966247735 0.0 0.0
-0.12120025086003651 0.11058943066078253 0.0 0.0014530613282496847 0.0 0.0
-0.10082927145268346 0.09137686143049326 0.0 0.0009371364352203197 0.0 0.0
-0.08170979191662793 0.0734683673523866 0.0 0.0005098740867905127 0.0 0.0
-0.06427313081015294 0.05719694033412835 0.0 0.00014910184344587088 0.0 0.0
-0.048785296849659286 0.04276690511235831 0.0 -0.00011788435705391374 0.0 0.0
-0.03547144957492932 0.03036476362795365 0.0 -0.0003259777802489365 0.0 0.0
-0.02451497728629137 0.02017896904780737 0.0 -0.0004681470938845576 0.0 0.0
-0.015997398545995314 0.012328904522974816 0.0 -0.0005036401272977505 0.0 0.0
-0.009805443987138288 0.006761842627764672 0.0 -0.0004698266889163888 0.0 0.0
-0.005633312620608247 0.003187691562701083 0.0 -0.00036909109291408376 0.0 0.0
-0.003128144822528399 0.001327763010646263 0.0 -0.00015547364888352216 0.0 0.0
-0.001787736972108145 0.0006859939045192688 0.0 9.153997535847472e-05 0.0 0.0
-0.0009293580118570819 0.0003868106469256724 0.0 0.000145814430026623 0.0 0.0
-0.00030995918602658466 9.661927605283758e-05 0.0 0.00012785739262022048 0.0 0.0
-8.551121239504995e-05 1.6125731638571192e-05 0.0 0.00011038230048499907 0.0 0.0
SCALARS Statev float 8
LOOKUP_TABLE default
0.0 0.019121308264774508 0.015351951776747521 -0.018243422235654415 0.002891470458906883 -0.0010867018500744189 0.0 0.0
0.0 0.0066367677534645226 0.004905699656548349 -0.003093823943908906 -0.0018118757126394426 -0.007085409610651344 0.0 0.0
0.0 0.00015870356753689433 0.00021099917571975699 -0.00012886906930216076 -8.213010641759625e-05 -0.00034105284884006193 0.0 0.0
0.0 0.00017219573945012544 8.711290386821926e-05 -6.23684316297719e-05 -2.474447223844764e-05 2.823811820555889e-05 0.0 0.0
0.0 0.0010788840971324345 0.0007586317347131038 -0.0005568968432283936 -0.00020173489148471032 0.0001571611379603887 0.0 0.0
0.0 0.002844503296566117 0.0027941469327977474 -0.0022288124724111225 -0.0005653344603866275 0.0003261813782801515 0.0 0.0
0.0 0.007122053668855685 0.006518952101166769 -0.005621973274503178 -0.000896978826663584 0.00045624856008983353 0.0 0.0
0.0 0.01367084296506791 0.012319749935341876 -0.01116228866399095 -0.0011574612713509277 0.0005146893267592948 0.0 0.0
0.0 0.022934945177792862 0.02044881554893469 -0.0190548986459019 -0.0013939169030327794 0.0005007956865237047 0.0 0.0
0.0 0.03504997363701157 0.030998699646082477 -0.029343652167243224 -0.0016550474788392892 0.000384902129410164 0.0 0.0
0.0 0.049913061079631046 0.04388837138273768 -0.04192791445169858 -0.0019604569310390577 0.00019746369077946232 0.0 0.0
0.0 0.06699502142043157 0.0589467470136266 -0.05663361054661261 -0.002313136467013929 -5.838321105255983e-05 0.0 0.0
0.0 0.08641539737227201 0.07596617211127252 -0.0732639859447367 -0.002702186166535833 -0.00040720342433323866 0.0 0.0
0.0 0.10786606069351487 0.09473095276970904 -0.09161747062181062 -0.0031134821478981936 -0.0007983437217773509 0.0 0.0
0.0 0.13100790906477397 0.11494146403372713 -0.1114132988331823 -0.003528165200544733 -0.001261028526618151 0.0 0.0
0.0 0.1552719234048694 0.1360643067510709 -0.1321391803169128 -0.003925126434158277 -0.00177781652021273 0.0 0.0
0.0 0.17962245398148963 0.15723114291679652 -0.15294824318313124 -0.004282899733665326 -0.0022479767888124377 0.0 0.0
0.0 0.2026525369155972 0.17723277675385088 -0.17265285569082695 -0.0045799210630238325 -0.0024954207024165615 0.0 0.0
0.0 0.22267474454622946 0.1946200796801974 -0.18980877069513621 -0.004811308985061008 -0.002353659526998701 0.0 0.0
0.0 0.23744360312860444 0.2076445159384038 -0.20269477677929187 -0.004949739159112061 -0.0026995298278497466 0.0 0.0
0.0 0.24371898106914575 0.21289055670061707 -0.20795862839202092 -0.0049319283085960544 3.3905170337966695e-15 0.0 0.0
0.0 0.2374436031285674 0.20764451593837177 -0.2026947767792598 -0.00494973915911195 0.0026995298278590964 0.0 0.0
0.0 0.22267474454616742 0.19462007968014255 -0.18980877069508323 -0.004811308985059275 0.002353659527005487 0.0 0.0
0.0 0.2026525369155008 0.17723277675376625 -0.17265285569074454 -0.004579921063021681 0.0024954207024203935 0.0 0.0
0.0 0.17962245398136995 0.15723114291669285 -0.15294824318302883 -0.0042828997336641595 0.0022479767888116163 0.0 0.0
0.0 0.15527192340475215 0.13606430675096803 -0.1321391803168121 -0.003925126434155856 0.0017778165202097492 0.0 0.0
0.0 0.13100790906465606 0.11494146403362356 -0.1114132988330821 -0.0035281652005412713 0.001261028526617471 0.0 0.0
0.0 0.10786606069339735 0.09473095276960646 -0.09161747062171041 -0.003113482147896182 0.0007983437217765656 0.0 0.0
0.0 0.08641539737215555 0.07596617211117083 -0.0732639859446374 -0.0027021861665333722 0.00040720342432939765 0.0 0.0
0.0 0.06699502142032138 0.05894674701353088 -0.05663361054651742 -0.0023131364670133923 5.838321104816111e-05 0.0 0.0
0.0 0.04991306107953987 0.04388837138265795 -0.04192791445162079 -0.0019604569310371395 -0.00019746369078266711 0.0 0.0
0.0 0.03504997363693496 0.030998699646015686 -0.029343652167177613 -0.0016550474788381059 -0.0003849021294122935 0.0 0.0
0.0 0.022934945177736043 0.020448815548884586 -0.019054898645853253 -0.0013939169030312976 -0.000500795686523328 0.0 0.0
0.0 0.013670842965030666 0.012319749935308448 -0.01116228866395872 -0.0011574612713497329 -0.0005146893267596619 0.0 0.0
0.0 0.007122053668832365 0.006518952101145065 -0.005621973274483022 -0.0008969788266620396 -0.00045624856008957 0.0 0.0
0.0 0.0028445032965537516 0.002794146932785533 -0.002228812472400608 -0.0005653344603849246 -0.0003261813782792196 0.0 0.0
0.0 0.0010788840971268927 0.0007586317347089076 -0.0005568968432253005 -0.00020173489148360554 -0.00015716113795938345 0.0 0.0
0.0 0.00017219573944920595 8.71129038681526e-05 -6.23684316297505e-05 -2.474447223840154e-05 -2.8238118205432424e-05 0.0 0.0
0.0 0.0001587035675356612 0.00021099917571873255 -0.00012886906930150192 -8.213010641722994e-05 0.00034105284883860927 0.0 0.0
0.0 0.006636767753453272 0.004905699656542411 -0.0030938239439043617 -0.0018118757126380498 0.007085409610641591 0.0 0.0
0.0 0.019121308264753733 0.015351951776733718 -0.018243422235635187 0.002891470458901466 0.001086701850033721 0.0 0.0
0.0 0.015650258794052775 0.011769077652065148 -0.015149978862622442 0.003380901210557286 -0.0005948232364476907 0.0 0.0
0.0 0.004135026766302465 0.0029711336761450683 -0.0018558468077599286 -0.0011152868683851364 -0.005635186663005603 0.0 0.0
0.0 -8.277111308399284e-05 -7.404725603718176e-05 6.768921615867144e-05 6.358039878510359e-06 -9.43535289815146e-05 0.0 0.0
0.0 4.3683133006002704e-05 3.5103438055357456e-05 -2.5328652857869117e-05 -9.774785197488367e-06 1.2980635256274978e-05 0.0 0.0
0.0 0.0006140027292337266 0.0005002595029803938 -0.0003702434458575959 -0.0001300160571227978 6.226632841215111e-05 0.0 0.0
0.0 0.0024762186233463967 0.0021696845417712688 -0.0017481156527186384 -0.00042156888905263174 5.15897299252817e-05 0.0 0.0
0.0 0.006071583923726567 0.005543219035364397 -0.00484113037582574 -0.0007020886595386541 -0.0002334961052710673 0.0 0.0
0.0 0.012149293856935325 0.01086051676116005 -0.009984296347160977 -0.0008762204139990802 -0.0007175579793253953 0.0 0.0
0.0 0.02079404010241331 0.018362862504325846 -0.017373622757824034 -0.0009892397465018153 -0.001399757474968599 0.0 0.0
0.0 0.032019369579692224 0.028092395582271452 -0.027006799540961413 -0.001085596041310028 -0.0022506945838559815 0.0 0.0
0.0 0.04572555283870866 0.039935835354976704 -0.03875606067271699 -0.0011797746822597432 -0.003191889179264608 0.0 0.0
0.0 0.06181434046083398 0.053722457418123044 -0.05244580809504732 -0.0012766493230757308 -0.004158879124277117 0.0 0.0
0.0 0.07951578348895327 0.06929790094372422 -0.06792146622126334 -0.0013764347224607656 -0.005160980790105669 0.0 0.0
0.0 0.0993698586579496 0.08648686952219231 -0.08501485272032591 -0.0014720168018664034 -0.006200674351940865 0.0 0.0
0.0 0.12077542665699365 0.10502718047938062 -0.10347442603824605 -0.0015527544411344356 -0.007246508272652101 0.0 0.0
0.0 0.143222449050154 0.12444758139705596 -0.12283794832773617 -0.0016096330693198522 -0.008207879009136125 0.0 0.0
0.0 0.16584217798149595 0.14397378713243855 -0.14233667359427082 -0.0016371135381676998 -0.008849526802540912 0.0 0.0
0.0 0.187359898199542 0.16251105714223624 -0.16087481566517411 -0.0016362414770621986 -0.008834751780267262 0.0 0.0
0.0 0.20607676123044494 0.1786356108157413 -0.17703599894678318 -0.001599611868958122 -0.007972053846632758 0.0 0.0
0.0 0.2197474264342539 0.19033857666895626 -0.1888833223064785 -0.0014552543624777605 -0.006933383921716665 0.0 0.0
0.0 0.22566002735614366 0.19490883473744164 -0.19367734176865284 -0.001231492968788853 7.56859852568681e-15 0.0 0.0
0.0 0.21974742643422368 0.1903385766689291 -0.18888332230645202 -0.001455254362477039 0.006933383921738106 0.0 0.0
0.0 0.20607676123038468 0.17863561081568916 -0.17703599894673086 -0.0015996118689581096 0.007972053846653858 0.0 0.0
0.0 0.18735989819945548 0.16251105714216135 -0.16087481566509976 -0.0016362414770616316 0.008834751780278994 0.0 0.0
0.0 0.16584217798138956 0.14397378713234746 -0.1423366735941792 -0.0016371135381683143 0.008849526802541684 0.0 0.0
0.0 0.14322244905004256 0.12444758139695972 -0.12283794832763933 -0.0016096330693200689 0.008207879009130638 0.0 0.0
0.0 0.12077542665688423 0.10502718047928532 -0.10347442603815184 -0.001552754441133575 0.007246508272649727 0.0 0.0
0.0 0.09936985865784023 0.08648686952209761 -0.08501485272023168 -0.001472016801865875 0.006200674351937389 0.0 0.0
0.0 0.07951578348884586 0.06929790094363153 -0.06792146622117089 -0.0013764347224605998 0.005160980790098698 0.0 0.0
0.0 0.06181434046073369 0.053722457418036135 -0.05244580809496037 -0.0012766493230757662 0.00415887912426967 0.0 0.0
0.0 0.04572555283862281 0.0399358353549026 -0.038756060672643096 -0.001179774682259514 0.0031918891792553665 0.0 0.0
0.0 0.032019369579623175 0.02809239558221101 -0.02700679954090142 -0.0010855960413095592 0.0022506945838495452 0.0 0.0
0.0 0.020794040102362958 0.018362862504281263 -0.017373622757780094 -0.0009892397465011652 0.0013997574749646555 0.0 0.0
0.0 0.012149293856899113 0.010860516761127741 -0.009984296347129494 -0.0008762204139982637 0.0007175579793218243 0.0 0.0
0.0 0.006071583923706125 0.00554321903534572 -0.004841130375808127 -0.0007020886595375852 0.00023349610526915022 0.0 0.0
0.0 0.00247621862333572 0.002169684541761914 -0.0017481156527105292 -0.00042156888905138344 -5.158972992567548e-05 0.0 0.0
0.0 0.0006140027292300746 0.0005002595029777693 -0.00037024344585564513 -0.0001300160571221242 -6.226632841162452e-05 0.0 0.0
0.0 4.368313300558191e-05 3.510343805565977e-05 -2.532865285811052e-05 -9.774785197549112e-06 -1.2980635256202865e-05 0.0 0.0
0.0 -8.277111308414804e-05 -7.404725603701663e-05 6.76892161585029e-05 6.358039878513518e-06 9.435352898114126e-05 0.0 0.0
0.0 0.004135026766291591 0.0029711336761390973 -0.001855846807755599 -0.0011152868683834973 0.005635186662994231 0.0 0.0
0.0 0.01565025879402983 0.011769077652047636 -0.015149978862600548 0.0033809012105529 0.0005948232364168789 0.0 0.0
0.0 0.011729338916895878 0.008634304853077224 -0.011417766459715097 0.002783461606637872 -0.0031338986017000674 0.0 0.0
0.0 0.002868267845392416 0.0018300278828791373 -0.0010170841950160462 -0.0008129436878630943 -0.004806536945546045 0.0 0.0
0.0 7.710510182179438e-08 9.585561643399876e-07 -8.42167272910593e-07 -1.1638889142939062e-07 6.004206565077775e-07 0.0 0.0
0.0 -8.34601091635998e-07 -2.654039396154517e-06 2.433630994000953e-06 2.2040840215343899e-07 5.112837959229071e-06 0.0 0.0
0.0 0.0002823196613097719 0.0002452068915184384 -0.00017677476442581406 -6.84321270926244e-05 1.323246586236712e-05 0.0 0.0
0.0 0.0017769394862453894 0.001505443104550973 -0.0011803435033353787 -0.00032509960121559334 -0.00010261471173429428 0.0 0.0
0.0 0.004734744877248141 0.004389797123990801 -0.00375814015222896 -0.0006316569717618424 -0.0006617544279441548 0.0 0.0
0.0 0.010174511280577333 0.009099223190850984 -0.00827310978779247 -0.0008261134030585071 -0.0015981545856639096 0.0 0.0
0.0 0.01790867733013517 0.015818090703633752 -0.01487600361350566 -0.0009420870901280775 -0.002902220417433826 0.0 0.0
0.0 0.02804863934074688 0.02453708092089622 -0.02350496632847117 -0.0010321145924250823 -0.004495681644648229 0.0 0.0
0.0 0.04034662238987109 0.03511401200629543 -0.033994272704162186 -0.001119739302133203 -0.00623531605448986 0.0 0.0
0.0 0.054491529220453756 0.04738239685607264 -0.046171093703008176 -0.0012113031530644473 -0.00798582726080829 0.0 0.0
0.0 0.07068272834872089 0.06121283870631238 -0.05990742323592477 -0.0013054154703876514 -0.009725141878532163 0.0 0.0
0.0 0.08809105560011146 0.07649570143648582 -0.07510053360731703 -0.0013951678291687544 -0.011513614567296361 0.0 0.0
0.0 0.10721068071456977 0.09301926113148397 -0.09154706446561987 -0.0014721966658642653 -0.013319552673041192 0.0 0.0
0.0 0.1273095406402722 0.11039522126592147 -0.10886680057191284 -0.0015284206940085212 -0.014953265192936072 0.0 0.0
0.0 0.14765549170632591 0.1279786433274086 -0.1264195211071973 -0.001559122220211402 -0.016032774059610237 0.0 0.0
0.0 0.16710903257281506 0.1447957332858382 -0.1432377345610814 -0.0015579987247568848 -0.01605776038171834 0.0 0.0
0.0 0.18407582660133906 0.15943317554558498 -0.15793018829020888 -0.0015029872553759364 -0.01471571568175219 0.0 0.0
0.0 0.19638781773522315 0.17001081021905864 -0.1685959248600843 -0.0014148853589739995 -0.012027127816275742 0.0 0.0
0.0 0.20196085780807702 0.17426670730902555 -0.1731144892592429 -0.0011522180497826329 1.5165819988727236e-14 0.0 0.0
0.0 0.19638781773520064 0.1700108102190371 -0.16859592486006422 -0.0014148853589728751 0.012027127816313259 0.0 0.0
0.0 0.18407582660128136 0.15943317554553488 -0.15793018829015837 -0.0015029872553766136 0.014715715681789516 0.0 0.0
0.0 0.16710903257273996 0.1447957332857728 -0.14323773456101627 -0.0015579987247563614 0.01605776038173916 0.0 0.0
0.0 0.14765549170623493 0.12797864332733055 -0.12641952110711951 -0.0015591222202111594 0.01603277405961364 0.0 0.0
0.0 0.1273095406401712 0.11039522126583448 -0.10886680057182507 -0.0015284206940093653 0.014953265192928167 0.0 0.0
0.0 0.10721068071447351 0.0930192611314003 -0.09154706446553713 -0.001472196665863124 0.013319552673035605 0.0 0.0
0.0 0.08809105560001179 0.07649570143639953 -0.07510053360723104 -0.0013951678291684896 0.011513614567290314 0.0 0.0
0.0 0.07068272834862695 0.061212838706231586 -0.05990742323584394 -0.0013054154703876736 0.009725141878521273 0.0 0.0
0.0 0.054491529220363835 0.047382396855995094 -0.046171093702930814 -0.0012113031530641978 0.007985827260795726 0.0 0.0
0.0 0.04034662238979566 0.03511401200622981 -0.03399427270409694 -0.0011197393021328728 0.00623531605447688 0.0 0.0
0.0 0.028048639340686556 0.02453708092084321 -0.02350496632841877 -0.0010321145924244175 0.004495681644636871 0.0 0.0
0.0 0.01790867733008957 0.01581809070359372 -0.014876003613466285 -0.0009420870901274464 0.002902220417425669 0.0 0.0
0.0 0.010174511280544819 0.009099223190822507 -0.008273109787764703 -0.0008261134030577877 0.0015981545856574811 0.0 0.0
0.0 0.004734744877229945 0.00438979712397411 -0.0037581401522134984 -0.000631656971760613 0.0006617544279404956 0.0 0.0
0.0 0.0017769394862375146 0.0015054431045442818 -0.0011803435033299241 -0.00032509960121435746 0.00010261471173358933 0.0 0.0
0.0 0.00028231966130751895 0.00024520689151707195 -0.0001767747644248275 -6.843212709224448e-05 -1.3232465862240102e-05 0.0 0.0
0.0 -8.346010915967064e-07 -2.654039395962056e-06 2.433630993857152e-06 2.2040840210493192e-07 -5.112837959165984e-06 0.0 0.0
0.0 7.71051018930271e-08 9.58556164340058e-07 -8.42167272909005e-07 -1.1638889143105378e-07 -6.004206565056035e-07 0.0 0.0
0.0 0.0028682678453836727 0.001830027882874033 -0.0010170841950126377 -0.0008129436878613906 0.004806536945532759 0.0 0.0
0.0 0.011729338916872034 0.008634304853059539 -0.011417766459692872 0.0027834616066333266 0.003133898601679539 0.0 0.0
0.0 0.008932220410118378 0.006407749538606069 -0.00864896220446446 0.002241212665858376 -0.0033926221795106304 0.0 0.0
0.0 0.0020892282387669635 0.0012526509368494577 -0.0006794828019172183 -0.0005731681349322349 -0.003650550761205914 0.0 0.0
0.0 0.0 0.0 0.0 0.0 0.0 0.0 0.0
0.0 -2.9506985771541267e-06 -3.0539508160623024e-06 2.402704143886702e-06 6.512466721755971e-07 2.213330759601564e-06 0.0 0.0
0.0 9.974383524720008e-05 7.698085775533423e-05 -5.282558387241688e-05 -2.415527388291688e-05 8.005295386995915e-06 0.0 0.0
0.0 0.0010772954677311603 0.0009576050139858406 -0.000730680084127951 -0.00022692492985788913 -0.00018186719305618066 0.0 0.0
0.0 0.0037132994010968447 0.0032788381363859807 -0.0027390279668531065 -0.0005398101695328762 -0.0008461343072829533 0.0 0.0
0.0 0.008250519291689894 0.0073596880095764625 -0.006596012078729556 -0.0007636759308468958 -0.0021592395765995267 0.0 0.0
0.0 0.015096368013931542 0.013262287897441105 -0.012373647189921315 -0.0008886407075197853 -0.003938515300503575 0.0 0.0
0.0 0.02407361022865577 0.020945123273912486 -0.01997035118210653 -0.0009747720918059431 -0.006097283173634104 0.0 0.0
0.0 0.03487828407597985 0.030242323311313338 -0.029186836863811197 -0.0010554864475020992 -0.008435269044399356 0.0 0.0
0.0 0.04744446311657177 0.040986466799845675 -0.03984564422446083 -0.001140822575384862 -0.010778968664664514 0.0 0.0
0.0 0.061345905275891115 0.05307729252098861 -0.05184757395212617 -0.0012297185688624598 -0.013099066577007528 0.0 0.0
0.0 0.07707369947400851 0.06643379179396389 -0.06512065199528687 -0.0013131397986769877 -0.015448851256715114 0.0 0.0
0.0 0.09376259671673552 0.0809208706997831 -0.07953500009546839 -0.0013858706043146107 -0.01780632371112365 0.0 0.0
0.0 0.11132465345995936 0.0962443555174459 -0.09480126346564773 -0.0014430920517981018 -0.019961626322623893 0.0 0.0
0.0 0.12949637773346245 0.11188138702909065 -0.11040493113272931 -0.0014764558963612508 -0.02145815318768221 0.0 0.0
0.0 0.14696106567680087 0.12698304364000174 -0.1255085643385394 -0.0014744793014621815 -0.021692269886633305 0.0 0.0
0.0 0.1622866770972129 0.14026087512702254 -0.13883000639185972 -0.0014308687351629046 -0.020040513509496597 0.0 0.0
0.0 0.17358448357666986 0.15008166018141247 -0.148709819029601 -0.0013718411518118308 -0.015632521762552226 0.0 0.0
0.0 0.1791629823266954 0.15428172204313775 -0.15327675889568249 -0.0010049631474551134 2.1290261220663353e-14 0.0 0.0
0.0 0.17358448357664544 0.15008166018138933 -0.14870981902957778 -0.0013718411518117018 0.015632521762601954 0.0 0.0
0.0 0.16228667709716288 0.1402608751269781 -0.13883000639181473 -0.0014308687351633437 0.020040513509545714 0.0 0.0
0.0 0.14696106567673292 0.12698304363994245 -0.12550856433847968 -0.0014744793014627316 0.021692269886660894 0.0 0.0
0.0 0.12949637773338565 0.11188138702902424 -0.11040493113266395 -0.0014764558963602636 0.021458153187686638 0.0 0.0
0.0 0.11132465345987394 0.09624435551737225 -0.09480126346557383 -0.0014430920517983154 0.019961626322615 0.0 0.0
0.0 0.09376259671665134 0.08092087069970963 -0.07953500009539591 -0.001385870604313801 0.017806323711115842 0.0 0.0
0.0 0.07707369947392077 0.06643379179388777 -0.06512065199521087 -0.001313139798676948 0.015448851256707315 0.0 0.0
0.0 0.061345905275810145 0.05307729252091894 -0.0518475739520573 -0.0012297185688615448 0.013099066576995468 0.0 0.0
0.0 0.04744446311649735 0.04098646679978134 -0.039845644224396695 -0.0011408225753847102 0.010778968664646948 0.0 0.0
0.0 0.034878284075913465 0.03024232331125595 -0.0291868368637542 -0.0010554864475017206 0.008435269044382193 0.0 0.0
0.0 0.024073610228598486 0.020945123273862977 -0.019970351182057443 -0.0009747720918055352 0.006097283173617083 0.0 0.0
0.0 0.015096368013890112 0.013262287897405188 -0.012373647189886018 -0.0008886407075191665 0.003938515300492656 0.0 0.0
0.0 0.008250519291664416 0.0073596880095535226 -0.006596012078707467 -0.0007636759308460461 0.0021592395765914836 0.0 0.0
0.0 0.003713299401079892 0.003278838136371736 -0.0027390279668402387 -0.0005398101695314972 0.0008461343072779908 0.0 0.0
0.0 0.001077295467723619 0.0009576050139797567 -0.0007306800841231498 -0.00022692492985660676 0.00018186719305460713 0.0 0.0
0.0 9.974383524583593e-05 7.698085775471095e-05 -5.2825583872007705e-05 -2.415527388270314e-05 -8.005295386806212e-06 0.0 0.0
0.0 -2.950698577527355e-06 -3.0539508160647766e-06 2.402704143889063e-06 6.512466721757346e-07 -2.2133307596127444e-06 0.0 0.0
0.0 0.0 0.0 0.0 0.0 0.0 0.0 0.0
0.0 0.002089228238759169 0.0012526509368449234 -0.0006794828019141635 -0.0005731681349307612 0.0036505507611941175 0.0 0.0
0.0 0.008932220410098241 0.006407749538590411 -0.008648962204444584 0.0022412126658541663 0.0033926221794959555 0.0 0.0
0.0 0.006585457980272136 0.00469755198493664 -0.006454693627559671 0.0017571416426230334 -0.0029171072738778453 0.0 0.0
0.0 0.001669725243040379 0.0008271561008585638 -0.00043808961258975227 -0.00038906648826881034 -0.002635272181566075 0.0 0.0
0.0 0.0 0.0 0.0 0.0 0.0 0.0 0.0
0.0 -4.1261254733737356e-07 3.81649446265482e-08 -2.75379886202467e-08 -1.0626956006300195e-08 4.02875235060977e-08 0.0 0.0
0.0 -1.0498993934550682e-05 1.3160289627400878e-06 1.529581910219657e-06 -2.8456108729597366e-06 1.7409104457534753e-05 0.0 0.0
0.0 0.0006159269281599569 0.0005151403182921026 -0.00038322615060982135 -0.0001319141676822814 -0.0001669888918539967 0.0 0.0
0.0 0.0027256717169525124 0.002276737132417274 -0.0018499052006024914 -0.0004268319318147788 -0.0008764060933999183 0.0 0.0
0.0 0.006413620418077353 0.005668540023747636 -0.004982691880293012 -0.0006858481434546315 -0.002360472894290601 0.0 0.0
0.0 0.012327249533750985 0.010727903945525603 -0.009901530244883362 -0.0008263737006422447 -0.004500540649569763 0.0 0.0
0.0 0.02009680060740626 0.017351650202654823 -0.016439994414401637 -0.0009116557882531864 -0.007050118792979475 0.0 0.0
0.0 0.02949650051185215 0.025355600580347068 -0.024369316531516277 -0.0009862840488307873 -0.00979640541543549 0.0 0.0
0.0 0.04031302708902282 0.03457133383903998 -0.0335064921742989 -0.0010648416647410564 -0.012542150866406991 0.0 0.0
0.0 0.05249676418502347 0.04491404089044795 -0.04376677246036095 -0.001147268430086994 -0.015259133698760767 0.0 0.0
0.0 0.06561402098812635 0.05634978612408639 -0.055123722266634353 -0.0012260638574520465 -0.018002482372143986 0.0 0.0
0.0 0.08019255404716936 0.0687867328846206 -0.06749223528506963 -0.0012944975995509396 -0.020728675656730377 0.0 0.0
0.0 0.0956603250486339 0.08202552925473594 -0.08067593245704396 -0.0013495967976919216 -0.02322046533800219 0.0 0.0
0.0 0.11132924460695842 0.09568204529572029 -0.09429544517484767 -0.0013866001208726398 -0.025065541333373336 0.0 0.0
0.0 0.1267727815748343 0.10906704423519734 -0.10767305435990301 -0.0013939898752943418 -0.025612642693991963 0.0 0.0
0.0 0.14061864065864252 0.12110411305268368 -0.11973916028137926 -0.001364952771304284 -0.02383303484946507 0.0 0.0
0.0 0.15122550031369508 0.13039727759088512 -0.12907868283789536 -0.0013185947529897068 -0.01832465047514998 0.0 0.0
0.0 0.15701580258555264 0.13468392165662152 -0.13385971410055075 -0.0008242075560707364 2.4853383240319715e-14 0.0 0.0
0.0 0.1512255003136712 0.13039727759086223 -0.1290786828378716 -0.0013185947529904985 0.01832465047520633 0.0 0.0
0.0 0.1406186406585989 0.12110411305264368 -0.11973916028133891 -0.001364952771304647 0.023833034849519524 0.0 0.0
0.0 0.12677278157477673 0.10906704423514653 -0.10767305435985156 -0.001393989875295004 0.025612642694025058 0.0 0.0
0.0 0.1113292446068942 0.09568204529566471 -0.09429544517479306 -0.0013866001208716148 0.025065541333379047 0.0 0.0
0.0 0.09566032504855981 0.08202552925467177 -0.08067593245698007 -0.0013495967976916829 0.023220465337991946 0.0 0.0
0.0 0.08019255404709377 0.06878673288455535 -0.0674922352850044 -0.0012944975995509023 0.020728675656720173 0.0 0.0
0.0 0.06561402098805444 0.056349786124024165 -0.05512372226657235 -0.0012260638574517753 0.01800248237213446 0.0 0.0
0.0 0.05249676418495517 0.044914040890388744 -0.043766772460302576 -0.0011472684300861088 0.01525913369874687 0.0 0.0
0.0 0.04031302708896394 0.034571333838989145 -0.033506492174248906 -0.0010648416647402329 0.012542150866388827 0.0 0.0
0.0 0.02949650051179317 0.025355600580296872 -0.024369316531466543 -0.0009862840488303374 0.009796405415413071 0.0 0.0
0.0 0.02009680060735583 0.017351650202611982 -0.01643999441435895 -0.0009116557882530306 0.007050118792959529 0.0 0.0
0.0 0.01232724953371649 0.010727903945495831 -0.009901530244854134 -0.0008263737006416937 0.004500540649556625 0.0 0.0
0.0 0.006413620418054532 0.005668540023727694 -0.004982691880274173 -0.0006858481434535225 0.0023604728942814334 0.0 0.0
0.0 0.0027256717169395358 0.002276737132406834 -0.0018499052005934568 -0.0004268319318133776 0.0008764060933952118 0.0 0.0
0.0 0.0006159269281536163 0.0005151403182872845 -0.0003832261506060532 -0.00013191416768123116 0.0001669888918518231 0.0 0.0
0.0 -1.0498993934903049e-05 1.316028962913398e-06 1.5295819100544184e-06 -2.8456108729678825e-06 -1.7409104456934234e-05 0.0 0.0
0.0 -4.1261254721569563e-07 3.81649445264286e-08 -2.7537988543162284e-08 -1.0626955983272794e-08 -4.028752363196856e-08 0.0 0.0
0.0 0.0 0.0 0.0 0.0 0.0 0.0 0.0
0.0 0.0016697252430331226 0.0008271561008549705 -0.0004380896125873396 -0.0003890664882676293 0.002635272181556354 0.0 0.0
0.0 0.006585457980255538 0.004697551984923614 -0.006454693627542874 0.0017571416426192478 0.0029171072738676134 0.0 0.0
0.0 0.004819216006149825 0.003327592079244688 -0.004649092071741792 0.001321499992497101 -0.002290604604871015 0.0 0.0
0.0 0.0010340663329252786 0.0005189198626094918 -0.00026726851708459484 -0.00025165134552489687 -0.0018110575069503827 0.0 0.0
0.0 0.0 0.0 0.0 0.0 0.0 0.0 0.0
0.0 -3.824883122859739e-07 6.644404899586774e-08 -5.079540272124782e-08 -1.5648646274619946e-08 -1.1639352788092127e-07 0.0 0.0
0.0 -2.1262944212425468e-05 -1.6042288890471803e-05 1.3067708380805148e-05 2.9745805096666672e-06 2.455004617771812e-05 0.0 0.0
0.0 0.00024119930195403658 0.00022167084585973236 -0.00016048797976083015 -6.118286609890238e-05 -0.0001113998347860036 0.0 0.0
0.0 0.0016324611745970588 0.001442687655621906 -0.0011393208609256035 -0.0003033667946963029 -0.0008114943016964729 0.0 0.0
0.0 0.004962518242871972 0.00406306699286039 -0.0034835810067029654 -0.0005794859861574164 -0.00225808495424944 0.0 0.0
0.0 0.009498507607889433 0.008247696032704468 -0.007498196529442515 -0.0007494995032619549 -0.004562034814366062 0.0 0.0
0.0 0.016204894089958143 0.013791061811563008 -0.01295090508339926 -0.0008401567281637403 -0.0073449347525467255 0.0 0.0
0.0 0.024127795990549202 0.0204907284775828 -0.019580509253842738 -0.0009102192237400616 -0.010311780481679633 0.0 0.0
0.0 0.033189189943788985 0.02817438839767334 -0.027192167571704486 -0.000982220825968833 -0.013274137037269776 0.0 0.0
0.0 0.04330566458601104 0.03677092611073363 -0.035712633969941336 -0.0010582921407923103 -0.01619763917557905 0.0 0.0
0.0 0.05454829381159525 0.046274797338044404 -0.0451441861807055 -0.0011306111573389282 -0.019140510993294037 0.0 0.0
0.0 0.06665178150738647 0.056658700933432435 -0.05546370169774899 -0.0011949992356834885 -0.022065824738815208 0.0 0.0
0.0 0.07950283781671419 0.06779425405272578 -0.06654579216527368 -0.0012484618874520704 -0.02474483572960106 0.0 0.0
0.0 0.09328351399648738 0.07940896348738394 -0.07812053795350823 -0.0012884255338756296 -0.026809195724466186 0.0 0.0
0.0 0.10662481493869129 0.0910387918070962 -0.08972870705629082 -0.0013100847508054777 -0.02766494608760626 0.0 0.0
0.0 0.11887607393892402 0.10189135491472276 -0.10059250292400214 -0.0012988519907206942 -0.026090428186657775 0.0 0.0
0.0 0.1290174024075847 0.11079967899674835 -0.1095407344521002 -0.0012589445446479827 -0.020227542602812273 0.0 0.0
0.0 0.13521479215570978 0.1152805408992117 -0.11466547542507971 -0.0006150654741319168 2.5803144343417017e-14 0.0 0.0
0.0 0.12901740240756843 0.11079967899673035 -0.10954073445208203 -0.0012589445446483894 0.02022754260287025 0.0 0.0
0.0 0.1188760739388865 0.10189135491468715 -0.1005925029239662 -0.001298851990720992 0.02609042818671448 0.0 0.0
0.0 0.10662481493864442 0.09103879180705393 -0.08972870705624844 -0.0013100847508053916 0.027664946087641137 0.0 0.0
0.0 0.09328351399643327 0.07940896348733739 -0.0781205379534623 -0.0012884255338750997 0.026809195724471158 0.0 0.0
0.0 0.07950283781664941 0.0677942540526702 -0.06654579216521771 -0.0012484618874524871 0.02474483572958981 0.0 0.0
0.0 0.06665178150732244 0.056658700933376986 -0.055463701697694226 -0.0011949992356827652 0.02206582473880287 0.0 0.0
0.0 0.05454829381153772 0.046274797337994125 -0.04514418618065587 -0.0011306111573382805 0.01914051099328385 0.0 0.0
0.0 0.043305664585954175 0.03677092611068505 -0.03571263396989326 -0.0010582921407917383 0.01619763917556523 0.0 0.0
0.0 0.033189189943736944 0.0281743883976291 -0.02719216757166082 -0.0009822208259682782 0.013274137037250769 0.0 0.0
0.0 0.024127795990500547 0.02049072847754224 -0.019580509253802923 -0.0009102192237393314 0.010311780481656025 0.0 0.0
0.0 0.016204894089920825 0.013791061811531353 -0.012950905083368046 -0.0008401567281633032 0.007344934752527417 0.0 0.0
0.0 0.009498507607861122 0.008247696032680054 -0.007498196529418685 -0.0007494995032613773 0.004562034814351789 0.0 0.0
0.0 0.004962518242853284 0.0040630669928454245 -0.0034835810066889635 -0.0005794859861564583 0.002258084954240809 0.0 0.0
0.0 0.00163246117458752 0.001442687655614346 -0.0011393208609192867 -0.0003033667946950596 0.0008114943016917349 0.0 0.0
0.0 0.0002411993019508273 0.0002216708458575501 -0.00016048797975920284 -6.118286609834725e-05 0.00011139983478478696 0.0 0.0
0.0 -2.1262944212776004e-05 -1.604228888993401e-05 1.3067708380393327e-05 2.9745805095406507e-06 -2.4550046177103723e-05 0.0 0.0
0.0 -3.82488312120934e-07 6.644404899822246e-08 -5.079540272297656e-08 -1.5648646275242757e-08 1.163935278782228e-07 0.0 0.0
0.0 0.0 0.0 0.0 0.0 0.0 0.0 0.0
0.0 0.0010340663329192852 0.0005189198626066953 -0.0002672685170827221 -0.00025165134552397253 0.0018110575069423631 0.0 0.0
0.0 0.004819216006136423 0.0033275920792341486 -0.004649092071727857 0.0013214999924937073 0.002290604604863808 0.0 0.0
0.0 0.003227029111649615 0.0022399523592072845 -0.003175098816045064 0.0009351464568377754 -0.0017110012582116872 0.0 0.0
0.0 0.0006479072830513099 0.0002848349631678662 -0.00013243958595806894 -0.00015239537720979665 -0.0011342654152548973 0.0 0.0
0.0 2.9041076945466384e-07 -3.4488798683329004e-09 2.6803405111441826e-09 7.685393571887485e-10 5.864590140692222e-08 0.0 0.0
0.0 -3.9933846218285653e-07 2.3010864123224606e-08 -1.7665084308602554e-08 -5.345779814626124e-09 -7.114747973550936e-08 0.0 0.0
0.0 -1.097323965683893e-05 -7.295935348811807e-06 5.825193381670897e-06 1.470741967140956e-06 1.5504682757655323e-05 0.0 0.0
0.0 5.002789891194831e-05 4.5445597657650545e-05 -3.0169283435885665e-05 -1.5276314221764867e-05 -2.1417090527158844e-05 0.0 0.0
0.0 0.0009376287213372734 0.0007659457130564813 -0.0005895116250912392 -0.00017643408796524243 -0.0006230297170800304 0.0 0.0
0.0 0.0031402681914562327 0.0026496512126301334 -0.002205631949622775 -0.00044401926300735914 -0.001979800354654366 0.0 0.0
0.0 0.007327904386997493 0.005857276215324795 -0.005212047634076018 -0.0006452285812487767 -0.004144692539275988 0.0 0.0
0.0 0.012246359085953867 0.010304699282609072 -0.0095511697747506 -0.0007535295078584752 -0.006956156775127739 0.0 0.0
0.0 0.01882924122458525 0.01568684163783524 -0.014862846389286187 -0.0008239952485490624 -0.009964438477589831 0.0 0.0
0.0 0.026170804807511393 0.0218342540555092 -0.020944078760758433 -0.0008901752947507888 -0.01296187730632511 0.0 0.0
0.0 0.034297278246143745 0.02868608896213006 -0.027726856517308603 -0.0009592324448214155 -0.015902904500118973 0.0 0.0
0.0 0.0432703954968922 0.03626314642962551 -0.0352375047122005 -0.001025641717425027 -0.018851402507088215 0.0 0.0
0.0 0.053046106713847185 0.04458323266078757 -0.04349822708558118 -0.0010850055752063639 -0.02178323016893348 0.0 0.0
0.0 0.06386948391823094 0.053587456490209205 -0.052453240853042093 -0.0011342156371671472 -0.024498778148628116 0.0 0.0
0.0 0.07463324474595233 0.06311749304186678 -0.0619391085032947 -0.0011783845385721476 -0.026643981779401 0.0 0.0
0.0 0.08616759423551432 0.07290935693132544 -0.0716918132299732 -0.0012175437013521044 -0.027755255248029534 0.0 0.0
0.0 0.09733323338677559 0.08253188329832362 -0.08130390375742302 -0.0012279795409007002 -0.026706584492485124 0.0 0.0
0.0 0.10693759012897272 0.09111964092411187 -0.08992486598886576 -0.001194774935246088 -0.02131196717332076 0.0 0.0
0.0 0.11377833146305283 0.09588758177960428 -0.09551075902139464 -0.000376822758209708 2.487766936898339e-14 0.0 0.0
0.0 0.10693759012896258 0.09111964092409837 -0.08992486598885233 -0.0011947749352460575 0.02131196717337884 0.0 0.0
0.0 0.09733323338674849 0.08253188329829608 -0.08130390375739566 -0.001227979540900441 0.02670658449254209 0.0 0.0
0.0 0.08616759423547775 0.07290935693129127 -0.07169181322993956 -0.0012175437013517588 0.027755255248064235 0.0 0.0
0.0 0.07463324474590412 0.06311749304182546 -0.06193910850325395 -0.0011783845385715161 0.026643981779404885 0.0 0.0
0.0 0.06386948391817958 0.05358745649016587 -0.05245324085299799 -0.0011342156371678903 0.02449877814861563 0.0 0.0
0.0 0.05304610671379564 0.04458323266074271 -0.04349822708553696 -0.001085005575205731 0.02178323016891979 0.0 0.0
0.0 0.043270395496845464 0.03626314642958502 -0.03523750471216056 -0.0010256417174244461 0.018851402507077297 0.0 0.0
0.0 0.034297278246099135 0.02868608896209225 -0.027726856517271498 -0.0009592324448207889 0.015902904500105515 0.0 0.0
0.0 0.026170804807465274 0.021834254055470903 -0.02094407876072055 -0.0008901752947503768 0.012961877306304753 0.0 0.0
0.0 0.01882924122454508 0.015686841637802557 -0.014862846389254098 -0.0008239952485484634 0.009964438477565984 0.0 0.0
0.0 0.01224635908592399 0.010304699282584444 -0.009551169774726373 -0.0007535295078580758 0.006956156775108793 0.0 0.0
0.0 0.007327904386972287 0.005857276215305086 -0.005212047634057278 -0.0006452285812478017 0.004144692539261967 0.0 0.0
0.0 0.0031402681914432327 0.002649651212619635 -0.0022056319496134057 -0.0004440192630062265 0.001979800354647056 0.0 0.0
0.0 0.0009376287213307487 0.0007659457130519674 -0.0005895116250876522 -0.00017643408796431487 0.0006230297170762562 0.0 0.0
0.0 5.0027898910311076e-05 4.544559765700565e-05 -3.0169283435431008e-05 -1.5276314221574813e-05 2.1417090526612656e-05 0.0 0.0
0.0 -1.0973239657414693e-05 -7.2959353487708735e-06 5.825193381635048e-06 1.470741967135829e-06 -1.5504682757486313e-05 0.0 0.0
0.0 -3.9933846203843063e-07 2.3010864114477826e-08 -1.766508430182229e-08 -5.345779812654833e-09 7.114747970917023e-08 0.0 0.0
0.0 2.9041076910978675e-07 -3.44887986405181e-09 2.6803405077244864e-09 7.685393563274542e-10 -5.8645901335916544e-08 0.0 0.0
0.0 0.0006479072830464205 0.0002848349631658266 -0.0001324395859566663 -0.00015239537720915995 0.0011342654152486419 0.0 0.0
0.0 0.0032270291116400056 0.0022399523591997363 -0.00317509881603473 0.0009351464568349938 0.001711001258207008 0.0 0.0
0.0 0.002427782002632321 0.00135275237784947 -0.0019423889090571479 0.0005896365312076767 -0.0011605467616100191 0.0 0.0
0.0 0.0002595369270153238 0.00012566894060946372 -4.386871664025119e-05 -8.180022396921253e-05 -0.0006161764610451845 0.0 0.0
0.0 6.049742868402452e-07 2.976971236182536e-08 -3.0431013857939996e-08 6.613014961152946e-10 -5.939261187775205e-07 0.0 0.0
0.0 -7.047350914098037e-07 3.263312583459243e-08 -2.5281629020331648e-08 -7.3514968142610705e-09 -2.0683970570635687e-07 0.0 0.0
0.0 -5.876621432786976e-06 -3.866377333482806e-06 3.0634317216830257e-06 8.029456117997822e-07 1.2997605130997245e-05 0.0 0.0
0.0 -1.8678618673849892e-05 -1.0971876156260565e-05 1.0064058098423855e-05 9.078180578366799e-07 2.7345053514025825e-05 0.0 0.0
0.0 0.00039746696748504425 0.0002952016205458126 -0.00022265719444912455 -7.254442609668757e-05 -0.00037283327097702433 0.0 0.0
0.0 0.0017992040042184806 0.0014461764641592058 -0.001167563727385843 -0.0002786127367733622 -0.0015200244295288069 0.0 0.0
0.0 0.004609907943963425 0.00368260779371798 -0.0031833233378665425 -0.0004992844558514373 -0.0033951385423697353 0.0 0.0
0.0 0.00889629503599933 0.006941479440743228 -0.006305943158136797 -0.0006355362826064204 -0.005901772125719401 0.0 0.0
0.0 0.013629695961360766 0.010988568003963157 -0.010272286410669827 -0.0007162815932933277 -0.008734183190346178 0.0 0.0
0.0 0.019177875229460142 0.015599793138011426 -0.014818401448802093 -0.0007813916892093416 -0.01157174473522063 0.0 0.0
0.0 0.025384309797908806 0.02071247767761229 -0.019867996564323497 -0.0008444811132887746 -0.01434955237090369 0.0 0.0
0.0 0.03216469243770853 0.026363999741480616 -0.02546057834537789 -0.0009034213961026995 -0.01711080014061078 0.0 0.0
0.0 0.039721509261619846 0.032612480937082515 -0.0316547842101461 -0.0009576967269364088 -0.019862777156478672 0.0 0.0
0.0 0.04783753988067738 0.03947260135424114 -0.03846834198942159 -0.0010042593648195198 -0.022449856262497805 0.0 0.0
0.0 0.05671593406666889 0.04686148465473843 -0.045814860857740496 -0.0010466237969979108 -0.024537504240226066 0.0 0.0
0.0 0.06576698593569907 0.05470349245506417 -0.05360208275232894 -0.0011014097027351986 -0.025758057667104726 0.0 0.0
0.0 0.0750584820328509 0.06295404513469009 -0.06180784745227471 -0.001146197682415374 -0.025449028601344067 0.0 0.0
0.0 0.0844378548174892 0.07117907596670187 -0.07005014136002458 -0.0011289346066772734 -0.021421483557766144 0.0 0.0
0.0 0.09224536042072891 0.07631129775694126 -0.07620623870977303 -0.00010505904716829917 2.2516710718178956e-14 0.0 0.0
0.0 0.08443785481748374 0.0711790759666913 -0.07005014136001397 -0.0011289346066772695 0.021421483557820684 0.0 0.0
0.0 0.07505848203283186 0.06295404513466854 -0.06180784745225354 -0.0011461976824150356 0.025449028601399137 0.0 0.0
0.0 0.06576698593567525 0.05470349245504083 -0.05360208275230611 -0.0011014097027347578 0.025758057667138533 0.0 0.0
0.0 0.05671593406662891 0.046861484654704806 -0.0458148608577073 -0.0010466237969974641 0.02453750424022653 0.0 0.0
0.0 0.047837539880637873 0.03947260135420824 -0.038468341989388796 -0.001004259364819515 0.02244985626248391 0.0 0.0
0.0 0.03972150926158265 0.03261248093705081 -0.031654784210114674 -0.0009576967269361053 0.0198627771564661 0.0 0.0
0.0 0.032164692437673066 0.026363999741450463 -0.025460578345348275 -0.0009034213961022093 0.017110800140599996 0.0 0.0
0.0 0.02538430979787523 0.020712477677584443 -0.019867996564296178 -0.0008444811132882399 0.014349552370891404 0.0 0.0
0.0 0.01917787522942604 0.01559979313798362 -0.014818401448774578 -0.0007813916892090393 0.011571744735201613 0.0 0.0
0.0 0.013629695961329062 0.010988568003938427 -0.010272286410645596 -0.0007162815932928151 0.00873418319032364 0.0 0.0
0.0 0.008896295035973575 0.006941479440723318 -0.006305943158117256 -0.0006355362826060624 0.005901772125700883 0.0 0.0
0.0 0.004609907943946807 0.0036826077937051694 -0.003183323337854606 -0.0004992844558505659 0.00339513854235861 0.0 0.0
0.0 0.0017992040042089006 0.0014461764641518647 -0.0011675637273795313 -0.00027861273677233316 0.0015200244295219775 0.0 0.0
0.0 0.00039746696748109 0.0002952016205432354 -0.00022265719444713468 -7.254442609610053e-05 0.0003728332709734251 0.0 0.0
0.0 -1.8678618674672998e-05 -1.0971876156106666e-05 1.0064058098294568e-05 9.07818057812148e-07 -2.734505351362138e-05 0.0 0.0
0.0 -5.8766214340656055e-06 -3.8663773334059115e-06 3.0634317216242497e-06 8.029456117816461e-07 -1.2997605130899453e-05 0.0 0.0
0.0 -7.047350917414853e-07 3.26331258447064e-08 -2.528162902727488e-08 -7.3514968174314206e-09 2.0683970583599982e-07 0.0 0.0
0.0 6.04974286652456e-07 2.9769712388775403e-08 -3.043101388532221e-08 6.613014965472217e-10 5.939261193606764e-07 0.0 0.0
0.0 0.0002595369270123421 0.000125668940608231 -4.386871663942674e-05 -8.18002239688045e-05 0.0006161764610406881 0.0 0.0
0.0 0.002427782002623359 0.0013527523778439818 -0.0019423889090494357 0.0005896365312054541 0.0011605467616063812 0.0 0.0
0.0 0.0012318036433193263 0.0007314814160178584 -0.00106347261156546 0.0003319911955476016 -0.0007637327419211499 0.0 0.0
0.0 7.729859554247435e-05 2.391516505441805e-05 1.6058724315678315e-05 -3.9973889370096305e-05 -0.0002342509327782325 0.0 0.0
0.0 1.972037081361843e-06 -5.0028943199243e-10 1.024864692805064e-08 -9.748357496057297e-09 5.353612719411506e-07 0.0 0.0
0.0 1.3584925638847645e-06 -7.617753194976648e-08 5.294985397041413e-08 2.3227677979352197e-08 1.0296795166303129e-06 0.0 0.0
0.0 -6.383183462443538e-06 -2.058504067102343e-06 1.617820823684385e-06 4.406832434179578e-07 1.1053055569061882e-05 0.0 0.0
0.0 -2.297498580286976e-05 -9.318797043776634e-06 7.792545464860545e-06 1.5262515789161023e-06 2.2591663514773592e-05 0.0 0.0
0.0 0.00011880564303586456 5.054501460291763e-05 -3.7455995048144555e-05 -1.3089019554773228e-05 -0.0001376185483339784 0.0 0.0
0.0 0.0008580520475405212 0.0005279740369081727 -0.00041957277457105904 -0.00010840126233711375 -0.0009086671231601934 0.0 0.0
0.0 0.002479835099528909 0.0017842541111360263 -0.0014955658052450346 -0.0002886883058909908 -0.002372708163664929 0.0 0.0
0.0 0.005209383796362915 0.003833934214588099 -0.003384164266786841 -0.0004497699478012577 -0.004333639248060994 0.0 0.0
0.0 0.008467889231464408 0.006488183076538925 -0.005931732224366231 -0.0005564508521726951 -0.0066708861730410745 0.0 0.0
0.0 0.01236831342724391 0.009540251642368297 -0.008911114441905378 -0.0006291372004629091 -0.00909593136884745 0.0 0.0
0.0 0.016610617327316984 0.012918784547362295 -0.012226882812607514 -0.0006919017347547853 -0.011528757382466103 0.0 0.0
0.0 0.0212539676774365 0.016654902578024957 -0.015909954169068135 -0.000744948408956834 -0.01394099794025013 0.0 0.0
0.0 0.026448269004634352 0.020826693427109595 -0.02003309434988601 -0.0007935990772235861 -0.016329491473647956 0.0 0.0
0.0 0.03226372291657923 0.02551533778217656 -0.024676282054949157 -0.0008390557272273864 -0.01864055820686279 0.0 0.0
0.0 0.03862719727512259 0.030742773600348064 -0.029860469825842853 -0.0008823037745052017 -0.020614975062782575 0.0 0.0
0.0 0.04531457956280134 0.036522739069564644 -0.03558525056623374 -0.0009374885033309658 -0.02182852530032897 0.0 0.0
0.0 0.052884769919713207 0.0431198252477181 -0.04209922712335853 -0.0010205981243595259 -0.02201919678918585 0.0 0.0
0.0 0.06181903221622482 0.050770428654542496 -0.049713718451231854 -0.001056710203310665 -0.020129550914376015 0.0 0.0
0.0 0.07070532328272788 0.05632529002097863 -0.056528369735376824 0.00020307971439815914 1.9340432033665422e-14 0.0 0.0
0.0 0.061819032216222314 0.05077042865453392 -0.04971371845122252 -0.0010567102033113935 0.020129550914422107 0.0 0.0
0.0 0.05288476991970176 0.043119825247703095 -0.042099227123343706 -0.0010205981243593628 0.02201919678923475 0.0 0.0
0.0 0.0453145795627817 0.03652273906954624 -0.035585250566215684 -0.0009374885033305326 0.021828525300354715 0.0 0.0
0.0 0.03862719727509384 0.030742773600325644 -0.029860469825820714 -0.0008823037745049376 0.02061497506277804 0.0 0.0
0.0 0.03226372291654992 0.02551533778215286 -0.024676282054925516 -0.0008390557272273204 0.01864055820684872 0.0 0.0
0.0 0.026448269004609806 0.02082669342708926 -0.02003309434986606 -0.0007935990772232081 0.01632949147363788 0.0 0.0
0.0 0.021253967677413776 0.016654902578006135 -0.01590995416904964 -0.0007449484089565027 0.013940997940241994 0.0 0.0
0.0 0.016610617327296125 0.012918784547345361 -0.012226882812591034 -0.0006919017347543214 0.011528757382457198 0.0 0.0
0.0 0.012368313427221094 0.00954025164235156 -0.008911114441888872 -0.0006291372004626773 0.009095931368831224 0.0 0.0
0.0 0.008467889231443426 0.006488183076523299 -0.005931732224351152 -0.0005564508521721446 0.006670886173023226 0.0 0.0
0.0 0.005209383796346311 0.0038339342145763916 -0.003384164266775542 -0.0004497699478008507 0.004333639248046939 0.0 0.0
0.0 0.002479835099520483 0.0017842541111301033 -0.0014955658052397862 -0.0002886883058903162 0.002372708163658269 0.0 0.0
0.0 0.0008580520475341517 0.0005279740369039543 -0.00041957277456759935 -0.00010840126233635526 0.0009086671231543157 0.0 0.0
0.0 0.00011880564303257609 5.054501460206245e-05 -3.745599504747393e-05 -1.3089019554588503e-05 0.00013761854833169564 0.0 0.0
0.0 -2.2974985803015384e-05 -9.318797043289314e-06 7.792545464490293e-06 1.5262515787989954e-06 -2.2591663513049843e-05 0.0 0.0
0.0 -6.383183462206244e-06 -2.0585040669384786e-06 1.6178208235618637e-06 4.406832433766261e-07 -1.1053055567689985e-05 0.0 0.0
0.0 1.358492563198352e-06 -7.617753199282274e-08 5.2949854002635676e-08 2.32276779901879e-08 -1.029679517066845e-06 0.0 0.0
0.0 1.9720370812913332e-06 -5.00289414431751e-10 1.0248646907025072e-08 -9.74835749259293e-09 -5.353612713352199e-07 0.0 0.0
0.0 7.729859554004892e-05 2.391516505396332e-05 1.6058724315889365e-05 -3.997388936985254e-05 0.00023425093277601466 0.0 0.0
0.0 0.0012318036433128104 0.0007314814160141986 -0.0010634726115602048 0.00033199119554600556 0.0007637327419182071 0.0 0.0
0.0 0.0005731936991195208 0.00029876183774050683 -0.0004379724837122845 0.00013921064597177798 -0.0003854167555416032 0.0 0.0
0.0 -2.400403515884596e-05 -1.7968349084938834e-05 3.4347710126389226e-05 -1.6379361041450426e-05 -1.5376336856613367e-05 0.0 0.0
0.0 2.208058932582807e-06 2.3191680470352734e-08 -5.825616128833121e-08 3.506448081797897e-08 -1.7800689302844227e-06 0.0 0.0
0.0 7.547938654542806e-07 -5.8433366845173216e-08 5.031145277970459e-08 8.121914065466658e-09 -8.689577887251301e-07 0.0 0.0
0.0 -4.673668154260052e-06 -8.270351639853307e-07 6.805693019950461e-07 1.464658619902924e-07 8.234878508994391e-06 0.0 0.0
0.0 -7.804124138818188e-06 -3.953325575841202e-06 3.3330007826968106e-06 6.203247931443593e-07 1.7314892236190466e-05 0.0 0.0
0.0 5.023156975299804e-05 3.936246153457768e-07 2.1255281999287253e-08 -4.148798973450189e-07 -6.575758436601584e-05 0.0 0.0
0.0 0.0002533992612236529 5.711629643604949e-05 -4.802092195757844e-05 -9.095374478471083e-06 -0.0003843378770686533 0.0 0.0
0.0 0.0008476576537283708 0.00035721214548477216 -0.0003137382296268932 -4.347391585787841e-05 -0.0011878958915939573 0.0 0.0
0.0 0.002072374754543175 0.0011309851380154284 -0.0010123223238316928 -0.0001186628141837368 -0.002512759629462326 0.0 0.0
0.0 0.003993025529939984 0.0023550084323361725 -0.002142748844210994 -0.000212259588125177 -0.0041543644444921105 0.0 0.0
0.0 0.005994917739906334 0.003829628625867027 -0.0035341282382332605 -0.00029550038763377103 -0.005979468117472386 0.0 0.0
0.0 0.008365306578236333 0.005470419021029194 -0.0051029536916706985 -0.00036746532935848957 -0.00790356860341399 0.0 0.0
0.0 0.011023820235169327 0.007304292842781991 -0.00687645081291579 -0.00042784202986619757 -0.00989343106346604 0.0 0.0
0.0 0.013988709904320502 0.009404380382103316 -0.008920606238982786 -0.0004837741431205315 -0.011942209952040003 0.0 0.0
0.0 0.01740708568466929 0.011891472726723406 -0.011350836447461389 -0.0005406362792620158 -0.01403203643561297 0.0 0.0
0.0 0.02144781115666305 0.0149166854529472 -0.014315553588997738 -0.0006011318639494685 -0.01600296194593633 0.0 0.0
0.0 0.026151335233921425 0.018610088954409465 -0.017947225208212177 -0.0006628637461972829 -0.017357897080087486 0.0 0.0
0.0 0.03155354371541119 0.02325649495148755 -0.02250627417542069 -0.0007502207760668765 -0.017563309645438594 0.0 0.0
0.0 0.03880484079328986 0.02976720779266545 -0.028859613694870202 -0.0009075940977952041 -0.017047908374023948 0.0 0.0
0.0 0.05020025050090579 0.03566563590948943 -0.036229334678279414 0.0005636987687899849 1.5705318989756023e-14 0.0 0.0
0.0 0.038804840793294965 0.0297672077926621 -0.02885961369486619 -0.0009075940977959496 0.01704790837406414 0.0 0.0
0.0 0.031553543715408784 0.023256494951481608 -0.02250627417541464 -0.0007502207760669872 0.017563309645475998 0.0 0.0
0.0 0.02615133523390473 0.018610088954396493 -0.017947225208199045 -0.0006628637461974375 0.017357897080100576 0.0 0.0
0.0 0.02144781115664409 0.014916685452936134 -0.014315553588986965 -0.000601131863949191 0.016002961945928713 0.0 0.0
0.0 0.017407085684652962 0.011891472726712652 -0.011350836447450064 -0.0005406362792625896 0.014032036435598739 0.0 0.0
0.0 0.013988709904307502 0.009404380382093538 -0.008920606238972773 -0.00048377414312076884 0.011942209952031753 0.0 0.0
0.0 0.011023820235159437 0.007304292842776003 -0.006876450812909751 -0.0004278420298662597 0.009893431063460125 0.0 0.0
0.0 0.008365306578224846 0.005470419021022161 -0.0051029536916639565 -0.00036746532935821066 0.007903568603405483 0.0 0.0
0.0 0.005994917739892396 0.003829628625858882 -0.0035341282382253397 -0.00029550038763354004 0.0059794681174583295 0.0 0.0
0.0 0.003993025529928296 0.0023550084323296933 -0.0021427488442047294 -0.0002122595881249635 0.0041543644444791365 0.0 0.0
0.0 0.0020723747545360865 0.0011309851380115258 -0.0010123223238281585 -0.00011866281418336797 0.002512759629455417 0.0 0.0
0.0 0.0008476576537247814 0.0003572121454831393 -0.0003137382296254332 -4.3473915857705086e-05 0.0011878958915891309 0.0 0.0
0.0 0.0002533992612211128 5.7116296435211786e-05 -4.8020921956860354e-05 -9.095374478351459e-06 0.00038433787706545027 0.0 0.0
0.0 5.023156975181518e-05 3.936246154129116e-07 2.1255281965847954e-08 -4.1487989737874916e-07 6.575758436562551e-05 0.0 0.0
0.0 -7.804124139647785e-06 -3.95332557576496e-06 3.3330007826455863e-06 6.203247931193723e-07 -1.731489223536341e-05 0.0 0.0
0.0 -4.673668154166687e-06 -8.270351639517696e-07 6.805693019729156e-07 1.4646586197885058e-07 -8.234878508036045e-06 0.0 0.0
0.0 7.547938655513478e-07 -5.8433366862885965e-08 5.031145279932875e-08 8.121914063557879e-09 8.689577896897235e-07 0.0 0.0
0.0 2.208058932593039e-06 2.3191680476534232e-08 -5.8256161310149694e-08 3.5064480833611965e-08 1.7800689312285426e-06 0.0 0.0
0.0 -2.4004035159914194e-05 -1.7968349084934927e-05 3.4347710126263085e-05 -1.6379361041328074e-05 1.5376336855797972e-05 0.0 0.0
0.0 0.0005731936991150529 0.0002987618377383619 -0.00043797248370916556 0.00013921064597080307 0.00038541675553927386 0.0 0.0
0.0 0.00011805609220331643 6.773120055620904e-05 -0.00010131104478944775 3.357984423323859e-05 -0.00010900188725731175 0.0 0.0
0.0 -1.9763912468488667e-05 -1.1123885251965718e-05 1.5649922063883507e-05 -4.526036811917768e-06 2.0982062448923653e-05 0.0 0.0
0.0 3.0698462463980975e-06 1.3731442505884533e-07 -9.060982286869296e-08 -4.6704602190156216e-08 3.5620114065813183e-06 0.0 0.0
0.0 1.962569623305589e-06 -1.566992797224977e-07 1.2679827474399997e-07 2.990100497850028e-08 -1.8825209223321162e-06 0.0 0.0
0.0 -9.24124400184643e-07 -2.225258813766227e-07 2.1849789566890008e-07 4.027985707720148e-09 2.9299878850273353e-06 0.0 0.0
0.0 9.755946744064496e-07 -9.62047982529439e-07 9.975956948360474e-07 -3.554771230660799e-08 6.036392041705625e-06 0.0 0.0
0.0 5.924772410303699e-05 -1.6214462704567619e-06 1.6227768725119153e-06 -1.330602055170736e-09 -7.883672285715428e-05 0.0 0.0
0.0 0.00017666659959222244 -1.1520131632819977e-06 1.1115783022937764e-06 4.043486098827977e-08 -0.00030343868316965074 0.0 0.0
0.0 0.0004139105430815167 -2.654005691200473e-07 2.446500711243489e-07 2.075049799567471e-08 -0.0006425757642274897 0.0 0.0
0.0 0.0006846037427210886 4.3455406710551274e-08 -1.54160853762424e-08 -2.803932133451216e-08 -0.0012903227077942017 0.0 0.0
0.0 0.0012431186753811534 5.889949986011592e-07 -7.383289270267482e-07 1.4933392842571774e-07 -0.002356296950877073 0.0 0.0
0.0 0.0020327331775861946 -6.329481910974193e-06 8.431313770512462e-06 -2.1018318595376868e-06 -0.003960707597430517 0.0 0.0
0.0 0.0031748577145302285 -2.0662155426052792e-05 2.438808060625466e-05 -3.725925180200987e-06 -0.0057418512281115375 0.0 0.0
0.0 0.004496099344311876 -3.225324842217605e-05 3.453276825182705e-05 -2.2795198296502416e-06 -0.007630871603969743 0.0 0.0
0.0 0.005973730372225875 2.0311234886845287e-05 -2.916009865471035e-05 8.848863767864736e-06 -0.009636013838683587 0.0 0.0
0.0 0.007570259031503969 0.0002825976291021674 -0.0003171180876254823 3.452045852331346e-05 -0.011757141699591236 0.0 0.0
0.0 0.009332504652658044 0.0010079944005977931 -0.0010887226621485741 8.07282615507852e-05 -0.01392838135814256 0.0 0.0
0.0 0.011191507495156171 0.002428895187465554 -0.002626838096230738 0.0001979429087651758 -0.0159560523226286 0.0 0.0
0.0 0.013762368409575624 0.0042457339881488195 -0.004629126118035726 0.00038339212988691213 -0.017428724291272006 0.0 0.0
0.0 0.019988888118876766 0.008518357010728131 -0.008275813571758661 -0.00024254343896946463 -0.01785672527799392 0.0 0.0
0.0 0.03547338902220059 0.015110092383280496 -0.01624384044306539 0.0011337480597848816 1.3476199323125826e-14 0.0 0.0
0.0 0.01998888811888499 0.008518357010728181 -0.008275813571757776 -0.00024254343897039504 0.01785672527802048 0.0 0.0
0.0 0.013762368409571428 0.004245733988147502 -0.0046291261180351085 0.00038339212988760537 0.017428724291280614 0.0 0.0
0.0 0.011191507495145336 0.0024288951874632254 -0.002626838096227662 0.00019794290876443474 0.015956052322623555 0.0 0.0
0.0 0.009332504652646584 0.001007994400600428 -0.0010887226621525267 8.072826155210204e-05 0.013928381358132758 0.0 0.0
0.0 0.007570259031497781 0.0002825976291044211 -0.00031711808762790615 3.452045852348623e-05 0.011757141699578137 0.0 0.0
0.0 0.005973730372219288 2.0311234887658005e-05 -2.9160098655041573e-05 8.848863767384245e-06 0.009636013838675217 0.0 0.0
0.0 0.004496099344305574 -3.22532484182765e-05 3.453276824746552e-05 -2.279519829188561e-06 0.007630871603961255 0.0 0.0
0.0 0.003174857714521637 -2.066215542432208e-05 2.438808060463524e-05 -3.7259251803128767e-06 0.00574185122809826 0.0 0.0
0.0 0.0020327331775762863 -6.329481909772626e-06 8.431313769296042e-06 -2.101831859524351e-06 0.0039607075974170194 0.0 0.0
0.0 0.0012431186753756006 5.889949990345962e-07 -7.383289276600307e-07 1.4933392862569205e-07 0.002356296950868386 0.0 0.0
0.0 0.0006846037427185622 4.345540635439086e-08 -1.541608506347718e-08 -2.8039321290798485e-08 0.0012903227077918837 0.0 0.0
0.0 0.00041391054307999436 -2.654005691288497e-07 2.4465007112123773e-07 2.0750498007449314e-08 0.0006425757642251019 0.0 0.0
0.0 0.00017666659959121348 -1.1520131632540834e-06 1.1115783023217573e-06 4.043486093232779e-08 0.00030343868316786674 0.0 0.0
0.0 5.924772410216085e-05 -1.621446270451382e-06 1.622776872502562e-06 -1.330602051160935e-09 7.883672285733045e-05 0.0 0.0
0.0 9.755946733512198e-07 -9.62047982518337e-07 9.975956948208379e-07 -3.5547712302506894e-08 -6.036392041577481e-06 0.0 0.0
0.0 -9.241244008311491e-07 -2.2252588141455906e-07 2.1849789570485094e-07 4.027985709710947e-09 -2.9299878841282357e-06 0.0 0.0
0.0 1.9625696234643266e-06 -1.5669927978382592e-07 1.267982747983975e-07 2.9901004985428415e-08 1.8825209232052697e-06 0.0 0.0
0.0 3.0698462450315907e-06 1.373144250729361e-07 -9.060982287912363e-08 -4.6704602193803646e-08 -3.562011406925838e-06 0.0 0.0
0.0 -1.9763912468392843e-05 -1.1123885251594961e-05 1.564992206344216e-05 -4.526036811847222e-06 -2.0982062447626456e-05 0.0 0.0
0.0 0.0001180560922011768 6.773120055555329e-05 -0.0001013110447885266 3.357984423297347e-05 0.00010900188725620813 0.0 0.0
0.0 2.0935689915622474e-06 -6.567979511586892e-07 6.679143511758085e-07 -1.1116400017132486e-08 1.978310424924871e-06 0.0 0.0
0.0 -1.341964728015295e-07 6.83801488762817e-08 -4.815152340440138e-08 -2.0228625471883397e-08 8.621646457674628e-07 0.0 0.0
0.0 7.517600741164526e-07 9.574466971995897e-08 -1.3802874599203866e-07 4.228407627207924e-08 -1.3826403128834425e-06 0.0 0.0
0.0 4.092552978500889e-06 -1.4720722696782816e-07 1.0775089515637557e-07 3.945633181145324e-08 -2.564647818742053e-06 0.0 0.0
0.0 1.7046822119248021e-06 -3.310120652472312e-07 3.1554142407709234e-07 1.5470641170140274e-08 -2.8980803456514564e-06 0.0 0.0
0.0 8.214416903285119e-07 -2.1617177610028562e-07 4.570107200896119e-07 -2.408389439892865e-07 -6.4623025720701584e-06 0.0 0.0
0.0 7.698396988426404e-05 -4.448486135384816e-06 3.850665424146277e-06 5.978207112384714e-07 -7.711563116403119e-05 0.0 0.0
0.0 0.00026717345011841547 -6.216398076490566e-05 5.2532514728972564e-05 9.63146603593303e-06 -0.0003969123775310954 0.0 0.0
0.0 0.0008514674461852887 -0.0003589045363210214 0.00031514333647292503 4.3761199848096856e-05 -0.001194481898409072 0.0 0.0
0.0 0.0020703658229909673 -0.0011299582505038563 0.001011361914475485 0.00011859633602837098 -0.0025124352187225504 0.0 0.0
0.0 0.004005850796097737 -0.002356577333307832 0.0021442436355738094 0.00021233369773402083 -0.004151682698991583 0.0 0.0
0.0 0.006031483703539278 -0.003852750941047832 0.0035541174549036667 0.00029863348614416374 -0.00598460693912145 0.0 0.0
0.0 0.008430217003343113 -0.005528737951790994 0.005156673947603108 0.0003720640041878851 -0.007908365749190724 0.0 0.0
0.0 0.011093471045622322 -0.007374795405731754 0.00694821284237476 0.0004265825633569995 -0.009887644055626919 0.0 0.0
0.0 0.013859875439144796 -0.009320996018048077 0.008862943192220418 0.00045805282582765287 -0.0119407885139184 0.0 0.0
0.0 0.016587324595077738 -0.011166996073021032 0.010707646326047444 0.00045934974697358044 -0.014128394063526175 0.0 0.0
0.0 0.018887026237027493 -0.012558142470509357 0.012135459810289106 0.00042268266022026194 -0.016487537722676096 0.0 0.0
0.0 0.020543220071451335 -0.013030665007651428 0.012695265249143422 0.0003353997585080143 -0.01908908245036734 0.0 0.0
0.0 0.020648381092580003 -0.012045242076273648 0.011907136270803486 0.00013810580547015343 -0.021888789898089414 0.0 0.0
0.0 0.01682292585172294 -0.008717868072789136 0.009088647714575848 -0.00037077964178670923 -0.023829601228721322 0.0 0.0
0.0 0.03421087797352583 -0.004897900952067304 0.00242953304104084 0.002468367911026461 1.5768636396629176e-14 0.0 0.0
0.0 0.016822925851729054 -0.008717868072789809 0.00908864771457599 -0.00037077964178618605 0.02382960122873854 0.0 0.0
0.0 0.020648381092575586 -0.012045242076268468 0.01190713627079828 0.0001381058054701799 0.021888789898104003 0.0 0.0
0.0 0.020543220071439536 -0.013030665007643159 0.012695265249135316 0.00033539975850783706 0.019089082450369284 0.0 0.0
0.0 0.01888702623700739 -0.012558142470494511 0.012135459810274639 0.0004226826602198935 0.016487537722666333 0.0 0.0
0.0 0.016587324595057778 -0.011166996073007099 0.010707646326033786 0.00045934974697331795 0.014128394063510068 0.0 0.0
0.0 0.013859875439128692 -0.009320996018035363 0.008862943192207987 0.0004580528258273718 0.011940788513906135 0.0 0.0
0.0 0.011093471045602928 -0.007374795405716765 0.006948212842360079 0.00042658256335668346 0.009887644055614316 0.0 0.0
0.0 0.008430217003325892 -0.005528737951778718 0.005156673947591272 0.0003720640041874491 0.007908365749178161 0.0 0.0
0.0 0.0060314837035193945 -0.00385275094103413 0.003554117454890704 0.0002986334861434227 0.005984606939104228 0.0 0.0
0.0 0.004005850796078539 -0.0023565773332954285 0.002144243635562264 0.00021233369773316377 0.004151682698975012 0.0 0.0
0.0 0.002070365822979642 -0.0011299582504963517 0.0010113619144688378 0.00011859633602751426 0.0025124352187133343 0.0 0.0
0.0 0.0008514674461805987 -0.0003589045363184502 0.00031514333647070973 4.376119984774045e-05 0.001194481898404071 0.0 0.0
0.0 0.0002671734501169402 -6.216398076469767e-05 5.2532514728826895e-05 9.631466035870869e-06 0.00039691237752974897 0.0 0.0
0.0 7.698396988224521e-05 -4.448486135287025e-06 3.850665424034205e-06 5.978207112528282e-07 7.711563116278013e-05 0.0 0.0
0.0 8.214416896977843e-07 -2.1617177623889743e-07 4.570107201996312e-07 -2.408389439607344e-07 6.462302573226992e-06 0.0 0.0
0.0 1.7046822114270595e-06 -3.3101206534612807e-07 3.155414241604032e-07 1.5470641185714794e-08 2.8980803464558785e-06 0.0 0.0
0.0 4.092552978058172e-06 -1.472072270887355e-07 1.0775089525671103e-07 3.945633183202302e-08 2.564647819818697e-06 0.0 0.0
0.0 7.51760073717552e-07 9.574466970630996e-08 -1.3802874599016394e-07 4.228407628384948e-08 1.382640313510946e-06 0.0 0.0
0.0 -1.3419647291617795e-07 6.838014878386942e-08 -4.815152329972932e-08 -2.0228625484142987e-08 -8.621646458444271e-07 0.0 0.0
0.0 2.093568990206246e-06 -6.567979507017886e-07 6.679143504953552e-07 -1.1116399793549336e-08 -1.9783104239576957e-06 0.0 0.0
0.0 -5.791226492451871e-07 3.285152939261595e-08 -4.863961923435168e-08 1.5788089841737027e-08 -8.324711323925468e-08 0.0 0.0
0.0 1.1043531561458426e-06 5.247852061632385e-09 1.6920930243371333e-08 -2.2168782305008506e-08 3.0694422999846323e-07 0.0 0.0
0.0 -6.78310552205081e-07 3.3312366422610995e-07 -2.746433674447986e-07 -5.848029678132038e-08 2.2927817298023397e-06 0.0 0.0
0.0 1.9708923078668287e-06 -4.856591830323029e-07 3.774918809390684e-07 1.0816730209322281e-07 -4.429542624612044e-06 0.0 0.0
0.0 4.448934410955555e-06 1.9804477823308507e-06 -1.6122614490640239e-06 -3.6818633326676345e-07 7.4337386125464374e-06 0.0 0.0
0.0 1.9047544463995728e-05 3.2043914210114365e-06 -2.418148529873567e-06 -7.862428911378875e-07 1.4803528347907494e-06 0.0 0.0
0.0 0.00013697688364871428 -7.124361433163582e-05 5.494918967522418e-05 1.6294424656411615e-05 -0.0002008210136961232 0.0 0.0
0.0 0.000877727029863039 -0.000536669607975456 0.0004272782361036499 0.00010939137187180583 -0.000930554969782456 0.0 0.0
0.0 0.0024802355762868432 -0.0017839047408579876 0.00149505222708126 0.0002888525137767268 -0.002376742169687906 0.0 0.0
0.0 0.005206245056771315 -0.003832495827030203 0.003382684223984549 0.0004498116030456527 -0.004330793064668944 0.0 0.0
0.0 0.008473563520900571 -0.0064934629435789756 0.005936809894166372 0.0005566530494126084 -0.0066715900107533746 0.0 0.0
0.0 0.012394182198760137 -0.009562385682406728 0.008932457994577418 0.0006299276878293167 -0.009096988370031237 0.0 0.0
0.0 0.016662439593004025 -0.012969574114428029 0.01227691936866531 0.0006926547457627049 -0.011499633026924354 0.0 0.0
0.0 0.021296130805898702 -0.01671280009831039 0.015971236989274613 0.0007415631090357656 -0.013853138752954427 0.0 0.0
0.0 0.026308472928319324 -0.020735497767941077 0.01996060087819359 0.0007748968897474775 -0.0162515033345763 0.0 0.0
0.0 0.03147499310539341 -0.024820645121029647 0.024033565209348063 0.0007870799116815584 -0.018902127983192043 0.0 0.0
0.0 0.036301235514534194 -0.02854971922143152 0.027770733095520146 0.0007789861259113648 -0.022025655471240264 0.0 0.0
0.0 0.03998744989464627 -0.031332850556687754 0.030578494668707844 0.0007543558879799064 -0.025728901217703062 0.0 0.0
0.0 0.04183227635800315 -0.032114738886932094 0.03145298757859176 0.0006617513083403215 -0.02930579053343801 0.0 0.0
0.0 0.03893813540182659 -0.02865491084825665 0.028183080676881384 0.0004718301713752816 -0.030137802534739775 0.0 0.0
0.0 0.04198149072388954 -0.02313889819903106 0.019885133470276907 0.0032537647287541336 1.7404480634475306e-14 0.0 0.0
0.0 0.0389381354018372 -0.028654910848255975 0.028183080676881356 0.0004718301713746195 0.030137802534781172 0.0 0.0
0.0 0.041832276357997814 -0.03211473888692118 0.031452987578581074 0.0006617513083400984 0.029305790533475103 0.0 0.0
0.0 0.03998744989462628 -0.03133285055666947 0.030578494668690153 0.0007543558879793259 0.025728901217716954 0.0 0.0
0.0 0.03630123551450169 -0.028549719221405548 0.027770733095493973 0.000778986125911573 0.022025655471231198 0.0 0.0
0.0 0.03147499310536169 -0.024820645121003827 0.0240335652093227 0.00078707991168113 0.018902127983175435 0.0 0.0
0.0 0.026308472928288567 -0.02073549776791621 0.01996060087816926 0.0007748968897469592 0.0162515033345604 0.0 0.0
0.0 0.021296130805870356 -0.01671280009828606 0.015971236989250872 0.0007415631090351671 0.01385313875294061 0.0 0.0
0.0 0.016662439592974233 -0.0129695741144043 0.01227691936864177 0.0006926547457625256 0.011499633026909022 0.0 0.0
0.0 0.012394182198729778 -0.009562385682383342 0.008932457994554837 0.0006299276878285039 0.009096988370010712 0.0 0.0
0.0 0.008473563520872798 -0.006493462943557748 0.00593680989414549 0.0005566530494122601 0.00667159001073184 0.0 0.0
0.0 0.005206245056750376 -0.00383249582701456 0.003382684223969622 0.0004498116030449404 0.004330793064653605 0.0 0.0
0.0 0.0024802355762743094 -0.0017839047408486958 0.0014950522270730047 0.00028885251377569173 0.0023767421696787097 0.0 0.0
0.0 0.0008777270298574649 -0.0005366696079718451 0.0004272782361007534 0.00010939137187109088 0.0009305549697773616 0.0 0.0
0.0 0.00013697688364495882 -7.124361433036118e-05 5.4949189674238445e-05 1.6294424656122797e-05 0.00020082101369298187 0.0 0.0
0.0 1.9047544463839434e-05 3.204391420521097e-06 -2.418148529491275e-06 -7.862428910299268e-07 -1.4803528332171443e-06 0.0 0.0
0.0 4.448934410054006e-06 1.980447782164733e-06 -1.612261448925217e-06 -3.681863332395094e-07 -7.433738611771566e-06 0.0 0.0
0.0 1.970892307629847e-06 -4.85659183165663e-07 3.774918810491969e-07 1.0816730211647174e-07 4.429542625497403e-06 0.0 0.0
0.0 -6.783105528919135e-07 3.331236642194441e-07 -2.7464336745028675e-07 -5.8480296769152576e-08 -2.29278172945601e-06 0.0 0.0
0.0 1.1043531557928755e-06 5.247852073259123e-09 1.6920930235576923e-08 -2.2168782308837657e-08 -3.069442301582356e-07 0.0 0.0
0.0 -5.791226488939735e-07 3.285152937202806e-08 -4.863961920387383e-08 1.57880898318369e-08 8.324711318699175e-08 0.0 0.0
0.0 0.0 0.0 0.0 0.0 0.0 0.0 0.0
0.0 1.2793262250216665e-07 8.703308849541075e-11 4.028570319636627e-09 -4.115603408136257e-09 2.4778079492361678e-08 0.0 0.0
0.0 5.207511580848611e-07 2.8491023785509293e-07 -2.239517342099083e-07 -6.095850364517759e-08 1.6039256392904029e-06 0.0 0.0
0.0 9.460416848241003e-07 1.1581649472447629e-06 -9.730205047574773e-07 -1.8514444248728627e-07 3.0391189635055827e-06 0.0 0.0
0.0 2.466250219318429e-06 2.190552867625888e-06 -1.7122625691822764e-06 -4.782902984436545e-07 1.4808996160796804e-06 0.0 0.0
0.0 2.3463171616959117e-05 -2.2049791861815436e-05 1.6673735999886638e-05 5.376055861928874e-06 -5.2575770031637416e-05 0.0 0.0
0.0 0.00047842027553441176 -0.0003177566126390743 0.00024311094136914601 7.464567126992806e-05 -0.0004175279280724985 0.0 0.0
0.0 0.0018158201656240326 -0.001449889198813904 0.0011712035796854633 0.0002786856191284388 -0.001536731874078464 0.0 0.0
0.0 0.004605781897662007 -0.003679028767895481 0.0031795956140907968 0.00049943315380468 -0.0033927721471231345 0.0 0.0
0.0 0.008895717406342023 -0.00694123172972449 0.006305614737988057 0.0006356169917364401 -0.005898122996204005 0.0 0.0
0.0 0.013633780848307388 -0.010995749253120836 0.010279656010137259 0.0007160932429835697 -0.008736442850356173 0.0 0.0
0.0 0.019196860193425664 -0.015616165528023942 0.014834848967879642 0.0007813165601442979 -0.011564173635145164 0.0 0.0
0.0 0.025405319593853542 -0.02073950650035901 0.01989503648078973 0.0008444700195692969 -0.014279609355313957 0.0 0.0
0.0 0.032151902190750745 -0.02638280341973856 0.025481910123429635 0.0009008932963089026 -0.0169176973879471 0.0 0.0
0.0 0.039549102198394116 -0.03250918357325398 0.03156576805648778 0.0009434155167662168 -0.019653315784758124 0.0 0.0
0.0 0.04718408640653528 -0.03890073939514958 0.03793756540820937 0.0009631739869401854 -0.022835956864145628 0.0 0.0
0.0 0.054896685860213804 -0.045047801201096374 0.04409117499807901 0.0009566262030173342 -0.0269083519284687 0.0 0.0
0.0 0.061225339224370776 -0.05002601032387836 0.04911986298238591 0.0009061473414924658 -0.03184031359127664 0.0 0.0
0.0 0.06445411098372839 -0.05217958643591176 0.051383826060660776 0.0007957603752509361 -0.036287447486508535 0.0 0.0
0.0 0.06073867177907623 -0.048388219820153615 0.047870257487726255 0.0005179623324273325 -0.03761120341126791 0.0 0.0
0.0 0.05829435148925624 -0.04102784335674611 0.03704984500434057 0.003977998352405565 2.0925101928970236e-14 0.0 0.0
0.0 0.0607386717790849 -0.04838821982015121 0.04787025748772469 0.0005179623324265321 0.03761120341131856 0.0 0.0
0.0 0.06445411098371653 -0.05217958643589442 0.05138382606064366 0.0007957603752506838 0.03628744748655552 0.0 0.0
0.0 0.061225339224341827 -0.05002601032385104 0.049119862982358646 0.0009061473414923919 0.031840313591298026 0.0 0.0
0.0 0.05489668586016943 -0.045047801201059105 0.04409117499804151 0.0009566262030175991 0.026908351928463012 0.0 0.0
0.0 0.047184086406492326 -0.03890073939511354 0.0379375654081736 0.0009631739869399308 0.02283595686413012 0.0 0.0
0.0 0.03954910219834895 -0.032509183573216784 0.03156576805645082 0.0009434155167659551 0.019653315784738112 0.0 0.0
0.0 0.03215190219070901 -0.026382803419702873 0.02548191012339457 0.0009008932963082856 0.016917697387931693 0.0 0.0
0.0 0.025405319593810857 -0.020739506500323683 0.019895036480754656 0.0008444700195690291 0.014279609355296543 0.0 0.0
0.0 0.019196860193383875 -0.015616165527990479 0.014834848967846532 0.0007813165601439447 0.011564173635122018 0.0 0.0
0.0 0.013633780848268945 -0.010995749253090398 0.010279656010106825 0.0007160932429835691 0.008736442850331 0.0 0.0
0.0 0.008895717406313779 -0.006941231729702055 0.006305614737966412 0.0006356169917356376 0.0058981229961856275 0.0 0.0
0.0 0.004605781897641784 -0.0036790287678796787 0.0031795956140762208 0.0004994331538034537 0.003392772147110731 0.0 0.0
0.0 0.0018158201656129458 -0.001449889198805458 0.001171203579678313 0.0002786856191271454 0.0015367318740703404 0.0 0.0
0.0 0.0004784202755296016 -0.00031775661263613213 0.00024311094136690134 7.464567126923094e-05 0.0004175279280689664 0.0 0.0
0.0 2.346317161557297e-05 -2.204979186172418e-05 1.6673735999807216e-05 5.3760558619169445e-06 5.2575770031515396e-05 0.0 0.0
0.0 2.4662502191713687e-06 2.1905528672463503e-06 -1.7122625688710932e-06 -4.782902983752556e-07 -1.4808996149948018e-06 0.0 0.0
0.0 9.460416841640122e-07 1.1581649470988617e-06 -9.730205046373301e-07 -1.8514444246153012e-07 -3.039118962652528e-06 0.0 0.0
0.0 5.207511575782153e-07 2.849102378894005e-07 -2.239517342388586e-07 -6.095850365054855e-08 -1.6039256394609402e-06 0.0 0.0
0.0 1.2793262222365965e-07 8.703308583074716e-11 4.028570317766604e-09 -4.115603403594462e-09 -2.4778079435018216e-08 0.0 0.0
0.0 0.0 0.0 0.0 0.0 0.0 0.0 0.0
0.0 0.0 0.0 0.0 0.0 0.0 0.0 0.0
0.0 -1.2025212151614905e-07 -2.8111852206668733e-09 1.9303984439410896e-09 8.807867767261456e-10 -2.3879236813071873e-08 0.0 0.0
0.0 -3.9394965088167586e-07 1.60260675228795e-07 -1.2798252056262466e-07 -3.227815466617329e-08 7.077690666249397e-07 0.0 0.0
0.0 -2.5209113572390813e-06 5.886015099904641e-07 -4.822491614289169e-07 -1.0635234856153658e-07 9.673340987315432e-07 0.0 0.0
0.0 3.5795099505464126e-07 6.358964043851427e-06 -5.29924551323443e-06 -1.0597185306169882e-06 1.1916789218452092e-05 0.0 0.0
0.0 0.0001488763050181553 -8.819954716767238e-05 6.547242328157456e-05 2.272712388609777e-05 -9.263357061186492e-05 0.0 0.0
0.0 0.00096084214488071 -0.000793078797751822 0.0006148559245306951 0.0001782228732211268 -0.0006858589047655892 0.0 0.0
0.0 0.0031449167925960576 -0.002646135061601684 0.0022023030536004115 0.0004438320080012712 -0.0019879634355981814 0.0 0.0
0.0 0.007321770223119329 -0.005852831918786596 0.00520721040791597 0.0006456215108706243 -0.004137868902872881 0.0 0.0
0.0 0.012247556422594712 -0.01030697398001348 0.009553456182968663 0.0007535177970448281 -0.006953456476247584 0.0 0.0
0.0 0.01883986381537313 -0.015694772672802455 0.014871338366867519 0.000823434305934934 -0.009966447266376464 0.0 0.0
0.0 0.02617673737094423 -0.02183987113131096 0.02095078453796305 0.000889086593347887 -0.012944905196011651 0.0 0.0
0.0 0.03427457202755233 -0.02867548429237193 0.027717307963344182 0.000958176329027758 -0.015799795619650184 0.0 0.0
0.0 0.043184666002611026 -0.03622021003471427 0.035195505830408355 0.0010247042043058851 -0.018576887652913734 0.0 0.0
0.0 0.052849286177551816 -0.04446550364056907 0.04338674935103415 0.0010787542895348873 -0.021458176955220655 0.0 0.0
0.0 0.06341364444403538 -0.053199981663894724 0.052094043901469225 0.0011059377624254953 -0.024906324252192073 0.0 0.0
0.0 0.07334569755940859 -0.06178310814275458 0.06069269178300577 0.0010904163597487556 -0.029468714353301482 0.0 0.0
0.0 0.08230979009117848 -0.06886966702094346 0.06785660053012023 0.0010130664908232746 -0.0350649781982997 0.0 0.0
0.0 0.08695294972440559 -0.07210508873579281 0.07126021024736412 0.0008448784884286673 -0.04028771923193488 0.0 0.0
0.0 0.08228802479450371 -0.06754867749440943 0.06703036304736307 0.0005183144470463964 -0.04224927536974647 0.0 0.0
0.0 0.07620856827364095 -0.05852669295383759 0.053926627227194046 0.0046000657266434 2.189567971377926e-14 0.0 0.0
0.0 0.08228802479450298 -0.06754867749440024 0.06703036304735459 0.0005183144470456724 0.042249275369797376 0.0 0.0
0.0 0.08695294972438437 -0.07210508873576829 0.07126021024733908 0.0008448784884291155 0.04028771923198485 0.0 0.0
0.0 0.08230979009113744 -0.06886966702090563 0.06785660053008194 0.0010130664908235528 0.0350649781983256 0.0 0.0
0.0 0.07334569755935594 -0.06178310814270945 0.060692691782960065 0.0010904163597494224 0.029468714353299636 0.0 0.0
0.0 0.06341364444397987 -0.053199981663847574 0.052094043901422096 0.001105937762425461 0.024906324252176974 0.0 0.0
0.0 0.05284928617749515 -0.0444655036405206 0.04338674935098655 0.0010787542895340679 0.021458176955201583 0.0 0.0
0.0 0.043184666002559685 -0.03622021003466973 0.03519550583036493 0.0010247042043047905 0.018576887652898656 0.0 0.0
0.0 0.03427457202749497 -0.028675484292323916 0.027717307963295884 0.0009581763290280347 0.015799795619629863 0.0 0.0
0.0 0.02617673737089056 -0.02183987113126618 0.020950784537918453 0.0008890865933477204 0.012944905195987509 0.0 0.0
0.0 0.018839863815324785 -0.015694772672762543 0.014871338366827913 0.0008234343059346449 0.009966447266349023 0.0 0.0
0.0 0.012247556422557237 -0.0103069739799823 0.009553456182937885 0.0007535177970444265 0.006953456476225644 0.0 0.0
0.0 0.007321770223092219 -0.005852831918765257 0.005207210407895565 0.0006456215108696946 0.004137868902858651 0.0 0.0
0.0 0.003144916792579255 -0.0026461350615884054 0.0022023030535885486 0.0004438320079998558 0.0019879634355884543 0.0 0.0
0.0 0.0009608421448737575 -0.0007930787977468853 0.000614855924526825 0.0001782228732200601 0.0006858589047617572 0.0 0.0
0.0 0.00014887630501599793 -8.819954716679763e-05 6.547242328093995e-05 2.272712388585766e-05 9.263357061104121e-05 0.0 0.0
0.0 3.579509948063327e-07 6.358964043206339e-06 -5.2992455127225716e-06 -1.05971853048374e-06 -1.1916789217104208e-05 0.0 0.0
0.0 -2.520911357212311e-06 5.88601509658482e-07 -4.822491611701262e-07 -1.0635234848833978e-07 -9.673340976354636e-07 0.0 0.0
0.0 -3.939496510272733e-07 1.602606752710293e-07 -1.2798252059759402e-07 -3.227815467343246e-08 -7.077690667949994e-07 0.0 0.0
0.0 -1.2025212151506954e-07 -2.8111852205958148e-09 1.930398443898689e-09 8.807867766964716e-10 2.387923681280424e-08 0.0 0.0
0.0 0.0 0.0 0.0 0.0 0.0 0.0 0.0
0.0 0.0 0.0 0.0 0.0 0.0 0.0 0.0
0.0 0.0 0.0 0.0 0.0 0.0 0.0 0.0
0.0 -9.746951966010685e-08 2.7098624548243136e-08 -2.011835337548893e-08 -6.9802711727553746e-09 8.901500490196369e-08 0.0 0.0
0.0 -2.266663702720483e-06 1.9269370031540357e-06 -1.5557585161647166e-06 -3.711784869892946e-07 4.10313419057154e-06 0.0 0.0
0.0 -5.291377132235203e-06 -4.089885214314206e-06 2.2431606542322367e-06 1.8467245600819451e-06 -1.996060486360699e-06 0.0 0.0
0.0 0.0003544503092548709 -0.0002570120770424944 0.0001917891161951635 6.522296084733099e-05 -0.00016990028291524604 0.0 0.0
0.0 0.0016734675570623065 -0.001452757101653849 0.001151179875299363 0.0003015772263544855 -0.0008486839363373409 0.0 0.0
0.0 0.004959028180584174 -0.004055790132551111 0.0034759343363339203 0.0005798557962171904 -0.0022582231716891674 0.0 0.0
0.0 0.009494976725120938 -0.008244737398050192 0.007494908732137763 0.0007498286659124314 -0.0045539558957487045 0.0 0.0
0.0 0.016209850144218347 -0.013795995748255288 0.012955979619476804 0.0008400161287784916 -0.007343720438757161 0.0 0.0
0.0 0.024136275866543953 -0.020497650296957784 0.019588356185536542 0.0009092941114212285 -0.010312005223868374 0.0 0.0
0.0 0.033177915172192984 -0.02816542046593131 0.027185332568601842 0.0009800878973294884 -0.013247105825909392 0.0 0.0
0.0 0.043232813579826085 -0.03671574705337481 0.03565994036440551 0.0010558066889692647 -0.01607577083464949 0.0 0.0
0.0 0.05438324258058469 -0.046158242011322445 0.045027230018803495 0.001131011992518992 -0.01884175194598687 0.0 0.0
0.0 0.06642532293655917 -0.056510298055037114 0.05531274313037414 0.0011975549246629497 -0.021691228563785695 0.0 0.0
0.0 0.07921792196207962 -0.06756747488829505 0.0663349203812529 0.0012325545070421438 -0.025016514548191607 0.0 0.0
0.0 0.09244170417011525 -0.07853334293348085 0.07732798056925 0.0012053623642309108 -0.02943967955486705 0.0 0.0
0.0 0.10334386684721084 -0.08764156436026228 0.08655117809386176 0.0010903862664003304 -0.03515290612138074 0.0 0.0
0.0 0.10863534270609679 -0.09181597032761697 0.09094740699524687 0.0008685633323700414 -0.041031034125917694 0.0 0.0
0.0 0.10345621212286943 -0.08651573695277585 0.0859979532458761 0.0005177837068997493 -0.04503609748199843 0.0 0.0
0.0 0.09545515825489234 -0.07607233308348396 0.07092460071867177 0.005147732364812172 2.226517581416232e-14 0.0 0.0
0.0 0.10345621212286137 -0.08651573695276138 0.08599795324586226 0.0005177837068991617 0.045036097482050105 0.0 0.0
0.0 0.10863534270606715 -0.09181597032758614 0.09094740699521546 0.0008685633323706984 0.0410310341259681 0.0 0.0
0.0 0.10334386684716246 -0.0876415643602181 0.08655117809381804 0.0010903862664000204 0.03515290612140806 0.0 0.0
0.0 0.092441704170055 -0.0785333429334288 0.07732798056919754 0.0012053623642311814 0.02943967955486695 0.0 0.0
0.0 0.0792179219620116 -0.06756747488823653 0.06633492038119479 0.0012325545070417773 0.02501651454817915 0.0 0.0
0.0 0.06642532293649168 -0.05651029805497899 0.055312743130316706 0.001197554924662296 0.021691228563771394 0.0 0.0
0.0 0.05438324258052022 -0.04615824201126655 0.04502723001874831 0.0011310119925182014 0.018841751945971017 0.0 0.0
0.0 0.04323281357975684 -0.03671574705331581 0.03565994036434617 0.001055806688969611 0.016075770834630056 0.0 0.0
0.0 0.03317791517212802 -0.028165420465876483 0.027185332568547268 0.000980087897329186 0.013247105825884906 0.0 0.0
0.0 0.024136275866488113 -0.020497650296910905 0.019588356185490034 0.0009092941114208603 0.01031200522384257 0.0 0.0
0.0 0.01620985014416989 -0.013795995748214699 0.012955979619436498 0.0008400161287782026 0.007343720438733951 0.0 0.0
0.0 0.00949497672509 -0.008244737398022877 0.007494908732111355 0.0007498286659115247 0.004553955895734097 0.0 0.0
0.0 0.004959028180562383 -0.004055790132533592 0.003475934336317753 0.0005798557962158378 0.0022582231716792448 0.0 0.0
0.0 0.0016734675570535204 -0.0014527571016467872 0.0011511798752936813 0.00030157722635310534 0.000848683936333362 0.0 0.0
0.0 0.00035445030925108424 -0.00025701207704035336 0.00019178911619350218 6.522296084685074e-05 0.0001699002829138139 0.0 0.0
0.0 -5.291377132720309e-06 -4.089885214633284e-06 2.2431606544993604e-06 1.8467245601338807e-06 1.996060487049309e-06 0.0 0.0
0.0 -2.2666637033640226e-06 1.9269370031183587e-06 -1.5557585161359097e-06 -3.7117848698244353e-07 -4.103134190352081e-06 0.0 0.0
0.0 -9.746951951593302e-08 2.7098624580234208e-08 -2.0118353400991818e-08 -6.980271179241745e-09 -8.901500500414217e-08 0.0 0.0
0.0 0.0 0.0 0.0 0.0 0.0 0.0 0.0
0.0 0.0 0.0 0.0 0.0 0.0 0.0 0.0
0.0 0.0 0.0 0.0 0.0 0.0 0.0 0.0
0.0 0.0 0.0 0.0 0.0 0.0 0.0 0.0
0.0 -1.9259891853480113e-07 -1.2438204119640457e-08 9.900711751953166e-09 2.537492367688598e-09 -3.208399983975565e-08 0.0 0.0
0.0 -3.652577757781583e-06 1.7857904912664876e-06 -1.4432671747450984e-06 -3.4252331652141843e-07 3.097338322649601e-06 0.0 0.0
0.0 3.5140454037025444e-05 -1.7992674662651063e-05 1.1205968465720947e-05 6.78670619693021e-06 -2.464145496375702e-07 0.0 0.0
0.0 0.0005915744178951657 -0.0005614789417254162 0.000423787845523749 0.00013769109620166687 -0.00025187250392244646 0.0 0.0
0.0 0.0027531837769831035 -0.002274096921983242 0.0018499285987546772 0.00042416832322856457 -0.0009008483192010991 0.0 0.0
0.0 0.006406851397459373 -0.005662152350077212 0.004975923130204791 0.00068622921987242 -0.0023546936204828896 0.0 0.0
0.0 0.012327822196919695 -0.010728455349986059 0.009901815457312418 0.0008266398926736369 -0.004493565250344354 0.0 0.0
0.0 0.02010482538350951 -0.01735850453408343 0.016447123192151886 0.0009113813419315512 -0.007050622501709709 0.0 0.0
0.0 0.029500945503930596 -0.025358897942423273 0.024373905401381388 0.0009849925410418763 -0.009794083224001245 0.0 0.0
0.0 0.04028207379180277 -0.03454525044715395 0.033483378319200854 0.0010618721279530908 -0.012506202814431131 0.0 0.0
0.0 0.052377863565956924 -0.044816760873902815 0.04367322938056645 0.0011435314933362967 -0.015136376159102426 0.0 0.0
0.0 0.06537752978328903 -0.056161870091070425 0.05493569201720902 0.0012261780738613984 -0.017743598324021913 0.0 0.0
0.0 0.07990785176221081 -0.06857267070086287 0.06727099262956465 0.0013016780712983463 -0.02039063013094513 0.0 0.0
0.0 0.09542094724898817 -0.0818498205582139 0.08050341039309473 0.0013464101651189933 -0.02325342094139527 0.0 0.0
0.0 0.11073692186067291 -0.09510994830682819 0.0937957971134007 0.0013141511934273828 -0.026906616789211083 0.0 0.0
0.0 0.12385516699438372 -0.10619256951106006 0.10502988368851494 0.0011626858225451953 -0.03210348766249514 0.0 0.0
0.0 0.13046730892573644 -0.11139801640113337 0.1105087348020596 0.0008892815990735616 -0.03882439683342946 0.0 0.0
0.0 0.12477488587254952 -0.10565134407847004 0.10514366965680151 0.0005076744216684968 -0.04641573574526198 0.0 0.0
0.0 0.11521794712552622 -0.09405183491283726 0.08842359540781733 0.005628239505019995 2.1782922687840767e-14 0.0 0.0
0.0 0.12477488587253542 -0.10565134407845166 0.10514366965678344 0.0005076744216681333 0.046415735745311985 0.0 0.0
0.0 0.13046730892569963 -0.11139801640109724 0.11050873480202353 0.0008892815990735256 0.038824396833477104 0.0 0.0
0.0 0.12385516699432775 -0.10619256951100997 0.10502988368846562 0.0011626858225444094 0.032103487662520996 0.0 0.0
0.0 0.11073692186060216 -0.0951099483067669 0.09379579711333927 0.0013141511934275955 0.02690661678921274 0.0 0.0
0.0 0.09542094724891197 -0.08184982055814755 0.08050341039302933 0.0013464101651181196 0.023253420941386754 0.0 0.0
0.0 0.07990785176212922 -0.06857267070079286 0.0672709926294946 0.0013016780712982894 0.020390630130931904 0.0 0.0
0.0 0.06537752978320908 -0.056161870091001445 0.05493569201714053 0.001226178073860895 0.01774359832400623 0.0 0.0
0.0 0.05237786356587801 -0.04481676087383473 0.04367322938049811 0.0011435314933366286 0.015136376159085427 0.0 0.0
0.0 0.04028207379172801 -0.03454525044709004 0.03348337831913733 0.001061872127952684 0.012506202814408857 0.0 0.0
0.0 0.02950094550386449 -0.025358897942366992 0.02437390540132513 0.0009849925410418806 0.009794083223976588 0.0 0.0
0.0 0.02010482538345711 -0.017358504534038456 0.016447123192107296 0.000911381341931138 0.007050622501689325 0.0 0.0
0.0 0.012327822196880953 -0.010728455349952315 0.009901815457279426 0.0008266398926728951 0.004493565250330296 0.0 0.0
0.0 0.006406851397433867 -0.005662152350055154 0.004975923130183883 0.0006862292198712707 0.002354693620473031 0.0 0.0
0.0 0.002753183776968615 -0.002274096921971722 0.0018499285987446346 0.0004241683232270869 0.0009008483191958378 0.0 0.0
0.0 0.0005915744178885989 -0.0005614789417204368 0.0004237878455198435 0.0001376910962005931 0.00025187250392001226 0.0 0.0
0.0 3.5140454035981324e-05 -1.799267466266833e-05 1.1205968465782828e-05 6.786706196885628e-06 2.4641455002353855e-07 0.0 0.0
0.0 -3.6525777578256226e-06 1.7857904910834544e-06 -1.443267174607381e-06 -3.425233164760735e-07 -3.097338322416681e-06 0.0 0.0
0.0 -1.9259891850927365e-07 -1.243820411784055e-08 9.900711750511593e-09 2.5374923673294314e-09 3.208399983580417e-08 0.0 0.0
0.0 0.0 0.0 0.0 0.0 0.0 0.0 0.0
0.0 0.0 0.0 0.0 0.0 0.0 0.0 0.0
0.0 0.0 0.0 0.0 0.0 0.0 0.0 0.0
0.0 0.0 0.0 0.0 0.0 0.0 0.0 0.0
0.0 -7.18462332870173e-08 -5.322214849680892e-09 4.219826328331633e-09 1.102388521349622e-09 -1.0684932772376604e-08 0.0 0.0
0.0 -4.237864944837679e-06 2.8597450956591654e-06 -2.3344191903753398e-06 -5.253259052838184e-07 3.764496592104113e-06 0.0 0.0
0.0 0.0001077454019941161 -7.895914535711396e-05 5.472469258973117e-05 2.4234452767383e-05 -1.3098406280239617e-05 0.0 0.0
0.0 0.001095209455604369 -0.0009492793915432478 0.0007269768347916209 0.00022230255675162724 -0.00022465346454162056 0.0 0.0
0.0 0.0037126955545938355 -0.003271832038811399 0.002733720786684878 0.0005381112521265173 -0.0008588949684363519 0.0 0.0
0.0 0.00825038195614892 -0.007358445376941635 0.00659474053016214 0.0007637048467794949 -0.0021512656978742778 0.0 0.0
0.0 0.015102209294518453 -0.013267268619149156 0.01237841843700472 0.0008888501821444337 -0.0039338730209644065 0.0 0.0
0.0 0.024082875126919805 -0.02095260391508678 0.019978241338849383 0.0009743625762373794 -0.006099125446775587 0.0 0.0
0.0 0.03487557895541633 -0.030239229703026435 0.029185375372782176 0.001053854330244238 -0.008430093370576413 0.0 0.0
0.0 0.047393348021920155 -0.04094253915640006 0.03980510212873574 0.0011374370276643199 -0.0107388696480165 0.0 0.0
0.0 0.06119195994160095 -0.0529470401665284 0.05172170934686012 0.0012253308196683778 -0.012993284216229738 0.0 0.0
0.0 0.07678194130542876 -0.0661884410252893 0.06487728812946393 0.0013111528958252676 -0.01526872627292335 0.0 0.0
0.0 0.09338029440467278 -0.08060434215701351 0.07921410686945982 0.001390235287553669 -0.017576672194073373 0.0 0.0
0.0 0.11094765304145181 -0.09594193079574828 0.09449623315726308 0.0014456976384853025 -0.019810295889357128 0.0 0.0
0.0 0.12881806736422494 -0.11130273734057367 0.10987722962179133 0.001425507718782356 -0.022169814735175975 0.0 0.0
0.0 0.1441116985359298 -0.12437921426301927 0.12312648267259545 0.0012527315904237411 -0.02601142395074256 0.0 0.0
0.0 0.15221178629831475 -0.13096992419779468 0.130049954948677 0.0009199692491177176 -0.03360297170733347 0.0 0.0
0.0 0.1467988201270832 -0.125303475977802 0.12482637842490787 0.00047709755289430944 -0.04614720645242021 0.0 0.0
0.0 0.1365352211511967 -0.11285712053548022 0.10682255573610583 0.006034564799374305 1.9120122152216368e-14 0.0 0.0
0.0 0.1467988201270616 -0.12530347597777874 0.12482637842488438 0.00047709755289435595 0.04614720645246347 0.0 0.0
0.0 0.1522117862982696 -0.13096992419775313 0.13004995494863528 0.0009199692491177727 0.033602971707375216 0.0 0.0
0.0 0.1441116985358635 -0.12437921426296093 0.12312648267253797 0.0012527315904229236 0.026011423950763873 0.0 0.0
0.0 0.12881806736414536 -0.11130273734050464 0.10987722962172258 0.0014255077187820104 0.02216981473517795 0.0 0.0
0.0 0.1109476530413628 -0.09594193079567097 0.09449623315718639 0.0014456976384846303 0.019810295889352313 0.0 0.0
0.0 0.0933802944045801 -0.08060434215693363 0.07921410686938019 0.0013902352875533755 0.017576672194063468 0.0 0.0
0.0 0.0767819413053385 -0.06618844102521103 0.06487728812938638 0.0013111528958246155 0.015268726272910205 0.0 0.0
0.0 0.06119195994150871 -0.052947040166449015 0.05172170934678059 0.0012253308196684925 0.012993284216216304 0.0 0.0
0.0 0.047393348021837124 -0.04094253915632799 0.039805102128664255 0.001137437027663782 0.010738869647998556 0.0 0.0
0.0 0.034875578955339534 -0.03023922970296051 0.029185375372716208 0.0010538543302442871 0.008430093370554791 0.0 0.0
0.0 0.024082875126861122 -0.020952603915036033 0.019978241338799236 0.0009743625762367893 0.006099125446758264 0.0 0.0
0.0 0.015102209294474075 -0.013267268619110432 0.012378418436966571 0.0008888501821438591 0.003933873020951984 0.0 0.0
0.0 0.008250381956118527 -0.00735844537691454 0.006594740530136052 0.000763704846778493 0.0021512656978652047 0.0 0.0
0.0 0.003712695554575467 -0.003271832038795688 0.0027337207866707475 0.0005381112521249385 0.0008588949684311248 0.0 0.0
0.0 0.0010952094555971947 -0.000949279391537653 0.0007269768347872778 0.00022230255675037506 0.00022465346454011504 0.0 0.0
0.0 0.00010774540199205597 -7.895914535598684e-05 5.472469258891348e-05 2.423445276707337e-05 1.3098406280159936e-05 0.0 0.0
0.0 -4.237864945108676e-06 2.859745095141317e-06 -2.334419189985363e-06 -5.253259051559468e-07 -3.7644965916497528e-06 0.0 0.0
0.0 -7.184623319621463e-08 -5.322214842869262e-09 4.219826322927047e-09 1.1023885199412321e-09 1.0684932758656047e-08 0.0 0.0
0.0 0.0 0.0 0.0 0.0 0.0 0.0 0.0
0.0 0.0 0.0 0.0 0.0 0.0 0.0 0.0
0.0 0.0 0.0 0.0 0.0 0.0 0.0 0.0
0.0 0.0 0.0 0.0 0.0 0.0 0.0 0.0
0.0 0.0 0.0 0.0 0.0 0.0 0.0 0.0
0.0 -6.246447842533709e-06 5.980603874065584e-06 -4.8897051200519366e-06 -1.0908987540136664e-06 5.2091791079784295e-06 0.0 0.0
0.0 0.0002109356240474099 -0.000207989239233157 0.0001476517340653384 6.033750516781842e-05 -4.147570056833924e-06 0.0 0.0
0.0 0.0017373188597103416 -0.0014722307282390476 0.0011524499709586332 0.00031978075728041424 -0.0001295012768769177 0.0 0.0
0.0 0.004728555495283391 -0.004382977454119015 0.0037530038164377464 0.0006299736376812676 -0.0006652475958328724 0.0 0.0
0.0 0.010190445277371079 -0.009105363683209246 0.008279736053704054 0.0008256276295052071 -0.0015918328283775554 0.0 0.0
0.0 0.01791869378946549 -0.015827574592175726 0.014885267304883178 0.0009423072872925411 -0.0029001570736737164 0.0 0.0
0.0 0.028057274621523305 -0.024543628376731658 0.023512101639200124 0.0010315267375315634 -0.004497868105327835 0.0 0.0
0.0 0.04033454392215087 -0.03510252851694217 0.03398468912752527 0.0011178393894168948 -0.006228996682705157 0.0 0.0
0.0 0.05442178612503743 -0.047321625959211785 0.04611372919963977 0.0012078967595719869 -0.007949973117481652 0.0 0.0
0.0 0.07050523751362488 -0.061059536822244 0.059758682146968056 0.0013008546752759937 -0.009650006352430384 0.0 0.0
0.0 0.08776068955798424 -0.07620988342948182 0.07481950922400157 0.0013903742054802715 -0.011417232854659863 0.0 0.0
0.0 0.10670523332852186 -0.09258119094263545 0.09111372914740652 0.0014674617952289393 -0.013216091244110568 0.0 0.0
0.0 0.1265966915305829 -0.10978370389557518 0.1082634183789225 0.001520285516652654 -0.0147742167930071 0.0 0.0
0.0 0.14642795333676487 -0.126940785040634 0.1254158736255402 0.0015249114150939532 -0.015839011094554028 0.0 0.0
0.0 0.16382647552519725 -0.1419741197620388 0.14057328351270926 0.0014008362493295127 -0.017534471143360965 0.0 0.0
0.0 0.1740515417026029 -0.15054165840361983 0.14954471696702615 0.0009969414365934115 -0.024478455903528543 0.0 0.0
0.0 0.16982717026238003 -0.14586373815740566 0.14546629486877044 0.00039744328863506104 -0.04319788639478993 0.0 0.0
0.0 0.15955192436585564 -0.13303796580558253 0.12670113004367173 0.006336835761910714 1.3820541933107222e-14 0.0 0.0
0.0 0.16982717026235056 -0.1458637381573776 0.14546629486874219 0.00039744328863536575 0.043197886394822194 0.0 0.0
0.0 0.17405154170254747 -0.15054165840356987 0.14954471696697702 0.000996941436593036 0.024478455903563408 0.0 0.0
0.0 0.16382647552512014 -0.14197411976197205 0.14057328351264306 0.0014008362493289682 0.017534471143378368 0.0 0.0
0.0 0.1464279533366709 -0.12694078504055267 0.1254158736254591 0.001524911415093783 0.015839011094554555 0.0 0.0
0.0 0.1265966915304802 -0.10978370389548611 0.10826341837883427 0.0015202855166518718 0.014774216793003662 0.0 0.0
0.0 0.10670523332841847 -0.0925811909425457 0.0911137291473175 0.0014674617952282795 0.013216091244105704 0.0 0.0
0.0 0.08776068955788181 -0.0762098834293929 0.07481950922391378 0.0013903742054791523 0.011417232854650938 0.0 0.0
0.0 0.07050523751352165 -0.061059536822154856 0.05975868214687867 0.0013008546752761201 0.00965000635242166 0.0 0.0
0.0 0.054421786124944915 -0.0473216259591318 0.046113729199560555 0.0012078967595711796 0.007949973117468914 0.0 0.0
0.0 0.04033454392206966 -0.03510252851687143 0.033984689127454795 0.0011178393894166077 0.006228996682688871 0.0 0.0
0.0 0.028057274621457722 -0.02454362837667413 0.023512101639143156 0.001031526737530984 0.004497868105314665 0.0 0.0
0.0 0.017918693789415217 -0.01582757459213134 0.014885267304839448 0.0009423072872919039 0.00290015707366463 0.0 0.0
0.0 0.010190445277336318 -0.009105363683178266 0.008279736053673985 0.0008256276295042717 0.0015918328283707384 0.0 0.0
0.0 0.004728555495262394 -0.004382977454099961 0.0037530038164201073 0.0006299736376798609 0.0006652475958283566 0.0 0.0
0.0 0.001737318859700862 -0.001472230728230975 0.0011524499709520027 0.00031978075727896987 0.00012950127687585115 0.0 0.0
0.0 0.0002109356240441339 -0.00020798923923102285 0.00014765173406378323 6.0337505167239266e-05 4.147570056709349e-06 0.0 0.0
0.0 -6.2464478423914035e-06 5.9806038736058775e-06 -4.889705119700777e-06 -1.0908987539051308e-06 -5.209179107752511e-06 0.0 0.0
0.0 0.0 0.0 0.0 0.0 0.0 0.0 0.0
0.0 0.0 0.0 0.0 0.0 0.0 0.0 0.0
0.0 0.0 0.0 0.0 0.0 0.0 0.0 0.0
0.0 0.0 0.0 0.0 0.0 0.0 0.0 0.0
0.0 0.0 0.0 0.0 0.0 0.0 0.0 0.0
0.0 0.0 0.0 0.0 0.0 0.0 0.0 0.0
0.0 -3.855172219933926e-06 2.1307928641722504e-06 -2.727191487165506e-06 5.963986229932539e-07 5.909954682440566e-06 0.0 0.0
0.0 0.0004774864929068942 -0.00039681060419881825 0.0002863191302451592 0.000110491473953659 6.052354834055422e-05 0.0 0.0
0.0 0.002373483371810502 -0.002121610194699964 0.0017031013507020347 0.0004185088439979276 4.747801252621216e-05 0.0 0.0
0.0 0.006063825387577079 -0.005542451516798622 0.004843045498325685 0.0006994060184729416 -0.0002329300891484769 0.0 0.0
0.0 0.01215465989763815 -0.01087536992277602 0.009999586946954193 0.00087578297582181 -0.0007155934615724781 0.0 0.0
0.0 0.020814880329832544 -0.018375641950717468 0.017386264753241468 0.0009893771974760104 -0.0013990587735222685 0.0 0.0
0.0 0.03202576107320699 -0.028096857615919915 0.02701204076381852 0.0010848168521013829 -0.0022526576041449232 0.0 0.0
0.0 0.045703331816484935 -0.03991536060198457 0.038737666933198696 0.001177693668785878 -0.0031879009698192284 0.0 0.0
0.0 0.061728398930917236 -0.053646859048919075 0.05237345250965123 0.0012734065392678603 -0.004137407146126773 0.0 0.0
0.0 0.0793210288822056 -0.06912795843658624 0.06775613135653609 0.0013718270800500698 -0.0051239539527348586 0.0 0.0
0.0 0.0990073650895451 -0.08616938384554045 0.08470510983951857 0.0014642740060218143 -0.006170503397578758 0.0 0.0
0.0 0.1201340907975423 -0.10446297505027514 0.1029258061558011 0.0015371688944741013 -0.007229710914548534 0.0 0.0
0.0 0.14205116982094285 -0.12342174986517096 0.12184368412291513 0.0015780657422556125 -0.008101246056797908 0.0 0.0
0.0 0.16358801722553334 -0.14203102599559858 0.14044873506382943 0.001582290931769236 -0.00839856286211943 0.0 0.0
0.0 0.18273609813710362 -0.15858574739718356 0.15703786543980855 0.0015478819573750795 -0.008304686379151346 0.0 0.0
0.0 0.1955679189723698 -0.16965414875299661 0.16834491765914614 0.0013092310938502406 -0.01177631054784015 0.0 0.0
0.0 0.19431267448655995 -0.16781015731362084 0.16748679876048056 0.00032335855314029934 -0.03213264796135294 0.0 0.0
0.0 0.18553900035428122 -0.1557656773900784 0.14954691929591965 0.006218758094158587 6.95971058561895e-15 0.0 0.0
0.0 0.1943126744865293 -0.16781015731359245 0.1674867987604528 0.0003233585531396767 0.03213264796137194 0.0 0.0
0.0 0.19556791897230386 -0.16965414875293897 0.16834491765908877 0.001309231093850086 0.011776310547860953 0.0 0.0
0.0 0.18273609813701505 -0.15858574739710707 0.1570378654397318 0.001547881957375148 0.008304686379159201 0.0 0.0
0.0 0.1635880172254275 -0.14203102599550738 0.14044873506373803 0.0015822909317694531 0.008398562862118906 0.0 0.0
0.0 0.1420511698208326 -0.12342174986507488 0.12184368412282029 0.0015780657422545265 0.008101246056796052 0.0 0.0
0.0 0.12013409079742458 -0.1044629750501734 0.10292580615569952 0.0015371688944739673 0.007229710914546564 0.0 0.0
0.0 0.09900736508943175 -0.08616938384544201 0.08470510983942113 0.001464274006020743 0.00617050339757422 0.0 0.0
0.0 0.0793210288820925 -0.06912795843648849 0.06775613135643828 0.0013718270800501557 0.005123953952729873 0.0 0.0
0.0 0.06172839893080899 -0.05364685904882537 0.05237345250955771 0.0012734065392676892 0.004137407146119185 0.0 0.0
0.0 0.04570333181639316 -0.03991536060190507 0.038737666933119794 0.0011776936687852757 0.003187900969809242 0.0 0.0
0.0 0.0320257610731324 -0.028096857615854575 0.027012040763753756 0.001084816852100842 0.0022526576041375012 0.0 0.0
0.0 0.020814880329778365 -0.018375641950669423 0.01738626475319414 0.0009893771974752697 0.0013990587735181986 0.0 0.0
0.0 0.012154659897600582 -0.010875369922742439 0.00999958694692136 0.0008757829758210728 0.0007155934615691102 0.0 0.0
0.0 0.006063825387552857 -0.005542451516776544 0.004843045498304782 0.0006994060184717596 0.00023293008914592513 0.0 0.0
0.0 0.002373483371797145 -0.002121610194688175 0.0017031013506919282 0.00041850884399624686 -4.74780125265626e-05 0.0 0.0
0.0 0.0004774864929027939 -0.00039681060419589383 0.000286319130243007 0.00011049147395288675 -6.0523548340221085e-05 0.0 0.0
0.0 -3.8551722199648655e-06 2.1307928637303347e-06 -2.727191486818191e-06 5.963986230879331e-07 -5.909954682295754e-06 0.0 0.0
0.0 0.0 0.0 0.0 0.0 0.0 0.0 0.0
0.0 0.0 0.0 0.0 0.0 0.0 0.0 0.0
0.0 0.0 0.0 0.0 0.0 0.0 0.0 0.0
0.0 0.0 0.0 0.0 0.0 0.0 0.0 0.0
0.0 0.0 0.0 0.0 0.0 0.0 0.0 0.0
0.0 0.0 0.0 0.0 0.0 0.0 0.0 0.0
0.0 2.700019025304044e-05 -2.570626349981317e-05 1.652840681805628e-05 9.177856681756982e-06 1.1542156753231383e-05 0.0 0.0
0.0 0.0008049042784113988 -0.0006334220651349825 0.0004544510007115532 0.00017897106442342942 0.0001554559599269386 0.0 0.0
0.0 0.0030248062931732224 -0.0027075505235507596 0.002151209817044152 0.0005563407065066046 0.0003513233849002761 0.0 0.0
0.0 0.0071121730837499664 -0.006526948874579907 0.005631598603020384 0.0008953502715595254 0.0004611808202597792 0.0 0.0
0.0 0.013700114137953377 -0.012339825948691667 0.011181840859684896 0.0011579850890067718 0.0005141563516087122 0.0 0.0
0.0 0.022953467575877892 -0.020463602848334768 0.019069303497957997 0.0013942993503767438 0.0005001826571772961 0.0 0.0
0.0 0.035054197139490505 -0.031001054981818255 0.029347254076440548 0.0016538009053776513 0.00038084591931328553 0.0 0.0
0.0 0.04988352144085621 -0.04386097338262615 0.04190386325635691 0.0019571101262692257 0.00019424082154998086 0.0 0.0
0.0 0.06689784377873345 -0.05886046361099559 0.056552388636478754 0.0023080749745168104 -5.561246399212339e-05 0.0 0.0
0.0 0.08620773478866851 -0.0757830550706254 0.07308839411513969 0.002694660955485763 -0.00040496223612703896 0.0 0.0
0.0 0.10747370783858366 -0.0943830578351037 0.09128619820795165 0.0030968596271521306 -0.0008230054680432074 0.0 0.0
0.0 0.13024683913463336 -0.11426176827306021 0.11077978137986394 0.0034819868931960695 -0.0013344091810637785 0.0 0.0
0.0 0.15371334064978315 -0.13466631723713252 0.13086092624192366 0.0038053909952090103 -0.0018506914141792358 0.0 0.0
0.0 0.17641675598689915 -0.1543557102801844 0.15034161995674677 0.004014090323437494 -0.0021180104828648783 0.0 0.0
0.0 0.19634219922133317 -0.1716141344545607 0.16753402149674787 0.004080112957812561 -0.0018910552253657634 0.0 0.0
0.0 0.2107094644370124 -0.18425655236848346 0.18010001536501635 0.004156537003467376 -0.0036045254357334293 0.0 0.0
0.0 0.21355276049046812 -0.18724724761293182 0.1829624090506135 0.00428483856231824 -0.02425323950995253 0.0 0.0
0.0 0.20944617493129536 -0.17853361424093112 0.16731895740716338 0.01121465683376743 1.2906342661267445e-15 0.0 0.0
0.0 0.21355276049043725 -0.18724724761290365 0.18296240905058764 0.004284838562315895 0.024253239509959525 0.0 0.0
0.0 0.2107094644369376 -0.18425655236841873 0.18010001536495204 0.00415653700346666 0.0036045254357418323 0.0 0.0
0.0 0.19634219922123514 -0.1716141344544753 0.16753402149666471 0.004080112957810824 0.0018910552253668077 0.0 0.0
0.0 0.17641675598678988 -0.1543557102800887 0.15034161995665318 0.004014090323435199 0.002118010482861969 0.0 0.0
0.0 0.1537133406496642 -0.13466631723702854 0.13086092624182186 0.003805390995206489 0.001850691414177267 0.0 0.0
0.0 0.13024683913450513 -0.1142617682729486 0.11077978137975335 0.0034819868931951054 0.00133440918106305 0.0 0.0
0.0 0.10747370783846096 -0.09438305783499626 0.09128619820784692 0.003096859627149209 0.0008230054680407797 0.0 0.0
0.0 0.08620773478854829 -0.07578305507052052 0.07308839411503672 0.0026946609554838654 0.0004049622361242712 0.0 0.0
0.0 0.06689784377861192 -0.05886046361089021 0.05655238863637427 0.0023080749745158368 5.5612463988696445e-05 0.0 0.0
0.0 0.049883521440755446 -0.043860973382538124 0.04190386325627049 0.0019571101262676467 -0.00019424082155248407 0.0 0.0
0.0 0.03505419713940941 -0.031001054981747607 0.02934725407637131 0.0016538009053762887 -0.0003808459193148789 0.0 0.0
0.0 0.022953467575821482 -0.020463602848284985 0.01906930349790973 0.0013942993503752589 -0.0005001826571781778 0.0 0.0
0.0 0.013700114137912795 -0.012339825948655273 0.011181840859649718 0.001157985089005551 -0.0005141563516083501 0.0 0.0
0.0 0.007112173083724277 -0.006526948874556344 0.00563159860299824 0.0008953502715580976 -0.00046118082025924426 0.0 0.0
0.0 0.0030248062931589196 -0.002707550523537322 0.002151209817032575 0.0005563407065047487 -0.00035132338489916724 0.0 0.0
0.0 0.0008049042784054304 -0.00063342206513021 0.00045445100070804254 0.0001789710644221686 -0.0001554559599260111 0.0 0.0
0.0 2.7000190252695765e-05 -2.5706263499674473e-05 1.652840681799081e-05 9.177856681683644e-06 -1.1542156753067233e-05 0.0 0.0
0.0 0.0 0.0 0.0 0.0 0.0 0.0 0.0
0.0 0.0 0.0 0.0 0.0 0.0 0.0 0.0
0.0 0.0 0.0 0.0 0.0 0.0 0.0 0.0
SCALARS Wm float 4
LOOKUP_TABLE default
13.281867533220094 2.041152619398905 5.618612747765511 5.622102166055678
6.760633723512284 3.2237129099799042 1.5965068141788024 1.9404139993535798
0.7653006758063352 0.6992939435879155 0.011696879258695128 0.054309852959724514
0.5632312572353033 0.525441725889674 0.01047937633090528 0.027310155014724023
1.1825316357190856 0.8121816901134264 0.13369884894193076 0.23665109666372733
2.628196378892776 1.1968243905461513 0.541448699803615 0.8899232885430093
5.521066586144406 1.7377125133898343 1.6565814138787802 2.126772658875793
10.271082387936964 2.430386669704884 3.743438637355715 4.097257080876362
17.349919900919225 3.327884988311944 7.1448406557756226 6.877194256831649
27.087510932656294 4.459840194657107 12.13396523423097 10.493705503768224
39.61492776692021 5.83843134774982 18.862193562565693 14.914302856604706
54.79785974329502 7.457319776007154 27.26290289702297 20.07763707026492
72.68080299986543 9.288947874581751 37.47737707711787 25.91447804816582
93.09750934508452 11.30227752590535 49.440350276232486 32.354881542946714
115.66723441299646 13.34329275683675 63.034917386258314 39.28902426990135
139.64129082937234 15.154823983475385 77.95490600514287 46.53156084075407
163.76171982355086 16.440205084288266 93.51076704919606 53.81074769006656
186.40306434724562 16.988556794254233 108.71827773648026 60.69622981651095
205.86054535928668 16.879706567437562 122.29639944784913 66.68443934400011
219.53326162084457 15.841811805824234 132.5119188657394 71.17953094928079
223.90520827423714 13.864467048374298 136.90487433578068 73.13586689008224
219.5332616208331 15.841811805849199 132.5119188657136 71.17953094927034
205.8605453592043 16.87970656741709 122.29639944780615 66.68443934398094
186.4030643471465 16.988556794249078 108.71827773641549 60.696229816481946
163.76171982345494 16.440205084306218 93.5107670491183 53.81074769003035
139.64129082925348 15.154823983464889 77.95490600506926 46.53156084071939
115.66723441287334 13.343292756820121 63.03491738618743 39.28902426986578
93.09750934497875 11.302277525902406 49.44035027616515 32.35488154291119
72.68080299976441 9.288947874578868 37.477377077054776 25.914478048130807
54.79785974320101 7.4573197760023175 27.26290289696687 20.07763707023187
39.614927766837525 5.8384313477375525 18.86219356252256 14.91430285657739
27.087510932593737 4.45984019465061 12.133965234197866 10.493705503745277
17.34991990087904 3.3278849883110535 7.144840655753508 6.8771942568144855
10.271082387907272 2.430386669699322 3.743438637342979 4.097257080864971
5.521066586126477 1.7377125133859812 1.6565814138719737 2.126772658868524
2.628196378884377 1.1968243905446654 0.5414486998009106 0.8899232885387997
1.1825316357160967 0.8121816901126251 0.1336988489410504 0.23665109666242112
0.5632312572345977 0.5254417258890218 0.010479376330874915 0.027310155014700674
0.7653006758053884 0.6992939435873553 0.011696879258582097 0.05430985295945048
6.760633723506862 3.2237129099812023 1.596506814175494 1.940413999350167
13.281867533191841 2.0411526193846545 5.618612747757763 5.622102166049435
15.921793657770294 6.908857856148122 4.3784124488138705 4.634523352808298
2.766304916553141 0.6077502022704455 0.9162187376218454 1.2423359766608502
0.2803753396969121 0.32770301823067705 -0.016086051440700428 -0.031241627093064474
0.43566971588669473 0.4224350315543328 0.002602281983421386 0.010632402348940567
0.8892725660843476 0.6626624563513399 0.07115427813230002 0.15545583160070814
2.0963797713522117 0.981677148756914 0.42399008084496087 0.6907125417503367
4.529045672641479 1.3564467054083038 1.35500746444405 1.8175915027891258
8.68886914314287 1.8247496143440392 3.2260347739071205 3.6380847548917092
14.922868739226328 2.380499728236943 6.3165625420204385 6.225806468968951
23.441933104118043 3.018122283589512 10.833714190494579 9.590096630033944
34.324701240497745 3.724042459783583 16.910814225165318 13.689844555548845
47.603647704477275 4.506934562793425 24.63553821492098 18.46117492676287
63.0022936957769 5.372868292254515 33.77705050207401 23.852374901448375
80.7115254737979 6.2857276230566645 44.62318921173993 29.802608639001328
100.34598286633707 7.1805165556129325 56.93790585578301 36.22756045494121
121.33532381125785 7.923442955850858 70.4530447443849 42.95883611102207
142.70361823773044 8.355956346604582 84.63356213331325 49.71409975781255
163.0764525307835 8.369044523524579 98.57359949897038 56.13380850828858
180.6179649835468 7.866605778839115 111.02386149451061 61.72749771019706
193.0198588344919 6.916869136716862 120.29943100856734 65.80355868920775
197.75018766808128 5.832049168646097 124.3568481881754 67.56129031125978
193.01985883444883 6.916869136703536 120.29943100854656 65.80355868919871
180.61796498350103 7.86660577885203 111.02386149447004 61.727497710179044
163.07645253069668 8.369044523520474 98.5735994989134 56.13380850826284
142.70361823762482 8.355956346598564 84.63356213324545 49.71409975778073
121.33532381116606 7.923442955861132 70.4530447443162 42.958836110988756
100.34598286623546 7.180516555608824 56.93790585571842 36.22756045490821
80.71152547370579 6.285727623058703 44.623189211678486 29.802608638968586
63.00229369568692 5.372868292253813 33.77705050201699 23.852374901416077
47.603647704391804 4.506934562788184 24.635538214870927 18.461174926732674
34.32470124042909 3.7240424597803874 16.910814225125655 13.689844555523043
23.441933104061807 3.0181222835833523 10.833714190465336 9.590096630013113
14.92286873918881 2.3804997282340024 6.316562542001254 6.225806468953548
8.688869143117438 1.8247496143417263 3.2260347738950896 3.638084754880621
4.52904567262653 1.3564467054053406 1.3550074644383885 1.8175915027827994
2.09637977134541 0.9816771487554723 0.4239900808426249 0.6907125417473143
0.8892725660823813 0.6626624563506951 0.07115427813178797 0.15545583159989834
0.4356697158863291 0.4224350315538664 0.0026022819834278766 0.010632402349034733
0.28037533969693407 0.3277030182305413 -0.016086051440631823 -0.031241627092975316
2.7663049165455216 0.6077502022690295 0.916218737618811 1.2423359766576816
15.921793657743887 6.908857856136746 4.378412448805764 4.634523352801361
12.064411158445733 5.510692240461163 3.0580070237384582 3.4957118942461105
1.7259628208102358 0.2536498995047378 0.6123966627152584 0.8599162585902405
0.17486108710824053 0.1744688052348379 6.149749410508596e-05 0.0003307843792974872
0.3220660207001467 0.3237047816866754 -0.0005882063234066528 -0.0010505546631220022
0.6705425541262741 0.5685018860698945 0.027104957255366963 0.07493571080101286
1.6305625034454627 0.8788680228413741 0.2754393938840119 0.4762550867200774
3.6702439971321867 1.2374156163278862 0.9986765084516557 1.4341518723526432
7.298164092135126 1.6698697002047875 2.581404806326415 3.0468895856039246
12.776447343171995 2.1646988422759534 5.239185596138014 5.372562904758025
20.291952668496442 2.7155510857551195 9.177386457494988 8.399015125246336
29.847452368859603 3.320920156232587 14.45520851959407 12.071323693032951
41.37634277104595 3.99173513402061 21.055059255426208 16.329548381599118
54.999495967955184 4.7465108825038005 29.129750475762297 21.123234609689113
70.37481705257484 5.567718433366899 38.38296634299441 26.424132276213474
87.60230251570793 6.387967664576374 49.06028826425482 32.15404658687668
106.1081649171989 7.116081132829299 60.808315880645694 38.18376790372395
125.08305388443324 7.6162021543138305 73.17363955885826 44.293212171261196
143.2623387683912 7.726166409221497 85.42089929318655 50.115273065983175
158.89818974059455 7.317660644124801 96.40341574628309 55.177113350186644
169.97413269608495 6.597945957821946 104.54143944471001 58.83474729355292
174.00606097789858 5.244290152368591 108.25843871760713 60.5033321079229
169.97413269605892 6.597945957818049 104.54143944469499 58.8347472935458
158.8981897405493 7.3176606441349765 96.40341574624532 55.17711335016909
143.26233876832237 7.726166409223122 85.42089929313856 50.11527306596064
125.08305388434896 7.616202154313172 73.17363955880187 44.293212171233904
106.10816491710852 7.116081132829567 60.80831588058531 38.183767903693685
87.60230251561285 6.387967664565092 49.06028826419975 32.15404658684801
70.37481705249172 5.56771843336805 38.382966342940094 26.42413227618354
54.99949596787642 4.746510882501686 29.12975047571384 21.12323460966091
41.3763427709763 3.991735134021349 21.055059255382822 16.32954838157215
29.84745236879651 3.3209201562263 14.45520851956019 12.071323693010028
20.291952668449753 2.715551085751512 9.177386457470245 8.399015125227994
12.77644734313947 2.164698842274018 5.239185596121331 5.3725629047441235
7.29816409211257 1.6698697002023537 2.5814048063161237 3.0468895855940934
3.670243997119931 1.2374156163260497 0.9986765084469772 1.4341518723469042
1.6305625034399442 0.8788680228395271 0.2754393938824794 0.47625508671793726
0.670542554124821 0.568501886069101 0.027104957255129816 0.07493571080059
0.3220660206997817 0.32370478168623773 -0.0005882063233944885 -0.0010505546630614807
0.1748610871081535 0.17446880523475183 6.149749410430562e-05 0.00033078437929737377
1.7259628208045052 0.25364989950404637 0.612396662712904 0.8599162585875544
12.06441115841928 5.510692240449899 3.058007023730563 3.495711894238825
9.135965072864899 4.29460114314384 2.17456537253391 2.666798557187152
1.1634884376446162 0.11743201617080591 0.412421207856186 0.633635213617623
0.122328280535355 0.122328280535355 0.0 0.0
0.2403121855661828 0.24153489080007137 -0.00017645865858117822 -0.0010462465753073454
0.5030156339759173 0.47493240119575936 0.0057597398206049215 0.022323492959553083
1.2137816205195522 0.7608413003273191 0.15035467466294333 0.30258564552929
2.905106090941879 1.119680304108235 0.7135125270340911 1.0719132597995522
5.964317360043895 1.5112339213814772 1.9827473286527382 2.4703361100096797
10.702442355706555 1.9496141054261629 4.226633859445744 4.526194390834645
17.209823381537117 2.4232423646098336 7.577208397134545 7.209372619792741
25.43913586715314 2.9357724295013847 12.048969340626018 10.454394097025746
35.40653579306416 3.5114898057062147 17.696846512080356 14.19819947527758
46.98370295357138 4.162731158055816 24.416761920933958 18.404209874581618
60.38468542114609 4.883706142410797 32.45732966197941 23.043649616755882
75.20135499313949 5.642618392116713 41.47810851770638 28.08062808331643
91.19302879207913 6.35850139254881 51.42506247756417 33.40946492196616
107.86032223935297 6.912420503019633 62.11067971126796 38.8372220250654
123.95087799556674 7.133320495179538 72.7437198041482 44.073837696239025
137.90429913473923 6.894388204343207 82.33392390890253 48.67598702149347
147.94390132581717 6.31852069101534 89.55493473112762 52.070445903674226
151.60942926548717 4.700940311938129 93.18203577120669 53.72645318234232
147.94390132581321 6.318520691034027 89.55493473111198 52.07044590366719
137.90429913469302 6.894388204343952 82.33392390887076 48.67598702147833
123.95087799550862 7.133320495183854 72.74371980410606 44.07383769621874
107.86032223927862 6.912420503014532 62.11067971122191 38.837222025042145
91.19302879200033 6.358501392544977 51.42506247751477 33.409464921940604
75.20135499306515 5.642618392114553 41.478108517659756 28.080628083290797
60.38468542107251 4.883706142409993 32.45732966193311 23.04364961672941
46.98370295350241 4.162731158051293 24.4167619208937 18.4042098745574
35.40653579299741 3.5114898056969177 17.696846512045532 14.198199475254977
25.43913586710216 2.9357724294992713 12.048969340597296 10.454394097005595
17.209823381496832 2.4232423646094565 7.577208397111981 7.209372619775388
10.702442355677407 1.9496141054240592 4.226633859431254 4.526194390822098
5.9643173600251815 1.5112339213783759 1.9827473286451451 2.470336110001658
2.9051060909310222 1.1196803041062846 0.7135125270299881 1.07191325979475
1.2137816205156375 0.7608413003266371 0.15035467466166555 0.3025856455273354
0.5030156339750147 0.47493240119513014 0.005759739820502894 0.02232349295938134
0.24031218556600337 0.24153489079989338 -0.00017645865858028617 -0.001046246575309716
0.12232828053532348 0.12232828053532348 0.0 0.0
1.163488437639908 0.11743201617041808 0.41242120785419284 0.6336352136152974
9.135965072843003 4.294601143134668 2.174565372527656 2.666798557180684
6.820583138425119 3.323449926217831 1.4967197557829814 2.0004134564243103
0.8519944587031442 0.11401818986888348 0.29503068449439734 0.44294558433986264
0.1113569164189411 0.1113569164189411 0.0 0.0
0.1923970604075465 0.19238703820036193 4.546341614585216e-06 5.475865569984542e-06
0.37859141457141443 0.3822878427632913 -0.002523130162949995 -0.0011732980289266945
0.8856420786464779 0.6536065652323674 0.06925558383460004 0.16277992957951026
2.2063007931075864 0.9817329571499223 0.4763935462652086 0.7481742896924566
4.707722292176772 1.3509648258874407 1.4415747058910098 1.9151827603983236
8.701419737034914 1.7353888374966449 3.274538492881279 3.6914924066569936
14.208873629093372 2.1398436638908267 6.042787891551322 6.026242073651224
21.180860993655408 2.5731097167300168 9.76650457536511 8.841246701560278
29.562527313812357 3.058361097616318 14.432873458966515 12.071292757229532
39.378248566817604 3.619781475521694 20.0724661549475 15.686000936348416
50.48052268501206 4.254694926796905 26.54902943921421 19.67679831900094
63.058136828083576 4.934820246263433 34.11176921294492 24.01154736887525
76.77160228432729 5.629551926392148 42.518887377435874 28.623162980499256
91.02782418392354 6.239796493974505 51.41070221096509 33.37732547898394
105.08971986992599 6.596825069680223 60.477326071145406 38.01556872910034
117.54628016273168 6.538084410035901 68.84077709177757 42.167418660918216
126.82314262805716 6.086830497479272 75.38896387582841 45.34734825474941
130.2833509345342 4.185519292786045 79.01357843208869 47.08425320965948
126.82314262803422 6.086830497478218 75.3889638758137 45.34734825474232
117.54628016270006 6.538084410044383 68.84077709175072 42.16741866090496
105.08971986986869 6.596825069674911 60.47732607111101 38.01556872908276
91.02782418386406 6.239796493971246 51.41070221092795 33.377325478964906
76.77160228426702 5.629551926395535 42.518887377394584 28.62316298047687
63.05813682802021 4.934820246262899 34.111769212904704 24.01154736885266
50.480522684946294 4.254694926789119 26.54902943917778 19.676798318979387
39.37824856676199 3.619781475519484 20.07246615491474 15.686000936327751
29.562527313760235 3.058361097608511 14.432873458940097 12.071292757211628
21.180860993609837 2.573109716726851 9.766504575340619 8.841246701542367
14.208873629055983 2.139843663887614 6.042787891532361 6.0262420736360065
8.70141973701097 1.7353888374946702 3.2745384928698784 3.6914924066464176
4.707722292161385 1.3509648258854148 1.4415747058845778 1.9151827603913927
2.2063007930995306 0.9817329571482479 0.47639354626237307 0.7481742896889104
0.8856420786434381 0.6536065652318251 0.06925558383368415 0.16277992957792867
0.37859141457061335 0.3822878427623781 -0.0025231301629350254 -0.0011732980288298447
0.19239706040732238 0.1923870382001792 4.546341611256049e-06 5.4758655319494654e-06
0.1113569164187942 0.1113569164187942 0.0 0.0
0.8519944586994255 0.1140181898686598 0.2950306844927686 0.44294558433799835
6.8205831384076845 3.3234499262105515 1.4967197557781708 2.000413456418958
4.999075221667415 2.549929729984833 1.0038712781901578 1.445274213492424
0.6043932901910306 0.14358486951473243 0.1652480568886968 0.29556036378760137
0.12576680036203844 0.12576680036203844 0.0 0.0
0.17051313392222622 0.17048260145774968 2.4295879559160967e-06 2.8102876520637308e-05
0.299120523127346 0.3079559813416401 -0.0021667898205055677 -0.006668668393788496
0.6304311416479405 0.5400870015392758 0.019766794004144803 0.07057734610451986
1.56646623582119 0.8288821092537956 0.2549484163581539 0.4826357102092401
3.589770260188721 1.1806058594982731 1.0176930554518857 1.391471345238563
6.768487663832551 1.5211242401702496 2.3736687877930462 2.8736946358692568
11.328834008911908 1.8661656435851308 4.608361133629687 4.854307231697086
17.05592029502512 2.228309298430984 7.592081377809336 7.235529618784795
23.903897764094502 2.636010973594204 11.31587808349553 9.952008707004781
31.872846997381515 3.1130356841364906 15.782929632220402 12.976881681024627
41.03838562354561 3.665385959631479 21.059026219649947 16.313973444264185
51.29474940315631 4.2849368363026485 27.056599318299227 19.953213248554416
62.5322422332309 4.931923289145976 33.75440741546547 23.84591152861948
74.65959034529756 5.572659667515472 41.19770305515421 27.889227622627878
86.71440247270657 6.085615655801392 48.69756484511903 31.931221971786147
97.71181624596007 6.229949538603666 55.80989299345376 35.67197371390263
106.41358711270551 5.903981304525583 61.82131721830114 38.688288589878816
109.80775273985972 3.7054081914348203 65.55666192441093 40.545682624014006
106.41358711269021 5.903981304525296 61.82131721829121 38.68828858987364
97.71181624593187 6.229949538608952 55.809892993431724 35.671973713891276
86.71440247266476 6.0856156558001215 48.69756484509219 31.93122197177243
74.65959034524369 5.572659667507587 41.197703055124286 27.88922762261177
62.53224223317767 4.931923289146764 33.754407415431075 23.84591152859986
51.29474940310573 4.284936836303747 27.056599318266688 19.953213248535295
41.03838562349761 3.665385959628783 21.059026219622112 16.313973444246702
31.87284699733381 3.1130356841318174 15.78292963219447 12.976881681007528
23.90389776405403 2.6360109735917003 11.31587808347332 9.95200870698901
17.05592029498916 2.2283092984289032 7.592081377790181 7.235529618770077
11.328834008882097 1.8661656435800054 4.6083611336164045 4.854307231685688
6.768487663812022 1.5211242401673868 2.373668787784158 2.8736946358604754
3.589770260176064 1.1806058594957507 1.0176930554470454 1.3914713452332677
1.5664662358149688 0.8288821092520509 0.25494841635630283 0.48263571020661455
0.6304311416457846 0.5400870015381765 0.019766794003798927 0.07057734610380897
0.29912052312684567 0.3079559813408979 -0.002166789820462534 -0.006668668393589697
0.17051313392203216 0.170482601457555 2.4295879558644836e-06 2.810287652127801e-05
0.12576680036186602 0.12576680036186602 0.0 0.0
0.6043932901879774 0.1435848695144123 0.16524805688748095 0.2955603637860847
4.999075221654414 2.549929729979741 1.0038712781865864 1.4452742134880887
3.537064389854723 1.927099784756776 0.6168509672045817 0.9931136378933655
0.4509748903631014 0.18761713349934167 0.08769816637108824 0.17565959049267138
0.15115019429392007 0.15116039214615912 -5.595583971474408e-07 -9.638293841952227e-06
0.16665708964758508 0.16664280363146805 9.176681420014073e-07 1.3368347975063384e-05
0.252091050669712 0.2565562370315961 -0.000911447151013734 -0.003553739210870316
0.4550889491804794 0.44276887225838335 -0.0011760334585430852 0.013496110380639154
1.0741129755748984 0.6867553955922475 0.12023116153008825 0.2671264184525623
2.4993575589206576 0.9846266853797664 0.5812549081727978 0.9334759653680942
5.063190437003348 1.3077590906671068 1.6679579974616119 2.0874733488746307
8.547993036708263 1.5975028854010638 3.2535056967446607 3.696984454562538
13.10175125582159 1.9005383936039086 5.5589461969551195 5.642266665262562
18.484250030180306 2.2402079414450253 8.400415621685733 7.843626467049548
24.70776776658691 2.6418617390231933 11.784953547051245 10.280952480512475
31.847698746678013 3.119450918312471 15.762869980877106 12.96537784748844
39.91921857990387 3.669190828554541 20.343086353136236 15.906941398213101
48.98643994625079 4.275366311919404 25.63550155543731 19.07557207889408
58.51972013550227 4.916523016585466 31.188353906226236 22.41484321269057
68.6775816284691 5.553442278552724 37.31726496812809 25.806874381788262
78.50664641177539 5.938842939262814 43.44778936185891 29.120014110653678
86.68406485893152 5.7789654017107175 48.88064893921644 32.024450518004365
90.16888317791985 3.2749549897042267 52.82257573125808 34.07135245695753
86.68406485891481 5.778965401702986 48.88064893921057 32.02445051800124
78.50664641174542 5.938842939256135 43.44778936184371 29.120014110645595
68.677581628429 5.55344227854352 37.31726496810824 25.806874381777217
58.51972013547473 4.916523016597592 31.18835390620108 22.414843212676068
48.98643994620437 4.275366311914147 25.63550155541143 19.07557207887879
39.919218579860676 3.669190828551754 20.343086353111453 15.906941398197484
31.847698746639363 3.1194509183092167 15.762869980855799 12.965377847474356
24.70776776655027 2.6418617390192476 11.784953547032035 10.280952480498986
18.484250030149365 2.2402079414465095 8.400415621667186 7.843626467035667
13.101751255794332 1.9005383936037004 5.55894619694028 5.642266665250352
8.547993036687089 1.5975028853988498 3.2535056967347247 3.6969844545535144
5.063190436988003 1.3077590906661674 1.6679579974543997 2.087473348867437
2.4993575589120147 0.9846266853778526 0.5812549081697905 0.9334759653643712
1.0741129755706658 0.6867553955906912 0.12023116152903596 0.26712641845093893
0.45508894917927173 0.4427688722574784 -0.0011760334586233736 0.013496110380417085
0.25209105066922943 0.2565562370310712 -0.0009114471510004994 -0.0035537392108412787
0.16665708964737103 0.1666428036312593 9.176681415783688e-07 1.336834797013782e-05
0.15115019429348128 0.15116039214570803 -5.595583963068968e-07 -9.638293830423766e-06
0.4509748903609569 0.18761713349918732 0.08769816637024402 0.17565959049152532
3.5370643898447227 1.927099784752274 0.6168509672022505 0.9931136378901989
2.473274044843876 1.469174482971591 0.38761518566870046 0.6164843762035858
0.33042358148516165 0.21472777659461295 0.027611174281053655 0.088084630609495
0.1776907894217245 0.17757602031990263 1.104493144313076e-05 0.00010372417037869753
0.17424966445526122 0.1742111726887399 2.9882132222405518e-06 3.5503553299094145e-05
0.22674299815101523 0.22986634767629588 -0.0005644778039928721 -0.0025588717212876224
0.3492321005222729 0.36011157694335943 -0.005001695022042808 -0.005877781399043871
0.6980930350803446 0.547556530126647 0.03586659900581178 0.11466990594788576
1.6173684315279837 0.7891387547822568 0.2850768356465356 0.543152841099191
3.371315318773228 1.0638018084343044 0.9399899241128085 1.3675235862261148
6.041892025992339 1.329607817036974 2.1388306561077908 2.5734535528475755
9.344418963524756 1.5806814188886587 3.6978223681813196 4.065915176454781
13.307429915328157 1.8629935167889138 5.690606189277583 5.75383020926166
17.88726063675285 2.1981893196782996 8.08294976202572 7.606121555048824
23.1184837438745 2.602360679969338 10.874488111490015 9.641634952415147
29.130381627409797 3.0914263395063184 14.156438500958117 11.882516786945365
35.84662138593443 3.6489893301843757 17.86775422970513 14.329877826044921
43.29500972980482 4.257549534882353 22.102937996149308 16.934522198773145
51.23969448497293 4.968716472562593 26.59441018409119 19.67656782831917
59.540793304534155 5.616636276652034 31.40482346272644 22.51933356515568
67.39683009229006 5.713296328880203 36.38424683801417 25.299286925395712
71.17296854900984 2.908622516374315 40.64721537519655 27.617130657438956
67.396830092295 5.713296328889452 36.38424683801123 25.299286925394302
59.54079330452609 5.616636276659837 31.404823462716358 22.519333565149907
51.23969448494177 4.968716472550748 26.59441018407907 19.676567828311978
43.29500972976445 4.257549534873646 22.10293799612968 16.934522198761115
35.846621385902495 3.648989330182735 17.867754229686675 14.329877826033076
29.13038162737422 3.0914263394986023 14.156438500941466 11.882516786934154
23.118483743848934 2.602360679969443 10.874488111475015 9.641634952404473
17.88726063672811 2.198189319677054 8.082949762012316 7.606121555038729
13.307429915302231 1.862993516786138 5.690606189264837 5.753830209251251
9.344418963502658 1.5806814188870013 3.6978223681705007 4.065915176445152
6.041892025977007 1.3296078170370094 2.138830656099973 2.573453552840026
3.371315318761934 1.0638018084320908 0.9399899241085358 1.367523586221306
1.61736843152209 0.7891387547810188 0.28507683564461583 0.5431528410964546
0.6980930350778007 0.5475565301256666 0.035866599005305935 0.11466990594682812
0.3492321005212282 0.3601115769422246 -0.005001695022034903 -0.005877781398961716
0.2267429981506471 0.2298663476758898 -0.0005644778039774488 -0.0025588717212651677
0.17424966445483578 0.17421117268829114 2.988213223169451e-06 3.550355332140937e-05
0.17769078942119912 0.17757602031926842 1.1044931451411198e-05 0.00010372417047929004
0.33042358148384093 0.21472777659453354 0.027611174280598214 0.08808463060870891
2.4732740448363866 1.4691744829682423 0.38761518566688835 0.6164843762012562
1.6113981908905362 1.0879625702997426 0.17569516118647757 0.34774045940431575
0.25710939254716875 0.22847731210230587 0.0027067341705770778 0.02592534627428585
0.20002641460164236 0.20012286662485118 -1.015945430906788e-05 -8.629256889970841e-05
0.1881945490104585 0.1883897993165652 -1.875554223140288e-05 -0.00017649476387531884
0.21558432935153543 0.2180901894645252 -0.0004888375209837205 -0.002017022592006035
0.2932893521392956 0.3012893634081922 -0.003188343966143713 -0.004811667302752938
0.46361881146737155 0.432187844578411 0.002024730271157815 0.029406236617802735
0.9402270026621558 0.6020740405833775 0.10072703444625787 0.2374259276325206
1.9671665898357291 0.8084254787091195 0.4237420681575089 0.7349990429691003
3.6409310873969427 1.0265845768934356 1.0905091827719733 1.5238373277315345
5.819070148264927 1.2401927483907793 2.038464124081484 2.540413275792664
8.456841127939294 1.4772896490234548 3.2780035964429186 3.7015478824729198
11.48351927111802 1.7564920154169215 4.751375594937691 4.975651660763404
14.938794627798918 2.09179226961436 6.474422068195789 6.372580289988773
18.94211013491643 2.5105601195859877 8.512339775256113 7.9192102400743245
23.577175213146383 3.0245020275721872 10.912196072604205 9.640477112969997
28.800016930423464 3.6034611074961633 13.664685330898775 11.53187049202852
34.53053830607278 4.253411095851841 16.70538985316288 13.571737357058057
41.25109557587 5.12831995693569 20.266360335545173 15.856415283389131
48.79780021128938 5.71046271933213 24.61477737793323 18.472560114024013
53.04701774283181 2.6607712708849296 29.143964874391028 21.242281597555856
48.79780021128548 5.7104627193302235 24.614777377931922 18.472560114023338
41.25109557585369 5.128319956928413 20.266360335539588 15.856415283385672
34.530538306070426 4.253411095864339 16.705389853153847 13.571737357052228
28.80001693040585 3.603461107499971 13.664685330886002 11.531870492019872
23.577175213129497 3.0245020275764865 10.912196072591792 9.640477112961227
18.942110134900123 2.5105601195868545 8.512339775246273 7.919210240066999
14.938794627779824 2.091792269610783 6.474422068187073 6.372580289981974
11.483519271101931 1.7564920154148302 4.751375594930153 4.975651660756948
8.456841127924276 1.4772896490227674 3.278003596435335 3.701547882466179
5.819070148250809 1.2401927483895347 2.038464124075073 2.5404132757862024
3.6409310873852503 1.0265845768908526 1.0905091827675975 1.5238373277267998
1.967166589829811 0.8084254787073749 0.4237420681557002 0.7349990429667367
0.9402270026587378 0.6020740405827302 0.10072703444523462 0.23742592763077255
0.46361881146576644 0.4321878445775583 0.00202473027090599 0.02940623661730213
0.2932893521386096 0.3012893634071169 -0.0031883439660882256 -0.004811667302418889
0.21558432935126756 0.21809018946398462 -0.0004888375209538169 -0.0020170225917633807
0.18819454901001173 0.18838979931620414 -1.8755542238424852e-05 -0.00017649476395398606
0.20002641460134493 0.20012286662444387 -1.0159454303171077e-05 -8.62925687957952e-05
0.257109392546478 0.22847731210213845 0.0027067341703916796 0.02592534627394783
1.6113981908852608 1.0879625702972346 0.17569516118535553 0.3477404594026708
1.0281778993968629 0.8150504296380571 0.06353162042848222 0.14959584933032397
0.21130840120092784 0.22251317538112544 -0.005293663648365534 -0.005911110531832041
0.21592380340332656 0.21556697247388204 4.572740322863228e-05 0.0003111035262159272
0.20459715136836504 0.20442956450206234 1.6762217464655732e-05 0.0001508246488379709
0.21658994069642232 0.21846995995232973 -0.0004356139683001719 -0.0014444052876072264
0.2678201195649742 0.2729581362178246 -0.0019714253575245947 -0.0031665912953255885
0.35516314077028416 0.3438889118471791 0.00024159075384825283 0.0110326381692568
0.5106975403384071 0.4219556450933683 0.019384936712498725 0.06935695853254016
0.8866963930419439 0.5341695161505657 0.10610052242713883 0.24642635446423913
1.6244178043293969 0.6722160058342657 0.3407345017822426 0.6114672967128885
2.7498655239527676 0.8228698617187068 0.7791155062103488 1.1478801560237109
4.104348600020304 0.9921563499403201 1.3228489465120286 1.7893433035679553
5.7197115183251395 1.2001554117532764 2.0171511930675425 2.5024049135043205
7.606791684428286 1.4605888315842117 2.853087182322755 3.293115670521322
9.825463660028433 1.7948897636031567 3.8473793173138398 4.1831945791114356
12.507661445774103 2.237200824375816 5.057929230475956 5.212531390922324
15.769078158016566 2.7905560387026536 6.56024427100187 6.418277848312046
19.558803142418334 3.364902240365664 8.398390386492782 7.7955105155598865
24.102822726987675 4.0976302756173215 10.60375773576256 9.401434715607797
30.79420855420486 5.44744016321029 13.74012749670555 11.606640894289013
36.677847762187525 2.685018780051751 18.964630843346434 15.028198138789325
30.79420855420547 5.447440163207218 13.74012749670779 11.606640894290457
24.102822726983465 4.0976302756148435 10.6037577357615 9.401434715607115
19.558803142399004 3.3649022403581457 8.398390386485964 7.795510515554894
15.769078157988597 2.7905560386876362 6.560244270994499 6.418277848306462
12.507661445752735 2.237200824365455 5.057929230469916 5.212531390917362
9.825463660018563 1.7948897636017447 3.8473793173093913 4.18319457910743
7.606791684417676 1.4605888315795899 2.8530871823195776 3.2931156705185076
5.719711518319484 1.2001554117546323 2.0171511930640067 2.502404913500844
4.10434860001169 0.9921563499398411 1.3228489465080697 1.7893433035637796
2.749865523944991 0.8228698617174003 0.7791155062073711 1.1478801560202205
1.624417804325869 0.6722160058339111 0.3407345017809128 0.6114672967110452
0.8866963930396528 0.5341695161499445 0.10610052242651781 0.2464263544631902
0.5106975403373214 0.421955645093182 0.019384936712231134 0.0693569585319084
0.35516314076957156 0.34388891184659326 0.00024159075378546923 0.011032638169192659
0.2678201195642266 0.27295813621691545 -0.0019714253575045942 -0.0031665912951842705
0.21658994069614224 0.2184699599518567 -0.00043561396827217734 -0.0014444052874422564
0.20459715136813822 0.20442956450165223 1.6762217481715782e-05 0.000150824649004155
0.21592380340305295 0.2155669724734267 4.572740324809299e-05 0.00031110352637812345
0.21130840120063324 0.22251317538093376 -0.00529366364837818 -0.005911110531922263
1.0281778993936894 0.8150504296364972 0.06353162042789536 0.14959584932929648
0.6413207605038151 0.595739373126782 0.00917278843139048 0.036408598945642766
0.19039685591599737 0.19820845099371345 -0.0016312870324282681 -0.006180308045287868
0.22530756997303408 0.2259937978235779 -7.984230750048856e-05 -0.0006063855430432312
0.22076228207610424 0.2203885303454742 4.228807626882464e-05 0.00033146365436112333
0.22756871711915796 0.22837895811853298 -0.00030988446148196583 -0.0005003565378930662
0.26477724777393896 0.2672037712661236 -0.001402570650865724 -0.0010239528413188879
0.3289116887419346 0.3127608391752744 0.002449069279361733 0.013701780287298636
0.38378338382901966 0.3144932189823575 0.016958962286937305 0.052331202559724996
0.43276962209964914 0.27329154933072497 0.05073608408720205 0.10874198868172207
0.5580855852042161 0.2500557048874472 0.10677481070712681 0.201255069609642
0.8573346460914455 0.29056763596673074 0.2247708052266121 0.34199620489810245
1.3154661144409587 0.30682970377307583 0.4011560546663411 0.6074803560015423
1.9350503617312362 0.31070319113077555 0.6742360548854733 0.9501111157149876
2.6988283385884424 0.335125798668403 1.0207652346547036 1.3429373052653355
3.6267721847569407 0.39936046986452184 1.4427765438413753 1.784635171051043
4.721832895719719 0.5244580370615832 1.9272323657238952 2.2701424929342404
6.034989740016517 0.7347956354780882 2.5063959332035157 2.7937981713349114
7.547401244571596 1.013612738461681 3.1823055658486883 3.351482940261226
9.669591852235046 1.4700426327318052 4.101430016152954 4.098119203350288
15.250505251635916 3.314188473535039 5.970537242785132 5.965779535315746
25.514721235951498 2.895290031147778 12.019833440553052 10.599597764250676
15.250505251637843 3.3141884735317366 5.970537242788127 5.965779535317987
9.669591852234666 1.470042632733584 4.101430016151789 4.098119203349295
7.547401244567338 1.013612738464103 3.1823055658449126 3.3514829402583235
6.034989740011692 0.7347956354800331 2.5063959332000163 2.793798171331637
4.721832895719766 0.5244580370659073 1.9272323657216712 2.270142492932189
3.6267721847528276 0.39936046986399343 1.4427765438394964 1.784635171049339
2.698828338585612 0.33512579866908476 1.020765234653019 1.3429373052635087
1.9350503617267503 0.31070319113108213 0.6742360548831331 0.9501111157125354
1.3154661144356132 0.3068297037721727 0.4011560546642868 0.6074803559991535
0.8573346460883131 0.2905676359657463 0.22477080522555853 0.34199620489700766
0.5580855852029183 0.2500557048864268 0.10677481070699721 0.20125506960949482
0.432769622099042 0.2732915493307413 0.05073608408695693 0.10874198868134362
0.38378338382878885 0.3144932189825776 0.016958962286794325 0.05233120255941698
0.328911688741345 0.31276083917471925 0.0024490692793002777 0.013701780287325507
0.2647772477732545 0.26720377126541855 -0.0014025706508613085 -0.0010239528413028007
0.22756871711870885 0.22837895811791203 -0.00030988446146374055 -0.0005003565377394038
0.22076228207590076 0.22038853034509895 4.228807628915793e-05 0.00033146365451256735
0.22530756997267026 0.22599379782328477 -7.984230750803004e-05 -0.0006063855431065309
0.1903968559159623 0.19820845099335077 -0.0016312870323740374 -0.006180308045014506
0.6413207605020421 0.5957393731255467 0.009172788431211635 0.03640859894528401
0.4121764802982977 0.4127506476384493 -0.000201438427260077 -0.00037272891289148995
0.1788077492351928 0.17895468875604864 2.9371078933910505e-06 -0.00014987662874922633
0.22856779209597644 0.2283273901021658 8.09769488018936e-06 0.00023230429893046926
0.2345166181043055 0.23401470607781535 5.179561517282214e-05 0.0004501164113173321
0.24468385752403912 0.24432976197186523 -0.000158302029798962 0.000512397581972753
0.28519910383876523 0.28523477634766925 -0.0011284064004946155 0.001092733891590533
0.36684228534227153 0.3515298822761336 0.002006087420696692 0.013306315645441442
0.517003514193462 0.42393060186282666 0.021072079712394547 0.07200083261824071
0.8886675232234911 0.5341014451235325 0.10689340339982281 0.24767267470013574
1.6234752431824424 0.6718175712856784 0.34043557078931036 0.611222101107453
2.753856668487061 0.8247149371478593 0.7805383766078061 1.1486033547313972
4.124976074834656 0.9955962414837628 1.3326151732727887 1.7967646600781069
5.762753936669205 1.2059630677139985 2.035893735726852 2.5208971332283543
7.647195490216355 1.4608982835122046 2.8749522921942168 3.311344914509931
9.713117959267205 1.7609512614508582 3.8078929708963902 4.144273726919954
11.847354016979784 2.1076291518089563 4.777169323373089 4.96255554179774
13.777854526420581 2.4818262388162813 5.6385699149420345 5.657458372662268
15.317154636243655 2.923346694337709 6.296131087604253 6.097676854301699
15.856254014586447 3.234478288374955 6.4672167720074265 6.154558954204065
12.830237971464689 2.216696167047605 5.560902650236421 5.052639154180658
25.84247975257276 4.545146548209741 11.108841248915798 10.188491955447217
12.830237971471604 2.2166961670490997 5.560902650239507 5.0526391541829945
15.856254014576905 3.2344782883686487 6.467216772005527 6.154558954202735
15.317154636229484 2.923346694331868 6.296131087599502 6.097676854298102
13.77785452640671 2.4818262388161734 5.638569914934408 5.657458372656137
11.847354016961063 2.10762915180351 4.77716932336584 4.962555541791707
9.71311795925256 1.7609512614470209 3.807892970890722 4.144273726914823
7.647195490203617 1.4608982835115685 2.8749522921878765 3.3113449145041716
5.762753936655251 1.2059630677105821 2.0358937357215323 2.520897133223139
4.124976074821388 0.9955962414821073 1.3326151732671327 1.7967646600721494
2.753856668476196 0.8247149371471135 0.7805383766031018 1.1486033547259793
1.6234752431766624 0.6718175712850851 0.34043557078714715 0.6112221011044304
0.8886675232207597 0.5341014451227974 0.10689340339908746 0.24767267469887477
0.517003514192422 0.4239306018621767 0.02107207971225214 0.07200083261799314
0.36684228534103136 0.3515298822752352 0.002006087420574942 0.013306315645220885
0.2851991038381612 0.2852347763468502 -0.001128406400480108 0.0010927338917911546
0.24468385752333807 0.24432976197100817 -0.00015830202978311294 0.0005123975821130132
0.23451661810412755 0.23401470607742772 5.179561519451007e-05 0.0004501164115054592
0.22856779209575803 0.22832739010183412 8.097694886146268e-06 0.00023230429903767095
0.1788077492352567 0.17895468875614923 2.9371078861475305e-06 -0.00014987662877862244
0.41217648029750725 0.41275064763736313 -0.00020143842722767104 -0.0003727289126282161
0.2665223564378953 0.2665016173077731 1.3476233019465938e-06 1.9391506820260498e-05
0.1649840640631209 0.165039217885035 -3.204110432569283e-06 -5.194971148154776e-05
0.22540446845127018 0.22588187512683483 -6.70334956737817e-05 -0.00041037317989090746
0.24421440441989042 0.2433704465868854 6.937278980417283e-05 0.0007745850432008655
0.26618345297513063 0.2681194649208571 -0.000535724624627389 -0.0014002873210990276
0.32750734130733156 0.3294166788824257 -0.0013332198052982448 -0.0005761177697962971
0.48187894552686245 0.4336545128016936 0.005998696342155292 0.04222573638301353
0.949107498019311 0.6029589993221011 0.10402724431524635 0.2421212543819635
1.967423439778441 0.8081356993111211 0.42393547145425226 0.7353522690130673
3.639521165513538 1.0265365178495816 1.0897187351721775 1.5232659124917785
5.8236017135301505 1.241093050009507 2.040178787019359 2.5423298765012805
8.475777900723767 1.4799411406803638 3.2865465274736554 3.7092902325697428
11.520132208958024 1.7592973238946858 4.769883205077017 4.990951679986327
14.959409897535961 2.0841659382490705 6.490695633419255 6.384548325867632
18.793851095952657 2.460978260544678 8.457341041685106 7.875531793722872
22.8653241647989 2.8795240729212734 10.58391992884231 9.401880163035306
26.839669300587566 3.343561106826008 12.657058630689598 10.839049563071963
30.215898784355588 3.8772508284028415 14.329073045940508 12.009574910012237
31.864115614076468 4.117353571943303 15.191868519677477 12.554893522455684
29.59166914813622 4.023214433613457 13.988149520358416 11.580305194164348
36.452918120358646 8.715755234155546 15.132803746745797 12.604359139457292
29.5916691481515 4.023214433620693 13.988149520363326 11.580305194167487
31.864115614075974 4.1173535719468015 15.19186851967507 12.554893522454089
30.215898784334435 3.8772508283967344 14.32907304593142 12.00957491000629
26.839669300561354 3.343561106823764 12.657058630675335 10.839049563062247
22.865324164774826 2.879524072920141 10.583919928828943 9.401880163025742
18.793851095929973 2.4609782605436505 8.457341041672708 7.8755317937136144
14.959409897519905 2.084165938252497 6.490695633408426 6.384548325858984
11.5201322089324 1.7592973238887835 4.769883205066258 4.990951679977359
8.475777900705253 1.4799411406809944 3.286546527463565 3.709290232560692
5.823601713512685 1.2410930500089223 2.0401787870108996 2.5423298764928632
3.639521165500121 1.0265365178476802 1.0897187351666406 1.5232659124858015
1.9674234397707042 0.8081356993096781 0.42393547145151467 0.7353522690095108
0.9491074980153382 0.6029589993205408 0.10402724431434732 0.2421212543804503
0.4818789455250281 0.4336545128008801 0.005998696341829301 0.04222573638231879
0.3275073413068066 0.3294166788815178 -0.0013332198052253854 -0.000576117769485861
0.26618345297467494 0.26811946492023336 -0.0005357246245997474 -0.0014002873209586527
0.2442144044196492 0.24337044658647217 6.937278981872872e-05 0.0007745850433582625
0.22540446845092346 0.2258818751264266 -6.703349566977343e-05 -0.00041037317983329713
0.16498406406303445 0.16503921788497827 -3.2041104341874335e-06 -5.194971150964852e-05
0.26652235643739325 0.2665016173072841 1.3476233008971399e-06 1.9391506808273514e-05
0.1651423692089367 0.1651423692089367 0.0 0.0
0.1460802151151879 0.14608451934693847 -1.4328105404036436e-07 -4.160950696500454e-06
0.21539633931574023 0.21572973124318523 -4.349300726385476e-05 -0.00028989892018115823
0.2501172282727043 0.2508995198460217 -0.00015761792809222027 -0.00062467364522524
0.29134250454768534 0.2923651424657849 -0.0004767610579825458 -0.0005458768601169005
0.3904955593712076 0.3800271084407725 -0.0011356624491460853 0.011604113379581463
0.7256566394698987 0.5552127438384159 0.044825431156257714 0.1256184644752249
1.6235631233949102 0.7895675941374063 0.2880951153047816 0.5459004139527233
3.369065086478738 1.0638010862136342 0.9388827070283254 1.3663812932367767
6.041885722409189 1.3299849677151305 2.1388891049915637 2.5730116497024946
9.349466900723922 1.5813116351131653 3.698891539399479 4.069263726211279
13.321252098811438 1.8641238813759458 5.697705302414855 5.759422915020648
17.90169812545789 2.1977236995938707 8.091544454267137 7.61242997159688
23.096095947062942 2.588969004113527 10.869439135636709 9.637687807312716
28.9456713536889 3.0352359514945304 14.080076969324118 11.83035843287026
35.215795228720225 3.519085290437208 17.564014839765083 14.132695098517928
41.64448925492974 4.032951924083657 21.223823254504946 16.387714076341133
47.08035506153393 4.428905704327812 24.33369160694182 18.317757750264313
49.81918444669246 4.522731671448536 25.99154319852413 19.304909576719787
46.43250381538849 4.00495919096494 24.21480631517949 18.21273830924407
52.048225050086124 11.709552304811899 22.882882914662247 17.455789830611977
46.432503815388 4.004959190957466 24.21480631518385 18.212738309246667
49.81918444667918 4.522731671444831 25.99154319851811 19.304909576716238
47.08035506150625 4.428905704323279 24.33369160692734 18.317757750255648
41.644489254892235 4.032951924080994 21.223823254483417 16.387714076327814
35.215795228680896 3.519085290430779 17.564014839745052 14.132695098505069
28.945671353646816 3.0352359514861624 14.080076969303951 11.830358432856697
23.096095947026427 2.5889690041071987 10.869439135619015 9.637687807300212
17.901698125425614 2.1977236995914597 8.091544454250084 7.612429971584076
13.321252098778391 1.8641238813709564 5.69770530239929 5.759422915008136
9.34946690069657 1.5813116351104293 3.698891539386373 4.069263726199772
6.041885722391442 1.3299849677142106 2.1388891049830026 2.5730116496942266
3.369065086467617 1.0638010862134877 0.9388827070231492 1.36638129323098
1.6235631233878531 0.7895675941357506 0.2880951153025561 0.5459004139495465
0.7256566394670008 0.555212743837241 0.04482543115566895 0.1256184644740905
0.3904955593700286 0.380027108439692 -0.001135662449204322 0.011604113379541028
0.2913425045472113 0.2923651424650556 -0.0004767610579497135 -0.0005458768598947457
0.2501172282723866 0.25089951984552944 -0.0001576179280687083 -0.000624673645074186
0.21539633931545327 0.21572973124293565 -4.349300726903071e-05 -0.000289898920213426
0.1460802151149141 0.14608451934665465 -1.432810533475878e-07 -4.1609506871892085e-06
0.1651423692085201 0.1651423692085201 0.0 0.0
0.09678184115748045 0.09678184115748045 0.0 0.0
0.122637807090682 0.1226335810169546 2.3276924337965782e-07 3.99330448403657e-06
0.19952978904006996 0.19968192693018427 -1.9088730036747797e-05 -0.0001330491600775648
0.2525565571657399 0.25291830493337714 -0.00011540795115024914 -0.00024633981648703867
0.31955783335145205 0.32374950136837866 -0.0013374172570364898 -0.0028542507598901612
0.5009174445024925 0.4613598469611553 0.007293980498129904 0.032263617043207446
1.0914281565126172 0.6836463282277685 0.12702109694328573 0.28076073134156276
2.500334290964573 0.9851147894714265 0.5819371028797818 0.9332823986133642
5.060231837664378 1.3083523181004606 1.666147353465062 2.085732166098854
8.549645170222814 1.598109206341281 3.253859877099666 3.6976760867818697
13.108503947797974 1.900488932168166 5.562962586044541 5.645052429585265
18.48630687702635 2.2379926659353844 8.402918132530827 7.84539607856014
24.684107972681055 2.6345685610141825 11.7754731401194 10.274066271547495
31.76482330374214 3.101181051349903 15.724170224441059 12.939472027951155
39.72599344838975 3.629240581679338 20.24893173900664 15.847821127703776
48.53840430743249 4.192037848953535 25.40700031934818 18.939366139130776
57.21998856939009 4.673500691954114 30.51788683840733 22.02860103902867
64.79155861170122 4.894375902027306 35.246464154716364 24.650718554957503
68.3612338203523 4.599703107791918 37.761805654364935 25.999725058195455
64.02727908491184 4.086763851042745 35.303839119871554 24.636676113997545
69.51120390352234 14.642437783114971 32.01302723014123 22.85573889026611
64.02727908489662 4.086763851028149 35.30383911987121 24.636676113997282
68.36123382033655 4.599703107793959 37.76180565435341 25.999725058189167
64.79155861166286 4.894375902023354 35.246464154694266 24.650718554945207
57.21998856935127 4.673500691958489 30.51788683837995 22.028601039012816
48.53840430738337 4.192037848949003 25.407000319320307 18.93936613911409
39.725993448347936 3.6292405816818647 20.24893173897946 15.84782112768661
31.76482330370535 3.1011810513519587 15.724170224417671 12.93947202793571
24.68410797263435 2.634568561009459 11.77547314009467 10.274066271530222
18.48630687698751 2.237992665934433 8.402918132509232 7.845396078543848
13.108503947763888 1.9004889321667116 5.56296258602665 5.645052429570528
8.549645170194312 1.5981092063366888 3.2538598770871348 3.6976760867704894
5.060231837647491 1.3083523180990342 1.6661473534573095 2.085732166091149
2.5003342909541817 0.9851147894697144 0.5819371028758854 0.9332823986085823
1.0914281565079034 0.683646328225904 0.12702109694216404 0.28076073133983503
0.5009174445010276 0.461359846960137 0.00729398049799421 0.032263617042896514
0.3195578333510614 0.3237495013676135 -0.0013374172569705928 -0.0028542507595813826
0.2525565571653679 0.25291830493277195 -0.00011540795113385473 -0.0002463398162702695
0.19952978903985416 0.1996819269300046 -1.9088730040695194e-05 -0.00013304916010979496
0.12263780709040686 0.12263358101667951 2.3276924336996675e-07 3.9933044839934034e-06
0.09678184115728827 0.09678184115728827 0.0 0.0
0.05334739221381632 0.05334739221381632 0.0 0.0
0.09730799018960791 0.09730799018960791 0.0 0.0
0.17925673609444728 0.17927661768527206 -2.107637731382835e-06 -1.7773953093401375e-05
0.25243245665556435 0.25357332114083636 -0.0002009548516792501 -0.000939909633592767
0.3553836191822012 0.35578418999815786 -0.0015802165533465792 0.0011796457373900427
0.6682385514494544 0.5521404334844916 0.03021430262861116 0.08588381533635141
1.5791678899711277 0.8286979047352299 0.261457475471667 0.4890125097642304
3.587439659454015 1.181808572234236 1.0162112724295158 1.389419814790262
6.767024500091668 1.5221295038343523 2.3725510292730068 2.872343966984308
11.332818385944698 1.8667392488841918 4.610145681378879 4.855933455681621
17.06062878473218 2.227050268769807 7.595463830544296 7.238114685418085
23.888461518450903 2.6286234244871975 11.311193073797517 9.94864502016618
31.800283902202455 3.0953589242211565 15.749966587369846 12.95495839061145
40.88818547124195 3.644179396081765 20.979655135415335 16.264350939744865
51.104052728751704 4.27661239787449 26.94200333897558 19.88543699190162
62.26109242602015 4.897256528717448 33.60291802698512 23.760917870317556
73.68967489800457 5.319432132878007 40.7328870432781 27.637355721848486
83.02872430207557 5.251103951555934 46.83176006093822 30.94586028958141
87.07198274723018 4.584314427466525 49.87994501288004 32.60772330688357
82.25419936231091 4.297370078532539 46.965322858905914 30.99150642487244
88.56035474275902 17.59454523322512 42.41643040157233 28.549379107961546
82.25419936230166 4.2973700785303075 46.965322858901374 30.991506424869986
87.07198274720344 4.584314427465681 49.87994501286301 32.607723306874725
83.02872430204742 5.251103951569875 46.83176006091078 30.94586028956679
73.68967489795034 5.319432132875182 40.732887043244816 27.637355721830367
62.26109242595702 4.897256528710735 33.60291802694909 23.760917870297185
51.10405272869323 4.276612397870673 26.94200333894127 19.88543699188127
40.888185471176854 3.644179396067343 20.979655135384114 16.26435093972541
31.80028390215343 3.0953589242246236 15.749966587338262 12.95495839059056
23.888461518401787 2.628623424485455 11.311193073769768 9.948645020146557
17.060628784692042 2.2270502687685627 7.5954638305222915 7.23811468540119
11.332818385913919 1.866739248885243 4.610145681361655 4.855933455667021
6.767024500069671 1.5221295038317717 2.372551029263294 2.8723439669746043
3.5874396594401676 1.1818085722321547 1.0162112724238985 1.3894198147841146
1.5791678899644839 0.8286979047326702 0.2614574754699843 0.4890125097618305
0.6682385514468941 0.5521404334830613 0.03021430262820631 0.08588381533562617
0.35538361918151373 0.35578418999730055 -0.0015802165533299298 0.0011796457375432728
0.2524324566552159 0.25357332114044867 -0.00020095485167571694 -0.0009399096335570803
0.17925673609413162 0.17927661768497835 -2.1076377334330413e-06 -1.7773953113322408e-05
0.09730799018942105 0.09730799018942105 0.0 0.0
0.053347392213656836 0.053347392213656836 0.0 0.0
0.027569843475638733 0.027569843475638733 0.0 0.0
0.07300585161859122 0.07300585161859122 0.0 0.0
0.15699208093084704 0.15698526416717912 3.960330448053176e-07 6.420730623111643e-06
0.2520504199489889 0.2530176744850043 -0.0001800606031024852 -0.0007871939329127517
0.41185468716218265 0.4071650522892798 -0.00021394684715050384 0.00490358172005328
0.8942368069591029 0.6400582820307905 0.07227625728704559 0.18190226764126624
2.2110362373328156 0.9819555886956204 0.4797214398968135 0.7493592087403815
4.705158107673478 1.3524151946499343 1.439452077593748 1.9132908354297968
8.70255799402103 1.7365154722120224 3.274782720114737 3.6912598016942706
14.214559278035866 2.140132455382675 6.045816089537764 6.028610733115431
21.180852998039967 2.569879024185284 9.768387299002587 8.842586674852095
29.526088718877798 3.0449994344204043 14.419102286203131 12.061986998254266
39.25765941015535 3.5916368339981646 20.015745365493608 15.650277210663571
50.26424143343003 4.228718577073452 26.429718811410428 19.60580404494616
62.83467531474941 4.947645674898236 33.960729142908036 23.926300496943142
76.58010836186855 5.6415379351959904 42.38625184880017 28.552318577872402
90.2397627852513 5.970708921263489 51.06855924310878 33.20049462087901
101.4364466215091 5.555743226005801 58.74088858899457 37.13981480650876
106.39364198859701 4.5819500379761875 62.69057265235502 39.121119298265796
101.31321361907371 4.556486869892467 59.33267760799012 37.42404914119113
108.78562622839021 20.535183744629055 53.68159916044367 34.56884332331751
101.31321361905323 4.556486869884461 59.332677607981715 37.424049141186956
106.39364198856862 4.581950037981205 62.69057265233285 39.121119298254555
101.43644662145358 5.5557432260002 58.74088858896134 37.139814806492026
90.23976278518523 5.970708921259503 51.06855924306793 33.20049462085782
76.58010836180368 5.641537935196465 42.38625184875771 28.5523185778495
62.83467531468018 4.947645674896761 33.960729142864686 23.926300496918735
50.26424143336661 4.22871857707447 26.429718811370023 19.6058040449221
39.25765941009078 3.59163683399535 20.015745365455757 15.650277210639665
29.52608871882029 3.044999434419014 14.419102286169622 12.061986998231651
21.180852997988747 2.569879024181588 9.768387298975128 8.842586674832031
14.21455927799753 2.1401324553799372 6.045816089518045 6.028610733099557
8.702557993993024 1.7365154722088052 3.274782720101905 3.6912598016823077
4.705158107655819 1.3524151946471477 1.439452077586523 1.9132908354221498
2.21103623732277 0.9819555886926338 0.4797214398936587 0.7493592087364757
0.8942368069553606 0.6400582820296791 0.07227625728606964 0.18190226763961212
0.4118546871613228 0.40716505228838074 -0.00021394684715082758 0.0049035817200927725
0.25205041994851307 0.25301767448445506 -0.00018006060309911135 -0.0007871939328428408
0.15699208093056408 0.156985264166897 3.960330447626668e-07 6.4207306222634735e-06
0.0730058516184402 0.0730058516184402 0.0 0.0
0.027569843475517254 0.027569843475517254 0.0 0.0
0.013507798467642936 0.013507798467642936 0.0 0.0
0.0520616944978049 0.0520616944978049 0.0 0.0
0.13552940359266516 0.13552690126799344 1.22441077168008e-07 2.379883594554421e-06
0.25534879588490356 0.2567269536735453 -0.00025549964938249533 -0.0011226581392594537
0.49632420217602363 0.4663160373555797 0.006195136149063633 0.023813028671380212
1.2100672057798463 0.7564688442576074 0.1514166902736875 0.3021816712485518
2.9036399342220793 1.1197292288602965 0.7128805547238316 1.071030150637951
5.964962324701103 1.5123375598495856 1.9827776527343932 2.469847112117123
10.707021284344263 1.9506760281909432 4.228645017652656 4.527700238500664
17.215629915143154 2.4227465106631145 7.580844301700022 7.212039102780005
25.431266179598783 2.9299109184458767 12.047819854063725 10.453535407089197
35.34870454297768 3.4928372260389815 17.6730411545765 14.182826162362215
46.82580186020532 4.127521006238129 24.340277800842248 18.358003053124932
60.10790618598229 4.847833021919078 32.30389054429604 22.95618261976714
74.87617746072019 5.642859375195645 41.2671602513025 27.96615783422203
90.87906459055918 6.374547508821242 51.20810349488334 33.296413586854584
106.97033082338208 6.631481268565761 61.704795292998284 38.634054261818065
120.10555226066091 5.90468788771298 70.98263736327773 43.218227009670194
126.26002700336761 4.616777957080262 75.98665520974625 45.6565938365411
121.49499555442435 4.802449773129643 72.670387865177 44.022157916117706
130.72821620137776 23.418154892671588 66.36903409165245 40.941027217053716
121.49499555439698 4.802449773122227 72.67038786516358 44.02215791611123
126.26002700331978 4.616777957074125 75.98665520971797 45.65659383652759
120.10555226060178 5.904687887714591 70.98263736323682 43.218227009650356
106.97033082331163 6.631481268566766 61.7047952929507 38.63405426179417
90.87906459046485 6.374547508804918 51.20810349483198 33.29641358682791
74.87617746064481 5.642859375199273 41.267160251251305 27.966157834194245
60.10790618589996 4.847833021911528 32.30389054424846 22.956182619739973
46.825801860131364 4.127521006237709 24.3402778007964 18.35800305309723
35.34870454291096 3.492837226036349 17.67304115453766 14.18282616233694
25.431266179543087 2.929910918446608 12.047819854030537 10.453535407065944
17.21562991509755 2.4227465106583335 7.580844301676924 7.212039102762288
10.707021284312026 1.9506760281877977 4.228645017637097 4.527700238487132
5.964962324680146 1.5123375598471742 1.982777652725414 2.469847112107557
2.9036399342109993 1.1197292288589291 0.7128805547193946 1.0710301506326763
1.2100672057753938 0.7564688442561336 0.15141669027250448 0.30218167124675543
0.49632420217462386 0.4663160373546792 0.006195136148899218 0.023813028671045254
0.25534879588462345 0.2567269536730745 -0.00025549964937097525 -0.001122658139079795
0.13552940359249746 0.13552690126782893 1.2244107697319608e-07 2.3798835915387224e-06
0.052061694497634044 0.052061694497634044 0.0 0.0
0.013507798467617963 0.013507798467617963 0.0 0.0
0.006530897362717511 0.006530897362717511 0.0 0.0
0.03592162038462573 0.03592162038462573 0.0 0.0
0.1179933459453629 0.1179933459453629 0.0 0.0
0.26883853915259337 0.2714800638341679 -0.0005304815054016209 -0.002111043176172751
0.6186890303847588 0.5351161750081769 0.020398397103806552 0.06317445827277543
1.608517529653476 0.8737046325293286 0.26829251292699363 0.4665203841971537
3.667750035307044 1.2375646644937677 0.996630830490534 1.4335545403227405
7.305788473596433 1.6706664312661894 2.586392923882998 3.048729118447246
12.783918074975661 2.1652473142409434 5.242949024853872 5.37572173588085
20.296076859337756 2.713803347699876 9.180871500588514 8.401402011049372
29.829480928777787 3.3121103090622883 14.449773980438826 12.067596639276651
41.29934377676955 3.9694082569264415 21.02136896071024 16.30856655913287
54.81616524026768 4.707972425652653 29.038263121285652 21.069929693329343
70.04721060400742 5.519037077857793 38.20316362056773 26.325009905581908
87.11014108098276 6.336096564344073 48.77160775587058 32.00243676076807
105.3848745707567 7.031081955229578 60.3839093740605 37.96988324146661
123.62353860809621 7.284044826379608 72.41827412909001 43.92121965262664
138.89557850033069 6.438002946595149 83.3186947431078 49.13888081062776
146.71568771339997 4.669413654141037 89.88141561207271 52.16485844718626
143.05297351807295 4.971390501585219 87.18935876318226 50.89222425330541
154.59736194970168 26.125114571983968 80.61704389787783 47.85520347983987
143.05297351804026 4.9713905015798066 87.18935876316351 50.89222425329689
146.71568771334734 4.669413654141475 89.88141561203659 52.16485844716931
138.89557850025238 6.438002946588892 83.31869474305884 49.13888081060461
123.62353860799689 7.284044826366681 72.41827412903181 43.92121965259844
105.38487457067063 7.031081955235406 60.38390937399925 37.969883241435916
87.11014108089284 6.336096564344463 48.77160775581143 32.00243676073694
70.04721060391725 5.519037077854178 38.20316362051195 26.32500990555115
54.816165240181505 4.707972425650601 29.038263121232497 21.069929693298413
41.299343776692965 3.9694082569223923 21.02136896066552 16.30856655910505
29.829480928711902 3.312110309057607 14.449773980402355 12.06759663925194
20.296076859286536 2.7138033476955252 9.1808715005616 8.401402011029413
12.78391807493776 2.1652473142368573 5.2429490248354575 5.375721735865444
7.305788473570988 1.67066643126247 2.5863929238719563 3.048729118436561
3.6677500352935497 1.2375646644922103 0.9966308304852406 1.4335545403160992
1.6085175296466714 0.8737046325269598 0.2682925129251558 0.4665203841945565
0.6186890303826874 0.5351161750071158 0.02039839710346115 0.0631744582721104
0.26883853915202727 0.2714800638334245 -0.0005304815053738963 -0.0021110431760235464
0.11799334594517856 0.11799334594517856 0.0 0.0
0.03592162038453939 0.03592162038453939 0.0 0.0
0.006530897362721552 0.006530897362721552 0.0 0.0
0.00309988517662667 0.00309988517662667 0.0 0.0
0.02486130541250147 0.02486130541250147 0.0 0.0
0.10862870956580334 0.10862870956580334 0.0 0.0
0.3030291998971152 0.3047589643587729 -0.0007736830233257116 -0.0009560814383322439
0.8034062405411909 0.6278002438286175 0.053566054505528524 0.12203994220704499
2.060086351775463 0.9770563924737479 0.40763111210704794 0.6753988471946669
4.527400913124811 1.3562701753714679 1.353175149723918 1.8179555880294263
8.696082672236852 1.824561149138776 3.2281397947685617 3.6433817283295147
14.934564043473928 2.3804001704572797 6.323955866200167 6.230208006816486
23.44296819401115 3.0148484590617475 10.83635060903644 9.591769125912968
34.29587013550331 3.71233278804407 16.900485295054878 13.683052052404353
47.51029051318694 4.4823704352336975 24.592624642790266 18.435295435162953
62.80028799784092 5.332717540278995 33.67363153914017 23.793938918421784
80.33498562660442 6.221358104896736 44.41977460592574 29.693852915781928
99.64924985317546 7.053906466226223 56.560517539552045 36.03482584739723
119.97904698505404 7.637142112146021 69.73377437341551 42.60813049949242
139.99423129366417 7.753228295062058 83.19671616610955 49.04428683249263
157.43062375364104 7.131897926454186 95.54352957168348 54.755196255503364
167.54578458658295 4.977526762226388 103.98743034795785 58.58082747639866
166.19116731713893 4.861004654537038 103.16051525333025 58.1696474092717
180.75170915366033 27.76349062382704 97.38714429742191 55.60107423241139
166.19116731710756 4.861004654535279 103.16051525330982 58.16964740926248
167.54578458651724 4.977526762224807 103.98743034791403 58.5808274763784
157.4306237535534 7.131897926451159 95.54352957162547 54.7551962554768
139.99423129358001 7.753228295076545 83.19671616604232 49.0442868324611
119.97904698494952 7.637142112142605 69.73377437334779 42.608130499459186
99.64924985306787 7.053906466223247 56.56051753948276 36.03482584736187
80.33498562650298 6.221358104892736 44.41977460586215 29.693852915748046
62.800287997744576 5.332717540276739 33.673631539080084 23.793938918387738
47.510290513093175 4.482370435226477 24.5926246427363 18.435295435130392
34.29587013542797 3.712332788038746 16.90048529501244 13.68305205237678
23.442968193954123 3.0148484590589373 10.836350609004825 9.591769125890355
14.934564043433463 2.380400170454023 6.323955866179519 6.230208006799917
8.696082672207574 1.8245611491335274 3.2281397947561 3.6433817283179475
4.527400913108718 1.3562701753695852 1.3531751497172189 1.817955588021914
2.060086351767593 0.9770563924725688 0.4076311121041523 0.6753988471908717
0.8034062405387443 0.627800243827588 0.05356605450502004 0.12203994220613619
0.3030291998966047 0.30475896435809635 -0.0007736830233008452 -0.0009560814381907546
0.10862870956566605 0.10862870956566605 0.0 0.0
0.024861305412494702 0.024861305412494702 0.0 0.0
0.0030998851765966402 0.0030998851765966402 0.0 0.0
0.0009699043775687351 0.0009699043775687351 0.0 0.0
0.018225784630105348 0.018225784630105348 0.0 0.0
0.11413427337905024 0.11413427337905024 0.0 0.0
0.37657372888169716 0.36766082882030215 0.0013115623081709372 0.007601337753224208
1.0675454436188936 0.7706080686865461 0.10049111576081157 0.19644625917153613
2.6276167676623183 1.2142308730104192 0.5530652535045919 0.8603206411473056
5.521807625388326 1.737477104113015 1.654152707579288 2.1301778136960228
10.287856753947512 2.430627342203659 3.7530173867519285 4.104212024991927
17.360929995218346 3.3267249943357835 7.151933460697206 6.882271540185362
27.08272681979141 4.452331736791006 12.135689700265965 10.494705382734422
39.57118972044187 5.8177615336070945 18.848128397922157 14.905299788912634
54.681291731040886 7.419443890686362 27.2133933870061 20.048454453348427
72.44022373383363 9.223335040914769 37.36471573045452 25.85217296246434
92.60324230247357 11.150595408114004 49.21548334276673 32.23716355159286
114.56971988975187 12.930926817996074 62.5763074213706 39.062485650385135
137.1727685612556 14.12809165635273 76.97773181704014 46.066945087862706
158.57042252473883 14.286586408478902 91.42981345081009 52.85402266544982
176.688173343019 13.372971789825472 104.50451899330929 58.81068255988422
189.2451263403437 11.996807641400313 114.13971701939133 63.108601679552145
185.07508986150344 4.980184081935963 116.05934926793053 64.03555651163688
256.0373248947806 80.13424153508868 113.26627831370145 62.63680504599054
185.07508986144146 4.980184081904068 116.05934926790974 64.03555651162762
189.24512634027286 11.996807641401919 114.1397170193406 63.10860167953027
176.68817334291242 13.372971789814073 104.50451899324432 58.810682559854186
158.57042252461207 14.286586408455964 91.42981345073932 52.85402266541683
137.17276856112267 14.128091656329552 76.97773181696554 46.066945087827406
114.56971988963654 12.930926817996673 62.57630742129342 39.0624856503465
92.60324230235807 11.150595408105417 49.21548334269645 32.23716355155622
72.44022373371853 9.223335040900764 37.36471573038943 25.852172962428355
54.6812917309495 7.419443890693156 27.21339338694432 20.04845445331201
39.57118972036255 5.817761533605668 18.848128397874532 14.905299788882354
27.08272681972853 4.4523317367874355 12.135689700230934 10.494705382710164
17.36092999516914 3.3267249943255925 7.151933460675238 6.882271540168313
10.28785675391276 2.4306273421952236 3.753017386738012 4.104212024979522
5.521807625369232 1.7374771041093076 1.6541527075718367 2.130177813688089
2.627616767653552 1.214230873009344 0.5530652535013596 0.8603206411428486
1.0675454436150105 0.7706080686850503 0.1004911157599144 0.1964462591700462
0.37657372888084784 0.3676608288194967 0.0013115623081654112 0.0076013377531856125
0.11413427337879656 0.11413427337879656 0.0 0.0
0.01822578463004616 0.01822578463004616 0.0 0.0
0.0009699043775758909 0.0009699043775758909 0.0 0.0
CELL_DATA 800
SCALARS Stress float 6
LOOKUP_TABLE default
167.4797372912298 -519.712354113727 -181.8488857449283 -109.8732835435814 0.0 0.0
402.58297241646005 -73.41152576056909 115.88604142964316 55.394598851103396 0.0 0.0
412.3211521920517 8.89162959566545 126.1676485314104 -2.9321657104761742 0.0 0.0
471.41087771969325 -14.272445408370249 146.7762235149178 -15.156137256639244 0.0 0.0
548.4548383703001 -20.31902994195912 203.65324090595425 -11.655990354183022 0.0 0.0
622.5137260104801 -15.940584731545979 275.65890927598156 -10.240473103714422 0.0 0.0
694.2266695236269 -9.754276231743567 332.009514004188 -10.860416864517864 0.0 0.0
766.6729358958569 4.389237654383052 380.8255623044324 -12.575345115481348 0.0 0.0
841.8317286698804 26.725312928697377 431.0524338041987 -14.311091492542506 0.0 0.0
919.448485081037 56.232994450556944 485.22813082926143 -15.47097479059015 0.0 0.0
997.7830158409786 90.56067436067656 541.9712966331034 -15.947324590918836 0.0 0.0
1075.439964073004 128.38660472900006 600.0208411482196 -15.894765447684625 0.0 0.0
1152.4996437556931 168.5801657909723 658.8618152563441 -15.695193606815657 0.0 0.0
1229.8070794071634 211.72184352442338 719.2324566585075 -15.387652565430749 0.0 0.0
1307.9327219796592 258.43176800005926 781.756256294283 -14.836401591020795 0.0 0.0
1386.1672294443144 308.1856225982151 845.8330994224625 -13.848252718230656 0.0 0.0
1462.1252643091973 359.1286950540274 909.3545285115531 -12.288149469157059 0.0 0.0
1533.221536077902 409.36522668702486 970.0685275844002 -10.41776181352607 0.0 0.0
1598.6659327074278 459.016777791636 1027.5816885849717 -9.745037980549967 0.0 0.0
1692.0581101037696 543.727220664105 1116.1126162483342 -15.455127878311327 0.0 0.0
1692.0581101043358 543.727220664688 1116.1126162487221 15.455127878386321 0.0 0.0
1598.6659327071645 459.0167777914306 1027.5816885846657 9.745037980710896 0.0 0.0
1533.2215360772186 409.3652266864088 970.0685275838532 10.417761813419451 0.0 0.0
1462.1252643093908 359.1286950543294 909.3545285116778 12.288149469098345 0.0 0.0
1386.167229444242 308.18562259827183 845.8330994223307 13.848252718314356 0.0 0.0
1307.9327219784866 258.43176799902227 781.7562562933037 14.83640159093753 0.0 0.0
1229.8070794074317 211.7218435248605 719.232456658526 15.387652565464792 0.0 0.0
1152.4996437558425 168.5801657913255 658.861815256308 15.69519360681881 0.0 0.0
1075.4399640726392 128.38660472886082 600.0208411479973 15.894765447702914 0.0 0.0
997.7830158405523 90.56067436049014 541.9712966328702 15.947324590860909 0.0 0.0
919.4484850805433 56.23299445031674 485.22813082895095 15.470974790541288 0.0 0.0
841.8317286708351 26.725312929940173 431.0524338048152 14.311091492572858 0.0 0.0
766.6729358953219 4.389237654129474 380.82556230407994 12.575345115501012 0.0 0.0
694.2266695231096 -9.754276231990431 332.00951400382604 10.860416864504417 0.0 0.0
622.5137260105114 -15.940584731204247 275.65890927590226 10.240473103699573 0.0 0.0
548.4548383704323 -20.319029941504585 203.65324090595166 11.655990354219032 0.0 0.0
471.4108777194076 -14.272445408434708 146.77622351479275 15.156137256677972 0.0 0.0
412.32115219185386 8.891629595327082 126.16764853125267 2.9321657105010637 0.0 0.0
402.5829724165481 -73.41152576029565 115.88604142970686 -55.394598851029244 0.0 0.0
167.47973729177255 -519.7123541132108 -181.8488857444169 109.8732835432711 0.0 0.0
66.94027246263238 -547.357269321806 -242.97936523015636 -158.57632908605785 0.0 0.0
271.5064246318201 -63.91835304447924 62.42831235827191 9.417192550037777 0.0 0.0
361.3902570013976 32.0563850085974 118.03693780701877 -9.76410802188709 0.0 0.0
435.9248153053434 -12.397695402584018 130.67604808860077 -35.36520698126124 0.0 0.0
520.5153469015393 -20.610200552738334 181.08520391801744 -33.26596425056012 0.0 0.0
598.9766732588319 -16.784557444813093 255.42865701092808 -30.317198463957858 0.0 0.0
674.3538278910892 -10.21116282408542 318.3385710983285 -31.310341551470877 0.0 0.0
747.7819879750141 3.6997790352803577 369.8548475654085 -33.901688810344346 0.0 0.0
821.6151024109593 24.66585823102153 419.4267526353585 -36.530346188310396 0.0 0.0
896.1094616765536 51.51925651138205 470.93397088224856 -37.94341487553531 0.0 0.0
969.9371688210811 82.09993702476089 523.6451597410166 -38.054950898697854 0.0 0.0
1042.63729821578 115.1712874319248 576.8735121072334 -37.43787168671039 0.0 0.0
1114.4989838107833 151.02689959607878 630.9689163859978 -36.57830572505038 0.0 0.0
1186.4125799962599 189.51267641445665 686.3424806515904 -35.55612123285199 0.0 0.0
1258.593532582869 230.76099089033596 743.188212247867 -34.12931232479774 0.0 0.0
1330.5623218967853 274.5793980131387 801.1811565124276 -31.90313344060246 0.0 0.0
1401.250310674122 320.3525099367061 859.4763711283695 -28.749931397735402 0.0 0.0
1469.879035882218 368.1123545993899 917.6749812018257 -25.46396098435707 0.0 0.0
1542.5389131499924 425.2180386352788 982.4080122014414 -23.657789903214162 0.0 0.0
1596.7347621058034 470.53400571280383 1032.0339829342104 -23.204447920381735 0.0 0.0
1596.7347621057795 470.53400571279906 1032.0339829342277 23.204447920439982 0.0 0.0
1542.5389131503678 425.21803863570534 982.408012201697 23.657789903308572 0.0 0.0
1469.8790358808415 368.11235459807506 917.6749812007581 25.463960984308113 0.0 0.0
1401.250310672904 320.3525099355841 859.4763711274065 28.749931397749556 0.0 0.0
1330.5623218975493 274.5793980140346 801.1811565129822 31.90313344066943 0.0 0.0
1258.5935325835728 230.7609908911988 743.1882122484178 34.12931232479886 0.0 0.0
1186.4125799964092 189.51267641477477 686.3424806516523 35.55612123283838 0.0 0.0
1114.4989838109757 151.0268995964597 630.9689163860595 36.578305725012996 0.0 0.0
1042.6372982154405 115.1712874317929 576.8735121069357 37.43787168673441 0.0 0.0
969.9371688207422 82.09993702464979 523.6451597407573 38.05495089857477 0.0 0.0
896.1094616762157 51.51925651128565 470.93397088202596 37.94341487549222 0.0 0.0
821.6151024103814 24.665858230710626 419.42675263498285 36.530346188352695 0.0 0.0
747.7819879746444 3.6997790351946804 369.85484756513824 33.90168881032622 0.0 0.0
674.3538278907113 -10.211162824176114 318.3385710980584 31.310341551588593 0.0 0.0
598.9766732582767 -16.784557445103722 255.42865701050425 30.31719846381754 0.0 0.0
520.515346901159 -20.61020055287183 181.08520391774357 33.26596425063089 0.0 0.0
435.92481530508945 -12.397695402616872 130.6760480885125 35.36520698129988 0.0 0.0
361.39025700119424 32.056385008472816 118.03693780692348 9.76410802186411 0.0 0.0
271.50642463213256 -63.918353043963606 62.42831235852278 -9.417192550126462 0.0 0.0
66.94027246287772 -547.3572693214805 -242.97936522984728 158.5763290858941 0.0 0.0
14.03977519881522 -555.8694602635962 -267.20549153599814 -173.61591654396707 0.0 0.0
153.03012154956852 -53.489452094056695 29.862200836653543 -45.20889588781009 0.0 0.0
293.72050830880954 35.847664535387864 98.87045185325921 -33.832189073955945 0.0 0.0
390.1253175166511 -3.448015278680542 116.90060491747191 -55.410780540086975 0.0 0.0
483.6379181612962 -19.38259744051262 158.1731159510376 -57.017202203172815 0.0 0.0
571.9103130528626 -19.023538151419665 230.6068456678396 -52.10637728595148 0.0 0.0
650.3923934047035 -9.829997329809565 301.5290918471694 -52.109858902161186 0.0 0.0
724.4950495559008 3.0996570289095686 356.13403720580413 -55.11625576460685 0.0 0.0
797.3045492722676 22.659230785256682 405.6202243108272 -58.228405044991014 0.0 0.0
868.5954237570995 46.54226062581115 454.36314059998745 -59.634061881641976 0.0 0.0
938.0974715191821 73.21385020781914 503.0674360191269 -59.35123886113214 0.0 0.0
1005.8349114967815 102.16523160645968 551.8043161171416 -58.192029241095604 0.0 0.0
1072.7487884040584 133.22588708832805 601.059566721367 -56.820698961877085 0.0 0.0
1139.0762896492229 166.7815226392288 651.2084871586478 -55.13198917321352 0.0 0.0
1205.126679677856 202.3680529183249 702.1893407309581 -52.8742567464413 0.0 0.0
1270.9387112110526 240.15125453450293 754.1007428748854 -49.65959079153154 0.0 0.0
1336.684599695304 280.8952707735511 807.3950297023873 -45.430686201465356 0.0 0.0
1404.0735275513593 327.25865939468497 864.2357286442916 -40.96193569566715 0.0 0.0
1467.641590541924 374.87458176766387 919.7585188401492 -36.249454352295416 0.0 0.0
1512.8792789510549 410.28780710506226 959.9998901105572 -29.78179271542755 0.0 0.0
1512.8792789508327 410.2878071048589 959.9998901103472 29.781792715465343 0.0 0.0
1467.6415905417068 374.8745817675001 919.7585188399453 36.249454352388625 0.0 0.0
1404.0735275515492 327.25865939496447 864.2357286443397 40.961935695726524 0.0 0.0
1336.6845996956417 280.89527077398753 807.3950297024957 45.43068620142309 0.0 0.0
1270.9387112106688 240.1512545342361 754.1007428745648 49.659590791569215 0.0 0.0
1205.1266796765444 202.3680529171208 702.1893407299535 52.87425674633207 0.0 0.0
1139.0762896491444 166.78152263933669 651.2084871584706 55.13198917330986 0.0 0.0
1072.7487884046168 133.22588708906278 601.0595667216999 56.820698961773644 0.0 0.0
1005.8349114966435 102.16523160652372 551.8043161170733 58.1920292410945 0.0 0.0
938.0974715189217 73.21385020782219 503.0674360189266 59.35123886128684 0.0 0.0
868.5954237564281 46.54226062543134 454.3631405995461 59.63406188176242 0.0 0.0
797.3045492723855 22.65923078568605 405.62022431087763 58.22840504507974 0.0 0.0
724.4950495557534 3.0996570290679557 356.13403720573893 55.116255764696916 0.0 0.0
650.3923934044298 -9.829997329740976 301.52909184693704 52.109858902230236 0.0 0.0
571.9103130525581 -19.023538151450552 230.6068456675405 52.10637728584545 0.0 0.0
483.6379181609887 -19.382597440567572 158.17311595084158 57.01720220313861 0.0 0.0
390.125317516473 -3.448015278533301 116.90060491747163 55.41078053996003 0.0 0.0
293.7205083087599 35.8476645352934 98.87045185321597 33.832189073955945 0.0 0.0
153.03012154980712 -53.48945209373483 29.862200836821685 45.20889588765209 0.0 0.0
14.039775199005561 -555.8694602633881 -267.20549153575206 173.61591654376005 0.0 0.0
-6.044762867806156 -544.2892901747704 -264.0592972941505 -175.68551846512338 0.0 0.0
88.3558706644811 -50.73755360320437 11.285495118383022 -91.45001946796289 0.0 0.0
229.6708263575002 32.60076323975624 78.68147687917693 -66.13454833146118 0.0 0.0
336.9588804524725 5.2878037127828845 102.74253620917139 -77.205462333669 0.0 0.0
437.04666355862196 -17.240471747835024 135.27084106508264 -83.13031136841789 0.0 0.0
534.8005882677146 -19.451684215196934 202.3274482012573 -75.77177985809587 0.0 0.0
619.7193210697923 -10.687502942607544 278.5619276495257 -73.62621543471067 0.0 0.0
696.6103625963156 3.0984471864220566 339.4227180198817 -76.31436804078396 0.0 0.0
768.1095172672607 20.489497113815148 388.9689536945301 -79.3728040790514 0.0 0.0
836.4166929311993 41.34438268668397 435.2349754595522 -80.55268188562532 0.0 0.0
901.7949336024299 64.21287959718371 480.1472292043243 -79.84460234599551 0.0 0.0
964.9318769603843 88.91437030377166 524.5269270407476 -78.23324879858433 0.0 0.0
1026.5412792824143 115.39486783951368 568.8810132172785 -76.34240889833356 0.0 0.0
1087.5442123045357 143.81859037670978 613.8411467067364 -74.08729321052529 0.0 0.0
1147.5756671296763 173.5493361257179 658.9200811048025 -71.12967096490783 0.0 0.0
1206.9782991835648 205.29083808251204 704.623979213945 -67.16969291663656 0.0 0.0
1267.8392661814603 240.9447557436519 752.9240906919741 -62.23944292937167 0.0 0.0
1329.9597959397072 281.46769847496176 804.2228417808208 -56.41209301925561 0.0 0.0
1387.8512345804888 322.31026460342196 853.5421897528939 -48.55257201424991 0.0 0.0
1429.9724025974308 352.9176192303617 889.8337557152561 -36.71410968373604 0.0 0.0
1429.9724025983137 352.9176192312626 889.8337557158638 36.714109683819345 0.0 0.0
1387.8512345805893 322.31026460360744 853.5421897528942 48.552572014502196 0.0 0.0
1329.9597959395605 281.4676984749181 804.2228417807711 56.412093019368584 0.0 0.0
1267.8392661814273 240.9447557437145 752.9240906919174 62.23944292941469 0.0 0.0
1206.9782991824184 205.29083808145583 704.6239792130557 67.16969291661158 0.0 0.0
1147.5756671290949 173.5493361252481 658.9200811044703 71.12967096483945 0.0 0.0
1087.5442123044843 143.81859037683444 613.8411467066921 74.087293210576 0.0 0.0
1026.5412792818522 115.39486783913506 568.8810132168095 76.3424088983691 0.0 0.0
964.9318769590375 88.91437030262566 524.526927039748 78.23324879863043 0.0 0.0
901.7949336014378 64.21287959634603 480.14722920363243 79.84460234582696 0.0 0.0
836.4166929316966 41.344382687426275 435.2349754598824 80.55268188550255 0.0 0.0
768.1095172680839 20.489497114877224 388.9689536950074 79.37280407894202 0.0 0.0
696.6103625955545 3.0984471858473768 339.422718019315 76.31436804055004 0.0 0.0
619.7193210691589 -10.687502942975357 278.56192764902744 73.62621543469754 0.0 0.0
534.8005882677453 -19.451684214728758 202.32744820118208 75.77177985807944 0.0 0.0
437.0466635590324 -17.24047174673518 135.27084106544595 83.13031136843789 0.0 0.0
336.95888045232005 5.2878037129232975 102.74253620917648 77.20546233355654 0.0 0.0
229.6708263575424 32.60076323967671 78.68147687916571 66.13454833132454 0.0 0.0
88.35587066468929 -50.73755360267594 11.285495118604004 91.45001946768107 0.0 0.0
-6.044762867659571 -544.2892901745558 -264.05929729390687 175.68551846493352 0.0 0.0
-10.686347501856076 -520.9798262491631 -245.82201837262403 -173.12930876487653 0.0 0.0
52.375193653477666 -49.20349754146936 0.9515088336024924 -127.46825999080903 0.0 0.0
174.74723148433725 26.402346936475944 60.344873526243944 -98.70233438911647 0.0 0.0
280.49833741362966 10.843493132674833 87.41332658991759 -100.45091256343845 0.0 0.0
379.73458836247306 -12.597828297085751 113.69853575721403 -109.48542231273547 0.0 0.0
486.6445342775635 -19.327174936526514 171.2080606484447 -102.61450799648706 0.0 0.0
581.7064999208264 -11.891465037202952 249.44147665414386 -96.77269560046557 0.0 0.0
662.4084885535048 2.627370637204251 317.61622803292164 -97.53707883261559 0.0 0.0
733.4194644438351 18.410511943228208 368.9806841318204 -99.9912333006474 0.0 0.0
798.9171125446073 35.95714838480744 413.1401695243777 -100.75285921299954 0.0 0.0
860.500566048361 55.09566470302897 454.5712606742581 -99.55706195260659 0.0 0.0
918.9131870602073 75.54811317885417 494.5744680249901 -97.5025471534721 0.0 0.0
975.440326366238 97.35887560969016 534.1231775412193 -95.2368766670049 0.0 0.0
1030.6986959071612 120.68538742501102 573.70047597779 -92.41286084233226 0.0 0.0
1084.956011734448 144.91045745827614 613.1754553696741 -88.83881070711202 0.0 0.0
1138.5753676847228 170.47935043197072 652.9390279488138 -84.43002647157628 0.0 0.0
1192.6624045865233 199.33490722784234 694.4776603638686 -78.97561586699182 0.0 0.0
1248.5863059431338 232.85446598054824 739.1854282680065 -71.95206938225886 0.0 0.0
1302.4341743374544 267.84963546124305 783.5581905027311 -61.275545017568845 0.0 0.0
1344.7780697076678 296.1266698332216 818.7772320454231 -44.59826462756077 0.0 0.0
1344.7780697072 296.12666983279166 818.7772320451281 44.59826462774531 0.0 0.0
1302.434174337859 267.8496354617201 783.5581905030649 61.275545017713384 0.0 0.0
1248.5863059429078 232.85446598043973 739.1854282678938 71.9520693824298 0.0 0.0
1192.6624045856574 199.3349072270558 694.4776603632341 78.97561586699975 0.0 0.0
1138.5753676848747 170.47935043221634 652.9390279488355 84.43002647152377 0.0 0.0
1084.9560117345845 144.91045745855672 613.1754553697006 88.83881070713312 0.0 0.0
1030.6986959063208 120.68538742438787 573.7004759772774 92.41286084250476 0.0 0.0
975.440326365598 97.35887560925889 534.1231775407966 95.23687666713717 0.0 0.0
918.9131870589148 75.54811317772376 494.5744680241108 97.5025471534316 0.0 0.0
860.5005660473951 55.09566470222845 454.57126067350845 99.55706195252807 0.0 0.0
798.9171125438951 35.95714838435538 413.14016952387715 100.75285921302714 0.0 0.0
733.4194644433904 18.41051194302115 368.9806841315589 99.99123330058327 0.0 0.0
662.4084885535525 2.6273706375744013 317.61622803292033 97.53707883258178 0.0 0.0
581.7064999206724 -11.891465036998682 249.4414766539483 96.77269560047688 0.0 0.0
486.64453427730393 -19.327174936466726 171.2080606482069 102.61450799634831 0.0 0.0
379.7345883622104 -12.597828297065547 113.69853575712338 109.48542231257308 0.0 0.0
280.49833741349494 10.843493132714112 87.41332658989502 100.4509125632655 0.0 0.0
174.74723148433347 26.402346936303537 60.344873526191094 98.70233438896275 0.0 0.0
52.37519365345525 -49.20349754147897 0.9515088335928858 127.46825999067238 0.0 0.0
-10.68634750179234 -520.9798262488913 -245.82201837237815 173.12930876477907 0.0 0.0
-8.351878146932592 -489.78804398145627 -218.8460846218041 -169.35472327051414 0.0 0.0
31.050008147828983 -47.2119160414286 -4.8485723680798865 -154.33606224385815 0.0 0.0
128.10630073918796 19.530281421914584 44.29097464833076 -127.37615829208839 0.0 0.0
223.53107251107014 12.992671990838065 70.95314689198891 -123.86007042494766 0.0 0.0
314.8417514009342 -6.091156687987485 93.80974898427988 -133.78531833072176 0.0 0.0
422.33338744465425 -18.286649487170695 138.12073962181495 -132.2365941004124 0.0 0.0
529.5226682618452 -12.06054650737712 213.2144492775933 -122.55400632712622 0.0 0.0
618.0582764486664 0.875930638933994 287.378352096424 -119.6002761003958 0.0 0.0
691.6139858867542 15.992140710777914 343.9656325245174 -120.34600853913707 0.0 0.0
754.9899050791724 30.551244367643058 387.3475341421989 -120.2415939003869 0.0 0.0
812.7290563432628 45.78526592981518 425.4637816985492 -118.51138865366978 0.0 0.0
866.7112801702482 62.140096966340906 461.4135820463732 -116.03756551951392 0.0 0.0
917.9367326135111 79.34704388897546 496.1211575815023 -113.38571774228755 0.0 0.0
967.5680710657282 97.366954834863 530.2893254731158 -110.23483775505598 0.0 0.0
1016.4451039838309 116.3494806587986 564.4833389335423 -106.16261505512813 0.0 0.0
1063.7423310138715 136.12141952704573 598.2436384462455 -101.19343093864016 0.0 0.0
1110.5187622768547 157.02053323174349 632.2118378726659 -95.47264999643751 0.0 0.0
1159.0695507748176 181.9116933970938 668.9356206192098 -87.7892576747692 0.0 0.0
1209.2661590893902 211.02265690882138 708.5136212187631 -74.96539944035592 0.0 0.0
1254.417150304469 238.45764509857838 744.6610566876578 -54.079714394555474 0.0 0.0
1254.417150304609 238.45764509879123 744.6610566877299 54.07971439486262 0.0 0.0
1209.2661590901137 211.0226569096768 708.513621219198 74.96539944061962 0.0 0.0
1159.0695507742194 181.91169339663605 668.9356206187631 87.78925767501012 0.0 0.0
1110.5187622763872 157.02053323140422 632.2118378723447 95.47264999652847 0.0 0.0
1063.7423310140643 136.1214195274162 598.2436384464147 101.19343093879905 0.0 0.0
1016.4451039840087 116.34948065912334 564.4833389336147 106.16261505517718 0.0 0.0
967.5680710655336 97.36695483493787 530.2893254729183 110.23483775526759 0.0 0.0
917.9367326129965 79.34704388871475 496.12115758111196 113.38571774244033 0.0 0.0
866.7112801694111 62.1400969655723 461.41358204573834 116.03756551933188 0.0 0.0
812.7290563429938 45.78526592976664 425.4637816983723 118.51138865370004 0.0 0.0
754.9899050780782 30.551244366761935 387.3475341414692 120.24159390033513 0.0 0.0
691.6139858855795 15.992140709737328 343.96563252368617 120.34600853899352 0.0 0.0
618.058276447912 0.8759306384008738 287.37835209586643 119.60027610031673 0.0 0.0
529.5226682607424 -12.060546508339748 213.21444927679258 122.55400632698995 0.0 0.0
422.33338744392705 -18.286649487743897 138.120739621332 132.2365941002196 0.0 0.0
314.8417514005081 -6.091156688202025 93.80974898409474 133.78531833061857 0.0 0.0
223.5310725107883 12.992671990430276 70.95314689178342 123.86007042478822 0.0 0.0
128.10630073928138 19.53028142195461 44.29097464837079 127.37615829188343 0.0 0.0
31.050008147880224 -47.21191604122364 -4.848572368003022 154.3360622436489 0.0 0.0
-8.351878146850737 -489.7880439812044 -218.84608462155038 169.3547232703939 0.0 0.0
-2.8181863011511297 -452.3118315914958 -186.65380213084617 -165.79068548325083 0.0 0.0
16.45085578958581 -45.346209888129785 -8.668545865924425 -173.221355709284 0.0 0.0
87.20950327944422 13.13438568072037 30.103166688049377 -150.46143539500554 0.0 0.0
166.87380739161617 13.981685874379522 54.25352440211152 -145.4446654936238 0.0 0.0
245.9738103356293 -0.39283086900772957 74.23870972181274 -155.068762502103 0.0 0.0
344.0666924614006 -14.299084980220613 106.12669158087198 -161.90894511018968 0.0 0.0
458.72248954823135 -12.380357756419684 169.8718768170487 -152.1740499295396 0.0 0.0
559.2560479011171 -0.6305793588387605 246.89351177282583 -143.58488798048364 0.0 0.0
638.1041708655415 12.520034659879371 309.83860479272425 -140.9552937939051 0.0 0.0
701.8984986879515 24.95080503611358 355.6886627495094 -139.2403136142973 0.0 0.0
756.1526227586721 36.292114967506585 391.3727664020083 -136.73478518886074 0.0 0.0
805.8702098808712 48.77325972023715 423.7246063456605 -133.8322739570391 0.0 0.0
851.8208951265591 61.35228700553947 453.707028105135 -130.8502699958493 0.0 0.0
895.4610608716224 74.20393448763168 482.42275275779195 -127.4838520265733 0.0 0.0
938.3238683461007 87.65129592183385 510.8738979837973 -123.14499126218902 0.0 0.0
980.8550712171306 102.24728637476292 539.7138006913791 -117.64360350805227 0.0 0.0
1019.9114333345971 115.37047804913978 566.0581511857002 -111.44822566873103 0.0 0.0
1058.8567398511673 129.63421362248548 592.7205346880121 -103.79587897632311 0.0 0.0
1104.6577341743712 150.7940555340072 626.0646618938811 -90.17416629162193 0.0 0.0
1155.2054754525457 178.32791724916257 664.8434070756402 -66.11601110153877 0.0 0.0
1155.2054754510784 178.32791724769186 664.843407074617 66.11601110161328 0.0 0.0
1104.657734173536 150.79405553323681 626.0646618933089 90.17416629176446 0.0 0.0
1058.8567398499126 129.6342136212849 592.720534687108 103.79587897637576 0.0 0.0
1019.9114333354098 115.37047805009104 566.058151186111 111.448225668889 0.0 0.0
980.8550712170999 102.24728637489153 539.7138006912916 117.64360350810728 0.0 0.0
938.3238683455114 87.65129592126854 510.87389798341576 123.14499126200579 0.0 0.0
895.4610608715711 74.20393448775283 482.42275275777644 127.48385202664646 0.0 0.0
851.8208951260065 61.352287005189226 453.7070281047833 130.8502699959021 0.0 0.0
805.8702098815322 48.7732597210445 423.724606345981 133.83227395700425 0.0 0.0
756.1526227591099 36.29211496823734 391.3727664022348 136.73478518891193 0.0 0.0
701.8984986877408 24.950805036065503 355.68866274935067 139.24031361415 0.0 0.0
638.1041708654714 12.520034660042967 309.8386047926403 140.95529379385778 0.0 0.0
559.2560479009089 -0.6305793587662833 246.893511772594 143.5848879804022 0.0 0.0
458.7224895477856 -12.380357756428854 169.87187681676082 152.17404992960476 0.0 0.0
344.06669246115234 -14.299084979978062 106.12669158081515 161.90894511012544 0.0 0.0
245.97381033573893 -0.39283086809620826 74.238709722117 155.06876250192042 0.0 0.0
166.87380739178957 13.981685874872554 54.25352440231245 145.44466549349391 0.0 0.0
87.20950327949974 13.134385680963767 30.103166688139048 150.46143539477498 0.0 0.0
16.450855789640965 -45.346209887811256 -8.668545865812375 173.22135570903058 0.0 0.0
-2.818186301002058 -452.3118315911287 -186.65380213055494 165.79068548319867 0.0 0.0
2.406853547521983 -409.9812033516638 -153.62315096846123 -163.26474720844055 0.0 0.0
3.036621436819393 -44.24564727007696 -12.362203147676123 -184.32986297596693 0.0 0.0
49.841863438415444 8.013769742919976 17.356286883153082 -167.92426138766382 0.0 0.0
111.37133653092503 15.087569659148244 37.93851099322518 -163.41406904579375 0.0 0.0
174.9076488155493 3.230724436920594 53.77796393509829 -173.7492949638117 0.0 0.0
251.57719976576251 -7.442835485948356 76.13175024402025 -186.07169176691542 0.0 0.0
360.464336563717 -10.717459019853372 121.77710105087073 -184.99495555314803 0.0 0.0
475.6401731304111 -2.2538286097078806 192.6939687021603 -171.85506682731193 0.0 0.0
565.7627151536913 8.526474924019382 261.0397527937316 -163.05223673671819 0.0 0.0
632.3466468576967 18.60371558287746 312.10336008902283 -158.1484638294706 0.0 0.0
685.3814159500251 26.548308445100716 348.4784439891352 -154.5114290100908 0.0 0.0
730.6701741950649 35.24777836973193 378.057853244569 -150.96613412352826 0.0 0.0
771.3334789685197 43.64112456810247 403.9372704063424 -147.57725156505907 0.0 0.0
808.8024081699066 51.338708162373806 427.305951421281 -144.12586958914332 0.0 0.0
845.2671478308218 59.025215371398545 449.826237653848 -139.89538042395083 0.0 0.0
882.4131195893665 68.03315495375617 473.1820638430352 -133.98247633024624 0.0 0.0
917.4677958999188 76.06043627844412 495.09821036407874 -126.8777396620862 0.0 0.0
945.1804042364699 78.12103411273796 510.28168031048364 -119.42899204815677 0.0 0.0
980.9656453746693 85.94776095851856 531.8568548107849 -107.04617416741205 0.0 0.0
1038.7721584326487 113.23879147713535 573.8708171822594 -82.10087475786462 0.0 0.0
1038.7721584330113 113.23879147758117 573.870817182501 82.1008747580438 0.0 0.0
980.9656453751759 85.94776095915591 531.856854811177 107.04617416773307 0.0 0.0
945.1804042356657 78.12103411205447 510.2816803099523 119.4289920483194 0.0 0.0
917.4677958983067 76.06043627690667 495.0982103630051 126.87773966224924 0.0 0.0
882.4131195887443 68.0331549531526 473.1820638425395 133.98247633013744 0.0 0.0
845.2671478298021 59.02521537046039 449.8262376531434 139.8953804239297 0.0 0.0
808.8024081699914 51.338708162645304 427.30595142129283 144.1258695892281 0.0 0.0
771.3334789690388 43.64112456886977 403.93727040666477 147.57725156522508 0.0 0.0
730.6701741945745 35.24777836955353 378.0578532442555 150.96613412371227 0.0 0.0
685.381415949586 26.54830844498005 348.47844398884683 154.51142901020586 0.0 0.0
632.3466468576138 18.603715583047645 312.10336008890573 158.1484638294604 0.0 0.0
565.7627151533989 8.526474924105713 261.03975279353637 163.05223673679478 0.0 0.0
475.6401731295971 -2.2538286103235023 192.69396870154952 171.85506682721163 0.0 0.0
360.4643365633921 -10.717459019712582 121.77710105072181 184.99495555310006 0.0 0.0
251.57719976544092 -7.4428354860929975 76.131750243862 186.07169176659895 0.0 0.0
174.90764881534096 3.230724436777371 53.77796393499188 173.74929496360372 0.0 0.0
111.3713365308438 15.08756965898136 37.938510993154075 163.4140690456063 0.0 0.0
49.84186343833735 8.013769742912276 17.356286883127854 167.92426138740257 0.0 0.0
3.036621436868532 -44.24564726991153 -12.362203147613126 184.32986297579507 0.0 0.0
2.4068535476294812 -409.9812033513669 -153.62315096821783 163.26474720830794 0.0 0.0
3.53763255627144 -363.5496100823459 -124.03485788412661 -160.0976042642711 0.0 0.0
-13.0871685642166 -45.134411301561165 -17.466057356349346 -189.88531968835872 0.0 0.0
14.719754807193787 4.976141254154411 5.908591507677133 -180.01363722893228 0.0 0.0
57.37605643541929 16.210268160043675 22.08196337374814 -177.0703404627112 0.0 0.0
101.69983667957817 6.914365654935324 32.80279750578568 -187.88556946519657 0.0 0.0
151.92178192397245 -2.101253902263839 46.23864154952184 -203.96439554761753 0.0 0.0
230.4904591739011 -4.702727578605989 73.39689174539731 -213.04244746776908 0.0 0.0
343.5836880996437 -2.1772154210396977 123.20902757431973 -205.69274504573156 0.0 0.0
451.9599255445525 4.853016450254451 187.10536251024638 -190.02653013472658 0.0 0.0
528.328625818674 11.09151377788227 242.597254055328 -178.5846358157415 0.0 0.0
582.5016069570543 16.97880744193104 283.7442805799651 -172.14332795785583 0.0 0.0
624.209284595552 21.418508689389938 313.19373795449656 -167.67120635642598 0.0 0.0
659.6436689756117 25.983091275535813 336.90396170763137 -163.70860385516124 0.0 0.0
690.7099922838181 29.130465845484366 356.13816256862117 -160.03652303306944 0.0 0.0
719.755338371033 30.921349833535075 372.70828076995855 -156.0154448481584 0.0 0.0
749.9902156381371 32.94322183008293 389.3653823045198 -150.5487221678602 0.0 0.0
783.8178027607677 36.834115749907795 408.49939348856185 -142.39676396193784 0.0 0.0
810.3420087467451 34.117722379435946 421.0936156430663 -133.52575641021613 0.0 0.0
825.2825396790793 16.700471111408774 419.92407387817957 -124.4977757091438 0.0 0.0
887.9163925651646 37.068596439358885 460.0618998861244 -104.43522095296113 0.0 0.0
887.9163925651239 37.06859643952805 460.0618998862607 104.43522095332503 0.0 0.0
825.2825396787886 16.70047111117333 419.9240738780001 124.49777570943411 0.0 0.0
810.3420087465331 34.1177223794208 421.09361564293874 133.5257564105111 0.0 0.0
783.817802761971 36.83411575164203 408.49939348947385 142.39676396236644 0.0 0.0
749.9902156396771 32.9432218319383 389.36538230561627 150.5487221679855 0.0 0.0
719.755338371685 30.921349834501797 372.70828077045144 156.0154448483326 0.0 0.0
690.7099922837546 29.130465845748233 356.13816256864845 160.03652303333837 0.0 0.0
659.6436689752079 25.98309127517706 336.903961707354 163.708603855151 0.0 0.0
624.2092845951587 21.418508689015354 313.1937379541829 167.67120635630795 0.0 0.0
582.5016069570383 16.97880744202513 283.744280579929 172.14332795775837 0.0 0.0
528.3286258179138 11.091513777173994 242.5972540547835 178.58463581559687 0.0 0.0
451.95992554380365 4.853016449491584 187.10536250969028 190.0265301346384 0.0 0.0
343.58368809913577 -2.1772154210717005 123.20902757404106 205.69274504574295 0.0 0.0
230.49045917366982 -4.702727578354365 73.39689174537696 213.04244746772767 0.0 0.0
151.92178192399962 -2.1012539017961567 46.23864154966539 203.9643955474054 0.0 0.0
101.69983667974533 6.914365655344836 32.8027975059584 187.88556946496476 0.0 0.0
57.37605643534515 16.210268159923253 22.08196337369289 177.07034046251067 0.0 0.0
14.719754807075205 4.9761412540058645 5.908591507597311 180.0136372287521 0.0 0.0
-13.087168564291172 -45.13441130160286 -17.46605735638573 189.885319688269 0.0 0.0
3.5376325562514666 -363.549610082102 -124.03485788397151 160.09760426412873 0.0 0.0
-0.8088196387204967 -313.80336158268153 -99.56196252630934 -153.89733459999584 0.0 0.0
-32.11857495235034 -48.40414042660994 -24.156063703487956 -192.2383072455669 0.0 0.0
-18.892262389403673 4.024690827508144 -4.461337144088941 -187.35241198811377 0.0 0.0
4.884613008025688 17.23378949159823 6.6416579756008 -185.8967154207444 0.0 0.0
27.930530919533407 10.994760928497067 11.75052251006439 -196.28052556519722 0.0 0.0
48.97792094222106 2.7044534456179345 15.919478731389484 -214.06928763630413 0.0 0.0
77.0937122115814 -0.6284128076656277 24.32348305800335 -229.24504935079474 0.0 0.0
127.58683167489986 0.7495746621739166 42.17045826466438 -232.86882957601884 0.0 0.0
205.91139873045037 4.410912633744889 72.46021100299102 -221.16285400923644 0.0 0.0
285.1275118696284 6.730983494381505 109.16737704389911 -204.99589039271066 0.0 0.0
350.24890989861086 8.53823472861194 147.1613362416277 -192.46097591770047 0.0 0.0
394.5767979861354 8.710268857175166 177.69908567991098 -184.52838709277023 0.0 0.0
425.06425968585415 9.28029807164684 201.47309215997552 -178.80377537536322 0.0 0.0
449.0770346814194 7.6411049711489625 219.46234551604434 -174.31873144872185 0.0 0.0
471.7104465549489 3.654807894559184 233.57487784238128 -170.26293739429218 0.0 0.0
498.97092558164996 -2.105797097312859 246.83049497558684 -165.83114488124866 0.0 0.0
535.8745524460566 -6.261239206993849 263.79977687743934 -158.8987570825904 0.0 0.0
582.7125377162494 -6.295814966913241 287.2878417628136 -147.63714632526924 0.0 0.0
605.5392334077083 -34.051354338115345 286.35484996549894 -136.69263196140938 0.0 0.0
638.4949804124626 -72.0458357296865 280.8348101238497 -132.71884057509695 0.0 0.0
638.494980411922 -72.04583573043163 280.83481012347204 132.7188405751175 0.0 0.0
605.5392334066734 -34.05135433955229 286.35484996475816 136.69263196148796 0.0 0.0
582.7125377157669 -6.295814967485057 287.2878417625219 147.637146325473 0.0 0.0
535.874552445254 -6.261239207751487 263.79977687691667 158.89875708275298 0.0 0.0
498.9709255801626 -2.105797099395204 246.8304949743556 165.8311448810676 0.0 0.0
471.71044655456626 3.6548078938168658 233.57487784200856 170.2629373941647 0.0 0.0
449.0770346809504 7.641104970663548 219.46234551576381 174.31873144873498 0.0 0.0
425.0642596859153 9.280298071319677 201.47309215985365 178.8037753754002 0.0 0.0
394.57679798652936 8.710268857952144 177.69908568021123 184.5283870929013 0.0 0.0
350.24890989862814 8.538234728898239 147.1613362416433 192.46097591765624 0.0 0.0
285.12751186943143 6.730983494170005 109.16737704369707 204.99589039256205 0.0 0.0
205.91139873009755 4.4109126331512805 72.46021100267461 221.1628540091701 0.0 0.0
127.58683167476144 0.7495746622750641 42.17045826463228 232.86882957600278 0.0 0.0
77.09371221171507 -0.6284128072337563 24.32348305817331 229.24504935064004 0.0 0.0
48.97792094230028 2.704453445847345 15.919478731483313 214.06928763601866 0.0 0.0
27.930530919563783 10.994760928413312 11.750522510048386 196.28052556504048 0.0 0.0
4.884613008099091 17.233789491748674 6.6416579756683864 185.89671542060887 0.0 0.0
-18.892262389308787 4.024690827712714 -4.461337143999815 187.35241198793818 0.0 0.0
-32.118574952394084 -48.404140426468814 -24.156063703460454 192.23830724548043 0.0 0.0
-0.8088196387783597 -313.80336158229335 -99.56196252617212 153.8973345998562 0.0 0.0
-12.667448979512372 -263.61977868898157 -83.40278063490143 -143.64309238827235 0.0 0.0
-50.67317716012336 -51.10415992770523 -30.536148325695223 -192.2178246193161 0.0 0.0
-51.430389113883365 3.8670973504608317 -14.284136963066086 -190.5311513256251 0.0 0.0
-46.03441601412247 18.13034045024499 -8.399198451364978 -189.66966347665496 0.0 0.0
-44.95270338631827 15.033665038782122 -9.073437478274744 -198.46073298671726 0.0 0.0
-55.00231260506274 7.478768224484876 -14.71202017801026 -215.05950147864726 0.0 0.0
-79.61894987677385 2.6369665853061983 -24.53472938297549 -229.36611043340022 0.0 0.0
-128.41868763869473 -0.3442953327985361 -42.32778657022743 -233.03463515666132 0.0 0.0
-205.77308138883706 -4.208859605810076 -72.35535055428417 -221.2566797205921 0.0 0.0
-284.893316976572 -6.493828154706108 -109.00561257790827 -204.9729951907926 0.0 0.0
-350.44686041155535 -7.215764936978857 -146.6670167365706 -192.3276397521148 0.0 0.0
-396.1709121533098 -7.042529658702605 -177.7039719686776 -184.06314523133793 0.0 0.0
-429.4266959510876 -9.14924416848551 -203.25682626908127 -178.31800598247372 0.0 0.0
-455.3518042229874 -14.129544690259507 -225.2329923309222 -174.76027023405956 0.0 0.0
-473.1250493088134 -22.69828766876259 -244.17006044860725 -173.26835735169738 0.0 0.0
-479.81763514470776 -34.0187292423731 -259.2086248185789 -173.38906435982122 0.0 0.0
-466.3550320358149 -45.63263709492642 -266.80207529120094 -173.75844324808438 0.0 0.0
-403.5132720597529 -40.22262564048032 -251.1966395369597 -173.6502840272311 0.0 0.0
-220.97174498793373 -36.936397570993336 -189.47043535203923 -176.5369552685696 0.0 0.0
-13.339486544732551 -175.65268875121373 -68.8710882428654 -164.18335430521648 0.0 0.0
-13.339486545830425 -175.65268875313035 -68.87108824379493 164.18335430546531 0.0 0.0
-220.97174498799308 -36.936397571495434 -189.47043535224086 176.53695526906648 0.0 0.0
-403.5132720593422 -40.22262563997151 -251.19663953664383 173.65028402750974 0.0 0.0
-466.3550320361925 -45.632637095225164 -266.8020752914124 173.75844324814284 0.0 0.0
-479.817635143945 -34.018729241717494 -259.20862481805597 173.38906435981886 0.0 0.0
-473.12504930799037 -22.69828766800856 -244.17006044801826 173.26835735169075 0.0 0.0
-455.35180422325254 -14.129544690915651 -225.2329923311123 174.76027023416117 0.0 0.0
-429.42669595019686 -9.149244168229146 -203.25682626864705 178.3180059826673 0.0 0.0
-396.170912152544 -7.042529658296743 -177.703971968198 184.06314523135546 0.0 0.0
-350.4468604115319 -7.215764938134257 -146.66701673672947 192.32763975211452 0.0 0.0
-284.8933169761 -6.493828155200454 -109.00561257777474 204.97299519071555 0.0 0.0
-205.77308138834206 -4.2088596059067065 -72.35535055411356 221.25667972064667 0.0 0.0
-128.41868763822586 -0.3442953328307219 -42.327786570081294 233.03463515672507 0.0 0.0
-79.61894987642548 2.636966585313023 -24.53472938285885 229.3661104332594 0.0 0.0
-55.00231260481941 7.478768224784179 -14.71202017784514 215.05950147842725 0.0 0.0
-44.952703386052676 15.033665039092602 -9.073437478101406 198.46073298640087 0.0 0.0
-46.03441601389158 18.130340450580604 -8.399198451195968 189.66966347641596 0.0 0.0
-51.430389113754345 3.8670973507183084 -14.284136962952978 190.53115132548714 0.0 0.0
-50.673177160096714 -51.10415992754824 -30.536148325642948 192.217824619203 0.0 0.0
-12.66744897960752 -263.6197786887041 -83.40278063486261 143.64309238814502 0.0 0.0
-23.673709549965473 -215.5115588167347 -71.7524228920417 -130.61315882245108 0.0 0.0
-66.37550513862843 -50.9801311419093 -35.21277822381545 -188.61382624362165 0.0 0.0
-82.73018824522558 3.592957155300198 -23.77387725786087 -189.83508685417505 0.0 0.0
-95.3401999354921 18.850077245479923 -23.013907294183745 -188.51188886817798 0.0 0.0
-116.18204862746231 18.219118044590488 -29.73725844345887 -194.1524855909571 0.0 0.0
-156.94805448019693 11.793329443798747 -45.04292567743488 -206.3298256566754 0.0 0.0
-232.03899770777952 6.618543166896588 -73.49051425982282 -213.99120387196135 0.0 0.0
-343.33195439644555 2.4922917640006865 -123.16388229839609 -206.14540961645946 0.0 0.0
-451.5914352630898 -4.7047162752469305 -186.92638692517176 -190.18743865477572 0.0 0.0
-527.9954229115089 -10.728473296728211 -242.31524523526946 -178.54919420608516 0.0 0.0
-582.0691757014122 -15.973947904328554 -283.13841851554554 -171.87511891599743 0.0 0.0
-624.211527613526 -19.934696543371317 -312.51933320891686 -166.903936135895 0.0 0.0
-661.3775035427037 -25.806617856206458 -337.5356119835192 -162.63865025009673 0.0 0.0
-695.9891664462859 -34.56289027635256 -361.11650571418716 -160.0884739562414 0.0 0.0
-728.8515692830556 -47.214224587997904 -385.0466989358678 -159.92711898251682 0.0 0.0
-758.0922970296244 -62.85881176163528 -408.46914381593274 -162.14475602070198 0.0 0.0
-778.7472292294418 -78.36779447404703 -427.65584212773274 -167.1331581492296 0.0 0.0
-787.3413388999564 -91.4882531218436 -439.5765331607437 -175.01004755412285 0.0 0.0
-821.6841420119279 -145.56487350168504 -484.9644360879061 -184.14887257798992 0.0 0.0
-829.3668889627577 -234.0747367913923 -534.8839575352301 -203.2676991095375 0.0 0.0
-829.3668889634309 -234.07473679208994 -534.8839575357523 203.26769910977913 0.0 0.0
-821.684142012029 -145.56487350215284 -484.9644360881441 184.14887257846152 0.0 0.0
-787.3413388998258 -91.48825312214035 -439.5765331607174 175.01004755454048 0.0 0.0
-778.7472292283618 -78.3677944730317 -427.65584212696854 167.13315814929416 0.0 0.0
-758.0922970297854 -62.8588117620271 -408.4691438161055 162.1447560207001 0.0 0.0
-728.8515692829643 -47.21422458805267 -385.0466989358554 159.92711898253515 0.0 0.0
-695.9891664468603 -34.562890277188146 -361.116505714592 160.08847395630005 0.0 0.0
-661.37750354206 -25.806617856100615 -337.535611983198 162.63865025034735 0.0 0.0
-624.2115276133572 -19.93469654336495 -312.5193332087308 166.9039361358229 0.0 0.0
-582.0691757015232 -15.973947904924685 -283.1384185156024 171.87511891609557 0.0 0.0
-527.9954229111383 -10.728473296934666 -242.31524523503114 178.5491942061824 0.0 0.0
-451.591435262358 -4.704716274803992 -186.92638692466784 190.1874386547674 0.0 0.0
-343.3319543950327 2.492291765269428 -123.1638822974834 206.1454096164395 0.0 0.0
-232.03899770724786 6.618543166926084 -73.49051425960678 213.99120387181478 0.0 0.0
-156.94805448005468 11.793329443469613 -45.04292567748391 206.32982565647006 0.0 0.0
-116.18204862743858 18.21911804430064 -29.737258443539698 194.1524855907866 0.0 0.0
-95.34019993547368 18.850077245228523 -23.01390729425605 188.5118888680542 0.0 0.0
-82.73018824524058 3.592957155200702 -23.773877257899024 189.8350868540669 0.0 0.0
-66.37550513859937 -50.98013114191225 -35.2127782238138 188.61382624353132 0.0 0.0
-23.673709549955696 -215.5115588165148 -71.75242289197477 130.61315882242573 0.0 0.0
-28.06312754000863 -170.40439467997146 -59.54025666599401 -115.98657707535286 0.0 0.0
-79.32395086048678 -48.36416795742983 -38.303663174461214 -181.04149415350213 0.0 0.0
-112.40899636454625 3.233504429270323 -32.77776799903442 -185.06601549099332 0.0 0.0
-142.92278078972478 19.04107135934651 -37.27827435791659 -182.31727479399797 0.0 0.0
-185.21318946947795 20.11903520609588 -50.19907176180784 -183.95075456062426 0.0 0.0
-253.92871938903988 16.08605225045869 -74.86147363489192 -189.57923849074268 0.0 0.0
-359.8038273939805 12.338575991209108 -121.47633233013818 -186.33579044204407 0.0 0.0
-474.86289829138707 2.5808212442693232 -192.34499104108497 -172.4363959042007 0.0 0.0
-565.5180895995952 -8.430842820489204 -260.89097166296295 -163.11286412324247 0.0 0.0
-632.1125500321796 -18.3381792733241 -311.89897991059865 -158.12599821376875 0.0 0.0
-685.0468664158752 -25.823263014840194 -348.0034325074673 -154.2484689954639 0.0 0.0
-730.5180433461394 -34.036780742565455 -377.39391413207625 -150.0577212480548 0.0 0.0
-772.4291720371846 -43.25300159980492 -404.1861608080359 -146.0518963491012 0.0 0.0
-813.0869702588709 -55.351740071746576 -431.19864812821436 -143.42020045649753 0.0 0.0
-853.8239481972214 -71.95215801889893 -460.2867512361796 -143.32810371716153 0.0 0.0
-892.5950108068812 -92.12099440681004 -490.20570756337804 -146.32866027732166 0.0 0.0
-926.7960437768982 -113.68395734520843 -518.534784320222 -152.11150699505438 0.0 0.0
-965.1343455438596 -146.76564095307947 -554.6432977311763 -158.4750138273746 0.0 0.0
-1008.3187753157747 -196.03302678433897 -601.1551466532882 -164.18915214528104 0.0 0.0
-1106.3844594670118 -331.4346082025105 -717.1301121828595 -171.27065350604408 0.0 0.0
-1106.3844594660522 -331.43460820143156 -717.1301121822041 171.27065350592216 0.0 0.0
-1008.3187753152326 -196.03302678381448 -601.1551466529064 164.1891521454436 0.0 0.0
-965.13434554297 -146.76564095244078 -554.6432977305949 158.4750138276627 0.0 0.0
-926.7960437768616 -113.68395734536637 -518.5347843201548 152.1115069951582 0.0 0.0
-892.5950108064268 -92.12099440648359 -490.2057075629763 146.32866027731635 0.0 0.0
-853.8239481962471 -71.95215801801378 -460.28675123553523 143.3281037170833 0.0 0.0
-813.0869702580986 -55.35174007082135 -431.1986481275958 143.42020045614169 0.0 0.0
-772.4291720361557 -43.253001598852336 -404.1861608073329 146.05189634904485 0.0 0.0
-730.5180433454808 -34.03678074202586 -377.3939141316059 150.0577212479246 0.0 0.0
-685.0468664145865 -25.82326301347848 -348.003432506567 154.24846899514884 0.0 0.0
-632.1125500319907 -18.338179273405608 -311.8989799104926 158.12599821373107 0.0 0.0
-565.5180896002556 -8.430842821757025 -260.89097166337325 163.11286412340667 0.0 0.0
-474.8628982908049 2.580821244193661 -192.34499104073078 172.4363959043713 0.0 0.0
-359.803827393499 12.338575991191489 -121.47633232986648 186.33579044197853 0.0 0.0
-253.92871938853403 16.086052250538653 -74.8614736346936 189.57923849058966 0.0 0.0
-185.21318946930802 20.119035205983337 -50.19907176178892 183.95075456042886 0.0 0.0
-142.92278078970793 19.041071358942823 -37.278274358036285 182.3172747938767 0.0 0.0
-112.40899636454193 3.2335044291208974 -32.777767999083615 185.0660154908057 0.0 0.0
-79.32395086043121 -48.364167957431164 -38.30366317444604 181.04149415329263 0.0 0.0
-28.063127540012438 -170.40439467989492 -59.5402566659722 115.98657707519487 0.0 0.0
-29.64598690811733 -129.27489964958212 -47.67626596730983 -100.6935500118843 0.0 0.0
-90.06095425668916 -43.50283647636259 -40.068610188639845 -169.05042169811708 0.0 0.0
-140.24284836055418 2.7779870279305747 -41.2539019443679 -176.05693268170413 0.0 0.0
-188.61407017921658 18.19512363782403 -51.302493116841944 -171.30826182626274 0.0 0.0
-250.8230305605754 21.407402094575527 -69.97102200625818 -168.4912360866148 0.0 0.0
-342.3731114207328 20.972767431414226 -104.82133065738533 -165.9844425582985 0.0 0.0
-456.8728626094053 14.093065654619 -168.8528184344956 -153.8618213282795 0.0 0.0
-558.7796937207246 0.7895571942092516 -246.58267977648504 -143.86616875711363 0.0 0.0
-638.0282070117058 -12.517358582917709 -309.80655868069977 -140.96265538397193 0.0 0.0
-701.7612808790179 -24.78461710019188 -355.56258155687976 -139.2292442702538 0.0 0.0
-756.0129546600048 -35.866652714022834 -391.1089650944574 -136.48068127930986 0.0 0.0
-805.842030718145 -47.98408332390497 -423.3220292640816 -132.87596493478677 0.0 0.0
-852.3428085268804 -60.731863323669444 -453.6105045961595 -129.06218372303468 0.0 0.0
-897.7704508489387 -76.14475407665012 -484.4066429167095 -126.25416913120849 0.0 0.0
-943.8399147925702 -96.07044970301246 -517.6397102877349 -126.09101719373423 0.0 0.0
-991.1705777992229 -121.82672097208672 -554.4224261380202 -129.26078658837332 0.0 0.0
-1040.6393107754989 -155.09239088110314 -596.0363200823153 -134.65918145643658 0.0 0.0
-1094.242688708192 -198.9392524189699 -644.9454794265117 -139.62765116123944 0.0 0.0
-1165.5646525566917 -270.4610738207172 -716.2147538595093 -140.83148250100447 0.0 0.0
-1262.131124415962 -394.53019200918686 -826.4275110731089 -142.31254937644516 0.0 0.0
-1262.1311244155331 -394.5301920087999 -826.427511072829 142.31254937653065 0.0 0.0
-1165.564652556251 -270.4610738202916 -716.2147538592052 140.8314825010995 0.0 0.0
-1094.2426887081797 -198.93925241921812 -644.945479426513 139.62765116160153 0.0 0.0
-1040.6393107756003 -155.09239088137562 -596.0363200823579 134.6591814565752 0.0 0.0
-991.1705777988409 -121.82672097185724 -554.4224261377958 129.26078658838242 0.0 0.0
-943.83991479252 -96.07044970313322 -517.6397102877263 126.09101719380382 0.0 0.0
-897.7704508500542 -76.14475407809309 -484.4066429174942 126.25416913140438 0.0 0.0
-852.3428085268254 -60.731863323967616 -453.61050459613523 129.06218372327484 0.0 0.0
-805.8420307180438 -47.984083324092374 -423.3220292640166 132.87596493488672 0.0 0.0
-756.0129546597947 -35.8666527141214 -391.10896509434804 136.4806812793163 0.0 0.0
-701.7612808780552 -24.784617099506434 -355.56258155625073 139.22924427022002 0.0 0.0
-638.0282070108187 -12.517358582269749 -309.8065586800643 140.96265538394806 0.0 0.0
-558.7796937202544 0.7895571941356607 -246.58267977613858 143.86616875725912 0.0 0.0
-456.87286260884594 14.093065654786816 -168.85281843409868 153.86182132823217 0.0 0.0
-342.3731114201238 20.97276743159596 -104.82133065709358 165.9844425582152 0.0 0.0
-250.82303056040342 21.40740209426596 -69.97102200630094 168.49123608646173 0.0 0.0
-188.61407017878182 18.195123638321732 -51.302493116573956 171.30826182612768 0.0 0.0
-140.2428483603203 2.777987028219303 -41.253901944217446 176.0569326815666 0.0 0.0
-90.06095425657077 -43.50283647625133 -40.06861018857112 169.05042169797835 0.0 0.0
-29.64598690808043 -129.2748996494035 -47.67626596724517 100.6935500117605 0.0 0.0
-30.542525027924825 -92.79196389165364 -37.00034667587354 -84.98922644678979 0.0 0.0
-99.50542087220434 -36.934882650949326 -40.93209105694609 -152.9753661365139 0.0 0.0
-166.27934691060963 2.3491252436975705 -49.18364006306781 -162.56562111559074 0.0 0.0
-232.6268559947768 16.56901314130562 -64.96170216137494 -155.98725764227333 0.0 0.0
-313.1371168963047 23.056059988500586 -89.18740728428538 -148.70868880199416 0.0 0.0
-418.9752374023284 23.41057478731984 -136.42407458405415 -136.95884809981416 0.0 0.0
-527.8601479399445 13.494073962169566 -211.98070426462883 -123.51325284703023 0.0 0.0
-617.9628117469506 -0.9469223788698287 -287.2979351203153 -119.64737263626995 0.0 0.0
-691.6312586269484 -16.037367387061423 -344.00968549379735 -120.35247604585926 0.0 0.0
-754.9732400958314 -30.475249457531604 -387.30960021357714 -120.22948829886435 0.0 0.0
-812.8187866220728 -45.66856919651033 -425.44711079043543 -118.25552709004863 0.0 0.0
-866.8943442628422 -61.84930284693161 -461.36134421803274 -115.13053581988257 0.0 0.0
-917.8295559307937 -78.543982237943 -495.6708017779731 -111.6364675574716 0.0 0.0
-967.2370386692958 -96.79871795741454 -529.7924752296774 -108.80145628548847 0.0 0.0
-1018.4785780079316 -120.10629071676124 -567.2025903460105 -108.2614250204241 0.0 0.0
-1074.618641156853 -152.76932901026734 -611.708410163123 -110.88629373722871 0.0 0.0
-1137.665585465802 -196.89666819612745 -665.4198356940209 -115.69078593256792 0.0 0.0
-1209.9288188869778 -256.9283325288794 -731.6008163695661 -119.24213950611116 0.0 0.0
-1292.9748272910947 -339.25176003785543 -814.252271542405 -119.35496582636826 0.0 0.0
-1378.010381582437 -449.54770050546045 -912.0089683518752 -121.82493337510445 0.0 0.0
-1378.010381582928 -449.5477005060435 -912.0089683522771 121.82493337531315 0.0 0.0
-1292.9748272910938 -339.25176003799953 -814.2522715425295 119.35496582657056 0.0 0.0
-1209.9288188880676 -256.9283325301646 -731.6008163704148 119.24213950639512 0.0 0.0
-1137.6655854656242 -196.89666819606575 -665.4198356939079 115.69078593258945 0.0 0.0
-1074.6186411563222 -152.76932900981853 -611.7084101627116 110.88629373717431 0.0 0.0
-1018.4785780075784 -120.10629071652394 -567.2025903457379 108.26142502037989 0.0 0.0
-967.2370386672017 -96.79871795545753 -529.7924752282331 108.80145628545836 0.0 0.0
-917.8295559300627 -78.54398223734128 -495.6708017774604 111.63646755742596 0.0 0.0
-866.8943442632707 -61.849302847649284 -461.361344218319 115.13053581993904 0.0 0.0
-812.8187866225794 -45.668569197366246 -425.44711079076467 118.25552709015105 0.0 0.0
-754.9732400965236 -30.475249458603685 -387.309600214023 120.22948829894425 0.0 0.0
-691.631258627287 -16.037367387744666 -344.00968549401034 120.35247604584244 0.0 0.0
-617.9628117463824 -0.9469223786601155 -287.2979351199005 119.64737263629766 0.0 0.0
-527.8601479394749 13.49407396221115 -211.9807042642379 123.51325284703591 0.0 0.0
-418.97523740132596 23.41057478811294 -136.42407458341404 136.95884809970082 0.0 0.0
-313.1371168955919 23.056059989029507 -89.18740728391728 148.7086888018627 0.0 0.0
-232.62685599478112 16.569013140921342 -64.96170216149977 155.98725764218543 0.0 0.0
-166.27934691055918 2.34912524337852 -49.18364006315307 162.56562111549331 0.0 0.0
-99.50542087213654 -36.93488265096907 -40.93209105693168 152.97536613637726 0.0 0.0
-30.542525027963393 -92.79196389158705 -37.00034667586513 84.98922644662754 0.0 0.0
-31.318443400378634 -61.49197393900961 -27.843125201816473 -68.8492343995202 0.0 0.0
-108.11346602432751 -29.23589883607959 -41.20480945812213 -133.23827008089063 0.0 0.0
-190.77713393570616 1.842389609087788 -56.678236192165016 -144.68590643827744 0.0 0.0
-273.898927480514 14.352085933621357 -78.09251664408484 -136.3236782908274 0.0 0.0
-370.86296358902774 24.777228497796976 -108.60890370576212 -124.57307313687093 0.0 0.0
-482.0201893907986 23.201041608990405 -168.89660901734388 -106.83899835908151 0.0 0.0
-580.7896763508606 12.691138114079536 -248.55250577323818 -97.04982422793807 0.0 0.0
-662.4903715371785 -2.7783424152399476 -317.69796775499503 -97.47287411946797 0.0 0.0
-733.501780179881 -18.48806275634098 -369.0690242936016 -100.00720345154977 0.0 0.0
-799.0016945441441 -35.973284313966374 -413.18603141314514 -100.72339877169554 0.0 0.0
-860.7783647719074 -55.236606032578266 -454.76640053013614 -99.29414062924181 0.0 0.0
-919.2355327511107 -75.6674819885045 -494.79628353762865 -96.73529403114179 0.0 0.0
-974.7970016360161 -96.49628624280726 -533.406251735513 -93.82706418328507 0.0 0.0
-1028.1831117859538 -118.1562560053051 -571.1892866943667 -91.02468091027112 0.0 0.0
-1083.7728053468852 -144.58640949541976 -612.2771799541814 -89.77126621760135 0.0 0.0
-1148.2336642275081 -183.3339077286779 -663.881286329814 -91.41779054995678 0.0 0.0
-1224.5237066525635 -239.29133425398476 -730.0222463489292 -95.26477451136266 0.0 0.0
-1311.7364527431696 -313.46426098723225 -810.7425936347138 -98.67767905173332 0.0 0.0
-1400.9962861037156 -402.2321982022328 -899.8077824721186 -100.59076332577781 0.0 0.0
-1479.2203142511669 -504.4520235063062 -990.2010607351895 -106.58103621885853 0.0 0.0
-1479.2203142510152 -504.45202350617024 -990.2010607350887 106.58103621886895 0.0 0.0
-1400.9962861032432 -402.2321982018266 -899.8077824718316 100.59076332590493 0.0 0.0
-1311.7364527432342 -313.4642609874704 -810.7425936347165 98.67767905199688 0.0 0.0
-1224.5237066513032 -239.29133425284115 -730.0222463479158 95.26477451144768 0.0 0.0
-1148.2336642270695 -183.333907728387 -663.8812863293966 91.4177905500633 0.0 0.0
-1083.7728053476717 -144.58640949639323 -612.2771799546899 89.77126621762596 0.0 0.0
-1028.1831117861307 -118.15625600565399 -571.1892866944866 91.02468091030067 0.0 0.0
-974.7970016360016 -96.49628624303072 -533.4062517354896 93.82706418337281 0.0 0.0
-919.2355327510217 -75.667481988676 -494.7962835375896 96.73529403123186 0.0 0.0
-860.7783647713703 -55.236606032335466 -454.7664005298285 99.29414062925967 0.0 0.0
-799.0016945431943 -35.97328431323284 -413.18603141251134 100.72339877160582 0.0 0.0
-733.5017801793454 -18.48806275607128 -369.06902429324236 100.00720345146794 0.0 0.0
-662.4903715364363 -2.7783424148263194 -317.6979677544712 97.47287411947109 0.0 0.0
-580.7896763496711 12.69113811504998 -248.55250577237354 97.04982422781897 0.0 0.0
-482.0201893900286 23.201041609422603 -168.89660901681808 106.83899835905456 0.0 0.0
-370.8629635887753 24.7772284975022 -108.6089037057337 124.57307313677626 0.0 0.0
-273.89892748025767 14.352085933731079 -78.09251664398602 136.32367829065873 0.0 0.0
-190.77713393553302 1.8423896090113576 -56.67823619213684 144.68590643822563 0.0 0.0
-108.11346602430723 -29.2358988362173 -41.20480945815735 133.23827008077106 0.0 0.0
-31.318443400427743 -61.491973938981864 -27.84312520182288 68.84923439935366 0.0 0.0
-31.870367638951407 -35.855480488853 -20.317754438341318 -52.2189076435898 0.0 0.0
-115.7626367546853 -20.961330392425907 -41.01719014413336 -110.23719524974393 0.0 0.0
-213.9799611243922 1.1624838931767512 -63.84448268527551 -122.40200993018223 0.0 0.0
-314.16250940518705 12.461897456531844 -90.81119596728529 -113.06016687255891 0.0 0.0
-425.07950296043276 25.260460240801724 -129.51983745740154 -96.75298449630696 0.0 0.0
-531.6177319731705 22.171931286852523 -199.97509022981703 -78.50075799969825 0.0 0.0
-619.5344906644548 10.825951373312627 -278.2884946600344 -73.44428857327988 0.0 0.0
-696.7547455805218 -3.2339765187633986 -339.56258419134633 -76.22825660079023 0.0 0.0
-768.2387724706548 -20.584571405563537 -389.08069501026534 -79.38775741250807 0.0 0.0
-836.5932765172543 -41.456377925874705 -435.367931243502 -80.50291063137693 0.0 0.0
-902.1592530612678 -64.51374857807326 -480.46427946921744 -79.58669776482581 0.0 0.0
-965.2103059605533 -89.21048696221507 -524.8173799662674 -77.66184160995016 0.0 0.0
-1025.628858423789 -114.63933157563909 -568.08488879364 -75.41575868833426 0.0 0.0
-1084.244409564863 -140.7708966531452 -610.7018918811353 -72.97616098259448 0.0 0.0
-1143.9054037570415 -170.32404510306966 -655.3857673519883 -70.93638439187285 0.0 0.0
-1213.0777270705908 -212.91108543831155 -711.1814011332224 -70.90549275513024 0.0 0.0
-1300.754894724148 -278.74499484781893 -787.8694935129496 -73.85580056615028 0.0 0.0
-1400.7211838405308 -364.9655412441035 -881.007271966074 -78.34168333775571 0.0 0.0
-1498.6229983237877 -462.49371801680275 -978.8176070457421 -83.66392164280725 0.0 0.0
-1575.7267940734394 -562.7426213402401 -1067.6980354680607 -94.30964091818306 0.0 0.0
-1575.7267940728848 -562.7426213397521 -1067.6980354677378 94.30964091832857 0.0 0.0
-1498.62299832278 -462.4937180158554 -978.8176070450836 83.66392164287305 0.0 0.0
-1400.721183839341 -364.9655412429878 -881.0072719652011 78.3416833378002 0.0 0.0
-1300.7548947238388 -278.7449948476281 -787.8694935127455 73.85580056625152 0.0 0.0
-1213.077727069669 -212.91108543750187 -711.1814011326062 70.90549275511803 0.0 0.0
-1143.9054037566584 -170.32404510283735 -655.3857673516413 70.93638439192218 0.0 0.0
-1084.2444095641206 -140.77089665257847 -610.7018918806571 72.97616098257181 0.0 0.0
-1025.6288584235513 -114.63933157557604 -568.0848887934986 75.41575868828738 0.0 0.0
-965.21030596062 -89.21048696250811 -524.8173799663057 77.66184160993578 0.0 0.0
-902.1592530618099 -64.5137485789125 -480.46427946954356 79.58669776489388 0.0 0.0
-836.5932765170753 -41.45637792599335 -435.3679312433738 80.50291063143422 0.0 0.0
-768.2387724704856 -20.584571405695215 -389.0806950101584 79.38775741249218 0.0 0.0
-696.754745580344 -3.2339765189196967 -339.562584191194 76.22825660077669 0.0 0.0
-619.5344906643381 10.825951373091108 -278.28849465984837 73.44428857320598 0.0 0.0
-531.6177319731304 22.17193128651313 -199.97509022967327 78.50075799951927 0.0 0.0
-425.079502960214 25.260460240589133 -129.51983745731744 96.75298449617823 0.0 0.0
-314.16250940511446 12.461897456246263 -90.8111959673673 113.06016687236297 0.0 0.0
-213.97996112415765 1.1624838931510744 -63.84448268521374 122.40200993002495 0.0 0.0
-115.76263675462046 -20.961330392520114 -41.01719014414217 110.23719524958166 0.0 0.0
-31.87036763901686 -35.855480488909635 -20.317754438377946 52.21890764353856 0.0 0.0
-31.5816272317714 -16.337117967427304 -14.375623559759608 -35.21961049060337 0.0 0.0
-121.63100116167143 -12.582419021360629 -40.264026054909614 -84.19268271660549 0.0 0.0
-236.2788034460853 0.06100358770485936 -70.86533995751412 -95.65631102853578 0.0 0.0
-354.223869655556 11.96947517761437 -103.20526238216152 -86.13065559967342 0.0 0.0
-472.43728621608153 24.464990225829666 -151.9274828522254 -67.15556737641337 0.0 0.0
-570.34623879388 19.855369834453043 -229.17118580697263 -53.3051312307579 0.0 0.0
-650.5926849443863 9.650454769303465 -301.7017087020522 -51.83008968014204 0.0 0.0
-724.6804456714585 -3.2158837420642925 -356.28931499943104 -55.026652263652046 0.0 0.0
-797.4601031469638 -22.7626624220226 -405.7421940861094 -58.237251012661915 0.0 0.0
-868.8337957908852 -46.73499391729894 -454.5662451822327 -59.57209707612136 0.0 0.0
-938.4321373385599 -73.56195566734928 -503.3981677294015 -59.12993900651728 0.0 0.0
-1005.920954950173 -102.41854287843341 -551.9784424810493 -57.82614955452879 0.0 0.0
-1071.8205682645007 -132.66704084655527 -600.3386026293988 -56.32905907605375 0.0 0.0
-1136.3590956257317 -164.55373766815703 -648.7600990848626 -54.43348136002497 0.0 0.0
-1201.2100663797796 -198.93909698263172 -698.4814283479211 -52.03384059043809 0.0 0.0
-1272.4017876839903 -242.4926899603621 -755.7840151070674 -50.2197145325025 0.0 0.0
-1361.9286340591893 -309.2103721893612 -833.7363677079471 -51.66649199600056 0.0 0.0
-1477.3081977292877 -409.90578134532035 -941.7746990957951 -57.59016435855431 0.0 0.0
-1589.3345596247423 -520.8026500964478 -1053.3840451097392 -67.38006719884407 0.0 0.0
-1675.9064188899451 -628.9903119730221 -1150.98308802151 -83.61514816594928 0.0 0.0
-1675.906418889795 -628.9903119728909 -1150.9830880213271 83.61514816599626 0.0 0.0
-1589.334559625188 -520.8026500969756 -1053.3840451100584 67.38006719898095 0.0 0.0
-1477.3081977279717 -409.9057813440676 -941.7746990948499 57.59016435853854 0.0 0.0
-1361.9286340574363 -309.21037218771045 -833.7363677065133 51.666491996093825 0.0 0.0
-1272.4017876833348 -242.49268995981382 -755.784015106395 50.21971453243467 0.0 0.0
-1201.2100663805818 -198.93909698361506 -698.4814283484284 52.03384059057001 0.0 0.0
-1136.3590956249845 -164.55373766759195 -648.7600990842836 54.43348136006114 0.0 0.0
-1071.8205682644095 -132.6670408466785 -600.3386026292557 56.329059076142386 0.0 0.0
-1005.9209549500417 -102.4185428785338 -551.9784424809266 57.82614955448949 0.0 0.0
-938.4321373375343 -73.56195566652197 -503.3981677287633 59.1299390063728 0.0 0.0
-868.8337957902722 -46.73499391695631 -454.56624518189153 59.57209707614889 0.0 0.0
-797.460103145955 -22.762662421279344 -405.7421940854491 58.2372510125809 0.0 0.0
-724.6804456709924 -3.2158837419154196 -356.2893149991108 55.026652263702694 0.0 0.0
-650.5926849443576 9.650454768986641 -301.7017087019605 51.83008968009689 0.0 0.0
-570.3462387931121 19.85536983496798 -229.1711858063714 53.30513123065883 0.0 0.0
-472.43728621562275 24.46499022589275 -151.92748285194597 67.15556737632252 0.0 0.0
-354.2238696552768 11.969475177558351 -103.2052623821106 86.1306555995542 0.0 0.0
-236.27880344572316 0.061003587884468136 -70.8653399573516 95.65631102859129 0.0 0.0
-121.63100116150889 -12.582419021290978 -40.26402605483995 84.19268271654998 0.0 0.0
-31.581627231787817 -16.337117967369526 -14.375623559747199 35.21961049060338 0.0 0.0
-29.143068398490566 -3.317805093957854 -9.738262047734523 -18.367882436783805 0.0 0.0
-124.00253083944844 -4.710289893683488 -38.613846219939575 -55.070100260179444 0.0 0.0
-258.0890785729919 -1.2881031093019821 -77.81315450468816 -63.93923313453736 0.0 0.0
-395.69460226249595 12.808803192345941 -116.18616159535911 -55.63416334215921 0.0 0.0
-511.4850684095443 23.21483817701508 -175.00516734343367 -38.80840105137022 0.0 0.0
-598.7788423983731 16.38379185662805 -255.05119755143045 -30.631227820630166 0.0 0.0
-674.8257195710879 9.82803055030071 -318.81858934593146 -31.082443747370604 0.0 0.0
-747.9172895270833 -3.787704159205717 -369.96833511741136 -33.81966759243364 0.0 0.0
-821.78209979437 -24.771173988383936 -419.5518471752249 -36.53263706237321 0.0 0.0
-896.376490623875 -51.76979094478881 -471.18273666516257 -37.885833076795436 0.0 0.0
-970.1541217406116 -82.39827855352013 -523.8986160776656 -37.90495978167748 0.0 0.0
-1042.498983360109 -115.28202774107592 -576.8624369739255 -37.25206071325767 0.0 0.0
-1113.7178082796254 -150.69564180556438 -630.4167155057069 -36.3706244388721 0.0 0.0
-1184.953199817085 -188.6852022078634 -685.1956678286695 -35.176238458717286 0.0 0.0
-1256.8659709474732 -229.8360689240933 -741.8359679473224 -33.23136091278983 0.0 0.0
-1330.5400421416127 -275.7642323757004 -801.6522896186781 -30.497099172392495 0.0 0.0
-1413.0997948332108 -334.9606007952528 -872.3798808743358 -29.41265686165081 0.0 0.0
-1522.0745337907936 -427.8296035527931 -973.0962641048231 -35.08559319311118 0.0 0.0
-1681.1282568036895 -583.4618561397671 -1130.5912370725766 -49.97200990997013 0.0 0.0
-1789.127296558719 -710.6210312098048 -1248.4721848212162 -73.5148440658811 0.0 0.0
-1789.1272965596252 -710.6210312107579 -1248.4721848219283 73.51484406595036 0.0 0.0
-1681.1282568029496 -583.461856139083 -1130.5912370720073 49.97200991005802 0.0 0.0
-1522.0745337893995 -427.8296035514804 -973.0962641037237 35.08559319312558 0.0 0.0
-1413.099794833699 -334.9606007958479 -872.3798808745865 29.41265686169691 0.0 0.0
-1330.5400421419754 -275.76423237620116 -801.6522896187985 30.4970991723874 0.0 0.0
-1256.8659709470821 -229.8360689238597 -741.8359679468425 33.23136091283336 0.0 0.0
-1184.953199816529 -188.6852022074877 -685.1956678281837 35.1762384587812 0.0 0.0
-1113.7178082789 -150.69564180504858 -630.4167155051864 36.37062443889599 0.0 0.0
-1042.4989833595832 -115.28202774076422 -576.8624369734864 37.25206071319191 0.0 0.0
-970.1541217396078 -82.3982785527567 -523.8986160768948 37.90495978159208 0.0 0.0
-896.3764906233866 -51.76979094456283 -471.1827366647883 37.88583307668938 0.0 0.0
-821.7820997940587 -24.77117398835628 -419.55184717500293 36.53263706236497 0.0 0.0
-747.91728952614 -3.7877041585720903 -369.9683351167965 33.8196675924971 0.0 0.0
-674.8257195711135 9.828030549970606 -318.81858934586245 31.0824437473477 0.0 0.0
-598.778842398461 16.383791856076996 -255.051197551377 30.63122782078637 0.0 0.0
-511.4850684093107 23.214838176881557 -175.00516734325095 38.80840105139056 0.0 0.0
-395.6946022623516 12.80880319190949 -116.1861615954502 55.634163342073066 0.0 0.0
-258.0890785728339 -1.2881031095026678 -77.81315450470096 63.93923313439217 0.0 0.0
-124.0025308394519 -4.71028989388017 -38.613846219999616 55.07010026002999 0.0 0.0
-29.143068398496904 -3.3178050940349157 -9.738262047759545 18.367882436724024 0.0 0.0
-22.048257644037456 2.9403080088538873 -5.732384890555069 -2.9443193481637486 0.0 0.0
-119.76048143239261 1.798246746496618 -35.38867040576879 -22.30028015984051 0.0 0.0
-280.58383695892616 -2.359605790591665 -84.88303282485533 -26.188464871709144 0.0 0.0
-435.8488705017696 14.968148098977254 -130.53439853327373 -22.390986973155094 0.0 0.0
-544.2345320832223 20.77736644330925 -198.87420851997672 -13.188698455197542 0.0 0.0
-623.463753802303 14.552662268542313 -276.5330330270868 -10.208511655003843 0.0 0.0
-694.7213315176217 9.343074323328125 -332.5029565151982 -10.7459327294488 0.0 0.0
-766.8475924699871 -4.430906357072132 -380.9382397128983 -12.522748417275828 0.0 0.0
-842.0083279884186 -26.839736882854965 -431.1857239866245 -14.299762361044747 0.0 0.0
-919.7044596388258 -56.501501572242404 -485.48340714520947 -15.440074978860592 0.0 0.0
-997.8675340216383 -90.7726798573076 -542.1200749921011 -15.892918259577268 0.0 0.0
-1075.1355339835957 -128.36529133834048 -599.8567665008018 -15.842924317282671 0.0 0.0
-1151.9820699018394 -168.52771938832637 -658.5638277016865 -15.611148153528804 0.0 0.0
-1229.7174056024023 -212.3410789190227 -719.4684726615845 -15.106793781296844 0.0 0.0
-1309.1219612373868 -260.77212360968736 -783.4765925800103 -14.049651294802178 0.0 0.0
-1389.2609512943727 -313.3322433870238 -849.8846549718432 -12.128481165666944 0.0 0.0
-1467.9356100985287 -368.7989064767444 -916.9451865631954 -9.642192538597724 0.0 0.0
-1550.841237710507 -434.62309693826137 -991.1277640621008 -10.960577013166043 0.0 0.0
-1673.2042038403915 -549.8422211047944 -1109.611015049749 -26.86126950444732 0.0 0.0
-1992.0504985041302 -881.7997894220556 -1435.5329365123966 -60.81718018588671 0.0 0.0
-1992.0504985042141 -881.7997894221928 -1435.5329365124046 60.81718018599733 0.0 0.0
-1673.2042038383345 -549.8422211027855 -1109.6110150482968 26.86126950449179 0.0 0.0
-1550.841237709682 -434.6230969375187 -991.1277640615189 10.960577013217684 0.0 0.0
-1467.9356100975203 -368.79890647584386 -916.945186562479 9.642192538566665 0.0 0.0
-1389.2609512923914 -313.3322433851581 -849.8846549704546 12.12848116553724 0.0 0.0
-1309.1219612365626 -260.7721236090108 -783.4765925795253 14.049651294829069 0.0 0.0
-1229.717405602556 -212.34107891935852 -719.4684726616526 15.106793781372303 0.0 0.0
-1151.98206990117 -168.52771938787004 -658.5638277011631 15.611148153554772 0.0 0.0
-1075.13553398404 -128.3652913390332 -599.8567665010589 15.842924317208846 0.0 0.0
-997.8675340230545 -90.77267985899287 -542.1200749930086 15.892918259576938 0.0 0.0
-919.7044596392116 -56.50150157291249 -485.4834071454685 15.440074978880187 0.0 0.0
-842.008327987538 -26.83973688224914 -431.18572398608313 14.299762361039287 0.0 0.0
-766.8475924682914 -4.430906355651842 -380.9382397118283 12.522748417318455 0.0 0.0
-694.7213315170615 9.343074323580886 -332.5029565148281 10.74593272943589 0.0 0.0
-623.4637538021713 14.55266226832427 -276.53303302691745 10.208511654922923 0.0 0.0
-544.2345320829404 20.777366443256792 -198.87420851971848 13.188698455152487 0.0 0.0
-435.8488705017066 14.968148098537897 -130.53439853335277 22.390986973255416 0.0 0.0
-280.5838369587309 -2.359605790678801 -84.8830328248229 26.18846487169633 0.0 0.0
-119.76048143219265 1.7982467465335112 -35.38867040569773 22.30028015991737 0.0 0.0
-22.048257644083222 2.940308008759545 -5.732384890597102 2.9443193481808287 0.0 0.0
SCALARS Strain float 6
LOOKUP_TABLE default
0.012381945192201198 -0.013450108197336053 0.0 -0.007469490686591418 0.0 0.0
0.0025345689813921317 -0.0016444540052210632 0.0 0.0012529669843304725 0.0 0.0
0.0018542627687136437 -0.0007595019080753884 0.0 -3.7556121022574995e-05 0.0 0.0
0.0023875426098079536 -0.0011797132981554714 0.0 -0.00022945519605577225 0.0 0.0
0.0038177451014297335 -0.0023541670027611428 0.0 -0.00029753722557679385 0.0 0.0
0.006762997540744355 -0.004998533439634523 0.0 -0.0004646654572545983 0.0 0.0
0.011562852316413493 -0.009529888501821349 0.0 -0.000752774096886788 0.0 0.0
0.018540608836110976 -0.016236833364401626 0.0 -0.0012013005821928657 0.0 0.0
0.027861212897471403 -0.02526199394666584 0.0 -0.0018273980742660179 0.0 0.0
0.03949542352148645 -0.03657360430076473 0.0 -0.002577233701814119 0.0 0.0
0.053291276121919126 -0.05003064614824959 0.0 -0.0033555751836624736 0.0 0.0
0.06906321987818359 -0.06545552505828311 0.0 -0.0041146605437762385 0.0 0.0
0.08662490729505659 -0.08266502404545051 0.0 -0.0048610738701365674 0.0 0.0
0.10575680713548181 -0.10143528437630156 0.0 -0.005587694088192263 0.0 0.0
0.12608622396937258 -0.12138998247682453 0.0 -0.006259561136619518 0.0 0.0
0.1469506385644858 -0.1418702666615559 0.0 -0.0067415147073900394 0.0 0.0
0.16734023612032964 -0.16187901914458003 0.0 -0.006796728415687736 0.0 0.0
0.18593663800474358 -0.1801113274240449 0.0 -0.006206286248185033 0.0 0.0
0.2011683584333645 -0.1949978296351964 0.0 -0.005288378161560914 0.0 0.0
0.21073991486515412 -0.20403611897112173 0.0 -0.006155520062236963 0.0 0.0
0.21073991486514038 -0.20403611897110485 0.0 0.006155520062247288 0.0 0.0
0.20116835843332215 -0.19499782963515555 0.0 0.0052883781615846726 0.0 0.0
0.1859366380046715 -0.1801113274239765 0.0 0.006206286248196302 0.0 0.0
0.1673402361202376 -0.16187901914448677 0.0 0.006796728415693454 0.0 0.0
0.14695063856438603 -0.1418702666614564 0.0 0.006741514707381935 0.0 0.0
0.12608622396926983 -0.12138998247672816 0.0 0.006259561136617409 0.0 0.0
0.10575680713538244 -0.10143528437620075 0.0 0.005587694088192596 0.0 0.0
0.08662490729495842 -0.08266502404535148 0.0 0.004861073870135457 0.0 0.0
0.06906321987808534 -0.0654555250581863 0.0 0.004114660543768078 0.0 0.0
0.0532912761218326 -0.05003064614816477 0.0 0.0033555751836562564 0.0 0.0
0.03949542352141372 -0.03657360430069412 0.0 0.0025772337018037383 0.0 0.0
0.02786121289741661 -0.025261993946605443 0.0 0.0018273980742639084 0.0 0.0
0.018540608836069172 -0.016236833364362102 0.0 0.001201300582189424 0.0 0.0
0.011562852316385486 -0.009529888501795591 0.0 0.0007527740968849561 0.0 0.0
0.006762997540728066 -0.004998533439617647 0.0 0.00046466545725293296 0.0 0.0
0.003817745101422687 -0.002354167002752927 0.0 0.0002975372255765163 0.0 0.0
0.002387542609806226 -0.0011797132981546943 0.0 0.00022945519605610531 0.0 0.0
0.0018542627687134772 -0.0007595019080766097 0.0 3.755612102290806e-05 0.0 0.0
0.0025345689813902617 -0.0016444540052183432 0.0 -0.0012529669843274749 0.0 0.0
0.012381945192189825 -0.013450108197321538 0.0 0.0074694906865568345 0.0 0.0
0.008839570694167603 -0.010286363418346267 0.0 -0.009060136813460906 0.0 0.0
0.0013659578805991848 -0.0008259251127079592 0.0 0.000126468822396697 0.0 0.0
0.0015818678825471194 -0.0005589007229130916 0.0 -0.00012694963072984455 0.0 0.0
0.002086097375683521 -0.000977691039700801 0.0 -0.0004894793911348616 0.0 0.0
0.003228793505666537 -0.0018668128051329003 0.0 -0.0006632076600072145 0.0 0.0
0.005754676883764506 -0.004079435338114612 0.0 -0.001072240930146906 0.0 0.0
0.01003938427144 -0.008074421799109333 0.0 -0.001796816048600991 0.0 0.0
0.016351990186806567 -0.01410931695765516 0.0 -0.002859649403000708 0.0 0.0
0.024798535066655886 -0.022267119640101196 0.0 -0.004267240666367078 0.0 0.0
0.03530152168601404 -0.03246439630787368 0.0 -0.0058926544498387745 0.0 0.0
0.047692105682276005 -0.04454074115110229 0.0 -0.007554255947725963 0.0 0.0
0.061812122634720114 -0.05834275843921022 0.0 -0.009148096461082056 0.0 0.0
0.07753629071625454 -0.07374330111666882 0.0 -0.010731589236143035 0.0 0.0
0.09469401746106601 -0.09056948198694137 0.0 -0.012315537573856727 0.0 0.0
0.1129671691891018 -0.10850208371765957 0.0 -0.013786040569406577 0.0 0.0
0.1317952096649634 -0.1269825639121187 0.0 -0.014874727943904764 0.0 0.0
0.1503073835645045 -0.14514522518102613 0.0 -0.01512738394790425 0.0 0.0
0.1672967721530156 -0.16178543940964873 0.0 -0.014209967442954774 0.0 0.0
0.18109609901370538 -0.17519576908573198 0.0 -0.012393330077580034 0.0 0.0
0.18942090019064428 -0.18322229468913864 0.0 -0.009488488356171776 0.0 0.0
0.1894209001906313 -0.18322229468912576 0.0 0.009488488356196867 0.0 0.0
0.1810960990136662 -0.17519576908569068 0.0 0.012393330077622666 0.0 0.0
0.16729677215295213 -0.16178543940959278 0.0 0.014209967442980531 0.0 0.0
0.1503073835644248 -0.14514522518095285 0.0 0.015127383947918793 0.0 0.0
0.13179520966487512 -0.1269825639120259 0.0 0.01487472794389566 0.0 0.0
0.11296716918900918 -0.10850208371756276 0.0 0.013786040569400915 0.0 0.0
0.0946940174609765 -0.09056948198685078 0.0 0.012315537573852398 0.0 0.0
0.07753629071616658 -0.07374330111657956 0.0 0.010731589236136596 0.0 0.0
0.061812122634633315 -0.05834275843912495 0.0 0.009148096461070065 0.0 0.0
0.04769210568219823 -0.04454074115102591 0.0 0.0075542559477137505 0.0 0.0
0.0353015216859488 -0.03246439630780973 0.0 0.005892654449823231 0.0 0.0
0.024798535066606286 -0.022267119640054123 0.0 0.00426724066636075 0.0 0.0
0.016351990186768695 -0.014109316957618745 0.0 0.0028596494029933806 0.0 0.0
0.010039384271415208 -0.008074421799086018 0.0 0.0017968160485979379 0.0 0.0
0.005754676883750864 -0.00407943533810351 0.0 0.001072240930142243 0.0 0.0
0.003228793505661187 -0.0018668128051291255 0.0 0.000663207660007159 0.0 0.0
0.0020860973756823276 -0.0009776910397003569 0.0 0.0004894793911353057 0.0 0.0
0.001581867882546495 -0.0005589007229133136 0.0 0.000126949630729567 0.0 0.0
0.001365957880599622 -0.0008259251127062384 0.0 -0.00012646882239786272 0.0 0.0
0.008839570694153698 -0.010286363418330603 0.0 0.009060136813433095 0.0 0.0
0.006570577310691654 -0.008188647663893212 0.0 -0.0084138810476998 0.0 0.0
0.0008005914846339474 -0.0005417857440496165 0.0 -0.0005877156465415312 0.0 0.0
0.001266525366961077 -0.0004096481175661637 0.0 -0.00043981845796142727 0.0 0.0
0.0018009542994984543 -0.000793798485187569 0.0 -0.0007338016348391596 0.0 0.0
0.00270490370592303 -0.001460046832579387 0.0 -0.0009751764304954946 0.0 0.0
0.004787640698587385 -0.003220653457448819 0.0 -0.0015209891451234414 0.0 0.0
0.008528592517949338 -0.006644409542105212 0.0 -0.002567901662655414 0.0 0.0
0.014138383889525985 -0.011970926401944748 0.0 -0.004130568635563492 0.0 0.0
0.021676448723611207 -0.019225280714874504 0.0 -0.0061523227619727505 0.0 0.0
0.031025876484084773 -0.028286874834118958 0.0 -0.008451853297950618 0.0 0.0
0.04200659839265709 -0.03897784087716483 0.0 -0.01080066319386791 0.0 0.0
0.0544782940602863 -0.05115868514184552 0.0 -0.013065138772914708 0.0 0.0
0.06835153999576377 -0.06473747151133624 0.0 -0.015292799734923312 0.0 0.0
0.08351275397268516 -0.07959862137379092 0.0 -0.017535666336152 0.0 0.0
0.09971730220989389 -0.09549793406323959 0.0 -0.019655723455016982 0.0 0.0
0.11651445938194459 -0.11198407796470367 0.0 -0.02126320889262051 0.0 0.0
0.13317400741597177 -0.12832405761562926 0.0 -0.021807471517800603 0.0 0.0
0.14857924602233097 -0.14338811019115028 0.0 -0.02081977948500402 0.0 0.0
0.16110915772461576 -0.15558460834231624 0.0 -0.017812942944441246 0.0 0.0
0.16891119593113998 -0.1631448619788065 0.0 -0.011846851326493768 0.0 0.0
0.168911195931128 -0.16314486197879585 0.0 0.01184685132653307 0.0 0.0
0.1611091577245803 -0.15558460834228205 0.0 0.0178129429444992 0.0 0.0
0.14857924602227437 -0.14338811019109254 0.0 0.02081977948504332 0.0 0.0
0.13317400741590285 -0.12832405761555865 0.0 0.02180747151781759 0.0 0.0
0.11651445938186719 -0.11198407796462817 0.0 0.021263208892611796 0.0 0.0
0.09971730220981176 -0.09549793406316454 0.0 0.019655723455008323 0.0 0.0
0.08351275397260532 -0.07959862137371143 0.0 0.01753566633614867 0.0 0.0
0.06835153999568533 -0.06473747151125453 0.0 0.015292799734914708 0.0 0.0
0.054478294060211374 -0.05115868514177091 0.0 0.013065138772897389 0.0 0.0
0.04200659839258869 -0.038977840877097325 0.0 0.010800663193854088 0.0 0.0
0.03102587648402716 -0.028286874834064335 0.0 0.00845185329793352 0.0 0.0
0.021676448723566222 -0.01922528071482832 0.0 0.006152322761961759 0.0 0.0
0.014138383889493011 -0.011970926401911886 0.0 0.004130568635554166 0.0 0.0
0.008528592517927591 -0.00664440954208434 0.0 0.0025679016626500295 0.0 0.0
0.004787640698575679 -0.0032206534574383827 0.0 0.0015209891451176683 0.0 0.0
0.0027049037059192482 -0.0014600468325767224 0.0 0.0009751764304937738 0.0 0.0
0.0018009542994975036 -0.0007937984851866808 0.0 0.0007338016348375498 0.0 0.0
0.0012665253669610355 -0.00040964811756649677 0.0 0.00043981845796142727 0.0 0.0
0.0008005914846344053 -0.0005417857440486173 0.0 0.0005877156465394773 0.0 0.0
0.006570577310678616 -0.008188647663878886 0.0 0.008413881047675542 0.0 0.0
0.004976430011090327 -0.006605216711763784 0.0 -0.007158845091621624 0.0 0.0
0.0005009574410496376 -0.000403149816690318 0.0 -0.0011888502530835177 0.0 0.0
0.0009814307716091014 -0.00029952463865623447 0.0 -0.0008597491283089953 0.0 0.0
0.0015242763721342173 -0.0006342979313853636 0.0 -0.001005222391323668 0.0 0.0
0.0022429916262685923 -0.0011328375605168528 0.0 -0.0012589568418736596 0.0 0.0
0.0038967142604643262 -0.002461361555956776 0.0 -0.0018394130083271842 0.0 0.0
0.0070443874076590585 -0.005269199916105638 0.0 -0.0030764241039504814 0.0 0.0
0.011926125410140292 -0.009847862354535053 0.0 -0.00500836165733104 0.0 0.0
0.018526017199660724 -0.016170881263509518 0.0 -0.0074738350545354715 0.0 0.0
0.02670353962388343 -0.024077547521728526 0.0 -0.010258903749725878 0.0 0.0
0.03626725446822891 -0.033374944383421035 0.0 -0.013095246521565462 0.0 0.0
0.04708830913331946 -0.043931562784709666 0.0 -0.015847593489598855 0.0 0.0
0.05910816403943983 -0.055686529718761424 0.0 -0.018569867645747418 0.0 0.0
0.07226065397013595 -0.06857024607135997 0.0 -0.021271786605170262 0.0 0.0
0.08637642548818222 -0.0824163353194618 0.0 -0.023825830858186015 0.0 0.0
0.10112309181895528 -0.09688930558599518 0.0 -0.025871975568356242 0.0 0.0
0.11591158928695763 -0.11138817306172344 0.0 -0.026786256814032572 0.0 0.0
0.1297654408675763 -0.12493414019518534 0.0 -0.02581033574407754 0.0 0.0
0.1412763169993997 -0.13614890962152604 0.0 -0.021898153025610267 0.0 0.0
0.14886315271712164 -0.14351770516203555 0.0 -0.01376895731367822 0.0 0.0
0.1488631527171104 -0.14351770516201956 0.0 0.013768957313728847 0.0 0.0
0.14127631699936788 -0.13614890962149362 0.0 0.021898153025679323 0.0 0.0
0.12976544086752576 -0.12493414019513516 0.0 0.02581033574412417 0.0 0.0
0.11591158928689854 -0.11138817306166438 0.0 0.026786256814053222 0.0 0.0
0.1011230918188882 -0.09688930558593434 0.0 0.025871975568347194 0.0 0.0
0.08637642548811059 -0.08241633531939296 0.0 0.023825830858174912 0.0 0.0
0.07226065397006629 -0.06857024607129025 0.0 0.021271786605163157 0.0 0.0
0.05910816403937175 -0.05568652971869614 0.0 0.01856986764573798 0.0 0.0
0.04708830913325521 -0.04393156278465238 0.0 0.01584759348958098 0.0 0.0
0.036267254468170584 -0.033374944383367744 0.0 0.013095246521543591 0.0 0.0
0.026703539623832817 -0.02407754752167479 0.0 0.010258903749700177 0.0 0.0
0.018526017199621492 -0.016170881263465553 0.0 0.007473835054517708 0.0 0.0
0.011926125410111621 -0.009847862354510184 0.0 0.005008361657315941 0.0 0.0
0.007044387407640962 -0.005269199916090539 0.0 0.003076424103943043 0.0 0.0
0.0038967142604551808 -0.002461361555946784 0.0 0.0018394130083221327 0.0 0.0
0.0022429916262659 -0.0011328375605104135 0.0 0.0012589568418720498 0.0 0.0
0.0015242763721334263 -0.0006342979313845865 0.0 0.0010052223913223912 0.0 0.0
0.0009814307716094484 -0.00029952463865667855 0.0 0.000859749128307219 0.0 0.0
0.0005009574410495543 -0.0004031498166883196 0.0 0.001188850253079854 0.0 0.0
0.004976430011079058 -0.006605216711751304 0.0 0.007158845091602084 0.0 0.0
0.0037591795865864475 -0.005314155970833734 0.0 -0.005868747710422284 0.0 0.0
0.00033425395132918867 -0.00032600754143796706 0.0 -0.0016570873798805175 0.0 0.0
0.0007436153267276063 -0.00022062642283349199 0.0 -0.0012831303470585143 0.0 0.0
0.0012553334647344289 -0.0004978231504619846 0.0 -0.001306193564567626 0.0 0.0
0.0018354134110082354 -0.0008737428193630326 0.0 -0.0015272444988810863 0.0 0.0
0.0030986017139401495 -0.0018215508739611863 0.0 -0.00208806836239378 0.0 0.0
0.005629292734498456 -0.00399077971142292 0.0 -0.003344481135172994 0.0 0.0
0.00973495727672366 -0.007769653102276397 0.0 -0.00545266077680695 0.0 0.0
0.015378137429310143 -0.013136516108272378 0.0 -0.008224665706148215 0.0 0.0
0.0223674911690631 -0.019871462308155508 0.0 -0.011309670829668439 0.0 0.0
0.030507522042058824 -0.027767187059207554 0.0 -0.014446948808043758 0.0 0.0
0.039675091331038345 -0.03669701979451023 0.0 -0.0174944495195688 0.0 0.0
0.04983855547943061 -0.04662471072039631 0.0 -0.02050955711354957 0.0 0.0
0.06097847945124575 -0.05752831033262584 0.0 -0.02351701023301378 0.0 0.0
0.07299258919618863 -0.06930650534706384 0.0 -0.026349221665289135 0.0 0.0
0.08564795340442273 -0.0817239659122917 0.0 -0.02866357552319454 0.0 0.0
0.09851355829683142 -0.09434060835247493 0.0 -0.029911629276693996 0.0 0.0
0.11084402807717342 -0.10640277567679002 0.0 -0.02913651223428604 0.0 0.0
0.12149106871092236 -0.11678338471031946 0.0 -0.024827166453672556 0.0 0.0
0.12906127300628442 -0.12414190906311173 0.0 -0.01539105186996359 0.0 0.0
0.12906127300627407 -0.12414190906310374 0.0 0.015391051870018435 0.0 0.0
0.12149106871089413 -0.11678338471028882 0.0 0.024827166453743055 0.0 0.0
0.11084402807712943 -0.10640277567674694 0.0 0.02913651223433822 0.0 0.0
0.0985135582967811 -0.09434060835242919 0.0 0.029911629276716756 0.0 0.0
0.08564795340436532 -0.08172396591223352 0.0 0.028663575523185325 0.0 0.0
0.07299258919612733 -0.06930650534700167 0.0 0.0263492216652772 0.0 0.0
0.06097847945118676 -0.057528310332570776 0.0 0.02351701023300723 0.0 0.0
0.049838555479373464 -0.04662471072034213 0.0 0.020509557113541188 0.0 0.0
0.03967509133098379 -0.03669701979446227 0.0 0.01749444951954937 0.0 0.0
0.03050752204200985 -0.02776718705916359 0.0 0.014446948808020665 0.0 0.0
0.02236749116902023 -0.019871462308115984 0.0 0.01130967082964296 0.0 0.0
0.015378137429276795 -0.013136516108240848 0.0 0.008224665706130785 0.0 0.0
0.009734957276699624 -0.007769653102251528 0.0 0.005452660776792462 0.0 0.0
0.005629292734484176 -0.003990779711408932 0.0 0.0033444811351648895 0.0 0.0
0.00309860171393328 -0.001821550873955191 0.0 0.0020880683623871743 0.0 0.0
0.001835413411006459 -0.0008737428193619223 0.0 0.0015272444988781997 0.0 0.0
0.0012553334647338599 -0.0004978231504616515 0.0 0.001306193564565572 0.0 0.0
0.0007436153267279255 -0.00022062642283426914 0.0 0.0012831303470565159 0.0 0.0
0.0003342539513291054 -0.00032600754143796706 0.0 0.001657087379878741 0.0 0.0
0.0037591795865770106 -0.005314155970823136 0.0 0.005868747710407962 0.0 0.0
0.0027983765024250234 -0.00423234851592541 0.0 -0.004736460354224037 0.0 0.0
0.00023334077335340764 -0.00027536173387676666 0.0 -0.002006368809170156 0.0 0.0
0.0005447996195905719 -0.00016094450597170518 0.0 -0.0016558900577971492 0.0 0.0
0.0009916495224758098 -0.0003766957396880155 0.0 -0.0016099765941242072 0.0 0.0
0.001471770450015772 -0.0006666497626213186 0.0 -0.0017901398342241026 0.0 0.0
0.002389721853258489 -0.0013053868980998917 0.0 -0.0022953546356126453 0.0 0.0
0.004326269774382149 -0.0028649166323180264 0.0 -0.0034804548726086737 0.0 0.0
0.007609182017769001 -0.005796556899400951 0.0 -0.005539783268524334 0.0 0.0
0.012259798842679095 -0.010156655324434993 0.0 -0.00837546970513875 0.0 0.0
0.018050772959003397 -0.015704995591825366 0.0 -0.011592117309116745 0.0 0.0
0.024759816726074968 -0.022191860518131712 0.0 -0.014838669129643545 0.0 0.0
0.03227376446522917 -0.029493234546863256 0.0 -0.017995192095202117 0.0 0.0
0.040580966749852426 -0.03759415688168444 0.0 -0.02112037830458119 0.0 0.0
0.049702702062504905 -0.046512253359757505 0.0 -0.02422450953446148 0.0 0.0
0.05960395311568589 -0.05620939726853358 0.0 -0.02716893709079138 0.0 0.0
0.07013135679910651 -0.0665351420211322 0.0 -0.029636844289220865 0.0 0.0
0.08100485992133005 -0.07720535765456749 0.0 -0.031115080228427794 0.0 0.0
0.09177096024784645 -0.08775112651826422 0.0 -0.030686422130837387 0.0 0.0
0.101616397783931 -0.097358792909497 0.0 -0.026582472656667133 0.0 0.0
0.1093121548182294 -0.10483708311404794 0.0 -0.016751119014618787 0.0 0.0
0.10931215481822046 -0.10483708311403817 0.0 0.016751119014676408 0.0 0.0
0.10161639778390652 -0.09735879290946858 0.0 0.026582472656739742 0.0 0.0
0.0917709602478097 -0.08775112651823047 0.0 0.03068642213089101 0.0 0.0
0.08100485992128781 -0.07720535765452752 0.0 0.031115080228449554 0.0 0.0
0.07013135679905919 -0.06653514202108335 0.0 0.02963684428921365 0.0 0.0
0.05960395311563513 -0.05620939726848162 0.0 0.027168937090778833 0.0 0.0
0.04970270206245675 -0.04651225335970999 0.0 0.024224509534452987 0.0 0.0
0.0405809667498061 -0.03759415688164047 0.0 0.02112037830457214 0.0 0.0
0.032273764465184734 -0.029493234546823288 0.0 0.01799519209518119 0.0 0.0
0.02475981672603489 -0.022191860518092632 0.0 0.014838669129621285 0.0 0.0
0.018050772958968675 -0.015704995591796056 0.0 0.011592117309090155 0.0 0.0
0.012259798842651687 -0.010156655324413677 0.0 0.008375469705120597 0.0 0.0
0.00760918201775021 -0.005796556899385852 0.0 0.0055397832685104564 0.0 0.0
0.004326269774371089 -0.0028649166323126973 0.0 0.0034804548726002915 0.0 0.0
0.00238972185325359 -0.0013053868980985595 0.0 0.00229535463560665 0.0 0.0
0.0014717704500143425 -0.0006666497626215406 0.0 0.0017901398342228259 0.0 0.0
0.0009916495224753519 -0.0003766957396893478 0.0 0.0016099765941222088 0.0 0.0
0.0005447996195909188 -0.00016094450597170518 0.0 0.0016558900577944846 0.0 0.0
0.0002333407733532411 -0.000275361733875934 0.0 0.002006368809167436 0.0 0.0
0.002798376502417682 -0.004232348515916893 0.0 0.004736460354212213 0.0 0.0
0.0020346505886128657 -0.0033182182286598527 0.0 -0.0037975727033901507 0.0 0.0
0.00016326837541888461 -0.00023839617534782143 0.0 -0.0022517659742337104 0.0 0.0
0.00037119118784406657 -0.00011029707654763854 0.0 -0.001955998660135072 0.0 0.0
0.0007319487670372077 -0.00026173073170099315 0.0 -0.0018905299692102417 0.0 0.0
0.001132667472969598 -0.000493028094592729 0.0 -0.0020510063369112985 0.0 0.0
0.001770370338585972 -0.0008985817404618679 0.0 -0.0024629664875909785 0.0 0.0
0.0031454754585293204 -0.0019130474413115994 0.0 -0.003482921201120759 0.0 0.0
0.0056091355459928355 -0.0039980975853626255 0.0 -0.005344813730723708 0.0 0.0
0.009218484323141776 -0.00729755870250548 0.0 -0.007975093855274451 0.0 0.0
0.013784630013291027 -0.011619554080343875 0.0 -0.01107219032555301 0.0 0.0
0.019055751206230986 -0.016688116197974612 0.0 -0.014256218041657054 0.0 0.0
0.024919130320562574 -0.02236239416866903 0.0 -0.017335989214918746 0.0 0.0
0.03137380094494914 -0.028640040524474664 0.0 -0.020369114491728235 0.0 0.0
0.038474719462978535 -0.03557054396674442 0.0 -0.02339299500436154 0.0 0.0
0.04624647141665486 -0.04317277329215141 0.0 -0.02627621554185222 0.0 0.0
0.05461809757214167 -0.05137246525557515 0.0 -0.028709279041625013 0.0 0.0
0.0634244202435813 -0.06002174011844241 0.0 -0.03030869844356654 0.0 0.0
0.0725089749888008 -0.06894655201247746 0.0 -0.030366508470123454 0.0 0.0
0.08149904505043423 -0.0777360121472297 0.0 -0.02706998874455624 0.0 0.0
0.08940955659492161 -0.08541280299536691 0.0 -0.017833715832551666 0.0 0.0
0.08940955659491548 -0.08541280299536869 0.0 0.01783371583260418 0.0 0.0
0.08149904505041378 -0.0777360121472137 0.0 0.027069988744627183 0.0 0.0
0.07250897498877146 -0.06894655201245481 0.0 0.030366508470174747 0.0 0.0
0.06342442024354697 -0.06002174011840378 0.0 0.03030869844358952 0.0 0.0
0.05461809757210398 -0.0513724652555374 0.0 0.0287092790416148 0.0 0.0
0.046246471416614504 -0.04317277329211411 0.0 0.026276215541835346 0.0 0.0
0.03847471946294176 -0.03557054396670756 0.0 0.023392995004351547 0.0 0.0
0.031373800944913766 -0.0286400405244418 0.0 0.0203691144917183 0.0 0.0
0.024919130320528837 -0.022362394168631727 0.0 0.017335989214898095 0.0 0.0
0.019055751206199595 -0.016688116197940417 0.0 0.01425621804163324 0.0 0.0
0.013784630013263993 -0.011619554080317673 0.0 0.011072190325524423 0.0 0.0
0.009218484323121362 -0.007297558702485052 0.0 0.00797509385525752 0.0 0.0
0.005609135545978999 -0.003998097585349525 0.0 0.005344813730710218 0.0 0.0
0.0031454754585216183 -0.0019130474413053822 0.0 0.0034829212011146526 0.0 0.0
0.0017703703385829606 -0.0008985817404589813 0.0 0.0024629664875873702 0.0 0.0
0.0011326674729682518 -0.0004930280945887322 0.0 0.002051006336908745 0.0 0.0
0.000731948767037055 -0.00026173073169910577 0.0 0.001890529969208632 0.0 0.0
0.00037119118784384453 -0.00011029707654663934 0.0 0.0019559986601320745 0.0 0.0
0.0001632683754185238 -0.00023839617534648916 0.0 0.0022517659742305463 0.0 0.0
0.002034650588607745 -0.003318218228653117 0.0 0.003797572703381935 0.0 0.0
0.0014387930341130395 -0.002561188035658246 0.0 -0.003056153552582652 0.0 0.0
0.00010011104870674692 -0.0002072535066686143 0.0 -0.0023967199014334195 0.0 0.0
0.00021114714236081245 -6.072330223183542e-05 0.0 -0.002182886651003302 0.0 0.0
0.00047734832640328184 -0.0001485534920366849 0.0 -0.0021246496431155393 0.0 0.0
0.0007969922799600238 -0.00033315960558488733 0.0 -0.0022910417599003585 0.0 0.0
0.0012283357510358417 -0.0005878035219881728 0.0 -0.002644769814942882 0.0 0.0
0.0020999352369770463 -0.0011568872797875773 0.0 -0.0034213580054802684 0.0 0.0
0.0037689779517637023 -0.002436817325317975 0.0 -0.004914373901522329 0.0 0.0
0.006320770707908541 -0.004650112822165653 0.0 -0.007119503212080214 0.0 0.0
0.009616873464825232 -0.007690766019766038 0.0 -0.009799966624631895 0.0 0.0
0.0134314476248103 -0.011310631288041773 0.0 -0.012654877639997952 0.0 0.0
0.017644107892503563 -0.015356156280884825 0.0 -0.015465853581193567 0.0 0.0
0.022254662419705085 -0.01981683867181916 0.0 -0.01823389682834642 0.0 0.0
0.027333290441603347 -0.02475839630609622 0.0 -0.020977232494024722 0.0 0.0
0.03295883135980254 -0.030250594158090394 0.0 -0.02362683615566641 0.0 0.0
0.03914891823990052 -0.036301661563128196 0.0 -0.02590389913808333 0.0 0.0
0.045834668819188185 -0.042857415934103305 0.0 -0.027415301464787212 0.0 0.0
0.053050422659861374 -0.04998325642254198 0.0 -0.027887098006051936 0.0 0.0
0.0609707622704217 -0.05777322174813371 0.0 -0.02600002733634521 0.0 0.0
0.06910642845886769 -0.06565466492468364 0.0 -0.018561813965284446 0.0 0.0
0.06910642845886361 -0.06565466492467742 0.0 0.01856181396533163 0.0 0.0
0.06097076227040696 -0.057773221748115944 0.0 0.026000027336411935 0.0 0.0
0.05305042265983914 -0.04998325642252377 0.0 0.027887098006098454 0.0 0.0
0.0458346688191624 -0.042857415934085985 0.0 0.027415301464806863 0.0 0.0
0.039148918239872654 -0.03630166156310377 0.0 0.025903899138069897 0.0 0.0
0.032958831359773205 -0.030250594158066413 0.0 0.02362683615565231 0.0 0.0
0.027333290441578312 -0.024758396306070463 0.0 0.020977232494016063 0.0 0.0
0.022254662419681215 -0.01981683867179207 0.0 0.018233896828338314 0.0 0.0
0.01764410789248072 -0.015356156280863953 0.0 0.01546585358118091 0.0 0.0
0.013431447624787735 -0.0113106312880209 0.0 0.0126548776399803 0.0 0.0
0.00961687346480608 -0.007690766019746942 0.0 0.009799966624609247 0.0 0.0
0.006320770707895301 -0.004650112822153218 0.0 0.007119503212067557 0.0 0.0
0.003768977951753849 -0.0024368173253122016 0.0 0.0049143739015114485 0.0 0.0
0.0020999352369723834 -0.0011568872797835805 0.0 0.003421358005474051 0.0 0.0
0.0012283357510341486 -0.0005878035219877287 0.0 0.002644769814936998 0.0 0.0
0.0007969922799593299 -0.0003331596055851094 0.0 0.002291041759897583 0.0 0.0
0.0004773483264033096 -0.00014855349203735102 0.0 0.002124649643113652 0.0 0.0
0.00021114714236047938 -6.0723302231724396e-05 0.0 0.0021828866510000267 0.0 0.0
0.00010011104870669141 -0.00020725350666800368 0.0 0.0023967199014321983 0.0 0.0
0.001438793034109681 -0.002561188035653592 0.0 0.003056153552575991 0.0 0.0
0.0009967538747495674 -0.00196484754556997 0.0 -0.0025093880254085654 0.0 0.0
2.8465562195656435e-05 -0.00017984083663991068 0.0 -0.0024686155900707774 0.0 0.0
5.727109490899496e-05 -6.062119770944285e-06 0.0 -0.002340213586795148 0.0 0.0
0.00022954403913302834 -3.8207463194606106e-05 0.0 -0.002303348027220764 0.0 0.0
0.00045379648343263357 -0.00017096248375203515 0.0 -0.0024797687666960333 0.0 0.0
0.0007260852221815661 -0.00033396688303910516 0.0 -0.0028357738423616663 0.0 0.0
0.0011971694138986355 -0.0005988001672172505 0.0 -0.0033873011371807205 0.0 0.0
0.0021183507023921355 -0.0011891197018862876 0.0 -0.004362609100778958 0.0 0.0
0.003623568256512222 -0.002335731647502115 0.0 -0.005899447354898335 0.0 0.0
0.005614499669098494 -0.004050464881794724 0.0 -0.007877586732245367 0.0 0.0
0.00793874736689687 -0.006172297976938967 0.0 -0.01010707425548929 0.0 0.0
0.010482168414054693 -0.008564525351575814 0.0 -0.012406553619582206 0.0 0.0
0.013252910477307561 -0.011207849033390005 0.0 -0.014740542355381803 0.0 0.0
0.016315752084980067 -0.01416379484358421 0.0 -0.01705837971418911 0.0 0.0
0.01977310141178959 -0.01752633147384053 0.0 -0.019324230605405113 0.0 0.0
0.023740038958163623 -0.021395441318618147 0.0 -0.021378063759370125 0.0 0.0
0.028285855361218498 -0.02582755273722004 0.0 -0.022808410403319157 0.0 0.0
0.03350250210711911 -0.030971395413580627 0.0 -0.023355922280640318 0.0 0.0
0.039899074315784766 -0.03737526014644743 0.0 -0.02290774532041473 0.0 0.0
0.04805406229139944 -0.045283968513618156 0.0 -0.018668578573339922 0.0 0.0
0.048054062291396415 -0.0452839685136146 0.0 0.018668578573382555 0.0 0.0
0.03989907431577672 -0.03737526014644077 0.0 0.022907745320473683 0.0 0.0
0.03350250210710376 -0.030971395413565972 0.0 0.02335592228068306 0.0 0.0
0.028285855361201345 -0.02582755273719517 0.0 0.022808410403331814 0.0 0.0
0.02374003895814686 -0.02139544131859239 0.0 0.021378063759354582 0.0 0.0
0.019773101411772492 -0.017526331473819212 0.0 0.0193242306053929 0.0 0.0
0.0163157520849663 -0.014163794843569999 0.0 0.017058379714186334 0.0 0.0
0.013252910477295266 -0.011207849033379791 0.0 0.01474054235537725 0.0 0.0
0.01048216841404187 -0.008564525351565155 0.0 0.012406553619567884 0.0 0.0
0.007938747366884075 -0.006172297976926089 0.0 0.010107074255470083 0.0 0.0
0.005614499669087808 -0.004050464881788063 0.0 0.007877586732226827 0.0 0.0
0.0036235682565054217 -0.0023357316474994505 0.0 0.005899447354888898 0.0 0.0
0.002118350702386501 -0.0011891197018822908 0.0 0.004362609100771797 0.0 0.0
0.001197169413896415 -0.00059880016721503 0.0 0.0033873011371775563 0.0 0.0
0.0007260852221806224 -0.0003339668830368847 0.0 0.0028357738423576695 0.0 0.0
0.00045379648343257806 -0.00017096248375048084 0.0 0.002479768766692869 0.0 0.0
0.00022954403913297283 -3.8207463195050195e-05 0.0 0.002303348027218932 0.0 0.0
5.727109490874516e-05 -6.0621197713883745e-06 0.0 0.0023402135867932605 0.0 0.0
2.8465562195406635e-05 -0.0001798408366399662 0.0 0.0024686155900700557 0.0 0.0
0.0009967538747472082 -0.0019648475455668526 0.0 0.002509388025403958 0.0 0.0
0.0006825394815146713 -0.0015108877690100941 0.0 -0.0021226180873982203 0.0 0.0
-5.175232258616824e-05 -0.0001576052355787283 0.0 -0.002499481271265036 0.0 0.0
-9.390751744020598e-05 5.5249700028237037e-05 0.0 -0.00243841354368457 0.0 0.0
-1.1480442145661574e-05 6.900056309611102e-05 0.0 -0.002424330048083123 0.0 0.0
0.00010665751813934699 -5.3058894231572395e-06 0.0 -0.0025938262877013285 0.0 0.0
0.00022684865826319567 -9.164495202473866e-05 0.0 -0.002972462778926599 0.0 0.0
0.0003858072380782951 -0.00018422967315445682 0.0 -0.0034812747172511815 0.0 0.0
0.0006709719850597207 -0.00032995825585624416 0.0 -0.00403952836211291 0.0 0.0
0.0011657932519025804 -0.0006002282071682075 0.0 -0.004772730201814679 0.0 0.0
0.0018317490566107375 -0.0010296973117949193 0.0 -0.005848914507670666 0.0 0.0
0.0026150780196159684 -0.0016031810578782668 0.0 -0.0073016423426027766 0.0 0.0
0.0034572369846816997 -0.002295264679635256 0.0 -0.009007291289723551 0.0 0.0
0.004369882018593757 -0.0030982467187588014 0.0 -0.010890641668528156 0.0 0.0
0.005402258944255306 -0.004049897973918082 0.0 -0.012918366452221552 0.0 0.0
0.006667377771567895 -0.005249497506984113 0.0 -0.015059242636698889 0.0 0.0
0.008363368629102558 -0.0068759773821827075 0.0 -0.017159690040705167 0.0 0.0
0.010749821430027923 -0.009162995249794914 0.0 -0.018791700012628754 0.0 0.0
0.014033646823538748 -0.012306237694514444 0.0 -0.01930799910961556 0.0 0.0
0.01854489174851845 -0.016829206290448262 0.0 -0.01896373784963601 0.0 0.0
0.02582532862673853 -0.024130760717125277 0.0 -0.01810181861958471 0.0 0.0
0.025825328626737865 -0.02413076071712794 0.0 0.01810181861961402 0.0 0.0
0.018544891748515563 -0.016829206290451815 0.0 0.018963737849679085 0.0 0.0
0.01403364682353117 -0.012306237694509559 0.0 0.019307999109641094 0.0 0.0
0.01074982143002065 -0.009162995249791805 0.0 0.018791700012629753 0.0 0.0
0.008363368629098727 -0.006875977382188481 0.0 0.017159690040690623 0.0 0.0
0.006667377771563565 -0.005249497506982781 0.0 0.015059242636685344 0.0 0.0
0.005402258944252392 -0.004049897973917638 0.0 0.01291836645221367 0.0 0.0
0.00436988201859298 -0.0030982467187588014 0.0 0.010890641668521162 0.0 0.0
0.0034572369846793127 -0.002295264679629927 0.0 0.009007291289713781 0.0 0.0
0.002615078019613498 -0.0016031810578751582 0.0 0.007301642342590342 0.0 0.0
0.001831749056608628 -0.0010296973117940311 0.0 0.005848914507658565 0.0 0.0
0.001165793251901387 -0.0006002282071695397 0.0 0.004772730201808351 0.0 0.0
0.0006709719850584717 -0.00032995825585513394 0.0 0.004039528362108691 0.0 0.0
0.0003858072380779898 -0.00018422967315268046 0.0 0.003481274717247629 0.0 0.0
0.0002268486582631124 -9.164495202385048e-05 0.0 0.002972462778922269 0.0 0.0
0.0001066575181396523 -5.305889423601329e-06 0.0 0.0025938262876993856 0.0 0.0
-1.1480442145633818e-05 6.900056309666613e-05 0.0 0.002424330048082124 0.0 0.0
-9.390751744020598e-05 5.524970002901419e-05 0.0 0.0024384135436831267 0.0 0.0
-5.175232258664009e-05 -0.00015760523557800665 0.0 0.00249948127126437 0.0 0.0
0.0006825394815130892 -0.001510887769007577 0.0 0.002122618087395667 0.0 0.0
0.0004629625167052731 -0.001182342533312064 0.0 -0.0018790110967092932 0.0 0.0
-0.00013094103531205437 -0.0001336859355149933 0.0 -0.002499550198644118 0.0 0.0
-0.00024203357177018936 0.0001183387143172121 0.0 -0.00248302211978757 0.0 0.0
-0.00024593421892554757 0.00017332767089506262 0.0 -0.00247975464007838 0.0 0.0
-0.00023727721594751783 0.00015929226429589605 0.0 -0.0026314216746678443 0.0 0.0
-0.0002770981888048363 0.00015262705968766 0.0 -0.002990841019395174 0.0 0.0
-0.0004034576573423987 0.00020042423199351234 0.0 -0.0034903947201838648 0.0 0.0
-0.0006762759466581447 0.0003340944075747032 0.0 -0.004045691267344165 0.0 0.0
-0.0011655216569546323 0.0006008470738567695 0.0 -0.004775338312744126 0.0 0.0
-0.001830527726105008 0.001029742210686635 0.0 -0.0058476639524368546 0.0 0.0
-0.002622197721966202 0.0016135384377959916 0.0 -0.007302816782726929 0.0 0.0
-0.0034978876189745156 0.0023360527914131346 0.0 -0.00901657834830949 0.0 0.0
-0.004458000724908262 0.0031743351921309504 0.0 -0.01090095426694404 0.0 0.0
-0.005471364850684418 0.004081936168196076 0.0 -0.012923694531490781 0.0 0.0
-0.006411137215035806 0.004931150420183439 0.0 -0.015076488800356613 0.0 0.0
-0.0070202621901241935 0.005474172211712869 0.0 -0.017310705515063085 0.0 0.0
-0.006897692323935722 0.005340112835091837 0.0 -0.019593726877914053 0.0 0.0
-0.005671458557709591 0.004281593483235202 0.0 -0.021990405066658503 0.0 0.0
-0.003025645921290454 0.0021308887654685194 0.0 -0.02417231720882529 0.0 0.0
0.0035366068142632934 -0.004052333341340919 0.0 -0.022992488332835626 0.0 0.0
0.0035366068142625162 -0.0040523333413480245 0.0 0.022992488332852168 0.0 0.0
-0.0030256459212902043 0.002130888765466743 0.0 0.02417231720884394 0.0 0.0
-0.005671458557707121 0.004281593483235202 0.0 0.021990405066661833 0.0 0.0
-0.006897692323929505 0.005340112835083843 0.0 0.019593726877904838 0.0 0.0
-0.007020262190114979 0.00547417221170754 0.0 0.017310705515048874 0.0 0.0
-0.006411137215027479 0.004931150420179442 0.0 0.01507648880034329 0.0 0.0
-0.005471364850676869 0.0040819361681863064 0.0 0.012923694531481567 0.0 0.0
-0.004458000724897548 0.003174335192123401 0.0 0.010900954266936713 0.0 0.0
-0.0034978876189649954 0.0023360527914069174 0.0 0.009016578348295834 0.0 0.0
-0.002622197721958125 0.0016135384377853335 0.0 0.007302816782712496 0.0 0.0
-0.0018305277260981245 0.0010297422106799736 0.0 0.005847663952423976 0.0 0.0
-0.0011655216569508298 0.000600847073854105 0.0 0.004775338312739574 0.0 0.0
-0.0006762759466554247 0.0003340944075731489 0.0 0.004045691267341611 0.0 0.0
-0.00040345765734078887 0.0002004242319928462 0.0 0.0034903947201811447 0.0 0.0
-0.0002770981888043089 0.00015262705968854817 0.0 0.002990841019391788 0.0 0.0
-0.0002372772159469072 0.00015929226429678423 0.0 0.0026314216746636254 0.0 0.0
-0.00024593421892518674 0.00017332767089617285 0.0 0.00247975464007566 0.0 0.0
-0.00024203357177018936 0.0001183387143182113 0.0 0.002483022119786793 0.0 0.0
-0.00013094103531224865 -0.00013368593551432717 0.0 0.002499550198643119 0.0 0.0
0.00046296251670455146 -0.0011823425333109 0.0 0.001879011096708294 0.0 0.0
0.0003124945732839446 -0.0009343699558014285 0.0 -0.001697887817578625 0.0 0.0
-0.00020266002254812343 -0.00010247680646058299 0.0 -0.002453344668578439 0.0 0.0
-0.0003843385186040327 0.00017851630190846013 0.0 -0.0024753528380920264 0.0 0.0
-0.0004727228897586089 0.000273714829790217 0.0 -0.0024658277695646103 0.0 0.0
-0.0005740258969973433 0.00031862551894468183 0.0 -0.002586514562570086 0.0 0.0
-0.0007746333404488326 0.0003942380390211664 0.0 -0.002891812464424437 0.0 0.0
-0.001214170004593701 0.0006163480669922894 0.0 -0.0034174208731078126 0.0 0.0
-0.002121748690640912 0.00119374160077923 0.0 -0.004379238716921197 0.0 0.0
-0.003621552841721415 0.0023351077647943974 0.0 -0.005902930705997345 0.0 0.0
-0.005613530235262565 0.004051451952375551 0.0 -0.007877141271745214 0.0 0.0
-0.00794864218012234 0.006186279095879765 0.0 -0.010107121004495512 0.0 0.0
-0.010521453391522273 0.008608122276790642 0.0 -0.012394072264033773 0.0 0.0
-0.013332702591050044 0.011283263124285181 0.0 -0.014694117202554757 0.0 0.0
-0.016370221695742676 0.01418688457086903 0.0 -0.016999785150255464 0.0 0.0
-0.019508003097180593 0.01718577811156674 0.0 -0.019392625052382373 0.0 0.0
-0.02244046482394535 0.01998162431873096 0.0 -0.021945713511067 0.0 0.0
-0.02469162125681687 0.022122079525154437 0.0 -0.024744244075261768 0.0 0.0
-0.02570407992673654 0.02306726767637146 0.0 -0.027696798116508048 0.0 0.0
-0.02444736349746582 0.021542936594262763 0.0 -0.029035194184725 0.0 0.0
-0.017789783692517963 0.01459313252593919 0.0 -0.026828069004507293 0.0 0.0
-0.017789783692519073 0.014593132525936525 0.0 0.026828069004541488 0.0 0.0
-0.0244473634974621 0.021542936594257434 0.0 0.029035194184775404 0.0 0.0
-0.02570407992672441 0.023067267676359027 0.0 0.027696798116539245 0.0 0.0
-0.02469162125679783 0.022122079525141114 0.0 0.02474424407526299 0.0 0.0
-0.0224404648239237 0.01998162431870787 0.0 0.021945713511050013 0.0 0.0
-0.01950800309715961 0.01718577811154587 0.0 0.01939262505236572 0.0 0.0
-0.016370221695724108 0.014186884570846825 0.0 0.016999785150241364 0.0 0.0
-0.013332702591028811 0.011283263124266085 0.0 0.01469411720254632 0.0 0.0
-0.010521453391501567 0.008608122276770658 0.0 0.012394072264014455 0.0 0.0
-0.007948642180103438 0.006186279095859337 0.0 0.01010712100447464 0.0 0.0
-0.005613530235246661 0.004051451952360452 0.0 0.00787714127172634 0.0 0.0
-0.0036215528417118392 0.00233510776478818 0.0 0.005902930705987242 0.0 0.0
-0.0021217486906341676 0.0011937416007796742 0.0 0.004379238716915257 0.0 0.0
-0.0012141700045903703 0.000616348066990513 0.0 0.0034174208731025946 0.0 0.0
-0.000774633340447306 0.000394238039019168 0.0 0.002891812464420329 0.0 0.0
-0.0005740258969967049 0.00031862551894334956 0.0 0.0025865145625680874 0.0 0.0
-0.0004727228897581093 0.00027371482978910677 0.0 0.0024658277695635 0.0 0.0
-0.0003843385186040049 0.00017851630190812706 0.0 0.002475352838091416 0.0 0.0
-0.0002026600225480124 -0.0001024768064606385 0.0 0.0024533446685781057 0.0 0.0
0.00031249457328358377 -0.0009343699558004744 0.0 0.0016978878175783474 0.0 0.0
0.000204601339318905 -0.0007206168970908533 0.0 -0.0015078255019795872 0.0 0.0
-0.0002665970427104536 -6.538652127430211e-05 0.0 -0.0023532256079139002 0.0 0.0
-0.0005184308999716947 0.00023452438010307386 0.0 -0.0024098695648659407 0.0 0.0
-0.000690556041428092 0.00036823607385150225 0.0 -0.0023844855961332456 0.0 0.0
-0.0008994099520793497 0.0004688235000289698 0.0 -0.0024589972777492863 0.0 0.0
-0.0012737931332285624 0.000648384851681616 0.0 -0.0027383945082676275 0.0 0.0
-0.002113889098276839 0.0011760059308110193 0.0 -0.003467656654164042 0.0 0.0
-0.0037675544836470176 0.002438300347470612 0.0 -0.004930351150195023 0.0 0.0
-0.006317251415589115 0.004647571607423018 0.0 -0.007117960032428927 0.0 0.0
-0.009618033606414111 0.007693334187981904 0.0 -0.009799851132591186 0.0 0.0
-0.013442527374145752 0.011324780250269395 0.0 -0.012651490277272859 0.0 0.0
-0.01767414187022545 0.015390244393783892 0.0 -0.015424093617366408 0.0 0.0
-0.02230892172128293 0.01986918505239288 0.0 -0.018099481436725462 0.0 0.0
-0.02735723561369774 0.024757960896780062 0.0 -0.020778438289660528 0.0 0.0
-0.03270522518228006 0.029933099467375435 0.0 -0.023683136373902736 0.0 0.0
-0.03800872990315063 0.035058886477596474 0.0 -0.027103586641969768 0.0 0.0
-0.04267646661223043 0.03955843704134576 0.0 -0.031203489420506436 0.0 0.0
-0.045756242663511665 0.042423156095055425 0.0 -0.03521848922527582 0.0 0.0
-0.045405046711417846 0.04179403281391103 0.0 -0.03722720547649383 0.0 0.0
-0.03790769901118443 0.03359780065147966 0.0 -0.03336520537289156 0.0 0.0
-0.03790769901118349 0.0335978006514841 0.0 0.03336520537293319 0.0 0.0
-0.04540504671140916 0.04179403281390526 0.0 0.037227205476551006 0.0 0.0
-0.045756242663492375 0.042423156095040326 0.0 0.03521848922531612 0.0 0.0
-0.042676466612201175 0.03955843704131645 0.0 0.031203489420511432 0.0 0.0
-0.0380087299031176 0.03505888647756583 0.0 0.027103586641954447 0.0 0.0
-0.0327052251822475 0.0299330994673479 0.0 0.023683136373885305 0.0 0.0
-0.027357235613667347 0.024757960896754305 0.0 0.020778438289637435 0.0 0.0
-0.02230892172125093 0.019869185052366234 0.0 0.01809948143671225 0.0 0.0
-0.017674141870194587 0.015390244393756358 0.0 0.015424093617344259 0.0 0.0
-0.013442527374116456 0.01132478025024719 0.0 0.012651490277244493 0.0 0.0
-0.009618033606389256 0.007693334187957479 0.0 0.009799851132566262 0.0 0.0
-0.006317251415572919 0.004647571607402146 0.0 0.007117960032414883 0.0 0.0
-0.003767554483635749 0.0024383003474610643 0.0 0.004930351150186918 0.0 0.0
-0.002113889098271149 0.0011760059308068005 0.0 0.003467656654156548 0.0 0.0
-0.001273793133225884 0.0006483848516805057 0.0 0.0027383945082639083 0.0 0.0
-0.0008994099520783089 0.0004688235000280816 0.0 0.0024589972777465663 0.0 0.0
-0.0006905560414273287 0.0003682360738497259 0.0 0.0023844855961321354 0.0 0.0
-0.0005184308999715281 0.00023452438010251875 0.0 0.0024098695648643864 0.0 0.0
-0.0002665970427102038 -6.538652127441313e-05 0.0 0.002353225607911291 0.0 0.0
0.00020460133931873847 -0.0007206168970904977 0.0 0.0015078255019775333 0.0 0.0
0.00011719681388475123 -0.0005303911189347699 0.0 -0.0013090161501544961 0.0 0.0
-0.00032493907691594215 -2.2325724927441115e-05 0.0 -0.0021975792222790336 0.0 0.0
-0.0006438887977984753 0.0002864512712444922 0.0 -0.0022904353616469697 0.0 0.0
-0.0008984280609220519 0.00045498518160558277 0.0 -0.0022433710027967013 0.0 0.0
-0.0012121026067957452 0.000613329305851229 0.0 -0.002268286033092093 0.0 0.0
-0.0018103091206312372 0.0009578657713378291 0.0 -0.0025836942387441053 0.0 0.0
-0.0031511471162438964 0.0019278818854653323 0.0 -0.003530407843414407 0.0 0.0
-0.005602936232018518 0.003993790599412517 0.0 -0.005349029790290227 0.0 0.0
-0.009215707597424766 0.007295003348874118 0.0 -0.007970403860150688 0.0 0.0
-0.01378877797347186 0.011624561014399681 0.0 -0.011073184618732634 0.0 0.0
-0.0190658260122592 0.01669984886732223 0.0 -0.014249311307437118 0.0 0.0
-0.02493124600464 0.022376949718027728 0.0 -0.01726883347080388 0.0 0.0
-0.031381281338834666 0.028647910985941216 0.0 -0.020155320698327928 0.0 0.0
-0.038445500780161984 0.035528857084477394 0.0 -0.02305180392214312 0.0 0.0
-0.04603325524844468 0.042918155098877975 0.0 -0.026277545044162576 0.0 0.0
-0.05377752318498705 0.05044268373516836 0.0 -0.030292943894137503 0.0 0.0
-0.06086460786032025 0.05728107181684239 0.0 -0.035218306295134894 0.0 0.0
-0.06579826170434319 0.06192200686323579 0.0 -0.04009752944537992 0.0 0.0
-0.06599475924490539 0.06169027828443152 0.0 -0.04235187456795575 0.0 0.0
-0.05674388856691556 0.05177771091191907 0.0 -0.038677689439769236 0.0 0.0
-0.05674388856691254 0.051777710911918184 0.0 0.03867768943981775 0.0 0.0
-0.0659947592448906 0.06169027828441909 0.0 0.042351874568018144 0.0 0.0
-0.06579826170431699 0.061922006863209145 0.0 0.040097529445428215 0.0 0.0
-0.060864607860282 0.05728107181680331 0.0 0.035218306295145774 0.0 0.0
-0.053777523184944054 0.05044268373512706 0.0 0.030292943894124957 0.0 0.0
-0.04603325524840125 0.042918155098834454 0.0 0.026277545044146033 0.0 0.0
-0.03844550078011938 0.0355288570844281 0.0 0.02305180392212436 0.0 0.0
-0.03138128133879199 0.02864791098589814 0.0 0.020155320698315216 0.0 0.0
-0.024931246004598742 0.022376949717986427 0.0 0.017268833470783174 0.0 0.0
-0.019065826012220566 0.01669984886728404 0.0 0.01424931130740914 0.0 0.0
-0.013788777973438443 0.011624561014370816 0.0 0.011073184618705267 0.0 0.0
-0.009215707597401326 0.0072950033488550226 0.0 0.007970403860134256 0.0 0.0
-0.0056029362320023784 0.003993790599397862 0.0 0.005349029790279625 0.0 0.0
-0.003151147116234987 0.001927881885458671 0.0 0.0035304078434053032 0.0 0.0
-0.0018103091206272959 0.0009578657713360528 0.0 0.002583694238740275 0.0 0.0
-0.0012121026067943297 0.0006133293058494527 0.0 0.002268286033089928 0.0 0.0
-0.0008984280609213163 0.0004549851816072481 0.0 0.002243371002795813 0.0 0.0
-0.0006438887977981284 0.0002864512712454914 0.0 0.002290435361645915 0.0 0.0
-0.00032493907691562296 -2.232572492716356e-05 0.0 0.002197579222277257 0.0 0.0
0.00011719681388457082 -0.0005303911189340291 0.0 0.0013090161501528863 0.0 0.0
4.19758407116666e-05 -0.00036264551190257066 0.0 -0.0011048599438082674 0.0 0.0
-0.00038072664379917853 2.5981854638978952e-05 0.0 -0.001988679759774681 0.0 0.0
-0.0007612708906517551 0.0003350431671917953 0.0 -0.002113796420202929 0.0 0.0
-0.0010943844199152453 0.0005323453298855529 0.0 -0.002037063929190619 0.0 0.0
-0.0015231455271393357 0.0007646085987551565 0.0 -0.002033332375100727 0.0 0.0
-0.002417715656054975 0.0013537381816568494 0.0 -0.0024116182859241775 0.0 0.0
-0.004323170799482301 0.0028704772429974934 0.0 -0.003509922733477555 0.0 0.0
-0.007601475075527636 0.0057890597370353625 0.0 -0.005535815330191263 0.0 0.0
-0.01225954167311158 0.010156185050095967 0.0 -0.008369525175997983 0.0 0.0
-0.018057546575056593 0.015712030395522714 0.0 -0.011592588485782263 0.0 0.0
-0.024766327365794316 0.022198458432576285 0.0 -0.014825640097109516 0.0 0.0
-0.03226137354508729 0.02948116356243169 0.0 -0.01791016296376735 0.0 0.0
-0.04052648205764178 0.03754239337774834 0.0 -0.020863063262789305 0.0 0.0
-0.04960097996408752 0.04641332350037475 0.0 -0.02379830985149811 0.0 0.0
-0.05943577353345744 0.056024198615316045 0.0 -0.027062994732509393 0.0 0.0
-0.06962459041544411 0.0659463976547836 0.0 -0.0311682074169376 0.0 0.0
-0.07907913552630239 0.07507917134759046 0.0 -0.03631002364063485 0.0 0.0
-0.08572346513553392 0.08132654919996307 0.0 -0.041568818054558365 0.0 0.0
-0.08613037729688461 0.08123741957914188 0.0 -0.04458230182964362 0.0 0.0
-0.07511172803196645 0.0696325939310869 0.0 -0.0433532361728074 0.0 0.0
-0.07511172803196056 0.06963259393107801 0.0 0.0433532361728588 0.0 0.0
-0.08613037729686382 0.08123741957912056 0.0 0.044582301829705795 0.0 0.0
-0.08572346513550047 0.0813265491999231 0.0 0.041568818054606216 0.0 0.0
-0.0790791355262564 0.07507917134754516 0.0 0.036310023640645506 0.0 0.0
-0.06962459041539203 0.06594639765473431 0.0 0.031168207416927107 0.0 0.0
-0.05943577353340286 0.0560241986152632 0.0 0.027062994732493628 0.0 0.0
-0.049600979964033454 0.04641332350033167 0.0 0.023798309851480237 0.0 0.0
-0.040526482057588784 0.037542393377699046 0.0 0.020863063262773096 0.0 0.0
-0.032261373545035554 0.029481163562377066 0.0 0.017910162963744758 0.0 0.0
-0.024766327365746202 0.02219845843252477 0.0 0.014825640097081039 0.0 0.0
-0.01805754657501571 0.015712030395477417 0.0 0.011592588485753896 0.0 0.0
-0.012259541673080743 0.01015618505006266 0.0 0.00836952517597761 0.0 0.0
-0.007601475075506153 0.005789059737016267 0.0 0.005535815330178218 0.0 0.0
-0.004323170799469839 0.0028704772429868353 0.0 0.0035099227334683403 0.0 0.0
-0.002417715656049216 0.0013537381816559613 0.0 0.002411618285919237 0.0 0.0
-0.0015231455271372263 0.0007646085987562667 0.0 0.0020333323750992283 0.0 0.0
-0.001094384419914718 0.0005323453298839986 0.0 0.0020370639291900083 0.0 0.0
-0.0007612708906510196 0.000335043167190352 0.0 0.0021137964202020965 0.0 0.0
-0.0003807266437988316 2.5981854638756907e-05 0.0 0.0019886797597729045 0.0 0.0
4.197584071136129e-05 -0.0003626455119021925 0.0 0.001104859943806158 0.0 0.0
-2.258956829065406e-05 -0.00021871751679175544 0.0 -0.0008950400471937625 0.0 0.0
-0.000434906267680335 7.779791904327649e-05 0.0 -0.001732097511051578 0.0 0.0
-0.0008715755972664718 0.00038034963622890494 0.0 -0.0018807599691469945 0.0 0.0
-0.0012797320446851224 0.0006044533283031672 0.0 -0.0017829558454200978 0.0 0.0
-0.0018529067781565267 0.0009435175005625407 0.0 -0.0017766313179404247 0.0 0.0
-0.0031083478624626126 0.0018529163488643086 0.0 -0.0021959285624602587 0.0 0.0
-0.005622062636198355 0.003988760548178316 0.0 -0.0033601184436080622 0.0 0.0
-0.009729304112140513 0.007763370748725684 0.0 -0.00544168643156695 0.0 0.0
-0.015381133701279748 0.0131390159668201 0.0 -0.008219584256232815 0.0 0.0
-0.022375491233284084 0.019879169212741576 0.0 -0.011309196626691609 0.0 0.0
-0.03050737510935478 0.027765812366685516 0.0 -0.01442677115701918 0.0 0.0
-0.03963517127733665 0.03665577268078213 0.0 -0.017401180506858127 0.0 0.0
-0.04972044783252716 0.04651104875329848 0.0 -0.020260331480102534 0.0 0.0
-0.06079386249124746 0.05735880518227621 0.0 -0.023093099096542224 0.0 0.0
-0.07282404963155376 0.0691427768419608 0.0 -0.026088759765661496 0.0 0.0
-0.08538547529093143 0.08139457757435942 0.0 -0.029718758640344234 0.0 0.0
-0.09713996730086033 0.09275229272634933 0.0 -0.03445807907060472 0.0 0.0
-0.10541454907735495 0.10054266246262467 0.0 -0.039896467215800646 0.0 0.0
-0.10606332578841063 0.10065725325485442 0.0 -0.0445985939998621 0.0 0.0
-0.0935668615431198 0.08761911474613449 0.0 -0.04773420899077652 0.0 0.0
-0.09356686154311111 0.08761911474612649 0.0 0.04773420899082603 0.0 0.0
-0.10606332578838382 0.10065725325482999 0.0 0.04459859399992394 0.0 0.0
-0.10541454907731382 0.10054266246258292 0.0 0.0398964672158485 0.0 0.0
-0.09713996730080685 0.0927522927263027 0.0 0.03445807907061782 0.0 0.0
-0.08538547529086965 0.08139457757429991 0.0 0.029718758640338794 0.0 0.0
-0.07282404963148907 0.06914277684189152 0.0 0.026088759765650116 0.0 0.0
-0.060793862491182155 0.05735880518220959 0.0 0.023093099096526293 0.0 0.0
-0.04972044783246361 0.04651104875323453 0.0 0.02026033148008749 0.0 0.0
-0.03963517127727455 0.036655772680719956 0.0 0.017401180506839142 0.0 0.0
-0.03050737510929752 0.02776581236663045 0.0 0.014426771156991591 0.0 0.0
-0.022375491233235942 0.019879169212698056 0.0 0.01130919662666452 0.0 0.0
-0.01538113370124189 0.013139015966784573 0.0 0.008219584256213497 0.0 0.0
-0.009729304112113618 0.0077633707487021475 0.0 0.005441686431553405 0.0 0.0
-0.005622062636181868 0.00398876054816788 0.0 0.0033601184435980147 0.0 0.0
-0.003108347862454716 0.0018529163488598677 0.0 0.0021959285624554847 0.0 0.0
-0.0018529067781536679 0.0009435175005596541 0.0 0.0017766313179377602 0.0 0.0
-0.0012797320446844146 0.0006044533283033893 0.0 0.001782955845418377 0.0 0.0
-0.0008715755972655559 0.0003803496362282388 0.0 0.0018807599691463839 0.0 0.0
-0.0004349062676799742 7.779791904261035e-05 0.0 0.0017320975110500236 0.0 0.0
-2.2589568290931616e-05 -0.0002187175167915334 0.0 0.0008950400471915976 0.0 0.0
-7.509198580396559e-05 -0.00010099521932832589 0.0 -0.0006788457993666674 0.0 0.0
-0.0004858454029685877 0.00013036308838609845 0.0 -0.0014330835382466711 0.0 0.0
-0.0009758577725963447 0.00042253385276336264 0.0 -0.0015911865345788478 0.0 0.0
-0.0014607475979947493 0.000675723982162868 0.0 -0.0014799061759372956 0.0 0.0
-0.002220360030652513 0.0011616822702984475 0.0 -0.0014783312422548822 0.0 0.0
-0.00388895490593677 0.0024701131241045005 0.0 -0.0019185655489816766 0.0 0.0
-0.007037928275428151 0.0052639342075258 0.0 -0.003076910910616737 0.0 0.0
-0.011925528642826144 0.009846426030244881 0.0 -0.004995022794305692 0.0 0.0
-0.01853222238498925 0.01617641430721628 0.0 -0.0074700318108480435 0.0 0.0
-0.026710713434398736 0.024083878263025493 0.0 -0.010256658400355723 0.0 0.0
-0.03625712730587183 0.03336285274365469 0.0 -0.01306840325092895 0.0 0.0
-0.047021636222996654 0.04386315987721856 0.0 -0.01575758651067327 0.0 0.0
-0.05893833592260733 0.055521629765021174 0.0 -0.01837084145736445 0.0 0.0
-0.07199406180665058 0.06832262741045225 0.0 -0.020932750732114203 0.0 0.0
-0.08612212734986271 0.08218289691743852 0.0 -0.02344629114583796 0.0 0.0
-0.10089324846018727 0.09661890803290296 0.0 -0.026142200667686577 0.0 0.0
-0.11484739388360304 0.11011265511743318 0.0 -0.029773977252309014 0.0 0.0
-0.12484167940620342 0.11954829141210199 0.0 -0.03516685785939799 0.0 0.0
-0.12608348480158083 0.12020361615480812 0.0 -0.042486942085160795 0.0 0.0
-0.11254123030147353 0.10612889539970993 0.0 -0.05180788671944714 0.0 0.0
-0.11254123030146265 0.10612889539970194 0.0 0.051807886719495766 0.0 0.0
-0.12608348480154888 0.12020361615478148 0.0 0.04248694208521686 0.0 0.0
-0.1248416794061541 0.11954829141205892 0.0 0.03516685785943796 0.0 0.0
-0.11484739388354119 0.11011265511737278 0.0 0.029773977252320283 0.0 0.0
-0.1008932484601155 0.0966189080328359 0.0 0.02614220066768147 0.0 0.0
-0.08612212734978841 0.08218289691736613 0.0 0.023446291145829634 0.0 0.0
-0.07199406180657465 0.06832262741037987 0.0 0.02093275073209916 0.0 0.0
-0.058938335922533155 0.0555216297649479 0.0 0.01837084145734852 0.0 0.0
-0.047021636222924115 0.043863159877145286 0.0 0.015757586510654564 0.0 0.0
-0.036257127305805964 0.033362852743585414 0.0 0.013068403250904137 0.0 0.0
-0.026710713434342885 0.024083878262969982 0.0 0.010256658400331853 0.0 0.0
-0.018532222384945438 0.01617641430717276 0.0 0.007470031810831834 0.0 0.0
-0.011925528642794267 0.009846426030213351 0.0 0.004995022794292536 0.0 0.0
-0.007037928275408008 0.005263934207505816 0.0 0.003076910910606856 0.0 0.0
-0.0038889549059266462 0.0024701131240940644 0.0 0.0019185655489739606 0.0 0.0
-0.0022203600306487797 0.0011616822702948948 0.0 0.001478331242251163 0.0 0.0
-0.0014607475979942289 0.0006757239821617578 0.0 0.0014799061759352417 0.0 0.0
-0.0009758577725952483 0.0004225338527628075 0.0 0.0015911865345768494 0.0 0.0
-0.0004858454029681089 0.00013036308838554334 0.0 0.0014330835382445617 0.0 0.0
-7.509198580415294e-05 -0.000100995219328456 0.0 0.0006788457993660013 0.0 0.0
-0.00011183902386807665 -1.2749713649840011e-05 0.0 -0.0004578549363778439 0.0 0.0
-0.0005288853381939518 0.00017993044571806838 0.0 -0.0010945048753158715 0.0 0.0
-0.0010751875126757127 0.0004610212330439234 0.0 -0.0012435320433709651 0.0 0.0
-0.0016474572917349883 0.0007565379780147818 0.0 -0.0011324193235039415 0.0 0.0
-0.002641856625103023 0.0014420570674180677 0.0 -0.0011386953568980895 0.0 0.0
-0.0047685029944021795 0.003209178884869379 0.0 -0.0015720588840028582 0.0 0.0
-0.008527895468873059 0.006642607591118788 0.0 -0.002560407252409247 0.0 0.0
-0.014144372973048214 0.011976001684222304 0.0 -0.004117854348269556 0.0 0.0
-0.021685232747025385 0.019233302827715182 0.0 -0.006149940647379615 0.0 0.0
-0.03102992635738111 0.028289656287600273 0.0 -0.008447552130148694 0.0 0.0
-0.041984077806245135 0.03895329328477448 0.0 -0.010771334628102536 0.0 0.0
-0.05438844211073818 0.05106780623011886 0.0 -0.012990234493415187 0.0 0.0
-0.06814701746793744 0.06453736504445651 0.0 -0.015160417740291088 0.0 0.0
-0.08317623016272091 0.07927688429796342 0.0 -0.017320866578373617 0.0 0.0
-0.09929488061870237 0.09509761943528172 0.0 -0.01927248066490217 0.0 0.0
-0.11601203278372088 0.11147067579821801 0.0 -0.020772942927374638 0.0 0.0
-0.13196138192847734 0.1269516311805643 0.0 -0.02257251591043896 0.0 0.0
-0.14394688778267187 0.13828891042633096 0.0 -0.02731631079048058 0.0 0.0
-0.14643745060558677 0.140110408095925 0.0 -0.037787174138563584 0.0 0.0
-0.13250696769228362 0.12559520805451463 0.0 -0.05523967311433664 0.0 0.0
-0.1325069676922711 0.12559520805450308 0.0 0.05523967311437339 0.0 0.0
-0.1464374506055495 0.14011040809588504 0.0 0.03778717413861277 0.0 0.0
-0.14394688778261414 0.13828891042628033 0.0 0.027316310790515608 0.0 0.0
-0.13196138192840629 0.126951631180503 0.0 0.022572515910448343 0.0 0.0
-0.11601203278363895 0.11147067579813985 0.0 0.02077294292737164 0.0 0.0
-0.09929488061861808 0.0950976194351929 0.0 0.01927248066489906 0.0 0.0
-0.08317623016263502 0.07927688429788127 0.0 0.017320866578364624 0.0 0.0
-0.06814701746785234 0.06453736504437169 0.0 0.015160417740281096 0.0 0.0
-0.05438844211065618 0.05106780623003715 0.0 0.012990234493402308 0.0 0.0
-0.04198407780617041 0.03895329328470476 0.0 0.010771334628080775 0.0 0.0
-0.031029926357318112 0.028289656287539877 0.0 0.0084475521301286 0.0 0.0
-0.021685232746975695 0.01923330282767033 0.0 0.006149940647365182 0.0 0.0
-0.014144372973011035 0.011976001684186999 0.0 0.004117854348259176 0.0 0.0
-0.008527895468849911 0.006642607591095251 0.0 0.0025604072524010313 0.0 0.0
-0.004768502994389086 0.0032091788848600533 0.0 0.0015720588839970295 0.0 0.0
-0.0026418566250978673 0.001442057067414515 0.0 0.0011386953568953695 0.0 0.0
-0.001647457291733885 0.0007565379780142267 0.0 0.0011324193235026092 0.0 0.0
-0.001075187512674415 0.0004610212330440344 0.0 0.0012435320433716868 0.0 0.0
-0.0005288853381933481 0.00017993044571806838 0.0 0.0010945048753151498 0.0 0.0
-0.000111839023868264 -1.2749713649545108e-05 0.0 0.0004578549363778439 0.0 0.0
-0.00012613124127991426 4.173297019954836e-05 0.0 -0.00023878247167818945 0.0 0.0
-0.0005550264500268076 0.00022037311612066457 0.0 -0.0007159113033823328 0.0 0.0
-0.0011717935064439744 0.0004974128340700101 0.0 -0.0008312100307489856 0.0 0.0
-0.0018560481542343465 0.0008579042329033282 0.0 -0.0007425426117571576 0.0 0.0
-0.003133863794335945 0.0018073129991840187 0.0 -0.0007641288486245901 0.0 0.0
-0.005731872876899025 0.004056980380712671 0.0 -0.0010966142749715413 0.0 0.0
-0.010047680634911182 0.008080048078177748 0.0 -0.0017867459779525308 0.0 0.0
-0.016364604664739768 0.014121258007132376 0.0 -0.0028507659869175805 0.0 0.0
-0.02480878974237355 0.022276579500457583 0.0 -0.004265068663711902 0.0 0.0
-0.035300754232403975 0.03246209619593632 0.0 -0.005887340035061639 0.0 0.0
-0.047656419675825956 0.04450351764308236 0.0 -0.007529616142427975 0.0 0.0
-0.06170355238544134 0.058234265489291115 0.0 -0.009097973717962948 0.0 0.0
-0.07730998070139994 0.07352032037021816 0.0 -0.010661291292177077 0.0 0.0
-0.09430036488822968 0.09018269674852242 0.0 -0.012203781936729774 0.0 0.0
-0.1123321772433129 0.10787510122767507 0.0 -0.01348483917926846 0.0 0.0
-0.13074458222167498 0.12592866909340295 0.0 -0.014042117792329667 0.0 0.0
-0.1482740149393973 0.14303313438639176 0.0 -0.013894291629582889 0.0 0.0
-0.16230462103291995 0.1564586202300231 0.0 -0.016127205293300806 0.0 0.0
-0.1673351613353157 0.16054479863528348 0.0 -0.028884810555419693 0.0 0.0
-0.1541608688874855 0.14666442786230593 0.0 -0.05722344579632943 0.0 0.0
-0.1541608688874715 0.14666442786228684 0.0 0.05722344579635508 0.0 0.0
-0.16733516133527213 0.16054479863524396 0.0 0.02888481055545855 0.0 0.0
-0.1623046210328541 0.15645862022996493 0.0 0.01612720529332745 0.0 0.0
-0.14827401493931608 0.14303313438630783 0.0 0.013894291629586941 0.0 0.0
-0.1307445822215827 0.1259286690933088 0.0 0.014042117792325892 0.0 0.0
-0.11233217724321781 0.10787510122758226 0.0 0.013484839179267238 0.0 0.0
-0.09430036488813405 0.0901826967484296 0.0 0.0122037819367255 0.0 0.0
-0.0773099807013045 0.07352032037012624 0.0 0.010661291292169889 0.0 0.0
-0.06170355238534954 0.05823426548920185 0.0 0.009097973717954122 0.0 0.0
-0.04765641967574316 0.04450351764300464 0.0 0.007529616142411433 0.0 0.0
-0.03530075423233384 0.03246209619586837 0.0 0.005887340035044986 0.0 0.0
-0.0248087897423178 0.02227657950040296 0.0 0.0042650686637034085 0.0 0.0
-0.016364604664698097 0.014121258007095072 0.0 0.00285076598691153 0.0 0.0
-0.01004768063488445 0.008080048078150437 0.0 0.0017867459779468131 0.0 0.0
-0.005731872876882652 0.00405698038069513 0.0 0.001096614274969987 0.0 0.0
-0.003133863794329606 0.0018073129991782455 0.0 0.0007641288486233133 0.0 0.0
-0.0018560481542327818 0.0008579042329009967 0.0 0.0007425426117559364 0.0 0.0
-0.0011717935064428642 0.0004974128340687889 0.0 0.0008312100307470982 0.0 0.0
-0.0005550264500264399 0.0002203731161197764 0.0 0.0007159113033803899 0.0 0.0
-0.00012613124127979283 4.173297019921009e-05 0.0 0.0002387824716774123 0.0 0.0
-0.0001060531728976355 5.637250384615822e-05 0.0 -3.827615152612873e-05 0.0 0.0
-0.0005484167716730548 0.00024171496148972516 0.0 -0.0002899036420779266 0.0 0.0
-0.0012720552268714602 0.0005364022757227138 0.0 -0.00034045004333221884 0.0 0.0
-0.0021097086994577574 0.0010068784575856249 0.0 -0.0003170599269247121 0.0 0.0
-0.0037023900350019456 0.002257727286682165 0.0 -0.0003298175793757796 0.0 0.0
-0.006745655344372159 0.004974767095250465 0.0 -0.00046370339518952974 0.0 0.0
-0.011581136002815962 0.009545373575396976 0.0 -0.0007489186998386188 0.0 0.0
-0.018558370262509005 0.01625393678542908 0.0 -0.001196094793674607 0.0 0.0
-0.027871933915654123 0.02527186633793832 0.0 -0.0018243787322241856 0.0 0.0
-0.03948921310694853 0.03656583437023597 0.0 -0.0025732793212873695 0.0 0.0
-0.053243443301084104 0.04998192272334201 0.0 -0.0033435931032004262 0.0 0.0
-0.06893936902700776 0.06533265384336229 0.0 -0.004095722317209338 0.0 0.0
-0.08638076162552644 0.08242261439154275 0.0 -0.004837102594009934 0.0 0.0
-0.10530619996011203 0.10098314604574599 0.0 -0.005525229145440291 0.0 0.0
-0.12522239295246568 0.12051565159761157 0.0 -0.006017403894641227 0.0 0.0
-0.14522418118874952 0.140119225489443 0.0 -0.00597922858807054 0.0 0.0
-0.16389968717108297 0.15839232776480605 0.0 -0.004987863030009976 0.0 0.0
-0.1792051996119402 0.1732520154145183 0.0 -0.003915252064109809 0.0 0.0
-0.1875424007198863 0.18087708583989626 0.0 -0.011892808810055833 0.0 0.0
-0.1795025805611454 0.17088381411226816 0.0 -0.05270950141074082 0.0 0.0
-0.17950258056113036 0.17088381411225262 0.0 0.052709501410750925 0.0 0.0
-0.18754240071983658 0.18087708583985762 0.0 0.011892808810077093 0.0 0.0
-0.17920519961186518 0.17325201541444768 0.0 0.00391525206412241 0.0 0.0
-0.16389968717099068 0.158392327764719 0.0 0.004987863030007367 0.0 0.0
-0.14522418118864672 0.14011922548935063 0.0 0.005979228588066099 0.0 0.0
-0.12522239295235926 0.12051565159750899 0.0 0.006017403894642365 0.0 0.0
-0.10530619996000659 0.1009831460456394 0.0 0.005525229145438321 0.0 0.0
-0.08638076162542059 0.08242261439144016 0.0 0.004837102594006659 0.0 0.0
-0.06893936902690578 0.06533265384325748 0.0 0.0040957223172056745 0.0 0.0
-0.053243443300993086 0.04998192272324298 0.0 0.0033435931031925437 0.0 0.0
-0.03948921310687165 0.03656583437015648 0.0 0.0025732793212803196 0.0 0.0
-0.027871933915592777 0.025271866337881033 0.0 0.0018243787322206884 0.0 0.0
-0.018558370262462886 0.016253936785391332 0.0 0.0011960947936721644 0.0 0.0
-0.011581136002785172 0.009545373575368554 0.0 0.0007489186998366204 0.0 0.0
-0.006745655344354232 0.004974767095232702 0.0 0.00046370339518708725 0.0 0.0
-0.0037023900349934195 0.0022577272866746156 0.0 0.00032981757937450285 0.0 0.0
-0.0021097086994556705 0.0010068784575826273 0.0 0.0003170599269257113 0.0 0.0
-0.001272055226870402 0.0005364022757219367 0.0 0.0003404500433320523 0.0 0.0
-0.0005484167716722169 0.0002417149614895031 0.0 0.00028990364207892583 0.0 0.0
-0.00010605317289765978 5.637250384581821e-05 0.0 3.827615152635078e-05 0.0 0.0
SCALARS Statev float 8
LOOKUP_TABLE default
0.0 0.013549327630375158 0.010492204645957065 -0.010873100149447965 0.00038089550349089597 -0.006041138000524859 0.0 0.0
0.0 0.0008212595752074755 0.0005853658928134424 -0.000499692855649063 -8.56730371643795e-05 0.0005328371992661283 0.0 0.0
0.0 3.342380937738801e-05 -4.754075056001044e-06 3.773145031477424e-06 9.809300245235895e-07 5.62033213615258e-07 0.0 0.0
0.0 0.00031251172638675155 0.00022924388836930817 -0.00018107041926170361 -4.817346910760453e-05 -3.242541171946207e-05 0.0 0.0
0.0 0.0016533663461639927 0.0013504722260242255 -0.0011244097341369657 -0.00022606249188725984 -0.00014600935097241452 0.0 0.0
0.0 0.004467042845853297 0.004040006397508608 -0.0035715715630471 -0.00046843483446150683 -0.0003315393069063108 0.0 0.0
0.0 0.009640395661426835 0.008575101825454024 -0.007941762845370908 -0.0006333389800831153 -0.0006115886776480558 0.0 0.0
0.0 0.01735734117261589 0.015285066356569914 -0.014537531805373106 -0.0007475345511968024 -0.0010378210956916083 0.0 0.0
0.0 0.027805862438135445 0.02433872087422135 -0.02348629426759821 -0.0008524266066231273 -0.0016413538848629654 0.0 0.0
0.0 0.04095656982203413 0.03571037278400099 -0.03474775434915206 -0.0009626184348489164 -0.002376111029536447 0.0 0.0
0.0 0.056661137809344245 0.0492511589992049 -0.04817381805134185 -0.0010773409478630346 -0.0031482599639805287 0.0 0.0
0.0 0.07442286297780526 0.0647786312266344 -0.06358426687409628 -0.0011943643525380923 -0.003908028592956339 0.0 0.0
0.0 0.09433184033354351 0.0821035720478491 -0.08079088268588731 -0.0013126893619617229 -0.004657036353247964 0.0 0.0
0.0 0.11612924578657036 0.1010042031887204 -0.09957033428982516 -0.0014338688988951584 -0.005387654604841663 0.0 0.0
0.0 0.1393197109281984 0.12110684239591579 -0.11954760784941391 -0.001559234546501838 -0.006066687915936248 0.0 0.0
0.0 0.16317467614823622 0.14175083050029527 -0.1400631942812468 -0.001687636219048519 -0.006561487422053041 0.0 0.0
0.0 0.18650099313305968 0.161932334634132 -0.16011744293061902 -0.0018148917035129295 -0.0066369824725886935 0.0 0.0
0.0 0.20776518140745961 0.1803396809557612 -0.17840321846198656 -0.0019364624937746114 -0.006070855344609194 0.0 0.0
0.0 0.2251630794782136 0.19540492646939228 -0.193353542092216 -0.002051384377176263 -0.005161692667813764 0.0 0.0
0.0 0.23582098368983873 0.20476938407000395 -0.20254249898491408 -0.002226885085089861 -0.005954603399818917 0.0 0.0
0.0 0.23582098368982132 0.2047693840699888 -0.20254249898489868 -0.002226885085090076 0.005954603399828266 0.0 0.0
0.0 0.22516307947816594 0.19540492646935048 -0.19335354209217495 -0.002051384377175436 0.005161692667835431 0.0 0.0
0.0 0.20776518140737857 0.1803396809556908 -0.17840321846191692 -0.001936462493773826 0.006070855344621849 0.0 0.0
0.0 0.18650099313295312 0.16193233463403967 -0.16011744293052682 -0.0018148917035128095 0.006636982472595175 0.0 0.0
0.0 0.16317467614812137 0.1417508305001957 -0.1400631942811479 -0.0016876362190478837 0.006561487422043848 0.0 0.0
0.0 0.13931971092808387 0.12110684239581589 -0.11954760784931559 -0.0015592345465002553 0.006066687915935221 0.0 0.0
0.0 0.11612924578645521 0.10100420318862036 -0.09957033428972611 -0.0014338688988941915 0.005387654604841554 0.0 0.0
0.0 0.0943318403334302 0.08210357204775065 -0.08079088268578988 -0.001312689361960789 0.004657036353246813 0.0 0.0
0.0 0.07442286297769327 0.06477863122653743 -0.06358426687399965 -0.0011943643525377367 0.003908028592947941 0.0 0.0
0.0 0.05666113780924631 0.04925115899911987 -0.04817381805125709 -0.0010773409478627876 0.0031482599639750643 0.0 0.0
0.0 0.040956569821952 0.035710372783929904 -0.034747754349081464 -0.0009626184348484653 0.0023761110295267016 0.0 0.0
0.0 0.027805862438070483 0.02433872087416457 -0.02348629426754167 -0.0008524266066229128 0.0016413538848604613 0.0 0.0
0.0 0.017357341172570734 0.015285066356529878 -0.014537531805333646 -0.0007475345511962229 0.001037821095687911 0.0 0.0
0.0 0.009640395661397464 0.008575101825427691 -0.007941762845345236 -0.0006333389800824514 0.0006115886776463987 0.0 0.0
0.0 0.004467042845835858 0.004040006397492557 -0.003571571563032006 -0.00046843483446055095 0.0003315393069048385 0.0 0.0
0.0 0.0016533663461555858 0.001350472226017196 -0.0011244097341308282 -0.00022606249188636683 0.0001460093509716689 0.0 0.0
0.0 0.00031251172638506876 0.00022924388836872495 -0.0001810704192612204 -4.81734691075045e-05 3.2425411719291664e-05 0.0 0.0
0.0 3.342380937687491e-05 -4.754075055922566e-06 3.7731450314146314e-06 9.80930024507978e-07 -5.620332136057866e-07 0.0 0.0
0.0 0.0008212595752044054 0.0005853658928116379 -0.0004996928556474826 -8.567303716415567e-05 -0.0005328371992640948 0.0 0.0
0.0 0.013549327630356317 0.01049220464594452 -0.010873100149434453 0.0003808955034899266 0.00604113800049431 0.0 0.0
0.0 0.010085418909942592 0.007319364380026498 -0.007813635710888524 0.0004942713308620217 -0.006998644535342154 0.0 0.0
0.0 8.995484893017705e-06 6.19069641077328e-06 -5.431242000425037e-06 -7.594544103482488e-07 4.045319246205844e-06 0.0 0.0
0.0 5.406955744575445e-07 5.6581763555582976e-08 -4.1855743454110386e-08 -1.472602010147533e-08 -1.622644531239828e-08 0.0 0.0
0.0 0.00012262766922168956 8.389082818582925e-05 -6.580126759696469e-05 -1.8089560588864794e-05 -2.9731700378465483e-05 0.0 0.0
0.0 0.0011100902359803958 0.0008669292762067593 -0.0007113609761398735 -0.000155568300066886 -0.00023075012474993296 0.0 0.0
0.0 0.0034436473177919566 0.0031177596668195196 -0.002713904555485907 -0.0004038551113336124 -0.0006781173501154539 0.0 0.0
0.0 0.008021041276588908 0.007129806244395919 -0.006534327386504779 -0.000595478857891137 -0.0013897816084318696 0.0 0.0
0.0 0.014985111899505762 0.01317341218683253 -0.012451360599520928 -0.0007220515873116009 -0.0024189274484662316 0.0 0.0
0.0 0.02444027185188638 0.02135659847090066 -0.02052888614868683 -0.0008277123222138214 -0.003792346165919043 0.0 0.0
0.0 0.03629829305317356 0.03160465421872172 -0.030671427441592385 -0.0009332267771293397 -0.005399390056456816 0.0 0.0
0.0 0.05036563980144173 0.043751037483319266 -0.04271086734338295 -0.0010401701399363208 -0.00705954158604289 0.0 0.0
0.0 0.06650136290928195 0.05763700334294995 -0.05648934866088533 -0.0011476546820646102 -0.00866140412915482 0.0 0.0
0.0 0.0842653637386754 0.07313678952117374 -0.07188023376435404 -0.0012565557568196958 -0.01025607126171738 0.0 0.0
0.0 0.10375535171631943 0.09007573729668378 -0.08870791277804188 -0.0013678245186418778 -0.011853307997829651 0.0 0.0
0.0 0.12459964331171586 0.10813512533089475 -0.10665321605486514 -0.001481909276029528 -0.013342359509184205 0.0 0.0
0.0 0.14607568983240093 0.12675603888726777 -0.12515784568457058 -0.001598193202697253 -0.014459987209176933 0.0 0.0
0.0 0.16719107213474027 0.1450708753327315 -0.14335589770800594 -0.0017149776247256056 -0.014753634839733689 0.0 0.0
0.0 0.1865680991251278 0.16187605797730634 -0.16004467015701962 -0.0018313878202867169 -0.013878935950158131 0.0 0.0
0.0 0.20225273382917894 0.1754948435242105 -0.17353443889088124 -0.0019604046333293007 -0.01208577880883825 0.0 0.0
0.0 0.21166023569054307 0.1836910783630858 -0.18163181160014263 -0.0020592667629431415 -0.009186830533206812 0.0 0.0
0.0 0.2116602356905284 0.1836910783630729 -0.18163181160012976 -0.0020592667629432716 0.009186830533231147 0.0 0.0
0.0 0.20225273382913345 0.17549484352417044 -0.1735344388908411 -0.001960404633329376 0.012085778808879654 0.0 0.0
0.0 0.18656809912505973 0.1618760579772462 -0.16004467015696075 -0.0018313878202854158 0.013878935950184527 0.0 0.0
0.0 0.1671910721346525 0.14507087533265475 -0.1433558977079303 -0.0017149776247243013 0.014753634839748049 0.0 0.0
0.0 0.14607568983229646 0.1267560388871779 -0.12515784568448027 -0.0015981932026975358 0.014459987209166959 0.0 0.0
0.0 0.12459964331160686 0.10813512533080075 -0.10665321605477077 -0.0014819092760299322 0.01334235950917853 0.0 0.0
0.0 0.10375535171621589 0.0900757372965941 -0.08870791277795255 -0.0013678245186414862 0.011853307997825498 0.0 0.0
0.0 0.0842653637385736 0.07313678952108547 -0.07188023376426632 -0.0012565557568191448 0.010256071261711427 0.0 0.0
0.0 0.06650136290918315 0.0576370033428642 -0.056489348660800354 -0.0011476546820638283 0.008661404129142517 0.0 0.0
0.0 0.05036563980135342 0.043751037483242626 -0.04271086734330691 -0.0010401701399356986 0.007059541586032278 0.0 0.0
0.0 0.03629829305309976 0.031604654218657685 -0.030671427441528794 -0.0009332267771288777 0.0053993900564418325 0.0 0.0
0.0 0.024440271851832195 0.02135659847085292 -0.02052888614863963 -0.0008277123222132765 0.0037923461659121645 0.0 0.0
0.0 0.014985111899464247 0.013173412186795972 -0.012451360599485045 -0.0007220515873109327 0.0024189274484591396 0.0 0.0
0.0 0.008021041276562694 0.007129806244372474 -0.006534327386481982 -0.0005954788578904892 0.001389781608427286 0.0 0.0
0.0 0.003443647317778445 0.003117759666807581 -0.0027139045554748194 -0.00040385511133276197 0.0006781173501126151 0.0 0.0
0.0 0.0011100902359749351 0.0008669292762026996 -0.0007113609761364126 -0.00015556830006628722 0.00023075012474895747 0.0 0.0
0.0 0.00012262766922086808 8.389082818572348e-05 -6.580126759686965e-05 -1.8089560588853674e-05 2.9731700378407285e-05 0.0 0.0
0.0 5.406955745188763e-07 5.658176361808339e-08 -4.18557435012177e-08 -1.472602011686759e-08 1.622644533354688e-08 0.0 0.0
0.0 8.99548489266604e-06 6.190696410797792e-06 -5.431242000437294e-06 -7.594544103604952e-07 -4.045319246218726e-06 0.0 0.0
0.0 0.01008541890992103 0.007319364380012318 -0.007813635710873654 0.000494271330861332 0.006998644535316472 0.0 0.0
0.0 0.007660424479055178 0.005265766006998187 -0.005789048937081005 0.0005232829300828194 -0.006156874132628228 0.0 0.0
0.0 0.0 0.0 0.0 0.0 0.0 0.0 0.0
0.0 0.0 0.0 0.0 0.0 0.0 0.0 0.0
0.0 2.6085514586933643e-05 2.0506596373385493e-05 -1.601952514298185e-05 -4.487071230403664e-06 -1.3461487818028875e-05 0.0 0.0
0.0 0.0006267974655190337 0.0004948998928823358 -0.0004004172942083231 -9.448259867401253e-05 -0.0002339528018542481 0.0 0.0
0.0 0.0026703724937090856 0.002245464094597702 -0.0019217600286106674 -0.00032370406598703367 -0.0008436062404060721 0.0 0.0
0.0 0.006461497997023804 0.0057141791927018595 -0.005167377327578355 -0.0005468018651235063 -0.0018904734969273187 0.0 0.0
0.0 0.012637069045209809 0.011054759183098551 -0.01036548105694674 -0.0006892781261518056 -0.0034140573106236027 0.0 0.0
0.0 0.021095767160517365 0.018332345159893994 -0.017534189708426146 -0.0007981554514678498 -0.005395353496387867 0.0 0.0
0.0 0.031670531724592374 0.02743425746713797 -0.026535148290712383 -0.0008991091764255718 -0.007676610493489272 0.0 0.0
0.0 0.04417362768503427 0.03818053296440159 -0.037182162766896454 -0.0009983701975051329 -0.010029097088673191 0.0 0.0
0.0 0.058349353175815424 0.0504300738243878 -0.049333052458456934 -0.001097021365930847 -0.012308642392780466 0.0 0.0
0.0 0.0742607025484238 0.06408922423445802 -0.06289288841408974 -0.0011963358203682557 -0.01455413064841891 0.0 0.0
0.0 0.09144054192043183 0.07904435753913587 -0.07774710182177527 -0.001297255717360562 -0.016818950476900223 0.0 0.0
0.0 0.10987911968802583 0.09504850490197853 -0.09364880029721799 -0.0013997046047605198 -0.018968358117313247 0.0 0.0
0.0 0.12903957349476147 0.1116511438220034 -0.11014727505624727 -0.0015038687657560946 -0.0206176342123306 0.0 0.0
0.0 0.147995047566096 0.12812301986820918 -0.12651241452540046 -0.001610605342808654 -0.021216872597181552 0.0 0.0
0.0 0.16544738360227065 0.1433461199666326 -0.14162193960383024 -0.001724180362802392 -0.020287274320960346 0.0 0.0
0.0 0.179568206239612 0.15571289942281785 -0.15387788108708145 -0.001835018335736365 -0.017341700037861403 0.0 0.0
0.0 0.18826056048023865 0.16340223108220814 -0.1614869822607394 -0.0019152488214686108 -0.01145968802119321 0.0 0.0
0.0 0.18826056048022632 0.16340223108219665 -0.16148698226072838 -0.0019152488214681995 0.01145968802123202 0.0 0.0
0.0 0.17956820623957387 0.15571289942278294 -0.15387788108704706 -0.0018350183357359166 0.01734170003791815 0.0 0.0
0.0 0.16544738360220662 0.1433461199665756 -0.14162193960377353 -0.0017241803628019281 0.020287274320998874 0.0 0.0
0.0 0.1479950475660166 0.12812301986813937 -0.1265124145253314 -0.0016106053428080348 0.02121687259719909 0.0 0.0
0.0 0.12903957349467327 0.11165114382192706 -0.1101472750561715 -0.0015038687657554673 0.020617634212321396 0.0 0.0
0.0 0.10987911968793534 0.09504850490189964 -0.0936488002971404 -0.00139970460475927 0.018968358117306006 0.0 0.0
0.0 0.0914405419203406 0.07904435753905632 -0.0777471018216967 -0.001297255717359631 0.01681895047689564 0.0 0.0
0.0 0.07426070254833196 0.06408922423437839 -0.06289288841401038 -0.0011963358203679803 0.014554130648411653 0.0 0.0
0.0 0.05834935317572912 0.050430073824313554 -0.04933305245838296 -0.0010970213659306158 0.01230864239276316 0.0 0.0
0.0 0.044173627684956696 0.038180532964334206 -0.03718216276682967 -0.0009983701975045177 0.010029097088657358 0.0 0.0
0.0 0.03167053172452845 0.027434257467082487 -0.02653514829065753 -0.0008991091764249421 0.0076766104934706085 0.0 0.0
0.0 0.02109576716046588 0.01833234515984914 -0.017534189708381855 -0.0007981554514672809 0.005395353496375722 0.0 0.0
0.0 0.012637069045172963 0.011054759183066455 -0.010365481056914986 -0.0006892781261514628 0.0034140573106131063 0.0 0.0
0.0 0.006461497997000533 0.005714179192681235 -0.005167377327558585 -0.0005468018651226522 0.0018904734969210366 0.0 0.0
0.0 0.0026703724936962365 0.002245464094587023 -0.001921760028600982 -0.00032370406598604135 0.0008436062404016775 0.0 0.0
0.0 0.0006267974655153151 0.0004948998928797155 -0.0004004172942061392 -9.448259867357624e-05 0.00023395280185297182 0.0 0.0
0.0 2.6085514586509917e-05 2.050659637354621e-05 -1.6019525143097478e-05 -4.487071230448744e-06 1.3461487818069471e-05 0.0 0.0
0.0 0.0 0.0 0.0 0.0 0.0 0.0 0.0
0.0 0.0 0.0 0.0 0.0 0.0 0.0 0.0
0.0 0.007660424479035803 0.005265766006984878 -0.005789048937067067 0.0005232829300821869 0.0061568741326066614 0.0 0.0
0.0 0.005753339327654869 0.0037941309442259766 -0.004288926351132867 0.0004947954069068877 -0.00487493335157502 0.0 0.0
0.0 0.0 0.0 0.0 0.0 0.0 0.0 0.0
0.0 0.0 0.0 0.0 0.0 0.0 0.0 0.0
0.0 4.29453319503148e-06 1.527479754786296e-06 -1.1848249568122857e-06 -3.426547979739949e-07 -1.5513809859708855e-06 0.0 0.0
0.0 0.0003061487583041024 0.00023480386245135386 -0.0001881589448421208 -4.664491760923285e-05 -0.00017826279408422705 0.0 0.0
0.0 0.0018395534988568838 0.0014970249651048435 -0.0012584110801773334 -0.00023861388492751014 -0.0008543798701719381 0.0 0.0
0.0 0.005027970284217658 0.004347602439370475 -0.0038683405283136234 -0.0004792619110568518 -0.0021192833032992425 0.0 0.0
0.0 0.010342424560189308 0.00895685534496817 -0.008309304969542868 -0.0006475503754253022 -0.004016274872800848 0.0 0.0
0.0 0.01777231121286845 0.015299657289536937 -0.014537711042635907 -0.0007619462469010368 -0.006441988601507803 0.0 0.0
0.0 0.027048229232679372 0.023236325196446788 -0.02237679193257582 -0.0008595332638709361 -0.00921171888521275 0.0 0.0
0.0 0.03796173739582635 0.03257481996341903 -0.03162309553719682 -0.0009517244262222009 -0.01205726669106752 0.0 0.0
0.0 0.050338727495059334 0.043183811694534315 -0.042141946430226826 -0.0010418652643075046 -0.014830561255217258 0.0 0.0
0.0 0.06408650301004383 0.055001871464612946 -0.053870370619209455 -0.0011315008454035006 -0.01757741633006908 0.0 0.0
0.0 0.0791665246380532 0.06795942251423845 -0.06673726098472661 -0.0012221615295118133 -0.020308651793433434 0.0 0.0
0.0 0.09533770865882289 0.08188725127837962 -0.08057433837773867 -0.001312912900640922 -0.022901145135642214 0.0 0.0
0.0 0.11198357984733245 0.09645307254898214 -0.09504835635881148 -0.0014047161901706098 -0.02499876956043997 0.0 0.0
0.0 0.12878738804859297 0.11106319622570378 -0.10956175180513154 -0.0015014444205722031 -0.02597714405595074 0.0 0.0
0.0 0.14441274931974624 0.12474417769826143 -0.12314020473097936 -0.0016039729672821012 -0.025076978534827217 0.0 0.0
0.0 0.15723983086471272 0.1361008395080317 -0.13439837080804307 -0.0017024686999886035 -0.021266969589425016 0.0 0.0
0.0 0.16552008312995262 0.14357741776655292 -0.14180258402071833 -0.0017748337458345922 -0.013291673887789653 0.0 0.0
0.0 0.16552008312993816 0.14357741776653954 -0.1418025840207046 -0.0017748337458349552 0.013291673887839195 0.0 0.0
0.0 0.15723983086467902 0.13610083950799967 -0.13439837080801142 -0.0017024686999881759 0.021266969589490793 0.0 0.0
0.0 0.1444127493196912 0.12474417769821147 -0.12314020473092925 -0.0016039729672821376 0.025076978534872375 0.0 0.0
0.0 0.12878738804852666 0.11106319622564485 -0.10956175180507292 -0.0015014444205718746 0.025977144055970833 0.0 0.0
0.0 0.11198357984725855 0.09645307254891788 -0.0950483563587484 -0.001404716190169467 0.024998769560431244 0.0 0.0
0.0 0.09533770865874183 0.08188725127830969 -0.08057433837766885 -0.0013129129006408374 0.022901145135632 0.0 0.0
0.0 0.07916652463797344 0.06795942251416916 -0.06673726098465767 -0.001222161529511483 0.02030865179342567 0.0 0.0
0.0 0.06408650300996752 0.0550018714645464 -0.05387037061914383 -0.001131500845402567 0.017577416330059183 0.0 0.0
0.0 0.050338727494989466 0.04318381169447358 -0.04214194643016733 -0.0010418652643062454 0.014830561255198785 0.0 0.0
0.0 0.03796173739576201 0.03257481996336336 -0.03162309553714187 -0.0009517244262214862 0.012057266691047841 0.0 0.0
0.0 0.027048229232618876 0.023236325196395298 -0.022376791932524554 -0.0008595332638707278 0.009211718885188644 0.0 0.0
0.0 0.017772311212820736 0.015299657289495899 -0.014537711042595302 -0.0007619462469005953 0.006441988601491462 0.0 0.0
0.0 0.010342424560158665 0.008956855344941592 -0.008309304969517116 -0.0006475503754244724 0.00401627487278879 0.0 0.0
0.0 0.005027970284198749 0.004347602439354246 -0.0038683405282983825 -0.0004792619110558623 0.002119283303291975 0.0 0.0
0.0 0.0018395534988456651 0.0014970249650961345 -0.0012584110801697492 -0.00023861388492638574 0.0008543798701671 0.0 0.0
0.0 0.0003061487583001269 0.00023480386244880406 -0.00018815894484002014 -4.6644917608784003e-05 0.00017826279408235726 0.0 0.0
0.0 4.294533194660133e-06 1.5274797549757612e-06 -1.1848249569582365e-06 -3.426547980175139e-07 1.55138098615608e-06 0.0 0.0
0.0 0.0 0.0 0.0 0.0 0.0 0.0 0.0
0.0 0.0 0.0 0.0 0.0 0.0 0.0 0.0
0.0 0.005753339327637844 0.003794130944214662 -0.004288926351120876 0.0004947954069062112 0.004874933351557947 0.0 0.0
0.0 0.0041882440787053485 0.0026624085571630473 -0.0030940193883996388 0.00043161083123659157 -0.003618066696478889 0.0 0.0
0.0 0.0 0.0 0.0 0.0 0.0 0.0 0.0
0.0 0.0 0.0 0.0 0.0 0.0 0.0 0.0
0.0 6.53469258996862e-07 2.2700725016928162e-07 -1.731201200379349e-07 -5.388713013134691e-08 -3.3170124292596916e-07 0.0 0.0
0.0 0.00012729254986951774 8.839153038606233e-05 -7.060399169807316e-05 -1.7787538687989222e-05 -0.00010393400881552524 0.0 0.0
0.0 0.0011406342377177383 0.000893200371120209 -0.0007381361068895415 -0.00015506426423066808 -0.0007540797584394482 0.0 0.0
0.0 0.003786898811981548 0.003077085252319735 -0.0026846004213744506 -0.00039248483094528395 -0.002086436092366942 0.0 0.0
0.0 0.008169889245500769 0.006903280231961325 -0.006312752880582778 -0.0005905273513785446 -0.004184678751982948 0.0 0.0
0.0 0.014492162373099875 0.01229212690120354 -0.011574968445125036 -0.0007171584560785072 -0.0069247796732398 0.0 0.0
0.0 0.022464253028081527 0.01904655158320384 -0.018233162126976066 -0.0008133894562277666 -0.009999883659899445 0.0 0.0
0.0 0.031796914333384926 0.02696951959988295 -0.026070057642638773 -0.0008994619572442057 -0.013152707002659872 0.0 0.0
0.0 0.04231055351574357 0.035935709267543074 -0.03495452887777671 -0.0009811803897663584 -0.01622691640657366 0.0 0.0
0.0 0.05403771753239243 0.04590857692732579 -0.044847159842583584 -0.0010614170847422044 -0.019271477716878507 0.0 0.0
0.0 0.0667501083293014 0.05686656476681415 -0.055725138511923476 -0.001141426254890692 -0.02231564304206346 0.0 0.0
0.0 0.08054412952842599 0.06870493800675831 -0.06748386043369904 -0.0012210775730592844 -0.02519431712609668 0.0 0.0
0.0 0.09511510740593236 0.0811902041335703 -0.07988909107100124 -0.001301113062569028 -0.027565985179064046 0.0 0.0
0.0 0.1095760926835652 0.09389096512528639 -0.09250657279118855 -0.0013843923340977954 -0.028884946270423106 0.0 0.0
0.0 0.12335102300613204 0.10605915638883057 -0.10458539040537604 -0.0014737659834545096 -0.028201135332316673 0.0 0.0
0.0 0.13506902785943806 0.11655600957818105 -0.1149936443403654 -0.0015623652378156103 -0.02403058436844416 0.0 0.0
0.0 0.1431545653237431 0.12400973851056404 -0.1223772094596482 -0.0016325290509157822 -0.014811274429805298 0.0 0.0
0.0 0.1431545653237345 0.12400973851055495 -0.1223772094596392 -0.0016325290509156527 0.014811274429857746 0.0 0.0
0.0 0.13506902785940852 0.11655600957815201 -0.11499364434033604 -0.0015623652378159564 0.024030584368512783 0.0 0.0
0.0 0.1233510230060862 0.10605915638878738 -0.10458539040533293 -0.0014737659834544474 0.028201135332366633 0.0 0.0
0.0 0.10957609268351234 0.09389096512523826 -0.09250657279114113 -0.0013843923340971008 0.028884946270445758 0.0 0.0
0.0 0.09511510740586591 0.08119020413351252 -0.07988909107094404 -0.0013011130625685406 0.027565985179055518 0.0 0.0
0.0 0.08054412952835491 0.0687049380066968 -0.06748386043363802 -0.0012210775730587906 0.02519431712608447 0.0 0.0
0.0 0.06675010832923634 0.05686656476675765 -0.05572513851186732 -0.0011414262548903242 0.02231564304205467 0.0 0.0
0.0 0.05403771753232919 0.04590857692727056 -0.044847159842528836 -0.0010614170847416974 0.019271477716868407 0.0 0.0
0.0 0.04231055351568425 0.03593570926749197 -0.03495452887772635 -0.000981180389765596 0.01622691640655476 0.0 0.0
0.0 0.031796914333330685 0.02696951959983648 -0.026070057642593375 -0.0008994619572431071 0.0131527070026378 0.0 0.0
0.0 0.02246425302803271 0.019046551583163106 -0.0182331621269361 -0.0008133894562270105 0.009999883659873606 0.0 0.0
0.0 0.014492162373062348 0.012292126901171712 -0.01157496844509353 -0.0007171584560781775 0.006924779673223202 0.0 0.0
0.0 0.008169889245472286 0.006903280231937604 -0.006312752880559691 -0.0005905273513779112 0.0041846787519688984 0.0 0.0
0.0 0.003786898811964909 0.003077085252306238 -0.0026846004213620074 -0.0003924848309442312 0.0020864360923586902 0.0 0.0
0.0 0.0011406342377098095 0.0008932003711143709 -0.0007381361068845915 -0.00015506426422977896 0.0007540797584346462 0.0 0.0
0.0 0.00012729254986793844 8.839153038549375e-05 -7.0603991697594e-05 -1.7787538687899688e-05 0.0001039340088147498 0.0 0.0
0.0 6.534692588360089e-07 2.2700725029870122e-07 -1.731201201371328e-07 -5.38871301615664e-08 3.3170124312045205e-07 0.0 0.0
0.0 0.0 0.0 0.0 0.0 0.0 0.0 0.0
0.0 0.0 0.0 0.0 0.0 0.0 0.0 0.0
0.0 0.004188244078691489 0.0026624085571540683 -0.0030940193883899356 0.00043161083123586554 0.0036180666964658343 0.0 0.0
0.0 0.0028823558350901815 0.001777184700254796 -0.0021242052401712337 0.00034702053991643716 -0.0025348489517073533 0.0 0.0
0.0 0.0 0.0 0.0 0.0 0.0 0.0 0.0
0.0 0.0 0.0 0.0 0.0 0.0 0.0 0.0
0.0 1.2459832782016668e-06 -8.711175530045244e-08 6.722946238267231e-08 1.9882292917777628e-08 2.0432140011233723e-07 0.0 0.0
0.0 5.4980702455772836e-05 2.913958145553948e-05 -2.321672860356014e-05 -5.922852851979339e-06 -5.093069592471982e-05 0.0 0.0
0.0 0.0006137579045850518 0.0004578060512371844 -0.0003732724600643345 -8.453359117284966e-05 -0.0005762789123072844 0.0 0.0
0.0 0.0025264414286186323 0.0019803872872282474 -0.0016905082234719832 -0.00028987906375626437 -0.0018872527903560329 0.0 0.0
0.0 0.006113226876668315 0.004951272059628705 -0.004442781609777985 -0.0005084904498507195 -0.003984979679219189 0.0 0.0
0.0 0.011327803861454665 0.009341665573098267 -0.008683246600371976 -0.0006584189727262893 -0.006810971594129968 0.0 0.0
0.0 0.017938242131583054 0.014902671601372298 -0.014144245654831524 -0.0007584259465407714 -0.010028976588411715 0.0 0.0
0.0 0.025660786951965844 0.0214030450158012 -0.02056349759071807 -0.0008395474250831292 -0.013298021077145837 0.0 0.0
0.0 0.03434003003547675 0.028725538582897003 -0.02781174773837003 -0.0009137908445269831 -0.016486703743448437 0.0 0.0
0.0 0.04394116952286061 0.03685448538899058 -0.035869805265836795 -0.000984680123153782 -0.01964636397393145 0.0 0.0
0.0 0.05448490711031244 0.04580634612763823 -0.04475230203912355 -0.001054044088514693 -0.02279145664364575 0.0 0.0
0.0 0.06594255561669206 0.05554297682515525 -0.05441975200745151 -0.0011232248177037677 -0.025788823095074714 0.0 0.0
0.0 0.07785880264126438 0.06591419273099708 -0.06472277016457725 -0.001191422566419852 -0.028321329687018542 0.0 0.0
0.0 0.09030338084226527 0.0766361146666024 -0.07537636442050191 -0.0012597502461004328 -0.02987393577847411 0.0 0.0
0.0 0.10237054455447052 0.08725188346499682 -0.08591867722815864 -0.0013332062368381816 -0.02954516178106539 0.0 0.0
0.0 0.11289784365722019 0.09694937140567542 -0.09553723652357887 -0.0014121348820964985 -0.025607922463942508 0.0 0.0
0.0 0.12093610772360062 0.10451474711938641 -0.10303075402905264 -0.0014839930903337189 -0.016048082727489567 0.0 0.0
0.0 0.12093610772359245 0.1045147471193772 -0.1030307540290436 -0.0014839930903335495 0.01604808272754319 0.0 0.0
0.0 0.11289784365719545 0.09694937140564927 -0.095537236523553 -0.001412134882096304 0.02560792246401169 0.0 0.0
0.0 0.1023705445544355 0.08725188346496171 -0.08591867722812419 -0.0013332062368375326 0.02954516178111588 0.0 0.0
0.0 0.09030338084222105 0.07663611466656149 -0.07537636442046144 -0.0012597502461000364 0.029873935778494683 0.0 0.0
0.0 0.07785880264120916 0.0659141927309496 -0.06472277016452971 -0.0011914225664198528 0.02832132968700926 0.0 0.0
0.0 0.06594255561663284 0.05554297682510419 -0.054419752007400804 -0.001123224817703375 0.02578882309506153 0.0 0.0
0.0 0.054484907110258135 0.045806346127590866 -0.044752302039077 -0.001054044088513885 0.02279145664363451 0.0 0.0
0.0 0.04394116952280923 0.036854485388945854 -0.03586980526579288 -0.0009846801231529932 0.019646363973920417 0.0 0.0
0.0 0.03434003003542697 0.028725538582854645 -0.027811747738328427 -0.0009137908445262168 0.016486703743429875 0.0 0.0
0.0 0.025660786951919066 0.02140304501576213 -0.020563497590679415 -0.0008395474250827209 0.013298021077123185 0.0 0.0
0.0 0.017938242131544248 0.014902671601340631 -0.014144245654800543 -0.0007584259465400863 0.010028976588385799 0.0 0.0
0.0 0.011327803861425616 0.009341665573073924 -0.008683246600348464 -0.0006584189727254555 0.006810971594113682 0.0 0.0
0.0 0.006113226876647656 0.004951272059612051 -0.0044427816097621885 -0.0005084904498498631 0.003984979679206339 0.0 0.0
0.0 0.002526441428608018 0.0019803872872200556 -0.001690508223464696 -0.0002898790637553589 0.001887252790349422 0.0 0.0
0.0 0.0006137579045804081 0.00045780605123433714 -0.0003732724600619515 -8.45335911723855e-05 0.0005762789123037952 0.0 0.0
0.0 5.4980702454974484e-05 2.9139581455640865e-05 -2.3216728603626243e-05 -5.922852852014617e-06 5.0930695924784266e-05 0.0 0.0
0.0 1.245983277765114e-06 -8.711175526903953e-08 6.722946235833695e-08 1.9882292910690027e-08 -2.0432140003799813e-07 0.0 0.0
0.0 0.0 0.0 0.0 0.0 0.0 0.0 0.0
0.0 0.0 0.0 0.0 0.0 0.0 0.0 0.0
0.0 0.002882355835078932 0.0017771847002478038 -0.002124205240163472 0.0003470205399156693 0.0025348489516970924 0.0 0.0
0.0 0.0018536949222808657 0.0010902930695351086 -0.0013408670533503694 0.0002505739838152605 -0.00164229379210789 0.0 0.0
0.0 5.610935232125803e-07 -8.037160125762508e-09 8.338978319598262e-09 -3.018181938355691e-10 1.1164998698213293e-07 0.0 0.0
0.0 0.0 0.0 0.0 0.0 0.0 0.0 0.0
0.0 1.343535810957597e-06 -6.745450613659108e-08 5.1836617700734505e-08 1.5617888435866596e-08 2.5068220686766373e-07 0.0 0.0
0.0 2.955055252959542e-05 1.3567239570658663e-05 -1.0745160161527274e-05 -2.822079409131392e-06 -3.511242438395963e-05 0.0 0.0
0.0 0.0003229760918578272 0.00018777828617994597 -0.00015179623949735602 -3.598204668259e-05 -0.0003581502011585126 0.0 0.0
0.0 0.001519015358269721 0.0010881002893791067 -0.0009082541029815811 -0.00017984618639752583 -0.001504658552036744 0.0 0.0
0.0 0.004166836454243825 0.0031822497051082303 -0.0027857203490575175 -0.00039652935605071177 -0.0034782101869774203 0.0 0.0
0.0 0.008266452068217819 0.006511501427992974 -0.005938244712317479 -0.0005732567156754901 -0.006142675035953685 0.0 0.0
0.0 0.013498146775430691 0.010846096721529704 -0.010157927363368251 -0.0006881693581614495 -0.009262066248567147 0.0 0.0
0.0 0.01960242217429945 0.0159164854144919 -0.015148288689071124 -0.0007681967254207739 -0.012478665834201864 0.0 0.0
0.0 0.026424843950334523 0.021598526070257067 -0.020761868242930418 -0.00083665782732664 -0.015596169653477236 0.0 0.0
0.0 0.03396752976477428 0.027887285441982358 -0.02698851007465482 -0.0008987753673275272 -0.018668060981782194 0.0 0.0
0.0 0.042212667520525965 0.03483235418948856 -0.033874737918738455 -0.0009576162707500789 -0.021735704928016086 0.0 0.0
0.0 0.05123759017642278 0.0424526398657828 -0.041437233122265736 -0.0010154067435170844 -0.024675330655443764 0.0 0.0
0.0 0.060874716772768615 0.05067676384665523 -0.0496028483795862 -0.0010739154670690557 -0.027179912196020332 0.0 0.0
0.0 0.07084092900956475 0.05934700602076058 -0.05821963813190767 -0.0011273678888528964 -0.028859871509873035 0.0 0.0
0.0 0.08097158745706402 0.06829822341201071 -0.06711735716878112 -0.0011808662432295817 -0.029017162043431254 0.0 0.0
0.0 0.09072801230376092 0.0771410444557042 -0.07589389883079735 -0.001247145624906838 -0.025897724582765153 0.0 0.0
0.0 0.09888709403354672 0.08489828620414609 -0.08357436925782044 -0.0013239169463256388 -0.01697420768823166 0.0 0.0
0.0 0.09888709403354694 0.08489828620414355 -0.08357436925781861 -0.0013239169463249295 0.016974207688283206 0.0 0.0
0.0 0.09072801230374677 0.07714104445568591 -0.07589389883077963 -0.0012471456249063856 0.025897724582834243 0.0 0.0
0.0 0.08097158745704044 0.06829822341198448 -0.06711735716875569 -0.001180866243228744 0.029017162043481863 0.0 0.0
0.0 0.07084092900952677 0.05934700602072422 -0.05821963813187195 -0.0011273678888523036 0.028859871509893963 0.0 0.0
0.0 0.06087471677272513 0.050676763846617755 -0.04960284837954928 -0.001073915467068471 0.027179912196009404 0.0 0.0
0.0 0.05123759017637709 0.04245263986574397 -0.041437233122227066 -0.001015406743516909 0.024675330655429272 0.0 0.0
0.0 0.04221266752048371 0.0348323541894522 -0.0338747379187023 -0.0009576162707498966 0.02173570492800514 0.0 0.0
0.0 0.03396752976473523 0.02788728544194869 -0.02698851007462156 -0.0008987753673271228 0.01866806098177157 0.0 0.0
0.0 0.02642484395029224 0.021598526070221717 -0.02076186824289568 -0.0008366578273260404 0.015596169653457038 0.0 0.0
0.0 0.019602422174259837 0.015916485414459756 -0.015148288689039589 -0.0007681967254201534 0.012478665834177383 0.0 0.0
0.0 0.01349814677539672 0.010846096721503412 -0.010157927363342364 -0.0006881693581610444 0.009262066248540472 0.0 0.0
0.0 0.008266452068192492 0.00651150142797303 -0.005938244712298099 -0.0005732567156749299 0.00614267503593737 0.0 0.0
0.0 0.004166836454226755 0.003182249705095196 -0.0027857203490454395 -0.000396529356049756 0.0034782101869649893 0.0 0.0
0.0 0.0015190153582613575 0.001088100289373188 -0.0009082541029764182 -0.000179846186396769 0.0015046585520297907 0.0 0.0
0.0 0.0003229760918546072 0.0001877782861784543 -0.00015179623949613977 -3.5982046682314354e-05 0.0003581502011557394 0.0 0.0
0.0 2.9550552528279006e-05 1.3567239570588306e-05 -1.074516016146735e-05 -2.822079409120968e-06 3.511242438377952e-05 0.0 0.0
0.0 1.343535810551308e-06 -6.74545061154224e-08 5.1836617684484416e-08 1.561788843093987e-08 -2.5068220678900275e-07 0.0 0.0
0.0 0.0 0.0 0.0 0.0 0.0 0.0 0.0
0.0 5.610935225658215e-07 -8.037160116491167e-09 8.3389783100577e-09 -3.018181935663175e-10 -1.1164998685127716e-07 0.0 0.0
0.0 0.0018536949222722962 0.0010902930695302299 -0.001340867053344809 0.0002505739838145786 0.0016422937921003523 0.0 0.0
0.0 0.0010584642992428823 0.0005813522348952421 -0.0007381064650313362 0.00015675423013609366 -0.0009337118388729247 0.0 0.0
0.0 1.0792538056210857e-06 1.616589602034031e-08 -1.3642884514615246e-08 -2.523011505726416e-09 -4.3168274584964876e-07 0.0 0.0
0.0 6.305102464673167e-07 -7.0898921551877894e-09 5.074535917472657e-09 2.0153562377156586e-09 1.2874703632778445e-07 0.0 0.0
0.0 1.1315918361849023e-06 3.076472721684635e-08 -2.6569046200802097e-08 -4.195681016042064e-09 -2.6674552022030917e-07 0.0 0.0
0.0 2.377831798547741e-05 7.967068440305611e-06 -6.284808643518973e-06 -1.6822597967866478e-06 -3.2300925370806395e-05 0.0 0.0
0.0 0.00017329889074069483 7.34831243441369e-05 -5.9025919543756885e-05 -1.4457204800380023e-05 -0.00022583782197298178 0.0 0.0
0.0 0.0008066063790568338 0.00046420301720498727 -0.00037993782826642897 -8.426518893855815e-05 -0.0010164235832893441 0.0 0.0
0.0 0.0024751389258368646 0.0016764372962503257 -0.0014230469695205785 -0.0002533903267297469 -0.0026802580327672737 0.0 0.0
0.0 0.00538460628787448 0.003896306473716711 -0.0034525414948646154 -0.00044376497885209224 -0.0049998241345028775 0.0 0.0
0.0 0.009136111682838568 0.006951200844044598 -0.0063671095872603455 -0.000584091256784253 -0.007744036594848777 0.0 0.0
0.0 0.013699195912862975 0.010567080673711527 -0.009892583040358536 -0.0006744976333529875 -0.010646229062866771 0.0 0.0
0.0 0.018631952966652734 0.014610715468949688 -0.013869303131574034 -0.0007414123373756501 -0.013503293837587698 0.0 0.0
0.0 0.02407281191382233 0.019069362617324153 -0.01827213817059738 -0.0007972244467267786 -0.01631539255800065 0.0 0.0
0.0 0.03008510566170035 0.024007245390129293 -0.023160927307521312 -0.0008463180826079845 -0.019103596189365857 0.0 0.0
0.0 0.03675428996774418 0.029495772800186303 -0.028603080156720383 -0.00089269264346591 -0.021808196210155045 0.0 0.0
0.0 0.043928844433403814 0.03554867547014887 -0.034608434562748376 -0.0009402409074004919 -0.024162126945790133 0.0 0.0
0.0 0.05159497321755441 0.04210406780965238 -0.04111886910609953 -0.0009851987035528495 -0.02576589084918009 0.0 0.0
0.0 0.05959133601775721 0.049207124710313854 -0.04819066846628524 -0.0010164562440286068 -0.026334521109425895 0.0 0.0
0.0 0.06802714519626 0.05699264096720231 -0.05593372680264812 -0.0010589141645541424 -0.024608427072168853 0.0 0.0
0.0 0.07623098281845793 0.06494323207969355 -0.06380189441864695 -0.0011413376610466212 -0.017494502593432205 0.0 0.0
0.0 0.07623098281845568 0.06494323207968868 -0.06380189441864205 -0.0011413376610466168 0.01749450259347706 0.0 0.0
0.0 0.06802714519624921 0.05699264096718658 -0.0559337268026322 -0.001058914164554387 0.024608427072231404 0.0 0.0
0.0 0.059591336017741026 0.04920712471029382 -0.048190668466265615 -0.001016456244028182 0.0263345211094703 0.0 0.0
0.0 0.05159497321753307 0.04210406780963073 -0.04111886910607855 -0.0009851987035522055 0.02576589084919762 0.0 0.0
0.0 0.04392884443337228 0.03554867547012247 -0.034608434562722605 -0.0009402409073998525 0.02416212694577811 0.0 0.0
0.0 0.03675428996771211 0.0294957728001596 -0.0286030801566943 -0.0008926926434653236 0.02180819621014122 0.0 0.0
0.0 0.03008510566167071 0.02400724539010426 -0.023160927307496762 -0.0008463180826075095 0.019103596189356097 0.0 0.0
0.0 0.024072811913792996 0.019069362617299322 -0.01827213817057286 -0.0007972244467264616 0.016315392557990388 0.0 0.0
0.0 0.01863195296662667 0.014610715468928562 -0.013869303131553476 -0.0007414123373750857 0.013503293837572651 0.0 0.0
0.0 0.013699195912836182 0.010567080673690546 -0.009892583040338151 -0.0006744976333523854 0.010646229062847623 0.0 0.0
0.0 0.009136111682813045 0.006951200844025942 -0.006367109587242401 -0.0005840912567835368 0.0077440365948262604 0.0 0.0
0.0 0.005384606287858125 0.00389630647370477 -0.0034525414948533444 -0.0004437649788514251 0.004999824134489225 0.0 0.0
0.0 0.0024751389258262776 0.0016764372962427023 -0.0014230469695138642 -0.00025339032672883733 0.002680258032757697 0.0 0.0
0.0 0.0008066063790513704 0.0004642030172019367 -0.00037993782826384684 -8.426518893808982e-05 0.0010164235832837505 0.0 0.0
0.0 0.00017329889073854294 7.348312434359751e-05 -5.902591954330932e-05 -1.4457204800288186e-05 0.00022583782197121158 0.0 0.0
0.0 2.377831798485562e-05 7.96706844027896e-06 -6.284808643497009e-06 -1.6822597967819404e-06 3.230092537073458e-05 0.0 0.0
0.0 1.1315918359176908e-06 3.07647272936944e-08 -2.6569046261015472e-08 -4.195681032681905e-09 2.6674552076977156e-07 0.0 0.0
0.0 6.305102458760242e-07 -7.089892147158693e-09 5.074535912009278e-09 2.015356235150372e-09 -1.2874703620679312e-07 0.0 0.0
0.0 1.079253805093356e-06 1.6165896061764247e-08 -1.3642884562908748e-08 -2.523011498855553e-09 4.316827468622047e-07 0.0 0.0
0.0 0.001058464299236666 0.0005813522348921568 -0.00073810646502764 0.00015675423013548304 0.0009337118388679875 0.0 0.0
0.0 0.00045806795036500885 0.0002476890100185015 -0.00032784533315002265 8.015632313152132e-05 -0.00042811916997304136 0.0 0.0
0.0 2.3856429681672573e-06 7.020298736830162e-10 1.380987046232099e-09 -2.0830169199148976e-09 -1.064341221137902e-07 0.0 0.0
0.0 9.302052062430557e-07 -5.79984226673806e-10 -3.065694099620062e-10 8.865536366354644e-10 -3.630281902849375e-08 0.0 0.0
0.0 2.3963457625561542e-06 1.0210425661961454e-07 -7.177428107336235e-08 -3.032997554624899e-08 -1.4336012055185745e-06 0.0 0.0
0.0 2.5575438732602594e-05 4.8730447758242224e-06 -3.7803607486660218e-06 -1.0926840271582066e-06 -3.725636364847773e-05 0.0 0.0
0.0 0.00013142693429287367 3.2682394032590807e-05 -2.6219978317544544e-05 -6.462415715046266e-06 -0.00018423670024263856 0.0 0.0
0.0 0.000422217754943006 0.00014775836427931703 -0.00011945550294527304 -2.830286133404394e-05 -0.0006177493200997226 0.0 0.0
0.0 0.001189111582159833 0.0005819799801238367 -0.00047804455127014385 -0.00010393542885369266 -0.001688603415184448 0.0 0.0
0.0 0.0028048576371567714 0.0016517061972302106 -0.0014013987976711892 -0.00025030739955902157 -0.0034291024631468896 0.0 0.0
0.0 0.005121989779727527 0.0033533896917549394 -0.0029495336308731327 -0.00040385606088180585 -0.0055559864666407275 0.0 0.0
0.0 0.007911042574553093 0.005477323964144442 -0.004957823182843093 -0.0005195007813013474 -0.007869210992037164 0.0 0.0
0.0 0.011099449764964103 0.007863040361042762 -0.007265513361197691 -0.0005975269998450697 -0.010226827936948669 0.0 0.0
0.0 0.014548158852692871 0.010499022711904255 -0.00984294304374282 -0.0006560796681614357 -0.012612330505264707 0.0 0.0
0.0 0.018359443519183682 0.013440105066182135 -0.012739174940532972 -0.0007009301256491522 -0.014977904914759206 0.0 0.0
0.0 0.022609496895366215 0.016779769165839665 -0.016042242794296717 -0.0007375263715429409 -0.01729602982237905 0.0 0.0
0.0 0.027357667151889514 0.02062355078617484 -0.019851124030854577 -0.0007724267553202693 -0.01942093037118794 0.0 0.0
0.0 0.03262463656488194 0.025034766611272366 -0.024223247521595583 -0.0008115190896767962 -0.020957252471813965 0.0 0.0
0.0 0.038460253008954434 0.030133609070419135 -0.029294830588893088 -0.00083877848152606 -0.02162008744730751 0.0 0.0
0.0 0.0454323989562509 0.036427598434873754 -0.03559095258166859 -0.0008366458532051657 -0.02128927423619586 0.0 0.0
0.0 0.05353882873534169 0.044360176073061836 -0.043447344057138015 -0.0009128320159238368 -0.01731092070095143 0.0 0.0
0.0 0.05353882873534273 0.044360176073059476 -0.04344734405713517 -0.0009128320159243251 0.01731092070098933 0.0 0.0
0.0 0.045432398956250536 0.03642759843486653 -0.03559095258166146 -0.0008366458532050572 0.021289274236251036 0.0 0.0
0.0 0.03846025300894492 0.030133609070404636 -0.02929483058887887 -0.0008387784815257624 0.021620087447346416 0.0 0.0
0.0 0.03262463656486156 0.025034766611253166 -0.02422324752157621 -0.0008115190896769498 0.02095725247182105 0.0 0.0
0.0 0.027357667151862622 0.020623550786154805 -0.019851124030834142 -0.0007724267553206586 0.01942093037117077 0.0 0.0
0.0 0.02260949689534228 0.0167797691658215 -0.016042242794278516 -0.0007375263715429772 0.017296029822364577 0.0 0.0
0.0 0.018359443519167608 0.013440105066169123 -0.012739174940520136 -0.000700930125648988 0.014977904914752935 0.0 0.0
0.0 0.014548158852679401 0.010499022711893022 -0.009842943043731832 -0.0006560796681611927 0.012612330505260288 0.0 0.0
0.0 0.011099449764947648 0.007863040361030874 -0.00726551336118622 -0.0005975269998446536 0.01022682793693588 0.0 0.0
0.0 0.0079110425745343 0.0054773239641318135 -0.004957823182830764 -0.0005195007813010499 0.007869210992019225 0.0 0.0
0.0 0.005121989779712816 0.0033533896917461747 -0.002949533630864887 -0.0004038560608812857 0.005555986466624068 0.0 0.0
0.0 0.002804857637148917 0.0016517061972251765 -0.0014013987976666674 -0.00025030739955850874 0.003429102463138599 0.0 0.0
0.0 0.00118911158215352 0.0005819799801202767 -0.0004780445512671671 -0.00010393542885310942 0.0016886034151771384 0.0 0.0
0.0 0.0004222177549405838 0.00014775836427859986 -0.00011945550294468808 -2.8302861333911717e-05 0.0006177493200970965 0.0 0.0
0.0 0.00013142693429095336 3.2682394032428224e-05 -2.621997831740645e-05 -6.462415715021763e-06 0.00018423670024139937 0.0 0.0
0.0 2.557543873193305e-05 4.873044775806219e-06 -3.7803607486494394e-06 -1.0926840271567808e-06 3.725636364832742e-05 0.0 0.0
0.0 2.3963457624539445e-06 1.0210425667128515e-07 -7.177428110941292e-08 -3.0329975561869574e-08 1.4336012062932314e-06 0.0 0.0
0.0 9.302052060028962e-07 -5.799842261233173e-10 -3.0656940892215447e-10 8.865536350459368e-10 3.630281948318368e-08 0.0 0.0
0.0 2.3856429676337634e-06 7.020298796278028e-10 1.3809870327628755e-09 -2.0830169123909976e-09 1.0643412255852871e-07 0.0 0.0
0.0 0.0004580679503610951 0.00024768901001684065 -0.00032784533314792277 8.01563231310819e-05 0.00042811916997028435 0.0 0.0
0.0 0.00012989006694607324 6.653559354478743e-05 -9.242713434423128e-05 2.5891540799443835e-05 -0.00012195273759827415 0.0 0.0
0.0 2.843664551075444e-06 2.459804366413666e-10 3.5085705639967527e-09 -3.754551000636867e-09 -3.8327707266624535e-07 0.0 0.0
0.0 3.4652969415242853e-06 -1.0117496805881753e-07 9.584659045739805e-08 5.3283776014201345e-09 -2.8321878390907653e-06 0.0 0.0
0.0 5.590772866872782e-06 -9.033598499146558e-08 1.210221135595959e-07 -3.068612856812967e-08 -7.67274761344609e-06 0.0 0.0
0.0 3.0565850641712454e-05 1.1227886995221338e-06 -7.581139212458943e-07 -3.6467477827624626e-07 -4.217945535376472e-05 0.0 0.0
0.0 0.00012536672969907007 9.894951817601492e-06 -7.821119742412534e-06 -2.0738320751889446e-06 -0.00018956203965464515 0.0 0.0
0.0 0.0003112275915921925 3.588128239589468e-05 -2.8961816211751564e-05 -6.919466184143128e-06 -0.00050108907569085 0.0 0.0
0.0 0.0006489634309587767 9.741787607547873e-05 -7.907019425776741e-05 -1.8347681817711203e-05 -0.0010122335776246649 0.0 0.0
0.0 0.0011750014057946262 0.0002515429437054324 -0.00020472535573676985 -4.68175879686623e-05 -0.001897613099694605 0.0 0.0
0.0 0.0020835903248108477 0.0005799590380700164 -0.0004719098958965357 -0.00010804914217348072 -0.003183967932565427 0.0 0.0
0.0 0.0031794363567315227 0.0010973828265782735 -0.0008997568623109689 -0.00019762596426730448 -0.00479964965567267 0.0 0.0
0.0 0.004611479923807104 0.0017639670265566522 -0.0014804021984220624 -0.00028356482813458915 -0.006608422257517539 0.0 0.0
0.0 0.006258850855684773 0.0025606908055119193 -0.0022048421813482912 -0.00035584862416362614 -0.008566192588648434 0.0 0.0
0.0 0.00814757043713949 0.003497528946578999 -0.003085294428477631 -0.0004122345181013697 -0.010652222943388167 0.0 0.0
0.0 0.010287107899397697 0.00466467006739856 -0.004209843559860914 -0.0004548265075376442 -0.01284582445057309 0.0 0.0
0.0 0.012807601162101048 0.006235601048011719 -0.005746746265860288 -0.0004888547821514287 -0.015003885157248936 0.0 0.0
0.0 0.015742870793788145 0.008456756474303308 -0.007932177559774701 -0.0005245789145286032 -0.01672601617055508 0.0 0.0
0.0 0.019167963701148046 0.011541572175151352 -0.01096975805046128 -0.0005718141246900645 -0.01738871620738706 0.0 0.0
0.0 0.023798587783526528 0.015895650824920983 -0.015321108393697873 -0.0005745424312231051 -0.01718673363413769 0.0 0.0
0.0 0.03099579901109182 0.022946037186267462 -0.022391536852672374 -0.0005545003335950839 -0.016376473692108446 0.0 0.0
0.0 0.030995799011095906 0.022946037186267813 -0.022391536852672693 -0.0005545003335951247 0.01637647369213749 0.0 0.0
0.0 0.02379858778353309 0.015895650824920005 -0.015321108393696905 -0.0005745424312231095 0.017186733634179743 0.0 0.0
0.0 0.019167963701145135 0.01154157217514489 -0.010969758050454699 -0.0005718141246901873 0.017388716207409945 0.0 0.0
0.0 0.015742870793780686 0.008456756474298128 -0.007932177559769792 -0.00052457891452833 0.016726016170553963 0.0 0.0
0.0 0.012807601162094397 0.006235601048010355 -0.005746746265859727 -0.0004888547821506271 0.015003885157236744 0.0 0.0
0.0 0.0102871078993879 0.004664670067394472 -0.004209843559857002 -0.0004548265075374682 0.012845824450561202 0.0 0.0
0.0 0.008147570437133437 0.0034975289465772807 -0.0030852944284758843 -0.00041223451810139825 0.010652222943380115 0.0 0.0
0.0 0.0062588508556787655 0.0025606908055101634 -0.002204842181346747 -0.00035584862416341613 0.00856619258864096 0.0 0.0
0.0 0.0046114799237984795 0.0017639670265539112 -0.0014804021984195768 -0.00028356482813433393 0.006608422257506064 0.0 0.0
0.0 0.003179436356723557 0.00109738282657617 -0.0008997568623092423 -0.00019762596426692715 0.004799649655660811 0.0 0.0
0.0 0.0020835903248036004 0.0005799590380682714 -0.00047190989589518845 -0.00010804914217308324 0.003183967932555258 0.0 0.0
0.0 0.0011750014057913256 0.000251542943704638 -0.00020472535573613792 -4.6817587968499845e-05 0.0018976130996891391 0.0 0.0
0.0 0.0006489634309563487 9.741787607502545e-05 -7.90701942574187e-05 -1.8347681817606662e-05 0.001012233577620655 0.0 0.0
0.0 0.00031122759159036217 3.5881282395823676e-05 -2.89618162116791e-05 -6.91946618414456e-06 0.0005010890756893088 0.0 0.0
0.0 0.0001253667296976786 9.894951817606952e-06 -7.82111974241182e-06 -2.073832075195132e-06 0.00018956203965402653 0.0 0.0
0.0 3.056585064120287e-05 1.122788699525933e-06 -7.581139212496512e-07 -3.6467477827628565e-07 4.2179455353859556e-05 0.0 0.0
0.0 5.590772866731116e-06 -9.03359850036947e-08 1.2102211357398152e-07 -3.0686128570286904e-08 7.672747614208442e-06 0.0 0.0
0.0 3.465296940885988e-06 -1.0117496809268586e-07 9.584659048771716e-08 5.328377604968048e-09 2.8321878399302304e-06 0.0 0.0
0.0 2.843664550581976e-06 2.459804364441035e-10 3.5085705556297604e-09 -3.7545509920713294e-09 3.8327707312395326e-07 0.0 0.0
0.0 0.0001298900669443107 6.65355935442829e-05 -9.242713434353596e-05 2.5891540799253022e-05 0.00012195273759753599 0.0 0.0
0.0 1.3622250721536756e-05 5.7659226170104925e-06 -8.348984288776787e-06 2.5830616717662818e-06 -1.1650895661752395e-05 0.0 0.0
0.0 2.553083388455593e-06 -3.561189153824825e-08 2.0875894805007176e-08 1.4735996733245952e-08 -7.184785930085125e-07 0.0 0.0
0.0 5.444699493567574e-06 -5.071856196804114e-07 4.314384494837717e-07 7.574717019664066e-08 -6.1171525544438394e-06 0.0 0.0
0.0 1.0209603720517382e-05 -1.1654258566151853e-06 1.0255469456065149e-06 1.3987891100867221e-07 -1.404901488186548e-05 0.0 0.0
0.0 3.829264305152899e-05 -3.573357675165431e-06 3.0847278050959204e-06 4.886298700695177e-07 -5.143214584052014e-05 0.0 0.0
0.0 0.0001336483127389134 -1.2936503709810635e-05 1.066171939062612e-05 2.2747843191845073e-06 -0.00019506750017275932 0.0 0.0
0.0 0.0003157201996102939 -3.820955215503339e-05 3.1008880177357355e-05 7.200671977676004e-06 -0.0005086352845496617 0.0 0.0
0.0 0.0006507459859616619 -9.819063131920996e-05 7.969617292531269e-05 1.8494458393897245e-05 -0.001016241010307567 0.0 0.0
0.0 0.0011744225989744974 -0.0002515025652505882 0.00020469872397113801 4.680384127945019e-05 -0.0018990014763764287 0.0 0.0
0.0 0.002082307376370172 -0.0005793103023210694 0.0004713629571284451 0.00010794734519262427 -0.0031830150149565503 0.0 0.0
0.0 0.0031928071144813443 -0.0011007875924187492 0.0009039464467586971 0.0001968411456600517 -0.004802557465949436 0.0 0.0
0.0 0.0046368264079741876 -0.0017941528106490369 0.0015104531135236665 0.00028369969712536947 -0.006623757460302096 0.0 0.0
0.0 0.00631478892293876 -0.0026294763508091738 0.0022710561296431244 0.00035842022116604677 -0.008582820189171883 0.0 0.0
0.0 0.008185808904699953 -0.0035536496351012536 0.0031317066968165096 0.0004219429382847407 -0.010651811018448008 0.0 0.0
0.0 0.010097711003222543 -0.004445814490667794 0.003968699193891121 0.00047711529677667237 -0.012824000154784547 0.0 0.0
0.0 0.011904672530140306 -0.005061015045492083 0.0045357264679798046 0.0005252885775122733 -0.01505664767838541 0.0 0.0
0.0 0.013275121181364117 -0.005034569232335839 0.004468540359575945 0.0005660288727598929 -0.01733486711568896 0.0 0.0
0.0 0.014082937823484184 -0.004091021095176986 0.0035006417440425347 0.000590379351134449 -0.0197329513743045 0.0 0.0
0.0 0.014321129611600819 -0.002260397445735334 0.0016999074828135266 0.0005604899629218056 -0.021877336790333886 0.0 0.0
0.0 0.014120475129013916 0.0032365185814958375 -0.003297385759766247 6.086717827040776e-05 -0.02085810472686781 0.0 0.0
0.0 0.014120475129019629 0.00323651858149628 -0.003297385759766811 6.086717827053379e-05 0.02085810472688112 0.0 0.0
0.0 0.01432112961160381 -0.002260397445735843 0.0016999074828138692 0.0005604899629219715 0.021877336790346077 0.0 0.0
0.0 0.014082937823479778 -0.004091021095175332 0.00350064174404108 0.0005903793511342489 0.019732951374304204 0.0 0.0
0.0 0.013275121181350434 -0.005034569232328499 0.0044685403595685624 0.0005660288727599355 0.01733486711567898 0.0 0.0
0.0 0.011904672530127513 -0.005061015045484914 0.004535726467973126 0.0005252885775117861 0.015056647678371228 0.0 0.0
0.0 0.010097711003210393 -0.004445814490661567 0.003968699193885472 0.0004771152967760929 0.01282400015477131 0.0 0.0
0.0 0.008185808904687406 -0.0035536496350936477 0.0031317066968093374 0.0004219429382843093 0.010651811018437471 0.0 0.0
0.0 0.006314788922927047 -0.0026294763508018784 0.0022710561296362805 0.0003584202211655963 0.008582820189162038 0.0 0.0
0.0 0.004636826407960537 -0.0017941528106420173 0.0015104531135172882 0.00028369969712472903 0.006623757460288213 0.0 0.0
0.0 0.0031928071144690646 -0.001100787592412761 0.0009039464467536127 0.00019684114565914814 0.004802557465935007 0.0 0.0
0.0 0.0020823073763594907 -0.0005793103023170874 0.0004713629571251639 0.00010794734519192309 0.003183015014944674 0.0 0.0
0.0 0.0011744225989706628 -0.00025150256524914975 0.00020469872396995512 4.6803841279194636e-05 0.0018990014763711673 0.0 0.0
0.0 0.0006507459859592731 -9.81906313186634e-05 7.969617292484182e-05 1.849445839382163e-05 0.0010162410103041852 0.0 0.0
0.0 0.00031572019960893725 -3.820955215498017e-05 3.100888017735459e-05 7.200671977625577e-06 0.0005086352845487725 0.0 0.0
0.0 0.00013364831273749111 -1.29365037098033e-05 1.0661719390630455e-05 2.2747843191728597e-06 0.0001950675001722333 0.0 0.0
0.0 3.8292643050118795e-05 -3.573357675157022e-06 3.0847278050900975e-06 4.886298700669177e-07 5.143214584041428e-05 0.0 0.0
0.0 1.020960372017212e-05 -1.165425856651875e-06 1.0255469456384948e-06 1.3987891101337933e-07 1.4049014882252271e-05 0.0 0.0
0.0 5.4446994931367e-06 -5.071856197696401e-07 4.314384495587924e-07 7.574717021084821e-08 6.117152555460171e-06 0.0 0.0
0.0 2.553083387846787e-06 -3.561189155187315e-08 2.0875894804531243e-08 1.4735996747346812e-08 7.184785934800531e-07 0.0 0.0
0.0 1.3622250721085987e-05 5.7659226172390745e-06 -8.34898428908476e-06 2.5830616718456843e-06 1.1650895662408822e-05 0.0 0.0
0.0 5.791226492451869e-07 -3.285152939261594e-08 4.863961923435166e-08 -1.578808984173702e-08 8.324711323925464e-08 0.0 0.0
0.0 1.6700408675586223e-06 -7.186090356838374e-08 4.142420529772515e-08 3.0436698270657056e-08 -1.3649274113573512e-06 0.0 0.0
0.0 6.5889536651733325e-06 -9.589575317458077e-07 7.954178773294926e-07 1.6353965441631099e-07 -7.4967089877510085e-06 0.0 0.0
0.0 1.4587574144570667e-05 -2.267635154204109e-06 1.933282718303622e-06 3.3435243590050007e-07 -1.517321427829667e-05 0.0 0.0
0.0 4.5171308531232475e-05 -1.0392864458334247e-05 8.650968115347625e-06 1.7418963429866224e-06 -6.25322498876438e-05 0.0 0.0
0.0 0.00014741031407929737 -3.97674623983022e-05 3.2284921565724995e-05 7.4825408325771825e-06 -0.00020952473088765673 0.0 0.0
0.0 0.00044023791837724855 -0.00015428297269419274 0.00012496108320640302 2.9321889487789772e-05 -0.000635535222772315 0.0 0.0
0.0 0.0011975921994453545 -0.0005860963044602773 0.00048153638691696414 0.00010455991754331325 -0.0016993483919072235 0.0 0.0
0.0 0.0028034389022866288 -0.001651042320206594 0.00140085461288824 0.00025018770731835387 -0.0034304940034852603 0.0 0.0
0.0 0.005121021945632244 -0.0033531186985030167 0.002949628316639025 0.00040349038186399176 -0.0055560017470661065 0.0 0.0
0.0 0.00792136638269829 -0.00548696485124509 0.004968337444075971 0.0005186274071691166 -0.007872744458587546 0.0 0.0
0.0 0.011133317998459841 -0.007899076798083073 0.007302699468273834 0.0005963773298092382 -0.010224321094267139 0.0 0.0
0.0 0.014608787721631768 -0.010570828418096112 0.009913926540276879 0.0006569018778192308 -0.0125798147493035 0.0 0.0
0.0 0.0183847141601353 -0.013483794957497056 0.012774040514010083 0.0007097544434869782 -0.014918634988824326 0.0 0.0
0.0 0.02234319383652022 -0.01651213663605111 0.015751001832178344 0.0007611348038727588 -0.017313572505609658 0.0 0.0
0.0 0.02617988209954126 -0.019356995272163578 0.0185460762162708 0.0008109190558927741 -0.019837831682797874 0.0 0.0
0.0 0.029474840573951253 -0.021556920565572332 0.02070431389048891 0.0008526066750834306 -0.02257151301932178 0.0 0.0
0.0 0.03159921475026877 -0.02256397041166064 0.021684332133889633 0.0008796382777710185 -0.025421667498304452 0.0 0.0
0.0 0.030891332876429797 -0.021284736751790566 0.020310788094621435 0.0009739486571691111 -0.02664125884121113 0.0 0.0
0.0 0.024651009400584938 -0.014796387289194109 0.013717129940149168 0.0010792573490449261 -0.024185588916083307 0.0 0.0
0.0 0.02465100940059272 -0.014796387289193682 0.0137171299401482 0.0010792573490454806 0.02418558891611436 0.0 0.0
0.0 0.030891332876436965 -0.021284736751787398 0.020310788094617938 0.0009739486571694483 0.026641258841255403 0.0 0.0
0.0 0.031599214750262596 -0.022563970411649568 0.021684332133878912 0.0008796382777706382 0.02542166749833022 0.0 0.0
0.0 0.02947484057393341 -0.02155692056555602 0.020704313890473277 0.0008526066750827526 0.022571513019322163 0.0 0.0
0.0 0.026179882099513777 -0.019356995272141974 0.01854607621624917 0.0008109190558928088 0.019837831682780912 0.0 0.0
0.0 0.022343193836493646 -0.01651213663603065 0.015751001832157902 0.0007611348038727517 0.01731357250559276 0.0 0.0
0.0 0.018384714160110213 -0.013483794957477476 0.012774040513990587 0.0007097544434868873 0.014918634988809463 0.0 0.0
0.0 0.014608787721609104 -0.010570828418077459 0.009913926540258702 0.000656901877818749 0.012579814749291804 0.0 0.0
0.0 0.011133317998433392 -0.007899076798062923 0.007302699468254351 0.0005963773298085706 0.010224321094248756 0.0 0.0
0.0 0.007921366382672367 -0.005486964851226612 0.0049683374440582725 0.0005186274071683399 0.007872744458565397 0.0 0.0
0.0 0.005121021945611446 -0.0033531186984889177 0.002949628316625871 0.0004034903818630462 0.005556001747045968 0.0 0.0
0.0 0.002803438902276181 -0.0016510423201992568 0.0014008546128816614 0.0002501877073175962 0.0034304940034752653 0.0 0.0
0.0 0.001197592199440376 -0.0005860963044573249 0.00048153638691455293 0.00010455991754277207 0.0016993483919015436 0.0 0.0
0.0 0.0004402379183740735 -0.00015428297269315193 0.00012496108320560068 2.9321889487551275e-05 0.0006355352227690029 0.0 0.0
0.0 0.0001474103140772032 -3.976746239805404e-05 3.2284921565512044e-05 7.482540832541993e-06 0.00020952473088621854 0.0 0.0
0.0 4.517130853037832e-05 -1.0392864458370617e-05 8.650968115378979e-06 1.7418963429916234e-06 6.25322498878617e-05 0.0 0.0
0.0 1.4587574143913691e-05 -2.2676351542820877e-06 1.933282718369565e-06 3.34352435912524e-07 1.5173214278795715e-05 0.0 0.0
0.0 6.588953664583145e-06 -9.589575318494506e-07 7.95417877414151e-07 1.635396544352995e-07 7.496708988546032e-06 0.0 0.0
0.0 1.6700408673181731e-06 -7.186090360466038e-08 4.142420530305562e-08 3.04366983016051e-08 1.3649274121985934e-06 0.0 0.0
0.0 5.791226488939735e-07 -3.285152937202806e-08 4.863961920387383e-08 -1.57880898318369e-08 -8.324711318699175e-08 0.0 0.0
0.0 0.0 0.0 0.0 0.0 0.0 0.0 0.0
0.0 1.546319917433396e-06 2.096489414379388e-08 -7.102539574969584e-09 -1.3862354568826943e-08 3.138160816275471e-07 0.0 0.0
0.0 5.939659377198e-06 -7.023135036094098e-07 5.767114113512324e-07 1.2560209225817326e-07 -4.011363483027411e-06 0.0 0.0
0.0 1.7140611712584725e-05 -3.2979419773232476e-06 2.729134333307678e-06 5.688076440155791e-07 -1.436102381127224e-05 0.0 0.0
0.0 5.4013617351734945e-05 -1.8464059565527852e-05 1.5109932151561736e-05 3.3541274139661347e-06 -6.763746846117055e-05 0.0 0.0
0.0 0.0002105945573113682 -9.23126683600128e-05 7.476930089342487e-05 1.754336746658787e-05 -0.0002738644078879726 0.0 0.0
0.0 0.000836020849639575 -0.0004785765958153298 0.0003923928112687958 8.61837845465339e-05 -0.001045291378417469 0.0 0.0
0.0 0.0024801635790795066 -0.0016778862468853056 0.0014245844072505575 0.00025330183963474833 -0.0026886780034404132 0.0 0.0
0.0 0.005379962379093872 -0.003893643689316317 0.0034501122296316266 0.0004435314596846886 -0.004997492798826775 0.0 0.0
0.0 0.009137119899855979 -0.006952826595029098 0.006369007789434358 0.0005838188055947381 -0.007744213155812193 0.0 0.0
0.0 0.0137105256988423 -0.010578033085349837 0.009904321116958582 0.0006737119683912639 -0.010646260180331829 0.0 0.0
0.0 0.01865395213814279 -0.014638697695806717 0.013898560361279396 0.000740137334527324 -0.013473343241141696 0.0 0.0
0.0 0.024095430767542697 -0.01911793460470877 0.018320527061124074 0.0007974075435846952 -0.016200806784187147 0.0 0.0
0.0 0.030054267026068407 -0.02402162634470333 0.023168291169558167 0.0008533351751451458 -0.018913975683726058 0.0 0.0
0.0 0.036474424847075304 -0.029234463805176567 0.028321694208319828 0.0009127695968567179 -0.021819871025579633 0.0 0.0
0.0 0.04293179187521185 -0.0344192449020715 0.03344529037207514 0.0009739545299963538 -0.025201314058364586 0.0 0.0
0.0 0.04891572119403352 -0.03899081450584409 0.037958860585926124 0.0010319539199179504 -0.02922603982957073 0.0 0.0
0.0 0.05297120118487835 -0.04198268434381875 0.04087731783490827 0.0011053665089104739 -0.03315831404551995 0.0 0.0
0.0 0.05311690372858452 -0.041559235094995414 0.04035998706487914 0.0011992480301162706 -0.03509274649860518 0.0 0.0
0.0 0.04421009404989373 -0.033948623794427424 0.0325197018350174 0.0014289219594100146 -0.031138686877312985 0.0 0.0
0.0 0.04421009404990489 -0.03394862379442868 0.03251970183501887 0.001428921959409795 0.031138686877356207 0.0 0.0
0.0 0.053116903728587905 -0.04155923509498807 0.04035998706487212 0.0011992480301159618 0.035092746498660246 0.0 0.0
0.0 0.05297120118486745 -0.041982684343802076 0.04087731783489218 0.0011053665089098587 0.033158314045556504 0.0 0.0
0.0 0.04891572119400236 -0.03899081450581515 0.03795886058589776 0.0010319539199174328 0.029226039829574377 0.0 0.0
0.0 0.04293179187517414 -0.03441924490203965 0.03344529037204415 0.0009739545299955162 0.025201314058349335 0.0 0.0
0.0 0.03647442484703916 -0.02923446380514659 0.028321694208290296 0.0009127695968562854 0.021819871025563223 0.0 0.0
0.0 0.030054267026033227 -0.02402162634467448 0.02316829116952987 0.0008533351751445989 0.018913975683707594 0.0 0.0
0.0 0.024095430767508398 -0.01911793460467943 0.018320527061095264 0.0007974075435841525 0.016200806784174668 0.0 0.0
0.0 0.018653952138107 -0.01463869769577763 0.013898560361250858 0.0007401373345267701 0.01347334324112124 0.0 0.0
0.0 0.013710525698808698 -0.01057803308532359 0.009904321116932853 0.0006737119683907378 0.010646260180307558 0.0 0.0
0.0 0.009137119899824303 -0.00695282659500515 0.006369007789410782 0.0005838188055943686 0.007744213155787758 0.0 0.0
0.0 0.005379962379071996 -0.0038936436892993364 0.003450112229615488 0.00044353145968384724 0.004997492798810596 0.0 0.0
0.0 0.002480163579067469 -0.0016778862468765296 0.0014245844072427924 0.00025330183963373704 0.002688678003430091 0.0 0.0
0.0 0.0008360208496329173 -0.0004785765958116665 0.000392392811265795 8.618378454587119e-05 0.0010452913784108266 0.0 0.0
0.0 0.00021059455730897364 -9.23126683594461e-05 7.47693008929711e-05 1.754336746647495e-05 0.00027386440788624276 0.0 0.0
0.0 5.401361735046228e-05 -1.8464059565477243e-05 1.5109932151519558e-05 3.354127413957648e-06 6.763746846099108e-05 0.0 0.0
0.0 1.714061171183284e-05 -3.2979419774293546e-06 2.7291343333955286e-06 5.688076440338139e-07 1.4361023811738333e-05 0.0 0.0
0.0 5.939659376814727e-06 -7.023135037624505e-07 5.767114114759267e-07 1.2560209228653015e-07 4.011363483912075e-06 0.0 0.0
0.0 1.5463199168796422e-06 2.0964894136532813e-08 -7.10253957316928e-09 -1.3862354563367244e-08 -3.138160815128601e-07 0.0 0.0
0.0 0.0 0.0 0.0 0.0 0.0 0.0 0.0
0.0 0.0 0.0 0.0 0.0 0.0 0.0 0.0
0.0 3.8538157917848767e-07 8.524370000021943e-09 -5.889213621647465e-09 -2.6351563783748637e-09 7.625979648851619e-08 0.0 0.0
0.0 3.412931903452036e-06 -3.8842837036040353e-07 3.1621064745626336e-07 7.221772290413521e-08 -1.695236784815805e-06 0.0 0.0
0.0 1.658131493654475e-05 -5.018764244495847e-06 4.134718472374899e-06 8.840457721209422e-07 -1.6363599055285702e-05 0.0 0.0
0.0 6.985616032148047e-05 -3.083288386039224e-05 2.510121652810108e-05 5.7316673322911745e-06 -7.78999639661004e-05 0.0 0.0
0.0 0.0003719388711482881 -0.00022421640836652978 0.00018221027106358085 4.200613730294888e-05 -0.00042589648548622483 0.0 0.0
0.0 0.00154986898882244 -0.0010989224323666846 0.0009188280356263861 0.00018009439674029857 -0.0015302041661467737 0.0 0.0
0.0 0.004163739811185482 -0.0031777274472883092 0.002781799253195656 0.00039592819409265236 -0.00347876959644775 0.0 0.0
0.0 0.008261884209989532 -0.006509052438261663 0.005935837993250099 0.0005732144450115635 -0.006137889340159053 0.0 0.0
0.0 0.013500303020228486 -0.010850492367062379 0.010162498306246794 0.0006879940608155844 -0.009263204443219335 0.0 0.0
0.0 0.019612237184830995 -0.015926224665671895 0.015158499251260652 0.0007677254144112457 -0.01247506245080609 0.0 0.0
0.0 0.026424686637001933 -0.021608995019931257 0.020773124044673914 0.0008358709752573333 -0.015541445926651652 0.0 0.0
0.0 0.03393348295057701 -0.027891080848080008 0.026992640332875 0.0008984405152049731 -0.018477512309928477 0.0 0.0
0.0 0.042112734904293285 -0.03479747562140733 0.033836315214212175 0.0009611604071951646 -0.02141049972343741 0.0 0.0
0.0 0.05099088444220531 -0.04223462091446795 0.04120628790977258 0.0010283330046953008 -0.02463836182064403 0.0 0.0
0.0 0.06018702562801716 -0.04983604401665609 0.048733427834122926 0.0011026161825331364 -0.02861255366848865 0.0 0.0
0.0 0.06872545931070874 -0.05678810437288788 0.055601520324961184 0.0011865840479266738 -0.03346773693620122 0.0 0.0
0.0 0.07488077307430951 -0.061592875358570456 0.060307920873128584 0.0012849544854418163 -0.03828236998028381 0.0 0.0
0.0 0.07532709147353045 -0.061646949723642264 0.060219914543910805 0.0014270351797314334 -0.04052106529544269 0.0 0.0
0.0 0.06437890581179395 -0.052264669499459196 0.0506175239187314 0.001647145580727822 -0.03682762629787545 0.0 0.0
0.0 0.0643789058118006 -0.052264669499457315 0.05061752391872964 0.0016471455807276461 0.036827626297922855 0.0 0.0
0.0 0.07532709147352559 -0.06164694972362858 0.06021991454389736 0.0014270351797312122 0.04052106529550385 0.0 0.0
0.0 0.07488077307428795 -0.061592875358544685 0.060307920873103195 0.001284954485441469 0.03828236998032739 0.0 0.0
0.0 0.06872545931066745 -0.05678810437284959 0.05560152032492325 0.0011865840479263253 0.033467736936210295 0.0 0.0
0.0 0.06018702562796855 -0.049836044016614324 0.04873342783408139 0.0011026161825329322 0.02861255366847599 0.0 0.0
0.0 0.05099088444215451 -0.042234620914424946 0.04120628790972975 0.0010283330046951522 0.024638361820626585 0.0 0.0
0.0 0.04211273490423963 -0.034797475621362484 0.033836315214167245 0.0009611604071952504 0.021410499723416104 0.0 0.0
0.0 0.03393348295052794 -0.02789108084803802 0.026992640332833537 0.0008984405152044871 0.018477512309912642 0.0 0.0
0.0 0.026424686636953628 -0.021608995019890685 0.0207731240446338 0.0008358709752568792 0.015541445926629645 0.0 0.0
0.0 0.01961223718478466 -0.015926224665634297 0.015158499251223433 0.0007677254144108664 0.012475062450778028 0.0 0.0
0.0 0.013500303020190063 -0.010850492367031802 0.01016249830621689 0.0006879940608149115 0.009263204443192407 0.0 0.0
0.0 0.008261884209963283 -0.006509052438240732 0.005935837993230046 0.0005732144450106892 0.006137889340142932 0.0 0.0
0.0 0.004163739811167388 -0.003177727447274111 0.002781799253182594 0.0003959281940915149 0.003478769596435256 0.0 0.0
0.0 0.0015498689888124092 -0.0010989224323597249 0.0009188280356203201 0.00018009439673940476 0.001530204166138285 0.0 0.0
0.0 0.00037193887114469115 -0.0002242164083649233 0.00018221027106224695 4.200613730267628e-05 0.0004258964854834776 0.0 0.0
0.0 6.985616032034931e-05 -3.083288386036496e-05 2.5101216528066333e-05 5.7316673322985785e-06 7.789996396592518e-05 0.0 0.0
0.0 1.658131493610999e-05 -5.018764244785449e-06 4.134718472605777e-06 8.840457721796667e-07 1.6363599056153623e-05 0.0 0.0
0.0 3.4129319030328943e-06 -3.884283705241489e-07 3.162106475883346e-07 7.22177229358124e-08 1.6952367855493875e-06 0.0 0.0
0.0 3.8538157904294466e-07 8.52436999717895e-09 -5.889213619678072e-09 -2.6351563774992616e-09 -7.62597964614563e-08 0.0 0.0
0.0 0.0 0.0 0.0 0.0 0.0 0.0 0.0
0.0 0.0 0.0 0.0 0.0 0.0 0.0 0.0
0.0 0.0 0.0 0.0 0.0 0.0 0.0 0.0
0.0 1.152437239586984e-06 -1.2592832776229978e-07 1.030605127912927e-07 2.2867814971010288e-08 -4.4334570024926975e-07 0.0 0.0
0.0 1.5733175423435228e-05 -3.839173471465179e-06 3.1174269447972426e-06 7.217465266679487e-07 -9.229579841065596e-06 0.0 0.0
0.0 0.00011265550914743793 -5.66569636014893e-05 4.5841512541768505e-05 1.0815451059720774e-05 -0.00010011942067480285 0.0 0.0
0.0 0.000681295545135129 -0.0004923597187384345 0.0004035863397406765 8.8773378997758e-05 -0.0006311532606265931 0.0 0.0
0.0 0.002541979715301474 -0.0019816000052362676 0.0016932455948797857 0.000288354410356482 -0.0019042504464661621 0.0 0.0
0.0 0.006105907478050443 -0.00494402830304166 0.004435903228628813 0.0005081250744128458 -0.003980399485919753 0.0 0.0
0.0 0.011326031332108945 -0.009341455959298126 0.008682910470850156 0.0006585454884479721 -0.006804942987401812 0.0 0.0
0.0 0.017945669853874278 -0.0149093576490841 0.01415098238234626 0.0007583752667378416 -0.010029605137897028 0.0 0.0
0.0 0.02566524986618257 -0.02140890695266437 0.020569402432440074 0.0008395045202243027 -0.013288318244938882 0.0 0.0
0.0 0.034311697555785864 -0.028711717794370525 0.027798026543945035 0.0009136912504255029 -0.016413465998108875 0.0 0.0
0.0 0.04384103129669579 -0.03679865645401169 0.03581486275237491 0.0009837937016367606 -0.019411789184542175 0.0 0.0
0.0 0.05431110048357867 -0.04570468156052168 0.044651772819313366 0.0010529087412083213 -0.02238389091978676 0.0 0.0
0.0 0.06573680651305955 -0.05537434396501194 0.054246208316368935 0.0011281356486430136 -0.02565559620724388 0.0 0.0
0.0 0.07746505449816682 -0.06539821381841993 0.06418075372285498 0.0012174600955649343 -0.029726685598353626 0.0 0.0
0.0 0.08872164839209394 -0.07468428235480859 0.07335902655683135 0.0013252557979772101 -0.034806043423511464 0.0 0.0
0.0 0.09672436396697877 -0.08115661476444669 0.07969889640972266 0.0014577183547240455 -0.040018670240978924 0.0 0.0
0.0 0.09733086084365411 -0.08139575920779953 0.0797728377310809 0.0016229214767186006 -0.04303068727390084 0.0 0.0
0.0 0.08469871046951988 -0.07026401112734026 0.06844530340871273 0.0018187077186275304 -0.04176951203893104 0.0 0.0
0.0 0.08469871046951981 -0.07026401112733341 0.06844530340870542 0.001818707718627929 0.04176951203897973 0.0 0.0
0.0 0.0973308608436394 -0.08139575920777914 0.07977283773106013 0.0016229214767190076 0.04303068727396038 0.0 0.0
0.0 0.09672436396694382 -0.08115661476441101 0.07969889640968619 0.0014577183547247264 0.04001867024102308 0.0 0.0
0.0 0.08872164839204413 -0.07468428235476324 0.0733590265567862 0.0013252557979770046 0.03480604342352184 0.0 0.0
0.0 0.07746505449810857 -0.06539821381836922 0.06418075372280486 0.0012174600955643469 0.029726685598343842 0.0 0.0
0.0 0.06573680651299736 -0.05537434396495837 0.05424620831631584 0.0011281356486425365 0.02565559620722869 0.0 0.0
0.0 0.05431110048352224 -0.045704681560472984 0.04465177281926581 0.0010529087412071766 0.022383890919769278 0.0 0.0
0.0 0.04384103129663672 -0.036798656453960674 0.03581486275232447 0.000983793701636196 0.01941178918452656 0.0 0.0
0.0 0.03431169755572417 -0.02871171779431815 0.027798026543892927 0.0009136912504252149 0.01641346599808555 0.0 0.0
0.0 0.025665249866123854 -0.0214089069526155 0.020569402432391585 0.0008395045202239052 0.013288318244909076 0.0 0.0
0.0 0.017945669853823495 -0.014909357649042032 0.014150982382304614 0.0007583752667374242 0.01002960513786762 0.0 0.0
0.0 0.011326031332071218 -0.00934145595926694 0.008682910470819438 0.0006585454884475047 0.006804942987381659 0.0 0.0
0.0 0.006105907478026477 -0.004944028303022083 0.004435903228610143 0.000508125074411939 0.003980399485906348 0.0 0.0
0.0 0.0025419797152874245 -0.001981600005225504 0.0016932455948702103 0.0002883544103552939 0.0019042504464568733 0.0 0.0
0.0 0.0006812955451302391 -0.0004923597187355376 0.00040358633973828665 8.877337899725078e-05 0.0006311532606231261 0.0 0.0
0.0 0.00011265550914646963 -5.6656963601598465e-05 4.584151254185552e-05 1.0815451059742853e-05 0.00010011942067501302 0.0 0.0
0.0 1.5733175422953907e-05 -3.839173471679837e-06 3.1174269449706167e-06 7.217465267092286e-07 9.229579841597823e-06 0.0 0.0
0.0 1.152437239552198e-06 -1.259283278853804e-07 1.030605128909996e-07 2.2867814994380016e-08 4.4334570068328705e-07 0.0 0.0
0.0 0.0 0.0 0.0 0.0 0.0 0.0 0.0
0.0 0.0 0.0 0.0 0.0 0.0 0.0 0.0
0.0 0.0 0.0 0.0 0.0 0.0 0.0 0.0
0.0 0.0 0.0 0.0 0.0 0.0 0.0 0.0
0.0 9.159772724021529e-07 5.630253744311479e-08 -4.536700834069255e-08 -1.0935529102421052e-08 1.5681455061216043e-07 0.0 0.0
0.0 1.2803299390543587e-05 -5.8480533482474545e-06 4.7057324481622285e-06 1.1423209000852675e-06 -1.0748027639341543e-05 0.0 0.0
0.0 0.00018657623625773311 -0.00012433947302333535 0.00010042355713137098 2.391591589196441e-05 -0.00015718136716110246 0.0 0.0
0.0 0.0011764413839054659 -0.0009167902666211501 0.000760535943207143 0.0001562543234140073 -0.000807021583792199 0.0 0.0
0.0 0.003789840178905713 -0.0030719063059327888 0.0026812915844217702 0.00039061472151101924 -0.0020984707286448674 0.0 0.0
0.0 0.00816287532519805 -0.006897566719709973 0.006306979951863623 0.0005905867678463476 -0.004174539068013866 0.0 0.0
0.0 0.014494537448416812 -0.012294960430955255 0.01157760007389158 0.0007173603570636753 -0.0069194906113626675 0.0 0.0
0.0 0.022472749820703596 -0.019054221734154032 0.018240754045375476 0.0008134676887785603 -0.009999792442659566 0.0 0.0
0.0 0.03179281824500382 -0.026968487795339315 0.026068678248895343 0.0008998095464439524 -0.013135947328839038 0.0 0.0
0.0 0.04225216749515281 -0.0358946892618703 0.03491306236629155 0.0009816268955787205 -0.016143621684453283 0.0 0.0
0.0 0.05387580835926537 -0.04579131663131456 0.044731225304455224 0.0010600913268593304 -0.019040579645719827 0.0 0.0
0.0 0.06650047932077605 -0.0566869652463672 0.055550527864582255 0.0011364373817849451 -0.0219097782447087 0.0 0.0
0.0 0.08032949642072346 -0.06854048098899373 0.0673216339114863 0.00121884707750745 -0.02492173330483268 0.0 0.0
0.0 0.09489577139178222 -0.08091512976088164 0.07959307468716682 0.0013220550737147914 -0.028530327363194795 0.0 0.0
0.0 0.10837173438892082 -0.09247131913850189 0.09101693046811701 0.001454388670384824 -0.03321963700195701 0.0 0.0
0.0 0.1180078052298903 -0.10054217709557202 0.098926265197994 0.0016159118975779662 -0.038613657388128116 0.0 0.0
0.0 0.11904435008683571 -0.10101140432890358 0.09921720814300183 0.0017941961859016704 -0.04329091407662699 0.0 0.0
0.0 0.10547310044040367 -0.08841273959822621 0.08643724280118649 0.001975496797039738 -0.04634865551993136 0.0 0.0
0.0 0.10547310044040133 -0.08841273959821792 0.08643724280117819 0.0019754967970396654 0.04634865551998074 0.0 0.0
0.0 0.11904435008681392 -0.10101140432887808 0.09921720814297652 0.0017941961859015538 0.04329091407668718 0.0 0.0
0.0 0.11800780522984847 -0.10054217709553093 0.09892626519795336 0.0016159118975775256 0.03861365738817254 0.0 0.0
0.0 0.10837173438886535 -0.09247131913845147 0.09101693046806808 0.0014543886703833626 0.033219637001969005 0.0 0.0
0.0 0.09489577139171283 -0.08091512976082098 0.07959307468710715 0.0013220550737137989 0.028530327363187974 0.0 0.0
0.0 0.0803294964206466 -0.06854048098892734 0.06732163391141995 0.0012188470775073524 0.024921733304820975 0.0 0.0
0.0 0.06650047932070006 -0.05668696524630171 0.05555052786451693 0.0011364373817847567 0.021909778244692382 0.0 0.0
0.0 0.05387580835919251 -0.04579131663125138 0.04473122530439245 0.0010600913268588995 0.019040579645703645 0.0 0.0
0.0 0.042252167495081504 -0.03589468926180884 0.034913062366230416 0.0009816268955784016 0.01614362168443313 0.0 0.0
0.0 0.031792818244938355 -0.02696848779528391 0.026068678248840328 0.0008998095464435843 0.013135947328811216 0.0 0.0
0.0 0.022472749820649722 -0.019054221734108586 0.01824075404533066 0.0008134676887779159 0.009999792442633644 0.0 0.0
0.0 0.014494537448374444 -0.012294960430919133 0.011577600073856047 0.0007173603570630869 0.006919490611344414 0.0 0.0
0.0 0.008162875325169051 -0.006897566719685383 0.0063069799518399175 0.0005905867678454625 0.004174539068000281 0.0 0.0
0.0 0.003789840178889251 -0.003071906305919498 0.002681291584409563 0.0003906147215099361 0.002098470728636368 0.0 0.0
0.0 0.0011764413838978795 -0.0009167902666156667 0.0007605359432024848 0.00015625432341318158 0.0008070215837877755 0.0 0.0
0.0 0.00018657623625507728 -0.0001243394730221386 0.00010042355713037966 2.3915915891758862e-05 0.00015718136715966874 0.0 0.0
0.0 1.2803299390322505e-05 -5.848053348508715e-06 4.705732448368441e-06 1.1423209001402541e-06 1.0748027639813301e-05 0.0 0.0
0.0 9.159772720464821e-07 5.630253742091469e-08 -4.5367008322703315e-08 -1.0935529098212496e-08 -1.5681455054918204e-07 0.0 0.0
0.0 0.0 0.0 0.0 0.0 0.0 0.0 0.0
0.0 0.0 0.0 0.0 0.0 0.0 0.0 0.0
0.0 0.0 0.0 0.0 0.0 0.0 0.0 0.0
0.0 0.0 0.0 0.0 0.0 0.0 0.0 0.0
0.0 2.633745482838499e-07 1.9034837468267232e-08 -1.5232417022672714e-08 -3.80242044559584e-09 3.959451352121644e-08 0.0 0.0
0.0 1.2915891679790966e-05 -7.458998734943734e-06 5.953936821500215e-06 1.5050619134435395e-06 -1.0124006594029696e-05 0.0 0.0
0.0 0.00033559985879654983 -0.00025135158167524847 0.00020348095846768738 4.787062320756119e-05 -0.00022054244380289163 0.0 0.0
0.0 0.0018584179328376405 -0.001497570984485364 0.0012618642343657565 0.00023570675011960822 -0.0008980556949855994 0.0 0.0
0.0 0.005023468732331168 -0.00434144963703596 0.0038630699726725035 0.0004783796643634589 -0.0021221351591640984 0.0 0.0
0.0 0.01034138924516596 -0.0089559497559887 0.008308119918180897 0.0006478298378078042 -0.004004055458495419 0.0 0.0
0.0 0.01777903659612267 -0.01530552642225972 0.014543357963022717 0.0007621684592369995 -0.006437990964485439 0.0 0.0
0.0 0.02705551502480577 -0.02324298351556653 0.022383218341013734 0.0008597651745528172 -0.009210120562147822 0.0 0.0
0.0 0.037945963140227135 -0.03256379808263642 0.03161148618774933 0.0009523118948870757 -0.012033776179986215 0.0 0.0
0.0 0.050252813154177525 -0.04311662649358661 0.04207417078313941 0.0010424557104471842 -0.01474798256974392 0.0 0.0
0.0 0.06387751652510026 -0.05483427796104231 0.05370425580207322 0.0011300221589690576 -0.017390436594416105 0.0 0.0
0.0 0.07884284686986531 -0.06770004894162769 0.06648406244154897 0.0012159865000786647 -0.019984060639340478 0.0 0.0
0.0 0.09502409772889418 -0.0816411650497601 0.08033558038629032 0.0013055846634697753 -0.022524118148743614 0.0 0.0
0.0 0.11171748845927582 -0.09621399855469161 0.0947970747677888 0.0014169237869027585 -0.025220429261869886 0.0 0.0
0.0 0.12768439022796985 -0.10994354114252346 0.10837344350931662 0.001570097633206798 -0.02881385184494906 0.0 0.0
0.0 0.13922995936020544 -0.11970703270681603 0.11795052643461261 0.0017565062722034192 -0.034148415976007165 0.0 0.0
0.0 0.14104073610510595 -0.1207523367975557 0.11879992383683785 0.0019524129607178253 -0.04139931110380431 0.0 0.0
0.0 0.1268099218888307 -0.10710825731631879 0.10497747126209889 0.002130786054219784 -0.05058186138751076 0.0 0.0
0.0 0.12680992188882645 -0.10710825731630946 0.10497747126208977 0.0021307860542197337 0.05058186138755749 0.0 0.0
0.0 0.14104073610507803 -0.1207523367975264 0.11879992383680896 0.001952412960717465 0.04139931110385951 0.0 0.0
0.0 0.1392299593601558 -0.11970703270676968 0.11795052643456705 0.0017565062722025128 0.03414841597604656 0.0 0.0
0.0 0.12768439022790082 -0.10994354114246256 0.10837344350925605 0.001570097633206528 0.028813851844959014 0.0 0.0
0.0 0.11171748845919617 -0.09621399855462233 0.09479707476772001 0.0014169237869022752 0.025220429261864935 0.0 0.0
0.0 0.09502409772880988 -0.08164116504968684 0.08033558038621787 0.0013055846634689636 0.022524118148734645 0.0 0.0
0.0 0.07884284686977976 -0.0677000489415539 0.06648406244147559 0.0012159865000782371 0.019984060639325726 0.0 0.0
0.0 0.06387751652501539 -0.05483427796096901 0.0537042558020002 0.0011300221589688032 0.017390436594400784 0.0 0.0
0.0 0.05025281315409388 -0.043116626493514235 0.04207417078306744 0.0010424557104468364 0.014747982569725399 0.0 0.0
0.0 0.03794596314014938 -0.032563798082569595 0.03161148618768295 0.000952311894886634 0.012033776179960516 0.0 0.0
0.0 0.02705551502474165 -0.02324298351551156 0.022383218340959278 0.0008597651745522659 0.009210120562123208 0.0 0.0
0.0 0.017779036596073144 -0.01530552642221679 0.014543357962980268 0.0007621684592365211 0.006437990964469436 0.0 0.0
0.0 0.010341389245130271 -0.008955949755957718 0.008308119918150643 0.0006478298378070742 0.004004055458482439 0.0 0.0
0.0 0.005023468732308416 -0.0043414496370164524 0.0038630699726540808 0.0004783796643623715 0.0021221351591551784 0.0 0.0
0.0 0.0018584179328252587 -0.001497570984475734 0.0012618642343572932 0.00023570675011844058 0.00089805569498021 0.0 0.0
0.0 0.0003355998587924532 -0.0002513515816728023 0.00020348095846565206 4.7870623207150044e-05 0.00022054244380084596 0.0 0.0
0.0 1.29158916795326e-05 -7.458998735338191e-06 5.953936821803908e-06 1.5050619135342934e-06 1.0124006594522967e-05 0.0 0.0
0.0 2.633745479801639e-07 1.90348374459991e-08 -1.5232417004860948e-08 -3.802420441135515e-09 -3.959451347502403e-08 0.0 0.0
0.0 0.0 0.0 0.0 0.0 0.0 0.0 0.0
0.0 0.0 0.0 0.0 0.0 0.0 0.0 0.0
0.0 0.0 0.0 0.0 0.0 0.0 0.0 0.0
0.0 0.0 0.0 0.0 0.0 0.0 0.0 0.0
0.0 0.0 0.0 0.0 0.0 0.0 0.0 0.0
0.0 1.932142276744082e-05 -1.319162426402902e-05 1.0546904070133793e-05 2.644720193895216e-06 -1.2720800708186978e-05 0.0 0.0
0.0 0.0006009704533267567 -0.00047086393296220865 0.00038318496268645893 8.767897027574943e-05 -0.0002656729810047156 0.0 0.0
0.0 0.0026581090611270805 -0.002230745524391558 0.0019106258987958348 0.00032011962559572274 -0.0008790921780030054 0.0 0.0
0.0 0.0064595473194260745 -0.005713008925050251 0.005165913726802612 0.0005470951982476371 -0.0018866160865674002 0.0 0.0
0.0 0.012644197909112032 -0.011060228542803165 0.010370626461926291 0.0006896020808768713 -0.00340250786884208 0.0 0.0
0.0 0.021105656743432767 -0.018340689516052763 0.017542312693975687 0.0007983768220770677 -0.00539285638421501 0.0 0.0
0.0 0.03167418343734426 -0.02743770923707598 0.02653823119572709 0.0008994780413488874 -0.007673114868159117 0.0 0.0
0.0 0.04414437476970834 -0.03815735730464746 0.037158357605509285 0.000998999699138144 -0.010002645421017812 0.0 0.0
0.0 0.05824079554191373 -0.05034043281402653 0.049243049848364195 0.0010973829656623375 -0.012238494549206313 0.0 0.0
0.0 0.07402105366431935 -0.06388742309182888 0.06269246149234843 0.0011949615994804107 -0.01442813997230239 0.0 0.0
0.0 0.09104994145209944 -0.07871440543972179 0.07742197419423832 0.0012924312454834805 -0.016613231320693294 0.0 0.0
0.0 0.10937901257409133 -0.0946349610747993 0.09324277767810332 0.0013921833966959883 -0.018596040737226472 0.0 0.0
0.0 0.12841451502519224 -0.11114743890290207 0.10964086054383324 0.0015065783590688087 -0.020120086638452106 0.0 0.0
0.0 0.14653969796530514 -0.12686615886802735 0.1252041855388604 0.0016619733291669103 -0.021900851514490956 0.0 0.0
0.0 0.16021407507885937 -0.1385878675146871 0.13670981498781992 0.001878052526867064 -0.026567638653819375 0.0 0.0
0.0 0.16347806245930485 -0.14085205785027233 0.13875034343930553 0.0021017144109669117 -0.03691123326497862 0.0 0.0
0.0 0.14941480908257024 -0.1267973956978257 0.12449982535401255 0.0022975703438130987 -0.0541526761881793 0.0 0.0
0.0 0.14941480908256094 -0.12679739569781345 0.12449982535400085 0.0022975703438126074 0.05415267618821544 0.0 0.0
0.0 0.16347806245926433 -0.1408520578502341 0.13875034343926707 0.002101714410967047 0.03691123326502602 0.0 0.0
0.0 0.16021407507879917 -0.13858786751463265 0.13670981498776646 0.001878052526866191 0.026567638653854607 0.0 0.0
0.0 0.14653969796522948 -0.12686615886796046 0.12520418553879564 0.0016619733291648466 0.021900851514499123 0.0 0.0
0.0 0.12841451502510015 -0.11114743890282158 0.10964086054375433 0.0015065783590672527 0.02012008663844999 0.0 0.0
0.0 0.10937901257399203 -0.09463496107471324 0.09324277767801746 0.001392183396695848 0.01859604073722165 0.0 0.0
0.0 0.09104994145200285 -0.07871440543963791 0.07742197419415534 0.0012924312454825541 0.01661323132068383 0.0 0.0
0.0 0.07402105366422192 -0.0638874230917442 0.06269246149226458 0.001194961599479647 0.014428139972291244 0.0 0.0
0.0 0.05824079554181981 -0.05034043281394516 0.049243049848283364 0.0010973829656617698 0.012238494549193945 0.0 0.0
0.0 0.044144374769625565 -0.038157357304575666 0.037158357605437925 0.0009989996991377325 0.010002645420997928 0.0 0.0
0.0 0.03167418343727378 -0.027437709237015023 0.026538231195666416 0.0008994780413486146 0.007673114868138663 0.0 0.0
0.0 0.021105656743379282 -0.018340689516006013 0.01754231269392962 0.0007983768220763943 0.00539285638420163 0.0 0.0
0.0 0.012644197909071524 -0.011060228542767612 0.010370626461891422 0.0006896020808761925 0.0034025078688310405 0.0 0.0
0.0 0.006459547319400367 -0.0057130089250275835 0.005165913726780841 0.0005470951982467463 0.0018866160865597718 0.0 0.0
0.0 0.0026581090611139213 -0.00223074552438063 0.0019106258987859883 0.000320119625594641 0.0008790921779984646 0.0 0.0
0.0 0.0006009704533219125 -0.0004708639329588329 0.0003831849626836982 8.767897027513486e-05 0.0002656729810031768 0.0 0.0
0.0 1.9321422766942656e-05 -1.3191624264329221e-05 1.0546904070353869e-05 2.644720193975368e-06 1.2720800708404562e-05 0.0 0.0
0.0 0.0 0.0 0.0 0.0 0.0 0.0 0.0
0.0 0.0 0.0 0.0 0.0 0.0 0.0 0.0
0.0 0.0 0.0 0.0 0.0 0.0 0.0 0.0
0.0 0.0 0.0 0.0 0.0 0.0 0.0 0.0
0.0 0.0 0.0 0.0 0.0 0.0 0.0 0.0
0.0 0.0 0.0 0.0 0.0 0.0 0.0 0.0
0.0 4.481030937095857e-05 -3.2641180526386566e-05 2.6039071154815993e-05 6.6021093715706114e-06 -1.929848830908791e-05 0.0 0.0
0.0 0.0010129384343411738 -0.000804123946037851 0.0006615034546694765 0.00014262049136837463 -0.00025961963495677715 0.0 0.0
0.0 0.003422733756289824 -0.0030959797734493627 0.002694316361504826 0.0004016634119445348 -0.0006984083133033491 0.0 0.0
0.0 0.008027811039641229 -0.007137037875249189 0.006540441462050716 0.0005965964131984768 -0.001382674209236713 0.0 0.0
0.0 0.014991467258710384 -0.013185652276019276 0.01246336809096166 0.0007222841850576234 -0.002411110308215943 0.0 0.0
0.0 0.02445230228390048 -0.021366363775147112 0.02053843444994511 0.0008279293252019938 -0.00379014438190105 0.0 0.0
0.0 0.03629653520591132 -0.03160330057069953 0.030669606309726705 0.0009336942609728176 -0.005394824205063298 0.0 0.0
0.0 0.05032268253156667 -0.04371509440906968 0.04267442992912254 0.0010406644799471306 -0.007036851665266167 0.0 0.0
0.0 0.06637487219306398 -0.0575292741657133 0.05638163349749544 0.0011476406682178505 -0.008613696928690599 0.0 0.0
0.0 0.0840052314649967 -0.07291306019596873 0.07165759679356798 0.0012554634024007497 -0.01018847317447174 0.0 0.0
0.0 0.1033027474757793 -0.08968642019419905 0.08832089945809311 0.0013655207361059252 -0.01174649083676645 0.0 0.0
0.0 0.12385727518998657 -0.10750535544388266 0.10602622866395335 0.001479126779929263 -0.013052831487402192 0.0 0.0
0.0 0.14481563370778158 -0.1257080067939585 0.12410920175764101 0.0015988050363174215 -0.013645655503088563 0.0 0.0
0.0 0.16472125130736864 -0.14301952668773563 0.14127971787680668 0.0017398088109289835 -0.013511927090381428 0.0 0.0
0.0 0.1806438451585672 -0.15679563716545242 0.15485501205094365 0.001940625114508736 -0.015671092581790363 0.0 0.0
0.0 0.1866366882574106 -0.16150059969111577 0.15924452867516792 0.002256071015947699 -0.02823517442659008 0.0 0.0
0.0 0.173868788337542 -0.14815387222873844 0.14566113379628504 0.002492738432453296 -0.05626775282347298 0.0 0.0
0.0 0.1738687883375258 -0.1481538722287224 0.1456611337962683 0.0024927384324540665 0.05626775282349772 0.0 0.0
0.0 0.1866366882573648 -0.161500599691074 0.15924452867512692 0.0022560710159469886 0.028235174426627797 0.0 0.0
0.0 0.18064384515849655 -0.1567956371653899 0.15485501205088265 0.0019406251145072991 0.015671092581816818 0.0 0.0
0.0 0.16472125130727383 -0.14301952668765322 0.14127971787672464 0.0017398088109286125 0.013511927090384882 0.0 0.0
0.0 0.14481563370767428 -0.12570800679386535 0.12410920175754865 0.001598805036316728 0.013645655503084856 0.0 0.0
0.0 0.1238572751898786 -0.10750535544378845 0.10602622866386066 0.0014791267799278002 0.013052831487400406 0.0 0.0
0.0 0.103302747475671 -0.0896864201941049 0.08832089945799998 0.0013655207361048937 0.011746490836761343 0.0 0.0
0.0 0.08400523146488915 -0.07291306019587535 0.07165759679347534 0.0012554634024000094 0.010188473174464242 0.0 0.0
0.0 0.06637487219296039 -0.05752927416562299 0.05638163349740607 0.0011476406682169112 0.008613696928682628 0.0 0.0
0.0 0.05032268253147464 -0.0437150944089896 0.042674429929043675 0.0010406644799459267 0.007036851665250735 0.0 0.0
0.0 0.03629653520583251 -0.03160330057063093 0.030669606309658926 0.0009336942609720176 0.005394824205048023 0.0 0.0
0.0 0.02445230228383847 -0.021366363775092545 0.02053843444989115 0.0008279293252013928 0.0037901443818926643 0.0 0.0
0.0 0.014991467258666452 -0.01318565227598045 0.012463368090923528 0.0007222841850569146 0.002411110308209068 0.0 0.0
0.0 0.008027811039611647 -0.007137037875222721 0.00654044146202512 0.0005965964131975978 0.0013826742092312929 0.0 0.0
0.0 0.0034227337562719264 -0.003095979773433297 0.002694316361489988 0.000401663411943309 0.0006984083132997641 0.0 0.0
0.0 0.0010129384343342653 -0.0008041239460326068 0.0006615034546649953 0.00014262049136761108 0.00025961963495523595 0.0 0.0
0.0 4.48103093699082e-05 -3.264118052633435e-05 2.6039071154746506e-05 6.602109371587794e-06 1.9298488308986535e-05 0.0 0.0
0.0 0.0 0.0 0.0 0.0 0.0 0.0 0.0
0.0 0.0 0.0 0.0 0.0 0.0 0.0 0.0
0.0 0.0 0.0 0.0 0.0 0.0 0.0 0.0
0.0 0.0 0.0 0.0 0.0 0.0 0.0 0.0
0.0 0.0 0.0 0.0 0.0 0.0 0.0 0.0
0.0 0.0 0.0 0.0 0.0 0.0 0.0 0.0
0.0 0.00012624499149284165 -0.00010381372260035381 8.246281353817373e-05 2.135090906218022e-05 -2.5977096273695845e-05 0.0 0.0
0.0 0.0015784191059587246 -0.0012483626377008347 0.0010391773435608203 0.00020918529414001386 -0.0001583644994582115 0.0 0.0
0.0 0.004446077780307551 -0.00402130713149846 0.0035520086036636687 0.0004692985278347929 -0.0003309927436744798 0.0 0.0
0.0 0.009651129795523399 -0.008592269168515658 0.007957821771731106 0.000634447396784551 -0.0006092215743557845 0.0 0.0
0.0 0.01737895746820841 -0.015302186019264025 0.014554412568940111 0.0007477734503239029 -0.0010332990642500212 0.0 0.0
0.0 0.027818669708087527 -0.02434893046701625 0.023496273944390033 0.0008526565226262122 -0.001638481821530604 0.0 0.0
0.0 0.04094889284040677 -0.03570366817183057 0.03474056007792113 0.000963108093909445 -0.0023725583465621816 0.0 0.0
0.0 0.056605567087261936 -0.049203444763250025 0.04812580470910793 0.0010776400541420868 -0.0031369851658259213 0.0 0.0
0.0 0.07428079059003043 -0.06465602444384849 0.0634619918493274 0.001194032594521105 -0.0038897643010846637 0.0 0.0
0.0 0.09405197925187622 -0.08186148859665227 0.0805494341420791 0.001312054454573184 -0.00463415766801406 0.0 0.0
0.0 0.11560840907699599 -0.10055532725947093 0.09912107262294512 0.001434254636525786 -0.005328840826283433 0.0 0.0
0.0 0.13830800265928433 -0.1202431562205633 0.11868061438493391 0.0015625418356294404 -0.005834758427808798 0.0 0.0
0.0 0.16113025085104205 -0.14002270177981596 0.1383271682969788 0.0016955334828371218 -0.00582155833291687 0.0 0.0
0.0 0.18242069722357213 -0.15848862526015023 0.1566590011021972 0.0018296241579530681 -0.0048625145270082045 0.0 0.0
0.0 0.19979607188444687 -0.17358961971488823 0.17161217739655069 0.0019774423183373524 -0.0037727645629386506 0.0 0.0
0.0 0.20931197323859776 -0.18166555955491615 0.17945207411708503 0.002213485437830967 -0.011543612306498018 0.0 0.0
0.0 0.20181344261302805 -0.1730183271575264 0.17015143790685366 0.002866889250672705 -0.0519188780683243 0.0 0.0
0.0 0.20181344261301148 -0.1730183271575112 0.17015143790683868 0.0028668892506724135 0.05191887806833296 0.0 0.0
0.0 0.20931197323854722 -0.18166555955487154 0.17945207411704162 0.0022134854378298052 0.011543612306518701 0.0 0.0
0.0 0.19979607188436305 -0.17358961971481532 0.17161217739647847 0.001977442318336794 0.00377276456295058 0.0 0.0
0.0 0.18242069722346876 -0.15848862526006058 0.15665900110210823 0.0018296241579523489 0.004862514527006 0.0 0.0
0.0 0.16113025085092963 -0.1400227017797182 0.13832716829688213 0.0016955334828359491 0.005821558332914115 0.0 0.0
0.0 0.1383080026591641 -0.12024315622045924 0.11868061438482991 0.0015625418356292671 0.005834758427809587 0.0 0.0
0.0 0.11560840907687409 -0.10055532725936533 0.09912107262283988 0.0014342546365253917 0.005328840826280481 0.0 0.0
0.0 0.09405197925175651 -0.08186148859654829 0.08054943414197602 0.0013120544545722553 0.004634157668010447 0.0 0.0
0.0 0.07428079058991179 -0.06465602444374571 0.06346199184922499 0.0011940325945206853 0.0038897643010819593 0.0 0.0
0.0 0.0566055670871532 -0.04920344476315582 0.048125804709013856 0.0010776400541419725 0.0031369851658180434 0.0 0.0
0.0 0.0409488928403173 -0.03570366817175317 0.03474056007784403 0.0009631080939091567 0.002372558346554877 0.0 0.0
0.0 0.02781866970802054 -0.024348930466957585 0.023496273944331847 0.000852656522625735 0.0016384818215271777 0.0 0.0
0.0 0.017378957468161867 -0.015302186019222648 0.014554412568899411 0.000747773450323227 0.0010332990642470245 0.0 0.0
0.0 0.009651129795490985 -0.008592269168486735 0.007957821771702817 0.0006344473967839199 0.0006092215743539538 0.0 0.0
0.0 0.004446077780288813 -0.004021307131481266 0.0035520086036474477 0.00046929852783381706 0.00033099274367308926 0.0 0.0
0.0 0.0015784191059493823 -0.0012483626376934098 0.0010391773435543435 0.00020918529413906708 0.00015836449945752048 0.0 0.0
0.0 0.00012624499149099845 -0.00010381372259935987 8.246281353734892e-05 2.1350909062010852e-05 2.597709627339086e-05 0.0 0.0
0.0 0.0 0.0 0.0 0.0 0.0 0.0 0.0
0.0 0.0 0.0 0.0 0.0 0.0 0.0 0.0
0.0 0.0 0.0 0.0 0.0 0.0 0.0 0.0