# vtk DataFile Version 3.0
Some data
ASCII
DATASET UNSTRUCTURED_GRID
POINTS 861 float
0.0 0.0 0.0
0.4 0.0 0.0
0.8 0.0 0.0
1.2000000000000002 0.0 0.0
1.6 0.0 0.0
2.0 0.0 0.0
2.4000000000000004 0.0 0.0
2.8000000000000003 0.0 0.0
3.2 0.0 0.0
3.6 0.0 0.0
4.0 0.0 0.0
4.4 0.0 0.0
4.800000000000001 0.0 0.0
5.2 0.0 0.0
5.6000000000000005 0.0 0.0
6.0 0.0 0.0
6.4 0.0 0.0
6.800000000000001 0.0 0.0
7.2 0.0 0.0
7.6000000000000005 0.0 0.0
8.0 0.0 0.0
8.4 0.0 0.0
8.8 0.0 0.0
9.200000000000001 0.0 0.0
9.600000000000001 0.0 0.0
10.0 0.0 0.0
10.4 0.0 0.0
10.8 0.0 0.0
11.200000000000001 0.0 0.0
11.600000000000001 0.0 0.0
12.0 0.0 0.0
12.4 0.0 0.0
12.8 0.0 0.0
13.200000000000001 0.0 0.0
13.600000000000001 0.0 0.0
14.0 0.0 0.0
14.4 0.0 0.0
14.8 0.0 0.0
15.200000000000001 0.0 0.0
15.600000000000001 0.0 0.0
16.0 0.0 0.0
0.0 0.1 0.0
0.4 0.1 0.0
0.8 0.1 0.0
1.2000000000000002 0.1 0.0
1.6 0.1 0.0
2.0 0.1 0.0
2.4000000000000004 0.1 0.0
2.8000000000000003 0.1 0.0
3.2 0.1 0.0
3.6 0.1 0.0
4.0 0.1 0.0
4.4 0.1 0.0
4.800000000000001 0.1 0.0
5.2 0.1 0.0
5.6000000000000005 0.1 0.0
6.0 0.1 0.0
6.4 0.1 0.0
6.800000000000001 0.1 0.0
7.2 0.1 0.0
7.6000000000000005 0.1 0.0
8.0 0.1 0.0
8.4 0.1 0.0
8.8 0.1 0.0
9.200000000000001 0.1 0.0
9.600000000000001 0.1 0.0
10.0 0.1 0.0
10.4 0.1 0.0
10.8 0.1 0.0
11.200000000000001 0.1 0.0
11.600000000000001 0.1 0.0
12.0 0.1 0.0
12.4 0.1 0.0
12.8 0.1 0.0
13.200000000000001 0.1 0.0
13.600000000000001 0.1 0.0
14.0 0.1 0.0
14.4 0.1 0.0
14.8 0.1 0.0
15.200000000000001 0.1 0.0
15.600000000000001 0.1 0.0
16.0 0.1 0.0
0.0 0.2 0.0
0.4 0.2 0.0
0.8 0.2 0.0
1.2000000000000002 0.2 0.0
1.6 0.2 0.0
2.0 0.2 0.0
2.4000000000000004 0.2 0.0
2.8000000000000003 0.2 0.0
3.2 0.2 0.0
3.6 0.2 0.0
4.0 0.2 0.0
4.4 0.2 0.0
4.800000000000001 0.2 0.0
5.2 0.2 0.0
5.6000000000000005 0.2 0.0
6.0 0.2 0.0
6.4 0.2 0.0
6.800000000000001 0.2 0.0
7.2 0.2 0.0
7.6000000000000005 0.2 0.0
8.0 0.2 0.0
8.4 0.2 0.0
8.8 0.2 0.0
9.200000000000001 0.2 0.0
9.600000000000001 0.2 0.0
10.0 0.2 0.0
10.4 0.2 0.0
10.8 0.2 0.0
11.200000000000001 0.2 0.0
11.600000000000001 0.2 0.0
12.0 0.2 0.0
12.4 0.2 0.0
12.8 0.2 0.0
13.200000000000001 0.2 0.0
13.600000000000001 0.2 0.0
14.0 0.2 0.0
14.4 0.2 0.0
14.8 0.2 0.0
15.200000000000001 0.2 0.0
15.600000000000001 0.2 0.0
16.0 0.2 0.0
0.0 0.30000000000000004 0.0
0.4 0.30000000000000004 0.0
0.8 0.30000000000000004 0.0
1.2000000000000002 0.30000000000000004 0.0
1.6 0.30000000000000004 0.0
2.0 0.30000000000000004 0.0
2.4000000000000004 0.30000000000000004 0.0
2.8000000000000003 0.30000000000000004 0.0
3.2 0.30000000000000004 0.0
3.6 0.30000000000000004 0.0
4.0 0.30000000000000004 0.0
4.4 0.30000000000000004 0.0
4.800000000000001 0.30000000000000004 0.0
5.2 0.30000000000000004 0.0
5.6000000000000005 0.30000000000000004 0.0
6.0 0.30000000000000004 0.0
6.4 0.30000000000000004 0.0
6.800000000000001 0.30000000000000004 0.0
7.2 0.30000000000000004 0.0
7.6000000000000005 0.30000000000000004 0.0
8.0 0.30000000000000004 0.0
8.4 0.30000000000000004 0.0
8.8 0.30000000000000004 0.0
9.200000000000001 0.30000000000000004 0.0
9.600000000000001 0.30000000000000004 0.0
10.0 0.30000000000000004 0.0
10.4 0.30000000000000004 0.0
10.8 0.30000000000000004 0.0
11.200000000000001 0.30000000000000004 0.0
11.600000000000001 0.30000000000000004 0.0
12.0 0.30000000000000004 0.0
12.4 0.30000000000000004 0.0
12.8 0.30000000000000004 0.0
13.200000000000001 0.30000000000000004 0.0
13.600000000000001 0.30000000000000004 0.0
14.0 0.30000000000000004 0.0
14.4 0.30000000000000004 0.0
14.8 0.30000000000000004 0.0
15.200000000000001 0.30000000000000004 0.0
15.600000000000001 0.30000000000000004 0.0
16.0 0.30000000000000004 0.0
0.0 0.4 0.0
0.4 0.4 0.0
0.8 0.4 0.0
1.2000000000000002 0.4 0.0
1.6 0.4 0.0
2.0 0.4 0.0
2.4000000000000004 0.4 0.0
2.8000000000000003 0.4 0.0
3.2 0.4 0.0
3.6 0.4 0.0
4.0 0.4 0.0
4.4 0.4 0.0
4.800000000000001 0.4 0.0
5.2 0.4 0.0
5.6000000000000005 0.4 0.0
6.0 0.4 0.0
6.4 0.4 0.0
6.800000000000001 0.4 0.0
7.2 0.4 0.0
7.6000000000000005 0.4 0.0
8.0 0.4 0.0
8.4 0.4 0.0
8.8 0.4 0.0
9.200000000000001 0.4 0.0
9.600000000000001 0.4 0.0
10.0 0.4 0.0
10.4 0.4 0.0
10.8 0.4 0.0
11.200000000000001 0.4 0.0
11.600000000000001 0.4 0.0
12.0 0.4 0.0
12.4 0.4 0.0
12.8 0.4 0.0
13.200000000000001 0.4 0.0
13.600000000000001 0.4 0.0
14.0 0.4 0.0
14.4 0.4 0.0
14.8 0.4 0.0
15.200000000000001 0.4 0.0
15.600000000000001 0.4 0.0
16.0 0.4 0.0
0.0 0.5 0.0
0.4 0.5 0.0
0.8 0.5 0.0
1.2000000000000002 0.5 0.0
1.6 0.5 0.0
2.0 0.5 0.0
2.4000000000000004 0.5 0.0
2.8000000000000003 0.5 0.0
3.2 0.5 0.0
3.6 0.5 0.0
4.0 0.5 0.0
4.4 0.5 0.0
4.800000000000001 0.5 0.0
5.2 0.5 0.0
5.6000000000000005 0.5 0.0
6.0 0.5 0.0
6.4 0.5 0.0
6.800000000000001 0.5 0.0
7.2 0.5 0.0
7.6000000000000005 0.5 0.0
8.0 0.5 0.0
8.4 0.5 0.0
8.8 0.5 0.0
9.200000000000001 0.5 0.0
9.600000000000001 0.5 0.0
10.0 0.5 0.0
10.4 0.5 0.0
10.8 0.5 0.0
11.200000000000001 0.5 0.0
11.600000000000001 0.5 0.0
12.0 0.5 0.0
12.4 0.5 0.0
12.8 0.5 0.0
13.200000000000001 0.5 0.0
13.600000000000001 0.5 0.0
14.0 0.5 0.0
14.4 0.5 0.0
14.8 0.5 0.0
15.200000000000001 0.5 0.0
15.600000000000001 0.5 0.0
16.0 0.5 0.0
0.0 0.6000000000000001 0.0
0.4 0.6000000000000001 0.0
0.8 0.6000000000000001 0.0
1.2000000000000002 0.6000000000000001 0.0
1.6 0.6000000000000001 0.0
2.0 0.6000000000000001 0.0
2.4000000000000004 0.6000000000000001 0.0
2.8000000000000003 0.6000000000000001 0.0
3.2 0.6000000000000001 0.0
3.6 0.6000000000000001 0.0
4.0 0.6000000000000001 0.0
4.4 0.6000000000000001 0.0
4.800000000000001 0.6000000000000001 0.0
5.2 0.6000000000000001 0.0
5.6000000000000005 0.6000000000000001 0.0
6.0 0.6000000000000001 0.0
6.4 0.6000000000000001 0.0
6.800000000000001 0.6000000000000001 0.0
7.2 0.6000000000000001 0.0
7.6000000000000005 0.6000000000000001 0.0
8.0 0.6000000000000001 0.0
8.4 0.6000000000000001 0.0
8.8 0.6000000000000001 0.0
9.200000000000001 0.6000000000000001 0.0
9.600000000000001 0.6000000000000001 0.0
10.0 0.6000000000000001 0.0
10.4 0.6000000000000001 0.0
10.8 0.6000000000000001 0.0
11.200000000000001 0.6000000000000001 0.0
11.600000000000001 0.6000000000000001 0.0
12.0 0.6000000000000001 0.0
12.4 0.6000000000000001 0.0
12.8 0.6000000000000001 0.0
13.200000000000001 0.6000000000000001 0.0
13.600000000000001 0.6000000000000001 0.0
14.0 0.6000000000000001 0.0
14.4 0.6000000000000001 0.0
14.8 0.6000000000000001 0.0
15.200000000000001 0.6000000000000001 0.0
15.600000000000001 0.6000000000000001 0.0
16.0 0.6000000000000001 0.0
0.0 0.7000000000000001 0.0
0.4 0.7000000000000001 0.0
0.8 0.7000000000000001 0.0
1.2000000000000002 0.7000000000000001 0.0
1.6 0.7000000000000001 0.0
2.0 0.7000000000000001 0.0
2.4000000000000004 0.7000000000000001 0.0
2.8000000000000003 0.7000000000000001 0.0
3.2 0.7000000000000001 0.0
3.6 0.7000000000000001 0.0
4.0 0.7000000000000001 0.0
4.4 0.7000000000000001 0.0
4.800000000000001 0.7000000000000001 0.0
5.2 0.7000000000000001 0.0
5.6000000000000005 0.7000000000000001 0.0
6.0 0.7000000000000001 0.0
6.4 0.7000000000000001 0.0
6.800000000000001 0.7000000000000001 0.0
7.2 0.7000000000000001 0.0
7.6000000000000005 0.7000000000000001 0.0
8.0 0.7000000000000001 0.0
8.4 0.7000000000000001 0.0
8.8 0.7000000000000001 0.0
9.200000000000001 0.7000000000000001 0.0
9.600000000000001 0.7000000000000001 0.0
10.0 0.7000000000000001 0.0
10.4 0.7000000000000001 0.0
10.8 0.7000000000000001 0.0
11.200000000000001 0.7000000000000001 0.0
11.600000000000001 0.7000000000000001 0.0
12.0 0.7000000000000001 0.0
12.4 0.7000000000000001 0.0
12.8 0.7000000000000001 0.0
13.200000000000001 0.7000000000000001 0.0
13.600000000000001 0.7000000000000001 0.0
14.0 0.7000000000000001 0.0
14.4 0.7000000000000001 0.0
14.8 0.7000000000000001 0.0
15.200000000000001 0.7000000000000001 0.0
15.600000000000001 0.7000000000000001 0.0
16.0 0.7000000000000001 0.0
0.0 0.8 0.0
0.4 0.8 0.0
0.8 0.8 0.0
1.2000000000000002 0.8 0.0
1.6 0.8 0.0
2.0 0.8 0.0
2.4000000000000004 0.8 0.0
2.8000000000000003 0.8 0.0
3.2 0.8 0.0
3.6 0.8 0.0
4.0 0.8 0.0
4.4 0.8 0.0
4.800000000000001 0.8 0.0
5.2 0.8 0.0
5.6000000000000005 0.8 0.0
6.0 0.8 0.0
6.4 0.8 0.0
6.800000000000001 0.8 0.0
7.2 0.8 0.0
7.6000000000000005 0.8 0.0
8.0 0.8 0.0
8.4 0.8 0.0
8.8 0.8 0.0
9.200000000000001 0.8 0.0
9.600000000000001 0.8 0.0
10.0 0.8 0.0
10.4 0.8 0.0
10.8 0.8 0.0
11.200000000000001 0.8 0.0
11.600000000000001 0.8 0.0
12.0 0.8 0.0
12.4 0.8 0.0
12.8 0.8 0.0
13.200000000000001 0.8 0.0
13.600000000000001 0.8 0.0
14.0 0.8 0.0
14.4 0.8 0.0
14.8 0.8 0.0
15.200000000000001 0.8 0.0
15.600000000000001 0.8 0.0
16.0 0.8 0.0
0.0 0.9 0.0
0.4 0.9 0.0
0.8 0.9 0.0
1.2000000000000002 0.9 0.0
1.6 0.9 0.0
2.0 0.9 0.0
2.4000000000000004 0.9 0.0
2.8000000000000003 0.9 0.0
3.2 0.9 0.0
3.6 0.9 0.0
4.0 0.9 0.0
4.4 0.9 0.0
4.800000000000001 0.9 0.0
5.2 0.9 0.0
5.6000000000000005 0.9 0.0
6.0 0.9 0.0
6.4 0.9 0.0
6.800000000000001 0.9 0.0
7.2 0.9 0.0
7.6000000000000005 0.9 0.0
8.0 0.9 0.0
8.4 0.9 0.0
8.8 0.9 0.0
9.200000000000001 0.9 0.0
9.600000000000001 0.9 0.0
10.0 0.9 0.0
10.4 0.9 0.0
10.8 0.9 0.0
11.200000000000001 0.9 0.0
11.600000000000001 0.9 0.0
12.0 0.9 0.0
12.4 0.9 0.0
12.8 0.9 0.0
13.200000000000001 0.9 0.0
13.600000000000001 0.9 0.0
14.0 0.9 0.0
14.4 0.9 0.0
14.8 0.9 0.0
15.200000000000001 0.9 0.0
15.600000000000001 0.9 0.0
16.0 0.9 0.0
0.0 1.0 0.0
0.4 1.0 0.0
0.8 1.0 0.0
1.2000000000000002 1.0 0.0
1.6 1.0 0.0
2.0 1.0 0.0
2.4000000000000004 1.0 0.0
2.8000000000000003 1.0 0.0
3.2 1.0 0.0
3.6 1.0 0.0
4.0 1.0 0.0
4.4 1.0 0.0
4.800000000000001 1.0 0.0
5.2 1.0 0.0
5.6000000000000005 1.0 0.0
6.0 1.0 0.0
6.4 1.0 0.0
6.800000000000001 1.0 0.0
7.2 1.0 0.0
7.6000000000000005 1.0 0.0
8.0 1.0 0.0
8.4 1.0 0.0
8.8 1.0 0.0
9.200000000000001 1.0 0.0
9.600000000000001 1.0 0.0
10.0 1.0 0.0
10.4 1.0 0.0
10.8 1.0 0.0
11.200000000000001 1.0 0.0
11.600000000000001 1.0 0.0
12.0 1.0 0.0
12.4 1.0 0.0
12.8 1.0 0.0
13.200000000000001 1.0 0.0
13.600000000000001 1.0 0.0
14.0 1.0 0.0
14.4 1.0 0.0
14.8 1.0 0.0
15.200000000000001 1.0 0.0
15.600000000000001 1.0 0.0
16.0 1.0 0.0
0.0 1.1 0.0
0.4 1.1 0.0
0.8 1.1 0.0
1.2000000000000002 1.1 0.0
1.6 1.1 0.0
2.0 1.1 0.0
2.4000000000000004 1.1 0.0
2.8000000000000003 1.1 0.0
3.2 1.1 0.0
3.6 1.1 0.0
4.0 1.1 0.0
4.4 1.1 0.0
4.800000000000001 1.1 0.0
5.2 1.1 0.0
5.6000000000000005 1.1 0.0
6.0 1.1 0.0
6.4 1.1 0.0
6.800000000000001 1.1 0.0
7.2 1.1 0.0
7.6000000000000005 1.1 0.0
8.0 1.1 0.0
8.4 1.1 0.0
8.8 1.1 0.0
9.200000000000001 1.1 0.0
9.600000000000001 1.1 0.0
10.0 1.1 0.0
10.4 1.1 0.0
10.8 1.1 0.0
11.200000000000001 1.1 0.0
11.600000000000001 1.1 0.0
12.0 1.1 0.0
12.4 1.1 0.0
12.8 1.1 0.0
13.200000000000001 1.1 0.0
13.600000000000001 1.1 0.0
14.0 1.1 0.0
14.4 1.1 0.0
14.8 1.1 0.0
15.200000000000001 1.1 0.0
15.600000000000001 1.1 0.0
16.0 1.1 0.0
0.0 1.2000000000000002 0.0
0.4 1.2000000000000002 0.0
0.8 1.2000000000000002 0.0
1.2000000000000002 1.2000000000000002 0.0
1.6 1.2000000000000002 0.0
2.0 1.2000000000000002 0.0
2.4000000000000004 1.2000000000000002 0.0
2.8000000000000003 1.2000000000000002 0.0
3.2 1.2000000000000002 0.0
3.6 1.2000000000000002 0.0
4.0 1.2000000000000002 0.0
4.4 1.2000000000000002 0.0
4.800000000000001 1.2000000000000002 0.0
5.2 1.2000000000000002 0.0
5.6000000000000005 1.2000000000000002 0.0
6.0 1.2000000000000002 0.0
6.4 1.2000000000000002 0.0
6.800000000000001 1.2000000000000002 0.0
7.2 1.2000000000000002 0.0
7.6000000000000005 1.2000000000000002 0.0
8.0 1.2000000000000002 0.0
8.4 1.2000000000000002 0.0
8.8 1.2000000000000002 0.0
9.200000000000001 1.2000000000000002 0.0
9.600000000000001 1.2000000000000002 0.0
10.0 1.2000000000000002 0.0
10.4 1.2000000000000002 0.0
10.8 1.2000000000000002 0.0
11.200000000000001 1.2000000000000002 0.0
11.600000000000001 1.2000000000000002 0.0
12.0 1.2000000000000002 0.0
12.4 1.2000000000000002 0.0
12.8 1.2000000000000002 0.0
13.200000000000001 1.2000000000000002 0.0
13.600000000000001 1.2000000000000002 0.0
14.0 1.2000000000000002 0.0
14.4 1.2000000000000002 0.0
14.8 1.2000000000000002 0.0
15.200000000000001 1.2000000000000002 0.0
15.600000000000001 1.2000000000000002 0.0
16.0 1.2000000000000002 0.0
0.0 1.3 0.0
0.4 1.3 0.0
0.8 1.3 0.0
1.2000000000000002 1.3 0.0
1.6 1.3 0.0
2.0 1.3 0.0
2.4000000000000004 1.3 0.0
2.8000000000000003 1.3 0.0
3.2 1.3 0.0
3.6 1.3 0.0
4.0 1.3 0.0
4.4 1.3 0.0
4.800000000000001 1.3 0.0
5.2 1.3 0.0
5.6000000000000005 1.3 0.0
6.0 1.3 0.0
6.4 1.3 0.0
6.800000000000001 1.3 0.0
7.2 1.3 0.0
7.6000000000000005 1.3 0.0
8.0 1.3 0.0
8.4 1.3 0.0
8.8 1.3 0.0
9.200000000000001 1.3 0.0
9.600000000000001 1.3 0.0
10.0 1.3 0.0
10.4 1.3 0.0
10.8 1.3 0.0
11.200000000000001 1.3 0.0
11.600000000000001 1.3 0.0
12.0 1.3 0.0
12.4 1.3 0.0
12.8 1.3 0.0
13.200000000000001 1.3 0.0
13.600000000000001 1.3 0.0
14.0 1.3 0.0
14.4 1.3 0.0
14.8 1.3 0.0
15.200000000000001 1.3 0.0
15.600000000000001 1.3 0.0
16.0 1.3 0.0
0.0 1.4000000000000001 0.0
0.4 1.4000000000000001 0.0
0.8 1.4000000000000001 0.0
1.2000000000000002 1.4000000000000001 0.0
1.6 1.4000000000000001 0.0
2.0 1.4000000000000001 0.0
2.4000000000000004 1.4000000000000001 0.0
2.8000000000000003 1.4000000000000001 0.0
3.2 1.4000000000000001 0.0
3.6 1.4000000000000001 0.0
4.0 1.4000000000000001 0.0
4.4 1.4000000000000001 0.0
4.800000000000001 1.4000000000000001 0.0
5.2 1.4000000000000001 0.0
5.6000000000000005 1.4000000000000001 0.0
6.0 1.4000000000000001 0.0
6.4 1.4000000000000001 0.0
6.800000000000001 1.4000000000000001 0.0
7.2 1.4000000000000001 0.0
7.6000000000000005 1.4000000000000001 0.0
8.0 1.4000000000000001 0.0
8.4 1.4000000000000001 0.0
8.8 1.4000000000000001 0.0
9.200000000000001 1.4000000000000001 0.0
9.600000000000001 1.4000000000000001 0.0
10.0 1.4000000000000001 0.0
10.4 1.4000000000000001 0.0
10.8 1.4000000000000001 0.0
11.200000000000001 1.4000000000000001 0.0
11.600000000000001 1.4000000000000001 0.0
12.0 1.4000000000000001 0.0
12.4 1.4000000000000001 0.0
12.8 1.4000000000000001 0.0
13.200000000000001 1.4000000000000001 0.0
13.600000000000001 1.4000000000000001 0.0
14.0 1.4000000000000001 0.0
14.4 1.4000000000000001 0.0
14.8 1.4000000000000001 0.0
15.200000000000001 1.4000000000000001 0.0
15.600000000000001 1.4000000000000001 0.0
16.0 1.4000000000000001 0.0
0.0 1.5 0.0
0.4 1.5 0.0
0.8 1.5 0.0
1.2000000000000002 1.5 0.0
1.6 1.5 0.0
2.0 1.5 0.0
2.4000000000000004 1.5 0.0
2.8000000000000003 1.5 0.0
3.2 1.5 0.0
3.6 1.5 0.0
4.0 1.5 0.0
4.4 1.5 0.0
4.800000000000001 1.5 0.0
5.2 1.5 0.0
5.6000000000000005 1.5 0.0
6.0 1.5 0.0
6.4 1.5 0.0
6.800000000000001 1.5 0.0
7.2 1.5 0.0
7.6000000000000005 1.5 0.0
8.0 1.5 0.0
8.4 1.5 0.0
8.8 1.5 0.0
9.200000000000001 1.5 0.0
9.600000000000001 1.5 0.0
10.0 1.5 0.0
10.4 1.5 0.0
10.8 1.5 0.0
11.200000000000001 1.5 0.0
11.600000000000001 1.5 0.0
12.0 1.5 0.0
12.4 1.5 0.0
12.8 1.5 0.0
13.200000000000001 1.5 0.0
13.600000000000001 1.5 0.0
14.0 1.5 0.0
14.4 1.5 0.0
14.8 1.5 0.0
15.200000000000001 1.5 0.0
15.600000000000001 1.5 0.0
16.0 1.5 0.0
0.0 1.6 0.0
0.4 1.6 0.0
0.8 1.6 0.0
1.2000000000000002 1.6 0.0
1.6 1.6 0.0
2.0 1.6 0.0
2.4000000000000004 1.6 0.0
2.8000000000000003 1.6 0.0
3.2 1.6 0.0
3.6 1.6 0.0
4.0 1.6 0.0
4.4 1.6 0.0
4.800000000000001 1.6 0.0
5.2 1.6 0.0
5.6000000000000005 1.6 0.0
6.0 1.6 0.0
6.4 1.6 0.0
6.800000000000001 1.6 0.0
7.2 1.6 0.0
7.6000000000000005 1.6 0.0
8.0 1.6 0.0
8.4 1.6 0.0
8.8 1.6 0.0
9.200000000000001 1.6 0.0
9.600000000000001 1.6 0.0
10.0 1.6 0.0
10.4 1.6 0.0
10.8 1.6 0.0
11.200000000000001 1.6 0.0
11.600000000000001 1.6 0.0
12.0 1.6 0.0
12.4 1.6 0.0
12.8 1.6 0.0
13.200000000000001 1.6 0.0
13.600000000000001 1.6 0.0
14.0 1.6 0.0
14.4 1.6 0.0
14.8 1.6 0.0
15.200000000000001 1.6 0.0
15.600000000000001 1.6 0.0
16.0 1.6 0.0
0.0 1.7000000000000002 0.0
0.4 1.7000000000000002 0.0
0.8 1.7000000000000002 0.0
1.2000000000000002 1.7000000000000002 0.0
1.6 1.7000000000000002 0.0
2.0 1.7000000000000002 0.0
2.4000000000000004 1.7000000000000002 0.0
2.8000000000000003 1.7000000000000002 0.0
3.2 1.7000000000000002 0.0
3.6 1.7000000000000002 0.0
4.0 1.7000000000000002 0.0
4.4 1.7000000000000002 0.0
4.800000000000001 1.7000000000000002 0.0
5.2 1.7000000000000002 0.0
5.6000000000000005 1.7000000000000002 0.0
6.0 1.7000000000000002 0.0
6.4 1.7000000000000002 0.0
6.800000000000001 1.7000000000000002 0.0
7.2 1.7000000000000002 0.0
7.6000000000000005 1.7000000000000002 0.0
8.0 1.7000000000000002 0.0
8.4 1.7000000000000002 0.0
8.8 1.7000000000000002 0.0
9.200000000000001 1.7000000000000002 0.0
9.600000000000001 1.7000000000000002 0.0
10.0 1.7000000000000002 0.0
10.4 1.7000000000000002 0.0
10.8 1.7000000000000002 0.0
11.200000000000001 1.7000000000000002 0.0
11.600000000000001 1.7000000000000002 0.0
12.0 1.7000000000000002 0.0
12.4 1.7000000000000002 0.0
12.8 1.7000000000000002 0.0
13.200000000000001 1.7000000000000002 0.0
13.600000000000001 1.7000000000000002 0.0
14.0 1.7000000000000002 0.0
14.4 1.7000000000000002 0.0
14.8 1.7000000000000002 0.0
15.200000000000001 1.7000000000000002 0.0
15.600000000000001 1.7000000000000002 0.0
16.0 1.7000000000000002 0.0
0.0 1.8 0.0
0.4 1.8 0.0
0.8 1.8 0.0
1.2000000000000002 1.8 0.0
1.6 1.8 0.0
2.0 1.8 0.0
2.4000000000000004 1.8 0.0
2.8000000000000003 1.8 0.0
3.2 1.8 0.0
3.6 1.8 0.0
4.0 1.8 0.0
4.4 1.8 0.0
4.800000000000001 1.8 0.0
5.2 1.8 0.0
5.6000000000000005 1.8 0.0
6.0 1.8 0.0
6.4 1.8 0.0
6.800000000000001 1.8 0.0
7.2 1.8 0.0
7.6000000000000005 1.8 0.0
8.0 1.8 0.0
8.4 1.8 0.0
8.8 1.8 0.0
9.200000000000001 1.8 0.0
9.600000000000001 1.8 0.0
10.0 1.8 0.0
10.4 1.8 0.0
10.8 1.8 0.0
11.200000000000001 1.8 0.0
11.600000000000001 1.8 0.0
12.0 1.8 0.0
12.4 1.8 0.0
12.8 1.8 0.0
13.200000000000001 1.8 0.0
13.600000000000001 1.8 0.0
14.0 1.8 0.0
14.4 1.8 0.0
14.8 1.8 0.0
15.200000000000001 1.8 0.0
15.600000000000001 1.8 0.0
16.0 1.8 0.0
0.0 1.9000000000000001 0.0
0.4 1.9000000000000001 0.0
0.8 1.9000000000000001 0.0
1.2000000000000002 1.9000000000000001 0.0
1.6 1.9000000000000001 0.0
2.0 1.9000000000000001 0.0
2.4000000000000004 1.9000000000000001 0.0
2.8000000000000003 1.9000000000000001 0.0
3.2 1.9000000000000001 0.0
3.6 1.9000000000000001 0.0
4.0 1.9000000000000001 0.0
4.4 1.9000000000000001 0.0
4.800000000000001 1.9000000000000001 0.0
5.2 1.9000000000000001 0.0
5.6000000000000005 1.9000000000000001 0.0
6.0 1.9000000000000001 0.0
6.4 1.9000000000000001 0.0
6.800000000000001 1.9000000000000001 0.0
7.2 1.9000000000000001 0.0
7.6000000000000005 1.9000000000000001 0.0
8.0 1.9000000000000001 0.0
8.4 1.9000000000000001 0.0
8.8 1.9000000000000001 0.0
9.200000000000001 1.9000000000000001 0.0
9.600000000000001 1.9000000000000001 0.0
10.0 1.9000000000000001 0.0
10.4 1.9000000000000001 0.0
10.8 1.9000000000000001 0.0
11.200000000000001 1.9000000000000001 0.0
11.600000000000001 1.9000000000000001 0.0
12.0 1.9000000000000001 0.0
12.4 1.9000000000000001 0.0
12.8 1.9000000000000001 0.0
13.200000000000001 1.9000000000000001 0.0
13.600000000000001 1.9000000000000001 0.0
14.0 1.9000000000000001 0.0
14.4 1.9000000000000001 0.0
14.8 1.9000000000000001 0.0
15.200000000000001 1.9000000000000001 0.0
15.600000000000001 1.9000000000000001 0.0
16.0 1.9000000000000001 0.0
0.0 2.0 0.0
0.4 2.0 0.0
0.8 2.0 0.0
1.2000000000000002 2.0 0.0
1.6 2.0 0.0
2.0 2.0 0.0
2.4000000000000004 2.0 0.0
2.8000000000000003 2.0 0.0
3.2 2.0 0.0
3.6 2.0 0.0
4.0 2.0 0.0
4.4 2.0 0.0
4.800000000000001 2.0 0.0
5.2 2.0 0.0
5.6000000000000005 2.0 0.0
6.0 2.0 0.0
6.4 2.0 0.0
6.800000000000001 2.0 0.0
7.2 2.0 0.0
7.6000000000000005 2.0 0.0
8.0 2.0 0.0
8.4 2.0 0.0
8.8 2.0 0.0
9.200000000000001 2.0 0.0
9.600000000000001 2.0 0.0
10.0 2.0 0.0
10.4 2.0 0.0
10.8 2.0 0.0
11.200000000000001 2.0 0.0
11.600000000000001 2.0 0.0
12.0 2.0 0.0
12.4 2.0 0.0
12.8 2.0 0.0
13.200000000000001 2.0 0.0
13.600000000000001 2.0 0.0
14.0 2.0 0.0
14.4 2.0 0.0
14.8 2.0 0.0
15.200000000000001 2.0 0.0
15.600000000000001 2.0 0.0
16.0 2.0 0.0
CELLS 800 4000
4 0 1 42 41
4 1 2 43 42
4 2 3 44 43
4 3 4 45 44
4 4 5 46 45
4 5 6 47 46
4 6 7 48 47
4 7 8 49 48
4 8 9 50 49
4 9 10 51 50
4 10 11 52 51
4 11 12 53 52
4 12 13 54 53
4 13 14 55 54
4 14 15 56 55
4 15 16 57 56
4 16 17 58 57
4 17 18 59 58
4 18 19 60 59
4 19 20 61 60
4 20 21 62 61
4 21 22 63 62
4 22 23 64 63
4 23 24 65 64
4 24 25 66 65
4 25 26 67 66
4 26 27 68 67
4 27 28 69 68
4 28 29 70 69
4 29 30 71 70
4 30 31 72 71
4 31 32 73 72
4 32 33 74 73
4 33 34 75 74
4 34 35 76 75
4 35 36 77 76
4 36 37 78 77
4 37 38 79 78
4 38 39 80 79
4 39 40 81 80
4 41 42 83 82
4 42 43 84 83
4 43 44 85 84
4 44 45 86 85
4 45 46 87 86
4 46 47 88 87
4 47 48 89 88
4 48 49 90 89
4 49 50 91 90
4 50 51 92 91
4 51 52 93 92
4 52 53 94 93
4 53 54 95 94
4 54 55 96 95
4 55 56 97 96
4 56 57 98 97
4 57 58 99 98
4 58 59 100 99
4 59 60 101 100
4 60 61 102 101
4 61 62 103 102
4 62 63 104 103
4 63 64 105 104
4 64 65 106 105
4 65 66 107 106
4 66 67 108 107
4 67 68 109 108
4 68 69 110 109
4 69 70 111 110
4 70 71 112 111
4 71 72 113 112
4 72 73 114 113
4 73 74 115 114
4 74 75 116 115
4 75 76 117 116
4 76 77 118 117
4 77 78 119 118
4 78 79 120 119
4 79 80 121 120
4 80 81 122 121
4 82 83 124 123
4 83 84 125 124
4 84 85 126 125
4 85 86 127 126
4 86 87 128 127
4 87 88 129 128
4 88 89 130 129
4 89 90 131 130
4 90 91 132 131
4 91 92 133 132
4 92 93 134 133
4 93 94 135 134
4 94 95 136 135
4 95 96 137 136
4 96 97 138 137
4 97 98 139 138
4 98 99 140 139
4 99 100 141 140
4 100 101 142 141
4 101 102 143 142
4 102 103 144 143
4 103 104 145 144
4 104 105 146 145
4 105 106 147 146
4 106 107 148 147
4 107 108 149 148
4 108 109 150 149
4 109 110 151 150
4 110 111 152 151
4 111 112 153 152
4 112 113 154 153
4 113 114 155 154
4 114 115 156 155
4 115 116 157 156
4 116 117 158 157
4 117 118 159 158
4 118 119 160 159
4 119 120 161 160
4 120 121 162 161
4 121 122 163 162
4 123 124 165 164
4 124 125 166 165
4 125 126 167 166
4 126 127 168 167
4 127 128 169 168
4 128 129 170 169
4 129 130 171 170
4 130 131 172 171
4 131 132 173 172
4 132 133 174 173
4 133 134 175 174
4 134 135 176 175
4 135 136 177 176
4 136 137 178 177
4 137 138 179 178
4 138 139 180 179
4 139 140 181 180
4 140 141 182 181
4 141 142 183 182
4 142 143 184 183
4 143 144 185 184
4 144 145 186 185
4 145 146 187 186
4 146 147 188 187
4 147 148 189 188
4 148 149 190 189
4 149 150 191 190
4 150 151 192 191
4 151 152 193 192
4 152 153 194 193
4 153 154 195 194
4 154 155 196 195
4 155 156 197 196
4 156 157 198 197
4 157 158 199 198
4 158 159 200 199
4 159 160 201 200
4 160 161 202 201
4 161 162 203 202
4 162 163 204 203
4 164 165 206 205
4 165 166 207 206
4 166 167 208 207
4 167 168 209 208
4 168 169 210 209
4 169 170 211 210
4 170 171 212 211
4 171 172 213 212
4 172 173 214 213
4 173 174 215 214
4 174 175 216 215
4 175 176 217 216
4 176 177 218 217
4 177 178 219 218
4 178 179 220 219
4 179 180 221 220
4 180 181 222 221
4 181 182 223 222
4 182 183 224 223
4 183 184 225 224
4 184 185 226 225
4 185 186 227 226
4 186 187 228 227
4 187 188 229 228
4 188 189 230 229
4 189 190 231 230
4 190 191 232 231
4 191 192 233 232
4 192 193 234 233
4 193 194 235 234
4 194 195 236 235
4 195 196 237 236
4 196 197 238 237
4 197 198 239 238
4 198 199 240 239
4 199 200 241 240
4 200 201 242 241
4 201 202 243 242
4 202 203 244 243
4 203 204 245 244
4 205 206 247 246
4 206 207 248 247
4 207 208 249 248
4 208 209 250 249
4 209 210 251 250
4 210 211 252 251
4 211 212 253 252
4 212 213 254 253
4 213 214 255 254
4 214 215 256 255
4 215 216 257 256
4 216 217 258 257
4 217 218 259 258
4 218 219 260 259
4 219 220 261 260
4 220 221 262 261
4 221 222 263 262
4 222 223 264 263
4 223 224 265 264
4 224 225 266 265
4 225 226 267 266
4 226 227 268 267
4 227 228 269 268
4 228 229 270 269
4 229 230 271 270
4 230 231 272 271
4 231 232 273 272
4 232 233 274 273
4 233 234 275 274
4 234 235 276 275
4 235 236 277 276
4 236 237 278 277
4 237 238 279 278
4 238 239 280 279
4 239 240 281 280
4 240 241 282 281
4 241 242 283 282
4 242 243 284 283
4 243 244 285 284
4 244 245 286 285
4 246 247 288 287
4 247 248 289 288
4 248 249 290 289
4 249 250 291 290
4 250 251 292 291
4 251 252 293 292
4 252 253 294 293
4 253 254 295 294
4 254 255 296 295
4 255 256 297 296
4 256 257 298 297
4 257 258 299 298
4 258 259 300 299
4 259 260 301 300
4 260 261 302 301
4 261 262 303 302
4 262 263 304 303
4 263 264 305 304
4 264 265 306 305
4 265 266 307 306
4 266 267 308 307
4 267 268 309 308
4 268 269 310 309
4 269 270 311 310
4 270 271 312 311
4 271 272 313 312
4 272 273 314 313
4 273 274 315 314
4 274 275 316 315
4 275 276 317 316
4 276 277 318 317
4 277 278 319 318
4 278 279 320 319
4 279 280 321 320
4 280 281 322 321
4 281 282 323 322
4 282 283 324 323
4 283 284 325 324
4 284 285 326 325
4 285 286 327 326
4 287 288 329 328
4 288 289 330 329
4 289 290 331 330
4 290 291 332 331
4 291 292 333 332
4 292 293 334 333
4 293 294 335 334
4 294 295 336 335
4 295 296 337 336
4 296 297 338 337
4 297 298 339 338
4 298 299 340 339
4 299 300 341 340
4 300 301 342 341
4 301 302 343 342
4 302 303 344 343
4 303 304 345 344
4 304 305 346 345
4 305 306 347 346
4 306 307 348 347
4 307 308 349 348
4 308 309 350 349
4 309 310 351 350
4 310 311 352 351
4 311 312 353 352
4 312 313 354 353
4 313 314 355 354
4 314 315 356 355
4 315 316 357 356
4 316 317 358 357
4 317 318 359 358
4 318 319 360 359
4 319 320 361 360
4 320 321 362 361
4 321 322 363 362
4 322 323 364 363
4 323 324 365 364
4 324 325 366 365
4 325 326 367 366
4 326 327 368 367
4 328 329 370 369
4 329 330 371 370
4 330 331 372 371
4 331 332 373 372
4 332 333 374 373
4 333 334 375 374
4 334 335 376 375
4 335 336 377 376
4 336 337 378 377
4 337 338 379 378
4 338 339 380 379
4 339 340 381 380
4 340 341 382 381
4 341 342 383 382
4 342 343 384 383
4 343 344 385 384
4 344 345 386 385
4 345 346 387 386
4 346 347 388 387
4 347 348 389 388
4 348 349 390 389
4 349 350 391 390
4 350 351 392 391
4 351 352 393 392
4 352 353 394 393
4 353 354 395 394
4 354 355 396 395
4 355 356 397 396
4 356 357 398 397
4 357 358 399 398
4 358 359 400 399
4 359 360 401 400
4 360 361 402 401
4 361 362 403 402
4 362 363 404 403
4 363 364 405 404
4 364 365 406 405
4 365 366 407 406
4 366 367 408 407
4 367 368 409 408
4 369 370 411 410
4 370 371 412 411
4 371 372 413 412
4 372 373 414 413
4 373 374 415 414
4 374 375 416 415
4 375 376 417 416
4 376 377 418 417
4 377 378 419 418
4 378 379 420 419
4 379 380 421 420
4 380 381 422 421
4 381 382 423 422
4 382 383 424 423
4 383 384 425 424
4 384 385 426 425
4 385 386 427 426
4 386 387 428 427
4 387 388 429 428
4 388 389 430 429
4 389 390 431 430
4 390 391 432 431
4 391 392 433 432
4 392 393 434 433
4 393 394 435 434
4 394 395 436 435
4 395 396 437 436
4 396 397 438 437
4 397 398 439 438
4 398 399 440 439
4 399 400 441 440
4 400 401 442 441
4 401 402 443 442
4 402 403 444 443
4 403 404 445 444
4 404 405 446 445
4 405 406 447 446
4 406 407 448 447
4 407 408 449 448
4 408 409 450 449
4 410 411 452 451
4 411 412 453 452
4 412 413 454 453
4 413 414 455 454
4 414 415 456 455
4 415 416 457 456
4 416 417 458 457
4 417 418 459 458
4 418 419 460 459
4 419 420 461 460
4 420 421 462 461
4 421 422 463 462
4 422 423 464 463
4 423 424 465 464
4 424 425 466 465
4 425 426 467 466
4 426 427 468 467
4 427 428 469 468
4 428 429 470 469
4 429 430 471 470
4 430 431 472 471
4 431 432 473 472
4 432 433 474 473
4 433 434 475 474
4 434 435 476 475
4 435 436 477 476
4 436 437 478 477
4 437 438 479 478
4 438 439 480 479
4 439 440 481 480
4 440 441 482 481
4 441 442 483 482
4 442 443 484 483
4 443 444 485 484
4 444 445 486 485
4 445 446 487 486
4 446 447 488 487
4 447 448 489 488
4 448 449 490 489
4 449 450 491 490
4 451 452 493 492
4 452 453 494 493
4 453 454 495 494
4 454 455 496 495
4 455 456 497 496
4 456 457 498 497
4 457 458 499 498
4 458 459 500 499
4 459 460 501 500
4 460 461 502 501
4 461 462 503 502
4 462 463 504 503
4 463 464 505 504
4 464 465 506 505
4 465 466 507 506
4 466 467 508 507
4 467 468 509 508
4 468 469 510 509
4 469 470 511 510
4 470 471 512 511
4 471 472 513 512
4 472 473 514 513
4 473 474 515 514
4 474 475 516 515
4 475 476 517 516
4 476 477 518 517
4 477 478 519 518
4 478 479 520 519
4 479 480 521 520
4 480 481 522 521
4 481 482 523 522
4 482 483 524 523
4 483 484 525 524
4 484 485 526 525
4 485 486 527 526
4 486 487 528 527
4 487 488 529 528
4 488 489 530 529
4 489 490 531 530
4 490 491 532 531
4 492 493 534 533
4 493 494 535 534
4 494 495 536 535
4 495 496 537 536
4 496 497 538 537
4 497 498 539 538
4 498 499 540 539
4 499 500 541 540
4 500 501 542 541
4 501 502 543 542
4 502 503 544 543
4 503 504 545 544
4 504 505 546 545
4 505 506 547 546
4 506 507 548 547
4 507 508 549 548
4 508 509 550 549
4 509 510 551 550
4 510 511 552 551
4 511 512 553 552
4 512 513 554 553
4 513 514 555 554
4 514 515 556 555
4 515 516 557 556
4 516 517 558 557
4 517 518 559 558
4 518 519 560 559
4 519 520 561 560
4 520 521 562 561
4 521 522 563 562
4 522 523 564 563
4 523 524 565 564
4 524 525 566 565
4 525 526 567 566
4 526 527 568 567
4 527 528 569 568
4 528 529 570 569
4 529 530 571 570
4 530 531 572 571
4 531 532 573 572
4 533 534 575 574
4 534 535 576 575
4 535 536 577 576
4 536 537 578 577
4 537 538 579 578
4 538 539 580 579
4 539 540 581 580
4 540 541 582 581
4 541 542 583 582
4 542 543 584 583
4 543 544 585 584
4 544 545 586 585
4 545 546 587 586
4 546 547 588 587
4 547 548 589 588
4 548 549 590 589
4 549 550 591 590
4 550 551 592 591
4 551 552 593 592
4 552 553 594 593
4 553 554 595 594
4 554 555 596 595
4 555 556 597 596
4 556 557 598 597
4 557 558 599 598
4 558 559 600 599
4 559 560 601 600
4 560 561 602 601
4 561 562 603 602
4 562 563 604 603
4 563 564 605 604
4 564 565 606 605
4 565 566 607 606
4 566 567 608 607
4 567 568 609 608
4 568 569 610 609
4 569 570 611 610
4 570 571 612 611
4 571 572 613 612
4 572 573 614 613
4 574 575 616 615
4 575 576 617 616
4 576 577 618 617
4 577 578 619 618
4 578 579 620 619
4 579 580 621 620
4 580 581 622 621
4 581 582 623 622
4 582 583 624 623
4 583 584 625 624
4 584 585 626 625
4 585 586 627 626
4 586 587 628 627
4 587 588 629 628
4 588 589 630 629
4 589 590 631 630
4 590 591 632 631
4 591 592 633 632
4 592 593 634 633
4 593 594 635 634
4 594 595 636 635
4 595 596 637 636
4 596 597 638 637
4 597 598 639 638
4 598 599 640 639
4 599 600 641 640
4 600 601 642 641
4 601 602 643 642
4 602 603 644 643
4 603 604 645 644
4 604 605 646 645
4 605 606 647 646
4 606 607 648 647
4 607 608 649 648
4 608 609 650 649
4 609 610 651 650
4 610 611 652 651
4 611 612 653 652
4 612 613 654 653
4 613 614 655 654
4 615 616 657 656
4 616 617 658 657
4 617 618 659 658
4 618 619 660 659
4 619 620 661 660
4 620 621 662 661
4 621 622 663 662
4 622 623 664 663
4 623 624 665 664
4 624 625 666 665
4 625 626 667 666
4 626 627 668 667
4 627 628 669 668
4 628 629 670 669
4 629 630 671 670
4 630 631 672 671
4 631 632 673 672
4 632 633 674 673
4 633 634 675 674
4 634 635 676 675
4 635 636 677 676
4 636 637 678 677
4 637 638 679 678
4 638 639 680 679
4 639 640 681 680
4 640 641 682 681
4 641 642 683 682
4 642 643 684 683
4 643 644 685 684
4 644 645 686 685
4 645 646 687 686
4 646 647 688 687
4 647 648 689 688
4 648 649 690 689
4 649 650 691 690
4 650 651 692 691
4 651 652 693 692
4 652 653 694 693
4 653 654 695 694
4 654 655 696 695
4 656 657 698 697
4 657 658 699 698
4 658 659 700 699
4 659 660 701 700
4 660 661 702 701
4 661 662 703 702
4 662 663 704 703
4 663 664 705 704
4 664 665 706 705
4 665 666 707 706
4 666 667 708 707
4 667 668 709 708
4 668 669 710 709
4 669 670 711 710
4 670 671 712 711
4 671 672 713 712
4 672 673 714 713
4 673 674 715 714
4 674 675 716 715
4 675 676 717 716
4 676 677 718 717
4 677 678 719 718
4 678 679 720 719
4 679 680 721 720
4 680 681 722 721
4 681 682 723 722
4 682 683 724 723
4 683 684 725 724
4 684 685 726 725
4 685 686 727 726
4 686 687 728 727
4 687 688 729 728
4 688 689 730 729
4 689 690 731 730
4 690 691 732 731
4 691 692 733 732
4 692 693 734 733
4 693 694 735 734
4 694 695 736 735
4 695 696 737 736
4 697 698 739 738
4 698 699 740 739
4 699 700 741 740
4 700 701 742 741
4 701 702 743 742
4 702 703 744 743
4 703 704 745 744
4 704 705 746 745
4 705 706 747 746
4 706 707 748 747
4 707 708 749 748
4 708 709 750 749
4 709 710 751 750
4 710 711 752 751
4 711 712 753 752
4 712 713 754 753
4 713 714 755 754
4 714 715 756 755
4 715 716 757 756
4 716 717 758 757
4 717 718 759 758
4 718 719 760 759
4 719 720 761 760
4 720 721 762 761
4 721 722 763 762
4 722 723 764 763
4 723 724 765 764
4 724 725 766 765
4 725 726 767 766
4 726 727 768 767
4 727 728 769 768
4 728 729 770 769
4 729 730 771 770
4 730 731 772 771
4 731 732 773 772
4 732 733 774 773
4 733 734 775 774
4 734 735 776 775
4 735 736 777 776
4 736 737 778 777
4 738 739 780 779
4 739 740 781 780
4 740 741 782 781
4 741 742 783 782
4 742 743 784 783
4 743 744 785 784
4 744 745 786 785
4 745 746 787 786
4 746 747 788 787
4 747 748 789 788
4 748 749 790 789
4 749 750 791 790
4 750 751 792 791
4 751 752 793 792
4 752 753 794 793
4 753 754 795 794
4 754 755 796 795
4 755 756 797 796
4 756 757 798 797
4 757 758 799 798
4 758 759 800 799
4 759 760 801 800
4 760 761 802 801
4 761 762 803 802
4 762 763 804 803
4 763 764 805 804
4 764 765 806 805
4 765 766 807 806
4 766 767 808 807
4 767 768 809 808
4 768 769 810 809
4 769 770 811 810
4 770 771 812 811
4 771 772 813 812
4 772 773 814 813
4 773 774 815 814
4 774 775 816 815
4 775 776 817 816
4 776 777 818 817
4 777 778 819 818
4 779 780 821 820
4 780 781 822 821
4 781 782 823 822
4 782 783 824 823
4 783 784 825 824
4 784 785 826 825
4 785 786 827 826
4 786 787 828 827
4 787 788 829 828
4 788 789 830 829
4 789 790 831 830
4 790 791 832 831
4 791 792 833 832
4 792 793 834 833
4 793 794 835 834
4 794 795 836 835
4 795 796 837 836
4 796 797 838 837
4 797 798 839 838
4 798 799 840 839
4 799 800 841 840
4 800 801 842 841
4 801 802 843 842
4 802 803 844 843
4 803 804 845 844
4 804 805 846 845
4 805 806 847 846
4 806 807 848 847
4 807 808 849 848
4 808 809 850 849
4 809 810 851 850
4 810 811 852 851
4 811 812 853 852
4 812 813 854 853
4 813 814 855 854
4 814 815 856 855
4 815 816 857 856
4 816 817 858 857
4 817 818 859 858
4 818 819 860 859
CELL_TYPES 800
9
9
9
9
9
9
9
9
9
9
9
9
9
9
9
9
9
9
9
9
9
9
9
9
9
9
9
9
9
9
9
9
9
9
9
9
9
9
9
9
9
9
9
9
9
9
9
9
9
9
9
9
9
9
9
9
9
9
9
9
9
9
9
9
9
9
9
9
9
9
9
9
9
9
9
9
9
9
9
9
9
9
9
9
9
9
9
9
9
9
9
9
9
9
9
9
9
9
9
9
9
9
9
9
9
9
9
9
9
9
9
9
9
9
9
9
9
9
9
9
9
9
9
9
9
9
9
9
9
9
9
9
9
9
9
9
9
9
9
9
9
9
9
9
9
9
9
9
9
9
9
9
9
9
9
9
9
9
9
9
9
9
9
9
9
9
9
9
9
9
9
9
9
9
9
9
9
9
9
9
9
9
9
9
9
9
9
9
9
9
9
9
9
9
9
9
9
9
9
9
9
9
9
9
9
9
9
9
9
9
9
9
9
9
9
9
9
9
9
9
9
9
9
9
9
9
9
9
9
9
9
9
9
9
9
9
9
9
9
9
9
9
9
9
9
9
9
9
9
9
9
9
9
9
9
9
9
9
9
9
9
9
9
9
9
9
9
9
9
9
9
9
9
9
9
9
9
9
9
9
9
9
9
9
9
9
9
9
9
9
9
9
9
9
9
9
9
9
9
9
9
9
9
9
9
9
9
9
9
9
9
9
9
9
9
9
9
9
9
9
9
9
9
9
9
9
9
9
9
9
9
9
9
9
9
9
9
9
9
9
9
9
9
9
9
9
9
9
9
9
9
9
9
9
9
9
9
9
9
9
9
9
9
9
9
9
9
9
9
9
9
9
9
9
9
9
9
9
9
9
9
9
9
9
9
9
9
9
9
9
9
9
9
9
9
9
9
9
9
9
9
9
9
9
9
9
9
9
9
9
9
9
9
9
9
9
9
9
9
9
9
9
9
9
9
9
9
9
9
9
9
9
9
9
9
9
9
9
9
9
9
9
9
9
9
9
9
9
9
9
9
9
9
9
9
9
9
9
9
9
9
9
9
9
9
9
9
9
9
9
9
9
9
9
9
9
9
9
9
9
9
9
9
9
9
9
9
9
9
9
9
9
9
9
9
9
9
9
9
9
9
9
9
9
9
9
9
9
9
9
9
9
9
9
9
9
9
9
9
9
9
9
9
9
9
9
9
9
9
9
9
9
9
9
9
9
9
9
9
9
9
9
9
9
9
9
9
9
9
9
9
9
9
9
9
9
9
9
9
9
9
9
9
9
9
9
9
9
9
9
9
9
9
9
9
9
9
9
9
9
9
9
9
9
9
9
9
9
9
9
9
9
9
9
9
9
9
9
9
9
9
9
9
9
9
9
9
9
9
9
9
9
9
9
9
9
9
9
9
9
9
9
9
9
9
9
9
9
9
9
9
9
9
9
9
9
9
9
9
9
9
9
9
9
9
9
9
9
9
9
9
9
9
9
9
9
9
9
9
9
9
9
9
9
9
9
9
9
9
9
9
9
9
9
9
9
9
9
9
9
9
9
9
9
9
9
9
9
9
9
9
9
9
9
9
9
9
9
9
9
9
9
9
9
9
9
9
9
9
9
9
9
9
9
9
9
9
9
9
9
9
9
9
9
9
9
9
9
9
9
9
9
9
9
9
9
9
9
9
9
9
9
9
9
9
9
9
9
9
9
9
9
9
9
9
9
9
9
9
9
9
9
9
9
9
9
9
9
9
9
9
9
9
9
9
9
9
9
9
9
9
9
9
9
9
9
9
9
9
9
9
9
9
9
9
9
9
9
9
9
POINT_DATA 861
SCALARS Disp float 2
LOOKUP_TABLE default
0.0 0.0
0.005627003228923362 -0.23285136694719005
0.006910028937119487 -0.4567468596353138
0.007686314659592994 -0.6796412001945159
0.008677316985104959 -0.9021834366454058
0.010249751005220199 -1.123990168528744
0.012976581414496525 -1.3445543548254555
0.017549276117152058 -1.5632395549383469
0.024779355432407627 -1.7792522153254375
0.03555116275979988 -1.991563453016043
0.050751188798863464 -2.198787943514376
0.07122450197519886 -2.399105426818878
0.09775474199725243 -2.5902778573187275
0.13105582539816826 -2.769752457291763
0.17177102095021776 -2.934740355880413
0.2204066673909117 -3.082276528539087
0.2772093382124736 -3.2092938722217315
0.34201529599827657 -3.3127447397148733
0.4141187040820891 -3.3898076961072863
0.49221294651186837 -3.438131628311051
0.5742112051838929 -3.4561079240806705
0.6562094638559126 -3.4381316283109427
0.7343037062856758 -3.3898076961070673
0.8064071143694604 -3.3127447397145566
0.8712130721552271 -3.209293872221334
0.9280157429767504 -3.0822765285386335
0.9766513894174058 -2.934740355879915
1.0173665849694158 -2.7697524572912364
1.0506676683702922 -2.590277857318188
1.0771979083923091 -2.3991054268183434
1.0976712215686113 -2.1987879435138593
1.1128712476076474 -1.9915634530155566
1.1236430549350183 -1.7792522153249875
1.130873134250258 -1.563239554937941
1.1354458289529024 -1.3445543548250973
1.1381726593621722 -1.1239901685284404
1.1397450933822846 -0.902183436645157
1.1407360957077954 -0.6796412001943253
1.1415123814302688 -0.45674685963517986
1.1427954071384636 -0.23285136694711556
1.1484224103673832 0.0
0.058083095102449876 -0.0023528448109671227
0.06200299976425268 -0.23309881125712426
0.06267631937605819 -0.4568084482431007
0.06336578698425498 -0.679729346562791
0.06423751494561404 -0.9023217385645389
0.06557738860744623 -1.1242906497839382
0.06792444232759035 -1.3451731263896027
0.07193200236754184 -1.564362546846865
0.07836269718201333 -1.7810869880998081
0.08802445443534393 -1.9943213325532445
0.1017083042513413 -2.20267189502439
0.12015298611784728 -2.4043052146000203
0.14404752731996223 -2.5969701549140916
0.17404169948402776 -2.7781005195892785
0.21072383614099022 -2.944886965618175
0.25456652684759445 -3.0943209657837634
0.3058149644727331 -3.223257774657381
0.36435282141234293 -3.3285368890421028
0.42957847324556564 -3.40719572166159
0.500262437285702 -3.4567183217180357
0.5742112051838796 -3.4751881465296806
0.6481599730820525 -3.456718321717925
0.7188439371221739 -3.4071957216613655
0.7840695889553722 -3.328536889041778
0.8426074458949504 -3.223257774656975
0.8938558835200547 -3.0943209657833006
0.9376985742266241 -2.9448869656176684
0.9743807108835509 -2.7781005195887425
1.0043748830475812 -2.5969701549135435
1.028269424249663 -2.4043052145994768
1.046714106116139 -2.202671895023867
1.0603979559321115 -1.9943213325527522
1.0700597131854228 -1.7810869880993538
1.0764904079998796 -1.5643625468464557
1.0804979680398212 -1.345173126389243
1.0828450217599594 -1.1242906497836338
1.0841848954217896 -0.9023217385642899
1.085056623383148 -0.6797293465626003
1.0857460909913446 -0.4568084482429668
1.08641941060315 -0.2330988112570494
1.0903393152649472 -0.002352844810964612
0.11520779211134831 -0.0042169246351889044
0.1180756960575253 -0.23322093952679318
0.1184625421124916 -0.4568420146688984
0.11902539629435774 -0.6798071007205838
0.11978707671374414 -0.9024327817548198
0.12091811245733197 -1.1245284441109333
0.12289384458404873 -1.3456849908839692
0.12633886875416406 -1.5653245794019925
0.13195668165052143 -1.78269226017302
0.14048160549011643 -1.9967608168669746
0.1526135066978245 -2.2061242581614144
0.1689943579960934 -2.408935281912061
0.19022105276719678 -2.6029338589608058
0.21686621671778153 -2.785546426029282
0.24946753339804298 -2.95394638688118
0.28846351696034367 -3.1050884697574306
0.3341070652237817 -3.2357618029985007
0.3863460188350177 -3.3427064613684445
0.4446778559505498 -3.422826154937382
0.5079436870055978 -3.4734106072483866
0.5742112051838668 -3.492327545391548
0.6404787233621313 -3.4734106072482733
0.7037445544171655 -3.4228261549371535
0.762076391532676 -3.3427064613681132
0.8143153451438846 -3.2357618029980864
0.8599588934072923 -3.1050884697569603
0.8989548769695617 -2.9539463868806655
0.9315561936497916 -2.7855464260287386
0.958201357600345 -2.6029338589602493
0.9794280523714191 -2.40893528191151
0.9958089036696611 -2.206124258160884
1.0079408048773473 -1.9967608168664772
1.016465728716925 -1.7826922601725619
1.022083541613269 -1.5653245794015809
1.0255285657833755 -1.3456849908836075
1.0275042979100877 -1.1245284441106282
1.0286353336536738 -0.9024327817545705
1.0293970140730597 -0.6798071007203931
1.0299598682549258 -0.4568420146687645
1.030346714309892 -0.233220939526718
1.0332146182560635 -0.0042169246351836664
0.17182792330732036 -0.005713478055537437
0.17399066161150895 -0.23330406078280186
0.1742268961272069 -0.4568606669066337
0.17466740699750355 -0.6798703352134025
0.1753208599309995 -0.9025241447748541
0.1762684650953422 -1.1247111964835945
0.17789436283601534 -1.34609358961571
0.18078312439034191 -1.5661268415070002
0.18558354825031417 -1.78406521220387
0.19295584378830016 -1.99887653423655
0.2035132377346443 -2.2091384516275325
0.21780505681876566 -2.412989764711638
0.23634042618511863 -2.6081631801019456
0.2596134459023428 -2.7920820158174893
0.28809862391501323 -2.9619086332224738
0.3222074634034744 -3.1145683263361303
0.3622044111206047 -3.246796465237651
0.4081009873659856 -3.3552470655033297
0.45950036475091727 -3.4366929149364944
0.5154171292824501 -3.4882489121168123
0.5742112051838544 -3.5076170685315455
0.6330052810852543 -3.4882489121166973
0.6889220456167748 -3.4366929149362613
0.7403214230016871 -3.3552470655029927
0.7862179992470445 -3.2467964652372303
0.8262149469641482 -3.114568326335653
0.8603237864525818 -2.961908633221952
0.8888089644652247 -2.7920820158169386
0.9120819841824213 -2.6081631801013825
0.9306173535487485 -2.412989764711081
0.9449091726328469 -2.2091384516269965
0.9554665665791715 -1.9988765342360484
0.962838862117142 -1.7840652122034086
0.9676392859771027 -1.5661268415065863
0.9705280475314217 -1.346093589615347
0.9721539452720912 -1.124711196483289
0.9731015504364326 -0.9025241447746047
0.9737550033699282 -0.6798703352132117
0.974195514240225 -0.45686066690649985
0.9744317487559229 -0.2333040607827263
0.9765944870601068 -0.005713478055529745
0.22815962517323654 -0.006921556117641468
0.22979682212131997 -0.233369111348669
0.2299510515298246 -0.45687139485287137
0.23028818990845526 -0.6799194620256501
0.23083541890159373 -0.902599361080747
0.23162045438163306 -1.1248503016262121
0.23293242322667093 -1.3464065533505187
0.2352773108939631 -1.5667721082347996
0.23926576014102868 -1.7852061503143377
0.24548063251005817 -2.0006661934058414
0.25445257658967957 -2.2117113589660224
0.26664310873932756 -2.4164651644965285
0.2824731893400589 -2.612654830238452
0.3023591752744899 -2.797703719037809
0.3267159393469854 -2.9687679986472633
0.3559140244346213 -3.1227529181006233
0.3902267174590152 -3.2563523918462427
0.42973112063875 -3.3661475227288284
0.47416453328167923 -3.448796473864711
0.522768596059398 -3.5012634131009244
0.5742112051838422 -3.521107154385926
0.6256538143082825 -3.5012634131008076
0.6742578770859898 -3.448796473864474
0.7186912897289022 -3.366147522728486
0.7581956929086168 -3.256352391845817
0.7925083859329877 -3.1227529181001397
0.8217064710205997 -2.9687679986467357
0.8460632350930716 -2.797703719037252
0.865949221027479 -2.612654830237883
0.8817793016281882 -2.416465164495965
0.8939698337778168 -2.2117113589654815
0.9029417778574215 -2.000666193405336
0.9091566502264373 -1.7852061503138736
0.9131450994734932 -1.5667721082343837
0.9154899871407791 -1.3464065533501546
0.9168019559858142 -1.1248503016259062
0.9175869914658527 -0.9025993610804978
0.918134220458991 -0.6799194620254594
0.9184713588376215 -0.45687139485273753
0.9186255882461263 -0.2333691113485932
0.9202627851942056 -0.006921556117631645
0.2843006265045622 -0.00789097457710086
0.2855268230320717 -0.23342322486335054
0.285633248315909 -0.45687895359665076
0.28588489447240667 -0.6799558197794237
0.2863273281279656 -0.9026609942318525
0.286967993424683 -1.1249555555784037
0.28800039138607275 -1.346636775425075
0.2898405602938403 -1.5672659450313207
0.2930259672939335 -1.7861179323622112
0.2980896790821139 -2.0021308542918734
0.30547695086360194 -2.2138427799104705
0.3155645546405005 -2.4193613004360874
0.3286890226873286 -2.616408552225949
0.3451877515049711 -2.802411002688593
0.3654107087607 -2.9745238775400225
0.3896943623896845 -3.12963901009008
0.41830283125776546 -3.2644210076782256
0.45136696414423155 -3.3753964648458346
0.4887857486980965 -3.459133465134924
0.5300686211633353 -3.512468931982042
0.5742112051838297 -3.5328276107543584
0.6183537892043206 -3.512468931981923
0.6596366616695498 -3.4591334651346837
0.6970554462234003 -3.375396464845488
0.7301195791098491 -3.2644210076777953
0.7587280479779108 -3.1296390100895906
0.783011701606875 -2.974523877539489
0.8032346588625843 -2.8024110026880305
0.8197333876802072 -2.6164085522253746
0.8328578557270172 -2.41936130043552
0.8429454595038994 -2.2138427799099256
0.8503327312853736 -2.0021308542913645
0.8553964430735427 -1.7861179323617442
0.8585818500736276 -1.5672659450309032
0.8604220189813906 -1.3466367754247104
0.8614544169427781 -1.1249555555780977
0.862095082239495 -0.9026609942316032
0.8625375158950538 -0.679955819779233
0.8627891620515515 -0.4568789535965169
0.8628955873353888 -0.2334232248632746
0.864121783862895 -0.00789097457708917
0.3403025158819732 -0.008659879957806958
0.3412032051658591 -0.23346905679981977
0.3412784640012527 -0.4568857554845566
0.34145725324761766 -0.679980834580294
0.3417961361117573 -0.9027101751457459
0.3423041787770613 -1.1250348435917537
0.34308893688491326 -1.3467994484570718
0.3444699914163549 -1.5676224571864632
0.3468912002473511 -1.7868065583350528
0.3508176587976935 -2.003274669428901
0.35663288693413436 -2.215536014756082
0.3646279176158971 -2.4216811516844
0.3750574434047386 -2.6194277017933354
0.3881815712849003 -2.806207404053185
0.40428522963064556 -2.9791788269749557
0.4236591252172828 -3.1352278102451585
0.4465577920064022 -3.270998311333199
0.4731515113715364 -3.382982744042264
0.5034906649652536 -3.467692670287325
0.5373883359717371 -3.5218645568215026
0.5742112051838172 -3.5427910538860816
0.611034074395894 -3.5218645568213827
0.6449317454023699 -3.4676926702870823
0.6752708989960748 -3.3829827440419136
0.7018646183611948 -3.2709983113327645
0.7247632851502985 -3.135227810244665
0.7441371807369194 -2.9791788269744184
0.7602408390826488 -2.806207404052618
0.7733649669627952 -2.6194277017927567
0.7837944927516226 -2.421681151683829
0.7917895234333722 -2.215536014755534
0.7976047515698019 -2.0032746694283894
0.8015312101201351 -1.7868065583345838
0.8039524189511252 -1.5676224571860444
0.8053334734825633 -1.3467994484567067
0.806118231590414 -1.125034843591447
0.8066262742557175 -0.9027101751454967
0.8069651571198571 -0.6799808345801033
0.807143946366222 -0.45688575548442284
0.8072192052016156 -0.23346905679974364
0.808119894485499 -0.008659879957793746
0.3961999450122119 -0.009258853132290227
0.3968428290568368 -0.23350867797427405
0.39689390229944316 -0.45689231468280656
0.3970069988250533 -0.6799958338763473
0.3972439425605405 -0.9027465605551995
0.3976223793755275 -1.1250941102314578
0.39819268137464053 -1.3469084115656058
0.3991602838461028 -1.5678605398235714
0.40087276786432324 -1.787286674390577
0.4037035099437475 -2.0041059309703617
0.40796933371992034 -2.2167978157562187
0.4138922189763254 -2.4234313011875517
0.4216506388988387 -2.6217195770882196
0.43142713564277 -2.8091006978259134
0.44343705554896656 -2.982740287958445
0.4579241763431328 -3.1395245977281503
0.47512519870104736 -3.2760852969043515
0.49523009873662643 -3.388897845700009
0.5184163343537352 -3.474454978196556
0.5448085712896769 -3.529432048928995
0.574211205183804 -3.5509925012053354
0.6036138390779294 -3.529432048928873
0.6300060760138649 -3.4744549781963108
0.6531923116309643 -3.388897845699656
0.6732972116665323 -3.276085296903914
0.6904982340244342 -3.1395245977276534
0.704985354818588 -2.982740287957904
0.716995274724773 -2.8091006978253437
0.7267717714686934 -2.6217195770876387
0.7345301913911962 -2.4234313011869775
0.7404530766475912 -2.216797815755669
0.7447189004237557 -2.004105930969848
0.7475496425031735 -1.787286674390107
0.7492621265213898 -1.5678605398231518
0.7502297289928498 -1.34690841156524
0.7508000309919619 -1.1250941102311516
0.7511784678069486 -0.9027465605549501
0.7514154115424356 -0.6799958338761566
0.7515285080680458 -0.4568923146826728
0.7515795813106521 -0.23350867797419783
0.7522224653552751 -0.009258853132275792
0.45201385374666525 -0.009716809914932912
0.45246145570847573 -0.23354389657842067
0.45248616635339806 -0.4568978299186393
0.4525372201677147 -0.6800018718715188
0.4526749619390896 -0.902769475648878
0.4529202807964211 -1.1251359701090853
0.45329692056926263 -1.3469780441267658
0.4539051884431098 -1.5680020881952927
0.4549728799619989 -1.7875814687329625
0.45677290648696917 -2.004642136287187
0.4595371501928725 -2.217640401333326
0.46342378732396483 -2.424623098471628
0.4685443444559394 -2.6232962001393165
0.47501218009639096 -2.8111039267170344
0.48297075806116585 -2.9852207477141874
0.49260548297582957 -3.142539897933861
0.5041325773389996 -3.279689977198288
0.5177633156665391 -3.3931388148773776
0.5337290544090365 -3.4793954008566024
0.5524304033170134 -3.5351337637701907
0.5742112051837907 -3.5574073420739234
0.5959920070505672 -3.5351337637700677
0.6146933559585398 -3.4793954008563555
0.6306590947010303 -3.3931388148770227
0.6442898330285618 -3.2796899771978483
0.6558169273917233 -3.142539897933361
0.6654516523063787 -2.9852207477136448
0.6734102302711463 -2.811103926716463
0.6798780659115911 -2.6232962001387334
0.684998623043559 -2.424623098471052
0.6888852601746449 -2.217640401332774
0.6916495038805425 -2.0046421362866718
0.6934495304055089 -1.7875814687324914
0.6945172219243956 -1.5680020881948726
0.6951254897982413 -1.3469780441263999
0.6955021295710825 -1.1251359701087789
0.6957474484284139 -0.9027694756486285
0.6958851901997886 -0.6800018718713281
0.6959362440141053 -0.4568978299185055
0.6959609546590274 -0.23354389657834446
0.6964085566208368 -0.009716809914917532
0.5077587359149504 -0.01006307300340297
0.508067703889997 -0.23357706084236143
0.5080613283338676 -0.4569005735233893
0.5080519649674621 -0.6799997178088937
0.5080934816176126 -0.9027788365471786
0.508202615402234 -1.1251596469768426
0.508388254178133 -1.3470182928073615
0.5086856382710575 -1.568072940833654
0.5091851119059729 -1.787724059103245
0.5100390872003929 -2.004914173576406
0.5113760165086699 -2.2180887090954893
0.513285258838834 -2.4252774962273014
0.5158152070937153 -2.6241774856457987
0.5190210125732266 -2.8122381625177564
0.5229798579421111 -2.986641429750603
0.5278087355765813 -3.1442918032442124
0.533687240145825 -3.281826994714325
0.5408588964032168 -3.3957175562164155
0.5496102267977757 -3.482495345298668
0.560409279953974 -3.5389096983995967
0.574211205183777 -3.5619828255694204
0.5880131304135798 -3.5389096983994732
0.5988121835697758 -3.4824953452984206
0.6075635139643308 -3.395717556216059
0.6147351702217178 -3.2818269947138834
0.6206136747909573 -3.144291803243711
0.6254425524254236 -2.9866414297500588
0.629401397794305 -2.8122381625171835
0.6326072032738139 -2.6241774856452147
0.6351371515286922 -2.425277496226724
0.6370463938588534 -2.218088709094936
0.6383833231671279 -2.00491417357589
0.6392372984615464 -1.7877240591027737
0.6397367720964607 -1.568072940833234
0.6400341561893848 -1.3470182928069956
0.6402197949652836 -1.1251596469765361
0.640328928749905 -0.9027788365469293
0.6403704454000555 -0.6799997178087029
0.6403610820336499 -0.4569005735232554
0.6403547064775204 -0.23357706084228524
0.6406636744525664 -0.010063073003386951
0.5634512517404381 -0.010322830450017093
0.5636627198980774 -0.23361073010476116
0.5636243902378345 -0.4568988848774341
0.5635557536636319 -0.6799898755501222
0.5635036039561788 -0.9027748300062326
0.5634770889371626 -1.1251643600696388
0.5634670139619091 -1.3470309865869576
0.5634638134103672 -1.5680949535293764
0.56346294159773 -1.7877627122895703
0.5634630063006804 -2.0049833583889014
0.5634631983073535 -2.218202974523079
0.5634624770311131 -2.4254479174597003
0.5634558751447958 -2.624414014344206
0.563440008660338 -2.812551958936284
0.5634243008745878 -2.9870492781089566
0.5634616733208785 -3.1448228453541485
0.5636930945709367 -3.2825318052288597
0.5643986313650879 -3.3966708540719774
0.5659829216367226 -3.483786782406872
0.5688968348332488 -3.54070647184062
0.5742112051837628 -3.564632568082149
0.5795255755342774 -3.540706471840496
0.582439488730803 -3.4837867824066238
0.5840237790024366 -3.3966708540716204
0.5847293157965869 -3.2825318052284183
0.5849607370466461 -3.144822845353647
0.5849981094929373 -2.9870492781084117
0.5849824017071882 -2.8125519589357113
0.5849665352227321 -2.624414014343622
0.5849599333364158 -2.425447917459123
0.5849592120601764 -2.2182029745225256
0.5849594040668505 -2.0049833583883854
0.5849594687698011 -1.7877627122890989
0.5849585969571642 -1.5680949535289561
0.5849553964056224 -1.3470309865865917
0.584945321430369 -1.1251643600693322
0.584918806411353 -0.9027748300059831
0.5848666567039001 -0.6799898755499315
0.5847980201296974 -0.4568988848773002
0.5847596904694544 -0.23361073010468505
0.5849711586270934 -0.010322830450000639
0.6191024182088907 -0.010520200433271372
0.6192466993689988 -0.2336445289457542
0.6191794020011763 -0.4568924525624925
0.6190534687923189 -0.679972519007318
0.6189103975648765 -0.9027578778210387
0.6187503920673258 -1.1251499752019818
0.6185454302699445 -1.3470157329590062
0.6182415614775496 -1.568072329505724
0.6177404781627326 -1.7877239773189393
0.6168868712144466 -2.0049142046080934
0.6155507385538485 -2.2180887563576492
0.6136389044945811 -2.425275847873936
0.6110949998142203 -2.62417226431231
0.6078579273267819 -2.8122296800468862
0.6038707915136325 -2.9866417874940536
0.5991211962212181 -3.144341958080292
0.5936987660008834 -3.2820186971648844
0.5878623141334937 -3.396208335323048
0.5820455319779086 -3.483466112741247
0.5768796827943754 -3.540638835337806
0.5742112051837485 -3.5654613127078356
0.571542727573121 -3.540638835337682
0.5663768783895881 -3.4834661127409987
0.5605600962340063 -3.3962083353226915
0.5547236443666212 -3.282018697164444
0.5493012141462925 -3.144341958079791
0.5445516188538829 -2.986641787493509
0.5405644830407383 -2.812229680046314
0.5373274105533057 -2.6241722643117265
0.5347835058729505 -2.425275847873359
0.532871671813688 -2.218088756357097
0.531535539153094 -2.0049142046075774
0.5306819322048105 -1.7877239773184685
0.530180848889995 -1.5680723295053032
0.5298769800976009 -1.3470157329586407
0.52967201830022 -1.1251499752016751
0.5295120128026696 -0.9027578778207893
0.5293689415752274 -0.6799725190071272
0.52924300836637 -0.45689245256235844
0.5291757109985474 -0.23364452894567808
0.5293199921586554 -0.01052020043325469
0.6747253025909267 -0.010671487086346201
0.6748235677451708 -0.2336764799629846
0.6747303168560876 -0.45688169221580377
0.6745502001174263 -0.6799478609979166
0.6743196659378058 -0.9027285885797239
0.6740295254143825 -1.1251169184228091
0.6736346710369552 -1.3469728778994072
0.6730203997326142 -1.5680007356804297
0.671952042211896 -1.7875813531903981
0.6701533390032136 -2.0046423794349426
0.6673894159101902 -2.2176401815561237
0.6634993594294946 -2.4246194851730576
0.6583663177765191 -2.6232854710863514
0.651872065554665 -2.81108705461101
0.6438916996649163 -2.985222417983434
0.6343367037053985 -3.1426425418602806
0.6232388783399918 -3.280072779155108
0.610826105680085 -3.394099406851554
0.5975920117374449 -3.4813337407132394
0.5846347274219804 -3.538815978979529
0.5742112051837346 -3.5646399216681255
0.5637876829454882 -3.538815978979405
0.550830398630026 -3.481333740712992
0.5375963046873921 -3.394099406851199
0.5251835320274942 -3.2800727791546698
0.5140857066620975 -3.1426425418597823
0.5045307107025891 -2.9852224179828912
0.49655034481284926 -2.81108705461044
0.49005609259100513 -2.6232854710857696
0.484923050938039 -2.4246194851724825
0.48103299445735187 -2.217640181555573
0.4782690713643361 -2.004642379434428
0.47647036815565846 -1.7875813531899274
0.4754020106349434 -1.5680007356800094
0.47478773933060403 -1.3469728778990417
0.47439288495317733 -1.1251169184225027
0.4741027444297546 -0.9027285885794744
0.47387221025013426 -0.6799478609977258
0.4736920935114729 -0.4568816922156697
0.4735988426223898 -0.23367647996290855
0.4736971077766339 -0.010671487086329316
0.7303367312697134 -0.01078440325509123
0.7303984711920163 -0.23370498359373792
0.7302819328965926 -0.4568669786719075
0.7300511844425407 -0.6799163061161203
0.7297368423627251 -0.9026877089735488
0.7293220799154694 -1.125066287047472
0.7287353361303227 -1.3469002017412532
0.7277631409900174 -1.567858577238172
0.7260523493833886 -1.7872868981473082
0.723223119313171 -2.004106372309049
0.7189566162338819 -2.216797074526734
0.7130300264259422 -2.4234258803125033
0.7052635712340376 -2.6217047164636806
0.6954732718180443 -2.8090779957274115
0.6834566409805137 -2.9827447768242514
0.6690402082387804 -3.1396737970937405
0.6521770586720685 -3.276633111260944
0.6330755520215087 -3.3902760835766244
0.6124214554136992 -3.477343862880763
0.5917342600986758 -3.5351089004681775
0.5742112051837212 -3.562210266590909
0.5566881502687666 -3.535108900468054
0.5360009549537472 -3.4773438628805167
0.5153468583459464 -3.3902760835762717
0.49624535169539896 -3.276633111260508
0.4793822021287012 -3.139673797093245
0.4649657693869815 -2.9827447768237114
0.4529491385494637 -2.809077995726844
0.44315883913348436 -2.6217047164631015
0.43539238394159324 -2.4234258803119304
0.42946579413366537 -2.2167970745261854
0.42519929105438714 -2.004106372308536
0.42237006098417673 -1.7872868981468388
0.42065926937755277 -1.567858577237752
0.4196870742372502 -1.3469002017408878
0.41910033045210476 -1.1250662870471657
0.4186855680048495 -0.9026877089732994
0.41837122592503423 -0.6799163061159295
0.41814047747098243 -0.4568669786717735
0.4180239391755588 -0.23370498359366187
0.41808567909786165 -0.010784403255074211
0.7859474588961443 -0.010864907258391386
0.7859777466331046 -0.23372858341283959
0.7858391314728406 -0.45684853125979635
0.7855609442817574 -0.6798783699536366
0.7851668776799541 -0.9026362295856307
0.7846332760205187 -1.1249986694897267
0.7838344298521344 -1.3467880756741326
0.7824530938316993 -1.567620668235736
0.7800347364853313 -1.7868073760664445
0.776109158546474 -2.0032750920287037
0.7702920570409726 -2.2155345107124624
0.7622937861054799 -2.4216744491457973
0.7518632890579326 -2.6194113819312146
0.7387452050432758 -2.8061839817161673
0.722659368368831 -2.9791887822240297
0.703339623995491 -3.1354101585146843
0.6806499825698956 -3.27166633567024
0.6548146949406105 -3.3847159592529463
0.626744491962638 -3.4714885917315588
0.5985278846199691 -3.5295882078772456
0.5742112051837078 -3.5582524019026853
0.5498945257474478 -3.5295882078771226
0.5216779184047848 -3.471488591731314
0.4936077154268237 -3.384715959252597
0.4677724277975538 -3.271666335669808
0.4450827863719762 -3.1354101585141927
0.4257630419986536 -2.9791887822234933
0.4096772053242261 -2.806183981715604
0.3965591213095869 -2.6194113819306395
0.38612862426205674 -2.421674449145228
0.3781303533265796 -2.215534510711917
0.3723132518210918 -2.0032750920281934
0.3683876738822445 -1.7868073760659768
0.3659693165358832 -1.5676206682353173
0.3645879805154521 -1.3467880756737676
0.3637891343470696 -1.1249986694894205
0.3632555326876348 -0.9026362295853814
0.3628614660858318 -0.6798783699534457
0.36258327889474884 -0.45684853125966235
0.3624446637344849 -0.2337285834127636
0.36247495147144526 -0.010864907258374246
0.8415645630394814 -0.010918477662759185
0.8415674049830384 -0.2337461847075699
0.8414071476937606 -0.45682639937249353
0.8410844325921298 -0.6798345726569948
0.8406159500548436 -0.9025754957886464
0.8399620356826617 -1.1249120887459616
0.8389217715253158 -1.3466232089754133
0.8370835022805593 -1.5672650262672418
0.8339010140100239 -1.7861192718215846
0.8288370081785748 -2.0021309657780746
0.8214470182886066 -2.213840390062999
0.8113574845234925 -2.419354151288721
0.798240758339405 -2.6163943003636154
0.7817713531385074 -2.8023938213955675
0.7615966285589135 -2.9745433421629865
0.7373573204962924 -3.1298390125576567
0.7088415226684254 -3.265161563380681
0.6762941171870728 -3.3774141980063983
0.6408813672198437 -3.4637873976519544
0.6052656498474736 -3.5222976448448504
0.5742112051836946 -3.5527840740841365
0.5431567605199179 -3.522297644844728
0.5075410431475555 -3.4637873976517124
0.47212829318034094 -3.377414198006052
0.43958088769900616 -3.2651615633802544
0.4110650898711604 -3.1298390125571696
0.38682578180856064 -2.9745433421624545
0.36665105722898805 -2.802393821395009
0.350181652028112 -2.6163943003630448
0.3370649258440456 -2.4193541512881565
0.3269753920789503 -2.2138403900624577
0.3195854021889985 -2.0021309657775674
0.3145213963575619 -1.7861192718211192
0.3113389080870351 -1.5672650262668244
0.309500638842284 -1.3466232089750487
0.30846037468494064 -1.1249120887456556
0.30780646031275966 -0.9025754957883971
0.3073379777754737 -0.679834572656804
0.30701526267384327 -0.4568263993723595
0.30685500538456556 -0.23374618470749386
0.30685784732812255 -0.010918477662741973
0.8971929927423935 -0.010950394444963799
0.8971725999671327 -0.23375718088410585
0.8969913750988608 -0.4568005164970913
0.8966265806602942 -0.6797855640333869
0.896087076482556 -0.9025060235716834
0.8953032543801203 -1.1248013316859438
0.8939909386107138 -1.346392123867636
0.8916490764787744 -1.5667721756248845
0.8876620173906383 -1.7852077153358965
0.8814455889577819 -2.0006657272635446
0.8724706236380807 -2.211708148532724
0.8602807024170387 -2.416458695704634
0.844467570581247 -2.612646327552925
0.8246318293313775 -2.7976999443972104
0.8003547593790137 -2.968803088523372
0.771217426319368 -3.122961827246842
0.7369371387202833 -3.2571267574574585
0.6977690343543517 -3.3683852367425287
0.6551113470003823 -3.4542599590481466
0.612119537837281 -3.5132411780023967
0.5742112051836816 -3.5457771217253367
0.5363028725300852 -3.513241178002276
0.4933110633669938 -3.4542599590479073
0.4506533760130416 -3.3683852367421863
0.41148527164713083 -3.2571267574570366
0.37720498404807085 -3.12296182724636
0.3480676509884507 -2.968803088522846
0.3237905810361119 -2.797699944396657
0.30395483978626775 -2.612646327552361
0.2881417079505006 -2.4164586957040743
0.27595178672948106 -2.2117081485321877
0.2669768214097989 -2.0006657272630415
0.2607603929769572 -1.7852077153354335
0.2567733338888316 -1.5667721756244688
0.2544314717568991 -1.3463921238672723
0.2531191559874961 -1.1248013316856382
0.2523353338850615 -0.9025060235714341
0.2517958297073236 -0.6797855640331962
0.2514310352687573 -0.4568005164969574
0.25124981040048555 -0.23375718088402977
0.2512294176252249 -0.010950394444946568
0.9528359520486985 -0.010965916232228631
0.9527975743003649 -0.2337614665086367
0.9525972582291795 -0.4567708754656657
0.9521926189200492 -0.6797319312763258
0.9515829274934159 -0.9024276323464756
0.9506530698566173 -1.124659860185723
0.9490332270949564 -1.346079531082203
0.9461460254548607 -1.5661274041022153
0.9413446865154913 -1.7840665830511218
0.9339696217645567 -1.9988753116864342
0.9234097052617055 -2.209134739851355
0.9091221980656131 -2.4129853550144773
0.8906123706043468 -2.608163587389634
0.8674043239435996 -2.7920973339559603
0.8390258987898538 -2.9619676705923546
0.8050269787994752 -3.1147912976750067
0.7651056479181054 -3.247589833773844
0.7194937829244561 -3.3576602749761677
0.6696989484138365 -3.44291597856086
0.619247883169571 -3.502386234758003
0.5742112051836686 -3.5371654806720416
0.5291745271977701 -3.5023862347578842
0.4787234619535168 -3.442915978560624
0.4289286274429166 -3.3576602749758306
0.3833167624492918 -3.2475898337734286
0.34339543156795 -3.1147912976745316
0.30939651157760056 -2.9619676705918345
0.2810180864238838 -2.7920973339554136
0.2578100397631656 -2.6081635873890767
0.23930021230192763 -2.412985355013924
0.22501270510586086 -2.209134739850824
0.21445278860303157 -1.9988753116859355
0.20707772385211384 -1.7840665830506621
0.20227638491275696 -1.5661274041018018
0.19938918327266938 -1.3460795310818403
0.1977693405110128 -1.1246598601854176
0.196839482874216 -0.9024276323462265
0.196229791447583 -0.6797319312761352
0.19582515213845292 -0.45677087546553174
0.19562483606726777 -0.23376146650856064
0.1955864583189341 -0.01096591623221137
1.0084947623051836 -0.010970372255310544
1.0084455793293914 -0.23375951318424412
1.0082306279056452 -0.4567376360446893
1.0077879092496393 -0.679674260271079
1.0071041648000052 -0.9023381522197436
1.0060058645644274 -1.1244786297385463
1.0040393676420416 -1.3456715327142477
1.0005930607851496 -1.5653248441838488
0.9949715814118752 -1.782692970913795
0.986443026164001 -1.9967587870600303
0.9743098461462545 -2.206120610232874
0.9579377204087071 -2.4089344200040173
0.9367438081921485 -2.60294551342073
0.9101723556614033 -2.7855844078395275
0.8776975115353205 -2.954038290475842
0.8388813785689803 -3.105346424610174
0.7934776663810971 -3.2365996642474855
0.7417009939236622 -3.3452903812231463
0.6849235126864186 -3.4297584259223783
0.6268545550598744 -3.4896640201131732
0.5742112051836554 -3.526836534456242
0.521567855307441 -3.4896640201130564
0.46349889768091157 -3.429758425922146
0.4067214164436901 -3.345290381222815
0.3549447439862834 -3.2365996642470773
0.30954103179843157 -3.105346424609706
0.27072489883212414 -2.95403829047533
0.23825005470607452 -2.7855844078389884
0.21167860217536208 -2.60294551342018
0.19048468995883558 -2.4089344200034715
0.17411256422131666 -2.206120610232349
0.16197938420359445 -1.9967587870595365
0.15345082895573928 -1.7826929709133397
0.14782934958247937 -1.565324844183438
0.14438304272559696 -1.3456715327138866
0.14241654580321642 -1.1244786297382416
0.14131824556764097 -0.9023381522194948
0.14063450111800718 -0.6796742602708883
0.14019178246200178 -0.4567376360445554
0.13997683103825573 -0.2337595131841681
0.13992764806246347 -0.010970372255293244
1.0641682204929492 -0.010969166006342264
1.0641187926683453 -0.23375256226004323
1.063898238666683 -0.4567013967109768
1.0634181333865191 -0.6796124537763266
1.0626492352456907 -0.9022341755847629
1.0613525500300223 -1.124245206263003
1.0590149948099843 -1.3451598036241084
1.0550020797279998 -1.5643615891058853
1.0485653796547285 -1.781086629073805
1.0388995193856654 -1.9943185665952439
1.0252160642580488 -2.2026690263816735
1.0067845713403536 -2.4043093297639366
0.982928628608137 -2.5969946661738494
0.9530135828740166 -2.7781632135305006
0.9164738601274385 -2.9450200069522263
0.8728861514803885 -3.0946447595769904
0.8221150807786889 -3.2242089642540726
0.7645002284541466 -3.3313668106609255
0.7011901498767245 -3.4148116473963865
0.6352732877418876 -3.474955541925436
0.574211205183642 -3.514603687383367
0.5131491226254019 -3.4749555419253215
0.4472322604905819 -3.414811647396159
0.3839221819131851 -3.3313668106606005
0.3263073295886746 -3.224208964253672
0.2755362588870101 -3.0946447595765303
0.23194855023999705 -2.9450200069517227
0.19540882749345595 -2.77816321352997
0.16549378175937196 -2.5969946661733085
0.141637839027191 -2.4043093297633984
0.12320634610952756 -2.2026690263811552
0.10952289098193765 -1.994318566594756
0.09985703071289566 -1.7810866290733536
0.09342033063964043 -1.5643615891054774
0.08940741555766701 -1.345159803623749
0.08706986033763534 -1.1242452062626989
0.08577317512196964 -0.9022341755845144
0.08500427698114178 -0.6796124537761359
0.08452417170097823 -0.456701396710843
0.08430361769931616 -0.2337525622599672
0.08425418987471239 -0.01096916600632495
1.1198512641635012 -0.010967594837782833
1.119818218999599 -0.2337431590205893
1.119608967184985 -0.4566634055620854
1.1190887843982567 -0.6795450136224298
1.118212988966599 -0.9021085674675358
1.1166895831445653 -1.123950764417299
1.1139679634218305 -1.3445399480496711
1.1093863329961868 -1.563236686157897
1.1021486033734762 -1.7792504800240636
1.091372487896113 -1.991560092946182
1.0761746002460537 -2.198786579689896
1.0557183182180576 -2.3991157610909215
1.029231546054995 -2.5903164569536843
0.9960152765366888 -2.769841618600721
0.9554614114902561 -2.934922976131129
0.9071597692379467 -3.082699778673265
0.8510822262586016 -3.210450667012042
0.7878010789790204 -3.31598905611053
0.7186388851915072 -3.398245495896152
0.6457188012909207 -3.458124911892841
0.574211205183628 -3.4999999999999956
0.5027036090763418 -3.458124911892729
0.4297835251757744 -3.3982454958959303
0.3606213313882902 -3.315989056110213
0.29734018410874485 -3.2104506670116506
0.2412626411294391 -3.0826997786728145
0.1929609988771704 -2.9349229761306352
0.15240713383077872 -2.7698416186001995
0.11919086431251259 -2.590316456953153
0.0927040921494893 -2.3991157610903917
0.07224781012152826 -2.1987865796893855
0.057049922471497976 -1.9915600929457002
0.04627380699415745 -1.7792504800236169
0.03903607737146453 -1.5632366861574927
0.03445444694583343 -1.3445399480493139
0.03173282722310586 -1.123950764416996
0.0302094214010753 -0.9021085674672875
0.029333625969418558 -0.679545013622239
0.02881344318269119 -0.45666340556195173
0.028604191368076844 -0.23374315902051324
0.02857114620417478 -0.010967594837765538
SCALARS Stress float 6
LOOKUP_TABLE default
-1203.183855799426 -2001.407177776997 -1525.878985104971 -23.680352507451666 0.0 0.0
1324.988444903459 775.4895289305343 981.0685621945458 -21.898129328767226 0.0 0.0
594.7569611010476 147.95954946758306 236.41009466554198 -40.18093935805027 0.0 0.0
482.13211617974633 25.40634465571141 156.28472777954636 -1.8742247780819135 0.0 0.0
601.6649259581885 71.62644936771727 237.34674502477566 2.102804567713398 0.0 0.0
713.3668362578287 117.69328589048976 353.5738702487122 1.7621355577875324 0.0 0.0
834.4936799753707 164.68562947901302 469.1660647669004 0.701895087006772 0.0 0.0
957.189957776589 227.9812712880078 576.6029895388398 -0.6408005836596241 0.0 0.0
1087.8996200296701 304.993496805575 684.4221629662827 -2.193513892746682 0.0 0.0
1234.1060185548365 402.0171694688802 806.8749800039654 -3.8678157959733044 0.0 0.0
1401.0383506111589 523.8226411711173 951.2184677705941 -5.488687375911418 0.0 0.0
1588.9108534780416 670.9718929322235 1118.3990968742235 -6.804424425079101 0.0 0.0
1792.9114776508065 837.1390609365774 1303.0386239472066 -7.621660465413234 0.0 0.0
2006.2091984826525 1015.3158849404542 1498.3377746031406 -8.253552480997616 0.0 0.0
2219.7603069093802 1196.301923089451 1695.165326653851 -8.671065729383912 0.0 0.0
2423.3679775838787 1369.9953387579517 1883.398749187049 -8.821409278565318 0.0 0.0
2606.575953237696 1526.4262086287288 2052.878539488803 -8.54486646139646 0.0 0.0
2758.732814968177 1655.5717052114678 2193.302512180356 -7.749891844908412 0.0 0.0
2876.681304912717 1754.9600142442007 2301.7624803185868 -6.624694468690123 0.0 0.0
2946.98225683 1812.0661174739898 2365.2977794016006 -7.91691229933846 0.0 0.0
2938.4478600874913 1802.0076774399397 2356.2555574515045 -3.7760017335131124e-11 0.0 0.0
2946.982256827704 1812.066117471691 2365.2977793998966 7.916912299331438 0.0 0.0
2876.6813049126968 1754.960014244246 2301.762480318429 6.62469446864087 0.0 0.0
2758.732814969545 1655.5717052129387 2193.3025121812634 7.749891844884676 0.0 0.0
2606.5759532364723 1526.4262086276256 2052.87853948774 8.544866461435566 0.0 0.0
2423.3679775830938 1369.9953387573046 1883.3987491861162 8.821409278583586 0.0 0.0
2219.7603069073466 1196.301923087544 1695.1653266522317 8.671065729265447 0.0 0.0
2006.2091984818219 1015.3158849398137 1498.3377746023464 8.253552481054419 0.0 0.0
1792.9114776495492 837.1390609355046 1303.0386239461575 7.621660465467068 0.0 0.0
1588.9108534772313 670.971892931646 1118.3990968736182 6.804424424955329 0.0 0.0
1401.038350608598 523.8226411687654 951.2184677686629 5.488687375619932 0.0 0.0
1234.106018553809 402.01716946812485 806.8749800030616 3.8678157959120014 0.0 0.0
1087.8996200290655 304.9934968052295 684.4221629657081 2.193513892823322 0.0 0.0
957.1899577764246 227.98127128815096 576.6029895385966 0.640800583609499 0.0 0.0
834.4936799740769 164.6856294779486 469.1660647658899 -0.7018950868882534 0.0 0.0
713.3668362578859 117.69328589089528 353.5738702485333 -1.7621355580092342 0.0 0.0
601.6649259580022 71.62644936791425 237.34674502456951 -2.102804567963231 0.0 0.0
482.13211617960775 25.406344655926357 156.28472777953772 1.8742247781395465 0.0 0.0
594.7569611006945 147.95954946717464 236.41009466526876 40.18093935794377 0.0 0.0
1324.9884449031424 775.4895289302314 981.0685621940638 21.898129328666386 0.0 0.0
-1203.1838557968406 -2001.407177774364 -1525.878985102319 23.680352507031962 0.0 0.0
-1532.4656595873857 -2301.637705457539 -1808.3273956738085 -24.84464814679297 0.0 0.0
903.2362200163574 428.94148159173176 614.6560203891717 -30.278983386419682 0.0 0.0
414.5818213373501 58.7388186701097 140.53378853242836 -34.29296251791083 0.0 0.0
425.67485617069843 4.744329339277827 130.57673029272826 -15.922283724266032 0.0 0.0
534.8218593956585 31.734661855931307 192.3317197078841 -16.03710191629427 0.0 0.0
633.0541718119481 45.05117760767121 280.53530884148995 -21.19455786309363 0.0 0.0
716.6638129753193 61.71673501496345 366.66290578510797 -23.125132590042824 0.0 0.0
797.2380646276198 81.21752835260529 432.89253191933676 -23.616417792993452 0.0 0.0
871.77815116863 101.38790222778738 484.5043700234985 -24.10792033167978 0.0 0.0
942.5732547017506 123.21281837429672 531.8087179249068 -24.751579636162187 0.0 0.0
1012.033121609641 148.2016234770951 579.3109388805707 -25.084005248062514 0.0 0.0
1081.7558924648763 176.98337618489617 628.6374162827615 -25.025218241188014 0.0 0.0
1151.152651352459 209.62525235303048 679.6638449615325 -24.594598633141548 0.0 0.0
1217.613929855597 241.38993151379265 728.7673079761535 -23.993765648138098 0.0 0.0
1275.3986427987888 267.058649653369 770.4823078586387 -23.259044413895786 0.0 0.0
1319.876181292714 282.0304685902964 800.1955115979307 -22.18853352231907 0.0 0.0
1347.9857271250155 283.5966862238486 815.024747695136 -20.53318885287758 0.0 0.0
1359.9065752315184 272.5352602825808 815.4470135769884 -18.250197325146207 0.0 0.0
1352.3099170625283 246.38408099413007 798.6688475529475 -15.836613368093722 0.0 0.0
1292.0458642823344 173.2893918106645 732.6748620160224 -15.531010225958049 0.0 0.0
1188.398077480391 68.77137775993876 629.7371402866065 -8.170353282821452e-12 0.0 0.0
1292.0458642810875 173.28939180943843 732.6748620150656 15.531010226067085 0.0 0.0
1352.309917062601 246.38408099425726 798.6688475529681 15.836613368101705 0.0 0.0
1359.9065752324336 272.53526028359454 815.4470135777232 18.250197325206774 0.0 0.0
1347.9857271255692 283.59668622451727 815.024747695614 20.533188852903333 0.0 0.0
1319.8761812924133 282.03046859012375 800.1955115976418 22.18853352225722 0.0 0.0
1275.3986427979441 267.0586496526589 770.4823078580628 23.25904441381935 0.0 0.0
1217.6139298546711 241.38993151304007 728.7673079755357 23.99376564817259 0.0 0.0
1151.1526513526344 209.62525235341826 679.6638449616296 24.594598633222436 0.0 0.0
1081.755892464619 176.98337618482643 628.6374162826529 25.025218241065197 0.0 0.0
1012.0331216097618 148.2016234774857 579.3109388806621 25.084005247849653 0.0 0.0
942.5732547012439 123.21281837406127 531.8087179245637 24.751579636252558 0.0 0.0
871.7781511685017 101.3879022279337 484.5043700233786 24.107920331832595 0.0 0.0
797.2380646273176 81.21752835256714 432.89253191909046 23.616417792964292 0.0 0.0
716.6638129748512 61.716735014834256 366.6629057846974 23.125132590143018 0.0 0.0
633.0541718118577 45.05117760789905 280.53530884125615 21.194557863101764 0.0 0.0
534.8218593955371 31.734661856099567 192.33171970777894 16.037101916113638 0.0 0.0
425.67485617048015 4.744329339359679 130.5767302926934 15.922283724325588 0.0 0.0
414.58182133709886 58.73881866996335 140.53378853231 34.29296251786762 0.0 0.0
903.2362200157878 428.9414815913117 614.6560203885464 30.278983386366118 0.0 0.0
-1532.4656595853028 -2301.637705455367 -1808.3273956716507 24.844648146399003 0.0 0.0
-1277.790449724909 -2012.3482895549241 -1526.564439424671 -63.15105570521767 0.0 0.0
712.3016565667988 338.3894018782193 470.4038780754351 -98.47790482751633 0.0 0.0
289.4095044491909 66.74716612856263 106.85931860991221 -36.93262890348121 0.0 0.0
365.04376268801394 0.7281855652315448 109.59055100145287 -37.258866069305604 0.0 0.0
489.67163280190977 22.4406309174169 164.81981235176605 -38.40044807108201 0.0 0.0
599.9998385419718 40.085132987361746 250.27819827048836 -40.69523557268353 0.0 0.0
687.3318821297473 57.40733944608648 342.0753986753096 -43.119845339942486 0.0 0.0
768.5539757187603 73.36366861339759 411.6188718749597 -44.14617054967752 0.0 0.0
840.6775983329593 90.36240940046633 462.6101920813798 -45.27066890634313 0.0 0.0
907.7528246739884 108.23176675538696 506.5268548716577 -46.289480158489305 0.0 0.0
973.5346638343419 129.93220278214096 550.6119417618515 -46.51535628261861 0.0 0.0
1039.7962848870807 156.46026938248863 597.0844600436164 -45.93484333865773 0.0 0.0
1106.3612461380624 185.88494733036936 645.1025379510025 -44.99054348915047 0.0 0.0
1169.0816225427318 215.1271769202653 691.1010242901684 -43.79808394233102 0.0 0.0
1224.513917695894 238.92426029826765 730.7054628607194 -42.343125445380124 0.0 0.0
1268.1445280103194 253.41803982471112 759.7434423347115 -40.36355150257885 0.0 0.0
1297.5173779448214 256.40550435202744 775.9143386995678 -37.49331290343978 0.0 0.0
1309.5002790103108 245.36232332705632 776.4404488248739 -33.78490428322104 0.0 0.0
1293.465768661186 210.72634133416122 751.3673093574969 -29.954186291935244 0.0 0.0
1258.436327095727 163.05511846128925 710.3758283250667 -26.78017078248814 0.0 0.0
1134.8651204371322 39.18190390890026 588.0456938265484 7.313438743494771e-11 0.0 0.0
1258.436327094752 163.055118460334 710.3758283244097 26.780170782598937 0.0 0.0
1293.465768660498 210.7263413335267 751.3673093570121 29.954186292006593 0.0 0.0
1309.5002790103908 245.36232332722318 776.4404488249031 33.78490428325681 0.0 0.0
1297.5173779447323 256.4055043520262 775.9143386994949 37.49331290342955 0.0 0.0
1268.1445280096436 253.41803982413634 759.7434423343501 40.36355150245009 0.0 0.0
1224.5139176954408 238.92426029796837 730.7054628603535 42.34312544534178 0.0 0.0
1169.0816225413312 215.12717691904658 691.1010242891722 43.79808394238027 0.0 0.0
1106.361246138217 185.88494733071119 645.1025379511166 44.99054348922118 0.0 0.0
1039.7962848863374 156.4602693819695 597.0844600430875 45.934843338632675 0.0 0.0
973.5346638358594 129.9322027839686 550.6119417628595 46.51535628278813 0.0 0.0
907.7528246731865 108.23176675484609 506.5268548711814 46.289480158608384 0.0 0.0
840.6775983331669 90.36240940096462 462.61019208149094 45.27066890638713 0.0 0.0
768.553975717678 73.36366861259901 411.61887187423554 44.14617054968563 0.0 0.0
687.3318821296991 57.40733944636136 342.07539867512486 43.11984533998619 0.0 0.0
599.9998385415932 40.085132987365554 250.27819827011697 40.6952355727556 0.0 0.0
489.6716328015024 22.440630917337494 164.81981235153597 38.40044807096154 0.0 0.0
365.0437626876718 0.7281855650517153 109.59055100130882 37.258866069307835 0.0 0.0
289.4095044492389 66.74716612855583 106.85931860992486 36.93262890341506 0.0 0.0
712.3016565661851 338.3894018779297 470.4038780748299 98.47790482744557 0.0 0.0
-1277.7904497231386 -2012.348289552986 -1526.5644394226483 63.15105570505288 0.0 0.0
-1042.4651231263792 -1746.4018845906007 -1269.2888181786993 -76.68878426732329 0.0 0.0
542.458683109918 242.45615722350954 344.013617405984 -145.21877919159397 0.0 0.0
210.8007449175951 58.05725993938689 80.65740145709458 -58.86891935275773 0.0 0.0
303.6230667203429 6.302195152691645 92.89885283182906 -58.97707427817396 0.0 0.0
434.4916164546991 12.232539392488821 137.48884048385807 -63.07123853196338 0.0 0.0
554.1246267456763 33.72683324273883 215.94406745000526 -61.635142858812046 0.0 0.0
655.0093544642582 51.02753968449465 311.718998851305 -64.47202916266032 0.0 0.0
734.9455105149269 65.68287079672456 386.29042060794404 -64.94278909922342 0.0 0.0
805.5152262135782 79.53631251723343 438.1727316981078 -66.13890804865707 0.0 0.0
869.2590918594861 93.8452075143165 479.51028116555045 -67.14125585561054 0.0 0.0
931.0443324429716 111.99068074569905 519.9711193313506 -67.04752744728958 0.0 0.0
993.9603164892526 135.20077220852536 563.125231679773 -66.04361996242828 0.0 0.0
1056.999635557345 162.47903043452175 608.3363171287667 -64.58051170274177 0.0 0.0
1116.5783204820177 188.09174699549985 650.9709923890133 -62.93555657160574 0.0 0.0
1169.23086050409 209.8377268566429 688.1629356393408 -60.83858632133392 0.0 0.0
1212.7733218573999 224.82157398029062 717.4012496755566 -58.02985252887098 0.0 0.0
1243.3588914134612 228.89031043049073 734.7311553717082 -54.29233388466071 0.0 0.0
1255.0596685841278 217.33521254195776 734.9227368589736 -49.63950108219409 0.0 0.0
1244.2655950270118 187.62397451381727 714.9018099275038 -44.128421944584886 0.0 0.0
1222.6775519167177 152.72552927012134 686.8575580548631 -36.70165655668551 0.0 0.0
1049.0654170944078 -20.893371303599466 515.4003450174581 5.703881811314204e-11 0.0 0.0
1222.6775519158514 152.72552926928648 686.8575580544018 36.70165655678229 0.0 0.0
1244.2655950268404 187.62397451373045 714.9018099274009 44.12842194472442 0.0 0.0
1255.0596685849512 217.33521254286802 734.9227368596054 49.639501082219326 0.0 0.0
1243.3588914120533 228.89031042916025 734.7311553706628 54.292333884683785 0.0 0.0
1212.7733218570331 224.8215739800865 717.4012496753573 58.029852528900314 0.0 0.0
1169.2308605032283 209.83772685587633 688.1629356386715 60.8385863213184 0.0 0.0
1116.5783204817128 188.09174699539906 650.9709923887237 62.93555657158123 0.0 0.0
1056.9996355559078 162.4790304332453 608.3363171279095 64.58051170275932 0.0 0.0
993.9603164895957 135.20077220912185 563.1252316799893 66.0436199624991 0.0 0.0
931.0443324436241 111.99068074663404 519.9711193317646 67.04752744741117 0.0 0.0
869.259091858698 93.84520751381658 479.51028116505614 67.14125585569877 0.0 0.0
805.5152262132826 79.53631251712758 438.1727316978962 66.13890804849406 0.0 0.0
734.945510513738 65.68287079582575 386.29042060712135 64.94278909921188 0.0 0.0
655.0093544639155 51.02753968450304 311.7189988509305 64.47202916273179 0.0 0.0
554.1246267452975 33.7268332427128 215.9440674496804 61.63514285877645 0.0 0.0
434.49161645419656 12.23253939235806 137.48884048365278 63.07123853179273 0.0 0.0
303.6230667202575 6.302195152575564 92.8988528317649 58.977074278138694 0.0 0.0
210.80074491764051 58.05725993940753 80.65740145711442 58.868919352579844 0.0 0.0
542.4586831093229 242.45615722329683 344.0136174054711 145.21877919147215 0.0 0.0
-1042.4651231245678 -1746.4018845886926 -1269.2888181767712 76.68878426716842 0.0 0.0
-838.3354791109542 -1515.4855364318687 -1043.4241032615 -75.66657953723359 0.0 0.0
417.11015323256726 158.8242437484268 245.7968745148379 -176.7870072635758 0.0 0.0
154.814145660669 46.25365581382264 60.3203404423475 -88.93672328582011 0.0 0.0
248.29297904674365 12.487320040394398 78.23789321561297 -82.49804865427626 0.0 0.0
370.0699916577856 7.144748435624665 113.32691314693814 -88.29576161340505 0.0 0.0
499.89300331027073 21.50132692471953 178.33563591593995 -87.14151113300031 0.0 0.0
610.7644256909097 43.243726394632276 273.56264470803364 -86.01902329132946 0.0 0.0
695.5034158885601 58.810592275471805 356.2627525083205 -86.14881930663681 0.0 0.0
765.5289564419461 69.26279285984653 410.4838649055913 -86.6786332642224 0.0 0.0
826.1506613614687 79.82383538917036 449.98564534677826 -87.2642993132641 0.0 0.0
884.4114482732932 94.18707056537062 487.12841710931104 -86.72165095426391 0.0 0.0
943.444517845187 113.92993161095814 526.6692084070362 -85.25894060396654 0.0 0.0
1003.0450377624707 137.65698561922878 568.4092510879266 -83.4604630312402 0.0 0.0
1059.2418740582161 161.49759187224612 608.5121106379235 -81.34436733002656 0.0 0.0
1109.525157661483 180.81605512997552 643.328718419886 -78.67611620746654 0.0 0.0
1151.8971152162333 194.37176078501685 671.2580591427001 -75.2540740308325 0.0 0.0
1183.9000398550245 200.22929899504277 690.1996872946881 -70.93633822760101 0.0 0.0
1200.0670974065542 192.85414916752362 694.7152863276234 -65.59807944209945 0.0 0.0
1196.331512626556 169.3935253667507 681.3216038380931 -58.25344885386406 0.0 0.0
1181.046952970182 139.2996070252472 658.7737157830164 -46.90106004057928 0.0 0.0
945.7217954381865 -95.66982517499572 426.8538782584541 -1.6749268638704962e-11 0.0 0.0
1181.0469529704483 139.29960702561866 658.7737157833548 46.90106004077073 0.0 0.0
1196.3315126265784 169.39352536686278 681.3216038381089 58.253448854191554 0.0 0.0
1200.0670974073362 192.85414916840136 694.7152863281967 65.59807944222376 0.0 0.0
1183.9000398536677 200.22929899374657 690.1996872936693 70.93633822755716 0.0 0.0
1151.8971152166928 194.37176078566176 671.2580591430519 75.25407403094432 0.0 0.0
1109.5251576603139 180.81605512893918 643.328718419042 78.67611620749538 0.0 0.0
1059.2418740585188 161.49759187265818 608.5121106381163 81.34436732994989 0.0 0.0
1003.0450377613264 137.6569856183089 568.4092510871448 83.4604630312008 0.0 0.0
943.444517845369 113.92993161134689 526.6692084071789 85.25894060409956 0.0 0.0
884.4114482729357 94.18707056520776 487.1284171090638 86.72165095417063 0.0 0.0
826.1506613613666 79.82383538936857 449.9856453467163 87.26429931329693 0.0 0.0
765.5289564410737 69.26279285918514 410.4838649049958 86.67863326413033 0.0 0.0
695.503415887805 58.810592275030885 356.26275250774415 86.14881930663427 0.0 0.0
610.7644256903856 43.24372639440877 273.56264470753234 86.01902329131497 0.0 0.0
499.893003309488 21.501326924024255 178.3356359153661 87.14151113280077 0.0 0.0
370.06999165743457 7.144748435565963 113.32691314682388 88.29576161329845 0.0 0.0
248.29297904661536 12.487320040246564 78.23789321552692 82.4980486542439 0.0 0.0
154.81414566066746 46.2536558137995 60.32034044234011 88.93672328568125 0.0 0.0
417.1101532319497 158.824243747998 245.79687451430124 176.78700726346747 0.0 0.0
-838.3354791093598 -1515.4855364301313 -1043.4241032597538 75.66657953704434 0.0 0.0
-659.0191492137413 -1311.2787759189168 -842.7660158941455 -72.43704756833037 0.0 0.0
318.5447114199603 93.98246835291542 170.49782444201531 -195.0382152538052 0.0 0.0
112.21983183280481 32.31329970285082 43.35993946069669 -117.59086830388753 0.0 0.0
198.1698158770679 17.496490899797138 64.70218914886726 -106.31876345467121 0.0 0.0
302.6884893889655 5.341229081636924 91.87196420478615 -112.78399530665759 0.0 0.0
430.7874658663448 11.433687319950874 142.088469277113 -113.3590148850796 0.0 0.0
549.58329782271 34.724163695283075 228.80906532265593 -109.0036071737506 0.0 0.0
648.5697354444046 49.182017626138474 317.3608101836326 -108.48239127363004 0.0 0.0
717.6934414997808 59.537291664752246 377.4484577194549 -106.81289905331687 0.0 0.0
777.6365111619173 65.98210719003878 417.05605504129926 -106.67779061406101 0.0 0.0
832.3689274682524 76.50471817319237 451.2841032023559 -105.52119600999536 0.0 0.0
887.5750906122274 92.71061914469304 487.2912103918845 -103.5538930155368 0.0 0.0
943.3512654467239 113.34648914624171 525.6213984937054 -101.39525617304514 0.0 0.0
996.0612152010108 133.56487240818524 562.2151698075587 -99.02143276010311 0.0 0.0
1043.6947123215084 151.04138520566553 594.8248861880232 -95.92508433318709 0.0 0.0
1084.7200714939718 163.87297992008686 621.7531479132093 -91.87194629681233 0.0 0.0
1118.2990131668444 170.4648559552119 641.8135100795381 -87.22308327486915 0.0 0.0
1141.2327876186139 169.6109171759546 652.9264118227353 -81.50731797324714 0.0 0.0
1146.2237496174405 153.99647553603464 647.8243552518551 -72.75469446433851 0.0 0.0
1134.7501507965637 125.37469123669544 627.9261601035836 -58.09543198400286 0.0 0.0
826.1129061443052 -182.17919693789537 324.547566021806 4.012967735889106e-11 0.0 0.0
1134.750150796679 125.37469123684852 627.9261601037884 58.09543198398405 0.0 0.0
1146.2237496170883 153.99647553582025 647.8243552517017 72.75469446466946 0.0 0.0
1141.2327876190056 169.61091717641776 652.926411823007 81.50731797339255 0.0 0.0
1118.2990131665206 170.46485595495548 641.813510079294 87.22308327481264 0.0 0.0
1084.720071493847 163.8729799200779 621.753147913204 91.87194629680101 0.0 0.0
1043.6947123204911 151.04138520479074 594.8248861873201 95.92508433318724 0.0 0.0
996.0612152012325 133.56487240856686 562.215169807734 99.02143276013297 0.0 0.0
943.3512654462781 113.34648914600993 525.6213984933472 101.39525617310663 0.0 0.0
887.5750906119403 92.71061914468027 487.2912103917113 103.5538930156857 0.0 0.0
832.368927466676 76.50471817170512 451.2841032012072 105.52119600988132 0.0 0.0
777.6365111619908 65.9821071903859 417.0560550413635 106.67779061399838 0.0 0.0
717.6934414992372 59.537291664427656 377.4484577190303 106.8128990532141 0.0 0.0
648.5697354438397 49.18201762584161 317.36081018314604 108.4823912735568 0.0 0.0
549.5832978222444 34.72416369517692 228.8090653222411 109.00360717370626 0.0 0.0
430.7874658656872 11.433687319445177 142.08846927668117 113.35901488496553 0.0 0.0
302.6884893888354 5.341229081978085 91.8719642048743 112.7839953065503 0.0 0.0
198.16981587708247 17.496490899844723 64.70218914888605 106.31876345453864 0.0 0.0
112.21983183280358 32.31329970272618 43.359939460658914 117.5908683037293 0.0 0.0
318.54471141936324 93.98246835255365 170.49782444155196 195.0382152536155 0.0 0.0
-659.0191492125288 -1311.278775917473 -842.7660158926695 72.43704756827026 0.0 0.0
-504.300286946857 -1124.684121120005 -664.8503750491296 -69.7777557939894 0.0 0.0
240.66479726692822 42.692291740147 112.97770823385112 -206.16601633662236 0.0 0.0
77.78936397012865 18.654813679243137 28.933158060372207 -141.27103800445653 0.0 0.0
151.127979600155 20.80183393858839 51.58001321758596 -128.45628198265723 0.0 0.0
236.4346198057305 6.3483987496541 72.6296289795123 -134.25887981898492 0.0 0.0
351.7270174421784 2.0006890975351377 107.88614404733174 -141.61161195444174 0.0 0.0
474.88910849222 21.14503660843094 178.5084031310683 -135.62113370571308 0.0 0.0
581.8523793859815 40.50940406735423 267.56583744437626 -130.52967125914785 0.0 0.0
663.0863603528338 46.78934609757279 335.56133597098443 -128.561051309077 0.0 0.0
720.2395595666636 52.39564603136037 378.22727742082697 -125.23822361499764 0.0 0.0
773.515643100982 59.01929636292515 411.28720754235394 -123.36191681516956 0.0 0.0
824.9287712169499 71.46365809090403 443.9534861590731 -120.90468298222468 0.0 0.0
876.4653331633685 88.50119280099759 478.50486148683694 -118.40235077884176 0.0 0.0
925.387126989235 105.88643952932719 511.8549813710065 -115.79230390750844 0.0 0.0
969.8832257556248 120.8499031677797 541.7120327602313 -112.49362142233274 0.0 0.0
1008.9309548909407 131.0661915654549 566.385243215927 -108.18513880240278 0.0 0.0
1043.7080067504023 140.0798922351554 588.230382108256 -102.86452196258783 0.0 0.0
1075.3408541218305 146.84762073355654 607.404988990021 -97.09682411614733 0.0 0.0
1091.423174042084 140.39554634327524 612.414000660848 -87.997712420794 0.0 0.0
1084.0840563723586 113.10739892638907 595.3538139188245 -71.05587951005576 0.0 0.0
688.333802771727 -279.85898405005327 207.88556893311466 -5.001865588383225e-11 0.0 0.0
1084.0840563731563 113.10739892733837 595.3538139193847 71.05587951019517 0.0 0.0
1091.4231740418738 140.39554634322002 612.4140006607887 87.99771242108231 0.0 0.0
1075.3408541216945 146.84762073343597 607.4049889899256 97.09682411620804 0.0 0.0
1043.7080067504846 140.079892235338 588.2303821082875 102.86452196262199 0.0 0.0
1008.9309548904029 131.06619156499417 566.3852432156037 108.18513880231852 0.0 0.0
969.8832257550386 120.84990316731493 541.7120327598376 112.4936214223168 0.0 0.0
925.3871269891774 105.88643952945522 511.854981371007 115.79230390756351 0.0 0.0
876.4653331620797 88.50119279977358 478.504861485964 118.40235077879154 0.0 0.0
824.9287712175736 71.46365809176436 443.9534861594876 120.90468298227026 0.0 0.0
773.5156430996703 59.01929636165981 411.2872075414165 123.36191681495401 0.0 0.0
720.2395595662837 52.395646031197785 378.22727742060897 125.2382236148698 0.0 0.0
663.0863603523011 46.78934609720362 335.5613359705192 128.56105130895165 0.0 0.0
581.852379385305 40.50940406697919 267.56583744382766 130.52967125907549 0.0 0.0
474.8891084918106 21.14503660847556 178.50840313077353 135.6211337057389 0.0 0.0
351.7270174416767 2.0006890973304525 107.88614404709739 141.61161195426521 0.0 0.0
236.4346198056181 6.348398749785231 72.62962897951898 134.2588798188427 0.0 0.0
151.1279796001948 20.801833938746682 51.58001321764498 128.45628198247454 0.0 0.0
77.7893639700933 18.654813679169752 28.9331580603397 141.2710380042244 0.0 0.0
240.66479726649018 42.69229173992794 112.97770823352776 206.1660163364268 0.0 0.0
-504.300286945786 -1124.6841211187004 -664.8503750478347 69.7777557939119 0.0 0.0
-368.0195475538844 -962.6085749795996 -508.0917145002677 -75.70875099076935 0.0 0.0
174.44943283769717 3.9232029735294613 68.25122220604091 -208.91756984846685 0.0 0.0
48.28131581251006 7.426527994536969 16.712176121557466 -159.24384561006553 0.0 0.0
105.66081039739825 22.17046386661498 38.350660859729736 -147.52305556230738 0.0 0.0
173.31961932356387 8.587194509803103 54.45477238343145 -152.9444258459659 0.0 0.0
263.26165061733155 -1.2621764524615884 78.1459913181789 -165.85961223091516 0.0 0.0
380.1453385024449 7.199030594267879 127.356750778118 -164.30144478519665 0.0 0.0
494.6420747145835 26.304977534660768 205.02948172931409 -154.39076942921398 0.0 0.0
586.8361958055791 35.8916092170466 279.512511230355 -148.80542236736193 0.0 0.0
652.0996959008222 36.096383956326456 328.4904341758365 -144.56992972349272 0.0 0.0
703.226669499091 40.78154474240645 362.9684880097205 -140.1524341122377 0.0 0.0
751.6409140810404 50.348825701780825 393.959028971315 -137.06253714379537 0.0 0.0
799.2140016927735 63.73764115515104 425.1254087273556 -134.22564587015333 0.0 0.0
843.3753125457334 77.41486429404445 454.4135698651001 -131.46405949815548 0.0 0.0
884.6628354323111 89.75551247609877 481.4302417397166 -128.28003165341897 0.0 0.0
921.3838654109031 98.93433466394156 504.55204822029765 -123.9088749839631 0.0 0.0
955.6745640004685 106.0633803552989 525.2988888562719 -118.14828253162025 0.0 0.0
994.8974641474053 120.15908807366054 551.7261429241655 -111.9987220125931 0.0 0.0
1027.4914412338915 129.44117253943682 572.7863086911593 -103.77469741649743 0.0 0.0
1028.9972739680657 106.94899681622012 562.8306262857607 -86.73501700000725 0.0 0.0
526.6801761893635 -388.4373192958076 74.32904115864928 9.313794180343393e-11 0.0 0.0
1028.9972739696075 106.9489968179677 562.8306262868564 86.73501700056323 0.0 0.0
1027.4914412337314 129.4411725394684 572.7863086910412 103.77469741674147 0.0 0.0
994.897464146512 120.1590880727509 551.7261429235709 111.99872201272741 0.0 0.0
955.674563999665 106.06338035465237 525.2988888557024 118.14828253174775 0.0 0.0
921.3838654106866 98.93433466376034 504.5520482200996 123.90887498394771 0.0 0.0
884.6628354313216 89.75551247516128 481.4302417390514 128.2800316533063 0.0 0.0
843.3753125454415 77.41486429391932 454.41356986491587 131.4640594982301 0.0 0.0
799.2140016917504 63.737641154297094 425.1254087266406 134.2256458701614 0.0 0.0
751.6409140811576 50.348825702014956 393.95902897138154 137.06253714379747 0.0 0.0
703.2266694984637 40.78154474196341 362.9684880092899 140.15243411214198 0.0 0.0
652.0996959007203 36.09638395640219 328.4904341757596 144.56992972336317 0.0 0.0
586.8361958053033 35.89160921714938 279.51251123008865 148.80542236739842 0.0 0.0
494.64207471404785 26.304977534471387 205.02948172891118 154.39076942921142 0.0 0.0
380.1453385020941 7.199030594267828 127.35675077788963 164.30144478518181 0.0 0.0
263.26165061690057 -1.2621764524547259 78.14599131807512 165.85961223062245 0.0 0.0
173.3196193233764 8.587194509656472 54.45477238332951 152.94442584592304 0.0 0.0
105.66081039743115 22.170463866765378 38.35066085978537 147.52305556210794 0.0 0.0
48.28131581251172 7.426527994503246 16.71217612154778 159.24384560988352 0.0 0.0
174.4494328373265 3.923202973236446 68.25122220576394 208.91756984824144 0.0 0.0
-368.01954755295475 -962.6085749782939 -508.0917144991561 75.70875099082984 0.0 0.0
-263.7454064985228 -806.4550813681008 -380.8467376521121 -82.47059030761164 0.0 0.0
117.63577101522851 -27.528309772667345 34.13074774703177 -205.3169664032338 0.0 0.0
20.733171352425032 -0.19171265573709445 6.164226870705236 -171.98852047436503 0.0 0.0
61.30093903885492 21.998488851909116 24.987981800559574 -162.71137254733583 0.0 0.0
110.54664208394917 11.60415884167804 36.57211206814229 -167.63650721701342 0.0 0.0
172.75790427328175 0.4458386057073783 51.67853751710562 -183.1854822570688 0.0 0.0
263.9479131213143 -2.8854243392655445 79.80168600948815 -194.0629915144037 0.0 0.0
377.52034490588466 6.429075583319995 132.52267476429478 -184.23140839422203 0.0 0.0
480.4142015254183 17.940228710028492 200.507565506385 -169.64867560499874 0.0 0.0
555.889355932435 19.70996570503152 256.463057548271 -161.38316819443665 0.0 0.0
610.9358339544732 21.970033676941 296.6613073162431 -155.19917137851291 0.0 0.0
657.8628087972497 28.00094308435786 328.1450631617024 -151.5257274349652 0.0 0.0
701.7076379160769 38.60455212653113 357.66189877537 -148.4447639274417 0.0 0.0
740.9020250327619 48.59712702284962 383.3476216037435 -145.60542244041443 0.0 0.0
777.7307907639764 58.14202492740713 407.0870035618772 -142.81787455520285 0.0 0.0
812.7105768577673 66.32321338939819 429.08946824366717 -139.08935963825516 0.0 0.0
846.5312730336811 73.03457296011501 449.8350607681307 -133.30353187981393 0.0 0.0
886.2711488831885 86.07763839916522 476.17309047462226 -126.03656183563999 0.0 0.0
938.5995157896162 112.30118916005188 515.1113213165522 -119.2970546917096 0.0 0.0
966.3714801101503 111.25964723932931 529.5894303668871 -106.68940064213183 0.0 0.0
332.24068970960604 -503.89867503808364 -78.15059141320042 2.0152057800260081e-10 0.0 0.0
966.3714801101703 111.25964723939768 529.5894303670303 106.68940064241744 0.0 0.0
938.5995157891662 112.30118915964623 515.1113213162041 119.29705469186845 0.0 0.0
886.2711488828689 86.07763839907831 476.17309047444354 126.03656183587631 0.0 0.0
846.5312730330747 73.03457295958134 449.8350607676745 133.30353187985892 0.0 0.0
812.7105768575383 66.32321338907117 429.0894682435395 139.0893596381152 0.0 0.0
777.7307907635342 58.142024927018525 407.08700356141316 142.81787455503502 0.0 0.0
740.9020250323713 48.597127022652344 383.34762160345156 145.6054224404421 0.0 0.0
701.7076379158477 38.60455212650915 357.6618987752095 148.44476392761385 0.0 0.0
657.8628087968185 28.000943083944467 328.1450631614103 151.52572743485388 0.0 0.0
610.9358339541222 21.9700336768042 296.66130731593324 155.1991713785045 0.0 0.0
555.8893559319691 19.709965704749486 256.4630575479375 161.38316819433246 0.0 0.0
480.41420152508755 17.94022871002388 200.50756550613465 169.64867560503677 0.0 0.0
377.5203449053831 6.429075583214775 132.52267476400147 184.23140839424937 0.0 0.0
263.94791312073556 -2.8854243396585777 79.80168600917955 194.06299151423536 0.0 0.0
172.75790427306023 0.44583860569145894 51.67853751705303 183.18548225666302 0.0 0.0
110.54664208385205 11.604158841780523 36.57211206815181 167.6365072167398 0.0 0.0
61.30093903881739 21.99848885196394 24.98798180056267 162.71137254727847 0.0 0.0
20.73317135233955 -0.19171265576430097 6.164226870670666 171.98852047411532 0.0 0.0
117.635771014841 -27.52830977293669 34.130747746791776 205.31696640299253 0.0 0.0
-263.7454064978704 -806.4550813670177 -380.8467376513016 82.47059030775507 0.0 0.0
-180.78757947225068 -669.3171650338275 -278.7366243960758 -97.12220052574014 0.0 0.0
66.42213016587807 -51.65399513432833 7.268310940588622 -195.6851779889692 0.0 0.0
-5.906752834567057 -3.6868224819795223 -2.8806482546376255 -179.73834869772733 0.0 0.0
17.744872061213194 20.784167781580162 11.5575659893512 -173.4629848092635 0.0 0.0
47.70454541764408 14.444891810560836 18.621191117541393 -178.00104263482226 0.0 0.0
83.38362416158566 3.8322897920001315 26.04203498822493 -195.01714255801454 0.0 0.0
132.2836849485547 -1.8568275199448623 39.10628510678333 -211.4901177285398 0.0 0.0
209.16613304600818 -5.509086725410727 62.215698369535446 -214.8324938992728 0.0 0.0
309.0914128297336 -12.074817380659653 95.78009386534383 -201.71260125128057 0.0 0.0
398.68865811523347 -16.783875589012624 134.35533987461997 -181.148567424196 0.0 0.0
459.7461973491009 -10.089200686420075 172.76730297989948 -167.8310894917753 0.0 0.0
505.08049087921785 1.0767204790921383 206.28943411684068 -162.08659351773326 0.0 0.0
544.0634150022174 10.583804974676866 235.66335179295024 -160.43884200080595 0.0 0.0
578.0691162887462 18.782322412971695 260.97479342164536 -159.4461836964164 0.0 0.0
609.7548215759799 26.759857850135162 284.4862107474229 -158.615988632188 0.0 0.0
642.1663537786861 34.485525389410455 308.0934474346785 -157.20561291609903 0.0 0.0
677.4856315984724 41.3494598857484 332.94534873359635 -152.77006345362466 0.0 0.0
716.1070301309967 47.007387509161696 358.6542533302296 -144.50272350443666 0.0 0.0
773.3478282336689 68.72595708197024 398.4620582329869 -136.17063373755676 0.0 0.0
859.7086167244761 116.30406536341148 467.8286330898376 -133.0837779114672 0.0 0.0
71.85099979612329 -621.1175195102019 -261.39196359662816 8.915890248317737e-11 0.0 0.0
859.7086167245934 116.3040653637741 467.82863309004375 133.08377791159324 0.0 0.0
773.3478282333882 68.72595708185315 398.4620582327598 136.17063373774963 0.0 0.0
716.1070301312382 47.0073875095583 358.6542533304985 144.50272350491244 0.0 0.0
677.4856315978875 41.34945988501437 332.9453487330743 152.77006345357836 0.0 0.0
642.1663537782237 34.485525389070915 308.0934474345255 157.2056129160124 0.0 0.0
609.7548215761641 26.759857850402376 284.4862107476302 158.6159886322477 0.0 0.0
578.0691162884638 18.782322412623376 260.9747934214074 159.44618369642774 0.0 0.0
544.063415002196 10.58380497506116 235.66335179302976 160.43884200097787 0.0 0.0
505.080490878072 1.0767204775883776 206.28943411602555 162.08659351767852 0.0 0.0
459.7461973491692 -10.089200686166954 172.76730297992896 167.8310894917616 0.0 0.0
398.688658114572 -16.783875589467904 134.35533987425444 181.14856742409108 0.0 0.0
309.0914128292685 -12.074817380916844 95.78009386509274 201.71260125128887 0.0 0.0
209.16613304585093 -5.509086724955548 62.215698369615055 214.83249389924043 0.0 0.0
132.2836849481962 -1.8568275203531255 39.10628510655021 211.4901177284138 0.0 0.0
83.38362416138693 3.832289791651455 26.042034988061427 195.01714255763846 0.0 0.0
47.70454541773031 14.444891810804444 18.62119111764237 178.0010426344908 0.0 0.0
17.744872061196336 20.78416778170965 11.557565989385138 173.46298480928002 0.0 0.0
-5.906752834715985 -3.6868224820051356 -2.880648254693112 179.73834869739858 0.0 0.0
66.4221301654927 -51.65399513460328 7.268310940370535 195.68517798880077 0.0 0.0
-180.78757947171178 -669.3171650329303 -278.7366243954846 97.12220052575742 0.0 0.0
-129.13271172537802 -542.7409607623102 -206.60970513423186 -109.21797121872615 0.0 0.0
20.68864717488502 -67.73215331197906 -13.415191472043702 -180.18576798969715 0.0 0.0
-31.326151142163496 -4.4877410326146965 -10.737602111703655 -183.52878340073073 0.0 0.0
-24.948471034715162 19.18568214957985 -1.7316332106196355 -179.75576931124544 0.0 0.0
-14.367055222962598 16.852507500502156 0.7459090290119565 -183.5997884248974 0.0 0.0
-6.623025849476516 7.62670008231205 0.30701650069591135 -199.36172434505173 0.0 0.0
-2.790898557096593 1.3323181043255938 -0.43900290604797565 -216.89358208141465 0.0 0.0
-0.8749667969377484 0.09932200604463048 -0.24126299630627912 -220.71137784933097 0.0 0.0
-0.20066674080862867 -0.027460246129690447 -0.07185580370704514 -212.4721660810901 0.0 0.0
0.06039689204368415 -0.0017464221072902575 0.024213826749651446 -205.64765659692557 0.0 0.0
-0.2899126170714226 -0.019436254174028278 -0.1396000093919838 -204.6624762058217 0.0 0.0
-0.8026285944059453 0.17251652720513277 0.17401888302767077 -196.14476030398419 0.0 0.0
-1.9829672907860072 0.6888332802874828 0.30473599821534947 -186.27967855827447 0.0 0.0
-1.1972772628663506 1.891374435441108 0.7781611219204763 -178.7860879103907 0.0 0.0
5.570469728486245 5.1771561449839965 1.898428339057233 -173.50170328209518 0.0 0.0
25.852943944449066 11.611881826883447 5.144144248692939 -168.9835339279371 0.0 0.0
70.16630203737904 23.24756433398055 12.92878486086039 -163.77537250432783 0.0 0.0
154.98954372320384 31.654948990651285 17.54965682194259 -154.81062144463738 0.0 0.0
368.8047911600175 -15.597267147965681 31.251037140441184 -148.5425433083364 0.0 0.0
578.0924812980548 17.918277515675783 223.82411256250765 -191.45550022293824 0.0 0.0
-570.0180467614553 -850.6844557325861 -632.5524053996986 8.633094239485217e-12 0.0 0.0
578.0924812989163 17.918277516862048 223.82411256322956 191.45550022300884 0.0 0.0
368.8047911603935 -15.5972671475443 31.251037140652485 148.5425433089252 0.0 0.0
154.98954372265504 31.65494898982321 17.54965682148689 154.81062144534368 0.0 0.0
70.16630203649521 23.24756433291482 12.928784860123471 163.77537250447017 0.0 0.0
25.85294394453618 11.61188182706826 5.1441442487619184 168.98353392794021 0.0 0.0
5.570469728383998 5.177156144684524 1.898428338958638 173.5017032820606 0.0 0.0
-1.1972772624744294 1.8913744358530167 0.778161122162004 178.78608791046662 0.0 0.0
-1.9829672907773528 0.6888332798499377 0.3047359980286046 186.279678558557 0.0 0.0
-0.8026285944226998 0.17251652635799886 0.17401888274199706 196.14476030388843 0.0 0.0
-0.2899126164757675 -0.019436254132184416 -0.13960000920087268 204.66247620571949 0.0 0.0
0.06039689250280844 -0.0017464219345644239 0.024213826919257997 205.64765659673975 0.0 0.0
-0.20066674099459192 -0.027460246896995777 -0.07185580399254832 212.47216608113555 0.0 0.0
-0.8749667962580876 0.09932200736274233 -0.24126299570129017 220.71137784930818 0.0 0.0
-2.790898557349557 1.3323181035748706 -0.4390029063460932 216.89358208128033 0.0 0.0
-6.62302584932562 7.626700082577981 0.30701650082023946 199.36172434472968 0.0 0.0
-14.36705522290237 16.852507500477977 0.7459090290223722 183.59978842467982 0.0 0.0
-24.948471034544745 19.18568214983938 -1.73163321049238 179.7557693111037 0.0 0.0
-31.32615114209163 -4.487741032422165 -10.737602111623108 183.52878340062944 0.0 0.0
20.688647174747132 -67.73215331206505 -13.415191472119087 180.18576798955354 0.0 0.0
-129.13271172512518 -542.7409607615607 -206.60970513390626 109.21797121869753 0.0 0.0
-103.82112134109747 -428.017127134569 -159.45189221201758 -111.06072244995372 0.0 0.0
-12.058384066413158 -77.3632843975461 -26.8381069160681 -166.24875051757465 0.0 0.0
-55.120867787443125 -4.711347134558344 -17.955241427084353 -183.03627055015556 0.0 0.0
-66.2862722764464 17.757001060387697 -14.562120957125371 -181.4063652123794 0.0 0.0
-75.29057294807708 18.50831573253431 -17.037129633779998 -183.8412702253535 0.0 0.0
-95.46138475594543 11.193531322505637 -25.23258882586918 -196.81500179546356 0.0 0.0
-137.60073910049542 4.697793932145088 -39.84445456523984 -212.81092065313683 0.0 0.0
-210.49551778876358 5.606346180233127 -62.6612730321873 -215.09867897872854 0.0 0.0
-309.2356106895227 11.879904169841321 -95.9279599894586 -201.72786522988864 0.0 0.0
-398.6159016803288 16.78947360391315 -134.31344257965182 -181.11912798162538 0.0 0.0
-460.21405518848763 10.083555050195752 -172.866282389267 -167.86519210782316 0.0 0.0
-505.63372875772205 -1.0984434669391732 -207.02382343607252 -161.98453108897118 0.0 0.0
-545.2625957463706 -9.780416498460582 -236.70957299185454 -159.87663601810652 0.0 0.0
-577.8825431537346 -15.102185380069983 -259.88464614831133 -158.6207341076247 0.0 0.0
-601.6373779082217 -16.850378093190244 -274.81887116902715 -158.63085057872001 0.0 0.0
-614.3403820336241 -13.604073786125184 -278.8127549798669 -160.76571601741728 0.0 0.0
-614.108448580832 -5.397725933638839 -269.7299459325362 -165.39937171745206 0.0 0.0
-607.7269787768648 1.595218859201026 -248.52145338151942 -175.14898980471025 0.0 0.0
-588.9728976738509 48.22147767425537 -190.78893286776884 -188.97070253596326 0.0 0.0
-323.1340340173433 144.37345742329606 8.53848297109289 -145.66461503600132 0.0 0.0
-1123.092357333779 -1100.3698722015638 -1130.5187486896618 -1.0775380587801919e-10 0.0 0.0
-323.1340340167876 144.3734574240392 8.538482971446314 145.66461503658513 0.0 0.0
-588.9728976739518 48.22147767386775 -190.78893286796426 188.97070253624193 0.0 0.0
-607.7269787773243 1.5952188582068914 -248.5214533818366 175.14898980491785 0.0 0.0
-614.1084485812299 -5.397725934376496 -269.72994593283585 165.39937171767556 0.0 0.0
-614.3403820340436 -13.6040737866103 -278.8127549801993 160.76571601749242 0.0 0.0
-601.6373779078768 -16.850378093087606 -274.8188711687639 158.63085057868807 0.0 0.0
-577.8825431539659 -15.102185380438684 -259.8846461484774 158.62073410780073 0.0 0.0
-545.2625957459711 -9.780416498431606 -236.70957299157908 159.87663601810422 0.0 0.0
-505.63372875716004 -1.098443466551636 -207.02382343566273 161.984531088945 0.0 0.0
-460.2140551888109 10.08355504930816 -172.86628238951738 167.86519210800282 0.0 0.0
-398.6159016798434 16.789473604064728 -134.31344257933105 181.1191279815986 0.0 0.0
-309.23561068895526 11.879904169743646 -95.92795998924969 201.72786522990188 0.0 0.0
-210.49551778796393 5.6063461808598145 -62.661273031743136 215.09867897877984 0.0 0.0
-137.60073910048126 4.697793931197614 -39.84445456553093 212.81092065290633 0.0 0.0
-95.46138475544657 11.1935313231 -25.23258882554161 196.81500179517275 0.0 0.0
-75.29057294775755 18.508315732870663 -17.037129633587078 183.84127022521372 0.0 0.0
-66.28627227638465 17.757001060423 -14.562120957099605 181.40636521207304 0.0 0.0
-55.12086778740648 -4.711347134416743 -17.9552414270334 183.0362705499797 0.0 0.0
-12.05838406647227 -77.3632843976417 -26.83810691611198 166.24875051750575 0.0 0.0
-103.82112134100316 -428.0171271339016 -159.45189221183824 111.06072244985069 0.0 0.0
-86.28975131312247 -327.3044441687165 -124.08141626252 -103.14104925915478 0.0 0.0
-33.19046526785685 -80.66099135877147 -34.151247606969996 -154.1651432468322 0.0 0.0
-77.33755155314084 -5.107824179352461 -24.724665145173464 -179.09971387762678 0.0 0.0
-105.70708155814035 16.39399295009826 -26.8115073239486 -178.20357670983606 0.0 0.0
-135.09208706081844 19.64622823200105 -34.553711848602305 -179.91106923026848 0.0 0.0
-183.10508060362832 14.525600798753675 -50.32194695295442 -189.1658114292701 0.0 0.0
-266.04401015538446 4.6497208341700205 -80.48121740133905 -193.43917766923087 0.0 0.0
-377.7741507150989 -6.639290145253689 -132.8489059212743 -184.6863739250587 0.0 0.0
-480.4435504587051 -18.162174075397584 -200.60930226388058 -169.74032393582073 0.0 0.0
-555.8375937917665 -19.7572925435691 -256.4658046202935 -161.35780378338345 0.0 0.0
-610.9272367303794 -21.927772755604067 -296.6776467989987 -155.14418314553808 0.0 0.0
-658.2220261458513 -27.922378135674663 -328.3730256808659 -151.14826276986037 0.0 0.0
-702.343097766669 -37.9973259850307 -357.848626443383 -147.42717707553874 0.0 0.0
-739.9452943835447 -45.732968249133606 -381.7472584306334 -144.2827173292618 0.0 0.0
-769.337782022176 -49.01464180621075 -398.72205745828524 -142.95302300351275 0.0 0.0
-786.7876400527972 -45.08597650502911 -405.73724514190974 -144.09745052511505 0.0 0.0
-791.9344067962257 -35.1414865980075 -403.0831125743738 -148.03707012326407 0.0 0.0
-784.7942710459023 -21.664948165437465 -392.2030413202205 -154.77558377190954 0.0 0.0
-738.5616812202853 22.253260525957444 -347.6783394119126 -162.72721634449135 0.0 0.0
-637.8076833773487 107.47171749598996 -257.8309561162132 -170.10882614617103 0.0 0.0
-1897.3897296425557 -1394.8340866712276 -1609.5636891786737 9.710987569633289e-11 0.0 0.0
-637.8076833773004 107.4717174959545 -257.8309561161956 170.10882614642887 0.0 0.0
-738.5616812196364 22.2532605263534 -347.6783394115617 162.72721634467797 0.0 0.0
-784.7942710466928 -21.66494816664968 -392.20304132071544 154.77558377229633 0.0 0.0
-791.9344067960245 -35.1414865979322 -403.0831125742963 148.03707012340314 0.0 0.0
-786.7876400531311 -45.085976505692216 -405.73724514211114 144.097450525179 0.0 0.0
-769.3377820215286 -49.01464180568375 -398.72205745779456 142.95302300357815 0.0 0.0
-739.9452943844814 -45.73296825048574 -381.7472584312793 144.28271732941644 0.0 0.0
-702.3430977660344 -37.997325984419874 -357.84862644299716 147.4271770754992 0.0 0.0
-658.2220261453435 -27.92237813540021 -328.3730256804897 151.14826276979608 0.0 0.0
-610.9272367305659 -21.927772756246032 -296.67764679912636 155.14418314552313 0.0 0.0
-555.8375937912556 -19.757292543404443 -256.4658046198907 161.35780378339842 0.0 0.0
-480.44355045802763 -18.16217407501299 -200.60930226335927 169.74032393580924 0.0 0.0
-377.7741507145877 -6.639290145310874 -132.84890592098247 184.6863739251511 0.0 0.0
-266.0440101547745 4.649720834321611 -80.48121740108553 193.4391776691573 0.0 0.0
-183.1050806031078 14.525600798893093 -50.32194695277815 189.16581142899878 0.0 0.0
-135.09208706064868 19.64622823187881 -34.55371184859379 179.91106923009022 0.0 0.0
-105.70708155805066 16.39399295013491 -26.81150732391551 178.20357670956878 0.0 0.0
-77.33755155317704 -5.1078241794831145 -24.724665145225824 179.09971387752694 0.0 0.0
-33.190465267939224 -80.66099135888716 -34.15124760702896 154.16514324678133 0.0 0.0
-86.28975131302897 -327.3044441682955 -124.08141626236372 103.1410492591037 0.0 0.0
-70.03284386065417 -242.56371555036364 -93.77896782330532 -91.5899477329688 0.0 0.0
-48.50038845461921 -78.04331505651278 -37.96390432683135 -140.94088176604208 0.0 0.0
-97.76973598248267 -5.430302360775913 -30.951790060344994 -170.85512541060865 0.0 0.0
-143.52964616390366 15.074472070429948 -38.49879887380803 -171.2142750306736 0.0 0.0
-192.43480409925104 19.443464243255157 -51.801504330535515 -169.57339002203614 0.0 0.0
-266.99311264840844 13.358136656232688 -76.68408655284966 -170.29058073773587 0.0 0.0
-380.53323588724055 -4.664751042666895 -127.1332782916482 -167.00108429964044 0.0 0.0
-494.79673239394134 -26.69430921231116 -205.20706349323905 -155.01183601680603 0.0 0.0
-586.8281840690124 -36.1358090188316 -279.60674505741747 -148.84733657981656 0.0 0.0
-652.0405176968451 -36.084559891328595 -328.48962525590446 -144.57564413106866 0.0 0.0
-703.0693963110687 -40.60199369425678 -362.834555358296 -140.09142560645083 0.0 0.0
-751.6517628111258 -50.05169047655977 -393.85960346455965 -136.63832196809693 0.0 0.0
-799.5108893782088 -63.17214210526794 -425.06571060982884 -133.01967736515334 0.0 0.0
-842.8294041139638 -75.47767044272146 -453.34209678679616 -129.72817738304818 0.0 0.0
-878.4610130853838 -82.91362717523049 -475.20069827018756 -128.06550629763223 0.0 0.0
-900.9700968312318 -81.74804704062782 -486.0624349141376 -129.39291940461374 0.0 0.0
-908.0093536968081 -70.00067607977996 -483.7913938475217 -134.07002349994286 0.0 0.0
-889.4544899847932 -39.710524605316294 -459.4680253700417 -140.32883016738433 0.0 0.0
-836.3413866627728 16.48458889315991 -405.5781998019935 -145.47516089833513 0.0 0.0
-691.4137769577114 149.8769793179502 -270.441840388412 -148.42870194549053 0.0 0.0
-2342.64523569048 -1632.2261862888056 -1960.147808113775 8.751754876357154e-11 0.0 0.0
-691.4137769573401 149.87697931805485 -270.4418403881573 148.428701945808 0.0 0.0
-836.3413866611688 16.48458889469704 -405.5781998009031 145.4751608985658 0.0 0.0
-889.4544899858158 -39.710524606817245 -459.46802537076974 140.32883016787503 0.0 0.0
-908.009353696805 -70.00067607977846 -483.7913938474974 134.0700235000228 0.0 0.0
-900.9700968313939 -81.74804704105495 -486.0624349143078 129.39291940468678 0.0 0.0
-878.4610130842 -82.91362717418723 -475.2006982693629 128.06550629766718 0.0 0.0
-842.8294041147577 -75.47767044389572 -453.3420967873206 129.7281773833275 0.0 0.0
-799.510889378774 -63.1721421060774 -425.06571061022186 133.0196773652228 0.0 0.0
-751.6517628106819 -50.05169047626659 -393.8596034642595 136.63832196804577 0.0 0.0
-703.069396310636 -40.60199369406971 -362.83455535808423 140.09142560634874 0.0 0.0
-652.0405176963383 -36.084559891043064 -328.48962525552355 144.5756441310123 0.0 0.0
-586.8281840690236 -36.135809019398074 -279.60674505734045 148.84733657990662 0.0 0.0
-494.7967323936597 -26.69430921250043 -205.20706349294468 155.01183601682942 0.0 0.0
-380.53323588645475 -4.664751042154959 -127.13327829113864 167.00108429959937 0.0 0.0
-266.99311264814594 13.358136655818608 -76.68408655289619 170.2905807375379 0.0 0.0
-192.43480409911513 19.44346424295358 -51.80150433058843 169.5733900218508 0.0 0.0
-143.52964616366035 15.07447207053234 -38.4987988737123 171.21427503046183 0.0 0.0
-97.76973598246872 -5.430302360828149 -30.951790060355624 170.85512541053825 0.0 0.0
-48.50038845466488 -78.04331505661355 -37.9639043268751 140.94088176596003 0.0 0.0
-70.03284386056771 -242.56371555005762 -93.77896782318759 91.58994773290628 0.0 0.0
-56.96464300819528 -171.7479323529065 -68.61377260833052 -78.46396440613992 0.0 0.0
-60.2262649198053 -71.0871524691142 -39.39400675569854 -125.75877370495103 0.0 0.0
-116.86908275498615 -5.481534880475598 -36.702603421496924 -158.571713987328 0.0 0.0
-179.13996417630062 13.11012124995164 -49.79512981372165 -159.15769572641884 0.0 0.0
-248.6408030084216 18.224749380043487 -68.8436473900228 -155.39054160945238 0.0 0.0
-350.5255442608578 8.825861552565769 -105.5844559030187 -148.65583294520863 0.0 0.0
-472.4223541700111 -19.857978195572255 -177.85162104698804 -136.53939019962985 0.0 0.0
-582.0098013155774 -41.16604308929414 -267.75508252133346 -130.85438142258158 0.0 0.0
-663.1520141424307 -47.01701959696274 -335.7247052176712 -128.5876505708429 0.0 0.0
-720.1511003923837 -52.320326632511396 -378.1868982627193 -125.25062590646236 0.0 0.0
-773.2259479689883 -58.668285975805034 -411.0023823392834 -123.30798439060887 0.0 0.0
-824.4554386353702 -70.78546578842074 -443.41652551927325 -120.4776537699338 0.0 0.0
-876.1732855457074 -87.67044002648026 -477.9791881417297 -117.184302442631 0.0 0.0
-925.4523279606631 -105.03305133954994 -511.52922177791015 -113.92210796141238 0.0 0.0
-967.57846811987 -118.01956607953386 -539.3034675043177 -111.95481229992245 0.0 0.0
-995.3456602469073 -119.45268082142229 -554.1064430574377 -113.12435602313057 0.0 0.0
-998.7743581217919 -102.7502126922613 -547.6863878290394 -117.340957660435 0.0 0.0
-968.5198103031005 -57.4935044701468 -510.20438919552174 -122.8980113442461 0.0 0.0
-888.5455863741826 28.601508060591414 -428.1493000674306 -126.35876525413907 0.0 0.0
-722.1362990992716 185.79792993083146 -268.8268093438605 -126.86514653868345 0.0 0.0
-2693.0743736563736 -1874.5750934490784 -2262.718561288823 8.549250196665525e-11 0.0 0.0
-722.1362990986996 185.79792993132156 -268.8268093434996 126.86514653887211 0.0 0.0
-888.5455863742311 28.601508060499356 -428.1493000674171 126.35876525427365 0.0 0.0
-968.5198103030663 -57.49350447037865 -510.2043891955087 122.89801134448444 0.0 0.0
-998.7743581227974 -102.75021269334141 -547.686387829767 117.34095766043323 0.0 0.0
-995.3456602464287 -119.45268082111511 -554.106443057173 113.12435602309877 0.0 0.0
-967.5784681189152 -118.01956607863393 -539.3034675036286 111.95481229988484 0.0 0.0
-925.4523279609465 -105.0330513401261 -511.5292217780159 113.92210796152749 0.0 0.0
-876.1732855459794 -87.67044002700055 -477.97918814198283 117.18430244268569 0.0 0.0
-824.4554386355472 -70.78546578890867 -443.41652551941496 120.47765377001917 0.0 0.0
-773.2259479688494 -58.668285975907544 -411.00238233926393 123.3079843905899 0.0 0.0
-720.1511003922797 -52.32032663263332 -378.1868982625868 125.25062590631775 0.0 0.0
-663.1520141422677 -47.01701959728523 -335.7247052175247 128.58765057091998 0.0 0.0
-582.0098013153681 -41.166043089537524 -267.7550825210391 130.85438142261972 0.0 0.0
-472.4223541692527 -19.85797819516636 -177.85162104642905 136.5393901995374 0.0 0.0
-350.52554426033004 8.825861552694315 -105.58445590276999 148.65583294512177 0.0 0.0
-248.64080300812807 18.22474937983646 -68.84364739003009 155.3905416093211 0.0 0.0
-179.13996417618563 13.110121249832776 -49.795129813729645 159.15769572623083 0.0 0.0
-116.86908275492105 -5.481534880471001 -36.70260342147415 158.57171398726163 0.0 0.0
-60.2262649198424 -71.08715246915125 -39.394006755720824 125.75877370483582 0.0 0.0
-56.964643008118856 -171.74793235266935 -68.61377260823645 78.46396440607899 0.0 0.0
-47.406684089876144 -114.2591135906327 -48.49973930415265 -64.73833698312474 0.0 0.0
-69.47485938654737 -61.20073233737776 -39.20267751717753 -108.51042054052195 0.0 0.0
-134.83514182600993 -5.0265052768091865 -41.959190452341325 -142.2468067907633 0.0 0.0
-212.93822161576526 10.986599910769366 -60.53210199398656 -143.17341963384115 0.0 0.0
-302.56525825034566 13.464096524566623 -86.88187182354974 -134.48058124826443 0.0 0.0
-425.7217192327961 -1.4253375726435173 -138.370014691889 -121.82805398138593 0.0 0.0
-548.143623033449 -33.37459389896193 -227.68564313949423 -110.38214477905225 0.0 0.0
-649.0101342137716 -49.96469824914018 -317.76708746536684 -108.60941066294292 0.0 0.0
-717.7238356695614 -59.628630744489584 -377.55452095663145 -106.83658557467741 0.0 0.0
-777.5161511864324 -65.85064711850158 -416.9686146826005 -106.69740233744335 0.0 0.0
-831.9310272270535 -76.01018939976294 -450.85561845374065 -105.44863373390065 0.0 0.0
-886.6067486854015 -91.62004119319839 -486.3020754631733 -103.1331047528169 0.0 0.0
-942.2557946009704 -112.01550605004547 -524.424869240071 -100.31502699319127 0.0 0.0
-996.4756610088613 -133.5870429936646 -562.4251114136681 -97.37503943768598 0.0 0.0
-1045.4811261062619 -152.52691946949219 -596.5281041641307 -95.18638096046598 0.0 0.0
-1077.7736556419131 -157.78478119378053 -615.5545751142857 -95.40209097154397 0.0 0.0
-1077.559227747056 -134.09555205050447 -603.901756509802 -98.93564135801016 0.0 0.0
-1029.8226612462806 -70.04479240526553 -548.4234256676896 -103.71340990668521 0.0 0.0
-923.9163178417167 42.64597452592329 -439.94003540343556 -106.59708181371899 0.0 0.0
-745.7025500224777 211.95596300685668 -267.52999845213486 -109.00456322096466 0.0 0.0
-2993.504915848592 -2104.3031747188684 -2532.0472957816887 8.86934969912545e-11 0.0 0.0
-745.7025500232223 211.95596300604552 -267.5299984526913 109.00456322118707 0.0 0.0
-923.9163178419594 42.64597452557399 -439.9400354036213 106.59708181377877 0.0 0.0
-1029.8226612449544 -70.0447924040297 -548.4234256668556 103.71340990676562 0.0 0.0
-1077.559227747725 -134.0955520513008 -603.9017565103871 98.93564135805211 0.0 0.0
-1077.7736556408036 -157.78478119273095 -615.5545751135581 95.40209097147456 0.0 0.0
-1045.481126105971 -152.52691946934723 -596.5281041638842 95.18638096046719 0.0 0.0
-996.4756610079829 -133.587042992999 -562.4251114129852 97.3750394377108 0.0 0.0
-942.2557946015218 -112.01550605081033 -524.4248692406352 100.31502699333502 0.0 0.0
-886.6067486851666 -91.62004119322451 -486.30207546302324 103.13310475276472 0.0 0.0
-831.9310272273437 -76.01018940044307 -450.8556184540214 105.44863373411597 0.0 0.0
-777.5161511865439 -65.85064711887986 -416.96861468265865 106.69740233738708 0.0 0.0
-717.7238356689796 -59.62863074418397 -377.5545209561959 106.83658557458507 0.0 0.0
-649.0101342130887 -49.964698248821904 -317.7670874647977 108.60941066292041 0.0 0.0
-548.1436230329114 -33.37459389883029 -227.68564313900367 110.38214477901934 0.0 0.0
-425.72171923235 -1.4253375726034285 -138.37001469162726 121.82805398133317 0.0 0.0
-302.5652582499116 13.464096524518041 -86.88187182345395 134.48058124817342 0.0 0.0
-212.93822161555966 10.986599910745891 -60.53210199392914 143.1734196337194 0.0 0.0
-134.83514182593277 -5.026505277015682 -41.95919045237999 142.24680679072057 0.0 0.0
-69.47485938648664 -61.200732337267034 -39.2026775171261 108.51042054040852 0.0 0.0
-47.40668408991646 -114.25911359054399 -48.499739304138124 64.73833698307503 0.0 0.0
-41.09431188869017 -69.74214407257065 -33.25093678837825 -50.770850136150976 0.0 0.0
-76.66851526590737 -49.65112309946272 -37.89589150961102 -89.36969065594235 0.0 0.0
-151.7218138338515 -4.010378539032542 -46.72010733154724 -121.91522947480868 0.0 0.0
-245.2826396806725 7.878161221597469 -71.17870505917828 -122.53192096366105 0.0 0.0
-359.0848774598083 7.763717453790759 -106.09915967618173 -110.94309553572052 0.0 0.0
-487.6379355894651 -17.14265722510941 -174.73417648932354 -91.78640173739302 0.0 0.0
-609.808366866766 -42.36285004947904 -272.49523839860007 -86.81944080016689 0.0 0.0
-695.7737189746124 -59.22681073070505 -356.5198202749748 -86.12854187922039 0.0 0.0
-765.5771182322803 -69.30918094529144 -410.5714752860506 -86.69775727752535 0.0 0.0
-825.9933613280441 -79.64099699670535 -449.85150792258725 -87.29058749311673 0.0 0.0
-883.8238362717218 -93.55088712316538 -486.5538354597476 -86.62566404037268 0.0 0.0
-942.079526745084 -112.51848001986774 -525.3194681469209 -84.85715013845389 0.0 0.0
-1001.252390888762 -135.87816981646614 -566.6326828782745 -82.62210443151973 0.0 0.0
-1059.2277636776303 -161.56016885461943 -608.5004698461659 -80.18457035845827 0.0 0.0
-1113.2300319698807 -184.54109229782946 -647.0518316581861 -77.90821150320883 0.0 0.0
-1151.4429085344118 -194.11780617784348 -671.1649903688577 -76.99009876592504 0.0 0.0
-1149.8662466228393 -168.21872018085296 -657.8359942367231 -78.97314685065479 0.0 0.0
-1085.4862528733283 -85.87070851278838 -584.9552879771311 -83.25021380312413 0.0 0.0
-954.4958807768999 52.805987298516 -450.69770195443414 -87.64059176456243 0.0 0.0
-760.0532270207866 237.66680582785784 -261.67699712456067 -93.96854956298347 0.0 0.0
-3254.8101577345346 -2313.597636757066 -2770.524492267936 5.332267960511672e-11 0.0 0.0
-760.053227021488 237.666805827065 -261.676997124996 93.96854956315711 0.0 0.0
-954.495880776639 52.80598729868047 -450.6977019544074 87.6405917647599 0.0 0.0
-1085.486252872134 -85.8707085116271 -584.9552879763604 83.25021380308215 0.0 0.0
-1149.8662466233081 -168.21872018147988 -657.8359942371375 78.97314685078814 0.0 0.0
-1151.4429085340985 -194.11780617765805 -671.1649903686583 76.99009876596229 0.0 0.0
-1113.2300319689284 -184.5410922970116 -647.0518316575808 77.90821150317024 0.0 0.0
-1059.2277636765152 -161.56016885369056 -608.5004698453299 80.18457035850744 0.0 0.0
-1001.2523908897135 -135.87816981769657 -566.6326828789735 82.62210443167513 0.0 0.0
-942.0795267447675 -112.5184800197589 -525.3194681467221 84.85715013839635 0.0 0.0
-883.8238362716629 -93.55088712345852 -486.5538354597398 86.62566404050315 0.0 0.0
-825.9933613279571 -79.6409969969487 -449.85150792253654 87.29058749319461 0.0 0.0
-765.5771182316894 -69.30918094495559 -410.5714752856296 86.69775727745171 0.0 0.0
-695.7737189741381 -59.22681073060053 -356.51982027456853 86.12854187927339 0.0 0.0
-609.8083668662217 -42.36285004931776 -272.49523839806517 86.81944080012161 0.0 0.0
-487.63793558907656 -17.142657225244445 -174.7341764890502 91.7864017373389 0.0 0.0
-359.08487745919547 7.763717454058991 -106.0991596759324 110.9430955356816 0.0 0.0
-245.28263968044027 7.878161221671207 -71.17870505908779 122.53192096349268 0.0 0.0
-151.72181383372603 -4.010378539105005 -46.72010733153129 121.915229474683 0.0 0.0
-76.66851526581044 -49.651123099436354 -37.89589150957402 89.36969065584746 0.0 0.0
-41.09431188856399 -69.74214407245364 -33.25093678830529 50.77085013606826 0.0 0.0
-37.3568365784083 -37.96371056300036 -22.596164142422595 -36.925221312984384 0.0 0.0
-81.67520857175487 -37.566628001398946 -35.77255097194614 -68.56171003880763 0.0 0.0
-167.31356891277233 -2.6064170043873394 -50.97599577514787 -97.44745582225461 0.0 0.0
-277.4567413226671 3.785194574187485 -82.02575733399836 -97.46137892467705 0.0 0.0
-412.8259427131484 -1.8273300321577386 -127.88651205028822 -82.22785611830822 0.0 0.0
-546.784160865843 -28.643063189495184 -211.38065648730807 -66.52770433749126 0.0 0.0
-653.955966598673 -50.548864662204295 -310.92003636606916 -64.69127174270442 0.0 0.0
-735.0032326204696 -65.70036544766153 -386.3056615086686 -64.85395221829329 0.0 0.0
-805.5811610366965 -79.56038502904384 -438.24970512058076 -66.15609134513078 0.0 0.0
-869.0638420162948 -93.6173041421258 -479.3316286713227 -67.16879268356118 0.0 0.0
-930.3093943897759 -111.2285721017128 -519.2560957246903 -66.9334402129617 0.0 0.0
-992.3875038224768 -133.65828537323813 -561.5991201100117 -65.69120126033613 0.0 0.0
-1054.8428668033757 -160.51009249387022 -606.2830364723554 -64.01976761786094 0.0 0.0
-1115.4178524799772 -187.30669846774381 -649.9789389046878 -62.30017822314476 0.0 0.0
-1171.247729655312 -212.23311176041958 -690.3647548360352 -60.27492476252948 0.0 0.0
-1214.851063462153 -227.06962216938336 -719.7295175411273 -58.24653938196766 0.0 0.0
-1220.6238568913332 -206.9291581175621 -712.9613819462776 -58.10468619886523 0.0 0.0
-1147.313928745461 -114.22482143923895 -630.5096415288226 -61.843619886840614 0.0 0.0
-987.3545568717026 54.23801036475794 -466.7379858756429 -68.98310486854301 0.0 0.0
-761.7168546868592 270.6488625617773 -245.8768036702308 -80.32310514213322 0.0 0.0
-3477.277552925543 -2493.0853762061524 -2974.016380507638 3.572608875401784e-11 0.0 0.0
-761.7168546870193 270.64886256153983 -245.87680367029873 80.32310514222146 0.0 0.0
-987.3545568711278 54.238010365240726 -466.7379858753435 68.98310486877814 0.0 0.0
-1147.3139287453398 -114.2248214391806 -630.5096415286894 61.843619886778455 0.0 0.0
-1220.623856891155 -206.92915811755952 -712.9613819461605 58.10468619909022 0.0 0.0
-1214.8510634614895 -227.06962216884597 -719.7295175406151 58.246539382018426 0.0 0.0
-1171.2477296549812 -212.23311176019604 -690.3647548358149 60.27492476244472 0.0 0.0
-1115.4178524788126 -187.30669846678012 -649.9789389037946 62.300178223246704 0.0 0.0
-1054.8428668033048 -160.5100924940486 -606.2830364723729 64.01976761793924 0.0 0.0
-992.387503823804 -133.65828537484137 -561.5991201108642 65.69120126051044 0.0 0.0
-930.309394388826 -111.22857210098698 -519.2560957240453 66.93344021281656 0.0 0.0
-869.0638420162181 -93.61730414232267 -479.3316286712531 67.1687926835423 0.0 0.0
-805.5811610368395 -79.560385029468 -438.24970512065033 66.1560913450652 0.0 0.0
-735.0032326197811 -65.70036544731913 -386.30566150815054 64.85395221830382 0.0 0.0
-653.9559665980926 -50.548864661942076 -310.9200363655096 64.69127174269332 0.0 0.0
-546.7841608652977 -28.643063189298438 -211.3806564868499 66.52770433733856 0.0 0.0
-412.825942712784 -1.8273300323224648 -127.8865120501812 82.227856118293 0.0 0.0
-277.4567413223706 3.7851945742556277 -82.02575733391872 97.46137892451829 0.0 0.0
-167.31356891259344 -2.606417004237355 -50.97599577504925 97.44745582224417 0.0 0.0
-81.67520857173932 -37.566628001475145 -35.77255097196434 68.56171003866186 0.0 0.0
-37.35683657843038 -37.963710562908936 -22.596164142401793 36.92522131295846 0.0 0.0
-34.97879569499987 -18.562092785370496 -16.06226654411111 -23.962315467659693 0.0 0.0
-83.75431796385757 -26.109819134584157 -32.959241129532515 -46.383684370934105 0.0 0.0
-181.24737990377702 -1.3271686523300192 -54.77236456683208 -68.34859007885831 0.0 0.0
-310.92395734815017 -1.027937345907993 -93.39379633288785 -67.47412992457511 0.0 0.0
-462.44607951932085 -14.751210199475052 -152.93873425673036 -51.76630737821714 0.0 0.0
-594.2388095454593 -37.82191400773947 -246.8026933745428 -43.41018851503885 0.0 0.0
-686.1073047074409 -56.472514474152234 -341.1038976303496 -43.08960863887751 0.0 0.0
-768.4133002645365 -73.04194089091212 -411.3736618749591 -44.04526291019586 0.0 0.0
-840.7779073751921 -90.40067397358978 -462.7081135771339 -45.29151494745353 0.0 0.0
-907.4978412057139 -107.94136689755678 -506.282604933106 -46.3086124041857 0.0 0.0
-972.6742642291626 -129.0768477625981 -549.7813108645136 -46.4045437009295 0.0 0.0
-1038.1940318842348 -154.95994839623665 -595.5566146827244 -45.670545044988025 0.0 0.0
-1104.1151239534684 -183.92205443398979 -643.0127492149077 -44.678951048304036 0.0 0.0
-1166.5994380169814 -213.15032173227542 -688.8845871201501 -43.54995290728243 0.0 0.0
-1222.0285843805102 -237.0906227580122 -728.5823753056263 -42.070241314839585 0.0 0.0
-1264.3685663388678 -250.28518861043108 -756.404221399019 -39.85037728429434 0.0 0.0
-1282.2043922544485 -241.96735043565886 -761.3948612060285 -37.69686747146652 0.0 0.0
-1234.7534745051153 -173.78832714929104 -704.143469415401 -39.34476167116198 0.0 0.0
-1041.6096909324847 29.772199111837637 -506.35888686382043 -49.02224001286144 0.0 0.0
-737.8604676417357 325.78444701568753 -206.3840871837783 -66.91514027845255 0.0 0.0
-3647.208611413323 -2625.3181911011216 -3127.1773210691977 5.070965869435895e-11 0.0 0.0
-737.860467641068 325.7844470162952 -206.38408718324393 66.91514027858635 0.0 0.0
-1041.6096909319776 29.772199112297507 -506.358886863617 49.022240012932116 0.0 0.0
-1234.7534745046162 -173.78832714888506 -704.1434694149951 39.34476167113509 0.0 0.0
-1282.2043922538946 -241.9673504352214 -761.3948612056471 37.69686747154127 0.0 0.0
-1264.3685663377507 -250.28518860940815 -756.4042213981394 39.85037728417911 0.0 0.0
-1222.0285843802574 -237.0906227579092 -728.5823753053713 42.070241314738844 0.0 0.0
-1166.5994380157329 -213.15032173124015 -688.8845871192401 43.549952907393624 0.0 0.0
-1104.1151239538588 -183.92205443457675 -643.0127492152141 44.678951048322276 0.0 0.0
-1038.1940318850657 -154.95994839734783 -595.5566146832313 45.67054504506069 0.0 0.0
-972.6742642281845 -129.0768477618484 -549.781310863942 46.40454370084229 0.0 0.0
-907.4978412060946 -107.9413668982058 -506.2826049333089 46.308612404114164 0.0 0.0
-840.7779073749183 -90.40067397365567 -462.70811357693117 45.29151494749965 0.0 0.0
-768.4133002632962 -73.04194088993796 -411.3736618741103 44.045262910158385 0.0 0.0
-686.107304707011 -56.47251447407285 -341.10389762989917 43.089608638913965 0.0 0.0
-594.2388095445264 -37.82191400711744 -246.8026933738107 43.41018851505686 0.0 0.0
-462.44607951913906 -14.751210199930664 -152.93873425671478 51.76630737817446 0.0 0.0
-310.9239573478126 -1.027937345818223 -93.39379633277086 67.47412992452489 0.0 0.0
-181.24737990361254 -1.3271686523570076 -54.772364566790856 68.34859007885363 0.0 0.0
-83.75431796380353 -26.10981913454952 -32.959241129505905 46.38368437082285 0.0 0.0
-34.97879569494338 -18.562092785268646 -16.062266544063608 23.962315467742194 0.0 0.0
-31.6663718328796 -10.519195040783952 -12.655670062099063 -13.537026358680535 0.0 0.0
-81.42417403872659 -16.92446617614506 -29.504592064461477 -23.23769459640566 0.0 0.0
-192.97351834302722 -1.1309775273313178 -58.23134876110756 -33.32061528122081 0.0 0.0
-346.29578938724103 -5.645454472830226 -105.56927263683262 -32.016610248251325 0.0 0.0
-511.88555387815296 -25.36456863500818 -179.77759477744232 -23.198976949603203 0.0 0.0
-628.676096566994 -44.6256391565001 -278.43523347512473 -22.18563746976513 0.0 0.0
-714.8903349915056 -60.0657554963335 -365.12618683492826 -23.067654659243953 0.0 0.0
-797.0263422831847 -80.93318208935331 -432.6548827843123 -23.57112973533435 0.0 0.0
-871.9045727976821 -101.3849387850035 -484.58347804691243 -24.125957113732888 0.0 0.0
-942.2453923771686 -122.8521521753354 -531.4892937516554 -24.755409857850218 0.0 0.0
-1011.0802588931679 -147.2876528664911 -578.39825911531 -25.00777338374706 0.0 0.0
-1080.2135110380827 -175.5964773818618 -627.1900100348823 -24.87747257094598 0.0 0.0
-1148.910285417192 -207.70914213320717 -677.607196296379 -24.468444542813188 0.0 0.0
-1213.8258293304837 -238.13915633132945 -725.2922177573756 -23.940870472544056 0.0 0.0
-1267.7711656193103 -260.24042248226374 -763.3471711344476 -23.138983302049855 0.0 0.0
-1304.3811155499232 -267.76941074875964 -785.471724397541 -21.584425802265372 0.0 0.0
-1320.937653188729 -258.57304403692274 -789.1981055642709 -19.07861675484401 0.0 0.0
-1316.824408814206 -233.29230469631133 -774.6523186777754 -17.755525010552805 0.0 0.0
-1209.814206222344 -112.99205466163744 -661.7066187117305 -25.227195336228903 0.0 0.0
-717.8531018206422 375.5588303493906 -171.77561087616246 -49.97614610555547 0.0 0.0
-3609.923323231034 -2552.19306465384 -3074.150669302425 -3.47437634218295e-11 0.0 0.0
-717.853101819426 375.5588303505478 -171.77561087522878 49.9761461056426 0.0 0.0
-1209.814206222633 -112.99205466198758 -661.7066187120879 25.22719533629131 0.0 0.0
-1316.824408813439 -233.29230469562614 -774.6523186772562 17.755525010672308 0.0 0.0
-1320.9376531898088 -258.57304403811366 -789.1981055650303 19.07861675481937 0.0 0.0
-1304.3811155486342 -267.76941074758633 -785.4717243965772 21.584425802207363 0.0 0.0
-1267.771165618932 -260.2404224820564 -763.3471711341905 23.138983302051297 0.0 0.0
-1213.8258293300044 -238.13915633103005 -725.2922177570673 23.940870472601546 0.0 0.0
-1148.9102854179368 -207.70914213418067 -677.6071962968091 24.46844454279052 0.0 0.0
-1080.2135110372633 -175.59647738127995 -627.1900100343973 24.8774725709855 0.0 0.0
-1011.0802588927729 -147.28765286634086 -578.3982591150561 25.00777338375125 0.0 0.0
-942.2453923772088 -122.8521521756737 -531.4892937516078 24.755409857826876 0.0 0.0
-871.9045727971818 -101.38493878478812 -484.583478046587 24.125957113713717 0.0 0.0
-797.0263422824107 -80.93318208887393 -432.6548827837682 23.571129735324085 0.0 0.0
-714.8903349907861 -60.065755495940394 -365.12618683434215 23.06765465930188 0.0 0.0
-628.6760965661246 -44.62563915588259 -278.4352334744137 22.18563746983194 0.0 0.0
-511.8855538780378 -25.364568635417218 -179.77759477737013 23.198976949559988 0.0 0.0
-346.29578938692975 -5.645454472860955 -105.5692726367673 32.016610248285694 0.0 0.0
-192.9735183430516 -1.1309775276267362 -58.231348761203485 33.32061528118347 0.0 0.0
-81.4241740385661 -16.924466175993903 -29.504592064367987 23.23769459640097 0.0 0.0
-31.666371832705398 -10.519195040719062 -12.655670062027337 13.537026358721779 0.0 0.0
-20.429050442245362 -5.302189619369985 -7.719372018484604 -8.34413473026258 0.0 0.0
-70.69236070756457 -9.6302656792091 -24.0967879160321 -9.653853295209851 0.0 0.0
-201.64685750022838 -2.923051255229101 -61.370972626637226 -11.156389944805408 0.0 0.0
-389.3574106078723 -21.43553857357502 -124.49266782536886 -8.351787658741788 0.0 0.0
-579.0517681681673 -67.5029891344171 -224.90544011825486 -0.47653291899590755 0.0 0.0
-715.8092493863694 -113.94312827172374 -351.17935930179533 1.2454081797628476 0.0 0.0
-833.3671329822314 -163.6760071060208 -468.210330462509 0.7643182650942606 0.0 0.0
-957.5816242987828 -228.13726814233559 -576.8663978405447 -0.6342640058356785 0.0 0.0
-1088.1410786813187 -305.13170474022775 -684.6351554156831 -2.215294176924674 0.0 0.0
-1233.568641637976 -401.4510449738767 -806.3640227184667 -3.884565611004131 0.0 0.0
-1399.5123164610545 -522.3556878643934 -949.7545855716743 -5.468730698481396 0.0 0.0
-1586.5743265887218 -668.8167596248612 -1116.1744181218864 -6.757455927550499 0.0 0.0
-1789.4878631932306 -834.0504300782288 -1299.816656759724 -7.62190189425243 0.0 0.0
-1998.7336215699727 -1008.380833206001 -1491.2449992861334 -8.340879732475184 0.0 0.0
-2198.6490937631656 -1176.090431320596 -1674.79843114402 -8.7308046657485 0.0 0.0
-2367.461794861354 -1315.7149337081655 -1828.9095225878286 -8.517103948271743 0.0 0.0
-2478.6640684702043 -1401.5485823454544 -1927.4825508570543 -7.254704936000746 0.0 0.0
-2515.9249896224246 -1418.1609522437982 -1954.2294730904891 -5.467322754729434 0.0 0.0
-2551.147575048116 -1438.703339031875 -1980.8151398093037 -11.124699364600625 0.0 0.0
-2600.6514619784734 -1486.6575808598418 -2026.840799112596 -39.41449627551094 0.0 0.0
-6006.3381103887305 -4920.72965210415 -5438.990454762387 -1.3369572116062045e-10 0.0 0.0
-2600.6514619770333 -1486.6575808584512 -2026.8407991115378 39.41449627550958 0.0 0.0
-2551.147575047258 -1438.7033390310748 -1980.8151398085904 11.124699364715582 0.0 0.0
-2515.9249896217902 -1418.1609522432498 -1954.229473089801 5.467322754809828 0.0 0.0
-2478.664068471415 -1401.548582346817 -1927.4825508576278 7.254704935899127 0.0 0.0
-2367.4617948592913 -1315.7149337062294 -1828.9095225861352 8.51710394833772 0.0 0.0
-2198.649093762988 -1176.0904313205917 -1674.7984311436935 8.730804665725124 0.0 0.0
-1998.7336215693936 -1008.380833205583 -1491.2449992854358 8.340879732349407 0.0 0.0
-1789.4878631929223 -834.0504300781945 -1299.8166567591973 7.621901894103605 0.0 0.0
-1586.5743265869232 -668.816759623278 -1116.174418120593 6.757455927682461 0.0 0.0
-1399.5123164601623 -522.3556878637785 -949.7545855707841 5.4687306986204085 0.0 0.0
-1233.5686416372598 -401.4510449734297 -806.3640227177868 3.8845656111099522 0.0 0.0
-1088.1410786812294 -305.13170474043983 -684.6351554154949 2.2152941767497047 0.0 0.0
-957.5816242981956 -228.13726814209107 -576.8663978400252 0.6342640058162203 0.0 0.0
-833.3671329809868 -163.6760071050591 -468.2103304615571 -0.7643182650277964 0.0 0.0
-715.8092493858271 -113.9431282714876 -351.1793593012078 -1.2454081798011813 0.0 0.0
-579.0517681680001 -67.50298913473455 -224.90544011808305 0.47653291912683216 0.0 0.0
-389.35741060725445 -21.435538573292238 -124.49266782508707 8.351787658768696 0.0 0.0
-201.64685750011807 -2.923051255585708 -61.37097262671114 11.156389944847273 0.0 0.0
-70.69236070767316 -9.630265679177924 -24.096787916055327 9.653853295254114 0.0 0.0
-20.42905044246264 -5.302189619509271 -7.719372018591572 8.344134730233833 0.0 0.0
SCALARS Strain float 6
LOOKUP_TABLE default
0.014067508072308412 -0.02352844810967121 0.0 -0.0012974663434763972 0.0 0.0
0.008637536171399365 -0.002474443099342284 0.0 -0.007173609190849133 0.0 0.0
0.002574139288337044 -0.0006158860778686981 0.0 -0.0008243871697702588 0.0 0.0
0.002209110059981838 -0.0008814636827518302 0.0 -9.980159952314417e-07 0.0 0.0
0.0032042954320340104 -0.0013830191913326456 0.0 0.00016576918730587 0.0 0.0
0.0053740805367394635 -0.003004812551945406 0.0 0.00031272829719850763 0.0 0.0
0.009124406389914831 -0.006187715641472255 0.0 0.00041687611893489204 0.0 0.0
0.014753467522388892 -0.011229919085182016 0.0 0.00045493687892018953 0.0 0.0
0.022502358303309787 -0.018347727743706736 0.0 0.0004285448989368187 0.0 0.0
0.032464791708069825 -0.02757879537201447 0.0 0.0003132565192674436 0.0 0.0
0.04459167401924874 -0.03883951510014296 0.0 0.00014368727123411935 0.0 0.0
0.05875444149798624 -0.05199787781141717 0.0 -7.755082895567604e-05 0.0 0.0
0.07478915427871186 -0.06692297595364263 0.0 -0.00038093486400860856 0.0 0.0
0.09252034869120679 -0.08348062297515414 0.0 -0.0007193823435121718 0.0 0.0
0.11168855249092954 -0.1014660973776241 0.0 -0.00112693715143152 0.0 0.0
0.13179789657781998 -0.12044437244676229 0.0 -0.001593300859820563 0.0 0.0
0.15201078575920604 -0.13963902435649564 0.0 -0.0020290013671368985 0.0 0.0
0.17113670733701924 -0.1579214932722993 0.0 -0.002267025716279781 0.0 0.0
0.18774706314198972 -0.1738802555430386 0.0 -0.002135919110456949 0.0 0.0
0.20011562637725516 -0.18586693406984392 0.0 -0.00238037722839542 0.0 0.0
0.20499564668005565 -0.19080222449009776 0.0 1.7728873924482969e-15 0.0 0.0
0.20011562637722843 -0.18586693406982976 0.0 0.0023803772284026383 0.0 0.0
0.18774706314193487 -0.17388025554298422 0.0 0.0021359191104631074 0.0 0.0
0.17113670733693942 -0.1579214932722119 0.0 0.0022670257162833857 0.0 0.0
0.15201078575911273 -0.1396390243564091 0.0 0.0020290013671356195 0.0 0.0
0.1317978965777235 -0.12044437244667053 0.0 0.001593300859817886 0.0 0.0
0.11168855249083165 -0.10146609737753728 0.0 0.0011269371514285092 0.0 0.0
0.09252034869110841 -0.08348062297506047 0.0 0.0007193823435107652 0.0 0.0
0.07478915427861693 -0.06692297595355444 0.0 0.00038093486400675274 0.0 0.0
0.05875444149789888 -0.05199787781133383 0.0 7.755082894999113e-05 0.0 0.0
0.044591674019172974 -0.03883951510008092 0.0 -0.0001436872712411569 0.0 0.0
0.03246479170800859 -0.02757879537195862 0.0 -0.00031325651927027634 0.0 0.0
0.02250235830326331 -0.018347727743663268 0.0 -0.00042854489893621756 0.0 0.0
0.0147534675223551 -0.011229919085148761 0.0 -0.0004549368789209642 0.0 0.0
0.009124406389892863 -0.006187715641457024 0.0 -0.0004168761189329386 0.0 0.0
0.005374080536728082 -0.0030048125519334524 0.0 -0.0003127282972006168 0.0 0.0
0.0032042954320289775 -0.0013830191913280045 0.0 -0.00016576918730855616 0.0 0.0
0.0022091100599803547 -0.0008814636827502106 0.0 9.980159962201833e-07 0.0 0.0
0.0025741392883356588 -0.0006158860778693823 0.0 0.0008243871697677224 0.0 0.0
0.008637536171393257 -0.0024744430993383767 0.0 0.007173609190837543 0.0 0.0
0.014067508072299022 -0.023528448109646088 0.0 0.0012974663434317047 0.0 0.0
0.009799761654507012 -0.021084623175944495 0.0 -0.0008259555586511821 0.0 0.0
0.005741530342010398 -0.001847862898015871 0.0 -0.005826040147157286 0.0 0.0
0.001703484025002865 -0.0004757751679230884 0.0 -0.0005256032552227229 0.0 0.0
0.001951494461944793 -0.0008295026303393834 0.0 -0.00019620472797391453 0.0 0.0
0.002764502028989063 -0.0012467255470701153 0.0 -0.00015283038323805708 0.0 0.0
0.004608659227470384 -0.002691377910948165 0.0 -0.00022242752077067696 0.0 0.0
0.007943267200119505 -0.00565318029256872 0.0 -0.0005035554808970633 0.0 0.0
0.013047818568028738 -0.01042512231822962 0.0 -0.0009443639526970061 0.0 0.0
0.020115565084752617 -0.01720022423791278 0.0 -0.0015618510424055749 0.0 0.0
0.029182008836659952 -0.025986819254658025 0.0 -0.002328920004144514 0.0 0.0
0.04016066460312918 -0.0366815732351946 0.0 -0.0031682630636643136 0.0 0.0
0.05292402883577614 -0.04914927546591107 0.0 -0.004023544757654152 0.0 0.0
0.0673608917077256 -0.06328000821039148 0.0 -0.004912577386851163 0.0 0.0
0.08334538602628508 -0.078969843687594 0.0 -0.005844056782038627 0.0 0.0
0.10065603420445857 -0.09603015500383683 0.0 -0.0067929955039804256 0.0 0.0
0.11886391041467863 -0.11405970609171681 0.0 -0.007679263451847749 0.0 0.0
0.13723286820593533 -0.13233965388384716 0.0 -0.008281269016383349 0.0 0.0
0.15470438596604055 -0.14980860826785847 0.0 -0.00826881957155508 0.0 0.0
0.16988701984169877 -0.16509229415047955 0.0 -0.007431031502612547 0.0 0.0
0.18079091492289265 -0.17639489468667469 0.0 -0.0063368286164663425 0.0 0.0
0.1848719197454384 -0.18109810655438469 0.0 7.641456911677835e-15 0.0 0.0
0.18079091492286775 -0.17639489468665642 0.0 0.006336828616488154 0.0 0.0
0.16988701984164967 -0.16509229415042984 0.0 0.007431031502632769 0.0 0.0
0.15470438596597072 -0.1498086082677832 0.0 0.008268819571566936 0.0 0.0
0.13723286820585326 -0.1323396538837619 0.0 0.008281269016383715 0.0 0.0
0.1188639104145921 -0.11405970609163144 0.0 0.007679263451842308 0.0 0.0
0.1006560342043701 -0.09603015500375282 0.0 0.006792995503976347 0.0 0.0
0.08334538602619639 -0.0789698436875098 0.0 0.00584405678203552 0.0 0.0
0.0673608917076403 -0.063280008210305 0.0 0.004912577386847642 0.0 0.0
0.05292402883569743 -0.04914927546583322 0.0 0.004023544757645846 0.0 0.0
0.04016066460306073 -0.03668157323512493 0.0 0.0031682630636537205 0.0 0.0
0.029182008836604836 -0.025986819254605078 0.0 0.0023289200041402974 0.0 0.0
0.020115565084710074 -0.017200224237870446 0.0 0.0015618510424037484 0.0 0.0
0.013047818567998066 -0.010425122318200126 0.0 0.0009443639526934142 0.0 0.0
0.007943267200099814 -0.0056531802925510405 0.0 0.0005035554808965183 0.0 0.0
0.00460865922746055 -0.002691377910938522 0.0 0.0002224275207706613 0.0 0.0
0.0027645020289859814 -0.0012467255470671504 0.0 0.00015283038323601403 0.0 0.0
0.0019514944619438129 -0.0008295026303387456 0.0 0.00019620472797480566 0.0 0.0
0.0017034840250021888 -0.00047577516792344414 0.0 0.0005256032552218536 0.0 0.0
0.005741530342003384 -0.0018478628980120914 0.0 0.005826040147145295 0.0 0.0
0.009799761654493687 -0.021084623175918346 0.0 0.0008259555586166274 0.0 0.0
0.007169759865442471 -0.016803166222851485 0.0 -0.003785896204658231 0.0 0.0
0.00406843750142911 -0.0010262476283882035 0.0 -0.005843053305855585 0.0 0.0
0.001187125296040546 -0.00026109331766521423 0.0 -0.00047981773649476763 0.0 0.0
0.0016556682515656914 -0.0007049432530562948 0.0 -0.00048035879115881214 0.0 0.0
0.0023658952037178033 -0.001012031051575618 0.0 -0.00048495431100946645 0.0 0.0
0.0038834598378807315 -0.0021027334982810864 0.0 -0.0006098789719568273 0.0 0.0
0.006775945371040114 -0.0046023161305378275 0.0 -0.0011455665716987257 0.0 0.0
0.011328546333090888 -0.008821473300676647 0.0 -0.0020034764973132476 0.0 0.0
0.017678420919940492 -0.014891120520310868 0.0 -0.003191041489723478 0.0 0.0
0.025821031309128894 -0.022776008416526845 0.0 -0.004633050720711902 0.0 0.0
0.035640940632471224 -0.03233278301571451 0.0 -0.006193413889842033 0.0 0.0
0.04700943258671534 -0.04342275055808895 0.0 -0.007751647494646541 0.0 0.0
0.059839823402110214 -0.05596512593927136 0.0 -0.009299435820744823 0.0 0.0
0.07405810078855785 -0.06990748114105143 0.0 -0.010906927808893317 0.0 0.0
0.0894966253032028 -0.08510833802149316 0.0 -0.012553615790070827 0.0 0.0
0.10579941478217347 -0.10123680276183386 0.0 -0.014064587367251349 0.0 0.0
0.12235312734334243 -0.11769345290134967 0.0 -0.01507525627440904 0.0 0.0
0.1382134884084601 -0.13355088230613565 0.0 -0.015089610155388315 0.0 0.0
0.15199708521322514 -0.14748596637451927 0.0 -0.013770724823168967 0.0 0.0
0.1619166865416467 -0.15765295199388232 0.0 -0.01110327808396579 0.0 0.0
0.16566879544566726 -0.16214461000932207 0.0 1.5542254983014203e-14 0.0 0.0
0.1619166865416232 -0.15765295199386423 0.0 0.011103278084001841 0.0 0.0
0.15199708521318087 -0.14748596637447897 0.0 0.013770724823205262 0.0 0.0
0.13821348840839878 -0.13355088230607365 0.0 0.015089610155409116 0.0 0.0
0.12235312734327025 -0.1176934529012778 0.0 0.015075256274410899 0.0 0.0
0.10579941478209628 -0.10123680276176007 0.0 0.014064587367242323 0.0 0.0
0.08949662530312401 -0.08510833802141647 0.0 0.01255361579006509 0.0 0.0
0.07405810078847933 -0.0699074811409802 0.0 0.010906927808889143 0.0 0.0
0.05983982340203456 -0.05596512593919446 0.0 0.009299435820736873 0.0 0.0
0.047009432586645264 -0.043422750558022395 0.0 0.007751647494635128 0.0 0.0
0.03564094063241027 -0.03233278301564489 0.0 0.006193413889831795 0.0 0.0
0.02582103130907964 -0.022776008416481187 0.0 0.004633050720703368 0.0 0.0
0.01767842091990203 -0.0148911205202708 0.0 0.003191041489716321 0.0 0.0
0.011328546333062996 -0.008821473300653958 0.0 0.002003476497307878 0.0 0.0
0.006775945371023122 -0.004602316130520756 0.0 0.0011455665716955472 0.0 0.0
0.0038834598378726373 -0.0021027334982744858 0.0 0.0006098789719569998 0.0 0.0
0.0023658952037147176 -0.001012031051573965 0.0 0.00048495431100795876 0.0 0.0
0.001655668251564717 -0.0007049432530566523 0.0 0.0004803587911589351 0.0 0.0
0.0011871252960407796 -0.0002610933176653403 0.0 0.0004798177364939094 0.0 0.0
0.00406843750142233 -0.001026247628384437 0.0 0.005843053305841656 0.0 0.0
0.007169759865428138 -0.01680316622282568 0.0 0.0037858962046366075 0.0 0.0
0.0054068457604714015 -0.013523157412262773 0.0 -0.004217291508719745 0.0 0.0
0.0029987160248581314 -0.0007408591093793042 0.0 -0.005328355744897139 0.0 0.0
0.0008459317324932533 -0.00014690091986510005 0.0 -0.0007652959515858505 0.0 0.0
0.0013674547547407622 -0.0005618065253310351 0.0 -0.000765379264787974 0.0 0.0
0.002001322622298315 -0.0008328966296362228 0.0 -0.0008093656484922766 0.0 0.0
0.003216878631269789 -0.001609287576392946 0.0 -0.0009500964295641235 0.0 0.0
0.005643324118749666 -0.003607812332749552 0.0 -0.001576663066145721 0.0 0.0
0.009611481767873544 -0.0072376441640343535 0.0 -0.002772317536205337 0.0 0.0
0.015215899247447758 -0.01256945070658991 0.0 -0.0043917234594006566 0.0 0.0
0.022412111855412645 -0.01952688269433393 0.0 -0.006346414179869581 0.0 0.0
0.03106151628808186 -0.027935504023041777 0.0 -0.008446188634584514 0.0 0.0
0.04103398556309292 -0.0376494129223378 0.0 -0.010537156876844882 0.0 0.0
0.05226048635447146 -0.048604856388230235 0.0 -0.012604631018003529 0.0 0.0
0.06469774716236822 -0.06078646504263513 0.0 -0.01471702361711948 0.0 0.0
0.07824252187641456 -0.07410805883041435 0.0 -0.016865858403590322 0.0 0.0
0.09263223400698943 -0.08832224171596295 0.0 -0.01885725264758321 0.0 0.0
0.10736690495313893 -0.1029529442387075 0.0 -0.020250162782831062 0.0 0.0
0.1216199420378906 -0.11720530680192043 0.0 -0.020445053104892846 0.0 0.0
0.13414517739558046 -0.12985159463664386 0.0 -0.018818921611206452 0.0 0.0
0.14338855054117133 -0.1392640292626883 0.0 -0.01453064672481328 0.0 0.0
0.14698518975350536 -0.14389804497188866 0.0 2.0707394132735146e-14 0.0 0.0
0.14338855054115046 -0.1392640292626715 0.0 0.01453064672486128 0.0 0.0
0.13414517739554094 -0.12985159463660495 0.0 0.018818921611253103 0.0 0.0
0.1216199420378371 -0.11720530680186228 0.0 0.020445053104919283 0.0 0.0
0.10736690495307638 -0.10295294423865263 0.0 0.020250162782835843 0.0 0.0
0.09263223400692167 -0.08832224171589664 0.0 0.018857252647575064 0.0 0.0
0.07824252187634562 -0.07410805883035014 0.0 0.016865858403582977 0.0 0.0
0.06469774716229947 -0.060786465042567836 0.0 0.01471702361711201 0.0 0.0
0.05226048635440485 -0.04860485638817066 0.0 0.012604631017992555 0.0 0.0
0.04103398556303216 -0.03764941292227482 0.0 0.01053715687682954 0.0 0.0
0.03106151628802887 -0.027935504022984798 0.0 0.008446188634570815 0.0 0.0
0.022412111855368868 -0.019526882694293722 0.0 0.006346414179856449 0.0 0.0
0.015215899247414046 -0.012569450706557421 0.0 0.004391723459388312 0.0 0.0
0.009611481767849598 -0.007237644164016219 0.0 0.002772317536198052 0.0 0.0
0.005643324118735653 -0.0036078123327369536 0.0 0.001576663066142238 0.0 0.0
0.003216878631263709 -0.0016092875763883267 0.0 0.0009500964295625662 0.0 0.0
0.0020013226222961706 -0.0008328966296357558 0.0 0.0008093656484904088 0.0 0.0
0.0013674547547405278 -0.0005618065253313317 0.0 0.0007653792647874665 0.0 0.0
0.0008459317324934198 -0.0001469009198650948 0.0 0.0007652959515835378 0.0 0.0
0.0029987160248521856 -0.0007408591093760051 0.0 0.005328355744884765 0.0 0.0
0.005406845760459742 -0.013523157412239813 0.0 0.004217291508703606 0.0 0.0
0.0040929923702085185 -0.010887482607817162 0.0 -0.003755372091359648 0.0 0.0
0.002239282945735026 -0.0005958204027433616 0.0 -0.004756491316223378 0.0 0.0
0.00061420973391909 -9.143345008541152e-05 0.0 -0.001156177402715661 0.0 0.0
0.0011054592147114065 -0.0004274228301059041 0.0 -0.0010725204103288286 0.0 0.0
0.0016653305914722644 -0.0006842472849915669 0.0 -0.0011312085158720613 0.0 0.0
0.002621255406346556 -0.0012217954740446962 0.0 -0.0012613486905108423 0.0 0.0
0.00457107064041255 -0.002715929046825395 0.0 -0.0018721155104470654 0.0 0.0
0.007916671142947196 -0.005695517621602493 0.0 -0.003212316687281746 0.0 0.0
0.012754152020118873 -0.010263600791704111 0.0 -0.005155511245705588 0.0 0.0
0.01898352056081357 -0.01627160027661872 0.0 -0.007462334345537001 0.0 0.0
0.026453095286586698 -0.023521641414690746 0.0 -0.009930148218570226 0.0 0.0
0.03502576593797412 -0.03185767862224775 0.0 -0.012381849981862068 0.0 0.0
0.0446450831689529 -0.04122686062001362 0.0 -0.014805210665551682 0.0 0.0
0.0553034375086582 -0.05164493435552142 0.0 -0.01726993249787469 0.0 0.0
0.06694356145016435 -0.06307622158774162 0.0 -0.0197510746000847 0.0 0.0
0.07938847264003725 -0.07535341876974933 0.0 -0.022045996567672792 0.0 0.0
0.09227137025516079 -0.08812271220287125 0.0 -0.023751155099451977 0.0 0.0
0.10492226977832991 -0.10074699671252661 0.0 -0.024225218631855908 0.0 0.0
0.11629684427580987 -0.112202750992147 0.0 -0.022467943229223606 0.0 0.0
0.12505833987770398 -0.12110009932614696 0.0 -0.017130891247091076 0.0 0.0
0.1286065228111059 -0.12605271111406263 0.0 2.303626039923401e-14 0.0 0.0
0.12505833987768458 -0.12110009932612564 0.0 0.017130891247146892 0.0 0.0
0.11629684427577469 -0.11220275099211147 0.0 0.02246794322927783 0.0 0.0
0.10492226977828363 -0.10074699671247579 0.0 0.024225218631887337 0.0 0.0
0.0922713702551069 -0.08812271220282472 0.0 0.023751155099456432 0.0 0.0
0.07938847263997878 -0.07535341876968796 0.0 0.022045996567664074 0.0 0.0
0.06694356145010484 -0.06307622158768818 0.0 0.019751074600076385 0.0 0.0
0.05530343750859898 -0.05164493435546034 0.0 0.017269932497864078 0.0 0.0
0.044645083168895615 -0.04122686061996202 0.0 0.014805210665539283 0.0 0.0
0.03502576593792209 -0.03185767862219428 0.0 0.012381849981845909 0.0 0.0
0.026453095286541498 -0.023521641414647083 0.0 0.009930148218549586 0.0 0.0
0.018983520560775565 -0.016271600276580655 0.0 0.0074623343455198134 0.0 0.0
0.012754152020089577 -0.010263600791679066 0.0 0.005155511245692822 0.0 0.0
0.007916671142927285 -0.005695517621586126 0.0 0.003212316687273618 0.0 0.0
0.004571070640401166 -0.0027159290468165135 0.0 0.0018721155104424428 0.0 0.0
0.002621255406341945 -0.0012217954740441875 0.0 0.0012613486905074741 0.0 0.0
0.0016653305914710178 -0.0006842472849913693 0.0 0.0011312085158710996 0.0 0.0
0.0011054592147110502 -0.0004274228301062723 0.0 0.001072520410328319 0.0 0.0
0.0006142097339191282 -9.143345008551387e-05 0.0 0.0011561774027138566 0.0 0.0
0.002239282945730141 -0.0005958204027416405 0.0 0.004756491316212926 0.0 0.0
0.004092992370198521 -0.010887482607797021 0.0 0.0037553720913471762 0.0 0.0
0.003065491318773842 -0.008691619200827453 0.0 -0.003116172171941563 0.0 0.0
0.0016657772641835507 -0.0004997272557537684 0.0 -0.004203058551741791 0.0 0.0
0.0004475893004187029 -7.180315842599811e-05 0.0 -0.0015286812879505385 0.0 0.0
0.0008675997650707079 -0.0003068627732192431 0.0 -0.0013822340981904258 0.0 0.0
0.0013538736903453649 -0.0005540703249945877 0.0 -0.0014460836979070008 0.0 0.0
0.002091329072633886 -0.0009227098277070675 0.0 -0.0015511045143869872 0.0 0.0
0.0035907085864466098 -0.0019644755327653113 0.0 -0.002105418524934229 0.0 0.0
0.006281969884825917 -0.004251744758317557 0.0 -0.0033880435594611773 0.0 0.0
0.01031139848534209 -0.008002040103574115 0.0 -0.0054539360440789275 0.0 0.0
0.015563729462085705 -0.013042380115299193 0.0 -0.007970927997148245 0.0 0.0
0.02184359444798331 -0.019123278950295704 0.0 -0.010636505957993514 0.0 0.0
0.029015089779658408 -0.026079935939360782 0.0 -0.013283171011499279 0.0 0.0
0.03702899608058838 -0.033864357774415044 0.0 -0.015890857492233037 0.0 0.0
0.045902107591714314 -0.04251842507688084 0.0 -0.018532176590540222 0.0 0.0
0.055633263605891846 -0.052054141638461456 0.0 -0.021188557833558445 0.0 0.0
0.06611515312133182 -0.06237446072267726 0.0 -0.023645908759446947 0.0 0.0
0.07709075219318362 -0.07322959743478037 0.0 -0.025541445707758213 0.0 0.0
0.08810364680041377 -0.08417610656717923 0.0 -0.026288618156940374 0.0 0.0
0.09837707127387973 -0.09448098211306914 0.0 -0.024709925502387074 0.0 0.0
0.10678182060716668 -0.10300571860289293 0.0 -0.01901898246259729 0.0 0.0
0.11035646005123172 -0.1084194975007752 0.0 2.399296039623522e-14 0.0 0.0
0.10678182060714995 -0.10300571860287545 0.0 0.019018982462649964 0.0 0.0
0.09837707127384977 -0.0944809821130406 0.0 0.024709925502443858 0.0 0.0
0.08810364680037427 -0.08417610656713731 0.0 0.02628861815697301 0.0 0.0
0.07709075219313818 -0.07322959743473663 0.0 0.025541445707762216 0.0 0.0
0.06611515312128245 -0.06237446072262817 0.0 0.02364590875943659 0.0 0.0
0.05563326360584178 -0.05205414163841657 0.0 0.021188557833548 0.0 0.0
0.04590210759166539 -0.04251842507683032 0.0 0.018532176590529293 0.0 0.0
0.03702899608054135 -0.03386435777437007 0.0 0.015890857492220967 0.0 0.0
0.029015089779615373 -0.026079935939318705 0.0 0.013283171011484057 0.0 0.0
0.021843594447945473 -0.019123278950266304 0.0 0.010636505957971469 0.0 0.0
0.015563729462054133 -0.013042380115266641 0.0 0.007970927997127791 0.0 0.0
0.0103113984853177 -0.008002040103552316 0.0 0.005453936044064334 0.0 0.0
0.006281969884809984 -0.004251744758304326 0.0 0.003388043559452156 0.0 0.0
0.0035907085864382783 -0.0019644755327589535 0.0 0.0021054185249293417 0.0 0.0
0.0020913290726306466 -0.0009227098277070193 0.0 0.001551104514384894 0.0 0.0
0.0013538736903445634 -0.0005540703249931877 0.0 0.0014460836979061462 0.0 0.0
0.000867599765070684 -0.0003068627732190576 0.0 0.001382234098188701 0.0 0.0
0.00044758930041894013 -7.180315842656286e-05 0.0 0.0015286812879484806 0.0 0.0
0.0016657772641792252 -0.0004997272557522867 0.0 0.004203058551731767 0.0 0.0
0.0030654913187651354 -0.00869161920081048 0.0 0.0031161721719336058 0.0 0.0
0.00225172320971487 -0.0068393927759468585 0.0 -0.0025263495667841676 0.0 0.0
0.0012199351490994714 -0.000427265554617618 0.0 -0.0037023142846116996 0.0 0.0
0.0003175601021981524 -6.680543077866431e-05 0.0 -0.0018364523079220296 0.0 0.0
0.0006470901381306369 -0.00020007048461797804 0.0 -0.0016700028132542793 0.0 0.0
0.001058656911804537 -0.00042783161673474296 0.0 -0.0017344391014498084 0.0 0.0
0.00161600096644501 -0.0006927732652709192 0.0 -0.0018396618849348062 0.0 0.0
0.0027072657991170563 -0.001358180702653618 0.0 -0.0022730670505481704 0.0 0.0
0.004752829203047267 -0.0029729739612518427 0.0 -0.0034102695861639365 0.0 0.0
0.007934584226673183 -0.0058437101418304 0.0 -0.0053312624510987216 0.0 0.0
0.012177108358479096 -0.009875383392441402 0.0 -0.007842666218118816 0.0 0.0
0.0172628235227545 -0.01477517922874198 0.0 -0.010546188537782275 0.0 0.0
0.02303069558825529 -0.020350003757321437 0.0 -0.013226287117442611 0.0 0.0
0.029442067086253944 -0.026555124311351527 0.0 -0.01584973440343047 0.0 0.0
0.03653473278238367 -0.033448475686604535 0.0 -0.018491985788031566 0.0 0.0
0.04434694241547819 -0.04108205209211091 0.0 -0.02114377379863455 0.0 0.0
0.05284070296969589 -0.04942793819035128 0.0 -0.02362528568056252 0.0 0.0
0.061865482692816984 -0.05832144613062938 0.0 -0.025581830029972556 0.0 0.0
0.07116609119856415 -0.06750690427087319 0.0 -0.026552275730683986 0.0 0.0
0.08029603075025081 -0.07660756530815846 0.0 -0.025449337695854904 0.0 0.0
0.08840067527320458 -0.0848155847347695 0.0 -0.02017322886673877 0.0 0.0
0.09205717303019612 -0.09082445225488657 0.0 2.0871325501214955e-14 0.0 0.0
0.08840067527319075 -0.08481558473475101 0.0 0.020173228866792993 0.0 0.0
0.08029603075022611 -0.07660756530813438 0.0 0.02544933769591156 0.0 0.0
0.07116609119853122 -0.06750690427084113 0.0 0.0265522757307161 0.0 0.0
0.06186548269277971 -0.05832144613059147 0.0 0.02558183002997652 0.0 0.0
0.05284070296965564 -0.04942793819031367 0.0 0.023625285680550008 0.0 0.0
0.04434694241543785 -0.041082052092073454 0.0 0.021143773798623342 0.0 0.0
0.036534732782344925 -0.03344847568656566 0.0 0.01849198578802106 0.0 0.0
0.02944206708621734 -0.02655512431132172 0.0 0.015849734403418508 0.0 0.0
0.023030695588221305 -0.02035000375728367 0.0 0.01322628711742431 0.0 0.0
0.017262823522724065 -0.014775179228718575 0.0 0.010546188537758492 0.0 0.0
0.012177108358453459 -0.009875383392417282 0.0 0.0078426662180983 0.0 0.0
0.007934584226654051 -0.005843710141814 0.0 0.005331262451084658 0.0 0.0
0.0047528292030352476 -0.0029729739612430234 0.0 0.0034102695861556497 0.0 0.0
0.002707265799110923 -0.0013581807026488034 0.0 0.002273067050544873 0.0 0.0
0.0016160009664427843 -0.0006927732652705755 0.0 0.0018396618849323152 0.0 0.0
0.0010586569118038159 -0.00042783161673397123 0.0 0.0017344391014481268 0.0 0.0
0.0006470901381305013 -0.00020007048461732807 0.0 0.0016700028132518774 0.0 0.0
0.00031756010219814024 -6.680543077893453e-05 0.0 0.0018364523079190953 0.0 0.0
0.0012199351490962125 -0.0004272655546163205 0.0 0.003702314284603143 0.0 0.0
0.002251723209708393 -0.006839392775933034 0.0 0.002526349566777986 0.0 0.0
0.0016072101115622757 -0.005284649785629781 0.0 -0.0020678727814990843 0.0 0.0
0.0008674466090389881 -0.000374198893004453 0.0 -0.0032505742250622444 0.0 0.0
0.00020521221027051395 -6.03721704133049e-05 0.0 -0.0020704331168644014 0.0 0.0
0.0004375503263716999 -0.00010518645612421387 0.0 -0.001917972740006154 0.0 0.0
0.0007692256880927899 -0.00029650251565919273 0.0 -0.001978716307226574 0.0 0.0
0.0011859235176249533 -0.0005056325866588556 0.0 -0.002121803666208418 0.0 0.0
0.0019223805882190893 -0.0008929783484694274 0.0 -0.0024181185683949157 0.0 0.0
0.0033501081121034525 -0.0018981550441463362 0.0 -0.0032968433974398044 0.0 0.0
0.0056790326220558275 -0.0038745519895498643 0.0 -0.004898340360248342 0.0 0.0
0.008870707319496322 -0.00683733429143034 0.0 -0.007112688260673318 0.0 0.0
0.01273588629072236 -0.010521932886219918 0.0 -0.009635396477796597 0.0 0.0
0.017101631473647946 -0.014709733936139686 0.0 -0.012172853124662288 0.0 0.0
0.02191864583305585 -0.01934249172990527 0.0 -0.014652240541948396 0.0 0.0
0.027233020812659985 -0.024482613319250213 0.0 -0.017122844530328016 0.0 0.0
0.0331213008754536 -0.030209603696157328 0.0 -0.01960223272519473 0.0 0.0
0.03961017894010102 -0.03656043844351069 0.0 -0.02194947238964904 0.0 0.0
0.046632402991867 -0.04345832932544295 0.0 -0.023842633301835864 0.0 0.0
0.054113919565859876 -0.050780354175569385 0.0 -0.02490308014024201 0.0 0.0
0.061973090691313015 -0.05851365284638406 0.0 -0.0244758068173162 0.0 0.0
0.0697435885375861 -0.06634603474344601 0.0 -0.020461567034591472 0.0 0.0
0.073506584735316 -0.07308144093921165 0.0 2.0402082800963228e-14 0.0 0.0
0.06974358853757613 -0.06634603474342715 0.0 0.020461567034647875 0.0 0.0
0.06197309069129352 -0.05851365284636506 0.0 0.02447580681737036 0.0 0.0
0.05411391956583438 -0.05078035417554873 0.0 0.02490308014027309 0.0 0.0
0.046632402991837414 -0.04345832932541736 0.0 0.02384263330183893 0.0 0.0
0.03961017894006963 -0.03656043844348057 0.0 0.021949472389636158 0.0 0.0
0.03312130087542354 -0.030209603696132452 0.0 0.019602232725183064 0.0 0.0
0.02723302081263173 -0.024482613319223193 0.0 0.01712284453031939 0.0 0.0
0.021918645833028924 -0.01934249172988354 0.0 0.01465224054193819 0.0 0.0
0.017101631473622102 -0.014709733936112988 0.0 0.01217285312464422 0.0 0.0
0.012735886290699341 -0.010521932886199894 0.0 0.009635396477776007 0.0 0.0
0.008870707319477858 -0.0068373342914120885 0.0 0.007112688260654351 0.0 0.0
0.0056790326220427624 -0.0038745519895376813 0.0 0.004898340360239012 0.0 0.0
0.003350108112095508 -0.0018981550441406472 0.0 0.0032968433974338756 0.0 0.0
0.001922380588215044 -0.0008929783484665405 0.0 0.0024181185683912606 0.0 0.0
0.0011859235176234998 -0.0005056325866584575 0.0 0.002121803666205956 0.0 0.0
0.0007692256880921815 -0.0002965025156594569 0.0 0.001978716307225807 0.0 0.0
0.0004375503263715656 -0.00010518645612360178 0.0 0.0019179727400036933 0.0 0.0
0.0002052122102706153 -6.037217041348974e-05 0.0 0.0020704331168626415 0.0 0.0
0.0008674466090368049 -0.00037419889300415127 0.0 0.003250574225054941 0.0 0.0
0.0016072101115580373 -0.0052846497856188475 0.0 0.002067872781496447 0.0 0.0
0.0011190049045262012 -0.0040210993555636725 0.0 -0.0017737621450267462 0.0 0.0
0.0005903907584160483 -0.0003419143404368623 0.0 -0.0028519008388320425 0.0 0.0
9.470557404874565e-05 -4.129420291395929e-05 0.0 -0.002235338944250626 0.0 0.0
0.0002359944821144914 -1.9419662731844187e-05 0.0 -0.002114726450753886 0.0 0.0
0.00047882578588301936 -0.00016137995989548034 0.0 -0.0021699275115977983 0.0 0.0
0.000777448287716245 -0.0003276837269240554 0.0 -0.0023595304638273796 0.0 0.0
0.0012311345583609088 -0.0005494062087778349 0.0 -0.0026047835902967323 0.0 0.0
0.002094949240920387 -0.0010620050504133874 0.0 -0.003127508632972205 0.0 0.0
0.003584647554824253 -0.0021869235633405885 0.0 -0.004238339906619314 0.0 0.0
0.0057053377885920705 -0.0040412130302205935 0.0 -0.005895779467226987 0.0 0.0
0.008313601046244628 -0.006454466696349314 0.0 -0.00794278878680374 0.0 0.0
0.011258992828833626 -0.009230975198747 0.0 -0.01010454919494621 0.0 0.0
0.014485490965532654 -0.012289542787896693 0.0 -0.012278194332374311 0.0 0.0
0.018033017006533054 -0.01568732345921435 0.0 -0.014436299816306418 0.0 0.0
0.02199162859929833 -0.019505708960791818 0.0 -0.01658095205531119 0.0 0.0
0.02645227409729229 -0.023836027580310615 0.0 -0.0186637406878838 0.0 0.0
0.031447290863386816 -0.02870848904986291 0.0 -0.020438438955507395 0.0 0.0
0.03699559633754609 -0.03409855258203218 0.0 -0.021487791239940653 0.0 0.0
0.04333385956309299 -0.040201835510560516 0.0 -0.021524223895814498 0.0 0.0
0.050602688468442784 -0.04738824735301007 0.0 -0.01951138320016547 0.0 0.0
0.054452004666942236 -0.05495162182042566 0.0 1.9002160955849945e-14 0.0 0.0
0.05060268846843643 -0.047388247353003204 0.0 0.01951138320021205 0.0 0.0
0.04333385956307908 -0.040201835510549 0.0 0.021524223895860246 0.0 0.0
0.03699559633752753 -0.03409855258201472 0.0 0.021487791239967316 0.0 0.0
0.03144729086336613 -0.028708489049845465 0.0 0.02043843895550426 0.0 0.0
0.02645227409727118 -0.023836027580290856 0.0 0.018663740687868916 0.0 0.0
0.021991628599278897 -0.01950570896077497 0.0 0.016580952055299497 0.0 0.0
0.0180330170065155 -0.015687323459198564 0.0 0.014436299816300485 0.0 0.0
0.014485490965515872 -0.012289542787880744 0.0 0.012278194332367374 0.0 0.0
0.011258992828817265 -0.009230975198732916 0.0 0.010104549194929792 0.0 0.0
0.008313601046229167 -0.006454466696335443 0.0 0.007942788786787976 0.0 0.0
0.005705337788579964 -0.004041213030210651 0.0 0.005895779467213282 0.0 0.0
0.003584647554816449 -0.0021869235633339566 0.0 0.004238339906612452 0.0 0.0
0.0020949492409154486 -0.0010620050504102489 0.0 0.0031275086329679747 0.0 0.0
0.001231134558358614 -0.0005494062087781004 0.0 0.0026047835902932442 0.0 0.0
0.0007774482877156296 -0.0003276837269240202 0.0 0.0023595304638236937 0.0 0.0
0.00047882578588251846 -0.0001613799598949495 0.0 0.0021699275115955657 0.0 0.0
0.00023599448211417338 -1.9419662731485364e-05 0.0 0.0021147264507528777 0.0 0.0
9.470557404842881e-05 -4.1294202913936984e-05 0.0 0.002235338944247958 0.0 0.0
0.0005903907584143489 -0.00034191434043695653 0.0 0.0028519008388265877 0.0 0.0
0.0011190049045234252 -0.0040210993555558055 0.0 0.0017737621450261466 0.0 0.0
0.0007724199376165861 -0.0030301026754208944 0.0 -0.0015979796285318661 0.0 0.0
0.00037824052364662737 -0.00033416763170235055 0.0 -0.0025405547019745956 0.0 0.0
-1.9673653168453815e-05 -5.274793973914587e-06 0.0 -0.0023372017859833363 0.0 0.0
4.019160468143667e-05 5.9981606982852497e-05 0.0 -0.0022551613001500484 0.0 0.0
0.00018831304346498095 -2.6771786773488304e-05 0.0 -0.0023067013744898905 0.0 0.0
0.00036846570065060487 -0.0001419498027669834 0.0 -0.002515279621520402 0.0 0.0
0.0006037785860293706 -0.0002647123009585842 0.0 -0.0027911503577813896 0.0 0.0
0.0009960721597998313 -0.0004643266704195654 0.0 -0.003089083033567088 0.0 0.0
0.001691811161669334 -0.000906217783040498 0.0 -0.003601232749784533 0.0 0.0
0.0027386307533713156 -0.0017061105085696348 0.0 -0.004505313421749055 0.0 0.0
0.004057714548051386 -0.002812865948766224 0.0 -0.005823912741214051 0.0 0.0
0.00554898823130677 -0.004124094940356471 0.0 -0.0074175221521448126 0.0 0.0
0.007169692167990852 -0.005589071024451158 0.0 -0.009143179418785972 0.0 0.0
0.008955813560494743 -0.007240161096248012 0.0 -0.010940787311269545 0.0 0.0
0.010984653754193314 -0.00914265197384624 0.0 -0.012799336840959519 0.0 0.0
0.013384227754642498 -0.011414737101436945 0.0 -0.014701004479407673 0.0 0.0
0.016312701033294446 -0.01420914015285882 0.0 -0.016479605055568877 0.0 0.0
0.019903733314938242 -0.01766019597299746 0.0 -0.017658859737684555 0.0 0.0
0.024437979438446434 -0.021956907751349203 0.0 -0.017720841590546575 0.0 0.0
0.030751222982501575 -0.027863540352146065 0.0 -0.017027192757263217 0.0 0.0
0.03450481307450709 -0.03612613004112851 0.0 1.398447330158703e-14 0.0 0.0
0.030751222982498508 -0.02786354035214171 0.0 0.017027192757299407 0.0 0.0
0.024437979438438735 -0.021956907751342746 0.0 0.01772084159058377 0.0 0.0
0.01990373331492743 -0.01766019597298483 0.0 0.017658859737703595 0.0 0.0
0.016312701033283156 -0.014209140152851234 0.0 0.01647960505556021 0.0 0.0
0.013384227754632171 -0.011414737101428528 0.0 0.014701004479394767 0.0 0.0
0.010984653754184538 -0.009142651973836145 0.0 0.012799336840951098 0.0 0.0
0.008955813560487847 -0.007240161096242868 0.0 0.010940787311265054 0.0 0.0
0.0071696921679839315 -0.005589071024443358 0.0 0.009143179418780237 0.0 0.0
0.005548988231299432 -0.004124094940356061 0.0 0.007417522152134079 0.0 0.0
0.00405771454804463 -0.002812865948758766 0.0 0.005823912741200068 0.0 0.0
0.002738630753366234 -0.0017061105085675178 0.0 0.004505313421742589 0.0 0.0
0.0016918111616660363 -0.0009062177830391468 0.0 0.0036012327497795087 0.0 0.0
0.0009960721597978269 -0.00046432667041680577 0.0 0.0030890830335647264 0.0 0.0
0.0006037785860285355 -0.00026471230095974883 0.0 0.002791150357778972 0.0 0.0
0.0003684657006504017 -0.00014194980276820208 0.0 0.002515279621516004 0.0 0.0
0.00018831304346492167 -2.677178677256745e-05 0.0 0.002306701374486419 0.0 0.0
4.019160468108795e-05 5.998160698349432e-05 0.0 0.002255161300150645 0.0 0.0
-1.9673653169070262e-05 -5.274793973758214e-06 0.0 0.002337201785980127 0.0 0.0
0.00037824052364551823 -0.0003341676317029982 0.0 0.0025405547019719437 0.0 0.0
0.0007724199376152619 -0.0030301026754155163 0.0 0.0015979796285300225 0.0 0.0
0.0005286703940981641 -0.002285637149342005 0.0 -0.0015013376671587715 0.0 0.0
0.0002164231217453913 -0.00033734051696366685 0.0 -0.002325090639262025 0.0 0.0
-0.00013370779305699112 4.0604804484027375e-05 0.0 -0.002383563470158023 0.0 0.0
-0.00015098285206964815 0.00013599400787813826 0.0 -0.002337412286714191 0.0 0.0
-9.833090808647582e-05 0.00010479363069957882 0.0 -0.0023835259130753727 0.0 0.0
-4.573749283701687e-05 4.835887430407982e-05 0.0 -0.002581312400447203 0.0 0.0
-1.659440849428474e-05 1.2799241776646772e-05 0.0 -0.0028773613656143918 0.0 0.0
-5.090455223873347e-06 3.0566396494744797e-06 0.0 -0.0031350410958058813 0.0 0.0
-1.0088871085292008e-06 4.0892152723848326e-07 0.0 -0.0033336747906081918 0.0 0.0
3.2088702928839696e-07 -1.5515843591651412e-07 0.0 -0.00381140772161781 0.0 0.0
-6.615869591195455e-07 -2.363108021554447e-07 0.0 -0.004707088612606149 0.0 0.0
-9.153953197204461e-06 8.24176682885812e-06 0.0 -0.005995571497673502 0.0 0.0
-2.808546346881602e-05 2.6106667444250554e-05 0.0 -0.0074810882432036875 0.0 0.0
-3.9467837759807334e-05 4.241235434879881e-05 0.0 -0.009109505938161682 0.0 0.0
2.7080825675566836e-05 -1.7887172505105754e-06 0.0 -0.010883940164723232 0.0 0.0
0.0003359921204361502 -0.0002507741803960997 0.0 -0.012790855676695283 0.0 0.0
0.0011711975552618245 -0.0009585122527973851 0.0 -0.014752381621993965 0.0 0.0
0.002862283832232219 -0.002453895533160629 0.0 -0.01655163282113028 0.0 0.0
0.005622754335200986 -0.004853837212895998 0.0 -0.01786799631013844 0.0 0.0
0.010285354433800254 -0.008645684691047774 0.0 -0.01870521789208904 0.0 0.0
0.013285925876285827 -0.01739243569207332 0.0 1.259409243559162e-14 0.0 0.0
0.010285354433800265 -0.00864568469104224 0.0 0.018705217892112044 0.0 0.0
0.005622754335198978 -0.00485383721289198 0.0 0.017867996310156134 0.0 0.0
0.00286228383222995 -0.0024538955331620213 0.0 0.016551632821134813 0.0 0.0
0.0011711975552617664 -0.0009585122528026977 0.0 0.014752381621984466 0.0 0.0
0.0003359921204377364 -0.0002507741803970039 0.0 0.01279085567668449 0.0 0.0
2.7080825677494114e-05 -1.7887172534411197e-06 0.0 0.010883940164715314 0.0 0.0
-3.9467837756508215e-05 4.241235434759166e-05 0.0 0.00910950593815458 0.0 0.0
-2.8085463465401324e-05 2.6106667439603772e-05 0.0 0.007481088243194279 0.0 0.0
-9.15395319457538e-06 8.241766823929337e-06 0.0 0.005995571497663091 0.0 0.0
-6.615869564987578e-07 -2.3631080311864992e-07 0.0 0.004707088612595793 0.0 0.0
3.2088703091865756e-07 -1.551584359432668e-07 0.0 0.0038114077216138964 0.0 0.0
-1.008887107930152e-06 4.08921524161714e-07 0.0 0.0033336747906059193 0.0 0.0
-5.0904552233205805e-06 3.056639654127279e-06 0.0 0.0031350410958039397 0.0 0.0
-1.659440849396318e-05 1.2799241773721703e-05 0.0 0.0028773613656120057 0.0 0.0
-4.573749283686087e-05 4.835887430500608e-05 0.0 0.0025813124004438297 0.0 0.0
-9.833090808619455e-05 0.00010479363069939052 0.0 0.002383525913073514 0.0 0.0
-0.00015098285206943825 0.00013599400787904275 0.0 0.002337412286713227 0.0 0.0
-0.00013370779305702088 4.0604804484747014e-05 0.0 0.0023835634701562247 0.0 0.0
0.00021642312174514607 -0.00033734051696402014 0.0 0.002325090639260885 0.0 0.0
0.0005286703940975308 -0.002285637149338716 0.0 0.0015013376671580614 0.0 0.0
0.0003607029002702271 -0.0017432831816455961 0.0 -0.0014405670287643045 0.0 0.0
9.622974035702187e-05 -0.00032874929111707655 0.0 -0.0021610759260589233 0.0 0.0
-0.00024153822084978395 8.596330815161233e-05 0.0 -0.002380354485689146 0.0 0.0
-0.0003362555453746603 0.0002100727610282921 0.0 -0.002359549304211653 0.0 0.0
-0.0003788459062414026 0.0002312071325427572 0.0 -0.0023915103351944893 0.0 0.0
-0.0004562091186651716 0.00023720823414655353 0.0 -0.0025601365363605274 0.0 0.0
-0.0006360382372203299 0.0002905434377531495 0.0 -0.0028146575044473623 0.0 0.0
-0.001006190134014835 0.0004710892447333994 0.0 -0.003102373838682291 0.0 0.0
-0.0016933628288787125 0.0009067954958604327 0.0 -0.003606840807132761 0.0 0.0
-0.0027371745111052287 0.0017048947697930945 0.0 -0.004504310285721987 0.0 0.0
-0.004059958399831911 0.0028139648347767898 0.0 -0.0058209660681193326 0.0 0.0
-0.005569673424535148 0.00414216143321368 0.0 -0.00741997295141893 0.0 0.0
-0.007226221459748997 0.005642716289275624 0.0 -0.009140077057570814 0.0 0.0
-0.00903026037573475 0.0073245216263705185 0.0 -0.010926619505544495 0.0 0.0
-0.010920913881954864 0.009134300627613985 0.0 -0.012803353590115113 0.0 0.0
-0.012715031890936292 0.010901517469337057 0.0 -0.014845985165939492 0.0 0.0
-0.014073602609655497 0.012295130368761495 0.0 -0.017104052708169507 0.0 0.0
-0.014566542528718498 0.012857236102120133 0.0 -0.019671897895468048 0.0 0.0
-0.013728289173897696 0.012265208468162975 0.0 -0.02249267451483726 0.0 0.0
-0.009792908492700194 0.009452464305454284 0.0 -0.02380453701457715 0.0 0.0
-0.006671194026568027 -3.6767929881983746e-05 0.0 1.4437236128816977e-14 0.0 0.0
-0.009792908492700491 0.00945246430545789 0.0 0.02380453701459921 0.0 0.0
-0.013728289173893491 0.012265208468157398 0.0 0.02249267451485347 0.0 0.0
-0.014566542528708617 0.012857236102106708 0.0 0.019671897895470938 0.0 0.0
-0.014073602609642133 0.012295130368745261 0.0 0.017104052708163134 0.0 0.0
-0.012715031890922955 0.010901517469321248 0.0 0.01484598516592571 0.0 0.0
-0.010920913881942752 0.009134300627603294 0.0 0.0128033535901052 0.0 0.0
-0.009030260375721485 0.007324521626355714 0.0 0.010926619505535352 0.0 0.0
-0.007226221459734828 0.005642716289262864 0.0 0.009140077057558867 0.0 0.0
-0.0055696734245221395 0.004142161433203389 0.0 0.007419972951403996 0.0 0.0
-0.004059958399820593 0.002813964834762551 0.0 0.005820966068105641 0.0 0.0
-0.0027371745110970217 0.0017048947697868022 0.0 0.004504310285712871 0.0 0.0
-0.001693362828873933 0.0009067954958570097 0.0 0.003606840807129524 0.0 0.0
-0.0010061901340119364 0.0004710892447342418 0.0 0.0031023738386793793 0.0 0.0
-0.0006360382372186028 0.0002905434377489734 0.0 0.002814657504444885 0.0 0.0
-0.00045620911866406616 0.00023720823414828955 0.0 0.002560136536357044 0.0 0.0
-0.00037884590624073 0.00023120713254378214 0.0 0.0023915103351937767 0.0 0.0
-0.0003362555453745418 0.00021007276102841935 0.0 0.0023595493042085462 0.0 0.0
-0.00024153822084990652 8.596330815219316e-05 0.0 0.002380354485687528 0.0 0.0
9.622974035687062e-05 -0.00032874929111732256 0.0 0.0021610759260580607 0.0 0.0
0.00036070290026990676 -0.001743283181643393 0.0 0.0014405670287639322 0.0 0.0
0.00024566288561063496 -0.0013210141090993534 0.0 -0.0013409168874822515 0.0 0.0
6.267831451393096e-06 -0.0003022732399185898 0.0 -0.0020038972967342476 0.0 0.0
-0.0003417095346806226 0.0001273694529252889 0.0 -0.0023265718165829405 0.0 0.0
-0.0005133136478523361 0.0002810644559883546 0.0 -0.002320042203791512 0.0 0.0
-0.0006508433788047381 0.00035084423744989845 0.0 -0.0023290977918728876 0.0 0.0
-0.0008562436260633754 0.00041844077254771727 0.0 -0.002446922408885995 0.0 0.0
-0.0012614071022105542 0.0005776560887654472 0.0 -0.0026552422701338614 0.0 0.0
-0.0021032860313240365 0.0010687613377607817 0.0 -0.0031526965513999144 0.0 0.0
-0.0035838259117507544 0.0021853958581547856 0.0 -0.004242698589861436 0.0 0.0
-0.005703282877132289 0.004039161495221028 0.0 -0.005892294963535339 0.0 0.0
-0.0083174744671489 0.006458409154578936 0.0 -0.007941993772476617 0.0 0.0
-0.011278872667088886 0.009249837807164108 0.0 -0.010101002255979713 0.0 0.0
-0.014534117343536875 0.012337739243146698 0.0 -0.012241604698354785 0.0 0.0
-0.018093272639503506 0.015758421597376886 0.0 -0.01434446116504142 0.0 0.0
-0.021919202311583244 0.019485053349009886 0.0 -0.016515111727182407 0.0 0.0
-0.02581602665615579 0.023340804932756313 0.0 -0.01896789137678098 0.0 0.0
-0.029388247531641896 0.026927929519704664 0.0 -0.021929617883165223 0.0 0.0
-0.032058583253183504 0.029661258732120388 0.0 -0.025510012507588227 0.0 0.0
-0.03273922282263066 0.030611249302418174 0.0 -0.029016097981017213 0.0 0.0
-0.02922600819213804 0.02764967434814288 0.0 -0.029859839672106283 0.0 0.0
-0.026058805595615436 0.01625523058463051 0.0 1.858149051292557e-14 0.0 0.0
-0.02922600819213561 0.027649674348140536 0.0 0.02985983967214499 0.0 0.0
-0.03273922282262015 0.030611249302410423 0.0 0.029016097981053653 0.0 0.0
-0.032058583253164734 0.02966125873209661 0.0 0.025510012507603846 0.0 0.0
-0.029388247531618117 0.026927929519681607 0.0 0.021929617883159738 0.0 0.0
-0.02581602665613136 0.02334080493272949 0.0 0.018967891376766122 0.0 0.0
-0.02191920231156025 0.01948505334899024 0.0 0.016515111727169945 0.0 0.0
-0.018093272639479987 0.015758421597347486 0.0 0.014344461165028903 0.0 0.0
-0.014534117343512797 0.012337739243125895 0.0 0.012241604698340354 0.0 0.0
-0.011278872667066555 0.009249837807144086 0.0 0.010101002255959949 0.0 0.0
-0.008317474467128584 0.0064584091545567025 0.0 0.007941993772456121 0.0 0.0
-0.005703282877116688 0.004039161495207587 0.0 0.0058922949635223515 0.0 0.0
-0.0035838259117408873 0.0021853958581480866 0.0 0.004242698589853771 0.0 0.0
-0.0021032860313180825 0.001068761337756319 0.0 0.003152696551395168 0.0 0.0
-0.001261407102207587 0.0005776560887645105 0.0 0.002655242270131681 0.0 0.0
-0.0008562436260617548 0.0004184407725477689 0.0 0.0024469224088840085 0.0 0.0
-0.0006508433788038732 0.00035084423744914564 0.0 0.0023290977918713094 0.0 0.0
-0.0005133136478521365 0.00028106445598847374 0.0 0.0023200422037889857 0.0 0.0
-0.00034170953468053286 0.0001273694529247608 0.0 0.002326571816581967 0.0 0.0
6.267831451253709e-06 -0.0003022732399189644 0.0 0.002003897296733448 0.0 0.0
0.0002456628856102159 -0.0013210141090975924 0.0 0.001340916887481535 0.0 0.0
0.0001543498057572324 -0.0009671008602258786 0.0 -0.0011906693205285942 0.0 0.0
-6.849796640103617e-05 -0.0002605172492748907 0.0 -0.00183232483135079 0.0 0.0
-0.0004341084368445177 0.00016580478003731032 0.0 -0.002220080069212824 0.0 0.0
-0.0006813631673345374 0.0003474552213999739 0.0 -0.0022221920553956347 0.0 0.0
-0.0009113806588392503 0.0004617949704661873 0.0 -0.002201417453447588 0.0 0.0
-0.001251882790502933 0.0005912446654128822 0.0 -0.0022468629289500133 0.0 0.0
-0.001948673656815099 0.0009240111263719873 0.0 -0.0024915686624777606 0.0 0.0
-0.0033537334336676923 0.0019003372234687077 0.0 -0.0033199000121436114 0.0 0.0
-0.0056750270960579125 0.0038698856197673884 0.0 -0.004896272471419634 0.0 0.0
-0.008869666436883378 0.006836437031195226 0.0 -0.007108622757979317 0.0 0.0
-0.012741366109036017 0.010528354218308762 0.0 -0.009636179350404896 0.0 0.0
-0.01711630624980523 0.014725180136300739 0.0 -0.012162419041255222 0.0 0.0
-0.021945943259872213 0.019370445775685603 0.0 -0.014580287861567651 0.0 0.0
-0.027258662816904977 0.024515364474218003 0.0 -0.016934378007659494 0.0 0.0
-0.033041329474080006 0.030168178797018413 0.0 -0.019406408188338133 0.0 0.0
-0.03909947788555648 0.03616191672798447 0.0 -0.022345816595403228 0.0 0.0
-0.04495582027158969 0.04203221742434145 0.0 -0.02619733695408451 0.0 0.0
-0.049694504072961665 0.04691723799304135 0.0 -0.03094549322214523 0.0 0.0
-0.05167661490354122 0.049225744908397956 0.0 -0.03527861998847567 0.0 0.0
-0.047762812787472686 0.04613885551141636 0.0 -0.036617218647738946 0.0 0.0
-0.04380763728738653 0.03193759882720042 0.0 2.0453257143504544e-14 0.0 0.0
-0.047762812787467475 0.046138855511412585 0.0 0.03661721864778858 0.0 0.0
-0.05167661490352523 0.04922574490839044 0.0 0.0352786199885223 0.0 0.0
-0.04969450407293513 0.0469172379930083 0.0 0.030945493222169433 0.0 0.0
-0.04495582027155645 0.042032217424308314 0.0 0.026197336954081225 0.0 0.0
-0.0390994778855219 0.03616191672794836 0.0 0.02234581659538958 0.0 0.0
-0.03304132947404679 0.030168178796991317 0.0 0.01940640818832324 0.0 0.0
-0.027258662816871445 0.02451536447417948 0.0 0.016934378007646803 0.0 0.0
-0.02194594325983821 0.019370445775648053 0.0 0.014580287861551022 0.0 0.0
-0.017116306249773828 0.014725180136271408 0.0 0.012162419041233328 0.0 0.0
-0.012741366109007711 0.010528354218282117 0.0 0.009636179350381737 0.0 0.0
-0.008869666436860777 0.00683643703117497 0.0 0.007108622757960915 0.0 0.0
-0.005675027096042909 0.0038698856197513804 0.0 0.004896272471409267 0.0 0.0
-0.0033537334336581877 0.0019003372234599777 0.0 0.0033199000121361144 0.0 0.0
-0.001948673656810077 0.0009240111263705796 0.0 0.002491568662474056 0.0 0.0
-0.00125188279050093 0.000591244665410483 0.0 0.0022468629289475847 0.0 0.0
-0.0009113806588381575 0.00046179497046465717 0.0 0.002201417453445685 0.0 0.0
-0.0006813631673338252 0.0003474552214001446 0.0 0.002222192055393912 0.0 0.0
-0.0004341084368443188 0.0001658047800370138 0.0 0.002220080069211753 0.0 0.0
-6.849796640104616e-05 -0.000260517249275261 0.0 0.0018323248313497028 0.0 0.0
0.00015434980575702926 -0.0009671008602246552 0.0 0.0011906693205277815 0.0 0.0
7.571934240087908e-05 -0.000670372038339744 0.0 -0.0010200315372798192 0.0 0.0
-0.00013540927912947438 -0.00020600556915976185 0.0 -0.0016348610466452539 0.0 0.0
-0.0005210029391839803 0.00020289649707006275 0.0 -0.002061159190155436 0.0 0.0
-0.000840317241108056 0.00040866729562791444 0.0 -0.002068382159346628 0.0 0.0
-0.0011595853265483048 0.000561065924511503 0.0 -0.0020048359595188367 0.0 0.0
-0.0016655597847747227 0.0007709915075521012 0.0 -0.0019900287746649776 0.0 0.0
-0.002725227736024216 0.001384963829199074 0.0 -0.002345321457545588 0.0 0.0
-0.004749616708503851 0.002967754854651439 0.0 -0.0034223190376797127 0.0 0.0
-0.007929919106531576 0.005838131628617447 0.0 -0.00532470660803197 0.0 0.0
-0.012178349305448335 0.009877032654873115 0.0 -0.00783947398050286 0.0 0.0
-0.017269215551242625 0.014783422318674466 0.0 -0.010547186122742717 0.0 0.0
-0.023035959978799907 0.020358645118913762 0.0 -0.013208798535686928 0.0 0.0
-0.029435726327755124 0.026552080500327292 0.0 -0.015750980186125144 0.0 0.0
-0.03650490086137706 0.03342087165922078 0.0 -0.018231343763703646 0.0 0.0
-0.044256976309731175 0.041007173306323697 0.0 -0.02083278310614693 0.0 0.0
-0.05251173224866937 0.049173922680417856 0.0 -0.024011380520202023 0.0 0.0
-0.060656161318600604 0.057357739401314375 0.0 -0.02830993094104315 0.0 0.0
-0.0673818632590721 0.06430942785113458 0.0 -0.03368499424882747 0.0 0.0
-0.07035851290080192 0.0677823261440398 0.0 -0.03879075174965148 0.0 0.0
-0.06566660847366294 0.06405627811663833 0.0 -0.04079781396992005 0.0 0.0
-0.060791698590651616 0.04713096253386297 0.0 2.094938805763391e-14 0.0 0.0
-0.06566660847365363 0.06405627811663187 0.0 0.04079781396997031 0.0 0.0
-0.07035851290078027 0.06778232614401793 0.0 0.038790751749698774 0.0 0.0
-0.06738186325903889 0.06430942785110082 0.0 0.033684994248854516 0.0 0.0
-0.060656161318559415 0.05735773940126762 0.0 0.028309930941040423 0.0 0.0
-0.05251173224862522 0.04917392268037574 0.0 0.024011380520188776 0.0 0.0
-0.04425697630968764 0.041007173306285276 0.0 0.020832783106130428 0.0 0.0
-0.03650490086133343 0.033420871659175254 0.0 0.01823134376368943 0.0 0.0
-0.029435726327711693 0.026552080500281763 0.0 0.015750980186107735 0.0 0.0
-0.02303595997875909 0.020358645118871335 0.0 0.013208798535665051 0.0 0.0
-0.017269215551206186 0.014783422318638158 0.0 0.01054718612271792 0.0 0.0
-0.012178349305418914 0.009877032654843926 0.0 0.007839473980480422 0.0 0.0
-0.007929919106510728 0.005838131628596575 0.0 0.005324706608019644 0.0 0.0
-0.004749616708490493 0.002967754854638601 0.0 0.0034223190376713045 0.0 0.0
-0.0027252277360169897 0.0013849638291952941 0.0 0.0023453214575404665 0.0 0.0
-0.0016655597847716427 0.0007709915075508312 0.0 0.0019900287746629068 0.0 0.0
-0.001159585326547303 0.0005610659245106593 0.0 0.0020048359595187444 0.0 0.0
-0.000840317241107461 0.00040866729562729563 0.0 0.0020683821593448885 0.0 0.0
-0.0005210029391836442 0.0002028964970699119 0.0 0.0020611591901543653 0.0 0.0
-0.00013540927912957117 -0.00020600556915985788 0.0 0.0016348610466437592 0.0 0.0
7.571934240076431e-05 -0.0006703720383388137 0.0 0.001020031537279027 0.0 0.0
7.104858892797304e-06 -0.00042743593286212044 0.0 -0.0008415983807806215 0.0 0.0
-0.00019676918215090397 -0.00014298735633130148 0.0 -0.001410635467026785 0.0 0.0
-0.0006037154886358609 0.00024007381352553995 0.0 -0.0018492668066789932 0.0 0.0
-0.0009889970486464997 0.0004640296012485347 0.0 -0.0018581886275068683 0.0 0.0
-0.001402996136835211 0.0006510300697365533 0.0 -0.0017459010981982852 0.0 0.0
-0.002117723161909667 0.0009866890189150091 0.0 -0.0017097496854502046 0.0 0.0
-0.0035981667526280396 0.001979759032484228 0.0 -0.002158628108703176 0.0 0.0
-0.00627594689411493 0.004242463054258373 0.0 -0.003390165322337607 0.0 0.0
-0.010308117627480797 0.007998303652739432 0.0 -0.0054460198620062735 0.0 0.0
-0.015567494651771624 0.013046823825796555 0.0 -0.007969245745229012 0.0 0.0
-0.021849404568852634 0.019131810898691516 0.0 -0.01063614890276581 0.0 0.0
-0.02900782493650189 0.026078767205818337 0.0 -0.013257806317976583 0.0 0.0
-0.036982664231231324 0.033825271891449134 0.0 -0.015778180016985468 0.0 0.0
-0.04580516222561438 0.042420186594782035 0.0 -0.018253180808706 0.0 0.0
-0.055517540802768786 0.051928468503288965 0.0 -0.020829533901699476 0.0 0.0
-0.06594388236311009 0.06224165633921018 0.0 -0.02388376490273363 0.0 0.0
-0.07632900413652435 0.07269789106390959 0.0 -0.028033201058988308 0.0 0.0
-0.08495019431072695 0.08165361255208829 0.0 -0.0335105957703848 0.0 0.0
-0.08878558417449897 0.0861431634170605 0.0 -0.03927003335934366 0.0 0.0
-0.0833377025451864 0.0817351493742509 0.0 -0.04328757945366744 0.0 0.0
-0.07763611165944455 0.0623764008867462 0.0 2.2539262123366655e-14 0.0 0.0
-0.0833377025451738 0.08173514937423405 0.0 0.04328757945371722 0.0 0.0
-0.08878558417447129 0.0861431634170313 0.0 0.03927003335939038 0.0 0.0
-0.08495019431068672 0.08165361255205505 0.0 0.0335105957704125 0.0 0.0
-0.07632900413647568 0.07269789106385675 0.0 0.028033201058988447 0.0 0.0
-0.06594388236305697 0.06224165633916284 0.0 0.02388376490272236 0.0 0.0
-0.055517540802715426 0.051928468503237055 0.0 0.020829533901686053 0.0 0.0
-0.04580516222556081 0.04242018659473283 0.0 0.01825318080869181 0.0 0.0
-0.036982664231178054 0.03382527189139211 0.0 0.01577818001697022 0.0 0.0
-0.029007824936452174 0.026078767205769317 0.0 0.013257806317953957 0.0 0.0
-0.021849404568809044 0.019131810898645428 0.0 0.010636148902744532 0.0 0.0
-0.015567494651735556 0.013046823825759396 0.0 0.007969245745207805 0.0 0.0
-0.010308117627454155 0.007998303652715432 0.0 0.005446019861991314 0.0 0.0
-0.00627594689409733 0.004242463054243914 0.0 0.0033901653223284605 0.0 0.0
-0.003598166752618143 0.001979759032476652 0.0 0.0021586281086975172 0.0 0.0
-0.002117723161905469 0.000986689018912307 0.0 0.0017097496854480633 0.0 0.0
-0.001402996136833643 0.000651030069735948 0.0 0.0017459010981979873 0.0 0.0
-0.0009889970486454533 0.00046402960124796735 0.0 0.0018581886275051535 0.0 0.0
-0.0006037154886351041 0.00024007381352444718 0.0 0.0018492668066784328 0.0 0.0
-0.0001967691821508434 -0.00014298735633091613 0.0 0.0014106354670253103 0.0 0.0
7.104858892440824e-06 -0.0004274359328616381 0.0 0.0008415983807799754 0.0 0.0
-5.0981938152027545e-05 -0.0002371928473472507 0.0 -0.0006600210517699626 0.0 0.0
-0.00025202205441592627 -7.640900533403609e-05 0.0 -0.0011618059785272507 0.0 0.0
-0.0006825241335482871 0.0002776195341394243 0.0 -0.001584926259507326 0.0 0.0
-0.0011303732703811518 0.0005132069033446448 0.0 -0.001590952203644437 0.0 0.0
-0.0016541578502174627 0.0007393172108530638 0.0 -0.0014348223728349167 0.0 0.0
-0.0026201723398029206 0.0012611428011951244 0.0 -0.0014024545001629527 0.0 0.0
-0.0045677223766823274 0.0027183894660526373 0.0 -0.0019062770754731642 0.0 0.0
-0.007911151525094277 0.005688110825133686 0.0 -0.003206873463818938 0.0 0.0
-0.01275435940124057 0.010263443852313323 0.0 -0.005148577020989542 0.0 0.0
-0.018989242190697052 0.0162782704582024 0.0 -0.007462473566125614 0.0 0.0
-0.02645610817592906 0.02352825105821976 0.0 -0.009927775685865944 0.0 0.0
-0.035003816321042096 0.03184398137121835 0.0 -0.012349156064648193 0.0 0.0
-0.04456109135707659 0.04115356486990951 0.0 -0.014693499541011958 0.0 0.0
-0.05514101400279174 0.051482437198034914 0.0 -0.01703109718759885 0.0 0.0
-0.06676800376501209 0.06287835785316036 0.0 -0.019431002407339627 0.0 0.0
-0.07927202582341297 0.07523857441325059 0.0 -0.02205629465169457 0.0 0.0
-0.09181048995627022 0.08785864803418936 0.0 -0.025458635621208363 0.0 0.0
-0.10228223964987627 0.09876961515114988 0.0 -0.030418173301442857 0.0 0.0
-0.1070618706463383 0.10435709545547245 0.0 -0.03698202060487131 0.0 0.0
-0.10112517727087598 0.09955705043424101 0.0 -0.04448528673600036 0.0 0.0
-0.09477083163399491 0.0780929670604759 0.0 2.1241688963336003e-14 0.0 0.0
-0.10112517727085968 0.09955705043422074 0.0 0.04448528673604785 0.0 0.0
-0.10706187064630451 0.10435709545543964 0.0 0.03698202060491848 0.0 0.0
-0.10228223964982877 0.09876961515110845 0.0 0.03041817330146602 0.0 0.0
-0.09181048995621348 0.08785864803412964 0.0 0.02545863562121166 0.0 0.0
-0.07927202582335018 0.0752385744131893 0.0 0.022056294651687403 0.0 0.0
-0.06676800376494868 0.06287835785310163 0.0 0.01943100240732859 0.0 0.0
-0.05514101400272884 0.05148243719797773 0.0 0.017031097187585553 0.0 0.0
-0.04456109135701424 0.041153564869841494 0.0 0.014693499540997683 0.0 0.0
-0.0350038163209834 0.03184398137116088 0.0 0.012349156064627442 0.0 0.0
-0.026456108175877166 0.02352825105816746 0.0 0.009927775685845196 0.0 0.0
-0.018989242190654843 0.016278270458159938 0.0 0.007462473566108152 0.0 0.0
-0.012754359401209087 0.010263443852284539 0.0 0.005148577020975969 0.0 0.0
-0.007911151525072588 0.005688110825113978 0.0 0.003206873463810532 0.0 0.0
-0.0045677223766693855 0.002718389466042174 0.0 0.0019062770754673256 0.0 0.0
-0.0026201723397970235 0.00126114280119028 0.0 0.0014024545001604348 0.0 0.0
-0.00165415785021563 0.000739317210853492 0.0 0.0014348223728351157 0.0 0.0
-0.0011303732703802532 0.0005132069033445391 0.0 0.0015909522036422854 0.0 0.0
-0.0006825241335475744 0.0002776195341388495 0.0 0.0015849262595056912 0.0 0.0
-0.0002520220544155366 -7.640900533410511e-05 0.0 0.0011618059785260173 0.0 0.0
-5.0981938151681535e-05 -0.00023719284734696438 0.0 0.0006600210517688872 0.0 0.0
-9.594437083390708e-05 -9.988905173375547e-05 0.0 -0.0004800278770687971 0.0 0.0
-0.00029836727439875677 -1.1661500691443254e-05 0.0 -0.000891302230504499 0.0 0.0
-0.0007561942253945588 0.0003144022620099436 0.0 -0.0012668169256893097 0.0 0.0
-0.0012679134197044614 0.000556518811539505 0.0 -0.0012643031542877838 0.0 0.0
-0.0019244363292898743 0.0008393567596986853 0.0 -0.0010744695495009356 0.0 0.0
-0.0031871254980742124 0.0016135097369889195 0.0 -0.001051822498123973 0.0 0.0
-0.00563380550219565 0.0036029557669417546 0.0 -0.0015922847389758929 0.0 0.0
-0.009610675724331393 0.007236657205177795 0.0 -0.0027638934292732085 0.0 0.0
-0.015220504612880041 0.01257372211050739 0.0 -0.0043870643740899955 0.0 0.0
-0.0224187265672322 0.019534701017572716 0.0 -0.006348009969196318 0.0 0.0
-0.031059279623679478 0.027937691499247103 0.0 -0.008441441619185072 0.0 0.0
-0.040996668321698244 0.03762137850308678 0.0 -0.010500969464507137 0.0 0.0
-0.052147342652516845 0.04850407066097773 0.0 -0.01250878562234596 0.0 0.0
-0.06448308976811643 0.06057768278841148 0.0 -0.01455247235327117 0.0 0.0
-0.07797168143015559 0.07382399023765211 0.0 -0.016653693867275495 0.0 0.0
-0.0924003135896855 0.08807701318334031 0.0 -0.01870794272879943 0.0 0.0
-0.10691649484377373 0.10263546604986341 0.0 -0.020883583322381973 0.0 0.0
-0.11925837438033596 0.1154742775969089 0.0 -0.024497883137217496 0.0 0.0
-0.12530737469360625 0.12250766562884102 0.0 -0.03184662129711219 0.0 0.0
-0.11935967903770997 0.1178857894461195 0.0 -0.044136791526009946 0.0 0.0
-0.11259169496475119 0.0947029363454725 0.0 1.7577952982072986e-14 0.0 0.0
-0.11935967903768965 0.11788578944609812 0.0 0.04413679152605064 0.0 0.0
-0.12530737469356695 0.12250766562880441 0.0 0.03184662129715497 0.0 0.0
-0.11925837438028129 0.11547427759685477 0.0 0.024497883137235797 0.0 0.0
-0.1069164948437083 0.10263546604979855 0.0 0.02088358332238759 0.0 0.0
-0.09240031358961412 0.0880770131832722 0.0 0.018707942728796417 0.0 0.0
-0.07797168143008264 0.07382399023758068 0.0 0.016653693867265153 0.0 0.0
-0.0644830897680438 0.060577682788344994 0.0 0.014552472353262055 0.0 0.0
-0.052147342652445305 0.04850407066090592 0.0 0.012508785622334572 0.0 0.0
-0.04099666832163094 0.037621378503011955 0.0 0.010500969464492011 0.0 0.0
-0.031059279623620123 0.02793769149919239 0.0 0.008441441619164604 0.0 0.0
-0.02241872656718375 0.019534701017524164 0.0 0.0063480099691798275 0.0 0.0
-0.015220504612843244 0.012573722110469324 0.0 0.004387064374077451 0.0 0.0
-0.009610675724305495 0.007236657205155001 0.0 0.002763893429265368 0.0 0.0
-0.005633805502180191 0.0036029557669291007 0.0 0.0015922847389712468 0.0 0.0
-0.0031871254980667778 0.0016135097369838853 0.0 0.0010518224981202638 0.0 0.0
-0.0019244363292872132 0.0008393567596966367 0.0 0.0010744695495008036 0.0 0.0
-0.001267913419703796 0.0005565188115397286 0.0 0.0012643031542862132 0.0 0.0
-0.0007561942253940376 0.00031440226201027733 0.0 0.0012668169256891738 0.0 0.0
-0.0002983672743985375 -1.1661500691820238e-05 0.0 0.0008913022305026042 0.0 0.0
-9.594437083418583e-05 -9.988905173329642e-05 0.0 0.0004800278770684599 0.0 0.0
-0.00012295743948077697 -1.6248870568186e-05 0.0 -0.000311510101079576 0.0 0.0
-0.000330167999423113 4.4521242967164335e-05 0.0 -0.0006029878968221434 0.0 0.0
-0.0008220875996901419 0.0003473937734442635 0.0 -0.0008885316710251579 0.0 0.0
-0.0014080788820501485 0.0005973874999962562 0.0 -0.0008730728864683944 0.0 0.0
-0.00222755585651497 0.000967283808563917 0.0 -0.0006739230729609408 0.0 0.0
-0.0038309964474544595 0.0020732696135989746 0.0 -0.0006693247511050566 0.0 0.0
-0.0067660047240972 0.004598637290473314 0.0 -0.0011489294814887594 0.0 0.0
-0.011334732787707875 0.008829074981647067 0.0 -0.001996526383739158 0.0 0.0
-0.017687543276435697 0.014899769886583862 0.0 -0.003188962899039568 0.0 0.0
-0.025827169082026043 0.022783725455953304 0.0 -0.004635061043305116 0.0 0.0
-0.035631632194117704 0.03232856734840513 0.0 -0.006187746198268319 0.0 0.0
-0.046957547442632606 0.04338012625270619 0.0 -0.007719262611117682 0.0 0.0
-0.059706705934129745 0.055844606078924997 0.0 -0.009231194775438035 0.0 0.0
-0.0738078708210352 0.06967060212729637 0.0 -0.010819676666805616 0.0 0.0
-0.08911372136552899 0.0847383182006407 0.0 -0.012462714275385624 0.0 0.0
-0.10527480644277927 0.1007326904900826 0.0 -0.013905853809987491 0.0 0.0
-0.12147548080664744 0.11690434759885532 0.0 -0.014882781463298127 0.0 0.0
-0.13569269211834808 0.13146732157620838 0.0 -0.016416224445164763 0.0 0.0
-0.14355804857973475 0.14052165582236567 0.0 -0.02301104129809423 0.0 0.0
-0.13839038437845425 0.13715346416283433 0.0 -0.04122061280574559 0.0 0.0
-0.13160837469054204 0.11280896644337454 0.0 1.3244613739082922e-14 0.0 0.0
-0.13839038437842974 0.1371534641628137 0.0 0.0412206128057786 0.0 0.0
-0.14355804857968865 0.14052165582232223 0.0 0.023011041298127272 0.0 0.0
-0.1356926921182853 0.13146732157614832 0.0 0.01641622444517855 0.0 0.0
-0.12147548080657326 0.11690434759878388 0.0 0.014882781463300711 0.0 0.0
-0.10527480644269913 0.10073269049000855 0.0 0.013905853809984096 0.0 0.0
-0.08911372136544622 0.08473831820055919 0.0 0.012462714275378695 0.0 0.0
-0.07380787082095265 0.06967060212722027 0.0 0.010819676666799368 0.0 0.0
-0.05970670593404879 0.05584460607884148 0.0 0.009231194775429165 0.0 0.0
-0.046957547442556855 0.04338012625262548 0.0 0.007719262611107024 0.0 0.0
-0.03563163219405149 0.032328567348343544 0.0 0.0061877461982528924 0.0 0.0
-0.02582716908197171 0.022783725455896478 0.0 0.004635061043291514 0.0 0.0
-0.017687543276393842 0.014899769886542846 0.0 0.003188962899031892 0.0 0.0
-0.011334732787677902 0.008829074981623206 0.0 0.0019965263837327754 0.0 0.0
-0.006766004724078711 0.00459863729045675 0.0 0.0011489294814855837 0.0 0.0
-0.0038309964474450234 0.0020732696135941117 0.0 0.0006693247511043327 0.0 0.0
-0.002227555856511568 0.0009672838085599985 0.0 0.0006739230729604459 0.0 0.0
-0.0014080788820490073 0.0005973874999962036 0.0 0.0008730728864678025 0.0 0.0
-0.0008220875996893409 0.00034739377344382004 0.0 0.000888531671025097 0.0 0.0
-0.00033016799942293463 4.4521242967216546e-05 0.0 0.0006029878968206972 0.0 0.0
-0.00012295743948071854 -1.6248870567832745e-05 0.0 0.00031151010108064844 0.0 0.0
-0.0001235695615100735 1.3887087638548222e-05 0.0 -0.00017598134266284693 0.0 0.0
-0.0003374772828327231 8.177081827405675e-05 0.0 -0.00030209002975327366 0.0 0.0
-0.0008758241022824777 0.00037115241301954557 0.0 -0.00043316799865587055 0.0 0.0
-0.0015612542762403463 0.0006462332432465381 0.0 -0.0004115978491443111 0.0 0.0
-0.002581979195621106 0.0011479237610398992 0.0 -0.0002468197753748057 0.0 0.0
-0.004542800544632991 0.002639326606235753 0.0 -0.0002384421484902721 0.0 0.0
-0.007938087877528172 0.005657923322882638 0.0 -0.0005024996546573096 0.0 0.0
-0.013062018944069746 0.010440790129756034 0.0 -0.0009421707569330811 0.0 0.0
-0.02012820042791803 0.017212454448658848 0.0 -0.0015611120536923886 0.0 0.0
-0.02918664424584972 0.02599347056924139 0.0 -0.0023306879742756165 0.0 0.0
-0.04014368505663948 0.03667015271488954 0.0 -0.003164683461868985 0.0 0.0
-0.05285929456238959 0.04909329456547995 0.0 -0.004004060693466075 0.0 0.0
-0.06721373558292128 0.06314528233522769 0.0 -0.004878665393971993 0.0 0.0
-0.08306846060087325 0.07871394619403481 0.0 -0.0058170715965426695 0.0 0.0
-0.1001592892420353 0.09557657172356333 0.0 -0.006782432783433494 0.0 0.0
-0.1179484741859371 0.11323322968454452 0.0 -0.0075942432824744254 0.0 0.0
-0.13548240378280219 0.1307449861772223 0.0 -0.007879764467395703 0.0 0.0
-0.15115616362745526 0.1465066255630788 0.0 -0.0077529286511012156 0.0 0.0
-0.16153367589032364 0.15756465013113194 0.0 -0.010909051555195273 0.0 0.0
-0.15872368086635338 0.15769554110165865 0.0 -0.03041881882849408 0.0 0.0
-0.15265520639560742 0.1341826722812329 0.0 6.276229536084088e-15 0.0 0.0
-0.15872368086632496 0.15769554110163664 0.0 0.03041881882851377 0.0 0.0
-0.16153367589027104 0.15756465013107745 0.0 0.010909051555214525 0.0 0.0
-0.15115616362738413 0.14650662556301142 0.0 0.007752928651109591 0.0 0.0
-0.13548240378271884 0.13074498617713293 0.0 0.007879764467394655 0.0 0.0
-0.11794847418584703 0.11323322968446131 0.0 0.007594243282473101 0.0 0.0
-0.10015928924194259 0.0955765717234723 0.0 0.006782432783430964 0.0 0.0
-0.08306846060078144 0.07871394619394513 0.0 0.005817071596539235 0.0 0.0
-0.06721373558283131 0.06314528233513342 0.0 0.004878665393967254 0.0 0.0
-0.05285929456230556 0.04909329456539969 0.0 0.0040040606934603415 0.0 0.0
-0.04014368505656675 0.0366701527148184 0.0 0.003164683461860558 0.0 0.0
-0.029186644245789855 0.02599347056918088 0.0 0.0023306879742683575 0.0 0.0
-0.020128200427871508 0.017212454448614373 0.0 0.0015611120536880316 0.0 0.0
-0.013062018944035789 0.010440790129725678 0.0 0.0009421707569298306 0.0 0.0
-0.0079380878775064 0.005657923322864258 0.0 0.000502499654656139 0.0 0.0
-0.004542800544621728 0.002639326606228886 0.0 0.0002384421484908852 0.0 0.0
-0.0025819791956169205 0.0011479237610352699 0.0 0.00024681977537459467 0.0 0.0
-0.0015612542762392478 0.0006462332432461322 0.0 0.00041159784914487045 0.0 0.0
-0.0008758241022820129 0.0003711524130182489 0.0 0.0004331679986553851 0.0 0.0
-0.0003374772828322875 8.177081827443158e-05 0.0 0.00030209002975321273 0.0 0.0
-0.00012356956150940738 1.388708763850377e-05 0.0 0.00017598134266338315 0.0 0.0
-8.261290975444493e-05 1.5711685594245017e-05 0.0 -0.00010847375149341355 0.0 0.0
-0.0003028712231449611 9.40323945393495e-05 0.0 -0.0001255000928377281 0.0 0.0
-0.0009117932516783422 0.0003799114889141528 0.0 -0.0001450330692824703 0.0 0.0
-0.001744972772982529 0.0006744015389688969 0.0 -9.994226443459885e-05 0.0 0.0
-0.0029990015671141675 0.0012560811722724875 0.0 0.00013034871550148317 0.0 0.0
-0.0053062819309609 0.0029444184570411197 0.0 0.0003311054177627963 0.0 0.0
-0.0091290626854732 0.006198555744371682 0.0 0.0004222839427170255 0.0 0.0
-0.014774200060442942 0.011249029479879605 0.0 0.00045436771388368134 0.0 0.0
-0.022517306375092458 0.01836149049741798 0.0 0.00042797870212176576 0.0 0.0
-0.03246750390927811 0.027584736490617438 0.0 0.00030956052218691866 0.0 0.0
-0.04456771209756899 0.038824466917774726 0.0 0.00014077469912896629 0.0 0.0
-0.058678817738823205 0.051935686730152225 0.0 -7.487780269263382e-05 0.0 0.0
-0.07462880210171091 0.06678209220164855 0.0 -0.00037814741866873305 0.0 0.0
-0.09221266820592346 0.08321594929779928 0.0 -0.0007412123450831788 0.0 0.0
-0.1110693841234276 0.10097030821097189 0.0 -0.0011971864625023327 0.0 0.0
-0.13047398153956813 0.11944980903725354 0.0 -0.0016734360255570846 0.0 0.0
-0.14919836282365773 0.13758297242031217 0.0 -0.0019401419974540268 0.0 0.0
-0.16555417633386782 0.15377754550395417 0.0 -0.001735030856397965 0.0 0.0
-0.17760284711012436 0.1656615150023459 0.0 -0.0031824665800586974 0.0 0.0
-0.18053460000984917 0.16830630032594726 0.0 -0.022737994639473257 0.0 0.0
-0.17876899026822385 0.14603687383371294 0.0 -1.096345236817342e-15 0.0 0.0
-0.18053460000981686 0.16830630032592273 0.0 0.022737994639479793 0.0 0.0
-0.17760284711006455 0.16566151500229073 0.0 0.0031824665800687657 0.0 0.0
-0.165554176333787 0.15377754550387754 0.0 0.001735030856400057 0.0 0.0
-0.14919836282356386 0.1375829724202119 0.0 0.0019401419974500837 0.0 0.0
-0.13047398153946807 0.11944980903716454 0.0 0.001673436025557997 0.0 0.0
-0.11106938412332534 0.10097030821087064 0.0 0.00119718646250014 0.0 0.0
-0.09221266820582233 0.08321594929770143 0.0 0.0007412123450787778 0.0 0.0
-0.07462880210161188 0.06678209220155133 0.0 0.000378147418664666 0.0 0.0
-0.05867881773873046 0.051935686730068785 0.0 7.487780269194774e-05 0.0 0.0
-0.0445677120974892 0.03882446691769976 0.0 -0.0001407746991292664 0.0 0.0
-0.03246750390921346 0.027584736490556507 0.0 -0.0003095605221880831 0.0 0.0
-0.022517306375041787 0.01836149049736747 0.0 -0.00042797870212495353 0.0 0.0
-0.014774200060404995 0.01124902947984436 0.0 -0.00045436771388339945 0.0 0.0
-0.00912906268544833 0.006198555744353117 0.0 -0.0004222839427156758 0.0 0.0
-0.005306281930947679 0.0029444184570306346 0.0 -0.00033110541776221604 0.0 0.0
-0.002999001567109128 0.0012560811722674915 0.0 -0.0001303487154988612 0.0 0.0
-0.0017449727729801437 0.0006744015389688754 0.0 9.994226443505252e-05 0.0 0.0
-0.0009117932516771452 0.00037991148891231534 0.0 0.00014503306928301458 0.0 0.0
-0.000302871223145516 9.40323945397031e-05 0.0 0.00012550009283830347 0.0 0.0
-8.261290975516194e-05 1.5711685594034946e-05 0.0 0.00010847375149303982 0.0 0.0
SCALARS Statev float 8
LOOKUP_TABLE default
0.0 0.018450481490809537 0.01479249810698259 -0.01761500648214282 0.0028225083751602198 -0.000989621760879526 0.0 0.0
0.0 0.006311336110418519 0.004647431083569689 -0.00289280523334795 -0.0017546258502217395 -0.00688893350957516 0.0 0.0
0.0 0.00012689786881548402 0.00017690894903149286 -0.00010893324155672882 -6.797570747476406e-05 -0.00030203495811560553 0.0 0.0
0.0 0.00015567831712447238 7.098608773599336e-05 -5.0870140091448186e-05 -2.0115947644545347e-05 2.33669061198334e-05 0.0 0.0
0.0 0.000975315387897126 0.0006594305938318058 -0.0004826339316967857 -0.00017679666213501967 0.00013843272792559585 0.0 0.0
0.0 0.0025421214929236425 0.0025141470896591213 -0.001992867921638043 -0.0005212791680210832 0.00028982053494726963 0.0 0.0
0.0 0.006435318008019206 0.005902715531406847 -0.005055654171753912 -0.0008470613596529264 0.000407751482803804 0.0 0.0
0.0 0.012374402409906216 0.01117439412474621 -0.010069136020648909 -0.0011052581040973035 0.0004632672865077644 0.0 0.0
0.0 0.02076944305109488 0.01854698369281922 -0.017214212553240675 -0.0013327711395785462 0.0004570605795425253 0.0 0.0
0.0 0.03174872641300585 0.02810759983950492 -0.02652740972152068 -0.001580190117984253 0.00036353812461509705 0.0 0.0
0.0 0.045235824745993324 0.03979904392960552 -0.03793024307842591 -0.0018688008511795577 0.00021504020712096773 0.0 0.0
0.0 0.06075183663882376 0.0534939437153057 -0.05129177235054988 -0.002202171364755719 1.0906688570353385e-05 0.0 0.0
0.0 0.07847427810346655 0.06903486341778348 -0.06646474610592848 -0.0025701173118549566 -0.00028185327795823725 0.0 0.0
0.0 0.09815646835054734 0.08625978318810895 -0.08330038194022776 -0.002959401247881044 -0.0006120861612592034 0.0 0.0
0.0 0.11952575486640701 0.1049269518309976 -0.10157521854272653 -0.003351733288271007 -0.0010142132969495274 0.0 0.0
0.0 0.14207986544362652 0.1245611478218181 -0.12083419905039564 -0.003726948771422501 -0.0014786225391992117 0.0 0.0
0.0 0.16484377922978727 0.14434686311519387 -0.14028197366054956 -0.00406488945464438 -0.0019179181031387465 0.0 0.0
0.0 0.18645852248952904 0.16311635458826615 -0.15877129880763385 -0.004345055780632314 -0.0021662771222959723 0.0 0.0
0.0 0.20527117178195997 0.17944874035927033 -0.1748873899364126 -0.004561350422857561 -0.002049798082363978 0.0 0.0
0.0 0.21909829942691023 0.19164676093841848 -0.18695884460286638 -0.004687916335552017 -0.0022774573685040165 0.0 0.0
0.0 0.2249027086616338 0.1965408022319553 -0.19187020775098898 -0.004670594480966379 2.26554885962571e-15 0.0 0.0
0.0 0.21909829942688677 0.19164676093839728 -0.18695884460284684 -0.0046879163355503925 0.0022774573685113283 0.0 0.0
0.0 0.2052711717818974 0.17944874035921543 -0.17488738993635872 -0.004561350422856733 0.002049798082370778 0.0 0.0
0.0 0.1864585224894328 0.16311635458818302 -0.1587712988075503 -0.004345055780632593 0.0021662771222998875 0.0 0.0
0.0 0.16484377922968307 0.14434686311510336 -0.14028197366046097 -0.004064889454642555 0.001917918103136961 0.0 0.0
0.0 0.1420798654435189 0.12456114782172316 -0.12083419905030326 -0.0037269487714199816 0.0014786225391962959 0.0 0.0
0.0 0.11952575486630056 0.10492695183090463 -0.10157521854263565 -0.0033517332882688254 0.001014213296948058 0.0 0.0
0.0 0.0981564683504368 0.0862597831880125 -0.08330038194013331 -0.0029594012478792787 0.0006120861612570559 0.0 0.0
0.0 0.07847427810336113 0.0690348634176917 -0.06646474610583838 -0.002570117311853205 0.0002818532779556809 0.0 0.0
0.0 0.06075183663872611 0.053493943715220635 -0.051291772350465795 -0.002202171364754776 -1.0906688574428142e-05 0.0 0.0
0.0 0.045235824745914435 0.03979904392953613 -0.03793024307835886 -0.0018688008511772687 -0.00021504020712421676 0.0 0.0
0.0 0.03174872641293899 0.028107599839446325 -0.026527409721463942 -0.0015801901179824077 -0.00036353812461713286 0.0 0.0
0.0 0.020769443051044143 0.01854698369277439 -0.01721421255319725 -0.0013327711395770985 -0.0004570605795429209 0.0 0.0
0.0 0.012374402409869315 0.011174394124713098 -0.010069136020616985 -0.00110525810409612 -0.00046326728650788774 0.0 0.0
0.0 0.006435318007999449 0.005902715531388234 -0.005055654171736817 -0.0008470613596514115 -0.00040775148280339127 0.0 0.0
0.0 0.0025421214929122323 0.002514147089647795 -0.0019928679216283 -0.0005212791680194948 -0.0002898205349464967 0.0 0.0
0.0 0.0009753153878916547 0.0006594305938276927 -0.0004826339316937186 -0.00017679666213397317 -0.00013843272792503415 0.0 0.0
0.0 0.00015567831712312487 7.098608773551239e-05 -5.087014009112439e-05 -2.0115947644387386e-05 -2.3366906119593955e-05 0.0 0.0
0.0 0.00012689786881462018 0.00017690894903085123 -0.00010893324155631039 -6.79757074745402e-05 0.0003020349581144535 0.0 0.0
0.0 0.006311336110407708 0.004647431083563984 -0.0028928052333437254 -0.0017546258502202574 0.0068889335095648815 0.0 0.0
0.0 0.01845048149078822 0.0147924981069682 -0.017615006482122997 0.002822508375154786 0.0009896217608402888 0.0 0.0
0.0 0.015059480385180896 0.011297142300746922 -0.014587624231548583 0.003290481930801656 -0.0005029751327428736 0.0 0.0
0.0 0.0038880235301979034 0.002790745494899966 -0.001715731945366236 -0.0010750135495337248 -0.00543241336313383 0.0 0.0
0.0 -7.537457894734068e-05 -7.051617088007863e-05 6.320415353103061e-05 7.312017349047973e-06 -7.979474248988208e-05 0.0 0.0
0.0 3.455955957879507e-05 2.6101770539309505e-05 -1.8846897340632283e-05 -7.254873198677235e-06 1.0784960441543857e-05 0.0 0.0
0.0 0.0005374752460181548 0.0004264923043564936 -0.00031466848769445783 -0.00011182381666203578 5.5651941673768435e-05 0.0 0.0
0.0 0.0022191634020314946 0.0019317680980843847 -0.0015462495780063648 -0.0003855185200780212 5.310173144954021e-05 0.0 0.0
0.0 0.005464760858603068 0.005002517596443013 -0.004336773889502895 -0.0006657437069401155 -0.00020292875722650663 0.0 0.0
0.0 0.01097486587262078 0.009832793335298549 -0.008986014065172212 -0.0008467792701263461 -0.0006373505213880915 0.0 0.0
0.0 0.01880795403713783 0.016635512737286397 -0.015672739967263524 -0.0009627727700228666 -0.0012484480780937377 0.0 0.0
0.0 0.02897477467924079 0.025451674867600003 -0.024391310387589522 -0.0010603644800104635 -0.002007149468874406 0.0 0.0
0.0 0.0414018747545358 0.03619176783861747 -0.03503556526184476 -0.0011562025767727496 -0.0028421709954394993 0.0 0.0
0.0 0.05603616203035899 0.048723680562153246 -0.0474686023837141 -0.0012550781784391504 -0.003698216920518708 0.0 0.0
0.0 0.07216140659112034 0.06293906209693516 -0.06158190972768565 -0.001357152369249429 -0.004592847604620324 0.0 0.0
0.0 0.0903751556607846 0.07871255223624203 -0.07725722148841535 -0.0014553307478266822 -0.0055321378286128315 0.0 0.0
0.0 0.11013801852994504 0.09583535242673258 -0.09429662682611753 -0.0015387256006149565 -0.006490627926599781 0.0 0.0
0.0 0.13100001073225725 0.11388786847849738 -0.11228975089533229 -0.001598117583165141 -0.007390812516057601 0.0 0.0
0.0 0.15214522764191524 0.13214087172118874 -0.13051312160273618 -0.0016277501184523851 -0.00801433756129594 0.0 0.0
0.0 0.17234288071924214 0.14953682650067235 -0.1479082541860586 -0.0016285723146137923 -0.008031567006328176 0.0 0.0
0.0 0.18994065541103675 0.16469304964920672 -0.16309774640852698 -0.0015953032406797493 -0.00722515552882733 0.0 0.0
0.0 0.20278939451629313 0.175689631982221 -0.17422426055628043 -0.0014653714259406155 -0.00613492548352889 0.0 0.0
0.0 0.20829272038869737 0.1799776921351063 -0.17871476061653388 -0.0012629315185725377 7.749009767188397e-15 0.0 0.0
0.0 0.2027893945162687 0.17568963198219903 -0.1742242605562594 -0.0014653714259395393 0.00613492548354928 0.0 0.0
0.0 0.1899406554109799 0.16469304964915746 -0.1630977464084778 -0.0015953032406795541 0.007225155528847447 0.0 0.0
0.0 0.17234288071915846 0.14953682650060052 -0.14790825418598597 -0.0016285723146145735 0.008031567006339245 0.0 0.0
0.0 0.15214522764181831 0.1321408717211056 -0.13051312160265272 -0.0016277501184529409 0.008014337561295971 0.0 0.0
0.0 0.13100001073215858 0.11388786847841169 -0.11228975089524702 -0.001598117583164404 0.007390812516052963 0.0 0.0
0.0 0.11013801852984602 0.09583535242664645 -0.09429662682603213 -0.0015387256006144092 0.006490627926596694 0.0 0.0
0.0 0.09037515566068514 0.07871255223615589 -0.0772572214883297 -0.0014553307478261121 0.005532137828609276 0.0 0.0
0.0 0.07216140659102153 0.0629390620968497 -0.06158190972760066 -0.0013571523692490696 0.0045928476046157496 0.0 0.0
0.0 0.056036162030269385 0.048723680562075544 -0.04746860238363644 -0.0012550781784390964 0.003698216920511998 0.0 0.0
0.0 0.04140187475445678 0.036191767838549146 -0.03503556526177673 -0.0011562025767724398 0.0028421709954316752 0.0 0.0
0.0 0.028974774679179947 0.025451674867546552 -0.02439131038753668 -0.0010603644800098607 0.0020071494688690137 0.0 0.0
0.0 0.018807954037090617 0.016635512737244527 -0.015672739967222293 -0.0009627727700222401 0.0012484480780899248 0.0 0.0
0.0 0.010974865872587669 0.009832793335268965 -0.008986014065143353 -0.0008467792701256256 0.0006373505213848785 0.0 0.0
0.0 0.005464760858583278 0.005002517596424851 -0.004336773889485889 -0.0006657437069389587 0.0002029287572246591 0.0 0.0
0.0 0.0022191634020208347 0.0019317680980749925 -0.001546249577998347 -0.00038551852007664565 -5.31017314496615e-05 0.0 0.0
0.0 0.0005374752460147405 0.00042649230435411406 -0.0003146684876926743 -0.00011182381666143984 -5.5651941673463266e-05 0.0 0.0
0.0 3.45595595782515e-05 2.6101770539491208e-05 -1.8846897340783858e-05 -7.254873198707227e-06 -1.0784960441426973e-05 0.0 0.0
0.0 -7.537457894749533e-05 -7.051617087989557e-05 6.320415353085239e-05 7.3120173490430324e-06 7.979474248957452e-05 0.0 0.0
0.0 0.0038880235301874755 0.0027907454948942314 -0.001715731945362149 -0.001075013549532083 0.005432413363122534 0.0 0.0
0.0 0.015059480385158336 0.011297142300729675 -0.014587624231526942 0.0032904819307972497 0.0005029751327134408 0.0 0.0
0.0 0.011236412597349251 0.008250343020597623 -0.010947957108801235 0.002697614088203606 -0.002964932480490402 0.0 0.0
0.0 0.0027030501540782795 0.0017201191385255961 -0.0009441363358159493 -0.0007759828027096481 -0.004562840543097873 0.0 0.0
0.0 -4.667948548804262e-07 4.875009023035697e-07 -4.25913719372716e-07 -6.158718293084972e-08 3.064392504882568e-07 0.0 0.0
0.0 -2.1136257331638107e-06 -4.072457024351894e-06 3.3672896517476842e-06 7.051673726040803e-07 4.006467742160585e-06 0.0 0.0
0.0 0.00023432933202864562 0.00019842770461202892 -0.00014249703843218875 -5.59306661798404e-05 1.4251513914599782e-05 0.0 0.0
0.0 0.0015773556769788373 0.0013190056420576473 -0.001027742107999205 -0.0002912635340584414 -8.084090951194145e-05 0.0 0.0
0.0 0.0042302771132821425 0.003938510067573471 -0.003345241906560674 -0.000593268161012797 -0.0005850085822794732 0.0 0.0
0.0 0.009160609256523948 0.008213250265229621 -0.007418032372353056 -0.0007952178928765617 -0.0014295762801674401 0.0 0.0
0.0 0.01616187483459779 0.01430449183049846 -0.013388000881691686 -0.0009164909488067615 -0.0026025227939410166 0.0 0.0
0.0 0.02534783660471194 0.02220440511819952 -0.02119574773098532 -0.0010086573872142258 -0.004031287478651541 0.0 0.0
0.0 0.03649691068013662 0.031794083530115494 -0.030696224121230926 -0.0010978594088845335 -0.005588714258167989 0.0 0.0
0.0 0.049337675623686884 0.04294076825641909 -0.041749730787605355 -0.0011910374688137283 -0.0071544945312439915 0.0 0.0
0.0 0.0641154155699236 0.05555449839934196 -0.0542673549997896 -0.0012871433995523664 -0.008714558755385864 0.0 0.0
0.0 0.08005454842172866 0.06957203497765985 -0.0681928430554034 -0.0013791919222563452 -0.010337552717643013 0.0 0.0
0.0 0.09770372970554525 0.08482850029946182 -0.08337013025214961 -0.0014583700473123546 -0.012003155159280885 0.0 0.0
0.0 0.1163810962542388 0.100978434365361 -0.09946206100543989 -0.0015163733599210109 -0.013539861197717822 0.0 0.0
0.0 0.1353983857026635 0.11741402021819569 -0.11586533284814322 -0.0015486873700525658 -0.014587843206664328 0.0 0.0
0.0 0.15365937420227319 0.1331986911716364 -0.13164878283101816 -0.0015499083406183194 -0.014650406399706446 0.0 0.0
0.0 0.16962853464849487 0.1469728968459567 -0.14547234846416207 -0.0015005483817944632 -0.013381320401373811 0.0 0.0
0.0 0.18122607881652783 0.15693465132634762 -0.1555150093530576 -0.0014196419732898096 -0.010755135863793445 0.0 0.0
0.0 0.18641572630647874 0.16093531124008473 -0.15975615330747103 -0.0011791579326136928 1.4589024432964948e-14 0.0 0.0
0.0 0.18122607881650535 0.15693465132632656 -0.1555150093530372 -0.0014196419732894195 0.01075513586382805 0.0 0.0
0.0 0.16962853464844674 0.14697289684591425 -0.14547234846412035 -0.0015005483817940243 0.013381320401409175 0.0 0.0
0.0 0.15365937420220244 0.133198691171575 -0.1316487828309568 -0.001549908340618094 0.014650406399726777 0.0 0.0
0.0 0.1353983857025796 0.11741402021812387 -0.11586533284807157 -0.0015486873700523368 0.014587843206666312 0.0 0.0
0.0 0.11638109625415204 0.10097843436528581 -0.09946206100536477 -0.0015163733599210818 0.013539861197710466 0.0 0.0
0.0 0.09770372970545575 0.08482850029938428 -0.0833701302520726 -0.0014583700473116531 0.012003155159275648 0.0 0.0
0.0 0.0800545484216427 0.06957203497758499 -0.06819284305532967 -0.0013791919222552959 0.010337552717638199 0.0 0.0
0.0 0.0641154155698358 0.055554498399266225 -0.054267354999714024 -0.0012871433995521912 0.008714558755377001 0.0 0.0
0.0 0.049337675623608364 0.04294076825635115 -0.041749730787538096 -0.0011910374688129768 0.007154494531232903 0.0 0.0
0.0 0.036496910680062555 0.03179408353005122 -0.030696224121166654 -0.0010978594088845558 0.005588714258155551 0.0 0.0
0.0 0.025347836604658704 0.022204405118152745 -0.02119574773093887 -0.0010086573872138582 0.0040312874786414595 0.0 0.0
0.0 0.016161874834553815 0.01430449183045988 -0.013388000881653636 -0.0009164909488062574 0.002602522793933288 0.0 0.0
0.0 0.009160609256495802 0.00821325026520486 -0.007418032372329084 -0.0007952178928757628 0.001429576280161965 0.0 0.0
0.0 0.004230277113264047 0.003938510067556858 -0.0033452419065453263 -0.0005932681610115333 0.0005850085822757271 0.0 0.0
0.0 0.00157735567697091 0.0013190056420508956 -0.001027742107993748 -0.0002912635340571465 8.084090951117703e-05 0.0 0.0
0.0 0.0002343293320262328 0.00019842770461051427 -0.00014249703843109452 -5.593066617941989e-05 -1.4251513914541144e-05 0.0 0.0
0.0 -2.1136257330614442e-06 -4.072457024100685e-06 3.3672896515598928e-06 7.051673725408177e-07 -4.0064677420670085e-06 0.0 0.0
0.0 -4.6679485480600997e-07 4.875009023064507e-07 -4.259137193739098e-07 -6.158718293254162e-08 -3.0643925048642404e-07 0.0 0.0
0.0 0.0027030501540696978 0.001720119138520544 -0.0009441363358125639 -0.0007759828027079778 0.004562840543084864 0.0 0.0
0.0 0.011236412597326008 0.00825034302058038 -0.01094795710877943 0.0026976140881990554 0.002964932480470921 0.0 0.0
0.0 0.008523006938964538 0.006095635321949346 -0.008258778901267388 0.0021631435793180273 -0.003220337313244542 0.0 0.0
0.0 0.0019510234672558595 0.0011661272712527827 -0.0006234314447229991 -0.0005426958265297789 -0.003440511615406417 0.0 0.0
0.0 0.0 0.0 0.0 0.0 0.0 0.0 0.0
0.0 -1.579945392861804e-06 -1.8590068841710857e-06 1.4653782337646216e-06 3.9362865040646087e-07 1.3227008282875663e-06 0.0 0.0
0.0 7.598846586200501e-05 5.3446609839340006e-05 -3.608864119083116e-05 -1.7357968648508555e-05 1.0560452423247622e-05 0.0 0.0
0.0 0.0009313795099162577 0.0008207618485805229 -0.000622818701313118 -0.00019794314726740396 -0.00014883957239956636 0.0 0.0
0.0 0.0033043833388570073 0.002912397154232074 -0.00241285750119868 -0.000499539653033396 -0.0007385266870311367 0.0 0.0
0.0 0.007394540241911938 0.006614714152405912 -0.005884204621333669 -0.0007305095310722433 -0.0019280612779154329 0.0 0.0
0.0 0.0135887287142681 0.011964886682702881 -0.011101600332308548 -0.000863286350394321 -0.003531917654768115 0.0 0.0
0.0 0.021718461725157963 0.018925849629135016 -0.017972954672367956 -0.0009528949567670488 -0.005473577853746642 0.0 0.0
0.0 0.03150598763436125 0.027354237325982578 -0.026318934249108784 -0.0010353030768737465 -0.007574570777769746 0.0 0.0
0.0 0.042919698887463185 0.0371116729864791 -0.03598978846112688 -0.001121884525352199 -0.009678589817333313 0.0 0.0
0.0 0.05557246144018856 0.04813171119802964 -0.04691924761137368 -0.0012124635866560332 -0.011765084365867888 0.0 0.0
0.0 0.07000186642525406 0.060373449669034886 -0.05907559980830609 -0.001297849860728791 -0.01389886138168861 0.0 0.0
0.0 0.08539159577246096 0.07374336856763809 -0.07237115677048242 -0.0013722117971556047 -0.016074956781412977 0.0 0.0
0.0 0.1016944148598884 0.08798170163318624 -0.08655108772856498 -0.0014306139046212484 -0.018102864564707888 0.0 0.0
0.0 0.11868223831381808 0.10259554269477489 -0.10113026072068222 -0.001465281974092614 -0.019544362442330473 0.0 0.0
0.0 0.1350806444193191 0.11677303061907136 -0.11530700925646555 -0.0014660213626057391 -0.019799739590824317 0.0 0.0
0.0 0.14951536525116582 0.12927763809710738 -0.12785096340178115 -0.0014266746953262755 -0.018245252125926842 0.0 0.0
0.0 0.16016600029502837 0.1385345374125752 -0.13716335424408158 -0.0013711831684940577 -0.014053525189576367 0.0 0.0
0.0 0.1653543230780223 0.14248162312860413 -0.14144687947220283 -0.0010347436564010777 1.9957126229375177e-14 0.0 0.0
0.0 0.16016600029500894 0.13853453741255672 -0.13716335424406256 -0.0013711831684943031 0.014053525189623103 0.0 0.0
0.0 0.1495153652511224 0.1292776380970684 -0.12785096340174226 -0.00142667469532615 0.018245252125971684 0.0 0.0
0.0 0.1350806444192557 0.11677303061901605 -0.11530700925640974 -0.0014660213626062988 0.019799739590850428 0.0 0.0
0.0 0.11868223831374994 0.10259554269471587 -0.10113026072062437 -0.0014652819740914931 0.019544362442334953 0.0 0.0
0.0 0.10169441485981132 0.08798170163311964 -0.0865510877284985 -0.0014306139046211066 0.01810286456469936 0.0 0.0
0.0 0.0853915957723844 0.07374336856757131 -0.07237115677041665 -0.0013722117971547013 0.016074956781405834 0.0 0.0
0.0 0.07000186642517636 0.06037344966896708 -0.059075599808239176 -0.0012978498607279514 0.01389886138168146 0.0 0.0
0.0 0.0555724614401154 0.04813171119796703 -0.04691924761131116 -0.0012124635866558188 0.011765084365856684 0.0 0.0
0.0 0.04291969888739268 0.03711167298641785 -0.03598978846106604 -0.0011218845253518708 0.009678589817317052 0.0 0.0
0.0 0.03150598763429858 0.027354237325928347 -0.026318934249054883 -0.0010353030768734367 0.007574570777754467 0.0 0.0
0.0 0.021718461725110355 0.018925849629093685 -0.017972954672327176 -0.0009528949567665088 0.005473577853732364 0.0 0.0
0.0 0.013588728714230338 0.01196488668267017 -0.011101600332276295 -0.0008632863503938657 0.0035319176547578897 0.0 0.0
0.0 0.007394540241889302 0.006614714152385327 -0.005884204621314061 -0.000730509531071261 0.001928061277908297 0.0 0.0
0.0 0.0033043833388417053 0.002912397154219225 -0.0024128575011872007 -0.0004995396530320253 0.0007385266870267247 0.0 0.0
0.0 0.0009313795099102044 0.0008207618485758101 -0.0006228187013094236 -0.0001979431472663867 0.0001488395723984721 0.0 0.0
0.0 7.59884658611518e-05 5.344660983920386e-05 -3.6088641190772065e-05 -1.7357968648431813e-05 -1.0560452422896497e-05 0.0 0.0
0.0 -1.5799453933179577e-06 -1.8590068842490498e-06 1.4653782338241022e-06 3.9362865042496907e-07 -1.3227008283365811e-06 0.0 0.0
0.0 0.0 0.0 0.0 0.0 0.0 0.0 0.0
0.0 0.001951023467248813 0.001166127271248723 -0.0006234314447202983 -0.0005426958265284266 0.0034405116153956266 0.0 0.0
0.0 0.008523006938945296 0.006095635321934385 -0.008258778901248355 0.0021631435793139663 0.0032203373132304166 0.0 0.0
0.0 0.006250804056649144 0.004446305306223238 -0.006132694299216502 0.0016863889929932666 -0.002771706557375611 0.0 0.0
0.0 0.0015576371563532478 0.0007606638569670863 -0.00039558107986438745 -0.00036508277710269857 -0.0024582602217968924 0.0 0.0
0.0 0.0 0.0 0.0 0.0 0.0 0.0 0.0
0.0 -3.4618351761890563e-07 8.213936169885427e-08 -6.312191434109266e-08 -1.9017447357760245e-08 -4.5777823236993216e-08 0.0 0.0
0.0 -1.5487876809909017e-05 -4.311874442820019e-06 5.124330037395446e-06 -8.124555945754326e-07 1.663638510220425e-05 0.0 0.0
0.0 0.0005152792083566418 0.00042154583405619174 -0.00031195914982897784 -0.00010958668422721423 -0.0001285090457818383 0.0 0.0
0.0 0.0024074399115512164 0.0019924580686119997 -0.0016056570732001416 -0.0003868009954118552 -0.0007538682076597818 0.0 0.0
0.0 0.005711281010462204 0.005061764080680083 -0.004411921330384533 -0.0006498427502955549 -0.0020923820362954678 0.0 0.0
0.0 0.011057080034327153 0.009646127224557302 -0.008845895523982036 -0.0008002317005752679 -0.0040286890132706955 0.0 0.0
0.0 0.018087555950738028 0.01564748147511015 -0.014756514993502206 -0.0008909664816079328 -0.006327898454464567 0.0 0.0
0.0 0.02660361358912489 0.022903011276732246 -0.021935266969443694 -0.0009677443072885593 -0.008802766756164794 0.0 0.0
0.0 0.036421628805335116 0.031269442058775174 -0.030222157690924206 -0.0010472843678509636 -0.011273483754010504 0.0 0.0
0.0 0.0475228340052864 0.04068895733520127 -0.03955796411483417 -0.001130993220367085 -0.013720224646145557 0.0 0.0
0.0 0.059513849592601815 0.05116224269213238 -0.049950791337838446 -0.0012114513542939248 -0.016212455722584347 0.0 0.0
0.0 0.07296419622206467 0.06263215282218172 -0.06135102104926945 -0.0012811317729122425 -0.01872828508938763 0.0 0.0
0.0 0.08733542493546671 0.07492743179384766 -0.073590544812136 -0.0013368869817116254 -0.021067693605271963 0.0 0.0
0.0 0.1019666930688858 0.08768751353532028 -0.08631270910712191 -0.00137480442819834 -0.022828982702493162 0.0 0.0
0.0 0.1164659689497738 0.10025328844453986 -0.09886909388276294 -0.0013841945617770006 -0.023372443599108617 0.0 0.0
0.0 0.12951043659750422 0.11159125940648436 -0.11023323894428379 -0.001358020462200504 -0.02171064839412338 0.0 0.0
0.0 0.13951303536276133 0.12035021509706548 -0.11903686635814342 -0.0013133487389219377 -0.01652117746656355 0.0 0.0
0.0 0.14488908472731496 0.1243746899135402 -0.1235154984776427 -0.0008591914358974854 2.325830500415904e-14 0.0 0.0
0.0 0.13951303536274123 0.12035021509704584 -0.11903686635812304 -0.0013133487389226728 0.016521177466616868 0.0 0.0
0.0 0.12951043659746608 0.11159125940644926 -0.11023323894424875 -0.0013580204622003823 0.021710648394173332 0.0 0.0
0.0 0.11646596894971943 0.10025328844449186 -0.0988690938827145 -0.0013841945617773777 0.023372443599138423 0.0 0.0
0.0 0.10196669306882748 0.08768751353526967 -0.08631270910707246 -0.0013748044281972234 0.022828982702498186 0.0 0.0
0.0 0.08733542493539809 0.07492743179378841 -0.07359054481207666 -0.0013368869817117273 0.0210676936052618 0.0 0.0
0.0 0.07296419622199977 0.06263215282212524 -0.06135102104921383 -0.0012811317729113307 0.01872828508937894 0.0 0.0
0.0 0.059513849592532565 0.05116224269207254 -0.04995079133777869 -0.0012114513542938166 0.01621245572257473 0.0 0.0
0.0 0.047522834005224134 0.04068895733514717 -0.03955796411478087 -0.00113099322036627 0.01372022464613367 0.0 0.0
0.0 0.03642162880527441 0.03126944205872303 -0.0302221576908722 -0.0010472843678508204 0.011273483753992612 0.0 0.0
0.0 0.026603613589073236 0.02290301127668823 -0.021935266969400125 -0.0009677443072881034 0.008802766756145369 0.0 0.0
0.0 0.018087555950694376 0.015647481475072854 -0.014756514993465378 -0.0008909664816074788 0.0063278984544469525 0.0 0.0
0.0 0.01105708003429623 0.009646127224530478 -0.008845895523955883 -0.0008002317005745908 0.004028689013259127 0.0 0.0
0.0 0.005711281010442088 0.005061764080662423 -0.004411921330367956 -0.000649842750294467 0.002092382036287373 0.0 0.0
0.0 0.0024074399115389354 0.0019924580686021508 -0.0016056570731916805 -0.0003868009954104706 0.0007538682076553485 0.0 0.0
0.0 0.0005152792083528328 0.0004215458340535904 -0.0003119591498270276 -0.00010958668422656246 0.00012850904578106388 0.0 0.0
0.0 -1.5487876810233132e-05 -4.311874442569833e-06 5.124330037188599e-06 -8.124555946188277e-07 -1.6636385101780375e-05 0.0 0.0
0.0 -3.461835174547605e-07 8.21393616334672e-08 -6.312191429166667e-08 -1.9017447341806985e-08 4.577782314821892e-08 0.0 0.0
0.0 0.0 0.0 0.0 0.0 0.0 0.0 0.0
0.0 0.0015576371563465277 0.0007606638569638411 -0.0003955810798622543 -0.0003650827771015851 0.002458260221787849 0.0 0.0
0.0 0.006250804056632884 0.004446305306210493 -0.0061326942992000364 0.0016863889929895333 0.0027717065573656 0.0 0.0
0.0 0.004550638906538123 0.0031295198771229557 -0.004387903068894699 0.0012583831917717405 -0.0021744905535532686 0.0 0.0
0.0 0.0009465456389131195 0.00046977414627614544 -0.000236075793725382 -0.0002336983525507629 -0.001667561753442324 0.0 0.0
0.0 0.0 0.0 0.0 0.0 0.0 0.0 0.0
0.0 -4.064329090098047e-07 4.870575836488942e-08 -3.7220179326117564e-08 -1.1485579038771885e-08 -9.017327970002273e-08 0.0 0.0
0.0 -1.774073094036692e-05 -1.37489666698275e-05 1.1064209987854798e-05 2.6847566819727144e-06 2.0108241079548036e-05 0.0 0.0
0.0 0.00018167306698269094 0.00016767497819775645 -0.00012056436159163513 -4.7110616606121395e-05 -7.743732088095193e-05 0.0 0.0
0.0 0.00140006830820978 0.0012380919408599667 -0.0009705078065236777 -0.0002675841343362898 -0.0006883716316754714 0.0 0.0
0.0 0.0044070147371001915 0.0035889354493185486 -0.0030487590280061927 -0.0005401764213123481 -0.0019777724729039864 0.0 0.0
0.0 0.00846271219494161 0.007378409901919496 -0.006657013713069024 -0.0007213961888504751 -0.004065368356385808 0.0 0.0
0.0 0.014540226221250842 0.012400104149623127 -0.011580251801944564 -0.0008198523476785627 -0.006584116719165452 0.0 0.0
0.0 0.021714890031313615 0.018473433042705375 -0.017580322995155755 -0.0008931100475496119 -0.009264730409863574 0.0 0.0
0.0 0.029934063249078966 0.025447217070902136 -0.024481189583578082 -0.0009660274873240423 -0.011936970402297303 0.0 0.0
0.0 0.039136857391341165 0.033270691584814674 -0.03222763122423561 -0.001043060360579078 -0.01457271916198345 0.0 0.0
0.0 0.04942616285482893 0.04196547157903288 -0.04084883486140892 -0.0011166367176239993 -0.01724489796465888 0.0 0.0
0.0 0.060572976059558865 0.05153358945137483 -0.05035156916672548 -0.0011820202846493549 -0.019941531737227017 0.0 0.0
0.0 0.07249257491083366 0.06186999195561191 -0.06063411579316694 -0.0012358761624449589 -0.022451573457588386 0.0 0.0
0.0 0.08538424382318867 0.07271767467640151 -0.07144175292968687 -0.001275921746714607 -0.02440754562518491 0.0 0.0
0.0 0.09790005539596991 0.08363128885581873 -0.08233292235389698 -0.0012983665019218242 -0.02522902302328817 0.0 0.0
0.0 0.10942647183001017 0.09384868377197439 -0.09255989233344539 -0.0012887914385290619 -0.02376411447435067 0.0 0.0
0.0 0.1189892666983488 0.1022380211301943 -0.10098857759272616 -0.0012494435374680308 -0.01826374184680525 0.0 0.0
0.0 0.12473217645660188 0.10643944807413608 -0.10578261080783656 -0.0006568372662994155 2.347688016213212e-14 0.0 0.0
0.0 0.11898926669833326 0.10223802113017755 -0.100988577592709 -0.0012494435374686519 0.018263741846858167 0.0 0.0
0.0 0.10942647182998044 0.09384868377194559 -0.09255989233341652 -0.0012887914385291462 0.02376411447440316 0.0 0.0
0.0 0.09790005539592496 0.08363128885577838 -0.08233292235385639 -0.0012983665019219 0.025229023023318906 0.0 0.0
0.0 0.08538424382313684 0.07271767467635692 -0.07144175292964268 -0.0012759217467142555 0.02440754562518965 0.0 0.0
0.0 0.07249257491077682 0.061869991955563135 -0.06063411579311798 -0.001235876162445133 0.022451573457578183 0.0 0.0
0.0 0.06057297605950431 0.05153358945132751 -0.05035156916667881 -0.0011820202846486787 0.01994153173721657 0.0 0.0
0.0 0.0494261628547721 0.04196547157898368 -0.04084883486135971 -0.0011166367176239696 0.01724489796464757 0.0 0.0
0.0 0.03913685739128789 0.03327069158476899 -0.03222763122419067 -0.0010430603605783041 0.014572719161970579 0.0 0.0
0.0 0.02993406324902987 0.025447217070860253 -0.02448118958353663 -0.0009660274873236254 0.011936970402280145 0.0 0.0
0.0 0.02171489003127307 0.018473433042671464 -0.017580322995123007 -0.0008931100475484641 0.009264730409843012 0.0 0.0
0.0 0.01454022622121381 0.012400104149591798 -0.011580251801913542 -0.0008198523476782518 0.006584116719145812 0.0 0.0
0.0 0.00846271219491538 0.007378409901896702 -0.0066570137130470535 -0.0007213961888496548 0.00406536835637255 0.0 0.0
0.0 0.0044070147370824445 0.0035889354493042675 -0.003048759027993056 -0.0005401764213112083 0.0019777724728959178 0.0 0.0
0.0 0.0014000683082011553 0.0012380919408531824 -0.0009705078065181095 -0.0002675841343350735 0.0006883716316711608 0.0 0.0
0.0 0.0001816730669804374 0.0001676749781964002 -0.00012056436159069275 -4.711061660570732e-05 7.743732088034215e-05 0.0 0.0
0.0 -1.774073094078284e-05 -1.3748966669335093e-05 1.1064209987486442e-05 2.6847566818486245e-06 -2.010824107900768e-05 0.0 0.0
0.0 -4.0643290884371383e-07 4.8705758368016944e-08 -3.7220179328436674e-08 -1.148557903957714e-08 9.017327969848529e-08 0.0 0.0
0.0 0.0 0.0 0.0 0.0 0.0 0.0 0.0
0.0 0.000946545638907478 0.0004697741462735672 -0.0002360757937236824 -0.0002336983525498844 0.0016675617534347657 0.0 0.0
0.0 0.00455063890652485 0.003129519877112566 -0.004387903068880913 0.0012583831917683452 0.002174490553546094 0.0 0.0
0.0 0.0030174825914150473 0.0020889229001954533 -0.0029696981633408146 0.0008807752631453569 -0.0016192387414623059 0.0 0.0
0.0 0.0005816455988462149 0.00025011616272582776 -0.00011026325506718397 -0.00013985290765864306 -0.0010221560722356087 0.0 0.0
0.0 3.547722962352453e-07 -4.760043067899587e-09 4.283870871274896e-09 4.761721966247399e-10 7.118613590585807e-08 0.0 0.0
0.0 -3.9933846218285653e-07 2.3010864123224606e-08 -1.7665084308602554e-08 -5.345779814626124e-09 -7.114747973550936e-08 0.0 0.0
0.0 -7.13797501434662e-06 -5.049145630366114e-06 4.0227626948508245e-06 1.0263829355153334e-06 1.092633619699569e-05 0.0 0.0
0.0 2.250887569044356e-05 2.2196128951418237e-05 -1.335696852432973e-05 -8.839160427088444e-06 1.289070472935938e-06 0.0 0.0
0.0 0.0007799442912838786 0.0006323004162652052 -0.0004838096182608404 -0.00014849079800436537 -0.0005099923123738992 0.0 0.0
0.0 0.0027277786390240344 0.0023056801683849553 -0.0019013936563430772 -0.00040428651204187804 -0.0017133838597950138 0.0 0.0
0.0 0.006519168243959359 0.005192678448011849 -0.004579685327832537 -0.0006129931201793116 -0.003659968784080719 0.0 0.0
0.0 0.010923540808964486 0.009221844945824061 -0.008489661367116968 -0.0007321835787070988 -0.006214569311123847 0.0 0.0
0.0 0.016895359453866523 0.014100705063107507 -0.013293071434591602 -0.0008076336285159088 -0.00894248361918507 0.0 0.0
0.0 0.02355296358994783 0.019679177448545505 -0.018803998661711927 -0.0008751787868335852 -0.011654526238673687 0.0 0.0
0.0 0.03093722115665288 0.025910249501868852 -0.02496517498338121 -0.0009450745184876346 -0.014310503843305525 0.0 0.0
0.0 0.039133020777637334 0.03283440927878799 -0.03182204472171081 -0.0010123645570771895 -0.01698668583723395 0.0 0.0
0.0 0.048124016355801054 0.040491369190592076 -0.03941890872017602 -0.0010724604704160498 -0.019681356720144223 0.0 0.0
0.0 0.05818137818982552 0.04884222534741325 -0.047720294851018245 -0.0011219304963950413 -0.02221887887613128 0.0 0.0
0.0 0.06820994936864563 0.05773940807058009 -0.05657393800851716 -0.0011654700620629434 -0.024244591244458907 0.0 0.0
0.0 0.07903966573843135 0.06692076584254036 -0.06571702360987322 -0.0012037422326670252 -0.02529001701717407 0.0 0.0
0.0 0.08954917385179796 0.0759681292005466 -0.07475378727782042 -0.0012143419227262028 -0.02430536743438458 0.0 0.0
0.0 0.09858685087950328 0.08404294681061059 -0.08286196492396466 -0.0011809818866460008 -0.01924950243310804 0.0 0.0
0.0 0.1049134070452839 0.08850754389366207 -0.08808082827707905 -0.0004267156165830622 2.152097944296827e-14 0.0 0.0
0.0 0.09858685087949011 0.08404294681059506 -0.08286196492394893 -0.0011809818866461816 0.019249502433160457 0.0 0.0
0.0 0.08954917385177472 0.07596812920052276 -0.0747537872777965 -0.0012143419227263017 0.024305367434437494 0.0 0.0
0.0 0.07903966573839608 0.06692076584250778 -0.06571702360984087 -0.0012037422326669329 0.025290017017205388 0.0 0.0
0.0 0.06820994936860177 0.05773940807054274 -0.056573938008480006 -0.001165470062062704 0.024244591244462436 0.0 0.0
0.0 0.058181378189780135 0.048842225347374535 -0.04772029485097964 -0.0011219304963949234 0.02221887887611987 0.0 0.0
0.0 0.04812401635575667 0.040491369190553385 -0.039418908720137716 -0.0010724604704156582 0.019681356720133224 0.0 0.0
0.0 0.039133020777592877 0.032834409278749734 -0.03182204472167265 -0.0010123645570770865 0.016986685837222733 0.0 0.0
0.0 0.03093722115661364 0.02591024950183556 -0.024965174983348524 -0.000945074518487041 0.014310503843294218 0.0 0.0
0.0 0.02355296358990535 0.01967917744851031 -0.0188039986616769 -0.0008751787868334312 0.011654526238654796 0.0 0.0
0.0 0.01689535945383314 0.01410070506308033 -0.013293071434565243 -0.0008076336285150874 0.008942483619164093 0.0 0.0
0.0 0.010923540808934876 0.009221844945799758 -0.008489661367092935 -0.0007321835787068228 0.006214569311104992 0.0 0.0
0.0 0.006519168243936674 0.005192678447994134 -0.004579685327815787 -0.0006129931201783398 0.003659968784068287 0.0 0.0
0.0 0.0027277786390115387 0.0023056801683749347 -0.00190139365633422 -0.0004042865120407122 0.0017133838597876683 0.0 0.0
0.0 0.000779944291277459 0.000632300416260744 -0.0004838096182573049 -0.00014849079800343854 0.0005099923123702673 0.0 0.0
0.0 2.250887568922426e-05 2.2196128951042785e-05 -1.3356968524066837e-05 -8.839160426976124e-06 -1.2890704731328258e-06 0.0 0.0
0.0 -7.1379750151738635e-06 -5.049145630318052e-06 4.022762694808063e-06 1.0263829355099884e-06 -1.0926336196828354e-05 0.0 0.0
0.0 -3.9933846203843063e-07 2.3010864114477826e-08 -1.766508430182229e-08 -5.345779812654833e-09 7.114747970917023e-08 0.0 0.0
0.0 3.5477229582550476e-07 -4.760043062279326e-09 4.283870866217358e-09 4.761721960621147e-10 -7.118613582206866e-08 0.0 0.0
0.0 0.0005816455988418236 0.00025011616272394444 -0.00011026325506593313 -0.00013985290765801154 0.0010221560722295945 0.0 0.0
0.0 0.0030174825914048168 0.00208892290018752 -0.002969698163329963 0.0008807752631424455 0.0016192387414571312 0.0 0.0
0.0 0.002267561385342827 0.0012412574151118975 -0.0017857738038130108 0.0005445163887011125 -0.0010836590186190831 0.0 0.0
0.0 0.0002135504875620588 0.00010346108261985771 -2.9763925306493054e-05 -7.36971573133647e-05 -0.0005346458170321755 0.0 0.0
0.0 3.938822423548199e-07 1.3687382105264943e-08 -1.4572484888456487e-08 8.85102783192201e-10 -2.63123933548875e-07 0.0 0.0
0.0 -7.248761654081361e-07 2.7961474225627753e-08 -2.1568571596801966e-08 -6.392902628826072e-09 -1.7301769615809262e-07 0.0 0.0
0.0 -4.586834416559717e-06 -2.8094581851779047e-06 2.2230993522847044e-06 5.863588328932059e-07 9.561228770982622e-06 0.0 0.0
0.0 -2.433737196298617e-05 -1.5059013163128305e-05 1.2789758506717866e-05 2.26925465641041e-06 3.437129279347961e-05 0.0 0.0
0.0 0.00030445734199909533 0.00022348756776544354 -0.00016772036751992226 -5.5767200245520994e-05 -0.00028219978618735904 0.0 0.0
0.0 0.001519355552075019 0.001223899427426498 -0.0009801725971537937 -0.00024372683027270415 -0.0012897633948600231 0.0 0.0
0.0 0.00402485569795277 0.003217957823699035 -0.0027544869750811968 -0.0004634708486178365 -0.0029638698694726354 0.0 0.0
0.0 0.007909065436288104 0.00615708906719045 -0.005546931016096986 -0.0006101580510934596 -0.005233279174267913 0.0 0.0
0.0 0.01217183505176395 0.00982537799235509 -0.009126547873668732 -0.0006988301186863569 -0.007813414834337505 0.0 0.0
0.0 0.01719617717246743 0.014009888685252388 -0.013243078150070055 -0.0007668105351823436 -0.010391040141792948 0.0 0.0
0.0 0.022834068907149355 0.018655870399415745 -0.017824670820050837 -0.0008311995793648913 -0.0129073071456364 0.0 0.0
0.0 0.029016555177374764 0.023813886901170027 -0.022923004317104183 -0.0008908825840658336 -0.015413811756851985 0.0 0.0
0.0 0.035962920476540636 0.029554765329615755 -0.02860924164277978 -0.0009455236868359694 -0.01793459231370028 0.0 0.0
0.0 0.04347713446739632 0.03590848918737286 -0.0349162062463836 -0.0009922829409892216 -0.02033865701485752 0.0 0.0
0.0 0.0517756035073842 0.04280107357568202 -0.04176718604793433 -0.001033887527747708 -0.022306705628924804 0.0 0.0
0.0 0.06025391335714621 0.050147260091619586 -0.049061214205330335 -0.0010860458862892287 -0.023447096754078293 0.0 0.0
0.0 0.0689612585254652 0.05788897470698946 -0.05676044208419365 -0.0011285326227958056 -0.02312673575090172 0.0 0.0
0.0 0.07777406325654397 0.06560327160239873 -0.06449303787714639 -0.0011102337252523755 -0.019334011813591387 0.0 0.0
0.0 0.08497842847565551 0.07040202143716343 -0.07023774051671056 -0.00016428092045291193 1.9186909006041475e-14 0.0 0.0
0.0 0.07777406325653413 0.06560327160238533 -0.0644930378771323 -0.001110233725252919 0.01933401181364055 0.0 0.0
0.0 0.06896125852544897 0.057888974706970624 -0.05676044208417524 -0.0011285326227954066 0.023126735750952723 0.0 0.0
0.0 0.060253913357121706 0.0501472600915963 -0.04906121420530736 -0.0010860458862889614 0.023447096754107638 0.0 0.0
0.0 0.05177560350735189 0.04280107357565462 -0.041767186047907565 -0.0010338875277470364 0.022306705628926206 0.0 0.0
0.0 0.043477134467359436 0.03590848918734199 -0.03491620624635319 -0.0009922829409888293 0.020338657014844837 0.0 0.0
0.0 0.03596292047650858 0.02955476532958825 -0.028609241642752692 -0.0009455236868355328 0.017934592313690077 0.0 0.0
0.0 0.029016555177342633 0.02381388690114278 -0.02292300431707725 -0.0008908825840655385 0.0154138117568424 0.0 0.0
0.0 0.022834068907120433 0.01865587039939158 -0.017824670820027443 -0.0008311995793641312 0.012907307145626087 0.0 0.0
0.0 0.01719617717243557 0.014009888685226412 -0.013243078150044255 -0.0007668105351821498 0.010391040141774851 0.0 0.0
0.0 0.012171835051736805 0.0098253779923339 -0.00912654787364808 -0.0006988301186858094 0.00781341483431816 0.0 0.0
0.0 0.007909065436264724 0.006157089067172498 -0.005546931016079381 -0.0006101580510931142 0.00523327917425063 0.0 0.0
0.0 0.004024855697937511 0.0032179578236871025 -0.002754486975070341 -0.00046347084861676427 0.002963869869462833 0.0 0.0
0.0 0.0015193555520668627 0.0012238994274203431 -0.0009801725971485655 -0.00024372683027177718 0.0012897633948541264 0.0 0.0
0.0 0.0003044573419951695 0.00022348756776280945 -0.0001677203675179041 -5.5767200244905194e-05 0.0002821997861838966 0.0 0.0
0.0 -2.4337371963372674e-05 -1.5059013162572563e-05 1.2789758506279532e-05 2.269254656293073e-06 -3.4371292792136754e-05 0.0 0.0
0.0 -4.586834417101174e-06 -2.809458185221248e-06 2.223099352319523e-06 5.863588329017171e-07 -9.561228771192257e-06 0.0 0.0
0.0 -7.24876165738862e-07 2.7961474235958256e-08 -2.1568571603915934e-08 -6.39290263204223e-09 1.7301769628934333e-07 0.0 0.0
0.0 3.9388224219998555e-07 1.3687382133194192e-08 -1.4572484916729176e-08 8.851027835353948e-10 2.6312393415545227e-07 0.0 0.0
0.0 0.00021355048755908567 0.00010346108261867308 -2.9763925305697734e-05 -7.369715731297536e-05 0.0005346458170278015 0.0 0.0
0.0 0.002267561385334152 0.0012412574151066359 -0.0017857738038055452 0.0005445163886989088 0.0010836590186156594 0.0 0.0
0.0 0.0011198495488014453 0.0006567792084884959 -0.0009557121649491214 0.0002989329564606255 -0.0007016444710277946 0.0 0.0
0.0 4.956109773980861e-05 1.2115560301452379e-05 2.3376986569864687e-05 -3.549254687131708e-05 -0.00018278027559000352 0.0 0.0
0.0 1.985576876091074e-06 -1.5113909273203148e-09 1.0457699421584567e-08 -8.94630849426334e-09 5.11821916118511e-07 0.0 0.0
0.0 1.6565581828389123e-06 -3.050710108012395e-08 2.1274267731963328e-08 9.232833348160474e-09 5.213923614808672e-07 0.0 0.0
0.0 -5.317901425190356e-06 -1.6430181719960594e-06 1.277377124266698e-06 3.656410477293605e-07 9.347082223375815e-06 0.0 0.0
0.0 -2.206995776567903e-05 -8.154669465944264e-06 6.741742732988748e-06 1.4129267329555193e-06 2.1880805514514557e-05 0.0 0.0
0.0 7.748390864107149e-05 2.676938525967116e-05 -1.93546883853035e-05 -7.414696874367729e-06 -8.196470060948379e-05 0.0 0.0
0.0 0.0006968071419637316 0.0004157751419123848 -0.00032908589882471833 -8.668924308766681e-05 -0.0007325003238473177 0.0 0.0
0.0 0.002109291341878307 0.0015102482385217825 -0.0012552420563430255 -0.000255006182178755 -0.0020329071237543297 0.0 0.0
0.0 0.0045543690649070025 0.0033401505438098488 -0.0029212342385246917 -0.00041891630528515515 -0.00379779828069931 0.0 0.0
0.0 0.007481082333615006 0.00573686888796204 -0.005202921152827944 -0.000533947735134094 -0.0059251995588830726 0.0 0.0
0.0 0.011017355395093313 0.008503897794216467 -0.007891968106230362 -0.0006119296879861008 -0.008134714738291665 0.0 0.0
0.0 0.01486553015107788 0.011571352452305119 -0.010893511243492178 -0.0006778412088129387 -0.01034841240131757 0.0 0.0
0.0 0.019092635543032883 0.014976424004309132 -0.014243934624373837 -0.0007324893799352995 -0.012543429324581029 0.0 0.0
0.0 0.023854198079344573 0.018800818188212373 -0.01801919239394008 -0.0007816257942723118 -0.014724319686093553 0.0 0.0
0.0 0.029230872302719424 0.02313184023545305 -0.022304943579605458 -0.0008268966558475876 -0.01685557901258648 0.0 0.0
0.0 0.03516383837740331 0.027998938948810774 -0.027129112413960755 -0.0008698265348499602 -0.018705493041069807 0.0 0.0
0.0 0.04142216157092386 0.03340761668644082 -0.032485274414991286 -0.0009223422714495801 -0.019849315936077333 0.0 0.0
0.0 0.048505447211097806 0.039581980749859816 -0.038582775200701525 -0.0009992055491582592 -0.019973362184822274 0.0 0.0
0.0 0.0568714764337756 0.04673210468430135 -0.045700604223491155 -0.001031500460810215 -0.018124420991817755 0.0 0.0
0.0 0.06501309938642504 0.05191772731871727 -0.05205099329779063 0.00013326597907328488 1.638533059233893e-14 0.0 0.0
0.0 0.056871476433775416 0.04673210468429523 -0.0457006042234844 -0.0010315004608107998 0.018124420991860624 0.0 0.0
0.0 0.048505447211088355 0.03958198074984702 -0.038582775200689166 -0.0009992055491578028 0.019973362184865957 0.0 0.0
0.0 0.04142216157090517 0.03340761668642347 -0.032485274414974126 -0.0009223422714492965 0.019849315936100925 0.0 0.0
0.0 0.03516383837737874 0.027998938948791643 -0.02712911241394225 -0.0008698265348493888 0.018705493041066095 0.0 0.0
0.0 0.029230872302693726 0.0231318402354324 -0.022304943579584593 -0.0008268966558477833 0.016855579012573417 0.0 0.0
0.0 0.02385419807932246 0.018800818188193867 -0.01801919239392264 -0.0007816257942712361 0.014724319686084042 0.0 0.0
0.0 0.019092635543013402 0.014976424004292804 -0.01424393462435809 -0.0007324893799347228 0.012543429324574739 0.0 0.0
0.0 0.014865530151058272 0.011571352452289215 -0.010893511243476702 -0.0006778412088125124 0.010348412401308394 0.0 0.0
0.0 0.011017355395072335 0.008503897794201203 -0.007891968106215294 -0.0006119296879859071 0.008134714738276691 0.0 0.0
0.0 0.007481082333596137 0.005736868887947662 -0.005202921152814382 -0.0005339477351332766 0.005925199558867419 0.0 0.0
0.0 0.0045543690648919295 0.003340150543799149 -0.0029212342385145375 -0.00041891630528460995 0.0037977982806869596 0.0 0.0
0.0 0.0021092913418691134 0.0015102482385152504 -0.0012552420563372432 -0.0002550061821780061 0.0020329071237469736 0.0 0.0
0.0 0.000696807141958844 0.0004157751419093565 -0.0003290858988222461 -8.668924308711035e-05 0.0007325003238427333 0.0 0.0
0.0 7.74839086385045e-05 2.676938525921712e-05 -1.9354688384934848e-05 -7.4146968742822464e-06 8.196470060818314e-05 0.0 0.0
0.0 -2.2069957765944077e-05 -8.154669465554636e-06 6.741742732692316e-06 1.412926732862293e-06 -2.1880805512925334e-05 0.0 0.0
0.0 -5.317901424983102e-06 -1.6430181718434379e-06 1.2773771241536578e-06 3.656410476897901e-07 -9.347082222052048e-06 0.0 0.0
0.0 1.6565581822532794e-06 -3.050710112363348e-08 2.127426776501376e-08 9.232833358620591e-09 -5.21392361742687e-07 0.0 0.0
0.0 1.985576876003816e-06 -1.511390909358179e-09 1.0457699399832683e-08 -8.94630849047411e-09 -5.118219155416365e-07 0.0 0.0
0.0 4.956109773726245e-05 1.2115560300926324e-05 2.3376986570176093e-05 -3.549254687110235e-05 0.00018278027558768346 0.0 0.0
0.0 0.001119849548795623 0.0006567792084852984 -0.0009557121649444744 0.00029893295645917604 0.0007016444710253305 0.0 0.0
0.0 0.0005019389256608363 0.0002542771508329853 -0.00037280315605424705 0.00011852600522126192 -0.0003353910216972436 0.0 0.0
0.0 -3.2242570395019405e-05 -2.0448653473372644e-05 3.463800562899114e-05 -1.4189352155618511e-05 3.3526118820035342e-06 0.0 0.0
0.0 7.675856499193745e-07 8.90489945575249e-09 -2.1783197824015628e-08 1.287829836826423e-08 -6.032529128807764e-07 0.0 0.0
0.0 5.390098259109172e-07 -2.015496823229094e-08 1.4425150798260835e-08 5.72981743402797e-09 -1.424976296226248e-07 0.0 0.0
0.0 -4.122810299325683e-06 -6.105592310861101e-07 4.923589764857277e-07 1.1820025460039045e-07 7.312179762799646e-06 0.0 0.0
0.0 -9.230238639547865e-06 -3.640932986985835e-06 3.0272369977317927e-06 6.136959892540146e-07 1.994323173378734e-05 0.0 0.0
0.0 3.6350165002735206e-05 -1.7656523331452728e-06 1.6567917241471769e-06 1.0886060899812603e-07 -4.177882731037115e-05 0.0 0.0
0.0 0.0001964499438572797 3.5301412035977406e-05 -2.9708489669196434e-05 -5.592922366781074e-06 -0.00029626061287654163 0.0 0.0
0.0 0.0006889015654472547 0.00027191201224769214 -0.00023853643609458345 -3.337557615310835e-05 -0.0009789689335178856 0.0 0.0
0.0 0.0017405979651320194 0.0009215446592235597 -0.0008226251336397915 -9.891952558376881e-05 -0.002150382045234508 0.0 0.0
0.0 0.003460866027103463 0.0020030007147461 -0.0018136496948406226 -0.00018935101990547612 -0.003642108577820972 0.0 0.0
0.0 0.00525718251764554 0.0033346350088045798 -0.003062423655257844 -0.0002722113535467387 -0.005310396436414279 0.0 0.0
0.0 0.007398349618932677 0.004818745828131204 -0.004472399899131791 -0.0003463459289994096 -0.007057474472775496 0.0 0.0
0.0 0.009813462256677856 0.006485103652802938 -0.006075506843747282 -0.0004095968090556498 -0.008867986923216133 0.0 0.0
0.0 0.012518374999163452 0.008402748749209753 -0.00793508971461181 -0.0004676590345979412 -0.010737328988741074 0.0 0.0
0.0 0.015659239028085477 0.010687264444985202 -0.010161775026563952 -0.0005254894184212474 -0.012657331511498381 0.0 0.0
0.0 0.0194085610609266 0.013486715088231103 -0.012900240981789456 -0.0005864741064416511 -0.014493594230671758 0.0 0.0
0.0 0.02381815019901861 0.016931690625542343 -0.01628309098535143 -0.0006485996401909107 -0.015780324332126876 0.0 0.0
0.0 0.028879598079563366 0.021272022320250526 -0.020542822707059073 -0.0007291996131914765 -0.015950623351958338 0.0 0.0
0.0 0.03561190403784602 0.027328878946559065 -0.026453754804241655 -0.0008751241423173558 -0.015297103644414145 0.0 0.0
0.0 0.04601712573219727 0.03282179385086622 -0.03330485388927825 0.00048306003841202345 1.2823075934420558e-14 0.0 0.0
0.0 0.03561190403785084 0.02732887894655626 -0.026453754804238623 -0.0008751241423176682 0.015297103644448692 0.0 0.0
0.0 0.028879598079559747 0.02127202232024371 -0.020542822707052794 -0.0007291996131909381 0.015950623351993026 0.0 0.0
0.0 0.023818150199004354 0.016931690625531317 -0.01628309098534002 -0.0006485996401912979 0.01578032433213973 0.0 0.0
0.0 0.01940856106090937 0.013486715088220847 -0.012900240981779863 -0.0005864741064410194 0.014493594230663688 0.0 0.0
0.0 0.01565923902807194 0.010687264444976448 -0.010161775026554758 -0.0005254894184216859 0.012657331511486606 0.0 0.0
0.0 0.012518374999151044 0.008402748749200767 -0.007935089714602467 -0.00046765903459830153 0.010737328988731878 0.0 0.0
0.0 0.009813462256668253 0.006485103652796574 -0.006075506843741178 -0.00040959680905540657 0.008867986923211495 0.0 0.0
0.0 0.007398349618922434 0.004818745828125088 -0.004472399899125826 -0.00034634592899926344 0.007057474472767521 0.0 0.0
0.0 0.005257182517636207 0.0033346350087994944 -0.0030624236552528558 -0.0002722113535466372 0.005310396436404257 0.0 0.0
0.0 0.003460866027091461 0.0020030007147394265 -0.0018136496948342837 -0.0001893510199051415 0.0036421085778071682 0.0 0.0
0.0 0.0017405979651263029 0.000921544659220554 -0.0008226251336369383 -9.891952558361631e-05 0.0021503820452294046 0.0 0.0
0.0 0.0006889015654435334 0.00027191201224595747 -0.00023853643609302068 -3.337557615293609e-05 0.0009789689335127532 0.0 0.0
0.0 0.0001964499438556095 3.5301412035561296e-05 -2.970848966882918e-05 -5.59292236673222e-06 0.0002962606128746016 0.0 0.0
0.0 3.6350165001317896e-05 -1.7656523331499738e-06 1.6567917241363876e-06 1.0886060901361081e-07 4.177882730959236e-05 0.0 0.0
0.0 -9.230238640578308e-06 -3.6409329869636086e-06 3.0272369977131766e-06 6.136959892504268e-07 -1.994323173329621e-05 0.0 0.0
0.0 -4.122810299302336e-06 -6.105592310595766e-07 4.923589764693202e-07 1.1820025459025357e-07 -7.3121797619616355e-06 0.0 0.0
0.0 5.390098256095602e-07 -2.0154968251569692e-08 1.4425150818259423e-08 5.729817433311103e-09 1.4249763000506138e-07 0.0 0.0
0.0 7.675856502319514e-07 8.904899462311584e-09 -2.1783197846197753e-08 1.2878298383882168e-08 6.032529139454217e-07 0.0 0.0
0.0 -3.224257039589379e-05 -2.0448653473294426e-05 3.463800562881305e-05 -1.418935215551857e-05 -3.352611882466463e-06 0.0 0.0
0.0 0.0005019389256568957 0.00025427715083119873 -0.0003728031560516592 0.00011852600522046002 0.0003353910216951768 0.0 0.0
0.0 8.709474561953015e-05 5.030795388024104e-05 -7.554597081986824e-05 2.5238016939627135e-05 -8.150404131533186e-05 0.0 0.0
0.0 -1.5400116789151627e-05 -8.741131305067935e-06 1.2230433150490518e-05 -3.4893018454225687e-06 1.732434460403877e-05 0.0 0.0
0.0 3.326792561969041e-06 8.494793734886308e-08 -5.2120233699866496e-08 -3.282770364900199e-08 2.3107140514765026e-06 0.0 0.0
0.0 1.556810327044736e-06 -5.942348763201142e-08 4.544076223680904e-08 1.398272539520581e-08 -5.872856679991809e-07 0.0 0.0
0.0 -1.797934869976058e-06 -9.800717739161535e-08 9.937390614206278e-08 -1.3667287504476208e-09 3.2713364482930463e-06 0.0 0.0
0.0 -1.3804803922205998e-06 -7.217887151224352e-07 7.51359869348664e-07 -2.9571154226229325e-08 1.03900160384689e-05 0.0 0.0
0.0 4.712800437899708e-05 -1.29994291138534e-06 1.2927990603019667e-06 7.143851083365806e-09 -5.774479855600057e-05 0.0 0.0
0.0 0.00015534238542871845 -9.285327245769711e-07 8.856849293853129e-07 4.284779519167777e-08 -0.000265793183764579 0.0 0.0
0.0 0.0003748453120552522 -1.5452747924119455e-07 1.3743894111344298e-07 1.7088538127767873e-08 -0.0005715366315540198 0.0 0.0
0.0 0.0006133272246410136 5.2603676033619083e-08 -1.9510247190122464e-08 -3.309342884361859e-08 -0.0011379881858577768 0.0 0.0
0.0 0.0011025489055406794 5.494217308885986e-07 -7.833984709801795e-07 2.3397674009170287e-07 -0.002046476421930466 0.0 0.0
0.0 0.001720515349440983 -4.621007109825487e-06 6.436269625765309e-06 -1.8152625159395237e-06 -0.003445689613721707 0.0 0.0
0.0 0.0027232668630670924 -1.6680273097132076e-05 2.014515410395714e-05 -3.4648810068244523e-06 -0.0050594524219461185 0.0 0.0
0.0 0.003908490526176593 -2.9477148109433764e-05 3.2326807960175166e-05 -2.849659850740372e-06 -0.006785286795326596 0.0 0.0
0.0 0.005250731537463325 9.841853759196711e-06 -1.6471150874115283e-05 6.62929711491906e-06 -0.008628418022055993 0.0 0.0
0.0 0.0067152659216881926 0.00023186143982726877 -0.0002623379572408033 3.0476517413534202e-05 -0.010594069735632103 0.0 0.0
0.0 0.008354185013717583 0.0008746305688671903 -0.0009501074441199283 7.547687525273739e-05 -0.012623301779437702 0.0 0.0
0.0 0.010103718739720557 0.0021611430223350916 -0.0023533614772961666 0.00019221845496107017 -0.014539094742349991 0.0 0.0
0.0 0.012554295764566497 0.0038022110343896125 -0.0041757671347054815 0.00037355610031587175 -0.01593694324713007 0.0 0.0
0.0 0.018314773514841242 0.007757505612427255 -0.007532401187835309 -0.00022510442459194272 -0.01621629638919084 0.0 0.0
0.0 0.03237021598907776 0.013911160818394675 -0.014942869091652114 0.0010317082732574311 1.2483937494867092e-14 0.0 0.0
0.0 0.018314773514846207 0.007757505612425821 -0.0075324011878333316 -0.0002251044245924806 0.01621629638921293 0.0 0.0
0.0 0.012554295764561709 0.003802211034386674 -0.004175767134702689 0.0003735561003160118 0.01593694324714011 0.0 0.0
0.0 0.010103718739709595 0.002161143022333641 -0.002353361477294924 0.00019221845496128292 0.014539094742345347 0.0 0.0
0.0 0.008354185013705377 0.0008746305688688476 -0.0009501074441223451 7.547687525349823e-05 0.012623301779426352 0.0 0.0
0.0 0.006715265921683115 0.00023186143982880031 -0.00026233795724239675 3.0476517413596625e-05 0.010594069735621265 0.0 0.0
0.0 0.005250731537457129 9.841853761039204e-06 -1.647115087584914e-05 6.62929711480961e-06 0.008628418022048525 0.0 0.0
0.0 0.003908490526170825 -2.9477148107113897e-05 3.2326807957857846e-05 -2.8496598507421472e-06 0.006785286795318514 0.0 0.0
0.0 0.002723266863057966 -1.6680273094696633e-05 2.014515410123102e-05 -3.46488100653413e-06 0.005059452421933036 0.0 0.0
0.0 0.001720515349434668 -4.62100710881192e-06 6.4362696246186835e-06 -1.8152625158070613e-06 0.00344568961371254 0.0 0.0
0.0 0.001102548905533982 5.494217308804129e-07 -7.833984709727798e-07 2.339767400924957e-07 0.002046476421921439 0.0 0.0
0.0 0.0006133272246410591 5.260367588150552e-08 -1.951024713740991e-08 -3.309342874395331e-08 0.001137988185856279 0.0 0.0
0.0 0.0003748453120531904 -1.5452747929150322e-07 1.3743894116609412e-07 1.7088538125321006e-08 0.0005715366315511566 0.0 0.0
0.0 0.00015534238542778218 -9.285327245378585e-07 8.856849293744501e-07 4.2847795163402064e-08 0.00026579318376293397 0.0 0.0
0.0 4.7128004377650965e-05 -1.2999429113723154e-06 1.292799060303888e-06 7.143851068446234e-09 5.774479855536159e-05 0.0 0.0
0.0 -1.3804803930413683e-06 -7.217887151354554e-07 7.513598693581099e-07 -2.957115422265984e-08 -1.0390016037655798e-05 0.0 0.0
0.0 -1.7979348699566665e-06 -9.800717743222275e-08 9.937390618066123e-08 -1.3667287484353154e-09 -3.271336447323502e-06 0.0 0.0
0.0 1.556810327030054e-06 -5.942348769403494e-08 4.544076229019271e-08 1.398272540384127e-08 5.872856688792147e-07 0.0 0.0
0.0 3.3267925611390918e-06 8.494793736939658e-08 -5.212023371424696e-08 -3.282770365513968e-08 -2.3107140519584017e-06 0.0 0.0
0.0 -1.540011678950972e-05 -8.741131304865782e-06 1.2230433150247229e-05 -3.4893018453814583e-06 -1.7324344603311092e-05 0.0 0.0
0.0 8.709474561812925e-05 5.030795387995638e-05 -7.554597081945898e-05 2.5238016939502702e-05 8.150404131499339e-05 0.0 0.0
0.0 1.183966885303076e-06 -1.395022044165559e-06 1.892933697577185e-06 -4.979116534116411e-07 3.2223630850938734e-06 0.0 0.0
0.0 -5.717406045963331e-07 2.195737186663552e-07 -2.776056030680302e-07 5.803188440167744e-08 1.578306695474741e-07 0.0 0.0
0.0 4.6999551024514517e-07 6.623524496758974e-08 -9.411999738715766e-08 2.7884752419567555e-08 -8.82968537123108e-07 0.0 0.0
0.0 2.499772829192827e-06 -3.1863837534820465e-08 1.516587599598538e-08 1.6697961538833967e-08 -1.2665564507215305e-06 0.0 0.0
0.0 1.830593330432088e-07 -1.862623528858681e-07 1.740000072999837e-07 1.226234558588156e-08 -1.573822264893838e-06 0.0 0.0
0.0 -1.7325367689782035e-06 3.921885951053412e-08 1.9961716130336642e-07 -2.3883602081385906e-07 -1.5415130195007005e-06 0.0 0.0
0.0 5.9862114378595466e-05 -7.545326674951739e-07 8.866775938212745e-07 -1.321449263261605e-07 -4.811553595658365e-05 0.0 0.0
0.0 0.00020830100057658333 -3.92949353489483e-05 3.3322327600807413e-05 5.972607748140877e-06 -0.00030609101195881955 0.0 0.0
0.0 0.0006913514809434253 -0.0002732568591605249 0.000239650618992754 3.360624016777097e-05 -0.0009843785591442077 0.0 0.0
0.0 0.0017384453741019481 -0.0009203809561671933 0.0008215533853835583 9.882757078363574e-05 -0.0021497616219608565 0.0 0.0
0.0 0.0034719042748977916 -0.002003062214898078 0.0018139265531591786 0.0001891356617388971 -0.003638718570717631 0.0 0.0
0.0 0.005288973740835295 -0.003353688181101055 0.0030786673222576826 0.00027502085884337094 -0.005314174047262306 0.0 0.0
0.0 0.007455738607388132 -0.004869643465252616 0.004518660118660591 0.00035098334659202626 -0.007061680789335427 0.0 0.0
0.0 0.009883573377250288 -0.00655332790725865 0.006143381769317796 0.0004099461379408504 -0.008864549962145377 0.0 0.0
0.0 0.012428426182790364 -0.008350230866307082 0.007903868144464064 0.00044636272184301874 -0.010741152532591756 0.0 0.0
0.0 0.014972541142684752 -0.010081955223917163 0.009629808132747445 0.0004521470911697106 -0.012756030857713074 0.0 0.0
0.0 0.017151530267172078 -0.011415751874550597 0.010996361406659633 0.00041939046789097494 -0.014953860875842629 0.0 0.0
0.0 0.018755931860900705 -0.011898296986617643 0.01156488735958655 0.0003334096270311015 -0.017394961028006813 0.0 0.0
0.0 0.018890226798792792 -0.010997275868318713 0.010854458333979265 0.00014281753433945105 -0.02003605538186973 0.0 0.0
0.0 0.01540894830524061 -0.007947870412021892 0.00825870369176843 -0.0003108332797465346 -0.021910897019109133 0.0 0.0
0.0 0.03115856311151681 -0.004402065171235972 0.0020846647720906726 0.0023174003991452948 1.5839760059144226e-14 0.0 0.0
0.0 0.015408948305247543 -0.007947870412023324 0.008258703691769679 -0.00031083327974635395 0.021910897019123604 0.0 0.0
0.0 0.01889022679878937 -0.01099727586831488 0.010854458333975189 0.00014281753433969526 0.02003605538188233 0.0 0.0
0.0 0.01875593186088681 -0.011898296986607442 0.011564887359576927 0.00033340962703050673 0.017394961028007003 0.0 0.0
0.0 0.017151530267153197 -0.011415751874536804 0.010996361406646045 0.0004193904678907697 0.01495386087583335 0.0 0.0
0.0 0.014972541142664822 -0.010081955223902952 0.009629808132732934 0.0004521470911700155 0.01275603085769831 0.0 0.0
0.0 0.012428426182777095 -0.008350230866296146 0.007903868144453772 0.00044636272184237315 0.010741152532582256 0.0 0.0
0.0 0.009883573377232627 -0.006553327907245026 0.0061433817693042425 0.0004099461379407804 0.008864549962133941 0.0 0.0
0.0 0.007455738607370791 -0.004869643465239987 0.0045186601186486975 0.0003509833465912916 0.007061680789323512 0.0 0.0
0.0 0.005288973740818647 -0.0033536881810896607 0.0030786673222469125 0.0002750208588427465 0.005314174047247711 0.0 0.0
0.0 0.0034719042748801213 -0.0020030622148868513 0.0018139265531485185 0.00018913566173833275 0.003638718570701605 0.0 0.0
0.0 0.0017384453740910467 -0.0009203809561607031 0.0008215533853777169 9.882757078298718e-05 0.0021497616219520884 0.0 0.0
0.0 0.0006913514809398621 -0.0002732568591584149 0.000239650618990984 3.3606240167431064e-05 0.0009843785591407994 0.0 0.0
0.0 0.0002083010005737954 -3.929493534844162e-05 3.332232760038217e-05 5.972607748059546e-06 0.00030609101195524125 0.0 0.0
0.0 5.986211437765102e-05 -7.545326676962028e-07 8.866775939670243e-07 -1.3214492627084693e-07 4.811553595710235e-05 0.0 0.0
0.0 -1.7325367701935175e-06 3.921885950439784e-08 1.996171613073591e-07 -2.388360208117529e-07 1.5415130197990709e-06 0.0 0.0
0.0 1.830593329664818e-07 -1.8626235301687288e-07 1.7400000741178742e-07 1.2262345605076333e-08 1.5738222659984001e-06 0.0 0.0
0.0 2.499772828677741e-06 -3.186383763351335e-08 1.5165876077930623e-08 1.669796155558333e-08 1.2665564515972454e-06 0.0 0.0
0.0 4.6999550987063246e-07 6.623524495078176e-08 -9.411999738295317e-08 2.788475243216686e-08 8.829685377923856e-07 0.0 0.0
0.0 -5.717406044420505e-07 2.195737186014089e-07 -2.7760560299028823e-07 5.80318843888783e-08 -1.5783066951439982e-07 0.0 0.0
0.0 1.1839668838701157e-06 -1.3950220436866773e-06 1.892933696852381e-06 -4.979116531656892e-07 -3.222363084127058e-06 0.0 0.0
0.0 -5.791226492451871e-07 3.285152939261595e-08 -4.863961923435168e-08 1.5788089841737027e-08 -8.324711323925468e-08 0.0 0.0
0.0 1.3027131704465756e-06 1.799342065196187e-09 1.914756302720888e-08 -2.0946905092411098e-08 2.49565474570703e-07 0.0 0.0
0.0 -3.780919564228584e-07 2.2948909829287994e-07 -1.8475122542027277e-07 -4.473787287261589e-08 1.7244638262075619e-06 0.0 0.0
0.0 1.3755583691490586e-06 -4.0451162240971526e-07 3.166079147298471e-07 8.790370767985648e-08 -3.3957065636425695e-06 0.0 0.0
0.0 3.0924345136250116e-06 2.2558310744525192e-06 -1.8556020742379127e-06 -4.002290002145461e-07 9.74610812060405e-06 0.0 0.0
0.0 1.2329210100859321e-05 5.587257723464942e-06 -4.327772780925148e-06 -1.2594849425397952e-06 1.2233139694516754e-05 0.0 0.0
0.0 9.187795098961968e-05 -4.4934296284385413e-05 3.4619643259511834e-05 1.031465302487364e-05 -0.00014053296043386022 0.0 0.0
0.0 0.0007148029987167232 -0.0004236475718483334 0.0003360232035324903 8.762436831584287e-05 -0.0007517736903741515 0.0 0.0
0.0 0.0021092733122414467 -0.0015097653739661455 0.001254627449447896 0.0002551379245182491 -0.0020360743786957667 0.0 0.0
0.0 0.004550798293082468 -0.003338429553919252 0.0029194928603207835 0.0004189366935984645 -0.003794643514351355 0.0 0.0
0.0 0.007484951506667088 -0.0057407464128289044 0.0052066406930628886 0.0005341057197660185 -0.005925119391584622 0.0 0.0
0.0 0.011038935807682377 -0.00852220564208444 0.007909557120102405 0.0006126485219820407 -0.008136074839971532 0.0 0.0
0.0 0.014912105423477862 -0.011616170783346152 0.010937438286756777 0.0006787324965893659 -0.010325051396372785 0.0 0.0
0.0 0.019139185235829893 -0.015034766507605435 0.014304547609401287 0.0007302188982041499 -0.012468785839761012 0.0 0.0
0.0 0.023757589935328047 -0.01874411845036911 0.017978036798820252 0.0007660816515488461 -0.014656722428136738 0.0 0.0
0.0 0.028576365977011967 -0.022558323288362214 0.0217774474874894 0.00078087580087281 -0.017094624519954485 0.0 0.0
0.0 0.033130819218813945 -0.02608591239641933 0.025311110673638816 0.0007748017227805196 -0.02000513597156279 0.0 0.0
0.0 0.03664024254272712 -0.028755413882182473 0.028004087504398388 0.0007513263777840928 -0.0234979299185534 0.0 0.0
0.0 0.03843290858009543 -0.029534552034858164 0.028870622968840083 0.0006639290660180716 -0.026900644168538823 0.0 0.0
0.0 0.03571897890882771 -0.02626250863318163 0.025768857801422587 0.0004936508317590279 -0.027648424932206053 0.0 0.0
0.0 0.03826190879510407 -0.021078453611177512 0.017968970889754805 0.0031094827214226952 1.7323815992842384e-14 0.0 0.0
0.0 0.035718978908834804 -0.026262508633179464 0.02576885780142052 0.000493650831758959 0.02764842493224142 0.0 0.0
0.0 0.038432908580092275 -0.02953455203484976 0.028870622968831864 0.000663929066017884 0.026900644168572834 0.0 0.0
0.0 0.03664024254270453 -0.02875541388216231 0.028004087504378744 0.000751326377783563 0.023497929918563996 0.0 0.0
0.0 0.033130819218785405 -0.02608591239639633 0.025311110673615782 0.0007748017227805467 0.020005135971555496 0.0 0.0
0.0 0.028576365976981495 -0.022558323288337408 0.02177744748746509 0.0007808758008723208 0.017094624519938793 0.0 0.0
0.0 0.02375758993530203 -0.018744118450347826 0.017978036798799675 0.0007660816515481542 0.014656722428123424 0.0 0.0
0.0 0.01913918523580009 -0.015034766507580226 0.014304547609376269 0.0007302188982039463 0.01246878583974649 0.0 0.0
0.0 0.01491210542344982 -0.011616170783323755 0.010937438286734444 0.0006787324965893039 0.010325051396358864 0.0 0.0
0.0 0.011038935807655229 -0.008522205642063668 0.007909557120082338 0.0006126485219813329 0.008136074839952599 0.0 0.0
0.0 0.007484951506640986 -0.005740746412808812 0.0052066406930433955 0.0005341057197654143 0.005925119391564321 0.0 0.0
0.0 0.004550798293064008 -0.0033384295539053525 0.0029194928603078893 0.000418936693597464 0.003794643514338173 0.0 0.0
0.0 0.0021092733122308896 -0.0015097653739583076 0.001254627449441072 0.00025513792451723545 0.002036074378688252 0.0 0.0
0.0 0.0007148029987107321 -0.0004236475718445832 0.00033602320352951786 8.762436831506443e-05 0.0007517736903682056 0.0 0.0
0.0 9.187795098723932e-05 -4.4934296283860795e-05 3.461964325911239e-05 1.0314653024748413e-05 0.00014053296043263567 0.0 0.0
0.0 1.2329210100696698e-05 5.587257722956811e-06 -4.3277727805256875e-06 -1.2594849424312276e-06 -1.2233139692975728e-05 0.0 0.0
0.0 3.092434512699467e-06 2.2558310742979543e-06 -1.855602074112075e-06 -4.0022900018587175e-07 -9.746108119864271e-06 0.0 0.0
0.0 1.3755583689510384e-06 -4.045116225539058e-07 3.166079148499734e-07 8.790370770393819e-08 3.3957065645921358e-06 0.0 0.0
0.0 -3.780919570926551e-07 2.2948909828903626e-07 -1.8475122542792955e-07 -4.47378728611019e-08 -1.7244638258828122e-06 0.0 0.0
0.0 1.3027131699942192e-06 1.7993420756763876e-09 1.9147563019087795e-08 -2.0946905094765608e-08 -2.495654747093948e-07 0.0 0.0
0.0 -5.791226488939735e-07 3.285152937202806e-08 -4.863961920387383e-08 1.57880898318369e-08 8.324711318699175e-08 0.0 0.0
0.0 0.0 0.0 0.0 0.0 0.0 0.0 0.0
0.0 -4.597287996738521e-07 -6.853202956288844e-09 2.886835497529438e-09 3.966367458759904e-09 -9.336839224249032e-08 0.0 0.0
0.0 1.1870890250690964e-06 1.6710443621446652e-07 -1.2599722305159701e-07 -4.1107213162864296e-08 1.0365611250876936e-06 0.0 0.0
0.0 6.557265389411397e-07 1.1485732799137246e-06 -9.598065087433241e-07 -1.8876677117040066e-07 3.5935200031230974e-06 0.0 0.0
0.0 1.6459064591782323e-06 2.256301526084406e-06 -1.7768133947682804e-06 -4.794881313161615e-07 3.0366168388817598e-06 0.0 0.0
0.0 7.796263636327187e-06 -1.1906152105816284e-05 8.938183329831677e-06 2.967968775984653e-06 -3.308537935944792e-05 0.0 0.0
0.0 0.00038098986958581837 -0.00024370452138036854 0.0001858351103169887 5.7869411063379764e-05 -0.0003205545665824351 0.0 0.0
0.0 0.001535441438645829 -0.00122760183075631 0.0009838030756994928 0.00024379875505681643 -0.0013047461439251323 0.0 0.0
0.0 0.004020730778579372 -0.0032145000068272245 0.0027509122711719025 0.00046358773565532166 -0.0029612570958820195 0.0 0.0
0.0 0.007907770508847512 -0.006156325126120001 0.0055460646162227446 0.0006102605098972617 -0.005229139384275425 0.0 0.0
0.0 0.012174130205115376 -0.009831173951059502 0.009132508259276 0.0006986656917834924 -0.00781499081752103 0.0 0.0
0.0 0.01721276610023703 -0.014023914376661277 0.013257171539270007 0.0007667428373912702 -0.01038612085566996 0.0 0.0
0.0 0.022854927405918435 -0.018680745592053814 0.017849441586229885 0.0008313040058239295 -0.012851032055820657 0.0 0.0
0.0 0.029014870595552286 -0.023837745447179436 0.022948495575080465 0.0008892498720989535 -0.015247911701679866 0.0 0.0
0.0 0.035835150781341356 -0.029486195896821204 0.0285522543658612 0.0009339415309600165 -0.01774155660646891 0.0 0.0
0.0 0.042942473483296065 -0.03544634312433246 0.034490108165569536 0.0009562349587628989 -0.02066370864314325 0.0 0.0
0.0 0.050217338251443866 -0.0412464616079966 0.04029451968342386 0.000951941924572727 -0.024454426648585256 0.0 0.0
0.0 0.05623949207538005 -0.04599599944800074 0.04509240684303568 0.0009035926049650446 -0.029121218429969235 0.0 0.0
0.0 0.0593469762143381 -0.048078548386590605 0.047280442584235 0.000798105802355548 -0.033387442896797306 0.0 0.0
0.0 0.055838062226724425 -0.044486591194289826 0.0439466871888074 0.0005399040054824187 -0.034687645522447574 0.0 0.0
0.0 0.05326119713495678 -0.03748297210053799 0.03364454019293806 0.0038384319075999455 1.9323952160643643e-14 0.0 0.0
0.0 0.05583806222673025 -0.04448659119428591 0.043946687188804075 0.0005399040054818586 0.03468764552249308 0.0 0.0
0.0 0.05934697621433208 -0.048078548386578684 0.047280442584223835 0.0007981058023548075 0.03338744289684094 0.0 0.0
0.0 0.05623949207534974 -0.04599599944797243 0.04509240684300751 0.0009035926049648997 0.02912121842998705 0.0 0.0
0.0 0.050217338251404495 -0.04124646160796333 0.040294519683390755 0.000951941924572612 0.024454426648580926 0.0 0.0
0.0 0.042942473483254855 -0.03544634312429798 0.034490108165535084 0.0009562349587628661 0.02066370864312865 0.0 0.0
0.0 0.03583515078130522 -0.02948619589679111 0.028552254365831906 0.0009339415309592337 0.017741556606453556 0.0 0.0
0.0 0.029014870595511014 -0.02383774544714449 0.022948495575045833 0.000889249872098623 0.01524791170166354 0.0 0.0
0.0 0.022854927405876004 -0.018680745592018787 0.01784944158619494 0.0008313040058238321 0.012851032055803124 0.0 0.0
0.0 0.017212766100199457 -0.014023914376631202 0.01325717153924033 0.0007667428373908752 0.010386120855648733 0.0 0.0
0.0 0.012174130205081679 -0.009831173951032762 0.009132508259249383 0.0006986656917833627 0.007814990817499203 0.0 0.0
0.0 0.007907770508820824 -0.006156325126098937 0.005546064616202394 0.000610260509896546 0.005229139384257753 0.0 0.0
0.0 0.004020730778560901 -0.0032145000068128995 0.0027509122711588253 0.00046358773565407006 0.002961257095870481 0.0 0.0
0.0 0.0015354414386350751 -0.0012276018307480555 0.000983803075692573 0.00024379875505548337 0.0013047461439173308 0.0 0.0
0.0 0.0003809898695814066 -0.00024370452137774292 0.00018583511031496427 5.786941106277879e-05 0.0003205545665792652 0.0 0.0
0.0 7.796263635124451e-06 -1.1906152105816926e-05 8.938183329826893e-06 2.9679687759900262e-06 3.3085379359592025e-05 0.0 0.0
0.0 1.6459064585957658e-06 2.256301525966239e-06 -1.7768133946660285e-06 -4.794881313002089e-07 -3.036616838376157e-06 0.0 0.0
0.0 6.557265384033714e-07 1.1485732797064825e-06 -9.598065085759826e-07 -1.8876677113049707e-07 -3.5935200020913588e-06 0.0 0.0
0.0 1.1870890244417495e-06 1.6710443624903614e-07 -1.2599722308193583e-07 -4.110721316710611e-08 -1.0365611252441933e-06 0.0 0.0
0.0 -4.59728799576089e-07 -6.853202954632321e-09 2.8868354967489913e-09 3.9663674578853385e-09 9.336839222251318e-08 0.0 0.0
0.0 0.0 0.0 0.0 0.0 0.0 0.0 0.0
0.0 0.0 0.0 0.0 0.0 0.0 0.0 0.0
0.0 1.5308091780677812e-08 3.0663233307284843e-10 -2.1432744662428963e-10 -9.23048864485231e-11 3.0115191088803258e-09 0.0 0.0
0.0 -6.08323263751488e-07 6.626713799184606e-08 -5.335779228382929e-08 -1.2909345708018511e-08 2.730916798288285e-07 0.0 0.0
0.0 -2.269521404414205e-06 3.55066927792279e-07 -2.8595160687713194e-07 -6.911532091513673e-08 6.678850968163901e-07 0.0 0.0
0.0 -2.0525395569626523e-06 7.690341478834226e-06 -6.284497986381113e-06 -1.4058434924531e-06 1.5241081404043998e-05 0.0 0.0
0.0 0.00011105120532820999 -5.806995499611328e-05 4.2697199543457524e-05 1.537275545265564e-05 -5.7502946377265494e-05 0.0 0.0
0.0 0.0008025321634239083 -0.000659680364038001 0.0005088427573514364 0.00015083760668656532 -0.0005703093849503993 0.0 0.0
0.0 0.0027331214267831143 -0.002302949390341904 0.001898937744342543 0.00040401164599936014 -0.0017212120791861515 0.0 0.0
0.0 0.00651301239030537 -0.0051882716230413715 0.004574901647562108 0.0006133699754792665 -0.0036530671506110127 0.0 0.0
0.0 0.010923723695140037 -0.00922335464082926 0.008491127290053016 0.0007322273507762542 -0.006211215843718848 0.0 0.0
0.0 0.016904604159787222 -0.014107591813870312 0.013300421253091084 0.0008071705607792268 -0.0089441823256648 0.0 0.0
0.0 0.023559540374095987 -0.019684985772584596 0.018810764501623903 0.0008742212709606801 -0.011642589036677791 0.0 0.0
0.0 0.030921363343445873 -0.025903334342278893 0.02495920398992854 0.0009441303523503678 -0.014227584254370939 0.0 0.0
0.0 0.0390658492401091 -0.032802482631249935 0.03179056459131066 0.0010119180399392317 -0.016750356360205283 0.0 0.0
0.0 0.04796863351185219 -0.0404050685195076 0.03933694823328509 0.001068120286222482 -0.019377370546247937 0.0 0.0
0.0 0.05782201742698942 -0.048545342633253115 0.047447007929568456 0.0010983347036846944 -0.022540763891901325 0.0 0.0
0.0 0.06715411412897575 -0.05663794442877361 0.05555179934584943 0.001086145082924117 -0.026784498491457497 0.0 0.0
0.0 0.07569457585730738 -0.06339081104805509 0.06237880907423739 0.0010120019738177383 -0.03208732010135226 0.0 0.0
0.0 0.08017851653391485 -0.06651510665694123 0.06566427627407441 0.0008508303828667658 -0.03714808780134767 0.0 0.0
0.0 0.07576275282624251 -0.06218047029728612 0.06164084380431947 0.0005396264929666433 -0.039148567064917164 0.0 0.0
0.0 0.06970932588671844 -0.053532267204476604 0.049070148598690556 0.004462118605785937 1.984089975648473e-14 0.0 0.0
0.0 0.07576275282624262 -0.0621804702972784 0.06164084380431197 0.0005396264929664302 0.039148567064964966 0.0 0.0
0.0 0.08017851653389653 -0.0665151066569195 0.06566427627405295 0.000850830382866488 0.037148087801393205 0.0 0.0
0.0 0.07569457585727249 -0.06339081104802241 0.06237880907420487 0.001012001973817376 0.032087320101376215 0.0 0.0
0.0 0.06715411412892491 -0.056637944428730096 0.05555179934580547 0.0010861450829246274 0.02678449849145479 0.0 0.0
0.0 0.05782201742693941 -0.04854534263321051 0.04744700792952592 0.0010983347036845489 0.0225407638918885 0.0 0.0
0.0 0.04796863351180408 -0.04040506851946646 0.03933694823324464 0.0010681202862218193 0.01937737054623192 0.0 0.0
0.0 0.03906584924005802 -0.0328024826312059 0.03179056459126744 0.001011918039938471 0.01675035636018957 0.0 0.0
0.0 0.03092136334339389 -0.02590333434223527 0.024959203989884833 0.0009441303523504436 0.014227584254352815 0.0 0.0
0.0 0.023559540374047026 -0.019684985772543826 0.01881076450158343 0.0008742212709603912 0.0116425890366548 0.0 0.0
0.0 0.016904604159744076 -0.014107591813834697 0.01330042125305552 0.0008071705607791844 0.008944182325640251 0.0 0.0
0.0 0.010923723695105437 -0.009223354640800348 0.008491127290024792 0.0007322273507755651 0.006211215843698291 0.0 0.0
0.0 0.006513012390280164 -0.005188271623021604 0.004574901647543312 0.0006133699754782945 0.0036530671505976857 0.0 0.0
0.0 0.0027331214267675005 -0.002302949390329517 0.001898937744331678 0.00040401164599783716 0.0017212120791772476 0.0 0.0
0.0 0.0008025321634169762 -0.0006596803640331198 0.0005088427573476033 0.00015083760668551692 0.0005703093849464805 0.0 0.0
0.0 0.00011105120532589964 -5.806995499510573e-05 4.26971995427095e-05 1.5372755452396285e-05 5.7502946376323884e-05 0.0 0.0
0.0 -2.052539556996975e-06 7.690341478046927e-06 -6.284497985760086e-06 -1.405843492286824e-06 -1.5241081402430361e-05 0.0 0.0
0.0 -2.2695214046705187e-06 3.55066927622183e-07 -2.859516067410871e-07 -6.911532088107969e-08 -6.678850961127039e-07 0.0 0.0
0.0 -6.083232638539142e-07 6.62671380430942e-08 -5.335779232585945e-08 -1.2909345717234463e-08 -2.730916800359468e-07 0.0 0.0
0.0 1.5308091766584117e-08 3.0663233278746693e-10 -2.1432744642515877e-10 -9.23048863622756e-11 -3.0115191060776662e-09 0.0 0.0
0.0 0.0 0.0 0.0 0.0 0.0 0.0 0.0
0.0 0.0 0.0 0.0 0.0 0.0 0.0 0.0
0.0 0.0 0.0 0.0 0.0 0.0 0.0 0.0
0.0 -2.9744749106689126e-07 -1.832309953708525e-08 1.484149205903966e-08 3.4816074780442223e-09 -5.831839907041443e-08 0.0 0.0
0.0 -1.3551764687098716e-06 1.3758063075007281e-06 -1.1088837199397627e-06 -2.6692258756094034e-07 3.0658277330664875e-06 0.0 0.0
0.0 -1.0010959723042527e-05 -2.9650853195727446e-07 -4.6110799712298814e-07 7.576165290802527e-07 2.3464580291526464e-06 0.0 0.0
0.0 0.0002879771477692001 -0.0001988075941424849 0.00014767810589119912 5.112948825128579e-05 -0.00012598498369218754 0.0 0.0
0.0 0.0014413194020407576 -0.0012490389930184783 0.0009828881027196229 0.00026615089029885454 -0.0007236602265754965 0.0 0.0
0.0 0.004404481794995668 -0.003582493901617832 0.003042120712985368 0.0005403731886324671 -0.0019782429837193493 0.0 0.0
0.0 0.008458937064002192 -0.007375273176684673 0.00665352927152259 0.000721743905162081 -0.0040571442495354665 0.0 0.0
0.0 0.014544006379609915 -0.012404142788541113 0.011584349912585515 0.000819792875955602 -0.006582179514842248 0.0 0.0
0.0 0.021722883365669177 -0.018480048144497614 0.01758768187716914 0.0008923662673284787 -0.009265316664225103 0.0 0.0
0.0 0.029927206861518924 -0.025441674368059435 0.024477504175561476 0.0009641701924979663 -0.011917075956189968 0.0 0.0
0.0 0.03907847904615534 -0.03322604582116164 0.032185328425937784 0.0010407173952238324 -0.014474084666073984 0.0 0.0
0.0 0.04928686369494321 -0.04186680215218107 0.04074977065111657 0.001117031501064552 -0.016987305296016077 0.0 0.0
0.0 0.06038441559828098 -0.05141371770768791 0.05022808925523084 0.0011856284524570217 -0.019592110949213416 0.0 0.0
0.0 0.07228535868078476 -0.061715023119362625 0.06049058789904476 0.001224435220317889 -0.022643537720103565 0.0 0.0
0.0 0.08475114928770129 -0.07204820396062953 0.0708461773477768 0.0012020266128526691 -0.026747037721334174 0.0 0.0
0.0 0.0951269428168277 -0.08072878333160499 0.07963646738374368 0.0010923159478611302 -0.03216232144159789 0.0 0.0
0.0 0.10023127421116908 -0.08476194367660665 0.08388414901456316 0.0008777946620434883 -0.03788427129576532 0.0 0.0
0.0 0.0953111881335834 -0.07969255084824191 0.0791555207365047 0.0005370301117372429 -0.041870520131794896 0.0 0.0
0.0 0.0874026737976304 -0.06962311278595242 0.0646095884428951 0.005013524343057252 2.138914045879403e-14 0.0 0.0
0.0 0.09531118813357424 -0.07969255084822766 0.07915552073648995 0.0005370301117376919 0.041870520131841796 0.0 0.0
0.0 0.10023127421114231 -0.08476194367657856 0.08388414901453504 0.0008777946620435274 0.03788427129581126 0.0 0.0
0.0 0.09512694281678795 -0.08072878333156827 0.07963646738370746 0.0010923159478608028 0.03216232144162454 0.0 0.0
0.0 0.08475114928764321 -0.07204820396057958 0.07084617734772607 0.0012020266128533969 0.026747037721333765 0.0 0.0
0.0 0.07228535868072641 -0.06171502311931237 0.06049058789899496 0.001224435220317489 0.022643537720093188 0.0 0.0
0.0 0.06038441559821992 -0.051413717707635406 0.050228089255179 0.0011856284524564436 0.019592110949199982 0.0 0.0
0.0 0.04928686369488456 -0.04186680215212987 0.040749770651066365 0.0011170315010634547 0.016987305296001575 0.0 0.0
0.0 0.03907847904609167 -0.033226045821107615 0.032185328425882925 0.001040717395224678 0.014474084666056868 0.0 0.0
0.0 0.02992720686146126 -0.025441674368010713 0.024477504175513157 0.0009641701924975289 0.011917075956168014 0.0 0.0
0.0 0.02172288336561716 -0.01848004814445402 0.017587681877125595 0.0008923662673284264 0.009265316664201025 0.0 0.0
0.0 0.014544006379567096 -0.012404142788505143 0.011584349912549991 0.000819792875955158 0.006582179514821773 0.0 0.0
0.0 0.008458937063974109 -0.007375273176659828 0.006653529271498587 0.0007217439051612344 0.0040571442495217075 0.0 0.0
0.0 0.004404481794976261 -0.0035824939016023158 0.003042120712971194 0.000540373188631123 0.001978242983710495 0.0 0.0
0.0 0.001441319402030558 -0.0012490389930103372 0.0009828881027129305 0.00026615089029740605 0.0007236602265702657 0.0 0.0
0.0 0.0002879771477651614 -0.00019880759414006504 0.00014767810588935836 5.112948825070631e-05 0.00012598498369073173 0.0 0.0
0.0 -1.0010959723280706e-05 -2.965085324889153e-07 -4.611079966904764e-07 7.57616529179359e-07 -2.346458028266999e-06 0.0 0.0
0.0 -1.3551764695817175e-06 1.3758063075701844e-06 -1.1088837199952425e-06 -2.669225875749365e-07 -3.065827733198533e-06 0.0 0.0
0.0 -2.974474908716601e-07 -1.8323099533845592e-08 1.4841492056505722e-08 3.4816074773404045e-09 5.831839906520593e-08 0.0 0.0
0.0 0.0 0.0 0.0 0.0 0.0 0.0 0.0
0.0 0.0 0.0 0.0 0.0 0.0 0.0 0.0
0.0 0.0 0.0 0.0 0.0 0.0 0.0 0.0
0.0 0.0 0.0 0.0 0.0 0.0 0.0 0.0
0.0 -1.680433764396781e-07 -1.0793184899027673e-08 8.54508648894806e-09 2.2480984100807976e-09 -2.827633481288059e-08 0.0 0.0
0.0 -2.7638453754911686e-06 1.0891122658399744e-06 -8.759198731187812e-07 -2.131923927212216e-07 1.962768883156284e-06 0.0 0.0
0.0 2.2202718368021636e-05 -6.23662625200713e-06 2.722567880124947e-06 3.514058371882248e-06 7.4378691294499995e-06 0.0 0.0
0.0 0.0004917327542411687 -0.00046979791242724367 0.0003532979192024879 0.00011649999322475594 -0.00020923127757684399 0.0 0.0
0.0 0.0024358324784440537 -0.0019909676750206155 0.0016067483084019835 0.00038421936661863263 -0.0007776243450709948 0.0 0.0
0.0 0.0057051995806735286 -0.005055902876729732 0.0044058045699128315 0.0006500983068168981 -0.002087202419389073 0.0 0.0
0.0 0.011057183779053372 -0.009646294794426183 0.00884576686676228 0.0008005279276638952 -0.004021506176381713 0.0 0.0
0.0 0.018094481872699564 -0.015653514141435773 0.014762708139309983 0.0008908060021258127 -0.006327695928715096 0.0 0.0
0.0 0.02660893377466042 -0.022907146078444813 0.021940438986238382 0.0009667070922064071 -0.008801642053341097 0.0 0.0
0.0 0.03639896985668888 -0.03125017560956686 0.03020547527897968 0.001044700330587177 -0.01124601311284829 0.0 0.0
0.0 0.04742511286364546 -0.04060859568167488 0.039481128108341285 0.0011274675733335309 -0.0136194121834022 0.0 0.0
0.0 0.05931033501598315 -0.050999966142454764 0.04978864569202232 0.0012113204504324551 -0.0159886977729389 0.0 0.0
0.0 0.07271948986587978 -0.06244924299109671 0.0611606405192074 0.0012886024718893664 -0.018418195657797905 0.0 0.0
0.0 0.08716551385787144 -0.07481273547556097 0.07347525159578493 0.001337483879775907 -0.02105542336773755 0.0 0.0
0.0 0.10157008607270726 -0.08730024079478242 0.08598818827380425 0.0013120525209780768 -0.024431984712149853 0.0 0.0
0.0 0.114059944375965 -0.0978610473802445 0.09669330638243814 0.00116774099780648 -0.02933592052200225 0.0 0.0
0.0 0.12044091985947912 -0.10288622881443768 0.1019852751448829 0.0009009536695545957 -0.035842692911931984 0.0 0.0
0.0 0.11498776674502165 -0.09736092642271713 0.09683612106888369 0.0005248053538334096 -0.043263695591681556 0.0 0.0
0.0 0.10554302549317643 -0.08612296403885975 0.08062295326925754 0.005500010769602279 2.0549534296421257e-14 0.0 0.0
0.0 0.11498776674500732 -0.09736092642269915 0.09683612106886567 0.0005248053538333457 0.04326369559172679 0.0 0.0
0.0 0.12044091985944547 -0.10288622881440491 0.10198527514484967 0.0009009536695550992 0.0358426929119766 0.0 0.0
0.0 0.1140599443759151 -0.09786104738020007 0.09669330638239382 0.0011677409978061617 0.029335920522025945 0.0 0.0
0.0 0.10157008607264077 -0.08730024079472488 0.08598818827374641 0.001312052520978505 0.024431984712151418 0.0 0.0
0.0 0.08716551385780028 -0.07481273547549916 0.07347525159572343 0.0013374838797756568 0.021055423367729892 0.0 0.0
0.0 0.07271948986580919 -0.06244924299103592 0.06116064051914692 0.0012886024718889943 0.01841819565778738 0.0 0.0
0.0 0.05931033501591395 -0.050999966142394805 0.049788645691963423 0.001211320450431342 0.015988697772924956 0.0 0.0
0.0 0.047425112863571164 -0.04060859568161068 0.03948112810827694 0.001127467573333751 0.013619412183385905 0.0 0.0
0.0 0.03639896985662157 -0.03125017560950927 0.030205475278922443 0.0010447003305868222 0.011246013112828286 0.0 0.0
0.0 0.02660893377460062 -0.022907146078393652 0.021940438986187652 0.0009667070922060175 0.008801642053318655 0.0 0.0
0.0 0.018094481872651367 -0.01565351414139429 0.014762708139268936 0.000890806002125324 0.006327695928696623 0.0 0.0
0.0 0.01105718377901942 -0.009646294794396517 0.00884576686673334 0.0008005279276631806 0.004021506176369096 0.0 0.0
0.0 0.00570519958065035 -0.005055902876709652 0.0044058045698939195 0.0006500983068157348 0.002087202419379977 0.0 0.0
0.0 0.002435832478429914 -0.0019909676750093502 0.0016067483083923326 0.0003842193666170166 0.0007776243450657445 0.0 0.0
0.0 0.0004917327542355736 -0.0004697979124230818 0.00035329791919931175 0.00011649999322376944 0.00020923127757502857 0.0 0.0
0.0 2.220271836746514e-05 -6.236626252462595e-06 2.7225678805052547e-06 3.5140583719574643e-06 -7.437869128744808e-06 0.0 0.0
0.0 -2.7638453756587e-06 1.0891122658234486e-06 -8.759198731087782e-07 -2.1319239271466847e-07 -1.9627688831191174e-06 0.0 0.0
0.0 -1.6804337643450485e-07 -1.0793184898566844e-08 8.545086488621468e-09 2.248098409945835e-09 2.8276334812116163e-08 0.0 0.0
0.0 0.0 0.0 0.0 0.0 0.0 0.0 0.0
0.0 0.0 0.0 0.0 0.0 0.0 0.0 0.0
0.0 0.0 0.0 0.0 0.0 0.0 0.0 0.0
0.0 0.0 0.0 0.0 0.0 0.0 0.0 0.0
0.0 0.0 0.0 0.0 0.0 0.0 0.0 0.0
0.0 -3.4368863448225364e-06 2.0094427691582836e-06 -1.630909316430565e-06 -3.7853345272771006e-07 2.6947717330175466e-06 0.0 0.0
0.0 8.269169805023102e-05 -5.487737884780086e-05 3.7424727714319176e-05 1.7452651133481912e-05 -5.5074199629284466e-06 0.0 0.0
0.0 0.0009492073052095959 -0.0008132402732602023 0.0006194778269066686 0.00019376244635353315 -0.00018696234173658653 0.0 0.0
0.0 0.0033044880024003793 -0.0029062290207446948 0.002408386085805663 0.00049784293493903 -0.0007512982063207355 0.0 0.0
0.0 0.0073947284379860855 -0.00661366860166354 0.005883195691222395 0.0007304729104411464 -0.001920792050435396 0.0 0.0
0.0 0.01359390526255134 -0.011969313942921 0.011105777736416696 0.0008635362065042933 -0.003527035186603295 0.0 0.0
0.0 0.021727001499953116 -0.018932830756370898 0.01798019433225192 0.0009526364241189829 -0.005474815664310021 0.0 0.0
0.0 0.03150588278256418 -0.027353459653470205 0.02631948612458397 0.0010339735288862183 -0.00757130689641657 0.0 0.0
0.0 0.04288027009972089 -0.03707761691081075 0.03595868999405424 0.0011189269167564868 -0.009646983848122766 0.0 0.0
0.0 0.055444625718914266 -0.048023318011949305 0.046814932268533484 0.0012083857434159084 -0.011676528643313765 0.0 0.0
0.0 0.06975071286647493 -0.06016192896177517 0.0588661210936732 0.0012958078681018586 -0.01374257003637029 0.0 0.0
0.0 0.08506072175247914 -0.07346933958177372 0.07209273706971717 0.0013766025120565796 -0.015870119845362612 0.0 0.0
0.0 0.1013966143228073 -0.08774625698194051 0.0863104904226823 0.0014357665592583317 -0.017950737716833847 0.0 0.0
0.0 0.11820173859683247 -0.10219321136941281 0.10076973398219476 0.0014234773872180456 -0.020128222401796722 0.0 0.0
0.0 0.13274837473712642 -0.11463890643106076 0.11337866634869366 0.0012602400823670623 -0.02369391607868858 0.0 0.0
0.0 0.14054702962494203 -0.12098935187251407 0.12005533676289626 0.0009340151096177978 -0.030949840933821134 0.0 0.0
0.0 0.13532794938531206 -0.11551393667593839 0.115021154645775 0.0004927820301635312 -0.04309259115916221 0.0 0.0
0.0 0.1251663497394756 -0.10340595983519416 0.09749142232635352 0.005914537508840649 1.7123455431367063e-14 0.0 0.0
0.0 0.13532794938529316 -0.1155139366759177 0.11502115464575446 0.0004927820301632746 0.04309259115920176 0.0 0.0
0.0 0.1405470296249013 -0.12098935187247647 0.12005533676285851 0.000934015109617886 0.03094984093386085 0.0 0.0
0.0 0.13274837473706427 -0.11463890643100637 0.11337866634863966 0.0012602400823666666 0.02369391607870768 0.0 0.0
0.0 0.11820173859675798 -0.1021932113693481 0.10076973398213035 0.0014234773872177304 0.020128222401799414 0.0 0.0
0.0 0.10139661432272726 -0.08774625698187087 0.0863104904226133 0.0014357665592575723 0.017950737716830176 0.0 0.0
0.0 0.0850607217523956 -0.07346933958170175 0.07209273706964549 0.001376602512056309 0.015870119845353373 0.0 0.0
0.0 0.0697507128663952 -0.060161928961705594 0.058866121093604964 0.0012958078681005844 0.013742570036359848 0.0 0.0
0.0 0.055444625718831915 -0.048023318011878424 0.04681493226846263 0.0012083857434158347 0.011676528643301362 0.0 0.0
0.0 0.042880270099639725 -0.03707761691074047 0.03595868999398416 0.0011189269167563535 0.009646983848105377 0.0 0.0
0.0 0.03150588278249873 -0.027353459653413546 0.026319486124528012 0.0010339735288855065 0.007571306896397987 0.0 0.0
0.0 0.02172700149989777 -0.018932830756323026 0.017980194332204567 0.0009526364241184552 0.005474815664293776 0.0 0.0
0.0 0.013593905262509257 -0.01196931394288422 0.011105777736380431 0.0008635362065037901 0.003527035186591603 0.0 0.0
0.0 0.0073947284379596405 -0.006613668601639795 0.005883195691199698 0.0007304729104401022 0.0019207920504274178 0.0 0.0
0.0 0.003304488002384249 -0.0029062290207309046 0.0024083860857934086 0.0004978429349374964 0.0007512982063162337 0.0 0.0
0.0 0.0009492073052022546 -0.000813240273254512 0.0006194778269021563 0.00019376244635235503 0.0001869623417348624 0.0 0.0
0.0 8.269169804857588e-05 -5.4877378847047696e-05 3.742472771380118e-05 1.745265113324643e-05 5.507419962994387e-06 0.0 0.0
0.0 -3.436886344634737e-06 2.0094427685624497e-06 -1.6309093159835657e-06 -3.7853345257887964e-07 -2.6947717325243155e-06 0.0 0.0
0.0 0.0 0.0 0.0 0.0 0.0 0.0 0.0
0.0 0.0 0.0 0.0 0.0 0.0 0.0 0.0
0.0 0.0 0.0 0.0 0.0 0.0 0.0 0.0
0.0 0.0 0.0 0.0 0.0 0.0 0.0 0.0
0.0 0.0 0.0 0.0 0.0 0.0 0.0 0.0
0.0 0.0 0.0 0.0 0.0 0.0 0.0 0.0
0.0 -4.924725110716885e-06 4.908304172408392e-06 -3.949443795760716e-06 -9.58860376647693e-07 4.0908025510818805e-06 0.0 0.0
0.0 0.00016880681783286493 -0.00016686037560267368 0.00011796263889721551 4.889773670545805e-05 -9.610770441177369e-07 0.0 0.0
0.0 0.0015383401013226137 -0.001286739310800586 0.0010008169292576692 0.00028592238154291627 -0.0001049923004095515 0.0 0.0
0.0 0.00422410231208461 -0.003931832818716746 0.0033401830593373888 0.0005916497593793586 -0.0005887645691833518 0.0 0.0
0.0 0.009176498326786377 -0.008219289690534 0.007424604242892386 0.0007946854476416227 -0.0014239379659066118 0.0 0.0
0.0 0.016171095982204065 -0.014313316920885819 0.01339654422502332 0.0009167726958624976 -0.0026001732047226723 0.0 0.0
0.0 0.02535640942836615 -0.022211015833743467 0.02120276162123286 0.0010082542125106246 -0.0040330490820507025 0.0 0.0
0.0 0.03648929892784772 -0.03178654811091255 0.030690268224577596 0.0010962798863349272 -0.0055844871301562364 0.0 0.0
0.0 0.049282286448525815 -0.04289235212782987 0.04170430002483694 0.0011880521029929154 -0.007125545525532837 0.0 0.0
0.0 0.06396740371139482 -0.055426532519835744 0.05414352454134238 0.0012830079784933513 -0.008650368411810085 0.0 0.0
0.0 0.07977259023929957 -0.06932792599422893 0.06795312769825204 0.0013747982959768654 -0.010253527279010948 0.0 0.0
0.0 0.09727004278201716 -0.08445208794072191 0.08299785487490156 0.0014542330658203486 -0.011915801138292709 0.0 0.0
0.0 0.11578097890169828 -0.1004629977260991 0.09895295725152792 0.0015100404745711465 -0.013387798905291669 0.0 0.0
0.0 0.1343958715838129 -0.11656950216283771 0.11504878547084291 0.0015207166919949814 -0.014392722186169058 0.0 0.0
0.0 0.15089959238990205 -0.13083582244066952 0.12942791779607407 0.0014079046445953968 -0.015904742543439657 0.0 0.0
0.0 0.16071272136825987 -0.1390648801567003 0.13805084196011205 0.0010140381965881317 -0.022373752177927034 0.0 0.0
0.0 0.1566090756601469 -0.13452198150049768 0.13410817509551762 0.00041380640497981933 -0.040350715982125696 0.0 0.0
0.0 0.14640340532465762 -0.12200107490173087 0.11577397850015639 0.006227096401574327 1.2585418818211735e-14 0.0 0.0
0.0 0.15660907566012408 -0.13452198150047487 0.13410817509549577 0.00041380640497905936 0.04035071598215698 0.0 0.0
0.0 0.16071272136820985 -0.1390648801566557 0.13805084196006737 0.0010140381965885656 0.02237375217795915 0.0 0.0
0.0 0.15089959238983125 -0.13083582244060804 0.12942791779601334 0.0014079046445947226 0.0159047425434538 0.0 0.0
0.0 0.13439587158372926 -0.11656950216276506 0.11504878547077065 0.0015207166919945616 0.014392722186170673 0.0 0.0
0.0 0.1157809789016092 -0.10046299772602167 0.09895295725145177 0.0015100404745699587 0.013387798905289764 0.0 0.0
0.0 0.09727004278192264 -0.08445208794063985 0.08299785487482028 0.001454233065819606 0.01191580113828709 0.0 0.0
0.0 0.07977259023920832 -0.06932792599414972 0.06795312769817403 0.001374798295975742 0.010253527279003253 0.0 0.0
0.0 0.06396740371130054 -0.05542653251975418 0.05414352454126076 0.0012830079784934179 0.008650368411800976 0.0 0.0
0.0 0.04928228644843601 -0.042892352127752394 0.04170430002475979 0.0011880521029925353 0.007125545525521235 0.0 0.0
0.0 0.03648929892777521 -0.031786548110849244 0.03069026822451459 0.0010962798863346607 0.0055844871301419415 0.0 0.0
0.0 0.025356409428303486 -0.022211015833688504 0.0212027616211784 0.001008254212510094 0.004033049082038029 0.0 0.0
0.0 0.01617109598215813 -0.014313316920845129 0.013396544224983348 0.0009167726958617948 0.0026001732047143955 0.0 0.0
0.0 0.009176498326756828 -0.008219289690507493 0.007424604242866788 0.0007946854476407 0.0014239379659007163 0.0 0.0
0.0 0.0042241023120659265 -0.003931832818699613 0.003340183059321748 0.0005916497593778701 0.0005887645691797019 0.0 0.0
0.0 0.001538340101314533 -0.001286739310793783 0.0010008169292521933 0.00028592238154158807 0.00010499230040859336 0.0 0.0
0.0 0.00016880681782991582 -0.00016686037560084053 0.00011796263889587111 4.889773670496933e-05 9.61077044177986e-07 0.0 0.0
0.0 -4.9247251108263165e-06 4.908304172171612e-06 -3.949443795580239e-06 -9.588603765913943e-07 -4.090802551021063e-06 0.0 0.0
0.0 0.0 0.0 0.0 0.0 0.0 0.0 0.0
0.0 0.0 0.0 0.0 0.0 0.0 0.0 0.0
0.0 0.0 0.0 0.0 0.0 0.0 0.0 0.0
0.0 0.0 0.0 0.0 0.0 0.0 0.0 0.0
0.0 0.0 0.0 0.0 0.0 0.0 0.0 0.0
0.0 0.0 0.0 0.0 0.0 0.0 0.0 0.0
0.0 -4.912784860408296e-06 3.402580031365001e-06 -3.3370774254213205e-06 -6.550260594366233e-08 4.618084082956087e-06 0.0 0.0
0.0 0.00040888669602015743 -0.000330264671349017 0.00023725188123154722 9.301279011746978e-05 5.4766924970035905e-05 0.0 0.0
0.0 0.0021166799107772884 -0.0018840113707454579 0.001501787806955075 0.0003822235637903821 4.9971138616674806e-05 0.0 0.0
0.0 0.005456510881807621 -0.005001424116067535 0.0043382273176246515 0.0006631967984428828 -0.0002026201440871382 0.0 0.0
0.0 0.010979801996412734 -0.009847269329964319 0.009000934202601556 0.0008463351273627546 -0.0006357460703737342 0.0 0.0
0.0 0.01882799580560004 -0.016647630189177497 0.015684647066316972 0.0009629831228605339 -0.0012474746112138616 0.0 0.0
0.0 0.02898196021623187 -0.025456929452854365 0.024397129300924837 0.0010598001519295211 -0.002008867646123565 0.0 0.0
0.0 0.04138589803552432 -0.03617681263014634 0.03502237320220927 0.001154439427937061 -0.002839582407880273 0.0 0.0
0.0 0.05596666498614655 -0.04866240673832429 0.04741017167077982 0.0012522350675444962 -0.003680653550043777 0.0 0.0
0.0 0.07199883330274204 -0.06279715866347971 0.06144405182332336 0.0013531068401562967 -0.004560575614915421 0.0 0.0
0.0 0.09006925804911217 -0.07844447851535388 0.07699596490505965 0.001448513610294159 -0.005505840280399597 0.0 0.0
0.0 0.10959383586325482 -0.09535581480436384 0.09383109633084402 0.0015247184735198787 -0.006481626000506845 0.0 0.0
0.0 0.12999543353414525 -0.1130064303109069 0.11143729747836711 0.001569132832539682 -0.007313645747044978 0.0 0.0
0.0 0.15018340022903048 -0.13044937224126033 0.12887264775927743 0.0015767244819828762 -0.007631742449582734 0.0 0.0
0.0 0.16826866037271498 -0.1460839585184454 0.14453587199532242 0.0015480865231231014 -0.0075221068259640304 0.0 0.0
0.0 0.18050843444583864 -0.15664665286927196 0.15532232916703903 0.0013243237022326803 -0.010581098015824299 0.0 0.0
0.0 0.1792509201550203 -0.15482874052804038 0.15448330388086648 0.00034543664717393534 -0.02976912892912185 0.0 0.0
0.0 0.17049093367078733 -0.14304510538038664 0.13691752661570186 0.006127578764684813 6.723788192886104e-15 0.0 0.0
0.0 0.17925092015499292 -0.15482874052801485 0.15448330388084192 0.0003454366471728271 0.029769128929140423 0.0 0.0
0.0 0.18050843444577735 -0.15664665286921897 0.15532232916698532 0.0013243237022335086 0.010581098015842736 0.0 0.0
0.0 0.16826866037263502 -0.14608395851837627 0.14453587199525347 0.0015480865231226831 0.00752210682597085 0.0 0.0
0.0 0.15018340022893087 -0.1304493722411745 0.12887264775919122 0.0015767244819832676 0.0076317424495820005 0.0 0.0
0.0 0.12999543353404563 -0.11300643031082008 0.11143729747828145 0.0015691328325385554 0.007313645747044405 0.0 0.0
0.0 0.10959383586314901 -0.09535581480427231 0.0938310963307529 0.0015247184735194708 0.006481626000504295 0.0 0.0
0.0 0.09006925804900785 -0.07844447851526357 0.07699596490496968 0.0014485136102937843 0.005505840280395416 0.0 0.0
0.0 0.07199883330263633 -0.06279715866338811 0.061444051823232204 0.001353106840155869 0.004560575614910977 0.0 0.0
0.0 0.055966664986052496 -0.04866240673824276 0.04741017167069859 0.0012522350675441727 0.0036806535500375315 0.0 0.0
0.0 0.04138589803544188 -0.03617681263007497 0.035022373202138364 0.00115443942793661 0.0028395824078717925 0.0 0.0
0.0 0.02898196021616403 -0.025456929452794742 0.024397129300866034 0.0010598001519287151 0.0020088676461166083 0.0 0.0
0.0 0.018827995805549457 -0.016647630189132664 0.015684647066272664 0.0009629831228599805 0.0012474746112097529 0.0 0.0
0.0 0.0109798019963775 -0.009847269329932698 0.00900093420257078 0.0008463351273619142 0.0006357460703706177 0.0 0.0
0.0 0.005456510881786274 -0.005001424116047891 0.004338227317606267 0.0006631967984416212 0.0002026201440852146 0.0 0.0
0.0 0.0021166799107670857 -0.0018840113707365503 0.0015017878069474916 0.00038222356378905754 -4.9971138616929946e-05 0.0 0.0
0.0 0.00040888669601586383 -0.00033026467134591244 0.00023725188122924423 9.301279011666822e-05 -5.47669249696851e-05 0.0 0.0
0.0 -4.9127848604813785e-06 3.402580030957957e-06 -3.3370774251083643e-06 -6.550260584951928e-08 -4.6180840828435105e-06 0.0 0.0
0.0 0.0 0.0 0.0 0.0 0.0 0.0 0.0
0.0 0.0 0.0 0.0 0.0 0.0 0.0 0.0
0.0 0.0 0.0 0.0 0.0 0.0 0.0 0.0
0.0 0.0 0.0 0.0 0.0 0.0 0.0 0.0
0.0 0.0 0.0 0.0 0.0 0.0 0.0 0.0
0.0 0.0 0.0 0.0 0.0 0.0 0.0 0.0
0.0 1.8376102671907192e-05 -1.7078029541583814e-05 1.0804114186910456e-05 6.2739153546734435e-06 8.630975129044359e-06 0.0 0.0
0.0 0.0007102654650169401 -0.0005423553701523377 0.00038766030551494013 0.0001546950646373977 0.00013654364344842996 0.0 0.0
0.0 0.0027198250932748366 -0.0024249194153893308 0.0019136511853674908 0.0005112682300218369 0.00031491511142587924 0.0 0.0
0.0 0.006424632214165402 -0.0059100565269148385 0.005064569584734674 0.000845486942180167 0.0004123478052708 0.0 0.0
0.0 0.012402907804536411 -0.011193797437923345 0.010088043787382293 0.001105753650541046 0.0004626131459595453 0.0 0.0
0.0 0.02078732049661606 -0.01856125127191973 0.017227984669973617 0.001333266601946096 0.0004567775264217868 0.0 0.0
0.0 0.03175442714371765 -0.028111383302626747 0.026532092718952155 0.0015792905836745541 0.00036005987512997264 0.0 0.0
0.0 0.045213727862310316 -0.03977831592541781 0.03791234500404761 0.0018659709213702004 0.00021186819820922511 0.0 0.0
0.0 0.06067254031929184 -0.05342343287249972 0.05122564741121063 0.0021977854612890584 1.2969124365521181e-05 0.0 0.0
0.0 0.07830111452108537 -0.0688821634160017 0.06631838757211025 0.0025637758438914323 -0.0002790626940434504 0.0 0.0
0.0 0.0978278939828538 -0.08596843884681177 0.08302288553254514 0.0029455533142667078 -0.0006327809085610011 0.0 0.0
0.0 0.11888281932736099 -0.10435247194830871 0.1010405890802141 0.003311882868094457 -0.0010836860018476058 0.0 0.0
0.0 0.14073488530497905 -0.12335360924970536 0.1197338267296206 0.003619782520084865 -0.001562713674229551 0.0 0.0
0.0 0.16200620973203356 -0.1417985891811105 0.13798149540304855 0.0038170937780617827 -0.0018458308332860163 0.0 0.0
0.0 0.18075964919567114 -0.15803313702375715 0.15416311857110385 0.003870018452653113 -0.0016639556605864813 0.0 0.0
0.0 0.19434705165725144 -0.16997638695314554 0.16605708762521915 0.003919299327926531 -0.003037845488318888 0.0 0.0
0.0 0.19700729913606624 -0.17280159026991546 0.16879834983860986 0.004003240431305507 -0.02222560618789161 0.0 0.0
0.0 0.19284082328340824 -0.16427687987658005 0.153472529246507 0.010804350630072618 6.522560269672795e-16 0.0 0.0
0.0 0.1970072991360339 -0.17280159026988667 0.16879834983858213 0.0040032404313044626 0.02222560618789817 0.0 0.0
0.0 0.1943470516571851 -0.16997638695308775 0.1660570876251624 0.003919299327925455 0.0030378454883274626 0.0 0.0
0.0 0.18075964919557985 -0.1580331370236776 0.15416311857102638 0.003870018452651446 0.0016639556605875273 0.0 0.0
0.0 0.16200620973192206 -0.14179858918101346 0.1379814954029524 0.003817093778060791 0.0018458308332833968 0.0 0.0
0.0 0.14073488530487016 -0.12335360924961014 0.11973382672952754 0.0036197825200823966 0.0015627136742296082 0.0 0.0
0.0 0.11888281932724415 -0.10435247194820682 0.10104058908011358 0.0033118828680930986 0.001083686001845715 0.0 0.0
0.0 0.09782789398273932 -0.0859684388467119 0.08302288553244708 0.0029455533142647137 0.000632780908558235 0.0 0.0
0.0 0.07830111452097296 -0.06888216341590336 0.06631838757201412 0.0025637758438893125 0.000279062694041321 0.0 0.0
0.0 0.06067254031919066 -0.05342343287241165 0.0512256474111239 0.0021977854612876633 -1.2969124367922906e-05 0.0 0.0
0.0 0.04521372786222193 -0.03977831592534024 0.03791234500397223 0.001865970921368012 -0.00021186819821133237 0.0 0.0
0.0 0.03175442714364582 -0.028111383302563988 0.02653209271889108 0.0015792905836729 -0.00036005987513251314 0.0 0.0
0.0 0.020787320496558966 -0.01856125127186954 0.017227984669924586 0.001333266601944971 -0.0004567775264226995 0.0 0.0
0.0 0.012402907804496184 -0.01119379743788719 0.010088043787347484 0.001105753650539696 -0.0004626131459590107 0.0 0.0
0.0 0.006424632214142082 -0.005910056526893321 0.005064569584714598 0.0008454869421787171 -0.0004123478052703145 0.0 0.0
0.0 0.0027198250932624337 -0.002424919415377585 0.0019136511853575207 0.0005112682300200672 -0.0003149151114248008 0.0 0.0
0.0 0.0007102654650118076 -0.0005423553701483531 0.00038766030551204 0.00015469506463631347 -0.00013654364344750994 0.0 0.0
0.0 1.8376102671549534e-05 -1.7078029541439724e-05 1.0804114186824415e-05 6.27391535461528e-06 -8.630975128940553e-06 0.0 0.0
0.0 0.0 0.0 0.0 0.0 0.0 0.0 0.0
0.0 0.0 0.0 0.0 0.0 0.0 0.0 0.0
0.0 0.0 0.0 0.0 0.0 0.0 0.0 0.0
SCALARS Wm float 4
LOOKUP_TABLE default
12.81276277796621 2.021006767340978 5.370901874459335 5.42085413616589
6.425788244358808 3.0815617477482955 1.5014418936180216 1.842784602992493
0.7222407530618696 0.669564674856394 0.007907941862357262 0.04476813634311824
0.540746131455319 0.5099398219992058 0.008451381820119258 0.02235492763599429
1.1031599598693482 0.7828051904908835 0.11477428099355505 0.20558048838490886
2.4066602190173167 1.1353873268530903 0.47206408260632937 0.799208809557896
5.010774356306125 1.6309884246033577 1.4590338825899605 1.92075204911281
9.266093110751662 2.252881786478633 3.3048863768174894 3.708324947455538
15.586309854246519 3.0471685555101375 6.311597669086719 6.227543629649657
24.271823562913738 4.046468677870007 10.722023539604304 9.50333134543944
35.46012827258337 5.271756917324657 16.677239384013834 13.511131971244872
49.05462075969739 6.725968916310379 24.123970189479323 18.20468165390773
65.14280679941763 8.38863337826903 33.222031133681696 23.532142287466897
83.61941240973906 10.237670628396906 43.93973791986306 29.442003861479126
104.18316275303437 12.134406848982362 56.204377871451825 35.844378032600176
126.1786869556185 13.840797070805387 69.76394641284854 42.57394347196457
148.44257212674148 15.07430610065519 83.99112074746468 49.3771452786216
169.42649676675774 15.624167541087541 97.96430372471747 55.838025500952554
187.47054583361907 15.54610891711591 110.46106937294121 61.46336754356209
200.14831218174885 14.639466190010022 119.83290596079465 65.67594003094395
204.2491111872401 12.942829844662064 123.81529568622645 67.49098565635165
200.14831218169863 14.639466189982732 119.83290596077856 65.67594003093735
187.47054583356663 15.546108917125098 110.46106937289878 61.46336754354266
169.42649676669456 15.6241675411166 97.96430372465424 55.83802550092369
148.44257212663868 15.07430610064984 83.99112074739844 49.377145278590305
126.17868695551276 13.840797070798235 69.76394641278229 42.57394347193227
104.18316275292572 12.134406848968407 56.204377871389326 35.84437803256799
83.61941240963513 10.237670628388116 43.93973791980121 29.44200386144584
65.14280679932065 8.388633378259561 33.22203113362593 23.532142287435178
49.05462075961748 6.7259689163083225 24.12397018943077 18.2046816538784
35.46012827250743 5.271756917308822 16.677239383977394 13.511131971221198
24.271823562857513 4.046468677861962 10.722023539576096 9.50333134541947
15.58630985420755 3.047168555505803 6.3115976690674245 6.227543629634324
9.266093110725631 2.252881786476186 3.304886376805187 3.7083249474442592
5.010774356289489 1.6309884245985593 1.4590338825843219 1.920752049106609
2.4066602190101727 1.1353873268522783 0.4720640826039195 0.7992088095539738
1.1031599598665098 0.7828051904901377 0.11477428099274799 0.20558048838362367
0.5407461314545691 0.509939821998687 0.00845138182003954 0.022354927635842802
0.7222407530609343 0.6695646748556785 0.007907941862299676 0.044768136342955275
6.42578824435281 3.081561747748745 1.5014418936148513 1.8427846029892128
12.812762777938868 2.021006767327926 5.37090187445146 5.4208541361594955
15.299049687436483 6.6706443229115875 4.171115476172054 4.457289888352839
2.585997950145824 0.5672892145916333 0.8504736897536499 1.1682350458005413
0.2712656610021248 0.31442125542953203 -0.014132920519819073 -0.02902267390758813
0.4206978837203738 0.4110077496477429 0.001794804719609633 0.00789532935302115
0.8323471846478969 0.6406977740970108 0.05915182400871677 0.1324975865421698
1.9223393571564449 0.9414467761165886 0.36729654122710365 0.6135960398127528
4.110917849663965 1.287809697682636 1.1875634707914997 1.635544681189827
7.840198857459836 1.7137652571342068 2.8406772047185473 3.2857563956070828
13.41175824757375 2.210492726287183 5.571284863130469 5.629980658156103
21.015318309046975 2.777383954226425 9.561216189550775 8.676718165269774
30.735036810353684 3.40688955626144 14.935406115538962 12.392741138553273
42.62676941305162 4.110385604105332 21.788662400329113 16.72772140861717
56.46108092829431 4.8972201036093885 29.917798977666504 21.646061847018423
72.47285371391868 5.7371837102803624 39.63147224468143 27.104197758956914
90.34523109196384 6.571341582107369 50.73755147167565 33.03633803818082
109.58145450159056 7.273385097060757 63.015964769884086 39.29210463464565
129.28098501542772 7.6910492521154845 75.98492109408991 45.60501466922225
148.1407421068866 7.717442565130284 88.79459626393039 51.62870327782594
164.41575960556636 7.268763303544059 100.26033029616511 56.886666005857116
175.92009054821435 6.401170297448741 108.80277088799477 60.71614936277084
180.27029000094194 5.415282422655466 112.5039088342171 62.351098744069446
175.9200905481955 6.401170297453286 108.80277088797851 60.71614936276369
164.41575960550992 7.268763303542262 100.2603302961276 56.88666600584018
148.1407421068034 7.717442565126053 88.79459626387646 51.6287032778009
129.28098501534865 7.691049252125976 75.98492109402937 45.60501466919327
109.58145450149743 7.273385097056615 63.01596476982468 39.292104634616116
90.34523109187465 6.571341582105125 50.737551471618524 33.03633803815101
72.47285371382361 5.737183710269533 39.63147224462687 27.104197758927185
56.46108092821296 4.897220103608977 29.917798977615263 21.646061846988687
42.626769412978824 4.110385604103207 21.78866240028546 16.72772140859015
30.735036810295824 3.406889556262935 14.935406115503339 12.392741138529551
21.015318308999557 2.7773839542225587 9.561216189525622 8.67671816525136
13.411758247539835 2.2104927262852825 5.571284863112912 5.629980658141637
7.840198857436137 1.7137652571313933 2.840677204707821 3.2857563955969256
4.110917849650841 1.2878096976809776 1.1875634707861675 1.635544681183694
1.9223393571499567 0.9414467761153933 0.3672965412248288 0.6135960398097353
0.8323471846461595 0.6406977740964496 0.059151824008279445 0.13249758654143123
0.4206978837199766 0.41100774964729186 0.001794804719606389 0.007895329353078306
0.2712656610020095 0.3144212554292666 -0.014132920519758084 -0.02902267390749891
2.5859979501388723 0.567289214590598 0.8504736897507718 1.1682350457975041
15.299049687409408 6.670644322899216 4.171115476164159 4.457289888346019
11.547748009967046 5.302789022422148 2.897124920322688 3.3478340672222062
1.6065521184025302 0.22906557070767444 0.5671356046652513 0.8103509430296054
0.16994110386233027 0.16974856329138985 2.4925903091324422e-05 0.00016761466784908933
0.3124104854407136 0.31439913566147437 -0.0005543874472436563 -0.0014342627735172229
0.6301858491421112 0.548657569484704 0.02098967025299718 0.060538609404410304
1.4948823812263403 0.8435083353802212 0.23499405720347255 0.4163799886426476
3.3269066662135436 1.1760304933232162 0.8680645147554051 1.2828116581349225
6.578923486196303 1.5727283395680047 2.2634761110107675 2.74271903561753
11.47527965924822 2.018562715706223 4.608194775874613 4.848522167667387
18.185821821439383 2.511162132722316 8.085885379861175 7.588774308855887
26.72039302995305 3.0528019333621734 12.751180910859006 10.916410185731875
37.034692459037814 3.655834278924814 18.59546587040297 14.783392309710031
49.27868527329308 4.341453896826916 25.78419058976083 19.15304078670535
63.16511999901785 5.095652732336648 34.05628713013435 24.01318013654681
78.8400158584044 5.855634075236596 43.682420484103886 29.301961299063905
95.79318161084117 6.5355065731919355 54.35244043743769 34.90523460021156
113.28004078183439 7.0074816421285115 65.65647876061215 40.61608037909375
130.11178428137092 7.121270524915644 76.9101381858443 46.08037557061094
144.63410189257 6.756154464702492 87.03502160211455 50.842925825752964
154.93018327117153 6.096505783414109 94.54745155950287 54.28622592825456
158.6628905336903 4.883702202979336 97.9393951141489 55.839793216562136
154.930183271143 6.096505783407104 94.54745155948817 54.28622592824762
144.63410189251888 6.756154464696888 87.03502160208359 50.84292582573834
130.11178428131262 7.121270524922929 76.91013818580007 46.08037557058958
113.28004078175047 7.007481642120669 65.65647876056127 40.61608037906854
95.79318161076019 6.53550657318772 54.352440437386946 34.905234600185565
78.84001585832536 5.8556340752342075 43.682420484053914 29.301961299037217
63.16511999893922 5.095652732329662 34.05628713008861 24.013180136520916
49.27868527321928 4.341453896823689 25.784190589716637 19.15304078667897
37.03469245897074 3.6558342789182814 18.595465870365974 14.783392309686514
26.72039302989895 3.052801933363034 12.751180910826537 10.916410185709372
18.185821821397333 2.5111621327177867 8.08588537983989 7.588774308839662
11.47527965921835 2.018562715705446 4.608194775858929 4.848522167653979
6.578923486175402 1.5727283395642933 2.2634761110021016 2.74271903560901
3.3269066662013604 1.1760304933212784 0.868064514750871 1.282811658129211
1.49488238122155 0.8435083353790702 0.23499405720198793 0.4163799886404919
0.6301858491404703 0.5486575694837705 0.020989670252759742 0.060538609403939896
0.3124104854403456 0.3143991356610103 -0.0005543874472270443 -0.0014342627734376986
0.16994110386233446 0.16974856329139365 2.4925903090912683e-05 0.00016761466784993333
1.606552118396615 0.2290655707066693 0.5671356046629765 0.8103509430269682
11.547748009942852 5.302789022412704 2.897124920315066 3.3478340672150853
8.722739511410131 4.128861725126705 2.049843201848449 2.5440345844349803
1.0781460008952408 0.10818403801023607 0.3777881877354164 0.5921737751495866
0.11915417504825024 0.11915417504825024 0.0 0.0
0.23404179374558598 0.23476815094299114 -9.133834482164316e-05 -0.0006350188525834697
0.4758891851242324 0.45722005995376847 0.0034722471958300114 0.015196877974633857
1.1128875916774232 0.7296539897441129 0.12442272328198367 0.2588108786513267
2.629757939363504 1.0663330798732438 0.6141862919424523 0.9492385675478077
5.369263739307336 1.427293594114227 1.7284276612816367 2.213542483911471
9.605270225616248 1.826067010487533 3.705300595465169 4.073902619663545
15.41712856525938 2.2526116067295803 6.6616888865729305 6.502828071956871
22.7658321683614 2.7127433238268774 10.610383676686018 9.442705167848505
31.68338244137763 3.2308794952991864 15.611732735100908 12.840770210977528
42.07272802851801 3.8215562780156564 21.578995019093245 16.67217673140911
54.1795025986356 4.481504143750023 28.775898743973116 20.92209971091245
67.64932970189155 5.180219156573869 36.89978273662669 25.569327808691007
82.28620221249083 5.841100065457299 45.92470879758828 30.520393349445254
97.64174874158115 6.355400273591006 55.69336826075318 35.59298020723697
112.54065653041157 6.566702566132501 65.46424262599692 40.509711338282145
125.50782763189463 6.353728928313928 74.3095051675543 44.84459353602638
134.85112918711437 5.827277450802075 80.97895050226498 48.0449012340473
138.2468040689731 4.376724750068906 84.2862233184463 49.58385600045786
134.85112918710115 5.827277450806635 80.97895050225276 48.04490123404171
125.50782763186307 6.3537289283225835 74.30950516752723 44.844593536013285
112.54065653036186 6.566702566140174 65.4642426259584 40.50971133826328
97.64174874151564 6.355400273586135 55.69336826071323 35.59298020721629
82.28620221242369 5.841100065456788 45.92470879754475 30.52039334942217
67.64932970181938 5.180219156566289 36.89978273658524 25.56932780866783
54.179502598571496 4.4815041437493575 28.77589874393312 20.922099710889032
42.072728028451 3.8215562780060477 21.578995019057725 16.672176731387218
31.68338244132546 3.2308794953006466 15.611732735068736 12.840770210956078
22.76583216831705 2.71274332382806 10.610383676659561 9.442705167829436
15.417128565223337 2.252611606726259 6.661688886554638 6.502828071942426
9.60527022558886 1.8260670104844683 3.7053005954523006 4.07390261965209
5.36926373929 1.4272935941105973 1.7284276612750928 2.213542483904308
2.629757939353439 1.0663330798710577 0.61418629193888 0.949238567543501
1.112887591673857 0.7296539897430149 0.1244227232810233 0.258810878649819
0.475889185123079 0.4572200599526773 0.003472247195786254 0.015196877974615351
0.23404179374544432 0.23476815094287978 -9.133834482470918e-05 -0.0006350188526107407
0.11915417504820126 0.11915417504820126 0.0 0.0
1.0781460008911494 0.10818403801001453 0.37778818773364903 0.5921737751474865
8.72273951138911 4.128861725117789 2.0498432018425454 2.5440345844287764
6.494345199603716 3.1920301623252243 1.4022977027764292 1.9000173345020641
0.7892223743405221 0.11138609666851361 0.2685171227941486 0.4093191548778599
0.10849328916744228 0.10849328916744228 0.0 0.0
0.18742464761379535 0.18739454493132374 4.69959082178547e-06 2.5403091649789395e-05
0.361417395634039 0.36654081876877825 -0.002453464358739992 -0.0026699587759990507
0.8139466815390678 0.6274114321387625 0.05394963063647831 0.13258561876382616
1.9939786359706615 0.9362710843409462 0.4050026952376524 0.6527048563920638
4.229792241777322 1.2792370775376534 1.2460740949573856 1.7044810692822825
7.800686622558073 1.6326823847684198 2.857562644577672 3.3104415932119835
12.720376019282753 2.000035809450584 5.296871529679683 5.42346868015249
18.948209122681007 2.3910142862265262 8.583814210155465 7.9733806262990115
26.44379893129072 2.8278882849733584 12.712037371818624 10.90387327449873
35.251766892938 3.336097122366375 17.72184788297098 14.193821887600643
45.261119586147686 3.9145907068608228 23.49978197416416 17.84674690512268
56.69013621186962 4.536180453484122 30.310915733250585 21.843040025134908
69.23886587164843 5.171368189080966 37.94180473156626 26.125692951001206
82.36029792255596 5.730062116072521 46.06167578044176 30.56856002604166
95.37504582021455 6.0597231140488335 54.39179774292806 34.92352496323767
106.95207047696917 6.0096956931445185 62.10741727478714 38.83495750903754
115.58824381696634 5.597446571353332 68.15718816903437 41.83360907657856
118.79079963407253 3.889569232953415 71.45499192257886 43.44623847854035
115.58824381695499 5.597446571360298 68.15718816902222 41.83360907657246
106.95207047692895 6.00969569313874 62.10741727476419 38.83495750902603
95.37504582016884 6.0597231140514305 54.391797742896244 34.92352496322114
82.36029792250176 5.730062116068744 46.06167578040872 30.568560026024315
69.23886587159134 5.171368189081949 37.941804731528876 26.12569295098049
56.69013621181269 4.536180453480334 30.310915733216888 21.843040025115496
45.26111958609061 3.9145907068587293 23.49978197412996 17.846746905101924
35.25176689288839 3.3360971223647713 17.721847882941848 14.193821887581766
26.443798931241197 2.8278882849688984 12.712037371792011 10.903873274480288
18.94820912264073 2.391014286222857 8.583814210134564 7.973380626283311
12.720376019252644 2.0000358094496353 5.296871529663715 5.423468680139301
7.800686622535274 1.6326823847650678 2.8575626445677265 3.3104415932024778
4.229792241763367 1.2792370775353166 1.2460740949518876 1.7044810692761618
1.993978635962849 0.9362710843390484 0.40500269523507376 0.6527048563887268
0.8139466815362157 0.6274114321372076 0.05394963063600439 0.13258561876300362
0.36141739563349506 0.36654081876811173 -0.0024534643587229682 -0.0026699587758937135
0.18742464761362512 0.18739454493118043 4.699590820221662e-06 2.5403091624468477e-05
0.10849328916730333 0.10849328916730333 0.0 0.0
0.7892223743371315 0.11138609666829674 0.26851712279267903 0.4093191548761569
6.4943451995869665 3.192030162318369 1.4022977027717825 1.9000173344968119
4.745700912150216 2.447177907582524 0.9338218833529907 1.3647011212147024
0.5592692092443792 0.14304592769041408 0.1469191261540648 0.2693041553999001
0.12234206157978476 0.12234206157978476 0.0 0.0
0.16566517166819963 0.1656426265471029 1.6256235233316228e-06 2.09194975733871e-05
0.28790424173889884 0.29514016320046055 -0.001623916458996216 -0.005612005002565468
0.5831901337350298 0.5175694858829517 0.012901172578288989 0.052719475273789326
1.4126173066646657 0.7901766330173607 0.20952275818297086 0.4129179154643341
3.219203425574507 1.121404363583985 0.8729785981271736 1.2248204638633486
6.05540675259259 1.4367305834708406 2.055720083587711 2.562956085534041
10.132357471566602 1.7539795375027611 4.02347105281505 4.3549068812487866
15.24917304430108 2.0827638452935666 6.654751366962812 6.511657832044694
21.371149951796994 2.4500777273791976 9.945601524893728 8.975470699524076
28.513215554181546 2.880584381526769 13.906391646732153 11.726239525922622
36.77286810255354 3.380437879398995 18.61509606362878 14.77733415952579
46.07822551038026 3.942996162549125 24.00565773217884 18.129571615652278
56.34718482061355 4.528964672555124 30.075387488162797 21.742832659895644
67.50767979347759 5.107605433157819 36.880627781035365 25.51944657928439
78.65192474143726 5.573124702673382 43.76500590596014 29.313794132803743
88.8613226738016 5.706189736900372 50.31803979058768 32.83709314631353
96.95928656361446 5.408562980890499 55.870875409525645 35.679848173198316
100.09415992842585 3.430433936285917 59.26282741635329 37.40089857578667
96.95928656359654 5.408562980886648 55.8708754095164 35.67984817319343
88.86132267377678 5.706189736901737 50.31803979057057 32.83709314630451
78.65192474139923 5.573124702673842 43.76500590593489 29.313794132790488
67.5076797934382 5.107605433161884 36.88062778100735 25.51944657926894
56.347184820558866 4.528964672547118 30.07538748813329 21.74283265987848
46.07822551033118 3.9429961625434484 24.00565773215175 18.12957161563596
36.77286810250867 3.3804378793981744 18.615096063601932 14.777334159508548
28.51321555413758 2.8805843815225507 13.906391646708453 11.726239525906578
21.37114995176287 2.450077727380372 9.945601524873316 8.975470699509186
15.24917304426655 2.082763845286891 6.654751366947253 6.511657832032408
10.13235747154029 1.75397953750059 4.0234710528022175 4.354906881237477
6.055406752574265 1.4367305834686583 2.0557200835797222 2.562956085525886
3.2192034255628905 1.121404363581819 0.8729785981227325 1.2248204638583389
1.4126173066593204 0.7901766330159489 0.2095227581813892 0.4129179154619821
0.5831901337333204 0.5175694858818618 0.01290117257809347 0.05271947527336504
0.2879042417385416 0.2951401631998892 -0.0016239164589613574 -0.005612005002386269
0.1656651716679942 0.16564262654689652 1.6256235233237811e-06 2.0919497574342718e-05
0.12234206157956448 0.12234206157956448 0.0 0.0
0.559269209241503 0.14304592769006125 0.1469191261529528 0.26930415539848884
4.745700912137586 2.447177907577674 0.9338218833495068 1.3647011212104063
3.345607414837785 1.8478753661615805 0.5674823451096054 0.9302497035665996
0.41838268100982723 0.1870747987731785 0.07544678213308015 0.15586110010356852
0.1468586297528797 0.14687105818138266 -6.591917487488861e-07 -1.1769236754219564e-05
0.1615129299304692 0.16149864391435215 9.176681420014073e-07 1.3368347975063384e-05
0.24364252550572232 0.24672900424102287 -0.0006041857264674153 -0.0024822930088331248
0.42587890671019635 0.423601728336939 -0.0029844275516985232 0.005261605924955868
0.9695066615831631 0.6558506719317652 0.09383487309212084 0.2198211165592771
2.2315215771870296 0.9356661187019392 0.4861261990014478 0.8097292594836434
4.521614221696549 1.2409292095415914 1.4358323573826324 1.8448526547723259
7.630280229219906 1.5091466039698633 2.8209946184595918 3.30013900679045
11.70264982541038 1.7868212249640751 4.8537264613645394 5.062102139081764
16.514398663697648 2.093262941025159 7.3628616201881005 7.058274102484392
22.08646744852342 2.4544433341659126 10.35908875853326 9.272935355824243
28.50806234742034 2.882995029566329 13.900901884820712 11.72416543303329
35.81812565479957 3.37704591872359 18.010765443902855 14.430314292173128
44.10205677995796 3.9227474105750098 22.810169004498178 17.369140364884768
52.852536819898845 4.495388172012724 27.86929403971445 20.487854608171677
62.23057436179565 5.064847382807492 33.49723111898236 23.668495860005777
71.34383744919933 5.414031010913289 39.145010118431905 26.78479631985415
78.94085907881394 5.2685242309545695 44.15310581418074 29.519229033678634
82.15026735485176 3.0131127570551444 47.72527876565696 31.411875832139607
78.94085907881791 5.268524230969926 44.15310581417339 29.519229033674588
71.3438374491756 5.414031010909233 39.14501011841914 26.784796319847224
62.23057436176277 5.064847382803972 33.4972311189636 23.668495859995172
52.85253681986057 4.495388172010013 27.869294039692033 20.487854608158525
44.10205677992244 3.9227474105753406 22.810169004475856 17.369140364871242
35.818125654764785 3.377045918723128 18.010765443882022 14.430314292159643
28.508062347384143 2.8829950295633724 13.90090188480091 11.724165433019861
22.08646744848904 2.454443334159863 10.35908875851678 9.2729353558124
16.514398663668963 2.0932629410259094 7.362861620171453 7.058274102471598
11.702649825385121 1.786821224960968 4.853726461352556 5.062102139071597
7.630280229199344 1.509146603967836 2.8209946184500017 3.3001390067815097
4.521614221681643 1.2409292095394193 1.4358323573763396 1.844852654765887
2.2315215771787864 0.9356661187000669 0.486126198998649 0.80972925948007
0.9695066615793971 0.6558506719305732 0.09383487309113789 0.21982111655768624
0.42587890670892065 0.42360172833581267 -0.002984427551730711 0.0052616059248388625
0.24364252550532367 0.24672900424058455 -0.0006041857264576413 -0.0024822930088033083
0.16151292993014182 0.16149864391403013 9.176681415783688e-07 1.336834797013782e-05
0.14685862975247435 0.14687105818096266 -6.591917477816558e-07 -1.1769236740542314e-05
0.41838268100768056 0.18707479877287825 0.07544678213231042 0.15586110010249166
3.3456074148280557 1.8478753661576355 0.5674823451071774 0.9302497035632442
2.331403408105965 1.4105654609370832 0.3524197435342267 0.5684182036346546
0.3075926171996114 0.21256214615358357 0.020763209222365558 0.07426726182366228
0.17263413085269377 0.17258327932587703 4.710296785854525e-06 4.6141230030892627e-05
0.16876610816820187 0.16873428414506172 2.3627919439684472e-06 2.946123119620455e-05
0.21910260023934686 0.22137137501890125 -0.00039216772549553974 -0.0018766070540587676
0.33153848951388204 0.34376700132963556 -0.004573960172835049 -0.007654551642918684
0.6345030878793287 0.5238103454590863 0.02392570945234938 0.08676703296789312
1.439534667553162 0.7507344116869589 0.22960184760857225 0.4591984082576309
2.994552717637054 1.0111246184841889 0.7914199759549881 1.1920081231978767
5.381328982087066 1.2624642206219772 1.8415799732900713 2.277284788175019
8.330904665978716 1.4939931721324662 3.2083545622404426 3.6285569316058077
11.873181012551127 1.749030571957159 4.964829642648774 5.159320797945191
15.970748614902774 2.049628794466586 7.080070529077561 6.841049291358631
20.665669855602818 2.4086137480567804 9.559862331127011 8.697193776419034
26.098224099797196 2.8427817210596023 12.500502224651434 10.754940154086153
32.215400832978176 3.3398710889326457 15.853773533138128 13.021756210907412
39.05365652264868 3.881236416187608 19.71999706289176 15.45242304356929
46.36615088858782 4.510032456712514 23.833472345676647 18.022646086198677
54.02545277400132 5.08801342653898 28.247272745235268 20.69016660222706
61.30497389608513 5.176099149595067 32.82872499007708 23.300149756412996
64.77039906312001 2.650208458002106 36.683138785298354 25.437051819819544
61.304973896076106 5.176099149594004 32.82872499007185 23.300149756410256
54.025452773990196 5.088013426541215 28.24727274522685 20.690166602222146
46.36615088856133 4.510032456705644 23.83347234566447 18.02264608619124
39.05365652261753 3.8812364161816757 19.71999706287627 15.452423043559584
32.21540083294683 3.3398710889291903 15.853773533121284 13.021756210896353
26.098224099764447 2.8427817210505704 12.500502224637406 10.754940154076479
20.665669855577857 2.4086137480547203 9.55986233111375 8.697193776409382
15.97074861488202 2.0496287944657734 7.08007052906632 6.84104929134992
11.873181012528104 1.7490305719554584 4.964829642637188 5.159320797935454
8.330904665959407 1.493993172130402 3.2083545622314538 3.6285569315975517
5.381328982072468 1.2624642206211163 1.841579973283172 2.277284788168181
2.994552717627948 1.0111246184832456 0.7914199759512256 1.1920081231934763
1.4395346675480578 0.7507344116857293 0.22960184760700625 0.45919840825532204
0.6345030878770354 0.5238103454583162 0.023925709451875603 0.08676703296684354
0.3315384895131178 0.34376700132852744 -0.0045739601727803215 -0.007654551642629278
0.2191026002391075 0.22137137501869977 -0.00039216772549255786 -0.0018766070540997362
0.16876610816782772 0.16873428414466402 2.3627919449357796e-06 2.9461231218806533e-05
0.17263413085243878 0.17258327932550846 4.7102967946876904e-06 4.614123013558209e-05
0.307592617198169 0.21256214615332808 0.020763209221940693 0.0742672618229002
2.331403408098792 1.4105654609338765 0.3524197435325036 0.5684182036324122
1.5139397871480536 1.044766639391856 0.15501890675055027 0.31415424100564693
0.24159540932811954 0.22431853693432396 -0.0003272260317083103 0.01760409842550401
0.19455020516307775 0.1946410401945896 -8.60456844887113e-06 -8.223046306300258e-05
0.1824175111538421 0.18251174327530004 -7.156415084553615e-06 -8.707570637331035e-05
0.208153770686255 0.2102204479912867 -0.00036923931040041646 -0.0016974379946312268
0.28049252030778465 0.2876797975442886 -0.0026471545730490163 -0.004540122663454859
0.4299426715621699 0.4140833573664792 -0.0011503943189356478 0.017009708514626312
0.8396417950488132 0.5754574762036595 0.07513179554277756 0.18905252330237665
1.737828486607532 0.7698748943019353 0.3441174841713783 0.6238361081342174
3.2231194420948204 0.9767710089507626 0.9190152987052617 1.3273331344387975
5.165338347825939 1.1757179451975819 1.745249079304987 2.244371323323372
7.5225658255527525 1.390878432490916 2.8354268765833774 3.296260516478457
10.22752333586193 1.6405520181865698 4.134845790910758 4.452125526764604
13.320791326522198 1.9353513444085577 5.661259323399321 5.724180658714322
16.92327956965024 2.301858714972792 7.4804318845125515 7.140988970164894
21.12693140072753 2.7532537929898124 9.643055663319084 8.730621944418642
25.907873030649224 3.2675611975017027 12.147448984593677 10.492862848553845
31.174016058535663 3.8402913117831026 14.929712748021222 12.404011998731345
37.339649861404936 4.607915451719989 18.189115807121095 14.54261860256385
44.29186955811009 5.129733474566278 22.17384234836398 16.98829373517982
48.16672268704926 2.391763142894813 26.240344321151575 19.534615223002877
44.2918695581041 5.129733474560451 22.17384234836383 16.988293735179813
37.339649861390185 4.607915451712636 18.189115807116583 14.54261860256096
31.174016058528736 3.840291311790067 14.929712748012813 12.40401199872584
25.907873030629634 3.26756119750021 12.147448984582988 10.492862848546435
21.12693140070752 2.753253792988133 9.643055663308443 8.730621944410949
16.92327956963974 2.3018587149774863 7.480431884503951 7.140988970158299
13.320791326506257 1.9353513444057084 5.661259323392063 5.724180658708488
10.2275233358473 1.6405520181849367 4.134845790903842 4.452125526758515
7.5225658255371535 1.3908784324882963 2.8354268765765855 3.2962605164722736
5.165338347814149 1.1757179451972084 1.745249079299395 2.2443713233175453
3.223119442084401 0.9767710089484622 0.9190152987014171 1.3273331344345216
1.7378284866018934 0.7698748943008054 0.3441174841694663 0.6238361081316225
0.8396417950460109 0.5754574762028837 0.07513179554205306 0.18905252330107397
0.42994267156057936 0.4140833573653256 -0.0011503943190882718 0.01700970851434224
0.2804925203069461 0.2876797975431051 -0.0026471545730020795 -0.004540122663156818
0.20815377068585897 0.2102204479906304 -0.00036923931037393705 -0.0016974379943975708
0.18241751115366017 0.18251174327517053 -7.156415088586244e-06 -8.70757064217751e-05
0.19455020516261481 0.1946410401940225 -8.604568443545298e-06 -8.22304629641071e-05
0.24159540932717755 0.22431853693394713 -0.00032722603189928347 0.01760409842512977
1.5139397871434572 1.0447666393896726 0.15501890674957475 0.31415424100420997
0.9660697367651976 0.7850590083857625 0.05279130103461844 0.1282194273448171
0.20226056195503833 0.21607741268850833 -0.005434179371647445 -0.008382671361822564
0.21032070674700168 0.21020085664252955 1.4174564800956313e-05 0.00010567553967126722
0.19853375281652189 0.19850570618809069 2.7028378299075506e-06 2.5343790601434184e-05
0.20916970480173108 0.21078395475482092 -0.000335102018568474 -0.00127914793452142
0.25599826935816394 0.2614253359002761 -0.0018326439619469864 -0.0035944225801650474
0.33621380081339425 0.3297863587777087 -0.00044080314850154773 0.0068682451841871025
0.47058323975511485 0.40481693728357115 0.01349413818939218 0.0522721642821515
0.7896124804743193 0.5100194731985754 0.08097249791631335 0.19862050935943062
1.4282028367568351 0.6429352822538209 0.2735671652577671 0.5117003892452473
2.4202358978952834 0.7820779534085435 0.6498499713454075 0.9883079731413313
3.621324181992173 0.9319048786091279 1.121396399606569 1.5680229037764766
5.056715149897039 1.1152786299606576 1.7291185830866165 2.212317936849767
6.736933915166583 1.3409726468135648 2.465952903638394 2.930008364714625
8.717765223706692 1.6281236987987602 3.3475473462868415 3.7420941786210915
11.127933038160052 2.0098860739814812 4.429869496413509 4.688177467765057
14.089100501079944 2.494765156125131 5.787832429156987 5.806502915797826
17.574146753308476 3.009045180691396 7.4695464685814725 7.095555104035614
21.73153204985939 3.6432070067757456 9.48907383958144 8.599251203502204
27.81643040562011 4.8283485492613725 12.33932146790411 10.648760388454642
33.15279209088714 2.369256671523928 17.01027392265857 13.773261496704636
27.816430405632126 4.828348549269904 12.339321467906199 10.648760388456017
21.731532049862054 3.6432070067809184 9.489073839579966 8.599251203501167
17.574146753292744 3.009045180685602 7.469546468575795 7.095555104031352
14.0891005010622 2.4947651561189694 5.787832429150482 5.8065029157927475
11.127933038146894 2.0098860739773037 4.429869496408656 4.688177467760933
8.717765223693995 1.628123698794082 3.3475473462826475 3.742094178617266
6.736933915160014 1.340972646812673 2.4659529036354426 2.930008364711898
5.0567151498909855 1.1152786299607578 1.7291185830835594 2.212317936846666
3.6213241819834168 0.9319048786057402 1.1213963996039988 1.5680229037736788
2.420235897888543 0.7820779534083896 0.6498499713424115 0.9883079731377423
1.428202836753568 0.642935282252968 0.27356716525675645 0.5117003892438436
0.789612480472098 0.5100194731980986 0.08097249791567575 0.19862050935832337
0.4705832397542073 0.40481693728318935 0.013494138189237692 0.05227216428178046
0.3362138008127554 0.3297863587772826 -0.0004408031485804349 0.006868245184053134
0.2559982693573367 0.26142533589934164 -0.001832643961920773 -0.003594422580084169
0.20916970480113087 0.21078395475405404 -0.00033510201854566906 -0.0012791479343774517
0.1985337528166493 0.19850570618814523 2.702837837224057e-06 2.5343790666755353e-05
0.21032070674641712 0.2102008566417391 1.4174564823117283e-05 0.000105675539854897
0.20226056195477365 0.21607741268826755 -0.005434179371639293 -0.008382671361854546
0.966069736762246 0.7850590083841608 0.052791301034137136 0.12821942734394792
0.6061000711260259 0.5726889829694624 0.0062497783671639886 0.0271613097893998
0.1855824379871543 0.19167760698045416 -0.0011472873371618081 -0.00494788165613813
0.21977134816868943 0.22020754148343794 -4.660235931305486e-05 -0.0003895909554354741
0.21446566369340037 0.21434811914088386 1.18675541238187e-05 0.00010567699839263565
0.2198133240132531 0.22063520495141348 -0.0002581992283146262 -0.0005636817098456216
0.253115790948647 0.25627674572932013 -0.0013816872532285147 -0.0017792675274446946
0.3123672434599731 0.30089149703669754 0.0014098807648078233 0.010065865658467794
0.36621666666587604 0.30600875080642187 0.014273981811853896 0.04593393404760026
0.41069329027130225 0.2687407710705057 0.04426148012686421 0.09769103907393241
0.5133682820619714 0.23854367303279705 0.0930872468259958 0.1817373622031787
0.7647549989989335 0.27133660058884745 0.19413952081479563 0.2992788775952908
1.152404402626558 0.3032745414611968 0.3353151017605134 0.5138147594048478
1.6856815419795528 0.30588264897625284 0.5651649040252231 0.8146339889780772
2.350241838888472 0.3190482427456405 0.8645388219857404 1.166654774157092
3.164077636443212 0.36087904338331317 1.235462977281625 1.567735615778274
4.1313434802819575 0.45178243112607913 1.6659163741207437 2.0136446750351373
5.304143018035312 0.6150420677236093 2.188798496009492 2.500302454302213
6.67451379314201 0.8414490565645534 2.8079182657737904 3.025146470803665
8.63342557095736 1.2368932696783617 3.6608347098490097 3.735697591429993
13.689263990067825 2.8749391401915783 5.350779114520277 5.463545735355966
22.8906163801982 2.503654680188273 10.718315188570422 9.668646511439508
13.689263990069588 2.874939140190302 5.350779114522069 5.46354573535722
8.633425570953369 1.2368932696768442 3.660834709847705 3.735697591428819
6.674513793132626 0.8414490565616006 2.8079182657703035 3.0251464708007214
5.30414301802718 0.6150420677226573 2.188798496005804 2.5003024542987173
4.1313434802806315 0.45178243112824495 1.665916374118967 2.0136446750334187
3.1640776364406253 0.3608790433839973 1.2354629772799406 1.567735615776687
2.3502418388865265 0.31904824274686905 0.8645388219842312 1.1666547741554263
1.6856815419727575 0.3058826489743067 0.5651649040229846 0.8146339889754657
1.1524044026255633 0.303274541462797 0.3353151017592285 0.513814759403538
0.764754998995663 0.2713366005879366 0.1941395208136824 0.29927887759404326
0.5133682820618535 0.23854367303283835 0.09308724682595573 0.18173736220305986
0.41069329027041235 0.2687407710703943 0.04426148012655705 0.09769103907346086
0.36621666666556574 0.3060087508065216 0.014273981811730313 0.045933934047313954
0.31236724345925154 0.3008914970361841 0.001409880764713596 0.010065865658353806
0.25311579094802567 0.25627674572853465 -0.0013816872532004803 -0.0017792675273086208
0.21981332401291942 0.2206352049508894 -0.00025819922829179733 -0.00056368170967821
0.21446566369322959 0.21434811914054133 1.1867554143387576e-05 0.00010567699854488095
0.2197713481683597 0.22020754148320384 -4.6602359322830894e-05 -0.00038959095552129093
0.1855824379871153 0.19167760698022693 -0.0011472873371268615 -0.004947881655984841
0.6061000711244698 0.572688982968163 0.006249778367052829 0.027161309789254195
0.3924571329704899 0.39346370827309046 -0.00020752567761473422 -0.0007990496249858164
0.17519583178332246 0.17517514547589472 1.5502683922949214e-05 5.183623504756337e-06
0.22321432780983658 0.22306288796925466 3.6649149959116613e-06 0.00014777492558603247
0.2281099048112131 0.22787182506849032 1.7154998287889008e-05 0.0002209247444349048
0.23639060061406175 0.2362577715283849 -0.00014327865543776306 0.0002761077411146883
0.27266858242912645 0.2735421157359666 -0.0011232261677696042 0.0002496928609295844
0.34655240264214904 0.33749189848191097 0.0008907482094244212 0.0081697559508139
0.4757236345977621 0.4065871097517287 0.014797417575635689 0.05433910727039773
0.7911242743992457 0.5098979120240008 0.08158832592741815 0.19963803644782618
1.4271373076552607 0.6425191181706875 0.2732374593998545 0.5113807300847185
2.4230511667330417 0.7838098876911888 0.6507506938450526 0.9884905851968006
3.638335909649847 0.9347396413086786 1.129584417619258 1.574011850721909
5.09427999438936 1.1206522105985193 1.7450740474906068 2.228553736300235
6.778385940080321 1.3429075640852624 2.4871026816469826 2.9483756943480763
8.638140340903933 1.6019916201688107 3.3213097386760198 3.714838982059101
10.579542702007052 1.9003353661748883 4.201086821089837 4.478120514742329
12.35356161623532 2.220555199881485 4.996196814178446 5.136809602175384
13.773332863561231 2.5956785316748014 5.616163896744611 5.561490435141823
14.274002909248171 2.858313091220958 5.788577133407974 5.62711268461924
11.488078942925748 1.868456506313888 4.99117643890266 4.628445997709193
23.182494333404705 4.032923273301624 9.87677248856669 9.272798571536386
11.488078942930976 1.868456506313424 4.9911764389057725 4.628445997711777
14.274002909240755 2.858313091216103 5.78857713340645 5.627112684618209
13.773332863549907 2.595678531673083 5.616163896739213 5.561490435137604
12.353561616221628 2.2205551998805593 4.996196814171458 5.1368096021696195
10.579542701985822 1.9003353661667401 4.201086821082779 4.478120514736302
8.63814034089403 1.6019916201677418 3.3213097386714745 3.714838982054817
6.778385940064461 1.3429075640802974 2.487102681641327 2.948375694342834
5.094279994380779 1.120652210600327 1.7450740474854642 2.2285537362949874
3.6383359096374663 0.9347396413058662 1.1295844176146794 1.5740118507169212
2.4230511667224803 0.7838098876898983 0.6507506938407863 0.9884905851917953
1.4271373076491916 0.6425191181692644 0.2732374593979321 0.5113807300819954
0.7911242743976004 0.5098979120237502 0.08158832592694673 0.19963803644690364
0.4757236345959583 0.4065871097509176 0.014797417575284617 0.05433910726975612
0.3465524026414717 0.3374918984811274 0.0008907482094287675 0.00816975595091542
0.272668582428337 0.27354211573513304 -0.0011232261677710962 0.00024969286097528904
0.2363906006139441 0.23625777152804525 -0.00014327865540969445 0.0002761077413086287
0.22810990481062088 0.22787182506773046 1.7154998302888643e-05 0.000220924744587619
0.22321432780952977 0.22306288796882598 3.6649150031434448e-06 0.00014777492570055832
0.17519583178327003 0.17517514547585583 1.5502683917814476e-05 5.183623496405903e-06
0.39245713296969165 0.3934637082719862 -0.00020752567758086754 -0.0007990496247137181
0.25408463999858927 0.25406390086846703 1.3476233019465938e-06 1.9391506820260498e-05
0.16148340463810112 0.16152726780161614 -2.193858099642244e-06 -4.166930541535928e-05
0.22018880764636953 0.22053984056192139 -4.391580828757355e-05 -0.00030711710726427703
0.23777180120916422 0.23711823715734648 5.7579185504570166e-05 0.0005959848663132618
0.2572571256780479 0.25961972768079006 -0.0005553647102377091 -0.0018072372925043458
0.31277679342829856 0.3168609914237955 -0.0014925795266157104 -0.002591618468881505
0.4463597632097407 0.41550401639718043 0.002159688702340624 0.0286960581102196
0.8475279358223761 0.5763167073031188 0.0779671191584457 0.1932441093608114
1.7379131035820823 0.769632783294478 0.3442165382007352 0.624063782086868
3.2214503692710723 0.9766737689356524 0.9181444905373961 1.3266321097980227
5.168493220272687 1.1763603796807713 1.7463864508545655 2.2457463897373495
7.538123296083182 1.3930678828164655 2.8423390518551144 3.3027163614116013
10.260231115032251 1.6433825460223597 4.150997118012897 4.465851450997001
13.346800982351505 1.9307047952575083 5.678631524528737 5.737464662565258
16.81658508711414 2.262861192633474 7.443456994430024 7.110266900050638
20.539813759279077 2.630257599708202 9.377264122306308 8.53229203726456
24.209403581937405 3.0341973840009766 11.287281503852295 9.887924694084134
27.34963244935652 3.499284910265038 12.844934822391803 11.005412716699679
28.89365067602496 3.69439321052125 13.664174255529574 11.535083209974143
26.786437800599373 3.6115124716166482 12.56036717340492 10.614558155577809
32.93033312156232 7.967131966307472 13.474715631576881 11.488485523677953
26.786437800594772 3.6115124716067646 12.560367173408103 10.614558155579903
28.89365067602992 3.6943932105285184 13.664174255528176 11.535083209973225
27.349632449339307 3.4992849102645356 12.84493482238182 11.005412716692954
24.209403581918785 3.0341973840031136 11.287281503840077 9.887924694075593
20.539813759263097 2.6302575997138824 9.377264122293827 8.53229203725539
16.816585087093003 2.262861192630412 7.443456994419786 7.1102669000428085
13.346800982334154 1.9307047952603806 5.678631524517602 5.737464662556169
10.260231115009214 1.6433825460175984 4.150997118003062 4.465851450988558
7.538123296065283 1.3930678828154355 2.8423390518463343 3.3027163614035113
5.168493220258225 1.1763603796819169 1.7463864508468716 2.245746389729434
3.221450369259861 0.9766737689343498 0.9181444905327216 1.3266321097927902
1.7379131035751634 0.7696327832927281 0.34421653819853115 0.6240637820839035
0.8475279358189605 0.5763167073022637 0.07796711915752383 0.1932441093591732
0.4463597632084473 0.41550401639630136 0.002159688702208719 0.028696058109937396
0.3127767934275902 0.3168609914227168 -0.0014925795265535668 -0.002591618468573048
0.2572571256775559 0.2596197276801379 -0.0005553647102109178 -0.0018072372923711288
0.23777180120869582 0.23711823715669184 5.757918552160402e-05 0.00059598486648236
0.22018880764619136 0.22053984056168618 -4.39158082843138e-05 -0.00030711710721046916
0.16148340463805697 0.16152726780159798 -2.1938581010263307e-06 -4.166930544001851e-05
0.25408463999806 0.25406390086795083 1.3476233008971399e-06 1.9391506808273514e-05
0.15720870696802652 0.15720870696802652 0.0 0.0
0.14259719895733902 0.1425808458303769 9.89853957466213e-07 1.5363273004669434e-05
0.21032091705268552 0.2105294862686721 -2.417596489233122e-05 -0.000184393251094261
0.2436399060655362 0.24450216494127613 -0.00015049049506060926 -0.000711768380679486
0.2818221818666624 0.2830444835722913 -0.00043033655120453207 -0.0007919651544242065
0.370213370594952 0.3650570680634784 -0.0017477333345373369 0.0069040358660110305
0.6600862860672977 0.5320758897985138 0.03162104460278323 0.0963893516660003
1.445495720485218 0.7513242676794334 0.2323845558373216 0.4617868969684635
2.9923245646169265 1.0111046967505724 0.7903536990442924 1.1908661688220596
5.3808150294691695 1.262755216258968 1.8414321175833752 2.276627695626829
8.33458550950888 1.4944287426336413 3.208788205427629 3.631368561447612
11.885032897779057 1.7499836841505538 4.970854519749327 5.164194693879178
15.985471065175098 2.0498094500500033 7.088349295432101 6.84731231969299
20.655526931925586 2.3994848513587463 9.559463749783074 8.696578330783774
25.960077031268177 2.7985969625235145 12.44530705318364 10.716173015561022
31.700731499394344 3.229525885453799 15.61099436322355 12.860211250716992
37.65211434198708 3.684493898705043 18.983710615289727 14.9839098279923
42.72701038939451 4.026576161643085 21.87843060760524 16.822003620146184
45.3057726587589 4.091838464911248 23.441165030976094 17.77276916287156
42.14989131954576 3.60747577198235 21.799859944576262 16.74255560298715
47.29161143398622 10.907089412137264 20.43867747372806 15.945844548120913
42.1498913195563 3.607475771988207 21.799859944579197 16.742555602988883
45.305772658747706 4.091838464904901 23.441165030973078 17.77276916286974
42.72701038937056 4.026576161643075 21.87843060759041 16.82200362013708
37.652114341949805 3.684493898698291 18.983710615271026 14.983909827980483
31.700731499355093 3.2295258854457076 15.610994363204743 12.860211250704634
25.960077031238225 2.7985969625201084 12.44530705316793 10.71617301555018
20.655526931895817 2.3994848513583937 9.559463749766007 8.696578330771406
15.985471065144774 2.0498094500489352 7.088349295415592 6.84731231968025
11.885032897750229 1.7499836841465657 4.970854519735729 5.164194693867922
8.334585509486082 1.4944287426320833 3.2087882054164716 3.6313685614375286
5.380815029450587 1.2627552162560727 1.8414321175754873 2.276627695619027
2.9923245646063936 1.0111046967498774 0.7903536990397242 1.1908661688167919
1.4454957204789665 0.7513242676783415 0.23238455583523857 0.4617868969653862
0.660086286064548 0.5320758897972839 0.03162104460227824 0.09638935166498565
0.370213370593879 0.3650570680624265 -0.001747733334572977 0.006904035866025485
0.28182218186613184 0.28304448357165607 -0.0004303365511916597 -0.0007919651543327067
0.24363990606512748 0.2445021649406524 -0.0001504904950331683 -0.0007117683804917276
0.2103209170524852 0.21052948626850734 -2.4175964897720946e-05 -0.00018439325112441608
0.1425971989572281 0.1425808458302695 9.898539572355688e-07 1.5363273001379168e-05
0.1572087069677147 0.1572087069677147 0.0 0.0
0.09205383965152716 0.09205383965152716 0.0 0.0
0.11934577131051008 0.11934630100618362 -2.2971052855553653e-08 -5.067246206468004e-07
0.19461776068365494 0.19467885420281136 -8.506795598335223e-06 -5.2586723558149e-05
0.2461029536167352 0.24633581030206095 -6.830957175777115e-05 -0.00016454711356795693
0.3087782193399339 0.3136177658401532 -0.0012621442739096241 -0.003577402226309853
0.4689034065128889 0.4443130108343168 0.003674308347623981 0.020916087330948182
0.9863869766580506 0.6528330623014272 0.10028615346503042 0.23326776089159307
2.232792409090661 0.936109595557942 0.4869388655356615 0.8097439479970568
4.518622165445913 1.241445667159165 1.4340715320617006 1.8431049662250478
7.6311881504554595 1.5096509447588182 2.8210109020687177 3.300526303627927
11.70839871365955 1.7867897869163207 4.857134388529853 5.0644745382133785
16.517341223576356 2.0915751651039054 7.365529078114977 7.060236980357472
22.069697578803638 2.4489130173881186 10.352680893654698 9.268103667760837
28.444590081952192 2.869395148784901 13.871367932344867 11.703827000822418
35.66836984621845 3.346520472411316 17.938224033403024 14.383625340404118
43.75282649634087 3.856795549179643 22.634152864682903 17.261878082478336
51.79209937441441 4.2895579435016185 27.331415360378045 20.171126070534754
58.88157245828623 4.475960004458573 31.739458145924708 22.666154307902918
62.27481893325715 4.1895606856869 34.117863122047794 23.96739512552247
58.20909161601805 3.6902097844141464 31.839786972601594 22.67909485900234
63.30577482635348 13.764051613666147 28.635755780653593 20.90596743203371
58.20909161600464 3.6902097844005946 31.83978697260168 22.67909485900237
62.27481893322912 4.189560685674169 34.11786312203797 23.96739512551702
58.8815724582648 4.4759600044659145 31.739458145906333 22.666154307892526
51.79209937437597 4.2895579435043905 27.331415360352157 20.17112607051942
43.75282649630788 3.8567955491861774 22.63415286465844 17.261878082463287
35.668369846173334 3.346520472403293 17.938224033380454 14.383625340389578
28.44459008191683 2.869395148787663 13.871367932322125 11.703827000807033
22.06969757876825 2.4489130173901392 10.352680893632918 9.268103667745187
16.517341223539454 2.0915751651010863 7.365529078095776 7.060236980342597
11.708398713629553 1.7867897869150335 4.857134388514311 5.064474538200208
7.631188150431971 1.5096509447570623 2.821010902057496 3.3005263036174104
4.518622165430344 1.2414456671577165 1.4340715320547155 1.8431049662179113
2.232792409081946 0.9361095955571386 0.4869388655321755 0.8097439479926329
0.9863869766537174 0.652833062299889 0.10028615346395592 0.23326776088987172
0.46890340651145423 0.44431301083337477 0.0036743083474885113 0.020916087330591106
0.30877821933958377 0.3136177658393581 -0.001262144273837334 -0.0035774022259369084
0.24610295361632628 0.24633581030150892 -6.830957174667634e-05 -0.00016454711343591113
0.19461776068342887 0.1946788542026293 -8.50679560305675e-06 -5.258672359733906e-05
0.11934577131033167 0.11934630100600471 -2.297105282889122e-08 -5.067246201801207e-07
0.09205383965132849 0.09205383965132849 0.0 0.0
0.05071180948166137 0.05071180948166137 0.0 0.0
0.09445473275144786 0.09445473275144786 0.0 0.0
0.1746299479064817 0.1746181621939242 7.48543458804691e-07 1.1037169098719219e-05
0.24592228813927447 0.24674868806497371 -0.0001361445929279694 -0.0006902553327713091
0.34191423508960334 0.34365662461383706 -0.0015061601063248104 -0.00023622941790905645
0.6190623100093166 0.5314354346315242 0.021685008376301676 0.06594186700149052
1.425431912768214 0.7902657462680082 0.21579804254303397 0.41936812395717216
3.217283755703457 1.122452217914585 0.8717754663833528 1.2230560714055179
6.053718215424125 1.4376240695156688 2.0545620031351084 2.5615321427733475
10.135457267866139 1.754477772601711 4.024799158870396 4.356180336394028
15.25383614660543 2.0818876907429384 6.657851519441861 6.51409693642063
21.360626891115487 2.4443427065412053 9.942851657241269 8.973432527333012
28.455472354014574 2.866165286776819 13.880649035367094 11.708658031870657
36.64821159231028 3.363021525263616 18.54975279046504 14.735437276581639
45.92541617530672 3.939706160389405 23.912545210640918 18.073164804276388
56.160001175881675 4.511221931786102 29.967630298928235 21.681148945167326
66.7700389062988 4.901375504405051 36.53847405558096 25.33018934631278
75.53305056730633 4.831748963121463 42.2205184885221 28.480783115662774
79.38075853338086 4.192624541335408 45.10163120418813 30.086502787857302
74.82159579054884 3.884338349785536 42.38925779328906 28.54799964747426
80.76938845935594 16.64717228329761 37.98858089431562 26.133635281742702
74.82159579053805 3.8843383497825683 42.38925779328401 28.547999647471503
79.3807585333682 4.192624541345779 45.10163120417308 30.086502787849305
75.53305056726514 4.831748963114449 42.22051848849998 28.48078311565073
66.77003890625615 4.901375504411208 36.53847405554958 25.330189346295384
56.160001175821954 4.511221931774168 29.96763029889798 21.681148945149804
45.92541617525628 3.9397061603877113 23.9125452106106 18.07316480425794
36.64821159226251 3.363021525261242 18.549752790437346 14.735437276563948
28.455472353963383 2.8661652867732332 13.880649035338728 11.708658031851435
21.36062689107333 2.4443427065404513 9.942851657217291 8.973432527315584
15.253836146568847 2.081887690742091 6.657851519421881 6.514096936404876
10.135457267837465 1.7544777726007559 4.0247991588555845 4.356180336381127
6.053718215403864 1.437624069512802 2.054562003126558 2.5615321427645044
3.217283755690915 1.1224522179123118 0.8717754663785158 1.2230560714000858
1.4254319127616397 0.7902657462661655 0.21579804254112672 0.41936812395434825
0.6190623100070682 0.5314354346304807 0.021685008375897707 0.06594186700068969
0.34191423508907043 0.34365662461304114 -0.0015061601062888248 -0.0002362294176815957
0.24592228813880157 0.2467486880645391 -0.00013614459293241718 -0.0006902553328051753
0.17462994790630348 0.1746181621937467 7.485434588836121e-07 1.1037169097899684e-05
0.09445473275122927 0.09445473275122927 0.0 0.0
0.05071180948157822 0.05071180948157822 0.0 0.0
0.026200075291836614 0.026200075291836614 0.0 0.0
0.07072306659383444 0.07072306659383444 0.0 0.0
0.15274564778506564 0.15273967364202193 3.662909033654852e-07 5.6078521402870744e-06
0.24529395288181408 0.24589147977522652 -0.00010748060242036834 -0.0004900462909919767
0.3930820754361831 0.3930731051427791 -0.0010132900222608507 0.0010222603156651274
0.8227099155664441 0.6135310755718596 0.05722906665205779 0.15194977334252624
1.9990064144280217 0.9364971875864236 0.4083553030073862 0.654153923834212
4.227523156571619 1.2805298894478092 1.2441978428718645 1.702795424251947
7.801387536160963 1.6336688169407363 2.8576504064130646 3.3100683128071613
12.72527979624429 2.0003559260797434 5.299416186726244 5.425507683438302
18.94967391107894 2.3886955048835965 8.58599524859662 7.974983157598724
26.416697889426942 2.817424745778196 12.702217324582746 10.897055819066006
35.15346356804643 3.3126348814715687 17.67637668336845 14.16445200320642
45.07710212919846 3.8918682636986133 23.39958824588167 17.785645619618183
56.50452727761166 4.550584436172013 30.18415090127514 21.76979194016451
69.12499883928282 5.199398485863982 37.84991174079268 26.075688612626173
81.80961143969016 5.521747170683479 45.83742027735808 30.450443991648598
92.32957448205347 5.139267145211077 52.98905925330319 34.20124808353924
97.03573616089464 4.199427760949165 56.72310578941478 36.11320261053069
92.1777637706893 4.117982768466874 53.57186714045719 34.487913861765236
99.29903991984233 19.527744506670995 48.104926851829 31.666368561342335
92.17776377067626 4.117982768466344 53.57186714044884 34.48791386176104
97.03573616085687 4.1994277609416395 56.723105789394886 36.11320261052037
92.32957448200224 5.139267145203753 52.989059253274156 34.20124808352437
81.80961143963333 5.521747170684262 45.83742027732049 30.450443991628592
69.1249988392206 5.199398485861978 37.84991174075388 26.075688612604708
56.50452727755241 4.550584436170568 30.18415090123852 21.76979194014334
45.07710212913753 3.891868263692615 23.399588245847518 17.78564561959739
35.15346356799306 3.3126348814755056 17.676376683333668 14.164452003183877
26.41669788937267 2.8174247457737365 12.702217324553317 10.897055819045615
18.94967391103577 2.388695504882782 8.585995248572438 7.974983157580544
12.725279796210009 2.0003559260777424 5.299416186708577 5.425507683423693
7.80138753613621 1.6336688169374187 2.857650406402152 3.310068312796637
4.227523156555751 1.2805298894452612 1.2441978428654936 1.7027954242449983
1.9990064144194846 0.9364971875846351 0.40835530300443623 0.654153923830411
0.8227099155631487 0.6135310755706979 0.0572290666512873 0.1519497733411638
0.3930820754354388 0.39307310514180455 -0.0010132900222167077 0.001022260315850978
0.24529395288132877 0.24589147977473558 -0.00010748060242240839 -0.0004900462909843792
0.1527456477847565 0.15273967364171306 3.662909033509835e-07 5.607852140109466e-06
0.07072306659369094 0.07072306659369094 0.0 0.0
0.026200075291752053 0.026200075291752053 0.0 0.0
0.012841399614622289 0.012841399614622289 0.0 0.0
0.05035317199570864 0.05035317199570864 0.0 0.0
0.13167508632255273 0.13167508632255273 0.0 0.0
0.24792053080818147 0.248878516858606 -0.0001649391844613211 -0.000793046865963425
0.46931624303304925 0.4492678162663681 0.0037515083672944195 0.016296918399386823
1.1091367641421885 0.7253701491946226 0.12538556938435608 0.25838104556320995
2.6284973547509076 1.0661950664617366 0.6137342777484469 0.9485680105407244
5.369954967704226 1.4282488932980952 1.7285549274210346 2.213151146985097
9.609243102880464 1.8270031743165887 3.707030880795597 4.075209047768283
15.422604846009662 2.252376343799785 6.664951484289575 6.505277017920299
22.76139181526151 2.7084120067005157 10.610353250431984 9.442626558129017
31.638827537537342 3.216100247831207 15.593824500666784 12.82890278903936
41.94293727704025 3.7921028146795925 21.517031669297644 16.633802793063015
53.944043282613066 4.450277636022669 28.646951549501015 20.8468140970894
67.3745570003113 5.182813514281991 36.72145743663005 25.470286049399242
82.06172970586815 5.87333521822854 45.75729248668161 30.431102000958028
97.01008679976583 6.148663527345887 55.41226754451827 35.44915572790168
109.35030388143944 5.488936936786252 64.05213695525526 39.809229989397934
115.16561413529205 4.236952990117685 68.77149426308486 42.1571668820895
110.55208753902897 4.331886856701829 65.63930353155259 40.580897150774575
119.41866113824557 22.357070044111833 59.53122341216287 37.53036768197086
110.55208753900992 4.331886856699968 65.63930353154112 40.580897150768855
115.16561413526227 4.2369529901249985 68.7714942630599 42.157166882077334
109.35030388137814 5.488936936780904 64.05213695521773 39.80922998937943
97.01008679970515 6.1486635273512595 55.41226754447466 35.44915572787923
82.0617297057972 5.873335218226566 45.757292486636466 30.43110200093414
67.37455700023266 5.182813514273484 36.72145743658493 25.470286049374238
53.94404328254302 4.450277636017629 28.646951549459995 20.846814097065405
41.9429372769731 3.79210281467712 21.517031669257687 16.633802793038292
31.638827537474793 3.2161002478303873 15.593824500629765 12.828902789014661
22.761391815211983 2.708412006698421 10.610353250404396 9.442626558109179
15.422604845967614 2.2523763437957243 6.664951484268311 6.505277017903576
9.609243102851023 1.8270031743143702 3.7070308807812244 4.075209047755429
5.369954967685775 1.4282488932955761 1.7285549274134842 2.213151146976715
2.6284973547404547 1.0661950664596689 0.6137342777446639 0.9485680105361227
1.1091367641375955 0.7253701491930536 0.12538556938317832 0.2583810455613634
0.4693162430317927 0.44926781626542134 0.0037515083671973465 0.016296918399173622
0.24792053080784351 0.2488785168580501 -0.00016493918444743466 -0.0007930468657590447
0.1316750863224382 0.1316750863224382 0.0 0.0
0.05035317199553526 0.05035317199553526 0.0 0.0
0.012841399614600728 0.012841399614600728 0.0 0.0
0.006217500206576452 0.006217500206576452 0.0 0.0
0.034689277276361875 0.034689277276361875 0.0 0.0
0.11444128178540885 0.11444128178540885 0.0 0.0
0.2598660357074566 0.2619540921876257 -0.0003735443331294559 -0.0017145121470395458
0.5800310576694627 0.5141116422464119 0.015383603570817856 0.0505358118522332
1.4728710943636691 0.837824333793052 0.22821996021619242 0.40682680035442487
3.3243415933943847 1.1760509349223864 0.8660719581164047 1.2822187003555914
6.586210203084321 1.573349084023286 2.2683160279016277 2.7445450911594076
11.482110283399251 2.019088276772398 4.611579601135984 4.851442405490875
18.190413524170182 2.5100147452733017 8.089256321469708 7.5911424574271695
26.70796011624994 3.0461061219003875 12.7478308484418 10.914023145907743
36.97402837976838 3.637949698976386 18.56936201820988 14.766716662582112
49.12775431998391 4.3094483032367386 25.709726452969335 19.10857956377783
62.88977987437442 5.054749280007595 33.90645047009565 23.928580124271168
78.4264654044933 5.8141615329424345 43.440424262527934 29.17187960902291
95.2031679226209 6.474790639743588 54.003207817734165 34.72516946514311
112.11935237218844 6.754056268825473 65.05370093001721 40.31159517334573
126.45396559179424 6.015552097671829 75.17759746349842 45.26081603062403
133.80996298720203 4.296984279987878 81.34976623076409 48.16321247645008
130.17146979549335 4.457540742488259 78.78713277361786 46.92679627938724
141.3147925420502 25.010239187134964 72.3939036126672 43.91064974224805
130.17146979546857 4.457540742484382 78.78713277360356 46.92679627938057
133.80996298714356 4.296984279976432 81.34976623073219 48.16321247643496
126.45396559173604 6.015552097678952 75.17759746345438 45.260816030602676
112.119352372106 6.754056268818882 65.0537009299665 40.31159517332063
95.20316792253897 6.474790639740257 54.00320781768226 34.72516946511643
78.42646540441335 5.814161532943655 43.44042426247514 29.171879608994544
62.889779874290845 5.054749279999936 33.90645047004715 23.928580124243798
49.127754319905556 4.309448303234193 25.7097264529219 19.108579563749444
36.97402837970318 3.6379496989805067 18.56936201816756 14.76671666255513
26.707960116190367 3.046106121894769 12.747830848410004 10.914023145885604
18.190413524124686 2.5100147452719606 8.089256321444639 7.591142457408088
11.482110283367184 2.0190882767707827 4.611579601119624 4.851442405476781
6.58621020306156 1.5733490840187943 2.2683160278924865 2.7445450911502793
3.3243415933818175 1.1760509349203472 0.8660719581118264 1.282218700349643
1.472871094358028 0.8378243337910862 0.22821996021469582 0.4068268003522467
0.5800310576675956 0.5141116422454196 0.015383603570509552 0.05053581185166621
0.25986603570706746 0.2619540921871489 -0.00037354433311557545 -0.0017145121469658762
0.11444128178524834 0.11444128178524834 0.0 0.0
0.034689277276255384 0.034689277276255384 0.0 0.0
0.006217500206595142 0.006217500206595142 0.0 0.0
0.002950800290742658 0.002950800290742658 0.0 0.0
0.02394896243128332 0.02394896243128332 0.0 0.0
0.10512326769722627 0.10512326769722627 0.0 0.0
0.29087866937586915 0.2928184762196059 -0.0006664411374921921 -0.0012733657062447177
0.7487281704025384 0.6038329574722163 0.04343521017262553 0.10146000275769651
1.8861506902813736 0.9361910776725888 0.35160173687775576 0.5983578757310298
4.1088742783014505 1.2874520695920793 1.1856608759370044 1.6357613327723666
7.84696466696683 1.7134353076439506 2.842604964959375 3.290924394363503
13.422873876126912 2.2105415894346248 5.578189628080999 5.634142658611292
21.01783077957568 2.7750869953584254 9.564114910137755 8.678628874079504
30.71375019663957 3.3977800058682894 14.928148265079617 12.38782192569166
42.55211737312805 4.090552928352734 21.754789182320888 16.706775262454407
56.29523476252406 4.864422004882901 29.833532497260393 21.597280260380813
72.16119141503192 5.684934025108709 39.463836567279245 27.012420822643957
89.76565327629302 6.46822366347477 50.42468022979808 32.872749383020164
108.43841235051096 7.034304318360411 62.41269840931538 38.991409622835114
126.96152387233408 7.177783527469621 74.76083860545683 45.02290173940763
143.25554025693677 6.660620594317537 86.17995465596806 50.414965006651165
152.7895862155816 4.6555783714310515 94.07102546500303 54.06298237914746
151.2061957239149 4.2964806101569355 93.25859374601906 53.65112136773893
165.2588226031358 26.559567393208265 87.61259907476511 51.0866561351624
151.20619572387693 4.296480610144924 93.25859374600114 53.65112136773083
152.78958621553068 4.655578371438996 94.07102546496311 54.06298237912861
143.25554025685315 6.660620594309178 86.17995465591679 50.414965006627206
126.96152387224103 7.17778352746829 74.76083860539487 45.0229017393778
108.4384123504154 7.034304318354802 62.41269840925551 38.99140962280511
89.76565327619225 6.468223663466567 50.42468022973722 32.87274938298848
72.16119141493574 5.684934025100994 39.46383656722209 27.012420822612633
56.295234762441 4.864422004886295 29.833532497205603 21.597280260349095
42.55211737304883 4.090552928347598 21.75478918227515 16.706775262426106
30.71375019657171 3.3977800058623524 14.92814826504246 12.387821925666907
21.01783077952518 2.7750869953565362 9.564114910109705 8.678628874058928
13.422873876088723 2.2105415894307336 5.57818962806219 5.634142658595795
7.846964666940791 1.713435307640177 2.842604964947977 3.2909243943526403
4.108874278286365 1.2874520695893872 1.1856608759312586 1.6357613327657166
1.8861506902739518 0.9361910776701525 0.3516017368756178 0.5983578757281811
0.7487281704002042 0.6038329574713956 0.043435210172078874 0.10146000275673009
0.2908786693755173 0.2928184762191057 -0.000666441137472564 -0.0012733657061158507
0.10512326769706595 0.10512326769706595 0.0 0.0
0.02394896243126135 0.02394896243126135 0.0 0.0
0.0029508002907317377 0.0029508002907317377 0.0 0.0
0.0009049949909066828 0.0009049949909066828 0.0 0.0
0.017489068616587555 0.017489068616587555 0.0 0.0
0.11000779993421009 0.11000779993421009 0.0 0.0
0.35843154048621306 0.3527417316018937 0.0006756971937525642 0.0050141116905668345
0.9909169004605762 0.7384215155671265 0.08444076840621444 0.1680546164872354
2.4042416361401364 1.1533081553478866 0.4821071279984618 0.7688263527937871
5.010798393158053 1.6304289999521255 1.4564537540195919 1.923915639186336
9.282173837571072 2.253156537740475 3.3139671413911205 3.7150501584394817
15.597246300313639 3.046548101578919 6.318270771054017 6.23242742768071
24.270070504610167 4.040964122977934 10.724331988811063 9.50477439282115
35.42671133119905 5.255396513951071 16.666953087717058 13.504361729530924
48.96075241692443 6.695350172001872 24.08453881120149 18.18086343372108
64.94729097057882 8.336787856524287 33.13031621069033 23.48018690336419
83.21750291908137 10.118273979923803 43.75580952268623 29.34341941647132
103.2753066700003 11.796466932054392 55.82556001229471 35.653279725651174
124.07578184287487 12.963221147661251 68.93915220134156 42.173408493872095
143.8904427607491 13.171333514466546 82.18825045842216 48.53085878786039
160.716051569899 12.342774867226773 94.23735915287101 54.13591754980123
172.4550768045308 11.090663927060538 103.1645347319195 58.1998781455508
168.38267469742826 4.386775779415197 104.92398072559195 59.07191819242111
234.73453032684597 74.9316856597062 102.14764326674462 57.6552014003952
168.38267469738622 4.3867757794042355 104.92398072557053 59.07191819241146
172.4550768044648 11.090663927058202 103.16453473187542 58.19987814553111
160.7160515698123 12.342774867227178 94.23735915281165 54.13591754977358
143.89044276066318 13.171333514484859 82.18825045835149 48.53085878782685
124.07578184276164 12.96322114764709 68.93915220127481 42.17340849383963
103.27530666989891 11.79646693205693 55.825560012225985 35.65327972561603
83.21750291897763 10.118273979918305 43.75580952262215 29.343419416437204
64.94729097048574 8.336787856524339 33.13031621063095 23.48018690333046
48.96075241683238 6.695350171990394 24.084538811151265 18.18086343369069
35.42671133112201 5.255396513941329 16.666953087676294 13.504361729504394
24.270070504550684 4.040964122970229 10.724331988780788 9.504774392799671
15.597246300272733 3.04654810157695 6.31827077103233 6.232427427663461
9.282173837542313 2.253156537737449 3.313967141377683 3.7150501584271813
5.010798393139644 1.6304289999475068 1.4564537540130238 1.9239156391791146
2.404241636131277 1.1533081553456248 0.482107127995749 0.7688263527899021
0.9909169004577403 0.7384215155662821 0.08444076840546269 0.16805461648599582
0.3584315404853768 0.35274173160110855 0.0006756971937439344 0.005014111690524218
0.11000779993379182 0.11000779993379182 0.0 0.0
0.017489068616653943 0.017489068616653943 0.0 0.0
0.0009049949909202129 0.0009049949909202129 0.0 0.0
CELL_DATA 800
SCALARS Stress float 6
LOOKUP_TABLE default
165.2857788618349 -517.2957149218558 -181.89543448950013 -109.38514017055671 0.0 0.0
401.5355517128994 -67.41774138032858 116.01572036568533 55.95131220940308 0.0 0.0
407.6282039483907 9.259932604451304 124.87025496094785 -3.1382164481150823 0.0 0.0
466.9832091943879 -13.141610674001747 144.2441122527588 -14.866816883649982 0.0 0.0
543.3932680851713 -18.774947274952687 198.61604458772115 -11.61044653219971 0.0 0.0
616.5656079469818 -13.927466998351264 270.40739158464737 -10.13325397558187 0.0 0.0
687.4730773159672 -7.402751272694481 328.1802064224188 -10.597021040007913 0.0 0.0
758.9051504452923 6.956061410141828 377.7109120022091 -12.164047829031844 0.0 0.0
832.6970628250625 29.131190193569694 427.51883100309175 -13.814753247353105 0.0 0.0
908.7985692853091 58.23930771685481 480.806914371252 -14.945317448729465 0.0 0.0
985.6946007238594 92.09505641798236 536.6090167442612 -15.430875727886672 0.0 0.0
1062.0496560945987 129.4451937374968 593.7799740074042 -15.36863379042597 0.0 0.0
1137.8870553698575 169.03302482911263 651.7149157148797 -15.156819248176536 0.0 0.0
1214.052104575424 211.44727943705098 711.1531584263474 -14.860054885790877 0.0 0.0
1291.1668765274057 257.38864518881996 772.7877392487266 -14.348377066245913 0.0 0.0
1368.5768676019047 306.4238709883481 836.0928397831545 -13.429953959286594 0.0 0.0
1443.9351906754066 356.7925761061016 899.0270294019926 -11.954739794177389 0.0 0.0
1514.5053274342777 406.5042070358123 959.2157098430675 -10.12553766408498 0.0 0.0
1578.8576705624255 455.07768971507966 1015.6462801992573 -9.258609080772832 0.0 0.0
1666.7127501820423 534.2558944700254 1098.6333217394358 -14.196293865807196 0.0 0.0
1666.7127501805703 534.2558944685557 1098.6333217383542 14.196293865842891 0.0 0.0
1578.857670561986 455.07768971467897 1015.646280198888 9.258609080718355 0.0 0.0
1514.5053274350348 406.50420703664827 959.2157098435708 10.125537664084714 0.0 0.0
1443.9351906758093 356.79257610661 899.0270294022394 11.954739794184697 0.0 0.0
1368.576867601442 306.42387098800907 836.0928397827469 13.429953959276254 0.0 0.0
1291.1668765269226 257.3886451884763 772.7877392483529 14.34837706625959 0.0 0.0
1214.052104574434 211.4472794362115 711.1531584256957 14.860054885735298 0.0 0.0
1137.8870553696067 169.03302482905622 651.7149157147179 15.156819248258653 0.0 0.0
1062.0496560945517 129.44519373767312 593.7799740074022 15.36863379040708 0.0 0.0
985.6946007223985 92.0950564167353 536.6090167432942 15.430875727621013 0.0 0.0
908.798569284148 58.239307715925975 480.8069143704043 14.945317448577232 0.0 0.0
832.697062824709 29.131190193477494 427.51883100280196 13.814753247424733 0.0 0.0
758.9051504449446 6.956061410064763 377.7109120019485 12.164047828944321 0.0 0.0
687.4730773155942 -7.402751272798483 328.18020642215254 10.597021039978676 0.0 0.0
616.5656079467093 -13.9274669982875 270.40739158438987 10.133253975564692 0.0 0.0
543.3932680853856 -18.77494727441662 198.61604458778672 11.610446532042278 0.0 0.0
466.9832091943506 -13.141610673673025 144.24411225278828 14.86681688356154 0.0 0.0
407.6282039483888 9.259932604648299 124.87025496100951 3.1382164481186208 0.0 0.0
401.5355517128405 -67.41774138025389 116.01572036565405 -55.95131220947417 0.0 0.0
165.2857788623697 -517.2957149213796 -181.89543448900093 109.38514017019709 0.0 0.0
65.0786591726401 -545.595212755805 -242.62330115625878 -157.03055085557887 0.0 0.0
266.539669734478 -56.31421817947755 63.141351510627935 9.952292001370429 0.0 0.0
357.2338289623856 30.766439403373397 116.39939144750657 -9.871524987822035 0.0 0.0
431.14915873212783 -11.022008694354511 128.7597177445364 -34.92477508107713 0.0 0.0
515.133500277095 -19.2428283202363 176.33391324089857 -33.03940751428612 0.0 0.0
592.8247083230395 -14.880012439755205 249.64940500081622 -29.983294031224272 0.0 0.0
667.4482794864643 -8.112207294254489 313.7864353639175 -30.80996873464049 0.0 0.0
739.8752812835016 5.920662919829631 366.2598042153639 -33.176633538340546 0.0 0.0
812.4204269796613 26.7414758009768 415.6228129426503 -35.69754698889156 0.0 0.0
885.5327734259258 53.29147764823804 466.4015118551584 -37.11011252460863 0.0 0.0
958.0537056899536 83.51712543280634 518.3112741989482 -37.25493548389435 0.0 0.0
1029.5166939200808 116.12198569903332 570.7054067562156 -36.62783819775817 0.0 0.0
1100.201933117553 151.41650821092605 623.9404135342297 -35.7529411556526 0.0 0.0
1171.077975198125 189.2766079493578 678.4844950963706 -34.75328029770714 0.0 0.0
1242.3892393787241 229.88978875139375 734.579298254804 -33.392661999341556 0.0 0.0
1313.6440633357965 273.1021391898207 791.9141908685858 -31.27123990488707 0.0 0.0
1383.6807816289916 318.2504684442713 849.5736755507417 -28.21934709818393 0.0 0.0
1451.4254885407076 365.1080732157121 906.8830258795823 -24.905717145457597 0.0 0.0
1522.0731365734378 420.167800888002 969.5839816725984 -22.808623754775788 0.0 0.0
1574.6308157010394 463.8005408314319 1017.5364607031879 -21.664484744096356 0.0 0.0
1574.630815700732 463.8005408311374 1017.5364607029161 21.664484744218655 0.0 0.0
1522.0731365725815 420.1678008871928 969.5839816718491 22.80862375485699 0.0 0.0
1451.4254885404594 365.1080732155364 906.8830258792636 24.905717145530502 0.0 0.0
1383.6807816294413 318.2504684448407 849.57367555101 28.21934709827642 0.0 0.0
1313.644063335405 273.10213918954514 791.9141908682368 31.271239904808276 0.0 0.0
1242.3892393781143 229.88978875090515 734.5792982543239 33.392661999257925 0.0 0.0
1171.0779751970374 189.27660794840875 678.4844950956433 34.75328029762956 0.0 0.0
1100.2019331171016 151.41650821066605 623.9404135338305 35.75294115569339 0.0 0.0
1029.5166939200844 116.12198569924576 570.7054067560748 36.62783819772025 0.0 0.0
958.0537056906425 83.5171254337397 518.3112741994004 37.2549354837991 0.0 0.0
885.5327734265675 53.29147764915837 466.4015118556377 37.11011252475939 0.0 0.0
812.4204269794898 26.741475801106958 415.6228129425556 35.69754698914868 0.0 0.0
739.8752812832026 5.920662919834555 366.2598042151821 33.17663353847901 0.0 0.0
667.4482794862207 -8.112207294191478 313.78643536370936 30.80996873465961 0.0 0.0
592.8247083230564 -14.880012439386718 249.6494050007292 29.98329403130412 0.0 0.0
515.1335002769496 -19.242828320049362 176.33391324079457 33.039407514354274 0.0 0.0
431.1491587317957 -11.022008694460672 128.7597177443985 34.92477508100281 0.0 0.0
357.23382896219516 30.766439403206338 116.3993914474026 9.871524987956937 0.0 0.0
266.53966973470364 -56.31421817897097 63.14135151084986 -9.952292001390479 0.0 0.0
65.07865917284707 -545.5952127555367 -242.62330115597632 157.03055085538008 0.0 0.0
13.439773429985621 -553.1034868964333 -265.3715709481195 -171.7920468345972 0.0 0.0
150.97509950586615 -47.13539004031333 31.151912839665854 -44.2695183789878 0.0 0.0
290.4285864659993 34.48397600862294 97.47376874238665 -33.58610452016174 0.0 0.0
384.8567694672919 -2.2901311791357477 115.39792513097456 -54.67913050728102 0.0 0.0
477.7875621457847 -17.981945403398907 154.0564689750919 -56.6245306738608 0.0 0.0
565.6319886313026 -17.39288345621977 224.40180093825865 -51.63382947219105 0.0 0.0
643.3046633562735 -7.9804683867251 296.13979093533436 -51.3592628450126 0.0 0.0
716.4630161771673 4.965586904286418 351.93402997973976 -54.10026956290906 0.0 0.0
788.1221233724659 24.42646878813124 401.5400177635021 -57.09087856552736 0.0 0.0
858.1717111074902 48.103576965979755 449.75709397538066 -58.51877634277756 0.0 0.0
926.4681778877523 74.4904748475926 497.76967202006847 -58.28161805231032 0.0 0.0
993.020962015567 103.02624684756508 545.7330252536048 -57.104204355642935 0.0 0.0
1058.8386439970736 133.5610954310004 594.1877295842601 -55.727645403485305 0.0 0.0
1124.2407988856337 166.60665825086022 643.6214021943213 -54.08048124764915 0.0 0.0
1189.5611514098805 201.70190651670566 693.9940488168608 -51.90843520040065 0.0 0.0
1254.734228471413 238.9535053576439 745.3252094012956 -48.80928714982288 0.0 0.0
1319.715231402418 278.95378788892384 797.8712060064731 -44.66246176549939 0.0 0.0
1385.943277195188 324.12044536493846 853.5350052358633 -40.1400565994724 0.0 0.0
1448.261727103135 370.4272409737954 907.7711046916711 -35.17426649704169 0.0 0.0
1492.3889572367557 404.6723778618011 946.8649436394561 -28.059542580050717 0.0 0.0
1492.3889572361218 404.67237786120256 946.8649436390107 28.059542580190964 0.0 0.0
1448.2617271022082 370.427240972906 907.7711046910251 35.17426649706918 0.0 0.0
1385.9432771948782 324.12044536470574 853.5350052356283 40.140056599502415 0.0 0.0
1319.7152314011855 278.95378788777265 797.8712060055468 44.66246176549718 0.0 0.0
1254.7342284703777 238.95350535671213 745.3252094005845 48.80928714978165 0.0 0.0
1189.5611514091484 201.7019065161171 693.9940488163387 51.908435200442895 0.0 0.0
1124.2407988846899 166.60665825007013 643.6214021935566 54.08048124765167 0.0 0.0
1058.8386439962883 133.56109543042945 594.1877295837376 55.727645403632025 0.0 0.0
993.0209620145095 103.02624684671065 545.7330252528691 57.10420435563155 0.0 0.0
926.4681778878112 74.490474847923 497.76967201999247 58.28161805246242 0.0 0.0
858.1717111069837 48.103576965746356 449.7570939750404 58.51877634289097 0.0 0.0
788.1221233724099 24.426468788352096 401.5400177634591 57.09087856550662 0.0 0.0
716.463016176644 4.965586904000389 351.9340299793984 54.100269562784746 0.0 0.0
643.3046633553122 -7.980468387373989 296.1397909346655 51.35926284510549 0.0 0.0
565.631988631283 -17.392883455891756 224.40180093814513 51.63382947216722 0.0 0.0
477.78756214560474 -17.981945403203166 154.0564689749965 56.62453067385055 0.0 0.0
384.8567694670919 -2.2901311789378154 115.39792513098004 54.67913050717026 0.0 0.0
290.428586466058 34.48397600866029 97.47376874241547 33.586104520084874 0.0 0.0
150.97509950609117 -47.1353900398631 31.151912839868423 44.2695183787444 0.0 0.0
13.439773430078532 -553.1034868961498 -265.3715709478762 171.79204683454515 0.0 0.0
-6.013123196698643 -540.7213877547774 -261.1275263065036 -173.9165638152779 0.0 0.0
87.68775596919112 -45.69262338122133 12.598539776390934 -90.15634406917421 0.0 0.0
227.1772904166684 31.587236018815965 77.6293579306453 -65.19059858361558 0.0 0.0
332.2556003024933 5.8550050930912585 101.45780339958799 -76.14418194618375 0.0 0.0
430.7322673798521 -15.681687047913266 132.04620113102163 -82.43517028097706 0.0 0.0
528.0073713169229 -18.064073960617684 196.05112514715893 -75.22147430622971 0.0 0.0
612.369429411498 -9.14684986111699 272.23202744079686 -72.65906554693161 0.0 0.0
688.4588597063752 4.618960288553289 334.4557762363654 -75.04145288978336 0.0 0.0
758.9808967812684 21.960293651163312 384.5455520543014 -77.96314138546494 0.0 0.0
826.1857916870556 42.69151070266702 430.54269438506094 -79.17889387717746 0.0 0.0
890.4632386886244 65.34386079954574 474.8946131668149 -78.51916737429515 0.0 0.0
952.5091037464642 89.68379316205903 518.5885290282769 -76.87977352012713 0.0 0.0
1013.0814624530536 115.70460487317207 562.2090728933421 -74.99958106648869 0.0 0.0
1073.2716380360935 143.711769276904 606.5587831426025 -72.81628009204428 0.0 0.0
1132.7054125656562 173.07205873450133 651.1574155549371 -69.95589602892095 0.0 0.0
1191.5264294292092 204.35426045137103 696.3488408610017 -66.09319555116704 0.0 0.0
1251.5809298926781 239.21442973450087 743.8571958452163 -61.223375022290654 0.0 0.0
1312.67623474276 278.66812236630716 794.109026015467 -55.36465351205671 0.0 0.0
1369.5596334696545 318.4303046739939 842.3773493163628 -47.300031643492204 0.0 0.0
1410.7409757147586 348.0316501367173 877.6884190728988 -34.809731782076504 0.0 0.0
1410.7409757148873 348.03165013685646 877.6884190729941 34.80973178216911 0.0 0.0
1369.559633469467 318.43030467389394 842.3773493162754 47.30003164378431 0.0 0.0
1312.676234743414 278.6681223670693 794.1090260160283 55.36465351221382 0.0 0.0
1251.5809298925224 239.21442973445244 743.8571958450465 61.223375022393384 0.0 0.0
1191.526429428062 204.35426045031386 696.348840860047 66.09319555110142 0.0 0.0
1132.7054125648265 173.07205873382628 651.1574155542291 69.95589602899709 0.0 0.0
1073.2716380352515 143.7117692761788 606.5587831419027 72.81628009192934 0.0 0.0
1013.0814624523123 115.70460487258924 562.2090728928758 74.99958106645445 0.0 0.0
952.5091037465558 89.68379316236886 518.5885290283624 76.87977352018976 0.0 0.0
890.4632386893737 65.34386080053679 474.8946131673077 78.5191673743123 0.0 0.0
826.1857916867827 42.6915107026457 430.54269438488035 79.17889387719829 0.0 0.0
758.9808967802401 21.960293650399876 384.5455520536333 77.96314138546714 0.0 0.0
688.4588597053232 4.618960287672948 334.4557762356346 75.04145288960684 0.0 0.0
612.3694294108284 -9.14684986145631 272.2320274402916 72.65906554699065 0.0 0.0
528.007371316751 -18.06407396042509 196.05112514698556 75.2214743061922 0.0 0.0
430.7322673794257 -15.681687048101345 132.04620113080364 82.4351702808726 0.0 0.0
332.2556003021707 5.855005092858512 101.4578033994286 76.14418194606205 0.0 0.0
227.17729041673164 31.587236018867472 77.62935793067972 65.19059858352165 0.0 0.0
87.68775596937873 -45.692623380787126 12.598539776577475 90.15634406902475 0.0 0.0
-6.0131231966160215 -540.7213877545611 -261.1275263062643 173.91656381512303 0.0 0.0
-10.339812188723428 -516.8001215587116 -242.06907935924028 -171.5106596938088 0.0 0.0
52.14018004148459 -45.425921148031364 2.0142776680359686 -125.88667789977717 0.0 0.0
172.81220073382195 25.802484322311386 59.58440551683998 -97.0507649430792 0.0 0.0
276.5117759820253 10.840016728680329 86.21010052786212 -99.0874570880534 0.0 0.0
373.33030321348974 -10.904576739251405 111.41950075651718 -108.13371964963879 0.0 0.0
479.2229207769897 -18.081398554233076 165.39766492508454 -102.00608299738974 0.0 0.0
573.9972785718674 -10.730167272235402 242.24607041923025 -95.71448427628799 0.0 0.0
654.1321400562337 3.8052803818792746 311.67562304998916 -96.03441849971694 0.0 0.0
724.3565422515215 19.592231127789788 364.0589901134378 -98.34848547049616 0.0 0.0
788.9128477352499 37.081984337074864 408.3105049208109 -99.14284525759086 0.0 0.0
849.5169279787046 56.06704859088382 449.3587675040207 -97.99641064157109 0.0 0.0
906.9413128788048 76.22153885935217 488.7852353456817 -95.89833757247496 0.0 0.0
962.5446360225951 97.67104466113918 527.7169436595042 -93.6633876588954 0.0 0.0
1017.0300256535904 120.64752592786613 566.7419197006554 -90.94391729642439 0.0 0.0
1070.766969971609 144.57839519782684 605.8141271780528 -87.48100276907795 0.0 0.0
1123.9614216776054 169.79609771785493 645.1991098029537 -83.14341771160171 0.0 0.0
1177.3683550554792 197.99261283015403 686.0792010156808 -77.72127146496491 0.0 0.0
1232.3738543639895 230.56120540451192 729.8547201799147 -70.69286658223741 0.0 0.0
1285.279576317139 264.5385375850366 773.2410346213057 -59.853829458453546 0.0 0.0
1326.63574319343 291.74783178945415 807.4240167299574 -42.49390598057453 0.0 0.0
1326.6357431933914 291.7478317894278 807.4240167299528 42.49390598057393 0.0 0.0
1285.2795763171869 264.5385375851761 773.2410346213575 59.85382945874008 0.0 0.0
1232.3738543636834 230.56120540433085 729.8547201796238 70.69286658247586 0.0 0.0
1177.3683550550236 197.99261282979285 686.0792010152796 77.72127146499037 0.0 0.0
1123.9614216771615 169.79609771749006 645.1991098026299 83.14341771156121 0.0 0.0
1070.766969971621 144.57839519802704 605.8141271781578 87.48100276919949 0.0 0.0
1017.0300256534208 120.647525927858 566.7419197005748 90.94391729645449 0.0 0.0
962.5446360225303 97.67104466121913 527.7169436593857 93.66338765884457 0.0 0.0
906.9413128781874 76.22153885902364 488.78523534520014 95.89833757269292 0.0 0.0
849.5169279774507 56.06704858981735 449.3587675031077 97.9964106415222 0.0 0.0
788.9128477346716 37.081984336667816 408.31050492037855 99.1428452574417 0.0 0.0
724.3565422512463 19.592231127810393 364.0589901132615 98.34848547054565 0.0 0.0
654.1321400559681 3.805280381946247 311.6756230497781 96.03441849972715 0.0 0.0
573.9972785713401 -10.730167272452512 242.24607041880228 95.71448427626954 0.0 0.0
479.22292077618 -18.081398554826613 165.3976649245378 102.00608299729637 0.0 0.0
373.3303032130385 -10.904576739490746 111.41950075631257 108.13371964951261 0.0 0.0
276.51177598178197 10.840016728454476 86.2101005277277 99.08745708792249 0.0 0.0
172.812200733799 25.802484322179552 59.58440551679355 97.05076494294683 0.0 0.0
52.14018004158066 -45.42592114789258 2.014277668106425 125.88667789967897 0.0 0.0
-10.33981218877841 -516.8001215586104 -242.0690793590738 171.51065969370353 0.0 0.0
-7.838673522606143 -485.1430202131372 -214.55796708044272 -167.87505135694425 0.0 0.0
30.77802606323918 -44.64878484661314 -4.161227635012187 -152.5034751455003 0.0 0.0
126.50228628481425 19.251871291137025 43.72624727278537 -125.15840733573052 0.0 0.0
220.15124126644898 12.800692857319323 69.88160377854693 -122.11648451830972 0.0 0.0
309.3132034073457 -4.752786642999485 92.20974139010613 -131.77341143957958 0.0 0.0
414.3627860298468 -16.91998768685649 133.37713156587645 -131.21035067703968 0.0 0.0
520.9481404543202 -11.242025569617633 205.59556677327154 -121.55474262439321 0.0 0.0
609.4262125928037 1.6553662414962567 280.20799563678463 -117.99798912605354 0.0 0.0
682.6018711664427 16.87923010866281 338.27258562807623 -118.51106844864046 0.0 0.0
745.240382343241 31.449669636985806 382.2474401290143 -118.41951710710802 0.0 0.0
802.1238418406443 46.5712508852919 420.2362091272792 -116.73714658019509 0.0 0.0
855.2606204408524 62.70485368894628 455.77863391600147 -114.20903152680663 0.0 0.0
905.6998133001268 79.68333444274724 490.02495843949947 -111.59886233866966 0.0 0.0
954.621209810407 97.41745183002925 523.7190904689667 -108.58155350758386 0.0 0.0
1002.9757261106845 116.10591186563084 557.5126467577367 -104.65211886560074 0.0 0.0
1049.9874670472475 135.67751521617978 591.0352783568662 -99.73551245262067 0.0 0.0
1096.390662715723 156.17762557316405 624.6322404552861 -94.00312741818026 0.0 0.0
1144.164375250998 180.26225384129677 660.5738410696875 -86.31333850169662 0.0 0.0
1193.3477973135862 208.30896427185647 699.1079285861059 -73.35405649157654 0.0 0.0
1237.30098931063 234.44264710388367 733.994705983572 -51.73376249482948 0.0 0.0
1237.3009893105086 234.44264710379056 733.994705983508 51.73376249483856 0.0 0.0
1193.3477973127824 208.30896427109292 699.1079285856202 73.35405649175459 0.0 0.0
1144.1643752513842 180.26225384185108 660.5738410701034 86.31333850198685 0.0 0.0
1096.390662715827 156.17762557334277 624.6322404553964 94.00312741817231 0.0 0.0
1049.987467046641 135.6775152156399 591.0352783564165 99.73551245251629 0.0 0.0
1002.9757261097764 116.10591186481 557.5126467570511 104.65211886555063 0.0 0.0
954.621209809717 97.41745182951385 523.719090468452 108.58155350767322 0.0 0.0
905.6998132998451 79.68333444264638 490.02495843929694 111.59886233870694 0.0 0.0
855.2606204406687 62.70485368892534 455.778633915836 114.20903152680356 0.0 0.0
802.1238418396213 46.571250884437546 420.2362091265587 116.73714658014231 0.0 0.0
745.2403823422493 31.449669636100367 382.24744012825454 118.41951710690924 0.0 0.0
682.6018711660483 16.87923010857297 338.27258562778974 118.51106844862133 0.0 0.0
609.4262125922418 1.6553662410867247 280.2079956362991 117.99798912586755 0.0 0.0
520.948140453683 -11.242025569938384 205.59556677279323 121.55474262437605 0.0 0.0
414.36278602981685 -16.919987686359253 133.37713156590198 131.21035067697088 0.0 0.0
309.3132034074322 -4.752786642273954 92.20974139034892 131.77341143940373 0.0 0.0
220.15124126635078 12.800692857283044 69.881603778508 122.11648451813319 0.0 0.0
126.5022862848639 19.251871291146102 43.726247272802986 125.15840733549993 0.0 0.0
30.778026063345393 -44.648784846372415 -4.161227634908105 152.50347514520993 0.0 0.0
-7.838673522604765 -485.1430202128615 -214.55796708019687 167.87505135687408 0.0 0.0
-2.265718451875429 -447.31948886803264 -182.16733470464115 -164.37345107462613 0.0 0.0
15.87391351043719 -43.945703069892744 -8.421593451062126 -171.16883578952127 0.0 0.0
85.79319577824577 13.07785939601504 29.66131655227824 -147.87142180516798 0.0 0.0
164.15315315992075 13.872219592043855 53.40448824790221 -143.27496973024896 0.0 0.0
241.628776322456 0.2982966800112381 72.99247928507856 -152.6591419256897 0.0 0.0
336.3971894074353 -12.834882345703466 102.77588919617914 -159.93741545756626 0.0 0.0
449.2495081121766 -11.68277279131938 162.7295273888022 -151.11597146480827 0.0 0.0
549.7579979242159 -0.24424830286114485 238.5475495581728 -142.1089296319219 0.0 0.0
628.8726133472819 13.049447365035444 302.8843404293415 -139.03690266993632 0.0 0.0
692.3899314833758 25.612617132605898 349.9985427723303 -137.23715859571305 0.0 0.0
745.9653851867869 36.87383614538167 385.98198180145823 -134.77271030820214 0.0 0.0
795.0055261452492 49.20546088863776 418.19308747358366 -131.8106267188745 0.0 0.0
840.3459192903065 61.694493875186346 447.92730785975385 -128.88025989659727 0.0 0.0
883.3906987725173 74.38637114048024 476.322447005955 -125.65129989715395 0.0 0.0
925.6617543167528 87.51174498405783 504.3405724996611 -121.49769488626778 0.0 0.0
967.9629387050611 101.93279930900775 532.9773435216608 -116.08441077170869 0.0 0.0
1007.0519115310508 115.03063163235959 559.3365100368026 -109.81124650474233 0.0 0.0
1045.5179882470127 128.79256053757084 585.5337905421072 -102.08652166826114 0.0 0.0
1090.1962820677008 148.77009074839802 617.7260493912464 -88.32544046216816 0.0 0.0
1139.1707064140228 174.57967840283345 654.8404896954231 -63.453136898924555 0.0 0.0
1139.1707064146824 174.57967840350184 654.8404896958023 63.4531368990575 0.0 0.0
1090.1962820683982 148.77009074931237 617.7260493916119 88.32544046252791 0.0 0.0
1045.5179882470006 128.79256053775032 585.5337905420976 102.08652166855099 0.0 0.0
1007.05191153087 115.03063163225278 559.3365100365706 109.81124650480018 0.0 0.0
967.9629387045951 101.93279930869721 532.9773435213025 116.08441077180416 0.0 0.0
925.6617543164491 87.5117449838209 504.3405724994984 121.49769488617933 0.0 0.0
883.3906987723574 74.38637114042587 476.32244700591605 125.65129989712361 0.0 0.0
840.3459192893762 61.69449387438519 447.9273078591683 128.8802598966003 0.0 0.0
795.0055261446638 49.205460888203305 418.1930874731428 131.81062671886238 0.0 0.0
745.9653851863047 36.8738361450104 385.98198180113496 134.7727103080358 0.0 0.0
692.3899314830916 25.61261713240377 349.9985427721215 137.23715859548247 0.0 0.0
628.8726133466552 13.0494473645428 302.8843404288874 139.03690266980752 0.0 0.0
549.7579979235619 -0.2442483033088294 238.5475495576573 142.10892963182846 0.0 0.0
449.2495081118208 -11.682772791180767 162.72952738857512 151.11597146486122 0.0 0.0
336.3971894067714 -12.834882346182587 102.77588919580936 159.93741545741938 0.0 0.0
241.62877632218328 0.29829667986422237 72.99247928495707 152.6591419255485 0.0 0.0
164.1531531598935 13.872219592182473 53.4044882479366 143.27496973004222 0.0 0.0
85.79319577825751 13.077859395971272 29.661316552268634 147.87142180500146 0.0 0.0
15.873913510464465 -43.94570306977596 -8.421593451018841 171.16883578931248 0.0 0.0
-2.2657184518205256 -447.3194888678048 -182.1673347044035 164.37345107448326 0.0 0.0
2.7875949797817015 -404.7843155304719 -149.38799240046785 -161.7915792922431 0.0 0.0
2.0036093488570943 -43.903856194171986 -12.569423397742034 -182.10769663457185 0.0 0.0
48.57866803324235 8.122322747416604 17.00989416295014 -165.16563053690317 0.0 0.0
109.39301046597907 15.065690716098171 37.33701848194483 -160.89962843135794 0.0 0.0
171.64484081948123 3.4788544978537495 52.78617161673647 -171.0853222373609 0.0 0.0
245.4353845275496 -6.360582535382884 74.0327085107787 -183.03412243953102 0.0 0.0
350.612005086547 -9.882589046896678 116.23721757551299 -183.2437667716747 0.0 0.0
464.7781124170464 -2.0788668576988107 184.05367986713117 -170.62169622019564 0.0 0.0
555.6494709964436 8.645803905620937 252.4359548170396 -161.3292426417613 0.0 0.0
622.7540839367775 18.962867542402122 305.0979899884566 -156.06360086963437 0.0 0.0
675.6171027467926 26.902075886288603 342.4751605945507 -152.40974828600594 0.0 0.0
720.4378749819342 35.498007981981914 372.3739381580788 -148.78475956274428 0.0 0.0
760.7256976174049 43.97027419446216 398.3819128823029 -145.46592255857212 0.0 0.0
797.7708302046976 51.63898361294702 421.679738380447 -142.13404078050328 0.0 0.0
833.7241960148924 59.11241629135937 443.9170520801347 -138.10643709673164 0.0 0.0
870.4270388436369 67.79209090536898 466.90257181259943 -132.37161467643338 0.0 0.0
905.7289053728348 75.93251152223817 488.9888817931889 -125.19221998856635 0.0 0.0
933.7699838563726 78.2349048239436 504.4994925369591 -117.49505483784519 0.0 0.0
968.3733674711838 84.860606261635 524.9134256084742 -104.85822644197549 0.0 0.0
1023.9686009179628 109.71109022943321 564.5783849570392 -78.98222279347146 0.0 0.0
1023.9686009187811 109.71109023040077 564.578384957573 78.98222279391909 0.0 0.0
968.3733674715841 84.86060626221479 524.9134256087912 104.85822644228568 0.0 0.0
933.7699838552982 78.23490482301975 504.49949253627136 117.49505483808629 0.0 0.0
905.728905371404 75.93251152083445 488.9888817922222 125.1922199885638 0.0 0.0
870.4270388432165 67.79209090504472 466.9025718122315 132.37161467642304 0.0 0.0
833.7241960139271 59.1124162904035 443.9170520793323 138.1064370966056 0.0 0.0
797.7708302034496 51.63898361172443 421.67973837954054 142.1340407804841 0.0 0.0
760.7256976172316 43.97027419454969 398.3819128821733 145.46592255873637 0.0 0.0
720.4378749815867 35.4980079818239 372.3739381578248 148.78475956278382 0.0 0.0
675.6171027464667 26.902075886093044 342.47516059427153 152.40974828595506 0.0 0.0
622.7540839361901 18.96286754205832 305.0979899880203 156.06360086958605 0.0 0.0
555.6494709964699 8.645803906101243 252.4359548170342 161.32924264186497 0.0 0.0
464.77811241690296 -2.0788668573145657 184.0536798670358 170.62169622028281 0.0 0.0
350.61200508607936 -9.882589046838925 116.23721757529837 183.24376677164003 0.0 0.0
245.435384527419 -6.3605825351388745 74.0327085107971 183.03412243929643 0.0 0.0
171.64484081946773 3.4788544981268625 52.78617161681687 171.08532223725518 0.0 0.0
109.39301046575832 15.065690715969385 37.33701848184336 160.89962843117385 0.0 0.0
48.57866803329129 8.122322747463347 17.009894162979357 165.16563053671877 0.0 0.0
2.003609348707477 -43.90385619425615 -12.569423397813559 182.1076966343594 0.0 0.0
2.7875949798194384 -404.7843155301242 -149.38799240024036 161.79157929220764 0.0 0.0
3.2292766631528664 -358.2994112935154 -120.64203586098384 -158.31908076330197 0.0 0.0
-14.545075935566496 -45.694465683273435 -18.070699612568006 -187.68962296833905 0.0 0.0
13.690468433293992 5.219508854607214 5.672697344513382 -177.27812810817468 0.0 0.0
56.169824293380344 16.152900730356897 21.696699240762015 -174.39731883188827 0.0 0.0
99.67580593473929 7.074800294748757 32.187879846252244 -184.81130426276718 0.0 0.0
148.23461275967628 -1.662486014503351 45.038095335439685 -200.45218222719294 0.0 0.0
222.3265460588657 -4.133159362704976 70.08579514355154 -209.81965586800217 0.0 0.0
331.3764391062036 -1.8211506354211515 116.31541104703697 -203.98978130079763 0.0 0.0
439.6886995678078 4.729661640243835 177.76362715804507 -188.8288942197928 0.0 0.0
517.6901773834013 11.075836522867657 233.60449150222132 -176.77812125654083 0.0 0.0
572.6301914453952 17.044559920599816 275.98611732836036 -170.02807381732774 0.0 0.0
614.5057948038419 21.434866920055427 306.4170496726171 -165.41733914218744 0.0 0.0
650.0255583582976 26.2442707772 330.9526028309107 -161.52039220486367 0.0 0.0
680.9304993057264 29.50312940972745 350.66136197762245 -157.9334778709853 0.0 0.0
709.6432418971709 31.273212680515115 367.3667717125203 -154.08911266335005 0.0 0.0
739.3798260803809 33.018680824521184 383.7937598824425 -148.84953296720786 0.0 0.0
772.9195250066857 36.55167030698232 402.6282825815538 -140.7950044079608 0.0 0.0
800.5913155001025 34.65250152619001 416.20994087527123 -131.55337003015498 0.0 0.0
815.6233528530687 17.21528512859237 415.21497344956737 -121.84591693678735 0.0 0.0
874.9625431120518 33.860338241521134 451.8362417509215 -100.55671282669536 0.0 0.0
874.962543112293 33.86033824193913 451.8362417511771 100.55671282700446 0.0 0.0
815.6233528520902 17.215285127649054 415.2149734489486 121.84591693694614 0.0 0.0
800.5913155002952 34.65250152652976 416.20994087534257 131.55337003045668 0.0 0.0
772.9195250066592 36.551670307268665 402.62828258154957 140.79500440815136 0.0 0.0
739.3798260802677 33.01868082452151 383.7937598824712 148.84953296718734 0.0 0.0
709.643241897714 31.27321268104646 367.3667717128914 154.08911266323645 0.0 0.0
680.9304993059108 29.503129410103156 350.6613619776943 157.9334778710551 0.0 0.0
650.0255583576303 26.244270776547182 330.9526028304424 161.52039220488766 0.0 0.0
614.5057948033794 21.43486691987195 306.41704967232135 165.41733914226506 0.0 0.0
572.6301914455198 17.04455992091404 275.98611732836616 170.0280738173051 0.0 0.0
517.6901773825323 11.075836521997196 233.60449150156003 176.77812125635526 0.0 0.0
439.68869956704594 4.729661639514006 177.76362715748294 188.82889421971362 0.0 0.0
331.376439105507 -1.8211506359618426 116.31541104658127 203.98978130070753 0.0 0.0
222.32654605835222 -4.133159362988489 70.08579514329381 209.81965586792 0.0 0.0
148.23461275925084 -1.6624860151339584 45.0380953351218 200.4521822268258 0.0 0.0
99.67580593462455 7.074800294553685 32.18787984615961 184.811304262441 0.0 0.0
56.16982429328931 16.15290073042422 21.696699240757965 174.39731883164234 0.0 0.0
13.690468433302517 5.219508854683995 5.6726973445390945 177.27812810798383 0.0 0.0
-14.54507593568268 -45.69446568324152 -18.07069961259476 187.68962296816073 0.0 0.0
3.229276663168662 -358.29941129324743 -120.64203586082424 158.31908076314966 0.0 0.0
-2.151974393545647 -308.7093309905574 -97.43288422178688 -151.55075823617463 0.0 0.0
-33.49542861535682 -49.500279144302894 -24.89659358426062 -190.3395425580597 0.0 0.0
-19.589115447264405 4.2646078848217375 -4.598193501047914 -184.76300787391907 0.0 0.0
4.420727680850328 17.09695407662243 6.458656722173323 -183.13664003479235 0.0 0.0
27.271930815976866 11.048665076058093 11.549752985815719 -193.0245132952387 0.0 0.0
47.78070388900384 2.882685972595247 15.546804561139794 -210.197950557288 0.0 0.0
74.25266436839884 -0.4801163842947451 23.325977083458554 -225.21586840495237 0.0 0.0
120.08835261740009 0.5458075628976253 39.3272736239032 -229.59256440038538 0.0 0.0
193.0051108585709 4.182272012170351 66.99261843314896 -219.10973350434546 0.0 0.0
269.98381869825755 6.139503160320096 100.95189977198795 -203.5274757549548 0.0 0.0
334.92013506709964 8.650781505561717 137.5380921592637 -190.63387891100822 0.0 0.0
382.517537660442 8.600631840149646 168.59848383572543 -182.78711820131272 0.0 0.0
415.1030295128524 9.43259943541699 193.3634506222654 -176.83911059046684 0.0 0.0
440.0181286168399 8.054611778051623 212.27630686060462 -172.26677255302576 0.0 0.0
462.7565004728702 4.277388746056857 227.1462405330195 -168.2767517557909 0.0 0.0
489.7652132325155 -1.5701108142284 240.87697346846392 -164.0162396049485 0.0 0.0
526.3033414101336 -6.215739758668406 257.88713032187604 -157.2574290671026 0.0 0.0
573.2023192472002 -6.690606401956586 281.41379411182703 -146.02978198923296 0.0 0.0
598.9302670185027 -32.26046819962468 283.4077985635321 -133.89069020337493 0.0 0.0
629.6453028048954 -73.6835721562243 275.43312267016177 -127.48280571041447 0.0 0.0
629.64530280532 -73.6835721557664 275.4331226704281 127.48280571057288 0.0 0.0
598.9302670195672 -32.260468198176966 283.4077985643274 133.8906902038511 0.0 0.0
573.2023192467681 -6.690606402326182 281.41379411156083 146.02978198969828 0.0 0.0
526.3033414093651 -6.215739759393102 257.8871303214263 157.25742906717485 0.0 0.0
489.76521323160335 -1.5701108154135568 240.8769734677316 164.01623960480657 0.0 0.0
462.75650047257767 4.2773887459154025 227.14624053285735 168.27675175584534 0.0 0.0
440.0181286167283 8.054611777892433 212.2763068605281 172.2667725531516 0.0 0.0
415.10302951277254 9.432599435263512 193.36345062216657 176.83911059062035 0.0 0.0
382.51753766025 8.600631840117586 168.59848383563042 182.78711820134316 0.0 0.0
334.92013506631275 8.650781504148952 137.538092158549 190.6338789107965 0.0 0.0
269.98381869814796 6.139503160266415 100.95189977188758 203.52747575491102 0.0 0.0
193.00511085844855 4.182272012469944 66.99261843317984 219.10973350444158 0.0 0.0
120.08835261736226 0.5458075631936055 39.327273623964246 229.5925644003667 0.0 0.0
74.25266436851646 -0.4801163838775411 23.32597708361761 225.21586840487186 0.0 0.0
47.780703889111244 2.8826859728737615 15.546804561253488 210.19795055701812 0.0 0.0
27.271930816051967 11.04866507616439 11.549752985870247 193.0245132950172 0.0 0.0
4.420727680909842 17.09695407666936 6.45865672220566 183.13664003463717 0.0 0.0
-19.58911544729567 4.264607884874731 -4.598193501041889 184.76300787379256 0.0 0.0
-33.49542861549665 -49.50027914442861 -24.89659358434203 190.33954255794646 0.0 0.0
-2.151974393590244 -308.7093309902988 -97.43288422169293 151.55075823600092 0.0 0.0
-14.172613028056787 -259.1112417345338 -82.29488226355309 -140.9660795925635 0.0 0.0
-51.33265057827011 -52.076576291983855 -31.023980799283606 -190.36962625370168 0.0 0.0
-51.70476535620134 3.9172017993539185 -14.346406491103181 -188.1734496885581 0.0 0.0
-45.7784031907809 17.916214783732634 -8.379075907333963 -186.9596069263898 0.0 0.0
-44.27729282146771 14.92372665199307 -8.879124557763802 -195.21036234257602 0.0 0.0
-53.62259585587508 7.526940933131584 -14.206088953077249 -211.16338608435603 0.0 0.0
-76.47783633286596 2.6391151348054 -23.38548975268924 -225.33316356472983 0.0 0.0
-120.75957707005404 -0.14244812005912522 -39.422443760782144 -229.76020342014132 0.0 0.0
-192.8388763393844 -4.01662059227063 -66.88652780501327 -219.19032548579796 0.0 0.0
-269.746788712855 -5.9722171448402825 -100.81403725144425 -203.50589373104611 0.0 0.0
-335.08605272331613 -7.464770029736897 -137.07688395448255 -190.52950530093818 0.0 0.0
-383.95369343859244 -6.984082707725221 -168.57978387540086 -182.34207148332885 0.0 0.0
-419.2436005423798 -8.876764541044963 -194.89418911652848 -176.30511347510168 0.0 0.0
-446.42004494495035 -13.422232477613306 -217.51121113738293 -172.50517859766802 0.0 0.0
-465.3621607949508 -21.69415047613697 -237.1382456563579 -170.9252910605725 0.0 0.0
-473.45914925047373 -32.96663314623953 -252.96647944585706 -171.16120619021459 0.0 0.0
-461.4608579571787 -44.96151439285694 -261.33251616076626 -171.7748315462243 0.0 0.0
-400.12262630808146 -40.42558537471521 -246.78817940065633 -171.82924104318755 0.0 0.0
-217.54296078030467 -35.64939661780292 -183.5022133839536 -174.5593948697291 0.0 0.0
-5.949164930558169 -175.28357460680778 -67.85460521402189 -158.47073072904868 0.0 0.0
-5.949164930217478 -175.28357460637113 -67.85460521381657 158.4707307294484 0.0 0.0
-217.5429607800677 -35.64939661734735 -183.50221338375746 174.55939487015434 0.0 0.0
-400.12262630807714 -40.425585374713734 -246.7881794006755 171.82924104346029 0.0 0.0
-461.46085795818897 -44.96151439436602 -261.332516161507 171.77483154640396 0.0 0.0
-473.4591492498346 -32.96663314580357 -252.96647944543486 171.16120619028476 0.0 0.0
-465.36216079485104 -21.694150476153936 -237.13824565624608 170.92529106054596 0.0 0.0
-446.42004494453676 -13.422232477441327 -217.5112111371094 172.50517859773112 0.0 0.0
-419.24360054187315 -8.876764540657803 -194.89418911616045 176.30511347509469 0.0 0.0
-383.95369343816697 -6.98408270808406 -168.57978387527342 182.34207148334315 0.0 0.0
-335.08605272270097 -7.464770029758213 -137.07688395416102 190.52950530095717 0.0 0.0
-269.746788712002 -5.972217144739211 -100.81403725105201 203.50589373092686 0.0 0.0
-192.83887633927037 -4.016620592947913 -66.88652780513006 219.19032548587006 0.0 0.0
-120.75957706942586 -0.14244811956272763 -39.42244376043568 229.76020342014652 0.0 0.0
-76.4778363325826 2.6391151348973763 -23.385489752565004 225.3331635645281 0.0 0.0
-53.62259585595074 7.526940932574026 -14.206088953262825 211.16338608415083 0.0 0.0
-44.277292821276745 14.923726652218791 -8.879124557639257 195.210362342362 0.0 0.0
-45.77840319058477 17.916214783900774 -8.37907590722639 186.95960692626647 0.0 0.0
-51.70476535613245 3.9172017995860644 -14.34640649101565 188.17344968834533 0.0 0.0
-51.33265057814305 -52.07657629169236 -31.023980799160913 190.3696262535663 0.0 0.0
-14.17261302809288 -259.11124173425117 -82.29488226349947 140.96607959249414 0.0 0.0
-24.082822995299086 -211.69093616687837 -70.72897013068489 -127.92086095957498 0.0 0.0
-66.25054227426365 -51.685453228827726 -35.38334141709377 -186.67917123942468 0.0 0.0
-82.46219294537636 3.4525204730094683 -23.72565450155982 -187.64966079180167 0.0 0.0
-94.38203294688137 18.54156413867071 -22.79478381582184 -185.97146606156755 0.0 0.0
-114.26732500474651 17.957565520537088 -29.166452406780778 -191.1045235741371 0.0 0.0
-153.0281444868834 11.593350596561578 -43.67071843616976 -202.81126135310456 0.0 0.0
-223.8539229013476 6.207991985501142 -70.06941731076165 -210.77907126131896 0.0 0.0
-331.20203709846044 2.123254518111949 -116.27685504105989 -204.3856849077044 0.0 0.0
-439.348278685722 -4.61628502807725 -177.6060301612346 -188.97091932458702 0.0 0.0
-517.3949896169211 -10.775985819575219 -233.3639338864482 -176.74298241407556 0.0 0.0
-572.235129590441 -16.149715777520356 -275.452986098897 -169.7885739712362 0.0 0.0
-614.4514413387126 -19.99081442215774 -305.7593854813577 -164.70255275698727 0.0 0.0
-651.4859275487133 -25.725191127544136 -331.3201700440454 -160.41998147204924 0.0 0.0
-685.7649042973517 -33.984886765875714 -354.95140700772066 -157.7284922392904 0.0 0.0
-718.4406940959169 -46.176578152018664 -378.7879336330674 -157.47639285253916 0.0 0.0
-747.851836508019 -61.666388940104184 -402.305941170704 -159.73348903436397 0.0 0.0
-769.1268831888574 -77.49643072749956 -422.0258124670605 -164.86038690111812 0.0 0.0
-778.1893036260756 -90.90302092274965 -434.45398808607325 -172.95604096184496 0.0 0.0
-813.384713706533 -145.2208361715399 -480.2819212840726 -181.9911861853892 0.0 0.0
-815.4093276569143 -230.71904801717406 -525.7530349048774 -200.87900308198718 0.0 0.0
-815.4093276569263 -230.71904801740777 -525.7530349050377 200.87900308217056 0.0 0.0
-813.3847137064131 -145.22083617150875 -480.28192128407045 181.99118618562034 0.0 0.0
-778.189303626838 -90.90302092395083 -434.45398808663685 172.95604096222831 0.0 0.0
-769.1268831891854 -77.49643072829002 -422.0258124673018 164.86038690146069 0.0 0.0
-747.8518365089703 -61.666388941403 -402.30594117142743 159.73348903446762 0.0 0.0
-718.4406940964211 -46.17657815281186 -378.7879336334686 157.47639285264654 0.0 0.0
-685.764904298087 -33.98488676688858 -354.95140700823197 157.72849223944138 0.0 0.0
-651.4859275481149 -25.725191127351465 -331.32017004372506 160.419981472212 0.0 0.0
-614.4514413381921 -19.990814421754038 -305.75938548094734 164.70255275689172 0.0 0.0
-572.235129590835 -16.149715778343925 -275.45298609908264 169.7885739712623 0.0 0.0
-517.394989617053 -10.77598582048223 -233.36393388656046 176.74298241425777 0.0 0.0
-439.34827868523735 -4.616285027990582 -177.60603016090454 188.97091932457815 0.0 0.0
-331.20203709739883 2.123254518833221 -116.2768550404281 204.38568490775978 0.0 0.0
-223.85392290103488 6.207991985136866 -70.0694173107378 210.77907126121158 0.0 0.0
-153.02814448642852 11.59335059682113 -43.670718435954406 202.8112613528643 0.0 0.0
-114.26732500434218 17.957565520932597 -29.16645240653979 191.10452357395332 0.0 0.0
-94.38203294659117 18.5415641390447 -22.79478381562558 185.97146606130218 0.0 0.0
-82.46219294538515 3.452520472999615 -23.72565450156892 187.64966079157065 0.0 0.0
-66.25054227430293 -51.68545322897586 -35.38334141715615 186.6791712392578 0.0 0.0
-24.08282299531573 -211.6909361667201 -70.72897013064437 127.92086095948129 0.0 0.0
-27.74048356491611 -167.29515174579325 -58.510690593212814 -113.4850685342154 0.0 0.0
-78.56067079288498 -48.82039970949395 -38.21238695689149 -178.97431460774473 0.0 0.0
-111.52577643438491 2.981670697259612 -32.57557547726023 -183.03405219310775 0.0 0.0
-141.26027858422017 18.654269598553824 -36.85543323312261 -180.0247435496585 0.0 0.0
-182.16490582593138 19.667364920814826 -49.28936198807964 -181.2369380349781 0.0 0.0
-247.95406166921595 15.320078965472563 -72.59603517735948 -186.63896568163756 0.0 0.0
-350.1473141510309 11.622857485484076 -115.93057020887878 -184.50884478675675 0.0 0.0
-464.0643481399767 2.376395649404671 -183.74653873228235 -171.1725774195818 0.0 0.0
-555.4260660064642 -8.572602848428907 -252.30420799892232 -161.37805361289307 0.0 0.0
-622.5557504488945 -18.74367301598913 -304.9315460211405 -156.036812330813 0.0 0.0
-675.311052532443 -26.256730201507565 -342.05642280184156 -152.18212610448495 0.0 0.0
-720.2412042898748 -34.326266135775555 -371.7193495617521 -147.95917257511746 0.0 0.0
-761.5799123137933 -43.327188129746105 -398.40390753668726 -143.96356904657657 0.0 0.0
-801.5723336007075 -54.85730748768839 -424.9432065079145 -141.2004601267812 0.0 0.0
-841.8165689928574 -70.84331530119627 -453.51823968085995 -140.9482227298947 0.0 0.0
-880.5370606900739 -90.75710865158496 -483.28351147163767 -143.90075413597594 0.0 0.0
-914.9070284882094 -112.31888082211273 -511.72073699617516 -149.83728260832248 0.0 0.0
-953.5397213898511 -145.5177260918664 -548.0588780351356 -156.37607273145667 0.0 0.0
-996.4102576925202 -194.5951282476271 -594.4035235465677 -162.38448044468433 0.0 0.0
-1090.2837116937224 -327.6118962990005 -706.8811413372403 -170.73095576356187 0.0 0.0
-1090.2837116945216 -327.61189630005174 -706.8811413378111 170.73095576393368 0.0 0.0
-996.4102576918717 -194.59512824725496 -594.4035235462338 162.38448044501513 0.0 0.0
-953.5397213895064 -145.5177260916452 -548.0588780348826 156.37607273163667 0.0 0.0
-914.9070284877139 -112.31888082192611 -511.72073699584246 149.83728260856984 0.0 0.0
-880.5370606889817 -90.75710865051704 -483.28351147074227 143.90075413587988 0.0 0.0
-841.8165689922644 -70.84331530087951 -453.51823968044323 140.94822273008498 0.0 0.0
-801.5723336010078 -54.85730748821901 -424.9432065080864 141.2004601268813 0.0 0.0
-761.5799123140064 -43.3271881302383 -398.40390753687836 143.96356904665606 0.0 0.0
-720.241204289237 -34.3262661353188 -371.7193495613258 147.9591725750845 0.0 0.0
-675.3110525319697 -26.256730201189118 -342.056422801491 152.18212610436984 0.0 0.0
-622.555750447871 -18.74367301517258 -304.9315460204699 156.03681233072504 0.0 0.0
-555.4260660062587 -8.572602848514947 -252.3042079987021 161.37805361285783 0.0 0.0
-464.06434813949284 2.3763956493410685 -183.74653873194606 171.1725774196576 0.0 0.0
-350.1473141503693 11.622857485672741 -115.93057020850767 184.50884478668706 0.0 0.0
-247.9540616686524 15.320078965667438 -72.59603517711871 186.63896568144452 0.0 0.0
-182.16490582585567 19.667364920372414 -49.289361988191686 181.23693803483755 0.0 0.0
-141.2602785842094 18.654269598150563 -36.85543323324359 180.0247435494914 0.0 0.0
-111.5257764343272 2.9816706972761216 -32.57557547724424 183.0340521930063 0.0 0.0
-78.56067079292423 -48.820399709651774 -38.212386956951136 178.97431460768354 0.0 0.0
-27.740483564924517 -167.29515174564207 -58.51069059316997 113.4850685341727 0.0 0.0
-29.089050672061923 -126.86654083945125 -46.78667745345395 -98.48502144402035 0.0 0.0
-88.84184604090748 -43.73666555568626 -39.77341568436771 -166.92931138546982 0.0 0.0
-138.734620923931 2.486415213114988 -40.877636011473236 -174.1411134519661 0.0 0.0
-186.27674336066286 17.743928306742493 -50.683734953835426 -169.3082979486474 0.0 0.0
-246.81731673682958 20.581566326659573 -68.74945211331166 -166.14526813171258 0.0 0.0
-335.0791743352646 19.833682871850932 -101.38916732911972 -164.06109827085152 0.0 0.0
-447.53340575126646 13.443342972728558 -161.77923879332562 -152.7837904222008 0.0 0.0
-549.2931673613781 0.401555275012214 -238.2487752873696 -142.38348549927275 0.0 0.0
-628.8167735452628 -13.06584776016598 -302.866481343844 -139.03024439255333 0.0 0.0
-692.2720662147968 -25.473724333896328 -349.8968384030251 -137.2217589595411 0.0 0.0
-745.8259322104293 -36.48569731343059 -385.73888267626114 -134.55824158029472 0.0 0.0
-794.9414031301993 -48.44746125391002 -417.7920373427883 -130.95508688761115 0.0 0.0
-840.7255570361654 -60.939708471246405 -447.70301937212935 -127.15662912678106 0.0 0.0
-885.3682246371475 -75.77678523953051 -477.8756564434335 -124.22073451697679 0.0 0.0
-930.7189818754564 -94.93456643380483 -510.37420041679695 -123.83825949215803 0.0 0.0
-977.6570461437259 -120.13113066811218 -546.670768979809 -126.91136655795485 0.0 0.0
-1027.0271980762036 -153.12067498999633 -588.098765879477 -132.42874808316628 0.0 0.0
-1080.522183475909 -196.78183053551507 -636.8945448971945 -137.71125389768522 0.0 0.0
-1150.61178864055 -267.2956435881092 -707.0598784901415 -139.51096418424245 0.0 0.0
-1245.6613362928667 -391.3754027609922 -816.404032567578 -142.53542192840808 0.0 0.0
-1245.6613362925596 -391.3754027608541 -816.4040325674227 142.53542192868198 0.0 0.0
-1150.6117886394015 -267.2956435871139 -707.0598784893914 139.5109641845359 0.0 0.0
-1080.5221834750666 -196.7818305347807 -636.8945448965254 137.71125389785743 0.0 0.0
-1027.0271980776488 -153.12067499183524 -588.0987658804341 132.42874808356189 0.0 0.0
-977.657046144135 -120.1311306686451 -546.6707689800614 126.91136655792843 0.0 0.0
-930.7189818751928 -94.93456643377034 -510.3742004167236 123.83825949228154 0.0 0.0
-885.3682246371184 -75.7767852396285 -477.8756564433653 124.2207345169907 0.0 0.0
-840.7255570368948 -60.93970847237135 -447.7030193725851 127.15662912702871 0.0 0.0
-794.9414031301984 -48.44746125419698 -417.7920373427819 130.95508688766895 0.0 0.0
-745.8259322107674 -36.48569731402919 -385.738882676473 134.55824158025936 0.0 0.0
-692.2720662143621 -25.47372433376716 -349.8968384027394 137.22175895950232 0.0 0.0
-628.816773545346 -13.06584776058962 -302.86648134381664 139.03024439253778 0.0 0.0
-549.2931673615551 0.40155527415033987 -238.2487752874198 142.38348549949433 0.0 0.0
-447.5334057508368 13.44334297264822 -161.7792387930364 152.78379042220547 0.0 0.0
-335.0791743347829 19.833682871784887 -101.38916732893863 164.0610982707342 0.0 0.0
-246.81731673661335 20.581566326518626 -68.74945211328972 166.14526813158744 0.0 0.0
-186.27674336039513 17.74392830687452 -50.683734953721704 169.30829794847386 0.0 0.0
-138.73462092379674 2.4864152130815054 -40.87763601144914 174.14111345175786 0.0 0.0
-88.84184604091942 -43.73666555576495 -39.77341568439503 166.9293113852846 0.0 0.0
-29.08905067205485 -126.86654083938494 -46.786677453431935 98.48502144393069 0.0 0.0
-29.91118392092227 -91.02973717281205 -36.28227632812029 -83.10896405522722 0.0 0.0
-97.96827095779312 -37.00772868239455 -40.4927998920563 -150.91002196774798 0.0 0.0
-164.1939123886164 2.084816689657081 -48.63187738565441 -160.77439931897908 0.0 0.0
-229.64377017900244 16.04075277174527 -64.16246045844738 -154.27381045706278 0.0 0.0
-308.14750677538154 21.773800964590773 -87.53746207651493 -146.8723698551996 0.0 0.0
-411.3192371838269 22.22737634135258 -131.73348652771634 -135.9793502031253 0.0 0.0
-519.299241179378 12.721894712981793 -204.4042762440555 -122.55296887065595 0.0 0.0
-609.3273526890665 -1.7183815194491174 -280.117242970184 -118.03681054650428 0.0 0.0
-682.6385419713787 -16.94235168026171 -338.3327240677928 -118.50187240059405 0.0 0.0
-745.222246958429 -31.378781616001916 -382.2138433625863 -118.4077231254467 0.0 0.0
-802.1827613307519 -46.44688865450016 -420.20202154413283 -116.52124503719685 0.0 0.0
-855.4181505128755 -62.42814725024007 -455.71966031849576 -113.4006985254297 0.0 0.0
-905.5988833857155 -78.89153212988816 -489.5856237094293 -109.92943869609265 0.0 0.0
-954.1859142144745 -96.60330302642541 -523.0606124257399 -106.99407165002778 0.0 0.0
-1004.4678169080507 -118.95445604317104 -559.5204543478865 -106.21948693370972 0.0 0.0
-1059.797356186641 -150.67373341449007 -603.1328273478719 -108.68328211393134 0.0 0.0
-1122.3945267703712 -194.1578717013348 -656.2969554089258 -113.60477958623457 0.0 0.0
-1194.075176328301 -253.51754459515655 -721.864554447336 -117.56143660229012 0.0 0.0
-1276.4841851106326 -335.37104943754827 -803.9549323495498 -118.31772903085185 0.0 0.0
-1361.0950174295233 -446.6719566186739 -901.9584611149268 -122.40936012399267 0.0 0.0
-1361.0950174302384 -446.67195661947926 -901.9584611154703 122.40936012418835 0.0 0.0
-1276.4841851114547 -335.3710494384436 -803.9549323501394 118.31772903093311 0.0 0.0
-1194.075176327277 -253.51754459424137 -721.8645544466601 117.56143660239299 0.0 0.0
-1122.394526770896 -194.15787170201554 -656.2969554092938 113.60477958633123 0.0 0.0
-1059.79735618565 -150.67373341358098 -603.132827347195 108.68328211386526 0.0 0.0
-1004.4678169074482 -118.95445604268123 -559.520454347369 106.21948693370754 0.0 0.0
-954.1859142142068 -96.60330302627933 -523.0606124255196 106.99407164996265 0.0 0.0
-905.5988833848556 -78.89153212921158 -489.58562370893117 109.92943869612887 0.0 0.0
-855.4181505125027 -62.428147250045754 -455.71966031825605 113.40069852536672 0.0 0.0
-802.1827613312664 -46.446888655367474 -420.2020215444752 116.52124503731801 0.0 0.0
-745.2222469582598 -31.378781616084844 -382.2138433624536 118.40772312535722 0.0 0.0
-682.6385419708058 -16.942351679892333 -338.33272406739025 118.50187240044963 0.0 0.0
-609.3273526888622 -1.718381519627414 -280.11724296998875 118.03681054652064 0.0 0.0
-519.2992411787865 12.721894713181207 -204.404276243577 122.55296887062798 0.0 0.0
-411.31923718328494 22.227376341449897 -131.73348652740486 135.97935020305755 0.0 0.0
-308.14750677493953 21.77380096466485 -87.53746207636482 146.87236985508724 0.0 0.0
-229.64377017885548 16.04075277157724 -64.16246045846097 154.27381045699272 0.0 0.0
-164.19391238843974 2.084816689573083 -48.63187738562913 160.77439931889978 0.0 0.0
-97.96827095772589 -37.00772868236573 -40.49279989202748 150.91002196764546 0.0 0.0
-29.911183920910794 -91.02973717269275 -36.28227632808106 83.10896405518025 0.0 0.0
-30.66400609676487 -60.29881441572425 -27.288846153746732 -67.30718614683235 0.0 0.0
-106.3333998294784 -29.21244732662513 -40.66375414683105 -131.33276164720365 0.0 0.0
-188.17543083558363 1.662429140332252 -55.951713402754926 -143.06195955566906 0.0 0.0
-270.2736011379624 13.629680203877438 -77.14567452899762 -134.86135436269632 0.0 0.0
-364.9644219926579 23.23971656096456 -106.28739875240997 -123.42254425095847 0.0 0.0
-474.60291193919295 22.027318367397868 -163.18144115970875 -106.40246247294351 0.0 0.0
-573.0188406441075 11.609473285762363 -241.33336773956302 -96.04652771823471 0.0 0.0
-654.2273047383414 -3.963662407126577 -311.7583119104879 -95.94895266810026 0.0 0.0
-724.4477802067204 -19.67928143956503 -364.1568529991314 -98.35313553510272 0.0 0.0
-788.975021682302 -37.082079538732586 -408.3397928097485 -99.11964573258719 0.0 0.0
-849.742939953848 -56.165610502535145 -449.5080299867307 -97.77033934369693 0.0 0.0
-907.253763393196 -76.33889745130101 -488.9976146363567 -95.2069877895953 0.0 0.0
-962.034173408551 -96.93203515087333 -527.1258005510053 -92.32383808812772 0.0 0.0
-1014.6078453291435 -118.13646970956546 -564.300672506788 -89.47829702686276 0.0 0.0
-1069.039790627019 -143.48285657289176 -604.2806781435299 -88.01812575875881 0.0 0.0
-1132.2303082513413 -180.81656970200171 -654.5284287959907 -89.45573115944396 0.0 0.0
-1207.555523413107 -235.62176172026236 -719.5984016878484 -93.37307841809823 0.0 0.0
-1294.2222078067723 -309.1041486878423 -799.6973000621254 -97.16763551630393 0.0 0.0
-1383.3656112854117 -397.8743043333943 -888.7005533962335 -99.71498906060759 0.0 0.0
-1461.7233857128672 -501.5706238910351 -979.8938106213366 -107.37487242528667 0.0 0.0
-1461.723385713086 -501.5706238913376 -979.8938106215455 107.37487242549298 0.0 0.0
-1383.3656112858393 -397.87430433390745 -888.7005533965055 99.71498906073202 0.0 0.0
-1294.2222078049329 -309.104148686066 -799.6973000609138 97.16763551634482 0.0 0.0
-1207.5555234124276 -235.62176171965228 -719.598401687422 93.37307841809172 0.0 0.0
-1132.2303082509384 -180.81656970174552 -654.5284287957664 89.45573115952268 0.0 0.0
-1069.0397906266835 -143.48285657269352 -604.2806781433009 88.01812575877518 0.0 0.0
-1014.6078453283782 -118.13646970897224 -564.3006725062374 89.47829702690754 0.0 0.0
-962.0341734087416 -96.93203515133733 -527.1258005511138 92.32383808833539 0.0 0.0
-907.2537633933371 -76.33889745170391 -488.99761463650685 95.20698778963273 0.0 0.0
-849.7429399534602 -56.16561050239792 -449.50802998650033 97.770339343731 0.0 0.0
-788.9750216824963 -37.08207953932724 -408.33979280990707 99.11964573273923 0.0 0.0
-724.4477802062199 -19.679281439354572 -364.1568529988077 98.35313553507316 0.0 0.0
-654.2273047377736 -3.963662406869492 -311.7583119100635 95.94895266808463 0.0 0.0
-573.0188406436508 11.609473285852712 -241.33336773915258 96.04652771820278 0.0 0.0
-474.6029119392988 22.027318366666982 -163.18144115975306 106.40246247297928 0.0 0.0
-364.96442199223094 23.239716560981712 -106.28739875225733 123.42254425090658 0.0 0.0
-270.27360113770004 13.629680203864297 -77.14567452893452 134.86135436252926 0.0 0.0
-188.1754308354516 1.6624291401528066 -55.95171340276999 143.0619595555361 0.0 0.0
-106.33339982943355 -29.21244732673402 -40.663754146850266 131.33276164706274 0.0 0.0
-30.664006096745723 -60.29881441566533 -27.288846153723316 67.30718614677257 0.0 0.0
-31.205894553291444 -35.140341397182695 -19.90387078514224 -51.019438211696006 0.0 0.0
-113.7750814165228 -20.897664678729196 -40.40182382857559 -108.58795344345853 0.0 0.0
-210.90147942494045 1.1233093526613374 -62.93345102168371 -121.00171025596181 0.0 0.0
-309.8382040750904 11.384025030561501 -89.7331180159426 -111.86177574850261 0.0 0.0
-418.7918791063585 23.723099608945 -126.32424395192106 -96.2870492526611 0.0 0.0
-524.6785422428321 20.925145319709475 -193.6849708587884 -78.22068962118789 0.0 0.0
-612.1511527943344 9.325324443838753 -271.9282589153307 -72.48972172786856 0.0 0.0
-688.6191589602045 -4.764028577503041 -334.60606104357987 -74.93250614561808 0.0 0.0
-759.1056867404664 -22.053040926782202 -384.65485748893786 -77.97293967862149 0.0 0.0
-826.3259028001394 -42.77116584336096 -430.64342425336304 -79.14048839561084 0.0 0.0
-890.7741673023502 -65.58817901415037 -475.1569855779706 -78.29073362958646 0.0 0.0
-952.7974453802402 -89.9730020959822 -518.8769795656152 -76.35243696768254 0.0 0.0
-1012.3359844481246 -115.09058180715945 -561.5643665268422 -74.11899995513193 0.0 0.0
-1070.1740857999707 -140.827404038082 -603.6120208108555 -71.70173066711861 0.0 0.0
-1128.683271375167 -169.3717337495822 -647.2343940079965 -69.54891605132286 0.0 0.0
-1196.0726428022451 -210.1019099496771 -701.2038589082797 -69.27951739428954 0.0 0.0
-1282.2714619317123 -274.2263342883373 -776.2694285788036 -72.17001180892059 0.0 0.0
-1381.8074174867143 -359.80442373343584 -868.8586900298114 -76.94043519442697 0.0 0.0
-1479.9253082622631 -457.63324239326755 -966.9286247464638 -82.89287239514965 0.0 0.0
-1557.5357354995785 -559.6652080897824 -1056.9699618771874 -95.2220208449105 0.0 0.0
-1557.535735500047 -559.6652080903074 -1056.9699618774882 95.22202084504322 0.0 0.0
-1479.9253082626294 -457.63324239374475 -966.9286247467587 82.89287239540319 0.0 0.0
-1381.8074174862447 -359.80442373308017 -868.85869002953 76.94043519452715 0.0 0.0
-1282.2714619317708 -274.2263342884889 -776.2694285787395 72.17001180896993 0.0 0.0
-1196.0726428017342 -210.10190994932998 -701.2038589079066 69.27951739444285 0.0 0.0
-1128.683271374399 -169.37173374894738 -647.2343940074946 69.54891605130703 0.0 0.0
-1070.1740857988157 -140.8274040370434 -603.6120208100233 71.70173066703978 0.0 0.0
-1012.335984447444 -115.0905818066716 -561.5643665263174 74.11899995515354 0.0 0.0
-952.7974453800366 -89.97300209601975 -518.8769795654052 76.35243696771556 0.0 0.0
-890.7741673024212 -65.5881790144955 -475.156985577972 78.29073362960463 0.0 0.0
-826.3259027992635 -42.77116584276927 -430.6434242527488 79.14048839565494 0.0 0.0
-759.1056867402688 -22.053040926883938 -384.6548574887862 77.97293967862288 0.0 0.0
-688.6191589599041 -4.764028577489647 -334.6060610433142 74.93250614556916 0.0 0.0
-612.1511527940452 9.325324443720206 -271.9282589150628 72.48972172795115 0.0 0.0
-524.6785422421235 20.92514532011468 -193.6849708582571 78.22068962107411 0.0 0.0
-418.7918791059532 23.723099608859833 -126.32424395176574 96.28704925267857 0.0 0.0
-309.83820407481033 11.38402503059011 -89.73311801586622 111.86177574837726 0.0 0.0
-210.90147942469594 1.1233093528759088 -62.933451021546006 121.00171025583796 0.0 0.0
-113.77508141638536 -20.897664678682496 -40.40182382852035 108.58795344332616 0.0 0.0
-31.2058945532853 -35.14034139718617 -19.90387078514144 51.01943821159779 0.0 0.0
-30.911416016979327 -15.997968061519263 -14.072815223549576 -34.368275316840275 0.0 0.0
-119.44997692764358 -12.519500695503577 -39.59084328694414 -82.88778802940399 0.0 0.0
-232.72022313819417 0.16432879049393456 -69.76676830431006 -94.52307815640036 0.0 0.0
-349.084236863342 10.486819734761621 -101.92217559120974 -85.27202919705462 0.0 0.0
-466.15960754852836 23.117216969738806 -147.7798448844889 -67.1373374356921 0.0 0.0
-563.8797414106282 18.349091351563104 -222.85961464045437 -53.03519546601871 0.0 0.0
-643.5192242805159 7.790840299920788 -296.3187108323864 -51.07083764186816 0.0 0.0
-716.6540668996034 -5.082045149223404 -352.09519412095347 -53.99302060291058 0.0 0.0
-788.2599091267298 -24.514251759191353 -401.64642904286734 -57.09946718106992 0.0 0.0
-858.3708385490967 -48.25684865647116 -449.9220259562802 -58.470072924616474 0.0 0.0
-926.7651575515038 -74.78801891018412 -498.05583471048794 -58.07924269383975 0.0 0.0
-993.1293723219418 -103.27260821305936 -545.912869693626 -56.7559791023717 0.0 0.0
-1058.0317248129516 -133.086357060128 -593.568699468 -55.25759846900473 0.0 0.0
-1121.6906948656547 -164.50995807633288 -641.3270645885377 -53.41618185188384 0.0 0.0
-1185.5304529231944 -198.0895440493951 -690.1551476135767 -51.03373844838525 0.0 0.0
-1254.9776008654424 -239.86390481906142 -745.7039346203687 -49.03616687826749 0.0 0.0
-1342.272853256129 -304.124186476228 -821.280668748142 -50.22843602442927 0.0 0.0
-1456.8873549331897 -403.800037478357 -928.3939712456444 -56.24766350655799 0.0 0.0
-1569.5541645594544 -515.3700854061854 -1040.6718360118762 -66.66744398916987 0.0 0.0
-1656.9160282525024 -625.52211064444 -1139.6771233562652 -84.57734217497926 0.0 0.0
-1656.9160282522364 -625.5221106441986 -1139.6771233561108 84.57734217502363 0.0 0.0
-1569.5541645582546 -515.3700854050455 -1040.6718360110804 66.66744398931465 0.0 0.0
-1456.887354932528 -403.8000374777698 -928.3939712450475 56.24766350656798 0.0 0.0
-1342.2728532551453 -304.12418647533923 -821.2806687473567 50.22843602448616 0.0 0.0
-1254.9776008648319 -239.86390481859704 -745.7039346198271 49.03616687834901 0.0 0.0
-1185.5304529226396 -198.08954404897227 -690.155147613048 51.0337384483111 0.0 0.0
-1121.6906948654137 -164.50995807625105 -641.3270645882145 53.41618185190714 0.0 0.0
-1058.0317248124309 -133.08635705982906 -593.5686994676146 55.257598469102106 0.0 0.0
-993.1293723226962 -103.27260821407928 -545.9128696941111 56.75597910248615 0.0 0.0
-926.7651575519081 -74.78801891085135 -498.05583471071105 58.079242693828625 0.0 0.0
-858.3708385484074 -48.256848656016096 -449.92202595580875 58.47007292446901 0.0 0.0
-788.2599091268319 -24.51425175957076 -401.64642904292225 57.09946718101038 0.0 0.0
-716.6540668994448 -5.082045149374963 -352.09519412085405 53.99302060291103 0.0 0.0
-643.5192242800451 7.7908403000418005 -296.31871083200497 51.07083764191866 0.0 0.0
-563.8797414102659 18.349091351569587 -222.85961464010128 53.03519546594309 0.0 0.0
-466.1596075482306 23.117216969591194 -147.7798448843199 67.13733743562443 0.0 0.0
-349.0842368632277 10.486819734420195 -101.9221755912914 85.27202919696096 0.0 0.0
-232.7202231379633 0.1643287905806683 -69.76676830421478 94.52307815634057 0.0 0.0
-119.44997692751441 -12.519500695472612 -39.590843286896096 82.88778802935275 0.0 0.0
-30.91141601700468 -15.997968061496577 -14.072815223550375 34.368275316827464 0.0 0.0
-28.480265612673477 -3.241901560188662 -9.516650151858641 -17.87029574578359 0.0 0.0
-121.6468693700939 -4.672550704392766 -37.89582602234599 -54.198164558790694 0.0 0.0
-254.0008467119676 -1.1148370909421859 -76.5347051408729 -63.10977885276996 0.0 0.0
-389.8769974428459 10.984305028630871 -114.551102292179 -55.188236362463456 0.0 0.0
-505.4255358116309 22.09218451079864 -170.03227941838364 -38.93494828639374 0.0 0.0
-592.5155553710962 14.522392456515995 -249.15801189425113 -30.38064434824276 0.0 0.0
-667.9544756927229 7.699068644046704 -314.2978844927162 -30.57460113094865 0.0 0.0
-740.0012267424006 -5.9995882763367945 -366.3690441889998 -33.08515629026298 0.0 0.0
-812.560850279978 -26.820414037028385 -415.7226718281589 -35.70151055920808 0.0 0.0
-885.76717187967 -53.50402269583191 -466.6149813085746 -37.06322322142868 0.0 0.0
-958.2552909075407 -83.78159503528039 -518.5395453808585 -37.11366559875779 0.0 0.0
-1029.3981161622482 -116.21983667233417 -570.6976727464994 -36.44501622273797 0.0 0.0
-1099.4626537094068 -151.0846184952897 -623.410253567205 -35.55539051943444 0.0 0.0
-1169.6441162453712 -188.42422161749292 -677.3413759437435 -34.413455134248686 0.0 0.0
-1240.5867428073057 -228.8183771342699 -733.1244964297334 -32.557945931632695 0.0 0.0
-1313.034992368049 -273.55125089754574 -791.7404962320393 -29.799086737720643 0.0 0.0
-1393.4131584611257 -330.41221893983607 -860.2012222501562 -28.394521138537556 0.0 0.0
-1499.9544412660198 -420.59076401617205 -958.3069583543377 -33.79792284842283 0.0 0.0
-1659.6921794490113 -576.8525447790637 -1116.4508423124473 -49.201362367032246 0.0 0.0
-1769.3390987626635 -706.6896775340507 -1236.5533437129923 -74.4743806837113 0.0 0.0
-1769.339098762368 -706.6896775338032 -1236.5533437126849 74.47438068384801 0.0 0.0
-1659.692179448707 -576.85254477884 -1116.450842312261 49.201362367173445 0.0 0.0
-1499.9544412647851 -420.59076401500135 -958.3069583534696 33.79792284844184 0.0 0.0
-1393.4131584602378 -330.41221893904964 -860.201222249505 28.394521138571946 0.0 0.0
-1313.0349923669785 -273.5512508965926 -791.7404962311216 29.799086737717598 0.0 0.0
-1240.5867428058443 -228.8183771329308 -733.1244964285701 32.55794593156329 0.0 0.0
-1169.6441162442186 -188.42422161650376 -677.3413759429543 34.413455134262705 0.0 0.0
-1099.4626537093534 -151.084618495454 -623.4102535671045 35.55539051953781 0.0 0.0
-1029.3981161618062 -116.21983667212595 -570.6976727461318 36.445016222802074 0.0 0.0
-958.2552909069401 -83.78159503491659 -518.5395453804651 37.11366559870048 0.0 0.0
-885.7671718798524 -53.504022696292935 -466.6149813086861 37.0632232213866 0.0 0.0
-812.5608502794394 -26.82041403675577 -415.7226718277745 35.70151055920378 0.0 0.0
-740.001226741151 -5.999588275378031 -366.3690441881835 33.085156290308255 0.0 0.0
-667.9544756919661 7.699068644498659 -314.2978844921599 30.57460113095542 0.0 0.0
-592.5155553703684 14.52239245695202 -249.15801189369682 30.38064434835615 0.0 0.0
-505.4255358110405 22.092184511022396 -170.0322794179936 38.934948286380234 0.0 0.0
-389.87699744276017 10.98430502812479 -114.5511022923171 55.18823636242223 0.0 0.0
-254.00084671177578 -1.1148370909698144 -76.53470514082369 63.109778852688834 0.0 0.0
-121.64686937006212 -4.672550704421863 -37.8958260223452 54.198164558705294 0.0 0.0
-28.48026561259595 -3.2419015601340853 -9.516650151819007 17.87029574581348 0.0 0.0
-21.423943431779392 2.8780989834901716 -5.563753334486766 -2.796195123316431 0.0 0.0
-117.3032718168086 1.8089146558986204 -34.648307148272984 -21.967460981324567 0.0 0.0
-275.809655518638 -2.3455635868457225 -83.44656573164511 -25.687212070656642 0.0 0.0
-430.08622268470606 13.115266437270568 -128.34184874585094 -22.277577506292975 0.0 0.0
-538.5998524779798 19.616376568244448 -193.44851532592688 -13.271723371534618 0.0 0.0
-617.4993730679915 12.48805683540543 -271.22947264740367 -10.088215491677506 0.0 0.0
-687.9821116328891 6.978651989123705 -328.69117656066123 -10.49008737744829 0.0 0.0
-759.0760698636252 -6.989801212292477 -377.8226945887142 -12.108699846798967 0.0 0.0
-832.8434174472122 -29.21294039501454 -427.62173666527303 -13.804631560783559 0.0 0.0
-909.0308324011019 -58.474606211218884 -481.032945336744 -14.918764741165894 0.0 0.0
-985.7818585414291 -92.28912663668063 -536.7499438975253 -15.3781050409083 0.0 0.0
-1061.749745284122 -129.39635578940548 -593.605975525744 -15.317671989761706 0.0 0.0
-1137.322769368017 -168.888440309519 -651.3504482269783 -15.085864081403702 0.0 0.0
-1213.8314151220875 -211.8686421789059 -711.2279361386674 -14.621175254790616 0.0 0.0
-1292.1463082116984 -259.4177299329328 -774.2509618985599 -13.636985431936836 0.0 0.0
-1371.345942191911 -311.09368751296756 -839.7485565560863 -11.79080832549592 0.0 0.0
-1448.8759120438012 -365.35792038464535 -905.6364390829299 -9.216443947511223 0.0 0.0
-1529.3972311739612 -428.6576899862372 -977.3501803489347 -10.053786315054989 0.0 0.0
-1648.3976156780536 -540.3836938196578 -1092.35613056798 -25.82785025544511 0.0 0.0
-1971.0063181390053 -876.7985321890744 -1422.45077571867 -61.409979149713344 0.0 0.0
-1971.0063181383662 -876.7985321884117 -1422.450775718247 61.40997914958718 0.0 0.0
-1648.397615676781 -540.3836938184323 -1092.3561305671567 25.82785025553975 0.0 0.0
-1529.3972311739708 -428.6576899863267 -977.3501803488166 10.053786315146793 0.0 0.0
-1448.8759120442219 -365.35792038518525 -905.6364390830882 9.216443947487637 0.0 0.0
-1371.3459421923676 -311.09368751355294 -839.7485565563504 11.790808325538988 0.0 0.0
-1292.1463082114562 -259.4177299328428 -774.250961898382 13.636985431853851 0.0 0.0
-1213.831415122023 -211.8686421790197 -711.2279361385724 14.621175254783877 0.0 0.0
-1137.3227693683434 -168.8884403100464 -651.3504482270889 15.08586408123048 0.0 0.0
-1061.7497452835291 -129.39635578903716 -593.6059755253287 15.31767198983604 0.0 0.0
-985.7818585404514 -92.28912663595365 -536.7499438968023 15.378105040949016 0.0 0.0
-909.0308324007071 -58.474606211101275 -481.0329453364179 14.91876474121903 0.0 0.0
-832.8434174474135 -29.21294039551927 -427.62173666539496 13.804631560780855 0.0 0.0
-759.0760698636349 -6.989801212603652 -377.82269458871133 12.108699846723775 0.0 0.0
-687.9821116322479 6.978651989457298 -328.6911765602445 10.490087377480403 0.0 0.0
-617.4993730675061 12.48805683556937 -271.2294726470085 10.08821549171995 0.0 0.0
-538.599852477849 19.61637656800274 -193.44851532577118 13.271723371473215 0.0 0.0
-430.08622268461914 13.115266436861292 -128.34184874592782 22.277577506388678 0.0 0.0
-275.80965551818315 -2.345563586711778 -83.44656573146847 25.687212070682264 0.0 0.0
-117.30327181695016 1.808914655587838 -34.6483071484087 21.96746098142705 0.0 0.0
-21.42394343174717 2.8780989835093207 -5.563753334471354 2.796195123295081 0.0 0.0
SCALARS Strain float 6
LOOKUP_TABLE default
0.011933634863407705 -0.01300144560450675 0.0 -0.0072012085527879965 0.0 0.0
0.0024454316500020536 -0.001545164588605541 0.0 0.0012050227787148149 0.0 0.0
0.0018321916633378538 -0.0007486748803102738 0.0 -4.0234780611880794e-05 0.0 0.0
0.002328412858588782 -0.0011322414370424916 0.0 -0.00021993413994203515 0.0 0.0
0.0036403846024342986 -0.002193915871638419 0.0 -0.0002803760647461795 0.0 0.0
0.006342355161775547 -0.004596264096708991 0.0 -0.0004308360513702314 0.0 0.0
0.010725318428258787 -0.008708817363327404 0.0 -0.0006903398952738948 0.0 0.0
0.017075967662158832 -0.014788823414443542 0.0 -0.0010910370500654132 0.0 0.0
0.025541955725903558 -0.022963261557860104 0.0 -0.001648810554303437 0.0 0.0
0.036104844818826205 -0.03320915523607937 0.0 -0.00231678057173873 0.0 0.0
0.048647493803551684 -0.04541869645577945 0.0 -0.0030105056245340878 0.0 0.0
0.06303097653021067 -0.059460426882531614 0.0 -0.003690366190609806 0.0 0.0
0.07911906945622674 -0.07520179946439898 0.0 -0.0043629087674321165 0.0 0.0
0.09674666526126512 -0.09247336017638741 0.0 -0.005024484388774064 0.0 0.0
0.11559792143412288 -0.11095523491219295 0.0 -0.005649342793052292 0.0 0.0
0.13506388555837562 -0.13004169840162882 0.0 -0.006115262110616415 0.0 0.0
0.15417976840676573 -0.1487802588143987 0.0 -0.006196718975699511 0.0 0.0
0.1716613248962941 -0.16590087440766776 0.0 -0.005665763377160571 0.0 0.0
0.1859727580873943 -0.17987359480644072 0.0 -0.004761865638712837 0.0 0.0
0.19493378321275337 -0.18833457927997044 0.0 -0.005310196857479688 0.0 0.0
0.19493378321274055 -0.18833457927996555 0.0 0.005310196857487459 0.0 0.0
0.1859727580873555 -0.1798735948064043 0.0 0.004761865638733154 0.0 0.0
0.17166132489622898 -0.1659008744075985 0.0 0.005665763377172284 0.0 0.0
0.15417976840668104 -0.14878025881431167 0.0 0.0061967189757060614 0.0 0.0
0.13506388555828477 -0.13004169840154045 0.0 0.006115262110606534 0.0 0.0
0.11559792143403078 -0.11095523491210324 0.0 0.005649342793051626 0.0 0.0
0.09674666526117087 -0.09247336017629815 0.0 0.005024484388772454 0.0 0.0
0.07911906945613378 -0.07520179946430705 0.0 0.004362908767432061 0.0 0.0
0.0630309765301234 -0.05946042688244413 0.0 0.0036903661906025897 0.0 0.0
0.04864749380347283 -0.04541869645570795 0.0 0.003010505624525317 0.0 0.0
0.036104844818760806 -0.03320915523601986 0.0 0.0023167805717289047 0.0 0.0
0.02554195572585255 -0.022963261557810588 0.0 0.0016488105543018272 0.0 0.0
0.017075967662120828 -0.014788823414406904 0.0 0.0010910370500609168 0.0 0.0
0.010725318428232433 -0.008708817363302535 0.0 0.0006903398952718409 0.0 0.0
0.0063423551617601825 -0.004596264096694558 0.0 0.0004308360513687881 0.0 0.0
0.0036403846024283815 -0.0021939158716308693 0.0 0.00028037606474340393 0.0 0.0
0.002328412858586537 -0.001132241437039605 0.0 0.00021993413994059186 0.0 0.0
0.0018321916633375346 -0.0007486748803094412 0.0 4.0234780611936305e-05 0.0 0.0
0.0024454316500003292 -0.0015451645886038479 0.0 -0.0012050227787139822 0.0 0.0
0.011933634863396325 -0.013001445604492352 0.0 0.007201208552753691 0.0 0.0
0.008484760759974737 -0.00993104046945359 0.0 -0.008700510161346375 0.0 0.0
0.0013252070834647647 -0.0007784734773335078 0.0 0.000131204988428113 0.0 0.0
0.0015654022375786517 -0.0005566029179521204 0.0 -0.0001283202315385812 0.0 0.0
0.002041760475931839 -0.0009439867403672197 0.0 -0.0004767359038154173 0.0 0.0
0.0030886367567750234 -0.0017441875863795087 0.0 -0.0006292888793117957 0.0 0.0
0.0054034823085760825 -0.0037482941068078812 0.0 -0.0009981486916543214 0.0 0.0
0.009315730262583533 -0.007369485247471275 0.0 -0.0016549180037037092 0.0 0.0
0.015060634638536088 -0.012836523141698697 0.0 -0.0026108982543120995 0.0 0.0
0.022733351366157006 -0.020223781934710416 0.0 -0.003872948817835231 0.0 0.0
0.032269688779631836 -0.029459237253773196 0.0 -0.005330737200703373 0.0 0.0
0.04353191645596855 -0.04041215224532513 0.0 -0.006822557534198359 0.0 0.0
0.05640154496652294 -0.05296885679377228 0.0 -0.008254910076117061 0.0 0.0
0.07079917014331288 -0.06704805243358747 0.0 -0.009688451274637938 0.0 0.0
0.08660431667153001 -0.08252663851504227 0.0 -0.011141936146961295 0.0 0.0
0.10354834283613133 -0.09913462618336144 0.0 -0.012516666953288735 0.0 0.0
0.12111498236072074 -0.11635766157393235 0.0 -0.013567223324370326 0.0 0.0
0.13847101318855704 -0.13336800333730903 0.0 -0.01385322507471426 0.0 0.0
0.15444686118594358 -0.14900002801067158 0.0 -0.013010257097236244 0.0 0.0
0.16743724386898023 -0.16161359403071218 0.0 -0.011230653334912244 0.0 0.0
0.17527035759555906 -0.16915842196108777 0.0 -0.00832720509409246 0.0 0.0
0.17527035759554666 -0.1691584219610771 0.0 0.008327205094117551 0.0 0.0
0.1674372438689443 -0.1616135940306811 0.0 0.011230653334951657 0.0 0.0
0.15444686118588616 -0.14900002801061563 0.0 0.013010257097263445 0.0 0.0
0.13847101318848334 -0.13336800333723264 0.0 0.013853225074727749 0.0 0.0
0.1211149823606402 -0.11635766157385374 0.0 0.013567223324358446 0.0 0.0
0.10354834283604822 -0.0991346261832815 0.0 0.012516666953283129 0.0 0.0
0.08660431667144589 -0.08252663851496367 0.0 0.011141936146956022 0.0 0.0
0.07079917014322987 -0.06704805243350664 0.0 0.009688451274634025 0.0 0.0
0.05640154496644495 -0.05296885679369412 0.0 0.008254910076106126 0.0 0.0
0.04353191645589766 -0.04041215224525008 0.0 0.006822557534187146 0.0 0.0
0.03226968877957331 -0.02945923725371058 0.0 0.005330737200691771 0.0 0.0
0.02273335136611121 -0.020223781934664897 0.0 0.0038729488178324556 0.0 0.0
0.015060634638500936 -0.012836523141664502 0.0 0.0026108982543073256 0.0 0.0
0.009315730262560107 -0.007369485247448626 0.0 0.00165491800369999 0.0 0.0
0.0054034823085629125 -0.0037482941067941145 0.0 0.000998148691652434 0.0 0.0
0.0030886367567703465 -0.0017441875863749567 0.0 0.0006292888793116846 0.0 0.0
0.0020417604759303543 -0.0009439867403668867 0.0 0.0004767359038143626 0.0 0.0
0.0015654022375781729 -0.0005566029179525644 0.0 0.00012832023154035754 0.0 0.0
0.001325207083464841 -0.0007784734773316759 0.0 -0.00013120498842839057 0.0 0.0
0.008484760759960852 -0.009931040469438188 0.0 0.008700510161318786 0.0 0.0
0.0062883028129569266 -0.007898373381786061 0.0 -0.008067763273807593 0.0 0.0
0.0007788507133303021 -0.0005088674687198647 0.0 -0.0005755037389268414 0.0 0.0
0.0012542063152034821 -0.0004094336527694642 0.0 -0.00043661935876210256 0.0 0.0
0.001768916691102955 -0.0007729875642646933 0.0 -0.0007203936426039559 0.0 0.0
0.0025983011349131543 -0.0013705769634781984 0.0 -0.0009327133047397074 0.0 0.0
0.004502037334237374 -0.00295675552201069 0.0 -0.001419320431554627 0.0 0.0
0.007917232155552408 -0.0060543041837426426 0.0 -0.002367181070919655 0.0 0.0
0.01302279594541203 -0.01087607067928964 0.0 -0.0037769531550190805 0.0 0.0
0.019871524221976224 -0.017443347002128018 0.0 -0.005594323918410804 0.0 0.0
0.02836161894256531 -0.025649554178467593 0.0 -0.007661851681760645 0.0 0.0
0.03834083797798776 -0.03534338132847692 0.0 -0.009775771745978656 0.0 0.0
0.049702580171820464 -0.04641901970358697 0.0 -0.011814629345844707 0.0 0.0
0.062397729584761176 -0.05882455464673653 0.0 -0.01383124046761025 0.0 0.0
0.07635811836616489 -0.0724891806475032 0.0 -0.01589162431344643 0.0 0.0
0.09138102881345248 -0.08721051459996554 0.0 -0.017877035186879442 0.0 0.0
0.10705061997571043 -0.10257259408924968 0.0 -0.01942037847846939 0.0 0.0
0.12266941232077087 -0.11787633187017521 0.0 -0.019982501155573484 0.0 0.0
0.13716401812557977 -0.1320368206699878 0.0 -0.019069542095951242 0.0 0.0
0.14897824448322583 -0.1435253243376886 0.0 -0.01619580647805363 0.0 0.0
0.15632699259959218 -0.1506391400421161 0.0 -0.010489156813168976 0.0 0.0
0.1563269925995804 -0.15063914004210766 0.0 0.010489156813206613 0.0 0.0
0.1489782444831933 -0.14352532433766108 0.0 0.016195806478106034 0.0 0.0
0.13716401812552853 -0.13203682066993805 0.0 0.0190695420959891 0.0 0.0
0.12266941232070733 -0.11787633187011837 0.0 0.019982501155590415 0.0 0.0
0.10705061997563936 -0.10257259408918395 0.0 0.01942037847845912 0.0 0.0
0.09138102881337859 -0.08721051459989537 0.0 0.017877035186874335 0.0 0.0
0.076358118366091 -0.07248918064743437 0.0 0.015891624313442043 0.0 0.0
0.06239772958468773 -0.058824554646666805 0.0 0.013831240467606198 0.0 0.0
0.04970258017175164 -0.04641901970352347 0.0 0.011814629345829442 0.0 0.0
0.038340837977925785 -0.0353433813284143 0.0 0.009775771745967332 0.0 0.0
0.028361618942513406 -0.025649554178417855 0.0 0.0076618516817446025 0.0 0.0
0.019871524221935166 -0.017443347002086718 0.0 0.005594323918399591 0.0 0.0
0.01302279594538086 -0.010876070679260774 0.0 0.003776953155007867 0.0 0.0
0.00791723215553164 -0.006054304183726433 0.0 0.0023671810709153807 0.0 0.0
0.004502037334227105 -0.002956755522000032 0.0 0.0014193204315503527 0.0 0.0
0.00259830113490922 -0.0013705769634744236 0.0 0.0009327133047382086 0.0 0.0
0.0017689166911017407 -0.000772987564263472 0.0 0.0007203936426025126 0.0 0.0
0.0012542063152036764 -0.0004094336527694087 0.0 0.00043661935876110336 0.0 0.0
0.0007788507133304479 -0.0005088674687182548 0.0 0.0005755037389236772 0.0 0.0
0.006288302812944069 -0.007898373381771965 0.0 0.008067763273786555 0.0 0.0
0.004749919065339975 -0.0063656431398559365 0.0 -0.0068583605692287275 0.0 0.0
0.00048807990525320116 -0.0003788925605244797 0.0 -0.0011720324728992648 0.0 0.0
0.0009720615611591502 -0.00029927379242689067 0.0 -0.0008474777815870027 0.0 0.0
0.0015008524082930214 -0.0006217155907026761 0.0 -0.0009904263629559873 0.0 0.0
0.0021658008054775413 -0.0010716072425516199 0.0 -0.0012147490333312971 0.0 0.0
0.0036723332321387803 -0.002260344387131852 0.0 -0.0017230576857949487 0.0 0.0
0.006542061527023413 -0.004791152313041058 0.0 -0.0028372739980801476 0.0 0.0
0.010986091383797324 -0.008931024191334735 0.0 -0.004583523998831607 0.0 0.0
0.01698395988376933 -0.014652986398795864 0.0 -0.006804203342866744 0.0 0.0
0.024411672532456907 -0.021812832538907312 0.0 -0.009313215804988118 0.0 0.0
0.03310293904221166 -0.030241535616901682 0.0 -0.01186944439027765 0.0 0.0
0.042956812458855395 -0.039835249606981815 0.0 -0.01434977603777754 0.0 0.0
0.05394875706456899 -0.05056676678412986 0.0 -0.016817193008190234 0.0 0.0
0.06605242760645746 -0.06240534322554625 0.0 -0.019298397247453636 0.0 0.0
0.07913365572012142 -0.07521978594641121 0.0 -0.021686383393175634 0.0 0.0
0.09288705092690525 -0.08870259186542206 0.0 -0.02364017896113707 0.0 0.0
0.10675122428139441 -0.1022819191704496 0.0 -0.024544965879455483 0.0 0.0
0.1197909875348261 -0.11502008076857706 0.0 -0.023646991693678232 0.0 0.0
0.13065103413656426 -0.12559029956164425 0.0 -0.019950493982113904 0.0 0.0
0.13779585628231109 -0.1325229341924623 0.0 -0.012257538239990429 0.0 0.0
0.1377958562823002 -0.13252293419245076 0.0 0.01225753824003828 0.0 0.0
0.13065103413653475 -0.12559029956161538 0.0 0.01995049398217874 0.0 0.0
0.11979098753478087 -0.11502008076852777 0.0 0.023646991693722197 0.0 0.0
0.10675122428133993 -0.10228191917039586 0.0 0.024544965879474967 0.0 0.0
0.0928870509268434 -0.08870259186536655 0.0 0.023640178961127356 0.0 0.0
0.07913365572005704 -0.07521978594635126 0.0 0.02168638339316753 0.0 0.0
0.06605242760639343 -0.06240534322548674 0.0 0.019298397247445198 0.0 0.0
0.053948757064505026 -0.05056676678406946 0.0 0.01681719300818041 0.0 0.0
0.04295681245879554 -0.039835249606920975 0.0 0.014349776037760553 0.0 0.0
0.03310293904215883 -0.030241535616844395 0.0 0.011869444390259276 0.0 0.0
0.024411672532411527 -0.021812832538862903 0.0 0.009313215804967134 0.0 0.0
0.016983959883732885 -0.014652986398764334 0.0 0.006804203342854087 0.0 0.0
0.010986091383770685 -0.00893102419131342 0.0 0.004583523998818562 0.0 0.0
0.006542061527006177 -0.004791152313026847 0.0 0.0028372739980741524 0.0 0.0
0.0036723332321307034 -0.0022603443871240803 0.0 0.0017230576857901747 0.0 0.0
0.0021658008054749878 -0.0010716072425507317 0.0 0.0012147490333290767 0.0 0.0
0.001500852408292147 -0.0006217155907032312 0.0 0.000990426362954544 0.0 0.0
0.0009720615611593375 -0.00029927379242677965 0.0 0.0008474777815857815 0.0 0.0
0.0004880799052532081 -0.0003788925605228699 0.0 0.001172032472897322 0.0 0.0
0.004749919065329122 -0.006365643139844007 0.0 0.006858360569210853 0.0 0.0
0.003579241844491182 -0.005117659870704533 0.0 -0.005619745686209543 0.0 0.0
0.00032581836542741605 -0.00030836129230443765 0.0 -0.0016365268126971033 0.0 0.0
0.0007359806689103826 -0.0002195824877644359 0.0 -0.0012616599442600296 0.0 0.0
0.0012370783108717337 -0.000489954524394598 0.0 -0.0012882729327908238 0.0 0.0
0.0017821259709459442 -0.000834435516484433 0.0 -0.0014846360179114892 0.0 0.0
0.002930458508034542 -0.0016773801337388594 0.0 -0.001969303451463178 0.0 0.0
0.005231320718824636 -0.0036202943553869105 0.0 -0.003087317816762747 0.0 0.0
0.008967320308948465 -0.007028094221972259 0.0 -0.004990253999125338 0.0 0.0
0.01409823019651249 -0.011882214669526991 0.0 -0.007494937651654543 0.0 0.0
0.02044901982638679 -0.01798040915240051 0.0 -0.010279259743582236 0.0 0.0
0.0278476699081832 -0.025137784420036002 0.0 -0.013111306694676417 0.0 0.0
0.036193185809449316 -0.03324928963528162 0.0 -0.015859750672517048 0.0 0.0
0.04548089344009194 -0.04230502819140547 0.0 -0.018592126188747893 0.0 0.0
0.05572465166028055 -0.05231581271771635 0.0 -0.0213547148551263 0.0 0.0
0.06685217339577562 -0.06320985441108062 0.0 -0.023999528160383032 0.0 0.0
0.07865145236559348 -0.07477353910719664 0.0 -0.02619458039813849 0.0 0.0
0.09071067008275094 -0.0865877897449483 0.0 -0.027403448541583886 0.0 0.0
0.1023152464959927 -0.09792966693609584 0.0 -0.026697144671721018 0.0 0.0
0.11235866905369687 -0.10771255075664987 0.0 -0.022646805002390025 0.0 0.0
0.11948149143117373 -0.11462987624774801 0.0 -0.013752899552022302 0.0 0.0
0.11948149143116388 -0.11462987624773824 0.0 0.013752899552070819 0.0 0.0
0.11235866905367067 -0.10771255075662323 0.0 0.022646805002456638 0.0 0.0
0.10231524649595383 -0.09792966693605853 0.0 0.026697144671770534 0.0 0.0
0.09071067008270409 -0.08658778974490389 0.0 0.02740344854160448 0.0 0.0
0.07865145236554097 -0.07477353910714646 0.0 0.026194580398130052 0.0 0.0
0.06685217339572028 -0.06320985441102467 0.0 0.02399952816037365 0.0 0.0
0.05572465166022633 -0.05231581271766261 0.0 0.021354714855118084 0.0 0.0
0.04548089344003803 -0.042305028191351735 0.0 0.01859212618873729 0.0 0.0
0.03619318580939895 -0.0332492896352341 0.0 0.015859750672501893 0.0 0.0
0.027847669908138556 -0.02513778441999781 0.0 0.013111306694656322 0.0 0.0
0.02044901982634842 -0.017980409152364984 0.0 0.010279259743556146 0.0 0.0
0.01409823019648121 -0.011882214669496571 0.0 0.007494937651639555 0.0 0.0
0.008967320308926108 -0.00702809422195072 0.0 0.004990253999112848 0.0 0.0
0.005231320718811189 -0.0036202943553758082 0.0 0.0030873178167554194 0.0 0.0
0.0029304585080281997 -0.001677380133736417 0.0 0.0019693034514584595 0.0 0.0
0.001782125970944376 -0.0008344355164846551 0.0 0.001484636017909824 0.0 0.0
0.0012370783108711925 -0.0004899545243952641 0.0 0.001288272932789325 0.0 0.0
0.0007359806689105353 -0.000219582487764991 0.0 0.0012616599442583087 0.0 0.0
0.0003258183654275826 -0.00030836129230399356 0.0 0.0016365268126958266 0.0 0.0
0.003579241844481801 -0.005117659870694728 0.0 0.005619745686195554 0.0 0.0
0.002658607264244328 -0.004073686585876701 0.0 -0.004535426354336791 0.0 0.0
0.00022710514903863388 -0.0002631691218754062 0.0 -0.0019825451768915037 0.0 0.0
0.0005380442535781876 -0.00015908344388071427 0.0 -0.001627059295364497 0.0 0.0
0.0009766456496231452 -0.0003709785738185145 0.0 -0.001587309977337914 0.0 0.0
0.0014358849525267225 -0.0006423446362178176 0.0 -0.0017490705598486311 0.0 0.0
0.0022714450865521513 -0.0012098052267344173 0.0 -0.002183626633892932 0.0 0.0
0.004026529299011525 -0.0025959259356955755 0.0 -0.0032253398127710664 0.0 0.0
0.007008269788861682 -0.005225690639919511 0.0 -0.005071790219689565 0.0 0.0
0.011237712923153578 -0.009162205549347213 0.0 -0.0076352279344025775 0.0 0.0
0.01650312489741118 -0.014185249913192699 0.0 -0.010547009751663228 0.0 0.0
0.022603293073326605 -0.02006543046962017 0.0 -0.013483076587774312 0.0 0.0
0.02944249229458705 -0.026695004078495455 0.0 -0.016333333909462455 0.0 0.0
0.03702857087225524 -0.03407775465989049 0.0 -0.019166488416421767 0.0 0.0
0.04540826950184276 -0.042256753997623964 0.0 -0.02201366896712692 0.0 0.0
0.054571936519527284 -0.05121874795005921 0.0 -0.024758726287607058 0.0 0.0
0.0643839195715004 -0.060830519050259824 0.0 -0.027092005464057656 0.0 0.0
0.07457231531450018 -0.07081791425701178 0.0 -0.028502322466134433 0.0 0.0
0.08469742268447777 -0.08072742174415382 0.0 -0.028111340695378573 0.0 0.0
0.09397567933965281 -0.08977414995930966 0.0 -0.024261036348825482 0.0 0.0
0.10120681654071847 -0.09679533985592226 0.0 -0.015007895754173828 0.0 0.0
0.10120681654070945 -0.09679533985591382 0.0 0.015007895754222234 0.0 0.0
0.0939756793396313 -0.08977414995929234 0.0 0.02426103634889165 0.0 0.0
0.0846974226844445 -0.08072742174411784 0.0 0.0281113406954282 0.0 0.0
0.07457231531446099 -0.07081791425697181 0.0 0.028502322466152696 0.0 0.0
0.06438391957145684 -0.06083051905021941 0.0 0.02709200546404744 0.0 0.0
0.054571936519481196 -0.05121874795001791 0.0 0.024758726287595012 0.0 0.0
0.045408269501798465 -0.04225675399758311 0.0 0.022013668967118538 0.0 0.0
0.03702857087221187 -0.0340777546598483 0.0 0.01916648841641122 0.0 0.0
0.02944249229454679 -0.02669500407845593 0.0 0.01633333390944469 0.0 0.0
0.02260329307328987 -0.02006543046958864 0.0 0.013483076587753717 0.0 0.0
0.016503124897379706 -0.014185249913166498 0.0 0.010547009751636915 0.0 0.0
0.011237712923127835 -0.00916220554932301 0.0 0.007635227934386035 0.0 0.0
0.0070082697888438905 -0.005225690639904634 0.0 0.005071790219674632 0.0 0.0
0.004026529299001325 -0.002595925935688248 0.0 0.003225339812763961 0.0 0.0
0.0022714450865478075 -0.0012098052267290882 0.0 0.002183626633887825 0.0 0.0
0.0014358849525256123 -0.0006423446362145979 0.0 0.0017490705598460776 0.0 0.0
0.0009766456496227982 -0.0003709785738185145 0.0 0.0015873099773356936 0.0 0.0
0.0005380442535783958 -0.00015908344388076978 0.0 0.0016270592953614993 0.0 0.0
0.00022710514903864776 -0.000263169121874518 0.0 0.001982545176887729 0.0 0.0
0.0026586072642367786 -0.004073686585868104 0.0 0.004535426354326022 0.0 0.0
0.0019294666606385902 -0.0031929717446876893 0.0 -0.003638486998913726 0.0 0.0
0.00015791509749989163 -0.000230901863520927 0.0 -0.0022251082957457924 0.0 0.0
0.000364857214968789 -0.00010779247151571081 0.0 -0.0019223284834671839 0.0 0.0
0.0007197832495335482 -0.0002569235275338144 0.0 -0.0018623239242863687 0.0 0.0
0.001108099350363767 -0.0004782602457886753 0.0 -0.0020102374165852366 0.0 0.0
0.0016938251337061672 -0.0008411487411903451 0.0 -0.002363907308364721 0.0 0.0
0.0029358212536299555 -0.001735228728210636 0.0 -0.0032487366368204595 0.0 0.0
0.005167116061520774 -0.003590993463161718 0.0 -0.004903494410893772 0.0 0.0
0.008446500787208253 -0.006556887984924931 0.0 -0.007272115776909893 0.0 0.0
0.012601314890767185 -0.01046531270799056 0.0 -0.010080047982097773 0.0 0.0
0.017397394922709683 -0.015059752516442426 0.0 -0.012969537218492533 0.0 0.0
0.022734932139193573 -0.02021012399017863 0.0 -0.01575604823936194 0.0 0.0
0.028625780780116253 -0.025925845338065745 0.0 -0.018507229487080445 0.0 0.0
0.03514197281492734 -0.03227377378108942 0.0 -0.021276814936924515 0.0 0.0
0.04232627047600439 -0.03929124233240344 0.0 -0.02395723107903014 0.0 0.0
0.05012461143379253 -0.04691886527072109 0.0 -0.02625171122782577 0.0 0.0
0.058373274250891394 -0.05501043614449097 0.0 -0.027766256582227977 0.0 0.0
0.06690673651353263 -0.06338704783487925 0.0 -0.027812539659151314 0.0 0.0
0.07536238492803121 -0.07164900008361652 0.0 -0.02470667305116303 0.0 0.0
0.08278187888275942 -0.07884469713373488 0.0 -0.01600751008651624 0.0 0.0
0.08278187888275262 -0.07884469713372466 0.0 0.016007510086563426 0.0 0.0
0.07536238492801423 -0.07164900008359565 0.0 0.024706673051229866 0.0 0.0
0.06690673651350545 -0.06338704783485172 0.0 0.027812539659201274 0.0 0.0
0.05837327425086014 -0.05501043614446077 0.0 0.027766256582247295 0.0 0.0
0.05012461143375699 -0.04691886527068778 0.0 0.026251711227817442 0.0 0.0
0.04232627047596835 -0.0392912423323688 0.0 0.02395723107901615 0.0 0.0
0.03514197281489306 -0.03227377378105567 0.0 0.0212768149369138 0.0 0.0
0.028625780780083626 -0.025925845338037767 0.0 0.018507229487070842 0.0 0.0
0.022734932139162667 -0.020210123990150652 0.0 0.015756048239345177 0.0 0.0
0.017397394922680692 -0.01505975251641578 0.0 0.012969537218469052 0.0 0.0
0.012601314890742704 -0.010465312707967467 0.0 0.010080047982070628 0.0 0.0
0.008446500787188671 -0.006556887984908499 0.0 0.007272115776893406 0.0 0.0
0.0051671160615082146 -0.003590993463152392 0.0 0.004903494410882503 0.0 0.0
0.002935821253622628 -0.0017352287282041967 0.0 0.0032487366368144643 0.0 0.0
0.0016938251337033638 -0.0008411487411905672 0.0 0.0023639073083612794 0.0 0.0
0.0011080993503629066 -0.00047826024578889736 0.0 0.0020102374165836823 0.0 0.0
0.0007197832495331735 -0.0002569235275331483 0.0 0.0018623239242837597 0.0 0.0
0.00036485721496892776 -0.00010779247151593285 0.0 0.001922328483465019 0.0 0.0
0.0001579150974997945 -0.00023090186352045516 0.0 0.0022251082957431834 0.0 0.0
0.0019294666606332334 -0.0031929717446812916 0.0 0.0036384869989043445 0.0 0.0
0.00136310750804422 -0.002465876933946537 0.0 -0.002933462451377933 0.0 0.0
9.472985941083589e-05 -0.00020366919989694976 0.0 -0.0023675090329696724 0.0 0.0
0.00020518792490850646 -5.7766155021288235e-05 0.0 -0.0021470244499434132 0.0 0.0
0.000468356883577728 -0.00014476544424968374 0.0 -0.0020917094642117773 0.0 0.0
0.0007796945903981028 -0.00032387485652995984 0.0 -0.0022479511733683455 0.0 0.0
0.0011836772149431546 -0.0005574621939372637 0.0 -0.002559766112206485 0.0 0.0
0.001969837931636853 -0.0010559046644065262 0.0 -0.0032244964499704154 0.0 0.0
0.003475219421386941 -0.002181713570533983 0.0 -0.004531810407431058 0.0 0.0
0.0057884607554931355 -0.004154998296054924 0.0 -0.006502361963024006 0.0 0.0
0.008787584352595287 -0.006893954469660013 0.0 -0.008926622209125767 0.0 0.0
0.012261902984371728 -0.010171914305916463 0.0 -0.011523304109086141 0.0 0.0
0.016098721318109854 -0.013842101675865859 0.0 -0.014075352436744015 0.0 0.0
0.020305415480478636 -0.0178992597110903 0.0 -0.016592309090656343 0.0 0.0
0.024960622338714378 -0.022418443234318186 0.0 -0.019101779083004478 0.0 0.0
0.03015230713603753 -0.027478799807264753 0.0 -0.02155427926224407 0.0 0.0
0.0359101459013558 -0.03309990249823258 0.0 -0.023695046697539413 0.0 0.0
0.042169547953898046 -0.03922824735652153 0.0 -0.025123755254108704 0.0 0.0
0.04893996794950789 -0.045906959187073326 0.0 -0.025537463168645247 0.0 0.0
0.05636698230489812 -0.05321068750621549 0.0 -0.023721531644344762 0.0 0.0
0.06397929470113076 -0.06058277854892191 0.0 -0.016683378088475198 0.0 0.0
0.06397929470112743 -0.06058277854891392 0.0 0.01668337808852094 0.0 0.0
0.05636698230488513 -0.05321068750619995 0.0 0.023721531644405935 0.0 0.0
0.048939967949487434 -0.04590695918705823 0.0 0.025537463168689878 0.0 0.0
0.04216954795387445 -0.03922824735650554 0.0 0.02512375525412336 0.0 0.0
0.035910145901329155 -0.033099902498208156 0.0 0.023695046697527533 0.0 0.0
0.030152307136011636 -0.027478799807244325 0.0 0.02155427926222997 0.0 0.0
0.02496062233869073 -0.02241844323430131 0.0 0.01910177908299726 0.0 0.0
0.020305415480456446 -0.017899259711068538 0.0 0.016592309090650348 0.0 0.0
0.016098721318088344 -0.013842101675845875 0.0 0.014075352436729971 0.0 0.0
0.012261902984351036 -0.010171914305897367 0.0 0.0115233041090671 0.0 0.0
0.008787584352577454 -0.006893954469644914 0.0 0.008926622209105672 0.0 0.0
0.005788460755480368 -0.004154998296041157 0.0 0.00650236196301196 0.0 0.0
0.0034752194213787946 -0.0021817135705255453 0.0 0.004531810407423065 0.0 0.0
0.0019698379316320513 -0.0010559046644029735 0.0 0.003224496449965031 0.0 0.0
0.001183677214941642 -0.0005574621939354873 0.0 0.0025597661122018778 0.0 0.0
0.0007796945903975616 -0.0003238748565287386 0.0 0.0022479511733672353 0.0 0.0
0.00046835688357704797 -0.00014476544424990578 0.0 0.0020917094642099454 0.0 0.0
0.00020518792490864524 -5.776615502117721e-05 0.0 0.0021470244499411373 0.0 0.0
9.472985941036405e-05 -0.00020366919989708854 0.0 0.0023675090329679516 0.0 0.0
0.0013631075080406674 -0.002465876933941758 0.0 0.0029334624513727148 0.0 0.0
0.0009457124210713874 -0.0018971367620540802 0.0 -0.002420691379025841 0.0 0.0
2.2918860991233414e-05 -0.00017953934345404932 0.0 -0.002439756716603958 0.0 0.0
5.211305988897519e-05 -2.947710624146005e-06 0.0 -0.0023044488968951837 0.0 0.0
0.0002240730269069402 -3.603417837794165e-05 0.0 -0.0022670807532035875 0.0 0.0
0.0004430658024410783 -0.00016518883028959763 0.0 -0.0024298596906601744 0.0 0.0
0.0007028481859257529 -0.0003196277417645277 0.0 -0.002757558736832866 0.0 0.0
0.0011320649584645182 -0.0005555065947850935 0.0 -0.0032394479344337035 0.0 0.0
0.001958956442255688 -0.001067215043220049 0.0 -0.004074714649467737 0.0 0.0
0.0033175022742378546 -0.002073138297505661 0.0 -0.0054214142472426285 0.0 0.0
0.005126466267725477 -0.0036017252569084945 0.0 -0.00719076556042253 0.0 0.0
0.0072448493265704905 -0.005513527589181777 0.0 -0.009212666184310159 0.0 0.0
0.009563131733569846 -0.007678416310776814 0.0 -0.011304693094506324 0.0 0.0
0.012092051399953674 -0.010077606536020856 0.0 -0.013437028739036627 0.0 0.0
0.014896779167074242 -0.012774589185688079 0.0 -0.015560448498595725 0.0 0.0
0.018079503186417406 -0.015862936733836985 0.0 -0.017650142233119004 0.0 0.0
0.021756998665517335 -0.01944461413194265 0.0 -0.01956701138028938 0.0 0.0
0.026002993231164007 -0.02357879427537357 0.0 -0.020923031258959557 0.0 0.0
0.030896336421320336 -0.028393428905517215 0.0 -0.021409203199762805 0.0 0.0
0.036875502580219016 -0.03437939535735657 0.0 -0.02089064988964695 0.0 0.0
0.04447840887072535 -0.04175709062451638 0.0 -0.016788998657210508 0.0 0.0
0.04447840887072407 -0.04175709062451327 0.0 0.016788998657247478 0.0 0.0
0.036875502580210856 -0.03437939535735346 0.0 0.020890649889699353 0.0 0.0
0.030896336421306902 -0.02839342890550256 0.0 0.02140920319980122 0.0 0.0
0.026002993231148103 -0.02357879427535714 0.0 0.020923031258969438 0.0 0.0
0.02175699866550118 -0.019444614131926663 0.0 0.019567011380274946 0.0 0.0
0.018079503186402085 -0.015862936733818778 0.0 0.017650142233104682 0.0 0.0
0.01489677916706128 -0.012774589185673868 0.0 0.01556044849858862 0.0 0.0
0.0120920513999421 -0.010077606536012862 0.0 0.01343702873903263 0.0 0.0
0.009563131733557745 -0.0076784163107666 0.0 0.011304693094495777 0.0 0.0
0.007244849326558944 -0.0055135275891693425 0.0 0.00921266618429406 0.0 0.0
0.005126466267714902 -0.0036017252569027214 0.0 0.007190765560404988 0.0 0.0
0.0033175022742313043 -0.0020731382975032187 0.0 0.005421414247234024 0.0 0.0
0.001958956442251192 -0.0010672150432189387 0.0 0.004074714649460853 0.0 0.0
0.0011320649584621867 -0.0005555065947848714 0.0 0.0032394479344303173 0.0 0.0
0.0007028481859250035 -0.0003196277417665261 0.0 0.002757558736827481 0.0 0.0
0.0004430658024409395 -0.00016518883029026377 0.0 0.0024298596906559555 0.0 0.0
0.0002240730269064406 -3.603417837749756e-05 0.0 0.002267080753201145 0.0 0.0
5.2113059888864166e-05 -2.947710623812938e-06 0.0 0.0023044488968927967 0.0 0.0
2.2918860990650547e-05 -0.0001795393434536885 0.0 0.0024397567166020706 0.0 0.0
0.000945712421069389 -0.0018971367620511954 0.0 0.0024206913790214 0.0 0.0
0.0006505451658574135 -0.0014671335450691936 0.0 -0.0020647001992874503 0.0 0.0
-5.588152046531736e-05 -0.00015990308222252336 0.0 -0.0024741947568897027 0.0 0.0
-9.749992576013611e-05 5.765452363315493e-05 0.0 -0.002403415697056821 0.0 0.0
-1.3291321628139396e-05 6.924399858743158e-05 0.0 -0.002385536319313153 0.0 0.0
0.00010327345700661406 -3.532759250912676e-06 0.0 -0.0025399462488620017 0.0 0.0
0.00021945475080692445 -8.703436196144665e-05 0.0 -0.0028904238412725825 0.0 0.0
0.00036772942672813613 -0.0001735323765930108 0.0 -0.003363594095459388 0.0 0.0
0.0006232522778478744 -0.00030332941023947235 0.0 -0.003868572131896897 0.0 0.0
0.0010675499967129631 -0.0005391899941051825 0.0 -0.0045047067553911635 0.0 0.0
0.0016714016436876478 -0.0009172512004265165 0.0 -0.005437185071721529 0.0 0.0
0.002385651317404619 -0.0014234332999407684 0.0 -0.006720162630728055 0.0 0.0
0.00315418296070491 -0.002034749654032275 0.0 -0.008243176661955287 0.0 0.0
0.003987423743817081 -0.0027516255846760096 0.0 -0.009949956139084448 0.0 0.0
0.0049289219789178385 -0.003608223884406847 0.0 -0.011808537908957861 0.0 0.0
0.00608281260095106 -0.004694452341447164 0.0 -0.013793022539630995 0.0 0.0
0.007637407274127567 -0.006179263122354062 0.0 -0.015761228333984745 0.0 0.0
0.009846491314428635 -0.008290541850481947 0.0 -0.01730906599659543 0.0 0.0
0.012919525832741835 -0.01122367481882769 0.0 -0.017804997767343234 0.0 0.0
0.01714120794090565 -0.015441052746140826 0.0 -0.017366304577237313 0.0 0.0
0.02389536947539625 -0.022232579768758587 0.0 -0.01631125486788798 0.0 0.0
0.023895369475396777 -0.02223257976875681 0.0 0.01631125486791596 0.0 0.0
0.017141207940902042 -0.015441052746130612 0.0 0.0173663045772795 0.0 0.0
0.012919525832735701 -0.011223674818823692 0.0 0.0178049977673711 0.0 0.0
0.00984649131442164 -0.008290541850478839 0.0 0.017309065996595985 0.0 0.0
0.007637407274123237 -0.006179263122355394 0.0 0.015761228333969424 0.0 0.0
0.006082812600946758 -0.004694452341444055 0.0 0.013793022539620559 0.0 0.0
0.004928921978915368 -0.0036082238844050707 0.0 0.011808537908952754 0.0 0.0
0.003987423743815971 -0.0027516255846755655 0.0 0.009949956139080562 0.0 0.0
0.003154182960702495 -0.002034749654030499 0.0 0.008243176661945184 0.0 0.0
0.002385651317402343 -0.001423433299944321 0.0 0.0067201626307162865 0.0 0.0
0.0016714016436857881 -0.0009172512004251843 0.0 0.005437185071710426 0.0 0.0
0.001067549996711381 -0.0005391899941031841 0.0 0.0045047067553888875 0.0 0.0
0.0006232522778467364 -0.000303329410237696 0.0 0.0038685721318927335 0.0 0.0
0.00036772942672774755 -0.00017353237659123444 0.0 0.003363594095456779 0.0 0.0
0.00021945475080681343 -8.703436196033643e-05 0.0 0.002890423841267753 0.0 0.0
0.00010327345700675283 -3.532759250579609e-06 0.0 0.002539946248859226 0.0 0.0
-1.3291321627972863e-05 6.92439985875426e-05 0.0 0.002385536319311876 0.0 0.0
-9.749992576041366e-05 5.7654523633488e-05 0.0 0.0024034156970559883 0.0 0.0
-5.5881520465705936e-05 -0.00015990308222282867 0.0 0.0024741947568887035 0.0 0.0
0.000650545165856331 -0.0014671335450674953 0.0 0.0020647001992848413 0.0 0.0
0.0004446866471841948 -0.0011558441212364823 0.0 -0.001839555512163249 0.0 0.0
-0.00013203378508175323 -0.00013683263025732195 0.0 -0.0024751418154485005 0.0 0.0
-0.00024321222882495164 0.00011894428872905038 0.0 -0.002450186936748533 0.0 0.0
-0.00024402616861926574 0.00017154363999050126 0.0 -0.002440347900365347 0.0 0.0
-0.00023315064570852972 0.00015668526425405283 0.0 -0.002576550611132822 0.0 0.0
-0.00026879596579362786 0.00014819247804198632 0.0 -0.002906883151937101 0.0 0.0
-0.0003838366799210069 0.0001893882580195072 0.0 -0.003369882485332709 0.0 0.0
-0.0006274439093177375 0.0003067949714159468 0.0 -0.003872835055838242 0.0 0.0
-0.0010669278066695043 0.0005394437571961674 0.0 -0.0045065843417631535 0.0 0.0
-0.0016699258174064369 0.0009168597311881577 0.0 -0.005435684053361589 0.0 0.0
-0.0023906941693845885 0.0014314387559695163 0.0 -0.006720204516319828 0.0 0.0
-0.003188133208347682 0.0020690980883042442 0.0 -0.008250380989136885 0.0 0.0
-0.004066173714870086 0.0028201446064701763 0.0 -0.009958983728975856 0.0 0.0
-0.005003554498624524 0.003648847521504628 0.0 -0.011814736747357779 0.0 0.0
-0.0058902785576547545 0.004441889443799862 0.0 -0.01381210459236748 0.0 0.0
-0.006488761212845362 0.004969976689160216 0.0 -0.015906152047697963 0.0 0.0
-0.006413643841548355 0.004878134064526751 0.0 -0.01806408775983981 0.0 0.0
-0.005290614854937925 0.003915942072771017 0.0 -0.020335666643408468 0.0 0.0
-0.00281491998375874 0.0019415308421946165 0.0 -0.022388223526321305 0.0 0.0
0.0033073659248587794 -0.0038055406143615578 0.0 -0.021021477208886363 0.0 0.0
0.0033073659248589737 -0.0038055406143597814 0.0 0.021021477208904127 0.0 0.0
-0.0028149199837591843 0.001941530842196837 0.0 0.022388223526337847 0.0 0.0
-0.005290614854935288 0.0039159420727683525 0.0 0.020335666643412242 0.0 0.0
-0.006413643841543332 0.004878134064515205 0.0 0.01806408775983226 0.0 0.0
-0.006488761212837035 0.004969976689154887 0.0 0.01590615204768553 0.0 0.0
-0.005890278557648149 0.004441889443793645 0.0 0.013812104592355934 0.0 0.0
-0.00500355449861703 0.0036488475214988547 0.0 0.011814736747349341 0.0 0.0
-0.004066173714860899 0.002820144606463515 0.0 0.00995898372896642 0.0 0.0
-0.0031881332083393 0.0020690980882962506 0.0 0.008250380989124007 0.0 0.0
-0.0023906941693774275 0.0014314387559641872 0.0 0.006720204516308503 0.0 0.0
-0.0016699258173997478 0.0009168597311841609 0.0 0.005435684053349932 0.0 0.0
-0.0010669278066664234 0.0005394437571917265 0.0 0.004506584341758879 0.0 0.0
-0.0006274439093154616 0.00030679497141661294 0.0 0.003872835055835633 0.0 0.0
-0.00038383667991978565 0.00018938825801928516 0.0 0.0033698824853282683 0.0 0.0
-0.00026879596579282294 0.00014819247803954383 0.0 0.0029068831519333815 0.0 0.0
-0.0002331506457081134 0.00015668526425471896 0.0 0.0025765506111302683 0.0 0.0
-0.00024402616861876614 0.00017154363999094535 0.0 0.0024403479003645145 0.0 0.0
-0.00024321222882517368 0.00011894428873004959 0.0 0.0024501869367467566 0.0 0.0
-0.00013203378508175323 -0.00013683263025623948 0.0 0.0024751418154472238 0.0 0.0
0.00044468664718372297 -0.0011558441212354102 0.0 0.0018395555121628049 0.0 0.0
0.00030318289294045675 -0.0009161883515261815 0.0 -0.0016628879453612355 0.0 0.0
-0.00020068532113207138 -0.00010595335270829898 0.0 -0.00242750368152983 0.0 0.0
-0.0003825624343984091 0.00017709178045055562 0.0 -0.0024445631335792695 0.0 0.0
-0.00046700675882868636 0.00026973625358062137 0.0 -0.0024276095042272683 0.0 0.0
-0.0005626825262175505 0.0003117301024355701 0.0 -0.0025335254301051546 0.0 0.0
-0.0007497702185109978 0.0003795591938580145 0.0 -0.002810275971690701 0.0 0.0
-0.0011476751209198999 0.0005722444244666836 0.0 -0.0032651727992988877 0.0 0.0
-0.0019618010444189538 0.0010710897691761367 0.0 -0.004088320132840051 0.0 0.0
-0.0033153876962104534 0.0020722465084603847 0.0 -0.0054239077274717 0.0 0.0
-0.005125069692027057 0.0036019998733811676 0.0 -0.007189716612877706 0.0 0.0
-0.007252363174953785 0.005524687512020066 0.0 -0.009212332460248995 0.0 0.0
-0.009596182916670248 0.007715779634185793 0.0 -0.011294138453523783 0.0 0.0
-0.012164155886615569 0.01014709330917496 0.0 -0.013396468123133998 0.0 0.0
-0.014959377128622692 0.0128099747324808 0.0 -0.015509106628654679 0.0 0.0
-0.01788073906491547 0.015593928653153455 0.0 -0.01771828990153601 0.0 0.0
-0.020650319482176605 0.018226671148938944 0.0 -0.02010562135783034 0.0 0.0
-0.02281153065912067 0.020274232406353843 0.0 -0.022750812889762995 0.0 0.0
-0.023813595122781223 0.021206502497511437 0.0 -0.025563782569217874 0.0 0.0
-0.022653916873747154 0.019776141931422853 0.0 -0.026811079142854966 0.0 0.0
-0.016364999811091102 0.01322123698993316 0.0 -0.02453280193532703 0.0 0.0
-0.01636499981109235 0.013221236989933605 0.0 0.024532801935359116 0.0 0.0
-0.02265391687374374 0.019776141931419744 0.0 0.0268110791428966 0.0 0.0
-0.02381359512276987 0.021206502497495006 0.0 0.02556378256924441 0.0 0.0
-0.022811530659103407 0.02027423240633386 0.0 0.022750812889765437 0.0 0.0
-0.020650319482156787 0.018226671148913187 0.0 0.020105621357816017 0.0 0.0
-0.01788073906489754 0.015593928653132139 0.0 0.017718289901521467 0.0 0.0
-0.014959377128605456 0.01280997473245904 0.0 0.015509106628643576 0.0 0.0
-0.012164155886596029 0.01014709330915764 0.0 0.013396468123125227 0.0 0.0
-0.009596182916651597 0.007715779634169806 0.0 0.011294138453506686 0.0 0.0
-0.007252363174937049 0.005524687512000526 0.0 0.009212332460229011 0.0 0.0
-0.005125069692012041 0.003601999873363848 0.0 0.007189716612859942 0.0 0.0
-0.003315387696201544 0.0020722465084532793 0.0 0.00542390772746143 0.0 0.0
-0.001961801044413236 0.0010710897691752486 0.0 0.004088320132836276 0.0 0.0
-0.0011476751209168468 0.0005722444244635749 0.0 0.003265172799293836 0.0 0.0
-0.0007497702185093602 0.00037955919385823655 0.0 0.002810275971686982 0.0 0.0
-0.0005626825262164681 0.0003117301024365693 0.0 0.0025335254301026566 0.0 0.0
-0.00046700675882818676 0.0002697362535818426 0.0 0.0024276095042244372 0.0 0.0
-0.0003825624343985201 0.00017709178045061114 0.0 0.0024445631335769935 0.0 0.0
-0.00020068532113198811 -0.00010595335270888184 0.0 0.002427503681528498 0.0 0.0
0.00030318289294009593 -0.0009161883515254564 0.0 0.0016628879453600698 0.0 0.0
0.0002000063456839285 -0.000707098997491773 0.0 -0.0014753058909448002 0.0 0.0
-0.000262236480633532 -6.895043428500891e-05 0.0 -0.0023264117269836126 0.0 0.0
-0.0005135814908915348 0.0002313421284627637 0.0 -0.002381368454809407 0.0 0.0
-0.0006810953242952777 0.00036217243985769976 0.0 -0.0023493592988764744 0.0 0.0
-0.0008811287133486667 0.00045755490756227424 0.0 -0.0024099802662297387 0.0 0.0
-0.0012269977032176027 0.0006165376674553968 0.0 -0.0026462447407020195 0.0 0.0
-0.0019830830558079937 0.0010741730020591422 0.0 -0.0032657598435724133 0.0 0.0
-0.0034739364091837255 0.002183067426738017 0.0 -0.0045459308794017494 0.0 0.0
-0.0057849165986249285 0.004152310844917295 0.0 -0.006500188100606763 0.0 0.0
-0.00878803271539072 0.006895570776418669 0.0 -0.008925727255337357 0.0 0.0
-0.01227080786079418 0.010183559449722601 0.0 -0.011520800152682309 0.0 0.0
-0.0161243710560999 0.013871797416125098 0.0 -0.014041425310759137 0.0 0.0
-0.02035568954730918 0.017949067531348728 0.0 -0.016476279880998645 0.0 0.0
-0.024996245909099296 0.022433500213906665 0.0 -0.01892194269169678 0.0 0.0
-0.02996428587656394 0.027231929628614093 0.0 -0.02159420093802311 0.0 0.0
-0.034951218665148276 0.03204206330352166 0.0 -0.024778515000244528 0.0 0.0
-0.0393928491380833 0.03631495584547029 0.0 -0.02864886664765498 0.0 0.0
-0.04236023818806192 0.039066005537028214 0.0 -0.03248319136889033 0.0 0.0
-0.042055599538109945 0.038484781719136496 0.0 -0.03441421305238179 0.0 0.0
-0.03493322144150077 0.03068366794284083 0.0 -0.03065897263074968 0.0 0.0
-0.034933221441501155 0.03068366794283639 0.0 0.030658972630793646 0.0 0.0
-0.042055599538101895 0.03848478171913117 0.0 0.03441421305243608 0.0 0.0
-0.042360238188043436 0.03906600553701134 0.0 0.03248319136892497 0.0 0.0
-0.03939284913805635 0.03631495584544542 0.0 0.028648866647662086 0.0 0.0
-0.03495121866511816 0.03204206330349768 0.0 0.024778515000230428 0.0 0.0
-0.029964285876535074 0.027231929628587892 0.0 0.021594200938010955 0.0 0.0
-0.024996245909071985 0.022433500213877355 0.0 0.018921942691681626 0.0 0.0
-0.020355689547279454 0.017949067531317198 0.0 0.01647627988098571 0.0 0.0
-0.01612437105607155 0.013871797416099785 0.0 0.014041425310739708 0.0 0.0
-0.012270807860768812 0.010183559449699509 0.0 0.011520800152658495 0.0 0.0
-0.008788032715367489 0.0068955707764004615 0.0 0.008925727255315208 0.0 0.0
-0.005784916598610038 0.004152310844903084 0.0 0.006500188100593163 0.0 0.0
-0.003473936409173775 0.002183067426729579 0.0 0.004545930879393256 0.0 0.0
-0.0019830830558024426 0.0010741730020560336 0.0 0.003265759843565752 0.0 0.0
-0.0012269977032151602 0.0006165376674549528 0.0 0.0026462447406986334 0.0 0.0
-0.0008811287133475149 0.0004575549075601648 0.0 0.002409980266228129 0.0 0.0
-0.0006810953242945283 0.0003621724398559234 0.0 0.002349359298874698 0.0 0.0
-0.0005135814908914654 0.00023134212846287472 0.0 0.002381368454809074 0.0 0.0
-0.0002622364806334071 -6.895043428564729e-05 0.0 0.002326411726982891 0.0 0.0
0.00020000634568359543 -0.0007070989974910687 0.0 0.0014753058909442451 0.0 0.0
0.00011503457407904816 -0.0005205191120089825 0.0 -0.0012803052787722646 0.0 0.0
-0.0003189418196095639 -2.576203495235907e-05 0.0 -0.002170058569726463 0.0 0.0
-0.0006361695564189584 0.00028191787297437987 0.0 -0.002264165595242118 0.0 0.0
-0.0008855108520236521 0.00044707775200814037 0.0 -0.002212602329548896 0.0 0.0
-0.0011854551333639052 0.0005954847283169418 0.0 -0.00222011536113198 0.0 0.0
-0.0017319874419138015 0.0008987181243287345 0.0 -0.002477701963428225 0.0 0.0
-0.0029419139509254955 0.0017501753477817683 0.0 -0.0032934772556845737 0.0 0.0
-0.005161436191246038 0.0035871554164985664 0.0 -0.004907086206682398 0.0 0.0
-0.008443510011343525 0.006554011806044979 0.0 -0.007266855978770248 0.0 0.0
-0.012604505730988175 0.01046922047308474 0.0 -0.010080250924835221 0.0 0.0
-0.017406075929290388 0.015069974904890149 0.0 -0.012964927840736329 0.0 0.0
-0.02274619029931471 0.020223828495860907 0.0 -0.015702323653578154 0.0 0.0
-0.028635479288312615 0.025936742718553507 0.0 -0.018324093565221466 0.0 0.0
-0.035128084389969366 0.03225004305732915 0.0 -0.02096617393813416 0.0 0.0
-0.042170221393841745 0.03909816589638959 0.0 -0.023927279975040072 0.0 0.0
-0.049440988740384106 0.0461520708488008 0.0 -0.027657665880759796 0.0 0.0
-0.05617099284980617 0.052634499571914795 0.0 -0.03230541078833804 0.0 0.0
-0.06090537448222749 0.0570769773644102 0.0 -0.03698961738823536 0.0 0.0
-0.061129753322115454 0.05687981870067782 0.0 -0.039247511815215796 0.0 0.0
-0.052299667939020106 0.047392786395777264 0.0 -0.035738827578814414 0.0 0.0
-0.05229966793901808 0.047392786395776376 0.0 0.03573882757886149 0.0 0.0
-0.06112975332210299 0.05687981870067116 0.0 0.03924751181527686 0.0 0.0
-0.06090537448220254 0.05707697736438977 0.0 0.03698961738827766 0.0 0.0
-0.056170992849771575 0.05263449957187172 0.0 0.032305410788350364 0.0 0.0
-0.049440988740344305 0.04615207084875861 0.0 0.02765766588074725 0.0 0.0
-0.042170221393802804 0.0390981658963514 0.0 0.023927279975026083 0.0 0.0
-0.03512808438993162 0.0322500430572914 0.0 0.020966173938117394 0.0 0.0
-0.028635479288273244 0.025936742718509542 0.0 0.01832409356520881 0.0 0.0
-0.02274619029927663 0.02022382849582227 0.0 0.015702323653557504 0.0 0.0
-0.017406075929256276 0.015069974904853733 0.0 0.012964927840709461 0.0 0.0
-0.012604505730957616 0.010469220473055874 0.0 0.010080250924809742 0.0 0.0
-0.008443510011322056 0.006554011806022553 0.0 0.007266855978753151 0.0 0.0
-0.005161436191231564 0.003587155416481913 0.0 0.004907086206672906 0.0 0.0
-0.0029419139509171133 0.0017501753477746629 0.0 0.0032934772556766356 0.0 0.0
-0.0017319874419099435 0.00089871812432607 0.0 0.002477701963423895 0.0 0.0
-0.0011854551333626007 0.0005954847283158315 0.0 0.0022201153611301483 0.0 0.0
-0.0008855108520228472 0.0004470777520083624 0.0 0.0022126023295471753 0.0 0.0
-0.0006361695564184311 0.0002819178729741023 0.0 0.0022641655952401196 0.0 0.0
-0.00031894181960946677 -2.5762034952692137e-05 0.0 0.002170058569724076 0.0 0.0
0.00011503457407895101 -0.0005205191120086945 0.0 0.001280305278771099 0.0 0.0
4.141210064678713e-05 -0.0003558584954904964 0.0 -0.0010804165327179538 0.0 0.0
-0.00037359056192728946 2.2652962862801385e-05 0.0 -0.0019618302855807235 0.0 0.0
-0.0007511278658926257 0.0003296459197233981 0.0 -0.002089992316463618 0.0 0.0
-0.001078186423861982 0.0005226554681305728 0.0 -0.002010675028246478 0.0 0.0
-0.0014843950395215522 0.0007365727037469405 0.0 -0.0019846308916005584 0.0 0.0
-0.0022988879071628165 0.0012572372124224351 0.0 -0.0022951513406986312 0.0 0.0
-0.004024506581489479 0.0026025433360685746 0.0 -0.0032542617065816626 0.0 0.0
-0.007001057021129353 0.005218731066771953 0.0 -0.005067761863550291 0.0 0.0
-0.011236979712883066 0.009161152477444201 0.0 -0.00762862661446867 0.0 0.0
-0.016508864244336924 0.01419123450046289 0.0 -0.010546999312179839 0.0 0.0
-0.022609755875758364 0.020072092532699592 0.0 -0.013473826245586573 0.0 0.0
-0.029434029039543452 0.026686897123380238 0.0 -0.016265513827964595 0.0 0.0
-0.03698436151944304 0.03403620944099295 0.0 -0.01894706413761016 0.0 0.0
-0.045325701567548476 0.04217800190821519 0.0 -0.02162586016753132 0.0 0.0
-0.05444881554495146 0.05108293009035325 0.0 -0.024621524902236014 0.0 0.0
-0.06400679906682794 0.06037959123292991 0.0 -0.02842722697656841 0.0 0.0
-0.072978366388297 0.06903266768053573 0.0 -0.03327301103556857 0.0 0.0
-0.0793536911815021 0.0750147766307605 0.0 -0.03835080263687052 0.0 0.0
-0.07979040589379885 0.07495878556000335 0.0 -0.04138912674967754 0.0 0.0
-0.06921390512505043 0.06379445425472419 0.0 -0.04024945294345128 0.0 0.0
-0.06921390512504572 0.0637944542547153 0.0 0.040249452943498354 0.0 0.0
-0.0797904058937817 0.07495878555998159 0.0 0.04138912674973372 0.0 0.0
-0.07935369118146983 0.07501477663073342 0.0 0.038350802636912096 0.0 0.0
-0.07297836638825578 0.06903266768049132 0.0 0.03327301103558017 0.0 0.0
-0.06400679906677925 0.06037959123288639 0.0 0.028427226976558306 0.0 0.0
-0.054448815544902926 0.051082930090307954 0.0 0.024621524902223135 0.0 0.0
-0.045325701567500126 0.04217800190816812 0.0 0.021625860167513056 0.0 0.0
-0.036984361519394104 0.034036209440948095 0.0 0.018947064137596836 0.0 0.0
-0.02943402903949567 0.026686897123334052 0.0 0.0162655138279435 0.0 0.0
-0.022609755875715634 0.020072092532653407 0.0 0.013473826245560927 0.0 0.0
-0.01650886424429962 0.014191234500426031 0.0 0.010546999312152971 0.0 0.0
-0.011236979712854839 0.009161152477418666 0.0 0.007628626614449796 0.0 0.0
-0.007001057021110035 0.0052187310667530795 0.0 0.005067761863537801 0.0 0.0
-0.004024506581477835 0.0026025433360594707 0.0 0.0032542617065729473 0.0 0.0
-0.0022988879071573626 0.0012572372124188824 0.0 0.0022951513406937463 0.0 0.0
-0.0014843950395197758 0.0007365727037464964 0.0 0.0019846308915992816 0.0 0.0
-0.0010781864238611633 0.0005226554681296847 0.0 0.002010675028246034 0.0 0.0
-0.0007511278658917236 0.00032964591972273194 0.0 0.002089992316462841 0.0 0.0
-0.00037359056192703965 2.2652962862801385e-05 0.0 0.001961830285579391 0.0 0.0
4.141210064660672e-05 -0.000355858495489976 0.0 0.0010804165327173432 0.0 0.0
-2.1938539629617893e-05 -0.00021456479370285386 0.0 -0.0008749934199088205 0.0 0.0
-0.00042685269693720773 7.44334943313385e-05 0.0 -0.0017073259014136477 0.0 0.0
-0.0008593869252468411 0.00037445749505082837 0.0 -0.0018596486596730855 0.0 0.0
-0.0012599833937807225 0.0005924042028545573 0.0 -0.0017603558580513434 0.0 0.0
-0.0017971705932720017 0.0009011463849037948 0.0 -0.0017281507136149843 0.0 0.0
-0.0029407249084405784 0.0017092108389775706 0.0 -0.0020754615996466663 0.0 0.0
-0.0052251642208697435 0.003619678750673927 0.0 -0.0031036298932811124 0.0 0.0
-0.008961934198339433 0.00702203564022752 0.0 -0.0049793436875457675 0.0 0.0
-0.014100542830381896 0.011883975001091063 0.0 -0.007489211556065689 0.0 0.0
-0.020456194012086787 0.01798740022402523 0.0 -0.01027887629922386 0.0 0.0
-0.02784931873269489 0.025138485571808644 0.0 -0.0130962692819373 0.0 0.0
-0.036162322524849105 0.033217141973887365 0.0 -0.015784575477041374 0.0 0.0
-0.04538143306345879 0.04220924904523793 0.0 -0.018379980171737142 0.0 0.0
-0.05556474316494725 0.05217065318985625 0.0 -0.02097279605212654 0.0 0.0
-0.06672080140283362 0.06308719475214675 0.0 -0.023726828181797943 0.0 0.0
-0.07849510678368954 0.07455995617019084 0.0 -0.027080741917384077 0.0 0.0
-0.08964438730910512 0.08531883593546263 0.0 -0.03153622629279895 0.0 0.0
-0.09758804665149803 0.09278199933838449 0.0 -0.03678541769988042 0.0 0.0
-0.09825940816933917 0.09291952723130903 0.0 -0.041444993832202015 0.0 0.0
-0.08620347164672318 0.08031709600627268 0.0 -0.044508526253809855 0.0 0.0
-0.08620347164671624 0.08031709600626424 0.0 0.044508526253858705 0.0 0.0
-0.09825940816931714 0.0929195272312846 0.0 0.04144499383225808 0.0 0.0
-0.09758804665145861 0.09278199933835474 0.0 0.03678541769992211 0.0 0.0
-0.08964438730905683 0.08531883593541778 0.0 0.0315362262928105 0.0 0.0
-0.07849510678363227 0.07455995617013533 0.0 0.02708074191737847 0.0 0.0
-0.06672080140277484 0.06308719475208946 0.0 0.023726828181789117 0.0 0.0
-0.05556474316488927 0.052170653189802074 0.0 0.02097279605211272 0.0 0.0
-0.04538143306340038 0.04220924904517798 0.0 0.01837998017172532 0.0 0.0
-0.03616232252479186 0.033217141973828745 0.0 0.015784575477022278 0.0 0.0
-0.027849318732643624 0.025138485571758906 0.0 0.013096269281912709 0.0 0.0
-0.020456194012042517 0.017987400223979044 0.0 0.010278876299201045 0.0 0.0
-0.014100542830347854 0.011883975001059088 0.0 0.007489211556048647 0.0 0.0
-0.008961934198315397 0.007022035640205981 0.0 0.0049793436875332775 0.0 0.0
-0.005225164220854506 0.0036196787506606043 0.0 0.003103629893272064 0.0 0.0
-0.002940724908433015 0.0017092108389682448 0.0 0.0020754615996413928 0.0 0.0
-0.001797170593269476 0.0009011463849024626 0.0 0.00172815071361343 0.0 0.0
-0.001259983393779765 0.0005924042028542242 0.0 0.001760355858049678 0.0 0.0
-0.0008593869252459113 0.00037445749504977366 0.0 0.0018596486596714201 0.0 0.0
-0.0004268526969367914 7.443349433075563e-05 0.0 0.0017073259014118158 0.0 0.0
-2.1938539629645648e-05 -0.00021456479370262314 0.0 0.0008749934199080434 0.0 0.0
-7.34631544929698e-05 -9.903705897826298e-05 0.0 -0.000663252696752048 0.0 0.0
-0.00047692617432165685 0.00012677703447400157 0.0 -0.001411643394764961 0.0 0.0
-0.0009617921846211686 0.00041636894243324285 0.0 -0.0015730222333275035 0.0 0.0
-0.0014364945054644584 0.0006601199113435152 0.0 -0.0014607544074849987 0.0 0.0
-0.0021420996740428855 0.001099313627144216 0.0 -0.001431087505100459 0.0 0.0
-0.00366519816383426 0.0022703214282704387 0.0 -0.001802559044016716 0.0 0.0
-0.0065363297150436706 0.004786821540512021 0.0 -0.002838718669932405 0.0 0.0
-0.010985497534381966 0.008929519037219391 0.0 -0.004570307820203845 0.0 0.0
-0.016989366479738643 0.014657739309426265 0.0 -0.006799916045563237 0.0 0.0
-0.024418602278190538 0.021819121292396826 0.0 -0.009311739640627592 0.0 0.0
-0.03309678552141798 0.03023374685762903 0.0 -0.011848566557793316 0.0 0.0
-0.042903699121322414 0.03978040426723872 0.0 -0.01427585192093983 0.0 0.0
-0.05380473488827098 0.050426753022706716 0.0 -0.01664773108665507 0.0 0.0
-0.06581936888263715 0.06219014186133931 0.0 -0.018998680837885473 0.0 0.0
-0.07892031631253049 0.075029737514265 0.0 -0.021324497802916786 0.0 0.0
-0.0927520231005679 0.08853726627724745 0.0 -0.023814024497170294 0.0 0.0
-0.10597496169947596 0.10130942724987824 0.0 -0.027194861769609724 0.0 0.0
-0.11556565233073621 0.1103447112682363 0.0 -0.032351282445095 0.0 0.0
-0.11680359300920837 0.11099461865840432 0.0 -0.0394846102105203 0.0 0.0
-0.1036812632993776 0.09733292148844441 0.0 -0.0485022603848384 0.0 0.0
-0.10368126329936853 0.09733292148843287 0.0 0.04850226038488259 0.0 0.0
-0.1168035930091808 0.11099461865837457 0.0 0.039484610210575144 0.0 0.0
-0.11556565233069063 0.11034471126819279 0.0 0.032351282445132246 0.0 0.0
-0.10597496169941936 0.1013094272498214 0.0 0.02719486176961944 0.0 0.0
-0.09275202310050239 0.08853726627718439 0.0 0.023814024497168684 0.0 0.0
-0.07892031631246185 0.07502973751420017 0.0 0.021324497802909237 0.0 0.0
-0.06581936888256941 0.06219014186127758 0.0 0.018998680837871706 0.0 0.0
-0.0538047348882032 0.05042675302264232 0.0 0.016647731086642137 0.0 0.0
-0.04290369912125633 0.03978040426717344 0.0 0.014275851920923788 0.0 0.0
-0.03309678552135798 0.03023374685756819 0.0 0.011848566557770224 0.0 0.0
-0.02441860227813933 0.021819121292349752 0.0 0.009311739640606553 0.0 0.0
-0.016989366479699286 0.014657739309387408 0.0 0.006799916045548804 0.0 0.0
-0.010985497534353052 0.008929519037191636 0.0 0.004570307820191688 0.0 0.0
-0.006536329715025033 0.004786821540494257 0.0 0.0028387186699253553 0.0 0.0
-0.003665198163824532 0.0022703214282639994 0.0 0.0018025590440108874 0.0 0.0
-0.0021420996740392703 0.0010993136271415516 0.0 0.0014310875050992933 0.0 0.0
-0.0014364945054635772 0.0006601199113434042 0.0 0.001460754407483833 0.0 0.0
-0.0009617921846204747 0.00041636894243374245 0.0 0.0015730222333258936 0.0 0.0
-0.00047692617432112255 0.00012677703447394606 0.0 0.00141164339476324 0.0 0.0
-7.346315449293511e-05 -9.903705897829074e-05 0.0 0.0006632526967507713 0.0 0.0
-0.00010945090515729339 -1.251349344680297e-05 0.0 -0.00044678757911892353 0.0 0.0
-0.0005190843686645463 0.00017596372684436368 0.0 -0.0010775412443822519 0.0 0.0
-0.0010591974564202467 0.00045455213111622594 0.0 -0.0012288000160332047 0.0 0.0
-0.0016167948453343906 0.0007357556598948101 0.0 -0.0011168530926207731 0.0 0.0
-0.0025351973404704187 0.0013535528695438614 0.0 -0.0010957216255665925 0.0 0.0
-0.004482924605058336 0.002946144075659296 0.0 -0.0014710410657499673 0.0 0.0
-0.007916885621234604 0.0060527914316086395 0.0 -0.002360601225145753 0.0 0.0
-0.013028522890804695 0.010880860278465132 0.0 -0.0037644809652012112 0.0 0.0
-0.019879524998511033 0.017450683818653445 0.0 -0.00559168449779196 0.0 0.0
-0.028366370650747208 0.025653271224423513 0.0 -0.007658837752239078 0.0 0.0
-0.038324541167049864 0.03532532314470549 0.0 -0.00975221502961754 0.0 0.0
-0.04962967459728093 0.04634504489682367 0.0 -0.011751857585358572 0.0 0.0
-0.06222437398936567 0.05865500042668348 0.0 -0.013718454703378069 0.0 0.0
-0.07606658659978596 0.0722115311647249 0.0 -0.015707051774533687 0.0 0.0
-0.09101881619589863 0.08687126590672634 0.0 -0.017534638946371528 0.0 0.0
-0.1066563038365661 0.10217521295595633 0.0 -0.018932628507701166 0.0 0.0
-0.12173567181385508 0.11680031639689403 0.0 -0.020555300411492117 0.0 0.0
-0.13321539468482899 0.12763723195751453 0.0 -0.02499580899596454 0.0 0.0
-0.13565002858851202 0.12939883641655703 0.0 -0.035063632170494685 0.0 0.0
-0.12210003482765219 0.11525580430314575 0.0 -0.051906340869933176 0.0 0.0
-0.12210003482764104 0.11525580430313598 0.0 0.05190634086996637 0.0 0.0
-0.1356500285884783 0.1293988364165295 0.0 0.03506363217054126 0.0 0.0
-0.1332153946847773 0.12763723195746657 0.0 0.024995808995996405 0.0 0.0
-0.12173567181378928 0.11680031639683364 0.0 0.020555300411499833 0.0 0.0
-0.10665630383649222 0.10217521295588572 0.0 0.018932628507701443 0.0 0.0
-0.09101881619582099 0.08687126590665173 0.0 0.01753463894636642 0.0 0.0
-0.07606658659970784 0.07221153116464807 0.0 0.015707051774524694 0.0 0.0
-0.06222437398928859 0.05865500042660887 0.0 0.013718454703369298 0.0 0.0
-0.04962967459720553 0.04634504489674374 0.0 0.011751857585348885 0.0 0.0
-0.03832454116698226 0.03532532314463532 0.0 0.00975221502959836 0.0 0.0
-0.02836637065068935 0.02565327122436889 0.0 0.007658837752218539 0.0 0.0
-0.019879524998466132 0.017450683818607482 0.0 0.005591684497778637 0.0 0.0
-0.01302852289077095 0.010880860278431603 0.0 0.0037644809651909417 0.0 0.0
-0.007916885621212448 0.0060527914315884335 0.0 0.002360601225139536 0.0 0.0
-0.004482924605046457 0.00294614407564886 0.0 0.0014710410657448048 0.0 0.0
-0.0025351973404653394 0.0013535528695394206 0.0 0.001095721625563817 0.0 0.0
-0.0016167948453334538 0.0007357556598932558 0.0 0.001116853092619774 0.0 0.0
-0.0010591974564193654 0.00045455213111617043 0.0 0.0012288000160324275 0.0 0.0
-0.000519084368664019 0.00017596372684425265 0.0 0.0010775412443815857 0.0 0.0
-0.00010945090515745298 -1.2513493446650314e-05 0.0 0.000446787579118757 0.0 0.0
-0.00012326350049529644 4.078586584585486e-05 0.0 -0.00023231384469518668 0.0 0.0
-0.0005443817817603613 0.00021595128956669596 0.0 -0.0007045761392642791 0.0 0.0
-0.0011535299202121152 0.0004902291423245497 0.0 -0.0008204271250860096 0.0 0.0
-0.001815803238078284 0.0008289156486654958 0.0 -0.0007305442835503495 0.0 0.0
-0.0029937318140577096 0.0016870005526192777 0.0 -0.0007306056899020197 0.0 0.0
-0.005380065178029636 0.0037257628284119715 0.0 -0.0010228122533201822 0.0 0.0
-0.009324027423595727 0.007374920840512944 0.0 -0.0016456406352589048 0.0 0.0
-0.015072724308181906 0.012847984589766437 0.0 -0.0026023724438151152 0.0 0.0
-0.022743019396171793 0.020232811523881455 0.0 -0.003870734762004835 0.0 0.0
-0.0322707939317039 0.02945902157993574 0.0 -0.005326797031799391 0.0 0.0
-0.04350452331905319 0.04038337045640583 0.0 -0.00680229622455486 0.0 0.0
-0.05631231868596892 0.052879687434806755 0.0 -0.008212180545106862 0.0 0.0
-0.07060812283108198 0.06686020777953816 0.0 -0.009629064076302374 0.0 0.0
-0.08626820859082632 0.08219738916321306 0.0 -0.011050466048894148 0.0 0.0
-0.10300480201673795 0.0985997427839953 0.0 -0.012260500931239204 0.0 0.0
-0.1202184786119784 0.11546182513298309 0.0 -0.012810868847991652 0.0 0.0
-0.1367394059774712 0.131571352778169 0.0 -0.01262745958776157 0.0 0.0
-0.1501094497683321 0.144351745441059 0.0 -0.01456174318941561 0.0 0.0
-0.15498227470172624 0.14827628356864508 0.0 -0.02663501153821013 0.0 0.0
-0.1421317905430813 0.13470662630306185 0.0 -0.053932161341249896 0.0 0.0
-0.14213179054306802 0.1347066263030503 0.0 0.05393216134127676 0.0 0.0
-0.15498227470168655 0.1482762835686069 0.0 0.026635011538246434 0.0 0.0
-0.15010944976827306 0.1443517454410066 0.0 0.014561743189439535 0.0 0.0
-0.13673940597739642 0.13157135277809884 0.0 0.012627459587764067 0.0 0.0
-0.12021847861189563 0.11546182513290626 0.0 0.012810868847990431 0.0 0.0
-0.1030048020166505 0.09859974278391581 0.0 0.012260500931236124 0.0 0.0
-0.08626820859073829 0.08219738916313091 0.0 0.011050466048890095 0.0 0.0
-0.0706081228309958 0.06686020777945201 0.0 0.009629064076295962 0.0 0.0
-0.0563123186858843 0.052879687434724154 0.0 0.008212180545100617 0.0 0.0
-0.0435045233189781 0.040383370456333445 0.0 0.006802296224540649 0.0 0.0
-0.03227079393164012 0.02945902157987046 0.0 0.005326797031785013 0.0 0.0
-0.02274301939612144 0.020232811523833494 0.0 0.003870734761997119 0.0 0.0
-0.015072724308143891 0.012847984589734462 0.0 0.002602372443809564 0.0 0.0
-0.009324027423569775 0.0073749208404905175 0.0 0.0016456406352543529 0.0 0.0
-0.005380065178015318 0.0037257628284010913 0.0 0.0010228122533187944 0.0 0.0
-0.002993731814051416 0.001687000552615392 0.0 0.000730605689900854 0.0 0.0
-0.0018158032380770697 0.0008289156486631644 0.0 0.0007305442835498499 0.0 0.0
-0.0011535299202111889 0.0004902291423240501 0.0 0.0008204271250849549 0.0 0.0
-0.0005443817817601601 0.00021595128956650167 0.0 0.0007045761392631689 0.0 0.0
-0.0001232635004950501 4.078586584595201e-05 0.0 0.00023231384469557526 0.0 0.0
-0.00010309123563240208 5.487204006685009e-05 0.0 -3.6350536603113603e-05 0.0 0.0
-0.0005372572703454814 0.00023697194172711544 0.0 -0.00028557699275721937 0.0 0.0
-0.0012503600836154538 0.000527156513941196 0.0 -0.00033393375691853633 0.0 0.0
-0.0020558669656075 0.0009652413556209272 0.0 -0.0003095709036950445 0.0 0.0
-0.0035251137971278323 0.0021002498146565074 0.0 -0.00031260035774471895 0.0 0.0
-0.006323968678466074 0.004571487100706095 0.0 -0.0004297176098980726 0.0 0.0
-0.010743181884535269 0.008723792612126413 0.0 -0.0006870450873341372 0.0 0.0
-0.017093037119977395 0.014805259988648123 0.0 -0.0010861573579316608 0.0 0.0
-0.025552469683033097 0.022973113494018094 0.0 -0.001645976908468183 0.0 0.0
-0.036101678472094834 0.0332046017041967 0.0 -0.002313660670414941 0.0 0.0
-0.04860971868211378 0.0453800768239625 0.0 -0.0030004416505625686 0.0 0.0
-0.06292839361909908 0.05935888946590051 0.0 -0.0036742187180335284 0.0 0.0
-0.07891414406553321 0.0749990207497242 0.0 -0.004344080706957576 0.0 0.0
-0.0963669847412636 0.09209312875438425 0.0 -0.004976463562716971 0.0 0.0
-0.11486168862419938 0.11021005862411304 0.0 -0.005446098356745033 0.0 0.0
-0.13356076710130582 0.12851639072878385 0.0 -0.005440050082468284 0.0 0.0
-0.1511199995051541 0.14568025896213133 0.0 -0.0045303143577423155 0.0 0.0
-0.16559034045616902 0.15971953025315067 0.0 -0.003378666453069279 0.0 0.0
-0.173546182544279 0.1669839076641475 0.0 -0.010557893838093357 0.0 0.0
-0.1657120983319236 0.15717158707983003 0.0 -0.04967647421126187 0.0 0.0
-0.16571209833190775 0.1571715870798176 0.0 0.049676474211269084 0.0 0.0
-0.17354618254423415 0.1669839076641093 0.0 0.010557893838111898 0.0 0.0
-0.16559034045610144 0.15971953025308316 0.0 0.003378666453082879 0.0 0.0
-0.1511199995050697 0.14568025896204473 0.0 0.00453031435773904 0.0 0.0
-0.133560767101213 0.12851639072868837 0.0 0.0054400500824678955 0.0 0.0
-0.1148616886241021 0.11021005862401667 0.0 0.005446098356743201 0.0 0.0
-0.09636698474116585 0.09209312875428655 0.0 0.004976463562714306 0.0 0.0
-0.07891414406543794 0.07499902074962694 0.0 0.004344080706951525 0.0 0.0
-0.06292839361900529 0.05935888946580947 0.0 0.003674218718032307 0.0 0.0
-0.04860971868203076 0.04538007682388434 0.0 0.00300044165055674 0.0 0.0
-0.036101678472025195 0.033204601704128756 0.0 0.0023136606704087237 0.0 0.0
-0.025552469682978137 0.022973113493961472 0.0 0.001645976908465241 0.0 0.0
-0.01709303711993518 0.014805259988605268 0.0 0.001086157357927553 0.0 0.0
-0.010743181884505617 0.008723792612099546 0.0 0.0006870450873327494 0.0 0.0
-0.00632396867844911 0.004571487100691218 0.0 0.00042971760989735097 0.0 0.0
-0.0035251137971203036 0.002100249814649069 0.0 0.00031260035774333117 0.0 0.0
-0.0020558669656057455 0.0009652413556183737 0.0 0.0003095709036960992 0.0 0.0
-0.0012503600836136454 0.0005271565139409184 0.0 0.0003339337569188694 0.0 0.0
-0.0005372572703455196 0.00023697194172597746 0.0 0.00028557699275855164 0.0 0.0
-0.00010309123563229279 5.487204006687438e-05 0.0 3.635053660283605e-05 0.0 0.0
SCALARS Statev float 8
LOOKUP_TABLE default
0.0 0.013013844360798589 0.010058419244981496 -0.010439881513338968 0.0003814622683574691 -0.00577920173057076 0.0 0.0
0.0 0.0007271310809899296 0.0005106508599155916 -0.000431748973586021 -7.890188632957043e-05 0.0004776557199925748 0.0 0.0
0.0 3.342380937738801e-05 -4.754075056001044e-06 3.773145031477424e-06 9.809300245235895e-07 5.62033213615258e-07 0.0 0.0
0.0 0.0002707526916340461 0.00019015056498497757 -0.00014969240150176276 -4.045816348321481e-05 -2.6665520454585417e-05 0.0 0.0
0.0 0.0014802637080046956 0.001193179907977595 -0.0009870271662543169 -0.000206152741723278 -0.00012944025982758328 0.0 0.0
0.0 0.004017578122223786 0.0036442470089200823 -0.0031961672624197905 -0.0004480797465002913 -0.0002991037496876671 0.0 0.0
0.0 0.00871165120447791 0.007769119224403537 -0.007148323681356351 -0.0006207955430471846 -0.000552578621753792 0.0 0.0
0.0 0.015707797458337 0.013858442370050898 -0.013118679627823 -0.0007397627422278945 -0.0009329044282879992 0.0 0.0
0.0 0.02517419758203069 0.022063445443573238 -0.02121859366808572 -0.0008448517754875108 -0.0014692187620878468 0.0 0.0
0.0 0.03709256632854846 0.03236942130553182 -0.0314159435491788 -0.0009534777563530144 -0.002122491444905247 0.0 0.0
0.0 0.051353932713083514 0.044662076909675746 -0.043595716311667185 -0.0010663605980085443 -0.002809904240071561 0.0 0.0
0.0 0.06751550463954088 0.05880556600135502 -0.05762390840606609 -0.001181657595288878 -0.0034905739513342686 0.0 0.0
0.0 0.08572526356360773 0.07466075609019344 -0.07336256163191744 -0.001298194458275944 -0.004165870117205821 0.0 0.0
0.0 0.10578733801354004 0.09206030539518309 -0.09064278867907 -0.001417516716113025 -0.004831303675258783 0.0 0.0
0.0 0.12727209156655533 0.11068735162814217 -0.10914624621447284 -0.0015411054136692946 -0.005462813891191095 0.0 0.0
0.0 0.1495130871362758 0.12993477628652333 -0.128266813195493 -0.0016679630910303943 -0.005940672709145689 0.0 0.0
0.0 0.1713694667993208 0.14884382186165082 -0.14704977836481312 -0.0017940434968377016 -0.0060413073583752055 0.0 0.0
0.0 0.19134755028490774 0.16613737813444102 -0.1642228138869308 -0.0019145642475102038 -0.005534131387527466 0.0 0.0
0.0 0.20768448572373227 0.18028455568945367 -0.17825722732887359 -0.00202732836058003 -0.004641503720662789 0.0 0.0
0.0 0.21764685560079222 0.18904955328615733 -0.18685783964443836 -0.0021917136417190786 -0.005125645037224193 0.0 0.0
0.0 0.21764685560078206 0.18904955328614806 -0.18685783964442995 -0.002191713641718082 0.005125645037231502 0.0 0.0
0.0 0.20768448572368914 0.1802845556894159 -0.17825722732883637 -0.0020273283605794436 0.004641503720683815 0.0 0.0
0.0 0.19134755028483025 0.16613737813437413 -0.16422281388686383 -0.00191456424751033 0.0055341313875391825 0.0 0.0
0.0 0.17136946679922208 0.14884382186156528 -0.14704977836472766 -0.001794043496837568 0.00604130735838166 0.0 0.0
0.0 0.14951308713617256 0.1299347762864337 -0.12826681319540423 -0.0016679630910295575 0.005940672709135943 0.0 0.0
0.0 0.12727209156645086 0.1106873516280514 -0.10914624621438271 -0.001541105413668666 0.005462813891190251 0.0 0.0
0.0 0.10578733801343447 0.09206030539509157 -0.09064278867897901 -0.00141751671611251 0.004831303675257895 0.0 0.0
0.0 0.08572526356350148 0.07466075609010141 -0.07336256163182585 -0.0012981944582755958 0.0041658701172046985 0.0 0.0
0.0 0.06751550463944063 0.05880556600126826 -0.05762390840597957 -0.0011816575952886745 0.0034905739513272976 0.0 0.0
0.0 0.05135393271299764 0.04466207690960088 -0.04359571631159309 -0.0010663605980077704 0.002809904240066244 0.0 0.0
0.0 0.037092566328476954 0.03236942130546956 -0.03141594354911766 -0.0009534777563519106 0.002122491444897401 0.0 0.0
0.0 0.025174197581974107 0.022063445443523424 -0.02121859366803671 -0.0008448517754867306 0.0014692187620853057 0.0 0.0
0.0 0.01570779745829566 0.013858442370014124 -0.01311867962778689 -0.0007397627422272288 0.0009329044282846406 0.0 0.0
0.0 0.00871165120445001 0.007769119224378493 -0.007148323681331922 -0.0006207955430465693 0.0005525786217521181 0.0 0.0
0.0 0.004017578122208399 0.003644247008905789 -0.0031961672624064713 -0.0004480797464993168 0.0002991037496864471 0.0 0.0
0.0 0.0014802637079973388 0.0011931799079715093 -0.0009870271662490281 -0.00020615274172248045 0.00012944025982685432 0.0 0.0
0.0 0.00027075269163136424 0.00019015056498345665 -0.00014969240150053165 -4.045816348292497e-05 2.6665520454291822e-05 0.0 0.0
0.0 3.342380937687491e-05 -4.754075055922566e-06 3.7731450314146314e-06 9.80930024507978e-07 -5.620332136057866e-07 0.0 0.0
0.0 0.0007271310809874182 0.0005106508599142266 -0.00043174897358483653 -7.890188632939026e-05 -0.000477655719990818 0.0 0.0
0.0 0.013013844360779809 0.010058419244968905 -0.010439881513325403 0.00038146226835648986 0.005779201730541129 0.0 0.0
0.0 0.00963068952372162 0.006977039693243441 -0.007469381368649991 0.0004923416754065466 -0.00665911300022385 0.0 0.0
0.0 5.0151342486432565e-06 2.749434789100007e-06 -2.380854568461034e-06 -3.6858022063897867e-07 1.8251924102974184e-06 0.0 0.0
0.0 4.6132167353759507e-07 -1.8160956956307436e-08 1.4715645850782574e-08 3.4453111055221125e-09 9.593303105256204e-09 0.0 0.0
0.0 9.972650074488487e-05 6.262124584647281e-05 -4.901338218045092e-05 -1.3607863666022124e-05 -2.2713827761414647e-05 0.0 0.0
0.0 0.000980082808094695 0.0007486058827705418 -0.0006107723245013369 -0.00013783355826920497 -0.0001997765816260761 0.0 0.0
0.0 0.0030738679393778933 0.002791512855802476 -0.002410182874623322 -0.0003813299811791547 -0.0006083658692484058 0.0 0.0
0.0 0.0072214439613387535 0.006437000207255704 -0.005857072138724429 -0.0005799280685312727 -0.0012543884101533828 0.0 0.0
0.0 0.013530362466435521 0.011919528932821371 -0.011206923828049546 -0.0007126051047718227 -0.0021796020183136723 0.0 0.0
0.0 0.022092829174302584 0.01933479566437414 -0.018515424453831832 -0.000819371210542294 -0.0034088807069796406 0.0 0.0
0.0 0.03283529631213114 0.0286215643967573 -0.02769779321409276 -0.0009237711826645462 -0.004848305737883461 0.0 0.0
0.0 0.045600042550064036 0.03964439052696641 -0.038615190402655805 -0.001029200124310602 -0.006338243372907733 0.0 0.0
0.0 0.060292194691507095 0.05228420258560541 -0.051149133571253 -0.0011350690143524067 -0.007778748179546205 0.0 0.0
0.0 0.07652466597082574 0.06646119586034287 -0.06521892145466443 -0.0012422744056784305 -0.009223663039614452 0.0 0.0
0.0 0.0944527588359747 0.08205056845010798 -0.08069867784934731 -0.0013518906007606286 -0.010690143503091101 0.0 0.0
0.0 0.11376250126247503 0.09878310026974702 -0.09731862232066811 -0.0014644779490788438 -0.012082562347297295 0.0 0.0
0.0 0.13378345231096142 0.11614428653912937 -0.11456483488857487 -0.0015794516505545045 -0.013160697205606794 0.0 0.0
0.0 0.15356715831032922 0.13330434549640457 -0.13160937399376077 -0.001694971502643814 -0.013486373562437868 0.0 0.0
0.0 0.1717784099182135 0.14909772039188302 -0.1472881056051197 -0.001809614786763283 -0.012686482774345297 0.0 0.0
0.0 0.18653495040671397 0.16191150585995395 -0.15997694735778314 -0.0019345585021708328 -0.010934141226100157 0.0 0.0
0.0 0.19537974682468257 0.1696192090193558 -0.1675891737506386 -0.0020300352687172333 -0.008045566792419207 0.0 0.0
0.0 0.19537974682466952 0.16961920901934407 -0.16758917375062732 -0.002030035268716777 0.00804556679244271 0.0 0.0
0.0 0.18653495040667614 0.16191150585991995 -0.1599769473577504 -0.0019345585021695844 0.010934141226138516 0.0 0.0
0.0 0.1717784099181489 0.14909772039182606 -0.14728810560506372 -0.001809614786762325 0.012686482774371548 0.0 0.0
0.0 0.15356715831024315 0.1333043454963299 -0.13160937399368616 -0.0016949715026436272 0.013486373562450155 0.0 0.0
0.0 0.13378345231086952 0.11614428653904985 -0.114564834888496 -0.0015794516505537597 0.013160697205595939 0.0 0.0
0.0 0.11376250126238116 0.09878310026966548 -0.09731862232058737 -0.0014644779490780911 0.012082562347292776 0.0 0.0
0.0 0.09445275883588107 0.08205056845002677 -0.08069867784926668 -0.0013518906007600477 0.010690143503086837 0.0 0.0
0.0 0.07652466597073174 0.0664611958602611 -0.06521892145458358 -0.0012422744056775007 0.00922366303961001 0.0 0.0
0.0 0.06029219469141761 0.05228420258552751 -0.051149133571176106 -0.0011350690143513795 0.007778748179535762 0.0 0.0
0.0 0.045600042549980534 0.039644390526894155 -0.03861519040258371 -0.0010292001243104288 0.006338243372897758 0.0 0.0
0.0 0.032835296312062195 0.02862156439669767 -0.027697793214033064 -0.0009237711826646 0.004848305737869899 0.0 0.0
0.0 0.02209282917425165 0.019334795664329253 -0.018515424453787364 -0.0008193712105418829 0.0034088807069735227 0.0 0.0
0.0 0.013530362466396956 0.011919528932787447 -0.011206923828016097 -0.000712605104771355 0.002179602018307098 0.0 0.0
0.0 0.007221443961313807 0.00643700020723328 -0.005857072138702774 -0.0005799280685305031 0.001254388410149415 0.0 0.0
0.0 0.0030738679393634235 0.0027915128557896443 -0.0024101828746115024 -0.00038132998117814163 0.0006083658692454805 0.0 0.0
0.0 0.0009800828080894965 0.0007486058827667162 -0.0006107723244980937 -0.00013783355826862249 0.00019977658162507913 0.0 0.0
0.0 9.972650074397295e-05 6.262124584628228e-05 -4.901338218029213e-05 -1.3607863665989996e-05 2.2713827761326088e-05 0.0 0.0
0.0 4.6132167360343504e-07 -1.8160956889568995e-08 1.4715645800463612e-08 3.4453110891034666e-09 -9.593303082620354e-09 0.0 0.0
0.0 5.015134248310846e-06 2.7494347891412607e-06 -2.3808545684908436e-06 -3.6858022065041345e-07 -1.8251924103143336e-06 0.0 0.0
0.0 0.009630689523700295 0.006977039693229347 -0.0074693813686351985 0.0004923416754058471 0.006659113000198846 0.0 0.0
0.0 0.00728136033924201 0.004993391359040169 -0.005510753643581095 0.0005173622845409257 -0.00583446666495783 0.0 0.0
0.0 0.0 0.0 0.0 0.0 0.0 0.0 0.0
0.0 0.0 0.0 0.0 0.0 0.0 0.0 0.0
0.0 1.9149393306228788e-05 1.4294534694253323e-05 -1.1154866471614858e-05 -3.139668222638482e-06 -9.56494600930245e-06 0.0 0.0
0.0 0.0005363369551374386 0.0004134751095417699 -0.00033290118977988894 -8.057391976188082e-05 -0.00019659440597951712 0.0 0.0
0.0 0.0023737737843743433 0.001984390767303919 -0.0016847404203752493 -0.00029965034692866905 -0.0007480806484161434 0.0 0.0
0.0 0.0057874336834805515 0.005132947822593954 -0.004605235160371605 -0.0005277126622223493 -0.0016995106539344912 0.0 0.0
0.0 0.01137662425275784 0.009975830289852232 -0.00929830304457571 -0.0006775272452765181 -0.0030736496507012627 0.0 0.0
0.0 0.019034411373583332 0.016569863334941343 -0.01578098613436472 -0.0007888772005766147 -0.004852142497058948 0.0 0.0
0.0 0.028611831996109668 0.0248175513934399 -0.023928178855673186 -0.0008893725377666984 -0.006901107589304537 0.0 0.0
0.0 0.039953944799592106 0.0345668873088505 -0.03357947692785315 -0.0009874103809973252 -0.009018110711298623 0.0 0.0
0.0 0.05284438430721701 0.04571061426989438 -0.04462601995692104 -0.0010845943129733256 -0.011072274689221348 0.0 0.0
0.0 0.06739220657943094 0.0581951596022987 -0.05701282056351953 -0.0011823390387791894 -0.01310678107736494 0.0 0.0
0.0 0.08318303443346178 0.0719522564624045 -0.07067042063713758 -0.0012818358252668657 -0.01518857805722699 0.0 0.0
0.0 0.10025625337658522 0.08677676698940343 -0.08539369133220895 -0.0013830756571944244 -0.01720222552927423 0.0 0.0
0.0 0.11811684490393404 0.10225336690549178 -0.10076727245922884 -0.0014860944462628937 -0.018785857745521696 0.0 0.0
0.0 0.13587657345472565 0.11768607365460187 -0.1160947211535065 -0.0015913525010953528 -0.019401889152621993 0.0 0.0
0.0 0.15228601947730203 0.13200078491550502 -0.1302982054731659 -0.0017025794423391266 -0.0185477213601581 0.0 0.0
0.0 0.16559067882219405 0.14365423336620833 -0.14184341129486538 -0.0018108220713429599 -0.01573854101359209 0.0 0.0
0.0 0.17377363549251043 0.1508923537956603 -0.14900362108011078 -0.0018887327155494465 -0.010124382759628316 0.0 0.0
0.0 0.17377363549249952 0.15089235379565014 -0.14900362108010096 -0.0018887327155490672 0.010124382759664131 0.0 0.0
0.0 0.16559067882216122 0.14365423336617816 -0.14184341129483574 -0.0018108220713424553 0.015738541013644136 0.0 0.0
0.0 0.15228601947724557 0.13200078491545464 -0.13029820547311582 -0.0017025794423387655 0.01854772136019557 0.0 0.0
0.0 0.1358765734546572 0.11768607365454138 -0.11609472115344714 -0.0015913525010942972 0.019401889152638952 0.0 0.0
0.0 0.11811684490385504 0.10225336690542342 -0.10076727245916108 -0.001486094446262288 0.01878585774551196 0.0 0.0
0.0 0.10025625337650249 0.08677676698933154 -0.08539369133213773 -0.0013830756571937956 0.017202225529268575 0.0 0.0
0.0 0.08318303443337995 0.07195225646233298 -0.07067042063706735 -0.0012818358252656434 0.015188578057222572 0.0 0.0
0.0 0.06739220657934912 0.058195159602227535 -0.05701282056344891 -0.0011823390387786117 0.013106781077358982 0.0 0.0
0.0 0.052844384307140745 0.045710614269828455 -0.04462601995685596 -0.0010845943129725148 0.01107227468920623 0.0 0.0
0.0 0.039953944799521246 0.0345668873087886 -0.033579476927792215 -0.0009874103809963614 0.009018110711285322 0.0 0.0
0.0 0.028611831996051842 0.024817551393389668 -0.02392817885562355 -0.0008893725377661071 0.00690110758928702 0.0 0.0
0.0 0.01903441137353687 0.016569863334900833 -0.015780986134324673 -0.0007888772005761528 0.004852142497048005 0.0 0.0
0.0 0.011376624252724142 0.009975830289822738 -0.009298303044546713 -0.0006775272452760255 0.0030736496506916654 0.0 0.0
0.0 0.005787433683460466 0.005132947822576016 -0.004605235160354597 -0.0005277126622214203 0.0016995106539290092 0.0 0.0
0.0 0.0023737737843625064 0.0019843907672940694 -0.001684740420366431 -0.0002996503469276388 0.0007480806484121787 0.0 0.0
0.0 0.0005363369551334414 0.0004134751095388862 -0.000332901189777506 -8.057391976138012e-05 0.0001965944059781514 0.0 0.0
0.0 1.9149393305726968e-05 1.4294534694344003e-05 -1.1154866471675032e-05 -3.1396682226689933e-06 9.564946009299219e-06 0.0 0.0
0.0 0.0 0.0 0.0 0.0 0.0 0.0 0.0
0.0 0.0 0.0 0.0 0.0 0.0 0.0 0.0
0.0 0.007281360339223764 0.004993391359027637 -0.0055107536435679135 0.0005173622845402743 0.005834466664937468 0.0 0.0
0.0 0.0054418759016133 0.0035772113102315465 -0.004062747175336853 0.00048553586510530417 -0.004597445239630115 0.0 0.0
0.0 0.0 0.0 0.0 0.0 0.0 0.0 0.0
0.0 0.0 0.0 0.0 0.0 0.0 0.0 0.0
0.0 3.1111669185292224e-06 5.436195195737733e-07 -4.205106150105447e-07 -1.231089045632129e-07 -5.51997655598668e-07 0.0 0.0
0.0 0.00025071898665260243 0.00018668623970294313 -0.00014903110454574304 -3.765513515719995e-05 -0.00014309181967859537 0.0 0.0
0.0 0.0016121385723900246 0.0012992769523339778 -0.0010839362726326408 -0.0002153406797013371 -0.0007451785198139624 0.0 0.0
0.0 0.004474583930360896 0.0038748421463354423 -0.0034185158784570307 -0.0004563262678784131 -0.0018927061459700365 0.0 0.0
0.0 0.009274105316573697 0.008052409190052826 -0.007419747038863391 -0.0006326621511894344 -0.003607985111264423 0.0 0.0
0.0 0.015997117142908857 0.013798814168421183 -0.013047498193798326 -0.0007513159746228601 -0.0057906825048557 0.0 0.0
0.0 0.024395639630579766 0.020990594881653224 -0.02014119736331247 -0.000849397518340721 -0.00828389018458481 0.0 0.0
0.0 0.03429151733296887 0.029460980559718082 -0.02852021814311625 -0.0009407624166018198 -0.010848695214411813 0.0 0.0
0.0 0.045543122313340366 0.03910667542340858 -0.03807702212363 -0.0010296532997785997 -0.013350338982015887 0.0 0.0
0.0 0.05809688543873866 0.049900220268953493 -0.048782354005476126 -0.0011178662634773718 -0.01584219845432588 0.0 0.0
0.0 0.07196040530565578 0.06181147524490625 -0.060604156440162725 -0.001207318804743516 -0.01835178560625706 0.0 0.0
0.0 0.08693451915849439 0.0747064728687273 -0.07340935199790283 -0.0012971208708244494 -0.020776956744799662 0.0 0.0
0.0 0.10243567479308387 0.08828047343172776 -0.0868925502622436 -0.0013879231694841384 -0.022780967418971898 0.0 0.0
0.0 0.11817981982477489 0.1019679270703006 -0.10048483413051526 -0.0014830929397853143 -0.023749062004165704 0.0 0.0
0.0 0.13287777321662717 0.11483677208368497 -0.11325324348927125 -0.0015835285944137342 -0.022927251198021494 0.0 0.0
0.0 0.14497205220300916 0.12554444745020152 -0.12386454561083521 -0.0016799018393663424 -0.019335593570748506 0.0 0.0
0.0 0.15276808583409182 0.1325807315075517 -0.1308304483509644 -0.001750283156587281 -0.011805011726823434 0.0 0.0
0.0 0.15276808583408014 0.13258073150754054 -0.13083044835095323 -0.001750283156587355 0.011805011726870082 0.0 0.0
0.0 0.14497205220297862 0.12554444745017268 -0.12386454561080623 -0.0016799018393663361 0.019335593570809544 0.0 0.0
0.0 0.13287777321657554 0.11483677208363845 -0.11325324348922396 -0.0015835285944144173 0.022927251198063416 0.0 0.0
0.0 0.11817981982471418 0.10196792707024656 -0.10048483413046178 -0.001483092939784771 0.023749062004183856 0.0 0.0
0.0 0.10243567479301605 0.08828047343166864 -0.08689255026218597 -0.0013879231694826708 0.022780967418963037 0.0 0.0
0.0 0.08693451915842283 0.074706472868665 -0.0734093519978418 -0.0012971208708231672 0.02077695674479057 0.0 0.0
0.0 0.07196040530558497 0.061811475244844295 -0.060604156440101906 -0.0012073188047423684 0.018351785606250115 0.0 0.0
0.0 0.058096885438667464 0.04990022026889166 -0.04878235400541462 -0.001117866263477028 0.015842198454316503 0.0 0.0
0.0 0.04554312231327112 0.03910667542334886 -0.03807702212357044 -0.0010296532997784251 0.013350338981998087 0.0 0.0
0.0 0.034291517332905835 0.029460980559663726 -0.028520218143062055 -0.0009407624166016732 0.010848695214393215 0.0 0.0
0.0 0.024395639630527884 0.0209905948816089 -0.020141197363268637 -0.0008493975183402593 0.008283890184563556 0.0 0.0
0.0 0.01599711714287031 0.013798814168387734 -0.013047498193765524 -0.0007513159746222066 0.005790682504843015 0.0 0.0
0.0 0.009274105316546318 0.00805240919002903 -0.0074197470388403484 -0.0006326621511886791 0.0036079851112536727 0.0 0.0
0.0 0.004474583930343282 0.003874842146320288 -0.003418515878442886 -0.0004563262678774 0.0018927061459632739 0.0 0.0
0.0 0.0016121385723804908 0.0012992769523267893 -0.00108393627262635 -0.00021534067970043912 0.0007451785198096762 0.0 0.0
0.0 0.00025071898665035845 0.00018668623970191273 -0.00014903110454488104 -3.7655135157031784e-05 0.0001430918196777329 0.0 0.0
0.0 3.1111669181084444e-06 5.436195197240375e-07 -4.205106151248853e-07 -1.231089045991417e-07 5.519976557374945e-07 0.0 0.0
0.0 0.0 0.0 0.0 0.0 0.0 0.0 0.0
0.0 0.0 0.0 0.0 0.0 0.0 0.0 0.0
0.0 0.005441875901597344 0.003577211310220964 -0.004062747175325522 0.000485535865104556 0.004597445239614253 0.0 0.0
0.0 0.0039376018755748286 0.0024926371040578715 -0.0029122726002329203 0.00041963549617504903 -0.003390107110190029 0.0 0.0
0.0 0.0 0.0 0.0 0.0 0.0 0.0 0.0
0.0 0.0 0.0 0.0 0.0 0.0 0.0 0.0
0.0 4.7474435591669426e-07 9.460684642081353e-08 -7.179327316848734e-08 -2.2813573252326332e-08 -1.359906461296117e-07 0.0 0.0
0.0 9.95965805789396e-05 6.624684090439416e-05 -5.278792683316574e-05 -1.3458914071228472e-05 -7.889766246618496e-05 0.0 0.0
0.0 0.0009767765659794306 0.0007553183037058704 -0.0006200422624145828 -0.00013527604129128778 -0.0006432243724971112 0.0 0.0
0.0 0.003348187616722592 0.002708608180685792 -0.002342278495539087 -0.00036632968514670346 -0.001843029521171003 0.0 0.0
0.0 0.007289496919225728 0.006169880963815099 -0.005598408979222321 -0.0005714719845927765 -0.0037418065586290175 0.0 0.0
0.0 0.013001643978398503 0.011051924317116723 -0.0103475525266185 -0.0007043717904982225 -0.006216407340538093 0.0 0.0
0.0 0.020217978266304462 0.01717254432159737 -0.016369984045101794 -0.0008025602764955674 -0.008990402755233554 0.0 0.0
0.0 0.02867839629009324 0.024358223992432034 -0.023469806119766335 -0.0008884178726657208 -0.011837353356335992 0.0 0.0
0.0 0.03822886961355859 0.032505989406362845 -0.03153680750724165 -0.0009691818991211735 -0.014613072284074873 0.0 0.0
0.0 0.04893289187318474 0.04160625224245993 -0.040557991045188015 -0.0010482611972719193 -0.017374502149182253 0.0 0.0
0.0 0.060601978980119785 0.05167058570045538 -0.050543392429324305 -0.0011271932711310931 -0.02017244393027278 0.0 0.0
0.0 0.0733678684287986 0.0626239273294814 -0.06141787474134526 -0.0012060525881361106 -0.02286227512438502 0.0 0.0
0.0 0.08695101500966879 0.07425413806848667 -0.07296877879856509 -0.0012853592699215786 -0.025113715967887668 0.0 0.0
0.0 0.10048863219185852 0.0861499360282423 -0.08478258147499233 -0.0013673545532499548 -0.02639307201253934 0.0 0.0
0.0 0.11344174418194714 0.0975940011125494 -0.09613913010130254 -0.0014548710112468218 -0.02577813740615193 0.0 0.0
0.0 0.12449117780106209 0.10748894053042068 -0.10594746252816739 -0.0015414780022532657 -0.02186870521943013 0.0 0.0
0.0 0.13210038384088776 0.1144970704879857 -0.11288752576681019 -0.0016095447211754612 -0.013200478774274833 0.0 0.0
0.0 0.1321003838408781 0.11449707048797599 -0.11288752576680036 -0.0016095447211755356 0.013200478774323357 0.0 0.0
0.0 0.12449117780103576 0.10748894053039454 -0.10594746252814129 -0.0015414780022532438 0.021868705219493016 0.0 0.0
0.0 0.11344174418190728 0.09759400111251135 -0.09613913010126524 -0.0014548710112460982 0.025778137406198345 0.0 0.0
0.0 0.1004886321918083 0.08614993602819658 -0.0847825814749474 -0.0013673545532491738 0.026393072012559606 0.0 0.0
0.0 0.08695101500960967 0.07425413806843534 -0.07296877879851421 -0.001285359269921173 0.025113715967879757 0.0 0.0
0.0 0.07336786842873481 0.06262392732942645 -0.06141787474129014 -0.001206052588136317 0.022862275124374058 0.0 0.0
0.0 0.060601978980058036 0.05167058570040187 -0.05054339242927091 -0.0011271932711309563 0.020172443930264176 0.0 0.0
0.0 0.04893289187312336 0.041606252242406286 -0.04055799104513495 -0.001048261197271305 0.01737450214917231 0.0 0.0
0.0 0.03822886961350247 0.03250598940631435 -0.03153680750719414 -0.0009691818991201844 0.014613072284056887 0.0 0.0
0.0 0.02867839629004516 0.02435822399239069 -0.023469806119726058 -0.0008884178726646365 0.011837353356316534 0.0 0.0
0.0 0.02021797826626035 0.01717254432156063 -0.016369984045065747 -0.0008025602764948835 0.008990402755209403 0.0 0.0
0.0 0.013001643978363092 0.011051924317086586 -0.010347552526588862 -0.0007043717904977224 0.006216407340522461 0.0 0.0
0.0 0.007289496919200299 0.006169880963793855 -0.0055984089792018325 -0.0005714719845920192 0.0037418065586163956 0.0 0.0
0.0 0.003348187616708049 0.002708608180674013 -0.0023422784955283325 -0.0003663296851456803 0.0018430295211639153 0.0 0.0
0.0 0.0009767765659736464 0.0007553183037018667 -0.0006200422624112072 -0.00013527604129065903 0.0006432243724936067 0.0 0.0
0.0 9.959658057812667e-05 6.624684090441612e-05 -5.278792683317476e-05 -1.3458914071241294e-05 7.889766246615988e-05 0.0 0.0
0.0 4.747443557636858e-07 9.460684655600125e-08 -7.179327327209174e-08 -2.2813573283907608e-08 1.3599064633276063e-07 0.0 0.0
0.0 0.0 0.0 0.0 0.0 0.0 0.0 0.0
0.0 0.0 0.0 0.0 0.0 0.0 0.0 0.0
0.0 0.0039376018755613515 0.002492637104049167 -0.0029122726002234543 0.0004196354961742859 0.0033901071101774087 0.0 0.0
0.0 0.0026859377590700085 0.001648249150916989 -0.0019815664457155883 0.0003333172947985987 -0.002353050686696516 0.0 0.0
0.0 0.0 0.0 0.0 0.0 0.0 0.0 0.0
0.0 0.0 0.0 0.0 0.0 0.0 0.0 0.0
0.0 1.2459832782016668e-06 -8.711175530045244e-08 6.722946238267231e-08 1.9882292917777628e-08 2.0432140011233723e-07 0.0 0.0
0.0 4.2401500015976e-05 2.0504367610653844e-05 -1.6296285806642392e-05 -4.208081804011452e-06 -3.601621113409673e-05 0.0 0.0
0.0 0.0005068228895128449 0.00037431687222144706 -0.0003035954119065499 -7.072146031489687e-05 -0.0004778920750914164 0.0 0.0
0.0 0.002197042334958952 0.0017133189085454044 -0.0014499002470060997 -0.0002634186615393041 -0.0016451281586539544 0.0 0.0
0.0 0.0054153472187134025 0.004383933768715085 -0.0038995161587826103 -0.00048441760993247357 -0.0035378163610508685 0.0 0.0
0.0 0.01011830733980643 0.008357431290926472 -0.007715290014698749 -0.0006421412762277229 -0.006094584044570252 0.0 0.0
0.0 0.016097073568356834 0.013397468650343976 -0.012651266527669246 -0.0007462021226747315 -0.009007556029270824 0.0 0.0
0.0 0.023094628794617735 0.01929288505414224 -0.018464746647594746 -0.000828138406547492 -0.011965493682231775 0.0 0.0
0.0 0.03097525275405361 0.02594391442379021 -0.025041969465404906 -0.00090194495838531 -0.014848616499613968 0.0 0.0
0.0 0.0397267146816977 0.03335463424507797 -0.03238258417449479 -0.0009720500705831866 -0.017715703206019062 0.0 0.0
0.0 0.049400987962472456 0.04156686826623922 -0.04052633080635505 -0.0010405374598841791 -0.02060210877152833 0.0 0.0
0.0 0.06000027873156295 0.05056748572690892 -0.04945854495008473 -0.0011089407768242103 -0.023398248742354247 0.0 0.0
0.0 0.07108930900959422 0.06022405142662373 -0.05904737250823455 -0.0011766789183891907 -0.02579544380217359 0.0 0.0
0.0 0.0827482786200332 0.07026157679996424 -0.06901726803012109 -0.001244308769843101 -0.02728028180969809 0.0 0.0
0.0 0.09409291891131703 0.08023785495058927 -0.07892162568887927 -0.0013162292617099956 -0.02698926729485652 0.0 0.0
0.0 0.10400238419302754 0.08937006569237183 -0.0879770111918194 -0.0013930545005523666 -0.023307433614434988 0.0 0.0
0.0 0.11155928648238075 0.09647296762379651 -0.09501060954850038 -0.0014623580752960896 -0.014335356841741045 0.0 0.0
0.0 0.11155928648237284 0.09647296762378786 -0.09501060954849175 -0.0014623580752960914 0.014335356841789333 0.0 0.0
0.0 0.1040023841930101 0.08937006569235247 -0.08797701119180021 -0.0013930545005522892 0.023307433614498843 0.0 0.0
0.0 0.09409291891128245 0.08023785495055549 -0.07892162568884487 -0.0013162292617106648 0.02698926729490237 0.0 0.0
0.0 0.08274827861999019 0.07026157679992495 -0.0690172680300817 -0.0012443087698432278 0.027280281809716457 0.0 0.0
0.0 0.07108930900954559 0.06022405142658172 -0.05904737250819302 -0.0011766789183886614 0.02579544380216473 0.0 0.0
0.0 0.06000027873151238 0.050567485726865105 -0.04945854495004171 -0.001108940776823376 0.023398248742342854 0.0 0.0
0.0 0.049400987962423995 0.04156686826619683 -0.040526330806313425 -0.0010405374598834141 0.020602108771518787 0.0 0.0
0.0 0.039726714681648706 0.033354634245035555 -0.03238258417445282 -0.0009720500705827473 0.01771570320600803 0.0 0.0
0.0 0.030975252754006897 0.02594391442375059 -0.0250419694653658 -0.0009019449583847893 0.014848616499596245 0.0 0.0
0.0 0.023094628794577302 0.01929288505410826 -0.018464746647561557 -0.0008281384065467057 0.011965493682211868 0.0 0.0
0.0 0.016097073568321546 0.013397468650314992 -0.012651266527641244 -0.0007462021226737482 0.009007556029247096 0.0 0.0
0.0 0.010118307339777314 0.008357431290902138 -0.0077152900146751175 -0.000642141276227017 0.006094584044553958 0.0 0.0
0.0 0.005415347218693227 0.0043839337686987605 -0.0038995161587672567 -0.00048441760993150277 0.003537816361038354 0.0 0.0
0.0 0.0021970423349482694 0.0017133189085371916 -0.0014499002469988418 -0.00026341866153834935 0.0016451281586470725 0.0 0.0
0.0 0.0005068228895074699 0.0003743168722180373 -0.00030359541190371376 -7.072146031432357e-05 0.0004778920750872039 0.0 0.0
0.0 4.240150001489863e-05 2.0504367610563906e-05 -1.629628580655653e-05 -4.208081804007367e-06 3.601621113382902e-05 0.0 0.0
0.0 1.245983277765114e-06 -8.711175526903953e-08 6.722946235833695e-08 1.9882292910690027e-08 -2.0432140003799813e-07 0.0 0.0
0.0 0.0 0.0 0.0 0.0 0.0 0.0 0.0
0.0 0.0 0.0 0.0 0.0 0.0 0.0 0.0
0.0 0.0026859377590590827 0.0016482491509102152 -0.001981566445707999 0.0003333172947977851 0.0023530506866866587 0.0 0.0
0.0 0.0017053184783077085 0.0009965650175389567 -0.0012330238800823008 0.00023645886254334373 -0.0015016321349435862 0.0 0.0
0.0 4.3237046965141747e-07 -5.414833726629138e-09 5.131917599336839e-09 2.829161272924473e-10 8.656951798426124e-08 0.0 0.0
0.0 0.0 0.0 0.0 0.0 0.0 0.0 0.0
0.0 1.343535810957597e-06 -6.745450613659108e-08 5.1836617700734505e-08 1.5617888435866596e-08 2.5068220686766373e-07 0.0 0.0
0.0 2.232156896415098e-05 9.891632699121692e-06 -7.819845777429752e-06 -2.071786921691941e-06 -2.566857155127038e-05 0.0 0.0
0.0 0.00026170137488136074 0.0001467506969447041 -0.00011821471155640617 -2.853598538829799e-05 -0.0002847209074163595 0.0 0.0
0.0 0.0012902128098765562 0.0009161438449652965 -0.000758846311002571 -0.0001572975339627253 -0.0012842290077779521 0.0 0.0
0.0 0.0036453228759757645 0.0027757810237826618 -0.0024073139004238296 -0.0003684671233588319 -0.0030560783256787867 0.0 0.0
0.0 0.007332821100526101 0.005776038402163409 -0.005224499791085174 -0.0005515386110782317 -0.0054646360422007205 0.0 0.0
0.0 0.01205884448026547 0.00970278197320771 -0.00902979308227003 -0.0006729888909376794 -0.008295964920353503 0.0 0.0
0.0 0.01758740218172619 0.014301851723696008 -0.013546200646686967 -0.0007556510770090383 -0.011217491984485906 0.0 0.0
0.0 0.023777747214989493 0.019461002331010658 -0.01863635337419357 -0.0008246489568170881 -0.014042510092016573 0.0 0.0
0.0 0.030646990668248372 0.025188483886267127 -0.024301907966716586 -0.00088657591955053 -0.01683178610842468 0.0 0.0
0.0 0.03819916627098545 0.031551082548284405 -0.030606135918124115 -0.0009449466301602782 -0.019643348038261513 0.0 0.0
0.0 0.04653565303018575 0.0385857401806462 -0.03758379756709911 -0.0010019426135470905 -0.022377761045508662 0.0 0.0
0.0 0.05550771010754056 0.04623716195451322 -0.04517711884392604 -0.0010600431105872014 -0.024742613887793558 0.0 0.0
0.0 0.06483205605329333 0.05434956540573989 -0.05323600667030099 -0.0011135587354388979 -0.02633871037766633 0.0 0.0
0.0 0.07434047077538936 0.06275063609891708 -0.06158443296938343 -0.0011662031295336616 -0.02648541487746392 0.0 0.0
0.0 0.0835207797796065 0.07106114772790217 -0.06983096704017008 -0.001230180687732084 -0.023558442325154843 0.0 0.0
0.0 0.09118211501855074 0.0783301556028367 -0.07702657873158487 -0.0013035768712518323 -0.01518261930683022 0.0 0.0
0.0 0.09118211501854324 0.07833015560282816 -0.07702657873157644 -0.0013035768712517353 0.015182619306875679 0.0 0.0
0.0 0.08352077977959137 0.07106114772788362 -0.0698309670401522 -0.0012301806877314937 0.023558442325217005 0.0 0.0
0.0 0.07434047077536426 0.06275063609889021 -0.061584432969356825 -0.0011662031295333612 0.026485414877510112 0.0 0.0
0.0 0.06483205605326134 0.054349565405709024 -0.053236006670270876 -0.0011135587354381693 0.02633871037768489 0.0 0.0
0.0 0.055507710107500975 0.046237161954479016 -0.04517711884389242 -0.0010600431105865743 0.02474261388778399 0.0 0.0
0.0 0.046535653030144376 0.03858574018061108 -0.03758379756706399 -0.001001942613547087 0.02237776104549582 0.0 0.0
0.0 0.03819916627094623 0.031551082548250786 -0.03060613591809039 -0.0009449466301604057 0.019643348038251195 0.0 0.0
0.0 0.030646990668213504 0.025188483886237078 -0.024301907966686877 -0.0008865759195501998 0.01683178610841504 0.0 0.0
0.0 0.023777747214954625 0.019461002330981365 -0.018636353374164957 -0.0008246489568164133 0.014042510091999966 0.0 0.0
0.0 0.01758740218169204 0.014301851723668386 -0.013546200646659673 -0.0007556510770087023 0.011217491984464586 0.0 0.0
0.0 0.012058844480234823 0.009702781973184034 -0.009029793082246666 -0.0006729888909373644 0.008295964920329356 0.0 0.0
0.0 0.007332821100503359 0.005776038402145541 -0.005224499791067899 -0.0005515386110776402 0.0054646360421859086 0.0 0.0
0.0 0.0036453228759616976 0.002775781023771927 -0.002407313900414019 -0.000368467123357907 0.003056078325668733 0.0 0.0
0.0 0.0012902128098685288 0.0009161438449596153 -0.000758846310997699 -0.00015729753396191554 0.0012842290077712687 0.0 0.0
0.0 0.00026170137487920833 0.0001467506969439468 -0.00011821471155578308 -2.8535985388163546e-05 0.00028472090741482766 0.0 0.0
0.0 2.2321568963668878e-05 9.891632699222123e-06 -7.819845777508008e-06 -2.07178692171412e-06 2.5668571551551346e-05 0.0 0.0
0.0 1.343535810551308e-06 -6.74545061154224e-08 5.1836617684484416e-08 1.561788843093987e-08 -2.5068220678900275e-07 0.0 0.0
0.0 0.0 0.0 0.0 0.0 0.0 0.0 0.0
0.0 4.3237046913438544e-07 -5.414833720036132e-09 5.131917593071955e-09 2.82916126964362e-10 -8.656951787897293e-08 0.0 0.0
0.0 0.001705318478299045 0.0009965650175340235 -0.0012330238800766034 0.00023645886254257948 0.0015016321349360622 0.0 0.0
0.0 0.0009532179952816086 0.000517911071248902 -0.0006618559524252066 0.0001439448811763041 -0.0008301719205787723 0.0 0.0
0.0 8.921670904746393e-07 1.8932786794169657e-09 1.3600005827346061e-09 -3.25327926215291e-09 -1.0897672023828077e-07 0.0 0.0
0.0 6.305102464673167e-07 -7.0898921551877894e-09 5.074535917472657e-09 2.0153562377156586e-09 1.2874703632778445e-07 0.0 0.0
0.0 9.812568132233407e-07 -4.1049551029877135e-09 1.1455917112649688e-09 2.9593633917249524e-09 -1.4294604123905782e-08 0.0 0.0
0.0 1.841197737735919e-05 5.8679254725819365e-06 -4.622610364902074e-06 -1.245315107679873e-06 -2.3841984282653952e-05 0.0 0.0
0.0 0.00014220715268811892 5.800848126850053e-05 -4.6457141702856974e-05 -1.1551339565643541e-05 -0.00018032252049258188 0.0 0.0
0.0 0.0006672865040111914 0.0003763098489970423 -0.0003062178851789529 -7.009196381808944e-05 -0.000842327481938644 0.0 0.0
0.0 0.0021211736633359847 0.0014242910788158575 -0.0011980715478192227 -0.00022621953099663468 -0.002313728356568515 0.0 0.0
0.0 0.004720798591085106 0.0034018360385949086 -0.002986099176862804 -0.0004157368617321013 -0.004405081808681108 0.0 0.0
0.0 0.008093693378207725 0.006159905219207688 -0.005596990696484173 -0.0005629145227235138 -0.006897795397820521 0.0 0.0
0.0 0.012231096807785577 0.009437883325359024 -0.008779286290335891 -0.000658597035023132 -0.009541977381368064 0.0 0.0
0.0 0.016699689100676197 0.013108339862410275 -0.01238037399606575 -0.0007279658663445199 -0.01214115056242834 0.0 0.0
0.0 0.021645904461238923 0.01716531527300676 -0.016380449666313048 -0.0007848656066937143 -0.014701252097394906 0.0 0.0
0.0 0.027144923860468857 0.021681746270680983 -0.020847462299505206 -0.0008342839711757682 -0.017254036552857933 0.0 0.0
0.0 0.0332964782764193 0.02673823035852031 -0.025857900016579012 -0.0008803303419412963 -0.019758895579986557 0.0 0.0
0.0 0.039966322683309956 0.032360052701214566 -0.03143286853677507 -0.0009271841644394888 -0.021974215706745775 0.0 0.0
0.0 0.04714020840696788 0.03848828551700701 -0.037515833233383686 -0.0009724522836233353 -0.023496256394257342 0.0 0.0
0.0 0.05462706533672803 0.04514521962626738 -0.04414072949660305 -0.0010044901296643212 -0.02401002745575326 0.0 0.0
0.0 0.06252880293996486 0.05243977651534737 -0.05139506034790418 -0.0010447161674431433 -0.02235837470059908 0.0 0.0
0.0 0.07020774274137996 0.059870885909320645 -0.05874851352125658 -0.0011223723880641023 -0.01565660919216007 0.0 0.0
0.0 0.07020774274137691 0.05987088590931549 -0.05874851352125139 -0.0011223723880640917 0.01565660919219999 0.0 0.0
0.0 0.06252880293995591 0.052439776515333714 -0.05139506034789046 -0.0010447161674432578 0.02235837470065622 0.0 0.0
0.0 0.054627065336714284 0.04514521962624988 -0.04414072949658597 -0.001004490129663881 0.024010027455794756 0.0 0.0
0.0 0.04714020840694788 0.03848828551698702 -0.03751583323336427 -0.0009724522836227539 0.02349625639427203 0.0 0.0
0.0 0.03996632268327949 0.03236005270118899 -0.03143286853675021 -0.0009271841644387659 0.021974215706734034 0.0 0.0
0.0 0.03329647827639108 0.026738230358496602 -0.02585790001655645 -0.0008803303419401651 0.019758895579974095 0.0 0.0
0.0 0.02714492386044485 0.021681746270660378 -0.020847462299485447 -0.0008342839711749416 0.017254036552850967 0.0 0.0
0.0 0.021645904461213936 0.01716531527298537 -0.01638044966629218 -0.0007848656066931949 0.014701252097386775 0.0 0.0
0.0 0.016699689100651047 0.013108339862389884 -0.012380373996045876 -0.0007279658663440086 0.012141150562413782 0.0 0.0
0.0 0.012231096807760265 0.00943788332533925 -0.008779286290316726 -0.0006585970350225182 0.009541977381349685 0.0 0.0
0.0 0.008093693378185756 0.006159905219191621 -0.00559699069646889 -0.0005629145227227286 0.006897795397801054 0.0 0.0
0.0 0.004720798591068648 0.0034018360385827213 -0.002986099176851407 -0.00041573686173131423 0.004405081808667715 0.0 0.0
0.0 0.002121173663326118 0.0014242910788088614 -0.0011980715478130642 -0.0002262195309957966 0.002313728356559388 0.0 0.0
0.0 0.0006672865040062835 0.0003763098489943437 -0.0003062178851767123 -7.009196381763137e-05 0.0008423274819337105 0.0 0.0
0.0 0.00014220715268611371 5.8008481268034245e-05 -4.645714170246894e-05 -1.1551339565565304e-05 0.00018032252049102415 0.0 0.0
0.0 1.841197737695048e-05 5.867925472638559e-06 -4.622610364946037e-06 -1.2453151076925132e-06 2.3841984282918033e-05 0.0 0.0
0.0 9.812568129632622e-07 -4.10495502452321e-09 1.145591649777034e-09 2.959363374743156e-09 1.4294604685370042e-08 0.0 0.0
0.0 6.305102458760242e-07 -7.089892147158693e-09 5.074535912009278e-09 2.015356235150372e-09 -1.2874703620679312e-07 0.0 0.0
0.0 8.921670899635225e-07 1.8932787221104674e-09 1.360000533095089e-09 -3.253279255205612e-09 1.0897672127948905e-07 0.0 0.0
0.0 0.0009532179952756834 0.0005179110712460233 -0.000661855952421768 0.0001439448811757448 0.0008301719205740152 0.0 0.0
0.0 0.0003942249711203162 0.00021115386702387436 -0.0002817588443832498 7.060497735937552e-05 -0.0003625433291029155 0.0 0.0
0.0 2.203710154099038e-06 -3.5072746962627747e-09 9.321640116132495e-09 -5.8143654198695e-09 2.0838198444971445e-07 0.0 0.0
0.0 8.129603515550081e-07 -9.729788138728575e-10 -5.062304710215263e-10 1.479209284894036e-09 1.6676851108718092e-07 0.0 0.0
0.0 1.513038450826197e-06 -1.6946032831289817e-09 1.1032714873858244e-09 5.913317957463495e-10 8.439161096012906e-08 0.0 0.0
0.0 1.9671124123649173e-05 3.5807929788833082e-06 -2.7673030918541426e-06 -8.134898870291715e-07 -2.7312735244201404e-05 0.0 0.0
0.0 0.00011157341051504802 2.6738536108776164e-05 -2.1406249549337037e-05 -5.332286559439127e-06 -0.00015168036787935768 0.0 0.0
0.0 0.00035358767240303835 0.00011936118184145954 -9.622228616794278e-05 -2.3138895673516696e-05 -0.0005117924081496751 0.0 0.0
0.0 0.0009932607540826394 0.00047381563734209375 -0.00038657151481308224 -8.72441225290113e-05 -0.0014228474925573674 0.0 0.0
0.0 0.0024041814137476646 0.0013927987095962485 -0.0011706081156181009 -0.00022219059397814788 -0.0029666386223853227 0.0 0.0
0.0 0.004469522844991663 0.002905035872846104 -0.002530162436194399 -0.0003748734366517033 -0.004892649984087498 0.0 0.0
0.0 0.006980933821743791 0.004821244385216954 -0.004325825925624143 -0.0004954184595928094 -0.007002301224684898 0.0 0.0
0.0 0.009870391973839382 0.006982380634439645 -0.006404206378662403 -0.0005781742557772398 -0.009154267685657887 0.0 0.0
0.0 0.013002251647880447 0.009377718918574352 -0.008737360648123043 -0.0006403582704513072 -0.011337263640373399 0.0 0.0
0.0 0.016481046205549445 0.012062373407626635 -0.011374717040811692 -0.0006876563668149317 -0.013507313286272915 0.0 0.0
0.0 0.02038642191614476 0.015129246953521105 -0.014403787776825026 -0.0007254591766960725 -0.015646983768495454 0.0 0.0
0.0 0.0247856346299343 0.018685318196175877 -0.01792494715712102 -0.0007603710390548596 -0.017631967451715677 0.0 0.0
0.0 0.029707696198915754 0.022797165535463383 -0.021998230915526124 -0.0007989346199372667 -0.019092696201656066 0.0 0.0
0.0 0.035169060138529586 0.027569673507422017 -0.026741489528585103 -0.0008281839788369175 -0.01969900938937079 0.0 0.0
0.0 0.041671550197250745 0.03344603120382091 -0.03261921429354558 -0.0008268169102753456 -0.019306652969468714 0.0 0.0
0.0 0.049219868994752884 0.040832141025153756 -0.039936194138429526 -0.000895946886724248 -0.015481761390463469 0.0 0.0
0.0 0.049219868994754404 0.040832141025152285 -0.039936194138427764 -0.0008959468867245377 0.01548176139049642 0.0 0.0
0.0 0.041671550197251606 0.0334460312038153 -0.03261921429354015 -0.0008268169102751347 0.019306652969519056 0.0 0.0
0.0 0.03516906013852006 0.027569673507408233 -0.026741489528571753 -0.0008281839788364758 0.019699009389405282 0.0 0.0
0.0 0.029707696198900055 0.022797165535448034 -0.02199823091551117 -0.0007989346199368565 0.01909269620166347 0.0 0.0
0.0 0.024785634629913133 0.018685318196160334 -0.017924947157105162 -0.0007603710390551726 0.017631967451701508 0.0 0.0
0.0 0.020386421916122856 0.015129246953504422 -0.014403787776808102 -0.0007254591766963168 0.015646983768482607 0.0 0.0
0.0 0.016481046205532847 0.012062373407613422 -0.011374717040798977 -0.0006876563668144507 0.013507313286264904 0.0 0.0
0.0 0.013002251647868536 0.009377718918564433 -0.00873736064811349 -0.000640358270450946 0.011337263640369091 0.0 0.0
0.0 0.009870391973824817 0.0069823806344291375 -0.006404206378652409 -0.0005781742557767295 0.009154267685646332 0.0 0.0
0.0 0.006980933821726766 0.004821244385205264 -0.004325825925613084 -0.0004954184595921799 0.007002301224669095 0.0 0.0
0.0 0.004469522844977776 0.0029050358728375763 -0.002530162436186569 -0.00037487343665100584 0.004892649984072369 0.0 0.0
0.0 0.0024041814137404274 0.00139279870959157 -0.0011706081156139954 -0.0002221905939775749 0.002966638622377747 0.0 0.0
0.0 0.0009932607540777956 0.00047381563733958604 -0.00038657151481099716 -8.724412252858875e-05 0.0014228474925516556 0.0 0.0
0.0 0.0003535876724008468 0.00011936118184088344 -9.622228616745991e-05 -2.313889567342348e-05 0.0005117924081473576 0.0 0.0
0.0 0.00011157341051351143 2.6738536108731102e-05 -2.140624954929735e-05 -5.332286559433738e-06 0.00015168036787874563 0.0 0.0
0.0 1.967112412308117e-05 3.5807929788866803e-06 -2.7673030918559616e-06 -8.134898870307195e-07 2.731273524422231e-05 0.0 0.0
0.0 1.5130384507124804e-06 -1.6946032326645159e-09 1.1032714522220823e-09 5.913317804450793e-10 -8.439161020524934e-08 0.0 0.0
0.0 8.12960351106587e-07 -9.729788137991681e-10 -5.062304704954294e-10 1.479209284295063e-09 -1.667685109932312e-07 0.0 0.0
0.0 2.2037101535574778e-06 -3.5072746904561744e-09 9.321640102959525e-09 -5.814365412503669e-09 -2.0838198401893737e-07 0.0 0.0
0.0 0.00039422497111676034 0.0002111538670224383 -0.0002817588443814416 7.060497735900313e-05 0.0003625433291004545 0.0 0.0
0.0 0.00010360634634163632 5.209171500662533e-05 -7.296417803940517e-05 2.0872463032779835e-05 -9.454034221718005e-05 0.0 0.0
0.0 2.495679772728144e-06 3.1351862147673207e-10 1.0280199564982514e-08 -1.0593718186457995e-08 2.1929636507322124e-07 0.0 0.0
0.0 1.792532927566767e-06 -5.4726948153324704e-08 5.0520786577760344e-08 4.206161575564304e-09 -1.496594695873264e-06 0.0 0.0
0.0 3.907808627371416e-06 -6.154383419740928e-08 7.8304808854889e-08 -1.6760974657479082e-08 -4.759998860852007e-06 0.0 0.0
0.0 2.3883787460701045e-05 8.114300195404433e-07 -5.43558928514286e-07 -2.6787109102616375e-07 -3.062757602389836e-05 0.0 0.0
0.0 0.00010694932335786254 8.195467162507817e-06 -6.45652914920745e-06 -1.738938013300352e-06 -0.00015785048402783833 0.0 0.0
0.0 0.0002730479215289624 3.0734895934887566e-05 -2.4763832493750968e-05 -5.971063441136617e-06 -0.00043578780619500695 0.0 0.0
0.0 0.0005727966751982709 8.262013654107511e-05 -6.693500869200557e-05 -1.5685127849069452e-05 -0.0008838687946918864 0.0 0.0
0.0 0.001024667183750401 0.00020928677808808755 -0.00017010476022845448 -3.918201785963302e-05 -0.0016562802198346726 0.0 0.0
0.0 0.0018188198190447291 0.0004821196545948222 -0.00039154513852274886 -9.057451607207341e-05 -0.002791327886907116 0.0 0.0
0.0 0.0027792501666751386 0.000930333952566359 -0.0007579998666290321 -0.00017233408593732652 -0.004241922204884949 0.0 0.0
0.0 0.004041394312204249 0.0015073939459165128 -0.0012510787809887724 -0.00025631516492773983 -0.005866944125338221 0.0 0.0
0.0 0.005519551696464036 0.0022161026713393424 -0.0018860888616504179 -0.0003300138096889229 -0.0076510477014083795 0.0 0.0
0.0 0.007234317552687076 0.003059327713791623 -0.0026700552900809386 -0.00038927242371068576 -0.009569069865768526 0.0 0.0
0.0 0.009190137951829441 0.004116165542505323 -0.003680985173668614 -0.0004351803688367068 -0.011605424766805712 0.0 0.0
0.0 0.01151309714651938 0.005547541501946342 -0.00507544928823145 -0.0004720922137148892 -0.013629017219120415 0.0 0.0
0.0 0.014239224393446184 0.007592481693222778 -0.00708317744409059 -0.0005093042491321828 -0.015264719418723097 0.0 0.0
0.0 0.017443255988846534 0.010465599018070638 -0.009908297616779365 -0.0005573014012912698 -0.015906610601483205 0.0 0.0
0.0 0.021738765036876283 0.014523277601358998 -0.013956243306769651 -0.0005670342945893432 -0.015625725604593438 0.0 0.0
0.0 0.028385133566952145 0.02104976728714268 -0.02050654426976488 -0.0005432230173778023 -0.014653978393652591 0.0 0.0
0.0 0.028385133566954837 0.021049767287142168 -0.020506544269764358 -0.0005432230173778105 0.014653978393678511 0.0 0.0
0.0 0.021738765036875937 0.014523277601353433 -0.013956243306763885 -0.0005670342945895512 0.015625725604629437 0.0 0.0
0.0 0.017443255988845385 0.010465599018065713 -0.009908297616774569 -0.0005573014012911412 0.01590661060150502 0.0 0.0
0.0 0.014239224393439429 0.007592481693217864 -0.007083177444085686 -0.0005093042491321738 0.015264719418722712 0.0 0.0
0.0 0.011513097146510949 0.005547541501943697 -0.005075449288229323 -0.00047209221371437385 0.013629017219106938 0.0 0.0
0.0 0.009190137951820932 0.004116165542502028 -0.0036809851736654803 -0.0004351803688365474 0.011605424766794568 0.0 0.0
0.0 0.007234317552681044 0.003059327713789357 -0.002670055290078648 -0.0003892724237107095 0.009569069865761783 0.0 0.0
0.0 0.005519551696459634 0.002216102671338253 -0.0018860888616494746 -0.0003300138096887786 0.007651047701402498 0.0 0.0
0.0 0.004041394312197244 0.001507393945914867 -0.001251078780987266 -0.0002563151649276009 0.005866944125327723 0.0 0.0
0.0 0.002779250166669019 0.0009303339525648262 -0.0007579998666277731 -0.00017233408593705257 0.004241922204875932 0.0 0.0
0.0 0.0018188198190376664 0.0004821196545932794 -0.0003915451385214631 -9.05745160718164e-05 0.002791327886896583 0.0 0.0
0.0 0.0010246671837481776 0.00020928677808761288 -0.0001701047602280913 -3.918201785952147e-05 0.0016562802198311468 0.0 0.0
0.0 0.0005727966751959063 8.262013654066172e-05 -6.693500869167426e-05 -1.5685127848987385e-05 0.0008838687946879664 0.0 0.0
0.0 0.0002730479215271119 3.073489593477532e-05 -2.4763832493645637e-05 -5.971063441129651e-06 0.0004357878061934451 0.0 0.0
0.0 0.00010694932335606017 8.195467162448093e-06 -6.456529149158144e-06 -1.7389380132899459e-06 0.00015785048402651734 0.0 0.0
0.0 2.3883787460196972e-05 8.114300195449618e-07 -5.435589285182495e-07 -2.6787109102671554e-07 3.062757602400267e-05 0.0 0.0
0.0 3.907808627217354e-06 -6.154383420955507e-08 7.83048088690585e-08 -1.676097465950351e-08 4.759998861592906e-06 0.0 0.0
0.0 1.7925329275338977e-06 -5.472694818605571e-08 5.0520786608009214e-08 4.2061615780462774e-09 1.4965946966850328e-06 0.0 0.0
0.0 2.49567977224337e-06 3.1351862136027083e-10 1.0280199556346285e-08 -1.0593718177704015e-08 -2.1929636460044101e-07 0.0 0.0
0.0 0.00010360634634020633 5.209171500629465e-05 -7.296417803892588e-05 2.087246303263116e-05 9.454034221682926e-05 0.0 0.0
0.0 8.728941102078403e-06 3.4405263273485005e-06 -4.989155501228194e-06 1.5486291738796815e-06 -6.996477459923762e-06 0.0 0.0
0.0 2.332181499364048e-06 -2.1367827303846843e-08 1.530413626675265e-08 6.063691037099065e-09 -3.36674150378977e-07 0.0 0.0
0.0 4.16882331964143e-06 -3.32209081568787e-07 2.8152196132400584e-07 5.068712024478201e-08 -3.9320907972779305e-06 0.0 0.0
0.0 7.32273130939766e-06 -8.284443507632376e-07 7.263474246658163e-07 1.0209692609742194e-07 -9.873010322279615e-06 0.0 0.0
0.0 2.9793309100165393e-05 -2.697278459847247e-06 2.332004925240204e-06 3.65273534607053e-07 -3.8815900679333626e-05 0.0 0.0
0.0 0.00011424826561770652 -1.0701708544170911e-05 8.814746162899907e-06 1.8869623812709992e-06 -0.0001617591328404727 0.0 0.0
0.0 0.0002758660555342583 -3.2567060183502775e-05 2.6397693217147417e-05 6.169366966355338e-06 -0.0004405513589912215 0.0 0.0
0.0 0.0005733914287875027 -8.299336178872925e-05 6.723418076998819e-05 1.5759181018741035e-05 -0.0008859524113764044 0.0 0.0
0.0 0.0010249246570553853 -0.0002090881475685081 0.00016993875394092414 3.914939362758387e-05 -0.0016571101104477797 0.0 0.0
0.0 0.0018174547980876225 -0.00048137125543658873 0.0003908795779659103 9.04916774706784e-05 -0.0027901074348579895 0.0 0.0
0.0 0.002790736870385657 -0.0009320763867443367 0.0007605182011015028 0.00017155818564283318 -0.004243320947407632 0.0 0.0
0.0 0.004061389680088178 -0.001531710541029409 0.0012752182858718805 0.00025649225515752796 -0.00587993405985361 0.0 0.0
0.0 0.005568394282417994 -0.002275612142644547 0.0019433217446870386 0.0003322903979575054 -0.007667017253799534 0.0 0.0
0.0 0.0072767619247198784 -0.0031178544393222667 0.0027200617997691946 0.0003977926395530694 -0.009572169425588096 0.0 0.0
0.0 0.009047455201013344 -0.003951716347878742 0.003496609586503584 0.00045510676137515784 -0.011590075808580038 0.0 0.0
0.0 0.010751021631973239 -0.004550365135481138 0.004045171411846917 0.0005051937236342156 -0.013681056367225174 0.0 0.0
0.0 0.012067776186646898 -0.004565780597592896 0.0040187515753141185 0.0005470290222787779 -0.015831014949738893 0.0 0.0
0.0 0.012862892119240143 -0.0037208223705605748 0.0031477037910814867 0.0005731185794790865 -0.018101886509847027 0.0 0.0
0.0 0.013117136954987578 -0.002055932594859852 0.0015182100640372437 0.0005377225308226069 -0.020118951393014825 0.0 0.0
0.0 0.012851035429410065 0.0029724044797803254 -0.003039828396544389 6.742391676406074e-05 -0.01896135770940873 0.0 0.0
0.0 0.012851035429414903 0.00297240447977978 -0.003039828396543977 6.742391676419998e-05 0.018961357709421298 0.0 0.0
0.0 0.013117136954990567 -0.0020559325948605028 0.0015182100640378359 0.0005377225308226649 0.02011895139302584 0.0 0.0
0.0 0.01286289211923462 -0.0037208223705579866 0.0031477037910787927 0.000573118579479191 0.01810188650984726 0.0 0.0
0.0 0.012067776186634113 -0.004565780597586196 0.004018751575307491 0.0005470290222787028 0.015831014949729008 0.0 0.0
0.0 0.010751021631961514 -0.00455036513547472 0.004045171411841001 0.0005051937236337172 0.013681056367211827 0.0 0.0
0.0 0.009047455201001989 -0.003951716347872494 0.0034966095864977695 0.00045510676137472313 0.011590075808568837 0.0 0.0
0.0 0.007276761924709465 -0.003117854439316172 0.0027200617997635923 0.00039779263955257995 0.009572169425578838 0.0 0.0
0.0 0.0055683942824057645 -0.0022756121426367602 0.0019433217446797532 0.00033229039795700595 0.0076670172537901884 0.0 0.0
0.0 0.004061389680075966 -0.0015317105410235013 0.0012752182858665104 0.00025649225515699073 0.005879934059840546 0.0 0.0
0.0 0.0027907368703759304 -0.0009320763867398015 0.0007605182010976853 0.0001715581856421164 0.00424332094739606 0.0 0.0
0.0 0.0018174547980795482 -0.00048137125543342454 0.000390879577963276 9.049167747014834e-05 0.0027901074348478825 0.0 0.0
0.0 0.0010249246570516323 -0.00020908814756718844 0.00016993875393986552 3.914939362732291e-05 0.0016571101104425681 0.0 0.0
0.0 0.0005733914287855493 -8.299336178832981e-05 6.723418076963426e-05 1.5759181018695526e-05 0.0008859524113737281 0.0 0.0
0.0 0.00027586605553235865 -3.256706018337408e-05 2.639769321707688e-05 6.169366966297194e-06 0.00044055135898940273 0.0 0.0
0.0 0.00011424826561597304 -1.07017085441024e-05 8.814746162853361e-06 1.886962381249049e-06 0.0001617591328394207 0.0 0.0
0.0 2.9793309099592307e-05 -2.6972784598603647e-06 2.3320049252510037e-06 3.652735346093565e-07 3.881590067956194e-05 0.0 0.0
0.0 7.322731309301192e-06 -8.284443508307162e-07 7.263474247247436e-07 1.0209692610597306e-07 9.87301032305016e-06 0.0 0.0
0.0 4.168823319194861e-06 -3.3220908165581265e-07 2.815219613971314e-07 5.0687120258681865e-08 3.932090798267396e-06 0.0 0.0
0.0 2.332181498761787e-06 -2.1367827317870164e-08 1.5304136266425558e-08 6.063691051449512e-09 3.3667415086184954e-07 0.0 0.0
0.0 8.728941101645784e-06 3.4405263275614416e-06 -4.989155501542744e-06 1.5486291739813035e-06 6.996477460381002e-06 0.0 0.0
0.0 5.791226492451869e-07 -3.285152939261594e-08 4.863961923435166e-08 -1.578808984173702e-08 8.324711323925464e-08 0.0 0.0
0.0 1.2695884218606004e-06 -3.5801729635350786e-08 2.3087898803567364e-08 1.271383083178188e-08 -6.744554173095011e-07 0.0 0.0
0.0 5.178567610389188e-06 -6.611707143528367e-07 5.474069151040458e-07 1.1376379924878689e-07 -5.1175432858479544e-06 0.0 0.0
0.0 1.1469705808231865e-05 -1.4764236100062863e-06 1.2632077432130356e-06 2.132158667932643e-07 -9.980445426889947e-06 0.0 0.0
0.0 3.708747293989933e-05 -8.159231523183506e-06 6.791608715593752e-06 1.3676228075897567e-06 -4.9166623641372495e-05 0.0 0.0
0.0 0.00012539588131375528 -3.2745547835992986e-05 2.6544146490626902e-05 6.201401345366059e-06 -0.00017372957410034172 0.0 0.0
0.0 0.0003684296638796436 -0.0001241976444010525 0.00010031945422101398 2.387819018003857e-05 -0.0005250448729017411 0.0 0.0
0.0 0.0010000922616187227 -0.00047702125971107345 0.0003892551583762966 8.776610133477679e-05 -0.0014313062290398934 0.0 0.0
0.0 0.002402362562063703 -0.001391979775565811 0.001169896470330336 0.0002220833052354743 -0.002967285776252068 0.0 0.0
0.0 0.004467876940864246 -0.0029043046235014873 0.00252974141722399 0.0003745632062774969 -0.004892057841494723 0.0 0.0
0.0 0.006988777874414885 -0.0048285915798162065 0.004333903917373661 0.000494687662442543 -0.007005080998622924 0.0 0.0
0.0 0.009899007657650002 -0.007012551009831958 0.006435417466066476 0.0005771335437654832 -0.00915300526768295 0.0 0.0
0.0 0.01305795724831189 -0.009442294290629386 0.008801510118423542 0.0006407841722058411 -0.011311008363997356 0.0 0.0
0.0 0.01651789971359781 -0.012113957047796328 0.01141882469935257 0.0006951323484437621 -0.013458636229543904 0.0 0.0
0.0 0.020187264413921366 -0.014925982362113514 0.014178968602320072 0.0007470137597934338 -0.015671096794453002 0.0 0.0
0.0 0.023792303908063705 -0.017607018794802722 0.016809766427121384 0.0007972523676813355 -0.018029086000383606 0.0 0.0
0.0 0.026930936799925753 -0.019715179607968224 0.018874985516507462 0.0008401940914607674 -0.02060762786004846 0.0 0.0
0.0 0.028985271023031334 -0.02071068411816408 0.019842052664556964 0.0008686314536071288 -0.02331535403671389 0.0 0.0
0.0 0.028330057879161707 -0.019525247441397907 0.018561746159794647 0.0009635012816032539 -0.024445193722444906 0.0 0.0
0.0 0.022394431821881285 -0.013422661297189609 0.012363088686176343 0.0010595726110132547 -0.0219213748952612 0.0 0.0
0.0 0.022394431821891367 -0.013422661297191388 0.012363088686177698 0.0010595726110136875 0.021921374895290897 0.0 0.0
0.0 0.028330057879167717 -0.019525247441395045 0.018561746159791562 0.0009635012816034696 0.024445193722483535 0.0 0.0
0.0 0.02898527102302243 -0.020710684118151565 0.019842052664544547 0.0008686314536070017 0.02331535403673544 0.0 0.0
0.0 0.026930936799906102 -0.01971517960795087 0.018874985516490576 0.0008401940914602961 0.020607627860046447 0.0 0.0
0.0 0.02379230390803646 -0.01760701879478118 0.016809766427099606 0.0007972523676815773 0.018029086000367938 0.0 0.0
0.0 0.02018726441389703 -0.014925982362094853 0.014178968602301363 0.0007470137597934935 0.01567109679443706 0.0 0.0
0.0 0.01651789971357416 -0.012113957047777702 0.011418824699334005 0.0006951323484436966 0.013458636229530838 0.0 0.0
0.0 0.013057957248290866 -0.009442294290612068 0.008801510118406637 0.000640784172205426 0.01131100836398647 0.0 0.0
0.0 0.009899007657627277 -0.007012551009814688 0.006435417466049867 0.0005771335437648175 0.009153005267667092 0.0 0.0
0.0 0.00698877787439086 -0.004828591579799014 0.004333903917357369 0.0004946876624416448 0.007005080998602602 0.0 0.0
0.0 0.004467876940843402 -0.00290430462348734 0.002529741417210839 0.00037456320627649953 0.004892057841474591 0.0 0.0
0.0 0.002402362562053421 -0.0013919797755586995 0.0011698964703240194 0.00022208330523468085 0.0029672857762419137 0.0 0.0
0.0 0.0010000922616146485 -0.0004770212597086342 0.00038925515837434215 8.776610133429211e-05 0.001431306229035399 0.0 0.0
0.0 0.0003684296638763241 -0.0001241976444000736 0.00010031945422023159 2.3878190179842012e-05 0.0005250448728980857 0.0 0.0
0.0 0.00012539588131218224 -3.274554783591755e-05 2.6544146490556548e-05 6.201401345360988e-06 0.00017372957409974584 0.0 0.0
0.0 3.7087472938848734e-05 -8.159231523168016e-06 6.791608715583378e-06 1.367622807584621e-06 4.9166623641263925e-05 0.0 0.0
0.0 1.1469705807646708e-05 -1.4764236101022037e-06 1.2632077432940096e-06 2.1321586680819629e-07 9.980445427508741e-06 0.0 0.0
0.0 5.178567609758688e-06 -6.611707144482657e-07 5.474069151819688e-07 1.1376379926629646e-07 5.117543286574892e-06 0.0 0.0
0.0 1.2695884216175898e-06 -3.5801729671419414e-08 2.308789880881342e-08 1.2713830862606342e-08 6.744554181463557e-07 0.0 0.0
0.0 5.791226488939735e-07 -3.285152937202806e-08 4.863961920387383e-08 -1.57880898318369e-08 -8.324711318699175e-08 0.0 0.0
0.0 0.0 0.0 0.0 0.0 0.0 0.0 0.0
0.0 1.2508586812791678e-06 1.7693331314728913e-08 -8.022362203851962e-09 -9.670969110877117e-09 2.5436291706895875e-07 0.0 0.0
0.0 4.675972172042342e-06 -3.434658896111514e-07 2.8174710899794726e-07 6.171878061320034e-08 -1.925776299006375e-06 0.0 0.0
0.0 1.3807162173771348e-05 -2.0956768260299753e-06 1.727524138916462e-06 3.681526871135218e-07 -9.037632730913889e-06 0.0 0.0
0.0 4.513530072332757e-05 -1.473717981990701e-05 1.2036681237183595e-05 2.700498582723424e-06 -5.3900071775023346e-05 0.0 0.0
0.0 0.00017323588000863166 -7.314132918935344e-05 5.911212735817094e-05 1.4029201831182454e-05 -0.0002199381868407314 0.0 0.0
0.0 0.0006935808535137425 -0.0003888080541379311 0.0003169418880918574 7.186616604607368e-05 -0.0008671448613445757 0.0 0.0
0.0 0.002125661866298422 -0.0014256698831081583 0.0011994691181826049 0.00022620076492555372 -0.0023206873729471863 0.0 0.0
0.0 0.004715930439735135 -0.0033991014848636343 0.00298357844815136 0.0004155230367122721 -0.004402273403639153 0.0 0.0
0.0 0.008093675569027188 -0.006160766791701942 0.005598058196793562 0.0005627085949083771 -0.006897248695036788 0.0 0.0
0.0 0.012240337803659431 -0.00944672232763699 0.008788791887728712 0.0006579304399082823 -0.009542432513324005 0.0 0.0
0.0 0.016719215458068433 -0.01313223345819682 0.012405487916026534 0.0007267455421702857 -0.01211795606728261 0.0 0.0
0.0 0.021669453997532985 -0.017210386629239866 0.016425727742221737 0.0007846588870181277 -0.01460475348339315 0.0 0.0
0.0 0.02713218258404398 -0.021708085012089165 0.020868013441182175 0.0008400715709069792 -0.017086336710048625 0.0 0.0
0.0 0.03308404021699134 -0.026541745364072736 0.0256431439921095 0.0008986013719632198 -0.019761874042534478 0.0 0.0
0.0 0.03913834077992408 -0.03140959429188274 0.030450117988537015 0.0009594763033457004 -0.02290780519647684 0.0 0.0
0.0 0.044817723550247796 -0.03575437342236969 0.034736608601354274 0.001017764821015393 -0.026700981973746787 0.0 0.0
0.0 0.0487026755088821 -0.03863290448730317 0.03754119626835007 0.001091708218953102 -0.030450302423381394 0.0 0.0
0.0 0.04887323195650756 -0.03825704622733863 0.037071536688516 0.0011855095388226178 -0.032303214806600894 0.0 0.0
0.0 0.040390246368765856 -0.031033542439486514 0.029625980144789392 0.0014075622946971168 -0.028439470205823377 0.0 0.0
0.0 0.040390246368773315 -0.03103354243948534 0.02962598014478815 0.001407562294697196 0.02843947020586251 0.0 0.0
0.0 0.048873231956511484 -0.03825704622733277 0.037071536688510286 0.0011855095388224796 0.03230321480665089 0.0 0.0
0.0 0.04870267550886935 -0.038632904487285694 0.03754119626833298 0.0010917082189526857 0.03045030242341369 0.0 0.0
0.0 0.044817723550220796 -0.035754373422344436 0.03473660860132971 0.0010177648210147527 0.026700981973750676 0.0 0.0
0.0 0.0391383407798917 -0.031409594291855136 0.030450117988510682 0.0009594763033444638 0.022907805196463987 0.0 0.0
0.0 0.03308404021695893 -0.026541745364045737 0.025643143992083228 0.0008986013719625007 0.01976187404251985 0.0 0.0
0.0 0.027132182584010348 -0.021708085012061402 0.020868013441154812 0.0008400715709065918 0.01708633671003217 0.0 0.0
0.0 0.021669453997497683 -0.017210386629210095 0.016425727742192062 0.0007846588870180251 0.014604753483379182 0.0 0.0
0.0 0.01671921545803577 -0.013132233458170332 0.012405487916000536 0.0007267455421697958 0.01211795606726361 0.0 0.0
0.0 0.012240337803628697 -0.009446722327612983 0.008788791887705264 0.000657930439907717 0.009542432513301686 0.0 0.0
0.0 0.008093675569000274 -0.006160766791681597 0.005598058196773813 0.0005627085949077841 0.006897248695015782 0.0 0.0
0.0 0.004715930439717127 -0.003399101484849569 0.002983578448138218 0.0004155230367113501 0.004402273403626011 0.0 0.0
0.0 0.002125661866287475 -0.0014256698831002182 0.0011994691181757154 0.0002262007649245027 0.0023206873729377077 0.0 0.0
0.0 0.0006935808535079001 -0.000388808054134848 0.00031694188808935444 7.186616604549346e-05 0.0008671448613388204 0.0 0.0
0.0 0.00017323588000681968 -7.314132918907517e-05 5.911212735795898e-05 1.4029201831116147e-05 0.00021993818683985458 0.0 0.0
0.0 4.513530072231226e-05 -1.4737179819965377e-05 1.2036681237231747e-05 2.7004985827335906e-06 5.390007177524091e-05 0.0 0.0
0.0 1.3807162172975358e-05 -2.095676826120825e-06 1.7275241389911218e-06 3.68152687129692e-07 9.037632731309292e-06 0.0 0.0
0.0 4.675972171720406e-06 -3.4346588978154206e-07 2.8174710913695314e-07 6.171878064459516e-08 1.925776299992328e-06 0.0 0.0
0.0 1.2508586809248778e-06 1.7693331309732382e-08 -8.022362201433076e-09 -9.67096910830339e-09 -2.543629169952669e-07 0.0 0.0
0.0 0.0 0.0 0.0 0.0 0.0 0.0 0.0
0.0 0.0 0.0 0.0 0.0 0.0 0.0 0.0
0.0 1.142611525848342e-07 2.288734892542505e-09 -1.5997618405167106e-09 -6.88973052025528e-10 2.247828464461184e-08 0.0 0.0
0.0 2.560921221232312e-06 -8.328299684078637e-08 6.741150569859585e-08 1.587149114218566e-08 -3.311203665588462e-07 0.0 0.0
0.0 1.3405438124020156e-05 -3.536845190977128e-06 2.9173930026804872e-06 6.19452188296637e-07 -1.1594456216479917e-05 0.0 0.0
0.0 5.707066440252536e-05 -2.3620378359735423e-05 1.9226743408432105e-05 4.393634951303334e-06 -6.022687541971654e-05 0.0 0.0
0.0 0.00030426052662992987 -0.00017892479692338152 0.0001448471974729034 3.407759945047813e-05 -0.0003449076859071551 0.0 0.0
0.0 0.0013200706047772817 -0.0009267507659000587 0.0007689896661012375 0.00015776109979882133 -0.0013072879801959633 0.0 0.0
0.0 0.0036425780344429407 -0.002771741184457684 0.002403834726150384 0.0003679064583072991 -0.0030561008951918525 0.0 0.0
0.0 0.007327857116861024 -0.005773324637273226 0.0052218161625121485 0.0005515084747610771 -0.005459462801667055 0.0 0.0
0.0 0.012059760501486157 -0.009706201244019573 0.009033335737827488 0.0006728655061920858 -0.008296368058361188 0.0 0.0
0.0 0.017596228133200855 -0.014310283138222777 0.013555056169127267 0.0007552269690955159 -0.011215670700192498 0.0 0.0
0.0 0.02377955741639045 -0.01947084253155876 0.018646965641420977 0.0008238768901377776 -0.01399990752403921 0.0 0.0
0.0 0.030621797061597386 -0.02519481559489685 0.024308798396297293 0.0008860171985995292 -0.016671057386573315 0.0 0.0
0.0 0.038122540550428206 -0.031531721929308074 0.03058406116190593 0.0009476607674021508 -0.01935130438941346 0.0 0.0
0.0 0.04634704168431755 -0.038424589634740366 0.03741119895512023 0.001013390679620093 -0.022317382601642018 0.0 0.0
0.0 0.05496397657828955 -0.04555290635913736 0.044466234779456056 0.0010866715796812878 -0.026007818115506384 0.0 0.0
0.0 0.06305277322232425 -0.05214768602072937 0.050977414000931254 0.001170272019798086 -0.030583837063256878 0.0 0.0
0.0 0.06894841252531124 -0.056753278127997006 0.05548476142452812 0.001268516703468836 -0.035199371087565455 0.0 0.0
0.0 0.06942699655644455 -0.056838227662030075 0.05542978941792233 0.001408438244107719 -0.03743386928082064 0.0 0.0
0.0 0.05896706651086757 -0.04788303041054863 0.04625656535629156 0.0016264650542571024 -0.03388586709374511 0.0 0.0
0.0 0.058967066510874605 -0.0478830304105477 0.04625656535629068 0.0016264650542569935 0.033885867093788616 0.0 0.0
0.0 0.06942699655644413 -0.05683822766202074 0.05542978941791354 0.0014084382441071838 0.0374338692808779 0.0 0.0
0.0 0.0689484125252927 -0.05675327812797416 0.055484761424506285 0.0012685167034678564 0.03519937108760551 0.0 0.0
0.0 0.0630527732222833 -0.05214768602069174 0.05097741400089377 0.001170272019797945 0.030583837063264056 0.0 0.0
0.0 0.054963976578242174 -0.04555290635909669 0.04446623477941554 0.0010866715796811369 0.02600781811549418 0.0 0.0
0.0 0.04634704168427281 -0.038424589634702584 0.03741119895508238 0.0010133906796201738 0.022317382601626422 0.0 0.0
0.0 0.03812254055038369 -0.03153172192927052 0.030584061161868816 0.0009476607674017061 0.019351304389396515 0.0 0.0
0.0 0.0306217970615498 -0.025194815594856205 0.02430879839625718 0.0008860171985990261 0.016671057386557435 0.0 0.0
0.0 0.02377955741634548 -0.019470842531521107 0.018646965641383784 0.0008238768901373166 0.013999907524017807 0.0 0.0
0.0 0.017596228133158105 -0.014310283138188192 0.013555056169093018 0.0007552269690951701 0.01121567070016609 0.0 0.0
0.0 0.012059760501449789 -0.009706201243990565 0.009033335737799058 0.0006728655061915031 0.008296368058336211 0.0 0.0
0.0 0.00732785711683421 -0.005773324637251935 0.005221816162491757 0.0005515084747601798 0.0054594628016501594 0.0 0.0
0.0 0.003642578034425167 -0.0027717411844436924 0.002403834726137699 0.0003679064583059921 0.0030561008951794796 0.0 0.0
0.0 0.0013200706047678144 -0.0009267507658935115 0.0007689896660956121 0.00015776109979789924 0.0013072879801879645 0.0 0.0
0.0 0.0003042605266263007 -0.0001789247969217594 0.00014484719747156333 3.407759945019611e-05 0.00034490768590435066 0.0 0.0
0.0 5.7070664401369005e-05 -2.362037835969042e-05 1.9226743408383845e-05 4.3936349513065175e-06 6.022687541951135e-05 0.0 0.0
0.0 1.340543812335292e-05 -3.5368451911422514e-06 2.91739300281461e-06 6.194521883276336e-07 1.1594456217015145e-05 0.0 0.0
0.0 2.560921220797425e-06 -8.328299699890679e-08 6.741150582601194e-08 1.587149117289292e-08 3.311203672672991e-07 0.0 0.0
0.0 1.1426115247963744e-07 2.288734890412389e-09 -1.5997618390303778e-09 -6.889730513817681e-10 -2.247828462369251e-08 0.0 0.0
0.0 0.0 0.0 0.0 0.0 0.0 0.0 0.0
0.0 0.0 0.0 0.0 0.0 0.0 0.0 0.0
0.0 0.0 0.0 0.0 0.0 0.0 0.0 0.0
0.0 6.553720683727957e-07 2.1105006460525608e-08 -1.6848386293576988e-08 -4.256620166945501e-09 7.487468311004619e-08 0.0 0.0
0.0 1.2754265664581517e-05 -2.1501344970230152e-06 1.7423583156717714e-06 4.0777618135125454e-07 -5.115492304662043e-06 0.0 0.0
0.0 9.166875412149193e-05 -4.230299731253052e-05 3.417624564614198e-05 8.12675166638853e-06 -7.529008348296345e-05 0.0 0.0
0.0 0.000570516772165462 -0.0004065508865232276 0.0003315212451483574 7.502964137487021e-05 -0.0005274197880580024 0.0 0.0
0.0 0.002213315880749299 -0.0017155339478891994 0.0014533785863685153 0.0002621553615206833 -0.0016610731112631353 0.0 0.0
0.0 0.005408558547573017 -0.0043771736944184705 0.0038931560808803233 0.0004840176135381468 -0.003533283326445735 0.0 0.0
0.0 0.010115849434645368 -0.008356699616648255 0.0077144073367867525 0.0006422922798615036 -0.006088102273260947 0.0 0.0
0.0 0.01610329754003283 -0.013403141947012661 0.012656974273061379 0.0007461676739512852 -0.009007698911549032 0.0 0.0
0.0 0.023099830803390238 -0.019298815434402553 0.018470749801659768 0.0008280656327427863 -0.011959050060103013 0.0 0.0
0.0 0.030954284409243138 -0.025934159998332176 0.025032331143384382 0.0009018288549478056 -0.014791304747134007 0.0 0.0
0.0 0.0396440504769095 -0.033309082836273436 0.032337890340999674 0.0009711924952737411 -0.017517981434560955 0.0 0.0
0.0 0.04925452530670997 -0.041484267869654354 0.040445148633386996 0.0010391192362673501 -0.02023493723608096 0.0 0.0
0.0 0.05984168541073816 -0.050444188825997785 0.0493317199636852 0.0011124688623125995 -0.023240671572097787 0.0 0.0
0.0 0.07081667610085965 -0.059838522127038274 0.05863856462470059 0.0011999575023376632 -0.0270143443090873 0.0 0.0
0.0 0.0814856692557071 -0.06864207599511053 0.06733541981577346 0.0013066561793370702 -0.031796148900947514 0.0 0.0
0.0 0.08915932709569624 -0.07484638844842433 0.07340845475757284 0.0014379336908514942 -0.036822503961040746 0.0 0.0
0.0 0.08980215896813601 -0.07511697394092633 0.07351498213100081 0.0016019918099254786 -0.039850996272276465 0.0 0.0
0.0 0.07767192745055418 -0.06443137566450322 0.06263323382000088 0.0017981418445023375 -0.038658131261839375 0.0 0.0
0.0 0.07767192745055411 -0.06443137566449694 0.06263323381999414 0.0017981418445027755 0.0386581312618839 0.0 0.0
0.0 0.08980215896812223 -0.0751169739409073 0.07351498213098141 0.0016019918099258496 0.03985099627233159 0.0 0.0
0.0 0.0891593270956684 -0.07484638844839481 0.0734084547575437 0.0014379336908510237 0.036822503961080985 0.0 0.0
0.0 0.08148566925566061 -0.06864207599506826 0.06733541981573112 0.0013066561793371018 0.03179614890095786 0.0 0.0
0.0 0.07081667610080669 -0.05983852212699216 0.058638564624655026 0.0011999575023371287 0.027014344309078057 0.0 0.0
0.0 0.05984168541068393 -0.05044418882595077 0.04933171996363914 0.0011124688623116506 0.02324067157208494 0.0 0.0
0.0 0.04925452530665446 -0.04148426786960679 0.04044514863333992 0.0010391192362668698 0.02023493723606354 0.0 0.0
0.0 0.03964405047685568 -0.03330908283622704 0.032337890340953475 0.0009711924952735553 0.017517981434547164 0.0 0.0
0.0 0.030954284409188453 -0.025934159998285612 0.025032331143338145 0.0009018288549474578 0.014791304747113734 0.0 0.0
0.0 0.023099830803337894 -0.019298815434359066 0.018470749801616632 0.0008280656327424254 0.011959050060075792 0.0 0.0
0.0 0.016103297539988903 -0.01340314194697613 0.012656974273025385 0.0007461676739507514 0.009007698911523327 0.0 0.0
0.0 0.01011584943461342 -0.008356699616621733 0.007714407336760834 0.0006422922798609043 0.0060881022732439515 0.0 0.0
0.0 0.00540855854755057 -0.004377173694400148 0.0038931560808629405 0.0004840176135372095 0.0035332833264330324 0.0 0.0
0.0 0.0022133158807366026 -0.0017155339478794962 0.0014533785863600195 0.0002621553615194771 0.0016610731112547835 0.0 0.0
0.0 0.0005705167721599904 -0.00040655088651987 0.00033152124514559814 7.502964137427186e-05 0.0005274197880539983 0.0 0.0
0.0 9.16687541205032e-05 -4.2302997312627856e-05 3.4176245646215696e-05 8.12675166641207e-06 7.529008348314757e-05 0.0 0.0
0.0 1.2754265664052889e-05 -2.1501344972112573e-06 1.7423583158237875e-06 4.077761813874802e-07 5.1154923051283474e-06 0.0 0.0
0.0 6.553720682125664e-07 2.1105006391067907e-08 -1.6848386236754613e-08 -4.25662015431408e-09 -7.487468285654207e-08 0.0 0.0
0.0 0.0 0.0 0.0 0.0 0.0 0.0 0.0
0.0 0.0 0.0 0.0 0.0 0.0 0.0 0.0
0.0 0.0 0.0 0.0 0.0 0.0 0.0 0.0
0.0 0.0 0.0 0.0 0.0 0.0 0.0 0.0
0.0 9.159772724021529e-07 5.630253744311479e-08 -4.536700834069255e-08 -1.0935529102421052e-08 1.5681455061216043e-07 0.0 0.0
0.0 9.867647808270951e-06 -3.8893795785907985e-06 3.1268883347301643e-06 7.624912438606746e-07 -7.158251336291288e-06 0.0 0.0
0.0 0.00015143461786389908 -9.692000659588027e-05 7.807007098137032e-05 1.8849935614509985e-05 -0.00012365763835252432 0.0 0.0
0.0 0.0010121473242288047 -0.0007794415329330799 0.0006423977174922289 0.00013704381544085126 -0.0006922295874984008 0.0 0.0
0.0 0.0033524288229531494 -0.002704655859329906 0.0023401030716696095 0.00036455278766029753 -0.001855025032944061 0.0 0.0
0.0 0.007282759364471944 -0.006164380636124148 0.005592875527289909 0.0005715051088342376 -0.0037320073028604644 0.0 0.0
0.0 0.01300314155251047 -0.011054058131006338 0.01034946445848011 0.000704593672526229 -0.006210620794109354 0.0 0.0
0.0 0.020225658775164756 -0.017179451712198 0.016376838399980817 0.0008026133122171908 -0.008990320904700227 0.0 0.0
0.0 0.028677250225272462 -0.024359114493659552 0.02347043716941045 0.0008886773242490792 -0.01182525487046924 0.0 0.0
0.0 0.038183180211770085 -0.03247405847601462 0.03150445939409954 0.0009695990819150379 -0.014546884635776636 0.0 0.0
0.0 0.04879633696379962 -0.04150734894996885 0.040460169260052956 0.0010471796899158906 -0.01717977027659148 0.0 0.0
0.0 0.060385045429393686 -0.05151535965162606 0.05039297276165018 0.001122386889975877 -0.019809578190777326 0.0 0.0
0.0 0.07319558346048552 -0.06249724775177316 0.06129462833185538 0.0012026194199177837 -0.02258259254693408 0.0 0.0
0.0 0.08683764610808074 -0.07408697274017982 0.07278390091312986 0.00130307182704994 -0.025917817412311306 0.0 0.0
0.0 0.0995943090032385 -0.08503943993715175 0.08360621385641251 0.0014332260807391885 -0.030322376273363677 0.0 0.0
0.0 0.10883238353826263 -0.09278013778558913 0.09118664082002036 0.0015934969655687053 -0.03552223843816847 0.0 0.0
0.0 0.10988705596627056 -0.09327244239950655 0.09150079950595354 0.001771642893552959 -0.040148698974414115 0.0 0.0
0.0 0.09679880816213128 -0.08111705136992739 0.07916252333122656 0.00195452803870083 -0.04311265291228113 0.0 0.0
0.0 0.0967988081621295 -0.08111705136992013 0.07916252333121898 0.001954528038701093 0.0431126529123273 0.0 0.0
0.0 0.10988705596625092 -0.09327244239948355 0.09150079950593062 0.0017716428935529074 0.040148698974468565 0.0 0.0
0.0 0.1088323835382278 -0.09278013778555441 0.0911866408199863 0.001593496965568071 0.035522238438209626 0.0 0.0
0.0 0.09959430900318682 -0.0850394399371053 0.08360621385636627 0.0014332260807389903 0.030322376273375307 0.0 0.0
0.0 0.08683764610801625 -0.07408697274012385 0.072783900913074 0.0013030718270498067 0.025917817412304676 0.0 0.0
0.0 0.07319558346041893 -0.062497247751715404 0.061294628331797954 0.0012026194199174392 0.02258259254692504 0.0 0.0
0.0 0.060385045429329154 -0.05151535965157019 0.05039297276159502 0.001122386889975162 0.01980957819076292 0.0 0.0
0.0 0.048796336963732256 -0.041507348949910344 0.04046016925999488 0.0010471796899154508 0.017179770276576956 0.0 0.0
0.0 0.038183180211703624 -0.03247405847595749 0.0315044593940425 0.0009695990819149733 0.014546884635757052 0.0 0.0
0.0 0.02867725022521357 -0.02435911449360967 0.023470437169360953 0.0008886773242487152 0.011825254870444207 0.0 0.0
0.0 0.020225658775112388 -0.01717945171215389 0.016376838399937074 0.0008026133122168001 0.008990320904675435 0.0 0.0
0.0 0.013003141552472557 -0.011054058130973996 0.01034946445844832 0.0007045936725256769 0.006210620794092696 0.0 0.0
0.0 0.007282759364445786 -0.006164380636101929 0.005592875527268573 0.0005715051088333535 0.0037320073028481774 0.0 0.0
0.0 0.0033524288229362766 -0.002704655859316201 0.0023401030716571356 0.00036455278765906577 0.0018550250329354276 0.0 0.0
0.0 0.001012147324219468 -0.0007794415329261502 0.0006423977174863322 0.00013704381543981774 0.0006922295874926621 0.0 0.0
0.0 0.00015143461786191125 -9.692000659523465e-05 7.807007098082169e-05 1.884993561441293e-05 0.00012365763835164433 0.0 0.0
0.0 9.8676478080776e-06 -3.889379578870107e-06 3.1268883349510133e-06 7.62491243919071e-07 7.158251336797892e-06 0.0 0.0
0.0 9.159772720464821e-07 5.630253742091469e-08 -4.5367008322703315e-08 -1.0935529098212496e-08 -1.5681455054918204e-07 0.0 0.0
0.0 0.0 0.0 0.0 0.0 0.0 0.0 0.0
0.0 0.0 0.0 0.0 0.0 0.0 0.0 0.0
0.0 0.0 0.0 0.0 0.0 0.0 0.0 0.0
0.0 0.0 0.0 0.0 0.0 0.0 0.0 0.0
0.0 0.0 0.0 0.0 0.0 0.0 0.0 0.0
0.0 9.446327995505151e-06 -4.827124567077748e-06 3.8428030541582115e-06 9.843215129195556e-07 -6.551322754464694e-06 0.0 0.0
0.0 0.00027760335665009115 -0.0002020419950255568 0.00016302394451207179 3.9018050513485076e-05 -0.00017935586481586467 0.0 0.0
0.0 0.0016316779241806385 -0.0013009451909287177 0.0010881504320194608 0.00021279475890925793 -0.0007856900789412734 0.0 0.0
0.0 0.004471063197987188 -0.0038694783527792364 0.003414075800728329 0.00045540255205090986 -0.0018963522874701141 0.0 0.0
0.0 0.009273035523572492 -0.00805145687401257 0.00741850135010123 0.0006329555239113383 -0.00359618524031081 0.0 0.0
0.0 0.016002903366861766 -0.013803899893659892 0.01305236369771607 0.0007515361959438169 -0.005786267829741158 0.0 0.0
0.0 0.024402887115371738 -0.020997094649334927 0.02014752313103338 0.000849571518301565 -0.008282913291484652 0.0 0.0
0.0 0.03428113020296776 -0.02945403243179441 0.0285127910233793 0.0009412414084151024 -0.010830787020608692 0.0 0.0
0.0 0.04547428353952949 -0.03905298686691361 0.03802275764029985 0.0010302292266137427 -0.013283270240359957 0.0 0.0
0.0 0.057919641878771196 -0.04975803738853136 0.04864135540528007 0.0011166819832512847 -0.015684184087238356 0.0 0.0
0.0 0.07167813140339753 -0.0615851575909107 0.06038359972161348 0.0012015578692971987 -0.018066558339212932 0.0 0.0
0.0 0.08667081443364312 -0.07450180914729103 0.07321271968493817 0.001289089462352859 -0.02042036189424959 0.0 0.0
0.0 0.10227519320442335 -0.08813861853984362 0.08674186107443005 0.0013967574654135152 -0.022913390771044533 0.0 0.0
0.0 0.11738581085803972 -0.10113934803411812 0.09959274758555416 0.0015466004485639444 -0.026256651616093755 0.0 0.0
0.0 0.12844765951889037 -0.11049960991394751 0.10876773422562869 0.001731875688318832 -0.031351056787567444 0.0 0.0
0.0 0.13023302018030108 -0.11154080926860666 0.10961250397085756 0.0019283052977490242 -0.03840700286938335 0.0 0.0
0.0 0.11644310798902403 -0.09831853737683016 0.09620948898282818 0.0021090483940018954 -0.04726437411385456 0.0 0.0
0.0 0.1164431079890183 -0.09831853737681998 0.09620948898281809 0.0021090483940019097 0.04726437411389703 0.0 0.0
0.0 0.13023302018027363 -0.11154080926857841 0.10961250397082921 0.0019283052977492326 0.0384070028694349 0.0 0.0
0.0 0.12844765951884254 -0.11049960991390333 0.10876773422558451 0.0017318756883186628 0.031351056787603394 0.0 0.0
0.0 0.11738581085797556 -0.10113934803406135 0.09959274758549808 0.001546600448563309 0.026256651616102827 0.0 0.0
0.0 0.10227519320434987 -0.08813861853977957 0.08674186107436657 0.001396757465412937 0.022913390771040928 0.0 0.0
0.0 0.08667081443356645 -0.07450180914722451 0.07321271968487206 0.0012890894623524536 0.020420361894242248 0.0 0.0
0.0 0.07167813140332266 -0.06158515759084593 0.06038359972154954 0.001201557869296328 0.01806655833920019 0.0 0.0
0.0 0.057919641878695305 -0.04975803738846546 0.04864135540521504 0.0011166819832504134 0.01568418408722514 0.0 0.0
0.0 0.045474283539454326 -0.039052986866848285 0.03802275764023538 0.0010302292266129419 0.013283270240343484 0.0 0.0
0.0 0.034281130202898316 -0.029454032431734577 0.028512791023320078 0.0009412414084144851 0.010830787020585365 0.0 0.0
0.0 0.024402887115315332 -0.02099709464928629 0.02014752313098558 0.0008495715183006949 0.008282913291463039 0.0 0.0
0.0 0.016002903366817586 -0.013803899893621447 0.013052363697678244 0.0007515361959432023 0.005786267829726707 0.0 0.0
0.0 0.009273035523540625 -0.008051456873984737 0.007418501350074257 0.0006329555239104806 0.0035961852402992887 0.0 0.0
0.0 0.0044710631979669 -0.0038694783527618206 0.0034140758007119945 0.0004554025520498269 0.0018963522874619902 0.0 0.0
0.0 0.001631677924170617 -0.0013009451909211278 0.0010881504320128551 0.00021279475890827225 0.0007856900789369238 0.0 0.0
0.0 0.000277603356646892 -0.00020204199502386292 0.00016302394451067398 3.901805051318874e-05 0.00017935586481447176 0.0 0.0
0.0 9.446327995209745e-06 -4.827124567439784e-06 3.842803054438889e-06 9.843215130009083e-07 6.551322754928568e-06 0.0 0.0
0.0 0.0 0.0 0.0 0.0 0.0 0.0 0.0
0.0 0.0 0.0 0.0 0.0 0.0 0.0 0.0
0.0 0.0 0.0 0.0 0.0 0.0 0.0 0.0
0.0 0.0 0.0 0.0 0.0 0.0 0.0 0.0
0.0 0.0 0.0 0.0 0.0 0.0 0.0 0.0
0.0 0.0 0.0 0.0 0.0 0.0 0.0 0.0
0.0 1.3761354324079106e-05 -8.52669480235242e-06 6.811942539174319e-06 1.7147522631780912e-06 -8.316713059062935e-06 0.0 0.0
0.0 0.0005117599705832835 -0.00039139324459990226 0.00031705760604564166 7.433563855426038e-05 -0.00022293623890259513 0.0 0.0
0.0 0.0023620544643295936 -0.0019702916829385316 0.0016742895848248568 0.00029600209811367416 -0.0007815835246917241 0.0 0.0
0.0 0.005785893547510122 -0.005132081305630722 0.004604080327439682 0.0005280009781910395 -0.0016966803358014668 0.0 0.0
0.0 0.011383438925585704 -0.009981018415211942 0.009303146612680415 0.0006778718025315274 -0.0030625716973633737 0.0 0.0
0.0 0.019043450756292407 -0.016577466474080472 0.015788395570195006 0.0007890709038854554 -0.004849391424438051 0.0 0.0
0.0 0.028616560932379673 -0.024821784769920852 0.023932116170947804 0.0008896685989730495 -0.006898726804219065 0.0 0.0
0.0 0.039932441199503704 -0.03454998115972335 0.03356203175086342 0.0009879494088599083 -0.008997184874597622 0.0 0.0
0.0 0.05275606750285361 -0.04563780595253125 0.04455284457486562 0.0010849613776656283 -0.01101402985702774 0.0 0.0
0.0 0.06718924597068107 -0.05802419795009311 0.05684303157556269 0.001181166374530381 -0.013000105923281007 0.0 0.0
0.0 0.08284576362315116 -0.071666888659455 0.07038955431592528 0.001277334343529708 -0.015012641410459196 0.0 0.0
0.0 0.09982912304437658 -0.08642353096877711 0.08504818522616817 0.0013753457426089995 -0.01687120034654252 0.0 0.0
0.0 0.11762131494315631 -0.10185976759139803 0.10037351017682292 0.0014862574145750882 -0.018295158338283688 0.0 0.0
0.0 0.13473968495269395 -0.11671241483041099 0.11507560704626876 0.0016368077841421751 -0.019902330743174535 0.0 0.0
0.0 0.1478124310314496 -0.12792924892324903 0.12607831015563808 0.001850938767610902 -0.02426458937037929 0.0 0.0
0.0 0.15097868935149877 -0.13013632064784184 0.12806034784273096 0.002075972805110922 -0.03419695539863548 0.0 0.0
0.0 0.13729290838678895 -0.11646325353739073 0.11418852512895479 0.002274728408435913 -0.050806835421658446 0.0 0.0
0.0 0.13729290838678113 -0.11646325353738032 0.11418852512894445 0.002274728408435901 0.050806835421691066 0.0 0.0
0.0 0.15097868935146702 -0.13013632064781122 0.1280603478427007 0.002075972805110452 0.03419695539868017 0.0 0.0
0.0 0.14781243103139424 -0.12792924892319887 0.12607831015558907 0.0018509387676097912 0.02426458937041102 0.0 0.0
0.0 0.13473968495262167 -0.1167124148303476 0.11507560704620658 0.0016368077841410577 0.019902330743181512 0.0 0.0
0.0 0.11762131494307346 -0.1018597675913257 0.10037351017675172 0.0014862574145739925 0.018295158338282907 0.0 0.0
0.0 0.09982912304428918 -0.08642353096870081 0.08504818522609306 0.001375345742607823 0.016871200346538377 0.0 0.0
0.0 0.08284576362306202 -0.07166688865937748 0.07038955431584888 0.0012773343435285758 0.0150126414104499 0.0 0.0
0.0 0.06718924597059427 -0.0580241979500176 0.05684303157548795 0.001181166374529683 0.013000105923270971 0.0 0.0
0.0 0.0527560675027647 -0.04563780595245433 0.044552844574788926 0.001084961377665392 0.011014029857016563 0.0 0.0
0.0 0.039932441199425066 -0.03454998115965506 0.033562031750795654 0.000987949408859416 0.008997184874578588 0.0 0.0
0.0 0.028616560932315467 -0.02482178476986505 0.023932116170892647 0.0008896685989724089 0.0068987268042004415 0.0 0.0
0.0 0.01904345075624113 -0.016577466474035712 0.015788395570150705 0.0007890709038850073 0.004849391424425502 0.0 0.0
0.0 0.011383438925548234 -0.00998101841517907 0.00930314661264803 0.0006778718025310408 0.003062571697353098 0.0 0.0
0.0 0.005785893547486964 -0.0051320813056101675 0.00460408032742015 0.0005280009781900202 0.0016966803357945934 0.0 0.0
0.0 0.0023620544643169045 -0.001970291682927925 0.0016742895848154615 0.00029600209811246224 0.0007815835246875446 0.0 0.0
0.0 0.000511759970578114 -0.00039139324459627924 0.0003170576060426388 7.433563855364059e-05 0.00022293623890069932 0.0 0.0
0.0 1.3761354323553517e-05 -8.526694802621976e-06 6.811942539376156e-06 1.7147522632458249e-06 8.31671305928149e-06 0.0 0.0
0.0 0.0 0.0 0.0 0.0 0.0 0.0 0.0
0.0 0.0 0.0 0.0 0.0 0.0 0.0 0.0
0.0 0.0 0.0 0.0 0.0 0.0 0.0 0.0
0.0 0.0 0.0 0.0 0.0 0.0 0.0 0.0
0.0 0.0 0.0 0.0 0.0 0.0 0.0 0.0
0.0 0.0 0.0 0.0 0.0 0.0 0.0 0.0
0.0 3.27335490705741e-05 -2.17684467593767e-05 1.7351973919804237e-05 4.416472839572491e-06 -1.309721083832456e-05 0.0 0.0
0.0 0.0008855945461856756 -0.0006885142773609325 0.0005633529072202628 0.0001251613701406699 -0.00022445136217890107 0.0 0.0
0.0 0.0030527130392772705 -0.0027694408303307575 0.002390640515231371 0.0003788003150993854 -0.0006278638767930262 0.0 0.0
0.0 0.00722811274917589 -0.006444153268905116 0.005863046957014552 0.0005811063118905669 -0.0012481708205565724 0.0 0.0
0.0 0.013536148737644135 -0.011931271123167908 0.01121842712475102 0.0007128439984168929 -0.0021722654120416964 0.0 0.0
0.0 0.022104284921688276 -0.019344029773569683 0.01852448831090439 0.000819541462665285 -0.0034066151247351298 0.0 0.0
0.0 0.032835911086926 -0.02862213657831216 0.027697968463632535 0.0009241681146796206 -0.004844975129920818 0.0 0.0
0.0 0.0455669287633282 -0.03961672857513969 0.038587086177149635 0.0010296423979900614 -0.0063198185717710095 0.0 0.0
0.0 0.06018823154920165 -0.05219570436928593 0.051060642934805306 0.0011350614344806233 -0.007738395334211268 0.0 0.0
0.0 0.07630545738716445 -0.06627255187062868 0.0650313215110997 0.0012412303595289798 -0.009166843999549725 0.0 0.0
0.0 0.0940674565042136 -0.08171863640594132 0.08036903203301686 0.0013496043729244217 -0.010603091132148915 0.0 0.0
0.0 0.11312857062422704 -0.09824478261304742 0.09678326781081109 0.0014615148022363049 -0.011837247634127978 0.0 0.0
0.0 0.1327077573365385 -0.11525124127083253 0.11367241815457069 0.0015788231162618045 -0.012423480720401284 0.0 0.0
0.0 0.1514538442091667 -0.13155826034695056 0.12984299230180127 0.0017152680451493385 -0.012258330812960582 0.0 0.0
0.0 0.16660622707038364 -0.14467802414555775 0.14276730716170932 0.0019107169838484006 -0.014122370192386114 0.0 0.0
0.0 0.17237771015671002 -0.14922376888511843 0.14699633175989824 0.002227437125220124 -0.02599539382743871 0.0 0.0
0.0 0.1599029098382252 -0.13619995958113856 0.1337312360270186 0.0024687235541198905 -0.052963994392361644 0.0 0.0
0.0 0.15990290983821379 -0.1361999595811259 0.13373123602700673 0.002468723554119168 0.05296399439238674 0.0 0.0
0.0 0.17237771015666709 -0.14922376888507966 0.14699633175985966 0.002227437125219985 0.02599539382747318 0.0 0.0
0.0 0.1666062270703202 -0.14467802414550182 0.1427673071616542 0.001910716983847668 0.014122370192409792 0.0 0.0
0.0 0.15145384420908342 -0.13155826034687806 0.12984299230172947 0.0017152680451485943 0.012258330812962633 0.0 0.0
0.0 0.13270775733644663 -0.11525124127075231 0.11367241815449207 0.0015788231162602519 0.012423480720400101 0.0 0.0
0.0 0.113128570624131 -0.09824478261296354 0.09678326781072884 0.0014615148022346879 0.0118372476341258 0.0 0.0
0.0 0.09406745650411577 -0.08171863640585639 0.08036903203293266 0.001349604372923688 0.010603091132144679 0.0 0.0
0.0 0.07630545738706557 -0.06627255187054286 0.0650313215110146 0.0012412303595283117 0.009166843999541971 0.0 0.0
0.0 0.06018823154910614 -0.052195704369202664 0.05106064293472288 0.0011350614344797607 0.007738395334204191 0.0 0.0
0.0 0.04556692876324377 -0.03961672857506647 0.03858708617707692 0.0010296423979895405 0.006319818571757543 0.0 0.0
0.0 0.032835911086852514 -0.028622136578248324 0.027697968463569117 0.0009241681146792127 0.004844975129906988 0.0 0.0
0.0 0.022104284921633195 -0.019344029773521038 0.018524488310856454 0.0008195414626645801 0.0034066151247274697 0.0 0.0
0.0 0.013536148737605343 -0.011931271123133478 0.011218427124717352 0.000712843998416124 0.0021722654120355568 0.0 0.0
0.0 0.007228112749149614 -0.006444153268881436 0.005863046956991836 0.0005811063118895983 0.0012481708205519324 0.0 0.0
0.0 0.0030527130392638217 -0.002769440830318593 0.0023906405152202335 0.00037880031509835994 0.0006278638767901645 0.0 0.0
0.0 0.0008855945461799197 -0.0006885142773566701 0.0005633529072167289 0.0001251613701399409 0.00022445136217791092 0.0 0.0
0.0 3.273354906978414e-05 -2.1768446759557062e-05 1.735197391992454e-05 4.416472839632469e-06 1.3097210838360864e-05 0.0 0.0
0.0 0.0 0.0 0.0 0.0 0.0 0.0 0.0
0.0 0.0 0.0 0.0 0.0 0.0 0.0 0.0
0.0 0.0 0.0 0.0 0.0 0.0 0.0 0.0
0.0 0.0 0.0 0.0 0.0 0.0 0.0 0.0
0.0 0.0 0.0 0.0 0.0 0.0 0.0 0.0
0.0 0.0 0.0 0.0 0.0 0.0 0.0 0.0
0.0 9.885352703756939e-05 -7.827572564684036e-05 6.202291628873894e-05 1.6252809358101548e-05 -1.996239611323581e-05 0.0 0.0
0.0 0.0014075189801734955 -0.0010928627428744577 0.0009040953801094255 0.00018876736276503164 -0.00014006795391476888 0.0 0.0
0.0 0.00399561552510394 -0.003624583936844114 0.0031759535479559753 0.0004486303888881395 -0.00029857080850626504 0.0 0.0
0.0 0.00872182826245094 -0.007785840113228129 0.007163889419890469 0.0006219506933376581 -0.0005506739514273093 0.0 0.0
0.0 0.015728615371524514 -0.013874875514360778 0.013134860848031076 0.0007400146663296948 -0.0009287442599232741 0.0 0.0
0.0 0.02518688809302624 -0.02207350461138747 0.021228480464824437 0.0008450241465630251 -0.0014665166981779965 0.0 0.0
0.0 0.03708852992448934 -0.03236578563741127 0.03141187906864603 0.0009539065687652389 -0.002119716728779784 0.0 0.0
0.0 0.05131001697177244 -0.04462436799520794 0.04355772475348747 0.0010666432417204622 -0.0028005262850307605 0.0 0.0
0.0 0.0673980009669607 -0.05870414838965119 0.05752283766363274 0.0011813107260184295 -0.0034750889821666265 0.0 0.0
0.0 0.08549093567294476 -0.07445788855149787 0.0731604531248793 0.0012974354266185883 -0.004147964473899328 0.0 0.0
0.0 0.10534934979636043 -0.09168247253312953 0.09026488293838765 0.0014175895947418473 -0.004786388284404693 0.0 0.0
0.0 0.12641000926829105 -0.10995146012088812 0.10840755136861231 0.0015439087522758532 -0.0052688175461298534 0.0 0.0
0.0 0.147731032814099 -0.12843030075644984 0.12675521741822668 0.0016750833382231146 -0.005286769574236837 0.0 0.0
0.0 0.16773661842653861 -0.14578211148413645 0.14397528003736446 0.0018068314467719797 -0.00441050058642467 0.0 0.0
0.0 0.1841506172507159 -0.16005236610580198 0.1581026975857975 0.0019496685200043765 -0.0032479672309735637 0.0 0.0
0.0 0.1932098932324291 -0.1677533042024702 0.16557469551387674 0.0021786086885933337 -0.01022213178477257 0.0 0.0
0.0 0.1858487307859339 -0.1593059407030902 0.15646539409998889 0.00284054660310123 -0.048878144482315596 0.0 0.0
0.0 0.18584873078591824 -0.1593059407030759 0.15646539409997473 0.0028405466031010693 0.04887814448232445 0.0 0.0
0.0 0.19320989323238158 -0.16775330420242865 0.16557469551383555 0.0021786086885929637 0.010222131784789881 0.0 0.0
0.0 0.1841506172506382 -0.1600523661057343 0.1581026975857306 0.0019496685200036373 0.003247967230985971 0.0 0.0
0.0 0.16773661842644016 -0.145782111484051 0.1439752800372797 0.0018068314467713307 0.004410500586421701 0.0 0.0
0.0 0.14773103281399058 -0.128430300756356 0.12675521741813306 0.0016750833382228718 0.005286769574235888 0.0 0.0
0.0 0.1264100092681797 -0.10995146012079167 0.10840755136851614 0.0015439087522754612 0.005268817546129101 0.0 0.0
0.0 0.10534934979624809 -0.09168247253303213 0.09026488293829076 0.0014175895947412984 0.0047863882844021155 0.0 0.0
0.0 0.08549093567283415 -0.07445788855140192 0.07316045312478403 0.0012974354266178604 0.004147964473895529 0.0 0.0
0.0 0.0673980009668547 -0.05870414838955919 0.05752283766354137 0.0011813107260177941 0.0034750889821644386 0.0 0.0
0.0 0.051310016971680326 -0.04462436799512764 0.04355772475340823 0.0010666432417194044 0.0028005262850244027 0.0 0.0
0.0 0.037088529924410696 -0.032365785637342936 0.03141187906857858 0.000953906568764377 0.002119716728772876 0.0 0.0
0.0 0.02518688809296344 -0.02207350461133244 0.021228480464769856 0.0008450241465625759 0.00146651669817509 0.0 0.0
0.0 0.01572861537147737 -0.013874875514318975 0.013134860847989767 0.000740014666329199 0.0009287442599201439 0.0 0.0
0.0 0.008721828262420083 -0.007785840113200559 0.00716388941986352 0.000621950693337037 0.0005506739514255041 0.0 0.0
0.0 0.003995615525087326 -0.0036245839368287385 0.0031759535479415997 0.00044863038888713733 0.00029857080850499164 0.0 0.0
0.0 0.0014075189801649405 -0.001092862742867711 0.0009040953801036251 0.00018876736276408668 0.00014006795391417935 0.0 0.0
0.0 9.88535270361638e-05 -7.827572564624914e-05 6.202291628824677e-05 1.6252809358002337e-05 1.996239611304638e-05 0.0 0.0
0.0 0.0 0.0 0.0 0.0 0.0 0.0 0.0
0.0 0.0 0.0 0.0 0.0 0.0 0.0 0.0
0.0 0.0 0.0 0.0 0.0 0.0 0.0 0.0