# vtk DataFile Version 3.0
Some data
ASCII
DATASET UNSTRUCTURED_GRID
POINTS 861 float
0.0 0.0 0.0
0.4 0.0 0.0
0.8 0.0 0.0
1.2000000000000002 0.0 0.0
1.6 0.0 0.0
2.0 0.0 0.0
2.4000000000000004 0.0 0.0
2.8000000000000003 0.0 0.0
3.2 0.0 0.0
3.6 0.0 0.0
4.0 0.0 0.0
4.4 0.0 0.0
4.800000000000001 0.0 0.0
5.2 0.0 0.0
5.6000000000000005 0.0 0.0
6.0 0.0 0.0
6.4 0.0 0.0
6.800000000000001 0.0 0.0
7.2 0.0 0.0
7.6000000000000005 0.0 0.0
8.0 0.0 0.0
8.4 0.0 0.0
8.8 0.0 0.0
9.200000000000001 0.0 0.0
9.600000000000001 0.0 0.0
10.0 0.0 0.0
10.4 0.0 0.0
10.8 0.0 0.0
11.200000000000001 0.0 0.0
11.600000000000001 0.0 0.0
12.0 0.0 0.0
12.4 0.0 0.0
12.8 0.0 0.0
13.200000000000001 0.0 0.0
13.600000000000001 0.0 0.0
14.0 0.0 0.0
14.4 0.0 0.0
14.8 0.0 0.0
15.200000000000001 0.0 0.0
15.600000000000001 0.0 0.0
16.0 0.0 0.0
0.0 0.1 0.0
0.4 0.1 0.0
0.8 0.1 0.0
1.2000000000000002 0.1 0.0
1.6 0.1 0.0
2.0 0.1 0.0
2.4000000000000004 0.1 0.0
2.8000000000000003 0.1 0.0
3.2 0.1 0.0
3.6 0.1 0.0
4.0 0.1 0.0
4.4 0.1 0.0
4.800000000000001 0.1 0.0
5.2 0.1 0.0
5.6000000000000005 0.1 0.0
6.0 0.1 0.0
6.4 0.1 0.0
6.800000000000001 0.1 0.0
7.2 0.1 0.0
7.6000000000000005 0.1 0.0
8.0 0.1 0.0
8.4 0.1 0.0
8.8 0.1 0.0
9.200000000000001 0.1 0.0
9.600000000000001 0.1 0.0
10.0 0.1 0.0
10.4 0.1 0.0
10.8 0.1 0.0
11.200000000000001 0.1 0.0
11.600000000000001 0.1 0.0
12.0 0.1 0.0
12.4 0.1 0.0
12.8 0.1 0.0
13.200000000000001 0.1 0.0
13.600000000000001 0.1 0.0
14.0 0.1 0.0
14.4 0.1 0.0
14.8 0.1 0.0
15.200000000000001 0.1 0.0
15.600000000000001 0.1 0.0
16.0 0.1 0.0
0.0 0.2 0.0
0.4 0.2 0.0
0.8 0.2 0.0
1.2000000000000002 0.2 0.0
1.6 0.2 0.0
2.0 0.2 0.0
2.4000000000000004 0.2 0.0
2.8000000000000003 0.2 0.0
3.2 0.2 0.0
3.6 0.2 0.0
4.0 0.2 0.0
4.4 0.2 0.0
4.800000000000001 0.2 0.0
5.2 0.2 0.0
5.6000000000000005 0.2 0.0
6.0 0.2 0.0
6.4 0.2 0.0
6.800000000000001 0.2 0.0
7.2 0.2 0.0
7.6000000000000005 0.2 0.0
8.0 0.2 0.0
8.4 0.2 0.0
8.8 0.2 0.0
9.200000000000001 0.2 0.0
9.600000000000001 0.2 0.0
10.0 0.2 0.0
10.4 0.2 0.0
10.8 0.2 0.0
11.200000000000001 0.2 0.0
11.600000000000001 0.2 0.0
12.0 0.2 0.0
12.4 0.2 0.0
12.8 0.2 0.0
13.200000000000001 0.2 0.0
13.600000000000001 0.2 0.0
14.0 0.2 0.0
14.4 0.2 0.0
14.8 0.2 0.0
15.200000000000001 0.2 0.0
15.600000000000001 0.2 0.0
16.0 0.2 0.0
0.0 0.30000000000000004 0.0
0.4 0.30000000000000004 0.0
0.8 0.30000000000000004 0.0
1.2000000000000002 0.30000000000000004 0.0
1.6 0.30000000000000004 0.0
2.0 0.30000000000000004 0.0
2.4000000000000004 0.30000000000000004 0.0
2.8000000000000003 0.30000000000000004 0.0
3.2 0.30000000000000004 0.0
3.6 0.30000000000000004 0.0
4.0 0.30000000000000004 0.0
4.4 0.30000000000000004 0.0
4.800000000000001 0.30000000000000004 0.0
5.2 0.30000000000000004 0.0
5.6000000000000005 0.30000000000000004 0.0
6.0 0.30000000000000004 0.0
6.4 0.30000000000000004 0.0
6.800000000000001 0.30000000000000004 0.0
7.2 0.30000000000000004 0.0
7.6000000000000005 0.30000000000000004 0.0
8.0 0.30000000000000004 0.0
8.4 0.30000000000000004 0.0
8.8 0.30000000000000004 0.0
9.200000000000001 0.30000000000000004 0.0
9.600000000000001 0.30000000000000004 0.0
10.0 0.30000000000000004 0.0
10.4 0.30000000000000004 0.0
10.8 0.30000000000000004 0.0
11.200000000000001 0.30000000000000004 0.0
11.600000000000001 0.30000000000000004 0.0
12.0 0.30000000000000004 0.0
12.4 0.30000000000000004 0.0
12.8 0.30000000000000004 0.0
13.200000000000001 0.30000000000000004 0.0
13.600000000000001 0.30000000000000004 0.0
14.0 0.30000000000000004 0.0
14.4 0.30000000000000004 0.0
14.8 0.30000000000000004 0.0
15.200000000000001 0.30000000000000004 0.0
15.600000000000001 0.30000000000000004 0.0
16.0 0.30000000000000004 0.0
0.0 0.4 0.0
0.4 0.4 0.0
0.8 0.4 0.0
1.2000000000000002 0.4 0.0
1.6 0.4 0.0
2.0 0.4 0.0
2.4000000000000004 0.4 0.0
2.8000000000000003 0.4 0.0
3.2 0.4 0.0
3.6 0.4 0.0
4.0 0.4 0.0
4.4 0.4 0.0
4.800000000000001 0.4 0.0
5.2 0.4 0.0
5.6000000000000005 0.4 0.0
6.0 0.4 0.0
6.4 0.4 0.0
6.800000000000001 0.4 0.0
7.2 0.4 0.0
7.6000000000000005 0.4 0.0
8.0 0.4 0.0
8.4 0.4 0.0
8.8 0.4 0.0
9.200000000000001 0.4 0.0
9.600000000000001 0.4 0.0
10.0 0.4 0.0
10.4 0.4 0.0
10.8 0.4 0.0
11.200000000000001 0.4 0.0
11.600000000000001 0.4 0.0
12.0 0.4 0.0
12.4 0.4 0.0
12.8 0.4 0.0
13.200000000000001 0.4 0.0
13.600000000000001 0.4 0.0
14.0 0.4 0.0
14.4 0.4 0.0
14.8 0.4 0.0
15.200000000000001 0.4 0.0
15.600000000000001 0.4 0.0
16.0 0.4 0.0
0.0 0.5 0.0
0.4 0.5 0.0
0.8 0.5 0.0
1.2000000000000002 0.5 0.0
1.6 0.5 0.0
2.0 0.5 0.0
2.4000000000000004 0.5 0.0
2.8000000000000003 0.5 0.0
3.2 0.5 0.0
3.6 0.5 0.0
4.0 0.5 0.0
4.4 0.5 0.0
4.800000000000001 0.5 0.0
5.2 0.5 0.0
5.6000000000000005 0.5 0.0
6.0 0.5 0.0
6.4 0.5 0.0
6.800000000000001 0.5 0.0
7.2 0.5 0.0
7.6000000000000005 0.5 0.0
8.0 0.5 0.0
8.4 0.5 0.0
8.8 0.5 0.0
9.200000000000001 0.5 0.0
9.600000000000001 0.5 0.0
10.0 0.5 0.0
10.4 0.5 0.0
10.8 0.5 0.0
11.200000000000001 0.5 0.0
11.600000000000001 0.5 0.0
12.0 0.5 0.0
12.4 0.5 0.0
12.8 0.5 0.0
13.200000000000001 0.5 0.0
13.600000000000001 0.5 0.0
14.0 0.5 0.0
14.4 0.5 0.0
14.8 0.5 0.0
15.200000000000001 0.5 0.0
15.600000000000001 0.5 0.0
16.0 0.5 0.0
0.0 0.6000000000000001 0.0
0.4 0.6000000000000001 0.0
0.8 0.6000000000000001 0.0
1.2000000000000002 0.6000000000000001 0.0
1.6 0.6000000000000001 0.0
2.0 0.6000000000000001 0.0
2.4000000000000004 0.6000000000000001 0.0
2.8000000000000003 0.6000000000000001 0.0
3.2 0.6000000000000001 0.0
3.6 0.6000000000000001 0.0
4.0 0.6000000000000001 0.0
4.4 0.6000000000000001 0.0
4.800000000000001 0.6000000000000001 0.0
5.2 0.6000000000000001 0.0
5.6000000000000005 0.6000000000000001 0.0
6.0 0.6000000000000001 0.0
6.4 0.6000000000000001 0.0
6.800000000000001 0.6000000000000001 0.0
7.2 0.6000000000000001 0.0
7.6000000000000005 0.6000000000000001 0.0
8.0 0.6000000000000001 0.0
8.4 0.6000000000000001 0.0
8.8 0.6000000000000001 0.0
9.200000000000001 0.6000000000000001 0.0
9.600000000000001 0.6000000000000001 0.0
10.0 0.6000000000000001 0.0
10.4 0.6000000000000001 0.0
10.8 0.6000000000000001 0.0
11.200000000000001 0.6000000000000001 0.0
11.600000000000001 0.6000000000000001 0.0
12.0 0.6000000000000001 0.0
12.4 0.6000000000000001 0.0
12.8 0.6000000000000001 0.0
13.200000000000001 0.6000000000000001 0.0
13.600000000000001 0.6000000000000001 0.0
14.0 0.6000000000000001 0.0
14.4 0.6000000000000001 0.0
14.8 0.6000000000000001 0.0
15.200000000000001 0.6000000000000001 0.0
15.600000000000001 0.6000000000000001 0.0
16.0 0.6000000000000001 0.0
0.0 0.7000000000000001 0.0
0.4 0.7000000000000001 0.0
0.8 0.7000000000000001 0.0
1.2000000000000002 0.7000000000000001 0.0
1.6 0.7000000000000001 0.0
2.0 0.7000000000000001 0.0
2.4000000000000004 0.7000000000000001 0.0
2.8000000000000003 0.7000000000000001 0.0
3.2 0.7000000000000001 0.0
3.6 0.7000000000000001 0.0
4.0 0.7000000000000001 0.0
4.4 0.7000000000000001 0.0
4.800000000000001 0.7000000000000001 0.0
5.2 0.7000000000000001 0.0
5.6000000000000005 0.7000000000000001 0.0
6.0 0.7000000000000001 0.0
6.4 0.7000000000000001 0.0
6.800000000000001 0.7000000000000001 0.0
7.2 0.7000000000000001 0.0
7.6000000000000005 0.7000000000000001 0.0
8.0 0.7000000000000001 0.0
8.4 0.7000000000000001 0.0
8.8 0.7000000000000001 0.0
9.200000000000001 0.7000000000000001 0.0
9.600000000000001 0.7000000000000001 0.0
10.0 0.7000000000000001 0.0
10.4 0.7000000000000001 0.0
10.8 0.7000000000000001 0.0
11.200000000000001 0.7000000000000001 0.0
11.600000000000001 0.7000000000000001 0.0
12.0 0.7000000000000001 0.0
12.4 0.7000000000000001 0.0
12.8 0.7000000000000001 0.0
13.200000000000001 0.7000000000000001 0.0
13.600000000000001 0.7000000000000001 0.0
14.0 0.7000000000000001 0.0
14.4 0.7000000000000001 0.0
14.8 0.7000000000000001 0.0
15.200000000000001 0.7000000000000001 0.0
15.600000000000001 0.7000000000000001 0.0
16.0 0.7000000000000001 0.0
0.0 0.8 0.0
0.4 0.8 0.0
0.8 0.8 0.0
1.2000000000000002 0.8 0.0
1.6 0.8 0.0
2.0 0.8 0.0
2.4000000000000004 0.8 0.0
2.8000000000000003 0.8 0.0
3.2 0.8 0.0
3.6 0.8 0.0
4.0 0.8 0.0
4.4 0.8 0.0
4.800000000000001 0.8 0.0
5.2 0.8 0.0
5.6000000000000005 0.8 0.0
6.0 0.8 0.0
6.4 0.8 0.0
6.800000000000001 0.8 0.0
7.2 0.8 0.0
7.6000000000000005 0.8 0.0
8.0 0.8 0.0
8.4 0.8 0.0
8.8 0.8 0.0
9.200000000000001 0.8 0.0
9.600000000000001 0.8 0.0
10.0 0.8 0.0
10.4 0.8 0.0
10.8 0.8 0.0
11.200000000000001 0.8 0.0
11.600000000000001 0.8 0.0
12.0 0.8 0.0
12.4 0.8 0.0
12.8 0.8 0.0
13.200000000000001 0.8 0.0
13.600000000000001 0.8 0.0
14.0 0.8 0.0
14.4 0.8 0.0
14.8 0.8 0.0
15.200000000000001 0.8 0.0
15.600000000000001 0.8 0.0
16.0 0.8 0.0
0.0 0.9 0.0
0.4 0.9 0.0
0.8 0.9 0.0
1.2000000000000002 0.9 0.0
1.6 0.9 0.0
2.0 0.9 0.0
2.4000000000000004 0.9 0.0
2.8000000000000003 0.9 0.0
3.2 0.9 0.0
3.6 0.9 0.0
4.0 0.9 0.0
4.4 0.9 0.0
4.800000000000001 0.9 0.0
5.2 0.9 0.0
5.6000000000000005 0.9 0.0
6.0 0.9 0.0
6.4 0.9 0.0
6.800000000000001 0.9 0.0
7.2 0.9 0.0
7.6000000000000005 0.9 0.0
8.0 0.9 0.0
8.4 0.9 0.0
8.8 0.9 0.0
9.200000000000001 0.9 0.0
9.600000000000001 0.9 0.0
10.0 0.9 0.0
10.4 0.9 0.0
10.8 0.9 0.0
11.200000000000001 0.9 0.0
11.600000000000001 0.9 0.0
12.0 0.9 0.0
12.4 0.9 0.0
12.8 0.9 0.0
13.200000000000001 0.9 0.0
13.600000000000001 0.9 0.0
14.0 0.9 0.0
14.4 0.9 0.0
14.8 0.9 0.0
15.200000000000001 0.9 0.0
15.600000000000001 0.9 0.0
16.0 0.9 0.0
0.0 1.0 0.0
0.4 1.0 0.0
0.8 1.0 0.0
1.2000000000000002 1.0 0.0
1.6 1.0 0.0
2.0 1.0 0.0
2.4000000000000004 1.0 0.0
2.8000000000000003 1.0 0.0
3.2 1.0 0.0
3.6 1.0 0.0
4.0 1.0 0.0
4.4 1.0 0.0
4.800000000000001 1.0 0.0
5.2 1.0 0.0
5.6000000000000005 1.0 0.0
6.0 1.0 0.0
6.4 1.0 0.0
6.800000000000001 1.0 0.0
7.2 1.0 0.0
7.6000000000000005 1.0 0.0
8.0 1.0 0.0
8.4 1.0 0.0
8.8 1.0 0.0
9.200000000000001 1.0 0.0
9.600000000000001 1.0 0.0
10.0 1.0 0.0
10.4 1.0 0.0
10.8 1.0 0.0
11.200000000000001 1.0 0.0
11.600000000000001 1.0 0.0
12.0 1.0 0.0
12.4 1.0 0.0
12.8 1.0 0.0
13.200000000000001 1.0 0.0
13.600000000000001 1.0 0.0
14.0 1.0 0.0
14.4 1.0 0.0
14.8 1.0 0.0
15.200000000000001 1.0 0.0
15.600000000000001 1.0 0.0
16.0 1.0 0.0
0.0 1.1 0.0
0.4 1.1 0.0
0.8 1.1 0.0
1.2000000000000002 1.1 0.0
1.6 1.1 0.0
2.0 1.1 0.0
2.4000000000000004 1.1 0.0
2.8000000000000003 1.1 0.0
3.2 1.1 0.0
3.6 1.1 0.0
4.0 1.1 0.0
4.4 1.1 0.0
4.800000000000001 1.1 0.0
5.2 1.1 0.0
5.6000000000000005 1.1 0.0
6.0 1.1 0.0
6.4 1.1 0.0
6.800000000000001 1.1 0.0
7.2 1.1 0.0
7.6000000000000005 1.1 0.0
8.0 1.1 0.0
8.4 1.1 0.0
8.8 1.1 0.0
9.200000000000001 1.1 0.0
9.600000000000001 1.1 0.0
10.0 1.1 0.0
10.4 1.1 0.0
10.8 1.1 0.0
11.200000000000001 1.1 0.0
11.600000000000001 1.1 0.0
12.0 1.1 0.0
12.4 1.1 0.0
12.8 1.1 0.0
13.200000000000001 1.1 0.0
13.600000000000001 1.1 0.0
14.0 1.1 0.0
14.4 1.1 0.0
14.8 1.1 0.0
15.200000000000001 1.1 0.0
15.600000000000001 1.1 0.0
16.0 1.1 0.0
0.0 1.2000000000000002 0.0
0.4 1.2000000000000002 0.0
0.8 1.2000000000000002 0.0
1.2000000000000002 1.2000000000000002 0.0
1.6 1.2000000000000002 0.0
2.0 1.2000000000000002 0.0
2.4000000000000004 1.2000000000000002 0.0
2.8000000000000003 1.2000000000000002 0.0
3.2 1.2000000000000002 0.0
3.6 1.2000000000000002 0.0
4.0 1.2000000000000002 0.0
4.4 1.2000000000000002 0.0
4.800000000000001 1.2000000000000002 0.0
5.2 1.2000000000000002 0.0
5.6000000000000005 1.2000000000000002 0.0
6.0 1.2000000000000002 0.0
6.4 1.2000000000000002 0.0
6.800000000000001 1.2000000000000002 0.0
7.2 1.2000000000000002 0.0
7.6000000000000005 1.2000000000000002 0.0
8.0 1.2000000000000002 0.0
8.4 1.2000000000000002 0.0
8.8 1.2000000000000002 0.0
9.200000000000001 1.2000000000000002 0.0
9.600000000000001 1.2000000000000002 0.0
10.0 1.2000000000000002 0.0
10.4 1.2000000000000002 0.0
10.8 1.2000000000000002 0.0
11.200000000000001 1.2000000000000002 0.0
11.600000000000001 1.2000000000000002 0.0
12.0 1.2000000000000002 0.0
12.4 1.2000000000000002 0.0
12.8 1.2000000000000002 0.0
13.200000000000001 1.2000000000000002 0.0
13.600000000000001 1.2000000000000002 0.0
14.0 1.2000000000000002 0.0
14.4 1.2000000000000002 0.0
14.8 1.2000000000000002 0.0
15.200000000000001 1.2000000000000002 0.0
15.600000000000001 1.2000000000000002 0.0
16.0 1.2000000000000002 0.0
0.0 1.3 0.0
0.4 1.3 0.0
0.8 1.3 0.0
1.2000000000000002 1.3 0.0
1.6 1.3 0.0
2.0 1.3 0.0
2.4000000000000004 1.3 0.0
2.8000000000000003 1.3 0.0
3.2 1.3 0.0
3.6 1.3 0.0
4.0 1.3 0.0
4.4 1.3 0.0
4.800000000000001 1.3 0.0
5.2 1.3 0.0
5.6000000000000005 1.3 0.0
6.0 1.3 0.0
6.4 1.3 0.0
6.800000000000001 1.3 0.0
7.2 1.3 0.0
7.6000000000000005 1.3 0.0
8.0 1.3 0.0
8.4 1.3 0.0
8.8 1.3 0.0
9.200000000000001 1.3 0.0
9.600000000000001 1.3 0.0
10.0 1.3 0.0
10.4 1.3 0.0
10.8 1.3 0.0
11.200000000000001 1.3 0.0
11.600000000000001 1.3 0.0
12.0 1.3 0.0
12.4 1.3 0.0
12.8 1.3 0.0
13.200000000000001 1.3 0.0
13.600000000000001 1.3 0.0
14.0 1.3 0.0
14.4 1.3 0.0
14.8 1.3 0.0
15.200000000000001 1.3 0.0
15.600000000000001 1.3 0.0
16.0 1.3 0.0
0.0 1.4000000000000001 0.0
0.4 1.4000000000000001 0.0
0.8 1.4000000000000001 0.0
1.2000000000000002 1.4000000000000001 0.0
1.6 1.4000000000000001 0.0
2.0 1.4000000000000001 0.0
2.4000000000000004 1.4000000000000001 0.0
2.8000000000000003 1.4000000000000001 0.0
3.2 1.4000000000000001 0.0
3.6 1.4000000000000001 0.0
4.0 1.4000000000000001 0.0
4.4 1.4000000000000001 0.0
4.800000000000001 1.4000000000000001 0.0
5.2 1.4000000000000001 0.0
5.6000000000000005 1.4000000000000001 0.0
6.0 1.4000000000000001 0.0
6.4 1.4000000000000001 0.0
6.800000000000001 1.4000000000000001 0.0
7.2 1.4000000000000001 0.0
7.6000000000000005 1.4000000000000001 0.0
8.0 1.4000000000000001 0.0
8.4 1.4000000000000001 0.0
8.8 1.4000000000000001 0.0
9.200000000000001 1.4000000000000001 0.0
9.600000000000001 1.4000000000000001 0.0
10.0 1.4000000000000001 0.0
10.4 1.4000000000000001 0.0
10.8 1.4000000000000001 0.0
11.200000000000001 1.4000000000000001 0.0
11.600000000000001 1.4000000000000001 0.0
12.0 1.4000000000000001 0.0
12.4 1.4000000000000001 0.0
12.8 1.4000000000000001 0.0
13.200000000000001 1.4000000000000001 0.0
13.600000000000001 1.4000000000000001 0.0
14.0 1.4000000000000001 0.0
14.4 1.4000000000000001 0.0
14.8 1.4000000000000001 0.0
15.200000000000001 1.4000000000000001 0.0
15.600000000000001 1.4000000000000001 0.0
16.0 1.4000000000000001 0.0
0.0 1.5 0.0
0.4 1.5 0.0
0.8 1.5 0.0
1.2000000000000002 1.5 0.0
1.6 1.5 0.0
2.0 1.5 0.0
2.4000000000000004 1.5 0.0
2.8000000000000003 1.5 0.0
3.2 1.5 0.0
3.6 1.5 0.0
4.0 1.5 0.0
4.4 1.5 0.0
4.800000000000001 1.5 0.0
5.2 1.5 0.0
5.6000000000000005 1.5 0.0
6.0 1.5 0.0
6.4 1.5 0.0
6.800000000000001 1.5 0.0
7.2 1.5 0.0
7.6000000000000005 1.5 0.0
8.0 1.5 0.0
8.4 1.5 0.0
8.8 1.5 0.0
9.200000000000001 1.5 0.0
9.600000000000001 1.5 0.0
10.0 1.5 0.0
10.4 1.5 0.0
10.8 1.5 0.0
11.200000000000001 1.5 0.0
11.600000000000001 1.5 0.0
12.0 1.5 0.0
12.4 1.5 0.0
12.8 1.5 0.0
13.200000000000001 1.5 0.0
13.600000000000001 1.5 0.0
14.0 1.5 0.0
14.4 1.5 0.0
14.8 1.5 0.0
15.200000000000001 1.5 0.0
15.600000000000001 1.5 0.0
16.0 1.5 0.0
0.0 1.6 0.0
0.4 1.6 0.0
0.8 1.6 0.0
1.2000000000000002 1.6 0.0
1.6 1.6 0.0
2.0 1.6 0.0
2.4000000000000004 1.6 0.0
2.8000000000000003 1.6 0.0
3.2 1.6 0.0
3.6 1.6 0.0
4.0 1.6 0.0
4.4 1.6 0.0
4.800000000000001 1.6 0.0
5.2 1.6 0.0
5.6000000000000005 1.6 0.0
6.0 1.6 0.0
6.4 1.6 0.0
6.800000000000001 1.6 0.0
7.2 1.6 0.0
7.6000000000000005 1.6 0.0
8.0 1.6 0.0
8.4 1.6 0.0
8.8 1.6 0.0
9.200000000000001 1.6 0.0
9.600000000000001 1.6 0.0
10.0 1.6 0.0
10.4 1.6 0.0
10.8 1.6 0.0
11.200000000000001 1.6 0.0
11.600000000000001 1.6 0.0
12.0 1.6 0.0
12.4 1.6 0.0
12.8 1.6 0.0
13.200000000000001 1.6 0.0
13.600000000000001 1.6 0.0
14.0 1.6 0.0
14.4 1.6 0.0
14.8 1.6 0.0
15.200000000000001 1.6 0.0
15.600000000000001 1.6 0.0
16.0 1.6 0.0
0.0 1.7000000000000002 0.0
0.4 1.7000000000000002 0.0
0.8 1.7000000000000002 0.0
1.2000000000000002 1.7000000000000002 0.0
1.6 1.7000000000000002 0.0
2.0 1.7000000000000002 0.0
2.4000000000000004 1.7000000000000002 0.0
2.8000000000000003 1.7000000000000002 0.0
3.2 1.7000000000000002 0.0
3.6 1.7000000000000002 0.0
4.0 1.7000000000000002 0.0
4.4 1.7000000000000002 0.0
4.800000000000001 1.7000000000000002 0.0
5.2 1.7000000000000002 0.0
5.6000000000000005 1.7000000000000002 0.0
6.0 1.7000000000000002 0.0
6.4 1.7000000000000002 0.0
6.800000000000001 1.7000000000000002 0.0
7.2 1.7000000000000002 0.0
7.6000000000000005 1.7000000000000002 0.0
8.0 1.7000000000000002 0.0
8.4 1.7000000000000002 0.0
8.8 1.7000000000000002 0.0
9.200000000000001 1.7000000000000002 0.0
9.600000000000001 1.7000000000000002 0.0
10.0 1.7000000000000002 0.0
10.4 1.7000000000000002 0.0
10.8 1.7000000000000002 0.0
11.200000000000001 1.7000000000000002 0.0
11.600000000000001 1.7000000000000002 0.0
12.0 1.7000000000000002 0.0
12.4 1.7000000000000002 0.0
12.8 1.7000000000000002 0.0
13.200000000000001 1.7000000000000002 0.0
13.600000000000001 1.7000000000000002 0.0
14.0 1.7000000000000002 0.0
14.4 1.7000000000000002 0.0
14.8 1.7000000000000002 0.0
15.200000000000001 1.7000000000000002 0.0
15.600000000000001 1.7000000000000002 0.0
16.0 1.7000000000000002 0.0
0.0 1.8 0.0
0.4 1.8 0.0
0.8 1.8 0.0
1.2000000000000002 1.8 0.0
1.6 1.8 0.0
2.0 1.8 0.0
2.4000000000000004 1.8 0.0
2.8000000000000003 1.8 0.0
3.2 1.8 0.0
3.6 1.8 0.0
4.0 1.8 0.0
4.4 1.8 0.0
4.800000000000001 1.8 0.0
5.2 1.8 0.0
5.6000000000000005 1.8 0.0
6.0 1.8 0.0
6.4 1.8 0.0
6.800000000000001 1.8 0.0
7.2 1.8 0.0
7.6000000000000005 1.8 0.0
8.0 1.8 0.0
8.4 1.8 0.0
8.8 1.8 0.0
9.200000000000001 1.8 0.0
9.600000000000001 1.8 0.0
10.0 1.8 0.0
10.4 1.8 0.0
10.8 1.8 0.0
11.200000000000001 1.8 0.0
11.600000000000001 1.8 0.0
12.0 1.8 0.0
12.4 1.8 0.0
12.8 1.8 0.0
13.200000000000001 1.8 0.0
13.600000000000001 1.8 0.0
14.0 1.8 0.0
14.4 1.8 0.0
14.8 1.8 0.0
15.200000000000001 1.8 0.0
15.600000000000001 1.8 0.0
16.0 1.8 0.0
0.0 1.9000000000000001 0.0
0.4 1.9000000000000001 0.0
0.8 1.9000000000000001 0.0
1.2000000000000002 1.9000000000000001 0.0
1.6 1.9000000000000001 0.0
2.0 1.9000000000000001 0.0
2.4000000000000004 1.9000000000000001 0.0
2.8000000000000003 1.9000000000000001 0.0
3.2 1.9000000000000001 0.0
3.6 1.9000000000000001 0.0
4.0 1.9000000000000001 0.0
4.4 1.9000000000000001 0.0
4.800000000000001 1.9000000000000001 0.0
5.2 1.9000000000000001 0.0
5.6000000000000005 1.9000000000000001 0.0
6.0 1.9000000000000001 0.0
6.4 1.9000000000000001 0.0
6.800000000000001 1.9000000000000001 0.0
7.2 1.9000000000000001 0.0
7.6000000000000005 1.9000000000000001 0.0
8.0 1.9000000000000001 0.0
8.4 1.9000000000000001 0.0
8.8 1.9000000000000001 0.0
9.200000000000001 1.9000000000000001 0.0
9.600000000000001 1.9000000000000001 0.0
10.0 1.9000000000000001 0.0
10.4 1.9000000000000001 0.0
10.8 1.9000000000000001 0.0
11.200000000000001 1.9000000000000001 0.0
11.600000000000001 1.9000000000000001 0.0
12.0 1.9000000000000001 0.0
12.4 1.9000000000000001 0.0
12.8 1.9000000000000001 0.0
13.200000000000001 1.9000000000000001 0.0
13.600000000000001 1.9000000000000001 0.0
14.0 1.9000000000000001 0.0
14.4 1.9000000000000001 0.0
14.8 1.9000000000000001 0.0
15.200000000000001 1.9000000000000001 0.0
15.600000000000001 1.9000000000000001 0.0
16.0 1.9000000000000001 0.0
0.0 2.0 0.0
0.4 2.0 0.0
0.8 2.0 0.0
1.2000000000000002 2.0 0.0
1.6 2.0 0.0
2.0 2.0 0.0
2.4000000000000004 2.0 0.0
2.8000000000000003 2.0 0.0
3.2 2.0 0.0
3.6 2.0 0.0
4.0 2.0 0.0
4.4 2.0 0.0
4.800000000000001 2.0 0.0
5.2 2.0 0.0
5.6000000000000005 2.0 0.0
6.0 2.0 0.0
6.4 2.0 0.0
6.800000000000001 2.0 0.0
7.2 2.0 0.0
7.6000000000000005 2.0 0.0
8.0 2.0 0.0
8.4 2.0 0.0
8.8 2.0 0.0
9.200000000000001 2.0 0.0
9.600000000000001 2.0 0.0
10.0 2.0 0.0
10.4 2.0 0.0
10.8 2.0 0.0
11.200000000000001 2.0 0.0
11.600000000000001 2.0 0.0
12.0 2.0 0.0
12.4 2.0 0.0
12.8 2.0 0.0
13.200000000000001 2.0 0.0
13.600000000000001 2.0 0.0
14.0 2.0 0.0
14.4 2.0 0.0
14.8 2.0 0.0
15.200000000000001 2.0 0.0
15.600000000000001 2.0 0.0
16.0 2.0 0.0
CELLS 800 4000
4 0 1 42 41
4 1 2 43 42
4 2 3 44 43
4 3 4 45 44
4 4 5 46 45
4 5 6 47 46
4 6 7 48 47
4 7 8 49 48
4 8 9 50 49
4 9 10 51 50
4 10 11 52 51
4 11 12 53 52
4 12 13 54 53
4 13 14 55 54
4 14 15 56 55
4 15 16 57 56
4 16 17 58 57
4 17 18 59 58
4 18 19 60 59
4 19 20 61 60
4 20 21 62 61
4 21 22 63 62
4 22 23 64 63
4 23 24 65 64
4 24 25 66 65
4 25 26 67 66
4 26 27 68 67
4 27 28 69 68
4 28 29 70 69
4 29 30 71 70
4 30 31 72 71
4 31 32 73 72
4 32 33 74 73
4 33 34 75 74
4 34 35 76 75
4 35 36 77 76
4 36 37 78 77
4 37 38 79 78
4 38 39 80 79
4 39 40 81 80
4 41 42 83 82
4 42 43 84 83
4 43 44 85 84
4 44 45 86 85
4 45 46 87 86
4 46 47 88 87
4 47 48 89 88
4 48 49 90 89
4 49 50 91 90
4 50 51 92 91
4 51 52 93 92
4 52 53 94 93
4 53 54 95 94
4 54 55 96 95
4 55 56 97 96
4 56 57 98 97
4 57 58 99 98
4 58 59 100 99
4 59 60 101 100
4 60 61 102 101
4 61 62 103 102
4 62 63 104 103
4 63 64 105 104
4 64 65 106 105
4 65 66 107 106
4 66 67 108 107
4 67 68 109 108
4 68 69 110 109
4 69 70 111 110
4 70 71 112 111
4 71 72 113 112
4 72 73 114 113
4 73 74 115 114
4 74 75 116 115
4 75 76 117 116
4 76 77 118 117
4 77 78 119 118
4 78 79 120 119
4 79 80 121 120
4 80 81 122 121
4 82 83 124 123
4 83 84 125 124
4 84 85 126 125
4 85 86 127 126
4 86 87 128 127
4 87 88 129 128
4 88 89 130 129
4 89 90 131 130
4 90 91 132 131
4 91 92 133 132
4 92 93 134 133
4 93 94 135 134
4 94 95 136 135
4 95 96 137 136
4 96 97 138 137
4 97 98 139 138
4 98 99 140 139
4 99 100 141 140
4 100 101 142 141
4 101 102 143 142
4 102 103 144 143
4 103 104 145 144
4 104 105 146 145
4 105 106 147 146
4 106 107 148 147
4 107 108 149 148
4 108 109 150 149
4 109 110 151 150
4 110 111 152 151
4 111 112 153 152
4 112 113 154 153
4 113 114 155 154
4 114 115 156 155
4 115 116 157 156
4 116 117 158 157
4 117 118 159 158
4 118 119 160 159
4 119 120 161 160
4 120 121 162 161
4 121 122 163 162
4 123 124 165 164
4 124 125 166 165
4 125 126 167 166
4 126 127 168 167
4 127 128 169 168
4 128 129 170 169
4 129 130 171 170
4 130 131 172 171
4 131 132 173 172
4 132 133 174 173
4 133 134 175 174
4 134 135 176 175
4 135 136 177 176
4 136 137 178 177
4 137 138 179 178
4 138 139 180 179
4 139 140 181 180
4 140 141 182 181
4 141 142 183 182
4 142 143 184 183
4 143 144 185 184
4 144 145 186 185
4 145 146 187 186
4 146 147 188 187
4 147 148 189 188
4 148 149 190 189
4 149 150 191 190
4 150 151 192 191
4 151 152 193 192
4 152 153 194 193
4 153 154 195 194
4 154 155 196 195
4 155 156 197 196
4 156 157 198 197
4 157 158 199 198
4 158 159 200 199
4 159 160 201 200
4 160 161 202 201
4 161 162 203 202
4 162 163 204 203
4 164 165 206 205
4 165 166 207 206
4 166 167 208 207
4 167 168 209 208
4 168 169 210 209
4 169 170 211 210
4 170 171 212 211
4 171 172 213 212
4 172 173 214 213
4 173 174 215 214
4 174 175 216 215
4 175 176 217 216
4 176 177 218 217
4 177 178 219 218
4 178 179 220 219
4 179 180 221 220
4 180 181 222 221
4 181 182 223 222
4 182 183 224 223
4 183 184 225 224
4 184 185 226 225
4 185 186 227 226
4 186 187 228 227
4 187 188 229 228
4 188 189 230 229
4 189 190 231 230
4 190 191 232 231
4 191 192 233 232
4 192 193 234 233
4 193 194 235 234
4 194 195 236 235
4 195 196 237 236
4 196 197 238 237
4 197 198 239 238
4 198 199 240 239
4 199 200 241 240
4 200 201 242 241
4 201 202 243 242
4 202 203 244 243
4 203 204 245 244
4 205 206 247 246
4 206 207 248 247
4 207 208 249 248
4 208 209 250 249
4 209 210 251 250
4 210 211 252 251
4 211 212 253 252
4 212 213 254 253
4 213 214 255 254
4 214 215 256 255
4 215 216 257 256
4 216 217 258 257
4 217 218 259 258
4 218 219 260 259
4 219 220 261 260
4 220 221 262 261
4 221 222 263 262
4 222 223 264 263
4 223 224 265 264
4 224 225 266 265
4 225 226 267 266
4 226 227 268 267
4 227 228 269 268
4 228 229 270 269
4 229 230 271 270
4 230 231 272 271
4 231 232 273 272
4 232 233 274 273
4 233 234 275 274
4 234 235 276 275
4 235 236 277 276
4 236 237 278 277
4 237 238 279 278
4 238 239 280 279
4 239 240 281 280
4 240 241 282 281
4 241 242 283 282
4 242 243 284 283
4 243 244 285 284
4 244 245 286 285
4 246 247 288 287
4 247 248 289 288
4 248 249 290 289
4 249 250 291 290
4 250 251 292 291
4 251 252 293 292
4 252 253 294 293
4 253 254 295 294
4 254 255 296 295
4 255 256 297 296
4 256 257 298 297
4 257 258 299 298
4 258 259 300 299
4 259 260 301 300
4 260 261 302 301
4 261 262 303 302
4 262 263 304 303
4 263 264 305 304
4 264 265 306 305
4 265 266 307 306
4 266 267 308 307
4 267 268 309 308
4 268 269 310 309
4 269 270 311 310
4 270 271 312 311
4 271 272 313 312
4 272 273 314 313
4 273 274 315 314
4 274 275 316 315
4 275 276 317 316
4 276 277 318 317
4 277 278 319 318
4 278 279 320 319
4 279 280 321 320
4 280 281 322 321
4 281 282 323 322
4 282 283 324 323
4 283 284 325 324
4 284 285 326 325
4 285 286 327 326
4 287 288 329 328
4 288 289 330 329
4 289 290 331 330
4 290 291 332 331
4 291 292 333 332
4 292 293 334 333
4 293 294 335 334
4 294 295 336 335
4 295 296 337 336
4 296 297 338 337
4 297 298 339 338
4 298 299 340 339
4 299 300 341 340
4 300 301 342 341
4 301 302 343 342
4 302 303 344 343
4 303 304 345 344
4 304 305 346 345
4 305 306 347 346
4 306 307 348 347
4 307 308 349 348
4 308 309 350 349
4 309 310 351 350
4 310 311 352 351
4 311 312 353 352
4 312 313 354 353
4 313 314 355 354
4 314 315 356 355
4 315 316 357 356
4 316 317 358 357
4 317 318 359 358
4 318 319 360 359
4 319 320 361 360
4 320 321 362 361
4 321 322 363 362
4 322 323 364 363
4 323 324 365 364
4 324 325 366 365
4 325 326 367 366
4 326 327 368 367
4 328 329 370 369
4 329 330 371 370
4 330 331 372 371
4 331 332 373 372
4 332 333 374 373
4 333 334 375 374
4 334 335 376 375
4 335 336 377 376
4 336 337 378 377
4 337 338 379 378
4 338 339 380 379
4 339 340 381 380
4 340 341 382 381
4 341 342 383 382
4 342 343 384 383
4 343 344 385 384
4 344 345 386 385
4 345 346 387 386
4 346 347 388 387
4 347 348 389 388
4 348 349 390 389
4 349 350 391 390
4 350 351 392 391
4 351 352 393 392
4 352 353 394 393
4 353 354 395 394
4 354 355 396 395
4 355 356 397 396
4 356 357 398 397
4 357 358 399 398
4 358 359 400 399
4 359 360 401 400
4 360 361 402 401
4 361 362 403 402
4 362 363 404 403
4 363 364 405 404
4 364 365 406 405
4 365 366 407 406
4 366 367 408 407
4 367 368 409 408
4 369 370 411 410
4 370 371 412 411
4 371 372 413 412
4 372 373 414 413
4 373 374 415 414
4 374 375 416 415
4 375 376 417 416
4 376 377 418 417
4 377 378 419 418
4 378 379 420 419
4 379 380 421 420
4 380 381 422 421
4 381 382 423 422
4 382 383 424 423
4 383 384 425 424
4 384 385 426 425
4 385 386 427 426
4 386 387 428 427
4 387 388 429 428
4 388 389 430 429
4 389 390 431 430
4 390 391 432 431
4 391 392 433 432
4 392 393 434 433
4 393 394 435 434
4 394 395 436 435
4 395 396 437 436
4 396 397 438 437
4 397 398 439 438
4 398 399 440 439
4 399 400 441 440
4 400 401 442 441
4 401 402 443 442
4 402 403 444 443
4 403 404 445 444
4 404 405 446 445
4 405 406 447 446
4 406 407 448 447
4 407 408 449 448
4 408 409 450 449
4 410 411 452 451
4 411 412 453 452
4 412 413 454 453
4 413 414 455 454
4 414 415 456 455
4 415 416 457 456
4 416 417 458 457
4 417 418 459 458
4 418 419 460 459
4 419 420 461 460
4 420 421 462 461
4 421 422 463 462
4 422 423 464 463
4 423 424 465 464
4 424 425 466 465
4 425 426 467 466
4 426 427 468 467
4 427 428 469 468
4 428 429 470 469
4 429 430 471 470
4 430 431 472 471
4 431 432 473 472
4 432 433 474 473
4 433 434 475 474
4 434 435 476 475
4 435 436 477 476
4 436 437 478 477
4 437 438 479 478
4 438 439 480 479
4 439 440 481 480
4 440 441 482 481
4 441 442 483 482
4 442 443 484 483
4 443 444 485 484
4 444 445 486 485
4 445 446 487 486
4 446 447 488 487
4 447 448 489 488
4 448 449 490 489
4 449 450 491 490
4 451 452 493 492
4 452 453 494 493
4 453 454 495 494
4 454 455 496 495
4 455 456 497 496
4 456 457 498 497
4 457 458 499 498
4 458 459 500 499
4 459 460 501 500
4 460 461 502 501
4 461 462 503 502
4 462 463 504 503
4 463 464 505 504
4 464 465 506 505
4 465 466 507 506
4 466 467 508 507
4 467 468 509 508
4 468 469 510 509
4 469 470 511 510
4 470 471 512 511
4 471 472 513 512
4 472 473 514 513
4 473 474 515 514
4 474 475 516 515
4 475 476 517 516
4 476 477 518 517
4 477 478 519 518
4 478 479 520 519
4 479 480 521 520
4 480 481 522 521
4 481 482 523 522
4 482 483 524 523
4 483 484 525 524
4 484 485 526 525
4 485 486 527 526
4 486 487 528 527
4 487 488 529 528
4 488 489 530 529
4 489 490 531 530
4 490 491 532 531
4 492 493 534 533
4 493 494 535 534
4 494 495 536 535
4 495 496 537 536
4 496 497 538 537
4 497 498 539 538
4 498 499 540 539
4 499 500 541 540
4 500 501 542 541
4 501 502 543 542
4 502 503 544 543
4 503 504 545 544
4 504 505 546 545
4 505 506 547 546
4 506 507 548 547
4 507 508 549 548
4 508 509 550 549
4 509 510 551 550
4 510 511 552 551
4 511 512 553 552
4 512 513 554 553
4 513 514 555 554
4 514 515 556 555
4 515 516 557 556
4 516 517 558 557
4 517 518 559 558
4 518 519 560 559
4 519 520 561 560
4 520 521 562 561
4 521 522 563 562
4 522 523 564 563
4 523 524 565 564
4 524 525 566 565
4 525 526 567 566
4 526 527 568 567
4 527 528 569 568
4 528 529 570 569
4 529 530 571 570
4 530 531 572 571
4 531 532 573 572
4 533 534 575 574
4 534 535 576 575
4 535 536 577 576
4 536 537 578 577
4 537 538 579 578
4 538 539 580 579
4 539 540 581 580
4 540 541 582 581
4 541 542 583 582
4 542 543 584 583
4 543 544 585 584
4 544 545 586 585
4 545 546 587 586
4 546 547 588 587
4 547 548 589 588
4 548 549 590 589
4 549 550 591 590
4 550 551 592 591
4 551 552 593 592
4 552 553 594 593
4 553 554 595 594
4 554 555 596 595
4 555 556 597 596
4 556 557 598 597
4 557 558 599 598
4 558 559 600 599
4 559 560 601 600
4 560 561 602 601
4 561 562 603 602
4 562 563 604 603
4 563 564 605 604
4 564 565 606 605
4 565 566 607 606
4 566 567 608 607
4 567 568 609 608
4 568 569 610 609
4 569 570 611 610
4 570 571 612 611
4 571 572 613 612
4 572 573 614 613
4 574 575 616 615
4 575 576 617 616
4 576 577 618 617
4 577 578 619 618
4 578 579 620 619
4 579 580 621 620
4 580 581 622 621
4 581 582 623 622
4 582 583 624 623
4 583 584 625 624
4 584 585 626 625
4 585 586 627 626
4 586 587 628 627
4 587 588 629 628
4 588 589 630 629
4 589 590 631 630
4 590 591 632 631
4 591 592 633 632
4 592 593 634 633
4 593 594 635 634
4 594 595 636 635
4 595 596 637 636
4 596 597 638 637
4 597 598 639 638
4 598 599 640 639
4 599 600 641 640
4 600 601 642 641
4 601 602 643 642
4 602 603 644 643
4 603 604 645 644
4 604 605 646 645
4 605 606 647 646
4 606 607 648 647
4 607 608 649 648
4 608 609 650 649
4 609 610 651 650
4 610 611 652 651
4 611 612 653 652
4 612 613 654 653
4 613 614 655 654
4 615 616 657 656
4 616 617 658 657
4 617 618 659 658
4 618 619 660 659
4 619 620 661 660
4 620 621 662 661
4 621 622 663 662
4 622 623 664 663
4 623 624 665 664
4 624 625 666 665
4 625 626 667 666
4 626 627 668 667
4 627 628 669 668
4 628 629 670 669
4 629 630 671 670
4 630 631 672 671
4 631 632 673 672
4 632 633 674 673
4 633 634 675 674
4 634 635 676 675
4 635 636 677 676
4 636 637 678 677
4 637 638 679 678
4 638 639 680 679
4 639 640 681 680
4 640 641 682 681
4 641 642 683 682
4 642 643 684 683
4 643 644 685 684
4 644 645 686 685
4 645 646 687 686
4 646 647 688 687
4 647 648 689 688
4 648 649 690 689
4 649 650 691 690
4 650 651 692 691
4 651 652 693 692
4 652 653 694 693
4 653 654 695 694
4 654 655 696 695
4 656 657 698 697
4 657 658 699 698
4 658 659 700 699
4 659 660 701 700
4 660 661 702 701
4 661 662 703 702
4 662 663 704 703
4 663 664 705 704
4 664 665 706 705
4 665 666 707 706
4 666 667 708 707
4 667 668 709 708
4 668 669 710 709
4 669 670 711 710
4 670 671 712 711
4 671 672 713 712
4 672 673 714 713
4 673 674 715 714
4 674 675 716 715
4 675 676 717 716
4 676 677 718 717
4 677 678 719 718
4 678 679 720 719
4 679 680 721 720
4 680 681 722 721
4 681 682 723 722
4 682 683 724 723
4 683 684 725 724
4 684 685 726 725
4 685 686 727 726
4 686 687 728 727
4 687 688 729 728
4 688 689 730 729
4 689 690 731 730
4 690 691 732 731
4 691 692 733 732
4 692 693 734 733
4 693 694 735 734
4 694 695 736 735
4 695 696 737 736
4 697 698 739 738
4 698 699 740 739
4 699 700 741 740
4 700 701 742 741
4 701 702 743 742
4 702 703 744 743
4 703 704 745 744
4 704 705 746 745
4 705 706 747 746
4 706 707 748 747
4 707 708 749 748
4 708 709 750 749
4 709 710 751 750
4 710 711 752 751
4 711 712 753 752
4 712 713 754 753
4 713 714 755 754
4 714 715 756 755
4 715 716 757 756
4 716 717 758 757
4 717 718 759 758
4 718 719 760 759
4 719 720 761 760
4 720 721 762 761
4 721 722 763 762
4 722 723 764 763
4 723 724 765 764
4 724 725 766 765
4 725 726 767 766
4 726 727 768 767
4 727 728 769 768
4 728 729 770 769
4 729 730 771 770
4 730 731 772 771
4 731 732 773 772
4 732 733 774 773
4 733 734 775 774
4 734 735 776 775
4 735 736 777 776
4 736 737 778 777
4 738 739 780 779
4 739 740 781 780
4 740 741 782 781
4 741 742 783 782
4 742 743 784 783
4 743 744 785 784
4 744 745 786 785
4 745 746 787 786
4 746 747 788 787
4 747 748 789 788
4 748 749 790 789
4 749 750 791 790
4 750 751 792 791
4 751 752 793 792
4 752 753 794 793
4 753 754 795 794
4 754 755 796 795
4 755 756 797 796
4 756 757 798 797
4 757 758 799 798
4 758 759 800 799
4 759 760 801 800
4 760 761 802 801
4 761 762 803 802
4 762 763 804 803
4 763 764 805 804
4 764 765 806 805
4 765 766 807 806
4 766 767 808 807
4 767 768 809 808
4 768 769 810 809
4 769 770 811 810
4 770 771 812 811
4 771 772 813 812
4 772 773 814 813
4 773 774 815 814
4 774 775 816 815
4 775 776 817 816
4 776 777 818 817
4 777 778 819 818
4 779 780 821 820
4 780 781 822 821
4 781 782 823 822
4 782 783 824 823
4 783 784 825 824
4 784 785 826 825
4 785 786 827 826
4 786 787 828 827
4 787 788 829 828
4 788 789 830 829
4 789 790 831 830
4 790 791 832 831
4 791 792 833 832
4 792 793 834 833
4 793 794 835 834
4 794 795 836 835
4 795 796 837 836
4 796 797 838 837
4 797 798 839 838
4 798 799 840 839
4 799 800 841 840
4 800 801 842 841
4 801 802 843 842
4 802 803 844 843
4 803 804 845 844
4 804 805 846 845
4 805 806 847 846
4 806 807 848 847
4 807 808 849 848
4 808 809 850 849
4 809 810 851 850
4 810 811 852 851
4 811 812 853 852
4 812 813 854 853
4 813 814 855 854
4 814 815 856 855
4 815 816 857 856
4 816 817 858 857
4 817 818 859 858
4 818 819 860 859
CELL_TYPES 800
9
9
9
9
9
9
9
9
9
9
9
9
9
9
9
9
9
9
9
9
9
9
9
9
9
9
9
9
9
9
9
9
9
9
9
9
9
9
9
9
9
9
9
9
9
9
9
9
9
9
9
9
9
9
9
9
9
9
9
9
9
9
9
9
9
9
9
9
9
9
9
9
9
9
9
9
9
9
9
9
9
9
9
9
9
9
9
9
9
9
9
9
9
9
9
9
9
9
9
9
9
9
9
9
9
9
9
9
9
9
9
9
9
9
9
9
9
9
9
9
9
9
9
9
9
9
9
9
9
9
9
9
9
9
9
9
9
9
9
9
9
9
9
9
9
9
9
9
9
9
9
9
9
9
9
9
9
9
9
9
9
9
9
9
9
9
9
9
9
9
9
9
9
9
9
9
9
9
9
9
9
9
9
9
9
9
9
9
9
9
9
9
9
9
9
9
9
9
9
9
9
9
9
9
9
9
9
9
9
9
9
9
9
9
9
9
9
9
9
9
9
9
9
9
9
9
9
9
9
9
9
9
9
9
9
9
9
9
9
9
9
9
9
9
9
9
9
9
9
9
9
9
9
9
9
9
9
9
9
9
9
9
9
9
9
9
9
9
9
9
9
9
9
9
9
9
9
9
9
9
9
9
9
9
9
9
9
9
9
9
9
9
9
9
9
9
9
9
9
9
9
9
9
9
9
9
9
9
9
9
9
9
9
9
9
9
9
9
9
9
9
9
9
9
9
9
9
9
9
9
9
9
9
9
9
9
9
9
9
9
9
9
9
9
9
9
9
9
9
9
9
9
9
9
9
9
9
9
9
9
9
9
9
9
9
9
9
9
9
9
9
9
9
9
9
9
9
9
9
9
9
9
9
9
9
9
9
9
9
9
9
9
9
9
9
9
9
9
9
9
9
9
9
9
9
9
9
9
9
9
9
9
9
9
9
9
9
9
9
9
9
9
9
9
9
9
9
9
9
9
9
9
9
9
9
9
9
9
9
9
9
9
9
9
9
9
9
9
9
9
9
9
9
9
9
9
9
9
9
9
9
9
9
9
9
9
9
9
9
9
9
9
9
9
9
9
9
9
9
9
9
9
9
9
9
9
9
9
9
9
9
9
9
9
9
9
9
9
9
9
9
9
9
9
9
9
9
9
9
9
9
9
9
9
9
9
9
9
9
9
9
9
9
9
9
9
9
9
9
9
9
9
9
9
9
9
9
9
9
9
9
9
9
9
9
9
9
9
9
9
9
9
9
9
9
9
9
9
9
9
9
9
9
9
9
9
9
9
9
9
9
9
9
9
9
9
9
9
9
9
9
9
9
9
9
9
9
9
9
9
9
9
9
9
9
9
9
9
9
9
9
9
9
9
9
9
9
9
9
9
9
9
9
9
9
9
9
9
9
9
9
9
9
9
9
9
9
9
9
9
9
9
9
9
9
9
9
9
9
9
9
9
9
9
9
9
9
9
9
9
9
9
9
9
9
9
9
9
9
9
9
9
9
9
9
9
9
9
9
9
9
9
9
9
9
9
9
9
9
9
9
9
9
9
9
9
9
9
9
9
9
9
9
9
9
9
9
9
9
9
9
9
9
9
9
9
9
9
9
9
9
9
9
9
9
9
9
9
9
9
9
9
9
9
9
9
9
9
9
9
9
9
9
9
9
9
9
9
9
9
9
9
9
9
9
9
9
9
9
9
9
9
9
9
9
9
9
9
9
9
9
9
9
9
9
9
9
9
9
9
9
9
9
9
9
9
9
9
9
9
9
9
9
9
9
9
9
9
9
9
9
9
9
9
9
9
9
9
9
9
POINT_DATA 861
SCALARS Disp float 2
LOOKUP_TABLE default
0.0 0.0
0.005487220988811964 -0.21978599683156227
0.006736705349514026 -0.43081242023904287
0.007506057991237411 -0.6408742587596169
0.008479517334665577 -0.8505937159708878
0.010000703389757459 -1.0596074682556886
0.012608342617873155 -1.2674375367757402
0.016946149220187876 -1.4734859941529623
0.02376742525648222 -1.6770087202017934
0.03389220644337869 -1.8770437247342902
0.04814473866175655 -2.0722975500479475
0.06731786268582743 -2.2610684636865512
0.09215729937301557 -2.441257775317358
0.12335357819142241 -2.6104643392398468
0.16154203692393793 -2.766059133277299
0.20723699301047796 -2.905241239354227
0.2607082936227155 -3.0251052576515183
0.3218283529098777 -3.1227528148027965
0.3899364839701989 -3.1954880809749873
0.4637760140519592 -3.2410598836918525
0.5413325624612836 -3.2579230041503693
0.6188891108706045 -3.2410598836917517
0.6927286409523491 -3.1954880809747817
0.7608367720126441 -3.1227528148025
0.8219568312997726 -3.0251052576511466
0.8754281319119743 -2.9052412393538027
0.9211230879984783 -2.7660591332768334
0.9593115467309576 -2.6104643392393543
0.9905078255493281 -2.4412577753168527
1.0153472622364808 -2.2610684636860503
1.0345203862605201 -2.072297550047463
1.0487729184788728 -1.8770437247338345
1.058897699665749 -1.6770087202013726
1.065718975702029 -1.4734859941525826
1.0700567823043332 -1.2674375367754047
1.0726644215324428 -1.0596074682554042
1.0741856075875316 -0.8505937159706547
1.0751590669309592 -0.6408742587594379
1.0759284195726824 -0.430812420238917
1.0771779039333833 -0.2197859968314921
1.0826651249221917 0.0
0.054825258707028604 -0.002303530737956934
0.05863479606940158 -0.220020232131025
0.05929365453784547 -0.4308737364184041
0.0599779642069915 -0.6409613096739838
0.06083617579722316 -0.8507269515212389
0.06213499948178811 -1.0598923428516147
0.06438164978183347 -1.2680196695808355
0.06818465344308935 -1.474538192662726
0.07425211448149661 -1.6787236740376168
0.08333322085658706 -1.8796173926596724
0.09616332816884164 -2.0759190641542737
0.11343465580576517 -2.2659167769068564
0.13580190221372931 -2.447502252971445
0.16389404217741155 -2.618264510594761
0.19829268587987134 -2.7755578642496954
0.23947813249232097 -2.916541609981872
0.28771612267061203 -3.0382359604281657
0.34292125500934745 -3.137632191096482
0.4045312089472199 -3.211895258122167
0.47136916097330317 -3.2586122397594646
0.5413325624612713 -3.2759453317439693
0.6112959639492357 -3.258612239759361
0.6781339159753043 -3.211895258121957
0.739743869913154 -3.137632191096178
0.79494900225186 -3.038235960427786
0.8431869924301193 -2.9165416099814396
0.8843724390425364 -2.7755578642492216
0.9187710827449633 -2.6182645105942597
0.9468632227086129 -2.447502252970932
0.9692304691165455 -2.265916776906347
0.9865017967534404 -2.075919064153783
0.9993319040656721 -1.8796173926592117
1.0084130104407443 -1.6787236740371922
1.014480471479138 -1.474538192662343
1.0182834751403846 -1.2680196695804984
1.0205301254404247 -1.0598923428513294
1.0218289491249875 -0.8507269515210055
1.0226871607152188 -0.6409613096738049
1.0233714703843646 -0.43087373641827814
1.0240303288528083 -0.2200202321309545
1.027839866215176 -0.0023035307379544448
0.10871016735983119 -0.0041252525810692425
0.11149130034178699 -0.22013532827545615
0.11187064430155941 -0.4309078695775231
0.11242958114568483 -0.6410382197187705
0.11318134813363397 -0.850834489622171
0.11428056495748702 -1.060117869664728
0.11617370185876799 -1.2685009238685445
0.11944424697063112 -1.4754388188300307
0.12474531445377199 -1.680223033380278
0.13275808626410784 -1.8818926726465992
0.1441329424353478 -2.079136688344691
0.15947074784199128 -2.2702319376499185
0.17933778247886875 -2.453064293482799
0.2042880130027286 -2.625218740968734
0.23485356980802646 -2.784035758952431
0.2714795773615787 -2.926641082145321
0.3144359846172713 -3.049991419544091
0.363696380563268 -3.150980829776936
0.4187941893791261 -3.2266432237986096
0.47862487567438117 -3.2743774010208226
0.5413325624612595 -3.292137681110283
0.6040402492481337 -3.2743774010207165
0.6638709355433755 -3.2266432237983955
0.7189687443592135 -3.150980829776626
0.7682291403051849 -3.049991419543704
0.8111855475608493 -2.926641082144881
0.8478115551143722 -2.7840357589519495
0.878377111919641 -2.6252187409682253
0.9033273424434718 -2.4530642934822784
0.9231943770803214 -2.2702319376494025
0.9385321824869394 -2.0791366883441946
0.9499070386581587 -1.8818926726461336
0.9579198104684783 -1.6802230333798494
0.963220877951607 -1.4754388188296454
0.9664914230634621 -1.268500923868206
0.9683845599647387 -1.060117869664442
0.96948377678859 -0.8508344896219375
0.9702355437765389 -0.6410382197185918
0.9707944806206642 -0.43090786957739735
0.9711738245804368 -0.22013532827538526
0.9739549575623873 -0.004125252581064112
0.1621008491522868 -0.005586459587478037
0.16419405598498787 -0.22021353091038753
0.16442597171167345 -0.4309269208551937
0.16486353256692463 -0.641101016956705
0.16550978226218735 -0.8509236056647904
0.16643386344924965 -1.0602914103702274
0.16799381960570536 -1.2688846801020697
0.17073744160607227 -1.4761891074960984
0.17526787484742926 -1.6815042707687844
0.18219765006527708 -1.8838646997848696
0.1920965499625001 -2.0819444948988797
0.2054780736163058 -2.274008897303679
0.22282448199977675 -2.45793907070923
0.24461328740097288 -2.6313198603235524
0.2713138964699672 -2.7914837828913384
0.3033432648838548 -2.935529707497925
0.34097920628705486 -3.0603626605263425
0.3842541789522235 -3.162792796523806
0.4328034835865229 -3.2397265309422303
0.4856890417178718 -3.288392588503388
0.5413325624612481 -3.306583718321435
0.59697608320462 -3.2883925885032803
0.649861641335957 -3.2397265309420122
0.6984109459702388 -3.1627927965234908
0.7416859186353852 -3.06036266052595
0.7793218600385605 -2.9355297074974787
0.8113512284524225 -2.7914837828908508
0.8380518375213913 -2.631319860323037
0.8598406429225617 -2.4579390707087025
0.8771870513060085 -2.274008897303158
0.8905685749597922 -2.081944494898378
0.9004674748569967 -1.8838646997844002
0.9073972500748304 -1.6815042707683527
0.9119276833161767 -1.476189107495711
0.9146713053165368 -1.2688846801017297
0.916231261472989 -1.060291410369941
0.91715534266005 -0.8509236056645567
0.9178015923553126 -0.6411010169565261
0.9182391532105638 -0.430926920855068
0.9184710689372494 -0.2202135309103163
0.9205642757699457 -0.00558645958747048
0.2152085637135005 -0.006764928387024314
0.21679026566323753 -0.2202750345929603
0.21694175855175382 -0.43093788160487345
0.21727654406621916 -0.6411498433971734
0.21781821936263054 -0.8509974849987105
0.21858675436884675 -1.0604240568881096
0.21984822289073183 -1.2691782752103666
0.22207616615753314 -1.4767917183571542
0.22584086249215335 -1.6825677916644677
0.23168307478986497 -1.8855314368212308
0.24009586663453722 -2.0843397709413938
0.25151026805633103 -2.277244706257896
0.2663241498285256 -2.462123999043777
0.2849391202569616 -2.636565083937573
0.3077652589245215 -2.7978969650706413
0.3351770112788216 -2.943200580370714
0.3674579170499439 -3.069341070693548
0.40470121837050305 -3.1730576834672624
0.446669386562187 -3.2511452750593373
0.4926413989423123 -3.300685420071767
0.5413325624612367 -3.3193301376147852
0.5900237259801568 -3.300685420071657
0.6359957383602713 -3.2511452750591157
0.6779639065519402 -3.1730576834669426
0.71520720787248 -3.06934107069315
0.747488113643581 -2.943200580370262
0.7748998659978589 -2.797896965070148
0.7977260046653968 -2.6365650839370516
0.8163409750938108 -2.462123999043244
0.8311548568659848 -2.277244706257369
0.84256925828776 -2.0843397709408875
0.8509820501324163 -1.8855314368207576
0.8568242624301156 -1.6825677916640331
0.8605889587647266 -1.476791718356765
0.8628169020315225 -1.2691782752100258
0.8640783705534049 -1.060424056887823
0.8648469055596202 -0.8509974849984767
0.8653885808560314 -0.6411498433969947
0.8657233663704968 -0.43093788160474783
0.8658748592590131 -0.22027503459288877
0.867456561208746 -0.006764928387014624
0.2681290368439378 -0.007709696551609244
0.26931176271528884 -0.22032667086323052
0.26941625323175256 -0.43094552265989045
0.26966586762784855 -0.6411859356445437
0.27010370400344297 -0.8510583311372837
0.270733163823544 -1.0605251105379958
0.2717290613421694 -1.269394274991072
0.273478995158281 -1.477251903611481
0.27648558399695744 -1.68341636787629
0.28124584596515434 -1.8868939747523295
0.28817311917843 -2.0863224484105523
0.2976190591584538 -2.279939475101229
0.3099010137092392 -2.465619262324605
0.3253435296196285 -2.640954401802039
0.34429149007594795 -2.803275264016983
0.36708404827819485 -2.9496511057650627
0.39399290505770584 -3.076918919153872
0.42515974799961986 -3.1817648271322976
0.4604999063932471 -3.260895884507551
0.49954795292868315 -3.31126921683678
0.5413325624612253 -3.330404455053491
0.5831171719937632 -3.311269216836669
0.6221652185291899 -3.2608958845073266
0.6575053769228043 -3.1817648271319743
0.6886722198647022 -3.07691891915347
0.7155810766441948 -2.9496511057646053
0.7383736348464228 -2.8032752640164844
0.7573215953027244 -2.6409544018015128
0.7727641112130951 -2.4656192623240676
0.7850460657638637 -2.279939475100698
0.7944920057438718 -2.0863224484100424
0.8014192789571344 -1.8868939747518527
0.806179540925321 -1.683416367875853
0.80918612976399 -1.47725190361109
0.8109360635800973 -1.2693942749907308
0.8119319610987207 -1.060525110537709
0.8125614209188213 -0.8510583311370498
0.8129992572944155 -0.6411859356443649
0.8132488716905115 -0.4309455226597648
0.8133533622069751 -0.22032667086315877
0.814536088078323 -0.0077096965515977564
0.32091299900885845 -0.008458346544320374
0.3217806056684081 -0.22037091725030522
0.32185428959171924 -0.43095226983406304
0.3220311939732286 -0.6412107111601459
0.32236623777982804 -0.8511069499109984
0.32286658586492223 -1.060601865881131
0.32362685597443386 -1.2695473533785204
0.3249425229960966 -1.4775834422526217
0.3272279825248514 -1.6840556781991924
0.3309184746740568 -1.8879562842635815
0.33637173284970034 -2.087895724623977
0.34385876916137376 -2.282096184079919
0.3536192044321696 -2.46842836892466
0.36590230321698286 -2.6444916572818604
0.38098774639061483 -2.8076215792452586
0.3991669913209997 -2.9548829737946547
0.42070016357861556 -3.083092953907615
0.4457637391211323 -3.1889038739789117
0.47441418977063454 -3.2689674649184455
0.5064756303882414 -3.320142543421943
0.5413325624612135 -3.33981812537259
0.5761894945341821 -3.3201425434218304
0.608250935151781 -3.2689674649182185
0.6369013858012724 -3.188903873978585
0.661964961343776 -3.083092953907209
0.6834981336013769 -2.9548829737941933
0.7016773785317464 -2.807621579244756
0.7167628217053639 -2.6444916572813306
0.7290459204901631 -2.468428368924119
0.7388063557609454 -2.2820961840793843
0.7462933920726064 -2.087895724623464
0.7517466502482395 -1.8879562842631026
0.7554371423974365 -1.6840556781987535
0.7577226019261857 -1.4775834422522296
0.7590382689478452 -1.2695473533781785
0.7597985390573555 -1.0606018658808438
0.7602988871424494 -0.8511069499107647
0.7606339309490486 -0.6412107111599671
0.760810835330558 -0.4309522698339375
0.760884519253869 -0.22037091725023333
0.7617521259134162 -0.008458346544307422
0.37359463459785386 -0.009040951664355222
0.3742132988820353 -0.22040973277195064
0.3742628773428886 -0.4309586430935766
0.37437417706298715 -0.6412255159422473
0.3746081303015148 -0.8511428424948528
0.37498097329652885 -1.060659723794875
0.3755363669280494 -1.2696504857691686
0.3764609171325437 -1.477804668076379
0.378078268018311 -1.6844999544744002
0.3807380289393452 -1.888726249454189
0.3847376027020515 -2.0890660180753464
0.39028433341995533 -2.2837211456321134
0.3975455500774368 -2.4705584527577398
0.40669538102660807 -2.647184663913593
0.4179440411748137 -2.8109435741420956
0.43153376954669215 -2.9589016960481396
0.4477040549311036 -3.087864619361989
0.46664820555020226 -3.1944672315889724
0.4885407671112582 -3.275341919392997
0.5135006757590238 -3.327287682295956
0.5413325624612013 -3.3475660862975016
0.5691644491633764 -3.327287682295842
0.5941243578111356 -3.2753419193927678
0.6160169193721832 -3.194467231588643
0.6349610699912716 -3.08786461936158
0.6511313553756711 -2.9589016960476755
0.664721083747538 -2.8109435741415894
0.6759697438957329 -2.6471846639130607
0.6851195748448942 -2.470558452757196
0.6923807915023659 -2.283721145631576
0.6979275222202601 -2.089066018074831
0.7019270959829588 -1.8887262494537078
0.7045868569039869 -1.6844999544739596
0.7062042077897503 -1.4778046680759862
0.7071287579942424 -1.2696504857688264
0.7076841516257621 -1.0606597237945878
0.7080569946207759 -0.851142842494619
0.7082909478593035 -0.6412255159420684
0.708402247579402 -0.4309586430934509
0.708451826040255 -0.22040973277187867
0.7090704903244348 -0.009040951664341084
0.42619441765686705 -0.009486069197224271
0.42662531633057144 -0.22044480364675115
0.4266484106294212 -0.4309638551625321
0.4266978256256468 -0.6412314159750188
0.42683355013652735 -0.8511653624869299
0.42707488440084307 -1.0607007367565418
0.4274432163290615 -1.269717129053697
0.4280276201359717 -1.477936458227579
0.4290374843706112 -1.6847717486831362
0.43072830148789626 -1.889220862236673
0.4333188000173753 -2.089845006475372
0.4369580820393216 -2.2848251965863584
0.44175055414205544 -2.4720210761458787
0.44780392839587657 -2.649046202998178
0.45525716344796574 -2.813253757661267
0.46429213177189016 -2.961717909855426
0.47512328822109196 -3.091241969467222
0.48796261357483345 -3.198452643884394
0.5030350607849426 -3.27999600371838
0.5207181060881412 -3.332668826494882
0.5413325624611889 -3.3536249322816625
0.5619470188342346 -3.332668826494767
0.5796300641374291 -3.279996003718149
0.594702511347532 -3.1984526438840626
0.6075418367012663 -3.0912419694668114
0.6183729931504599 -2.9617179098549595
0.6274079614743766 -2.8132537576607586
0.6348611965264589 -2.649046202997643
0.6409145707802741 -2.472021076145333
0.6457070428830014 -2.2848251965858193
0.6493463249049416 -2.0898450064748553
0.6519368234344156 -1.8892208622361903
0.653627640551697 -1.684771748682695
0.6546375047863342 -1.4779364582271857
0.6552219085932431 -1.2697171290533544
0.6555902405214611 -1.0607007367562546
0.6558315747857767 -0.8511653624866959
0.6559672992966572 -0.6412314159748399
0.6560167142928827 -0.4309638551624064
0.6560398085917323 -0.22044480364667918
0.6564707072654355 -0.009486069197209195
0.47872633573362006 -0.00982282200743919
0.47902467221265266 -0.22047835023635842
0.4790167869897719 -0.4309662202969732
0.4790061262025979 -0.6412291877073568
0.4790465924887525 -0.851174495809416
0.4791537802241547 -1.0607238635405927
0.47933532343918717 -1.269756055133896
0.47962302482220537 -1.4780032184201675
0.480097814695996 -1.684903021877898
0.48090027712214145 -1.8894703195968547
0.4821522850521571 -2.0902570446083204
0.4839390847937141 -2.285428654635136
0.48630628781524493 -2.472835517372418
0.4893064542794134 -2.65009681686311
0.4930134707525988 -2.814573113621659
0.497539475228332 -2.963349819978428
0.5030577682002222 -3.0932395209679266
0.5098056480405442 -3.200871936002971
0.5180645586310337 -3.2829130853647905
0.5282742053562776 -3.3362295804846833
0.5413325624611759 -3.3579448823462
0.554390919566073 -3.336229580484568
0.5646005662913152 -3.282913085364559
0.5728594768818006 -3.2008719360026383
0.5796073567221186 -3.0932395209675145
0.5851256496940047 -2.9633498199779593
0.5896516541697342 -2.81457311362115
0.5933586706429173 -2.650096816862574
0.5963588371070834 -2.4728355173718715
0.5987260401286112 -2.2854286546345954
0.6005128398701655 -2.0902570446078026
0.601764847800179 -1.8894703195963714
0.602567310226323 -1.6849030218774566
0.6030421001001126 -1.478003218419774
0.6033298014831304 -1.2697560551335536
0.6035113446981627 -1.0607238635403056
0.6036185324335648 -0.8511744958091821
0.6036589987197194 -0.6412291877071779
0.6036483379325454 -0.4309662202968474
0.6036404527096646 -0.22047835023628648
0.6039387891886964 -0.009822822007423479
0.5312068220387873 -0.010076064633895182
0.5314119336539597 -0.22051270182566918
0.5313729619424409 -0.43096419988788337
0.531303612894135 -0.6412193425374587
0.5312514576030187 -0.851170454033338
0.5312250585097752 -1.0607283717602358
0.5312150710192522 -1.2697683429392286
0.5312120707540209 -1.4780242499017577
0.5312113377466756 -1.6849392852570386
0.5312114520190024 -1.8895341010089084
0.5312116723699805 -2.090362164399159
0.5312111640293731 -2.285584956577257
0.5312054198386866 -2.4730522375896538
0.5311909895216863 -2.650384861327203
0.5311751673935785 -2.814948501421792
0.5312052243557722 -2.9638401540686767
0.5314121692048498 -3.0938931325312065
0.5320625159005187 -3.2017611562477657
0.5335480901028519 -3.284125446548573
0.536306506548178 -3.3379215685439365
0.5413325624611626 -3.3604457817391027
0.5463586183741468 -3.337921568543821
0.5491170348194725 -3.284125446548341
0.5506026090218047 -3.2017611562474326
0.5512529557174731 -3.093893132530794
0.5514599005665514 -2.9638401540682078
0.5514899575287455 -2.814948501421282
0.5514741354006389 -2.650384861326667
0.5514597050836402 -2.4730522375891066
0.5514539608929548 -2.285584956576716
0.5514534525523485 -2.0903621643986416
0.5514536729033271 -1.889534101008425
0.5514537871756544 -1.6849392852565972
0.5514530541683094 -1.4780242499013643
0.5514500539030781 -1.2697683429388857
0.5514400664125554 -1.0607283717599487
0.551413667319312 -0.8511704540331042
0.5513615120281957 -0.6412193425372796
0.5512921629798896 -0.4309641998877576
0.5512531912683709 -0.22051270182559726
0.5514583028835429 -0.010076064633879035
0.583646912190684 -0.010269290295121818
0.5837879325538448 -0.22054707972050183
0.5837208867581184 -0.4309576264434302
0.5835950691918587 -0.6412020609243041
0.58345304631237 -0.851153670769072
0.5832952199783168 -1.0607141721404554
0.5830946086747327 -1.2697534843861389
0.5828007631093041 -1.4780026430027478
0.5823246115108749 -1.6849029728057325
0.5815225803897311 -1.8894703585910997
0.5802714341646018 -2.0902571312487503
0.5784826200246338 -2.2854272486273897
0.576103227035883 -2.4728309015904837
0.5730744412905557 -2.650088877886041
0.5693384390838667 -2.8145722578695698
0.5648765253883673 -2.9633933688908822
0.5597655052018458 -3.093413546360647
0.5542459426692167 -3.2013271759710022
0.5487338409635256 -3.2838253377853324
0.5438392762332822 -3.3378592120039126
0.541332562461149 -3.361235181742074
0.5388258486890148 -3.337859212003797
0.5339312839587717 -3.283825337785101
0.5284191822530836 -3.201327175970669
0.5228996197204592 -3.0934135463602352
0.5177885995339432 -2.9633933688904137
0.5133266858384483 -2.814572257869061
0.5095906836317639 -2.6500888778855054
0.5065618978864422 -2.4728309015899375
0.5041825048976966 -2.2854272486268497
0.5023936907577334 -2.090257131248233
0.5011425445326075 -1.8894703585906167
0.5003405134114662 -1.6849029728052913
0.49986436181303845 -1.478002643002354
0.4995705162476106 -1.2697534843857965
0.49936990494402694 -1.0607141721401683
0.49921207860997385 -0.8511536707688381
0.49907005573048546 -0.641202060924125
0.4989442381642256 -0.4309576264433044
0.49887719236849926 -0.22054707972042994
0.49901821273165986 -0.010269290295105473
0.6360602069209931 -0.010417636902737969
0.6361568510060809 -0.2205794739342778
0.6360646044987097 -0.4309469035496347
0.6358854712733503 -0.641177580621602
0.6356570710130868 -0.8511247542158703
0.6353709841460484 -1.0606816595348305
0.634984887466313 -1.2697119720755108
0.6343948411669397 -1.4779352098161562
0.6333843640839786 -1.6847716920912053
0.6316948613781054 -1.8892211216940118
0.6291048187267547 -2.089844903040786
0.6254627373288941 -2.2848221089821097
0.6206593268732136 -2.4720115143492123
0.6145815713303361 -2.6490302729945916
0.6071049815491519 -2.8132526952951227
0.5981337261833961 -2.961806912655426
0.5876836143505848 -3.091589383153626
0.5759609378974937 -3.199343600493806
0.5634341191815745 -3.2818164465844015
0.5511650704446197 -3.336148947155693
0.5413325624611359 -3.360481893867483
0.5315000544776519 -3.3361489471555776
0.5192310057406985 -3.28181644658417
0.506704187024785 -3.1993436004934743
0.49498151057170237 -3.0915893831532157
0.4845313987389009 -2.9618069126549598
0.4755601433731536 -2.813252695294615
0.4680835535919779 -2.649030272994058
0.46200579804910974 -2.472011514348668
0.4572023875934382 -2.284822108981571
0.4535603061955855 -2.0898449030402695
0.4509702635442418 -1.8892211216935302
0.4492807608383733 -1.6847716920907647
0.44827028375541506 -1.4779352098157628
0.44768023745604324 -1.2697119720751684
0.4472941407763084 -1.0606816595345434
0.44700805390927045 -0.8511247542156366
0.4467796536490072 -0.6411775806214229
0.44660052042364784 -0.4309469035495088
0.4465082739162767 -0.2205794739342059
0.44660491800136437 -0.010417636902721435
0.6884630164637334 -0.010528369760601702
0.6885239303968772 -0.22060829715098093
0.6884089197297435 -0.4309323579856925
0.6881800107476015 -0.6411463172695766
0.6878688248268303 -0.8510844209050766
0.6874599238767422 -1.0606319699731466
0.6868886665793648 -1.269642362744315
0.6859595752634774 -1.4778028395267855
0.6843437964212961 -1.6845002289900206
0.681685558457417 -1.888726731235268
0.6776855283351433 -2.089065490207603
0.6721356243726032 -2.283716488221823
0.664867266373345 -2.4705451465223875
0.6557043631217724 -2.6471630397397967
0.6444463363221516 -2.810943639689569
0.630912357928243 -2.9590304901398805
0.6150374189719788 -3.0883605733305863
0.5970024016567269 -3.195742866662091
0.5774568810549651 -3.2780524539199614
0.5578697514230457 -3.3326575371093052
0.5413325624611232 -3.3582222206622925
0.5247953734992012 -3.3326575371091893
0.5052082438672851 -3.278052453919731
0.4856627232655313 -3.1957428666617607
0.4676277059502911 -3.088360573330179
0.45175276699404027 -2.959030490139416
0.4382187886001442 -2.8109436396890635
0.42696076180053577 -2.6471630397392656
0.41779785854897616 -2.4705451465218458
0.4105295005497303 -2.2837164882212866
0.4049795965872019 -2.0890654902070893
0.4009795664649381 -1.8887267312347877
0.3983213285010659 -1.6845002289895812
0.3967055496588892 -1.4778028395263925
0.3957764583430044 -1.2696423627439726
0.39520520104562795 -1.0606319699728595
0.39479630009554023 -0.8510844209048428
0.3944851141747693 -0.6411463172693974
0.3942562051926275 -0.4309323579855666
0.3941411945254939 -0.22060829715090902
0.3942021084586375 -0.010528369760585037
0.7408655398203475 -0.01060729837353614
0.7408954960725219 -0.22063210956318283
0.7407587531242492 -0.43091416890325657
0.7404831173643156 -0.6411087631564939
0.7400931185039953 -0.8510336326866562
0.7395678431946507 -1.0605659479430896
0.7387938613350833 -1.2695361103247622
0.7374776766188399 -1.4775817353558214
0.735194901627722 -1.6840565363428648
0.7315053726975337 -1.887956794649912
0.7260505295390038 -2.0878945351722034
0.7185605598561463 -2.2820903718212966
0.7087989884217205 -2.4684136650559774
0.6965206851006239 -2.644469031771721
0.6814492229211172 -2.807625435378006
0.6633121863841056 -2.9550392779031527
0.6419532301693452 -3.083694588740143
0.6175612950271416 -3.1905027446385454
0.5909977540772173 -3.2725242853502428
0.5642778033910648 -3.3274513504801364
0.5413325624611107 -3.3545307589263347
0.5183873215311582 -3.327451350480022
0.4916673708450109 -3.272524285350014
0.46510382989509697 -3.1905027446382177
0.4407118947529078 -3.083694588739739
0.4193529385381641 -2.955039277902692
0.4012159020011688 -2.807625435377504
0.38614443982167834 -2.644469031771193
0.3738661365005984 -2.4684136650554387
0.3641045650661887 -2.2820903718207632
0.3566145953833457 -2.0878945351716927
0.35115975222482876 -1.8879567946494344
0.34747022329464955 -1.6840565363424262
0.3451874483035381 -1.477581735355429
0.3438712635872984 -1.2695361103244203
0.3430972817277326 -1.0605659479428027
0.3425720064183886 -0.8510336326864224
0.34218200755806855 -0.6411087631563149
0.34190637179813516 -0.4309141689031306
0.3417696288498626 -0.22063210956311094
0.3417995851020369 -0.010607298373519352
0.7932745822533896 -0.010659787177944642
0.7932774589251028 -0.2206498549957868
0.793119329974064 -0.43089234997139353
0.7927997632792615 -0.6410654103739879
0.7923362280480858 -0.850973758039173
0.7916942921854203 -1.060482092194552
0.7906905212911196 -1.2693807896985314
0.7889421589785747 -1.4772509804247815
0.7859383674732421 -1.6834177549430407
0.7811779622381952 -1.8868942403692506
0.7742482740473466 -2.0863204601699
0.7648003483116113 -2.2799331798708837
0.7525246818996097 -2.4656062525872096
0.7371079275936143 -2.640937202608174
0.7182030022646902 -2.803287079705119
0.6954458093892828 -2.949820837715604
0.6686022770678689 -3.077580654765788
0.6378732442182511 -3.1836179232149573
0.6043583704689549 -3.2652491594448416
0.570629260084666 -3.320571945405826
0.5413325624610986 -3.3494251366845877
0.512035864837533 -3.3205719454057117
0.4783067544532516 -3.2652491594446147
0.4447918807039683 -3.183617923214633
0.4140628478543677 -3.077580654765389
0.38721931553297345 -2.949820837715148
0.3644621226575857 -2.803287079704621
0.34555719732868206 -2.6409372026076503
0.33014044302270684 -2.4656062525866758
0.31786477661072504 -2.279933179870355
0.3084168508750075 -2.0863204601693934
0.301487162684174 -1.8868942403687756
0.29672675744913884 -1.6834177549426044
0.2937229659438145 -1.4772509804243903
0.2919746036312746 -1.26938078969819
0.29097083273697616 -1.0604820921942653
0.2903288968743115 -0.8509737580389394
0.28986536164313603 -0.6410654103738087
0.2895457949483337 -0.43089234997126763
0.28938766599729504 -0.22064985499571488
0.28939054266900816 -0.010659787177927784
0.8456949335380812 -0.010691017599592467
0.8456748710071456 -0.22066096387480372
0.8454960064019663 -0.43086681828807183
0.8451348970437348 -0.6410168811094555
0.8446012989913281 -0.8509054017356916
0.8438344785609987 -1.0603756199684684
0.8425724586092411 -1.2691637975448107
0.8403472908575247 -1.476791721966533
0.8365839319239505 -1.6825694247426726
0.8307403672657595 -1.8855312022705477
0.8223247875072661 -2.0843370081769383
0.810910455343504 -2.2772388607239935
0.7961108105723627 -2.46211591560555
0.7775404004208911 -2.6365599012081655
0.7547867365987112 -2.7979227809941802
0.7274274795857174 -2.9433760795540014
0.6951570674760132 -3.070026137942956
0.6581777814942786 -3.1751017313683993
0.6178053537270786 -3.256245474746226
0.5770905012848737 -3.312023308037959
0.5413325624610865 -3.34287875905992
0.5055746236373018 -3.312023308037847
0.46485977119510646 -3.2562454747460023
0.4244873434279218 -3.175101731368079
0.38750805744620714 -3.0700261379425617
0.35523764533652546 -2.943376079553551
0.3278783883235556 -2.7979227809936877
0.3051247245013993 -2.636559901207647
0.28655431434995166 -2.462115915605022
0.2717546695788335 -2.2772388607234695
0.26034033741509227 -2.084337008176436
0.2519247576566166 -1.8855312022700765
0.24608119299843953 -1.6825694247422391
0.24231783406487545 -1.4767917219661433
0.2400926663131654 -1.26916379754447
0.23883064636141083 -1.060375619968182
0.23806382593108244 -0.8509054017354579
0.2375302278786761 -0.6410168811092766
0.23716911852044487 -0.4308668182879459
0.23699025391526576 -0.22066096387473177
0.2369701913843301 -0.01069101759957557
0.8981296957909081 -0.010706158283261543
0.8980918876584146 -0.22066536001086437
0.8978941705309974 -0.43083756380587224
0.8974937268351264 -0.64096372883197
0.896891225647903 -0.8508285690579614
0.8959849620520964 -1.0602405481593575
0.8944309725377529 -1.2688704760800003
0.8916887683516507 -1.4761895751427607
0.8871574399912662 -1.6815057434253173
0.8802251299304706 -1.883863784097346
0.870323769248719 -2.0819412062127185
0.8569454539421503 -2.2740046808079097
0.8396208592361512 -2.4579387099675545
0.8178897485694913 -2.6313318338850835
0.7912859162080924 -2.7915313651409543
0.7593550076768755 -2.9357162813598516
0.721773166169388 -3.061057522760424
0.6787152826187307 -3.1649844326048924
0.6315928122868131 -3.2455230127369687
0.5838150488107638 -3.3017744211188202
0.5413325624610743 -3.3348282453403395
0.4988500761113883 -3.3017744211187097
0.4510723126353502 -3.245523012736748
0.4039498423034507 -3.1649844326045766
0.36089195875281643 -3.0610575227600356
0.3233101172453546 -2.935716281359408
0.2913792087141649 -2.791531365140468
0.2647753763527937 -2.631331833884571
0.24304426568616103 -2.4579387099670322
0.22571967098018855 -2.2740046808073915
0.21234135567364387 -2.081941206212221
0.20243999499191243 -1.883863784096879
0.195507684931133 -1.6815057434248868
0.19097635657076026 -1.476189575142373
0.18823415238466565 -1.2688704760796612
0.18668016287032607 -1.0602405481590715
0.1857738992745209 -0.8508285690577279
0.1851713980872979 -0.6409637288317909
0.18477095439142716 -0.4308375638057463
0.1845732372640102 -0.22066536001079243
0.18453542913151677 -0.010706158283244612
0.9505801265166854 -0.010710452921244888
0.9505316883509344 -0.2206635347772148
0.9503195807137774 -0.4308047492582942
0.9498815871710011 -0.6409065287817319
0.9492069474501565 -0.8507412986742409
0.94814040909315 -1.0600684379192729
0.946256616479854 -1.2684872945472339
0.9429847399759834 -1.4754389746702787
0.937680103587075 -1.6802238946120516
0.9296639305595295 -1.8818910061457546
0.9182875970257828 -2.0791333442833326
0.902956853035147 -2.270230659963883
0.8831181463967482 -2.45307374410602
0.8582332552906045 -2.625250982080031
0.8277811845444598 -2.7841130020165155
0.7913164588955377 -2.9268582928115805
0.7485700281604839 -3.0507213040366135
0.6997041230302634 -3.153316361234387
0.6459892060844538 -3.2330860625669327
0.591001031514972 -3.289759425620712
0.5413325624610619 -3.325164925010694
0.49166409340715633 -3.2897594256206024
0.43667591883768775 -3.233086062566716
0.3829610018918989 -3.1533163612340767
0.3340950967617047 -3.050721304036232
0.29134866602668014 -2.926858292811143
0.2548839403777885 -2.7841130020160363
0.22443186963167494 -2.6252509820795256
0.1995469785255624 -2.453073744105505
0.17970827188719338 -2.2702306599633717
0.16437752789658464 -2.079133344282841
0.15300119436286067 -1.8818910061452923
0.14498502133533295 -1.6802238946116248
0.13968038494643814 -1.475438974669894
0.1364085084425764 -1.268487294546896
0.13452471582928527 -1.0600684379189873
0.13345817747228073 -0.8507412986740075
0.13278353775143648 -0.640906528781553
0.1323455442086606 -0.4308047492581682
0.1321334365715039 -0.22066353477714287
0.13208499840575288 -0.010710452921227943
1.00304499319064 -0.010709220825512466
1.0029963941816604 -0.22065673905156735
1.002778895559378 -0.4307689714076354
1.0023041862008604 -0.6408452423053707
1.001547312611663 -0.8506405200210135
1.000291713105003 -1.0598472667654386
0.9980548080410754 -1.2680061975025474
0.994246491730983 -1.4745371306767083
0.9881732019341062 -1.6787235254511785
0.9790881650844483 -1.879615011911057
0.9662579572005746 -2.0759162764602377
0.948997655449559 -2.2659197214205875
0.9266640336049347 -2.447522960816452
0.8986417734434261 -2.6183186806087453
0.8643694881562156 -2.7756717818557592
0.8234115115916956 -2.916817550735421
0.7756040110578802 -3.039066648076737
0.7212396877961588 -3.140186946010764
0.6613822580341164 -3.218961461262293
0.5989744332831525 -3.2758642520944066
0.5413325624610493 -3.3137076554175717
0.4836906916389517 -3.275864252094299
0.42128286688800276 -3.218961461262081
0.361425437125984 -3.14018694601046
0.3070611138642925 -3.039066648076363
0.25925361333051 -2.916817550734991
0.21829563676602415 -2.7756717818552876
0.18402335147884813 -2.618318680608248
0.15600109131737447 -2.4475229608159443
0.1336674694727832 -2.2659197214200835
0.11640716772179759 -2.0759162764597523
0.10357695983794889 -1.8796150119106
0.0944919229883108 -1.6787235254507558
0.08841863319144917 -1.4745371306763262
0.08461031688136693 -1.268006197502211
0.08237341181744488 -1.0598472667651542
0.08111781231078752 -0.8506405200207802
0.08036093872159077 -0.6408452423051916
0.07988622936307369 -0.43076897140750947
0.07966873074079134 -0.2206567390514954
0.07962013173181187 -0.01070922082549554
1.0555192357455507 -0.010707679075859636
1.0554869810261227 -0.22064751042539477
1.0552808384818697 -0.43073146895168485
1.0547671745564415 -0.6407785475326672
1.0539074397521604 -0.8505194926184225
1.0524352415245233 -1.0595685369460104
1.049833132831193 -1.2674230109831173
1.0454865659148547 -1.4734830585073115
1.0386578479835453 -1.6770072537881127
1.0285288299532909 -1.8770407292334137
1.0142776702105076 -2.0722959485792556
0.9951190017533134 -2.2610767546566155
0.9703175921211971 -2.4412908365458494
0.9391958963666348 -2.6105417978166434
0.9011493469434679 -2.7662168209193525
0.855751567159506 -2.9056061669182762
0.8029386809956921 -3.026123326429415
0.7432303852858312 -3.125690621866396
0.6778840784357878 -3.203319501665758
0.6089213738802095 -3.2599614534868318
0.5413325624610363 -3.2999999999999963
0.4737437510418696 -3.259961453486727
0.40478104648630814 -3.2033195016655513
0.33943473963629167 -3.125690621866099
0.2797264439264649 -3.0261233264290492
0.22691355776268768 -2.9056061669178552
0.1815157779787633 -2.7662168209188907
0.1434692285556346 -2.6105417978161545
0.1123475328011112 -2.4412908365453507
0.08754612316903111 -2.26107675465612
0.06838745471186962 -2.0722959485787773
0.0541362949691135 -1.8770407292329623
0.04400727693888064 -1.6770072537876943
0.03717855900758801 -1.473483058506933
0.032831992091261204 -1.2674230109827829
0.03022988339793716 -1.0595685369457268
0.028757685170303245 -0.8505194926181896
0.027897950366023147 -0.6407785475324881
0.027384286440595443 -0.43073146895155895
0.02717814389634274 -0.22064751042532282
0.027145889176914784 -0.010707679075842722
SCALARS Stress float 6
LOOKUP_TABLE default
-1180.173646191055 -1976.6068476422106 -1501.8469599364062 -22.096570294652587 0.0 0.0
1309.3063065908518 764.9523126676884 965.0057268740553 -22.416915670754726 0.0 0.0
584.9123211278638 140.81531093873474 229.46459764314812 -39.58804716084041 0.0 0.0
476.744962652817 23.690561367503985 153.56739486554937 -2.1464986397230224 0.0 0.0
594.1675931558163 68.03287679565008 230.77515236806585 1.8034600707489412 0.0 0.0
701.8931120488896 111.82520001548104 342.4245103092383 1.6988769690332393 0.0 0.0
819.5187942815803 155.68849209550584 455.03233216561847 0.7412214553870675 0.0 0.0
937.9563095039957 215.56180391864223 559.915986890028 -0.5432988273419579 0.0 0.0
1063.8317731707652 288.6562045999988 664.0286076066441 -2.0398793424475796 0.0 0.0
1204.6275847735412 381.1380602589795 781.7156063516195 -3.651490584038607 0.0 0.0
1365.453555774127 497.60156076873875 920.4095033575863 -5.220811492983531 0.0 0.0
1546.519530942264 638.6187434887197 1081.1460685796121 -6.517147401820205 0.0 0.0
1743.213191193666 797.9911363107302 1258.7295930552161 -7.328879856026784 0.0 0.0
1948.9688587862381 968.9822442608446 1446.6530917100354 -7.964034718034247 0.0 0.0
2154.9220088195852 1142.5822606059467 1635.9751305002058 -8.387750566105373 0.0 0.0
2351.170530853799 1309.0084729198347 1816.8782947352279 -8.557489733541656 0.0 0.0
2527.680709018623 1458.7559664160701 1979.649378451282 -8.318965626690531 0.0 0.0
2674.1578494831842 1582.2064461654297 2114.373203102108 -7.566453975583119 0.0 0.0
2787.0591447500515 1676.5521248699326 2217.7912082837483 -6.434835945640695 0.0 0.0
2853.4614483097444 1729.8225503609299 2277.4847201961975 -7.433711068769802 0.0 0.0
2845.3226346245315 1719.9648135836483 2268.760095442692 1.8909318555415666e-11 0.0 0.0
2853.4614483105656 1729.8225503617816 2277.484720196705 7.433711068673411 0.0 0.0
2787.0591447486827 1676.5521248686284 2217.79120828259 6.434835945668459 0.0 0.0
2674.1578494825617 1582.2064461648888 2114.3732031015948 7.566453975650941 0.0 0.0
2527.680709017995 1458.755966415565 1979.6493784507031 8.318965626728021 0.0 0.0
2351.170530853617 1309.008472919806 1816.8782947346872 8.557489733540015 0.0 0.0
2154.9220088184384 1142.582260604935 1635.9751304990923 8.387750566168666 0.0 0.0
1948.9688587850776 968.9822442598809 1446.6530917089492 7.964034718086197 0.0 0.0
1743.213191193196 797.9911363104529 1258.729593054637 7.3288798559616435 0.0 0.0
1546.5195309415692 638.6187434882714 1081.146068578985 6.517147401955112 0.0 0.0
1365.4535557715617 497.60156076635906 920.4095033555818 5.220811492957166 0.0 0.0
1204.6275847730142 381.138060258725 781.7156063510706 3.6514905838273375 0.0 0.0
1063.8317731696245 288.65620459910684 664.0286076057479 2.0398793425387023 0.0 0.0
937.956309503905 215.5618039188355 559.9159868898132 0.5432988272286163 0.0 0.0
819.5187942809962 155.68849209518896 455.03233216504043 -0.741221455486281 0.0 0.0
701.8931120483007 111.82520001520162 342.4245103086789 -1.6988769691701808 0.0 0.0
594.1675931554221 68.03287679553162 230.77515236774607 -1.8034600705549018 0.0 0.0
476.74496265226867 23.69056136683211 153.5673948651938 2.1464986398930535 0.0 0.0
584.9123211275995 140.8153109386966 229.4645976430176 39.5880471608829 0.0 0.0
1309.30630659054 764.9523126673371 965.0057268735617 22.416915670848724 0.0 0.0
-1180.1736461884072 -1976.60684763961 -1501.8469599337582 22.09657029405136 0.0 0.0
-1503.2900675196597 -2270.4452131449866 -1777.4744690422317 -22.928054066242687 0.0 0.0
891.8100803889264 423.6598722558648 603.9488318810746 -31.104532064905978 0.0 0.0
407.3572084932304 56.03067981119892 137.46885148857817 -33.54916564245042 0.0 0.0
421.3600153896586 4.047347099235292 128.76602673836106 -16.027384667298726 0.0 0.0
528.6164748194719 29.99094483193061 187.60549888882576 -15.844765387269435 0.0 0.0
625.1786427690502 42.27911501468019 272.459959998651 -20.77645366783762 0.0 0.0
707.0565307557497 58.005626570595254 357.50383647618287 -22.805901899586267 0.0 0.0
786.1286290016135 76.82227347543053 424.0278421416233 -23.35448002482189 0.0 0.0
859.5474748538281 96.77017516747705 475.75403720343905 -23.798874629827203 0.0 0.0
929.8898206713436 118.99295171568687 523.2560014303995 -24.376890672326375 0.0 0.0
999.4396565415669 144.82894251860904 571.2825023185853 -24.660213526196646 0.0 0.0
1069.525802048827 174.59699881113863 621.3010687768906 -24.573982955699666 0.0 0.0
1139.4345955864999 208.284704479523 673.1017686102396 -24.128162167985224 0.0 0.0
1206.5890926609386 241.08662728286413 723.0597491784106 -23.526821729495822 0.0 0.0
1265.1375326202115 267.72326281065534 765.6314635568574 -22.808277296180044 0.0 0.0
1310.3690138156335 283.5378884603115 796.1341142025343 -21.77561656575413 0.0 0.0
1339.140827039008 285.7801988884109 811.6258157814583 -20.181969719750352 0.0 0.0
1351.590645104619 275.23273210133556 812.5681103257377 -17.95492784765872 0.0 0.0
1345.0696766548324 250.15195402932284 796.8625377339329 -15.504639594998748 0.0 0.0
1289.574478720157 181.84268504775798 735.6354600880503 -14.878180590293962 0.0 0.0
1193.2563932526286 84.40084658021478 639.9022203403016 8.925926664460349e-11 0.0 0.0
1289.574478721455 181.8426850491017 735.6354600888995 14.878180590329048 0.0 0.0
1345.0696766530282 250.15195402754324 796.8625377325457 15.504639595014284 0.0 0.0
1351.590645104271 275.2327321010712 812.5681103255863 17.9549278476399 0.0 0.0
1339.1408270396887 285.7801988892197 811.6258157820181 20.181969719789656 0.0 0.0
1310.3690138150932 283.5378884598915 796.1341142020665 21.775616565736996 0.0 0.0
1265.1375326200514 267.7232628106361 765.6314635567089 22.8082772962027 0.0 0.0
1206.5890926599118 241.0866272820113 723.0597491776019 23.526821729540654 0.0 0.0
1139.434595586153 208.28470447936692 673.1017686100306 24.128162167925705 0.0 0.0
1069.5258020478404 174.59699881034885 621.3010687762805 24.573982955664995 0.0 0.0
999.4396565397182 144.82894251696825 571.2825023173758 24.660213526128274 0.0 0.0
929.8898206715144 118.99295171609089 523.2560014304945 24.3768906721593 0.0 0.0
859.5474748536012 96.7701751675482 475.7540372032502 23.79887462988704 0.0 0.0
786.1286290010072 76.82227347506338 424.02784214118543 23.354480024790206 0.0 0.0
707.0565307555544 58.00562657068575 357.50383647591195 22.80590189948092 0.0 0.0
625.1786427686865 42.279115014630804 272.4599599982701 20.776453667810856 0.0 0.0
528.6164748189815 29.99094483167051 187.60549888850497 15.844765387325804 0.0 0.0
421.3600153892436 4.04734709884743 128.7660267381334 16.027384667308837 0.0 0.0
407.3572084929072 56.030679810968564 137.46885148841176 33.54916564243128 0.0 0.0
891.8100803882671 423.6598722553943 603.9488318804147 31.10453206499845 0.0 0.0
-1503.2900675177011 -2270.445213143008 -1777.4744690401662 22.92805406568935 0.0 0.0
-1250.3906130655264 -1983.017836584274 -1497.4974467082122 -61.26408382775699 0.0 0.0
699.2006765609452 333.10672446340084 459.74373914953554 -99.07897934914499 0.0 0.0
285.04491780765113 63.76943122838675 104.65006142611546 -35.94005960811733 0.0 0.0
361.21971981147817 0.40119696743406275 108.30077146471538 -37.20991993797442 0.0 0.0
483.4231806914159 20.892129290270617 160.9142135165173 -38.1749096620832 0.0 0.0
592.3284748310265 37.53250490055469 242.69130194444023 -40.10065259387787 0.0 0.0
677.930237447819 54.01835958994605 332.8263580918602 -42.62390150700772 0.0 0.0
757.901554284108 69.32419134915486 402.7450428130141 -43.712857765819074 0.0 0.0
829.1191273873507 86.25649309787723 454.28211001915065 -44.75866861959701 0.0 0.0
895.8429192899926 104.56495044514526 498.5918057565176 -45.700310284565084 0.0 0.0
961.6549017213151 127.02215359445486 543.1595693471907 -45.89261051215814 0.0 0.0
1028.1305784072288 154.40329549815928 590.1901612388463 -45.28333131066973 0.0 0.0
1095.1362318155113 184.73486323924635 638.875285943612 -44.319775167307 0.0 0.0
1158.437941744968 214.9258211460402 685.6289958547202 -43.133388007302536 0.0 0.0
1214.4762951791663 239.52379202615924 725.9310329686815 -41.709750542253474 0.0 0.0
1258.623730355203 254.6202492942204 755.5214859979376 -39.78688974418554 0.0 0.0
1288.4758867549967 258.1037654320971 772.1721034259465 -36.993686307845095 0.0 0.0
1301.1839575073018 247.77166185027957 773.4087884916038 -33.332423928522715 0.0 0.0
1286.999061726634 214.9596694424364 750.1686631193602 -29.41354382786764 0.0 0.0
1254.368765420757 169.6725953969691 711.5699557067109 -25.90753727174066 0.0 0.0
1138.5406739207774 53.2437002814512 596.8576657302793 1.8924417588550568e-10 0.0 0.0
1254.3687654210485 169.6725953972403 711.5699557069481 25.90753727174072 0.0 0.0
1286.9990617253777 214.95966944126002 750.1686631184792 29.413543827865723 0.0 0.0
1301.1839575068109 247.7716618498693 773.4087884912884 33.332423928619704 0.0 0.0
1288.475886755757 258.1037654329841 772.1721034264615 36.993686307927675 0.0 0.0
1258.6237303538455 254.6202492929658 755.5214859971002 39.786889744184975 0.0 0.0
1214.4762951786886 239.52379202584285 725.9310329682735 41.70975054226302 0.0 0.0
1158.4379417439106 214.92582114513348 685.6289958539694 43.133388007360324 0.0 0.0
1095.136231815134 184.7348632390649 638.8752859433797 44.31977516720977 0.0 0.0
1028.1305784052724 154.40329549637053 590.1901612375901 45.283331310543545 0.0 0.0
961.6549017204085 127.02215359379443 543.1595693466721 45.892610512210695 0.0 0.0
895.8429192897985 104.5649504451616 498.59180575641966 45.70031028445443 0.0 0.0
829.1191273870566 86.25649309784689 454.28211001891714 44.75866861961627 0.0 0.0
757.9015542834322 69.32419134876093 402.7450428125346 43.7128577658088 0.0 0.0
677.930237447753 54.0183595902142 332.82635809165765 42.62390150702534 0.0 0.0
592.3284748307779 37.53250490066959 242.69130194414308 40.10065259391328 0.0 0.0
483.4231806909274 20.892129290036493 160.91421351624436 38.174909662059065 0.0 0.0
361.21971981134436 0.4011969675592775 108.30077146472907 37.20991993786488 0.0 0.0
285.04491780752403 63.7694312280568 104.6500614259786 35.94005960812193 0.0 0.0
699.2006765603841 333.106724463123 459.743739148965 99.07897934912198 0.0 0.0
-1250.3906130635037 -1983.0178365822187 -1497.4974467060913 61.26408382738383 0.0 0.0
-1018.606355286582 -1720.6269027796825 -1243.4477159450544 -74.76117746774699 0.0 0.0
531.6269611759 237.30269681875723 335.0061478615743 -145.03785497285176 0.0 0.0
207.9899877573477 56.15831634615315 79.24449123105026 -57.98356207112138 0.0 0.0
300.51601925106513 5.920806671621548 91.88557214136519 -58.60358769103511 0.0 0.0
428.3715207128959 11.09684668437533 134.49999270744615 -62.73253690736391 0.0 0.0
546.4680617330567 31.429224066196227 209.157995444591 -60.92873497848333 0.0 0.0
645.999428585672 47.89505801296909 302.4635068603839 -63.8135785810071 0.0 0.0
724.729364915798 62.00382702448773 377.30251632806426 -64.35470063539385 0.0 0.0
794.6431795123226 75.9260255280549 430.16537148908424 -65.45048862000016 0.0 0.0
858.1368084935478 90.71912849689598 472.1555733494379 -66.36549746512588 0.0 0.0
919.9043047480765 109.5528825913699 513.1010402962285 -66.24314134073084 0.0 0.0
982.9099903279806 133.44432698624013 556.6816860394276 -65.20357073816999 0.0 0.0
1046.2644939430568 161.53297882729572 602.4472402008848 -63.712622894205595 0.0 0.0
1106.3449353041512 187.95379347438444 645.7278929922354 -62.09078558494045 0.0 0.0
1159.428032148871 210.33915210707596 683.4534470189283 -60.044081278037716 0.0 0.0
1203.2838900852842 225.73817798057053 713.0510041316343 -57.299657252597704 0.0 0.0
1234.2471228080606 230.19377514318188 730.7525211356877 -53.632789359717265 0.0 0.0
1246.7991794670643 219.46750766405188 731.7723992212491 -49.00992350427568 0.0 0.0
1237.4076013494998 191.12015020176358 713.1333251599293 -43.41654632768728 0.0 0.0
1216.9925148401387 157.37643848618382 686.2577160151166 -35.69655863553888 0.0 0.0
1053.9834404897135 -5.99182029512194 525.2680477695335 1.1867484772665193e-10 0.0 0.0
1216.9925148402108 157.37643848627846 686.2577160152853 35.696558635542786 0.0 0.0
1237.4076013496187 191.12015020195324 713.1333251600863 43.41654632773066 0.0 0.0
1246.7991794666316 219.46750766371656 731.7723992209839 49.009923504397264 0.0 0.0
1234.247122808236 230.1937751434044 730.7525211357201 53.63278935963733 0.0 0.0
1203.283890084147 225.73817797957616 713.0510041309038 57.29965725254352 0.0 0.0
1159.4280321486747 210.33915210698967 683.4534470187284 60.04408127800381 0.0 0.0
1106.344935304388 187.95379347482765 645.7278929924687 62.09078558495471 0.0 0.0
1046.2644939425375 161.53297882689196 602.4472402005166 63.71262289409575 0.0 0.0
982.9099903275202 133.4443269859966 556.6816860391275 65.20357073806429 0.0 0.0
919.9043047480285 109.55288259152158 513.1010402961888 66.24314134069772 0.0 0.0
858.1368084931725 90.71912849675876 472.1555733491731 66.36549746501166 0.0 0.0
794.6431795115515 75.9260255275081 430.1653714885577 65.45048861991148 0.0 0.0
724.7293649155806 62.00382702456379 377.3025163278283 64.35470063534804 0.0 0.0
645.9994285849215 47.89505801251799 302.46350685977166 63.81357858104617 0.0 0.0
546.4680617328172 31.42922406633442 209.15799544435225 60.92873497845105 0.0 0.0
428.37152071259476 11.096846684566376 134.4999927074034 62.73253690731175 0.0 0.0
300.51601925103995 5.920806671603035 91.88557214134772 58.60358769096674 0.0 0.0
207.9899877573364 56.158316346036514 79.24449123101185 57.98356207106764 0.0 0.0
531.6269611753377 237.30269681849398 335.00614786104967 145.03785497271002 0.0 0.0
-1018.6063552848246 -1720.6269027778299 -1243.4477159431458 74.76117746753151 0.0 0.0
-817.7738432632256 -1492.6872326812759 -1020.5038972121991 -73.91992406742511 0.0 0.0
407.97554394625325 154.07986663398037 238.34148122058562 -176.2608054712458 0.0 0.0
152.9195752168032 45.09541718433445 59.4044977203413 -87.85410806697115 0.0 0.0
245.96268036849006 12.105522597349834 77.42308423533458 -81.75343991586847 0.0 0.0
364.24623220532897 6.6004749341376945 111.22105076977829 -87.5875766284591 0.0 0.0
492.5553283852527 19.32711965704117 172.61933759978945 -86.5345049879418 0.0 0.0
601.9902609635708 40.33637138584055 264.5685130736798 -85.18774388885748 0.0 0.0
685.7160886763402 55.56350326204875 347.1298704933761 -85.39233362758917 0.0 0.0
755.3129222704764 66.132974119365 402.6292300541007 -85.85111638495516 0.0 0.0
815.8176268660393 77.23378530377539 443.13875817061273 -86.33046133133428 0.0 0.0
874.0550911438389 92.22033314400639 480.83658807205404 -85.75672386966949 0.0 0.0
933.0495209703433 112.48616389189449 520.6968175045752 -84.24275907501688 0.0 0.0
992.8510091399119 136.85317392876343 562.8494038884294 -82.41233778525933 0.0 0.0
1049.4172696110095 161.4259130166795 603.4963061524136 -80.33458753574648 0.0 0.0
1100.011524979578 181.24500186051816 638.7225477099564 -77.74062499987689 0.0 0.0
1142.5377297450018 195.0340966983762 666.8438341013169 -74.38663125241273 0.0 0.0
1174.7886822472317 201.16110202999337 686.033079198434 -70.113313532255 0.0 0.0
1191.5755600206594 194.37744560542177 691.1389182976682 -64.79375457050712 0.0 0.0
1188.7692872516132 171.80751966764342 678.65213715977 -57.3989968256231 0.0 0.0
1174.0264909933624 142.24134155047602 656.6462708805473 -45.775344161192464 0.0 0.0
952.698569469944 -79.16090567279373 438.5749047185394 1.0811262995957804e-10 0.0 0.0
1174.026490993496 142.2413415506208 656.646270880776 45.775344161278554 0.0 0.0
1188.7692872515786 171.80751966769049 678.6521371597627 57.39899682570666 0.0 0.0
1191.5755600198725 194.3774456047047 691.1389182971789 64.7937545705964 0.0 0.0
1174.788682247595 201.16110203050738 686.0330791985688 70.1133135323609 0.0 0.0
1142.5377297449143 195.03409669843907 666.8438341013253 74.38663125247948 0.0 0.0
1100.0115249801454 181.24500186125476 638.7225477103063 77.74062499990933 0.0 0.0
1049.4172696109927 161.42591301680704 603.4963061524005 80.3345875357739 0.0 0.0
992.8510091388852 136.85317392787908 562.8494038877349 82.41233778517193 0.0 0.0
933.0495209706235 112.4861638924329 520.6968175047435 84.24275907511422 0.0 0.0
874.0550911432011 92.22033314353473 480.83658807161606 85.75672386959269 0.0 0.0
815.8176268662372 77.23378530434732 443.13875817077144 86.33046133150286 0.0 0.0
755.3129222703104 66.13297411945982 402.6292300539393 85.85111638493939 0.0 0.0
685.7160886762604 55.56350326230961 347.1298704931899 85.39233362757012 0.0 0.0
601.9902609624894 40.3363713849512 264.568513072855 85.18774388876744 0.0 0.0
492.55532838497425 19.327119657124346 172.61933759957782 86.5345049878811 0.0 0.0
364.24623220510216 6.600474934348156 111.22105076978612 87.58757662838525 0.0 0.0
245.96268036847422 12.105522597315119 77.42308423531615 81.75343991575942 0.0 0.0
152.91957521681348 45.09541718432156 59.40449772034052 87.85410806678037 0.0 0.0
407.9755439456943 154.0798666337223 238.34148122011595 176.26080547108498 0.0 0.0
-817.7738432618188 -1492.6872326796704 -1020.5038972105428 73.9199240673165 0.0 0.0
-641.4828457994745 -1291.0356269458434 -822.6195813060992 -71.1124900653057 0.0 0.0
310.7392866034946 89.64993615898297 164.41437625942154 -194.1446060231116 0.0 0.0
110.86902104049096 31.704053863882198 42.77192247131194 -116.26352129344018 0.0 0.0
196.23138671462246 17.218933941004646 64.03700421968989 -105.2063943510583 0.0 0.0
297.8747226544055 5.107797932290065 90.41532100325166 -111.61144576263877 0.0 0.0
423.65253796863277 9.909853283201471 137.76346289891052 -112.59194155501685 0.0 0.0
540.7874800152566 32.07925254610261 220.58243126512605 -108.06706039391187 0.0 0.0
639.2415660161344 46.23791661531982 308.03743794208503 -107.59982081794463 0.0 0.0
708.0378231287523 56.94917426015837 369.5784200948679 -105.85107525920492 0.0 0.0
768.0927054206105 63.92069188014039 410.5774852432944 -105.62406920862577 0.0 0.0
822.8239539211173 75.01595305027632 445.53413238401396 -104.42067130598241 0.0 0.0
877.8721436099602 91.57735078287732 481.79003230440827 -102.38066541858126 0.0 0.0
933.7333726169983 112.71835772832046 520.4176056818596 -100.1829302508663 0.0 0.0
986.6911753741325 133.50477819704554 557.4184149022083 -97.8606267034357 0.0 0.0
1034.5292432055892 151.40762580508644 590.3518560502863 -94.86506472027268 0.0 0.0
1075.609286108124 164.3993105608725 617.3922070783271 -90.88604448937934 0.0 0.0
1109.1979191240964 170.9680320652659 637.4383395323991 -86.25197401736271 0.0 0.0
1132.354340868269 170.30751838771343 648.737696333605 -80.53450690004237 0.0 0.0
1137.8486801979823 155.1822229387618 644.1225297584906 -71.75658126716434 0.0 0.0
1126.5212052061831 126.70184912354604 624.3786127135152 -56.841678265227365 0.0 0.0
835.7105568923246 -163.57422866650512 338.65619294030967 9.165290748569532e-11 0.0 0.0
1126.521205206276 126.70184912373695 624.3786127137315 56.84167826548776 0.0 0.0
1137.8486801979777 155.18222293883423 644.1225297585302 71.75658126733848 0.0 0.0
1132.3543408680655 170.30751838764238 648.7376963335404 80.53450690016342 0.0 0.0
1109.1979191240268 170.96803206532783 637.4383395323584 86.25197401757583 0.0 0.0
1075.60928610843 164.3993105613157 617.3922070786689 90.88604448942169 0.0 0.0
1034.529243205677 151.40762580530048 590.3518560503486 94.86506472028952 0.0 0.0
986.691175373177 133.5047781962307 557.4184149015086 97.86062670339402 0.0 0.0
933.7333726163049 112.71835772779147 520.4176056813606 100.1829302509332 0.0 0.0
877.8721436096133 91.57735078270571 481.79003230418 102.38066541852878 0.0 0.0
822.8239539197493 75.01595304908835 445.5341323830419 104.42067130588096 0.0 0.0
768.0927054202842 63.92069188012631 410.5774852431385 105.62406920876292 0.0 0.0
708.0378231288818 56.9491742606226 369.5784200948702 105.85107525926547 0.0 0.0
639.2415660159977 46.23791661549534 308.0374379418628 107.59982081791274 0.0 0.0
540.7874800147571 32.07925254590493 220.58243126466928 108.06706039377033 0.0 0.0
423.6525379683203 9.909853283295899 137.76346289875772 112.59194155495099 0.0 0.0
297.874722653983 5.107797932053549 90.41532100308255 111.61144576244155 0.0 0.0
196.2313867145752 17.218933941001044 64.03700421967478 105.20639435081188 0.0 0.0
110.86902104046149 31.70405386390482 42.77192247130989 116.26352129318275 0.0 0.0
310.73928660298475 89.64993615875777 164.41437625903663 194.14460602293877 0.0 0.0
-641.482845798171 -1291.0356269443146 -822.6195813046006 71.11249006526478 0.0 0.0
-489.6004668206602 -1106.5660932937596 -647.4628973134286 -68.96800470922776 0.0 0.0
233.97845540673183 38.6114255330338 108.06196154794954 -204.91176441719523 0.0 0.0
76.76385392532688 18.4797626375247 28.572989734416144 -139.74561675052445 0.0 0.0
149.45192834394825 20.56022869700104 51.004716268247705 -127.05629023051456 0.0 0.0
232.9663839151641 6.2613895533142445 71.61376491706564 -132.69990536826273 0.0 0.0
345.1365715575945 1.2511932197493372 104.96546465382292 -140.38526687198038 0.0 0.0
466.5132326261205 18.776492662153654 171.6440364551941 -134.7320812051222 0.0 0.0
572.4601046596596 37.929477748292435 258.40334935808784 -129.48496240917174 0.0 0.0
654.0421701525817 44.59219149492766 327.3689418014474 -127.59913018887072 0.0 0.0
711.3819965046581 50.89865342890936 371.87654844909844 -124.08813455449976 0.0 0.0
764.7979492091195 58.00705708742029 405.9548862906534 -122.15696033196892 0.0 0.0
815.9663520804945 70.63358718254668 438.8934725699489 -119.60487953573016 0.0 0.0
867.5040381647866 88.05110449161016 473.67755926203614 -117.05800384696929 0.0 0.0
916.5244913415002 105.85444975995212 507.30450404091266 -114.49712525081405 0.0 0.0
961.1175764879326 121.14712350927978 537.3900522328331 -111.31086367748637 0.0 0.0
1000.1876591589348 131.4628642176084 562.1345114315769 -107.11633150310023 0.0 0.0
1034.717025499578 140.25202103752696 583.7478082531486 -101.78359482928394 0.0 0.0
1066.0545857370785 146.64253890133185 602.5581036876929 -95.95979558133023 0.0 0.0
1082.1405274026042 140.16963971691268 607.5346612093676 -86.83788880383601 0.0 0.0
1074.6684501121426 112.77941414714114 590.3714194103958 -69.64635564175536 0.0 0.0
701.0526080055457 -258.7938768020472 224.82824998453376 3.036682016954728e-11 0.0 0.0
1074.6684501129644 112.77941414810272 590.3714194110853 69.64635564206418 0.0 0.0
1082.1405274030785 140.16963971750263 607.5346612097431 86.8378888040346 0.0 0.0
1066.0545857365703 146.64253890088503 602.5581036873663 95.95979558141542 0.0 0.0
1034.717025499051 140.25202103712428 583.7478082528015 101.78359482932184 0.0 0.0
1000.18765915834 131.46286421708353 562.1345114311756 107.11633150308263 0.0 0.0
961.1175764878433 121.14712350938493 537.3900522328059 111.3108636775867 0.0 0.0
916.5244913402524 105.85444975866007 507.3045040400424 114.49712525056434 0.0 0.0
867.5040381646338 88.05110449173645 473.6775592619367 117.05800384710186 0.0 0.0
815.9663520798744 70.63358718210338 438.8934725695656 119.60487953575104 0.0 0.0
764.7979492086959 58.00705708723215 405.9548862903091 122.15696033198992 0.0 0.0
711.3819965038992 50.89865342837922 371.87654844863494 124.08813455445309 0.0 0.0
654.0421701526445 44.59219149541933 327.3689418014034 127.59913018896589 0.0 0.0
572.4601046589025 37.929477747810346 258.40334935749325 129.48496240911962 0.0 0.0
466.5132326257053 18.776492662107454 171.64403645487798 134.73208120509744 0.0 0.0
345.13657155703896 1.2511932194728037 104.96546465356948 140.38526687185418 0.0 0.0
232.9663839148533 6.261389552996392 71.61376491687604 132.6999053679707 0.0 0.0
149.45192834379276 20.56022869681733 51.00471626814558 127.05629023029267 0.0 0.0
76.7638539253605 18.479762637702297 28.57298973447963 139.7456167503156 0.0 0.0
233.97845540625545 38.61142553276287 108.06196154760768 204.91176441702703 0.0 0.0
-489.6004668196614 -1106.5660932924466 -647.4628973121809 68.9680047092535 0.0 0.0
-355.8530720689879 -946.6653573480679 -493.45784761590244 -75.67834218705869 0.0 0.0
168.60776860137526 0.060367441070500405 64.26758848949287 -207.1949497002733 0.0 0.0
47.457006637214334 7.608936061900175 16.51959922319528 -157.61783713901235 0.0 0.0
104.2418317522714 21.927298279203207 37.85193192794287 -145.91792914981198 0.0 0.0
170.854609365538 8.614521673205541 53.747075096534914 -151.06423179936354 0.0 0.0
257.8597073513557 -1.2978788991809593 76.40887460456271 -163.82090457750854 0.0 0.0
372.45667822706423 5.58538560879496 122.48364573245955 -163.2929983844313 0.0 0.0
485.32795662313487 24.006061083277377 196.8142263141564 -153.3254102843884 0.0 0.0
577.7832119472691 34.18896871737573 271.04648872649767 -147.750216123536 0.0 0.0
643.8368689601429 35.0230586618179 321.77931698700166 -143.4656821978168 0.0 0.0
695.2750581966884 40.233060256213335 357.7275534400718 -138.8849176346837 0.0 0.0
743.425105695515 49.82248402926056 389.1882537927843 -135.6698133034876 0.0 0.0
790.9970202694417 63.487196724296396 420.6524841164118 -132.79180566395706 0.0 0.0
835.1301246367019 77.42262943308052 450.1398909964289 -130.0641775954681 0.0 0.0
876.3727860357507 89.92255201608981 477.25144698068067 -126.98233752489104 0.0 0.0
913.0483891549069 99.20126499032278 500.41879160714575 -122.75734255837082 0.0 0.0
947.0548872155024 106.03131678123313 520.8973991795748 -117.02859588784855 0.0 0.0
985.4294503559323 119.18645676762407 546.4044417691653 -110.73676405014545 0.0 0.0
1017.2042844044947 127.64707436058902 566.5955219123296 -102.40104199106354 0.0 0.0
1018.228431405191 104.73270515259728 556.203274808538 -85.11340563651609 0.0 0.0
542.995627063035 -364.6522271320149 94.49770510884272 8.706635412636388e-11 0.0 0.0
1018.2284314062126 104.73270515383828 556.2032748093512 85.11340563680923 0.0 0.0
1017.2042844047007 127.64707436089361 566.595521912498 102.40104199131235 0.0 0.0
985.4294503550863 119.18645676689961 546.4044417685942 110.73676405029408 0.0 0.0
947.0548872145451 106.03131678023527 520.8973991788272 117.02859588783843 0.0 0.0
913.0483891543554 99.20126498991915 500.4187916068067 122.75734255834124 0.0 0.0
876.3727860355178 89.92255201598485 477.25144698051645 126.98233752501746 0.0 0.0
835.1301246365641 77.42262943317394 450.1398909963352 130.0641775954339 0.0 0.0
790.9970202695874 63.48719672474522 420.6524841165298 132.79180566417767 0.0 0.0
743.4251056951736 49.822484029170326 389.188253792571 135.6698133035665 0.0 0.0
695.2750581957793 40.233060255416035 357.7275534394668 138.88491763468113 0.0 0.0
643.8368689601327 35.0230586621272 321.77931698699047 143.46568219778655 0.0 0.0
577.783211947072 34.18896871750684 271.0464887262891 147.75021612357108 0.0 0.0
485.3279566224901 24.00606108294499 196.81422631366382 153.32541028429836 0.0 0.0
372.45667822666627 5.585385608825638 122.48364573225231 163.29299838446204 0.0 0.0
257.8597073509753 -1.297878898998082 76.40887460453192 163.8209045773228 0.0 0.0
170.8546093654347 8.614521673201978 53.747075096501334 151.06423179917414 0.0 0.0
104.24183175221697 21.92729827913821 37.85193192790768 145.91792914969727 0.0 0.0
47.45700663719489 7.608936062041684 16.51959922323182 157.61783713885478 0.0 0.0
168.60776860091661 0.06036744076612166 64.26758848919125 207.19494970013048 0.0 0.0
-355.8530720680692 -946.6653573468384 -493.45784761481826 75.67834218708752 0.0 0.0
-254.41161192799865 -792.3012205558141 -369.3396830956439 -83.01111859480193 0.0 0.0
112.47968035827473 -31.18548441067712 30.90775087926401 -203.13609302691 0.0 0.0
20.030959099206726 0.2564304713904078 6.087911360001172 -170.32237977848132 0.0 0.0
60.19081819976209 21.758326263332236 24.58363470447805 -160.96439914069154 0.0 0.0
108.8404399006318 11.61279037841099 36.07521781101818 -165.55491688026706 0.0 0.0
169.25573461783029 0.6986292669222414 50.73764215422276 -180.4483252292423 0.0 0.0
257.6073991691891 -3.2386978149470105 77.16772128247774 -192.28480293710427 0.0 0.0
368.7359070806699 4.714890461588333 126.59086895487663 -183.5319505132229 0.0 0.0
471.1475058055162 16.518766614558853 192.5910637885203 -168.79732128628092 0.0 0.0
547.4846457575236 19.04116690314858 249.12110990117225 -160.30162589863747 0.0 0.0
603.3848337020228 21.828085860957984 290.83359264429293 -153.87705034128138 0.0 0.0
650.2688770162126 27.70065008283813 323.1042932693041 -150.06624420636751 0.0 0.0
694.2297630358246 38.531513515720015 353.2311595982865 -146.97178028010174 0.0 0.0
733.3771093977998 48.63674555142555 379.23458745193756 -144.13941228409843 0.0 0.0
770.0515536285104 58.1848499791824 403.0420074938432 -141.42337668427479 0.0 0.0
804.7978914712198 66.27626955535301 424.9439964567055 -137.84601350568315 0.0 0.0
838.4077036924176 72.83698113427255 445.55242717015904 -132.16624828369797 0.0 0.0
877.2337999116002 84.90314003272613 470.95987746555744 -124.76383436060073 0.0 0.0
927.5238268278397 109.00057549992424 507.74348900641934 -117.67113686526874 0.0 0.0
953.8291888817969 106.5700988207926 520.7937881318436 -104.73265364476836 0.0 0.0
352.7355722216734 -477.28138156467617 -54.373846092357795 7.149125735850248e-11 0.0 0.0
953.8291888826201 106.57009882179554 520.7937881326126 104.73265364495309 0.0 0.0
927.5238268263482 109.00057549834676 507.74348900541395 117.6711368654842 0.0 0.0
877.2337999114886 84.9031400327903 470.9598774654893 124.76383436068993 0.0 0.0
838.4077036914481 72.83698113329778 445.55242716943076 132.16624828369942 0.0 0.0
804.7978914712681 66.27626955566161 424.9439964568396 137.84601350576048 0.0 0.0
770.0515536269052 58.184849977404376 403.0420074927037 141.4233766842097 0.0 0.0
733.3771093978505 48.63674555175028 379.2345874520119 144.13941228427788 0.0 0.0
694.229763036106 38.53151351627449 353.23115959844137 146.97178028025868 0.0 0.0
650.2688770163184 27.700650083168085 323.1042932693899 150.06624420635956 0.0 0.0
603.384833700964 21.828085859915056 290.83359264352464 153.87705034114254 0.0 0.0
547.4846457577368 19.041166903753357 249.1211099012751 160.30162589861945 0.0 0.0
471.14750580480205 16.518766614068497 192.59106378802755 168.7973212862817 0.0 0.0
368.73590708034607 4.714890461651537 126.59086895468721 183.53195051322655 0.0 0.0
257.6073991687911 -3.2386978148985093 77.16772128236974 192.28480293696867 0.0 0.0
169.25573461792095 0.6986292675827246 50.737642154457035 180.4483252289782 0.0 0.0
108.84043990052699 11.612790378312972 36.075217810961405 165.55491687999213 0.0 0.0
60.1908181997061 21.75832626337097 24.583634704471663 160.96439914051064 0.0 0.0
20.03095909908069 0.25643047139681263 6.087911359964556 170.32237977832892 0.0 0.0
112.47968035785024 -31.18548441089218 30.907750879029983 203.13609302682121 0.0 0.0
-254.41161192731744 -792.3012205547632 -369.3396830948306 83.01111859483356 0.0 0.0
-174.2032650089621 -657.3966181466335 -270.4681097309522 -98.11366778189316 0.0 0.0
61.86618244441683 -54.76395178902253 4.68435714442416 -193.04917595505245 0.0 0.0
-6.4407915367815525 -3.1381700077365853 -2.874108117994358 -178.14141946535776 0.0 0.0
16.996787262603124 20.551607120934676 11.263636379322762 -171.65888994154403 0.0 0.0
46.82384804876331 14.386871428547508 18.3441779751454 -175.75996666085683 0.0 0.0
81.75445077316886 4.007717905534038 25.607166108110526 -192.09863458842236 0.0 0.0
128.73070613305498 -1.5843934581364074 38.09684727735803 -208.44359958802605 0.0 0.0
202.35751075059105 -5.166255711702495 59.88659501949456 -212.8735976340727 0.0 0.0
299.231198873354 -11.542553306319308 91.75260713727917 -201.22985713129043 0.0 0.0
389.3947107036573 -17.210125587881464 128.76245689567608 -181.76190281466194 0.0 0.0
451.80341790339327 -11.974903319926938 166.53147068346433 -167.8884921446186 0.0 0.0
497.1186273403063 -0.33196098724660317 200.0650833302656 -160.94038899764143 0.0 0.0
536.6644584597864 9.995063027722793 230.0427976359811 -158.92364509109413 0.0 0.0
570.9932030800644 18.430303025613874 255.92000717802756 -157.7975605898052 0.0 0.0
602.6134014742969 26.403023679250296 279.7622666084837 -157.03091481284693 0.0 0.0
634.673251020061 33.98348714569585 303.4186334725167 -155.90819930463863 0.0 0.0
669.6092477469822 40.62951288098158 328.211587044508 -151.70236293707964 0.0 0.0
708.0252913684176 46.07124878793817 353.86657067123076 -143.38611033009502 0.0 0.0
762.8085010488627 65.18219027577584 391.2505555257231 -134.47049847184195 0.0 0.0
845.1807722273513 108.84569133502343 456.6208076404209 -130.57032199028308 0.0 0.0
97.1359880074766 -592.3236469239541 -233.98960356114736 -2.0172308268229244e-11 0.0 0.0
845.1807722269593 108.84569133466798 456.6208076403002 130.5703219903655 0.0 0.0
762.8085010481929 65.18219027525114 391.2505555252271 134.470498472074 0.0 0.0
708.0252913684753 46.07124878826843 353.86657067136434 143.38611033052763 0.0 0.0
669.6092477468819 40.62951288100358 328.2115870444161 151.70236293718992 0.0 0.0
634.6732510198899 33.983487145467805 303.4186334724115 155.90819930456465 0.0 0.0
602.61340147424 26.403023679238824 279.76226660837096 157.03091481266637 0.0 0.0
570.9932030791349 18.430303024590657 255.92000717731906 157.79756058982173 0.0 0.0
536.664458460283 9.995063028712014 230.04279763638547 158.9236450913111 0.0 0.0
497.1186273403888 -0.33196098703666976 200.06508333027995 160.9403889976808 0.0 0.0
451.80341790236315 -11.974903321394969 166.5314706827457 167.88849214446935 0.0 0.0
389.39471070375055 -17.210125587358846 128.76245689579596 181.7619028146052 0.0 0.0
299.23119887259077 -11.542553307049914 91.75260713680896 201.22985713130782 0.0 0.0
202.35751075027972 -5.166255711764347 59.886595019374006 212.8735976339981 0.0 0.0
128.7307061331121 -1.5843934576158611 38.09684727752968 208.4435995878888 0.0 0.0
81.75445077306196 4.007717905583754 25.60716610809776 192.09863458819936 0.0 0.0
46.82384804871247 14.38687142851644 18.34417797512235 175.75996666068667 0.0 0.0
16.99678726276442 20.551607121257494 11.263636379468128 171.65888994133869 0.0 0.0
-6.440791536813743 -3.1381700077688115 -2.8741081180154335 178.1414194651645 0.0 0.0
61.8661824440612 -54.763951789169596 4.684357144252094 193.0491759548555 0.0 0.0
-174.20326500864738 -657.3966181458185 -270.4681097304601 98.11366778206119 0.0 0.0
-125.64750270936452 -532.613033619826 -201.52066391196036 -109.55831932196145 0.0 0.0
17.335234691196288 -70.06632834145537 -15.255176924772485 -177.52262072004305 0.0 0.0
-31.504982233777774 -4.049727424448236 -10.661131374622718 -181.8841411209492 0.0 0.0
-25.23971573004381 18.991897171397184 -1.8754359484556034 -177.93805532843345 0.0 0.0
-14.418124168500443 16.69921484394105 0.6850199596909889 -181.33759824670935 0.0 0.0
-6.567064047255609 7.706628802994032 0.3473207336155708 -196.37757711970363 0.0 0.0
-2.710586212002891 1.4140353350480372 -0.39392707709129837 -213.79229787324388 0.0 0.0
-0.7915173756109724 0.10884794291901301 -0.21208237839285182 -217.97897660701423 0.0 0.0
-0.16102663827984998 -0.04034570112242264 -0.06265663317188697 -209.92413599569844 0.0 0.0
0.07981657618222471 0.00041327758029297 0.03142409946210023 -202.07085076688836 0.0 0.0
-0.1905166891684189 -0.07231982186614871 -0.1337580813043644 -200.90259729765265 0.0 0.0
-0.7436025297883475 0.19273473455856305 0.15805510264452494 -194.9756440774188 0.0 0.0
-1.9893915514274454 0.6701050235163066 0.249674059300105 -185.27173707526805 0.0 0.0
-1.424166020662284 1.6694356410514288 0.6943948598520109 -177.5615357056847 0.0 0.0
4.618261262132364 4.685826019225878 1.732064244326338 -172.12304278310702 0.0 0.0
23.737538200063454 10.742952799645138 4.773359909542961 -167.44840751759935 0.0 0.0
66.64785640200861 21.919585799270983 12.176291464571023 -162.2623808258344 0.0 0.0
150.6644473782191 29.702452139440396 16.48374165481013 -153.4703437297749 0.0 0.0
361.68369503673205 -19.694234060655845 29.873642457331755 -146.96462722235998 0.0 0.0
563.5452120706914 12.359051247430145 215.31216255165242 -187.64676890312901 0.0 0.0
-531.4971134760635 -815.4032920781752 -596.278192900304 -1.7195134205394424e-12 0.0 0.0
563.5452120705096 12.359051247443517 215.31216255164398 187.64676890302064 0.0 0.0
361.68369503691446 -19.6942340612176 29.873642457100885 146.96462722304773 0.0 0.0
150.66444737906926 29.70245214117321 16.483741655836127 153.47034373022754 0.0 0.0
66.64785640155287 21.919585798732697 12.17629146415807 162.26238082607418 0.0 0.0
23.737538199969208 10.74295279947804 4.773359909437573 167.4484075175341 0.0 0.0
4.618261263224426 4.685826020445852 1.7320642451946355 172.1230427832462 0.0 0.0
-1.4241660204080517 1.6694356409707964 0.6943948599034258 177.5615357056099 0.0 0.0
-1.9893915506765012 0.6701050243488496 0.24967405977567125 185.2717370755223 0.0 0.0
-0.7436025296296194 0.19273473386218498 0.1580551024635426 194.97564407746165 0.0 0.0
-0.19051668918260845 -0.07231982303891371 -0.1337580816863877 200.90259729743167 0.0 0.0
0.07981657628181438 0.0004132771068618979 0.03142409934148205 202.0708507668219 0.0 0.0
-0.16102663843275877 -0.04034570191139064 -0.06265663345472738 209.92413599566993 0.0 0.0
-0.7915173753667695 0.10884794330402903 -0.21208237819644093 217.97897660698465 0.0 0.0
-2.7105862117680353 1.4140353353886612 -0.393927076917048 213.79229787314767 0.0 0.0
-6.56706404717152 7.70662880290071 0.347320733611558 196.37757711938482 0.0 0.0
-14.418124168367607 16.699214844145718 0.6850199597915436 181.337598246493 0.0 0.0
-25.239715730138116 18.991897171440375 -1.8754359484725547 177.9380553283382 0.0 0.0
-31.504982233858296 -4.049727424502004 -10.66113137466209 181.88414112086897 0.0 0.0
17.33523469109783 -70.06632834152609 -15.255176924827882 177.52262071979646 0.0 0.0
-125.64750270917968 -532.6130336190946 -201.5206639116659 109.55831932189301 0.0 0.0
-101.89809855857438 -419.47788660844196 -156.27923298899805 -110.07926726061731 0.0 0.0
-13.663734522475385 -79.16670030034031 -27.865732052168788 -164.29165749006572 0.0 0.0
-54.93462519799565 -4.522904860640114 -17.84122556088383 -181.5305242402768 0.0 0.0
-66.05231401367685 17.594457974043603 -14.537632911225296 -179.64067820183658 0.0 0.0
-74.52983638130661 18.257313660654592 -16.883692073863898 -181.63347802855026 0.0 0.0
-93.71670883448363 11.183886287049322 -24.710137462109323 -193.9610424347963 0.0 0.0
-134.00959399057984 4.6307370343829035 -38.729526882401544 -209.9096221691255 0.0 0.0
-203.6422389130027 5.290546662248602 -60.296321156596434 -213.1186163800203 0.0 0.0
-299.3318265946822 11.336754299619606 -91.88621285404474 -201.23867787221016 0.0 0.0
-389.2952823712602 17.217685325575488 -128.70995713343927 -181.73350350167834 0.0 0.0
-452.28006472418264 12.032673598166184 -166.57444112727774 -167.94317729712589 0.0 0.0
-497.58659153822293 0.30498411334102116 -200.72886015543799 -160.84453866816105 0.0 0.0
-537.8462751673478 -9.344484448716472 -231.11284807887193 -158.38467604931932 0.0 0.0
-571.143142906124 -15.146282844335659 -255.2322127304149 -156.98905618888205 0.0 0.0
-595.656579570024 -17.288298360140118 -271.2372442652838 -156.92529936749665 0.0 0.0
-609.2470906144754 -14.44706152338884 -276.2859909966675 -159.12425148548445 0.0 0.0
-609.9313447108075 -6.6343334006629675 -268.1750774076463 -163.8495746232857 0.0 0.0
-603.9342511040013 0.3211429582035379 -247.28765590619855 -173.75848268220494 0.0 0.0
-586.0996238311959 45.731126986045176 -191.29811518372034 -187.36413162281565 0.0 0.0
-323.92526670697805 133.45681677447362 -3.777143447160995 -141.55350811246697 0.0 0.0
-1080.0409900013583 -1059.5848511300062 -1084.0466949868687 -1.1603873417698196e-10 0.0 0.0
-323.9252667067454 133.45681677511584 -3.777143447048985 141.55350811300588 0.0 0.0
-586.0996238307781 45.731126985956124 -191.29811518340784 187.36413162294673 0.0 0.0
-603.9342511023735 0.32114296041250157 -247.2876559050368 173.75848268226275 0.0 0.0
-609.931344710471 -6.634333400477573 -268.1750774074052 163.84957462319207 0.0 0.0
-609.2470906153357 -14.447061524629163 -276.2859909973614 159.124251485714 0.0 0.0
-595.6565795688765 -17.28829835879955 -271.2372442643351 156.92529936733982 0.0 0.0
-571.1431429059202 -15.146282844310527 -255.23221273030953 156.9890561889348 0.0 0.0
-537.8462751670972 -9.344484448534946 -231.11284807867997 158.38467604924975 0.0 0.0
-497.586591538164 0.3049841129800406 -200.72886015530833 160.84453866823833 0.0 0.0
-452.2800647229485 12.032673599636137 -166.57444112637504 167.9431772969706 0.0 0.0
-389.2952823716063 17.217685324073194 -128.70995713387794 181.73350350178558 0.0 0.0
-299.33182659437324 11.336754299008362 -91.8862128540775 201.23867787234082 0.0 0.0
-203.6422389122 5.290546662826282 -60.29632115617192 213.11861638001872 0.0 0.0
-134.00959399043475 4.630737033908906 -38.72952688250601 209.9096221688917 0.0 0.0
-93.71670883451736 11.183886286631672 -24.710137462247957 193.96104243453573 0.0 0.0
-74.52983638116186 18.257313660728947 -16.883692073800823 181.63347802828827 0.0 0.0
-66.052314013794 17.594457973646794 -14.537632911383513 179.6406782016494 0.0 0.0
-54.93462519796869 -4.5229048604312805 -17.841225560816763 181.53052424019168 0.0 0.0
-13.663734522588854 -79.16670030044008 -27.865732052229816 164.29165748996877 0.0 0.0
-101.89809855854803 -419.4778866078512 -156.27923298886282 110.07926726039622 0.0 0.0
-84.42507304915671 -320.87523442923765 -121.59324986148665 -101.84522819144576 0.0 0.0
-33.8377524833981 -81.77685361961726 -34.68048402183228 -152.44678609712417 0.0 0.0
-76.77710909242603 -5.10616637891271 -24.557913141116693 -177.60068103771627 0.0 0.0
-104.93492549186118 16.216547705287972 -26.630913908752436 -176.52124305135024 0.0 0.0
-133.5639948984656 19.32299301079115 -34.188792687881765 -177.8698817065583 0.0 0.0
-179.77223482134826 14.474279808971186 -49.311343449106595 -186.72566483700572 0.0 0.0
-259.75965419179585 5.224517338662741 -77.75012052991462 -191.62609178654571 0.0 0.0
-368.99036679093365 -4.920052222712341 -126.90800503965787 -183.9342820419245 0.0 0.0
-471.185757762815 -16.74943826674621 -192.69263271204846 -168.87969706979587 0.0 0.0
-547.433909321069 -19.091941689689428 -249.12160767516247 -160.27108393415327 0.0 0.0
-603.3589297411891 -21.779461496265874 -290.8365366514907 -153.8254535344684 0.0 0.0
-650.5908567140156 -27.62887168378046 -323.3116661485047 -149.72273699490154 0.0 0.0
-694.8729301396213 -38.01124279660222 -353.45690592178414 -146.00832272366583 0.0 0.0
-732.7630878320439 -46.131350441141464 -377.9760236547868 -142.81227081036064 0.0 0.0
-762.7627435083359 -49.92619603592526 -395.66882729092714 -141.37172068874025 0.0 0.0
-781.055856154605 -46.60668245878708 -403.4950829849837 -142.45029367755072 0.0 0.0
-786.9365760593475 -37.13311547404439 -401.4904120039703 -146.41751395344065 0.0 0.0
-780.2095432114496 -23.96129474425757 -390.9903703984363 -153.30583883719208 0.0 0.0
-735.5153093596193 18.477001890726072 -348.1691871490058 -161.47688999109891 0.0 0.0
-641.49577090885 97.34574400795627 -265.1356868559762 -168.60967180687905 0.0 0.0
-1845.8179978231203 -1351.694568177841 -1560.7197139009547 3.6621372601075564e-11 0.0 0.0
-641.4957709080344 97.34574400881945 -265.1356868553778 168.6096718069058 0.0 0.0
-735.515309358467 18.477001891819 -348.1691871483352 161.47688999139592 0.0 0.0
-780.2095432098106 -23.96129474265787 -390.9903703972961 153.30583883713823 0.0 0.0
-786.9365760593344 -37.133115474072966 -401.49041200407476 146.41751395361078 0.0 0.0
-781.0558561546477 -46.60668245906749 -403.4950829850013 142.45029367749333 0.0 0.0
-762.7627435072883 -49.9261960349001 -395.66882729018005 141.37172068868188 0.0 0.0
-732.7630878317124 -46.13135044114644 -377.97602365463183 142.8122708105183 0.0 0.0
-694.87293013981 -38.01124279699998 -353.45690592194165 146.00832272367833 0.0 0.0
-650.5908567135206 -27.628871683403652 -323.31166614810036 149.7227369948599 0.0 0.0
-603.358929741084 -21.779461496296058 -290.8365366514324 153.82545353434523 0.0 0.0
-547.4339093207384 -19.09194168980744 -249.12160767488598 160.2710839340549 0.0 0.0
-471.1857577626107 -16.74943826718125 -192.69263271188336 168.87969706990452 0.0 0.0
-368.9903667903767 -4.920052222704509 -126.9080050393508 183.9342820420244 0.0 0.0
-259.7596541913176 5.224517338595869 -77.75012052977908 191.62609178646 0.0 0.0
-179.77223482096304 14.474279809110023 -49.311343448961466 186.72566483679554 0.0 0.0
-133.56399489812623 19.322993011108146 -34.188792687692064 177.869881706414 0.0 0.0
-104.93492549179628 16.216547705258318 -26.630913908746287 176.52124305107333 0.0 0.0
-76.77710909233714 -5.106166378780937 -24.55791314104993 177.6006810376672 0.0 0.0
-33.83775248339393 -81.77685361954 -34.68048402180814 152.44678609706597 0.0 0.0
-84.42507304910951 -320.8752344288716 -121.59324986136066 101.84522819134186 0.0 0.0
-68.42031661376126 -237.7421915137724 -91.84875243826008 -90.24261378275298 0.0 0.0
-48.571286276042926 -78.65851198009223 -38.169732750332294 -139.35896775119753 0.0 0.0
-96.87682623786705 -5.523079322055292 -30.71325929197375 -169.43204289679545 0.0 0.0
-142.2151960142938 14.86965644167646 -38.17011197764741 -169.62474347851236 0.0 0.0
-190.0868163149513 19.05773263359273 -51.22138757078138 -167.71983122074772 0.0 0.0
-262.0683270274642 13.628000947144526 -74.87959923383825 -168.4885581468818 0.0 0.0
-372.9674498934366 -2.8641560751597375 -122.23190045010487 -166.01314966370455 0.0 0.0
-485.5010544299689 -24.367780746546806 -196.98886277957808 -153.93991557640504 0.0 0.0
-577.7867003480135 -34.44283120340437 -271.1416013853032 -147.7843257111161 0.0 0.0
-643.7895149950829 -35.02293826763481 -321.787490333283 -143.46383911216242 0.0 0.0
-695.1223566131843 -40.06558293062114 -357.6011920076789 -138.82796018424094 0.0 0.0
-743.4284493827147 -49.54898044956472 -389.0933942589967 -135.28753539460678 0.0 0.0
-791.3007923684046 -62.98903770671956 -420.62521860695347 -131.6601950066082 0.0 0.0
-834.8574662997709 -75.77788301903782 -449.34287550142403 -128.33952503983056 0.0 0.0
-871.1172196315763 -83.85700373762121 -471.87922979441623 -126.55295352660903 0.0 0.0
-894.5023861714731 -83.41988440969911 -483.5641925943777 -127.7528560254948 0.0 0.0
-902.3956467305574 -72.29961550275507 -482.0413737544403 -132.43600302817458 0.0 0.0
-884.6059381831144 -42.63842113679638 -458.4522006622065 -138.8679904131847 0.0 0.0
-833.1551894994146 11.937757078870959 -406.28587823194636 -144.27466739217064 0.0 0.0
-694.5728741909932 138.8110441958376 -277.9456022644317 -147.80093075674313 0.0 0.0
-2291.184127322807 -1590.2717650306615 -1912.1929571785186 6.706102340103826e-11 0.0 0.0
-694.5728741908131 138.81104419589929 -277.9456022642837 147.8009307569728 0.0 0.0
-833.155189499233 11.93775707877873 -406.2858782318851 144.27466739253722 0.0 0.0
-884.6059381818798 -42.638421135546594 -458.452200661323 138.86799041327208 0.0 0.0
-902.395646731321 -72.29961550385673 -482.0413737549866 132.4360030284185 0.0 0.0
-894.5023861699883 -83.41988440816627 -483.56419259339793 127.75285602545645 0.0 0.0
-871.1172196314376 -83.8570037377027 -471.8792297942973 126.55295352664223 0.0 0.0
-834.857466298838 -75.77788301830557 -449.3428755008247 128.3395250399193 0.0 0.0
-791.3007923674647 -62.989037705899534 -420.6252186063467 131.66019500650566 0.0 0.0
-743.4284493819498 -49.548980448938565 -389.0933942584543 135.2875353945421 0.0 0.0
-695.1223566143273 -40.065582932195554 -357.6011920084753 138.82796018430824 0.0 0.0
-643.7895149946838 -35.02293826744226 -321.78749033295327 143.4638391120778 0.0 0.0
-577.7867003471674 -34.44283120283188 -271.1416013846213 147.784325710994 0.0 0.0
-485.5010544292251 -24.367780746268572 -196.98886277903776 153.93991557643474 0.0 0.0
-372.96744989305654 -2.864156075293741 -122.23190044991998 166.01314966371052 0.0 0.0
-262.06832702686927 13.628000947456943 -74.87959923358595 168.4885581466701 0.0 0.0
-190.08681631447507 19.057732634190675 -51.22138757046763 167.7198312205468 0.0 0.0
-142.21519601417538 14.869656441648784 -38.170111977623364 169.62474347830948 0.0 0.0
-96.87682623776098 -5.523079322041453 -30.713259291937998 169.4320428967094 0.0 0.0
-48.57128627599508 -78.65851197999874 -38.169732750289725 139.35896775114773 0.0 0.0
-68.42031661367808 -237.742191513471 -91.84875243814474 90.24261378261504 0.0 0.0
-55.654878734335675 -168.2668352190391 -67.1765141860124 -77.24607891041612 0.0 0.0
-59.91355728761481 -71.34514697173881 -39.377592816828795 -124.30373327231935 0.0 0.0
-115.7024489504428 -5.618566369298607 -36.39564156170537 -157.21808002113164 0.0 0.0
-177.36195309672007 12.929516727048043 -49.321962317032394 -157.76673356035644 0.0 0.0
-245.4507680482617 17.988761573418806 -67.92718480686386 -153.95140787353586 0.0 0.0
-344.5819514771543 9.861592663024766 -102.62092526907318 -147.6660644429617 0.0 0.0
-463.9778092010615 -17.421247120158046 -171.02243910096718 -135.60528074891832 0.0 0.0
-572.5932332034156 -38.54508673878068 -258.56374214901376 -129.80851649683547 0.0 0.0
-654.1263581980045 -44.83912925438183 -327.53934591336895 -127.61646192143229 0.0 0.0
-711.3113316848087 -50.840747154718855 -371.85331156611744 -124.09289598592517 0.0 0.0
-764.5397574399146 -57.691578547350744 -405.70159562230117 -122.10977726344305 0.0 0.0
-815.5295947365506 -70.01177889583337 -438.4009473215849 -119.22195301684975 0.0 0.0
-867.2264925112542 -87.27424533975856 -473.1861464067671 -115.9203889196887 0.0 0.0
-916.7294626801274 -105.15809616656414 -507.12304997350225 -112.6539273714999 0.0 0.0
-959.4746293461787 -118.86218986591234 -535.5749174871524 -110.56908528809721 0.0 0.0
-988.2966713913358 -121.20509030733987 -551.3626474675489 -111.5780363058186 0.0 0.0
-992.917009546908 -105.53032360001774 -546.0633529590845 -115.7580036744092 0.0 0.0
-963.8454980885987 -61.270154838139206 -509.69828681910667 -121.49067512551855 0.0 0.0
-886.2786425293555 22.442051196727363 -430.10949341499946 -125.36278078885677 0.0 0.0
-724.9012976667854 174.3625620073366 -276.22676570689174 -126.61350922195466 0.0 0.0
-2641.1404823780967 -1832.8673541087535 -2214.833381691638 1.0573231179478171e-10 0.0 0.0
-724.901297667524 174.362562006382 -276.2267657073769 126.61350922222002 0.0 0.0
-886.2786425294705 22.44205119645592 -430.10949341508154 125.36278078916985 0.0 0.0
-963.8454980881195 -61.270154837801584 -509.698286818827 121.4906751256307 0.0 0.0
-992.917009547351 -105.53032360064421 -546.0633529594186 115.75800367460747 0.0 0.0
-988.2966713912165 -121.2050903073051 -551.3626474674131 111.57803630586113 0.0 0.0
-959.4746293458664 -118.86218986574028 -535.5749174869682 110.56908528798381 0.0 0.0
-916.729462679029 -105.1580961656365 -507.123049972679 112.65392737155098 0.0 0.0
-867.2264925105752 -87.27424533920586 -473.18614640642045 115.92038891961826 0.0 0.0
-815.5295947364709 -70.01177889598021 -438.4009473215192 119.22195301690698 0.0 0.0
-764.5397574400653 -57.691578547786136 -405.7015956224299 122.10977726340764 0.0 0.0
-711.3113316845729 -50.840747154751924 -371.8533115659044 124.092895985816 0.0 0.0
-654.126358197339 -44.83912925403861 -327.5393459128845 127.61646192144147 0.0 0.0
-572.5932332026009 -38.54508673818652 -258.56374214833096 129.8085164967247 0.0 0.0
-463.9778092006313 -17.42124712013181 -171.0224391006184 135.60528074882876 0.0 0.0
-344.58195147684484 9.861592662824593 -102.6209252689969 147.66606444283704 0.0 0.0
-245.45076804805757 17.9887615731967 -67.92718480688883 153.95140787334847 0.0 0.0
-177.36195309659325 12.92951672704309 -49.321962317000725 157.76673356012827 0.0 0.0
-115.70244895035799 -5.61856636927835 -36.395641561672655 157.2180800210146 0.0 0.0
-59.9135572876034 -71.34514697173265 -39.37759281682355 124.30373327223167 0.0 0.0
-55.65487873429073 -168.26683521880616 -67.17651418592907 77.24607891023778 0.0 0.0
-46.363332148652916 -111.86914900472439 -47.46974434601319 -63.707765841328495 0.0 0.0
-68.8950814774636 -61.23449823858172 -39.038873914813585 -107.21760143790983 0.0 0.0
-133.44269603889867 -5.159300424762951 -41.58124422538572 -141.00959609340165 0.0 0.0
-210.68541930863694 10.861129178996716 -59.909296010628296 -141.92789308067714 0.0 0.0
-298.2703679814138 13.428749381543655 -85.50043763942008 -133.4037915803567 0.0 0.0
-418.9904310039974 0.31433411942188627 -134.07068966607036 -121.30269515912958 0.0 0.0
-539.2798911321897 -30.575227381699076 -219.44618588596282 -109.52234000657148 0.0 0.0
-639.6585109422365 -46.99713267122459 -308.40701933830917 -107.72067999869942 0.0 0.0
-708.0881469356528 -57.0592577615838 -369.6965575591738 -105.86502828933764 0.0 0.0
-767.9977377597885 -63.814776772947965 -410.5149282409992 -105.63841286876907 0.0 0.0
-822.4443623179043 -74.58345592373836 -445.16339771068704 -104.35794375582013 0.0 0.0
-876.9916009726805 -90.58347694366711 -480.8922711615071 -102.00119693163161 0.0 0.0
-932.6769239758199 -111.44108656484926 -519.2713121398251 -99.17087149040331 0.0 0.0
-987.0901735983698 -133.5174876868106 -557.6157016501735 -96.24440343447417 0.0 0.0
-1036.6605496715683 -153.17483251660312 -592.3525359556356 -93.98020695090248 0.0 0.0
-1070.2123410802913 -159.6378071454701 -612.6072269080232 -94.01772053292706 0.0 0.0
-1071.718588524007 -137.4377316905284 -602.5699187128142 -97.4670149904137 0.0 0.0
-1025.8759598294812 -75.10563331741696 -548.9268558091749 -102.42521453794019 0.0 0.0
-922.5051532768532 35.078919390366735 -443.0373395627484 -105.74366382595588 0.0 0.0
-747.6116987464344 200.84335654884046 -274.2555572673607 -108.91420056954956 0.0 0.0
-2942.133490288151 -2063.6274586337277 -2485.1114144979565 5.5784710184525466e-11 0.0 0.0
-747.611698747532 200.84335654764016 -274.25555726812973 108.9142005697434 0.0 0.0
-922.5051532769628 35.078919390105895 -443.0373395628869 105.74366382619995 0.0 0.0
-1025.8759598293882 -75.10563331736586 -548.9268558091597 102.42521453801209 0.0 0.0
-1071.7185885242316 -137.4377316909419 -602.5699187131188 97.46701499048497 0.0 0.0
-1070.212341081174 -159.63780714650017 -612.6072269085547 94.01772053304444 0.0 0.0
-1036.6605496710508 -153.17483251624688 -592.3525359552983 93.98020695091527 0.0 0.0
-987.0901735974594 -133.51748768606896 -557.6157016495363 96.24440343451704 0.0 0.0
-932.676923976388 -111.44108656565494 -519.2713121403212 99.1708714904855 0.0 0.0
-876.9916009725122 -90.58347694372165 -480.8922711613955 102.00119693159584 0.0 0.0
-822.4443623175006 -74.58345592359044 -445.16339771047717 104.3579437558113 0.0 0.0
-767.9977377596907 -63.81477677308308 -410.51492824094106 105.63841286865595 0.0 0.0
-708.0881469355743 -57.05925776192282 -369.69655755905995 105.86502828947528 0.0 0.0
-639.6585109415907 -46.99713267083817 -308.4070193377209 107.72067999857231 0.0 0.0
-539.2798911314787 -30.575227381314207 -219.44618588536497 109.52234000649543 0.0 0.0
-418.9904310034999 0.31433411959307733 -134.07068966577665 121.30269515903213 0.0 0.0
-298.2703679810875 13.428749381353057 -85.50043763940143 133.40379158020002 0.0 0.0
-210.68541930854266 10.861129179010259 -59.90929601059398 141.92789308053636 0.0 0.0
-133.44269603872183 -5.1593004245701355 -41.58124422527442 141.0095960933284 0.0 0.0
-68.89508147737979 -61.234498238514746 -39.03887391476838 107.21760143777821 0.0 0.0
-46.363332148643714 -111.8691490046071 -47.46974434597524 63.70776584116154 0.0 0.0
-40.25618735108005 -68.2099103118955 -32.539829298892656 -49.946000033604435 0.0 0.0
-75.89183335267198 -49.56354954413116 -37.63661486904095 -88.27747646472075 0.0 0.0
-150.11294324163205 -4.131567303330203 -46.27380278317069 -120.82042171644098 0.0 0.0
-242.5444084273836 7.917487989402231 -70.36135616574546 -121.51507630955277 0.0 0.0
-353.9293079312069 8.194237626768968 -104.05402837661413 -110.39324186595273 0.0 0.0
-480.0109310384263 -15.046868516887034 -169.10735126311556 -91.31388497477684 0.0 0.0
-600.9436023607909 -39.31470734265452 -263.44995864050355 -86.05814472295134 0.0 0.0
-685.9767083512912 -55.97462751202095 -347.36463739077703 -85.36028002443537 0.0 0.0
-755.3774230341336 -66.19284561346262 -402.7281818976434 -85.86159812703421 0.0 0.0
-815.6964806467066 -77.08811590185677 -443.03998411734847 -86.35489133391513 0.0 0.0
-873.5492089980639 -91.66819498461894 -480.3426544718783 -85.67392137125157 0.0 0.0
-931.8120972972122 -111.20147097551381 -519.47435860737 -83.8752473313372 0.0 0.0
-991.1343465023556 -135.14316326542166 -561.1502677277707 -81.6171986677079 0.0 0.0
-1049.3235289009801 -161.39888151020267 -603.4020153947167 -79.19673465928287 0.0 0.0
-1103.7869311637492 -185.01420987359106 -642.4879705354422 -76.90728548186458 0.0 0.0
-1143.3345684187461 -195.9062655274779 -667.9114783593029 -75.8498628966027 0.0 0.0
-1144.138203516175 -172.20981985362124 -656.8832703703171 -77.68249773154609 0.0 0.0
-1082.3444587599918 -92.23018691316432 -586.51992224726 -82.07509793755912 0.0 0.0
-953.7185433972377 44.18012639088802 -454.644944189926 -86.86201248938445 0.0 0.0
-761.0565209235529 227.01512373527396 -267.64242654352006 -93.97283352212872 0.0 0.0
-3204.946496290083 -2274.8150847328707 -2725.4335880890508 -1.0080114520860661e-10 0.0 0.0
-761.056520923184 227.01512373551682 -267.6424265432296 93.97283352222735 0.0 0.0
-953.7185433970637 44.180126390994644 -454.6449441898302 86.8620124895598 0.0 0.0
-1082.3444587600175 -92.23018691329011 -586.5199222472875 82.0750979376073 0.0 0.0
-1144.1382035159186 -172.20981985344648 -656.8832703701962 77.6824977315603 0.0 0.0
-1143.3345684195262 -195.90626552840274 -667.911478359781 75.84986289655848 0.0 0.0
-1103.7869311630513 -185.01420987309336 -642.4879705349483 76.9072854819614 0.0 0.0
-1049.3235289010343 -161.39888151041953 -603.402015394696 79.19673465937127 0.0 0.0
-991.13434650197 -135.14316326526938 -561.1502677275713 81.61719866770392 0.0 0.0
-931.8120972961295 -111.2014709745983 -519.4743586066584 83.8752473312997 0.0 0.0
-873.5492089977298 -91.66819498456708 -480.34265447167155 85.67392137125995 0.0 0.0
-815.6964806468485 -77.08811590229625 -443.0399841174288 86.35489133392136 0.0 0.0
-755.3774230337168 -66.19284561346015 -402.7281818973542 85.86159812720918 0.0 0.0
-685.9767083506342 -55.9746275116652 -347.3646373902361 85.36028002444591 0.0 0.0
-600.9436023606048 -39.31470734285822 -263.4499586401821 86.0581447228615 0.0 0.0
-480.0109310378353 -15.046868516628578 -169.10735126271206 91.31388497469835 0.0 0.0
-353.92930793074373 8.194237626903544 -104.05402837644696 110.39324186577903 0.0 0.0
-242.54440842730313 7.917487989288496 -70.36135616575694 121.51507630948534 0.0 0.0
-150.11294324150703 -4.131567303228781 -46.273802783102724 120.82042171636053 0.0 0.0
-75.89183335259979 -49.56354954402599 -37.63661486898772 88.2774764646272 0.0 0.0
-40.25618735102624 -68.20991031179979 -32.5398292988478 49.94600003352257 0.0 0.0
-36.660467054663044 -37.069125059051956 -22.118877634114497 -36.31072507588523 0.0 0.0
-80.74652155326379 -37.43081957897496 -35.45320233967162 -67.70539879379909 0.0 0.0
-165.49506758104985 -2.7187325042819537 -50.46414002559953 -96.54534364052101 0.0 0.0
-274.10965173495185 4.09307759278968 -80.94315848259899 -96.72637536912855 0.0 0.0
-406.84659873236126 -0.8787001108578085 -124.99503692346748 -82.05138711583523 0.0 0.0
-538.9727175585643 -26.173453846310814 -204.55689945041738 -66.11887214496161 0.0 0.0
-644.8656927170045 -47.367706794329834 -301.6301693253382 -64.06396341784442 0.0 0.0
-724.7781456079022 -62.00907146296775 -377.30238384824565 -64.25375629500283 0.0 0.0
-794.7270002249048 -75.96574761757154 -430.2559388413266 -65.4612546115889 0.0 0.0
-857.9896307912443 -90.54033374825387 -472.02393757014994 -66.39455335628541 0.0 0.0
-919.2672747269687 -108.88827235670198 -512.4822116018167 -66.1437481406513 0.0 0.0
-981.4819590955648 -132.0380314035703 -555.296867078692 -64.87513126802948 0.0 0.0
-1044.2237732214383 -159.6596986033981 -600.5036372629936 -63.17029027448995 0.0 0.0
-1105.180135265056 -187.14011967466982 -644.7213172611591 -61.46393725767253 0.0 0.0
-1161.434614907001 -212.705002296186 -685.6259965200057 -59.4765091219817 0.0 0.0
-1206.1582131717346 -228.72284866669688 -716.1208563004129 -57.40261197147074 0.0 0.0
-1214.6323929955806 -211.131891458296 -711.9791110312337 -57.07756259378395 0.0 0.0
-1144.7716695932788 -121.62508151305846 -632.8990904718117 -60.760214798900094 0.0 0.0
-987.2061715155633 44.5979834034943 -471.5074936336854 -68.23161438025953 0.0 0.0
-762.0165180551262 260.3279367549443 -251.26151666908635 -80.37785218361006 0.0 0.0
-3429.8552312999986 -2457.02708647218 -2931.6404962738266 -3.9250380723387934e-11 0.0 0.0
-762.0165180530905 260.32793675692983 -251.26151666779168 80.37785218365045 0.0 0.0
-987.2061715156887 44.597983403307225 -471.5074936337369 68.23161438042968 0.0 0.0
-1144.77166959239 -121.62508151224361 -632.8990904712618 60.76021479889209 0.0 0.0
-1214.6323929954792 -211.1318914582837 -711.9791110310778 57.07756259377885 0.0 0.0
-1206.1582131706523 -228.72284866580196 -716.1208562995853 57.40261197154328 0.0 0.0
-1161.4346149065225 -212.7050022958397 -685.6259965196786 59.47650912207421 0.0 0.0
-1105.1801352652003 -187.14011967500656 -644.7213172611889 61.46393725768128 0.0 0.0
-1044.2237732209223 -159.65969860308374 -600.5036372627716 63.17029027448588 0.0 0.0
-981.4819590957391 -132.0380314039248 -555.296867078732 64.87513126793561 0.0 0.0
-919.2672747268292 -108.88827235681043 -512.4822116017227 66.14374814060915 0.0 0.0
-857.9896307906463 -90.54033374795075 -472.0239375697584 66.39455335626677 0.0 0.0
-794.7270002247296 -75.96574761772908 -430.25593884119985 65.46125461168575 0.0 0.0
-724.7781456075573 -62.00907146288506 -377.302383847918 64.25375629497393 0.0 0.0
-644.8656927167347 -47.36770679446441 -301.6301693249653 64.06396341774486 0.0 0.0
-538.972717557977 -26.173453846085827 -204.55689944995623 66.11887214488416 0.0 0.0
-406.84659873197427 -0.8787001109551489 -124.99503692334898 82.05138711581085 0.0 0.0
-274.10965173471214 4.093077592620352 -80.94315848260757 96.72637536896113 0.0 0.0
-165.49506758083245 -2.7187325041981554 -50.46414002550919 96.5453436404228 0.0 0.0
-80.74652155314159 -37.4308195788975 -35.45320233961172 67.70539879376986 0.0 0.0
-36.66046705463809 -37.06912505899269 -22.11887763408923 36.31072507581295 0.0 0.0
-34.369462861831636 -18.095200842875872 -15.739399111412254 -23.555203174237185 0.0 0.0
-82.71005330732483 -25.97358405806984 -32.6050912096184 -45.79521577559339 0.0 0.0
-179.21151349478936 -1.4286725562428364 -54.192055815309644 -67.70133567255338 0.0 0.0
-306.6803206683134 -0.4986569212219232 -92.00049567527695 -67.04460414417373 0.0 0.0
-455.69017958739295 -13.348039712695424 -149.07548698648574 -51.751868478324766 0.0 0.0
-586.3840658613938 -35.223807815639574 -239.1454979650423 -43.007162526969054 0.0 0.0
-676.6688174932469 -53.07612157831587 -331.8518155258563 -42.60476565283396 0.0 0.0
-757.7470952614709 -68.9791587287794 -402.4831388663958 -43.603041459281634 0.0 0.0
-829.2433046789652 -86.31763688012441 -454.40000837666014 -44.7752899090643 0.0 0.0
-895.6471962221732 -104.33367676612136 -498.40526209791835 -45.723043235454654 0.0 0.0
-960.8996161966733 -126.26793843659297 -542.4315169043891 -45.79499020807869 0.0 0.0
-1026.673010487934 -153.0340428073334 -588.8011215458548 -45.03229313986555 0.0 0.0
-1093.0448940915678 -182.90134612807935 -636.9294723628745 -44.010740433874766 0.0 0.0
-1156.1056739313883 -213.06596996799558 -683.5463229367101 -42.884614067159355 0.0 0.0
-1212.1927532584577 -237.8586937581396 -723.9880869126829 -41.45693656178664 0.0 0.0
-1255.4177104792436 -252.0122510589239 -752.7162173699802 -39.2885642036549 0.0 0.0
-1275.2479883955757 -245.61732886747976 -759.6578893160406 -37.030417837138565 0.0 0.0
-1231.7828180411566 -181.2006094676861 -706.3138846891292 -38.42656083441633 0.0 0.0
-1042.3105505559492 18.913410773064726 -512.1563705848941 -48.208875339925726 0.0 0.0
-738.1843665508791 315.1157208988897 -211.91105793313716 -66.9772013505839 0.0 0.0
-3603.0595648536655 -2592.75174977084 -3088.300195842554 -3.929123693069414e-11 0.0 0.0
-738.1843665496874 315.11572090007076 -211.9110579323684 66.97720135055808 0.0 0.0
-1042.3105505563694 18.9134107725411 -512.1563705852103 48.20887534010856 0.0 0.0
-1231.7828180411966 -181.20060946777738 -706.3138846892091 38.42656083440986 0.0 0.0
-1275.2479883957246 -245.61732886775582 -759.6578893161054 37.03041783708996 0.0 0.0
-1255.417710477925 -252.01225105773648 -752.716217368965 39.28856420374791 0.0 0.0
-1212.1927532577752 -237.85869375763076 -723.9880869121544 41.4569365619234 0.0 0.0
-1156.1056739304536 -213.0659699672198 -683.5463229360403 42.88461406709192 0.0 0.0
-1093.044894091322 -182.9013461280019 -636.9294723628341 44.01074043377541 0.0 0.0
-1026.6730104878468 -153.0340428075138 -588.801121545724 45.0322931397701 0.0 0.0
-960.8996161964534 -126.26793843662738 -542.4315169042866 45.79499020809764 0.0 0.0
-895.6471962213479 -104.33367676556128 -498.40526209736583 45.72304323546763 0.0 0.0
-829.2433046786634 -86.31763688013369 -454.4000083764365 44.77528990908572 0.0 0.0
-757.7470952611279 -68.97915872872886 -402.4831388660689 43.60304145932645 0.0 0.0
-676.6688174921901 -53.076121577538906 -331.85181552503957 42.60476565275577 0.0 0.0
-586.3840658612385 -35.22380781587356 -239.14549796479122 43.00716252690324 0.0 0.0
-455.69017958693894 -13.348039712662633 -149.07548698628125 51.751868478289595 0.0 0.0
-306.6803206680913 -0.498656921310477 -92.00049567524758 67.04460414415509 0.0 0.0
-179.21151349458214 -1.4286725561941904 -54.19205581523289 67.70133567258424 0.0 0.0
-82.71005330719576 -25.973584057977728 -32.60509120955206 45.79521577552303 0.0 0.0
-34.36946286180466 -18.095200842895622 -15.739399111410082 23.555203174214267 0.0 0.0
-31.110576013958468 -10.284922263943667 -12.41864948337064 -13.326878523822526 0.0 0.0
-80.3072690862424 -16.80822321275772 -29.134647689700042 -22.940373208623868 0.0 0.0
-190.67750895616055 -1.1911229490091815 -57.560589571550906 -33.02617129163087 0.0 0.0
-341.21740645600573 -4.824739142765211 -103.74407406101896 -31.94768355931213 0.0 0.0
-504.9187132164583 -23.465653832834803 -174.89617831573514 -23.150936040569025 0.0 0.0
-620.7156237638454 -42.00493304253601 -270.3423666550447 -21.84625840029246 0.0 0.0
-705.2485451896974 -56.334304216096534 -355.9715990656789 -22.75927045109621 0.0 0.0
-785.905263903149 -76.52498709471341 -423.7831584400657 -23.304164427671424 0.0 0.0
-859.7027316691749 -96.79278063319435 -475.8565819345424 -23.814862530007872 0.0 0.0
-929.631609361763 -118.70000101214542 -523.0040672310017 -24.384269114512453 0.0 0.0
-998.5929355167602 -144.0137607866937 -570.4725653100842 -24.592633519910315 0.0 0.0
-1068.1217971563415 -173.332491529476 -619.9846904217379 -24.431690366869145 0.0 0.0
-1137.3890795428583 -206.53931984778774 -671.2289540151249 -23.99946927846499 0.0 0.0
-1203.1230333354229 -238.12051849318925 -719.8866951526734 -23.473374015426284 0.0 0.0
-1258.053105776876 -261.39736406541596 -759.010444582228 -22.71191253961711 0.0 0.0
-1295.7584066306495 -270.0933051217703 -782.256741446243 -21.23406729850238 0.0 0.0
-1313.4094131435188 -261.968882685077 -787.0675583859959 -18.759789556101865 0.0 0.0
-1311.2678122154307 -238.53814125416886 -774.4412664045283 -17.225456288243798 0.0 0.0
-1209.4839847394178 -123.25050783482922 -666.6473251173063 -24.399597923186754 0.0 0.0
-719.9065315379173 362.902231248858 -179.12509817768475 -49.77367056198674 0.0 0.0
-3572.1199892790114 -2526.0873089330867 -3041.8187026697838 -2.8498092774498218e-11 0.0 0.0
-719.9065315374315 362.9022312493032 -179.12509817732882 49.77367056203055 0.0 0.0
-1209.4839847391402 -123.25050783463679 -666.6473251171069 24.39959792336784 0.0 0.0
-1311.2678122161433 -238.53814125495245 -774.4412664050917 17.225456288216936 0.0 0.0
-1313.4094131432435 -261.9688826849264 -787.0675583857617 18.759789556052883 0.0 0.0
-1295.7584066305444 -270.093305121808 -782.2567414462033 21.234067298595832 0.0 0.0
-1258.0531057769329 -261.39736406563503 -759.0104445821662 22.711912539746656 0.0 0.0
-1203.123033334169 -238.120518492114 -719.8866951517798 23.473374015386483 0.0 0.0
-1137.3890795425898 -206.53931984771515 -671.2289540150063 23.999469278504257 0.0 0.0
-1068.1217971556398 -173.33249152900888 -619.9846904212176 24.43169036685977 0.0 0.0
-998.5929355165135 -144.01376078668798 -570.472565309898 24.592633519846707 0.0 0.0
-929.6316093611949 -118.70000101183243 -523.0040672305887 24.384269114377695 0.0 0.0
-859.7027316685121 -96.79278063282366 -475.85658193410126 23.81486253000442 0.0 0.0
-785.9052639028773 -76.52498709474295 -423.7831584398275 23.304164427679794 0.0 0.0
-705.2485451891409 -56.33430421579777 -355.97159906519374 22.75927045101357 0.0 0.0
-620.7156237637631 -42.00493304289193 -270.34236665482274 21.84625840023594 0.0 0.0
-504.9187132159483 -23.46565383267424 -174.89617831541247 23.15093604048532 0.0 0.0
-341.21740645551364 -4.8247391424982355 -103.74407406081471 31.94768355940878 0.0 0.0
-190.67750895608862 -1.1911229491834163 -57.5605895715816 33.02617129169951 0.0 0.0
-80.3072690861417 -16.80822321264862 -29.13464768963709 22.940373208586887 0.0 0.0
-31.110576013942694 -10.284922263984077 -12.418649483378031 13.326878523879707 0.0 0.0
-19.930965400287207 -5.153381538975202 -7.525304081778722 -8.242524979088547 0.0 0.0
-69.58143353966673 -9.537919489299574 -23.735805908689883 -9.52837693520275 0.0 0.0
-198.97049735366193 -2.850090183346502 -60.54617626110249 -11.10516608998026 0.0 0.0
-383.3728963055605 -19.686559790402868 -121.84088645438695 -8.621009679860396 0.0 0.0
-570.6233487880908 -63.61702138631232 -218.08076182000596 -0.825850948118422 0.0 0.0
-704.656059778701 -108.1436817150091 -339.9929869702737 1.1289414671729325 0.0 0.0
-818.325448726685 -154.61551275291305 -454.04869741240543 0.8033208979463993 0.0 0.0
-938.3325799390052 -215.69464874384082 -560.1649541126988 -0.532505861699466 0.0 0.0
-1064.114930796757 -288.83457919079916 -664.2771506610108 -2.0599687667222497 0.0 0.0
-1204.2029992040889 -380.6813593445403 -781.3133613824671 -3.669055849687899 0.0 0.0
-1364.0972142696507 -496.2950492575595 -919.1109565485738 -5.204684670436681 0.0 0.0
-1544.4067226110924 -636.6706436618315 -1079.1376196865745 -6.470968974294081 0.0 0.0
-1740.1764748717324 -795.263390368243 -1255.8796484210325 -7.323628468590885 0.0 0.0
-1942.3957462436615 -962.9093173423998 -1440.4342119849302 -8.047994135679994 0.0 0.0
-2135.8843756489805 -1124.3823843460518 -1617.634312426614 -8.464130912500835 0.0 0.0
-2299.4374261862554 -1258.8112961281913 -1766.4984093220892 -8.309491592467847 0.0 0.0
-2406.9011627617087 -1340.8929647122134 -1861.336306962231 -7.1271192478226375 0.0 0.0
-2440.0787189415446 -1353.376975191645 -1884.0501839662952 -5.2287045029019374 0.0 0.0
-2466.495956199137 -1364.9959429353082 -1901.8422467026662 -10.391470794163824 0.0 0.0
-2500.7253757185376 -1397.5631059241584 -1932.4159647027955 -39.03153690892872 0.0 0.0
-5861.156071329913 -4787.24096193856 -5299.340152816012 -9.308109838457312e-12 0.0 0.0
-2500.7253757180833 -1397.5631059237344 -1932.4159647023796 39.031536908971574 0.0 0.0
-2466.495956198024 -1364.9959429342662 -1901.842246701632 10.39147079425139 0.0 0.0
-2440.0787189409284 -1353.3769751911168 -1884.0501839657059 5.2287045028897055 0.0 0.0
-2406.9011627604996 -1340.8929647111268 -1861.336306961116 7.127119247814502 0.0 0.0
-2299.437426185623 -1258.8112961276681 -1766.498409321542 8.309491592442484 0.0 0.0
-2135.884375649807 -1124.3823843471077 -1617.6343124268415 8.464130912521092 0.0 0.0
-1942.3957462420376 -962.9093173409251 -1440.434211983554 8.04799413562261 0.0 0.0
-1740.1764748709852 -795.2633903677117 -1255.8796484203526 7.323628468607076 0.0 0.0
-1544.4067226108132 -636.6706436618206 -1079.1376196860617 6.4709689743265315 0.0 0.0
-1364.0972142691476 -496.29504925730646 -919.1109565479715 5.204684670418498 0.0 0.0
-1204.2029992030891 -380.681359343811 -781.3133613816557 3.6690558494069663 0.0 0.0
-1064.1149307955961 -288.83457918994145 -664.27715066015 2.059968766745726 0.0 0.0
-938.3325799387623 -215.69464874390746 -560.164954112393 0.5325058616818197 0.0 0.0
-818.3254487266202 -154.61551275317316 -454.04869741214833 -0.8033208980824966 0.0 0.0
-704.6560597781024 -108.14368171474979 -339.99298696969726 -1.1289414672674667 0.0 0.0
-570.6233487876183 -63.61702138619784 -218.0807618196426 0.8258509480492862 0.0 0.0
-383.37289630509906 -19.686559790255263 -121.84088645419806 8.621009679966189 0.0 0.0
-198.97049735344012 -2.8500901834074064 -60.546176261054256 11.10516609003817 0.0 0.0
-69.5814335395409 -9.537919489276144 -23.735805908645105 9.52837693523493 0.0 0.0
-19.930965400183762 -5.153381538947216 -7.525304081739294 8.242524979184163 0.0 0.0
SCALARS Strain float 6
LOOKUP_TABLE default
0.013718052472029917 -0.023035307379569277 0.0 -0.0012124050086196282 0.0 0.0
0.008420881686892534 -0.0023423529946273434 0.0 -0.007039774492907431 0.0 0.0
0.0025235462530318067 -0.000613161793612314 0.0 -0.0007908355267537076 0.0 0.0
0.0021785149814394426 -0.0008705091436677014 0.0 -7.557507265320671e-06 0.0 0.0
0.003118306748150065 -0.001332355503510998 0.0 0.00015007275548615742 0.0 0.0
0.005161031604009471 -0.0028487459592622553 0.0 0.00028818491424155164 0.0 0.0
0.008681807288038019 -0.0058213280509526 0.0 0.0003849142680113399 0.0 0.0
0.01394885329826134 -0.010521985097636008 0.0 0.00042106294644823797 0.0 0.0
0.021182571528988534 -0.017149538358233723 0.0 0.00039972902348439095 0.0 0.0
0.030471641756592956 -0.025736679253824696 0.0 0.00029910682439113423 0.0 0.0
0.041782070303060935 -0.03621514106325999 0.0 0.00015497138052436793 0.0 0.0
0.05501570088907379 -0.04848313220305253 0.0 -3.235038738597204e-05 0.0 0.0
0.07004464438199379 -0.06244477654087453 0.0 -0.0002988160344817313 0.0 0.0
0.08673092193865306 -0.0780017135491387 0.0 -0.0005970575900344742 0.0 0.0
0.10485426852381965 -0.09498730972396804 0.0 -0.0009646355836415523 0.0 0.0
0.1239578208734721 -0.11300370627645434 0.0 -0.001396260649343898 0.0 0.0
0.14323919987424963 -0.1313070277664776 0.0 -0.0018111788317464756 0.0 0.0
0.16153523793435423 -0.14879376293685279 0.0 -0.002049508159638238 0.0 0.0
0.1774345764276018 -0.1640717714717942 0.0 -0.0019365863411093817 0.0 0.0
0.18924509811385612 -0.17552356067612251 0.0 -0.002112184755788957 0.0 0.0
0.19389137102330703 -0.1802232759360053 0.0 1.7633464133304244e-15 0.0 0.0
0.18924509811383197 -0.17552356067609387 0.0 0.002112184755795235 0.0 0.0
0.17743457642754965 -0.16407177147174987 0.0 0.0019365863411165765 0.0 0.0
0.1615352379342796 -0.14879376293678157 0.0 0.0020495081596439077 0.0 0.0
0.143239199874163 -0.1313070277663945 0.0 0.0018111788317457167 0.0 0.0
0.12395782087338222 -0.1130037062763661 0.0 0.0013962606493402368 0.0 0.0
0.10485426852372912 -0.09498730972388404 0.0 0.0009646355836420307 0.0 0.0
0.0867309219385625 -0.07800171354905479 0.0 0.0005970575900332642 0.0 0.0
0.07004464438190412 -0.06244477654078748 0.0 0.00029881603447870497 0.0 0.0
0.05501570088899019 -0.04848313220297246 0.0 3.235038738537985e-05 0.0 0.0
0.041782070302990394 -0.036215141063203386 0.0 -0.00015497138052670482 0.0 0.0
0.030471641756536265 -0.025736679253770663 0.0 -0.0002991068243963324 0.0 0.0
0.021182571528945184 -0.017149538358196197 0.0 -0.0003997290234830867 0.0 0.0
0.013948853298230427 -0.01052198509760532 0.0 -0.00042106294644966326 0.0 0.0
0.008681807288017337 -0.005821328050934883 0.0 -0.00038491426801238863 0.0 0.0
0.005161031603998132 -0.002848745959253769 0.0 -0.0002881849142425073 0.0 0.0
0.003118306748145775 -0.001332355503508374 0.0 -0.00015007275548279493 0.0 0.0
0.0021785149814385124 -0.0008705091436699219 0.0 7.5575072675778055e-06 0.0 0.0
0.0025235462530302202 -0.0006131617936115923 0.0 0.0007908355267530736 0.0 0.0
0.008420881686886702 -0.00234235299462382 0.0 0.007039774492899361 0.0 0.0
0.013718052472020917 -0.023035307379544484 0.0 0.0012124050085733943 0.0 0.0
0.009523843405932444 -0.02062626290534621 0.0 -0.0007409166835140701 0.0 0.0
0.005585494788521086 -0.0017466572194693515 0.0 -0.005692360335683772 0.0 0.0
0.0016789601719874058 -0.0004772466924013902 0.0 -0.0005066521684714548 0.0 0.0
0.0019281515742221077 -0.0008198047957675973 0.0 -0.00019890310630630705 0.0 0.0
0.002696294093495758 -0.0012038682564153 0.0 -0.00015463747719672824 0.0 0.0
0.004431842480762888 -0.0025520070451981246 0.0 -0.00021658973584779472 0.0 0.0
0.007562067451626558 -0.005316935464021495 0.0 -0.00048051605941465435 0.0 0.0
0.012338080874578937 -0.009764123385341605 0.0 -0.0008895168187605375 0.0 0.0
0.018935709266872127 -0.016071565892422635 0.0 -0.0014595540097340793 0.0 0.0
0.027389017109181294 -0.024244739561546404 0.0 -0.002164838542175316 0.0 0.0
0.037626793686472634 -0.03419569148371515 0.0 -0.002933211441023646 0.0 0.0
0.04954821755610958 -0.04581736981683586 0.0 -0.0037145602406451605 0.0 0.0
0.06307423296455801 -0.05903259082720538 0.0 -0.004532251580614999 0.0 0.0
0.07811347958267763 -0.07377200864443322 0.0 -0.005397340041281937 0.0 0.0
0.09448011289363689 -0.08988312837566136 0.0 -0.00628870981344724 0.0 0.0
0.11177929598842591 -0.10699921395546902 0.0 -0.007134698467584651 0.0 0.0
0.1293039031462829 -0.124430809462865 0.0 -0.007724771420483826 0.0 0.0
0.14601885784575974 -0.1411400748706964 0.0 -0.0077339838505502655 0.0 0.0
0.16055988245494468 -0.15577571411810853 0.0 -0.006936533784092005 0.0 0.0
0.17100169189256448 -0.1665875866448526 0.0 -0.00581828391514265 0.0 0.0
0.1749085037199158 -0.17107338479956954 0.0 7.999677309467046e-15 0.0 0.0
0.17100169189254108 -0.16658758664482204 0.0 0.005818283915161346 0.0 0.0
0.16055988245489788 -0.15577571411807153 0.0 0.006936533784111015 0.0 0.0
0.14601885784569477 -0.1411400748706328 0.0 0.007733983850560293 0.0 0.0
0.1293039031462066 -0.12443080946278479 0.0 0.007724771420484495 0.0 0.0
0.11177929598834546 -0.1069992139553911 0.0 0.0071346984675804215 0.0 0.0
0.09448011289355503 -0.08988312837558032 0.0 0.006288709813445426 0.0 0.0
0.07811347958259582 -0.07377200864435662 0.0 0.005397340041279187 0.0 0.0
0.06307423296447777 -0.05903259082712674 0.0 0.004532251580610295 0.0 0.0
0.049548217556034294 -0.04581736981676534 0.0 0.0037145602406388205 0.0 0.0
0.03762679368640817 -0.03419569148366008 0.0 0.002933211441016076 0.0 0.0
0.027389017109129925 -0.024244739561493707 0.0 0.002164838542167288 0.0 0.0
0.018935709266832464 -0.016071565892383666 0.0 0.0014595540097315043 0.0 0.0
0.01233808087455027 -0.009764123385315774 0.0 0.0008895168187572586 0.0 0.0
0.007562067451608333 -0.0053169354640040245 0.0 0.0004805160594114998 0.0 0.0
0.004431842480753475 -0.002552007045190299 0.0 0.00021658973584726048 0.0 0.0
0.002696294093492467 -0.0012038682564141524 0.0 0.0001546374771979451 0.0 0.0
0.0019281515742212599 -0.0008198047957688104 0.0 0.00019890310630645258 0.0 0.0
0.0016789601719865938 -0.0004772466924020186 0.0 0.000506652168470815 0.0 0.0
0.0055854947885138695 -0.0017466572194657169 0.0 0.005692360335674376 0.0 0.0
0.009523843405918787 -0.020626262905320554 0.0 0.0007409166834781213 0.0 0.0
0.006952832454889528 -0.016414644247605557 0.0 -0.0036472370096763615 0.0 0.0
0.0039505961771603 -0.0009664938968125384 0.0 -0.005681971667635928 0.0 0.0
0.0011728510048723126 -0.0002659221839480055 0.0 -0.0004670284350029155 0.0 0.0
0.0016383797900932004 -0.0006985364136059446 0.0 -0.00048043325614437736 0.0 0.0
0.002313729764752744 -0.0009832707177563362 0.0 -0.000481530107625838 0.0 0.0
0.0037404421564175205 -0.001995337593065476 0.0 -0.0005887229706590033 0.0 0.0
0.006454602516430119 -0.004325052606170871 0.0 -0.0010903373372690697 0.0 0.0
0.010714515743755003 -0.008254574166862441 0.0 -0.0018886960747524295 0.0 0.0
0.016642299116845893 -0.013902983655837125 0.0 -0.0029885154410475446 0.0 0.0
0.02423453497696975 -0.021236535625986458 0.0 -0.0043199226620666675 0.0 0.0
0.033390826972354286 -0.03012715372302832 0.0 -0.005757972285856754 0.0 0.0
0.04400605005440119 -0.04046060198411269 0.0 -0.0071924173699309014 0.0 0.0
0.05602158145092166 -0.05218408868892495 0.0 -0.008620605218282461 0.0 0.0
0.06939473416144717 -0.06527674864395566 0.0 -0.010118105719233403 0.0 0.0
0.08398945544856273 -0.07962959320821485 0.0 -0.011671873520254101 0.0 0.0
0.09947801851155606 -0.09494048758026116 0.0 -0.01311891378190513 0.0 0.0
0.11527100400211139 -0.11063350049088543 0.0 -0.014109266457304523 0.0 0.0
0.13044775595231836 -0.12580302713662003 0.0 -0.01415013560376713 0.0 0.0
0.1436606188888914 -0.13915636410031443 0.0 -0.012884340858343814 0.0 0.0
0.15317296635266703 -0.14890174371961803 0.0 -0.010268667916749286 0.0 0.0
0.156769216967191 -0.1531919328873259 0.0 1.6675896774565047e-14 0.0 0.0
0.15317296635264496 -0.14890174371959453 0.0 0.010268667916781063 0.0 0.0
0.14366061888884996 -0.1391563641002798 0.0 0.012884340858376576 0.0 0.0
0.13044775595226182 -0.12580302713656577 0.0 0.014150135603787518 0.0 0.0
0.11527100400204468 -0.11063350049081426 0.0 0.014109266457307437 0.0 0.0
0.09947801851148427 -0.09494048758019646 0.0 0.013118913781899381 0.0 0.0
0.08398945544848943 -0.07962959320814386 0.0 0.011671873520250148 0.0 0.0
0.0693947341613743 -0.06527674864388827 0.0 0.010118105719229107 0.0 0.0
0.05602158145085046 -0.05218408868885529 0.0 0.008620605218273207 0.0 0.0
0.04400605005433449 -0.04046060198405596 0.0 0.007192417369919537 0.0 0.0
0.03339082697229673 -0.030127153722974975 0.0 0.005757972285846553 0.0 0.0
0.024234534976923593 -0.021236535625940824 0.0 0.004319922662055026 0.0 0.0
0.016642299116810453 -0.013902983655802822 0.0 0.0029885154410410576 0.0 0.0
0.01071451574372987 -0.008254574166840395 0.0 0.0018886960747470719 0.0 0.0
0.006454602516414594 -0.004325052606155347 0.0 0.0010903373372660354 0.0 0.0
0.003740442156409861 -0.001995337593058679 0.0 0.0005887229706586009 0.0 0.0
0.002313729764750203 -0.0009832707177557856 0.0 0.0004815301076257673 0.0 0.0
0.0016383797900926388 -0.0006985364136053733 0.0 0.0004804332561430347 0.0 0.0
0.0011728510048723793 -0.00026592218394926026 0.0 0.00046702843500297546 0.0 0.0
0.00395059617715405 -0.0009664938968091029 0.0 0.0056819716676232606 0.0 0.0
0.0069528324548765235 -0.016414644247580153 0.0 0.0036472370096524635 0.0 0.0
0.005233017081752625 -0.013198379029775279 0.0 -0.004075696538927535 0.0 0.0
0.002906403199233278 -0.0006985315875208115 0.0 -0.005180749977391906 0.0 0.0
0.0008368457274209336 -0.00015006013675183122 0.0 -0.0007537863069245782 0.0 0.0
0.0013547631881423588 -0.0005581183920142545 0.0 -0.0007610414093242683 0.0 0.0
0.001962913602906276 -0.0008149768826968399 0.0 -0.000803635621920371 0.0 0.0
0.0031050466793975146 -0.0015309361169098259 0.0 -0.0009203959898002843 0.0 0.0
0.005379472696028227 -0.0033867567091101767 0.0 -0.0014995162475191324 0.0 0.0
0.009092569052154836 -0.006764497635618137 0.0 -0.00261489239888323 0.0 0.0
0.014325260574005988 -0.011723791420947047 0.0 -0.004116750169057283 0.0 0.0
0.02103584389383857 -0.0181938208731588 0.0 -0.005925337533833845 0.0 0.0
0.029100529438785924 -0.026015412983514546 0.0 -0.00786562590256558 0.0 0.0
0.03840991504659576 -0.03506384303988844 0.0 -0.009795618691239606 0.0 0.0
0.04891901723083385 -0.04529852780489143 0.0 -0.01170686702655725 0.0 0.0
0.06061176808773809 -0.05673171484419652 0.0 -0.013675353956470898 0.0 0.0
0.07341247185360252 -0.0693060305910527 0.0 -0.01570386338549177 0.0 0.0
0.08708163727135955 -0.08279749112696459 0.0 -0.0176114274575413 0.0 0.0
0.10113864258546063 -0.09674825574728668 0.0 -0.01896919911898908 0.0 0.0
0.1147803466243349 -0.11038426845163009 0.0 -0.01918064898368449 0.0 0.0
0.1267935784570603 -0.12251025630363796 0.0 -0.01762375405917316 0.0 0.0
0.13566134859340664 -0.13154009525472404 0.0 -0.013488867884350634 0.0 0.0
0.1391088018584354 -0.13596228252250706 0.0 2.0664026045835726e-14 0.0 0.0
0.13566134859338594 -0.13154009525470248 0.0 0.013488867884394105 0.0 0.0
0.1267935784570234 -0.1225102563036001 0.0 0.017623754059215912 0.0 0.0
0.11478034662428535 -0.11038426845158267 0.0 0.019180648983710996 0.0 0.0
0.10113864258540216 -0.09674825574722745 0.0 0.01896919911899107 0.0 0.0
0.08708163727129636 -0.08279749112690708 0.0 0.017611427457533125 0.0 0.0
0.0734124718535385 -0.06930603059098978 0.0 0.01570386338548483 0.0 0.0
0.06061176808767427 -0.05673171484413092 0.0 0.013675353956464395 0.0 0.0
0.04891901723077153 -0.0452985278048316 0.0 0.011706867026544535 0.0 0.0
0.03840991504653817 -0.035063843039832926 0.0 0.009795618691223303 0.0 0.0
0.029100529438735298 -0.026015412983463798 0.0 0.007865625902550542 0.0 0.0
0.021035843893797607 -0.018193820873119396 0.0 0.005925337533818194 0.0 0.0
0.014325260573974903 -0.011723791420919661 0.0 0.004116750169047243 0.0 0.0
0.00909256905213303 -0.006764497635597079 0.0 0.0026148923988752646 0.0 0.0
0.00537947269601517 -0.003386756709100746 0.0 0.0014995162475159804 0.0 0.0
0.0031050466793915345 -0.0015309361169045263 0.0 0.0009203959897986745 0.0 0.0
0.001962913602904527 -0.0008149768826953981 0.0 0.0008036356219200853 0.0 0.0
0.0013547631881421912 -0.0005581183920142099 0.0 0.0007610414093233194 0.0 0.0
0.0008368457274211094 -0.00015006013675233977 0.0 0.0007537863069238793 0.0 0.0
0.002906403199227434 -0.0006985315875176731 0.0 0.005180749977378927 0.0 0.0
0.0052330170817409686 -0.013198379029752573 0.0 0.004075696538911148 0.0 0.0
0.003954254874342566 -0.010616184820655966 0.0 -0.0036343270565851295 0.0 0.0
0.0021664935478166235 -0.0005656997642149845 0.0 -0.004627657870806717 0.0 0.0
0.0006078480037270026 -9.300902348404444e-05 0.0 -0.0011421034048706247 0.0 0.0
0.0010955760135959102 -0.00042459343919356093 0.0 -0.0010628289376766922 0.0 0.0
0.0016377628782845031 -0.000673627362466013 0.0 -0.0011231581573921824 0.0 0.0
0.0025375044101266365 -0.0011685008388424695 0.0 -0.0012294858930979441 0.0 0.0
0.004361764735858028 -0.002547974445011842 0.0 -0.0017833681539853358 0.0 0.0
0.007490799501776899 -0.005313980576913373 0.0 -0.003029127806582637 0.0 0.0
0.012008635790414819 -0.009560485537526935 0.0 -0.0048361023324545675 0.0 0.0
0.017818755177979886 -0.015146374837299026 0.0 -0.006973994596771012 0.0 0.0
0.024783991583082608 -0.021889767558362812 0.0 -0.00925874071618176 0.0 0.0
0.0327853539924855 -0.02965288898775187 0.0 -0.011525357417238593 0.0 0.0
0.04178606525078824 -0.038400958076873985 0.0 -0.013767813552283351 0.0 0.0
0.05180138636999494 -0.04817270739243474 0.0 -0.016064996440302445 0.0 0.0
0.06279736377732514 -0.05895740562822502 0.0 -0.01840640251152286 0.0 0.0
0.07461582265677809 -0.07060699133568867 0.0 -0.02060121505693267 0.0 0.0
0.0869052588646018 -0.08278129313765052 0.0 -0.022252885017429832 0.0 0.0
0.09901433689030395 -0.09486015304245654 0.0 -0.022727410220254724 0.0 0.0
0.10992522571476164 -0.10584676782660345 0.0 -0.021052556722009876 0.0 0.0
0.11832896987381236 -0.11438314166696348 0.0 -0.015936522140252984 0.0 0.0
0.12172790879730586 -0.11910368366027446 0.0 2.3086567380037337e-14 0.0 0.0
0.11832896987379332 -0.11438314166694347 0.0 0.015936522140303375 0.0 0.0
0.10992522571472915 -0.10584676782657093 0.0 0.021052556722057796 0.0 0.0
0.0990143368902608 -0.09486015304241736 0.0 0.022727410220284697 0.0 0.0
0.08690525886455104 -0.08278129313759773 0.0 0.02225288501743459 0.0 0.0
0.07461582265672345 -0.07060699133563403 0.0 0.02060121505692427 0.0 0.0
0.06279736377726947 -0.058957405628166024 0.0 0.018406402511514524 0.0 0.0
0.05180138636993984 -0.0481727073923794 0.0 0.016064996440294934 0.0 0.0
0.04178606525073509 -0.038400958076826065 0.0 0.013767813552270452 0.0 0.0
0.032785353992436546 -0.02965288898770093 0.0 0.011525357417222971 0.0 0.0
0.02478399158303966 -0.02188976755832296 0.0 0.009258740716162601 0.0 0.0
0.01781875517794464 -0.015146374837261927 0.0 0.00697399459675644 0.0 0.0
0.012008635790387755 -0.009560485537500335 0.0 0.004836102332443091 0.0 0.0
0.007490799501758518 -0.005313980576894999 0.0 0.0030291278065743645 0.0 0.0
0.00436176473584775 -0.0025479744450071593 0.0 0.0017833681539810298 0.0 0.0
0.002537504410122214 -0.0011685008388388598 0.0 0.0012294858930958846 0.0 0.0
0.0016377628782833608 -0.0006736273624648877 0.0 0.0011231581573917227 0.0 0.0
0.0010955760135958439 -0.0004245934391936327 0.0 0.0010628289376751838 0.0 0.0
0.0006078480037270744 -9.300902348412308e-05 0.0 0.0011421034048681444 0.0 0.0
0.00216649354781146 -0.0005656997642123924 0.0 0.0046276578707951845 0.0 0.0
0.003954254874332305 -0.01061618482063638 0.0 0.0036343270565742606 0.0 0.0
0.002956814678377485 -0.008467090786480322 0.0 -0.0030202593022637253 0.0 0.0
0.0016090204847683989 -0.00047941328672459994 0.0 -0.004093082609498923 0.0 0.0
0.0004426311406996635 -7.19411459482933e-05 0.0 -0.001511425776814722 0.0 0.0
0.0008593134646130167 -0.0003043388148623826 0.0 -0.0013677610616948 0.0 0.0
0.0013341202446193721 -0.0005473245614394773 0.0 -0.0014338765308281732 0.0 0.0
0.002031696673408123 -0.0008890449651066338 0.0 -0.0015207723368576573 0.0 0.0
0.003432289168421284 -0.001845390840768314 0.0 -0.002015325923346567 0.0 0.0
0.005945653318485055 -0.0039586194773379695 0.0 -0.0031958319137053003 0.0 0.0
0.00970856350859164 -0.007439432673624083 0.0 -0.0051169887625707134 0.0 0.0
0.01460941897684075 -0.012124237211752653 0.0 -0.0074556012468686116 0.0 0.0
0.02046651649162431 -0.01777976841291349 0.0 -0.00992754436030891 0.0 0.0
0.027159868163511378 -0.02425738911011687 0.0 -0.012378511867352681 0.0 0.0
0.03465558807646829 -0.03152184940441396 0.0 -0.01479338535779251 0.0 0.0
0.04298809545838596 -0.0396328667214392 0.0 -0.017254087315366817 0.0 0.0
0.052175648323208104 -0.048623070873086184 0.0 -0.019758442623313797 0.0 0.0
0.06212676872719736 -0.05841196711970269 0.0 -0.022104668710221292 0.0 0.0
0.07259462465178111 -0.06875941607033759 0.0 -0.02393091906568436 0.0 0.0
0.08313375166942655 -0.07923095255824741 0.0 -0.024658602938951314 0.0 0.0
0.09298525616132904 -0.08911094929553859 0.0 -0.023156471088365358 0.0 0.0
0.10104082008497288 -0.09728561675088634 0.0 -0.017714555952778672 0.0 0.0
0.10446152383135027 -0.10243993878901796 0.0 2.285151234904248e-14 0.0 0.0
0.10104082008495571 -0.0972856167508683 0.0 0.017714555952832316 0.0 0.0
0.09298525616130146 -0.08911094929551086 0.0 0.02315647108841701 0.0 0.0
0.08313375166939034 -0.0792309525582118 0.0 0.024658602938982744 0.0 0.0
0.07259462465173801 -0.06875941607029457 0.0 0.023930919065691565 0.0 0.0
0.06212676872715078 -0.05841196711965396 0.0 0.02210466871021255 0.0 0.0
0.05217564832316184 -0.04862307087303919 0.0 0.01975844262330352 0.0 0.0
0.04298809545834021 -0.03963286672139839 0.0 0.01725408731535742 0.0 0.0
0.03465558807642414 -0.03152184940437323 0.0 0.01479338535778122 0.0 0.0
0.027159868163470977 -0.024257389110077982 0.0 0.012378511867335098 0.0 0.0
0.020466516491588326 -0.01777976841288457 0.0 0.009927544360288428 0.0 0.0
0.01460941897681143 -0.012124237211724322 0.0 0.007455601246852966 0.0 0.0
0.009708563508569598 -0.007439432673600857 0.0 0.005116988762558696 0.0 0.0
0.005945653318470441 -0.003958619477323728 0.0 0.0031958319136968995 0.0 0.0
0.0034322891684133577 -0.0018453908407626957 0.0 0.0020153259233409173 0.0 0.0
0.002031696673404969 -0.000889044965104221 0.0 0.0015207723368558276 0.0 0.0
0.0013341202446184547 -0.000547324561440217 0.0 0.0014338765308262607 0.0 0.0
0.0008593134646128118 -0.0003043388148623096 0.0 0.0013677610616915957 0.0 0.0
0.0004426311406994853 -7.19411459481329e-05 0.0 0.001511425776811376 0.0 0.0
0.00160902048476428 -0.00047941328672272096 0.0 0.004093082609489419 0.0 0.0
0.0029568146783698064 -0.00846709078646398 0.0 0.0030202593022565756 0.0 0.0
0.0021690166488742353 -0.006656275563729934 0.0 -0.0024534379953819203 0.0 0.0
0.001176613228576064 -0.00041530954360063325 0.0 -0.0036097232784460917 0.0 0.0
0.00031323538102565534 -6.560216843111976e-05 0.0 -0.001816621831620912 0.0 0.0
0.0006399352351359914 -0.0001979014885175973 0.0 -0.0016518029204764249 0.0 0.0
0.0010442398646170325 -0.0004225567878459442 0.0 -0.0017168119108724952 0.0 0.0
0.0015757727432572778 -0.000673066284394944 0.0 -0.0018114569694778469 0.0 0.0
0.002594921413968022 -0.001281053890481085 0.0 -0.0021904425349632602 0.0 0.0
0.004501408188021985 -0.0027638223244899054 0.0 -0.00322579615452655 0.0 0.0
0.007469939597450235 -0.005417932990552318 0.0 -0.005002632406932134 0.0 0.0
0.011429687906061265 -0.009161373509295937 0.0 -0.007339143160027147 0.0 0.0
0.016175368109146313 -0.013717848323971936 0.0 -0.009852457152315476 0.0 0.0
0.021559339478086637 -0.018908352654420656 0.0 -0.012339434068346273 0.0 0.0
0.027554417569511408 -0.02469595216567453 0.0 -0.014771659661439625 0.0 0.0
0.034210677448056545 -0.031151310557771844 0.0 -0.017232255865851077 0.0 0.0
0.04158086013002107 -0.03834155062556098 0.0 -0.01972639014666396 0.0 0.0
0.04964052148500096 -0.046252951415384776 0.0 -0.02209061198545851 0.0 0.0
0.05824593475016575 -0.05472850104058528 0.0 -0.023970375863331804 0.0 0.0
0.06714253274002366 -0.06351202228337136 0.0 -0.02490085101062575 0.0 0.0
0.0758898640838863 -0.07223017442722855 0.0 -0.023844033213733747 0.0 0.0
0.08364796586322376 -0.08009232729588442 0.0 -0.018799711415977614 0.0 0.0
0.08714233018242597 -0.08580815622004999 0.0 2.081407962650772e-14 0.0 0.0
0.0836479658632093 -0.08009232729586498 0.0 0.018799711416030103 0.0 0.0
0.07588986408386279 -0.07223017442720218 0.0 0.0238440332137864 0.0 0.0
0.06714253273999365 -0.063512022283344 0.0 0.02490085101065675 0.0 0.0
0.05824593475013061 -0.05472850104055263 0.0 0.02397037586333654 0.0 0.0
0.04964052148496305 -0.04625295141534987 0.0 0.02209061198544789 0.0 0.0
0.041580860129983646 -0.03834155062552356 0.0 0.019726390146653713 0.0 0.0
0.034210677448021046 -0.031151310557743117 0.0 0.017232255865838746 0.0 0.0
0.027554417569476974 -0.024695952165640366 0.0 0.01477165966142922 0.0 0.0
0.02155933947805397 -0.018908352654390906 0.0 0.012339434068330064 0.0 0.0
0.01617536810911759 -0.013717848323945115 0.0 0.009852457152295088 0.0 0.0
0.011429687906037695 -0.009161373509275877 0.0 0.007339143160010013 0.0 0.0
0.007469939597432701 -0.005417932990533761 0.0 0.005002632406920782 0.0 0.0
0.004501408188010687 -0.002763822324482273 0.0 0.003225796154519438 0.0 0.0
0.0025949214139622777 -0.0012810538904768959 0.0 0.002190442534959572 0.0 0.0
0.0015757727432552855 -0.0006730662843951228 0.0 0.0018114569694764964 0.0 0.0
0.0010442398646162393 -0.0004225567878467875 0.0 0.0017168119108687718 0.0 0.0
0.0006399352351356342 -0.00019790148851812266 0.0 0.001651802920473514 0.0 0.0
0.0003132353810254675 -6.560216843038253e-05 0.0 0.0018166218316182803 0.0 0.0
0.0011766132285727534 -0.0004153095435995012 0.0 0.003609723278438076 0.0 0.0
0.0021690166488680406 -0.006656275563716617 0.0 0.0024534379953775674 0.0 0.0
0.0015466607104536304 -0.005138613264519548 0.0 -0.0020148595289455726 0.0 0.0
0.0008353034312934012 -0.000369431982229524 0.0 -0.003173560975710042 0.0 0.0
0.00020109772618979478 -5.792664234517515e-05 0.0 -0.002049123774360706 0.0 0.0
0.0004315661982827528 -0.00010352407436391781 0.0 -0.0018970909895042716 0.0 0.0
0.0007584952919271454 -0.0002920628796565885 0.0 -0.0019561980322882057 0.0 0.0
0.0011602957831683028 -0.0004943543770548277 0.0 -0.0020930614132898978 0.0 0.0
0.0018499297950185186 -0.0008488783758818809 0.0 -0.0023493785787409927 0.0 0.0
0.003177376362826967 -0.001765079874785829 0.0 -0.003136350182163869 0.0 0.0
0.005346389758501948 -0.003580352419719661 0.0 -0.00460446749346332 0.0 0.0
0.008324168354675652 -0.006322889865457722 0.0 -0.006658445431985087 0.0 0.0
0.011932880600762634 -0.00974640925697668 0.0 -0.009008284384029657 0.0 0.0
0.016009934219231633 -0.013645062532196531 0.0 -0.011368978963251699 0.0 0.0
0.020513809508316008 -0.017963536106095676 0.0 -0.013672649302420367 0.0 0.0
0.025498113871721167 -0.022772728581588728 0.0 -0.015973275835976835 0.0 0.0
0.031047985650105116 -0.02816089208004006 0.0 -0.018299204881429 0.0 0.0
0.03720001719536241 -0.034174680303857626 0.0 -0.020525604270415203 0.0 0.0
0.04389304500438759 -0.04074507779803499 0.0 -0.022341296213658716 0.0 0.0
0.05104589022519318 -0.04774384952740773 0.0 -0.02335225277025398 0.0 0.0
0.05856558776102683 -0.05514269399967201 0.0 -0.02292120831218851 0.0 0.0
0.06598974418742898 -0.06263141536469632 0.0 -0.019067830131131423 0.0 0.0
0.06957971675544075 -0.06903403454536107 0.0 1.8654348898916595e-14 0.0 0.0
0.0659897441874177 -0.06263141536467881 0.0 0.019067830131179755 0.0 0.0
0.05856558776100852 -0.05514269399965238 0.0 0.022921208312239833 0.0 0.0
0.051045890225170004 -0.04774384952738886 0.0 0.023352252770282963 0.0 0.0
0.04389304500436 -0.04074507779801276 0.0 0.022341296213660367 0.0 0.0
0.037200017195333196 -0.03417468030383105 0.0 0.02052560427040367 0.0 0.0
0.03104798565007722 -0.028160892080013173 0.0 0.01829920488141945 0.0 0.0
0.02549811387169504 -0.022772728581562908 0.0 0.01597327583596773 0.0 0.0
0.020513809508291004 -0.017963536106069267 0.0 0.013672649302411619 0.0 0.0
0.016009934219207333 -0.013645062532173497 0.0 0.011368978963237254 0.0 0.0
0.011932880600740995 -0.009746409256959661 0.0 0.009008284384011769 0.0 0.0
0.008324168354658474 -0.006322889865439972 0.0 0.0066584454319689144 0.0 0.0
0.005346389758489535 -0.003580352419707799 0.0 0.004604467493453192 0.0 0.0
0.00317737636281937 -0.0017650798747811719 0.0 0.0031363501821576934 0.0 0.0
0.0018499297950148267 -0.0008488783758793382 0.0 0.002349378578738903 0.0 0.0
0.0011602957831668118 -0.0004943543770537932 0.0 0.0020930614132888777 0.0 0.0
0.0007584952919266426 -0.00029206287965636635 0.0 0.0019561980322855394 0.0 0.0
0.0004315661982826414 -0.00010352407436411554 0.0 0.0018970909895029125 0.0 0.0
0.00020109772618945798 -5.792664234452119e-05 0.0 0.002049123774359258 0.0 0.0
0.00083530343129107 -0.0003694319822293217 0.0 0.0031735609757044337 0.0 0.0
0.0015466607104493723 -0.0051386132645088265 0.0 0.002014859528942048 0.0 0.0
0.0010772466842608993 -0.003909351715419813 0.0 -0.0017383304449864576 0.0 0.0
0.0005674912156926626 -0.0003430873220389396 0.0 -0.002790365803547935 0.0 0.0
9.063661884419075e-05 -3.7886016982994136e-05 0.0 -0.002213717175917866 0.0 0.0
0.00023142438388268702 -1.83588255475422e-05 0.0 -0.0020921384574437494 0.0 0.0
0.0004713234689953798 -0.0001582665728152578 0.0 -0.002144340040715427 0.0 0.0
0.0007620827406677253 -0.0003206987285897746 0.0 -0.002325673570329449 0.0 0.0
0.0011909196689107475 -0.0005278468236373077 0.0 -0.0025498692831078386 0.0 0.0
0.001992835051937056 -0.0009927517189427869 0.0 -0.003007736088490536 0.0 0.0
0.0033758516899056947 -0.002015337017488503 0.0 -0.0040077716229428625 0.0 0.0
0.005351644558455194 -0.003720350713331505 0.0 -0.0055303313263141045 0.0 0.0
0.007787225689281755 -0.005955132664867206 0.0 -0.007432006186578303 0.0 0.0
0.010539692655850174 -0.008537545015113456 0.0 -0.009446330219338947 0.0 0.0
0.013557307945693662 -0.011385323073393997 0.0 -0.011472569325734042 0.0 0.0
0.01688326163238792 -0.014560764747585588 0.0 -0.013485485630209787 0.0 0.0
0.02061025422001705 -0.018147697397814 0.0 -0.01549248568263411 0.0 0.0
0.02483265596640772 -0.022240619651441154 0.0 -0.01745673634924449 0.0 0.0
0.029588102253678993 -0.02687450802968525 0.0 -0.01914985119061608 0.0 0.0
0.03488971570481331 -0.03202352206999358 0.0 -0.020155330362237413 0.0 0.0
0.040944365641634735 -0.037855829858966364 0.0 -0.020151270664231693 0.0 0.0
0.047871877095308046 -0.04470949094363917 0.0 -0.01816851271783416 0.0 0.0
0.05153614093261707 -0.051893980243487854 0.0 1.5671491881974475e-14 0.0 0.0
0.04787187709530031 -0.044709490943626216 0.0 0.01816851271787506 0.0 0.0
0.0409443656416218 -0.037855829858961534 0.0 0.020151270664277767 0.0 0.0
0.034889715704796445 -0.0320235220699769 0.0 0.02015533036225907 0.0 0.0
0.02958810225365973 -0.026874508029671368 0.0 0.01914985119061381 0.0 0.0
0.024832655966387892 -0.022240619651420327 0.0 0.01745673634923468 0.0 0.0
0.02061025421999873 -0.01814769739780471 0.0 0.015492485682625241 0.0 0.0
0.016883261632371842 -0.014560764747568618 0.0 0.013485485630205487 0.0 0.0
0.013557307945678129 -0.011385323073376492 0.0 0.011472569325726014 0.0 0.0
0.010539692655834354 -0.008537545015096596 0.0 0.009446330219324122 0.0 0.0
0.0077872256892678685 -0.0059551326648590594 0.0 0.007432006186563705 0.0 0.0
0.0053516445584443385 -0.003720350713318806 0.0 0.0055303313263010655 0.0 0.0
0.0033758516898982293 -0.0020153370174844304 0.0 0.004007771622936586 0.0 0.0
0.0019928350519327147 -0.000992751718939345 0.0 0.0030077360884860865 0.0 0.0
0.0011909196689086847 -0.0005278468236361596 0.0 0.0025498692831054325 0.0 0.0
0.0007620827406670583 -0.000320698728587137 0.0 0.0023256735703271244 0.0 0.0
0.0004713234689951856 -0.00015826657281558287 0.0 0.0021443400407126704 0.0 0.0
0.00023142438388232695 -1.835882554722945e-05 0.0 0.0020921384574412553 0.0 0.0
9.063661884362374e-05 -3.788601698273962e-05 0.0 0.0022137171759164507 0.0 0.0
0.0005674912156910075 -0.00034308732203903157 0.0 0.002790365803545363 0.0 0.0
0.001077246684258154 -0.003909351715411978 0.0 0.0017383304449839726 0.0 0.0
0.0007458411975814695 -0.0029499771833545654 0.0 -0.0015767986626960282 0.0 0.0
0.0003630640701897995 -0.00033949089459016244 0.0 -0.00249616124497642 0.0 0.0
-2.318251256846191e-05 -1.7236267565630643e-06 0.0 -0.0023157902736494753 0.0 0.0
3.72568737256556e-05 6.0367187800065565e-05 0.0 -0.0022314080481126725 0.0 0.0
0.00018456752694601111 -2.5457732041098638e-05 0.0 -0.0022788074590882825 0.0 0.0
0.00036091368804339367 -0.00013817501846976677 0.0 -0.002476078610938686 0.0 0.0
0.0005865557475632751 -0.0002560694276587218 0.0 -0.0027399201485142793 0.0 0.0
0.000953114071011008 -0.00043895837089424195 0.0 -0.003011455339756649 0.0 0.0
0.0015965653749201178 -0.0008376828695114894 0.0 -0.00346460959053714 0.0 0.0
0.002568087945201408 -0.0015661938611785053 0.0 -0.004276775757497775 0.0 0.0
0.003798509589465847 -0.002585789618931984 0.0 -0.005483557034826531 0.0 0.0
0.00519250345385975 -0.0037987999544931046 0.0 -0.006957681004864979 0.0 0.0
0.00670921185712403 -0.005155807218877046 0.0 -0.008560874301811362 0.0 0.0
0.008383978671692341 -0.006693291645124923 0.0 -0.0102366896825026 0.0 0.0
0.010291276186148206 -0.008473718802624146 0.0 -0.011976234166083987 0.0 0.0
0.012555371809529212 -0.010611221066252662 0.0 -0.013767546263424288 0.0 0.0
0.015332716015265268 -0.013255815319920324 0.0 -0.01545824011188943 0.0 0.0
0.018758488038514324 -0.016542561816859147 0.0 -0.01659244386765344 0.0 0.0
0.02308569664466661 -0.02064721415096591 0.0 -0.016631909012593867 0.0 0.0
0.029085004787677653 -0.02626371024527203 0.0 -0.01584774392657722 0.0 0.0
0.03264589276224434 -0.034104247287199595 0.0 1.159922852211892e-14 0.0 0.0
0.02908500478767414 -0.026263710245270317 0.0 0.015847743926611743 0.0 0.0
0.02308569664465957 -0.020647214150962236 0.0 0.016631909012630036 0.0 0.0
0.018758488038504315 -0.016542561816848097 0.0 0.016592443867669896 0.0 0.0
0.015332716015255106 -0.013255815319910517 0.0 0.015458240111882956 0.0 0.0
0.012555371809519562 -0.010611221066244025 0.0 0.013767546263412159 0.0 0.0
0.010291276186140697 -0.008473718802616997 0.0 0.011976234166075763 0.0 0.0
0.00838397867168647 -0.006693291645124387 0.0 0.010236689682499401 0.0 0.0
0.00670921185711744 -0.005155807218866678 0.0 0.008560874301804543 0.0 0.0
0.005192503453852715 -0.003798799954485452 0.0 0.006957681004853434 0.0 0.0
0.003798509589459961 -0.002585789618932532 0.0 0.005483557034815207 0.0 0.0
0.0025680879451969547 -0.0015661938611725794 0.0 0.004276775757490175 0.0 0.0
0.0015965653749170322 -0.0008376828695123319 0.0 0.003464609590533801 0.0 0.0
0.0009531140710093357 -0.000438958370893557 0.0 0.0030114553397533952 0.0 0.0
0.0005865557475625613 -0.00025606942765650937 0.0 0.0027399201485122566 0.0 0.0
0.000360913688042891 -0.00013817501846940394 0.0 0.0024760786109366954 0.0 0.0
0.00018456752694584182 -2.545773204113928e-05 0.0 0.0022788074590864133 0.0 0.0
3.7256873725744665e-05 6.036718780123547e-05 0.0 0.0022314080481104677 0.0 0.0
-2.318251256853467e-05 -1.7236267566613159e-06 0.0 0.002315790273647463 0.0 0.0
0.0003630640701886487 -0.0003394908945903612 0.0 0.002496161244973768 0.0 0.0
0.0007458411975793543 -0.0029499771833492072 0.0 0.0015767986626961253 0.0 0.0
0.0005127790379309075 -0.00223234143841321 0.0 -0.001488710694115175 0.0 0.0
0.00020767487956691648 -0.00034364742071697974 0.0 -0.0022938673615248415 0.0 0.0
-0.00013540094978080209 4.296926771510457e-05 0.0 -0.0023628020480040146 0.0 0.0
-0.00015188042427741985 0.00013563391526321542 0.0 -0.0023131027355139393 0.0 0.0
-9.819298044964908e-05 0.00010412520171991231 0.0 -0.0023540174103843067 0.0 0.0
-4.5483229708159406e-05 4.845700068686742e-05 0.0 -0.0025401623615519875 0.0 0.0
-1.6234694692875945e-05 1.2853738784783597e-05 0.0 -0.0028234214991742384 0.0 0.0
-4.66659072082207e-06 2.877087098652529e-06 0.0 -0.0030749864617689907 0.0 0.0
-7.73418773007212e-07 2.4536082785878437e-07 0.0 -0.0032533298095435547 0.0 0.0
4.182791311588014e-07 -1.9497122470964298e-07 0.0 -0.003667082589701784 0.0 0.0
-3.599870367346409e-07 -4.332021479428491e-07 0.0 -0.004467823898212176 0.0 0.0
-7.815664117310941e-06 7.030038732140913e-06 0.0 -0.0056449153335197235 0.0 0.0
-2.521813460831877e-05 2.307890967109767e-05 0.0 -0.0070151848342426435 0.0 0.0
-3.7815556385072634e-05 3.969488534555577e-05 0.0 -0.008530394734461582 0.0 0.0
1.7793542607332652e-05 4.278760444036004e-06 0.0 -0.01019427427050378 0.0 0.0
0.0002962522640890194 -0.00021774456227051603 0.0 -0.01199553808659149 0.0 0.0
0.0010716144309329532 -0.0008701269636012515 0.0 -0.013862567715742668 0.0 0.0
0.002669901122502423 -0.0022761998401574874 0.0 -0.015588919378346658 0.0 0.0
0.0053049883095741815 -0.004561262102707364 0.0 -0.01685410370775409 0.0 0.0
0.00973059044788846 -0.008148157596148908 0.0 -0.017575064603138377 0.0 0.0
0.012565139782460924 -0.016451496979370026 0.0 9.575673587391975e-15 0.0 0.0
0.009730590447887308 -0.0081481575961481 0.0 0.017575064603160665 0.0 0.0
0.005304988309572272 -0.004561262102706682 0.0 0.01685410370776774 0.0 0.0
0.0026699011225008876 -0.0022761998401487292 0.0 0.015588919378349386 0.0 0.0
0.0010716144309334003 -0.0008701269636045124 0.0 0.013862567715733836 0.0 0.0
0.0002962522640903712 -0.0002177445622726016 0.0 0.011995538086582012 0.0 0.0
1.7793542609423644e-05 4.278760448304941e-06 0.0 0.010194274270497192 0.0 0.0
-3.7815556381728954e-05 3.969488534266339e-05 0.0 0.008530394734451895 0.0 0.0
-2.521813460511723e-05 2.3078909672013224e-05 0.0 0.007015184834234247 0.0 0.0
-7.815664114524108e-06 7.03003872791594e-06 0.0 0.0056449153335086134 0.0 0.0
-3.599870346194709e-07 -4.3320215319645914e-07 0.0 0.004467823898204263 0.0 0.0
4.182791325365242e-07 -1.9497122707614462e-07 0.0 0.0036670825896977016 0.0 0.0
-7.734187721745989e-07 2.4536082457677564e-07 0.0 0.003253329809540854 0.0 0.0
-4.666590720465435e-06 2.8770870999470665e-06 0.0 0.0030749864617680726 0.0 0.0
-1.6234694692497545e-05 1.2853738785904717e-05 0.0 0.002823421499172486 0.0 0.0
-4.548322970760357e-05 4.845700068628507e-05 0.0 0.0025401623615487357 0.0 0.0
-9.819298044948119e-05 0.00010412520172062051 0.0 0.0023540174103823955 0.0 0.0
-0.0001518804242779974 0.00013563391526365677 0.0 0.0023131027355136474 0.0 0.0
-0.00013540094978104302 4.2969267714998277e-05 0.0 0.002362802048002622 0.0 0.0
0.00020767487956669658 -0.00034364742071720894 0.0 0.0022938673615219445 0.0 0.0
0.0005127790379301033 -0.0022323414384099846 0.0 0.0014887106941141501 0.0 0.0
0.0003525509079019424 -0.0017078613442139713 0.0 -0.0014275491524212674 0.0 0.0
9.246820929309686e-05 -0.0003338605430430658 0.0 -0.002135833424779396 0.0 0.0
-0.0002410792024825251 8.648169124348585e-05 0.0 -0.0023605137234085334 0.0 0.0
-0.0003348005571853455 0.00020880957928362843 0.0 -0.0023357635109754896 0.0 0.0
-0.00037481151692721616 0.00022849908733818427 0.0 -0.002362071969849474 0.0 0.0
-0.00044804704704662585 0.00023356112702753863 0.0 -0.002520138839966931 0.0 0.0
-0.0006180710862659648 0.00028185431858876784 0.0 -0.0027615063425620637 0.0 0.0
-0.0009624964548223312 0.00044520042800762975 0.0 -0.003023008459898125 0.0 0.0
-0.0015977283994660532 0.0008379658291678388 0.0 -0.0034695127989255504 0.0 0.0
-0.0025664716828413007 0.0015648965744830524 0.0 -0.004275651258258372 0.0 0.0
-0.003799950456371803 0.002586306791865213 0.0 -0.005480380761490983 0.0 0.0
-0.005210258910898483 0.003814237975737842 0.0 -0.006959346429561085 0.0 0.0
-0.006760223417597506 0.005203616202207634 0.0 -0.00855750140068006 0.0 0.0
-0.008455984940020256 0.006772941663058503 0.0 -0.010223786305608858 0.0 0.0
-0.01024739487773543 0.008479030633344533 0.0 -0.011981542978185572 0.0 0.0
-0.011966167352526274 0.010166207066257206 0.0 -0.013909101475727234 0.0 0.0
-0.013288228398938274 0.011518746887900042 0.0 -0.016060033121474148 0.0 0.0
-0.013789580297900093 0.012087778769796099 0.0 -0.01852262929598186 0.0 0.0
-0.01300833304491807 0.011544999820860333 0.0 -0.021234899647523987 0.0 0.0
-0.009251598127970705 0.008863106941211375 0.0 -0.022469485463719616 0.0 0.0
-0.0062667844303343455 -0.000180560641902128 0.0 1.1408408939761472e-14 0.0 0.0
-0.009251598127971744 0.00886310694121439 0.0 0.022469485463741126 0.0 0.0
-0.013008333044913938 0.011544999820857476 0.0 0.02123489964754029 0.0 0.0
-0.013789580297890767 0.01208777876979676 0.0 0.018522629295984572 0.0 0.0
-0.013288228398925735 0.011518746887889035 0.0 0.01606003312146444 0.0 0.0
-0.011966167352513579 0.010166207066238926 0.0 0.013909101475715942 0.0 0.0
-0.010247394877724197 0.00847903063334017 0.0 0.011981542978175934 0.0 0.0
-0.008455984940007669 0.006772941663046589 0.0 0.010223786305598153 0.0 0.0
-0.006760223417584105 0.005203616202195479 0.0 0.00855750140066697 0.0 0.0
-0.005210258910886063 0.0038142379757250752 0.0 0.006959346429547588 0.0 0.0
-0.0037999504563613505 0.002586306791861975 0.0 0.005480380761477123 0.0 0.0
-0.002566471682833975 0.001564896574471153 0.0 0.004275651258250416 0.0 0.0
-0.0015977283994613053 0.0008379658291624206 0.0 0.0034695127989227996 0.0 0.0
-0.000962496454819526 0.00044520042800843477 0.0 0.0030230084598960993 0.0 0.0
-0.0006180710862644567 0.0002818543185863928 0.0 0.0027615063425589894 0.0 0.0
-0.0004480470470460486 0.00023356112702578114 0.0 0.002520138839964138 0.0 0.0
-0.00037481151692679544 0.00022849908733832793 0.0 0.0023620719698468815 0.0 0.0
-0.0003348005571852152 0.00020880957928215378 0.0 0.0023357635109741023 0.0 0.0
-0.00024107920248283145 8.648169124439786e-05 0.0 0.002360513723408317 0.0 0.0
9.246820929270796e-05 -0.00033386054304322557 0.0 0.0021358334247781018 0.0 0.0
0.00035255090790147316 -0.0017078613442119976 0.0 0.0014275491524193794 0.0 0.0
0.0002416102127196955 -0.0012953973273994578 0.0 -0.001324071213602034 0.0 0.0
5.496972145838255e-06 -0.0003060871523955335 0.0 -0.001981594093458804 0.0 0.0
-0.00033922466591326366 0.00012634228868835267 0.0 -0.002307468501029587 0.0 0.0
-0.0005094168570285706 0.00027871827363791925 0.0 -0.002297605554080878 0.0 0.0
-0.0006431089091273007 0.0003462493199761882 0.0 -0.002301206069233914 0.0 0.0
-0.0008402294334672047 0.0004110108365442371 0.0 -0.0024105028324230707 0.0 0.0
-0.0012201787238858347 0.0005556082091197393 0.0 -0.0025966483284962454 0.0 0.0
-0.0020006542279180427 0.0009990173798114343 0.0 -0.0030305892487515616 0.0 0.0
-0.0033749747360429247 0.0020137190785597045 0.0 -0.004011465295213365 0.0 0.0
-0.005349431696529753 0.0037181367791579087 0.0 -0.005526623348546622 0.0 0.0
-0.007790155061513997 0.005958205205736107 0.0 -0.007430763257414813 0.0 0.0
-0.010556864816926458 0.00855380202783386 0.0 -0.009443242395685086 0.0 0.0
-0.013601457498197654 0.011428775340481635 0.0 -0.011440008328292487 0.0 0.0
-0.01694293165507723 0.014629190731221292 0.0 -0.01340186702630492 0.0 0.0
-0.02055980643367509 0.018143090900004703 0.0 -0.015431313384618898 0.0 0.0
-0.024276708998208905 0.021814393755012134 0.0 -0.017741697123751052 0.0 0.0
-0.027715985357377904 0.025264865150303184 0.0 -0.020561290947308696 0.0 0.0
-0.03031186896126281 0.02792154654455454 0.0 -0.024001534350918542 0.0 0.0
-0.030994834316092304 0.028864419326856502 0.0 -0.027391482870160883 0.0 0.0
-0.027626945900548115 0.026008374473034356 0.0 -0.028179433155035027 0.0 0.0
-0.02458126995870973 0.015064805398905878 0.0 1.530026105811544e-14 0.0 0.0
-0.027626945900546686 0.02600837447303751 0.0 0.028179433155072618 0.0 0.0
-0.030994834316083568 0.028864419326853588 0.0 0.027391482870195626 0.0 0.0
-0.03031186896124509 0.02792154654454556 0.0 0.02400153435093098 0.0 0.0
-0.027715985357355144 0.02526486515028018 0.0 0.020561290947302628 0.0 0.0
-0.024276708998185945 0.02181439375498851 0.0 0.017741697123736237 0.0 0.0
-0.020559806433653748 0.01814309089998901 0.0 0.015431313384606488 0.0 0.0
-0.016942931655054876 0.014629190731199893 0.0 0.0134018670262945 0.0 0.0
-0.013601457498174721 0.011428775340457206 0.0 0.0114400083282783 0.0 0.0
-0.010556864816905358 0.00855380202781531 0.0 0.00944324239566684 0.0 0.0
-0.007790155061495484 0.005958205205717856 0.0 0.007430763257393646 0.0 0.0
-0.005349431696515283 0.003718136779144417 0.0 0.005526623348533006 0.0 0.0
-0.003374974736033445 0.0020137190785500937 0.0 0.004011465295206496 0.0 0.0
-0.0020006542279125566 0.0009990173798076925 0.0 0.0030305892487483264 0.0 0.0
-0.0012201787238833388 0.0005556082091183369 0.0 0.002596648328494519 0.0 0.0
-0.0008402294334660285 0.0004110108365443996 0.0 0.00241050283242127 0.0 0.0
-0.0006431089091265796 0.00034624931997715916 0.0 0.0023012060692331037 0.0 0.0
-0.0005094168570283375 0.0002787182736377688 0.0 0.0022976055540781374 0.0 0.0
-0.0003392246659130889 0.00012634228868875274 0.0 0.0023074685010287493 0.0 0.0
5.4969721457090455e-06 -0.0003060871523951933 0.0 0.0019815940934580474 0.0 0.0
0.00024161021271917288 -0.0012953973273978569 0.0 0.001324071213600631 0.0 0.0
0.00015228483285924233 -0.0009483073539908299 0.0 -0.0011731539791757885 0.0 0.0
-6.762091748753414e-05 -0.0002631781445254009 0.0 -0.00181175994915781 0.0 0.0
-0.0004298995615946501 0.000163673231890858 0.0 -0.0022017820205459965 0.0 0.0
-0.0006751186286413891 0.0003440873255408595 0.0 -0.002201848194403358 0.0 0.0
-0.0009001085885740803 0.0004556076460698002 0.0 -0.0021768284249195783 0.0 0.0
-0.0012251978093318452 0.0005785579587035288 0.0 -0.0022131320560351436 0.0 0.0
-0.0018754357665809649 0.0008793087537435622 0.0 -0.002418717598195836 0.0 0.0
-0.003181087697585884 0.0017673723016736948 0.0 -0.0031581555476306745 0.0 0.0
-0.005342521007575422 0.0035757787417019784 0.0 -0.004602176916885348 0.0 0.0
-0.008322835107690857 0.006321635220498855 0.0 -0.0066540199248358335 0.0 0.0
-0.01193741760601704 0.009751839342914058 0.0 -0.009008642171947998 0.0 0.0
-0.016022827452247843 0.013658685804065287 0.0 -0.011360457757218773 0.0 0.0
-0.020539076563538556 0.017989246466174412 0.0 -0.01360988165493278 0.0 0.0
-0.025526162563991768 0.02280620611435128 0.0 -0.015802547607537857 0.0 0.0
-0.03099000649191186 0.028136299585584647 0.0 -0.01811310614027831 0.0 0.0
-0.03676114668771596 0.033838173761364845 0.0 -0.020878866047723193 0.0 0.0
-0.04238744533939494 0.03947397206741942 0.0 -0.024542391558959313 0.0 0.0
-0.046975672396267126 0.044204279276302855 0.0 -0.029113065088479544 0.0 0.0
-0.048915812792101554 0.046460806170796516 0.0 -0.033325163580803584 0.0 0.0
-0.045155398242302525 0.043487983377783354 0.0 -0.03464854369568842 0.0 0.0
-0.04134297240480569 0.029755674705741725 0.0 1.8563275916427813e-14 0.0 0.0
-0.04515539824229763 0.04348798337777923 0.0 0.03464854369573319 0.0 0.0
-0.048915812792087565 0.04646080617078284 0.0 0.03332516358084864 0.0 0.0
-0.046975672396242577 0.04420427927628508 0.0 0.029113065088499757 0.0 0.0
-0.04238744533936376 0.03947397206738348 0.0 0.024542391558957766 0.0 0.0
-0.036761146687683516 0.03383817376134037 0.0 0.02087886604771027 0.0 0.0
-0.030990006491880495 0.02813629958555365 0.0 0.01811310614026293 0.0 0.0
-0.025526162563960064 0.02280620611432409 0.0 0.015802547607525395 0.0 0.0
-0.020539076563506814 0.017989246466147385 0.0 0.01360988165491734 0.0 0.0
-0.016022827452217843 0.013658685804039148 0.0 0.011360457757198395 0.0 0.0
-0.01193741760599037 0.009751839342880361 0.0 0.009008642171925044 0.0 0.0
-0.008322835107670056 0.006321635220479896 0.0 0.006654019924818771 0.0 0.0
-0.005342521007561124 0.003575778741691877 0.0 0.00460217691687447 0.0 0.0
-0.0031810876975768136 0.0017673723016677512 0.0 0.003158155547624911 0.0 0.0
-0.0018754357665765283 0.0008793087537399878 0.0 0.002418717598192585 0.0 0.0
-0.0012251978093301835 0.0005785579587041872 0.0 0.002213132056033485 0.0 0.0
-0.0009001085885732962 0.000455607646071792 0.0 0.002176828424917792 0.0 0.0
-0.0006751186286408625 0.00034408732554056274 0.0 0.0022018481944011317 0.0 0.0
-0.0004298995615941907 0.0001636732318907097 0.0 0.0022017820205448664 0.0 0.0
-6.762091748749737e-05 -0.00026317814452506984 0.0 0.0018117599491571422 0.0 0.0
0.00015228483285903316 -0.0009483073539896214 0.0 0.0011731539791739953 0.0 0.0
7.489063043589889e-05 -0.0006570870867146734 0.0 -0.0010041990258354094 0.0 0.0
-0.00013348337012288964 -0.00020778922402947528 0.0 -0.0016159455210210422 0.0 0.0
-0.0005154733852578267 0.0002000400714949331 0.0 -0.00204376577003534 0.0 0.0
-0.0008320432753173291 0.0004045344779439201 0.0 -0.0020505670709496126 0.0 0.0
-0.0011440927120809628 0.000553314329517549 0.0 -0.0019844648769667557 0.0 0.0
-0.0016240714611399192 0.0007493888929735134 0.0 -0.001956255504240892 0.0 0.0
-0.002612708219763392 0.0013078652289190186 0.0 -0.002260460707139248 0.0 0.0
-0.004498699634201515 0.0027592955100190935 0.0 -0.003237613947141544 0.0 0.0
-0.007465379901632981 0.005412370234901471 0.0 -0.004995968857882131 0.0 0.0
-0.01143046511089796 0.009162454330086675 0.0 -0.007335479632781354 0.0 0.0
-0.016181016051734356 0.01372515018851522 0.0 -0.009853242903213346 0.0 0.0
-0.021564426396604056 0.018916541754696113 0.0 -0.012325292659676244 0.0 0.0
-0.027549843444402908 0.024694469675887357 0.0 -0.01468624730670693 0.0 0.0
-0.03418720687575408 0.031129185658113658 0.0 -0.016996890543325753 0.0 0.0
-0.041510623395647796 0.03828279992224926 0.0 -0.019429477951596663 0.0 0.0
-0.04936999093971497 0.046048262121382535 0.0 -0.02241918439747208 0.0 0.0
-0.0571886141962049 0.053899592823992766 0.0 -0.026505042939789406 0.0 0.0
-0.06369434511515987 0.0606247172356682 0.0 -0.03168290795500426 0.0 0.0
-0.06660436454509601 0.06401647237560068 0.0 -0.03667831023203929 0.0 0.0
-0.0620814895201334 0.06042795851740071 0.0 -0.038710548662013254 0.0 0.0
-0.05736310232488338 0.043985419888526354 0.0 2.0068148531837693e-14 0.0 0.0
-0.062081489520124655 0.06042795851738762 0.0 0.038710548662059335 0.0 0.0
-0.0666043645450765 0.06401647237558025 0.0 0.03667831023208682 0.0 0.0
-0.06369434511512888 0.06062471723563925 0.0 0.03168290795502858 0.0 0.0
-0.057188614196166124 0.05389959282395128 0.0 0.026505042939790183 0.0 0.0
-0.0493699909396738 0.046048262121341894 0.0 0.022419184397459525 0.0 0.0
-0.04151062339560715 0.03828279992221001 0.0 0.019429477951579684 0.0 0.0
-0.034187206875712986 0.031129185658078304 0.0 0.01699689054331301 0.0 0.0
-0.027549843444361982 0.024694469675849574 0.0 0.014686247306690315 0.0 0.0
-0.021564426396565826 0.01891654175465788 0.0 0.012325292659656295 0.0 0.0
-0.016181016051699925 0.013725150188479375 0.0 0.009853242903188914 0.0 0.0
-0.011430465110870133 0.009162454330059678 0.0 0.0073354796327612486 0.0 0.0
-0.00746537990161332 0.0054123702348848005 0.0 0.004995968857870536 0.0 0.0
-0.004498699634188947 0.002759295510010709 0.0 0.0032376139471326348 0.0 0.0
-0.002612708219756908 0.0013078652289141447 0.0 0.0022604607071339297 0.0 0.0
-0.0016240714611372865 0.0007493888929712523 0.0 0.0019562555042384865 0.0 0.0
-0.0011440927120800702 0.0005533143295165703 0.0 0.0019844648769653454 0.0 0.0
-0.0008320432753168515 0.00040453447794374964 0.0 0.002050567070947176 0.0 0.0
-0.0005154733852574489 0.00020004007149483085 0.0 0.0020437657700336682 0.0 0.0
-0.00013348337012284998 -0.0002077892240294693 0.0 0.0016159455210199053 0.0 0.0
7.489063043564909e-05 -0.0006570870867137011 0.0 0.001004199025833091 0.0 0.0
7.191679282841755e-06 -0.00041859613028162287 0.0 -0.0008282009559372706 0.0 0.0
-0.0001940653491572251 -0.00014427155810449287 0.0 -0.0013938288186928272 0.0 0.0
-0.0005971195573016716 0.0002367530759235768 0.0 -0.0018331778341652803 0.0 0.0
-0.0009788774074727343 0.00045941023519219747 0.0 -0.0018428616876285178 0.0 0.0
-0.0013818388673015104 0.0006411547548229298 0.0 -0.0017299498390412461 0.0 0.0
-0.0020571334462075553 0.0009516398731062633 0.0 -0.0016756127424581982 0.0 0.0
-0.0034401665085568613 0.0018615638997571573 0.0 -0.002068123916997097 0.0 0.0
-0.005940192272346806 0.003950066946443267 0.0 -0.0031981353622132437 0.0 0.0
-0.009705245925474218 0.007435558000961394 0.0 -0.005108923449442563 0.0 0.0
-0.014612616782369268 0.0121279618968218 0.0 -0.00745340869244528 0.0 0.0
-0.02047201740822985 0.01778763497632519 0.0 -0.009927384535729696 0.0 0.0
-0.027154490184671018 0.02425755548651532 0.0 -0.012357763084848039 0.0 0.0
-0.03461552589749618 0.03148874725213517 0.0 -0.014695917668401205 0.0 0.0
-0.04290209954364953 0.03954565281777885 0.0 -0.01700245729605043 0.0 0.0
-0.05207764775541455 0.04851327191912689 0.0 -0.01941697549631785 0.0 0.0
-0.0620009064960267 0.05831599174575916 0.0 -0.02229050281777687 0.0 0.0
-0.07196570646378962 0.06834225398593492 0.0 -0.026227170340851473 0.0 0.0
-0.0803048832486424 0.07700506635073018 0.0 -0.031503198513131464 0.0 0.0
-0.08405498016698136 0.08139405302008292 0.0 -0.03715452948927883 0.0 0.0
-0.07878226000982046 0.07714021221089053 0.0 -0.0411564820806385 0.0 0.0
-0.07324174405891622 0.058259999332076526 0.0 2.147067246216494e-14 0.0 0.0
-0.07878226000980877 0.07714021221087275 0.0 0.041156482080684495 0.0 0.0
-0.08405498016695599 0.08139405302005656 0.0 0.03715452948932629 0.0 0.0
-0.08030488324860491 0.07700506635069304 0.0 0.031503198513156284 0.0 0.0
-0.0719657064637436 0.0683422539858869 0.0 0.026227170340852736 0.0 0.0
-0.062000906495977476 0.058315991745705065 0.0 0.022290502817766875 0.0 0.0
-0.052077647755364144 0.048513271919079004 0.0 0.019416975496305482 0.0 0.0
-0.04290209954359864 0.03954565281773247 0.0 0.017002457296037634 0.0 0.0
-0.03461552589744636 0.0314887472520816 0.0 0.01469591766838579 0.0 0.0
-0.027154490184624246 0.02425755548646898 0.0 0.012357763084827481 0.0 0.0
-0.020472017408188853 0.017787634976285722 0.0 0.00992738453570708 0.0 0.0
-0.014612616782335795 0.012127961896788369 0.0 0.00745340869242501 0.0 0.0
-0.00970524592544939 0.007435558000936272 0.0 0.005108923449431075 0.0 0.0
-0.005940192272330308 0.00395006694643001 0.0 0.003198135362203395 0.0 0.0
-0.003440166508547976 0.0018615638997516609 0.0 0.002068123916992213 0.0 0.0
-0.002057133446203911 0.0009516398731045435 0.0 0.0016756127424557635 0.0 0.0
-0.0013818388673001655 0.0006411547548218937 0.0 0.0017299498390401253 0.0 0.0
-0.0009788774074722894 0.00045941023519203647 0.0 0.0018428616876266478 0.0 0.0
-0.000597119557301233 0.00023675307592410004 0.0 0.0018331778341642959 0.0 0.0
-0.00019406534915697432 -0.0001442715581043516 0.0 0.0013938288186911168 0.0 0.0
7.1916792826549e-06 -0.00041859613028110706 0.0 0.0008282009559351 0.0 0.0
-5.015632733921811e-05 -0.0002318555265845184 0.0 -0.0006492980004368578 0.0 0.0
-0.0002486589201436019 -7.752507538808647e-05 0.0 -0.0011476071940413697 0.0 0.0
-0.0006749674542633079 0.000273930827607042 0.0 -0.0015706937586485454 0.0 0.0
-0.0011183842632975735 0.0005084077100901195 0.0 -0.0015784115302006209 0.0 0.0
-0.0016255231034199413 0.000725944906057837 0.0 -0.001423435574681039 0.0 0.0
-0.0025360504776086317 0.0012077201759717743 0.0 -0.0013696454280189823 0.0 0.0
-0.004358984629342533 0.002551568092654634 0.0 -0.0018178712644151879 0.0 0.0
-0.007485658356613328 0.00530702641010515 0.0 -0.003023987131948399 0.0 0.0
-0.012008654489706495 0.009560057588616019 0.0 -0.004828987789897253 0.0 0.0
-0.017823930520855444 0.01515228135952363 0.0 -0.006973640831456032 0.0 0.0
-0.02478738990281923 0.02189626978591009 0.0 -0.009257097059946037 0.0 0.0
-0.03276747116862926 0.029642495314869052 0.0 -0.011498106133070268 0.0 0.0
-0.041712568653266203 0.03833771309827507 0.0 -0.013670413922508402 0.0 0.0
-0.05165509246706441 0.04802684361545261 0.0 -0.01584947685640423 0.0 0.0
-0.06264115104396721 0.058778572820821634 0.0 -0.01810565321528474 0.0 0.0
-0.07453708640337242 0.07052278177876128 0.0 -0.02058320474800705 0.0 0.0
-0.0865621226142982 0.08261566002681792 0.0 -0.023802619260402325 0.0 0.0
-0.0966896421861682 0.09316745305032745 0.0 -0.028563979001690887 0.0 0.0
-0.10135910026175607 0.09863073353936333 0.0 -0.03497976174766008 0.0 0.0
-0.09559098908249002 0.09398762143502647 0.0 -0.04236266176162834 0.0 0.0
-0.08939484705946499 0.07298445672124097 0.0 1.8115717259625796e-14 0.0 0.0
-0.09559098908247497 0.09398762143501312 0.0 0.0423626617616733 0.0 0.0
-0.10135910026172498 0.09863073353933303 0.0 0.03497976174770392 0.0 0.0
-0.09668964218612427 0.09316745305028304 0.0 0.028563979001713438 0.0 0.0
-0.08656212261424556 0.08261566002676651 0.0 0.023802619260404233 0.0 0.0
-0.07453708640331452 0.07052278177869907 0.0 0.020583204747998286 0.0 0.0
-0.06264115104390765 0.058778572820765415 0.0 0.01810565321527609 0.0 0.0
-0.05165509246700495 0.04802684361539263 0.0 0.015849476856392018 0.0 0.0
-0.041712568653207285 0.03833771309821772 0.0 0.013670413922493803 0.0 0.0
-0.03276747116857416 0.029642495314819377 0.0 0.01149810613305198 0.0 0.0
-0.024787389902771052 0.021896269785863124 0.0 0.009257097059925131 0.0 0.0
-0.017823930520815857 0.015152281359482683 0.0 0.006973640831438685 0.0 0.0
-0.012008654489676437 0.009560057588587379 0.0 0.004828987789887705 0.0 0.0
-0.007485658356592675 0.005307026410087603 0.0 0.0030239871319401477 0.0 0.0
-0.0043589846293307435 0.0025515680926434504 0.0 0.0018178712644090897 0.0 0.0
-0.002536050477603662 0.0012077201759693099 0.0 0.0013696454280169173 0.0 0.0
-0.001625523103418439 0.000725944906057864 0.0 0.0014234355746793334 0.0 0.0
-0.0011183842632970032 0.0005084077100894599 0.0 0.001578411530199789 0.0 0.0
-0.0006749674542629366 0.0002739308276072594 0.0 0.001570693758647499 0.0 0.0
-0.00024865892014347836 -7.752507538774867e-05 0.0 0.0011476071940401539 0.0 0.0
-5.015632733915987e-05 -0.00023185552658418784 0.0 0.0006492980004357933 0.0 0.0
-9.452033123356557e-05 -9.717660826209349e-05 0.0 -0.00047203942598650806 0.0 0.0
-0.00029440657488834904 -1.2854512055471718e-05 0.0 -0.0008801701843193879 0.0 0.0
-0.0007477010291104271 0.0003103451488885642 0.0 -0.001255089467326773 0.0 0.0
-0.001253681103868078 0.0005517616386185557 0.0 -0.0012553059287805865 0.0 0.0
-0.0018859559787875878 0.0008205153072542143 0.0 -0.0010677818650927837 0.0 0.0
-0.003075316387687752 0.0015359102459771663 0.0 -0.0010227311167928356 0.0 0.0
-0.0053702421255571444 0.003382514987883798 0.0 -0.001515494376189287 0.0 0.0
-0.009091915683108267 0.006763736481270039 0.0 -0.002606838589353515 0.0 0.0
-0.014329548026474972 0.011727650653107352 0.0 -0.004111902877608735 0.0 0.0
-0.021042088428183957 0.018200980623964663 0.0 -0.005926512015403136 0.0 0.0
-0.029099594985400337 0.026018319468029356 0.0 -0.007862073295621181 0.0 0.0
-0.038378637515709815 0.035041003800554166 0.0 -0.009764891235330841 0.0 0.0
-0.048819631715823916 0.045210857497648325 0.0 -0.011622262224539777 0.0 0.0
-0.06041867878507347 0.056544595640671616 0.0 -0.013526544618184455 0.0 0.0
-0.07316842611576975 0.06904889488832341 0.0 -0.015508319614717901 0.0 0.0
-0.08689093754838059 0.08258893371210298 0.0 -0.017462800475235792 0.0 0.0
-0.10079965632268097 0.09652416953171078 0.0 -0.019520385633946705 0.0 0.0
-0.11272544235321866 0.10892685067006233 0.0 -0.02295015479075663 0.0 0.0
-0.11862529225995841 0.11579706089646691 0.0 -0.03006822385553371 0.0 0.0
-0.11282531228217346 0.11131941208623516 0.0 -0.04207888960372219 0.0 0.0
-0.1062062158742195 0.08856917024612744 0.0 1.5107706752282013e-14 0.0 0.0
-0.11282531228215496 0.11131941208622714 0.0 0.042078889603761965 0.0 0.0
-0.11862529225992197 0.11579706089642972 0.0 0.03006822385557325 0.0 0.0
-0.1127254423531672 0.1089268506700153 0.0 0.02295015479077597 0.0 0.0
-0.10079965632262015 0.09652416953165048 0.0 0.019520385633948017 0.0 0.0
-0.08689093754831442 0.08258893371204235 0.0 0.017462800475232708 0.0 0.0
-0.07316842611570107 0.069048894888257 0.0 0.015508319614711098 0.0 0.0
-0.060418678785004946 0.0565445956406021 0.0 0.01352654461817428 0.0 0.0
-0.048819631715756526 0.045210857497582996 0.0 0.011622262224528843 0.0 0.0
-0.038378637515646505 0.03504100380048976 0.0 0.009764891235313922 0.0 0.0
-0.029099594985345208 0.026018319467974466 0.0 0.007862073295602701 0.0 0.0
-0.02104208842813857 0.018200980623921857 0.0 0.005926512015388045 0.0 0.0
-0.014329548026440184 0.011727650653072864 0.0 0.004111902877599613 0.0 0.0
-0.00909191568308413 0.006763736481247411 0.0 0.0026068385893451584 0.0 0.0
-0.005370242125542732 0.003382514987870405 0.0 0.0015154943761837526 0.0 0.0
-0.003075316387680966 0.0015359102459729258 0.0 0.001022731116790514 0.0 0.0
-0.0018859559787852186 0.0008205153072526616 0.0 0.001067781865092623 0.0 0.0
-0.0012536811038672032 0.0005517616386178044 0.0 0.0012553059287788973 0.0 0.0
-0.0007477010291096013 0.00031034514888852164 0.0 0.0012550894673254963 0.0 0.0
-0.0002944065748879441 -1.2854512055357587e-05 0.0 0.0008801701843190082 0.0 0.0
-9.452033123356758e-05 -9.717660826187248e-05 0.0 0.0004720394259855681 0.0 0.0
-0.00012109541437772603 -1.5312711254513536e-05 0.0 -0.0003062176412650834 0.0 0.0
-0.00032568225363509187 4.3104796485065645e-05 0.0 -0.0005953378050827142 0.0 0.0
-0.0008126264749166182 0.00034296199118393427 0.0 -0.0008801173637431942 0.0 0.0
-0.0013907915795261445 0.0005924326329965198 0.0 -0.0008683899412632847 0.0 0.0
-0.002176472597313746 0.0009402451847405967 0.0 -0.0006719516031265172 0.0 0.0
-0.0036879137128779547 0.0019664069695938024 0.0 -0.0006487395767080759 0.0 0.0
-0.006444586396458162 0.004321392887263326 0.0 -0.0010939934221447804 0.0 0.0
-0.010720641115973699 0.008262222330260414 0.0 -0.0018821331843600544 0.0 0.0
-0.016651011770567378 0.013911089870695871 0.0 -0.002986229630144098 0.0 0.0
-0.024240633201615375 0.02124386093144295 0.0 -0.004321636319213711 0.0 0.0
-0.0333838469054783 0.030124648762402978 0.0 -0.0057536275133822775 0.0 0.0
-0.0439618132862931 0.04042479693661084 0.0 -0.007164492241316373 0.0 0.0
-0.05590449718067807 0.05207874575551302 0.0 -0.008559530801268625 0.0 0.0
-0.06917120231536053 0.06506576638168832 0.0 -0.010038948018445846 0.0 0.0
-0.08364599549383347 0.07929791642597496 0.0 -0.011591278673820782 0.0 0.0
-0.09901394547996992 0.09449365312215356 0.0 -0.012977857951021791 0.0 0.0
-0.11451541983159266 0.1099543734184345 0.0 -0.013918361086047304 0.0 0.0
-0.12822602759503754 0.1239874329706416 0.0 -0.01533392227575845 0.0 0.0
-0.1358788643941142 0.13280775737337852 0.0 -0.02160660174638864 0.0 0.0
-0.13082080452923986 0.12955084512206938 0.0 -0.03930165569275883 0.0 0.0
-0.1241711726347697 0.10560294961383551 0.0 1.1367642938076017e-14 0.0 0.0
-0.13082080452921768 0.12955084512205378 0.0 0.039301655692787894 0.0 0.0
-0.13587886439407196 0.13280775737333397 0.0 0.02160660174641979 0.0 0.0
-0.12822602759497898 0.1239874329705826 0.0 0.015333922275771777 0.0 0.0
-0.11451541983152361 0.10995437341836463 0.0 0.013918361086047725 0.0 0.0
-0.09901394547989534 0.09449365312208612 0.0 0.012977857951021968 0.0 0.0
-0.08364599549375641 0.07929791642590131 0.0 0.011591278673818295 0.0 0.0
-0.06917120231528268 0.0650657663816153 0.0 0.010038948018436581 0.0 0.0
-0.05590449718060204 0.052078745755437694 0.0 0.008559530801259778 0.0 0.0
-0.04396181328622225 0.040424796936540025 0.0 0.007164492241303961 0.0 0.0
-0.03338384690541594 0.030124648762341222 0.0 0.005753627513369028 0.0 0.0
-0.024240633201564582 0.021243860931396023 0.0 0.004321636319202557 0.0 0.0
-0.016651011770528162 0.013911089870657704 0.0 0.0029862296301366715 0.0 0.0
-0.010720641115945695 0.008262222330233835 0.0 0.001882133184354848 0.0 0.0
-0.006444586396441089 0.0043213928872515555 0.0 0.0010939934221406813 0.0 0.0
-0.0036879137128696003 0.0019664069695857923 0.0 0.0006487395767059646 0.0 0.0
-0.0021764725973109737 0.000940245184739208 0.0 0.0006719516031264111 0.0 0.0
-0.0013907915795251555 0.0005924326329958565 0.0 0.0008683899412630762 0.0 0.0
-0.0008126264749157699 0.00034296199118375153 0.0 0.000880117363743595 0.0 0.0
-0.00032568225363468415 4.310479648523304e-05 0.0 0.0005953378050817995 0.0 0.0
-0.00012109541437756472 -1.5312711254656038e-05 0.0 0.0003062176412647854 0.0 0.0
-0.00012149752244882086 1.3869226926275307e-05 0.0 -0.0001732494208096928 0.0 0.0
-0.00033262203907752553 8.012175910012509e-05 0.0 -0.00029822485171211027 0.0 0.0
-0.0008652599759999627 0.00036640153304652134 0.0 -0.0004293402267912013 0.0 0.0
-0.0015394786846435783 0.0006399062453239985 0.0 -0.00041149883951913395 0.0 0.0
-0.0025155913698216067 0.00110903027909155 0.0 -0.00025006906506583494 0.0 0.0
-0.004365630713234495 0.002499504866311641 0.0 -0.00023293469504988116 0.0 0.0
-0.007556526717525101 0.005321417820582155 0.0 -0.00047974813239261694 0.0 0.0
-0.012352007633711548 0.009779580814835683 0.0 -0.0008875302414318048 0.0 0.0
-0.018947908308168334 0.01608320411969453 0.0 -0.0014586295605836398 0.0 0.0
-0.02739405591691426 0.024251384561704434 0.0 -0.0021664417925170085 0.0 0.0
-0.03761313704361141 0.03418697852038434 0.0 -0.0029305209632877953 0.0 0.0
-0.04949240449454992 0.045769526536334856 0.0 -0.0036976118544353887 0.0 0.0
-0.06294485250766621 0.058914537800854566 0.0 -0.004501470362951899 0.0 0.0
-0.07786818181089897 0.07354592131693638 0.0 -0.005372820918982351 0.0 0.0
-0.09403782731466345 0.08948090548581451 0.0 -0.006282775663303969 0.0 0.0
-0.11095684637291936 0.10626062946652196 0.0 -0.007068041456380817 0.0 0.0
-0.127714779744421 0.12298988803599184 0.0 -0.007368479918137832 0.0 0.0
-0.14277719127970487 0.13812869683995657 0.0 -0.007237205204105392 0.0 0.0
-0.15283156814125798 0.14883280450587477 0.0 -0.010122270847882588 0.0 0.0
-0.15006211946633433 0.14898986066940084 0.0 -0.028831030867911202 0.0 0.0
-0.14410467705525135 0.12582462505348746 0.0 6.0836752302506625e-15 0.0 0.0
-0.15006211946630804 0.14898986066937708 0.0 0.028831030867929063 0.0 0.0
-0.15283156814120955 0.14883280450582773 0.0 0.010122270847902149 0.0 0.0
-0.1427771912796378 0.13812869683988532 0.0 0.007237205204111341 0.0 0.0
-0.12771477974434253 0.12298988803591471 0.0 0.007368479918137353 0.0 0.0
-0.1109568463728355 0.10626062946643833 0.0 0.007068041456381652 0.0 0.0
-0.0940378273145773 0.08948090548572786 0.0 0.00628277566330295 0.0 0.0
-0.0778681818108122 0.07354592131685603 0.0 0.005372820918977133 0.0 0.0
-0.06294485250758121 0.058914537800770536 0.0 0.004501470362949554 0.0 0.0
-0.049492404494471155 0.045769526536259424 0.0 0.003697611854428744 0.0 0.0
-0.03761313704354301 0.03418697852031682 0.0 0.0029305209632791624 0.0 0.0
-0.027394055916858454 0.024251384561651226 0.0 0.002166441792508945 0.0 0.0
-0.01894790830812462 0.016083204119653735 0.0 0.0014586295605796113 0.0 0.0
-0.012352007633679796 0.009779580814804895 0.0 0.000887530241428838 0.0 0.0
-0.007556526717505373 0.005321417820565104 0.0 0.0004797481323895378 0.0 0.0
-0.004365630713224301 0.002499504866301345 0.0 0.00023293469504879363 0.0 0.0
-0.002515591369817656 0.0011090302790895856 0.0 0.00025006906506523874 0.0 0.0
-0.001539478684642303 0.0006399062453246498 0.0 0.00041149883952049435 0.0 0.0
-0.0008652599759992955 0.0003664015330455883 0.0 0.00042934022679209374 0.0 0.0
-0.00033262203907727996 8.012175910042504e-05 0.0 0.0002982248517116295 0.0 0.0
-0.00012149752244867032 1.3869226926060705e-05 0.0 0.00017324942081043621 0.0 0.0
-8.063679857030513e-05 1.5417496528222867e-05 0.0 -0.0001071528247281511 0.0 0.0
-0.00029799657960134947 9.228626172603702e-05 0.0 -0.00012386890015763573 0.0 0.0
-0.0008997580871016359 0.00037502455950541396 0.0 -0.00014436715916974342 0.0 0.0
-0.0017167484121366086 0.0006669477270359082 0.0 -0.00010514602760825967 0.0 0.0
-0.0029149162898974975 0.0012102740259086792 0.0 0.00011378463829581211 0.0 0.0
-0.005092883651209077 0.002787298194281108 0.0 0.00030588623933578167 0.0 0.0
-0.008685844512085513 0.005831865194301509 0.0 0.00039009594954917965 0.0 0.0
-0.013969106059559682 0.010540721693968583 0.0 0.00042043833247471527 0.0 0.0
-0.021197169951955128 0.01716271663065798 0.0 0.00039937208676609913 0.0 0.0
-0.030475222216297258 0.025742826776435045 0.0 0.0002957801994966417 0.0 0.0
-0.04176228524997179 0.03620327880982023 0.0 0.00015209832033114337 0.0 0.0
-0.054950097611638146 0.04842966763971912 0.0 -3.014692069734995e-05 0.0 0.0
-0.06990388173334819 0.06232124270602618 0.0 -0.00029571878740934556 0.0 0.0
-0.08646030647216132 0.07776882792101943 0.0 -0.0006162512347928605 0.0 0.0
-0.10430541150891098 0.09454960936406746 0.0 -0.0010318735045186517 0.0 0.0
-0.12276333243471982 0.11211383817144686 0.0 -0.0014825762094734327 0.0 0.0
-0.14065147734209335 0.12943321647322087 0.0 -0.0017588693070294953 0.0 0.0
-0.15631825319988024 0.14496324144368128 0.0 -0.001588244148703035 0.0 0.0
-0.16788626425702696 0.15641959596535296 0.0 -0.002820335508830636 0.0 0.0
-0.1706893949684394 0.15902798607574828 0.0 -0.021381216947227284 0.0 0.0
-0.16897202854792498 0.13707655417575584 0.0 1.8318679906315083e-15 0.0 0.0
-0.17068939496840996 0.15902798607572144 0.0 0.021381216947234556 0.0 0.0
-0.16788626425697228 0.15641959596530455 0.0 0.002820335508838017 0.0 0.0
-0.15631825319980397 0.14496324144360861 0.0 0.0015882441487034618 0.0 0.0
-0.14065147734200495 0.12943321647313927 0.0 0.001758869307028595 0.0 0.0
-0.12276333243462692 0.11211383817135717 0.0 0.0014825762094730771 0.0 0.0
-0.1043054115088162 0.09454960936396854 0.0 0.0010318735045156124 0.0 0.0
-0.0864603064720652 0.07776882792093207 0.0 0.000616251234788829 0.0 0.0
-0.06990388173325446 0.062321242705936426 0.0 0.0002957187874094609 0.0 0.0
-0.05495009761155201 0.048429667639634535 0.0 3.014692069440439e-05 0.0 0.0
-0.04176228524989706 0.0362032788097482 0.0 -0.00015209832033420516 0.0 0.0
-0.030475222216236178 0.025742826776379093 0.0 -0.00029578019950278 0.0 0.0
-0.021197169951906836 0.01716271663061547 0.0 -0.00039937208676680495 0.0 0.0
-0.013969106059524283 0.010540721693934144 0.0 -0.00042043833247478314 0.0 0.0
-0.008685844512063579 0.005831865194279689 0.0 -0.0003900959495504407 0.0 0.0
-0.00509288365119746 0.0027872981942723618 0.0 -0.00030588623933605857 0.0 0.0
-0.0029149162898925093 0.0012102740259055922 0.0 -0.00011378463829594715 0.0 0.0
-0.001716748412134754 0.0006669477270356485 0.0 0.00010514602760972231 0.0 0.0
-0.0008997580871005081 0.00037502455950470445 0.0 0.00014436715917049626 0.0 0.0
-0.00029799657960082266 9.228626172589828e-05 0.0 0.00012386890015805407 0.0 0.0
-8.063679856988907e-05 1.5417496528148504e-05 0.0 0.0001071528247293941 0.0 0.0
SCALARS Statev float 8
LOOKUP_TABLE default
0.0 0.01798180500552967 0.014401239991617267 -0.01717530405054941 0.002774064058932134 -0.0009251495947891455 0.0 0.0
0.0 0.006086599022380423 0.0044692872132508915 -0.002755646507768425 -0.0017136407054824665 -0.006748354589187621 0.0 0.0
0.0 0.00010595228580170497 0.00015440451026531237 -9.567297014946998e-05 -5.8731540115842436e-05 -0.00027619091366278274 0.0 0.0
0.0 0.0001451103712659357 6.067710252493724e-05 -4.349341422767183e-05 -1.7183688297265583e-05 2.0346975051078606e-05 0.0 0.0
0.0 0.0009088305123355878 0.0005956808261165553 -0.000435105769203425 -0.00016057505691312969 0.0001266277745664211 0.0 0.0
0.0 0.0023469600084534 0.002332940609252099 -0.0018413955258024673 -0.0004915450834496354 0.0002660995136441197 0.0 0.0
0.0 0.005987919491098189 0.005500294553021806 -0.004687943821759336 -0.000812350731262464 0.0003752783890913082 0.0 0.0
0.0 0.011523961121358268 0.010422288436954363 -0.009352985672638186 -0.0010693027643161827 0.00042812583120368353 0.0 0.0
0.0 0.019341498653071616 0.01729243988144467 -0.0160010288100676 -0.001291411071377075 0.00042624745493620886 0.0 0.0
0.0 0.029562630605887395 0.02619278433264113 -0.02466285476843185 -0.0015299295642093153 0.00034657620198363595 0.0 0.0
0.0 0.04212822424947498 0.03708181912037979 -0.0352743542784061 -0.0018074648419736349 0.00022284192993315304 0.0 0.0
0.0 0.05659449382779276 0.049862750452464966 -0.04773472752121334 -0.0021280229312515843 5.237252883769029e-05 0.0 0.0
0.0 0.07317999926710612 0.06441365952007437 -0.06193181804605488 -0.0024818414740194884 -0.00020354059635338323 0.0 0.0
0.0 0.09168042074818761 0.08060953064867818 -0.07775319184469849 -0.0028563388039795526 -0.0004935251387000288 0.0 0.0
0.0 0.11186773599126253 0.09824749456638099 -0.0950138753180181 -0.0032336192483627306 -0.0008555948262821822 0.0 0.0
0.0 0.1332838048605826 0.11689079837068568 -0.11329667540266992 -0.0035941229680156884 -0.0012850132828078572 0.0 0.0
0.0 0.1549931311644628 0.1357584043464575 -0.13183981246735307 -0.003918591879104373 -0.0017030322785994948 0.0 0.0
0.0 0.1756676499238044 0.1537093181608396 -0.149521998588802 -0.004187319572037625 -0.0019511442579556578 0.0 0.0
0.0 0.19367651171908637 0.16934079570358213 -0.16494725656659315 -0.004393539136988767 -0.001852933473816052 0.0 0.0
0.0 0.206876407634905 0.1809887517781431 -0.17647625417516824 -0.0045124976029749745 -0.0020155465118949466 0.0 0.0
0.0 0.21236932916579737 0.18564784521372393 -0.1811519759088227 -0.004495869304901192 1.519617764955683e-15 0.0 0.0
0.0 0.20687640763487455 0.18098875177811685 -0.17647625417514187 -0.004512497602975004 0.0020155465119024813 0.0 0.0
0.0 0.19367651171903097 0.16934079570353305 -0.16494725656654607 -0.004393539136986983 0.0018529334738228882 0.0 0.0
0.0 0.17566764992372047 0.15370931816076652 -0.14952199858872978 -0.004187319572036803 0.0019511442579604448 0.0 0.0
0.0 0.15499313116436472 0.13575840434637243 -0.13183981246726925 -0.003918591879103177 0.0017030322785982523 0.0 0.0
0.0 0.13328380486048058 0.11689079837059585 -0.1132966754025827 -0.0035941229680133036 0.001285013282804219 0.0 0.0
0.0 0.11186773599116204 0.09824749456629298 -0.0950138753179324 -0.003233619248360401 0.0008555948262818384 0.0 0.0
0.0 0.09168042074808726 0.08060953064859033 -0.07775319184461313 -0.0028563388039773087 0.000493525138698144 0.0 0.0
0.0 0.07317999926700448 0.06441365951998577 -0.06193181804596798 -0.0024818414740177134 0.00020354059635120268 0.0 0.0
0.0 0.05659449382769925 0.04986275045238321 -0.047734727521132995 -0.002128022931250166 -5.2372528840037916e-05 0.0 0.0
0.0 0.04212822424940213 0.0370818191203155 -0.03527435427834446 -0.0018074648419710293 -0.0002228419299351483 0.0 0.0
0.0 0.029562630605824244 0.0261927843325859 -0.02466285476837816 -0.0015299295642077454 -0.0003465762019860879 0.0 0.0
0.0 0.019341498653026097 0.017292439881404338 -0.016001028810028677 -0.0012914110713756423 -0.0004262474549360902 0.0 0.0
0.0 0.011523961121324412 0.010422288436923877 -0.00935298567260892 -0.0010693027643149558 -0.0004281258312036351 0.0 0.0
0.0 0.0059879194910778845 0.005500294553002704 -0.004687943821741772 -0.0008123507312609245 -0.00037527838909106714 0.0 0.0
0.0 0.00234696000844388 0.0023329406092424494 -0.001841395525794307 -0.000491545083448142 -0.0002660995136432949 0.0 0.0
0.0 0.0009088305123313332 0.0005956808261135812 -0.0004351057692012797 -0.00016057505691230027 -0.00012662777456558128 0.0 0.0
0.0 0.00014511037126536025 6.067710252520733e-05 -4.349341422788896e-05 -1.718368829731779e-05 -2.034697505103191e-05 0.0 0.0
0.0 0.0001059522858009819 0.0001544045102647952 -9.567297014914979e-05 -5.8731540115644745e-05 0.00027619091366159603 0.0 0.0
0.0 0.006086599022369941 0.004469287213245349 -0.002755646507764354 -0.0017136407054809937 0.006748354589178326 0.0 0.0
0.0 0.017981805005508417 0.0144012399916029 -0.017175304050529673 0.002774064058926766 0.0009251495947507263 0.0 0.0
0.0 0.014647982215028513 0.010968414220249915 -0.014195183644464112 0.0032267694242141885 -0.0004428519806529154 0.0 0.0
0.0 0.0037195869612475846 0.002667857442781863 -0.0016213182123436733 -0.0010465392304381863 -0.005288001418839995 0.0 0.0
0.0 -7.036836810188802e-05 -6.757657352908102e-05 5.983899851532791e-05 7.737575013753113e-06 -7.051301511959929e-05 0.0 0.0
0.0 2.9135711811172828e-05 2.0571558030208725e-05 -1.4852468071744136e-05 -5.719089958464596e-06 9.452894368576528e-06 0.0 0.0
0.0 0.0004888853587924975 0.0003796063849795309 -0.00027949002001250627 -0.0001001163649670245 5.134447283777448e-05 0.0 0.0
0.0 0.0020535986386747236 0.001778057879437632 -0.0014169447161199735 -0.00036111316331765956 5.350416183409421e-05 0.0 0.0
0.0 0.00507033757086653 0.004650048992417974 -0.004010123046026572 -0.0006399259463913966 -0.0001840393347200327 0.0 0.0
0.0 0.01020554896542667 0.009158712902996448 -0.0083330000460039 -0.0008257128569925511 -0.0005859085784378528 0.0 0.0
0.0 0.01749921706555199 0.01549675821115936 -0.014552464500174117 -0.0009442937109852378 -0.001150168639546325 0.0 0.0
0.0 0.02695903547842518 0.0237029414355437 -0.02265998558697222 -0.0010429558485714517 -0.0018479389634350734 0.0 0.0
0.0 0.03852911283107294 0.0337037625710206 -0.032563752958017965 -0.0011400096130026632 -0.00261262866518309 0.0 0.0
0.0 0.0521881742695656 0.04539443564724749 -0.04415411450465297 -0.0012403211425945052 -0.0033950984622210653 0.0 0.0
0.0 0.06725802754095324 0.058699139696260144 -0.0573552098033079 -0.0013439298929521634 -0.0042185854724311935 0.0 0.0
0.0 0.08437570057985024 0.07352675368406486 -0.0720829685180885 -0.0014437851659763494 -0.00509149135879849 0.0 0.0
0.0 0.10304338380247664 0.08970445732008708 -0.08817559119544902 -0.001528866124637987 -0.005992202208596901 0.0 0.0
0.0 0.12285095127766033 0.10684695892334199 -0.10525714870574332 -0.0015898102175987546 -0.006851615452229847 0.0 0.0
0.0 0.14301681246556144 0.12425430803309266 -0.12263356049307635 -0.001620747540016164 -0.007462405814127074 0.0 0.0
0.0 0.162338087324514 0.1408926058838772 -0.1392700003980576 -0.0016226054858197564 -0.007500569788530706 0.0 0.0
0.0 0.17919179025443618 0.15540505580931546 -0.153813575566672 -0.001591480242643433 -0.006734973469357023 0.0 0.0
0.0 0.19149173899550676 0.1659300367166674 -0.16445898516187907 -0.0014710515547883794 -0.005624867567468829 0.0 0.0
0.0 0.1967237993294355 0.1700286763540334 -0.16874565111208123 -0.0012830252419522407 6.8382799423005736e-15 0.0 0.0
0.0 0.1914917389954763 0.1659300367166408 -0.16445898516185206 -0.0014710515547886628 0.005624867567487066 0.0 0.0
0.0 0.17919179025438786 0.1554050558092729 -0.1538135755666309 -0.0015914802426418725 0.006734973469375832 0.0 0.0
0.0 0.16233808732443977 0.14089260588381336 -0.13927000039799337 -0.0016226054858199189 0.007500569788540974 0.0 0.0
0.0 0.14301681246547096 0.12425430803301502 -0.12263356049299833 -0.0016207475400167274 0.007462405814127232 0.0 0.0
0.0 0.12285095127756934 0.10684695892326292 -0.10525714870566484 -0.0015898102175978567 0.00685161545222584 0.0 0.0
0.0 0.10304338380238316 0.0897044573200058 -0.08817559119536837 -0.0015288661246375126 0.005992202208594792 0.0 0.0
0.0 0.0843757005797592 0.07352675368398566 -0.0720829685180104 -0.0014437851659751257 0.005091491358795159 0.0 0.0
0.0 0.06725802754086178 0.058699139696181096 -0.057355209803229286 -0.0013439298929518741 0.004218585472427261 0.0 0.0
0.0 0.052188174269482315 0.04539443564717503 -0.044154114504580906 -0.0012403211425941183 0.003395098462215174 0.0 0.0
0.0 0.0385291128310044 0.03370376257096109 -0.03256375295795927 -0.001140009613001848 0.002612628665176408 0.0 0.0
0.0 0.026959035478366495 0.023702941435492227 -0.022659985586921148 -0.0010429558485710645 0.0018479389634292165 0.0 0.0
0.0 0.017499217065508468 0.015496758211120652 -0.014552464500136128 -0.0009442937109845268 0.0011501686395429724 0.0 0.0
0.0 0.010205548965396756 0.00915871290296961 -0.0083330000459778 -0.0008257128569918212 0.0005859085784349858 0.0 0.0
0.0 0.0050703375708475015 0.004650048992400457 -0.004010123046010252 -0.0006399259463901998 0.00018403933471824814 0.0 0.0
0.0 0.002053598638665349 0.001778057879429393 -0.001416944716113018 -0.00036111316331637457 -5.350416183428074e-05 0.0 0.0
0.0 0.0004888853587898074 0.0003796063849778213 -0.0002794900200112748 -0.00010011636496654658 -5.134447283729037e-05 0.0 0.0
0.0 2.9135711810786137e-05 2.05715580305125e-05 -1.4852468071981923e-05 -5.719089958530409e-06 -9.45289436856235e-06 0.0 0.0
0.0 -7.036836810169427e-05 -6.757657352887193e-05 5.983899851511692e-05 7.737575013754828e-06 7.051301511920844e-05 0.0 0.0
0.0 0.003719586961237251 0.002667857442776247 -0.0016213182123396663 -0.0010465392304365821 0.005288001418829396 0.0 0.0
0.0 0.014647982215005807 0.010968414220232533 -0.014195183644442316 0.003226769424209769 0.00044285198062416094 0.0 0.0
0.0 0.010894581803599097 0.007984012595278431 -0.010621387154344792 0.0026373745590663605 -0.0028508039199155216 0.0 0.0
0.0 0.0025883479543164956 0.0016438684897749785 -0.0008936108955638216 -0.0007502575942111587 -0.004393944936097045 0.0 0.0
0.0 -4.2444351276389194e-07 2.556548158099709e-07 -2.2687123928949123e-07 -2.878357652047736e-08 1.9233990260984705e-07 0.0 0.0
0.0 -3.3153158892615017e-06 -4.665856315967179e-06 3.7383384711755507e-06 9.275178447914981e-07 3.2957030492900516e-06 0.0 0.0
0.0 0.00020450205055885697 0.00016932337550584672 -0.0001212252728957899 -4.8098102610057115e-05 1.47437179812437e-05 0.0 0.0
0.0 0.0014494144325912558 0.0011991354925298793 -0.0009304704524050493 -0.0002686650401248296 -6.741448693859108e-05 0.0 0.0
0.0 0.0039035496126377635 0.0036452184057137347 -0.003079009510811082 -0.0005662088949026532 -0.0005362266176779693 0.0 0.0
0.0 0.00849790334790763 0.007633111823577716 -0.0068602252279625344 -0.0007728865956151763 -0.001320428923796782 0.0 0.0
0.0 0.015012067579561193 0.013307511384584681 -0.012409164265216764 -0.0008983471193679115 -0.0024066527489927827 0.0 0.0
0.0 0.023560325936090035 0.020660055514822282 -0.019667708290642422 -0.0009923472241798819 -0.0037258186283673196 0.0 0.0
0.0 0.03393905653384104 0.029587825048160175 -0.02850504278439784 -0.001082782263762298 -0.005161368349198699 0.0 0.0
0.0 0.04590520241002105 0.03998228734747056 -0.038805137352134374 -0.00117714999533615 -0.006603734062892194 0.0 0.0
0.0 0.05973652755440622 0.0517813155156184 -0.050506745728482495 -0.0012745697871359223 -0.008044448141107472 0.0 0.0
0.0 0.07469401565929443 0.06495337667822348 -0.06358527734328633 -0.0013680993349370891 -0.009557371675138471 0.0 0.0
0.0 0.09136310485060545 0.07936525621015914 -0.07791660117612388 -0.0014486550340354195 -0.011129646763204805 0.0 0.0
0.0 0.10909546699858731 0.09470011246271826 -0.09319237100220254 -0.0015077414605155549 -0.01260168421523072 0.0 0.0
0.0 0.12723109614468753 0.1103740383716235 -0.10883304733277448 -0.0015409910388490926 -0.013628348535302539 0.0 0.0
0.0 0.14470070926153797 0.1254736068402947 -0.12392999632687303 -0.0015436105134216482 -0.013716814092696336 0.0 0.0
0.0 0.16000597211369674 0.1386733160791009 -0.13717541086025764 -0.0014979052188431958 -0.01250196478858154 0.0 0.0
0.0 0.17112551519109012 0.14822298635221876 -0.1468011986149117 -0.0014217877373069662 -0.009931869932216657 0.0 0.0
0.0 0.17606050605072304 0.15205166564660466 -0.1508550538792566 -0.0011966117673480542 1.4212155757808986e-14 0.0 0.0
0.0 0.17112551519106506 0.14822298635219605 -0.14680119861488872 -0.0014217877373073077 0.009931869932248429 0.0 0.0
0.0 0.16000597211365358 0.13867331607906264 -0.1371754108602203 -0.0014979052188424397 0.01250196478861432 0.0 0.0
0.0 0.14470070926147457 0.12547360684023948 -0.12392999632681796 -0.001543610513421423 0.013716814092715463 0.0 0.0
0.0 0.12723109614460743 0.11037403837155507 -0.10883304733270589 -0.001540991038849196 0.013628348535304374 0.0 0.0
0.0 0.10909546699850897 0.09470011246265014 -0.09319237100213489 -0.001507741460515284 0.012601684215224973 0.0 0.0
0.0 0.09136310485052251 0.0793652562100872 -0.07791660117605265 -0.001448655034034571 0.011129646763200728 0.0 0.0
0.0 0.07469401565921388 0.06495337667815342 -0.06358527734321712 -0.0013680993349362816 0.009557371675133423 0.0 0.0
0.0 0.059736527554325285 0.05178131551554846 -0.05050674572841284 -0.0012745697871355995 0.008044448141099479 0.0 0.0
0.0 0.04590520240994998 0.03998228734740908 -0.03880513735207351 -0.0011771499953354865 0.00660373406288247 0.0 0.0
0.0 0.03393905653377819 0.02958782504810538 -0.028505042784343335 -0.0010827822637620554 0.0051613683491878145 0.0 0.0
0.0 0.023560325936038372 0.02066005551477698 -0.019667708290597302 -0.0009923472241796583 0.0037258186283571186 0.0 0.0
0.0 0.015012067579522241 0.013307511384550315 -0.012409164265183098 -0.0008983471193672306 0.0024066527489860455 0.0 0.0
0.0 0.008497903347881452 0.00763311182355465 -0.00686022522794025 -0.0007728865956143825 0.0013204289237915578 0.0 0.0
0.0 0.003903549612621472 0.0036452184056986374 -0.0030790095107973013 -0.0005662088949013375 0.0005362266176747055 0.0 0.0
0.0 0.0014494144325833786 0.0011991354925231905 -0.0009304704523996456 -0.0002686650401235444 6.741448693772819e-05 0.0 0.0
0.0 0.00020450205055714963 0.00016932337550498673 -0.00012122527289521067 -4.809810260977611e-05 -1.4743717981000617e-05 0.0 0.0
0.0 -3.3153158892334742e-06 -4.665856315650626e-06 3.73833847094054e-06 9.27517844710114e-07 -3.295703049208776e-06 0.0 0.0
0.0 -4.244435127356298e-07 2.5565481581219653e-07 -2.2687123929039735e-07 -2.878357652180049e-08 -1.9233990260979477e-07 0.0 0.0
0.0 0.0025883479543084374 0.0016438684897702614 -0.000893610895560695 -0.0007502575942095642 0.004393944936084674 0.0 0.0
0.0 0.01089458180357634 0.007984012595261577 -0.010621387154323451 0.002637374559061874 0.0028508039198964744 0.0 0.0
0.0 0.00824016521751025 0.005879936930098431 -0.00798832562272432 0.0021083886926258756 -0.0031038012318468245 0.0 0.0
0.0 0.0018559067892594846 0.001106731660374276 -0.0005850954080583867 -0.0005216362523158861 -0.0032952578627448337 0.0 0.0
0.0 0.0 0.0 0.0 0.0 0.0 0.0 0.0
0.0 -7.267909328999586e-07 -1.1073398934875485e-06 8.799617162834385e-07 2.2737817720410733e-07 8.052306591883151e-07 0.0 0.0
0.0 6.189944942933129e-05 3.945125842952767e-05 -2.615384598820354e-05 -1.3297412441323837e-05 1.1887357875360168e-05 0.0 0.0
0.0 0.0008386902182536489 0.0007335871999984118 -0.0005546431514743355 -0.00017894404852407584 -0.00012832243508000094 0.0 0.0
0.0 0.0030405103137036153 0.002675013400409896 -0.002203537596005939 -0.00047147580440395795 -0.0006699397259660401 0.0 0.0
0.0 0.006836550664153527 0.006127881742604674 -0.005421468948874781 -0.0007064127937298928 -0.0017782812906231105 0.0 0.0
0.0 0.012597695696151188 0.011111181771970081 -0.010266208722085213 -0.0008449730498848557 -0.0032658938169972795 0.0 0.0
0.0 0.020160480404322938 0.017589471904140327 -0.016651977942878805 -0.0009374939612615239 -0.005062586066787207 0.0 0.0
0.0 0.029265481339847393 0.025434988799376928 -0.024413669378904934 -0.0010213194204719733 -0.0070044650651360785 0.0 0.0
0.0 0.03990605175663888 0.03453055411449436 -0.03342167716026852 -0.0011088769542258081 -0.008947972271643395 0.0 0.0
0.0 0.05172283038305686 0.04483366508966084 -0.04363312509781199 -0.001200539991848896 -0.01087860292893258 0.0 0.0
0.0 0.06528473728523898 0.05633056594091727 -0.055043374569123865 -0.0012871913717933735 -0.01286817374386667 0.0 0.0
0.0 0.07980870691138436 0.06895602059154717 -0.06759340413283638 -0.001362616458710721 -0.014923290328877273 0.0 0.0
0.0 0.09527491997092197 0.08247340159410144 -0.08105167967554207 -0.0014217219185593895 -0.01686653191325753 0.0 0.0
0.0 0.11147779840086969 0.09640882641583863 -0.09495172515708698 -0.0014571012587515746 -0.01827197285731275 0.0 0.0
0.0 0.12716889785137303 0.10997321058732755 -0.10851374862191787 -0.0014594619654095726 -0.018543519978128906 0.0 0.0
0.0 0.14101046107599297 0.12196292066335535 -0.12054004566488263 -0.0014228749984727513 -0.017059338956913223 0.0 0.0
0.0 0.15122730169017254 0.1308418372509579 -0.12947210210087207 -0.0013697351500861004 -0.013024812622088634 0.0 0.0
0.0 0.15615580905648704 0.13461779899719845 -0.13356344618864255 -0.0010543528085557809 1.9117086386133408e-14 0.0 0.0
0.0 0.15122730169015036 0.13084183725093726 -0.1294721021008506 -0.0013697351500866926 0.01302481262213205 0.0 0.0
0.0 0.14101046107595142 0.12196292066331839 -0.12054004566484532 -0.001422874998473073 0.017059338956955414 0.0 0.0
0.0 0.12716889785131807 0.10997321058727927 -0.10851374862186984 -0.0014594619654093987 0.01854351997815383 0.0 0.0
0.0 0.11147779840080124 0.09640882641577968 -0.09495172515702854 -0.0014571012587511409 0.018271972857315785 0.0 0.0
0.0 0.09527491997085256 0.08247340159404137 -0.08105167967548238 -0.001421721918558934 0.016866531913250056 0.0 0.0
0.0 0.07980870691131148 0.06895602059148372 -0.0675934041327736 -0.0013626164587101466 0.01492329032887078 0.0 0.0
0.0 0.06528473728516515 0.05633056594085327 -0.055043374569059784 -0.001287191371793521 0.012868173743859988 0.0 0.0
0.0 0.051722830382985814 0.044833665089599954 -0.04363312509775149 -0.0012005399918484404 0.010878602928921288 0.0 0.0
0.0 0.039906051756574426 0.03453055411443826 -0.03342167716021294 -0.0011088769542253617 0.008947972271628466 0.0 0.0
0.0 0.029265481339789397 0.02543498879932672 -0.02441366937885507 -0.0010213194204716188 0.007004465065121474 0.0 0.0
0.0 0.02016048040427721 0.01758947190410065 -0.016651977942839673 -0.0009374939612609691 0.005062586066773042 0.0 0.0
0.0 0.012597695696118101 0.011111181771941247 -0.010266208722057036 -0.0008449730498841992 0.003265893816988394 0.0 0.0
0.0 0.006836550664130421 0.006127881742583716 -0.005421468948854786 -0.0007064127937289249 0.001778281290615741 0.0 0.0
0.0 0.0030405103136905624 0.0026750134003989947 -0.002203537595996296 -0.00047147580440269946 0.0006699397259623804 0.0 0.0
0.0 0.000838690218247346 0.0007335871999934787 -0.0005546431514704443 -0.00017894404852303436 0.00012832243507881097 0.0 0.0
0.0 6.189944942860186e-05 3.9451258429508484e-05 -2.6153845988233007e-05 -1.3297412441275523e-05 -1.188735787496729e-05 0.0 0.0
0.0 -7.267909333747845e-07 -1.1073398935818917e-06 8.79961716356212e-07 2.2737817722570116e-07 -8.052306592484829e-07 0.0 0.0
0.0 0.0 0.0 0.0 0.0 0.0 0.0 0.0
0.0 0.0018559067892521914 0.0011067316603700608 -0.0005850954080555621 -0.000521636252314501 0.003295257862733697 0.0 0.0
0.0 0.008240165217491258 0.005879936930083631 -0.007988325622705376 0.0021083886926217487 0.003103801231833239 0.0 0.0
0.0 0.0060201876622418375 0.0042733373958184825 -0.005910165267962725 0.0016368278721442446 -0.0026733680437086025 0.0 0.0
0.0 0.0014807780276734229 0.0007152478498672058 -0.00036662355963462787 -0.0003486242902325778 -0.002336267399680522 0.0 0.0
0.0 0.0 0.0 0.0 0.0 0.0 0.0 0.0
0.0 -3.732046730376658e-07 5.552200248638131e-08 -4.240527457324024e-08 -1.3116727913139718e-08 -3.421877040192897e-08 0.0 0.0
0.0 -1.7404810174063726e-05 -6.735994186268061e-06 6.571187325959607e-06 1.6480686030846346e-07 1.5480338777786058e-05 0.0 0.0
0.0 0.0004520845677018732 0.0003626474540856188 -0.00026737443815011213 -9.527301593550661e-05 -0.00010453732825470087 0.0 0.0
0.0 0.0022031036674518304 0.0018091707577294544 -0.0014498181408851697 -0.00035935261684428226 -0.0006759274834301882 0.0 0.0
0.0 0.005254967735243239 0.004666259119028335 -0.004042529154469042 -0.0006237299645592971 -0.0019190274694239767 0.0 0.0
0.0 0.010223627026919887 0.008935214485322635 -0.008154237179636896 -0.0007809773056857416 -0.0037200378194501486 0.0 0.0
0.0 0.01675933401259349 0.01452022585886127 -0.013644109186262923 -0.0008761166725983422 -0.005851698599463668 0.0 0.0
0.0 0.024681896565200537 0.021273301509187503 -0.020318531705259005 -0.0009547698039285035 -0.008143903305876055 0.0 0.0
0.0 0.033829811767786544 0.02906988085972848 -0.028034700299498973 -0.0010351805602295194 -0.010430201549263373 0.0 0.0
0.0 0.044206379637406513 0.037871364071814455 -0.03675167332697529 -0.0011196907448391353 -0.012696453161074973 0.0 0.0
0.0 0.055445010175091985 0.04770168335069354 -0.04650046659387299 -0.0012012167568205355 -0.015020646802337742 0.0 0.0
0.0 0.06814357128029061 0.05852725747678296 -0.05725552952849331 -0.0012717279482896374 -0.017395774386524464 0.0 0.0
0.0 0.08178658822799868 0.07019595090425262 -0.06886808947341107 -0.001327861430841519 -0.019634188850651296 0.0 0.0
0.0 0.09573048103937355 0.08236210672520829 -0.080995866005632 -0.0013662407195763324 -0.021341411941510513 0.0 0.0
0.0 0.10960388201164253 0.0943847336360553 -0.09300796855300617 -0.0013767650830492195 -0.021885091410838133 0.0 0.0
0.0 0.12211469398647104 0.10525706876374469 -0.10390467328832462 -0.001352395475419966 -0.020306369763276773 0.0 0.0
0.0 0.13171134423298528 0.11365716883749206 -0.11234833923190499 -0.0013088296055869789 -0.01534144266615748 0.0 0.0
0.0 0.13681073735545263 0.11750353694852476 -0.11662096892062775 -0.0008825680278969721 2.1678839279282158e-14 0.0 0.0
0.0 0.1317113442329655 0.11365716883747293 -0.11234833923188517 -0.0013088296055877055 0.01534144266620675 0.0 0.0
0.0 0.12211469398643596 0.10525706876371241 -0.10390467328829237 -0.0013523954754199087 0.02030636976332361 0.0 0.0
0.0 0.10960388201159658 0.09438473363601428 -0.09300796855296532 -0.001376765083049029 0.021885091410866944 0.0 0.0
0.0 0.09573048103931363 0.08236210672515668 -0.08099586600558102 -0.0013662407195756893 0.0213414119415139 0.0 0.0
0.0 0.08178658822793604 0.07019595090419853 -0.06886808947335686 -0.0013278614308415975 0.01963418885064203 0.0 0.0
0.0 0.06814357128022486 0.058527257476726074 -0.05725552952843662 -0.001271727948289432 0.0173957743865157 0.0 0.0
0.0 0.05544501017502864 0.04770168335063869 -0.04650046659381835 -0.0012012167568203034 0.015020646802329873 0.0 0.0
0.0 0.044206379637348435 0.03787136407176409 -0.03675167332692554 -0.0011196907448385283 0.012696453161063218 0.0 0.0
0.0 0.033829811767729416 0.029069880859679192 -0.028034700299450037 -0.0010351805602291336 0.010430201549246487 0.0 0.0
0.0 0.02468189656515235 0.021273301509146386 -0.020318531705218405 -0.0009547698039279772 0.008143903305857894 0.0 0.0
0.0 0.01675933401255232 0.014520225858826136 -0.01364410918622815 -0.0008761166725979806 0.0058516985994469025 0.0 0.0
0.0 0.010223627026889568 0.008935214485296303 -0.008154237179611258 -0.0007809773056850408 0.0037200378194388807 0.0 0.0
0.0 0.005254967735222952 0.004666259119010466 -0.0040425291544523715 -0.0006237299645580951 0.0019190274694159525 0.0 0.0
0.0 0.0022031036674423493 0.0018091707577220111 -0.0014498181408788982 -0.0003593526168431146 0.0006759274834270524 0.0 0.0
0.0 0.00045208456769733283 0.0003626474540823958 -0.00026737443814765376 -9.527301593474141e-05 0.00010453732825342988 0.0 0.0
0.0 -1.7404810174304494e-05 -6.735994185948548e-06 6.571187325703747e-06 1.6480686024475925e-07 -1.5480338777285512e-05 0.0 0.0
0.0 -3.732046728750729e-07 5.552200241977574e-08 -4.240527452289817e-08 -1.3116727896884042e-08 3.4218770311641774e-08 0.0 0.0
0.0 0.0 0.0 0.0 0.0 0.0 0.0 0.0
0.0 0.001480778027666373 0.0007152478498637458 -0.00036662355963228886 -0.0003486242902314552 0.002336267399671079 0.0 0.0
0.0 0.006020187662226046 0.004273337395806081 -0.005910165267946571 0.0016368278721404813 0.0026733680436991474 0.0 0.0
0.0 0.004366139667342334 0.002993746094996943 -0.004208066292409465 0.0012143201974125193 -0.002095796931414751 0.0 0.0
0.0 0.0008868523554081299 0.0004364205203785331 -0.00021493247322514113 -0.00022148804715339134 -0.001569202731198473 0.0 0.0
0.0 0.0 0.0 0.0 0.0 0.0 0.0 0.0
0.0 -4.1759803374589054e-07 4.043828094620599e-08 -3.089816593738169e-08 -9.540115008824336e-09 -7.79351310417939e-08 0.0 0.0
0.0 -1.5159036894584535e-05 -1.1968690249342802e-05 9.571514385557862e-06 2.397175863784956e-06 1.707226408613052e-05 0.0 0.0
0.0 0.0001456952083571381 0.0001349439578381276 -9.647023022132626e-05 -3.847372761680144e-05 -5.707709664243872e-05 0.0 0.0
0.0 0.0012521279946474694 0.0011073442940618442 -0.0008637322365782534 -0.00024361205748359185 -0.0006104541382257118 0.0 0.0
0.0 0.004047500792067723 0.0032808585202404894 -0.0027688905544772393 -0.0005119679657632438 -0.0017970342430720203 0.0 0.0
0.0 0.007784731402704598 0.0068081657844804135 -0.006107754180089443 -0.0007004116043909739 -0.0037409247842010497 0.0 0.0
0.0 0.013440934259365265 0.011480702715422847 -0.010675835385157498 -0.0008048673302653461 -0.0060824883471564724 0.0 0.0
0.0 0.02011247924739529 0.017133221850170154 -0.016252311048707172 -0.0008809108014629797 -0.008570075633331141 0.0 0.0
0.0 0.027766160176921555 0.0236305585200925 -0.022675782600159705 -0.0009547759199327849 -0.011047563216911128 0.0 0.0
0.0 0.03635749539622143 0.030936625158498557 -0.029904214725607278 -0.001032410432891319 -0.01349100726453125 0.0 0.0
0.0 0.046010044484239544 0.03909102437116419 -0.03798422622700992 -0.0011067981441542744 -0.015981899168222145 0.0 0.0
0.0 0.05651933793579134 0.04811564132996322 -0.0469427873532278 -0.0011728539767354178 -0.018525196781950252 0.0 0.0
0.0 0.06782040494048482 0.057921409573115534 -0.05669446143272736 -0.001226948140388141 -0.020923150131859365 0.0 0.0
0.0 0.0801236686075801 0.06826124461355715 -0.06699430184267915 -0.0012669427708779527 -0.02280964340345865 0.0 0.0
0.0 0.09209310889794828 0.0787005477871672 -0.07741085209438317 -0.0012896956927840517 -0.02361165434925077 0.0 0.0
0.0 0.1031369788668336 0.08849496988938502 -0.08721390359529768 -0.0012810662940873374 -0.022223635531892213 0.0 0.0
0.0 0.11231007494220877 0.09653483475169757 -0.09529277626962451 -0.0012420584820729828 -0.016975614135330722 0.0 0.0
0.0 0.11774860011218583 0.10054559399329936 -0.09986051752093646 -0.0006850764723628188 2.1657155235832448e-14 0.0 0.0
0.0 0.1123100749421927 0.09653483475168054 -0.095292776269607 -0.0012420584820736378 0.01697561413538097 0.0 0.0
0.0 0.10313697886680517 0.08849496988935764 -0.08721390359527026 -0.0012810662940874334 0.022223635531941607 0.0 0.0
0.0 0.09209310889790907 0.07870054778713181 -0.07741085209434759 -0.0012896956927841402 0.02361165434928062 0.0 0.0
0.0 0.08012366860753037 0.06826124461351442 -0.06699430184263663 -0.0012669427708777588 0.02280964340346308 0.0 0.0
0.0 0.06782040494042987 0.05792140957306861 -0.05669446143267989 -0.0012269481403887263 0.02092315013185007 0.0 0.0
0.0 0.05651933793573771 0.04811564132991694 -0.046942787353181664 -0.0011728539767352755 0.01852519678193976 0.0 0.0
0.0 0.04601004448419025 0.03909102437112094 -0.03798422622696752 -0.0011067981441534316 0.015981899168213298 0.0 0.0
0.0 0.036357495396172126 0.030936625158456355 -0.029904214725565682 -0.0010324104328906579 0.013491007264519092 0.0 0.0
0.0 0.027766160176875436 0.02363055852005324 -0.022675782600120816 -0.0009547759199324216 0.011047563216894221 0.0 0.0
0.0 0.02011247924735666 0.01713322185013778 -0.016252311048675826 -0.0008809108014619524 0.008570075633311976 0.0 0.0
0.0 0.013440934259332305 0.011480702715394907 -0.010675835385129817 -0.0008048673302650768 0.006082488347139049 0.0 0.0
0.0 0.007784731402679391 0.00680816578445843 -0.006107754180068341 -0.0007004116043900944 0.0037409247841882465 0.0 0.0
0.0 0.004047500792050315 0.003280858520226491 -0.0027688905544644145 -0.0005119679657620746 0.001797034243064034 0.0 0.0
0.0 0.0012521279946393642 0.001107344294055434 -0.0008637322365730809 -0.00024361205748235374 0.0006104541382219032 0.0 0.0
0.0 0.00014569520835446575 0.00013494395783644796 -9.647023022008342e-05 -3.847372761636444e-05 5.7077096641464514e-05 0.0 0.0
0.0 -1.5159036894881019e-05 -1.196869024875511e-05 9.571514385113385e-06 2.397175863641696e-06 -1.7072264085479245e-05 0.0 0.0
0.0 -4.175980335795684e-07 4.043828094950343e-08 -3.089816593983038e-08 -9.540115009669925e-09 7.793513104051397e-08 0.0 0.0
0.0 0.0 0.0 0.0 0.0 0.0 0.0 0.0
0.0 0.0008868523554026542 0.00043642052037604767 -0.00021493247322347747 -0.00022148804715256957 0.0015692027311912148 0.0 0.0
0.0 0.004366139667330037 0.0029937460949872896 -0.004208066292396567 0.0012143201974092752 0.0020957969314081342 0.0 0.0
0.0 0.002874174642649958 0.0019859754970667546 -0.0028290401434622713 0.0008430646463955136 -0.0015568539341619598 0.0 0.0
0.0 0.0005369334408994266 0.00022673103216388 -9.530604583378016e-05 -0.00013142498633009927 -0.0009458703410225539 0.0 0.0
0.0 3.547722962352453e-07 -4.760043067899587e-09 4.283870871274896e-09 4.761721966247399e-10 7.118613590585807e-08 0.0 0.0
0.0 -3.9933846218285653e-07 2.3010864123224606e-08 -1.7665084308602554e-08 -5.345779814626124e-09 -7.114747973550936e-08 0.0 0.0
0.0 -5.100489893679205e-06 -3.7793232532186805e-06 3.00648763582932e-06 7.728356173894051e-07 8.286858914920805e-06 0.0 0.0
0.0 7.512446480972357e-06 9.414872279663454e-06 -4.169196176564554e-06 -5.2456761030988604e-06 1.3551499857897588e-05 0.0 0.0
0.0 0.0006807458755533781 0.0005479860445134408 -0.00041770045016988126 -0.00013028559434355945 -0.00043892547929667164 0.0 0.0
0.0 0.0024625799810583516 0.002083606905383257 -0.0017071745322047463 -0.0003764323731785111 -0.001542491643207318 0.0 0.0
0.0 0.005991400994443428 0.004757670446631889 -0.004168777280095914 -0.0005888931665359733 -0.0033438437144768154 0.0 0.0
0.0 0.01005146118858026 0.008506940726354988 -0.007790978959009851 -0.0007159617673451416 -0.005725997410818651 0.0 0.0
0.0 0.01561179348433659 0.01304732127816783 -0.012251754356159375 -0.0007955669220084576 -0.008264416667999876 0.0 0.0
0.0 0.021809819885960483 0.01824379830731291 -0.017379230853357724 -0.0008645674539551832 -0.010784570634381778 0.0 0.0
0.0 0.028697448748778116 0.024059490374317948 -0.023124435291992346 -0.0009350550823255861 -0.013249905611429023 0.0 0.0
0.0 0.036374251062224784 0.03054779342205034 -0.029544839313497977 -0.001002954108552386 -0.015743793237590488 0.0 0.0
0.0 0.04484237767108435 0.03776307801119458 -0.03669952480002622 -0.0010635532111683468 -0.018279348918856634 0.0 0.0
0.0 0.0543908069291284 0.04567997925268006 -0.04456678248058705 -0.0011131967720930695 -0.020698099675918208 0.0 0.0
0.0 0.06393305835133692 0.05415834936660386 -0.05300206389514383 -0.0011562854714600858 -0.022647189130551113 0.0 0.0
0.0 0.07429741269818996 0.06293606077522182 -0.06174231594374086 -0.0011937448314808502 -0.023653373668068457 0.0 0.0
0.0 0.08437058619035351 0.07160071789826268 -0.07039650984289517 -0.0012042080553675625 -0.022715140659283886 0.0 0.0
0.0 0.09302557023821521 0.07932934986299936 -0.0781586645623363 -0.0011706853006630536 -0.0178943087926348 0.0 0.0
0.0 0.09900697442458237 0.08358611870217197 -0.08312536554905464 -0.00046075315311742103 2.041769531224702e-14 0.0 0.0
0.0 0.0930255702382007 0.07932934986298326 -0.07815866456231943 -0.0011706853006638255 0.017894308792683264 0.0 0.0
0.0 0.0843705861903293 0.0716007178982383 -0.07039650984287046 -0.0012042080553678444 0.02271514065933394 0.0 0.0
0.0 0.07429741269815918 0.06293606077519318 -0.06174231594371252 -0.0011937448314806468 0.023653373668098346 0.0 0.0
0.0 0.06393305835129756 0.054158349366570255 -0.05300206389511049 -0.0011562854714597458 0.022647189130555356 0.0 0.0
0.0 0.05439080692908599 0.045679979252643735 -0.04456678248055102 -0.001113196772092743 0.020698099675907824 0.0 0.0
0.0 0.04484237767104172 0.037763078011157726 -0.03669952479998951 -0.0010635532111681885 0.018279348918845084 0.0 0.0
0.0 0.03637425106218736 0.030547793422017834 -0.029544839313465982 -0.0010029541085518436 0.015743793237581415 0.0 0.0
0.0 0.02869744874873842 0.02405949037428432 -0.02312443529195919 -0.0009350550823251275 0.013249905611416892 0.0 0.0
0.0 0.021809819885923398 0.01824379830728211 -0.01737923085332726 -0.000864567453954861 0.010784570634365298 0.0 0.0
0.0 0.015611793484303017 0.013047321278140423 -0.012251754356132771 -0.0007955669220076544 0.008264416667979222 0.0 0.0
0.0 0.01005146118855446 0.008506940726333722 -0.007790978958988971 -0.0007159617673447573 0.005725997410802122 0.0 0.0
0.0 0.0059914009944213465 0.004757670446614712 -0.004168777280079785 -0.0005888931665349217 0.003343843714464224 0.0 0.0
0.0 0.0024625799810469927 0.0020836069053741294 -0.0017071745321967308 -0.0003764323731773973 0.0015424916432008827 0.0 0.0
0.0 0.0006807458755472838 0.0005479860445092286 -0.00041770045016655807 -0.00013028559434267057 0.00043892547929330475 0.0 0.0
0.0 7.51244648023405e-06 9.414872279654027e-06 -4.169196176574297e-06 -5.2456761030798784e-06 -1.3551499857607992e-05 0.0 0.0
0.0 -5.100489894581084e-06 -3.7793232532186378e-06 3.0064876358243258e-06 7.728356173943123e-07 -8.286858914846942e-06 0.0 0.0
0.0 -3.9933846203843063e-07 2.3010864114477826e-08 -1.766508430182229e-08 -5.345779812654833e-09 7.114747970917023e-08 0.0 0.0
0.0 3.5477229582550476e-07 -4.760043062279326e-09 4.283870866217358e-09 4.761721960621147e-10 -7.118613582206866e-08 0.0 0.0
0.0 0.0005369334408951147 0.0002267310321620319 -9.530604583252106e-05 -0.00013142498632951098 0.0009458703410167252 0.0 0.0
0.0 0.002874174642640534 0.0019859754970594067 -0.0028290401434521465 0.0008430646463927417 0.0015568539341572726 0.0 0.0
0.0 0.0021585267187749346 0.0011657412633526154 -0.001679252857306545 0.0005135115939539291 -0.0010310410805138101 0.0 0.0
0.0 0.00018284363715244178 8.875652218236983e-05 -2.0420783798574043e-05 -6.833573838379573e-05 -0.00048002662960648917 0.0 0.0
0.0 2.945739583013564e-07 5.49593136615406e-09 -6.413864061558443e-09 9.179326954050444e-10 -9.189155354578615e-08 0.0 0.0
0.0 -7.338697086817843e-07 2.588483211484842e-08 -1.992023961246104e-08 -5.964592502387669e-09 -1.5791055671597818e-07 0.0 0.0
0.0 -3.3207635881133627e-06 -2.2353597459338418e-06 1.7670386704931757e-06 4.683210754406715e-07 7.636981103520858e-06 0.0 0.0
0.0 -2.6213953299704355e-05 -1.633626003040337e-05 1.3537890374954808e-05 2.7983696554485496e-06 3.661034621771301e-05 0.0 0.0
0.0 0.0002476841236003763 0.00017974995089507933 -0.00013439481798657022 -4.535513290850913e-05 -0.0002265695997433854 0.0 0.0
0.0 0.0013412686100190924 0.0010819670108074427 -0.000861896905796279 -0.00022007010501116388 -0.0011431198484668193 0.0 0.0
0.0 0.0036450839627861324 0.002915326884931411 -0.002478052712295889 -0.00043727417263552147 -0.0026837146838573508 0.0 0.0
0.0 0.007259859254008105 0.005640187573348167 -0.005049580879846096 -0.0005906066935020669 -0.004793391563413468 0.0 0.0
0.0 0.011205337238005533 0.009053446230323621 -0.008368070640802605 -0.0006853755895210069 -0.007202780454778766 0.0 0.0
0.0 0.015877301170609332 0.01295132479748713 -0.012195254913110385 -0.0007560698843767581 -0.00960527139030636 0.0 0.0
0.0 0.02113469899823988 0.01728503392822986 -0.01646349783313838 -0.0008215360950914523 -0.011946355828788927 0.0 0.0
0.0 0.02691813991645411 0.022113807029181913 -0.021231936705304436 -0.0008818703238774709 -0.01428244152723575 0.0 0.0
0.0 0.03345804062661289 0.02751688271842152 -0.02658006849059587 -0.0009368142278256436 -0.016648434493605417 0.0 0.0
0.0 0.04057217347410344 0.03353420533448408 -0.032550485857666164 -0.000983719476817884 -0.01892975881715638 0.0 0.0
0.0 0.04848665918754426 0.0400981636422513 -0.03907330595234855 -0.00102485768990277 -0.020819924467116682 0.0 0.0
0.0 0.05658769491453521 0.04711712932121871 -0.04604203097305821 -0.0010750983481604916 -0.021912674837602085 0.0 0.0
0.0 0.06490768004407335 0.05452093023341375 -0.05340522966199972 -0.0011157005714140227 -0.02158999476630469 0.0 0.0
0.0 0.0733372521915026 0.06189000600034472 -0.06079343133113872 -0.001096574669206007 -0.017961355857856715 0.0 0.0
0.0 0.08013630128484117 0.06645950683709083 -0.06625453341144318 -0.00020497342564768307 1.7520707107365752e-14 0.0 0.0
0.0 0.07333725219149238 0.06189000600033144 -0.060793431331124644 -0.001096574669206679 0.017961355857901238 0.0 0.0
0.0 0.0649076800440566 0.0545209302333951 -0.053405229661981066 -0.0011157005714140986 0.02158999476635277 0.0 0.0
0.0 0.05658769491451355 0.04711712932119782 -0.04604203097303785 -0.0010750983481599924 0.021912674837629136 0.0 0.0
0.0 0.048486659187514186 0.04009816364222586 -0.039073305952323875 -0.0010248576899019662 0.020819924467118466 0.0 0.0
0.0 0.04057217347407066 0.0335342053344565 -0.032550485857638915 -0.0009837194768176221 0.01892975881714524 0.0 0.0
0.0 0.03345804062658097 0.027516882718394385 -0.02658006849056905 -0.0009368142278253283 0.01664843449359422 0.0 0.0
0.0 0.026918139916424264 0.02211380702915648 -0.021231936705279432 -0.0008818703238770696 0.014282441527227088 0.0 0.0
0.0 0.021134698998209765 0.017285033928204976 -0.016463497833113818 -0.0008215360950911497 0.011946355828777304 0.0 0.0
0.0 0.01587730117058138 0.01295132479746408 -0.012195254913087735 -0.0007560698843763397 0.00960527139029089 0.0 0.0
0.0 0.011205337237980808 0.009053446230304423 -0.008368070640783872 -0.0006853755895205409 0.007202780454760914 0.0 0.0
0.0 0.00725985925398652 0.005640187573331487 -0.005049580879829923 -0.0005906066935015627 0.004793391563397689 0.0 0.0
0.0 0.0036450839627709935 0.0029153268849198694 -0.002478052712285293 -0.0004372741726345771 0.0026837146838467685 0.0 0.0
0.0 0.001341268610011787 0.001081967010801833 -0.0008618969057916663 -0.00022007010501016682 0.001143119848461815 0.0 0.0
0.0 0.0002476841235973788 0.00017974995089311267 -0.0001343948179850887 -4.535513290802386e-05 0.00022656959974089565 0.0 0.0
0.0 -2.621395330001247e-05 -1.6336260029764276e-05 1.3537890374458023e-05 2.7983696553062883e-06 -3.661034621631873e-05 0.0 0.0
0.0 -3.320763588651235e-06 -2.2353597459760935e-06 1.76703867052778e-06 4.683210754483049e-07 -7.636981103724424e-06 0.0 0.0
0.0 -7.338697090124352e-07 2.588483212519642e-08 -1.992023961958973e-08 -5.9645925056065904e-09 1.579105568473548e-07 0.0 0.0
0.0 2.945739581428899e-07 5.495931393795888e-09 -6.413864089543985e-09 9.179326957485015e-10 9.189155414609027e-08 0.0 0.0
0.0 0.0001828436371499095 8.875652218142287e-05 -2.0420783797990562e-05 -6.833573838343213e-05 0.00048002662960273755 0.0 0.0
0.0 0.0021585267187659903 0.0011657412633472343 -0.0016792528572989658 0.0005135115939517306 0.0010310410805099107 0.0 0.0
0.0 0.0010445329027581553 0.0006068433884237059 -0.0008834725551762058 0.00027662916675250034 -0.0006591859032540325 0.0 0.0
0.0 3.185659460447645e-05 4.676213604169171e-06 2.7921246870754276e-05 -3.2597460474923586e-05 -0.0001495965941981053 0.0 0.0
0.0 2.0075457153917847e-06 -1.663904755503644e-09 1.013634886567382e-08 -8.472444110169263e-09 4.7376120239128554e-07 0.0 0.0
0.0 1.7288601967616517e-06 -1.6765664408005297e-08 1.122249215682897e-08 5.543172251176182e-09 3.9873138524110954e-07 0.0 0.0
0.0 -4.4155781409127e-06 -1.3467182236355482e-06 1.0429618601622652e-06 3.0375636347328173e-07 7.873878728044743e-06 0.0 0.0
0.0 -2.066093119979211e-05 -7.0415252897085795e-06 5.798190233693707e-06 1.2433350560148753e-06 2.0154657650700723e-05 0.0 0.0
0.0 5.4248337441741155e-05 1.3776208266097944e-05 -9.490653885072362e-06 -4.285554381025641e-06 -5.016684492548342e-05 0.0 0.0
0.0 0.0005963814929455691 0.0003461141556584042 -0.0002733360071974087 -7.277814846099591e-05 -0.0006218207318186375 0.0 0.0
0.0 0.00187106202468802 0.0013337789064827327 -0.0011023229961702428 -0.00023145591031248908 -0.0018134064462212104 0.0 0.0
0.0 0.004125894635800783 0.003016464744874057 -0.0026206479143592045 -0.0003958168305148531 -0.0034464101896318176 0.0 0.0
0.0 0.006828645315148866 0.005239294038529518 -0.004722945454652521 -0.0005163485838769934 -0.005431604532141646 0.0 0.0
0.0 0.010119501247339076 0.00781455568579732 -0.007215988510099372 -0.000598567175697944 -0.007495469044656167 0.0 0.0
0.0 0.01370367377649552 0.010673803140185546 -0.010006789257021427 -0.000667013883164116 -0.009561936182092718 0.0 0.0
0.0 0.017653011603771786 0.013858183084903965 -0.013135030930068108 -0.0007231521548358503 -0.01161167327051651 0.0 0.0
0.0 0.02212686592195838 0.017451836738084037 -0.016678981306026387 -0.0007728554320576763 -0.013653981785738532 0.0 0.0
0.0 0.027211929843724246 0.02154549690806971 -0.020727388167326034 -0.0008181087407436679 -0.01566473817367061 0.0 0.0
0.0 0.03285909379607984 0.026173647847673544 -0.025312752739062746 -0.0008608951086107593 -0.017431689962928005 0.0 0.0
0.0 0.03883478863481908 0.031337341231502745 -0.030425747254091473 -0.0009115939774112983 -0.018533400515549605 0.0 0.0
0.0 0.045596875611189046 0.03723186260425505 -0.03624793176271459 -0.000983930841540451 -0.018621545884983205 0.0 0.0
0.0 0.053578990226132106 0.044043776981328005 -0.04303040697222268 -0.0010133700091053339 -0.016806988220452176 0.0 0.0
0.0 0.06122063349613385 0.048974980230023155 -0.04906003074647051 8.505051644728482e-05 1.4738210651898953e-14 0.0 0.0
0.0 0.05357899022612737 0.04404377698131882 -0.04303040697221234 -0.001013370009106439 0.01680698822049067 0.0 0.0
0.0 0.04559687561118353 0.03723186260424571 -0.036247931762705625 -0.000983930841540026 0.018621545885026472 0.0 0.0
0.0 0.03883478863480119 0.031337341231486425 -0.030425747254075375 -0.0009115939774110283 0.018533400515570092 0.0 0.0
0.0 0.03285909379605826 0.02617364784765658 -0.02531275273904654 -0.0008608951086100355 0.017431689962925715 0.0 0.0
0.0 0.027211929843700362 0.021545496908050306 -0.02072738816730648 -0.0008181087407438034 0.015664738173659792 0.0 0.0
0.0 0.0221268659219406 0.017451836738069368 -0.01667898130601232 -0.000772855432057055 0.013653981785730514 0.0 0.0
0.0 0.017653011603752683 0.013858183084888237 -0.013135030930052582 -0.0007231521548356586 0.011611673270509874 0.0 0.0
0.0 0.013703673776475824 0.010673803140169672 -0.010006789257006045 -0.0006670138831636366 0.00956193618208265 0.0 0.0
0.0 0.010119501247317728 0.007814555685781599 -0.007215988510083877 -0.0005985671756977208 0.007495469044641448 0.0 0.0
0.0 0.006828645315133962 0.005239294038518208 -0.0047229454546419015 -0.0005163485838763046 0.005431604532128852 0.0 0.0
0.0 0.004125894635785474 0.0030164647448631967 -0.002620647914349056 -0.000395816830514141 0.003446410189619011 0.0 0.0
0.0 0.0018710620246802647 0.0013337789064773624 -0.001102322996165529 -0.0002314559103118322 0.0018134064462149242 0.0 0.0
0.0 0.0005963814929408352 0.00034611415565549247 -0.0002733360071950528 -7.277814846043949e-05 0.0006218207318141419 0.0 0.0
0.0 5.424833743967081e-05 1.3776208265935688e-05 -9.490653884925822e-06 -4.285554381009826e-06 5.0166844924839546e-05 0.0 0.0
0.0 -2.0660931200382217e-05 -7.041525289486886e-06 5.79819023351643e-06 1.2433350559704222e-06 -2.0154657649592323e-05 0.0 0.0
0.0 -4.415578141002748e-06 -1.3467182235377267e-06 1.0429618600848597e-06 3.0375636345287755e-07 -7.873878727226819e-06 0.0 0.0
0.0 1.7288601962463956e-06 -1.6765664439612626e-08 1.1222492182320436e-08 5.54317225729306e-09 -3.9873138538271285e-07 0.0 0.0
0.0 2.0075457152980495e-06 -1.6639047376588638e-09 1.0136348844186128e-08 -8.472444106526871e-09 -4.7376120182562704e-07 0.0 0.0
0.0 3.185659460256948e-05 4.676213603963041e-06 2.7921246870749943e-05 -3.2597460474712844e-05 0.00014959659419668764 0.0 0.0
0.0 0.0010445329027520026 0.000606843388420351 -0.000883472555171384 0.00027662916675103233 0.0006591859032511363 0.0 0.0
0.0 0.0004546893574615904 0.0002250604308099013 -0.000330001154731269 0.00010494072392136778 -0.0003013209815314169 0.0 0.0
0.0 -3.6197076756122053e-05 -2.1386233999182225e-05 3.415467373821154e-05 -1.2768439739029305e-05 1.3478042439262537e-05 0.0 0.0
0.0 3.9131178462059297e-07 3.0279268494367274e-09 -5.126200044014533e-09 2.098273194578903e-09 4.8179400175550714e-08 0.0 0.0
0.0 3.654849427660413e-07 -4.197336973876243e-09 -2.123417190115042e-10 4.409678692885612e-09 1.5752112740030762e-07 0.0 0.0
0.0 -3.395428572079019e-06 -4.551391922660958e-07 3.599498520268843e-07 9.51893402392199e-08 6.072107502856821e-06 0.0 0.0
0.0 -9.906922431002251e-06 -3.43623980198387e-06 2.8288173244820927e-06 6.074224775017484e-07 2.1203638710804047e-05 0.0 0.0
0.0 2.9771134336734296e-05 -2.3291023731675134e-06 2.0938697475797797e-06 2.3523262558775594e-07 -3.0153353869940228e-05 0.0 0.0
0.0 0.00016327628110171793 2.340702621974107e-05 -1.976093368060108e-05 -3.6460925391400085e-06 -0.0002440985705137038 0.0 0.0
0.0 0.0005910121233531958 0.00022072446129978702 -0.00019349439396394277 -2.7230067335843785e-05 -0.0008486214478303636 0.0 0.0
0.0 0.0015271897195774883 0.0007884428886448134 -0.0007029074818400979 -8.553540680471666e-05 -0.0019138710209071692 0.0 0.0
0.0 0.00311015776745469 0.0017713273509941875 -0.001598412769452063 -0.0001729145815421222 -0.0033010066369464895 0.0 0.0
0.0 0.0047681618643544 0.0030065100006727483 -0.0027513645835510136 -0.0002551454171217386 -0.004865455947895642 0.0 0.0
0.0 0.00675649454782982 0.004385946355820655 -0.004055721649872008 -0.0003302247059486419 -0.006494866915627141 0.0 0.0
0.0 0.009009041937886392 0.005940538121597481 -0.005545073344865854 -0.00039546477673162064 -0.008185321394835134 0.0 0.0
0.0 0.011541362599574872 0.007737457114208325 -0.007282170418896225 -0.00045528669531209724 -0.009934832273516981 0.0 0.0
0.0 0.01449805596879253 0.009888108735356227 -0.009374000675242274 -0.000514108060113948 -0.011740739672463982 0.0 0.0
0.0 0.018053450485876713 0.012537931426418592 -0.011962231632137998 -0.0005756997942805949 -0.013486109393707393 0.0 0.0
0.0 0.022268063641218236 0.01581826831086099 -0.015180080267739366 -0.0006381880431216196 -0.014728424433362204 0.0 0.0
0.0 0.02710546925905623 0.01995630325812454 -0.019242036517482908 -0.0007142667406416581 -0.014883792532459918 0.0 0.0
0.0 0.03348913159023634 0.025707300675004062 -0.02485523633214549 -0.0008520643428585436 -0.014150329740703538 0.0 0.0
0.0 0.04323269038975507 0.030920742946479302 -0.031347909475910325 0.0004271665294310212 1.1856834958301476e-14 0.0 0.0
0.0 0.033489131590241215 0.025707300675001796 -0.02485523633214276 -0.000852064342859061 0.014150329740736989 0.0 0.0
0.0 0.02710546925905459 0.019956303258119316 -0.019242036517478363 -0.0007142667406409699 0.014883792532493074 0.0 0.0
0.0 0.022268063641205406 0.015818268310851383 -0.01518008026772968 -0.0006381880431217065 0.01472842443337304 0.0 0.0
0.0 0.01805345048586023 0.012537931426408824 -0.01196223163212859 -0.0005756997942802525 0.013486109393699486 0.0 0.0
0.0 0.014498055968778642 0.00988810873534693 -0.009374000675232912 -0.0005141080601140208 0.011740739672452817 0.0 0.0
0.0 0.011541362599565565 0.007737457114200915 -0.007282170418889273 -0.00045528669531163656 0.0099348322735111 0.0 0.0
0.0 0.009009041937880076 0.00594053812159366 -0.0055450733448626595 -0.00039546477673100785 0.008185321394831718 0.0 0.0
0.0 0.006756494547818247 0.004385946355813671 -0.0040557216498652345 -0.0003302247059484346 0.006494866915617497 0.0 0.0
0.0 0.004768161864342347 0.0030065100006656372 -0.002751364583544265 -0.0002551454171213718 0.004865455947883584 0.0 0.0
0.0 0.0031101577674468523 0.0017713273509901725 -0.0015984127694478945 -0.00017291458154227674 0.003301006636937105 0.0 0.0
0.0 0.001527189719570258 0.0007884428886408574 -0.0007029074818364657 -8.553540680439232e-05 0.0019138710209003062 0.0 0.0
0.0 0.0005910121233506818 0.00022072446129871686 -0.0001934943939629828 -2.723006733573359e-05 0.0008486214478268003 0.0 0.0
0.0 0.00016327628109988622 2.340702621935171e-05 -1.9760933680254707e-05 -3.6460925390970952e-06 0.00024409857051142005 0.0 0.0
0.0 2.9771134335629114e-05 -2.329102373128573e-06 2.093869747532627e-06 2.3523262559595527e-07 3.015335386970238e-05 0.0 0.0
0.0 -9.90692243177959e-06 -3.4362398018966336e-06 2.828817324416866e-06 6.074224774797651e-07 -2.1203638709896984e-05 0.0 0.0
0.0 -3.3954285723418854e-06 -4.551391922623485e-07 3.5994985203074696e-07 9.518934023159852e-08 -6.0721075025129904e-06 0.0 0.0
0.0 3.6548494251241845e-07 -4.197336989026436e-09 -2.1234170318916697e-10 4.40967869221643e-09 -1.575211269352763e-07 0.0 0.0
0.0 3.913117846076024e-07 3.0279268576738382e-09 -5.1262000610115945e-09 2.0982732033337685e-09 -4.817939967474053e-08 0.0 0.0
0.0 -3.6197076756760045e-05 -2.1386233999033537e-05 3.415467373795661e-05 -1.2768439738923021e-05 -1.3478042439353019e-05 0.0 0.0
0.0 0.00045468935745772063 0.00022506043080817366 -0.0003300011547287757 0.0001049407239206016 0.00030132098152933046 0.0 0.0
0.0 6.833707789393561e-05 3.981600518005112e-05 -6.002852024606748e-05 2.021251506601634e-05 -6.445254292967585e-05 0.0 0.0
0.0 -1.2134668213155606e-05 -6.983551788406739e-06 9.804307639932981e-06 -2.8207558515262343e-06 1.3926707835718074e-05 0.0 0.0
0.0 3.6856945885163767e-06 5.767318948034472e-08 -3.126557525494357e-08 -2.6407614225406585e-08 1.6917865683251444e-06 0.0 0.0
0.0 1.1609100711950712e-06 -7.153792788467033e-09 1.7018884803983376e-09 5.451904308072167e-09 9.198375569568125e-08 0.0 0.0
0.0 -1.8616266587107509e-06 -2.6007401698805994e-08 2.9471186992829472e-08 -3.4637852940235173e-09 3.37136682291367e-06 0.0 0.0
0.0 -2.745685651550401e-06 -5.66985166966946e-07 5.942417014371617e-07 -2.7256534470215442e-08 1.2746141004160526e-05 0.0 0.0
0.0 3.927308266828767e-05 -1.1516012459263869e-06 1.1267921759021685e-06 2.480907002421107e-08 -4.412162682206743e-05 0.0 0.0
0.0 0.00014137598487827364 -8.638554959779902e-07 8.274477530517297e-07 3.640774292627331e-08 -0.00024125976587780471 0.0 0.0
0.0 0.0003493077492558345 -1.2278908304939834e-07 1.1156442629337774e-07 1.1224656756024835e-08 -0.0005243160415994751 0.0 0.0
0.0 0.0005704018464952934 6.695231581103689e-08 -3.017659914456361e-08 -3.677571666658847e-08 -0.0010401615297322359 0.0 0.0
0.0 0.001023375755013711 2.8347955435133155e-07 -5.580151943213231e-07 2.7453563997006266e-07 -0.00185609013334269 0.0 0.0
0.0 0.0015269203840225466 -3.5714667125648185e-06 5.188043918632286e-06 -1.6165772060672642e-06 -0.0031102319605132785 0.0 0.0
0.0 0.002428386613539807 -1.3891508226957514e-05 1.7118808315325367e-05 -3.2273000883671074e-06 -0.0046066522522641585 0.0 0.0
0.0 0.003520832777269484 -2.7148980530405898e-05 3.0253050399083286e-05 -3.1040698686761957e-06 -0.006222094770287681 0.0 0.0
0.0 0.004771909427000878 4.329071691999741e-06 -9.624881392404877e-06 5.29580970040557e-06 -0.007956674714323386 0.0 0.0
0.0 0.006147710710750482 0.00020083904215248416 -0.00022869297910433104 2.7853936951847995e-05 -0.009818708788862695 0.0 0.0
0.0 0.007704044925889872 0.000789518964818673 -0.0008614886707977362 7.19697059790641e-05 -0.011753156765006824 0.0 0.0
0.0 0.009381334672574432 0.001985858176302703 -0.0021739898173051466 0.00018813164100243846 -0.01359380490985958 0.0 0.0
0.0 0.011756369394161331 0.0035118389469855358 -0.003875454926162989 0.0003636159791774562 -0.014943563553863415 0.0 0.0
0.0 0.017197412392000278 0.007254371208233627 -0.007041666790452542 -0.00021270441778107994 -0.01513565660739769 0.0 0.0
0.0 0.03030941372085477 0.013105103122373523 -0.014066143478543697 0.000961040356170161 9.598224992579674e-15 0.0 0.0
0.0 0.017197412392007 0.007254371208233392 -0.007041666790452088 -0.00021270441778128963 0.015135656607421394 0.0 0.0
0.0 0.011756369394153064 0.003511838946981526 -0.0038754549261595704 0.0003636159791780406 0.014943563553868115 0.0 0.0
0.0 0.009381334672568055 0.0019858581763010563 -0.002173989817302238 0.000188131641001183 0.01359380490985643 0.0 0.0
0.0 0.007704044925877489 0.0007895189648199727 -0.0008614886707996093 7.196970597963813e-05 0.01175315676499487 0.0 0.0
0.0 0.0061477107107456574 0.0002008390421538986 -0.00022869297910588 2.7853936951983033e-05 0.009818708788854064 0.0 0.0
0.0 0.004771909426992304 4.329071691761433e-06 -9.624881391295467e-06 5.295809699532516e-06 0.007956674714314993 0.0 0.0
0.0 0.0035208327772636985 -2.714898052837806e-05 3.0253050397052576e-05 -3.104069868672821e-06 0.006222094770278965 0.0 0.0
0.0 0.002428386613532167 -1.3891508225548268e-05 1.7118808313917747e-05 -3.2273000883696823e-06 0.004606652252252454 0.0 0.0
0.0 0.0015269203840148353 -3.5714667118872734e-06 5.188043917855889e-06 -1.616577205968744e-06 0.003110231960501612 0.0 0.0
0.0 0.0010233757550089295 2.83479554205547e-07 -5.580151943052498e-07 2.745356400996621e-07 0.0018560901333376516 0.0 0.0
0.0 0.0005704018464942613 6.69523157999577e-08 -3.017659917532446e-08 -3.677571662442656e-08 0.0010401615297290171 0.0 0.0
0.0 0.00034930774925425226 -1.2278908306004215e-07 1.1156442630247572e-07 1.1224656757469873e-08 0.000524316041597145 0.0 0.0
0.0 0.0001413759848779817 -8.638554959701309e-07 8.274477530820798e-07 3.640774288805021e-08 0.00024125976587727175 0.0 0.0
0.0 3.927308266702434e-05 -1.151601245950016e-06 1.1267921759338323e-06 2.4809070016199965e-08 4.4121626821566806e-05 0.0 0.0
0.0 -2.7456856523246735e-06 -5.669851669775753e-07 5.942417014415749e-07 -2.7256534464005834e-08 -1.2746141003267125e-05 0.0 0.0
0.0 -1.8616266587317298e-06 -2.600740173726886e-08 2.9471187027814844e-08 -3.463785290542609e-09 -3.3713668220136433e-06 0.0 0.0
0.0 1.1609100712191579e-06 -7.153792855030261e-09 1.7018885388817274e-09 5.451904316147501e-09 -9.198375474932862e-08 0.0 0.0
0.0 3.685694587762289e-06 5.7673189502264505e-08 -3.1265575272288605e-08 -2.640761422996596e-08 -1.6917865686754493e-06 0.0 0.0
0.0 -1.2134668213803044e-05 -6.983551788323533e-06 9.804307639826468e-06 -2.82075585150295e-06 -1.3926707835409201e-05 0.0 0.0
0.0 6.833707789271796e-05 3.9816005179860826e-05 -6.002852024577889e-05 2.0212515065918196e-05 6.445254292954094e-05 0.0 0.0
0.0 8.024616298622884e-07 -1.5942787013458171e-06 2.2620915068798117e-06 -6.67812805534011e-07 3.4813219667573655e-06 0.0 0.0
0.0 -4.251439359073957e-07 2.3823337671013654e-07 -3.212414033305558e-07 8.300802662042192e-08 -4.1877408541259846e-08 0.0 0.0
0.0 3.2042647473063075e-07 4.7727875167192735e-08 -6.756059163275295e-08 1.9832716465559862e-08 -6.169082849354188e-07 0.0 0.0
0.0 2.0125989112318503e-06 4.625047726619479e-08 -4.763097394281227e-08 1.3804966766162873e-09 -4.346943516145371e-07 0.0 0.0
0.0 -2.532474146519117e-07 -1.0190264049704535e-07 9.222635215555627e-08 9.676288341485436e-09 -8.367554783202944e-07 0.0 0.0
0.0 -3.411372661761913e-06 2.471203632022101e-07 1.4261474026199156e-09 -2.485465106047885e-07 1.354711685422391e-06 0.0 0.0
0.0 5.087944532778763e-05 8.286989149063162e-07 -4.080478926187195e-07 -4.2065102228766044e-07 -3.2681254363432316e-05 0.0 0.0
0.0 0.0001740807416460838 -2.6793921998839153e-05 2.283985459198819e-05 3.954067406850954e-06 -0.0002524664469578608 0.0 0.0
0.0 0.0005931322713590747 -0.00022189345432428013 0.00019445499849665048 2.743845582762983e-05 -0.000853409986586818 0.0 0.0
0.0 0.0015249207278448316 -0.0007872336786967943 0.0007018002885981255 8.543339009866924e-05 -0.001913115712736553 0.0 0.0
0.0 0.003119978849845486 -0.0017703627840445577 0.0015978616650971916 0.0001725011189473645 -0.003297119456628346 0.0 0.0
0.0 0.004796884975078738 -0.003022961767270514 0.0027652398776306457 0.0002577218896398671 -0.004868367426874992 0.0 0.0
0.0 0.006808528682629999 -0.004431678040552151 0.004096899939581885 0.0003347781009702634 -0.006498500612038909 0.0 0.0
0.0 0.009077735995362797 -0.006005836968851759 0.005609110043825375 0.00039672692502638494 -0.00818292857515339 0.0 0.0
0.0 0.011473403637197914 -0.007701900293823446 0.007265131389392275 0.0004367689044311727 -0.009941514086408115 0.0 0.0
0.0 0.013893800634061084 -0.009356031478233983 0.008910142751457439 0.0004458887267765414 -0.011840486206415937 0.0 0.0
0.0 0.015991565433091787 -0.010650785791596697 0.010234758921725672 0.0004160268698710259 -0.01392998865137143 0.0 0.0
0.0 0.017561863277785552 -0.011140358811802075 0.010809340194489783 0.00033101861731229626 -0.0162637690211132 0.0 0.0
0.0 0.01771390892753386 -0.010296185408058604 0.010150247577407734 0.00014593783065087578 -0.018799165936427387 0.0 0.0
0.0 0.014472996361069213 -0.007437452284444844 0.007704269242107801 -0.00026681695766295205 -0.020629289858257537 0.0 0.0
0.0 0.029132063222878188 -0.004082026799502865 0.0018712320862655618 0.0022107947132372994 1.2913281555171352e-14 0.0 0.0
0.0 0.014472996361076167 -0.007437452284445916 0.007704269242108119 -0.0002668169576621996 0.020629289858272046 0.0 0.0
0.0 0.01771390892753355 -0.010296185408056224 0.010150247577406417 0.00014593783064980627 0.018799165936441983 0.0 0.0
0.0 0.01756186327777614 -0.011140358811795837 0.01080934019448358 0.0003310186173122423 0.016263769021115156 0.0 0.0
0.0 0.015991565433076057 -0.0106507857915852 0.010234758921714606 0.0004160268698706037 0.013929988651362944 0.0 0.0
0.0 0.013893800634041395 -0.009356031478219886 0.008910142751443025 0.00044588872677685926 0.01184048620640166 0.0 0.0
0.0 0.011473403637187478 -0.007701900293814513 0.007265131389384349 0.0004367689044301617 0.009941514086400519 0.0 0.0
0.0 0.009077735995347162 -0.006005836968839997 0.005609110043813795 0.0003967269250262018 0.008182928575141999 0.0 0.0
0.0 0.006808528682612397 -0.00443167804053944 0.004096899939569489 0.00033477810096995146 0.006498500612026723 0.0 0.0
0.0 0.0047968849750618945 -0.0030229617672587355 0.0027652398776199676 0.00025772188963876623 0.00486836742686049 0.0 0.0
0.0 0.0031199788498326307 -0.0017703627840367168 0.0015978616650898097 0.00017250111894690677 0.0032971194566165053 0.0 0.0
0.0 0.001524920727833979 -0.0007872336786906499 0.0007018002885925607 8.543339009809004e-05 0.0019131157127272023 0.0 0.0
0.0 0.0005931322713548697 -0.0002218934543220427 0.00019445499849470257 2.7438455827340155e-05 0.0008534099865823696 0.0 0.0
0.0 0.00017408074164421573 -2.6793921998544243e-05 2.2839854591745334e-05 3.954067406798954e-06 0.000252466446955857 0.0 0.0
0.0 5.087944532650345e-05 8.286989148216265e-07 -4.080478925629176e-07 -4.206510222587123e-07 3.268125436339648e-05 0.0 0.0
0.0 -3.4113726627849897e-06 2.471203631138027e-07 1.4261474748574496e-09 -2.4854651058866093e-07 -1.354711684826791e-06 0.0 0.0
0.0 -2.532474149001311e-07 -1.0190264059401777e-07 9.222635223922175e-08 9.6762883547872e-09 8.367554791349852e-07 0.0 0.0
0.0 2.0125989108170226e-06 4.625047714970565e-08 -4.763097384648119e-08 1.380496696776273e-09 4.346943526608226e-07 0.0 0.0
0.0 3.204264744845625e-07 4.772787514001066e-08 -6.756059162389211e-08 1.983271648387688e-08 6.169082858265537e-07 0.0 0.0
0.0 -4.251439357924098e-07 2.3823337664746616e-07 -3.2124140325310953e-07 8.300802660564241e-08 4.1877408508005703e-08 0.0 0.0
0.0 8.024616284465889e-07 -1.5942787008577457e-06 2.2620915061421302e-06 -6.678128052843716e-07 -3.48132196577157e-06 0.0 0.0
0.0 -5.791226492451871e-07 3.285152939261595e-08 -4.863961923435168e-08 1.5788089841737027e-08 -8.324711323925468e-08 0.0 0.0
0.0 1.3233207018471063e-06 -2.7189934549361935e-10 1.9760944707135447e-08 -1.948904536164786e-08 2.14125803810574e-07 0.0 0.0
0.0 -1.464200395709491e-07 1.6476026882252727e-07 -1.2941276739789192e-07 -3.534750142464402e-08 1.3403524607240023e-06 0.0 0.0
0.0 1.0506990142757952e-06 -3.6377887446137957e-07 2.8677601055898876e-07 7.700286390237861e-08 -2.8293944133244826e-06 0.0 0.0
0.0 2.2984974017021093e-06 2.412365849391579e-06 -1.9948264572886545e-06 -4.1753939210286435e-07 1.1102392951344208e-05 0.0 0.0
0.0 9.508273426279832e-06 6.376145179333541e-06 -4.985929906301034e-06 -1.3902152730324978e-06 1.6930810458003587e-05 0.0 0.0
0.0 6.601258311468672e-05 -3.0168857713733625e-05 2.322096034386025e-05 6.947897369873461e-06 -0.0001055091352711505 0.0 0.0
0.0 0.0006132936775352071 -0.00035344447985692965 0.00027977008317910877 7.36743966778207e-05 -0.0006394435822065429 0.0 0.0
0.0 0.0018707795965712038 -0.0013332090536970413 0.0011016486841811401 0.0002315603695159008 -0.0018160292333060182 0.0 0.0
0.0 0.004122080855156746 -0.0030145824739716853 0.002618763212112009 0.0003958192618596749 -0.0034430992574026285 0.0 0.0
0.0 0.006831376653811627 -0.005242284410029688 0.004725809313628417 0.0005164750964012714 -0.0054310323614667234 0.0 0.0
0.0 0.010138193256496385 -0.007830321340104805 0.007231092601958981 0.0005992287381458297 -0.007496846814751368 0.0 0.0
0.0 0.01374622743461162 -0.010714295070577131 0.010046336800372537 0.0006679582702045861 -0.009541900132884832 0.0 0.0
0.0 0.01770061880168418 -0.0139152772770609 0.013193738816196753 0.0007215384608641562 -0.011545307505770229 0.0 0.0
0.0 0.022054977665728875 -0.01741438525112369 0.016655074523985434 0.0007593107271382447 -0.013593481015665274 0.0 0.0
0.0 0.026640572978161182 -0.021046582365601533 0.02027060075859669 0.0007759816070048301 -0.01588984330594289 0.0 0.0
0.0 0.03101324511541806 -0.02443923776829819 0.02366789024557843 0.0007713475227197634 -0.018657863265913965 0.0 0.0
0.0 0.03440477381191978 -0.0270332487429196 0.02628455314786099 0.0007486955950586202 -0.02200855844603504 0.0 0.0
0.0 0.0361632011815265 -0.027811796047181616 0.027146507572639936 0.000665288474541689 -0.025292283300276597 0.0 0.0
0.0 0.03357703220704035 -0.024671151960275896 0.024161698566347336 0.0005094533939285396 -0.025987507421545607 0.0 0.0
0.0 0.03579885787794691 -0.01972080139271232 0.016713471672208963 0.0030073297205033336 1.4824946825697793e-14 0.0 0.0
0.0 0.03357703220705086 -0.024671151960276354 0.024161698566348283 0.0005094533939280663 0.02598750742158284 0.0 0.0
0.0 0.036163201181525634 -0.02781179604717602 0.027146507572634294 0.0006652884745417043 0.025292283300307465 0.0 0.0
0.0 0.034404773811905445 -0.027033248742905972 0.026284553147848187 0.0007486955950577787 0.022008558446048168 0.0 0.0
0.0 0.031013245115389713 -0.024439237768275696 0.02366789024555543 0.0007713475227202632 0.018657863265905683 0.0 0.0
0.0 0.026640572978133225 -0.02104658236557881 0.020270600758574373 0.0007759816070044335 0.01588984330592882 0.0 0.0
0.0 0.022054977665705962 -0.01741438525110493 0.016655074523967306 0.0007593107271376179 0.013593481015653625 0.0 0.0
0.0 0.01770061880165951 -0.013915277277039981 0.01319373881617611 0.0007215384608638712 0.011545307505757763 0.0 0.0
0.0 0.013746227434582876 -0.010714295070554079 0.010046336800349578 0.0006679582702044935 0.009541900132870481 0.0 0.0
0.0 0.010138193256470567 -0.00783032134008501 0.0072310926019399 0.0005992287381451152 0.007496846814733658 0.0 0.0
0.0 0.006831376653787688 -0.005242284410011654 0.004725809313610562 0.000516475096401092 0.005431032361447156 0.0 0.0
0.0 0.004122080855139402 -0.003014582473958629 0.0026187632121000164 0.0003958192618586113 0.003443099257390292 0.0 0.0
0.0 0.001870779596560231 -0.001333209053688988 0.001101648684174259 0.0002315603695147289 0.0018160292332977375 0.0 0.0
0.0 0.0006132936775302788 -0.0003534444798537563 0.00027977008317662334 7.36743966771323e-05 0.0006394435822020098 0.0 0.0
0.0 6.601258311279894e-05 -3.0168857713525295e-05 2.3220960343712415e-05 6.947897369812881e-06 0.00010550913527053923 0.0 0.0
0.0 9.508273425715542e-06 6.376145179009122e-06 -4.985929906037111e-06 -1.3902152729721107e-06 -1.6930810457072685e-05 0.0 0.0
0.0 2.298497400976324e-06 2.412365849175734e-06 -1.994826457109023e-06 -4.1753939206670166e-07 -1.1102392950278436e-05 0.0 0.0
0.0 1.0506990140226719e-06 -3.6377887458797844e-07 2.867760106634109e-07 7.700286392457353e-08 2.829394414184554e-06 0.0 0.0
0.0 -1.4642004054495254e-07 1.6476026885063868e-07 -1.2941276742316405e-07 -3.534750142746985e-08 -1.340352460923265e-06 0.0 0.0
0.0 1.3233207014757002e-06 -2.7189934356724143e-10 1.9760944703806313e-08 -1.9489045360240496e-08 -2.1412580380983597e-07 0.0 0.0
0.0 -5.791226488939735e-07 3.285152937202806e-08 -4.863961920387383e-08 1.57880898318369e-08 8.324711318699175e-08 0.0 0.0
0.0 0.0 0.0 0.0 0.0 0.0 0.0 0.0
0.0 -4.597287996738521e-07 -6.853202956288844e-09 2.886835497529438e-09 3.966367458759904e-09 -9.336839224249032e-08 0.0 0.0
0.0 1.3100137176562748e-06 1.3006167364145498e-07 -9.649979362671554e-08 -3.3561880014734186e-08 8.345371123446248e-07 0.0 0.0
0.0 8.852276813601087e-07 1.0066681261236133e-06 -8.389186554347146e-07 -1.6774947068889853e-07 3.273470817302083e-06 0.0 0.0
0.0 1.4939091623182131e-06 2.080010594893461e-06 -1.643322926762468e-06 -4.366876681310303e-07 3.5293809501423555e-06 0.0 0.0
0.0 -3.6164385398178975e-07 -6.733571624564167e-06 4.996064575852426e-06 1.73750704871178e-06 -2.2780800125679636e-05 0.0 0.0
0.0 0.000321070528831611 -0.00019824260190167878 0.0001508305086040488 4.741209329762987e-05 -0.00026054665256767677 0.0 0.0
0.0 0.0013569502579312733 -0.0010856173907252264 0.0008654763295921082 0.0002201410611331169 -0.0011569366451374085 0.0 0.0
0.0 0.003640989701002154 -0.0029119641547184143 0.0024746004451190245 0.00043736370959938914 -0.002680980682640839 0.0 0.0
0.0 0.007258129791341553 -0.005639103175616816 0.00504838440384448 0.0005907187717723389 -0.004788990016377723 0.0 0.0
0.0 0.011206431274751356 -0.009058305985358568 0.008373081934635871 0.0006852240507226863 -0.007203878689552865 0.0 0.0
0.0 0.01589207450243063 -0.012963648767397109 0.012207647940850542 0.000756000826546564 -0.009601719797088884 0.0 0.0
0.0 0.021154735936950112 -0.017307993986167038 0.016486302638244972 0.0008216913479220814 -0.011898299119846877 0.0 0.0
0.0 0.026922040962450947 -0.022139556370273605 0.02125879501674468 0.0008807613535289074 -0.014134133782020056 0.0 0.0
0.0 0.03335640206124263 -0.027468024744052022 0.026541089930133772 0.0009269348139182853 -0.016467917744432386 0.0 0.0
0.0 0.040110723869225776 -0.0331391108723647 0.032188173315264565 0.0009509375571001299 -0.019218078919391757 0.0 0.0
0.0 0.04709284669786664 -0.03870697858962794 0.037758814614205695 0.0009481639754222338 -0.02282072351959305 0.0 0.0
0.0 0.0529104334115009 -0.04330427863805005 0.042402884173718854 0.0009013944643311664 -0.027307781213108145 0.0 0.0
0.0 0.05593866671605421 -0.045341559026334084 0.044541955783805126 0.0007996032425289163 -0.03144959290470537 0.0 0.0
0.0 0.05257583680228126 -0.04189123570845045 0.04133515044212103 0.0005560852663294257 -0.03272713159585077 0.0 0.0
0.0 0.04992714346883396 -0.035140748851505435 0.03140196790414304 0.0037387809473623896 1.7694179454963432e-14 0.0 0.0
0.0 0.0525758368022856 -0.04189123570844613 0.04133515044211709 0.000556085266329048 0.032727131595892536 0.0 0.0
0.0 0.05593866671604626 -0.04534155902632106 0.044541955783792254 0.0007996032425287443 0.03144959290474565 0.0 0.0
0.0 0.052910433411478566 -0.043304278638028486 0.042402884173698 0.0009013944643304756 0.027307781213127227 0.0 0.0
0.0 0.047092846697828296 -0.03870697858959544 0.03775881461417329 0.0009481639754221663 0.02282072351958832 0.0 0.0
0.0 0.04011072386919146 -0.033139110872335904 0.03218817331523613 0.0009509375570997579 0.019218078919379333 0.0 0.0
0.0 0.0333564020612056 -0.027468024744021297 0.026541089930103567 0.0009269348139177771 0.016467917744416583 0.0 0.0
0.0 0.02692204096241679 -0.022139556370244562 0.02125879501671613 0.0008807613535284083 0.014134133782006442 0.0 0.0
0.0 0.021154735936914984 -0.017307993986137863 0.01648630263821617 0.0008216913479216876 0.011898299119832766 0.0 0.0
0.0 0.01589207450239593 -0.012963648767369183 0.012207647940823237 0.0007560008265459393 0.009601719797069346 0.0 0.0
0.0 0.011206431274714889 -0.009058305985329739 0.008373081934607136 0.0006852240507225927 0.007203878689529038 0.0 0.0
0.0 0.007258129791316891 -0.005639103175597225 0.005048384403825651 0.0005907187717715768 0.004788990016361758 0.0 0.0
0.0 0.0036409897009867767 -0.002911964154706465 0.0024746004451083534 0.0004373637095981076 0.002680980682631548 0.0 0.0
0.0 0.0013569502579226375 -0.0010856173907186465 0.0008654763295866991 0.00022014106113194814 0.0011569366451312597 0.0 0.0
0.0 0.0003210705288271407 -0.00019824260189906662 0.00015083050860199192 4.741209329707472e-05 0.0002605466525643481 0.0 0.0
0.0 -3.6164385443970254e-07 -6.733571625030874e-06 4.99606457621955e-06 1.7375070488113422e-06 2.2780800126774487e-05 0.0 0.0
0.0 1.4939091619582377e-06 2.080010594663544e-06 -1.6433229265752507e-06 -4.3668766808829597e-07 -3.5293809493166364e-06 0.0 0.0
0.0 8.852276804352192e-07 1.0066681260522948e-06 -8.389186553792439e-07 -1.677494706730477e-07 -3.2734708168920054e-06 0.0 0.0
0.0 1.310013717118806e-06 1.3006167364518618e-07 -9.649979363151322e-08 -3.3561880013678756e-08 -8.345371123562736e-07 0.0 0.0
0.0 -4.59728799576089e-07 -6.853202954632321e-09 2.8868354967489913e-09 3.9663674578853385e-09 9.336839222251318e-08 0.0 0.0
0.0 0.0 0.0 0.0 0.0 0.0 0.0 0.0
0.0 0.0 0.0 0.0 0.0 0.0 0.0 0.0
0.0 1.5308091780677812e-08 3.0663233307284843e-10 -2.1432744662428963e-10 -9.23048864485231e-11 3.0115191088803258e-09 0.0 0.0
0.0 -4.798064025884919e-07 1.7547597881315646e-08 -1.423242679607381e-08 -3.315171085243586e-09 6.927023937151767e-08 0.0 0.0
0.0 -2.0431553917841393e-06 1.7782178129487654e-07 -1.389788119487965e-07 -3.884296934606999e-08 4.004653350217823e-07 0.0 0.0
0.0 -3.1905149360924293e-06 8.253493310178326e-06 -6.696407632233232e-06 -1.5570856779450888e-06 1.690342538921026e-05 0.0 0.0
0.0 8.868035202802707e-05 -4.0300702663220215e-05 2.927661453904833e-05 1.1024088124171766e-05 -3.6596666482390375e-05 0.0 0.0
0.0 0.0007028734109358131 -0.000575484703089772 0.00044247109206676605 0.0001330136110230063 -0.0004975920574033094 0.0 0.0
0.0 0.0024683800293360293 -0.0020813967115161282 0.0017052854806843519 0.00037611123083177507 -0.0015501032326826823 0.0 0.0
0.0 0.0059852777478277466 -0.004753315823394586 0.004164067325006321 0.0005892484983882656 -0.0033369548529035087 0.0 0.0
0.0 0.010050993876425503 -0.008507949540555169 0.007791911100983882 0.0007160384395712961 -0.005722271984964327 0.0 0.0
0.0 0.015619999777282678 -0.01305340702578926 0.01225824605165865 0.0007951609741306085 -0.008265815798788588 0.0 0.0
0.0 0.02181636776308327 -0.01824939751224743 0.017385704836088076 0.000863692676159349 -0.010775407270457197 0.0 0.0
0.0 0.028685241341998888 -0.024054401569466432 0.023120221944209114 0.0009341796252573166 -0.013179282250750974 0.0 0.0
0.0 0.036317908317758475 -0.030521981281563533 0.02951919736996604 0.0010027839115974739 -0.015532389487496254 0.0 0.0
0.0 0.044711742496809516 -0.0376949059099465 0.03663453655132883 0.0010603693586176252 -0.017992079842851404 0.0 0.0
0.0 0.05408978031719522 -0.045437359189420615 0.04434479859463091 0.001092560594789731 -0.020968669925496435 0.0 0.0
0.0 0.06302040896355544 -0.053201419663309005 0.05211877389823387 0.0010826457650750347 -0.025000188892022095 0.0 0.0
0.0 0.07127771726993674 -0.05973157028720273 0.05872075233249734 0.001010817954705426 -0.030103529178372515 0.0 0.0
0.0 0.07565736512814297 -0.06278447249577665 0.06192967991570054 0.0008547925800760552 -0.03504859408178415 0.0 0.0
0.0 0.07141984294664183 -0.058609779337348795 0.05805445361230353 0.0005553257250452859 -0.037064573042127846 0.0 0.0
0.0 0.06540306695648787 -0.0502289510166935 0.04586579586296553 0.004363155153727916 1.8697716985816015e-14 0.0 0.0
0.0 0.07141984294663808 -0.05860977933733854 0.058054453612293354 0.0005553257250451721 0.037064573042170486 0.0 0.0
0.0 0.07565736512812692 -0.06278447249575705 0.06192967991568115 0.0008547925800758856 0.03504859408182761 0.0 0.0
0.0 0.07127771726990514 -0.05973157028717324 0.05872075233246786 0.0010108179547052537 0.030103529178395375 0.0 0.0
0.0 0.06302040896350963 -0.05320141966326945 0.05211877389819434 0.0010826457650750998 0.025000188892020284 0.0 0.0
0.0 0.05408978031714726 -0.04543735918937979 0.04434479859459047 0.0010925605947892836 0.020968669925483328 0.0 0.0
0.0 0.04471174249676299 -0.03769490590990688 0.036634536551289454 0.0010603693586174318 0.017992079842835896 0.0 0.0
0.0 0.03631790831771446 -0.03052198128152532 0.029519197369928918 0.0010027839115963968 0.015532389487482843 0.0 0.0
0.0 0.028685241341952567 -0.024054401569427546 0.023120221944170113 0.0009341796252574301 0.01317928225073528 0.0 0.0
0.0 0.021816367763038205 -0.018249397512209723 0.017385704836050793 0.0008636926761589193 0.010775407270436504 0.0 0.0
0.0 0.015619999777241161 -0.013053407025754922 0.01225824605162456 0.0007951609741303726 0.008265815798764616 0.0 0.0
0.0 0.01005099387639347 -0.00850794954052825 0.007791911100957722 0.0007160384395705347 0.005722271984945638 0.0 0.0
0.0 0.00598527774780524 -0.004753315823377012 0.004164067324989658 0.0005892484983873566 0.003336954852891797 0.0 0.0
0.0 0.002468380029322773 -0.0020813967115057186 0.0017052854806752444 0.00037611123083047414 0.0015501032326752132 0.0 0.0
0.0 0.0007028734109288016 -0.0005754847030848767 0.0004424710920629292 0.0001330136110219477 0.0004975920573991561 0.0 0.0
0.0 8.868035202585897e-05 -4.030070266232098e-05 2.92766145383668e-05 1.1024088123954196e-05 3.659666648160575e-05 0.0 0.0
0.0 -3.190514936582969e-06 8.253493309680127e-06 -6.696407631832941e-06 -1.5570856778471648e-06 -1.6903425388185086e-05 0.0 0.0
0.0 -2.0431553921551885e-06 1.7782178117834235e-07 -1.3897881185672914e-07 -3.8842969321596956e-08 -4.00465334491738e-07 0.0 0.0
0.0 -4.798064026528473e-07 1.754759791449771e-08 -1.4232426823304854e-08 -3.3151710911925884e-09 -6.927023952140958e-08 0.0 0.0
0.0 1.5308091766584117e-08 3.0663233278746693e-10 -2.1432744642515877e-10 -9.23048863622756e-11 -3.0115191060776662e-09 0.0 0.0
0.0 0.0 0.0 0.0 0.0 0.0 0.0 0.0
0.0 0.0 0.0 0.0 0.0 0.0 0.0 0.0
0.0 0.0 0.0 0.0 0.0 0.0 0.0 0.0
0.0 -3.008317283811859e-07 -1.6894082401111415e-08 1.3667650964936457e-08 3.226431436173586e-09 -5.3084951058647605e-08 0.0 0.0
0.0 -7.001416273753714e-07 9.77438823002637e-07 -7.874836816838539e-07 -1.8995514131875797e-07 2.200922420284295e-06 0.0 0.0
0.0 -1.2133567468570022e-05 1.4054402187444044e-06 -1.6452005160395049e-06 2.3976029729509346e-07 4.299451503391457e-06 0.0 0.0
0.0 0.0002468631520356507 -0.00016281582450754082 0.00012047652150405219 4.233930300348869e-05 -9.867770538951335e-05 0.0 0.0
0.0 0.001293420357553924 -0.0011187991727974063 0.0008763509211384238 0.00024244825165898126 -0.0006443334969116678 0.0 0.0
0.0 0.004045643589302425 -0.0032750059456499235 0.002762954314378572 0.0005120516312713544 -0.0017977665222301512 0.0 0.0
0.0 0.0077808420758469065 -0.0068049389137770895 0.006104177233027073 0.0007007616807500139 -0.0037326780816811732 0.0 0.0
0.0 0.013443917909198792 -0.01148412265109125 0.01067926678168536 0.0008048558694058916 -0.006080109325151279 0.0 0.0
0.0 0.020119892947053745 -0.017139415877091967 0.016259140615901 0.0008802752611909708 -0.008570731266904033 0.0 0.0
0.0 0.027761543172722596 -0.023626745801965377 0.022673647063032373 0.0009530987389330142 -0.011031747524736827 0.0 0.0
0.0 0.036307693498786785 -0.03089820987567409 0.029868030330785944 0.0010301795448881216 -0.013406696339025958 0.0 0.0
0.0 0.045886721874292 -0.03900334845966314 0.03789618144334008 0.0011071670163230974 -0.015751280051402264 0.0 0.0
0.0 0.056353846095695326 -0.04801263605976507 0.046835626453269094 0.0011770096064959205 -0.018195232805956123 0.0 0.0
0.0 0.06765885549912085 -0.05780821234170547 0.05658995142950402 0.0012182609122014744 -0.02106827245084882 0.0 0.0
0.0 0.07961685348908637 -0.06771712499677458 0.06651800988353232 0.0011991151132422682 -0.024960099145976092 0.0 0.0
0.0 0.08964004780356094 -0.07611155218318491 0.07501839029385926 0.0010931618893255273 -0.030171670724138247 0.0 0.0
0.0 0.09462275536152864 -0.0800543920308557 0.07917034468387169 0.0008840473469840126 -0.0357798618595414 0.0 0.0
0.0 0.08989153966220248 -0.07515431981716607 0.0746031945441256 0.0005511252730404129 -0.03974059747323436 0.0 0.0
0.0 0.08206519107438312 -0.06535418491717299 0.060437269268065995 0.004916915649106969 2.0751629581372555e-14 0.0 0.0
0.0 0.08989153966219313 -0.07515431981715186 0.07460319454411106 0.0005511252730408108 0.03974059747327785 0.0 0.0
0.0 0.09462275536150482 -0.08005439203083035 0.07917034468384623 0.0008840473469841496 0.03577986185958569 0.0 0.0
0.0 0.08964004780352007 -0.07611155218314779 0.07501839029382204 0.0010931618893256672 0.030171670724162124 0.0 0.0
0.0 0.07961685348903288 -0.06771712499672852 0.06651800988348557 0.0011991151132428345 0.02496009914597643 0.0 0.0
0.0 0.06765885549906107 -0.05780821234165416 0.056589951429452966 0.0012182609122012632 0.021068272450837294 0.0 0.0
0.0 0.0563538460956386 -0.048012636059716216 0.0468356264532207 0.0011770096064955477 0.01819523280594358 0.0 0.0
0.0 0.045886721874236286 -0.03900334845961475 0.037896181443292314 0.0011071670163223888 0.015751280051388913 0.0 0.0
0.0 0.03630769349872728 -0.030898209875623386 0.02986803033073481 0.0010301795448885416 0.013406696339009481 0.0 0.0
0.0 0.027761543172668223 -0.023626745801919362 0.022673647062986718 0.0009530987389326271 0.011031747524716735 0.0 0.0
0.0 0.020119892947006616 -0.01713941587705245 0.0162591406158617 0.0008802752611907498 0.008570731266881534 0.0 0.0
0.0 0.013443917909159667 -0.011484122651058382 0.010679266781652841 0.0008048558694055445 0.006080109325132482 0.0 0.0
0.0 0.007780842075819779 -0.006804938913752989 0.006104177233003932 0.0007007616807490539 0.003732678081667896 0.0 0.0
0.0 0.004045643589284028 -0.003275005945635193 0.0027629543143652337 0.0005120516312699613 0.0017977665222219542 0.0 0.0
0.0 0.0012934203575454264 -0.001118799172790602 0.0008763509211329663 0.00024244825165763603 0.0006443334969077723 0.0 0.0
0.0 0.0002468631520322233 -0.0001628158245056867 0.0001204765215026635 4.233930300302298e-05 9.867770538834577e-05 0.0 0.0
0.0 -1.2133567468787862e-05 1.4054402181990018e-06 -1.645200515604769e-06 2.3976029740573057e-07 -4.299451502475104e-06 0.0 0.0
0.0 -7.001416281888592e-07 9.774388230485761e-07 -7.874836817198715e-07 -1.8995514132869986e-07 -2.200922420324717e-06 0.0 0.0
0.0 -3.0083172820327663e-07 -1.6894082390560128e-08 1.3667650956397697e-08 3.226431434162971e-09 5.3084951026648725e-08 0.0 0.0
0.0 0.0 0.0 0.0 0.0 0.0 0.0 0.0
0.0 0.0 0.0 0.0 0.0 0.0 0.0 0.0
0.0 0.0 0.0 0.0 0.0 0.0 0.0 0.0
0.0 0.0 0.0 0.0 0.0 0.0 0.0 0.0
0.0 -1.680433764396781e-07 -1.0793184899027673e-08 8.54508648894806e-09 2.2480984100807976e-09 -2.827633481288059e-08 0.0 0.0
0.0 -2.1716798094318066e-06 6.719765748299459e-07 -5.383767465853765e-07 -1.335998282445983e-07 1.2844618235647572e-06 0.0 0.0
0.0 1.4992113549109688e-05 3.337501113254132e-07 -2.0012865377392823e-06 1.6675364264139284e-06 1.1676569576346311e-05 0.0 0.0
0.0 0.00042915499548847264 -0.00041222715208650396 0.0003092770951038963 0.00010295005698260763 -0.0001825649233468832 0.0 0.0
0.0 0.0022320135009716454 -0.001808413616513314 0.0014515512878659647 0.00035686232864734957 -0.0006991153830168205 0.0 0.0
0.0 0.005249387534847497 -0.00466078371221107 0.004036887529052152 0.0006238961831589167 -0.0019143034916307392 0.0 0.0
0.0 0.010223458441114015 -0.008935148915802486 0.008153863409285667 0.0007812855065168235 -0.0037127870142458076 0.0 0.0
0.0 0.016765454741448117 -0.014525640267650719 0.013649617241886833 0.0008760230257638972 -0.005851027244115137 0.0 0.0
0.0 0.024687403929320947 -0.021277660132013657 0.020323772965628272 0.0009538871663853669 -0.008143336082119763 0.0 0.0
0.0 0.033811780463148075 -0.02905442442651751 0.028021572985889743 0.0010328514406277613 -0.010407727917762883 0.0 0.0
0.0 0.04412158737674724 -0.0378013370672442 0.03668500199325699 0.0011163350739871877 -0.012609390339828197 0.0 0.0
0.0 0.05526244516183746 -0.047555676167916866 0.046354749706560075 0.0012009264613568093 -0.014819919305833552 0.0 0.0
0.0 0.06792374525131432 -0.05836346965876199 0.057084231517640784 0.0012792381411212005 -0.017105858504020494 0.0 0.0
0.0 0.08165690090161654 -0.07011614017710885 0.0687854440362316 0.0013306961408771794 -0.019597156530351215 0.0 0.0
0.0 0.09545032294218282 -0.08208507123205323 0.08077517691525629 0.0013098943167968906 -0.022792746789892234 0.0 0.0
0.0 0.10751868499314583 -0.09229604505610889 0.09112530741338237 0.001170737642726567 -0.02749700272850261 0.0 0.0
0.0 0.11375043847528175 -0.09720620477146844 0.09629728767602816 0.0009089170954401059 -0.03385055558529809 0.0 0.0
0.0 0.10847626651516253 -0.09184664743208461 0.09130949739514947 0.0005371500369351818 -0.04114101492584066 0.0 0.0
0.0 0.09912675370698534 -0.08087048758724744 0.07546296201833663 0.005407525568910827 1.9435841824844147e-14 0.0 0.0
0.0 0.10847626651515276 -0.09184664743207063 0.09130949739513591 0.0005371500369346475 0.04114101492588434 0.0 0.0
0.0 0.11375043847525071 -0.09720620477143792 0.09629728767599768 0.0009089170954400471 0.033850555585339635 0.0 0.0
0.0 0.10751868499309646 -0.09229604505606506 0.09112530741333855 0.001170737642726476 0.02749700272852454 0.0 0.0
0.0 0.0954503229421232 -0.08208507123200143 0.08077517691520456 0.001309894316796934 0.02279274678989395 0.0 0.0
0.0 0.08165690090154758 -0.07011614017704916 0.06878544403617211 0.0013306961408770116 0.019597156530343024 0.0 0.0
0.0 0.06792374525124777 -0.05836346965870446 0.057084231517583885 0.0012792381411205248 0.017105858504010595 0.0 0.0
0.0 0.055262445161768634 -0.04755567616785747 0.04635474970650112 0.0012009264613563 0.014819919305820191 0.0 0.0
0.0 0.04412158737668092 -0.03780133706718671 0.03668500199319977 0.0011163350739869973 0.01260939033981365 0.0 0.0
0.0 0.03381178046308742 -0.029054424426465393 0.028021572985838194 0.0010328514406271992 0.010407727917745085 0.0 0.0
0.0 0.02468740392926619 -0.021277660131966764 0.020323772965581854 0.0009538871663849139 0.008143336082098754 0.0 0.0
0.0 0.016765454741402255 -0.014525640267611196 0.013649617241847751 0.0008760230257634268 0.005851027244097704 0.0 0.0
0.0 0.010223458441081641 -0.008935148915774078 0.008153863409258071 0.0007812855065160057 0.0037127870142339868 0.0 0.0
0.0 0.0052493875348259495 -0.004660783712192355 0.004036887529034624 0.0006238961831577317 0.0019143034916223496 0.0 0.0
0.0 0.002232013500957825 -0.0018084136165022794 0.0014515512878565608 0.00035686232864571606 0.0006991153830118899 0.0 0.0
0.0 0.0004291549954841948 -0.00041222715208349666 0.0003092770951016318 0.00010295005698186451 0.00018256492334583856 0.0 0.0
0.0 1.4992113548421193e-05 3.3375011096487107e-07 -2.001286537439481e-06 1.6675364264747452e-06 -1.1676569575794222e-05 0.0 0.0
0.0 -2.1716798095936556e-06 6.719765748096767e-07 -5.383767465725394e-07 -1.3359982823713576e-07 -1.2844618235203716e-06 0.0 0.0
0.0 -1.6804337643450485e-07 -1.0793184898566844e-08 8.545086488621468e-09 2.248098409945835e-09 2.8276334812116163e-08 0.0 0.0
0.0 0.0 0.0 0.0 0.0 0.0 0.0 0.0
0.0 0.0 0.0 0.0 0.0 0.0 0.0 0.0
0.0 0.0 0.0 0.0 0.0 0.0 0.0 0.0
0.0 0.0 0.0 0.0 0.0 0.0 0.0 0.0
0.0 0.0 0.0 0.0 0.0 0.0 0.0 0.0
0.0 -2.888204424290586e-06 1.5920334719669831e-06 -1.2829646717187597e-06 -3.0906880024821495e-07 2.1369510180849197e-06 0.0 0.0
0.0 6.780900739388019e-05 -4.053359067726878e-05 2.7146354324760254e-05 1.3387236352508812e-05 -1.113832586926131e-06 0.0 0.0
0.0 0.0008563931107836399 -0.0007265483298400224 0.0005514830896952476 0.00017506524014477436 -0.0001631857789083347 0.0 0.0
0.0 0.0030410706426119254 -0.0026694104761516243 0.0021996097287919326 0.00046980074735968974 -0.0006826628517573093 0.0 0.0
0.0 0.006836986382168928 -0.006126992138035577 0.0054206610444006535 0.0007063310936349235 -0.0017715397575184784 0.0 0.0
0.0 0.012602447121900184 -0.011115245555038797 0.010270004982595865 0.0008452405724429186 -0.00326090656765808 0.0 0.0
0.0 0.02016838838333259 -0.01759598668120534 0.016658661940163848 0.0009373247410415027 -0.005063382821771428 0.0 0.0
0.0 0.02926658996617728 -0.02543531433770328 0.024415136600319687 0.001020177737383578 -0.007002204569792714 0.0 0.0
0.0 0.03987339947606532 -0.034502230067955386 0.033396025718310615 0.0011062043496447571 -0.008921514528846456 0.0 0.0
0.0 0.05161110177584838 -0.04473875785351632 0.04354206487493865 0.0011966929785777137 -0.010801048450971408 0.0 0.0
0.0 0.06505942437038502 -0.056140570264151944 0.05485544406025565 0.001285126203896208 -0.012727513433834717 0.0 0.0
0.0 0.07951028772086775 -0.068708749539459 0.06734182898266383 0.001366920556795247 -0.014735124996132137 0.0 0.0
0.0 0.0950241431525154 -0.08227741203997258 0.08084912935122823 0.0014282826887444182 -0.01671656651960667 0.0 0.0
0.0 0.11111496062990114 -0.09611116086143738 0.09468991173296201 0.0014212491284753546 -0.018778377320227517 0.0 0.0
0.0 0.1251602094679054 -0.10813337026322956 0.10686846993752998 0.0012649003256995528 -0.022160271998370937 0.0 0.0
0.0 0.1327640968118938 -0.11432962566772593 0.11338600048172556 0.0009436251860003238 -0.02918121286859034 0.0 0.0
0.0 0.12769610120690603 -0.10900163006176905 0.10849785535037412 0.0005037747113951598 -0.04103397752533526 0.0 0.0
0.0 0.11762193190526225 -0.0971399410918385 0.09131206208712761 0.005827879004710865 1.5629858518551032e-14 0.0 0.0
0.0 0.1276961012068956 -0.10900163006175581 0.10849785535036115 0.0005037747113947171 0.041033977525374514 0.0 0.0
0.0 0.13276409681185408 -0.1143296256676892 0.11338600048168902 0.0009436251860001122 0.029181212868627664 0.0 0.0
0.0 0.12516020946784923 -0.10813337026318054 0.10686846993748104 0.001264900325699359 0.022160271998390373 0.0 0.0
0.0 0.11111496062983142 -0.09611116086137682 0.09468991173290206 0.0014212491284747457 0.018778377320228898 0.0 0.0
0.0 0.09502414315244291 -0.08227741203990928 0.08084912935116598 0.0014282826887432448 0.016716566519602644 0.0 0.0
0.0 0.07951028772078995 -0.06870874953939173 0.0673418289825969 0.0013669205567948509 0.014735124996124132 0.0 0.0
0.0 0.06505942437030575 -0.05614057026408322 0.05485544406018756 0.0012851262038956351 0.012727513433824424 0.0 0.0
0.0 0.051611101775772064 -0.04473875785345068 0.04354206487487286 0.0011966929785778484 0.010801048450960526 0.0 0.0
0.0 0.039873399475992215 -0.0345022300678918 0.033396025718247666 0.001106204349644165 0.008921514528830759 0.0 0.0
0.0 0.02926658996611429 -0.02543531433764885 0.024415136600265692 0.0010201777373831534 0.007002204569774782 0.0 0.0
0.0 0.020168388383282464 -0.017595986681161895 0.016658661940121 0.0009373247410408968 0.005063382821756575 0.0 0.0
0.0 0.012602447121861602 -0.01111524555500493 0.010270004982562614 0.0008452405724423108 0.003260906567647698 0.0 0.0
0.0 0.006836986382143275 -0.006126992138012547 0.005420661044378622 0.0007063310936339267 0.0017715397575104965 0.0 0.0
0.0 0.0030410706425963033 -0.002669410476138205 0.0021996097287801768 0.00046980074735802836 0.0006826628517530693 0.0 0.0
0.0 0.000856393110777224 -0.0007265483298351423 0.0005514830896914551 0.00017506524014368677 0.00016318577890701976 0.0 0.0
0.0 6.780900739252526e-05 -4.053359067680344e-05 2.714635432445242e-05 1.3387236352350903e-05 1.1138325870819991e-06 0.0 0.0
0.0 -2.8882044241099636e-06 1.5920334713768504e-06 -1.2829646712769841e-06 -3.090688000998612e-07 -2.136951017597496e-06 0.0 0.0
0.0 0.0 0.0 0.0 0.0 0.0 0.0 0.0
0.0 0.0 0.0 0.0 0.0 0.0 0.0 0.0
0.0 0.0 0.0 0.0 0.0 0.0 0.0 0.0
0.0 0.0 0.0 0.0 0.0 0.0 0.0 0.0
0.0 0.0 0.0 0.0 0.0 0.0 0.0 0.0
0.0 0.0 0.0 0.0 0.0 0.0 0.0 0.0
0.0 -3.695093326489808e-06 3.861294920673909e-06 -3.0953069127559467e-06 -7.659880079179777e-07 3.189912610974062e-06 0.0 0.0
0.0 0.00014304232368034795 -0.00014165698942555216 9.983688344325593e-05 4.182010598229607e-05 8.226870917049106e-07 0.0 0.0
0.0 0.0014108545876129657 -0.001167547342242009 0.0009042316629323464 0.0002633156793096618 -8.964646385747816e-05 0.0 0.0
0.0 0.0038973684889849194 -0.0036386342146481846 0.0030739925456262497 0.0005646416690219371 -0.0005401314686579391 0.0 0.0
0.0 0.008513779341531979 -0.007639099086059107 0.006866772772712511 0.0007723263133466036 -0.0013152936453893923 0.0 0.0
0.0 0.015020738564881314 -0.013315871715057728 0.012417213085513053 0.0008986586295446665 -0.0024041508613262628 0.0 0.0
0.0 0.023568627389111467 -0.020666505628800562 0.01967445062779342 0.000992055001007151 -0.0037272367571528015 0.0 0.0
0.0 0.0339338097654324 -0.029582398007506415 0.028500991754934347 0.0010814062525720473 -0.005158292640677255 0.0 0.0
0.0 0.04585832010929555 -0.03994120098038321 0.038766755952596814 0.0011744450277863727 -0.00657907243049812 0.0 0.0
0.0 0.059606748520984604 -0.05166901893795665 0.050398290936471746 0.0012707280014849025 -0.007987391175628253 0.0 0.0
0.0 0.07444261016361275 -0.06473559238506064 0.06337161823622613 0.001363974148834476 -0.009481448035572776 0.0 0.0
0.0 0.09097473681267534 -0.07902780189854743 0.07758293863450894 0.0014448632640385187 -0.011052338498517557 0.0 0.0
0.0 0.10856494598157813 -0.09424394963021708 0.09274151348567433 0.0015024361445426504 -0.012467106616374275 0.0 0.0
0.0 0.12636574138560963 -0.10964709271689002 0.1081301012462045 0.0015169914706856208 -0.013436965654164502 0.0 0.0
0.0 0.14226899050504932 -0.12339838524606697 0.12198629096388461 0.0014120942821823823 -0.014834376984911041 0.0 0.0
0.0 0.15181356872671256 -0.13140717608105218 0.1303814899378019 0.0010256861432501444 -0.02097988636696961 0.0 0.0
0.0 0.14781328886684222 -0.12697507570203684 0.12655012338084892 0.000424952321187701 -0.038430952075201245 0.0 0.0
0.0 0.13767184726599152 -0.11467745272892144 0.10852966872164538 0.00614778400727601 1.1889794704345036e-14 0.0 0.0
0.0 0.14781328886682316 -0.12697507570201771 0.12655012338083033 0.00042495232118741687 0.03843095207523063 0.0 0.0
0.0 0.1518135687266643 -0.1314071760810091 0.13038148993775892 0.0010256861432503088 0.020979886366998376 0.0 0.0
0.0 0.14226899050498135 -0.1233983852460085 0.12198629096382588 0.0014120942821825846 0.014834376984924444 0.0 0.0
0.0 0.12636574138552994 -0.10964709271682076 0.10813010124613565 0.0015169914706853053 0.013436965654165554 0.0 0.0
0.0 0.10856494598149638 -0.0942439496301458 0.09274151348560448 0.0015024361445413327 0.01246710661637325 0.0 0.0
0.0 0.09097473681258875 -0.07902780189847224 0.07758293863443458 0.0014448632640376628 0.011052338498513292 0.0 0.0
0.0 0.07444261016352577 -0.06473559238498529 0.06337161823615166 0.0013639741488336921 0.009481448035564386 0.0 0.0
0.0 0.0596067485208978 -0.05166901893788168 0.05039829093639647 0.0012707280014851857 0.007987391175620695 0.0 0.0
0.0 0.04585832010921426 -0.03994120098031289 0.03876675595252723 0.0011744450277855795 0.00657907243048695 0.0 0.0
0.0 0.03393380976536216 -0.029582398007445044 0.028500991754873247 0.0010814062525718133 0.005158292640663759 0.0 0.0
0.0 0.02356862738905659 -0.020666505628752236 0.019674450627745758 0.0009920550010064648 0.003727236757141477 0.0 0.0
0.0 0.01502073856483848 -0.0133158717150197 0.012417213085475724 0.0008986586295439875 0.0024041508613185563 0.0 0.0
0.0 0.008513779341502098 -0.007639099086032251 0.006866772772686686 0.000772326313345559 0.0013152936453836041 0.0 0.0
0.0 0.003897368488969588 -0.003638634214634006 0.003073992545613405 0.0005646416690206043 0.0005401314686548563 0.0 0.0
0.0 0.0014108545876039661 -0.0011675473422344063 0.0009042316629261168 0.00026331567930828873 8.964646385622248e-05 0.0 0.0
0.0 0.00014304232367845236 -0.0001416569894246951 9.983688344269106e-05 4.1820105982004066e-05 -8.226870913537574e-07 0.0 0.0
0.0 -3.6950933266324547e-06 3.861294920464534e-06 -3.095306912599718e-06 -7.659880078648386e-07 -3.1899126109401138e-06 0.0 0.0
0.0 0.0 0.0 0.0 0.0 0.0 0.0 0.0
0.0 0.0 0.0 0.0 0.0 0.0 0.0 0.0
0.0 0.0 0.0 0.0 0.0 0.0 0.0 0.0
0.0 0.0 0.0 0.0 0.0 0.0 0.0 0.0
0.0 0.0 0.0 0.0 0.0 0.0 0.0 0.0
0.0 0.0 0.0 0.0 0.0 0.0 0.0 0.0
0.0 -5.12759813264233e-06 3.7551278307739266e-06 -3.4122797377124445e-06 -3.4284809306147976e-07 3.8210467519236905e-06 0.0 0.0
0.0 0.0003659439666621254 -0.00028854055196217014 0.00020663621095743398 8.190434100473642e-05 5.08931034615624e-05 0.0 0.0
0.0 0.0019513628305635978 -0.0017305735439616383 0.0013729425458959854 0.00035763099806565194 5.106666415392076e-05 0.0 0.0
0.0 0.005061755029833169 -0.004648742846499277 0.004011259125279574 0.0006374837212197039 -0.00018387761652836627 0.0 0.0
0.0 0.010210201740136024 -0.009172943532497972 0.008347673116794426 0.000825270415703535 -0.0005845761038720763 0.0 0.0
0.0 0.01751865851552857 -0.015508368693674068 0.014563829052454926 0.0009445396412191586 -0.0011490363476935382 0.0 0.0
0.0 0.026966442836218293 -0.023708453972470175 0.02266593105187601 0.0010425229205941462 -0.0018494462940283462 0.0 0.0
0.0 0.038516619845032414 -0.03369190185517278 0.032553449073077535 0.0011384527820952402 -0.002610816727528961 0.0 0.0
0.0 0.052128551537854964 -0.04534177128169503 0.0441040292626151 0.0012377420190799642 -0.00337999987966609 0.0 0.0
0.0 0.06711533402065777 -0.058574559520746264 0.05723430734975653 0.0013402521709896572 -0.004189477262331853 0.0 0.0
0.0 0.08410518050556563 -0.07328957746469064 0.0718520093166702 0.0014375681480204494 -0.005067667056781808 0.0 0.0
0.0 0.10256026128080326 -0.08927817349875056 0.0877622969806029 0.0015158765181477033 -0.005987520800288948 0.0 0.0
0.0 0.12195140441928469 -0.10605657940961813 0.10449407327001546 0.0015625061396025857 -0.00679199858150029 0.0 0.0
0.0 0.14123931019426236 -0.12272128734031003 0.12114901699212291 0.001572270348187086 -0.007124602653908509 0.0 0.0
0.0 0.15861378088184294 -0.1377403213301157 0.13619282392829749 0.0015474974018182424 -0.007013274272358225 0.0 0.0
0.0 0.17046290292353697 -0.14796899496698912 0.14663486008026375 0.0013341348867251608 -0.009805076074881158 0.0 0.0
0.0 0.16922511521761044 -0.146186921109038 0.14582680206858314 0.000360119040454835 -0.028183973150605376 0.0 0.0
0.0 0.16048938782191913 -0.13459593612626053 0.1285341535602297 0.006061782566030775 6.463579671489583e-15 0.0 0.0
0.0 0.1692251152175832 -0.14618692110901294 0.14582680206855841 0.0003601190404544518 0.028183973150622654 0.0 0.0
0.0 0.17046290292348254 -0.1479689949669415 0.14663486008021648 0.00133413488672487 0.009805076074898366 0.0 0.0
0.0 0.15861378088176312 -0.1377403213300472 0.13619282392822823 0.0015474974018188149 0.007013274272364518 0.0 0.0
0.0 0.14123931019417274 -0.12272128734023238 0.1211490169920458 0.0015722703481865533 0.007124602653908666 0.0 0.0
0.0 0.12195140441918853 -0.10605657940953482 0.10449407326993225 0.0015625061396024877 0.006791998581499904 0.0 0.0
0.0 0.10256026128070383 -0.08927817349866435 0.0877622969805174 0.0015158765181469795 0.005987520800286242 0.0 0.0
0.0 0.08410518050546957 -0.07328957746460721 0.07185200931658767 0.0014375681480194758 0.005067667056777109 0.0 0.0
0.0 0.06711533402056076 -0.058574559520662345 0.057234307349672726 0.0013402521709895742 0.004189477262328998 0.0 0.0
0.0 0.05212855153776674 -0.0453417712816183 0.04410402926253919 0.0012377420190791148 0.0033799998796595673 0.0 0.0
0.0 0.03851661984495458 -0.033691901855105316 0.03255344907301063 0.0011384527820946884 0.0026108167275211546 0.0 0.0
0.0 0.02696644283615683 -0.023708453972416117 0.022665931051822713 0.001042522920593404 0.0018494462940220348 0.0 0.0
0.0 0.017518658515481757 -0.015508368693632446 0.014563829052413935 0.0009445396412185024 0.0011490363476895538 0.0 0.0
0.0 0.010210201740101829 -0.009172943532467268 0.008347673116764553 0.0008252704157027069 0.0005845761038690002 0.0 0.0
0.0 0.005061755029813512 -0.004648742846481155 0.004011259125262591 0.0006374837212185614 0.00018387761652636147 0.0 0.0
0.0 0.0019513628305527048 -0.0017305735439520583 0.001372942545887926 0.00035763099806413134 -5.106666415427361e-05 0.0 0.0
0.0 0.0003659439666588814 -0.0002885405519600448 0.00020663621095591583 8.190434100412882e-05 -5.089310346107053e-05 0.0 0.0
0.0 -5.127598132645288e-06 3.755127830295697e-06 -3.4122797373513865e-06 -3.42848092944249e-07 -3.821046751819898e-06 0.0 0.0
0.0 0.0 0.0 0.0 0.0 0.0 0.0 0.0
0.0 0.0 0.0 0.0 0.0 0.0 0.0 0.0
0.0 0.0 0.0 0.0 0.0 0.0 0.0 0.0
0.0 0.0 0.0 0.0 0.0 0.0 0.0 0.0
0.0 0.0 0.0 0.0 0.0 0.0 0.0 0.0
0.0 0.0 0.0 0.0 0.0 0.0 0.0 0.0
0.0 1.3483652831201119e-05 -1.217509997599095e-05 7.5598518480013816e-06 4.615248127989681e-06 6.927098229925474e-06 0.0 0.0
0.0 0.0006500538722024943 -0.0004843462207665214 0.0003453029669280957 0.0001390432538384253 0.00012452070062135158 0.0 0.0
0.0 0.002522782717462812 -0.0022418083553434965 0.0017610430327326917 0.0004807653226108034 0.00029121000026253367 0.0 0.0
0.0 0.0059767088933467575 -0.005507213583700065 0.004696381538857437 0.0008108320448426302 0.00037965277787587663 0.0 0.0
0.0 0.01155193967197008 -0.010441232564149465 0.00937144863661023 0.001069783927539225 0.0004273609086768086 0.0 0.0
0.0 0.019358842874561306 -0.017306262892749055 0.016014301404425325 0.0012919614883237203 0.00042615168073348807 0.0 0.0
0.0 0.029568956706065515 -0.02619719930136732 0.02466795903227791 0.0015292402690893921 0.00034347792554258443 0.0 0.0
0.0 0.042110367707213756 -0.03706490818733274 0.035259941799880685 0.0018049663874520534 0.00021975922104682096 0.0 0.0
0.0 0.0565259966723777 -0.04980177639360529 0.047677704344581774 0.002124072049023486 5.397567596847341e-05 0.0 0.0
0.0 0.0730281059445983 -0.06427971391717346 0.06180347547292824 0.0024762384442451983 -0.0002005116173176627 0.0 0.0
0.0 0.09139149759820912 -0.08035334303493401 0.07750912957038855 0.0028442134645455604 -0.0005116273110290217 0.0 0.0
0.0 0.11129887127252641 -0.09773901467582509 0.09454124325368433 0.003197771422140523 -0.0009218398026561436 0.0 0.0
0.0 0.13207423157507422 -0.11580410986196397 0.11230899089882532 0.0034951189631387764 -0.0013745528187713504 0.0 0.0
0.0 0.15239162829021796 -0.13342031543579647 0.129735325092196 0.0036849903436002728 -0.0016662167568078003 0.0 0.0
0.0 0.17036514275066522 -0.14897400034390945 0.14524393296527774 0.003730067378631693 -0.001520270990165308 0.0 0.0
0.0 0.18343625212408163 -0.16045404176048825 0.15669206837567679 0.0037619733848116644 -0.002685246388506507 0.0 0.0
0.0 0.18599014215201837 -0.16318073669578714 0.1593660895947371 0.003814647101049934 -0.02087380696741121 0.0 0.0
0.0 0.1817937796506473 -0.15479611986340727 0.14427201464922976 0.010524105214177348 1.942890293094024e-15 0.0 0.0
0.0 0.18599014215198628 -0.16318073669575872 0.15936608959470944 0.0038146471010491725 0.020873806967417925 0.0 0.0
0.0 0.18343625212402206 -0.160454041760436 0.15669206837562638 0.003761973384809723 0.0026852463885127503 0.0 0.0
0.0 0.170365142750579 -0.1489740003438346 0.14524393296520421 0.0037300673786304613 0.0015202709901658944 0.0 0.0
0.0 0.15239162829012015 -0.1334203154357108 0.12973532509211247 0.0036849903435981386 0.0016662167568070076 0.0 0.0
0.0 0.13207423157496906 -0.11580410986187263 0.11230899089873475 0.003495118963137775 0.0013745528187713262 0.0 0.0
0.0 0.11129887127241542 -0.09773901467572807 0.09454124325358912 0.0031977714221388333 0.0009218398026528372 0.0 0.0
0.0 0.09139149759810357 -0.0803533430348417 0.07750912957029832 0.002844213464543326 0.0005116273110257336 0.0 0.0
0.0 0.07302810594449305 -0.06427971391708162 0.061803475472837974 0.0024762384442437186 0.0002005116173175673 0.0 0.0
0.0 0.05652599667227987 -0.049801776393519764 0.04767770434449832 0.002124072049021358 -5.397567597184051e-05 0.0 0.0
0.0 0.0421103677071299 -0.037064908187259236 0.035259941799809055 0.0018049663874501766 -0.00021975922104964553 0.0 0.0
0.0 0.029568956705998614 -0.026197199301308934 0.024667959032221028 0.0015292402690879276 -0.00034347792554506986 0.0 0.0
0.0 0.019358842874510236 -0.017306262892703997 0.016014301404381558 0.0012919614883224449 -0.00042615168073449963 0.0 0.0
0.0 0.011551939671931653 -0.010441232564114923 0.00937144863657695 0.0010697839275379604 -0.00042736090867664706 0.0 0.0
0.0 0.005976708893323419 -0.005507213583678459 0.004696381538837403 0.0008108320448410519 -0.00037965277787536836 0.0 0.0
0.0 0.0025227827174524797 -0.0022418083553336176 0.001761043032724412 0.0004807653226092077 -0.00029121000026158126 0.0 0.0
0.0 0.0006500538721980339 -0.00048434622076317795 0.00034530296692568993 0.00013904325383748867 -0.00012452070062058795 0.0 0.0
0.0 1.3483652830936167e-05 -1.2175099975938035e-05 7.559851847979006e-06 4.61524812795901e-06 -6.927098229838101e-06 0.0 0.0
0.0 0.0 0.0 0.0 0.0 0.0 0.0 0.0
0.0 0.0 0.0 0.0 0.0 0.0 0.0 0.0
0.0 0.0 0.0 0.0 0.0 0.0 0.0 0.0
SCALARS Wm float 4
LOOKUP_TABLE default
12.486755713925742 2.0073353543930508 5.1991691659459285 5.280251193586758
6.19453149515558 2.98281667954793 1.4363512591632535 1.7753635564444
0.6936034327809921 0.6495650388188017 0.005553938891235076 0.03848445507095538
0.5260613624585349 0.4996860559827242 0.007190763067149233 0.019184543408661596
1.0520856120414512 0.7635785437129627 0.10287204017454599 0.18563502815394206
2.264240163822451 1.0952487792542103 0.42833097794576536 0.7406604066224745
4.681360627084604 1.5617308454684362 1.3330972160047745 1.7865325656113975
8.615317295217121 2.138821904888343 3.0233028002582776 3.4531925900704987
14.440940376514135 2.867998428440488 5.773781630183096 5.799160317890552
22.437659392729785 3.783349956711139 9.806806827501882 8.84750260851677
32.74609082235062 4.9111187851444456 15.256120205648227 12.578851831557959
45.2951517302072 6.260094751972084 22.0775781557018 16.95747882253336
60.20162464443167 7.814113054682677 30.443652940075747 21.943858649673235
77.40065141578694 9.556330668912778 40.34513115220188 27.499189594672277
96.64297637862705 11.35777309730876 51.738230896896795 33.54697238442146
117.33417842234552 12.9928522918333 64.40620082060164 39.93512530991062
138.3731022932169 14.188872970371484 77.76227845430488 46.4219508685406
158.262888745639 14.736298005449935 90.92582700019412 52.600763739994896
175.37445248208536 14.67646466485163 102.71301827216595 57.98496954506785
187.39234204929375 13.852117337706787 111.53085208853615 62.00937262305071
191.30933280432455 12.332522231900102 115.24583841616922 63.730972156255234
187.39234204928135 13.85211733772347 111.53085208851566 62.009372623042175
175.37445248202496 14.67646466484534 102.71301827212893 57.9849695450506
158.26288874556178 14.73629800545242 90.92582700013973 52.6007637399696
138.3731022931257 14.188872970371138 77.76227845424336 46.42195086851116
117.33417842225309 12.992852291833422 64.40620082053995 39.93512530987973
96.64297637852744 11.357773097297493 51.73823089683881 33.54697238439113
77.40065141569713 9.55633066890849 40.345131152146635 27.49918959464198
60.20162464434396 7.814113054678418 30.443652940022915 21.94385864964267
45.29515173012676 6.260094751965356 22.077578155656163 16.95747882250526
32.74609082228018 4.911118785128945 15.256120205615167 12.578851831536056
22.43765939268018 3.7833499567065387 9.806806827475743 8.847502608497908
14.440940376476206 2.867998428433335 5.7737816301660985 5.799160317876777
8.61531729519371 2.1388219048863983 3.023302800247175 3.4531925900601355
4.681360627070225 1.5617308454661143 1.3330972159990795 1.7865325656050306
2.264240163815207 1.0952487792522545 0.42833097794383324 0.7406604066191194
1.0520856120388726 0.7635785437119147 0.1028720401739358 0.18563502815302166
0.5260613624579702 0.49968605598206384 0.007190763067164945 0.019184543408741605
0.6936034327802443 0.6495650388182037 0.00555393889120493 0.038484455070834964
6.194531495149865 2.9828166795483817 1.4363512591602636 1.7753635564412202
12.486755713898454 2.0073353543799395 5.199169165938143 5.2802511935803835
14.866952058903497 6.505190600473594 4.027920973111481 4.333840485318418
2.4633022264494135 0.5398140783994645 0.8058197028882876 1.1176684451616599
0.2652178922980027 0.30536979695870836 -0.012779209101678672 -0.02737269555902696
0.41084578532682636 0.40331106441334463 0.0013226381628040512 0.006212082750677574
0.7957086949751303 0.6260494473071035 0.051738628025504926 0.117920619642522
1.8104841998302137 0.9149283728636248 0.3316291729111899 0.5639266540553997
3.841248793101933 1.2428722363551448 1.0811587822645066 1.5172177744822817
7.290704344869379 1.6420323377655632 2.59371065006334 3.0549613570404777
12.42962261792019 2.1015576279204815 5.090705416298101 5.237359573701607
19.43257336135046 2.6238388148569456 8.736738138184684 8.07199640830882
28.387092154027112 3.20535655583412 13.650823031173983 11.53091256701901
39.36516499627838 3.8591739208151834 19.93266598732353 15.573325088139658
52.169560255296325 4.5962422173705795 27.39826989516785 20.175048142757902
67.0641618119464 5.390088088008886 36.36971247537102 25.304361248566515
83.77744365893028 6.185624892209726 46.683871131366736 30.907947635353857
101.86075974252763 6.861298406815676 58.152074523659124 36.84738681205278
120.46262612045051 7.268966934628863 70.32716905982743 42.866490125994204
138.32630099827833 7.303292174418646 82.39574355454725 48.627265269312446
153.76550807293935 6.888424147399872 93.21507743747523 53.662006488064165
164.6767929556703 6.07518791612167 101.27475215788002 57.32685288166856
168.78019272381613 5.156626318980581 104.74314360153488 58.88042280330079
164.67679295565452 6.075187916134896 101.27475215785998 57.32685288165963
153.76550807288103 6.88842414738771 93.21507743744371 53.66200648804971
138.32630099820486 7.303292174414463 82.39574355450011 48.62726526929026
120.46262612037319 7.268966934634361 70.32716905977179 42.866490125966976
101.86075974243718 6.8612984068063705 58.1520745236052 36.8473868120256
83.77744365884664 6.18562489220721 46.683871131313694 30.907947635325712
67.06416181186536 5.390088088004114 36.36971247532191 25.304361248539333
52.16956025521732 4.59624221736567 27.398269895121267 20.17504814273035
39.36516499620483 3.8591739208065876 19.9326659872837 15.573325088114549
28.387092153968357 3.2053565558263566 13.650823031143611 11.530912566998397
19.432573361306183 2.623838814854272 8.736738138160858 8.071996408291046
12.429622617888759 2.101557627918261 5.0907054162822405 5.237359573688255
7.290704344847449 1.6420323377623496 2.593710650053824 3.0549613570312792
3.8412487930895782 1.242872236353736 1.0811587822594637 1.5172177744763773
1.8104841998243986 0.9149283728623788 0.33162917290925265 0.5639266540527674
0.7957086949732497 0.6260494473060711 0.05173862802517803 0.11792061964200051
0.41084578532646426 0.403311064412873 0.0013226381628205712 0.006212082750770641
0.265217892297783 0.30536979695831407 -0.01277920910160804 -0.02737269555892303
2.4633022264422766 0.539814078398085 0.8058197028855152 1.117668445158677
14.866952058877787 6.505190600462629 4.027920973103598 4.33384048531155
11.191124127876945 5.159253868646037 2.7865853753343055 3.245284883896601
1.5256547463976171 0.21347872863222406 0.5362261852375318 0.7759498325278611
0.16654887021766623 0.1664489640464603 1.1339375773663077e-05 8.856679543224571e-05
0.3060048814026255 0.30810501171928556 -0.0005146978319554662 -0.0015854324847045776
0.6042468080166579 0.5353183433918285 0.017338041687334483 0.05159042293749534
1.407873937152225 0.8201567993362294 0.20971949408834092 0.3779976437276548
3.105964819101549 1.135679140391017 0.7854921814841154 1.1847934972264162
6.113826233275175 1.509599632938077 2.0603192844079707 2.5439073159291268
10.629976381223706 1.924438010761369 4.201958368354939 4.503580002107398
16.811922463937382 2.3802674177247596 7.379133935002715 7.052521111209908
24.674305630004014 2.88194178867039 11.643309895690777 10.149053945642837
34.18857140484462 3.442640202984769 16.99228085117871 13.753650350681138
45.52428643922265 4.0847866898751395 23.60012535923829 17.83937439010923
58.431126004751626 4.796620977170503 31.22948470899292 22.405020318588157
73.08526870651778 5.518479394893393 40.16701545772607 27.39977385389831
89.01835357439698 6.167628491051215 50.13117925054475 32.71954583280103
105.52748944123415 6.621258179727142 60.74033774324719 38.16589351825983
121.47226559789725 6.736707799453459 71.34278169883648 43.392776099607254
135.25939249965816 6.399173400046785 80.9040619907085 47.95615710890291
145.03879642009335 5.7790600960986005 88.00367925712933 51.256057066865445
148.5755701120786 4.659443705930934 91.18289886117198 52.733227544975655
145.0387964200615 5.779060096090581 88.00367925711318 51.25605706685763
135.25939249962389 6.399173400052767 80.9040619906812 47.95615710888991
121.47226559783874 6.736707799453299 71.3427816987974 43.392776099588005
105.52748944116445 6.621258179729322 60.740337743199376 38.16589351823575
89.01835357432378 6.167628491046523 50.13117925049968 32.7195458327776
73.08526870644198 5.518479394887909 40.167015457680506 27.399773853873548
58.431126004682426 4.79662097716768 31.229484708950764 22.405020318563956
45.52428643915845 4.08478668987527 23.600125359198287 17.8393743900849
34.18857140478267 3.442640202977024 16.99228085114584 13.75365035065983
24.674305629953704 2.881941788666298 11.643309895663702 10.149053945623704
16.811922463897005 2.380267417720424 7.379133934982424 7.052521111194155
10.629976381194634 1.924438010757831 4.201958368341301 4.503580002095501
6.113826233256998 1.5095996329357315 2.060319284400072 2.5439073159211967
3.105964819091204 1.1356791403898396 0.7854921814801147 1.1847934972212488
1.4078739371476385 0.8201567993352231 0.20971949408690096 0.37799764372551437
0.6042468080153458 0.5353183433909134 0.017338041687195785 0.05159042293723656
0.3060048814024133 0.30810501171895777 -0.0005146978319385027 -0.0015854324846059874
0.16654887021766343 0.166448964046457 1.1339375773448188e-05 8.856679543296237e-05
1.525654746392585 0.2134787286317869 0.5362261852354235 0.7759498325253728
11.191124127851737 5.159253868635192 2.7865853753269105 3.2452848838896386
8.438514366587318 4.014827811928855 1.9645044327311885 2.4591821219272756
1.0204057671395779 0.10246252516296718 0.3543044753238587 0.5636387666527509
0.11694882859201404 0.11694882859201404 0.0 0.0
0.22978801157837514 0.23021376034166546 -4.667622473659435e-05 -0.0003790725385537344
0.45846180229876976 0.4452925043446784 0.002199126456321868 0.010970171497769458
1.0484122871830253 0.7089476497693088 0.1084605345699541 0.23100410284376285
2.452957656033439 1.031190826952095 0.5516900758358647 0.8700767532454792
4.985046047804395 1.3723821661903386 1.5665181915471198 2.046145690066936
8.892895176116223 1.7459881469810596 3.3703142951014256 3.776592734033734
14.247626152074881 2.142787217374195 6.069405256253292 6.035433678447396
21.0161136568436 2.5701112348969053 9.67544914023728 8.770553281709423
29.24187733436055 3.052359199254954 14.252842060303006 11.93667607480259
38.849205955649616 3.604966779719993 19.726951755649655 15.517287420279974
50.10437879208667 4.22646697844568 26.370950837271312 19.506960976369683
62.68927221213904 4.887277053330338 33.9075340014164 23.894461157392314
76.43713632729629 5.513406764816581 42.32918467394184 28.594544888537886
90.93167185927652 6.002212957152129 51.497810663053066 33.43164823907134
105.04661600750364 6.206683682269624 60.70374494377935 38.136187381454626
117.36237799571084 6.010058843293516 69.059196819191 42.29312233322629
126.24305189577936 5.51564881132044 75.36411119764054 45.363291886818445
129.46200281873158 4.175971929275267 78.46172866413566 46.824302225320615
126.24305189577126 5.515648811332535 75.36411119762676 45.363291886811936
117.36237799567593 6.010058843296779 69.05919681916546 42.29312233321373
105.04661600745037 6.206683682265569 60.70374494374648 38.13618738143833
90.93167185921561 6.002212957151425 51.49781066301356 33.4316482390506
76.4371363272318 5.513406764811467 42.32918467390329 28.5945448885171
62.68927221207803 4.887277053330118 33.907534001377606 23.894461157370277
50.10437879203011 4.2264669784487765 26.37095083723396 19.506960976347376
38.8492059555887 3.6049667797141978 19.726951755615787 15.517287420258704
29.241877334313827 3.0523591992567436 14.252842060274123 11.93667607478297
21.016113656800584 2.5701112348955673 9.675449140213253 8.770553281691772
14.24762615204061 2.1427872173710223 6.0694052562360605 6.03543367843352
8.892895176092209 1.7459881469781455 3.3703142950903793 3.776592734023685
4.9850460477885985 1.3723821661884028 1.5665181915405593 2.046145690059635
2.4529576560245556 1.0311908269498244 0.5516900758328855 0.8700767532418462
1.048412287179399 0.7089476497682597 0.10846053456895922 0.2310041028421802
0.4584618022979569 0.4452925043438744 0.0021991264562943357 0.010970171497788202
0.2297880115782215 0.23021376034154914 -4.6676224741032755e-05 -0.0003790725385865961
0.11694882859197442 0.11694882859197442 0.0 0.0
1.0204057671354005 0.10246252516277754 0.354304475322046 0.5636387666505775
8.43851436656676 4.014827811920219 1.9645044327253998 2.459182121921143
6.270531734726685 3.101739231243556 1.3379600445613324 1.8308324589217977
0.7468205494096837 0.10994748550955456 0.2506116498791311 0.386261414020998
0.10648966605770976 0.10648966605770976 0.0 0.0
0.1839716131371903 0.18395193552139782 2.3808703295678058e-06 1.729674546289972e-05
0.35034061786574555 0.3558804849712504 -0.002294827411711629 -0.0032450396937930403
0.7683117147883789 0.6099600251825603 0.04472446081502769 0.11362722879079061
1.8580281459986918 0.9062483399461855 0.36037574757383134 0.5914040584786759
3.921766722988126 1.2319706075647 1.1222089172047827 1.5675871982186433
7.216307888013256 1.5655803770222743 2.5903217811784387 3.0604057298125458
11.7493908820076 1.9094761799962126 4.814912598697653 5.025002103313734
17.48646074454221 2.2740279298376724 7.81556729443788 7.396865520266648
24.398032435302717 2.6808302232746324 11.590874047263194 10.126328164764882
32.542546989611985 3.155644142862403 16.188017265163364 13.198885581586222
41.833234249931095 3.6986395629902287 21.508499602482644 16.626095084458196
52.507823607807836 4.283543451648245 27.827427610119525 20.396852546040073
64.29287365961625 4.881356895865053 34.950474821527834 24.461041942223382
76.6706516957227 5.407251755100425 42.565703517668915 28.697696422953342
88.99726981537319 5.718839317330204 50.413531601025056 32.864898897017945
99.99319040815121 5.673830813924301 57.703124818940275 36.61623477528668
108.20263185980853 5.286605785111588 63.422924104653504 39.49310197004336
111.23636376562975 3.707547388387027 66.50608165251562 41.02273472472715
108.20263185978065 5.286605785101587 63.42292410464168 39.493101970037344
99.99319040811986 5.6738308139243205 57.70312481891948 36.61623477527606
88.99726981533014 5.71883931732754 50.41353160099858 32.864898897004025
76.67065169567405 5.407251755103014 42.565703517635534 28.697696422935504
64.29287365956873 4.8813568958699545 34.950474821494254 24.461041942204503
52.50782360775755 4.283543451651245 27.82742761008595 20.39685254602039
41.833234249876014 3.698639562984966 21.508499602451867 16.626095084439186
32.54254698956463 3.1556441428593835 16.188017265136647 13.198885581568593
24.398032435259 2.680830223272867 11.590874047238618 10.126328164747514
17.486460744502825 2.274027929832087 7.815567294418754 7.396865520251984
11.749390881978892 1.9094761799947233 4.8149125986828745 5.025002103301296
7.216307887993793 1.5655803770217038 2.590321781168869 3.06040572980322
3.9217667229754944 1.2319706075636756 1.1222089171993483 1.5675871982124723
1.8580281459920194 0.9062483399439223 0.36037574757191876 0.5914040584761787
0.768311714785823 0.6099600251816245 0.044724460814449994 0.11362722878974843
0.3503406178652289 0.3558804849705776 -0.0022948274116859854 -0.0032450396936628185
0.18397161313706195 0.18395193552129688 2.380870327955279e-06 1.7296745437114147e-05
0.10648966605753118 0.10648966605753118 0.0 0.0
0.7468205494060519 0.10994748550925626 0.25061164987760015 0.38626141401919634
6.270531734710811 3.1017392312372736 1.3379600445568498 1.8308324589166851
4.572367136835945 2.3767210763743405 0.886294682277532 1.3093513781840724
0.52886963429171 0.14281623646327687 0.13465722732661212 0.251396170501821
0.11995406082675006 0.11995406082675006 0.0 0.0
0.1622815522154985 0.16226268574225616 1.2965130588232236e-06 1.7569960183487005e-05
0.28052634152419725 0.28665510960886487 -0.0012912709626577003 -0.004837497122009891
0.5532878784464316 0.5023274379137207 0.009034323487065014 0.04192611704564607
1.314588779187467 0.7644800589424173 0.18157285698190523 0.36853586326314414
2.9808456983357514 1.082179373017917 0.7816999091992058 1.1169664161186277
5.593335544809024 1.3810144466567666 1.8527591764113105 2.3595619217409487
9.352045886396986 1.6807100394620216 3.6462165404671203 4.0251193064678406
14.065998455313384 1.9887040304115766 6.046359826431635 6.03093459847017
19.709298974381742 2.330958176594824 9.053241019353733 8.325099778433184
26.30727893092019 2.732355307023579 12.682492693553982 10.892430930342636
33.971476955860986 3.1993272550131047 17.01965104989594 13.752498650951956
42.65249222263655 3.7261500690194 22.01286197359031 16.91348018002683
52.2870926317166 4.274035018910926 27.671875941532882 20.341181671272803
62.814961093732954 4.813656287578575 34.06003078580571 23.94127402034869
73.3620424745577 5.24843867152056 40.54189360297931 27.571710200057826
83.05100612885373 5.3733952079835925 46.72736561397759 30.950245306892498
90.74575079721036 5.093636676346235 51.97602324618176 33.67609087468237
93.71051160286035 3.262666548199699 55.14201889680954 35.30582615785112
90.74575079720698 5.093636676357162 51.9760232461724 33.67609087467734
83.05100612883138 5.373395207986026 46.72736561396147 30.950245306883925
73.3620424745272 5.248438671523326 40.54189360295766 27.571710200046223
62.81496109368272 4.813656287569603 34.060030785779205 23.941274020333886
52.28709263166919 4.274035018908071 27.671875941504865 20.341181671256283
42.65249222259016 3.7261500690153104 22.012861973564103 16.913480180010726
33.971476955820435 3.199327255010373 17.019651049873065 13.752498650936996
26.307278930879956 2.732355307019739 12.682492693532442 10.892430930327778
19.709298974346815 2.330958176592718 9.053241019334905 8.32509977841919
14.065998455282351 1.9887040304067976 6.046359826417099 6.030934598458458
9.352045886372158 1.680710039458491 3.6462165404559106 4.0251193064577535
5.593335544792675 1.381014446655819 1.852759176403759 2.359561921733098
2.9808456983254352 1.082179373016772 0.7816999091949417 1.1169664161137214
1.3145887791826234 0.7644800589412186 0.1815728569804561 0.3685358632609483
0.5532878784446973 0.5023274379127753 0.009034323486825644 0.04192611704509624
0.2805263415236371 0.2866551096080482 -0.0012912709626161129 -0.00483749712179487
0.16228155221504462 0.16226268574180125 1.2965130588260665e-06 1.7569960184512094e-05
0.11995406082639477 0.11995406082639477 0.0 0.0
0.5288696342891651 0.14281623646315572 0.1346572273255504 0.2513961705004593
4.572367136823418 2.3767210763690167 0.8862946822743306 1.3093513781800714
3.215132941975823 1.7936686058374387 0.5342070008656752 0.8872573352727103
0.39647668068084246 0.18668552949086886 0.06734369683213214 0.14244745435784145
0.14388403358880175 0.14389646201730474 -6.591917487488861e-07 -1.1769236754219564e-05
0.1579478080257825 0.15793352200966548 9.176681420014073e-07 1.3368347975063384e-05
0.23791874001899457 0.24022904457179364 -0.0004392570135921791 -0.0018710475392069363
0.40743872097821376 0.4104317888046207 -0.0037557440359976954 0.0007626762095907962
0.903249782003123 0.635261356042459 0.07792681784146742 0.19006160811919626
2.059976488844142 0.9029680418696027 0.42683866813339216 0.730169778841147
4.171080700449833 1.1963975919788696 1.288160492678425 1.6865226157925368
7.03215324512978 1.4507656729434337 2.5428724099696254 3.03851516221672
10.786347824921563 1.7127460009617623 4.396569467968268 4.677032355991535
15.22158326890057 1.9986086607350488 6.687643615862318 6.535330992303205
20.365245468102202 2.334555095871144 9.429686736584982 8.601003635646073
26.315282143546067 2.732596684916285 12.6861509384552 10.896534520174582
33.12582684235895 3.191753187696135 16.488250966647175 13.44582268801564
40.896664297653366 3.699720680594242 20.964974626646224 16.2319689904129
49.136399538814814 4.229743847573854 25.70186838214649 19.204787309094485
58.004588911088376 4.756158114288695 31.002610830158915 22.24581996664075
66.64556309279597 5.080971173479217 36.33337184415139 25.23122007516539
73.85412040841511 4.943917273890487 41.05935806407202 27.850845070452596
76.88245269408202 2.8546260332930404 44.3878800993536 29.639946561435384
73.85412040839925 4.943917273887058 41.059358064063986 27.850845070448177
66.64556309278106 5.080971173484599 36.33337184413829 25.231220075158173
58.00458891105402 4.7561581142797404 31.002610830142793 22.245819966631487
49.13639953878469 4.229743847575264 25.70186838212673 19.20478730908271
40.896664297615004 3.699720680589072 20.96497462662568 16.231968990400247
33.12582684232736 3.1917531876971337 16.48825096662753 13.445822688002702
26.315282143511578 2.732596684909492 12.686150938438825 10.89653452016326
20.36524546807409 2.334555095871351 9.429686736568637 8.6010036356341
15.221583268871935 1.9986086607318319 6.687643615848072 6.535330992292034
10.7863478248987 1.7127460009609554 4.39656946795644 4.677032355981307
7.032153245111707 1.4507656729413312 2.5428724099614555 3.0385151622089217
4.171080700436412 1.1963975919776844 1.2881604926724495 1.6865226157862785
2.059976488836501 0.9029680418676722 0.4268386681309145 0.7301697788379145
0.9032497819995456 0.6352613560412782 0.07792681784056445 0.19006160811770306
0.4074387209771928 0.41043178880355646 -0.003755744035981442 0.0007626762096180361
0.23791874001835706 0.24022904457114555 -0.0004392570135890405 -0.0018710475391994945
0.15794780802532157 0.15793352200920985 9.176681415783688e-07 1.336834797013782e-05
0.14388403358847415 0.14389646201696246 -6.591917477816558e-07 -1.1769236740542314e-05
0.3964766806788398 0.18668552949066125 0.0673436968313895 0.1424474543567886
3.21513294196671 1.7936686058336597 0.5342070008634549 0.8872573352695957
2.235175350604805 1.3706515074475343 0.3288160298264465 0.5357078133308243
0.29235245571695057 0.2109230061210313 0.016374241014515692 0.06505520858140383
0.16915547040797804 0.16913733577777487 1.785883622765233e-06 1.634874658039575e-05
0.1649909816668373 0.16496209517658544 2.1233219905083985e-06 2.676316826130505e-05
0.21386252187986282 0.21565772779646353 -0.00029842009272541484 -0.0014967858238752532
0.32019273830423167 0.3325641123584482 -0.004153847067880104 -0.008217526986336453
0.5946158826521664 0.5077408476117079 0.017139960106432116 0.06973507493402639
1.3263226896085745 0.7249195591925996 0.1956307362572164 0.4057723941587583
2.7515381524649127 0.9756270246408106 0.697834353336893 1.078076774487209
4.951140063268819 1.2175398094755814 1.651077204283487 2.08252304950975
7.667291384379908 1.4369050693098853 2.89177869233551 3.3386076227345143
10.931858924966066 1.6750484229803715 4.493152496681951 4.763658005303739
14.71245625992235 1.9542007221793944 6.42701721484503 6.331238322897928
19.055975297640593 2.2853212868377653 8.702984809947338 8.0676692008555
24.109199251232802 2.6852615795843557 11.420461470117395 10.003476201531061
29.83425667981473 3.1444718275973313 14.539516932293392 12.150267919924016
36.27449296654432 3.644232035079377 18.164521173733323 14.465739757731615
43.17590189743738 4.221342570151118 22.031778752745538 16.922780574540734
50.413525808714226 4.753408556178838 26.186024126270638 19.474093126264734
57.30656963891386 4.834495543971504 30.502967415595208 21.96910667934713
60.56716692582304 2.4947184650807834 34.08803424955586 23.984414211186383
57.30656963891527 4.834495543981118 30.502967415589893 21.969106679344264
50.41352580869602 4.753408556174272 26.18602412626209 19.474093126259657
43.17590189742051 4.221342570151395 22.031778752734958 16.922780574534183
36.274492966512156 3.6442320350704818 18.164521173719102 14.465739757722561
29.834256679789625 3.144471827596721 14.539516932278707 12.150267919914192
24.109199251202323 2.6852615795772254 11.420461470103676 10.003476201521428
19.05597529762503 2.285321286843204 8.702984809935298 8.067669200846531
14.712456259900522 1.954200722178141 6.427017214833533 6.331238322888845
10.931858924947043 1.675048422979854 4.493152496672015 4.7636580052951745
7.66729138435953 1.4369050693050764 2.891778692327471 3.3386076227269825
4.951140063255986 1.2175398094752614 1.651077204277272 2.082523049503453
2.751538152455039 0.9756270246389505 0.6978343533332438 1.0780767744828441
1.326322689604034 0.7249195591914426 0.19563073625588684 0.4057723941567042
0.5946158826503585 0.5077408476109971 0.017139960106106022 0.06973507493325538
0.32019273830369344 0.33256411235754524 -0.0041538470678284985 -0.008217526986023557
0.21386252187936247 0.21565772779600015 -0.0002984200927225065 -0.0014967858239151566
0.16499098166662757 0.16496209517635213 2.123321991482189e-06 2.6763168283929554e-05
0.1691554704077289 0.16913733577741338 1.7858836315291035e-06 1.6348746683994166e-05
0.2923524557158381 0.21092300612088896 0.016374241014175464 0.0650552085807736
2.2351753505976917 1.3706515074444838 0.3288160298247062 0.5357078133285024
1.4483995485034498 1.0154450309429692 0.14139526238329067 0.2915592551771898
0.2314163042230844 0.22123570269218415 -0.0021121469697183487 0.012292748500618643
0.1907993854166974 0.19088244327909326 -7.418050668691485e-06 -7.56398117271436e-05
0.17846665867359154 0.17853671287382308 -4.6666906957031944e-06 -6.538750953581453e-05
0.2031530249606153 0.20487060137004642 -0.00029084437218646856 -0.0014267320372446683
0.27200231117114226 0.27839980724859176 -0.002280090066391329 -0.004117406011058206
0.408826740313469 0.4014264319703141 -0.002638726797702027 0.010039035140856835
0.7763906371069846 0.5574299334911794 0.06003583035755645 0.1589248732582491
1.5908298594358317 0.7436739307760293 0.2947884734244542 0.5523674552353478
2.9519508726747006 0.943022206516785 0.8101376645320637 1.1987910016258525
4.737946106419485 1.1327037570353047 1.5566020111172538 2.048640338266928
6.909768436312778 1.334225803719986 2.5486383106500194 3.0269043219427694
9.40343645651508 1.5656807846941256 3.73418703488575 4.1035686369352025
12.260137053873205 1.8357236109644008 5.132119955002397 5.292293487906409
15.601269530583844 2.1699404426478925 6.808539757192998 6.62278933074295
19.523333364874105 2.5823113347288618 8.816082810664877 8.12493921948037
24.015695541278554 3.056172477722551 11.158083568169031 9.801439495386967
28.981043605235232 3.581208370739479 13.772035088042966 11.627800146452788
34.785301809838806 4.280294695506126 16.834959893990973 13.670047220341687
41.33987409080194 4.760920019923081 20.57840590264913 16.000548168229706
44.9673018681079 2.2299759505367853 24.340449883223197 18.39687603434794
41.339874090791284 4.76092001991618 20.578405902646796 16.000548168228303
34.78530180982161 4.280294695493252 16.83495989398835 13.670047220340008
28.981043605222077 3.5812083707395326 13.772035088035013 11.627800146447523
24.015695541265064 3.0561724777247545 11.15808356815983 9.801439495380471
19.523333364856754 2.582311334728349 8.81608281065518 8.124939219473223
15.601269530564476 2.1699404426406614 6.8085397571861455 6.622789330737664
12.26013705385289 1.8357236109568504 5.1321199549953525 5.292293487900693
9.403436456502728 1.5656807846946876 3.7341870348789485 4.103568636929087
6.9097684362991085 1.3342258037193555 2.548638310643282 3.0269043219364753
4.737946106409685 1.1327037570344431 1.5566020111129484 2.048640338262291
2.9519508726659325 0.9430222065161655 0.8101376645282605 1.1987910016215062
1.5908298594306418 0.7436739307745475 0.2947884734229102 0.5523674552331848
0.7763906371043651 0.5574299334904841 0.060035830356888545 0.15892487325699228
0.40882674031222044 0.4014264319692982 -0.002638726797799823 0.010039035140722142
0.27200231117057694 0.2783998072477845 -0.00228009006634955 -0.004117406010857856
0.20315302496012408 0.204870601369398 -0.0002908443721738117 -0.0014267320371001812
0.1784666586731857 0.17853671287344583 -4.666690696937137e-06 -6.538750956317493e-05
0.19079938541644945 0.19088244327874332 -7.418050663583267e-06 -7.563981163019205e-05
0.2314163042226975 0.2212357026920771 -0.0021121469698159112 0.012292748500436334
1.4483995484986647 1.0154450309407268 0.14139526238228406 0.29155925517565395
0.9247469011614357 0.7648029232870217 0.04589940632879169 0.11404457154562242
0.19652570998159022 0.21142113803122123 -0.005326391591940921 -0.009569036457690075
0.2064836830228601 0.20649157082589503 -6.815165138942647e-07 -7.206286521003733e-06
0.19440226533007898 0.19443245329973813 -3.4716878336152157e-06 -2.6716281825536805e-05
0.20420950599256738 0.2055303724078138 -0.00025994275123395155 -0.0010609236640126078
0.24813341696437283 0.2536481449473244 -0.0017172978336192218 -0.0037974301493324003
0.32378362516888537 0.31962359873487295 -0.0007345091576866873 0.004894535591698938
0.44539625034476293 0.3927014025710903 0.010374779607179084 0.04232006816649356
0.7283901113797996 0.49287260524930326 0.06626374219281368 0.16925376393768232
1.3023149882234721 0.6224398518971606 0.23219695069399304 0.44767818563231876
2.2061496922480837 0.7553882764964407 0.5676657117004179 0.8830957040512246
3.305677072653603 0.8925598523453269 0.9918004029213402 1.4213168173869368
4.623326822329385 1.0605660739292755 1.5429992322894295 2.0197615161106808
6.16894587808748 1.265175068616701 2.215088455720194 2.6886823537505844
7.99575891076571 1.5234476332487121 3.0233207512450764 3.4489905262719236
10.229621337306058 1.8677313487408846 4.022067373405003 4.33982261516017
12.995084451238984 2.3095977088548567 5.285516917785694 5.399969824598432
16.281612448016183 2.7863282862197893 6.864754941792696 6.6305292200036945
20.190247317390636 3.359740089277492 8.763494538872518 8.067012689240633
25.874574885098554 4.437478280199282 11.425167522477896 10.011929082421373
30.84884066336961 2.1774046754765504 15.733504538475811 12.937931449417238
25.874574885097164 4.437478280194427 11.425167522479962 10.011929082422775
20.19024731740204 3.3597400892899425 8.76349453887191 8.067012689240189
16.28161244800484 2.7863282862173286 6.864754941787663 6.630529219999849
12.995084451226086 2.3095977088529347 5.2855169177795815 5.399969824593572
10.229621337292361 1.8677313487362697 4.022067373400147 4.339822615155944
7.9957589107668765 1.5234476332557303 3.0233207512421196 3.4489905262690286
6.168945878082863 1.2651750686157015 2.2150884557183166 2.6886823537488445
4.6233268223228 1.0605660739296112 1.5429992322860087 2.0197615161071782
3.3056770726459717 0.8925598523444935 0.9918004029181544 1.4213168173833242
2.206149692240631 0.7553882764933055 0.5676657116984408 0.8830957040488848
1.3023149882201404 0.6224398518969656 0.23219695069271398 0.44767818563046113
0.7283901113779006 0.49287260524855975 0.06626374219240382 0.16925376393693708
0.44539625034360236 0.3927014025705354 0.010374779606993255 0.04232006816607395
0.32378362516847775 0.319623598734539 -0.0007345091577199709 0.004894535591658553
0.24813341696396757 0.25364814494672494 -0.0017172978335817683 -0.0037974301491755453
0.20420950599221843 0.2055303724073983 -0.0002599427512252848 -0.001060923663954544
0.19440226532972837 0.19443245329929856 -3.471687824373888e-06 -2.6716281745878106e-05
0.2064836830224936 0.20649157082543457 -6.815165060324656e-07 -7.206286434936491e-06
0.19652570998120886 0.2114211380307763 -0.005326391591916327 -0.009569036457651094
0.9247469011588417 0.7648029232857279 0.0458994063283393 0.11404457154477435
0.5828330614849321 0.556688034689417 0.004611039292549007 0.021533987502966204
0.18248594473437546 0.18730010333114944 -0.0008459585412194158 -0.003968200055554589
0.21598330009117359 0.21629575760329173 -3.053707169991863e-05 -0.00028192044041821547
0.21017281098626736 0.21018916108206945 -3.2570315634704804e-06 -1.30930642386984e-05
0.21457414536634953 0.21537827997002243 -0.00022134536026574027 -0.0005827892434070504
0.24536387432252973 0.2488886188879722 -0.0013359154657693207 -0.002188829099673152
0.3013535277667652 0.2928735202042352 0.0007706357051907188 0.0077093718573394135
0.35431760459826483 0.30003614314857263 0.012537434921447318 0.04174402652824482
0.39646355257886995 0.2663368075643847 0.04002720967733192 0.09009953533715356
0.4853363401846883 0.2322009766438214 0.08429438306353086 0.1688409804773361
0.7066552597803856 0.2557666468623764 0.17536170044566537 0.27552691247234407
1.049077238158479 0.2976974388631067 0.2956434383206446 0.45573636097472786
1.5260993726736969 0.3034919041228463 0.49643744743393675 0.7261700211169138
2.126150240691742 0.3112297440283834 0.7645629439132745 1.0503575527500864
2.8666475385516224 0.3406593235762884 1.1018991465795371 1.424089068395795
3.7518851167068146 0.41167618559707386 1.4968307262378622 1.8433782048718803
4.834467067923519 0.5465405116423354 1.982665994937524 2.30526056134366
6.113453701891441 0.7404728002025514 2.5645495332082584 2.8084313684806315
7.968830757826448 1.09792126498172 3.374589666483645 3.4963198263610824
12.678116935621304 2.604153283642208 4.945625712013537 5.12833793996556
21.183755327144965 2.262786385512248 9.870562722072917 9.050406219559816
12.678116935629951 2.604153283646572 4.945625712016041 5.128337939967339
7.968830757811169 1.0979212649710868 3.374589666481218 3.4963198263588646
6.1134537018938175 0.7404728002087352 2.5645495332060158 2.8084313684790674
4.834467067912368 0.5465405116384601 1.9826659949337948 2.305260561340111
3.7518851167054423 0.4116761855988881 1.4968307262363147 1.843378204870239
2.86664753854431 0.3406593235734271 1.1018991465773875 1.424089068393495
2.1261502406900865 0.31122974402992254 0.764562943911752 1.050357552748412
1.5260993726692278 0.3034919041224121 0.49643744743206547 0.7261700211147499
1.0490772381534217 0.2976974388612972 0.2956434383191264 0.45573636097299874
0.7066552597806981 0.2557666468639722 0.17536170044505361 0.27552691247167144
0.4853363401832642 0.23220097664309328 0.08429438306325995 0.16884098047691123
0.3964635525784084 0.26633680756454775 0.04002720967709917 0.09009953533676146
0.3543176045982299 0.30003614314867105 0.012537434921407527 0.041744026528151484
0.30135352776610896 0.2928735202037606 0.000770635705098019 0.007709371857250361
0.2453638743219056 0.2488886188871666 -0.0013359154657379673 -0.0021888290995231343
0.21457414536601532 0.21537827996951323 -0.00022134536024614874 -0.0005827892432517157
0.2101728109862255 0.21018916108184188 -3.2570315415325214e-06 -1.3093064074865142e-05
0.21598330009095779 0.21629575760314565 -3.053707170654886e-05 -0.0002819204404812938
0.18248594473401525 0.18730010333070074 -0.0008459585411974515 -0.003968200055488099
0.5828330614833684 0.5566880346880343 0.00461103929245853 0.021533987502875607
0.3792593990994705 0.380359636189878 -0.00018673596960630228 -0.0009135011208012241
0.17270352291009133 0.17263765889530808 1.6701204181397648e-05 4.916281060181987e-05
0.21953945156612711 0.2194343973891305 2.150698984917145e-06 0.00010290347801168164
0.22373400770701374 0.2236614023701748 -2.16724153120855e-06 7.477257837000794e-05
0.23079532306776537 0.23077731186540962 -0.00012720451842249993 0.00014521572077834643
0.26437072352892294 0.2657283556878648 -0.00110366389879115 -0.0002539682601507783
0.33341179814190647 0.327609248891577 0.00032752791586865943 0.005475021334460836
0.449909900029522 0.39436668196022295 0.011470205501839293 0.044073012567459526
0.7296466336308527 0.4927046740900571 0.06678829852838736 0.17015366101240814
1.3011934287161213 0.6220030864354889 0.23186172405824768 0.4473286182223849
2.208253937337197 0.7571016282672305 0.5682391397850769 0.88291316928489
3.3203698783791697 0.8949886954523577 0.9989958488581308 1.426385334068682
4.657012597401652 1.065568544889949 1.557053182982203 2.0343908695294983
6.20975185966247 1.267906633049271 2.2352206634880183 2.7066245631251817
7.934533633106879 1.5018891047113199 3.004312270938536 3.4283322574570203
9.749840318056625 1.7705982852684066 3.8247436573620655 4.154498375426159
11.422347692868973 2.057763949481537 4.575763571999767 4.788820171387668
12.765722797920517 2.3916622295822343 5.170790669332167 5.203269899006118
13.240587444046406 2.6228872316875496 5.3434828750572425 5.274217337301614
10.624117207108716 1.6573359213583523 4.619120854690392 4.34766043105997
21.45254957520175 3.711583961504715 9.076116235774073 8.664849377922966
10.624117207111157 1.6573359213552212 4.61912085469338 4.347660431062553
13.240587444058121 2.622887231699533 5.343482875057075 5.274217337301523
12.765722797902702 2.3916622295709873 5.17079066932848 5.20326989900323
11.4223476928628 2.0577639494859317 4.575763571994029 4.788820171382843
9.749840318035647 1.7705982852602296 3.8247436573552127 4.1544983754202
7.934533633100427 1.5018891047117908 3.004312270935055 3.4283322574535857
6.20975185964945 1.2679066330458237 2.2352206634830805 2.7066245631205446
4.657012597388434 1.0655685448872252 1.5570531829770395 2.0343908695241715
3.3203698783702476 0.8949886954529056 0.998995848853703 1.4263853340636379
2.208253937328523 0.7571016282651153 0.5682391397820792 0.8829131692813287
1.301193428711016 0.622003086434991 0.23186172405635322 0.447328618219672
0.7296466336285186 0.49270467408940344 0.066788298527805 0.17015366101131
0.4499099000282877 0.3943666819595351 0.011470205501658311 0.044073012567094214
0.3334117981410918 0.3276092488907813 0.0003275279158502773 0.0054750213344602365
0.26437072352826335 0.2657283556870924 -0.0011036638987816285 -0.00025396826004748076
0.23079532306723882 0.2307773118647238 -0.00012720451840578123 0.00014521572092089015
0.22373400770673146 0.22366140236968904 -2.1672415104110094e-06 7.477257855279584e-05
0.21953945156611232 0.21943439738895157 2.150698995964309e-06 0.00010290347816474006
0.17270352290996008 0.1726376588952037 1.670120417477519e-05 4.91628105816804e-05
0.379259399098626 0.38035963618872043 -0.00018673596957066477 -0.0009135011205239573
0.24565250436325234 0.24563176523313016 1.3476233019465938e-06 1.9391506820260498e-05
0.15904045461575422 0.1590777184316548 -1.7760353395349614e-06 -3.548778056105501e-05
0.21657875924679115 0.21684644532114036 -3.0073282175320593e-05 -0.00023761279217387335
0.23336014735301067 0.23280817129178577 5.344899892509875e-05 0.0004985270622999018
0.251221418025233 0.253827897334742 -0.0005610608821926092 -0.0020454184273163505
0.3031345092518407 0.308089865925913 -0.001517495491163494 -0.0034378611829090316
0.42413289066028886 0.40292948807235696 0.0002669649564849604 0.020936437631446883
0.7836159605936827 0.5582503402605548 0.06257426475364496 0.162791355579483
1.5908050113729657 0.7434573945266361 0.29483180729625164 0.552515809550078
2.950142312999387 0.9428947045260145 0.8092305337588884 1.1980170747144838
4.740254182916012 1.133189019303277 1.5573911087582042 2.0496740548545307
6.923098231992879 1.336113005069379 2.5544915790148828 3.032493647908617
9.433137071163248 1.5684199211987988 3.748629070132443 4.116088079832011
12.288074706657408 1.832697602521911 5.14948236120076 5.3058947429347345
15.518315025617742 2.1372569000893926 6.781574902292874 6.5994832232354765
19.012830168123255 2.4731275056062954 8.588148515978604 7.951554146538341
22.48294009648673 2.8399641812551963 10.390323437628242 9.252652477603288
25.468716380723517 3.261654422244566 11.87228985149941 10.334772106979536
26.94679708820637 3.4300115704252327 12.662614508505335 10.85417100927581
24.9559815077515 3.3563975567086244 11.627609889691529 9.971974061351352
30.62613687085908 7.478045007684464 12.398520911165367 10.749570952009245
24.95598150775865 3.3563975567079383 11.627609889696242 9.971974061354473
26.946797088196323 3.4300115704159255 12.662614508504838 10.854171009275559
25.46871638071265 3.261654422244198 11.872289851493159 10.334772106975292
22.482940096455405 2.8399641812443748 10.390323437616225 9.252652477594806
19.012830168114956 2.473127505617608 8.588148515967404 7.9515541465299435
15.518315025593196 2.137256900080622 6.781574902283994 6.5994832232285825
12.288074706641442 1.8326976025225366 5.149482361191712 5.305894742927191
9.4331370711441 1.5684199211981582 3.748629070122581 4.116088079823363
6.923098231975186 1.3361130050675534 2.5544915790067098 3.032493647900924
4.740254182898139 1.133189019299637 1.5573911087512375 2.0496740548472623
2.950142312990285 0.9428947045260746 0.8092305337546243 1.1980170747095866
1.590805011366873 0.7434573945258487 0.2948318072940346 0.5525158095469893
0.7836159605907862 0.5582503402596775 0.0625742647529453 0.16279135557816363
0.42413289065916643 0.40292948807145146 0.00026696495640268336 0.020936437631312386
0.30313450925136814 0.30808986592521015 -0.0015174954911211175 -0.0034378611827208913
0.2512214180250455 0.25382789733432076 -0.0005610608821521261 -0.0020454184271232255
0.2333601473525001 0.2328081712911091 5.344899893863189e-05 0.0004985270624524703
0.21657875924663766 0.21684644532102995 -3.0073282180974542e-05 -0.00023761279221133532
0.1590404546156459 0.1590777184315459 -1.7760353385807672e-06 -3.548778056142655e-05
0.24565250436268335 0.2456317652325742 1.3476233008971399e-06 1.9391506808273514e-05
0.15185266054409643 0.15185266054409643 0.0 0.0
0.1401610846317814 0.14014473150481926 9.89853957466213e-07 1.5363273004669434e-05
0.20679461633829832 0.20695992734095991 -1.77925346410513e-05 -0.00014751846802054955
0.2392094515576221 0.2399795812458991 -0.00012722144498900073 -0.0006429082432880447
0.27541964199553287 0.2766472366766915 -0.0003900285602378487 -0.0008375661209206962
0.35728287125782654 0.3547460196406232 -0.001919811695866526 0.004456663313070038
0.6188686080087754 0.5164741248393184 0.02398092829273047 0.07841355487672635
1.332105548343725 0.7256194225852453 0.1982465157651775 0.40823960999330244
2.7493430677869277 0.9755948822312668 0.6968041676800983 1.0769440178755605
4.950325868736088 1.2177778758062636 1.65081239643458 2.081735596495244
7.670080946871113 1.4372167224884638 2.8918053067289513 3.3410589176536982
10.94225983075495 1.6758677186903386 4.498404888719549 4.767987223345062
14.726715193933051 1.9546557868854386 6.434804523006449 6.337254884041158
19.05212164209409 2.278573329667986 8.704818868809955 8.068729443616146
23.998215367863104 2.6483246251422785 11.377342338133914 9.97254840458691
29.390574913831074 3.046404860101567 14.333483666836672 12.010686386892832
35.027648667724236 3.464597737813478 17.51648854231098 14.046562387599783
39.865411311330696 3.7732875294628716 20.268837749761083 15.823286032106736
42.340662074159894 3.821253692205463 21.769132055214776 16.75027632673965
39.34617580814283 3.3613063163237618 20.220981413018162 15.763888078800926
44.17021733121562 10.373794577985914 18.850793527836178 14.945629225393535
39.34617580813569 3.361306316313166 20.220981413020276 15.763888078802243
42.34066207415029 3.821253692202159 21.769132055210857 16.75027632673728
39.8654113113009 3.773287529450609 20.268837749750297 15.823286032100006
35.02764866769994 3.4645977378185404 17.516488542293093 14.046562387588295
29.390574913794854 3.0464048600910556 14.33348366682129 12.010686386882503
23.998215367834444 2.6483246251405426 11.377342338118089 9.972548404575798
19.052121642066293 2.27857332966424 8.704818868796128 8.068729443605928
14.726715193909758 1.9546557868860661 6.43480452299308 6.337254884030612
10.94225983072996 1.6758677186880597 4.498404888707226 4.76798722333467
7.670080946849053 1.4372167224891663 2.8918053067171066 3.34105891764278
4.950325868719403 1.2177778758038849 1.6508123964274715 2.0817355964880466
2.749343067777433 0.9755948822297805 0.6968041676764318 1.0769440178712208
1.3321055483381663 0.7256194225837336 0.19824651576357216 0.4082396099908603
0.6188686080062133 0.5164741248382836 0.023980928292235075 0.07841355487569442
0.3572828712570265 0.35474601963955193 -0.0019198116958335384 0.0044566633133080145
0.2754196419950934 0.27664723667606855 -0.0003900285602128701 -0.0008375661207623722
0.23920945155713563 0.23997958124533286 -0.00012722144498077706 -0.0006429082432164863
0.20679461633807159 0.20695992734073768 -1.779253464238373e-05 -0.00014751846802372572
0.1401610846316677 0.1401447315047091 9.898539572355688e-07 1.5363273001379168e-05
0.1518526605436858 0.1518526605436858 0.0 0.0
0.0888699162854381 0.0888699162854381 0.0 0.0
0.11705841443335818 0.11705894412903173 -2.2971052855553653e-08 -5.067246206468004e-07
0.19121769233160324 0.19123465582567772 -2.9323937242123446e-06 -1.4031100350246574e-05
0.241692090298924 0.24182815255002585 -3.9422830059924464e-05 -9.663942104189836e-05
0.30162253733544914 0.30673372251558084 -0.0011923968376321287 -0.003918788342499462
0.44862803292914055 0.4327061936487567 0.001717010324633535 0.014204828955750254
0.9197897789112741 0.6322832069799289 0.08413642269968169 0.20337014923166358
2.0614431687598898 0.9033921633205806 0.42772936067155415 0.7303216447677545
4.1680979570527965 1.1968651799338814 1.2864480667031888 1.6847847104157254
7.032594183702493 1.451204102339588 2.5426826819573067 3.0387073994055966
10.791342033271732 1.7127069903873133 4.399541811496068 4.679093231388353
15.224722490435783 1.9972014865617993 6.6902358055508575 6.537285198323121
20.352144341143372 2.3300025418163615 9.424874730459738 8.597267068867287
26.262992735681 2.721698108920755 12.661849900837376 10.879444725922859
33.00173965276021 3.1668490954295336 16.428332513585605 13.406558043745072
40.6063098957564 3.6441246359699417 20.81997827661516 16.142206983171302
48.22177811747635 4.046573560095042 25.244189990196066 18.931014567185276
54.992688205171625 4.211756860909507 29.439834593397524 21.341096750864583
58.270972877736625 3.9318756655099296 31.72804749059128 22.611049721635418
54.39445509300441 3.443449342002565 29.574783600780457 21.376222150221384
59.22989222272164 13.175192651028897 26.44060882804247 19.61409074365027
54.39445509300112 3.443449342002215 29.574783600778613 21.376222150220293
58.27097287772281 3.931875665509365 31.728047490582803 22.611049721630664
54.99268820514474 4.211756860908427 29.43983459338109 21.3410967508552
48.221778117438625 4.046573560094092 25.244189990173098 18.931014567171424
40.60630989571403 3.6441246359650945 20.819978276592018 16.142206983156917
33.00173965272313 3.1668490954279616 16.428332513564172 13.40655804373098
26.26299273564439 2.721698108916659 12.66184990081813 10.879444725909595
20.352144341102598 2.330002541808615 9.424874730440633 8.597267068853341
15.224722490402083 1.9972014865591838 6.690235805533476 6.537285198309423
10.791342033245536 1.7127069903884506 4.399541811481416 4.67909323137567
7.032594183681394 1.4512041023384057 2.5426826819471433 3.0387073993958467
4.168097957037465 1.1968651799309813 1.2864480666970861 1.6847847104093983
2.061443168751061 0.9033921633183564 0.4277293606686678 0.7303216447640377
0.9197897789073504 0.6322832069788062 0.08413642269862512 0.20337014922991833
0.448628032927779 0.43270619364782364 0.0017170103245192317 0.014204828955436073
0.3016225373349226 0.3067337225147689 -0.00119239683758259 -0.00391878834226369
0.2416920902984721 0.2418281525494665 -3.942283005029193e-05 -9.663942094416363e-05
0.19121769233129693 0.19123465582540305 -2.93239372809587e-06 -1.4031100378041784e-05
0.11705841443321315 0.11705894412888614 -2.297105282889122e-08 -5.067246201801207e-07
0.08886991628512067 0.08886991628512067 0.0 0.0
0.048939952932258175 0.048939952932258175 0.0 0.0
0.09248354950728084 0.09248354950728084 0.0 0.0
0.17143475144875422 0.17142409285445984 6.366593226293898e-07 1.002193497175889e-05
0.24144398423918798 0.2420317056359133 -9.397637152548911e-05 -0.0004937450251998144
0.33311428675987376 0.3353721657287565 -0.001384866990521516 -0.0008730119783613182
0.587832966845562 0.517547689233602 0.016677609530180326 0.053607668081779705
1.3274387615386165 0.7647830861342835 0.18765722612447755 0.3749984492798557
2.9792159730170225 1.0831269576730895 0.7806842687177532 1.1154047466261796
5.591534922005073 1.3818387866739599 1.8515924144933973 2.3581037208377196
9.35455341617664 1.6811519942137554 3.647247612981743 4.0261538089811415
14.070397547494537 1.9880191648126242 6.049178570081026 6.033199812600891
19.70134578881199 2.326169271016588 9.051443096810056 8.32373342098534
26.258264109774583 2.7199025171020916 12.660939223669452 10.877422369003042
33.862448018050685 3.1842173533728557 16.962835931867318 13.71539473281051
42.52211027919229 3.7255353020344586 21.93258101474106 16.863993962416764
52.148118946505676 4.265734702026279 27.589186213684503 20.293198030794905
62.21611870853583 4.635935357683614 33.79028267536928 23.789900675482905
70.59699733714632 4.566422114101937 39.195860580643995 26.834714642400407
74.31863963072433 3.9471139982633003 41.967578477893944 28.40394715456712
69.94516499751585 3.625538441406114 39.397521112473044 26.922105443636717
75.64983132631966 16.008619606050523 35.108820027980045 24.53239169228906
69.945164997505 3.625538441403191 39.397521112467935 26.922105443633896
74.3186396307028 3.9471139982621484 41.96757847788069 28.4039471545599
70.59699733710697 4.566422114097254 39.1958605806216 26.834714642388118
62.21611870849482 4.635935357687111 33.79028267534078 23.78990067546693
52.14811894645542 4.2657347020244725 27.589186213654024 20.293198030776942
42.52211027914624 3.7255353020332804 21.93258101471337 16.863993962399583
33.862448018001594 3.1842173533664346 16.962835931841468 13.715394732793706
26.25826410973255 2.7199025171040665 12.660939223643426 10.877422368985062
19.701345788774763 2.326169271018008 9.051443096787859 8.323733420968889
14.070397547459663 1.9880191648097971 6.04917857006326 6.033199812586606
9.35455341614893 1.6811519942111133 3.6472476129684663 4.026153808969349
5.591534921987167 1.3818387866727113 1.851592414485299 2.358103720829159
2.9792159730053385 1.0831269576710172 0.7806842687132702 1.1154047466210504
1.3274387615330256 0.7647830861325453 0.18765722612293903 0.3749984492775422
0.5878329668436547 0.5175476892326231 0.016677609529869446 0.0536076680811622
0.33311428675929705 0.33537216572791045 -0.0013848669904855898 -0.0008730119781277092
0.24144398423876515 0.24203170563550983 -9.397637152846284e-05 -0.0004937450252161936
0.17143475144857181 0.17142409285428398 6.366593221431451e-07 1.0021934965748754e-05
0.09248354950705216 0.09248354950705216 0.0 0.0
0.04893995293206414 0.04893995293206414 0.0 0.0
0.025280133347003783 0.025280133347003783 0.0 0.0
0.06915305014022947 0.06915305014022947 0.0 0.0
0.14981287924285544 0.1498069050998118 3.662909033654852e-07 5.6078521402870744e-06
0.24066107419729432 0.24104095766730396 -6.748683713671108e-05 -0.0003123966328728537
0.38096878044583105 0.3834986639728811 -0.0013889621804799648 -0.00114092134656986
0.7771806549169042 0.5958213716714363 0.04818283529159305 0.1331764479538746
1.8632339566958318 0.9065074223462537 0.3637182313809024 0.5930083029686758
3.9197146176975384 1.233158876326662 1.120503817388299 1.5660519239825763
7.2167514730990705 1.5664779053485958 2.590322817362908 3.059950750387567
11.75371261293073 1.9097945718796547 4.817118492343767 5.026799548707312
17.488500771458128 2.272198780638014 7.817777785675675 7.398524205144441
24.376168801255723 2.6720622537920606 11.58320754558735 10.120899001876309
32.457762657886974 3.1350997101946025 16.149268587814657 13.173394359877705
41.66949325592313 3.67801424542706 21.420200342787773 16.57127866770831
52.34488771780529 4.298320251150221 27.715498902624937 20.33106856403014
64.22229028274202 4.917595530617065 34.881589992360986 24.423104759763966
76.25979024959908 5.235604827375583 42.40967028836477 28.614515133858745
86.33029625315342 4.875823912498145 49.215602018211754 32.23887032244355
90.87555611977379 3.9604637974304953 52.80903410228466 34.10605822005866
86.18154330355996 3.841272578475022 49.805806550887766 32.53446417419718
93.06421760314538 18.846968224553525 44.475760916684756 29.741488461907128
86.18154330355821 3.8412725784815596 49.805806550882245 32.534464174194355
90.87555611974835 3.960463797432603 52.809034102266544 34.10605822004919
86.33029625311359 4.875823912501431 49.21560201818339 32.23887032242875
76.25979024954742 5.235604827374977 42.40967028833161 28.614515133840815
64.22229028268916 4.917595530621879 34.88158999232405 24.423104759743218
52.34488771774994 4.298320251148829 27.715498902590962 20.331068564010135
41.66949325586792 3.678014245425925 21.420200342754384 16.57127866768761
32.457762657835694 3.135099710193933 16.149268587784178 13.173394359857575
24.376168801207097 2.6720622537878844 11.58320754556129 10.120899001857914
17.488500771417222 2.2721987806355064 7.81777778565393 7.398524205127776
11.753712612899465 1.9097945718788103 4.817118492327264 5.026799548693395
7.216751473076239 1.5664779053460158 2.5903228173527006 3.0599507503775203
3.9197146176827307 1.2331588763241184 1.120503817382494 1.56605192397612
1.8632339566878107 0.9065074223447742 0.3637182313780643 0.59300830296497
0.777180654914142 0.5958213716701983 0.048182835291036986 0.13317644795290726
0.38096878044499505 0.38349866397186855 -0.0013889621804499147 -0.0011409213464236637
0.2406610741970705 0.24104095766707273 -6.748683713870327e-05 -0.0003123966328635615
0.14981287924267364 0.14980690509963016 3.662909033509835e-07 5.607852140109466e-06
0.06915305014009618 0.06915305014009618 0.0 0.0
0.025280133346926355 0.025280133346926355 0.0 0.0
0.012393970841968437 0.012393970841968437 0.0 0.0
0.04918183773617858 0.04918183773617858 0.0 0.0
0.1290155793357415 0.1290155793357415 0.0 0.0
0.24290268576943788 0.24365163440296078 -0.00012050632387209298 -0.0006284423096509183
0.4519951404314438 0.4377779452243755 0.002385084188511511 0.01183211101855681
1.0446333052743841 0.7047523848011044 0.10934412198369067 0.23053679848958952
2.45182470156709 1.030933271598645 0.551348535120856 0.869542894847589
4.985789905737228 1.3732454651181616 1.5667158297627584 2.045828610856307
8.896478222999466 1.7468380639961787 3.371868533506341 3.7777716254969462
14.252738331686594 2.142677187013944 6.072368058960309 6.037693085712341
21.01338844079283 2.566631808149059 9.675917917476081 8.770838715167693
29.20499979127551 3.039879403646816 14.238278783411548 11.926841604217154
38.73661107794692 3.5791075574614575 19.673757905118165 15.483745615367301
49.89490466959879 4.198207980315454 26.257269133512033 19.439427555771285
62.445346691729725 4.8907759601156755 33.749414883654495 23.805155847959554
76.26344499149612 5.553502926349983 42.1905813964358 28.519360668710345
90.45194108850887 5.839776967690242 51.28904171397641 33.32312240684222
102.2644143803843 5.226315122380619 59.50531875196164 37.53278050604209
107.8622633640974 4.000666579192977 64.03930970755091 39.82228707735351
103.36705381430974 4.033261339332789 61.0424493894504 38.29134308552655
111.98488247728146 21.640040999562995 55.07779754955901 35.26704392815945
103.36705381428742 4.033261339319763 61.04244938944422 38.2913430855235
107.86226336405825 4.000666579189707 64.03930970752694 39.8222870773416
102.26441438033442 5.226315122380807 59.505318751928186 37.532780506025404
90.4519410884419 5.839776967684388 51.28904171393626 33.323122406821255
76.26344499143828 5.553502926353965 42.19058139639556 28.519360668688712
62.44534669165895 4.890775960109667 33.74941488361312 23.805155847936167
49.8949046695355 4.198207980316048 26.25726913347198 19.439427555747475
38.73661107788296 3.5791075574567635 19.6737579050818 15.48374561534439
29.20499979121631 3.0398794036426713 14.238278783378778 11.926841604194873
21.01338844074464 2.566631808146056 9.675917917450006 8.770838715148583
14.252738331649908 2.1426771870113024 6.072368058941418 6.037693085697185
8.89647822297273 1.7468380639942045 3.371868533493382 3.777771625485146
4.985789905719568 1.3732454651158403 1.5667158297555634 2.045828610848164
2.4518247015578964 1.0309332715974715 0.5513485351172865 0.869542894843139
1.044633305270399 0.7047523847996711 0.10934412198270728 0.23053679848802075
0.4519951404303195 0.4377779452234352 0.0023850841884505932 0.011832111018433646
0.24290268576903448 0.24365163440234247 -0.00012050632385921854 -0.000628442309448676
0.1290155793354815 0.1290155793354815 0.0 0.0
0.04918183773608629 0.04918183773608629 0.0 0.0
0.012393970841924262 0.012393970841924262 0.0 0.0
0.006006962612047225 0.006006962612047225 0.0 0.0
0.03384657007603751 0.03384657007603751 0.0 0.0
0.11200060512590349 0.11200060512590349 0.0 0.0
0.25391692693838347 0.25553504571434343 -0.0002724960671280213 -0.0013456227088318308
0.5552881814771262 0.500022710747819 0.012459007723916348 0.04280646300539101
1.3858975954713018 0.8141101762371665 0.20320624521858116 0.3685811740155536
3.103345445207595 1.1356143862138106 0.7835324164234141 1.1841986425703683
6.120904759327755 1.5101137295403655 2.0650615808953834 2.5457294488920064
10.636359153255714 1.9249350066470723 4.205088955176585 4.506335191432059
16.816582812536975 2.379438905417102 7.382336058543581 7.0548078485762895
24.66486509983756 2.8764550201139047 11.641033679212473 10.14737640051117
34.137522072395036 3.4274172986808424 16.970578008454154 13.739526765260035
45.393161555290604 4.056806340546645 23.53597219990773 17.8003830148362
58.188235330605124 4.760474136574481 31.098175081316448 22.329586112714203
72.72016417301381 5.48295239130357 39.95392395406716 27.283287827643043
88.50808387303084 6.120232142703854 49.82749213278214 32.56035959754489
104.5455601420708 6.414263856220488 60.228740141856754 37.90255614399351
118.25733306824577 5.748048048814377 69.83764943464563 42.67163558478578
125.31535115449296 4.067267328483105 75.75461703362846 45.493466792381355
121.71099635167066 4.130383655202058 73.29255210553835 44.2880605909302
132.58318101135794 24.25864660974375 67.03335038824684 41.291184013367285
121.71099635163843 4.1303836551872575 73.29255210552658 44.288060590924545
125.31535115445257 4.067267328487647 75.75461703359821 45.49346679236676
118.25733306817656 5.748048048807238 69.83764943460399 42.671635584765326
104.54556014200298 6.4142638562243945 60.22874014180914 37.902556143969484
88.50808387294956 6.1202321426939905 49.827492132735216 32.56035959752033
72.72016417293761 5.482952391300839 39.95392395401961 27.28328782761717
58.18823533053197 4.760474136572872 31.09817508127103 22.329586112688055
45.39316155521862 4.0568063405437025 23.535972199864844 17.800383014810084
34.1375220723363 3.4274172986841918 16.970578008416517 13.739526765235599
24.66486509978325 2.876455020111258 11.641033679182245 10.14737640048974
16.816582812492904 2.3794389054113245 7.382336058522036 7.054807848559542
10.636359153225763 1.9249350066453126 4.205088955161572 4.506335191418883
6.120904759307389 1.5101137295383036 2.065061580886307 2.545729448882778
3.103345445195909 1.1356143862106958 0.7835324164197853 1.184198642565426
1.385897595465953 0.8141101762359164 0.20320624521693742 0.36858117401309964
0.5552881814757313 0.5000227107468318 0.01245900772375919 0.04280646300514032
0.2539169269380582 0.2555350457139448 -0.0002724960671185403 -0.0013456227087681307
0.112000605125768 0.112000605125768 0.0 0.0
0.033846570075939775 0.033846570075939775 0.0 0.0
0.006006962612030625 0.006006962612030625 0.0 0.0
0.0028507203145641297 0.0028507203145641297 0.0 0.0
0.023327660581622337 0.023327660581622337 0.0 0.0
0.10273013728903951 0.10273013728903951 0.0 0.0
0.28295207010520507 0.28486260090586757 -0.0005727208256080312 -0.0013378099750545726
0.713668081550474 0.587807550505427 0.03728334790376525 0.08857718314128132
1.7743758809187455 0.9092064959580494 0.3164065881567826 0.5487627968039138
3.8389423084648464 1.242393491989582 1.0792141609117873 1.5173346555634766
7.2971862638066565 1.6416173529824245 2.595524559589522 3.060044351234709
12.440279678849267 2.101676648292122 5.097261551696529 5.241341478860619
19.435728099961597 2.622079874231766 8.739674562396111 8.07397366333373
28.370043096545952 3.197766053535654 13.645238569431186 11.527038473579115
39.30163616721852 3.8421856790671276 19.90410925273556 15.555341235415824
52.025704059113885 4.5678799386454685 27.325593633449394 20.13223048701906
66.79223478133217 5.345050779556842 36.22398642824513 25.223197573530214
83.26982830130211 6.096419605638452 46.41073167546786 30.762677020195834
100.84927550630617 6.650563630890035 57.62051097977199 36.57820089564405
118.38483754012964 6.81020375773527 69.23495905060987 42.33967473178447
133.91955859059505 6.35982108743648 80.04123629313881 47.51850121001973
143.078348327188 4.459687585950815 87.56933761966485 51.049323121572314
141.36179505055992 3.937631809953051 86.78078312923465 50.643380111372174
155.0751792442998 25.75570974156597 81.23327548247026 48.08619402026352
141.36179505052337 3.9376318099422294 86.78078312921713 50.643380111364024
143.07834832713843 4.459687585952925 87.56933761962992 51.04932312155562
133.9195585905308 6.35982108744667 80.04123629308839 47.51850120999579
118.38483754004763 6.810203757734867 69.23495905055498 42.339674731757704
100.84927550621798 6.650563630887809 57.62051097971514 36.57820089561506
83.26982830120784 6.09641960563027 46.410731675411576 30.762677020165995
66.79223478124634 5.345050779551513 36.223986428193385 25.223197573501405
52.02570405903042 4.567879938640472 27.32559363339996 20.13223048698996
39.301636167144046 3.842185679061445 19.904109252693377 15.555341235389236
28.370043096483705 3.197766053531265 13.64523856939671 11.527038473555741
19.435728099913106 2.622079874226865 8.739674562371155 8.073973663315085
12.44027967881441 2.101676648288709 5.097261551679442 5.241341478846253
7.297186263782124 1.6416173529792977 2.5955245595786693 3.060044351224162
3.8389423084507746 1.2423934919868334 1.079214160906607 1.517334655557333
1.7743758809126542 0.9092064959572312 0.31640658815456507 0.5487627968008579
0.7136680815482739 0.5878075505042472 0.03728334790339719 0.08857718314062961
0.2829520701048015 0.2848626009052925 -0.0005727208255863867 -0.0013378099749046365
0.10273013728891764 0.10273013728891764 0.0 0.0
0.023327660581574882 0.023327660581574882 0.0 0.0
0.002850720314567015 0.002850720314567015 0.0 0.0
0.0008618268731137957 0.0008618268731137957 0.0 0.0
0.01699085595441911 0.01699085595441911 0.0 0.0
0.1072240049868124 0.1072240049868124 0.0 0.0
0.34670401058985995 0.34280255155408645 0.00035508219143835437 0.0035463768443351838
0.9417519357243224 0.7172751772954129 0.0744856194315355 0.1499911389973741
2.2605624151844776 1.1135593012045144 0.4372894246528373 0.7097136893271254
4.680922657443887 1.56095541114524 1.330428533431112 1.7895387128675353
8.630918254248034 2.1391126917210355 3.03204581457736 3.4597597479496414
14.451680786977505 2.8676596461997828 5.7801369916982575 5.8038841490794715
22.43744876540015 3.778980430117169 9.809335068518962 8.849133266764008
32.71861146689706 4.897318480255626 15.247939294721887 12.57335369191954
45.21482809603236 6.233818041409457 22.044109703084345 16.936900351538586
60.033199298013486 7.770323184169167 30.364591769566914 21.898284344277403
77.0545361964738 9.455901502422012 40.18613417878564 27.41250051526613
95.85128856405511 11.064762099917992 51.40843114331912 33.37809532081798
115.45939518970908 12.208011744651422 63.67617106358376 39.575212381473925
134.22779688992586 12.446635910137463 76.1346766246869 45.6464843551015
150.20178024092638 11.674728266526145 87.5094863706118 51.01756560378845
161.4015150547624 10.502577545515182 95.97229900499738 54.926638504249894
157.41218645168135 4.0086441419088645 97.63677113717696 55.76677117259553
220.6856323527027 71.4634430004018 94.88109945362814 54.34108989867282
157.41218645165156 4.0086441419096595 97.63677113715599 55.76677117258588
161.40151505470084 10.502577545510112 95.97229900495837 54.92663850423229
150.20178024084808 11.674728266528923 87.50948637055657 51.01756560376272
134.2277968898269 12.446635910129203 76.13467662462587 45.64648435507186
115.45939518960895 12.208011744646095 63.67617106352034 39.575212381442434
95.85128856396702 11.064762099927608 51.40843114325491 33.378095320784524
77.05453619637724 9.455901502415 40.18613417872757 27.41250051523468
60.03319929791839 7.770323184160358 30.364591769512256 21.8982843442458
45.21482809595485 6.2338180414090125 22.044109703036604 16.93690035150922
32.71861146682906 4.897318480250805 15.247939294683897 12.573353691894365
22.437448765345287 3.7789804301100043 9.809335068491286 8.849133266744
14.451680786936514 2.8676596461932657 5.780136991679209 5.803884149064045
8.630918254220024 2.1391126917173913 3.032045814564758 3.459759747937876
4.680922657428777 1.5609554111438126 1.3304285334246613 1.7895387128603044
2.2605624151772474 1.1135593012027196 0.43728942465066595 0.709713689323862
0.9417519357213049 0.7172751772940472 0.07448561943092166 0.14999113899633598
0.3467040105891307 0.34280255155337086 0.00035508219143921306 0.003546376844320503
0.10722400498656363 0.10722400498656363 0.0 0.0
0.01699085595438639 0.01699085595438639 0.0 0.0
0.0008618268731133788 0.0008618268731133788 0.0 0.0
CELL_DATA 800
SCALARS Stress float 6
LOOKUP_TABLE default
163.64783720554846 -515.6208466340145 -181.96811463011895 -109.03264619880795 0.0 0.0
400.75376682426946 -63.047425636026084 116.12922996823771 56.35678253590093 0.0 0.0
404.34827363116403 9.35741558276101 123.9155207592728 -3.311517921376715 0.0 0.0
463.89437394847084 -12.368781650612453 142.5525794448349 -14.653292905742138 0.0 0.0
539.8459258893455 -17.759348850205 195.1441445531697 -11.567610876849905 0.0 0.0
612.3901145019464 -12.569329727547043 266.59166777244457 -10.057802361020084 0.0 0.0
682.7098922049281 -5.814659220098221 325.2828945995884 -10.424367930223182 0.0 0.0
753.4323019130725 8.729996085390866 375.41750972243193 -11.888572809813196 0.0 0.0
826.2699694515366 30.83532613551324 425.0200276405129 -13.478652697395585 0.0 0.0
901.2959962998111 59.68847167071391 477.71015940372564 -14.585217681581497 0.0 0.0
977.1568139097811 93.21607644560142 532.8410811873741 -15.074693736618334 0.0 0.0
1052.5812667398543 130.23328254324997 589.3851992056412 -15.009443752452672 0.0 0.0
1127.5596439093551 169.3962692559563 646.683303137134 -14.789203068462788 0.0 0.0
1202.9270315571316 211.29154728425357 705.4646247409539 -14.498892538864975 0.0 0.0
1279.342452466014 256.68177642669167 766.4734578705595 -14.014337903116871 0.0 0.0
1356.1869695542305 305.1997418925448 829.236521901736 -13.143793463306258 0.0 0.0
1431.1366405023387 355.15258982448046 891.7578600264225 -11.727724989387674 0.0 0.0
1501.3504322868425 404.4891744567185 951.5799149649761 -9.92999557320574 0.0 0.0
1564.9757624968734 452.33423654014143 1007.283281385369 -8.93981409702858 0.0 0.0
1649.0470090784768 527.729599778887 1086.482923919685 -13.341795909085214 0.0 0.0
1649.0470090793167 527.7295997797462 1086.482923920224 13.341795909101627 0.0 0.0
1564.9757624968229 452.3342365401305 1007.2832813853047 8.939814097047396 0.0 0.0
1501.3504322862364 404.4891744561817 951.579914964477 9.92999557321945 0.0 0.0
1431.1366405021333 355.1525898243795 891.7578600262593 11.72772498935965 0.0 0.0
1356.1869695541309 305.1997418925774 829.2365219016087 13.143793463317635 0.0 0.0
1279.3424524657962 256.6817764266155 766.4734578702892 14.014337903240355 0.0 0.0
1202.927031557233 211.29154728452 705.4646247409353 14.498892538856264 0.0 0.0
1127.5596439087703 169.39626925556593 646.683303136635 14.789203068502971 0.0 0.0
1052.581266739556 130.23328254315788 589.3851992054074 15.009443752456736 0.0 0.0
977.1568139088961 93.21607644494858 532.8410811867159 15.074693736671694 0.0 0.0
901.2959962988872 59.688471670026274 477.7101594029855 14.585217681399689 0.0 0.0
826.2699694509132 30.83532613512631 425.02002764007244 13.478652697316402 0.0 0.0
753.4323019128273 8.729996085428951 375.4175097222423 11.88857280985729 0.0 0.0
682.7098922049004 -5.814659219843222 325.28289459951486 10.424367930139178 0.0 0.0
612.3901145016288 -12.569329727599971 266.5916677721489 10.057802360826853 0.0 0.0
539.8459258890547 -17.759348850229564 195.14414455291842 11.567610876864533 0.0 0.0
463.89437394817105 -12.368781650755269 142.55257944470247 14.653292905941912 0.0 0.0
404.3482736309127 9.357415582558282 123.91552075913967 3.311517921457116 0.0 0.0
400.7537668242719 -63.04742563592214 116.12922996823026 -56.35678253576671 0.0 0.0
163.64783720602296 -515.6208466335479 -181.96811462963404 109.03264619845189 0.0 0.0
63.7672635741628 -544.3193795730529 -242.32388765423582 -155.92035907083755 0.0 0.0
263.10247830194504 -50.975466822822966 63.676247280601416 10.313620409086544 0.0 0.0
354.33845271533545 29.83197125118565 115.25063706362839 -9.951874866289595 0.0 0.0
427.7699546448299 -10.116448021203045 127.46274044263123 -34.61644988208 0.0 0.0
511.36085872501826 -18.345722051365613 173.09789597423796 -32.8713162042131 0.0 0.0
588.4986155945695 -13.59486273813215 245.51049591654925 -29.746724481672732 0.0 0.0
662.5844830901588 -6.689742768794581 310.3721053434786 -30.473255089527918 0.0 0.0
734.3082162213803 7.45894134575456 363.5993934852591 -32.685637779642754 0.0 0.0
805.9466511651575 28.213866686052583 412.9150240709547 -35.12310837471935 0.0 0.0
878.066638696893 54.5664121039615 463.2086830236085 -36.527217615585826 0.0 0.0
949.6468194313585 84.54841259905125 514.5505865010764 -36.69301330472478 0.0 0.0
1020.2328929607825 116.83220109621857 566.3574229306121 -36.0627149773904 0.0 0.0
1090.0883231015357 151.73050817617093 618.9855101201792 -35.17548227783567 0.0 0.0
1160.2352183212001 189.13792494316 672.9394823130152 -34.19075876922274 0.0 0.0
1230.9455560834629 229.29188603153364 728.5042461764593 -32.87746877438389 0.0 0.0
1301.7179682131568 272.0703662271183 785.3818633658786 -30.83045309001478 0.0 0.0
1371.3229977934036 316.78025484292255 842.6074343734717 -27.853986893243984 0.0 0.0
1438.4891781433284 363.0273499857284 899.3243007111547 -24.529060861571303 0.0 0.0
1507.7659288930192 416.6808753918445 960.6348020504012 -22.231746817721273 0.0 0.0
1559.1528245926 459.10978840532204 1007.3909896022224 -20.606200299814 0.0 0.0
1559.1528245931217 459.10978840588234 1007.3909896025134 20.606200299983332 0.0 0.0
1507.7659288922646 416.6808753911294 960.6348020497713 22.231746817722176 0.0 0.0
1438.4891781419642 363.0273499844239 899.3243007100302 24.529060861591688 0.0 0.0
1371.3229977929132 316.7802548425247 842.6074343730551 27.85398689324999 0.0 0.0
1301.7179682125993 272.0703662266851 785.3818633654412 30.830453090073586 0.0 0.0
1230.9455560826634 229.2918860308634 728.5042461758409 32.877468774337316 0.0 0.0
1160.2352183206542 189.1379249427712 672.9394823126144 34.190758769280215 0.0 0.0
1090.0883231001658 151.730508174971 618.9855101191341 35.17548227778147 0.0 0.0
1020.2328929587565 116.83220109438119 566.3574229292371 36.06271497733573 0.0 0.0
949.6468194297456 84.54841259763393 514.5505865000916 36.693013304614894 0.0 0.0
878.0666386960681 54.56641210337344 463.20868302311203 36.52721761552833 0.0 0.0
805.9466511653044 28.21386668644986 412.9150240710391 35.123108374650855 0.0 0.0
734.3082162213148 7.45894134596125 363.5993934852052 32.685637779672845 0.0 0.0
662.5844830897001 -6.689742768962404 310.37210534312624 30.473255089506655 0.0 0.0
588.4986155944428 -13.594862737929482 245.51049591636914 29.746724481758285 0.0 0.0
511.36085872457824 -18.345722051537766 173.09789597395155 32.871316204246746 0.0 0.0
427.76995464457764 -10.116448021311411 127.46274044253019 34.61644988199301 0.0 0.0
354.33845271505214 29.831971250809467 115.25063706343093 9.951874866242411 0.0 0.0
263.1024783020453 -50.97546682253773 63.67624728071895 -10.31362040914297 0.0 0.0
63.767263574420184 -544.319379572739 -242.32388765391747 155.92035907060063 0.0 0.0
13.018663328523132 -551.0758094202585 -264.0045730981284 -170.5125889662914 0.0 0.0
149.6043679799214 -42.75627372505448 32.05442827646007 -43.61529169361056 0.0 0.0
288.1395052104306 33.54493563421531 96.50533225339377 -33.397203590694694 0.0 0.0
381.17213271056977 -1.5573964230152328 114.36248933559011 -54.17376450476519 0.0 0.0
473.6776408951689 -17.046273988110602 151.2880196173668 -56.33712368296557 0.0 0.0
561.2181338352278 -16.303632890758713 220.02631257906228 -51.30320594915824 0.0 0.0
638.3157970769955 -6.717975107384909 292.14437419178756 -50.84968325646946 0.0 0.0
710.8053868462175 6.259193665277635 348.8082358643946 -53.40781739913605 0.0 0.0
781.6479072924712 25.677943242658216 398.6047251376741 -56.29910276296506 0.0 0.0
850.8001641846614 49.22148658551535 446.4916608722015 -57.73110399203558 0.0 0.0
918.2284327929033 75.41552823031165 494.0211818844041 -57.525642513850244 0.0 0.0
983.9443127339302 103.66973636562824 541.4456381376781 -56.33819806557257 0.0 0.0
1048.9896164064467 133.83068476691432 589.3356988626389 -54.95350764313493 0.0 0.0
1113.7377308331008 166.50162769502668 638.2560785898556 -53.335490840174025 0.0 0.0
1178.5531708797066 201.23680043031104 688.1967795612297 -51.2273653223516 0.0 0.0
1243.3046909182835 238.1143533902639 739.13303036006 -48.21363549092248 0.0 0.0
1307.7917760869823 277.6103592622272 791.1839238238491 -44.13287381174298 0.0 0.0
1373.2471348996712 321.95974364939946 846.0543015736644 -39.579325704064736 0.0 0.0
1434.692255174542 367.3392094634954 899.384736524978 -34.433496836100225 0.0 0.0
1478.0286951791747 400.7530137683065 937.6612631677294 -26.8692116871199 0.0 0.0
1478.0286951788419 400.75301376802054 937.6612631675949 26.869211687335174 0.0 0.0
1434.6922551738392 367.3392094628182 899.3847365245983 34.4334968360514 0.0 0.0
1373.2471348992563 321.9597436490598 846.0543015733774 39.579325704167736 0.0 0.0
1307.7917760871007 277.61035926245614 791.1839238239018 44.13287381182015 0.0 0.0
1243.304690917711 238.11435338978566 739.1330303596427 48.21363549085076 0.0 0.0
1178.5531708788008 201.2368004295381 688.1967795606233 51.227365322359475 0.0 0.0
1113.73773083218 166.50162769425506 638.2560785891677 53.335490840182146 0.0 0.0
1048.989616406042 133.83068476669672 589.3356988623785 54.95350764313275 0.0 0.0
983.9443127332961 103.66973636517025 541.4456381372643 56.33819806549433 0.0 0.0
918.2284327916565 75.41552822926263 494.0211818835608 57.525642513805906 0.0 0.0
850.8001641837662 49.22148658481615 446.491660871607 57.73110399187986 0.0 0.0
781.6479072917208 25.677943242116257 398.6047251371783 56.299102762885084 0.0 0.0
710.8053868456907 6.2591936650267 348.80823586402363 53.40781739912538 0.0 0.0
638.3157970769578 -6.717975107081159 292.1443741916743 50.84968325653303 0.0 0.0
561.2181338350257 -16.30363289058793 220.0263125788439 51.303205949207566 0.0 0.0
473.67764089509467 -17.0462739878249 151.28801961733242 56.337123682917344 0.0 0.0
381.17213271052685 -1.5573964226243042 114.36248933570698 54.17376450476608 0.0 0.0
288.1395052104517 33.544935634260945 96.50533225341378 33.397203590716046 0.0 0.0
149.60436798011835 -42.75627372465896 32.054428276637815 43.61529169352942 0.0 0.0
13.018663328679366 -551.0758094200014 -264.00457309786407 170.51258896613513 0.0 0.0
-5.9974361657244515 -538.1316127400758 -258.98416736807707 -172.68233721473797 0.0 0.0
87.22534227797445 -42.248954685917205 13.492916277617173 -89.25489263453909 0.0 0.0
225.43164933833123 30.91335504809127 76.90350131592675 -64.5062054145598 0.0 0.0
328.9730188762538 6.168296112383118 100.54736883624176 -75.41692919017976 0.0 0.0
426.29310914793183 -14.626329011072203 129.90371115669268 -81.92109394008506 0.0 0.0
523.2246203063804 -17.13894428088151 191.7006824895335 -74.84076232554025 0.0 0.0
607.1925845743738 -8.088782906760628 267.6095669305581 -72.00145052068092 0.0 0.0
682.707940400238 5.672690040673523 330.74596269717415 -74.17021313464232 0.0 0.0
752.5316540547146 22.996834405831322 381.3188786523881 -76.9765656211689 0.0 0.0
818.936772378499 43.65026224528014 427.18760687235726 -78.20337328589189 0.0 0.0
882.4201846492771 66.15913705445323 471.161358718301 -77.58033381208877 0.0 0.0
943.6979923666435 90.25607897558018 514.3840540382207 -75.92223458611753 0.0 0.0
1003.5409733489529 115.94988528548356 557.4891634660995 -74.04152911033387 0.0 0.0
1063.156297800066 143.6472619173929 601.3992923193961 -71.90990957119854 0.0 0.0
1122.1767281020539 172.73133735890977 645.6547844254917 -69.12548228779391 0.0 0.0
1180.6211762357343 203.6966169341771 690.5040907950071 -65.33998047450415 0.0 0.0
1240.1599437162201 238.0241990303649 737.4943216797025 -60.52217516321063 0.0 0.0
1300.5685031707196 276.7397401407 787.0346215205025 -54.64463195047594 0.0 0.0
1356.7472835111282 315.7336484976539 834.56142394627 -46.4304910564863 0.0 0.0
1397.257589231919 344.6195684452331 869.1733519384206 -33.487890032942026 0.0 0.0
1397.2575892321188 344.6195684454659 869.1733519386015 33.48789003305488 0.0 0.0
1356.7472835120564 315.73364849863884 834.5614239469826 46.430491056558 0.0 0.0
1300.5685031704293 276.7397401404982 787.034621520257 54.64463195061764 0.0 0.0
1240.1599437156 238.0241990298499 737.4943216792119 60.52217516326897 0.0 0.0
1180.6211762349599 203.69661693348996 690.504090794345 65.33998047443626 0.0 0.0
1122.1767281015384 172.73133735855524 645.6547844250639 69.12548228788033 0.0 0.0
1063.156297800684 143.64726191817087 601.3992923198194 71.90990957120255 0.0 0.0
1003.5409733489378 115.9498852856573 557.4891634661186 74.04152911036014 0.0 0.0
943.6979923666239 90.25607897571939 514.3840540381087 75.92223458599452 0.0 0.0
882.420184649292 66.15913705471465 471.1613587182549 77.5803338121311 0.0 0.0
818.9367723781992 43.650262245175995 427.1876068721369 78.2033732857697 0.0 0.0
752.5316540547126 22.99683440611895 381.3188786523537 76.97656562117953 0.0 0.0
682.7079403998143 5.6726900404570415 330.74596269684474 74.17021313446119 0.0 0.0
607.1925845737672 -8.088782907113334 267.6095669300865 72.00145052065585 0.0 0.0
523.2246203057889 -17.138944281171966 191.70068248909345 74.84076232547525 0.0 0.0
426.29310914762084 -14.626329011023872 129.9037111565808 81.92109394005827 0.0 0.0
328.9730188761793 6.168296112524298 100.54736883626872 75.41692919007545 0.0 0.0
225.43164933826398 30.913355047806235 76.90350131582106 64.50620541437618 0.0 0.0
87.22534227812419 -42.24895468553583 13.492916277776501 89.25489263430849 0.0 0.0
-5.997436165591154 -538.1316127397911 -258.98416736780814 172.6823372146013 0.0 0.0
-10.103076011393824 -513.7863711742302 -239.3542517721673 -170.3816831747292 0.0 0.0
51.94980439490737 -42.87571601445276 2.722226514136381 -124.78191157432146 0.0 0.0
171.44229544621692 25.416695424929486 59.057697261343904 -95.87517408083262 0.0 0.0
273.7122981030341 10.785526249648571 85.35100579221361 -98.15082398280107 0.0 0.0
368.8737188184161 -9.782142493426631 109.90571897511302 -107.16489336688295 0.0 0.0
474.0057234284103 -17.232895216411737 161.4473706279902 -101.57207430330061 0.0 0.0
568.558837844472 -9.932860779308383 237.08461217465813 -95.00171121499045 0.0 0.0
648.2798271681839 4.622561511495896 307.2471792583841 -95.00188602868504 0.0 0.0
717.9335131834983 20.416211209928285 360.41133449671935 -97.19568998155509 0.0 0.0
781.8097283471318 37.87675720816228 404.8156750196197 -97.99568284130548 0.0 0.0
841.7048785328665 56.762629196270254 445.6300871782322 -96.89040522025977 0.0 0.0
898.4330637610449 76.7158069408229 484.6685207583504 -94.76107527207023 0.0 0.0
953.3929563364309 97.90984411102028 523.1732980834029 -92.53593748806512 0.0 0.0
1007.3353555142046 120.62906672284853 561.8055031684414 -89.89182459435342 0.0 0.0
1060.7096725462382 144.33611029776264 600.5874632710199 -86.51917237393906 0.0 0.0
1113.6355529053697 169.30983028949103 639.7215742669198 -82.24540691541924 0.0 0.0
1166.6152685675247 197.067888584637 680.1766934943684 -76.85544409370578 0.0 0.0
1221.0127904174735 228.9837481615183 723.3247941184908 -69.82368192148705 0.0 0.0
1273.2635876784411 262.23943739913193 766.0182640808033 -58.862122697847205 0.0 0.0
1313.9151032779569 288.6929305562617 799.4646140349187 -41.02720158284963 0.0 0.0
1313.9151032774778 288.6929305558376 799.4646140346712 41.027201583086736 0.0 0.0
1273.2635876779796 262.2394373987245 766.0182640804827 58.8621226979442 0.0 0.0
1221.0127904167393 228.98374816087158 723.3247941179228 69.82368192162158 0.0 0.0
1166.6152685672619 197.06788858449744 680.1766934941637 76.85544409386895 0.0 0.0
1113.6355529065836 169.30983029090092 639.7215742677664 82.2454069155851 0.0 0.0
1060.7096725472313 144.33611029892444 600.5874632716882 86.51917237398295 0.0 0.0
1007.3353555137672 120.62906672255639 561.8055031680537 89.89182459436897 0.0 0.0
953.3929563354639 97.90984411019852 523.1732980827562 92.53593748803743 0.0 0.0
898.4330637603515 76.71580694026653 484.6685207578218 94.76107527198667 0.0 0.0
841.704878531544 56.762629195142296 445.6300871773179 96.89040522022758 0.0 0.0
781.8097283467712 37.876757208055665 404.8156750193543 97.99568284133393 0.0 0.0
717.9335131841445 20.416211211008843 360.41133449714334 97.19568998179622 0.0 0.0
648.2798271682457 4.622561511928737 307.24717925836154 95.00188602873703 0.0 0.0
568.5588378440797 -9.932860779370728 237.0846121743285 95.00171121497505 0.0 0.0
474.00572342786455 -17.23289521661254 161.4473706276264 101.57207430326486 0.0 0.0
368.87371881819496 -9.782142493223096 109.90571897510281 107.16489336681161 0.0 0.0
273.7122981029976 10.785526249877625 85.35100579227776 98.15082398267 0.0 0.0
171.44229544638557 25.416695425209177 59.05769726147841 95.87517408068744 0.0 0.0
51.949804394938326 -42.87571601423819 2.7222265142100412 124.78191157412503 0.0 0.0
-10.10307601138311 -513.7863711740171 -239.35425177194745 170.38168317465198 0.0 0.0
-7.483985869177687 -481.8119276864146 -211.48720409612542 -166.83883121830095 0.0 0.0
30.54318958923307 -42.946942096193155 -3.7211257520880276 -151.21991616099908 0.0 0.0
125.35380605478866 19.082741303872837 43.33096420759844 -123.59648936054288 0.0 0.0
217.77445005631313 12.662755357182029 69.12718516546498 -120.89973208200368 0.0 0.0
305.5051655306649 -3.9250283440173765 91.1145114356045 -130.38439512513918 0.0 0.0
408.7683538247088 -15.963842525967246 130.21592982861418 -130.44612928193447 0.0 0.0
514.8819665555088 -10.673233914804259 200.2492194957954 -120.88510854800097 0.0 0.0
603.2946689653949 2.194205080820776 274.91894548985465 -116.90115872779609 0.0 0.0
676.1861466077976 17.486776095843695 333.9988152865707 -117.22288107687554 0.0 0.0
738.2980475210335 32.07709913275882 378.4926597293605 -117.11929304462319 0.0 0.0
794.5609872325251 47.129127785082034 416.4570870070438 -115.47974523610935 0.0 0.0
847.100893135154 63.109786594040635 451.74401189669544 -112.91188478968266 0.0 0.0
896.9972266546108 79.92657006995778 485.68018808489114 -110.31701287596854 0.0 0.0
945.4349594752634 97.46207227698184 519.0534667254974 -107.39488898843386 0.0 0.0
993.4260924836477 115.93000340828137 552.5627173348947 -103.57985647919443 0.0 0.0
1040.2468786584848 135.34853317220546 585.9157780360877 -98.72011547930373 0.0 0.0
1086.4358296487744 155.58714376193768 619.2845784661729 -92.99107762322062 0.0 0.0
1133.7146639815805 179.1308645475783 654.7169796552953 -85.29340482502224 0.0 0.0
1182.2022487636361 206.43218234196004 692.5275494014256 -72.22645131693302 0.0 0.0
1225.3017874299996 231.6485643457939 726.5208910152019 -50.09154142957698 0.0 0.0
1225.3017874298166 231.64856434564035 726.520891015153 50.091541429730725 0.0 0.0
1182.2022487645047 206.43218234296876 692.5275494020923 72.226451317233 0.0 0.0
1133.7146639817377 179.13086454784326 654.7169796554568 85.29340482513442 0.0 0.0
1086.435829648327 155.587143761589 619.2845784659287 92.99107762327033 0.0 0.0
1040.2468786578809 135.34853317170402 585.9157780357264 98.72011547931368 0.0 0.0
993.4260924829534 115.93000340770772 552.5627173344413 103.57985647920614 0.0 0.0
945.4349594746708 97.46207227650243 519.0534667250635 107.39488898838027 0.0 0.0
896.9972266538073 79.92657006930727 485.6801880843109 110.31701287603018 0.0 0.0
847.1008931344404 63.10978659354478 451.7440118961861 112.91188478973089 0.0 0.0
794.5609872317486 47.12912778446356 416.45708700648026 115.4797452360383 0.0 0.0
738.2980475198839 32.077099131786994 378.492659728553 117.11929304457033 0.0 0.0
676.1861466070765 17.486776095351004 333.9988152860419 117.22288107682438 0.0 0.0
603.2946689653073 2.1942050810719635 274.91894548969776 116.90115872778006 0.0 0.0
514.8819665553007 -10.67323391465441 200.24921949556213 120.88510854793648 0.0 0.0
408.76835382445273 -15.963842525776837 130.21592982849944 130.44612928186515 0.0 0.0
305.50516553037556 -3.925028344189843 91.11451143546951 130.38439512484717 0.0 0.0
217.7744500559475 12.662755356713934 69.12718516521628 120.89973208167771 0.0 0.0
125.35380605479452 19.08274130385095 43.33096420759363 123.59648936016708 0.0 0.0
30.54318958916315 -42.94694209610722 -3.7211257520832235 151.2199161607386 0.0 0.0
-7.483985869103847 -481.81192768610816 -211.48720409585172 166.83883121821552 0.0 0.0
-1.8880076461826718 -443.7545855619809 -178.98967116055053 -163.37067578699128 0.0 0.0
15.4129155149201 -43.05361260077157 -8.2922657089809 -169.73156748189572 0.0 0.0
84.77366403251972 13.058997096440212 29.34979833868798 -146.06065490784505 0.0 0.0
162.25128744428676 13.812452473362871 52.815998397607714 -141.75609648484613 0.0 0.0
238.58455957479643 0.6793072573599543 72.10431423947279 -151.0153949072667 0.0 0.0
331.06626366368374 -11.826637270677914 100.57445077238381 -158.49977467906086 0.0 0.0
442.5649314915401 -11.168984565100395 157.84428340851036 -150.37081504406837 0.0 0.0
542.9678895307951 0.01972113123149377 232.51365100159194 -141.1068495135784 0.0 0.0
622.2497445273087 13.398125509119236 297.6566343255077 -137.69806011820967 0.0 0.0
685.5850867789474 26.06477730530723 345.7234924419214 -135.80880299041303 0.0 0.0
738.6724237010656 37.28085827127654 382.01360260340687 -133.38325064063895 0.0 0.0
787.2337033203821 49.50249627298196 414.1827923945955 -130.3764733972683 0.0 0.0
832.1581531311908 61.92543219546594 443.7713363827525 -127.46889784742498 0.0 0.0
874.8152186913944 74.52079858897027 471.97473744381466 -124.33755064705096 0.0 0.0
916.6887391332011 87.42117655482834 499.7055224222048 -120.32460981057977 0.0 0.0
958.8183307134401 101.69159740526743 528.1818285008712 -114.99789082491358 0.0 0.0
997.9505603482994 114.76490931821337 554.5557202565357 -108.68916160155605 0.0 0.0
1036.151722675935 128.21597119278394 580.4847262010109 -100.90878346653052 0.0 0.0
1080.0783534743848 147.38249692652857 611.8990690449662 -87.02964148511468 0.0 0.0
1127.9365569802583 171.98405654554097 647.8416236316054 -61.580414609397195 0.0 0.0
1127.9365569801962 171.98405654553045 647.8416236315542 61.580414609571136 0.0 0.0
1080.0783534751943 147.3824969275165 611.8990690455412 87.02964148545016 0.0 0.0
1036.1517226755086 128.21597119248423 580.4847262006671 100.90878346672704 0.0 0.0
997.9505603481136 114.76490931816952 554.5557202563436 108.68916160171383 0.0 0.0
958.8183307125665 101.691597404476 528.1818285002229 114.99789082487563 0.0 0.0
916.6887391325297 87.42117655425082 499.7055224217005 120.32460981060122 0.0 0.0
874.8152186911495 74.52079858888806 471.97473744366135 124.33755064703983 0.0 0.0
832.1581531304322 61.925432194778665 443.7713363822628 127.46889784739011 0.0 0.0
787.2337033198352 49.50249627269477 414.1827923942712 130.376473397408 0.0 0.0
738.6724237006911 37.280858271194546 382.01360260317176 133.38325064075636 0.0 0.0
685.5850867789788 26.06477730565696 345.72349244195044 135.80880299045856 0.0 0.0
622.2497445269418 13.398125509098719 297.65663432525724 137.69806011828882 0.0 0.0
542.9678895306316 0.019721131462155483 232.5136510014276 141.10684951360156 0.0 0.0
442.56493149085856 -11.168984565360212 157.84428340809157 150.37081504411972 0.0 0.0
331.0662636629438 -11.826637271263028 100.57445077197404 158.49977467897625 0.0 0.0
238.58455957450764 0.6793072572429715 72.10431423935817 151.0153949070696 0.0 0.0
162.25128744414263 13.812452473207387 52.815998397518804 141.75609648466073 0.0 0.0
84.77366403257417 13.05899709660995 29.349798338755235 146.06065490772122 0.0 0.0
15.412915514937232 -43.05361260050052 -8.29226570889438 169.73156748179366 0.0 0.0
-1.8880076461576323 -443.7545855616951 -178.98967116031298 163.3706757869349 0.0 0.0
3.0233517318800764 -401.08620084011295 -146.43132138700938 -160.73269401298518 0.0 0.0
1.2177786930023462 -43.746709571188774 -12.757953697373807 -180.557540157164 0.0 0.0
47.67694621158622 8.220627985773822 16.76886918796047 -163.25089057856468 0.0 0.0
108.01762905716969 15.05911134418188 36.92179085766581 -159.14213914651884 0.0 0.0
169.33237229771453 3.615653698575947 52.08037672519973 -169.2254350635534 0.0 0.0
241.2220047415299 -5.6680001555072925 72.63385476229345 -180.91222808686217 0.0 0.0
343.71558819491116 -9.255552620238197 112.55263223222366 -181.94153179691295 0.0 0.0
457.00699777527586 -1.9450837386791449 177.98663637728146 -169.76159679223642 0.0 0.0
548.3130533131474 8.70342747683115 246.0773151092182 -160.1474379129627 0.0 0.0
615.8146555346624 19.193874157414164 299.78369664980875 -154.58739792160344 0.0 0.0
668.5757853625379 27.14075267148848 337.94303869506837 -150.92711829061233 0.0 0.0
713.0694751390092 35.649400762588655 368.1507432720618 -147.2389474831456 0.0 0.0
753.1132940825819 44.17369058231199 394.3100853946911 -143.95804512520388 0.0 0.0
789.9070846060009 51.84669344061884 417.62421274731037 -140.71279947825806 0.0 0.0
825.5418925480487 59.18779069891633 439.71243548560176 -136.8315410723048 0.0 0.0
861.9315747603588 67.62117056327195 462.43861938640663 -131.2425284159582 0.0 0.0
897.3750294074927 75.78982304385713 484.6016289371804 -124.0421681625247 0.0 0.0
925.7111607133885 78.2911016463094 500.3866676078028 -116.17418243725406 0.0 0.0
959.5703849321703 84.13676581978639 520.067757828191 -103.32694570131754 0.0 0.0
1013.6066326356253 107.28916002527933 558.0931716379278 -76.77884867012506 0.0 0.0
1013.6066326360458 107.2891600257816 558.0931716382735 76.77884867028324 0.0 0.0
959.5703849327556 84.13676582059884 520.0677578287074 103.32694570171702 0.0 0.0
925.7111607130165 78.2911016460684 500.38666760755666 116.17418243740886 0.0 0.0
897.375029406579 75.78982304308062 484.6016289365534 124.04216816265512 0.0 0.0
861.9315747591305 67.62117056201939 462.4386193854942 131.24252841587236 0.0 0.0
825.5418925474359 59.187790698560065 439.71243548522483 136.8315410725208 0.0 0.0
789.9070846061585 51.84669344087192 417.62421274738585 140.7127994782461 0.0 0.0
753.1132940833265 44.17369058347704 394.3100853951981 143.95804512550308 0.0 0.0
713.0694751390872 35.649400762929915 368.15074327210425 147.23894748320635 0.0 0.0
668.5757853617995 27.140752670911994 337.94303869456957 150.92711829056543 0.0 0.0
615.81465553373 19.193874156405826 299.7836966490501 154.58739792133676 0.0 0.0
548.3130533126475 8.70342747660235 246.07731510885174 160.1474379129385 0.0 0.0
457.00699777509686 -1.9450837385735973 177.98663637707716 169.76159679214157 0.0 0.0
343.71558819459034 -9.255552619945407 112.55263223213377 181.94153179692032 0.0 0.0
241.2220047416527 -5.668000154649349 72.63385476257565 180.91222808670676 0.0 0.0
169.33237229770128 3.6156536988706893 52.08037672528596 169.22543506336257 0.0 0.0
108.01762905715546 15.059111344214836 36.921790857674836 159.14213914633467 0.0 0.0
47.67694621149477 8.220627985784805 16.768869187936843 163.2508905784187 0.0 0.0
1.217778692849024 -43.74670957127457 -12.757953697446935 180.55754015695615 0.0 0.0
3.0233517319163 -401.0862008397941 -146.43132138677558 160.7326940128765 0.0 0.0
2.9308674260096055 -354.5761799064532 -118.33121661447389 -157.01945514928823 0.0 0.0
-15.59901949757343 -46.151140386847054 -18.523477755970134 -186.18196091921683 0.0 0.0
12.963469978007554 5.4053835227899505 5.510360208382271 -175.38018158385137 0.0 0.0
55.31394083129515 16.115078253269573 21.427592001868984 -172.51091611782482 0.0 0.0
98.24802822348168 7.17287461175064 31.755080645762 -182.68645479390554 0.0 0.0
145.7068306092017 -1.3880436010896522 44.22101689858058 -198.03473480891682 0.0 0.0
216.71941361017366 -3.7671796942657556 67.8978278203045 -207.51034947633676 0.0 0.0
322.7090808874653 -1.5357734021359946 111.65204190737751 -202.6872672799846 0.0 0.0
430.7233403109795 4.638781724543913 171.11120524976897 -188.0011091049251 0.0 0.0
509.85982979284296 11.041554756577167 226.9264198099976 -175.5291469109347 0.0 0.0
565.3890064122663 17.075697837577707 270.0959436257159 -168.5541287671344 0.0 0.0
607.4081305287003 21.403012344044086 301.237621500211 -163.8330558743363 0.0 0.0
643.0292560796531 26.376315547991737 326.4196484371443 -159.9682900899541 0.0 0.0
673.9046886787727 29.749230679520025 346.57872062951327 -156.44477761697576 0.0 0.0
702.4415916877507 31.52484826471708 363.4763513495994 -152.7226809873181 0.0 0.0
731.86017797739 33.08802849442988 379.80362244560524 -147.65207164327225 0.0 0.0
765.1623404798893 36.32511444149054 398.4067431640123 -139.69576443406936 0.0 0.0
793.6037965599133 34.93326594215466 412.6271504034946 -130.22682169446068 0.0 0.0
808.8497611737668 17.593531761511656 411.90013431146895 -120.00780635992624 0.0 0.0
865.9164423924432 31.70043560561959 446.1314098715972 -97.80596423645177 0.0 0.0
865.9164423919893 31.700435605178882 446.1314098713798 97.80596423649146 0.0 0.0
808.8497611725388 17.593531760359383 411.90013431070884 120.00780636022827 0.0 0.0
793.6037965588043 34.93326594101259 412.62715040268523 130.22682169450923 0.0 0.0
765.162340480095 36.325114441876025 398.4067431641488 139.6957644342222 0.0 0.0
731.8601779774463 33.08802849462006 379.80362244570216 147.65207164327978 0.0 0.0
702.441591686828 31.524848263823287 363.47635134901503 152.72268098725846 0.0 0.0
673.9046886772295 29.74923067772258 346.57872062835037 156.44477761688623 0.0 0.0
643.029256079223 26.376315547634277 326.4196484367968 159.9682900900213 0.0 0.0
607.4081305286163 21.40301234422961 301.2376215001527 163.83305587439537 0.0 0.0
565.3890064123359 17.075697837960533 270.09594362576337 168.55412876715747 0.0 0.0
509.8598297928717 11.041554756900538 226.92641980996495 175.5291469108784 0.0 0.0
430.7233403104773 4.638781724433564 171.1112052494794 188.00110910501996 0.0 0.0
322.70908088695234 -1.5357734022812544 111.65204190710593 202.68726727996204 0.0 0.0
216.71941360978497 -3.7671796944404763 67.89782782011856 207.5103494762193 0.0 0.0
145.70683060896732 -1.3880436012045099 44.22101689847186 198.0347348087329 0.0 0.0
98.24802822341056 7.1728746117774245 31.75508064575082 182.6864547936942 0.0 0.0
55.31394083129203 16.115078253293728 21.427592001875702 172.51091611753486 0.0 0.0
12.96346997805558 5.4053835230300615 5.510360208468834 175.38018158367333 0.0 0.0
-15.599019497616002 -46.15114038677129 -18.5234777559617 186.1819609191819 0.0 0.0
2.9308674258858787 -354.5761799061217 -118.33121661434332 157.01945514927593 0.0 0.0
-3.166105194944379 -305.13201684366373 -96.03235850016166 -149.858495790221 0.0 0.0
-34.42186453310756 -50.28296838389689 -25.40870163504594 -189.03964499440713 0.0 0.0
-20.07689621945749 4.429449473670746 -4.69475295922231 -182.97256635495242 0.0 0.0
4.084726917902822 16.99981709393463 6.32719282734051 -181.2029022040815 0.0 0.0
26.823323750376165 11.088307990112176 11.4151606958111 -190.75503185029197 0.0 0.0
46.95258111667511 2.9922704737315207 15.287413788824235 -207.5229642126984 0.0 0.0
72.33331785346807 -0.36812049214187326 22.67478394818713 -222.3200973390423 0.0 0.0
115.15958860153908 0.40605397402238275 37.482747125157445 -227.2158021093998 0.0 0.0
184.09581046763898 4.041295105347601 63.361352987039346 -217.54830790898046 0.0 0.0
259.3308947856836 5.693699245437394 95.36507435954384 -202.5026976776229 0.0 0.0
323.48823871201387 8.748585696724632 130.64096878563296 -189.23071990667572 0.0 0.0
373.05231921095043 8.533058328869203 161.77099334540014 -181.55398922076836 0.0 0.0
407.4592872448137 9.491076541080758 187.22302487232108 -175.51797265477748 0.0 0.0
433.26753698193795 8.310408115129448 206.8378600111207 -170.858045781656 0.0 0.0
456.22273387552116 4.706031059670579 222.30490781454347 -166.89169019339045 0.0 0.0
483.13853787796756 -1.1753574046636857 236.4463238095632 -162.74879253605658 0.0 0.0
519.4485499227912 -6.171940366697839 253.53545525104192 -156.11697127130623 0.0 0.0
566.3414755491019 -7.049516748420956 277.05746527148295 -144.95297687543044 0.0 0.0
594.1381681230503 -31.11636819290763 281.14457408673684 -132.00135117367262 0.0 0.0
623.4694023578763 -74.67917207688438 271.74927550704274 -123.77942958656332 0.0 0.0
623.4694023570083 -74.67917207780556 271.74927550650824 123.77942958673908 0.0 0.0
594.1381681235297 -31.116368192419827 281.1445740870472 132.00135117397207 0.0 0.0
566.34147554883 -7.049516748680446 277.0574652713351 144.952976875778 0.0 0.0
519.4485499229507 -6.1719403661654155 253.53545525123852 156.11697127151575 0.0 0.0
483.1385378779279 -1.1753574045384596 236.4463238095343 162.74879253603888 0.0 0.0
456.22273387606566 4.7060310603438325 222.30490781486657 166.8916901934482 0.0 0.0
433.26753698245676 8.310408115891207 206.83786001153288 170.85804578173384 0.0 0.0
407.45928724482064 9.491076540858742 187.22302487221737 175.51797265486118 0.0 0.0
373.0523192112444 8.533058329611663 161.7709933456406 181.55398922083572 0.0 0.0
323.48823871153303 8.74858569595294 130.6409687852201 189.2307199065899 0.0 0.0
259.33089478492855 5.693699244136447 95.36507435887984 202.502697677468 0.0 0.0
184.09581046702135 4.041295104315818 63.36135298652387 217.5483079089334 0.0 0.0
115.1595886012807 0.40605397380171304 37.48274712499812 227.21580210935304 0.0 0.0
72.33331785365114 -0.3681204915971028 22.674783948402986 222.32009733897272 0.0 0.0
46.95258111704245 2.992270474561007 15.287413789181718 207.52296421247024 0.0 0.0
26.823323750261626 11.088307989820578 11.41516069568988 190.7550318501787 0.0 0.0
4.08472691800527 16.999817094194768 6.3271928274497675 181.20290220391834 0.0 0.0
-20.07689621953807 4.429449473666299 -4.694752959248305 182.9725663547135 0.0 0.0
-34.42186453313753 -50.28296838399428 -25.40870163508512 189.039644994238 0.0 0.0
-3.1661051950537846 -305.13201684336605 -96.03235850007755 149.8584957900291 0.0 0.0
-15.164655366239934 -255.9717535115597 -81.53999481219458 -139.07927703849643 0.0 0.0
-51.717930805622416 -52.721931837450946 -31.332205333820845 -189.06240669886358 0.0 0.0
-51.88317653121553 3.9336998973301736 -14.392013450109328 -186.53028733282386 0.0 0.0
-45.5997794914369 17.76632622815054 -8.365709813335931 -185.0622702780224 0.0 0.0
-43.795418905225276 14.851999221684986 -8.74026226065196 -192.95597127647187 0.0 0.0
-52.68159021801638 7.565846951898484 -13.863070875887075 -208.47271572010862 0.0 0.0
-74.3753947962694 2.641328540899903 -22.63094765797221 -222.48881978443 0.0 0.0
-115.71536717597036 -0.0025358529085401926 -37.5365997892192 -227.37386236594114 0.0 0.0
-183.9036073325907 -3.9026032129750163 -63.254647177282685 -217.61653593196553 0.0 0.0
-259.08314203073934 -5.567315828803274 -95.23929294150577 -202.48244421738735 0.0 0.0
-323.6176661290044 -7.660668300078015 -130.19546523968287 -189.14106249880453 0.0 0.0
-374.37651489842995 -6.981489639854189 -161.74286001613413 -181.12584129633194 0.0 0.0
-411.4260791599549 -8.691257227642168 -188.59410173685313 -174.96075559242902 0.0 0.0
-439.67841072427217 -12.94221334605244 -211.70210171729343 -170.96903243818332 0.0 0.0
-459.5192106672494 -20.978694744616746 -231.84072786268396 -169.2955444024924 0.0 0.0
-468.6653356313621 -32.191443814016964 -248.26193557248945 -169.59679942530929 0.0 0.0
-457.71403018305637 -44.44224086256526 -257.18750874703437 -170.39300375229956 0.0 0.0
-397.40877651256176 -40.53446391632443 -243.4138491593598 -170.5874858888758 0.0 0.0
-215.02829350998167 -34.962635752583 -178.93849064914616 -173.179961822366 0.0 0.0
-0.8835228763975636 -174.86216182926933 -67.2741346324682 -154.4881946741359 0.0 0.0
-0.8835228764498879 -174.86216182899562 -67.27413463248348 154.48819467446089 0.0 0.0
-215.0282935101933 -34.962635752802925 -178.93849064931092 173.1799618228229 0.0 0.0
-397.40877651201316 -40.534463916142954 -243.4138491590346 170.58748588918007 0.0 0.0
-457.7140301828405 -44.442240861857016 -257.18750874669473 170.3930037522722 0.0 0.0
-468.66533563095453 -32.19144381369401 -248.26193557220873 169.5967994253108 0.0 0.0
-459.51921066695206 -20.978694744428225 -231.8407278624617 169.29554440254404 0.0 0.0
-439.67841072350643 -12.942213345361225 -211.70210171675268 170.969032438149 0.0 0.0
-411.42607915916267 -8.691257227116651 -188.5941017363396 174.96075559251204 0.0 0.0
-374.3765148980695 -6.981489640112088 -161.7428600159597 181.12584129632626 0.0 0.0
-323.617666128178 -7.660668299965643 -130.19546523927596 189.14106249880246 0.0 0.0
-259.0831420301764 -5.567315828830441 -95.23929294126425 202.48244421731997 0.0 0.0
-183.90360733265803 -3.902603214371748 -63.254647177678265 217.6165359320741 0.0 0.0
-115.71536717546707 -0.0025358525663392584 -37.536599788954504 227.37386236590925 0.0 0.0
-74.37539479605056 2.6413285408108322 -22.630947657921567 222.48881978428835 0.0 0.0
-52.681590217962125 7.5658469516821 -13.86307087593314 208.47271571991547 0.0 0.0
-43.79541890515084 14.85199922164273 -8.740262260642492 192.95597127620792 0.0 0.0
-45.599779491310386 17.76632622836654 -8.36570981323435 185.06227027781276 0.0 0.0
-51.88317653134482 3.933699897280322 -14.392013450166111 186.53028733268337 0.0 0.0
-51.717930805600844 -52.72193183740614 -31.33220533380396 189.06240669883238 0.0 0.0
-15.164655366345812 -255.97175351136391 -81.53999481218648 139.07927703827178 0.0 0.0
-24.285268945717135 -209.03390870264667 -69.99259567654079 -126.04233888743943 0.0 0.0
-66.10802985166886 -52.1498820269112 -35.47807750843873 -185.30575179761388 0.0 0.0
-82.24366255784685 3.3440795118454276 -23.686670471984662 -186.1214706350979 0.0 0.0
-93.70270288992303 18.322267485378543 -22.641887181097406 -184.19347398538554 0.0 0.0
-112.91337164535072 17.800737961252942 -28.760219931174966 -188.99901420620986 0.0 0.0
-150.34580440856178 11.468467580687298 -42.75286211392115 -200.37579651861552 0.0 0.0
-218.21654223683913 5.952474393075855 -67.80460460820021 -208.48179837697774 0.0 0.0
-322.5789683516918 1.8333744856831409 -111.61257920534783 -203.04593590461275 0.0 0.0
-430.3988189565432 -4.5495700722237835 -170.96622381908747 -188.1297693430219 0.0 0.0
-509.5872661664742 -10.782215079418457 -226.71080392383928 -175.4938383895049 0.0 0.0
-565.0216267546358 -16.257038604977623 -269.6114126723892 -168.33200092566963 0.0 0.0
-607.3254316410399 -20.005968378512662 -300.6035363717932 -163.15679876841205 0.0 0.0
-644.3109744079715 -25.663297385724192 -326.63370153195575 -158.86095141356975 0.0 0.0
-678.4242315855149 -33.611693039866424 -350.41540305417766 -156.0837298957219 0.0 0.0
-710.989256637968 -45.45504581466237 -374.2393360722194 -155.75653810199137 0.0 0.0
-740.5235599470979 -60.80014315319448 -397.8352027902263 -158.03541941885268 0.0 0.0
-762.254577821077 -76.84922963121858 -417.9488480810518 -163.27305113428955 0.0 0.0
-771.7582036591032 -90.55273168782114 -430.8476328406215 -171.53392942166474 0.0 0.0
-807.4600095074421 -145.00062627927284 -476.90765833850435 -180.52820697388046 0.0 0.0
-805.63259507436 -228.31353568580238 -519.1856594751956 -199.06593597871148 0.0 0.0
-805.6325950750819 -228.31353568679108 -519.185659475794 199.06593597897705 0.0 0.0
-807.4600095055637 -145.00062627724802 -476.9076583372845 180.52820697399108 0.0 0.0
-771.7582036581709 -90.55273168691423 -430.8476328400344 171.5339294217676 0.0 0.0
-762.2545778201234 -76.8492296302964 -417.94884808040024 163.27305113432598 0.0 0.0
-740.5235599471441 -60.800143153158274 -397.8352027902047 158.03541941877313 0.0 0.0
-710.9892566383458 -45.455045815470044 -374.2393360725347 155.75653810213737 0.0 0.0
-678.4242315850965 -33.61169303943478 -350.41540305382335 156.083729895693 0.0 0.0
-644.3109744076754 -25.663297385672152 -326.63370153177607 158.86095141358174 0.0 0.0
-607.3254316408238 -20.005968378570223 -300.6035363716299 163.15679876847457 0.0 0.0
-565.0216267536026 -16.257038604074417 -269.61141267164874 168.33200092548537 0.0 0.0
-509.58726616626257 -10.782215079276469 -226.7108039235193 175.49383838930004 0.0 0.0
-430.3988189565921 -4.549570073251564 -170.96622381922566 188.1297693432747 0.0 0.0
-322.5789683513309 1.8333744851576803 -111.61257920529434 203.0459359047553 0.0 0.0
-218.2165422362904 5.952474393131604 -67.80460460799281 208.48179837682966 0.0 0.0
-150.34580440847245 11.468467580421647 -42.75286211396685 200.3757965183953 0.0 0.0
-112.91337164541255 17.80073796075971 -28.760219931341556 188.9990142060406 0.0 0.0
-93.70270288990983 18.322267485095622 -22.641887181181573 184.1934739852149 0.0 0.0
-82.24366255788951 3.344079511746819 -23.68667047203075 186.12147063487623 0.0 0.0
-66.10802985163471 -52.14988202686691 -35.47807750842002 185.3057517975853 0.0 0.0
-24.285268945732383 -209.03390870244246 -69.99259567648608 126.0423388873372 0.0 0.0
-27.488786883733024 -165.13923236432757 -57.78840577441818 -111.75083536276207 0.0 0.0
-77.98984006376492 -49.1115446761048 -38.12848122813873 -177.51110125783367 0.0 0.0
-110.87362578413224 2.7971887107162265 -32.4276526959838 -181.60250882333077 0.0 0.0
-140.07791919985908 18.38476232283901 -36.55654922199171 -178.41451195936537 0.0 0.0
-180.0451547423345 19.38938325990134 -48.65443302816002 -179.36924780415458 0.0 0.0
-243.84034329780928 14.831201909855883 -71.08986210819245 -184.5809886304909 0.0 0.0
-343.37831822197114 11.0952373885186 -112.22887728817955 -183.1620553620284 0.0 0.0
-456.3397410458259 2.220730470383483 -177.70746625009696 -170.28930814576916 0.0 0.0
-548.1026640303858 -8.645397982153156 -245.95595676213765 -160.18821875336263 0.0 0.0
-615.6402509918389 -19.005461929138747 -299.6415407772149 -154.55668984396902 0.0 0.0
-668.29236897603 -26.550939823799 -337.5635577766503 -150.72001725881276 0.0 0.0
-712.8519150646107 -34.518803283590756 -367.51309820963223 -146.4709037416083 0.0 0.0
-753.8164446243909 -43.390787589218434 -394.2018102680259 -142.48588663643946 0.0 0.0
-793.3809998329887 -54.55396908657906 -420.4782432120006 -139.64864183158562 0.0 0.0
-833.2853615621854 -70.08597686643171 -448.7044586127744 -139.28194960209194 0.0 0.0
-871.9609360026964 -89.77635857119694 -478.3386021336233 -142.19309528512002 0.0 0.0
-906.483774820731 -111.34394259675378 -506.8717509090552 -148.2407077677563 0.0 0.0
-945.3555690073822 -144.64107414705575 -543.3991900083173 -154.91205478170974 0.0 0.0
-988.1417830436758 -193.70408941507017 -589.7588310170051 -161.1285007264767 0.0 0.0
-1078.9264169200617 -324.8473144790076 -699.5787305348523 -170.27360462271537 0.0 0.0
-1078.9264169191576 -324.84731447809753 -699.578730534295 170.27360462277363 0.0 0.0
-988.1417830428389 -193.70408941431427 -589.7588310164729 161.12850072670196 0.0 0.0
-945.3555690059972 -144.64107414587752 -543.3991900073905 154.91205478190483 0.0 0.0
-906.4837748202135 -111.34394259630247 -506.87175090864935 148.24070776784873 0.0 0.0
-871.9609360020236 -89.77635857076487 -478.33860213320565 142.1930952852014 0.0 0.0
-833.2853615611716 -70.08597686533666 -448.7044586120603 139.28194960190018 0.0 0.0
-793.3809998324931 -54.55396908627712 -420.4782432117464 139.64864183166554 0.0 0.0
-753.8164446245186 -43.39078758964653 -394.201810268167 142.48588663656327 0.0 0.0
-712.8519150642794 -34.51880328342847 -367.51309820940867 146.47090374152873 0.0 0.0
-668.2923689760098 -26.550939823938 -337.56355777657694 150.7200172587178 0.0 0.0
-615.6402509918615 -19.00546192951478 -299.6415407772263 154.5566898439079 0.0 0.0
-548.1026640296899 -8.645397981612184 -245.9559567615848 160.1882187532341 0.0 0.0
-456.33974104537265 2.2207304702961554 -177.70746624978275 170.28930814584007 0.0 0.0
-343.3783182213655 11.095237388447272 -112.22887728792982 183.1620553620816 0.0 0.0
-243.84034329729704 14.831201910179823 -71.08986210793925 184.5809886303345 0.0 0.0
-180.04515474175417 19.389383260642383 -48.654433027767446 179.3692478040268 0.0 0.0
-140.07791919948733 18.384762323401038 -36.55654922171807 178.4145119591736 0.0 0.0
-110.87362578387406 2.797188711039187 -32.42765269581559 181.60250882314168 0.0 0.0
-77.98984006366325 -49.11154467597653 -38.12848122807027 177.51110125779383 0.0 0.0
-27.48878688371868 -165.1392323641091 -57.78840577434832 111.7508353626297 0.0 0.0
-28.692355981239167 -125.19894941651918 -46.1673916193275 -96.9598510566985 0.0 0.0
-87.96935523978973 -43.88023848209076 -39.55474032195374 -165.43671892409463 0.0 0.0
-137.64245714759903 2.2706357728508753 -40.61065362576804 -172.77793515175446 0.0 0.0
-184.6028787766658 17.4544862263271 -50.236266874080144 -167.92443593373454 0.0 0.0
-244.00339112167714 20.07155413183757 -67.90270396222598 -164.52918099047614 0.0 0.0
-330.01021424638975 19.046902979472414 -99.12503779913926 -162.6698587085491 0.0 0.0
-440.94629299271503 12.97476238244078 -156.93451317916606 -152.02118746432683 0.0 0.0
-542.5136375826918 0.13444965689855337 -232.2249125866084 -141.3762284030155 0.0 0.0
-622.2066307016596 -13.427425611125244 -297.6471711997184 -137.6822953828252 0.0 0.0
-685.4820150494154 -25.945640488745653 -345.6390930745192 -135.78895937456522 0.0 0.0
-738.5362295649301 -36.91979665043377 -381.78641234344 -133.19190252956164 0.0 0.0
-787.1498897609907 -48.773264077671044 -413.78807487201294 -129.5892160838959 0.0 0.0
-832.4506396612201 -61.10336173301047 -443.4765203102622 -125.80325540168748 0.0 0.0
-876.5753599986795 -75.56823915125415 -473.2563137090566 -122.79878540503225 0.0 0.0
-921.4283649601496 -94.17196585783313 -505.24263028071744 -122.26643485264162 0.0 0.0
-968.0841882232892 -118.9349206124325 -541.1733051265974 -125.26109039582354 0.0 0.0
-1017.3993899486595 -151.71335152797855 -582.466009460318 -130.8562032706896 0.0 0.0
-1070.8952184175687 -195.29388773579134 -631.2478804882999 -136.3558111126388 0.0 0.0
-1140.1806644885273 -265.1532676128461 -700.7032694740439 -138.58232410396587 0.0 0.0
-1234.0254654834175 -389.09841247877216 -809.273891644036 -142.6791768152501 0.0 0.0
-1234.0254654844161 -389.09841247994916 -809.2738916447402 142.67917681554383 0.0 0.0
-1140.1806644889566 -265.15326761354856 -700.7032694742875 138.58232410437498 0.0 0.0
-1070.895218417394 -195.29388773582724 -631.2478804881373 136.35581111290097 0.0 0.0
-1017.3993899483507 -151.7133515278273 -582.4660094600046 130.85620327081986 0.0 0.0
-968.084188222882 -118.93492061221586 -541.1733051262836 125.26109039595724 0.0 0.0
-921.4283649597571 -94.17196585754752 -505.2426302803856 122.26643485259638 0.0 0.0
-876.575359997747 -75.56823915051919 -473.2563137084128 122.7987854051136 0.0 0.0
-832.4506396598024 -61.103361731729656 -443.4765203093071 125.803255401608 0.0 0.0
-787.1498897600089 -48.77326407685159 -413.78807487131303 129.58921608388437 0.0 0.0
-738.5362295646104 -36.919796650273284 -381.78641234315995 133.19190252942363 0.0 0.0
-685.4820150499079 -25.945640489588694 -345.6390930748063 135.78895937456747 0.0 0.0
-622.2066307011514 -13.427425610954748 -297.6471711993428 137.68229538282344 0.0 0.0
-542.5136375815063 0.13444965787329544 -232.22491258573618 141.37622840293758 0.0 0.0
-440.94629299221066 12.974762382501003 -156.93451317881448 152.02118746427527 0.0 0.0
-330.01021424613174 19.046902979234286 -99.12503779908283 162.669858708398 0.0 0.0
-244.00339112139676 20.07155413189253 -67.90270396212414 164.52918099032132 0.0 0.0
-184.60287877667304 17.454486226028845 -50.236266874177076 167.92443593354585 0.0 0.0
-137.64245714757067 2.2706357726122515 -40.610653625835326 172.77793515155847 0.0 0.0
-87.96935523970294 -43.88023848206002 -39.55474032191861 165.4367189239905 0.0 0.0
-28.692355981253375 -125.19894941642424 -46.16739161930329 96.95985105662163 0.0 0.0
-29.47021042965598 -89.8105704176191 -35.78423425418252 -81.81325624963586 0.0 0.0
-96.88563961889264 -37.04604416739514 -40.17950513588633 -149.4611063554931 0.0 0.0
-162.71434033639503 1.8885860722763104 -48.24649402322096 -159.50526412744742 0.0 0.0
-227.51979382954494 15.714369960104936 -63.58480834232398 -153.0870721881127 0.0 0.0
-304.69234398041175 20.93966110607785 -86.42830957981036 -145.58509093955908 0.0 0.0
-405.96441356660796 21.407594126095375 -128.5977148056641 -135.25392013544703 0.0 0.0
-513.2488813135318 12.18603724100408 -199.090155743031 -121.90831283519262 0.0 0.0
-603.1922723049506 -2.250303809978206 -274.8206570057525 -116.93509507967454 0.0 0.0
-676.2367746091081 -17.563144915705266 -334.0697325322622 -117.20285666199085 0.0 0.0
-738.2819676197546 -32.01247840674006 -378.4644399241654 -117.10616179520899 0.0 0.0
-794.601769322305 -47.00204583776019 -416.413439670702 -115.2876715641103 0.0 0.0
-847.2396659374065 -62.84322293165137 -451.6797171974238 -112.16991737373831 0.0 0.0
-896.9014579674924 -79.15262965365116 -485.25284852371 -108.71387957522934 0.0 0.0
-944.9491195552368 -96.51753143408118 -518.3134506944323 -105.72977923989123 0.0 0.0
-994.5791684261278 -118.20100007769835 -554.1235631682548 -104.80136760099703 0.0 0.0
-1049.3271300081387 -149.2138815567996 -597.0789187845708 -107.13941116495036 0.0 0.0
-1111.629290713648 -192.23000555072898 -649.8572037659565 -112.12450143040414 0.0 0.0
-1182.9554723127294 -251.14693318490015 -715.0384590417277 -116.36114745174545 0.0 0.0
-1264.924193404725 -332.67009618092493 -796.7414301597264 -117.58979395729055 0.0 0.0
-1349.167921964321 -444.62951472647876 -894.8458691140894 -122.85148396144658 0.0 0.0
-1349.1679219646692 -444.6295147269538 -894.8458691143934 122.8514839616576 0.0 0.0
-1264.924193404518 -332.6700961808505 -796.7414301596275 117.58979395753349 0.0 0.0
-1182.9554723126007 -251.14693318493002 -715.0384590417525 116.36114745193896 0.0 0.0
-1111.629290713926 -192.23000555112603 -649.8572037661811 112.12450143049506 0.0 0.0
-1049.3271300081449 -149.2138815570293 -597.0789187845578 107.13941116517458 0.0 0.0
-994.5791684260372 -118.20100007771019 -554.1235631681825 104.80136760089405 0.0 0.0
-944.9491195546295 -96.5175314336391 -518.3134506940424 105.72977923994648 0.0 0.0
-896.9014579676907 -79.1526296540819 -485.2528485238795 108.71387957532528 0.0 0.0
-847.2396659377189 -62.843222932240636 -451.679717197644 112.16991737382811 0.0 0.0
-794.6017693220664 -47.00204583778298 -416.41343967054024 115.28767156412273 0.0 0.0
-738.2819676188388 -32.0124784060376 -378.4644399235609 117.1061617950843 0.0 0.0
-676.236774608882 -17.563144915714723 -334.06973253207144 117.20285666190873 0.0 0.0
-603.1922723046927 -2.25030381009687 -274.82065700551766 116.9350950796634 0.0 0.0
-513.2488813129487 12.186037241307824 -199.0901557425304 121.90831283506263 0.0 0.0
-405.9644135662428 21.407594125987004 -128.59771480547687 135.25392013536776 0.0 0.0
-304.69234398018114 20.93966110582107 -86.42830957981889 145.58509093946566 0.0 0.0
-227.51979382946556 15.714369959908353 -63.5848083423664 153.08707218801754 0.0 0.0
-162.71434033620164 1.8885860725637644 -48.24649402307729 159.50526412724687 0.0 0.0
-96.88563961877254 -37.046044167392466 -40.1795051358495 149.46110635534365 0.0 0.0
-29.47021042966219 -89.81057041750549 -35.7842342541503 81.81325624945224 0.0 0.0
-30.2102222372623 -59.47394212888884 -26.90524930984534 -66.24621404970588 0.0 0.0
-105.09044432063368 -29.18952635194063 -40.28399120177229 -129.99955279760712 0.0 0.0
-186.35486370708284 1.5299786173512366 -55.44527842109899 -141.92383712653077 0.0 0.0
-267.7158729348973 13.18808943139639 -76.46659870094884 -133.8455243422898 0.0 0.0
-360.86283153340025 22.208633285975594 -104.74716096241377 -122.58550475248404 0.0 0.0
-469.39593318848324 21.231112791361248 -159.29350887898957 -106.08547052152548 0.0 0.0
-567.5384048071159 10.868357923022813 -236.1597133557866 -95.37682049195632 0.0 0.0
-648.3833979745714 -4.784885156543936 -307.3290946436729 -94.90144245080427 0.0 0.0
-718.0324664852512 -20.51134518376145 -360.51662392742156 -97.19197231850448 0.0 0.0
-781.8603542432719 -37.86983275637124 -404.83705217701873 -97.97531929700318 0.0 0.0
-841.8976336849937 -56.835166210882576 -445.75053766056453 -96.68724930200258 0.0 0.0
-898.7325121358704 -76.82744290776522 -484.86921304565544 -94.12131091728597 0.0 0.0
-952.9665030834899 -97.25295882864918 -522.6623698351037 -91.25182734385596 0.0 0.0
-1005.005246245229 -118.1686776336735 -559.4440181936675 -88.39455106526522 0.0 0.0
-1058.6688935365137 -142.78368546968676 -598.6864198911214 -86.80721935803871 0.0 0.0
-1120.967724030563 -179.0938322017235 -647.9662521297163 -88.08542370711382 0.0 0.0
-1195.6131401188104 -233.05316758380582 -712.2612884174148 -92.02538820287874 0.0 0.0
-1281.9091397972131 -306.03854690403045 -791.9243981754112 -96.08431631365278 0.0 0.0
-1370.9786566584967 -394.8063374351221 -880.8866062592854 -99.10233657759414 0.0 0.0
-1449.4158030213332 -499.55806261220647 -972.6364326271391 -107.99241879201088 0.0 0.0
-1449.4158030218266 -499.55806261267867 -972.6364326273708 107.99241879201261 0.0 0.0
-1370.9786566590092 -394.80633743578323 -880.8866062596977 99.1023365778873 0.0 0.0
-1281.9091397972284 -306.0385469041563 -791.9243981753757 96.08431631378414 0.0 0.0
-1195.613140118849 -233.05316758394915 -712.2612884174468 92.02538820289612 0.0 0.0
-1120.9677240307474 -179.09383220202602 -647.9662521298486 88.08542370710194 0.0 0.0
-1058.668893537161 -142.7836854704915 -598.6864198914394 86.80721935810126 0.0 0.0
-1005.0052462446195 -118.16867763326263 -559.4440181932732 88.39455106536097 0.0 0.0
-952.9665030831025 -97.25295882841762 -522.6623698348454 91.25182734380498 0.0 0.0
-898.7325121356789 -76.82744290782539 -484.86921304558643 94.12131091735114 0.0 0.0
-841.8976336841403 -56.835166210197315 -445.7505376600301 96.68724930185641 0.0 0.0
-781.8603542431661 -37.86983275652936 -404.83705217693205 97.9753192969576 0.0 0.0
-718.0324664849973 -20.511345183827448 -360.51662392723216 97.19197231855794 0.0 0.0
-648.383397974434 -4.7848851568341075 -307.329094643512 94.90144245093836 0.0 0.0
-567.5384048065274 10.868357923284439 -236.15971335527703 95.3768204918766 0.0 0.0
-469.395933187967 21.23111279150929 -159.29350887864052 106.08547052148012 0.0 0.0
-360.8628315327278 22.208633286499612 -104.74716096204891 122.58550475226134 0.0 0.0
-267.71587293474033 13.188089431290885 -76.4665987009447 133.84552434209849 0.0 0.0
-186.35486370706553 1.5299786171958156 -55.44527842114127 141.92383712644906 0.0 0.0
-105.09044432046127 -29.189526351744743 -40.2839912016618 129.99955279753453 0.0 0.0
-30.210222237235747 -59.473942128812645 -26.905249309814515 66.24621404957779 0.0 0.0
-30.74694619041584 -34.64629532308258 -19.61797245404952 -50.19542177225462 0.0 0.0
-112.39288338979146 -20.851514706662044 -39.97331942893605 -107.43606606508425 0.0 0.0
-208.7495318507232 1.092793696142567 -62.29702144637419 -120.0242467106995 0.0 0.0
-306.83174653918655 10.707911722443868 -88.97580191239881 -111.02784296355253 0.0 0.0
-414.39462529789057 22.678953906566413 -124.20062784112528 -95.92016849748637 0.0 0.0
-519.7950281711888 20.099332727863462 -189.32703606681645 -78.03209897488287 0.0 0.0
-606.9487884153604 8.297306081647093 -267.28525734626913 -71.8451207376679 0.0 0.0
-682.8805302008534 -5.825012971524103 -330.90366273294774 -74.04466575638355 0.0 0.0
-752.6552484190561 -23.089770424320307 -381.4279541304036 -76.98192974758496 0.0 0.0
-819.0555412597955 -43.712026109857874 -427.2698642289096 -78.17151723766449 0.0 0.0
-882.6951706343384 -66.36697192533195 -471.387825637311 -77.37126815446001 0.0 0.0
-943.9857655405767 -90.53517230402296 -514.6648501703047 -75.42587053767396 0.0 0.0
-1002.901837045365 -115.42623751384147 -556.9400340801574 -73.19547889633719 0.0 0.0
-1060.2191647748127 -140.9010395000208 -598.6069696923744 -70.8048656430575 0.0 0.0
-1117.985870790836 -168.78841805715655 -641.5440578448538 -68.59438285328767 0.0 0.0
-1184.1533245927267 -208.22053263856134 -694.251211809792 -68.15312118966646 0.0 0.0
-1269.267792233064 -271.0660163750056 -768.1122840404762 -70.97118366123318 0.0 0.0
-1368.4823029480162 -356.1464546232253 -860.2806224665615 -75.93233687939986 0.0 0.0
-1466.7738852534549 -454.1923357779372 -958.5464068868475 -82.35388122572702 0.0 0.0
-1544.7693174293888 -557.5449951122494 -1049.449824083837 -95.94001506841829 0.0 0.0
-1544.769317429178 -557.5449951120212 -1049.4498240837202 95.94001506838018 0.0 0.0
-1466.7738852524421 -454.1923357770086 -958.5464068861802 82.35388122593733 0.0 0.0
-1368.4823029468098 -356.14645462206977 -860.2806224657113 75.93233687939197 0.0 0.0
-1269.2677922319717 -271.0660163739971 -768.1122840395838 70.97118366125687 0.0 0.0
-1184.1533245928956 -208.2205326388417 -694.2512118097713 68.15312118961931 0.0 0.0
-1117.985870790584 -168.7884180570719 -641.5440578447036 68.59438285338454 0.0 0.0
-1060.2191647746376 -140.90103950003765 -598.6069696921776 70.8048656431675 0.0 0.0
-1002.9018370446045 -115.42623751327586 -556.9400340795403 73.19547889634184 0.0 0.0
-943.9857655393162 -90.53517230296771 -514.664850169417 75.42587053767463 0.0 0.0
-882.6951706336359 -66.36697192483513 -471.3878256367502 77.37126815438634 0.0 0.0
-819.0555412594742 -43.712026109831456 -427.26986422864957 78.17151723770405 0.0 0.0
-752.6552484186357 -23.089770424214144 -381.42795413013704 76.98192974766361 0.0 0.0
-682.8805302001929 -5.825012971214001 -330.9036627325018 74.04466575647423 0.0 0.0
-606.9487884154931 8.297306081151316 -267.28525734620877 71.8451207375426 0.0 0.0
-519.7950281711808 20.09933272743012 -189.32703606673059 78.03209897484969 0.0 0.0
-414.39462529755986 22.67895390641189 -124.20062784102382 95.92016849748927 0.0 0.0
-306.831746538964 10.70791172234891 -88.97580191237714 111.02784296350336 0.0 0.0
-208.74953185046084 1.0927936963525968 -62.297021446232485 120.02424671060555 0.0 0.0
-112.39288338963668 -20.851514706571304 -39.97331942886239 107.43606606493907 0.0 0.0
-30.746946190372203 -34.64629532298076 -19.617972454005887 50.19542177218202 0.0 0.0
-30.44985287100215 -15.76356808070944 -13.864026285513475 -33.784414459956054 0.0 0.0
-117.93730660041344 -12.478866314906082 -39.12485187459585 -81.97834373918633 0.0 0.0
-230.23487965082876 0.24504917842545204 -68.99694914172099 -93.73677643426969 0.0 0.0
-345.5115277436831 9.521119569412942 -101.04657447155735 -84.66086289053727 0.0 0.0
-461.75862554872515 22.206501621533207 -144.99753706797298 -67.09763739543921 0.0 0.0
-559.3262663989636 17.351850583269268 -218.4099818314041 -52.85493945883344 0.0 0.0
-638.5399051176405 6.521508036999144 -292.32702103185443 -50.556712312592246 0.0 0.0
-711.002403101553 -6.377254314289232 -348.97509652258856 -53.287689311309315 0.0 0.0
-781.775546419565 -25.757135262634563 -398.70233638781167 -56.30652506891584 0.0 0.0
-850.9748586384483 -49.35117435059985 -446.63314925408326 -57.690655757107265 0.0 0.0
-918.4987277619246 -75.67942936597235 -494.2769700939013 -57.336590487541535 0.0 0.0
-984.0631320664789 -103.90813455366188 -541.6253097246263 -56.00331326515096 0.0 0.0
-1048.2627320038887 -133.4110069068037 -588.7832026251608 -54.49877001001915 0.0 0.0
-1111.314540052018 -164.50822610385814 -636.0793523303328 -52.69775785072685 0.0 0.0
-1174.5015189452643 -197.56236582514725 -684.3282960422027 -50.34475981201808 0.0 0.0
-1242.7984333677493 -238.14107522350525 -738.7124627936402 -48.22853959802 0.0 0.0
-1328.480078949051 -300.6018880575474 -812.560722752265 -49.217396393291345 0.0 0.0
-1442.463736903658 -399.43927735687555 -918.9101829650649 -55.281083794513805 0.0 0.0
-1555.633260279963 -511.5147068834652 -1031.699140932963 -66.16613300810738 0.0 0.0
-1643.6189034624845 -623.1554633881512 -1131.783191014296 -85.3392596504771 0.0 0.0
-1643.6189034617628 -623.1554633874064 -1131.7831910138946 85.33925965039639 0.0 0.0
-1555.633260279033 -511.51470688257416 -1031.699140932327 66.16613300818388 0.0 0.0
-1442.463736903052 -399.4392773563561 -918.9101829645936 55.28108379461081 0.0 0.0
-1328.480078948443 -300.6018880570195 -812.560722751775 49.2173963932228 0.0 0.0
-1242.7984333668 -238.1410752226722 -738.7124627928166 48.228539598074164 0.0 0.0
-1174.5015189436795 -197.562365823734 -684.3282960409707 50.344759812196884 0.0 0.0
-1111.3145400518356 -164.50822610384017 -636.0793523302294 52.69775785069694 0.0 0.0
-1048.2627320038505 -133.411006906952 -588.7832026252032 54.49877001000473 0.0 0.0
-984.0631320674418 -103.90813455486233 -541.6253097252338 56.00331326508295 0.0 0.0
-918.4987277620646 -75.67942936634586 -494.2769700939465 57.33659048750077 0.0 0.0
-850.974858637951 -49.35117435034614 -446.6331492537758 57.6906557570628 0.0 0.0
-781.7755464194133 -25.757135262784452 -398.7023363877135 56.30652506893897 0.0 0.0
-711.0024031014269 -6.377254314488859 -348.9750965224637 53.28768931136338 0.0 0.0
-638.5399051171182 6.521508037249625 -292.3270210314171 50.556712312435124 0.0 0.0
-559.3262663982873 17.351850583639305 -218.40998183087137 52.854939458767795 0.0 0.0
-461.7586255483265 22.206501621557987 -144.99753706775812 67.09763739541806 0.0 0.0
-345.51152774365306 9.521119568855555 -101.04657447173079 84.66086289034186 0.0 0.0
-230.23487965074148 0.24504917817004968 -68.99694914177141 93.73677643415012 0.0 0.0
-117.93730660018979 -12.47886631476143 -39.12485187448536 81.97834373915217 0.0 0.0
-30.449852870985133 -15.763568080723116 -13.864026285512473 33.78441445994324 0.0 0.0
-28.025306084426933 -3.1890637286651007 -9.36431094392761 -17.529813779090155 0.0 0.0
-120.01735098086834 -4.6518577762162465 -37.400762627125374 -53.59270498481813 0.0 0.0
-251.1609800392423 -0.9763243904298511 -75.64119132890164 -62.53797301282769 0.0 0.0
-385.84699426835573 9.772378774819956 -113.45837931102314 -54.85823319841259 0.0 0.0
-501.170371474966 21.359895590403166 -166.6511712527957 -39.01585258510665 0.0 0.0
-588.1023505840462 13.272573610142224 -244.93577498951464 -30.2071308166796 0.0 0.0
-663.1162971683959 6.254072136797376 -310.905688053601 -30.232401885497556 0.0 0.0
-734.4295963399927 -7.533395594526738 -363.70798807311803 -32.58749565196 0.0 0.0
-806.0708633034212 -28.27711282121001 -412.9997082012512 -35.127317914947774 0.0 0.0
-878.2793535957998 -54.75480525539905 -463.3990826810124 -36.48733000394348 0.0 0.0
-949.8365517569471 -84.79001242489142 -514.7611083754717 -36.558513482474886 0.0 0.0
-1020.1271086843494 -116.92181613658124 -566.3517949103589 -35.882731424155196 0.0 0.0
-1089.381305825565 -151.40230399876987 -618.4740303247238 -34.98423213514467 0.0 0.0
-1158.8294265520908 -188.27954346592736 -671.8094707245052 -33.87742082616046 0.0 0.0
-1229.1211241323113 -228.15240171566072 -727.0097652641479 -32.09135677598332 0.0 0.0
-1300.7770287538322 -272.09343561286164 -784.8414885861984 -29.330273681629013 0.0 0.0
-1379.655760065314 -327.32516285389244 -851.7338632958026 -27.699003267663695 0.0 0.0
-1484.358751550781 -415.45783422994793 -947.8587859693935 -32.88040292035353 0.0 0.0
-1644.546388864579 -572.1065263337986 -1106.4095827186782 -48.64935180578356 0.0 0.0
-1755.5326729452604 -704.0427251134357 -1228.2792258813852 -75.23282358801329 0.0 0.0
-1755.5326729451315 -704.0427251133232 -1228.2792258812872 75.23282358804332 0.0 0.0
-1644.5463888639688 -572.1065263332385 -1106.4095827182032 48.64935180587864 0.0 0.0
-1484.3587515511854 -415.45783423045464 -947.8587859696561 32.880402920489516 0.0 0.0
-1379.6557600654762 -327.3251628541495 -851.7338632957923 27.699003267585105 0.0 0.0
-1300.7770287534277 -272.09343561258044 -784.8414885857742 29.330273681666686 0.0 0.0
-1229.1211241310962 -228.15240171458709 -727.0097652632157 32.09135677607309 0.0 0.0
-1158.8294265508325 -188.27954346484944 -671.8094707235836 33.877420826249846 0.0 0.0
-1089.381305824137 -151.40230399752662 -618.474030323671 34.984232135109714 0.0 0.0
-1020.1271086831466 -116.92181613556599 -566.3517949094983 35.88273142401515 0.0 0.0
-949.836551755504 -84.79001242369304 -514.7611083745219 36.558513482476094 0.0 0.0
-878.2793535950202 -54.754805254860344 -463.3990826804762 36.487330003843866 0.0 0.0
-806.0708633031035 -28.277112821177703 -412.99970820099753 35.1273179149969 0.0 0.0
-734.4295963391916 -7.533395594030637 -363.7079880725845 32.587495652072626 0.0 0.0
-663.1162971675312 6.254072137400776 -310.90568805299273 30.23240188543383 0.0 0.0
-588.1023505839858 13.272573609835874 -244.93577498934602 30.20713081666121 0.0 0.0
-501.17037147499025 21.359895589917237 -166.65117125279687 39.01585258519719 0.0 0.0
-385.84699426791434 9.772378775004224 -113.4583793108629 54.85823319841896 0.0 0.0
-251.16098003894032 -0.976324390239435 -75.64119132875393 62.537973012921626 0.0 0.0
-120.0173509807545 -4.6518577761979625 -37.40076262708574 53.59270498474981 0.0 0.0
-28.02530608436675 -3.1890637285905066 -9.364310943887174 17.529813779064536 0.0 0.0
-20.99671100713313 2.8369873985151672 -5.447917082585389 -2.695382509299016 0.0 0.0
-115.61130674376763 1.805134607771544 -34.141851640798826 -21.737674475053034 0.0 0.0
-272.51183864284627 -2.2883389193133876 -82.44005326864787 -25.348496771523312 0.0 0.0
-426.038891628765 11.855097077033097 -126.89101313599275 -22.18214036155383 0.0 0.0
-534.6427695131471 18.87408358548569 -189.71184296069617 -13.327578931652884 0.0 0.0
-613.3102474863737 11.0911448080468 -267.373648462131 -10.001690774922057 0.0 0.0
-683.2297579067383 5.381101467308454 -325.8066380120793 -10.322825325419014 0.0 0.0
-753.603217027083 -8.76055812330452 -375.5314738094054 -11.831401743182965 0.0 0.0
-826.397281404849 -30.897002376399172 -425.104164390768 -13.468927771067698 0.0 0.0
-901.511155635063 -59.901388198896385 -477.91582626303955 -14.561686861533145 0.0 0.0
-977.2450916373879 -93.3983446799474 -532.9763314291708 -15.023431921338691 0.0 0.0
-1052.2881730991828 -130.1704095984254 -589.2085038286712 -14.958865270536197 0.0 0.0
-1126.9728031391446 -169.19889734533237 -646.2830902982043 -14.725804075184314 0.0 0.0
-1202.6291748118774 -211.59100729005434 -705.4421906122202 -14.287062324618903 0.0 0.0
-1280.1936017548096 -258.51505090729154 -767.777181260265 -13.355022374812606 0.0 0.0
-1358.7583825790962 -309.5716442951981 -832.647997977618 -11.565976211893311 0.0 0.0
-1435.523352852253 -363.00869982538995 -897.7403253357546 -8.941375760257333 0.0 0.0
-1514.3807557429702 -424.5253511074221 -967.7199234453823 -9.434519221525388 0.0 0.0
-1630.89557573678 -533.6484472738787 -1080.1412833032787 -25.087273858201698 0.0 0.0
-1956.3130623752652 -873.3813896974416 -1413.3468858480144 -61.88032760994464 0.0 0.0
-1956.3130623751179 -873.3813896973147 -1413.3468858479698 61.880327609981336 0.0 0.0
-1630.8955757359713 -533.6484472731116 -1080.1412833026316 25.087273858228087 0.0 0.0
-1514.3807557426535 -424.5253511071876 -967.7199234450327 9.434519221607921 0.0 0.0
-1435.523352851565 -363.0086998248034 -897.7403253351813 8.941375760181907 0.0 0.0
-1358.758382578774 -309.5716442950006 -832.6479979774069 11.565976211958798 0.0 0.0
-1280.1936017555058 -258.51505090814373 -767.7771812607165 13.355022374750407 0.0 0.0
-1202.6291748123472 -211.59100729070775 -705.4421906124505 14.287062324724172 0.0 0.0
-1126.972803138336 -169.19889734471622 -646.2830902976109 14.725804075187964 0.0 0.0
-1052.2881730995955 -130.17040959907752 -589.208503828834 14.958865270528417 0.0 0.0
-977.2450916370999 -93.39834467991732 -532.9763314288531 15.023431921364107 0.0 0.0
-901.5111556345169 -59.90138819860988 -477.91582626262334 14.561686861369614 0.0 0.0
-826.397281404279 -30.89700237608608 -425.10416439039284 13.468927770906983 0.0 0.0
-753.6032170266493 -8.760558123178882 -375.5314738091236 11.831401743167506 0.0 0.0
-683.2297579070669 5.381101466636423 -325.8066380122458 10.32282532538746 0.0 0.0
-613.3102474863567 11.091144807759264 -267.3736484620225 10.001690774734186 0.0 0.0
-534.6427695127636 18.874083585541563 -189.7118429603968 13.327578931643586 0.0 0.0
-426.03889162851794 11.85509707686003 -126.89101313595609 22.18214036154152 0.0 0.0
-272.51183864258496 -2.2883389193721992 -82.44005326858712 25.348496771544667 0.0 0.0
-115.61130674367489 1.8051346077441917 -34.14185164077921 21.737674475095737 0.0 0.0
-20.99671100706731 2.8369873985224063 -5.44791708256347 2.695382509350257 0.0 0.0
SCALARS Strain float 6
LOOKUP_TABLE default
0.011620947938981175 -0.012688830187098349 0.0 -0.007014203842696798 0.0 0.0
0.0023854285364324455 -0.0014777573941194833 0.0 0.001172711726030673 0.0 0.0
0.0018170778885867687 -0.0007418354686403728 0.0 -4.2487699764282016e-05 0.0 0.0
0.0022895886670747777 -0.0011014323235893908 0.0 -0.0002135504315992076 0.0 0.0
0.003525012174571041 -0.0020905507313864202 0.0 -0.0002691567460296196 0.0 0.0
0.006067861910201311 -0.004335037005107623 0.0 -0.0004087277816350876 0.0 0.0
0.010176012829463255 -0.008171656574294417 0.0 -0.0006496686395818241 0.0 0.0
0.016110921343377008 -0.013835761727935214 0.0 -0.001019292040073172 0.0 0.0
0.02400735945248364 -0.02144310880602851 0.0 -0.0015323857520763706 0.0 0.0
0.03385329941329057 -0.030975910158542064 0.0 -0.002146351408856273 0.0 0.0
0.04555556457624297 -0.042349136633157425 0.0 -0.0027838698538688866 0.0 0.0
0.05900835386894037 -0.05546395437196283 0.0 -0.0034115048159872874 0.0 0.0
0.07411052347761138 -0.07022324504500643 0.0 -0.004035692798741053 0.0 0.0
0.09073387804371928 -0.08649451163655453 0.0 -0.0046546199058708215 0.0 0.0
0.1086005033737372 -0.10399550800021062 0.0 -0.00524837257249966 0.0 0.0
0.1271366134881607 -0.12215536702146368 0.0 -0.0057031182807832925 0.0 0.0
0.14540648953237167 -0.1400503953516652 0.0 -0.00580107903766186 0.0 0.0
0.16214760624774216 -0.15643276720432508 0.0 -0.005309781114890777 0.0 0.0
0.17584685263480432 -0.16979766607395952 0.0 -0.004421620950878502 0.0 0.0
0.18439993737161622 -0.17787341830606218 0.0 -0.004779530947119581 0.0 0.0
0.18439993737160656 -0.17787341830604797 0.0 0.0047795309471257985 0.0 0.0
0.17584685263476635 -0.16979766607392177 0.0 0.004421620950899263 0.0 0.0
0.16214760624768115 -0.15643276720426735 0.0 0.005309781114901324 0.0 0.0
0.1454064895322931 -0.14005039535158748 0.0 0.005801079037667356 0.0 0.0
0.12713661348807634 -0.12215536702137975 0.0 0.00570311828077541 0.0 0.0
0.10860050337365124 -0.1039955080001258 0.0 0.005248372572500215 0.0 0.0
0.09073387804363289 -0.08649451163646749 0.0 0.004654619905870017 0.0 0.0
0.07411052347752531 -0.07022324504492339 0.0 0.004035692798740831 0.0 0.0
0.0590083538688565 -0.05546395437188023 0.0 0.00341150481598107 0.0 0.0
0.04555556457616794 -0.042349136633086815 0.0 0.0027838698538656947 0.0 0.0
0.033853299413230564 -0.030975910158486775 0.0 0.002146351408846281 0.0 0.0
0.02400735945243565 -0.021443108805983435 0.0 0.0015323857520729844 0.0 0.0
0.016110921343342022 -0.01383576172790102 0.0 0.001019292040070896 0.0 0.0
0.010176012829438696 -0.008171656574269548 0.0 0.0006496686395793261 0.0 0.0
0.0060678619101871 -0.004335037005094744 0.0 0.00040872778163125734 0.0 0.0
0.003525012174564468 -0.00209055073138098 0.0 0.000269156746029231 0.0 0.0
0.0022895886670736276 -0.0011014323235893908 0.0 0.00021355043160170561 0.0 0.0
0.0018170778885860939 -0.0007418354686408724 0.0 4.248769976533673e-05 0.0 0.0
0.0023854285364307004 -0.0014777573941175404 0.0 -0.0011727117260268427 0.0 0.0
0.011620947938969894 -0.012688830187084218 0.0 0.007014203842663547 0.0 0.0
0.008238337930410986 -0.009684089937717244 0.0 -0.00845140673337863 0.0 0.0
0.0012977530352704034 -0.0007461465177509563 0.0 0.0001349131936892456 0.0 0.0
0.0015540581415893137 -0.0005552160195290146 0.0 -0.0001293707339973249 0.0 0.0
0.002012473222725998 -0.0009222407285934819 0.0 -0.00046844331279882745 0.0 0.0
0.0029975506355225043 -0.0016653245702267228 0.0 -0.000607275155617315 0.0 0.0
0.005174734001657896 -0.0035339055041119227 0.0 -0.0009498884031289845 0.0 0.0
0.008841935966398776 -0.0069094022750690876 0.0 -0.0015622945318394255 0.0 0.0
0.014210660651935159 -0.01199992754983037 0.0 -0.0024481524073369787 0.0 0.0
0.02136734773178286 -0.018873196647938517 0.0 -0.0036138704614899764 0.0 0.0
0.030256204354368176 -0.027464520886719246 0.0 -0.004959710620732055 0.0 0.0
0.040761416304458745 -0.037663924667395765 0.0 -0.006337671058600669 0.0 0.0
0.052792851306052026 -0.04938600627207679 0.0 -0.007662428365008606 0.0 0.0
0.06630296310942763 -0.06258135442663182 0.0 -0.008996625934281494 0.0 0.0
0.08120525063469716 -0.0771606253835424 0.0 -0.01036369078092822 0.0 0.0
0.09726431770750243 -0.09288683433091949 0.0 -0.01167469216926964 0.0 0.0
0.11399299679247946 -0.10927465639686718 0.0 -0.01269932572674437 0.0 0.0
0.13058191035591485 -0.12552048898189527 0.0 -0.013007113623552335 0.0 0.0
0.14588470344216325 -0.1404830217844828 0.0 -0.012216296380064495 0.0 0.0
0.15833579790167282 -0.1525656346890023 0.0 -0.010470472909467343 0.0 0.0
0.1658388603435586 -0.15978755313835835 0.0 -0.0075881415871253965 0.0 0.0
0.16583886034354806 -0.15978755313834503 0.0 0.007588141587149044 0.0 0.0
0.15833579790163796 -0.15256563468897166 0.0 0.010470472909503203 0.0 0.0
0.14588470344210994 -0.14048302178443706 0.0 0.01221629638008892 0.0 0.0
0.1305819103558466 -0.12552048898182955 0.0 0.01300711362356377 0.0 0.0
0.11399299679240474 -0.10927465639679523 0.0 0.012699325726736155 0.0 0.0
0.09726431770742497 -0.09288683433084621 0.0 0.011674692169265755 0.0 0.0
0.08120525063461947 -0.07716062538346735 0.0 0.010363690780925472 0.0 0.0
0.06630296310935066 -0.0625813544265621 0.0 0.008996625934277191 0.0 0.0
0.052792851305977606 -0.04938600627201284 0.0 0.007662428364998974 0.0 0.0
0.0407614163043912 -0.03766392466733626 0.0 0.0063376710585903995 0.0 0.0
0.030256204354313726 -0.02746452088666862 0.0 0.00495971062071926 0.0 0.0
0.021367347731739705 -0.018873196647894108 0.0 0.0036138704614829265 0.0 0.0
0.014210660651903129 -0.011999927549798173 0.0 0.002448152407330928 0.0 0.0
0.008841935966377057 -0.006909402275049326 0.0 0.0015622945318355952 0.0 0.0
0.005174734001645698 -0.0035339055040999323 0.0 0.0009498884031274857 0.0 0.0
0.0029975506355175985 -0.0016653245702236141 0.0 0.0006072751556167599 0.0 0.0
0.0020124732227251863 -0.000922240728593593 0.0 0.0004684433127977172 0.0 0.0
0.0015540581415887655 -0.0005552160195301803 0.0 0.00012937073399671428 0.0 0.0
0.0012977530352703548 -0.0007461465177499016 0.0 -0.00013491319369002275 0.0 0.0
0.008238337930397688 -0.009684089937702162 0.0 0.00845140673335143 0.0 0.0
0.00609292476832108 -0.007697048206700807 0.0 -0.00782924659333828 0.0 0.0
0.0007640746080724986 -0.0004862695630098446 0.0 -0.0005669987920169373 0.0 0.0
0.0012456221242207396 -0.00040924257802466 0.0 -0.00043416364667903107 0.0 0.0
0.0017475208540148196 -0.00075956640276853 0.0 -0.0007116455153918233 0.0 0.0
0.002529122513644212 -0.0013132837405953612 0.0 -0.0009053178334126333 0.0 0.0
0.004316366322170834 -0.00278648469512377 0.0 -0.0013533237260732744 0.0 0.0
0.007517708890287522 -0.0056702244979647265 0.0 -0.0022363410325012545 0.0 0.0
0.012289375905622311 -0.010157630272870533 0.0 -0.0035454471331748394 0.0 0.0
0.018678183785229556 -0.016266322633883945 0.0 -0.005226964378875543 0.0 0.0
0.026592195085578772 -0.023899168462294007 0.0 -0.007138906873520645 0.0 0.0
0.035899161325561424 -0.032923831039746165 0.0 -0.009094898130199314 0.0 0.0
0.04651680377543552 -0.043258684400961034 0.0 -0.010983035071926828 0.0 0.0
0.058423794906319985 -0.054879482906248 0.0 -0.012859176779560721 0.0 0.0
0.07158270734286527 -0.06774571646862926 0.0 -0.014798170388428955 0.0 0.0
0.08581921995929996 -0.08168324645755742 0.0 -0.016693988828262007 0.0 0.0
0.10074043582361564 -0.0962993316742784 0.0 -0.01819456707368622 0.0 0.0
0.11566921076395645 -0.11091603864561028 0.0 -0.018769332494189883 0.0 0.0
0.12955889181269684 -0.12447636945245133 0.0 -0.017909697568361027 0.0 0.0
0.14089530553325488 -0.13549247313092883 0.0 -0.015132992224776709 0.0 0.0
0.1479390094128188 -0.14230612346858829 0.0 -0.009618432166988544 0.0 0.0
0.14793900941280755 -0.14230612346857852 0.0 0.009618432167025626 0.0 0.0
0.14089530553322335 -0.13549247313090085 0.0 0.015132992224825448 0.0 0.0
0.1295588918126499 -0.12447636945240648 0.0 0.017909697568396665 0.0 0.0
0.11566921076389722 -0.11091603864555033 0.0 0.018769332494206648 0.0 0.0
0.10074043582354966 -0.09629933167421534 0.0 0.018194567073676615 0.0 0.0
0.08581921995923097 -0.08168324645749303 0.0 0.016693988828257122 0.0 0.0
0.07158270734279695 -0.06774571646856575 0.0 0.014798170388424792 0.0 0.0
0.05842379490625163 -0.05487948290618139 0.0 0.012859176779554837 0.0 0.0
0.04651680377537032 -0.04325868440089886 0.0 0.010983035071910674 0.0 0.0
0.035899161325502305 -0.03292383103969332 0.0 0.00909489813018649 0.0 0.0
0.026592195085529763 -0.023899168462249376 0.0 0.007138906873502215 0.0 0.0
0.018678183785191566 -0.016266322633849528 0.0 0.005226964378864607 0.0 0.0
0.012289375905593813 -0.010157630272844331 0.0 0.0035454471331662907 0.0 0.0
0.007517708890268954 -0.005670224497945853 0.0 0.002236341032496425 0.0 0.0
0.004316366322160786 -0.002786484695114222 0.0 0.0013533237260703324 0.0 0.0
0.0025291225136406803 -0.0013132837405914755 0.0 0.0009053178334106349 0.0 0.0
0.001747520854014084 -0.0007595664027668647 0.0 0.0007116455153919343 0.0 0.0
0.0012456221242207466 -0.0004092425780244935 0.0 0.0004341636466793086 0.0 0.0
0.0007640746080726235 -0.00048626956300842905 0.0 0.0005669987920158825 0.0 0.0
0.006092924768308666 -0.0076970482066870405 0.0 0.007829246593316241 0.0 0.0
0.004593635978047579 -0.006199862410595336 0.0 -0.006651850713740082 0.0 0.0
0.00047926076900232234 -0.00036232216126297345 0.0 -0.001160313604249008 0.0 0.0
0.0009654329621456292 -0.0002989359507409306 0.0 -0.0008385806703892773 0.0 0.0
0.0014849062395926385 -0.0006135288719428811 0.0 -0.0009805448883396517 0.0 0.0
0.002115770241598147 -0.001032629259011042 0.0 -0.0011863306433435028 0.0 0.0
0.0035267808479260213 -0.0021312081308959563 0.0 -0.0016478890445056904 0.0 0.0
0.006214456583960248 -0.0044810298467639065 0.0 -0.0026816989935835034 0.0 0.0
0.010368911969971494 -0.008330658783695322 0.0 -0.004305484744074495 0.0 0.0
0.015964984394449308 -0.013651289660223442 0.0 -0.006363030869500019 0.0 0.0
0.022889614677369143 -0.020310065394376853 0.0 -0.008686454559591605 0.0 0.0
0.030994906344499376 -0.02815542498365531 0.0 -0.011054116591315277 0.0 0.0
0.04020036269458188 -0.037103686443821005 0.0 -0.013352521395419537 0.0 0.0
0.050504719787040186 -0.04715075974283911 0.0 -0.015649839711459612 0.0 0.0
0.06190843467069285 -0.058292028966619114 0.0 -0.01798377807335294 0.0 0.0
0.07430140096023483 -0.0704202752604619 0.0 -0.020261380635719195 0.0 0.0
0.08739605896790284 -0.083246415199973 0.0 -0.02215451839978516 0.0 0.0
0.10064784248215959 -0.09621648555330697 0.0 -0.023054685058129132 0.0 0.0
0.11314684103247923 -0.1084181553028154 0.0 -0.022211945543405942 0.0 0.0
0.12357196313934271 -0.1185578784274326 0.0 -0.018666452216460794 0.0 0.0
0.1304183553278763 -0.12519625430864512 0.0 -0.01128302307918616 0.0 0.0
0.13041835532786503 -0.12519625430863268 0.0 0.011283023079231125 0.0 0.0
0.12357196313931426 -0.11855787842739884 0.0 0.01866645221651808 0.0 0.0
0.11314684103243833 -0.10841815530277588 0.0 0.022211945543447298 0.0 0.0
0.1006478424821079 -0.09621648555325857 0.0 0.02305468505814723 0.0 0.0
0.0873960589678453 -0.08324641519991971 0.0 0.022154518399775336 0.0 0.0
0.07430140096017451 -0.07042027526040417 0.0 0.020261380635712034 0.0 0.0
0.06190843467063342 -0.05829202896655605 0.0 0.01798377807334639 0.0 0.0
0.050504719786980595 -0.04715075974277916 0.0 0.015649839711451063 0.0 0.0
0.040200362694525954 -0.03710368644376505 0.0 0.013352521395400885 0.0 0.0
0.030994906344448764 -0.028155424983604238 0.0 0.011054116591298846 0.0 0.0
0.022889614677326142 -0.02031006539433511 0.0 0.008686454559569623 0.0 0.0
0.01596498439441607 -0.013651289660189692 0.0 0.006363030869487418 0.0 0.0
0.010368911969946687 -0.008330658783672451 0.0 0.004305484744061616 0.0 0.0
0.006214456583944955 -0.004481029846751472 0.0 0.002681698993576842 0.0 0.0
0.0035267808479180485 -0.0021312081308906272 0.0 0.0016478890445013605 0.0 0.0
0.0021157702415957325 -0.0010326292590093766 0.0 0.0011863306433423926 0.0 0.0
0.0014849062395921597 -0.000613528871942215 0.0 0.0009805448883384305 0.0 0.0
0.000965432962145879 -0.00029893595074209633 0.0 0.0008385806703868903 0.0 0.0
0.0004792607690022599 -0.00036232216126153016 0.0 0.0011603136042460105 0.0 0.0
0.0045936359780366365 -0.006199862410583018 0.0 0.006651850713722041 0.0 0.0
0.003455534776360042 -0.004982022174275624 0.0 -0.00544899973450369 0.0 0.0
0.00031997925622501144 -0.00029638662643582947 0.0 -0.001622164850466179 0.0 0.0
0.0007304998882016744 -0.00021866651193669373 0.0 -0.001246377263050824 0.0 0.0
0.0012243895900072438 -0.00048469192971745123 0.0 -0.0012760053556373774 0.0 0.0
0.0017474935328966323 -0.0008094989422964272 0.0 -0.0014572186350904626 0.0 0.0
0.002821707550638125 -0.0015852671529581475 0.0 -0.0018929889384918241 0.0 0.0
0.004972346353641174 -0.003380925175161531 0.0 -0.002920502448068907 0.0 0.0
0.008464106466620797 -0.0065438073307446665 0.0 -0.00468791943739344 0.0 0.0
0.013253092832385682 -0.01105557071460539 0.0 -0.007014101640535619 0.0 0.0
0.019175081322434978 -0.016726077001285145 0.0 -0.00959589112707121 0.0 0.0
0.02607542675227198 -0.023387231562457256 0.0 -0.012222234278895683 0.0 0.0
0.03386979540372491 -0.030950160620804468 0.0 -0.01477057509738905 0.0 0.0
0.04257185792353159 -0.03942290572646989 0.0 -0.017313914247134965 0.0 0.0
0.05221762390484931 -0.04883808405403833 0.0 -0.019912726614549625 0.0 0.0
0.06275538819568391 -0.059144121703453845 0.0 -0.02243298055619286 0.0 0.0
0.07398720318829154 -0.07014186927336796 0.0 -0.024550254603877275 0.0 0.0
0.08551268032809134 -0.08142496062679827 0.0 -0.025735562755779928 0.0 0.0
0.09663540823163909 -0.0922887655662441 0.0 -0.025078063908275827 0.0 0.0
0.10627507364445155 -0.10167203106613476 0.0 -0.02120647758991845 0.0 0.0
0.11309471631433363 -0.1082905710185953 0.0 -0.01269217476786444 0.0 0.0
0.11309471631432247 -0.10829057101858641 0.0 0.012692174767912956 0.0 0.0
0.10627507364442648 -0.10167203106611211 0.0 0.0212064775899794 0.0 0.0
0.0966354082316041 -0.09228876556621302 0.0 0.025078063908320902 0.0 0.0
0.08551268032804704 -0.0814249606267552 0.0 0.02573556275580191 0.0 0.0
0.07398720318824203 -0.07014186927331156 0.0 0.024550254603870947 0.0 0.0
0.06275538819563223 -0.05914412170339656 0.0 0.022432980556183035 0.0 0.0
0.05221762390479914 -0.04883808405399037 0.0 0.019912726614542575 0.0 0.0
0.042571857923481005 -0.03942290572642415 0.0 0.017313914247125917 0.0 0.0
0.03386979540367829 -0.03095016062076139 0.0 0.014770575097371008 0.0 0.0
0.02607542675222929 -0.023387231562421285 0.0 0.012222234278876809 0.0 0.0
0.019175081322398646 -0.016726077001250284 0.0 0.009595891127048783 0.0 0.0
0.013253092832357344 -0.011055570714572749 0.0 0.007014101640523851 0.0 0.0
0.00846410646659998 -0.006543807330722906 0.0 0.004687919437382004 0.0 0.0
0.004972346353628948 -0.003380925175150873 0.0 0.002920502448062079 0.0 0.0
0.00282170755063213 -0.0015852671529543727 0.0 0.0018929889384879939 0.0 0.0
0.0017474935328950225 -0.0008094989422948728 0.0 0.0014572186350891858 0.0 0.0
0.001224389590006758 -0.00048469192971645203 0.0 0.0012760053556358786 0.0 0.0
0.0007304998882018965 -0.00021866651193575004 0.0 0.0012463772630489367 0.0 0.0
0.0003199792562247339 -0.00029638662643491354 0.0 0.0016221648504636255 0.0 0.0
0.003455534776351077 -0.004982022174265775 0.0 0.005448999734490478 0.0 0.0
0.0025629156636258754 -0.003964481898929312 0.0 -0.0043979056818087 0.0 0.0
0.0002227180497185871 -0.00025496780623668336 0.0 -0.001965858910092988 0.0 0.0
0.0005331484720067364 -0.00015761344887421647 0.0 -0.0016067543616870572 0.0 0.0
0.0009661002277422948 -0.0003669714465843743 0.0 -0.0015714921956659356 0.0 0.0
0.001412259881494099 -0.0006268705842495947 0.0 -0.0017223401247397074 0.0 0.0
0.0021952095351712997 -0.0011491686529165879 0.0 -0.002112231569868339 0.0 0.0
0.003832001047217981 -0.0024230851429449807 0.0 -0.003060534517737745 0.0 0.0
0.006615060459289043 -0.004854244820216902 0.0 -0.00476624343567722 0.0 0.0
0.010563442646752866 -0.008508099170772443 0.0 -0.007147629991554105 0.0 0.0
0.015475664236149156 -0.01317792862338285 0.0 -0.0098536806224096 0.0 0.0
0.021166220364621444 -0.018649925960572133 0.0 -0.01258023931232316 0.0 0.0
0.027552987276976568 -0.024829077893724794 0.0 -0.015225461455894873 0.0 0.0
0.034657018369003145 -0.03173181039938422 0.0 -0.017863213191869898 0.0 0.0
0.04254175453743936 -0.03941785354048388 0.0 -0.02053833066282179 0.0 0.0
0.05121475391578979 -0.04789091628933617 0.0 -0.023150548584486952 0.0 0.0
0.06055253629640853 -0.05702951391667499 0.0 -0.025396234058638334 0.0 0.0
0.07028802310553836 -0.06656540800178457 0.0 -0.026764786850041855 0.0 0.0
0.07998826130391185 -0.07605313628754296 0.0 -0.026401937898984373 0.0 0.0
0.08888685894130349 -0.08472453498028942 0.0 -0.02272570935617979 0.0 0.0
0.09580192700689319 -0.09143498452131116 0.0 -0.013875137911465218 0.0 0.0
0.09580192700688306 -0.09143498452130183 0.0 0.013875137911512514 0.0 0.0
0.08888685894128187 -0.08472453498026278 0.0 0.02272570935624274 0.0 0.0
0.07998826130388237 -0.07605313628751231 0.0 0.026401937899029115 0.0 0.0
0.07028802310550164 -0.06656540800174993 0.0 0.02676478685006045 0.0 0.0
0.060552536296367004 -0.057029513916636354 0.0 0.025396234058630673 0.0 0.0
0.05121475391574687 -0.04789091628929665 0.0 0.02315054858447607 0.0 0.0
0.04254175453739861 -0.039417853540446135 0.0 0.02053833066281141 0.0 0.0
0.03465701836896265 -0.031731810399347804 0.0 0.017863213191861016 0.0 0.0
0.0275529872769385 -0.024829077893690155 0.0 0.01522546145587933 0.0 0.0
0.02116622036458643 -0.018649925960541047 0.0 0.012580239312303343 0.0 0.0
0.01547566423611954 -0.013177928623359092 0.0 0.009853680622386951 0.0 0.0
0.01056344264672962 -0.008508099170752681 0.0 0.007147629991539339 0.0 0.0
0.006615060459272626 -0.004854244820200471 0.0 0.004766243435665007 0.0 0.0
0.0038320010472085164 -0.002423085142936099 0.0 0.003060534517729807 0.0 0.0
0.002195209535167164 -0.0011491686529128131 0.0 0.0021122315698639538 0.0 0.0
0.0014122598814931275 -0.0006268705842498168 0.0 0.0017223401247358217 0.0 0.0
0.0009661002277415731 -0.0003669714465858176 0.0 0.0015714921956617722 0.0 0.0
0.0005331484720068058 -0.0001576134488743275 0.0 0.0016067543616821722 0.0 0.0
0.00022271804971810139 -0.000254967806236156 0.0 0.001965858910089602 0.0 0.0
0.0025629156636189088 -0.003964481898921035 0.0 0.004397905681798098 0.0 0.0
0.0018578386796638952 -0.003107103208401324 0.0 -0.003530045753862121 0.0 0.0
0.00015407798020550256 -0.00022594390579516732 0.0 -0.0022064238077466602 0.0 0.0
0.00036025512700990636 -0.00010589020807461047 0.0 -0.0018987885138019855 0.0 0.0
0.0007112463064088415 -0.0002534868297783266 0.0 -0.0018425785720961319 0.0 0.0
0.001091488850135311 -0.0004687524879920524 0.0 -0.0019833468212263616 0.0 0.0
0.0016445796762902531 -0.0008049515219594738 0.0 -0.0023008199134921803 0.0 0.0
0.0028002715326963246 -0.001621791072026424 0.0 -0.003098313526326002 0.0 0.0
0.004878513018152619 -0.003327510494825381 0.0 -0.004616004781206495 0.0 0.0
0.007937816337799497 -0.006071207329075623 0.0 -0.006809427511481947 0.0 0.0
0.011816039922937352 -0.009701293209884998 0.0 -0.009421890638743324 0.0 0.0
0.01629220878697156 -0.013976275017820061 0.0 -0.012112313211222303 0.0 0.0
0.021277064910346713 -0.01877522692637079 0.0 -0.014702315443714975 0.0 0.0
0.026791162167480703 -0.02411545232406187 0.0 -0.017264757116855878 0.0 0.0
0.03291762915229701 -0.03007500764284865 0.0 -0.019864177270755845 0.0 0.0
0.03971121662782917 -0.0367035857516087 0.0 -0.022409030519843998 0.0 0.0
0.04712932205253416 -0.04395193853929502 0.0 -0.024612781392608918 0.0 0.0
0.055009657702019155 -0.05167511532217306 0.0 -0.026075126465059772 0.0 0.0
0.06317876526319767 -0.059689060423058216 0.0 -0.02611762958097974 0.0 0.0
0.07127668658171549 -0.0675979667428237 0.0 -0.02314293820103963 0.0 0.0
0.07836102346893731 -0.07446549899462251 0.0 -0.014817255586389577 0.0 0.0
0.07836102346892951 -0.07446549899461496 0.0 0.014817255586433986 0.0 0.0
0.07127668658169753 -0.06759796674280105 0.0 0.02314293820110258 0.0 0.0
0.06317876526317381 -0.059689060423036455 0.0 0.026117629581025814 0.0 0.0
0.05500965770198987 -0.05167511532214464 0.0 0.026075126465079923 0.0 0.0
0.0471293220525007 -0.043951938539266155 0.0 0.02461278139259926 0.0 0.0
0.039711216627795476 -0.036703585751578505 0.0 0.02240903051983356 0.0 0.0
0.0329176291522654 -0.030075007642818008 0.0 0.019864177270745298 0.0 0.0
0.026791162167450616 -0.02411545232403567 0.0 0.017264757116847163 0.0 0.0
0.021277064910317306 -0.018775226926343702 0.0 0.014702315443700709 0.0 0.0
0.016292208786943985 -0.01397627501779386 0.0 0.012112313211204206 0.0 0.0
0.011816039922914634 -0.009701293209861461 0.0 0.009421890638720898 0.0 0.0
0.007937816337781567 -0.00607120732905897 0.0 0.006809427511469401 0.0 0.0
0.004878513018140657 -0.0033275104948136125 0.0 0.004616004781195893 0.0 0.0
0.0028002715326893857 -0.001621791072022205 0.0 0.0030983135263212835 0.0 0.0
0.0016445796762876719 -0.000804951521960362 0.0 0.0023008199134902374 0.0 0.0
0.0010914888501343811 -0.0004687524879921634 0.0 0.001983346821224252 0.0 0.0
0.0007112463064085084 -0.0002534868297787707 0.0 0.0018425785720938004 0.0 0.0
0.0003602551270098231 -0.00010589020807394434 0.0 0.0018987885138003757 0.0 0.0
0.00015407798020505847 -0.00022594390579397383 0.0 0.002206423807745439 0.0 0.0
0.001857838679658691 -0.0031071032083950234 0.0 0.003530045753854405 0.0 0.0
0.0013119536973572737 -0.0024009420383477587 0.0 -0.002850391908656491 0.0 0.0
9.084094962881484e-05 -0.00020141471877993533 0.0 -0.00234719862141497 0.0 0.0
0.00020089339540517448 -5.5560508634533434e-05 0.0 -0.002122132830485013 0.0 0.0
0.0004620971867602408 -0.00014210012424220597 0.0 -0.002068749342284959 0.0 0.0
0.0007677215741622861 -0.0003176647687193057 0.0 -0.0022186647654082736 0.0 0.0
0.0011546569496737324 -0.0005382812309771001 0.0 -0.0025051403126788996 0.0 0.0
0.0018861925142554942 -0.0009921671786417008 0.0 -0.0030991273291647303 0.0 0.0
0.0032840189005085008 -0.002017921799680744 0.0 -0.004283624288332288 0.0 0.0
0.005438222547899135 -0.0038320349561007383 0.0 -0.006096816162400376 0.0 0.0
0.008237590365231709 -0.006368005912547936 0.0 -0.008347541755446164 0.0 0.0
0.011482515924812683 -0.009415196771354495 0.0 -0.010769417411240434 0.0 0.0
0.015067110950269108 -0.012833371711921782 0.0 -0.013147719936508373 0.0 0.0
0.01900400650374051 -0.01662081236362134 0.0 -0.015496415340755687 0.0 0.0
0.023377369000368534 -0.02085861301878067 0.0 -0.017849732902387005 0.0 0.0
0.02828087086975363 -0.025631986632288495 0.0 -0.02017042013350334 0.0 0.0
0.033751802292016506 -0.03096781956259642 0.0 -0.02222075108112509 0.0 0.0
0.0397293449660501 -0.03681381200327305 0.0 -0.02359840173209493 0.0 0.0
0.046206260963956386 -0.043197483104021384 0.0 -0.02397905105593523 0.0 0.0
0.053303692438705114 -0.050176142621544795 0.0 -0.022214612085315943 0.0 0.0
0.06055792884403183 -0.05719995091543417 0.0 -0.015455985589884036 0.0 0.0
0.06055792884402594 -0.057199950915425735 0.0 0.015455985589922672 0.0 0.0
0.05330369243869204 -0.05017614262152792 0.0 0.022214612085373453 0.0 0.0
0.04620626096393826 -0.04319748310400495 0.0 0.023979051055975864 0.0 0.0
0.039729344966028146 -0.03681381200325573 0.0 0.023598401732110252 0.0 0.0
0.03375180229199151 -0.030967819562578214 0.0 0.022220751081113654 0.0 0.0
0.028280870869729607 -0.02563198663226718 0.0 0.02017042013349546 0.0 0.0
0.0233773690003464 -0.020858613018757577 0.0 0.017849732902378235 0.0 0.0
0.019004006503720472 -0.01662081236359647 0.0 0.01549641534074997 0.0 0.0
0.015067110950248708 -0.012833371711900465 0.0 0.01314771993649455 0.0 0.0
0.011482515924793074 -0.009415196771338508 0.0 0.01076941741122317 0.0 0.0
0.008237590365215874 -0.0063680059125375 0.0 0.008347541755425958 0.0 0.0
0.005438222547886951 -0.0038320349560907463 0.0 0.006096816162388163 0.0 0.0
0.0032840189005008402 -0.0020179217996736387 0.0 0.004283624288321852 0.0 0.0
0.0018861925142512614 -0.000992167178637704 0.0 0.0030991273291604005 0.0 0.0
0.0011546569496722614 -0.0005382812309731033 0.0 0.002505140312675569 0.0 0.0
0.0007677215741616894 -0.00031766476871797344 0.0 0.0022186647654059977 0.0 0.0
0.0004620971867601853 -0.00014210012424209495 0.0 0.002068749342283127 0.0 0.0
0.00020089339540474427 -5.556050863431139e-05 0.0 0.0021221328304832365 0.0 0.0
9.084094962832912e-05 -0.0002014147187800741 0.0 0.0023471986214133045 0.0 0.0
0.0013119536973538182 -0.002400942038343125 0.0 0.002850391908650718 0.0 0.0
0.000911543940921189 -0.0018514969991110242 0.0 -0.0023614585538865307 0.0 0.0
1.9011344961267218e-05 -0.0001795586202420485 0.0 -0.002419990758335322 0.0 0.0
4.8442761314465566e-05 -6.843338961060041e-07 0.0 -0.002279775592078981 0.0 0.0
0.0002202384962939341 -3.452527412106665e-05 0.0 -0.002242353621582316 0.0 0.0
0.0004356524996474709 -0.00016130053268548217 0.0 -0.0023962366233017396 0.0 0.0
0.0006873439290636385 -0.00031026432125025316 0.0 -0.00270571519588636 0.0 0.0
0.0010901314874104118 -0.0005284313639379867 0.0 -0.0031455565933954377 0.0 0.0
0.0018558176355376599 -0.0009901669367522459 0.0 -0.003890192333517617 0.0 0.0
0.003116599429288186 -0.0019036527747176013 0.0 -0.005108984292467367 0.0 0.0
0.004803133074368471 -0.003307477465649633 0.0 -0.006736283217571748 0.0 0.0
0.006782602204379151 -0.005077480908628029 0.0 -0.008617311226381208 0.0 0.0
0.00894959390533076 -0.007089496376584847 0.0 -0.010569745733092883 0.0 0.0
0.011316925897486979 -0.009325275457357396 0.0 -0.012566735145107755 0.0 0.0
0.013950314406593306 -0.011849849126617684 0.0 -0.014560648336198523 0.0 0.0
0.016951215999571917 -0.014756330416967778 0.0 -0.016532819383285324 0.0 0.0
0.020436811776365 -0.01814730811853016 0.0 -0.018358083573758344 0.0 0.0
0.024484006492579258 -0.02208421809640848 0.0 -0.01966628959106509 0.0 0.0
0.029164197250748397 -0.026681868824937283 0.0 -0.020117974935748295 0.0 0.0
0.034865865035552945 -0.032389178181059464 0.0 -0.01955866179935528 0.0 0.0
0.04209101684743266 -0.03940352027169336 0.0 -0.01555876321975469 0.0 0.0
0.042091016847428664 -0.03940352027169158 0.0 0.015558763219785443 0.0 0.0
0.03486586503554581 -0.032389178181058575 0.0 0.019558661799405797 0.0 0.0
0.02916419725073563 -0.02668186882493062 0.0 0.020117974935782934 0.0 0.0
0.024484006492565186 -0.022084218096392938 0.0 0.019666289591073194 0.0 0.0
0.020436811776349706 -0.01814730811851417 0.0 0.018358083573745132 0.0 0.0
0.01695121599955779 -0.014756330416958452 0.0 0.016532819383273778 0.0 0.0
0.013950314406581621 -0.01184984912661502 0.0 0.014560648336193749 0.0 0.0
0.01131692589747671 -0.009325275457349402 0.0 0.012566735145105867 0.0 0.0
0.008949593905318853 -0.007089496376572857 0.0 0.010569745733081226 0.0 0.0
0.00678260220436816 -0.005077480908616039 0.0 0.008617311226365998 0.0 0.0
0.004803133074359561 -0.003307477465640085 0.0 0.006736283217556316 0.0 0.0
0.003116599429281719 -0.0019036527747129384 0.0 0.00510898429246065 0.0 0.0
0.0018558176355335798 -0.0009901669367500254 0.0 0.0038901923335124544 0.0 0.0
0.0010901314874084689 -0.0005284313639375426 0.0 0.0031455565933916074 0.0 0.0
0.0006873439290627226 -0.00031026432125025316 0.0 0.002705715195883418 0.0 0.0
0.0004356524996471378 -0.00016130053268526012 0.0 0.0023962366232993526 0.0 0.0
0.0002202384962938786 -3.452527412095563e-05 0.0 0.002242353621578652 0.0 0.0
4.8442761314215765e-05 -6.843338951068034e-07 0.0 0.0022797755920767604 0.0 0.0
1.901134496093415e-05 -0.00017955862024163216 0.0 0.002419990758335322 0.0 0.0
0.0009115439409187465 -0.0018514969991079051 0.0 0.0023614585538846433 0.0 0.0
0.0006293101177561877 -0.0014379710788337274 0.0 -0.0020264680434949334 0.0 0.0
-5.857116799942719e-05 -0.00016165590110467365 0.0 -0.002457028183655674 0.0 0.0
-0.00010001229434980496 5.932789493978685e-05 0.0 -0.002379329353917603 0.0 0.0
-1.4611256201946254e-05 6.943472988030219e-05 0.0 -0.0023587654684066317 0.0 0.0
0.00010098580269835011 -2.332217825751215e-06 0.0 -0.002503389823159008 0.0 0.0
0.0002144446556368862 -8.398012487842443e-05 0.0 -0.0028350741369413957 0.0 0.0
0.00035587639723350106 -0.00016659643461447438 0.0 -0.003284870251597405 0.0 0.0
0.0005925710830566866 -0.0002864743036552486 0.0 -0.0037557036037882408 0.0 0.0
0.0010032208730904324 -0.0005002239559703803 0.0 -0.004329152100829292 0.0 0.0
0.0015652853512421738 -0.0008445060144608441 0.0 -0.005165674428723843 0.0 0.0
0.002232864251186961 -0.0013071086647982177 0.0 -0.0063356699887301415 0.0 0.0
0.002951823538555526 -0.0018651107967850855 0.0 -0.00773662339159531 0.0 0.0
0.003732170183960243 -0.0025238234066438103 0.0 -0.009324067706728667 0.0 0.0
0.004613992931347066 -0.0033171613211306905 0.0 -0.011068761650159686 0.0 0.0
0.0056950767974085215 -0.004328609451909049 0.0 -0.01294821991246764 0.0 0.0
0.007156547276209735 -0.0057197282676439976 0.0 -0.014827598654695517 0.0 0.0
0.009247783169988477 -0.007714159040374202 0.0 -0.01631920411649368 0.0 0.0
0.012180605991028298 -0.010507907142883965 0.0 -0.01680480291932085 0.0 0.0
0.016210078963212526 -0.014521746215178766 0.0 -0.016311608075476713 0.0 0.0
0.022605516272353632 -0.02096443726077757 0.0 -0.015137887861418009 0.0 0.0
0.02260551627235166 -0.020964437260780233 0.0 0.01513788786144421 0.0 0.0
0.01621007896320975 -0.014521746215173437 0.0 0.01631160807551635 0.0 0.0
0.012180605991022053 -0.01050790714287908 0.0 0.01680480291934361 0.0 0.0
0.009247783169983148 -0.007714159040367097 0.0 0.0163192041164959 0.0 0.0
0.007156547276205405 -0.005719728267639557 0.0 0.014827598654682306 0.0 0.0
0.005695076797404497 -0.004328609451901944 0.0 0.012948219912458425 0.0 0.0
0.004613992931345567 -0.0033171613211258055 0.0 0.01106876165015347 0.0 0.0
0.0037321701839591603 -0.0025238234066433662 0.0 0.009324067706722783 0.0 0.0
0.0029518235385531943 -0.0018651107967802005 0.0 0.007736623391585318 0.0 0.0
0.002232864251184963 -0.00130710866479955 0.0 0.006335669988718706 0.0 0.0
0.0015652853512402864 -0.0008445060144643968 0.0 0.00516567442871485 0.0 0.0
0.0010032208730892112 -0.0005002239559734889 0.0 0.00432915210082474 0.0 0.0
0.0005925710830556319 -0.00028647430365547066 0.0 0.0037557036037842995 0.0 0.0
0.000355876397233168 -0.00016659643461225393 0.0 0.003284870251595018 0.0 0.0
0.0002144446556368862 -8.398012487531581e-05 0.0 0.002835074136937177 0.0 0.0
0.00010098580269840562 -2.332217826861438e-06 0.0 0.0025033898231578977 0.0 0.0
-1.4611256202001766e-05 6.94347298813014e-05 0.0 0.002358765468405355 0.0 0.0
-0.00010001229435019354 5.9327894939953385e-05 0.0 0.0023793293539152716 0.0 0.0
-5.8571167999371676e-05 -0.00016165590110506223 0.0 0.00245702818365362 0.0 0.0
0.0006293101177546889 -0.001437971078831684 0.0 0.0020264680434918247 0.0 0.0
0.00043266497291641337 -0.001138017780296402 0.0 -0.0018125880125339777 0.0 0.0
-0.00013252188405640797 -0.0001390222518973805 0.0 -0.002457937403615107 0.0 0.0
-0.0002439582682068897 0.0001192752880389003 0.0 -0.002427565846055413 0.0 0.0
-0.0002427227132558718 0.0001703243871026272 0.0 -0.002413176640434722 0.0 0.0
-0.00023028178412101696 0.00015491442023263247 0.0 -0.0025392729833872973 0.0 0.0
-0.0002632484926337886 0.00014529086434977856 0.0 -0.0028506086607341663 0.0 0.0
-0.00037105728832506624 0.00018232726049838277 0.0 -0.0032901819201046623 0.0 0.0
-0.0005961057572181072 0.0002895967515819109 0.0 -0.0037593758504206876 0.0 0.0
-0.0010023960610210103 0.0005002743455753134 0.0 -0.004330741246906744 0.0 0.0
-0.0015636573426891787 0.0008438778410870817 0.0 -0.00516409423312697 0.0 0.0
-0.00223665310071941 0.0013137055013818788 0.0 -0.0063350479965111894 0.0 0.0
-0.0029814214742964196 0.0018952197451875819 0.0 -0.00774235150707836 0.0 0.0
-0.003804020077909448 0.0025865972016605454 0.0 -0.00933195521105512 0.0 0.0
-0.004689780418495937 0.003361134966920698 0.0 -0.011075157801859858 0.0 0.0
-0.005539820916632132 0.004115143650083031 0.0 -0.012968090970831292 0.0 0.0
-0.0061300941718051005 0.004631856741769358 0.0 -0.01496825976741234 0.0 0.0
-0.006086519796200257 0.004567832236614944 0.0 -0.01704325283017316 0.0 0.0
-0.005033159379197405 0.003670445200020911 0.0 -0.01923217699706392 0.0 0.0
-0.0026701853561464373 0.0018123265163230151 0.0 -0.021194892538539456 0.0 0.0
0.0031491776760642076 -0.00363521731474048 0.0 -0.019711380241206777 0.0 0.0
0.0031491776760624035 -0.0036352173147382594 0.0 0.01971138024122021 0.0 0.0
-0.0026701853561467426 0.001812326516322127 0.0 0.021194892538556442 0.0 0.0
-0.0050331593791948515 0.003670445200020467 0.0 0.019232176997066586 0.0 0.0
-0.006086519796195067 0.004567832236612279 0.0 0.01704325283016528 0.0 0.0
-0.006130094171797301 0.004631856741763585 0.0 0.014968259767399128 0.0 0.0
-0.005539820916625832 0.004115143650078146 0.0 0.012968090970822077 0.0 0.0
-0.004689780418488831 0.0033611349669175894 0.0 0.011075157801850644 0.0 0.0
-0.003804020077900455 0.0025865972016552163 0.0 0.009331955211046905 0.0 0.0
-0.002981421474288759 0.0018952197451804764 0.0 0.007742351507066925 0.0 0.0
-0.002236653100711833 0.0013137055013769938 0.0 0.006335047996498644 0.0 0.0
-0.0015636573426840716 0.000843877841083529 0.0 0.005164094233117811 0.0 0.0
-0.001002396061017402 0.0005002743455679859 0.0 0.004330741246902636 0.0 0.0
-0.0005961057572161088 0.00028959675158213294 0.0 0.003759375850417579 0.0 0.0
-0.00037105728832381724 0.0001823272604974946 0.0 0.0032901819201017757 0.0 0.0
-0.0002632484926330947 0.00014529086434866834 0.0 0.0028506086607311687 0.0 0.0
-0.00023028178412060063 0.0001549144202322994 0.0 0.0025392729833839667 0.0 0.0
-0.00024272271325576078 0.00017032438710340436 0.0 0.0024131766404325017 0.0 0.0
-0.00024395826820747257 0.00011927528803901133 0.0 0.002427565846054691 0.0 0.0
-0.00013252188405640797 -0.00013902225189721396 0.0 0.002457937403615218 0.0 0.0
0.000432664972915775 -0.0011380177802955676 0.0 0.0018125880125314797 0.0 0.0
0.0002970805603108029 -0.0009037041069606122 0.0 -0.0016384671584234733 0.0 0.0
-0.00019911537887193353 -0.00010835659990210411 0.0 -0.002409289458719044 0.0 0.0
-0.0003811884895239259 0.0001760159824879537 0.0 -0.0024232903306369846 0.0 0.0
-0.00046302892469005097 0.00026698427951876713 0.0 -0.002401345387753606 0.0 0.0
-0.0005548915013644795 0.00030714579413393395 0.0 -0.0024978140206871613 0.0 0.0
-0.0007333849791493208 0.00037012458126572945 0.0 -0.002756816186394895 0.0 0.0
-0.0011048648310025 0.0005447274860985729 0.0 -0.0031687112004886164 0.0 0.0
-0.001858285851737862 0.0009935695055951488 0.0 -0.0039018619438459523 0.0 0.0
-0.003114417283771126 0.0019025880580754162 0.0 -0.005110851427827301 0.0 0.0
-0.004801486095599938 0.003307325525260474 0.0 -0.00673486475289542 0.0 0.0
-0.006788619422285785 0.0050868392662217765 0.0 -0.00861664481788671 0.0 0.0
-0.008978504305539092 0.007122634432756403 0.0 -0.010560237204790934 0.0 0.0
-0.011383176610256063 0.009389960663604757 0.0 -0.012529769290616222 0.0 0.0
-0.014015739984841485 0.011890837329482373 0.0 -0.01451389032974748 0.0 0.0
-0.01679146132656914 0.014530094049519438 0.0 -0.01660044417545037 0.0 0.0
-0.019451415024166058 0.017053097212385016 0.0 -0.018876760241116064 0.0 0.0
-0.02155279873215002 0.01903869342108333 0.0 -0.021419286803088133 0.0 0.0
-0.02254865052701288 0.0199623333906378 0.0 -0.02413739264952708 0.0 0.0
-0.02145451683399749 0.01859578024574704 0.0 -0.025327606340407316 0.0 0.0
-0.015424027194521295 0.01231776361405057 0.0 -0.023007174505817685 0.0 0.0
-0.015424027194522794 0.012317763614047461 0.0 0.02300717450584755 0.0 0.0
-0.021454516833995685 0.018595780245755478 0.0 0.02532760634044806 0.0 0.0
-0.022548650527001834 0.01996233339063158 0.0 0.024137392649550504 0.0 0.0
-0.021552798732133865 0.019038693421072228 0.0 0.021419286803088244 0.0 0.0
-0.019451415024146934 0.01705309721236592 0.0 0.018876760241101853 0.0 0.0
-0.016791461326552598 0.014530094049499898 0.0 0.016600444175436824 0.0 0.0
-0.014015739984825318 0.011890837329468606 0.0 0.014513890329736767 0.0 0.0
-0.011383176610237244 0.009389960663586994 0.0 0.012529769290605675 0.0 0.0
-0.008978504305521579 0.0071226344327395275 0.0 0.010560237204775502 0.0 0.0
-0.0067886194222697704 0.005086839266211118 0.0 0.008616644817867225 0.0 0.0
-0.004801486095587046 0.0033073255252489275 0.0 0.006734864752875491 0.0 0.0
-0.0031144172837622303 0.001902588058064092 0.0 0.005110851427819918 0.0 0.0
-0.001858285851732533 0.0009935695055895977 0.0 0.0039018619438419555 0.0 0.0
-0.001104864830999544 0.0005447274860972406 0.0 0.003168711200484453 0.0 0.0
-0.0007333849791482105 0.00037012458126417513 0.0 0.002756816186391009 0.0 0.0
-0.0005548915013638134 0.0003071457941318245 0.0 0.002497814020685052 0.0 0.0
-0.0004630289246895375 0.0002669842795175459 0.0 0.002401345387752052 0.0 0.0
-0.00038118848952402307 0.00017601598248767614 0.0 0.002423290330634875 0.0 0.0
-0.00019911537887187802 -0.00010835659990196533 0.0 0.002409289458719266 0.0 0.0
0.0002970805603103588 -0.0009037041069596807 0.0 0.0016384671584221966 0.0 0.0
0.0001969475227894535 -0.0006977803728344112 0.0 -0.001452760859715907 0.0 0.0
-0.00025907146813114457 -7.13882638048724e-05 0.0 -0.0023073899534347686 0.0 0.0
-0.0005100527593767668 0.000229044579837967 0.0 -0.002361521918388565 0.0 0.0
-0.000674482726293224 0.00035798331409520046 0.0 -0.0023251300972365607 0.0 0.0
-0.0008687347714081417 0.00045011436238695524 0.0 -0.002377100261600762 0.0 0.0
-0.00119669247139087 0.0005964944643985781 0.0 -0.0025872874210823293 0.0 0.0
-0.0018989220190758493 0.0010098981028325849 0.0 -0.0031370771059470726 0.0 0.0
-0.0032828199064280084 0.0020191669527769296 0.0 -0.004296507503579461 0.0 0.0
-0.005434675837190345 0.0038292677996409896 0.0 -0.006094267726921565 0.0 0.0
-0.008237590967030334 0.006369016459633947 0.0 -0.008346141960386022 0.0 0.0
-0.011489981700500779 0.009425167967347825 0.0 -0.010767271683940871 0.0 0.0
-0.015089710568673476 0.012859942935557811 0.0 -0.013118446865380884 0.0 0.0
-0.019050823493062696 0.01666800540809943 0.0 -0.015392158370647002 0.0 0.0
-0.023418270726006246 0.0208814443017431 0.0 -0.017683044990699615 0.0 0.0
-0.02813154219958061 0.025427390605497813 0.0 -0.02020140217403632 0.0 0.0
-0.03290631348634421 0.030026161692929154 0.0 -0.023228510279926784 0.0 0.0
-0.03719711721042859 0.034147718273775496 0.0 -0.026944296436469006 0.0 0.0
-0.04009042414710132 0.0368236324807758 0.0 -0.030656913522463802 0.0 0.0
-0.039820222961092555 0.036277013554141035 0.0 -0.03253476544171119 0.0 0.0
-0.03296212118175809 0.028755416257890243 0.0 -0.02884863293890616 0.0 0.0
-0.03296212118175734 0.02875541625789424 0.0 0.02884863293894402 0.0 0.0
-0.039820222961086976 0.0362770135541397 0.0 0.03253476544176248 0.0 0.0
-0.040090424147084136 0.03682363248076559 0.0 0.030656913522497442 0.0 0.0
-0.0371971172104036 0.03414771827375329 0.0 0.026944296436474502 0.0 0.0
-0.03290631348631538 0.030026161692903397 0.0 0.02322851027991446 0.0 0.0
-0.02813154219955409 0.02542739060547694 0.0 0.020201402174020777 0.0 0.0
-0.023418270725980156 0.02088144430171912 0.0 0.017683044990685626 0.0 0.0
-0.019050823493034788 0.01666800540807012 0.0 0.015392158370635955 0.0 0.0
-0.015089710568646733 0.012859942935532498 0.0 0.013118446865361733 0.0 0.0
-0.011489981700476451 0.0094251679673234 0.0 0.010767271683917612 0.0 0.0
-0.008237590967009392 0.006369016459612187 0.0 0.008346141960363151 0.0 0.0
-0.005434675837175884 0.0038292677996301094 0.0 0.006094267726908242 0.0 0.0
-0.0032828199064186547 0.002019166952768936 0.0 0.004296507503571301 0.0 0.0
-0.0018989220190707284 0.0010098981028290321 0.0 0.0031370771059432423 0.0 0.0
-0.0011966924713891353 0.0005964944643990222 0.0 0.002587287421079998 0.0 0.0
-0.0008687347714070454 0.0004501143623892867 0.0 0.002377100261599485 0.0 0.0
-0.0006744827262928077 0.00035798331409719886 0.0 0.0023251300972348954 0.0 0.0
-0.0005100527593763782 0.00022904457983907722 0.0 0.002361521918387066 0.0 0.0
-0.0002590714681309364 -7.138826380448382e-05 0.0 0.0023073899534343245 0.0 0.0
0.00019694752278909267 -0.000697780372833445 0.0 0.0014527608597141861 0.0 0.0
0.00011358773164757419 -0.000513705125681746 0.0 -0.0012604780637370805 0.0 0.0
-0.0003146920192579894 -2.8116648829679125e-05 0.0 -0.0021506548677285853 0.0 0.0
-0.000630680927594468 0.0002787159775934356 0.0 -0.0022459918653018884 0.0 0.0
-0.0008764809763642245 0.00044171165751538677 0.0 -0.0021917149876821695 0.0 0.0
-0.0011677203242908274 0.0005840512423866961 0.0 -0.0021887654302605863 0.0 0.0
-0.001681548946180944 0.0008613722480488306 0.0 -0.002410123572914147 0.0 0.0
-0.0028065950401633954 0.0016367829525845146 0.0 -0.0031411467115055047 0.0 0.0
-0.004873192291624001 0.003323984090599197 0.0 -0.004619205253904857 0.0 0.0
-0.007934708617584357 0.006068146162559351 0.0 -0.006803853457653775 0.0 0.0
-0.01181859160100443 0.009704458103779068 0.0 -0.009421547148396048 0.0 0.0
-0.01629984205674695 0.013985357179629343 0.0 -0.012108859892122292 0.0 0.0
-0.02128741179210497 0.01878798933468362 0.0 -0.014656651759463402 0.0 0.0
-0.026801508215836545 0.02412744717242754 0.0 -0.017101354780306832 0.0 0.0
-0.032911861223909294 0.030061061398191313 0.0 -0.019575211555985517 0.0 0.0
-0.039588768663650326 0.03654708274145291 0.0 -0.022362290945181607 0.0 0.0
-0.046542368963780584 0.04328598413585594 0.0 -0.025903544268473633 0.0 0.0
-0.05303369057181931 0.04953053306994537 0.0 -0.030364538698477994 0.0 0.0
-0.05763632693960763 0.053841452966324255 0.0 -0.03491507799862492 0.0 0.0
-0.05788385039758981 0.05367177599443895 0.0 -0.03717056044768963 0.0 0.0
-0.04935303736484603 0.0444882418256336 0.0 -0.03376485515894889 0.0 0.0
-0.04935303736484295 0.04448824182562472 0.0 0.033764855158991414 0.0 0.0
-0.057883850397579234 0.05367177599442563 0.0 0.037170560447745804 0.0 0.0
-0.0576363269395848 0.05384145296630205 0.0 0.03491507799866561 0.0 0.0
-0.05303369057178667 0.049530533069914284 0.0 0.030364538698487376 0.0 0.0
-0.04654236896374318 0.04328598413582041 0.0 0.02590354426846514 0.0 0.0
-0.03958876866361412 0.03654708274141871 0.0 0.02236229094516673 0.0 0.0
-0.03291186122387359 0.030061061398160227 0.0 0.019575211555970806 0.0 0.0
-0.026801508215799463 0.024127447172397787 0.0 0.017101354780292788 0.0 0.0
-0.021287411792069333 0.018787989334652977 0.0 0.014656651759445194 0.0 0.0
-0.01629984205671435 0.013985357179598257 0.0 0.012108859892097257 0.0 0.0
-0.011818591600975925 0.009704458103747315 0.0 0.00942154714837068 0.0 0.0
-0.007934708617564262 0.006068146162541366 0.0 0.006803853457638898 0.0 0.0
-0.004873192291610165 0.0033239840905914253 0.0 0.004619205253894532 0.0 0.0
-0.0028065950401555684 0.0016367829525785194 0.0 0.003141146711497844 0.0 0.0
-0.0016815489461779048 0.000861372248045944 0.0 0.002410123572909484 0.0 0.0
-0.00116772032428962 0.0005840512423863631 0.0 0.002188765430258477 0.0 0.0
-0.0008764809763638082 0.0004417116575141655 0.0 0.002191714987680171 0.0 0.0
-0.0006306809275939684 0.00027871597759238087 0.0 0.002245991865299779 0.0 0.0
-0.00031469201925765633 -2.811664882970688e-05 0.0 0.002150654867727253 0.0 0.0
0.00011358773164732439 -0.0005137051256812863 0.0 0.0012604780637360813 0.0 0.0
4.10411548594225e-05 -0.0003511711850623378 0.0 -0.001063572331245266 0.0 0.0
-0.00036858987413954103 2.0367496295192744e-05 0.0 -0.0019429943826214102 0.0 0.0
-0.000744003068419985 0.00032585857184530553 0.0 -0.002073454495985949 0.0 0.0
-0.0010669176143699999 0.0005161371499464718 0.0 -0.0019927441990018613 0.0 0.0
-0.0014590139650124123 0.0007186519801041236 0.0 -0.001953019090464414 0.0 0.0
-0.0022221909423350283 0.0011958818738426746 0.0 -0.0022205301230347474 0.0 0.0
-0.0038306837859852505 0.002430377786354132 0.0 -0.003089058117781207 0.0 0.0
-0.006608208120563064 0.0048476816543217005 0.0 -0.004762228355353559 0.0 0.0
-0.010562417706544064 0.008506678402429912 0.0 -0.007140652735662889 0.0 0.0
-0.015480664186723087 0.013183146414821767 0.0 -0.009853280158653999 0.0 0.0
-0.021172369273241065 0.01865633476357953 0.0 -0.012573030618556302 0.0 0.0
-0.027546547308034103 0.02482302209590115 0.0 -0.015168047771986437 0.0 0.0
-0.03461882203386499 0.03169620816157526 0.0 -0.017668216066485498 0.0 0.0
-0.04247048438553852 0.03935092418217101 0.0 -0.020177741696219442 0.0 0.0
-0.051117786765523865 0.0477839793021797 0.0 -0.0229974889257889 0.0 0.0
-0.060253110670217824 0.05666187080951879 0.0 -0.026605560340462464 0.0 0.0
-0.06890120998977664 0.06499377698971598 0.0 -0.03125179998629868 0.0 0.0
-0.0750980183740256 0.07079973664494688 0.0 -0.03620314326274099 0.0 0.0
-0.07556132633805177 0.070772654898561 0.0 -0.03925194843690338 0.0 0.0
-0.06530242319190196 0.05992513658029219 0.0 -0.03815846618825525 0.0 0.0
-0.06530242319189758 0.05992513658028553 0.0 0.0381584661883001 0.0 0.0
-0.07556132633803592 0.0707726548985459 0.0 0.03925194843695934 0.0 0.0
-0.07509801837399661 0.07079973664491801 0.0 0.0362031432627819 0.0 0.0
-0.06890120998973719 0.06499377698967468 0.0 0.03125179998630917 0.0 0.0
-0.06025311067017253 0.05666187080947305 0.0 0.02660556034045658 0.0 0.0
-0.05111778676547868 0.04778397930213485 0.0 0.02299748892577408 0.0 0.0
-0.04247048438549256 0.03935092418212793 0.0 0.020177741696204565 0.0 0.0
-0.03461882203381905 0.03169620816152774 0.0 0.01766821606647323 0.0 0.0
-0.02754654730798929 0.024823022095854075 0.0 0.015168047771968063 0.0 0.0
-0.021172369273200792 0.018656334763540006 0.0 0.012573030618531766 0.0 0.0
-0.01548066418668799 0.013183146414791125 0.0 0.009853280158629185 0.0 0.0
-0.010562417706517932 0.0085066784024046 0.0 0.007140652735646069 0.0 0.0
-0.006608208120544773 0.004847681654304159 0.0 0.0047622283553415135 0.0 0.0
-0.0038306837859744813 0.0024303777863461384 0.0 0.003089058117771659 0.0 0.0
-0.0022221909423303654 0.0011958818738388999 0.0 0.002220530123030251 0.0 0.0
-0.0014590139650108164 0.0007186519801024582 0.0 0.0019530190904630818 0.0 0.0
-0.0010669176143694309 0.0005161371499455836 0.0 0.001992744199001084 0.0 0.0
-0.0007440030684196797 0.0003258585718462492 0.0 0.0020734544959833956 0.0 0.0
-0.0003685898741389998 2.03674962949707e-05 0.0 0.0019429943826194673 0.0 0.0
4.10411548591727e-05 -0.0003511711850618087 0.0 0.001063572331242879 0.0 0.0
-2.1482324028210265e-05 -0.00021169650332378276 0.0 -0.0008612007826461765 0.0 0.0
-0.00042124194527259906 7.211402152390578e-05 0.0 -0.0016899941863688928 0.0 0.0
-0.0008508450662923495 0.0003703047392706882 0.0 -0.0018448530680942876 0.0 0.0
-0.0012464166044779679 0.0005844278400690683 0.0 -0.0017450618256992234 0.0 0.0
-0.0017609453662434937 0.0008741426478238168 0.0 -0.0016969038910922274 0.0 0.0
-0.0028322385575727527 0.0016173218990205296 0.0 -0.0019979753819023283 0.0 0.0
-0.004966912580326693 0.0033812530598469337 0.0 -0.0029372979496083973 0.0 0.0
-0.008458938048633458 0.006537943293083881 0.0 -0.00467711496970602 0.0 0.0
-0.01325496236654733 0.011056841495354464 0.0 -0.007007981301242083 0.0 0.0
-0.019181584936677487 0.016732450458324166 0.0 -0.00959543969638238 0.0 0.0
-0.026077822374371645 0.023388855699258748 0.0 -0.012210112850987387 0.0 0.0
-0.03384413897892857 0.030923280642749962 0.0 -0.014706480974124969 0.0 0.0
-0.04248395557183379 0.039338191908339315 0.0 -0.01712566202932675 0.0 0.0
-0.05207323643888004 0.0487080005547349 0.0 -0.019559910297212157 0.0 0.0
-0.06264556236050159 0.05904528436270695 0.0 -0.02215679806060533 0.0 0.0
-0.07389243053889749 0.06999637492217348 0.0 -0.02533004127602867 0.0 0.0
-0.08463539853919033 0.08035354334695022 0.0 -0.029594438922406874 0.0 0.0
-0.09235912689562034 0.08759938272586698 0.0 -0.034711121838883474 0.0 0.0
-0.0930549535331171 0.08776161033241126 0.0 -0.03933465177423945 0.0 0.0
-0.0813182955591934 0.07547507496267203 0.0 -0.04232959687492577 0.0 0.0
-0.08131829555918782 0.07547507496266403 0.0 0.04232959687496851 0.0 0.0
-0.09305495353309585 0.08776161033238683 0.0 0.03933465177429557 0.0 0.0
-0.09235912689558501 0.08759938272583145 0.0 0.034711121838923775 0.0 0.0
-0.08463539853914412 0.08035354334690359 0.0 0.029594438922416866 0.0 0.0
-0.07389243053884502 0.06999637492211974 0.0 0.025330041276022452 0.0 0.0
-0.06264556236044697 0.059045284362648776 0.0 0.022156798060596228 0.0 0.0
-0.05207323643882483 0.048708000554682496 0.0 0.01955991029720039 0.0 0.0
-0.04248395557177877 0.039338191908286024 0.0 0.017125662029311872 0.0 0.0
-0.033844138978874866 0.03092328064269667 0.0 0.014706480974107872 0.0 0.0
-0.026077822374323517 0.023388855699214783 0.0 0.012210112850962462 0.0 0.0
-0.019181584936636353 0.016732450458283088 0.0 0.009595439696358787 0.0 0.0
-0.013254962366515272 0.011056841495323155 0.0 0.007007981301227095 0.0 0.0
-0.008458938048610573 0.00653794329306101 0.0 0.00467711496969575 0.0 0.0
-0.004966912580312427 0.0033812530598353874 0.0 0.0029372979495995155 0.0 0.0
-0.0028322385575662856 0.0016173218990160887 0.0 0.001997975381897832 0.0 0.0
-0.0017609453662412594 0.000874142647824705 0.0 0.0016969038910890633 0.0 0.0
-0.0012464166044773017 0.0005844278400685132 0.0 0.001745061825697225 0.0 0.0
-0.0008508450662919886 0.00037030473926996654 0.0 0.0018448530680932884 0.0 0.0
-0.0004212419452721966 7.211402152446089e-05 0.0 0.001689994186367949 0.0 0.0
-2.148232402823802e-05 -0.00021169650332348786 0.0 0.0008612007826445112 0.0 0.0
-7.233832928638106e-05 -9.768409864871486e-05 0.0 -0.00065254048303931 0.0 0.0
-0.0004707271657455603 0.00012429173069478106 0.0 -0.0013966688588460952 0.0 0.0
-0.0009519413176282687 0.0004120337984263589 0.0 -0.0015603152072390936 0.0 0.0
-0.0014201240495375633 0.0006499247760792803 0.0 -0.0014479188254524211 0.0 0.0
-0.0020913550326700503 0.0010595224342051512 0.0 -0.0014006959293536014 0.0 0.0
-0.0035200118326263463 0.002141966369606063 0.0 -0.0017276447731851552 0.0 0.0
-0.006209214922273304 0.004477341442913341 0.0 -0.0026838222424157565 0.0 0.0
-0.010368359117448267 0.008329140705637617 0.0 -0.004292411016163289 0.0 0.0
-0.01596984339873317 0.013655497452785603 0.0 -0.006358419089746159 0.0 0.0
-0.022896175550306208 0.020316100687109095 0.0 -0.008685312996384309 0.0 0.0
-0.030990809337913372 0.028149909401519402 0.0 -0.011036757227313121 0.0 0.0
-0.040155299346425644 0.03705692777039582 0.0 -0.01328861873932885 0.0 0.0
-0.05037690102266443 0.04702636480538569 0.0 -0.015499402838238474 0.0 0.0
-0.06169687022947348 0.05809741588153905 0.0 -0.017710375012451318 0.0 0.0
-0.07411270693026345 0.07025607023687774 0.0 -0.0199142299707028 0.0 0.0
-0.08731531702148951 0.0831420668834073 0.0 -0.022270990814245106 0.0 0.0
-0.10004646191548966 0.09542956973019256 0.0 -0.02548512999825525 0.0 0.0
-0.10936862262389713 0.10419880386382152 0.0 -0.030478105966446956 0.0 0.0
-0.11061576989781732 0.1048567446419808 0.0 -0.03747652166385751 0.0 0.0
-0.09780053146684614 0.0914970031935951 0.0 -0.04626385642496078 0.0 0.0
-0.09780053146683826 0.09149700319358844 0.0 0.046263856425000305 0.0 0.0
-0.11061576989779162 0.10485674464196038 0.0 0.03747652166391008 0.0 0.0
-0.10936862262385531 0.104198803863786 0.0 0.030478105966481928 0.0 0.0
-0.10004646191543615 0.09542956973014505 0.0 0.0254851299982638 0.0 0.0
-0.08731531702142954 0.08314206688334647 0.0 0.0222709908142405 0.0 0.0
-0.07411270693019939 0.07025607023681468 0.0 0.019914229970696307 0.0 0.0
-0.06169687022940931 0.058097415881475545 0.0 0.01771037501244188 0.0 0.0
-0.050376901022600576 0.04702636480532574 0.0 0.015499402838225984 0.0 0.0
-0.040155299346363235 0.037056927770339865 0.0 0.013288618739314001 0.0 0.0
-0.03099080933785745 0.028149909401467 0.0 0.011036757227290889 0.0 0.0
-0.022896175550258836 0.02031610068706291 0.0 0.00868531299636452 0.0 0.0
-0.01596984339869561 0.013655497452749632 0.0 0.006358419089733974 0.0 0.0
-0.010368359117421011 0.008329140705613192 0.0 0.0042924110161541296 0.0 0.0
-0.00620921492225579 0.004477341442894689 0.0 0.002683822242406153 0.0 0.0
-0.0035200118326177005 0.0021419663695967373 0.0 0.0017276447731799927 0.0 0.0
-0.0020913550326669417 0.0010595224342025977 0.0 0.0014006959293524912 0.0 0.0
-0.0014201240495367098 0.0006499247760787252 0.0 0.0014479188254522546 0.0 0.0
-0.0009519413176274846 0.000412033798426803 0.0 0.0015603152072378723 0.0 0.0
-0.00047072716574503293 0.00012429173069489208 0.0 0.0013966688588442078 0.0 0.0
-7.233832928638106e-05 -9.768409864833669e-05 0.0 0.0006525404830383663 0.0 0.0
-0.00010780787280567639 -1.2347021668773772e-05 0.0 -0.00043919738797942864 0.0 0.0
-0.0005122809557178143 0.0001731989061379835 0.0 -0.0010657184686094223 0.0 0.0
-0.0010480465483092005 0.00045007298908095184 0.0 -0.001218578093645506 0.0 0.0
-0.0015964261350849829 0.0007223521697933277 0.0 -0.0011066019574853536 0.0 0.0
-0.0024660024410163017 0.0012969031190259717 0.0 -0.0010680537164994286 0.0 0.0
-0.004297227659549346 0.002776458864255149 0.0 -0.0014055257699807644 0.0 0.0
-0.007517600862466028 0.005668910026241036 0.0 -0.0022303961500872993 0.0 0.0
-0.012294955936616059 0.010162246428739197 0.0 -0.0035331841797032193 0.0 0.0
-0.018685603860426336 0.0162731338242863 0.0 -0.005224119132826499 0.0 0.0
-0.026597117769372874 0.02390319940488661 0.0 -0.007136558285576133 0.0 0.0
-0.035886324121505636 0.03290941386706203 0.0 -0.009074853494373869 0.0 0.0
-0.046454126680497226 0.04319493352780768 0.0 -0.010927960359259137 0.0 0.0
-0.05827000221600473 0.054729088332932996 0.0 -0.012758982955873965 0.0 0.0
-0.07131987888442931 0.06749607464745688 0.0 -0.014633063703041627 0.0 0.0
-0.08549454272517396 0.08138175836354877 0.0 -0.016379160992304853 0.0 0.0
-0.10041034030317653 0.09597103636040671 0.0 -0.0177137497332156 0.0 0.0
-0.11490473585109706 0.1100214504715793 0.0 -0.019223946789658664 0.0 0.0
-0.12604673409715914 0.12052510770270786 0.0 -0.023459180784910383 0.0 0.0
-0.1284574225569135 0.12225972834072074 0.0 -0.033244081785294366 0.0 0.0
-0.11518869425449985 0.10839157913876996 0.0 -0.0496442409933987 0.0 0.0
-0.11518869425448938 0.1083915791387633 0.0 0.04964424099342846 0.0 0.0
-0.1284574225568833 0.12225972834069543 0.0 0.03324408178533772 0.0 0.0
-0.12604673409711062 0.12052510770266256 0.0 0.023459180784942524 0.0 0.0
-0.11490473585103556 0.11002145047152112 0.0 0.019223946789663604 0.0 0.0
-0.10041034030310818 0.09597103636034365 0.0 0.017713749733215045 0.0 0.0
-0.08549454272510155 0.08138175836348482 0.0 0.016379160992304187 0.0 0.0
-0.0713198788843559 0.06749607464738405 0.0 0.014633063703033411 0.0 0.0
-0.058270002215931704 0.05472908833285972 0.0 0.012758982955863585 0.0 0.0
-0.046454126680426824 0.04319493352773174 0.0 0.01092796035924734 0.0 0.0
-0.035886324121441895 0.032909413866997195 0.0 0.009074853494355745 0.0 0.0
-0.026597117769319237 0.023903199404835096 0.0 0.007136558285557981 0.0 0.0
-0.018685603860383933 0.016273133824244113 0.0 0.005224119132815147 0.0 0.0
-0.012294955936584424 0.010162246428707666 0.0 0.003533184179694615 0.0 0.0
-0.007517600862445399 0.005668910026222829 0.0 0.0022303961500786396 0.0 0.0
-0.004297227659538418 0.0027764588642473775 0.0 0.001405525769976379 0.0 0.0
-0.0024660024410121384 0.001296903119023085 0.0 0.0010680537164978188 0.0 0.0
-0.001596426135084053 0.0007223521697909963 0.0 0.0011066019574830777 0.0 0.0
-0.0010480465483083054 0.00045007298907961957 0.0 0.0012185780936439516 0.0 0.0
-0.0005122809557170788 0.00017319890613820554 0.0 0.0010657184686089782 0.0 0.0
-0.0001078078728055723 -1.2347021668869182e-05 0.0 0.0004391973879792621 0.0 0.0
-0.0001212964684132456 4.01391068992063e-05 0.0 -0.00022788757912817204 0.0 0.0
-0.0005370078242993293 0.0002128678815309093 0.0 -0.0006967051648026357 0.0 0.0
-0.0011408786266172144 0.00048532163510006665 0.0 -0.00081299364916676 0.0 0.0
-0.0017893916375523733 0.0008103256479432552 0.0 -0.0007227385533612463 0.0 0.0
-0.0029026723295829115 0.0016097490353081945 0.0 -0.0007090116200236807 0.0 0.0
-0.00515087209652948 0.0035113409926026407 0.0 -0.0009747563409647775 0.0 0.0
-0.00885024101745363 0.0069147051912832325 0.0 -0.0015535500404034175 0.0 0.0
-0.014222407732231601 0.012011065772216334 0.0 -0.002439892885149675 0.0 0.0
-0.021376512346504173 0.018881816977852406 0.0 -0.0036115831322264813 0.0 0.0
-0.03025817677202547 0.027465310288961042 0.0 -0.004956529859895864 0.0 0.0
-0.04073880717706424 0.03764003183194964 0.0 -0.006320137855105545 0.0 0.0
-0.05271541060377882 0.04930860916431623 0.0 -0.0076244563095105855 0.0 0.0
-0.06613393908456547 0.062415423804267345 0.0 -0.008944170402840235 0.0 0.0
-0.08090544504169397 0.07686760816020888 0.0 -0.01028479265648563 0.0 0.0
-0.09677837776680287 0.09240981118457858 0.0 -0.011447043053841033 0.0 0.0
-0.11319241408608635 0.10847699018018053 0.0 -0.011994957740165568 0.0 0.0
-0.12903778548992725 0.12392035591749728 0.0 -0.011796455598291566 0.0 0.0
-0.14196543338481507 0.1362700826413148 0.0 -0.01353718715230301 0.0 0.0
-0.14674499915055708 0.14009887415472289 0.0 -0.025137923768149717 0.0 0.0
-0.13413792484501708 0.12676221559713685 0.0 -0.051694119550594775 0.0 0.0
-0.1341379248450039 0.12676221559712442 0.0 0.051694119550618534 0.0 0.0
-0.14674499915052175 0.1400988741546909 0.0 0.025137923768182246 0.0 0.0
-0.14196543338475964 0.13627008264125706 0.0 0.013537187152326935 0.0 0.0
-0.12903778548985706 0.12392035591742623 0.0 0.011796455598292288 0.0 0.0
-0.11319241408600904 0.10847699018010548 0.0 0.011994957740165013 0.0 0.0
-0.09677837776672178 0.09240981118450398 0.0 0.011447043053840672 0.0 0.0
-0.08090544504161193 0.07686760816013338 0.0 0.010284792656482605 0.0 0.0
-0.06613393908448294 0.062415423804192294 0.0 0.008944170402832907 0.0 0.0
-0.052715410603700275 0.049308609164243844 0.0 0.007624456309502148 0.0 0.0
-0.04073880717699314 0.03764003183188569 0.0 0.0063201378550933884 0.0 0.0
-0.03025817677196579 0.027465310288905087 0.0 0.004956529859882208 0.0 0.0
-0.02137651234645723 0.018881816977806665 0.0 0.0036115831322200143 0.0 0.0
-0.014222407732195536 0.012011065772183915 0.0 0.002439892885145234 0.0 0.0
-0.008850241017429941 0.0069147051912636925 0.0 0.001553550040398144 0.0 0.0
-0.005150872096516532 0.00351134099258954 0.0 0.0009747563409618909 0.0 0.0
-0.0029026723295773847 0.0016097490353016441 0.0 0.0007090116200233476 0.0 0.0
-0.0017893916375512457 0.0008103256479436993 0.0 0.0007227385533615793 0.0 0.0
-0.0011408786266162117 0.0004853216351003442 0.0 0.0008129936491679812 0.0 0.0
-0.000537007824298847 0.00021286788153077052 0.0 0.0006967051648017475 0.0 0.0
-0.00012129646841311723 4.0139106899428345e-05 0.0 0.00022788757912783897 0.0 0.0
-0.00010106716050956033 5.385187912715361e-05 0.0 -3.5039972620887205e-05 0.0 0.0
-0.0005295514581692973 0.00023365541061570738 0.0 -0.0002825897681756895 0.0 0.0
-0.0012354666049322893 0.0005209861432706742 0.0 -0.0003295304580298031 0.0 0.0
-0.0020207604918479616 0.0009386108764725121 0.0 -0.00030470102135338184 0.0 0.0
-0.0034097471678712354 0.0019987861100945192 0.0 -0.0003014610399264539 0.0 0.0
-0.0060487671965724354 0.00430958169429152 0.0 -0.0004074899195797843 0.0 0.0
-0.010193604033038262 0.00818629344413524 0.0 -0.0006467310029961149 0.0 0.0
-0.016127509660232908 0.013851719162313314 0.0 -0.0010146364025331311 0.0 0.0
-0.02401756859989046 0.021452771703546425 0.0 -0.0015296477900654804 0.0 0.0
-0.03385170953332112 0.03097305279312712 0.0 -0.0021437154748987775 0.0 0.0
-0.04552371276026218 0.04231647322476917 0.0 -0.0027750172286981067 0.0 0.0
-0.058918789345925926 0.055375455172873345 0.0 -0.0033971275062877337 0.0 0.0
-0.07392994489508847 0.07004503531352313 0.0 -0.004019944131502751 0.0 0.0
-0.09039854338797185 0.0861592186425435 0.0 -0.004615246884848823 0.0 0.0
-0.1079446954356027 0.10333172376775801 0.0 -0.005069321822918749 0.0 0.0
-0.12577548337203656 0.12077352732233271 0.0 -0.005084193537456705 0.0 0.0
-0.14259077371447784 0.13719822895845102 0.0 -0.004232654576336592 0.0 0.0
-0.1565046707651072 0.15069141870451563 0.0 -0.0030416543568946297 0.0 0.0
-0.16421316163317776 0.1577237910205498 0.0 -0.009687123322841829 0.0 0.0
-0.156538352801596 0.1480522701257545 0.0 -0.04761773431019212 0.0 0.0
-0.1565383528015803 0.1480522701257394 0.0 0.04761773431020189 0.0 0.0
-0.1642131616331378 0.15772379102051426 0.0 0.009687123322857927 0.0 0.0
-0.15650467076504415 0.15069141870445435 0.0 0.0030416543569064536 0.0 0.0
-0.14259077371439774 0.13719822895837464 0.0 0.004232654576333594 0.0 0.0
-0.12577548337194988 0.12077352732224744 0.0 0.005084193537456927 0.0 0.0
-0.10794469543551266 0.10333172376766386 0.0 0.005069321822917416 0.0 0.0
-0.09039854338788088 0.0861592186424498 0.0 0.004615246884846658 0.0 0.0
-0.07392994489499657 0.0700450353134352 0.0 0.00401994413149992 0.0 0.0
-0.05891878934583911 0.05537545517278408 0.0 0.003397127506285791 0.0 0.0
-0.04552371276018408 0.04231647322469234 0.0 0.0027750172286915564 0.0 0.0
-0.03385170953325599 0.030973052793064504 0.0 0.0021437154748899234 0.0 0.0
-0.02401756859983865 0.02145277170349713 0.0 0.0015296477900603733 0.0 0.0
-0.016127509660192815 0.0138517191622749 0.0 0.001014636402530189 0.0 0.0
-0.010193604033011285 0.00818629344410593 0.0 0.0006467310029937279 0.0 0.0
-0.0060487671965576625 0.004309581694276421 0.0 0.00040748991957589853 0.0 0.0
-0.0034097471678640945 0.001998786110088857 0.0 0.0003014610399258433 0.0 0.0
-0.002020760491846075 0.0009386108764708467 0.0 0.0003047010213530488 0.0 0.0
-0.0012354666049309857 0.000520986143269897 0.0 0.00032953045803008063 0.0 0.0
-0.000529551458168822 0.00023365541061540207 0.0 0.0002825897681762446 0.0 0.0
-0.00010106716050927497 5.38518791270582e-05 0.0 3.503997262155334e-05 0.0 0.0
SCALARS Statev float 8
LOOKUP_TABLE default
0.0 0.012640592055708598 0.009756325311057232 -0.010138206370065132 0.00038188105900789567 -0.005596779442112295 0.0 0.0
0.0 0.0006649450163549709 0.00046128240880941555 -0.00038719577075059205 -7.408663805882349e-05 0.0004400735530639607 0.0 0.0
0.0 3.342380937738801e-05 -4.754075056001044e-06 3.773145031477424e-06 9.809300245235895e-07 5.62033213615258e-07 0.0 0.0
0.0 0.00024435196986025094 0.00016539249402375695 -0.00012991798524637007 -3.5474508777386906e-05 -2.3057623824559778e-05 0.0 0.0
0.0 0.0013691287605905149 0.0010918597386787602 -0.0008992688814716225 -0.0001925908572071379 -0.00011877780463057084 0.0 0.0
0.0 0.003726220509212165 0.003386944844758925 -0.0029537176830583007 -0.0004332271617006237 -0.0002779763509418265 0.0 0.0
0.0 0.008104660112248122 0.0072416657215078496 -0.006630594097987151 -0.0006110716235206973 -0.0005141518564889227 0.0 0.0
0.0 0.014623106959984804 0.012919981092523378 -0.01218613699090891 -0.0007338441016144648 -0.0008647405935456005 0.0 0.0
0.0 0.02343524259245202 0.020559792635889994 -0.019720350441068003 -0.00083944219482199 -0.0013571632670102282 0.0 0.0
0.0 0.034529287997175445 0.030152917378403178 -0.02920584328334033 -0.0009470740950628404 -0.0019567435789957133 0.0 0.0
0.0 0.04782325015399621 0.04160886624314353 -0.040550220172739695 -0.0010586460704037977 -0.0025878988352928483 0.0 0.0
0.0 0.06291254086522877 0.05482487525786443 -0.05365217108576084 -0.00117270417210355 -0.0032163820472054026 0.0 0.0
0.0 0.0799856235889746 0.06969684461665424 -0.06840886197071648 -0.0012879826459377035 -0.0038434331588510368 0.0 0.0
0.0 0.09888936003275842 0.08609437714397143 -0.08468838188852867 -0.0014059952554426923 -0.0044661343028655764 0.0 0.0
0.0 0.11923795242629745 0.10373852396285299 -0.10221019301683923 -0.0015283309460137388 -0.00506618617975914 0.0 0.0
0.0 0.14040575800043079 0.12205733303608096 -0.12040323049374245 -0.0016541025423385172 -0.005532248965760311 0.0 0.0
0.0 0.16128572453458276 0.14012117200463634 -0.13834181654999445 -0.0017793554546418843 -0.005648618612799821 0.0 0.0
0.0 0.18040957954405312 0.1566749577204405 -0.15477581755573094 -0.001899140164709539 -0.005180691172439102 0.0 0.0
0.0 0.1960408419689721 0.1702114000992082 -0.16820094869083688 -0.0020104514083713236 -0.00430540336761713 0.0 0.0
0.0 0.20553925558381733 0.17857602111177173 -0.17640877140545938 -0.0021672497063123805 -0.004606087600301474 0.0 0.0
0.0 0.20553925558380365 0.1785760211117599 -0.17640877140544736 -0.0021672497063125267 0.004606087600307477 0.0 0.0
0.0 0.19604084196892863 0.17021140009917038 -0.16820094869079924 -0.002010451408371093 0.004305403367637647 0.0 0.0
0.0 0.18040957954398462 0.15667495772038098 -0.15477581755567218 -0.0018991401647087593 0.005180691172449471 0.0 0.0
0.0 0.1612857245344929 0.14012117200455837 -0.13834181654991679 -0.0017793554546415276 0.0056486186128056805 0.0 0.0
0.0 0.14040575800033395 0.12205733303599697 -0.12040323049365903 -0.0016541025423379824 0.00553224896575228 0.0 0.0
0.0 0.1192379524261993 0.10373852396276761 -0.10221019301675474 -0.0015283309460128287 0.005066186179758091 0.0 0.0
0.0 0.09888936003265876 0.0860943771438849 -0.08468838188844283 -0.0014059952554420479 0.004466134302864885 0.0 0.0
0.0 0.07998562358887748 0.06969684461656976 -0.0684088619706331 -0.001287982645936671 0.003843433158850292 0.0 0.0
0.0 0.06291254086513323 0.05482487525778157 -0.053652171085678574 -0.001172704172102967 0.0032163820471991325 0.0 0.0
0.0 0.047823250153913165 0.041608866243070954 -0.04055022017266814 -0.0010586460704028122 0.002587898835288963 0.0 0.0
0.0 0.034529287997109526 0.030152917378345648 -0.0292058432832841 -0.0009470740950615578 0.001956743578988085 0.0 0.0
0.0 0.023435242592399638 0.020559792635843885 -0.019720350441022588 -0.000839442194821303 0.0013571632670078713 0.0 0.0
0.0 0.014623106959946678 0.012919981092489393 -0.012186136990875559 -0.0007338441016138273 0.0008647405935427513 0.0 0.0
0.0 0.008104660112221322 0.007241665721483702 -0.006630594097963708 -0.0006110716235199887 0.0005141518564875168 0.0 0.0
0.0 0.003726220509198074 0.003386944844745779 -0.002953717683046078 -0.00043322716169970154 0.00027797635094050824 0.0 0.0
0.0 0.0013691287605837952 0.0010918597386732275 -0.0008992688814668727 -0.00019259085720635437 0.00011877780462999207 0.0 0.0
0.0 0.0002443519698591237 0.00016539249402369304 -0.0001299179852463042 -3.547450877738885e-05 2.3057623824460746e-05 0.0 0.0
0.0 3.342380937687491e-05 -4.754075055922566e-06 3.7731450314146314e-06 9.80930024507978e-07 -5.620332136057866e-07 0.0 0.0
0.0 0.0006649450163521288 0.000461282408807803 -0.0003871957707491765 -7.408663805862679e-05 -0.00044007355306187546 0.0 0.0
0.0 0.012640592055690361 0.009756325311045005 -0.010138206370051896 0.00038188105900688275 0.005596779442083671 0.0 0.0
0.0 0.009315122499226135 0.0067395367116992394 -0.0072303279759720895 0.0004907912642728438 -0.006424442065457742 0.0 0.0
0.0 3.0921064554669322e-06 1.2918144473457847e-06 -1.1010952630217675e-06 -1.9071918432402227e-07 8.361283711204936e-07 0.0 0.0
0.0 9.430826945183483e-08 -1.020951514236367e-08 7.758883502814768e-09 2.450631639548195e-09 3.6392644398315674e-09 0.0 0.0
0.0 8.577002932538447e-05 4.964288813399078e-05 -3.880944585627513e-05 -1.0833442277715883e-05 -1.842946433178745e-05 0.0 0.0
0.0 0.0008971227293806562 0.0006728746027817214 -0.0005469078279210105 -0.0001259667748607109 -0.00017994804496254465 0.0 0.0
0.0 0.002835052000099685 0.002580114373452674 -0.002214917523154584 -0.0003651968502980902 -0.0005631809848672389 0.0 0.0
0.0 0.006700163747972202 0.005984537094810008 -0.005416518678574659 -0.0005680184162353469 -0.0011661422156755627 0.0 0.0
0.0 0.012575141091983353 0.011095707073074777 -0.010390360841999183 -0.0007053462310755932 -0.002023239116201623 0.0 0.0
0.0 0.020542585664160177 0.017999307812092583 -0.01718597346851461 -0.0008133343435779584 -0.0031572700526186245 0.0 0.0
0.0 0.030538217903475353 0.026642533803575067 -0.0257254399646583 -0.000917093838916761 -0.0044848567917294396 0.0 0.0
0.0 0.04242940002584872 0.036911830705952144 -0.035890370621492376 -0.0010214600844597676 -0.005860661885639247 0.0 0.0
0.0 0.05615413043027619 0.04871647127728836 -0.04759028180372079 -0.001126189473567559 -0.007193613070302531 0.0 0.0
0.0 0.0713621693268236 0.06200859552136447 -0.06077639621768009 -0.0012321993036843364 -0.00853934466466963 0.0 0.0
0.0 0.0882478250095266 0.07669719065397543 -0.07535655295730688 -0.0013406376966685362 -0.009919210916928324 0.0 0.0
0.0 0.10653584950073654 0.0925462841253971 -0.09109411905768727 -0.001452165067709802 -0.011247285075202649 0.0 0.0
0.0 0.12559007535433145 0.10907058529580316 -0.10750435848063422 -0.0015662268151689814 -0.012298529836574179 0.0 0.0
0.0 0.1444900839544418 0.12546437690077242 -0.12378349460785958 -0.0016808822929128696 -0.012645011793940165 0.0 0.0
0.0 0.161927186101048 0.14058578502749192 -0.13879143831612972 -0.0017943467113621884 -0.011897418588864069 0.0 0.0
0.0 0.1760653330716205 0.1528629417733711 -0.1509464379695464 -0.0019165038038247105 -0.010181460200836967 0.0 0.0
0.0 0.18453312304679037 0.1602428473876069 -0.15823328635909273 -0.0020095610285142296 -0.007320260983227815 0.0 0.0
0.0 0.184533123046777 0.16024284738759503 -0.158233286359081 -0.0020095610285140613 0.007320260983249261 0.0 0.0
0.0 0.17606533307158345 0.15286294177333798 -0.15094643796951426 -0.0019165038038237653 0.010181460200872815 0.0 0.0
0.0 0.16192718610099158 0.14058578502744182 -0.13879143831608118 -0.0017943467113605697 0.011897418588888228 0.0 0.0
0.0 0.14449008395436494 0.12546437690070542 -0.12378349460779323 -0.0016808822929121191 0.01264501179395152 0.0 0.0
0.0 0.12559007535424688 0.10907058529572994 -0.1075043584805616 -0.0015662268151682797 0.012298529836565198 0.0 0.0
0.0 0.10653584950064983 0.0925462841253217 -0.09109411905761278 -0.0014521650677089145 0.01124728507519937 0.0 0.0
0.0 0.08824782500943885 0.07669719065389928 -0.0753565529572313 -0.0013406376966679336 0.009919210916924829 0.0 0.0
0.0 0.07136216932673944 0.06200859552129099 -0.060776396217608 -0.0012321993036829657 0.008539344664666031 0.0 0.0
0.0 0.05615413043019698 0.04871647127721925 -0.047590281803652754 -0.001126189473566479 0.007193613070293609 0.0 0.0
0.0 0.042429400025775985 0.03691183070588906 -0.035890370621429676 -0.0010214600844593894 0.0058606618856304055 0.0 0.0
0.0 0.030538217903415585 0.026642533803523112 -0.025725439964606717 -0.0009170938389163981 0.004484856791717392 0.0 0.0
0.0 0.0205425856641112 0.017999307812049413 -0.01718597346847184 -0.0008133343435775645 0.0031572700526124654 0.0 0.0
0.0 0.01257514109194763 0.011095707073043304 -0.010390360841968198 -0.0007053462310751122 0.002023239116195181 0.0 0.0
0.0 0.006700163747949868 0.005984537094789802 -0.005416518678555275 -0.0005680184162345246 0.0011661422156720087 0.0 0.0
0.0 0.002835052000086741 0.0025801143734411436 -0.0022149175231440674 -0.0003651968502970761 0.0005631809848646279 0.0 0.0
0.0 0.000897122729375923 0.0006728746027783277 -0.0005469078279181307 -0.00012596677486019714 0.0001799480449615522 0.0 0.0
0.0 8.577002932482356e-05 4.964288813412588e-05 -3.880944585637414e-05 -1.0833442277751589e-05 1.8429464331808117e-05 0.0 0.0
0.0 9.430826938068039e-08 -1.0209515134588993e-08 7.758883496907494e-09 2.4506316376819497e-09 -3.6392644370560787e-09 0.0 0.0
0.0 3.0921064553168223e-06 1.2918144473999068e-06 -1.1010952630665169e-06 -1.9071918433338606e-07 -8.361283711641489e-07 0.0 0.0
0.0 0.009315122499205488 0.006739536711685603 -0.007230327975957714 0.0004907912642721092 0.006424442065433622 0.0 0.0
0.0 0.007019373055326429 0.004805210877900885 -0.005318148024253923 0.0005129371463530389 -0.005612582936776491 0.0 0.0
0.0 0.0 0.0 0.0 0.0 0.0 0.0 0.0
0.0 0.0 0.0 0.0 0.0 0.0 0.0 0.0
0.0 1.5321674730506725e-05 1.0867829830832985e-05 -8.477487584214107e-06 -2.3903422466188956e-06 -7.386576829875776e-06 0.0 0.0
0.0 0.00047938870803887625 0.00036209692761225156 -0.00029060387988600467 -7.149304772624665e-05 -0.00017293522553408084 0.0 0.0
0.0 0.002182975633494115 0.0018158596725271496 -0.001533099861048541 -0.0002827598114786079 -0.0006863820487342173 0.0 0.0
0.0 0.005349290624699724 0.004754269503529149 -0.004240944365524628 -0.0005133251380045221 -0.0015752951501671515 0.0 0.0
0.0 0.01055041734530357 0.009267950115685732 -0.008599505807131003 -0.0006684443085547306 -0.002851145506986071 0.0 0.0
0.0 0.01767410100328959 0.015406368251337697 -0.014624333401452019 -0.0007820348498856766 -0.004495076042956996 0.0 0.0
0.0 0.026583254105091846 0.023081763985842038 -0.02219933815763629 -0.0008824258282057428 -0.006388402521624183 0.0 0.0
0.0 0.03714636320916703 0.03216217422676898 -0.031182534258881765 -0.0009796399678871984 -0.00834706477751926 0.0 0.0
0.0 0.04917542037482985 0.04256475527352083 -0.04148894815648176 -0.0010758071170390532 -0.010250638497074385 0.0 0.0
0.0 0.06281123337748853 0.05426359639973208 -0.053091148357178944 -0.0011724480425531533 -0.012144781180199966 0.0 0.0
0.0 0.07767511797881425 0.06722115524812709 -0.06595023389296996 -0.0012709213551570873 -0.014104809007506694 0.0 0.0
0.0 0.09383967010528048 0.08126060447488874 -0.07988930553404758 -0.0013712989408411233 -0.016028033079071437 0.0 0.0
0.0 0.11083740987072066 0.0959897834446497 -0.0945162468593122 -0.00147353658533748 -0.017567789812304228 0.0 0.0
0.0 0.12780426302916514 0.11073344330815064 -0.10915562689205517 -0.0015778164160954325 -0.01819560513463722 0.0 0.0
0.0 0.14352103846609218 0.12444467720603308 -0.12275721601598832 -0.001687461190044717 -0.017395166334208186 0.0 0.0
0.0 0.15628120869770032 0.13562193017636487 -0.13382805369069703 -0.0017938764856678345 -0.014685356765907405 0.0 0.0
0.0 0.1641219626874951 0.14255648735232695 -0.14068635359990947 -0.0018701337524174256 -0.009269132415055985 0.0 0.0
0.0 0.1641219626874838 0.14255648735231677 -0.14068635359989895 -0.0018701337524176815 0.009269132415090269 0.0 0.0
0.0 0.15628120869766768 0.13562193017633528 -0.13382805369066728 -0.001793876485668006 0.014685356765956779 0.0 0.0
0.0 0.14352103846604092 0.12444467720598726 -0.12275721601594283 -0.0016874611900444141 0.017395166334242484 0.0 0.0
0.0 0.12780426302909745 0.11073344330809125 -0.10915562689199611 -0.0015778164160951738 0.018195605134652987 0.0 0.0
0.0 0.11083740987064614 0.09598978344458524 -0.09451624685924824 -0.0014735365853369682 0.017567789812295554 0.0 0.0
0.0 0.09383967010520389 0.08126060447482221 -0.07988930553398157 -0.001371298940840609 0.01602803307906645 0.0 0.0
0.0 0.0776751179787387 0.06722115524806119 -0.06595023389290501 -0.0012709213551561863 0.014104809007502423 0.0 0.0
0.0 0.06281123337741135 0.054263596399665034 -0.05309114835711223 -0.0011724480425527857 0.012144781180194112 0.0 0.0
0.0 0.04917542037475633 0.04256475527345749 -0.041488948156418876 -0.0010758071170386225 0.010250638497059247 0.0 0.0
0.0 0.03714636320910322 0.03216217422671326 -0.031182534258826805 -0.0009796399678864256 0.008347064777507015 0.0 0.0
0.0 0.026583254105038402 0.02308176398579557 -0.022199338157590398 -0.0008824258282051618 0.006388402521607777 0.0 0.0
0.0 0.017674101003248635 0.015406368251301903 -0.01462433340141676 -0.0007820348498851363 0.0044950760429471005 0.0 0.0
0.0 0.010550417345273174 0.009267950115658934 -0.008599505807104894 -0.000668444308554042 0.0028511455069776606 0.0 0.0
0.0 0.005349290624679459 0.004754269503511054 -0.004240944365507499 -0.0005133251380035565 0.0015752951501614956 0.0 0.0
0.0 0.0021829756334831698 0.0018158596725180412 -0.0015330998610404779 -0.00028275981147756293 0.000686382048730634 0.0 0.0
0.0 0.0004793887080349877 0.0003620969276094682 -0.00029060387988371044 -7.149304772575765e-05 0.00017293522553270935 0.0 0.0
0.0 1.532167473017406e-05 1.0867829831073687e-05 -8.477487584392524e-06 -2.390342246681184e-06 7.386576829975266e-06 0.0 0.0
0.0 0.0 0.0 0.0 0.0 0.0 0.0 0.0
0.0 0.0 0.0 0.0 0.0 0.0 0.0 0.0
0.0 0.007019373055308373 0.004805210877888472 -0.005318148024240811 0.0005129371463523375 0.0056125829367564845 0.0 0.0
0.0 0.005227315416288904 0.0034279494887139725 -0.0039066767521956595 0.0004787272634816853 -0.004406980329948488 0.0 0.0
0.0 0.0 0.0 0.0 0.0 0.0 0.0 0.0
0.0 0.0 0.0 0.0 0.0 0.0 0.0 0.0
0.0 2.598458015894006e-06 1.1464263430697985e-07 -8.977093605341866e-08 -2.487169825354565e-08 -1.2480886731473326e-07 0.0 0.0
0.0 0.00021679504696969833 0.00015722076907691832 -0.0001252023834987442 -3.2018385578173974e-05 -0.00012135642212239705 0.0 0.0
0.0 0.001466798818987862 0.001172500353707097 -0.0009731254552976781 -0.00019937489840941936 -0.0006749591342736671 0.0 0.0
0.0 0.004116166475469482 0.0035677748371240755 -0.003128382704972705 -0.0004393921321513708 -0.0017456801368146515 0.0 0.0
0.0 0.00857532344787654 0.0074600002470770746 -0.006838841379252571 -0.0006211588678245037 -0.0033412719733241446 0.0 0.0
0.0 0.014826780777126916 0.012808799693763062 -0.012065498033191945 -0.0007433016605711218 -0.005362335516424823 0.0 0.0
0.0 0.022636869911537218 0.019501187619153103 -0.01865913013672697 -0.0008420574824261182 -0.007669810706875011 0.0 0.0
0.0 0.03184950266130596 0.027388786164912124 -0.02645584835387621 -0.0009329378110359102 -0.010045572251758124 0.0 0.0
0.0 0.042346857555887185 0.03638883293226936 -0.03536784376909161 -0.0010209891631777685 -0.012365532345800009 0.0 0.0
0.0 0.0541020976449845 0.0464971734934228 -0.04538896396404395 -0.001108209529378843 -0.014687299833025271 0.0 0.0
0.0 0.06715384274038969 0.0577102230130477 -0.05651343189102688 -0.0011967911220207923 -0.01704894924892736 0.0 0.0
0.0 0.08133156523793952 0.06991809650240116 -0.06863218467846513 -0.0012859118239360132 -0.01936274936597787 0.0 0.0
0.0 0.09607346620236334 0.08283425414831794 -0.08145821038409777 -0.0013760437642201689 -0.021305098653616607 0.0 0.0
0.0 0.11111550491857472 0.0959103205446436 -0.09444012515036491 -0.0014701953942786346 -0.022267896781007393 0.0 0.0
0.0 0.12519757444849733 0.10823966005911742 -0.10667044931648206 -0.0015692107426353837 -0.021501565328049758 0.0 0.0
0.0 0.1368025556589154 0.11851366933045296 -0.11684958360873476 -0.0016640857217181772 -0.01806285583272647 0.0 0.0
0.0 0.14427220273579636 0.1252527567622922 -0.12351970573911578 -0.0017330510231763755 -0.010847680508757914 0.0 0.0
0.0 0.1442722027357839 0.12525275676228054 -0.12351970573910394 -0.0017330510231766314 0.010847680508801411 0.0 0.0
0.0 0.1368025556588823 0.11851366933042241 -0.11684958360870348 -0.00166408572171887 0.018062855832782828 0.0 0.0
0.0 0.12519757444845364 0.10823966005907731 -0.10667044931644233 -0.0015692107426348945 0.02150156532808927 0.0 0.0
0.0 0.11111550491851865 0.09591032054459349 -0.09444012515031561 -0.0014701953942778854 0.022267896781024733 0.0 0.0
0.0 0.09607346620229927 0.08283425414826226 -0.0814582103840432 -0.0013760437642190502 0.021305098653607663 0.0 0.0
0.0 0.08133156523787165 0.06991809650234225 -0.06863218467840705 -0.0012859118239351797 0.01936274936596959 0.0 0.0
0.0 0.06715384274031963 0.05771022301298699 -0.05651343189096615 -0.001196791122020816 0.017048949248920756 0.0 0.0
0.0 0.05410209764491622 0.046497173493363575 -0.04538896396398486 -0.0011082095293787012 0.014687299833016382 0.0 0.0
0.0 0.04234685755582282 0.03638883293221358 -0.035367843769036546 -0.0010209891631770293 0.012365532345782956 0.0 0.0
0.0 0.03184950266124793 0.027388786164861758 -0.026455848353826493 -0.0009329378110352648 0.010045572251741141 0.0 0.0
0.0 0.022636869911488083 0.019501187619111116 -0.018659130136685485 -0.0008420574824256219 0.0076698107068546165 0.0 0.0
0.0 0.014826780777089009 0.012808799693730217 -0.012065498033159688 -0.0007433016605705213 0.005362335516412084 0.0 0.0
0.0 0.00857532344784948 0.007460000247053568 -0.006838841379229748 -0.0006211588678238168 0.0033412719733136205 0.0 0.0
0.0 0.0041161664754537485 0.003567774837110578 -0.003128382704960125 -0.0004393921321504516 0.0017456801368083163 0.0 0.0
0.0 0.0014667988189796459 0.0011725003537009862 -0.000973125455292444 -0.000199374898408542 0.0006749591342701821 0.0 0.0
0.0 0.00021679504696755413 0.00015722076907596338 -0.00012520238349795484 -3.201838557800864e-05 0.00012135642212163509 0.0 0.0
0.0 2.598458015468082e-06 1.1464263445288175e-07 -8.977093616453075e-08 -2.4871698288340572e-08 1.248088674494396e-07 0.0 0.0
0.0 0.0 0.0 0.0 0.0 0.0 0.0 0.0
0.0 0.0 0.0 0.0 0.0 0.0 0.0 0.0
0.0 0.00522731541627262 0.0034279494887031934 -0.003906676752184161 0.0004787272634809675 0.0044069803299322235 0.0 0.0
0.0 0.0037655402814346477 0.0023763392219974147 -0.0027872763100798142 0.00041093708808240026 -0.00323403785323221 0.0 0.0
0.0 0.0 0.0 0.0 0.0 0.0 0.0 0.0
0.0 0.0 0.0 0.0 0.0 0.0 0.0 0.0
0.0 3.914067303408611e-07 3.289755486690367e-08 -2.4605122822701397e-08 -8.292432044202435e-09 -4.464386096342993e-08 0.0 0.0
0.0 8.33778067410929e-05 5.331030352708135e-05 -4.241907313900037e-05 -1.0891230388080996e-05 -6.407502132098427e-05 0.0 0.0
0.0 0.0008731971743222738 0.0006680006466134412 -0.0005459230357914881 -0.00012207761082195327 -0.000572551972548916 0.0 0.0
0.0 0.003065307202945645 0.0024702797915118393 -0.002122795696236294 -0.0003474840952755456 -0.001685480202274031 0.0 0.0
0.0 0.006715170327576378 0.005690511941934697 -0.005133629628662295 -0.0005568823132724009 -0.0034528949190205343 0.0 0.0
0.0 0.012020277774029026 0.010234666585028161 -0.009540134499134705 -0.0006945320858934568 -0.005750557670775403 0.0 0.0
0.0 0.01872924501917779 0.015930071329040993 -0.01513552268227583 -0.0007945486467651577 -0.00832194725013424 0.0 0.0
0.0 0.0266035699794964 0.022620491434169398 -0.02174004225987196 -0.0008804491742974558 -0.010962659011032307 0.0 0.0
0.0 0.03550850310722456 0.03021970657646844 -0.02925908727872949 -0.0009606192977389503 -0.013538681118852137 0.0 0.0
0.0 0.045528414190564935 0.03873651785514107 -0.03769760556539524 -0.001038912289745838 -0.016110947059790118 0.0 0.0
0.0 0.05650134619886263 0.048204598982115224 -0.047087518099628606 -0.0011170808824866277 -0.018744132894823032 0.0 0.0
0.0 0.0685833316233002 0.05856922519330589 -0.05737385655121677 -0.0011953686420890985 -0.021308231315331654 0.0 0.0
0.0 0.08151168243394565 0.0696325725305993 -0.06835838273405699 -0.0012741897965423085 -0.023481064313976827 0.0 0.0
0.0 0.09443815588055045 0.08099547085837222 -0.07964011212662861 -0.0013553587317435994 -0.024736441982561752 0.0 0.0
0.0 0.10684588916929698 0.09195880709297174 -0.09051717793024776 -0.0014416291627239665 -0.024170356043296495 0.0 0.0
0.0 0.11744850452029387 0.10145114225827925 -0.09992430547549155 -0.0015268367827876576 -0.020441269994846436 0.0 0.0
0.0 0.12473538307767522 0.10815737711483062 -0.10656396609540729 -0.0015934110194232665 -0.012158821147287393 0.0 0.0
0.0 0.12473538307766538 0.10815737711482085 -0.10656396609539738 -0.0015934110194233831 0.012158821147332828 0.0 0.0
0.0 0.11744850452027011 0.1014511422582554 -0.09992430547546804 -0.0015268367827873579 0.020441269994906128 0.0 0.0
0.0 0.10684588916926252 0.0919588070929386 -0.09051717793021538 -0.0014416291627231978 0.024170356043339822 0.0 0.0
0.0 0.0944381558805025 0.08099547085832873 -0.07964011212658555 -0.00135535873174318 0.02473644198258161 0.0 0.0
0.0 0.08151168243388507 0.06963257253054711 -0.06835838273400455 -0.0012741897965426053 0.02348106431396834 0.0 0.0
0.0 0.06858333162323772 0.058569225193251986 -0.057373856551162804 -0.0011953686420892076 0.02130823131532126 0.0 0.0
0.0 0.05650134619880652 0.04820459898206622 -0.04708751809958042 -0.001117080882485783 0.01874413289481578 0.0 0.0
0.0 0.045528414190510166 0.03873651785509312 -0.03769760556534781 -0.0010389122897452876 0.01611094705978143 0.0 0.0
0.0 0.035508503107172656 0.030219706576423668 -0.029259087278685467 -0.0009606192977381823 0.013538681118835182 0.0 0.0
0.0 0.026603569979450833 0.022620491434130263 -0.021740042259833704 -0.00088044917429656 0.010962659011013851 0.0 0.0
0.0 0.0187292450191357 0.015930071329005903 -0.015135522682241373 -0.000794548646764531 0.008321947250111442 0.0 0.0
0.0 0.012020277773994632 0.01023466658499885 -0.00954013449910586 -0.000694532085892987 0.0057505576707605 0.0 0.0
0.0 0.006715170327551897 0.005690511941914187 -0.0051336296286426395 -0.0005568823132715464 0.003452894919008423 0.0 0.0
0.0 0.0030653072029321825 0.002470279791500986 -0.002122795696226407 -0.00034748409527457914 0.0016854802022674034 0.0 0.0
0.0 0.0008731971743164311 0.0006680006466093279 -0.0005459230357880736 -0.00012207761082125423 0.0005725519725455505 0.0 0.0
0.0 8.337780673996675e-05 5.331030352686723e-05 -4.241907313881079e-05 -1.0891230388056355e-05 6.407502132063476e-05 0.0 0.0
0.0 3.914067301895785e-07 3.2897555003359665e-08 -2.460512292727302e-08 -8.29243207608476e-09 4.464386116850091e-08 0.0 0.0
0.0 0.0 0.0 0.0 0.0 0.0 0.0 0.0
0.0 0.0 0.0 0.0 0.0 0.0 0.0 0.0
0.0 0.003765540281421636 0.002376339221989046 -0.002787276310070685 0.000410937088081637 0.0032340378532200024 0.0 0.0
0.0 0.0025516871929955032 0.0015603868952979538 -0.0018838790454451932 0.0003234921501472388 -0.0022290008759707877 0.0 0.0
0.0 0.0 0.0 0.0 0.0 0.0 0.0 0.0
0.0 0.0 0.0 0.0 0.0 0.0 0.0 0.0
0.0 1.2459832782016668e-06 -8.711175530045244e-08 6.722946238267231e-08 1.9882292917777628e-08 2.0432140011233723e-07 0.0 0.0
0.0 3.512034879183661e-05 1.5518278478155083e-05 -1.2315927080103762e-05 -3.2023513980513193e-06 -2.7342988112898182e-05 0.0 0.0
0.0 0.00044068752126120563 0.000322745897001726 -0.00026087301480676726 -6.187288219495853e-05 -0.00041643188920319094 0.0 0.0
0.0 0.0019861490618296412 0.0015419551928119233 -0.0012970221942940033 -0.00024493299851792015 -0.0014890281066137325 0.0 0.0
0.0 0.004961703157298466 0.0040142568403180815 -0.0035478954239381317 -0.0004663614163799499 -0.0032465283722158704 0.0 0.0
0.0 0.009323415679196563 0.007709740300787499 -0.0070802556084101085 -0.0006294846923773916 -0.005623732537554723 0.0 0.0
0.0 0.01487768220897425 0.012400028636837167 -0.011663128058171053 -0.0007369005786661143 -0.008331129812829498 0.0 0.0
0.0 0.021387590349017806 0.017888794750647006 -0.01706904448813819 -0.0008197502625088086 -0.011079002624253738 0.0 0.0
0.0 0.028732904329136028 0.0240897635090369 -0.023196359469147224 -0.0008934040398896855 -0.013757606953628999 0.0 0.0
0.0 0.036916414923335916 0.031020442372962368 -0.030057427127624756 -0.000963015245337603 -0.016429092024482304 0.0 0.0
0.0 0.046010617973348884 0.03873935304856676 -0.03770843126256765 -0.0010309217859991193 -0.01914219710597215 0.0 0.0
0.0 0.05603886412903848 0.04725036253448632 -0.04615158309164976 -0.0010987794428365804 -0.021804010450257427 0.0 0.0
0.0 0.06657974418294628 0.05643319836992854 -0.05526701259749416 -0.0011661857724344037 -0.024112872557407385 0.0 0.0
0.0 0.07771949072281581 0.06601815154063666 -0.06478476310842182 -0.0012333884322147963 -0.025555902840939986 0.0 0.0
0.0 0.08858534251749764 0.07557045975030825 -0.07426614314482553 -0.0013043166054827382 -0.025293123636259084 0.0 0.0
0.0 0.09808158744604979 0.0843242872951004 -0.08294460119475162 -0.0013796861003487339 -0.02178676548905966 0.0 0.0
0.0 0.10531141819810597 0.09111267225278469 -0.08966549332537231 -0.0014471789274123194 -0.013223947872880719 0.0 0.0
0.0 0.10531141819809672 0.09111267225277517 -0.08966549332536258 -0.0014471789274125787 0.013223947872926014 0.0 0.0
0.0 0.09808158744602702 0.08432428729507693 -0.08294460119472773 -0.001379686100349252 0.02178676548911871 0.0 0.0
0.0 0.08858534251746775 0.07557045975027862 -0.07426614314479574 -0.0013043166054829136 0.025293123636302366 0.0 0.0
0.0 0.07771949072277731 0.06601815154060128 -0.06478476310838649 -0.0012333884322147698 0.025555902840957937 0.0 0.0
0.0 0.06657974418290012 0.05643319836988875 -0.055267012597454465 -0.0011661857724342547 0.024112872557399596 0.0 0.0
0.0 0.05603886412899091 0.047250362534445325 -0.0461515830916091 -0.0010987794428362154 0.02180401045024639 0.0 0.0
0.0 0.04601061797330391 0.03873935304852761 -0.03770843126252905 -0.0010309217859985579 0.019142197105962468 0.0 0.0
0.0 0.03691641492329189 0.031020442372924038 -0.03005742712758716 -0.0009630152453368825 0.016429092024472625 0.0 0.0
0.0 0.028732904329093728 0.024089763509000897 -0.023196359469111937 -0.000893404039888953 0.013757606953612828 0.0 0.0
0.0 0.021387590348978726 0.0178887947506141 -0.017069044488106023 -0.0008197502625080834 0.011079002624234845 0.0 0.0
0.0 0.014877682208941917 0.01240002863681063 -0.011663128058145372 -0.0007369005786652589 0.008331129812807536 0.0 0.0
0.0 0.009323415679171387 0.007709740300766328 -0.007080255608389758 -0.0006294846923765685 0.0056237325375406225 0.0 0.0
0.0 0.004961703157278955 0.0040142568403022435 -0.0035478954239233232 -0.00046636141637892026 0.003246528372203867 0.0 0.0
0.0 0.0019861490618186036 0.0015419551928033748 -0.0012970221942865327 -0.0002449329985168415 0.001489028106606633 0.0 0.0
0.0 0.0004406875212566732 0.00032274589699898414 -0.00026087301480450073 -6.187288219448335e-05 0.0004164318891997066 0.0 0.0
0.0 3.5120348790909975e-05 1.5518278478168974e-05 -1.2315927080099988e-05 -3.2023513980689706e-06 2.734298811280832e-05 0.0 0.0
0.0 1.245983277765114e-06 -8.711175526903953e-08 6.722946235833695e-08 1.9882292910690027e-08 -2.0432140003799813e-07 0.0 0.0
0.0 0.0 0.0 0.0 0.0 0.0 0.0 0.0
0.0 0.0 0.0 0.0 0.0 0.0 0.0 0.0
0.0 0.0025516871929850086 0.0015603868952914885 -0.0018838790454379277 0.0003234921501464406 0.002229000875961296 0.0 0.0
0.0 0.0016045924983004764 0.0009331623328110115 -0.0011596467988015196 0.00022648446599050757 -0.001406226968631234 0.0 0.0
0.0 4.3237046965141747e-07 -5.414833726629138e-09 5.131917599336839e-09 2.829161272924473e-10 8.656951798426124e-08 0.0 0.0
0.0 0.0 0.0 0.0 0.0 0.0 0.0 0.0
0.0 1.343535810957597e-06 -6.745450613659108e-08 5.1836617700734505e-08 1.5617888435866596e-08 2.5068220686766373e-07 0.0 0.0
0.0 1.8405984305862844e-05 7.741484506577656e-06 -6.11571355744834e-06 -1.6257709491293194e-06 -2.0146687431894377e-05 0.0 0.0
0.0 0.00022502443428819196 0.0001223700782243933 -9.835726395198299e-05 -2.4012814272410373e-05 -0.00024032284266438899 0.0 0.0
0.0 0.0011454912505893416 0.0008074598235037388 -0.0006653323268508463 -0.0001421274966528924 -0.0011434929307531133 0.0 0.0
0.0 0.003308117968349524 0.0025124736286978784 -0.002164386789682958 -0.00034808683901491977 -0.0027816157375299758 0.0 0.0
0.0 0.006720888078976967 0.005293149754914894 -0.004758338388341995 -0.0005348113665728967 -0.005019352729945221 0.0 0.0
0.0 0.011106753763207723 0.008945796893663458 -0.008284654227580231 -0.0006611426660832254 -0.007656376199867955 0.0 0.0
0.0 0.016247557848196974 0.013227788359778257 -0.012481650269719737 -0.0007461380900585211 -0.010378330952893996 0.0 0.0
0.0 0.0220140841536645 0.018036424326746167 -0.017220614664163233 -0.0008158096625829311 -0.013007421289550488 0.0 0.0
0.0 0.028433278454510616 0.02338891655469208 -0.022511185250768284 -0.000877731303923778 -0.015607661444839355 0.0 0.0
0.0 0.035523376311295186 0.029363296362889216 -0.028427426701590687 -0.0009358696612985268 -0.018247789112344183 0.0 0.0
0.0 0.04340181077775525 0.036008462980628715 -0.035016100242049736 -0.0009923627385789802 -0.02084481059230646 0.0 0.0
0.0 0.051932960272735584 0.043280040537826164 -0.04222989628749989 -0.001050144250326295 -0.023117808811885042 0.0 0.0
0.0 0.0608337426404502 0.05102388584463978 -0.04992018044785687 -0.0011037053967829094 -0.024662167364239547 0.0 0.0
0.0 0.06993089900393595 0.059061057695908685 -0.05790518560570672 -0.0011558720902019757 -0.024805815395914844 0.0 0.0
0.0 0.07872584482706177 0.0670152171633008 -0.06579691309367731 -0.0012183040696234612 -0.022011552861733143 0.0 0.0
0.0 0.08604773921677776 0.07395107920430173 -0.07266175200643242 -0.001289327197869328 -0.014016710196467413 0.0 0.0
0.0 0.08604773921677124 0.07395107920429415 -0.072661752006425 -0.0012893271978691812 0.01401671019650956 0.0 0.0
0.0 0.07872584482704452 0.06701521716328115 -0.06579691309365754 -0.00121830406962364 0.02201155286179173 0.0 0.0
0.0 0.06993089900391547 0.059061057695885995 -0.05790518560568461 -0.0011558720902013456 0.024805815395958365 0.0 0.0
0.0 0.06083374264042049 0.05102388584461107 -0.049920180447828796 -0.0011037053967822936 0.024662167364257644 0.0 0.0
0.0 0.05193296027269946 0.04328004053779491 -0.04222989628746935 -0.0010501442503255511 0.023117808811875876 0.0 0.0
0.0 0.04340181077771812 0.036008462980596755 -0.035016100242018414 -0.0009923627385783323 0.020844810592295746 0.0 0.0
0.0 0.035523376311259375 0.029363296362858473 -0.028427426701560232 -0.0009358696612982504 0.01824778911233378 0.0 0.0
0.0 0.028433278454478204 0.02338891655466402 -0.022511185250740518 -0.0008777313039234977 0.01560766144483109 0.0 0.0
0.0 0.022014084153631465 0.01803642432671858 -0.017220614664136016 -0.0008158096625825614 0.013007421289534405 0.0 0.0
0.0 0.01624755784816482 0.013227788359752078 -0.012481650269694038 -0.0007461380900580305 0.010378330952874375 0.0 0.0
0.0 0.011106753763178843 0.00894579689364115 -0.008284654227558351 -0.0006611426660827987 0.007656376199844937 0.0 0.0
0.0 0.0067208880789560175 0.0052931497548983925 -0.0047583383883261655 -0.0005348113665722258 0.005019352729931647 0.0 0.0
0.0 0.0033081179683349055 0.002512473628686833 -0.0021643867896728344 -0.00034808683901399733 0.002781615737519072 0.0 0.0
0.0 0.0011454912505827783 0.0008074598234991899 -0.000665332326846979 -0.0001421274966522103 0.001143492930747727 0.0 0.0
0.0 0.00022502443428661244 0.00012237007822401947 -9.835726395167018e-05 -2.4012814272349136e-05 0.00024032284266354613 0.0 0.0
0.0 1.8405984305502513e-05 7.741484506744665e-06 -6.115713557579614e-06 -1.625770949165056e-06 2.0146687432347306e-05 0.0 0.0
0.0 1.343535810551308e-06 -6.74545061154224e-08 5.1836617684484416e-08 1.561788843093987e-08 -2.5068220678900275e-07 0.0 0.0
0.0 0.0 0.0 0.0 0.0 0.0 0.0 0.0
0.0 4.3237046913438544e-07 -5.414833720036132e-09 5.131917593071955e-09 2.82916126964362e-10 -8.656951787897293e-08 0.0 0.0
0.0 0.0016045924982924025 0.0009331623328064671 -0.0011596467987962538 0.00022648446598978592 0.0014062269686242511 0.0 0.0
0.0 0.0008827186664757788 0.00047556065535719 -0.0006106229886298878 0.00013506233327269764 -0.0007608668864876832 0.0 0.0
0.0 8.003657515340897e-07 -4.93873904076183e-09 8.566569451351975e-09 -3.627830410591482e-09 4.9400628162427965e-08 0.0 0.0
0.0 6.305102464673167e-07 -7.0898921551877894e-09 5.074535917472657e-09 2.0153562377156586e-09 1.2874703632778445e-07 0.0 0.0
0.0 9.141280923486921e-07 -1.9605222836118776e-08 1.3448909137867292e-08 6.156313698253689e-09 9.846661978609148e-08 0.0 0.0
0.0 1.517337736988995e-05 4.60375830937713e-06 -3.623913677814139e-06 -9.798446315630026e-07 -1.8734109582079593e-05 0.0 0.0
0.0 0.0001238504897019962 4.899570787626213e-05 -3.915744094382871e-05 -9.838266932433422e-06 -0.00015328134754969143 0.0 0.0
0.0 0.0005813781156259087 0.00032256019269891656 -0.00026148708489980764 -6.107310779910897e-05 -0.0007338874158048619 0.0 0.0
0.0 0.0018944263140340833 0.001263046240590025 -0.0010557059297585127 -0.0002073403108315123 -0.0020767235300332147 0.0 0.0
0.0 0.004287655180717109 0.003078828395212472 -0.002683966540851346 -0.00039486185436112323 -0.004014899469531861 0.0 0.0
0.0 0.007405718427431407 0.0056369834437692305 -0.0050905777550583 -0.0005464056887109291 -0.0063379055824653195 0.0 0.0
0.0 0.011255935107040094 0.00868726268504983 -0.008041122298625528 -0.0006461403864243025 -0.008807364873462474 0.0 0.0
0.0 0.01541305543302262 0.012107463790626037 -0.011389788388118119 -0.0007176754025079122 -0.01123361361922748 0.0 0.0
0.0 0.02002865610229922 0.01589616569729311 -0.01512054574731699 -0.0007756199499761149 -0.013624960754128036 0.0 0.0
0.0 0.025185713006467027 0.02013203993662042 -0.019306549539953796 -0.0008254903966666224 -0.01602046650916965 0.0 0.0
0.0 0.03099305335616348 0.024901511746290163 -0.0240300440937326 -0.0008714676525575615 -0.01839161009956338 0.0 0.0
0.0 0.03732789468772443 0.03023723410313923 -0.029319370124192633 -0.0009178639789465872 -0.020514598211717635 0.0 0.0
0.0 0.04417704306214044 0.03608305699698419 -0.03511979613097532 -0.0009632608660088775 -0.02198585354598211 0.0 0.0
0.0 0.051328488078149076 0.042445721814270615 -0.041449791869771144 -0.0009959299444994676 -0.022468786684250928 0.0 0.0
0.0 0.05887361577671367 0.04941214729951622 -0.04837736923650319 -0.0010347780630130198 -0.020871361791198816 0.0 0.0
0.0 0.0661937777746504 0.056487969178348515 -0.05537884700915024 -0.001109122169198282 -0.01445786055717241 0.0 0.0
0.0 0.06619377777464508 0.0564879691783418 -0.05537884700914317 -0.001109122169198627 0.01445786055720899 0.0 0.0
0.0 0.05887361577670343 0.04941214729950222 -0.04837736923648872 -0.001034778063013505 0.020871361791251132 0.0 0.0
0.0 0.051328488078135455 0.042445721814253615 -0.041449791869754435 -0.000995929944499156 0.02246878668428955 0.0 0.0
0.0 0.04417704306212083 0.03608305699696471 -0.035119796130956435 -0.0009632608660082779 0.021985853545995734 0.0 0.0
0.0 0.03732789468769816 0.030237234103117128 -0.029319370124171372 -0.0009178639789457466 0.020514598211707313 0.0 0.0
0.0 0.030993053356137112 0.024901511746268104 -0.02403004409371099 -0.00087146765255713 0.018391610099552688 0.0 0.0
0.0 0.02518571300644039 0.02013203993659799 -0.01930654953993162 -0.000825490396666384 0.016020466509161037 0.0 0.0
0.0 0.020028656102274008 0.015896165697271848 -0.015120545747296068 -0.0007756199499757853 0.01362496075411843 0.0 0.0
0.0 0.0154130554329976 0.012107463790605823 -0.01138978838809833 -0.0007176754025074955 0.011233613619212868 0.0 0.0
0.0 0.011255935107017553 0.0086872626850323 -0.008041122298608514 -0.0006461403864237806 0.008807364873445819 0.0 0.0
0.0 0.0074057184274125346 0.005636983443755408 -0.0050905777550453585 -0.000546405688710047 0.006337905582448579 0.0 0.0
0.0 0.004287655180702705 0.0030788283952018942 -0.002683966540841509 -0.00039486185436038413 0.0040148994695199626 0.0 0.0
0.0 0.0018944263140242912 0.0012630462405831112 -0.0010557059297525099 -0.00020734031083060098 0.0020767235300240116 0.0 0.0
0.0 0.0005813781156215016 0.0003225601926965922 -0.00026148708489789077 -6.107310779870149e-05 0.0007338874158004363 0.0 0.0
0.0 0.0001238504897001643 4.899570787588749e-05 -3.915744094351417e-05 -9.838266932373313e-06 0.0001532813475483807 0.0 0.0
0.0 1.5173377369443217e-05 4.603758309417918e-06 -3.623913677846061e-06 -9.79844631571848e-07 1.8734109582284538e-05 0.0 0.0
0.0 9.141280920891747e-07 -1.9605222757523598e-08 1.3448909076269349e-08 6.1563136812512414e-09 -9.846661922368678e-08 0.0 0.0
0.0 6.305102458760242e-07 -7.089892147158693e-09 5.074535912009278e-09 2.015356235150372e-09 -1.2874703620679312e-07 0.0 0.0
0.0 8.003657510204444e-07 -4.93873899825429e-09 8.566569401904653e-09 -3.62783040365042e-09 -4.940062712558724e-08 0.0 0.0
0.0 0.0008827186664700283 0.00047556065535438207 -0.0006106229886264435 0.0001350623332720613 0.0007608668864833234 0.0 0.0
0.0 0.0003528623956716726 0.00018752850900975038 -0.00025171662336145444 6.41881143517041e-05 -0.0003202056369457835 0.0 0.0
0.0 2.107583121416111e-06 -5.4847650914137035e-09 1.3335811871464718e-08 -7.851046780050793e-09 3.747336144967614e-07 0.0 0.0
0.0 8.129603515550081e-07 -9.729788138728575e-10 -5.062304710215263e-10 1.479209284894036e-09 1.6676851108718092e-07 0.0 0.0
0.0 1.3942118126280809e-06 -1.7202479833820512e-08 1.1633862331670308e-08 5.568617502153395e-09 2.882879494068393e-07 0.0 0.0
0.0 1.6109366005137047e-05 2.8042914163313718e-06 -2.1602424403698585e-06 -6.440489759615175e-07 -2.1312710980967255e-05 0.0 0.0
0.0 9.914196337961648e-05 2.305923596386638e-05 -1.8432331983131505e-05 -4.626903980734883e-06 -0.0001312636433704416 0.0 0.0
0.0 0.000312481174616775 0.00010273039154860154 -8.266960332094075e-05 -2.006078822766072e-05 -0.0004479220502030599 0.0 0.0
0.0 0.0008711747335744675 0.00040744663385819564 -0.0003309463855493017 -7.65002483088937e-05 -0.0012552578588778168 0.0 0.0
0.0 0.002145598179947823 0.0012266077081947578 -0.0010240948649991983 -0.00020251284319555988 -0.00266496987410334 0.0 0.0
0.0 0.004041189080231387 0.0026107858872541174 -0.0022575058650282577 -0.00035328002222585785 -0.004454404307729597 0.0 0.0
0.0 0.006364981226191304 0.00438641463451276 -0.003909631972758945 -0.0004767826617538136 -0.006426107552408461 0.0 0.0
0.0 0.009053444136390306 0.006396514203453641 -0.0058335428102617 -0.0005629713931919383 -0.008439916006726512 0.0 0.0
0.0 0.01197328095686401 0.008630973563066417 -0.008002983678322159 -0.0006279898847442546 -0.010487147373938351 0.0 0.0
0.0 0.01523079756036485 0.011145282890162991 -0.010467870166052854 -0.0006774127241101277 -0.012526866227177838 0.0 0.0
0.0 0.018907364070983694 0.014031509840554637 -0.013315077743735339 -0.0007164320968192954 -0.01454742453045019 0.0 0.0
0.0 0.02307480044061153 0.017396848362888104 -0.016645252560367814 -0.0007515958025202968 -0.016438606642395805 0.0 0.0
0.0 0.027768633447536176 0.021310292576588064 -0.020520490043150083 -0.0007898025334379917 -0.01785024465342219 0.0 0.0
0.0 0.03298445071433175 0.025867518892467307 -0.025047188734202943 -0.0008203301582643713 -0.018425026253720302 0.0 0.0
0.0 0.03917491266270538 0.03146585672879358 -0.03064602099663917 -0.0008198357321544273 -0.01799856031667624 0.0 0.0
0.0 0.04634204990456194 0.038478182403686265 -0.0375939506713254 -0.000884231732360892 -0.014287285684680816 0.0 0.0
0.0 0.04634204990456167 0.03847818240368356 -0.03759395067132242 -0.0008842317323611473 0.014287285684711055 0.0 0.0
0.0 0.03917491266270759 0.03146585672878972 -0.030646020996635503 -0.000819835732154197 0.01799856031672283 0.0 0.0
0.0 0.032984450714326485 0.025867518892457156 -0.02504718873419345 -0.0008203301582637012 0.018425026253754313 0.0 0.0
0.0 0.027768633447521188 0.02131029257657375 -0.020520490043135955 -0.0007898025334377877 0.017850244653428306 0.0 0.0
0.0 0.02307480044059113 0.017396848362872957 -0.01664525256035255 -0.0007515958025204113 0.016438606642382496 0.0 0.0
0.0 0.018907364070967953 0.014031509840542907 -0.013315077743723803 -0.0007164320968190983 0.014547424530439418 0.0 0.0
0.0 0.01523079756035476 0.011145282890154583 -0.010467870166045263 -0.0006774127241093238 0.012526866227174228 0.0 0.0
0.0 0.011973280956853447 0.00863097356305724 -0.008002983678313544 -0.0006279898847436982 0.01048714737393559 0.0 0.0
0.0 0.009053444136374642 0.006396514203442345 -0.005833542810250851 -0.000562971393191495 0.008439916006714086 0.0 0.0
0.0 0.006364981226175321 0.004386414634502065 -0.003909631972748693 -0.00047678266175337213 0.006426107552392951 0.0 0.0
0.0 0.00404118908021758 0.002610785887245501 -0.002257505865020333 -0.0003532800222251665 0.0044544043077148964 0.0 0.0
0.0 0.0021455981799405536 0.0012266077081902016 -0.0010240948649951711 -0.0002025128431950307 0.002664969874095391 0.0 0.0
0.0 0.0008711747335702668 0.0004074466338560552 -0.00033094638554753193 -7.650024830852309e-05 0.001255257858872948 0.0 0.0
0.0 0.00031248117461460823 0.00010273039154806119 -8.266960332048498e-05 -2.0060788227576157e-05 0.0004479220502007565 0.0 0.0
0.0 9.91419633780997e-05 2.305923596378693e-05 -1.8432331983071857e-05 -4.62690398071506e-06 0.0001312636433698904 0.0 0.0
0.0 1.610936600477053e-05 2.8042914163772924e-06 -2.1602424404051895e-06 -6.440489759721037e-07 2.1312710981328087e-05 0.0 0.0
0.0 1.3942118121365584e-06 -1.7202479827439693e-08 1.1633862327329383e-08 5.568617500112952e-09 -2.8828794930130727e-07 0.0 0.0
0.0 8.12960351106587e-07 -9.729788137991681e-10 -5.062304704954294e-10 1.479209284295063e-09 -1.667685109932312e-07 0.0 0.0
0.0 2.107583120887861e-06 -5.484765085305622e-09 1.3335811857714159e-08 -7.851046772408852e-09 -3.747336140429387e-07 0.0 0.0
0.0 0.00035286239566869693 0.00018752850900861958 -0.00025171662335998275 6.418811435136302e-05 0.00032020563694405604 0.0 0.0
0.0 8.783835801068651e-05 4.3394080715171605e-05 -6.110869015806783e-05 1.7714609442896207e-05 -7.830759822206018e-05 0.0 0.0
0.0 2.3409661729961703e-06 6.496376963596438e-10 1.3091562580591183e-08 -1.3741200276949575e-08 4.872012716183131e-07 0.0 0.0
0.0 1.323313623885133e-06 -2.5768480844875604e-08 2.3173803413430157e-08 2.5946774314453797e-09 -6.859913032217037e-07 0.0 0.0
0.0 2.9646759358686325e-06 -4.4375909547659476e-08 5.35240284940355e-08 -9.148118946375431e-09 -3.1277397535718974e-06 0.0 0.0
0.0 1.980412617088517e-05 6.243869753541793e-07 -4.1603110703119765e-07 -2.0835586832298824e-07 -2.3574409105212612e-05 0.0 0.0
0.0 9.500096675036843e-05 7.101276447344259e-06 -5.5814848888330206e-06 -1.5197915585112235e-06 -0.00013727560217631607 0.0 0.0
0.0 0.00024906529847137004 2.7669803150228532e-05 -2.2243679451282205e-05 -5.426123698946345e-06 -0.00039470898618985484 0.0 0.0
0.0 0.0005242897681692233 7.360634169776092e-05 -5.954106993531577e-05 -1.4065271762445052e-05 -0.0008018981763660434 0.0 0.0
0.0 0.0009296301528333667 0.00018384579289081767 -0.0001492446863151008 -3.460110657571684e-05 -0.001501024098012546 0.0 0.0
0.0 0.0016478876861381036 0.00042021903772122783 -0.00034093055697018994 -7.928848075103787e-05 -0.0025331393589147454 0.0 0.0
0.0 0.0025200138867548425 0.0008245073893504282 -0.0006696577820353709 -0.00015484960731505714 -0.003875670629943357 0.0 0.0
0.0 0.0036689556219811842 0.0013420180200121776 -0.001105541119594906 -0.0002364769004172713 -0.00537642153172532 0.0 0.0
0.0 0.005031470406389878 0.001989944899856277 -0.001679255321173512 -0.0003106895786827638 -0.00704233406221656 0.0 0.0
0.0 0.006629414666251599 0.0027703776486267514 -0.0023985552662167497 -0.0003718223824100027 -0.008847607054998157 0.0 0.0
0.0 0.008462999559947266 0.003754479536342236 -0.003334348144672305 -0.00042013139166992974 -0.010778627939953564 0.0 0.0
0.0 0.010654641235679206 0.005093761036427246 -0.004634474188089383 -0.0004592868483378602 -0.012711864351726783 0.0 0.0
0.0 0.013241621721010831 0.0070215856927010375 -0.006523823330779963 -0.0004977623619210697 -0.0142896834899667 0.0 0.0
0.0 0.01629999028789912 0.00975391053606738 -0.009207561147910983 -0.0005463493881563933 -0.014920414219940253 0.0 0.0
0.0 0.020374744483659137 0.01361443043143802 -0.013053240260899547 -0.0005611901705384704 -0.014595590510218968 0.0 0.0
0.0 0.02664709503687389 0.019783774415709485 -0.019248213383595766 -0.0005355610321137263 -0.013528755276792686 0.0 0.0
0.0 0.02664709503687704 0.019783774415709672 -0.019248213383595933 -0.0005355610321137376 0.0135287552768166 0.0 0.0
0.0 0.02037474448366074 0.013614430431434043 -0.013053240260895473 -0.0005611901705385716 0.014595590510254712 0.0 0.0
0.0 0.016299990287896436 0.009753910536061885 -0.00920756114790543 -0.0005463493881564512 0.014920414219958494 0.0 0.0
0.0 0.013241621721003807 0.007021585692696003 -0.006523823330774986 -0.0004977623619210148 0.014289683489966194 0.0 0.0
0.0 0.010654641235669414 0.005093761036423259 -0.004634474188085671 -0.0004592868483375872 0.0127118643517138 0.0 0.0
0.0 0.008462999559936903 0.003754479536336984 -0.0033343481446672647 -0.00042013139166971876 0.010778627939943598 0.0 0.0
0.0 0.006629414666245468 0.00277037764862442 -0.0023985552662142773 -0.00037182238241014246 0.008847607054990929 0.0 0.0
0.0 0.005031470406384565 0.001989944899854671 -0.0016792553211721027 -0.00031068957868256775 0.007042334062209587 0.0 0.0
0.0 0.003668955621973379 0.0013420180200098505 -0.0011055411195929315 -0.0002364769004169189 0.005376421531714453 0.0 0.0
0.0 0.002520013886748311 0.000824507389349057 -0.0006696577820341851 -0.00015484960731487166 0.0038756706299330375 0.0 0.0
0.0 0.0016478876861331275 0.00042021903772016824 -0.0003409305569693666 -7.928848075080182e-05 0.002533139358907766 0.0 0.0
0.0 0.0009296301528309355 0.000183845792890364 -0.00014924468631475024 -3.460110657561368e-05 0.0015010240980086063 0.0 0.0
0.0 0.0005242897681672109 7.360634169742811e-05 -5.9541069935061016e-05 -1.4065271762367032e-05 0.00080189817636271 0.0 0.0
0.0 0.00024906529846956664 2.7669803150121196e-05 -2.2243679451187266e-05 -5.42612369893391e-06 0.00039470898618837257 0.0 0.0
0.0 9.500096674860579e-05 7.101276447288013e-06 -5.581484888784597e-06 -1.5197915585034153e-06 0.00013727560217506346 0.0 0.0
0.0 1.9804126170529925e-05 6.243869753631696e-07 -4.16031107037076e-07 -2.083558683260971e-07 2.357440910557455e-05 0.0 0.0
0.0 2.964675935774588e-06 -4.437590956131273e-08 5.352402851009228e-08 -9.148118948779628e-09 3.1277397544166108e-06 0.0 0.0
0.0 1.323313623830781e-06 -2.5768480876209262e-08 2.3173803442334372e-08 2.5946774338746773e-09 6.85991303996335e-07 0.0 0.0
0.0 2.340966172321822e-06 6.496376968874008e-10 1.3091562575233056e-08 -1.3741200272117913e-08 -4.87201271473837e-07 0.0 0.0
0.0 8.78383580091138e-05 4.3394080714792555e-05 -6.11086901575507e-05 1.7714609442758073e-05 7.830759822144647e-05 0.0 0.0
0.0 6.431363563818425e-06 2.22062726198171e-06 -3.215988006255179e-06 9.9536074427346e-07 -4.557411033524069e-06 0.0 0.0
0.0 2.210353400804357e-06 -1.3435785203566596e-08 1.2203080709374944e-08 1.2327044941965094e-09 -1.261165298802587e-07 0.0 0.0
0.0 3.432888095536993e-06 -2.298558799807728e-07 1.940035802621609e-07 3.58522997186127e-08 -2.672110728702427e-06 0.0 0.0
0.0 5.858032704375251e-06 -6.228911764653761e-07 5.445220047152654e-07 7.836917175011111e-08 -7.367126820431112e-06 0.0 0.0
0.0 2.51485833427025e-05 -2.137084153341049e-06 1.8509023753916877e-06 2.8618177794937123e-07 -3.084535679316282e-05 0.0 0.0
0.0 0.00010184723027659231 -9.286377429689494e-06 7.644637949430958e-06 1.6417394802585284e-06 -0.00014046335637275397 0.0 0.0
0.0 0.0002508857001401166 -2.916474301932771e-05 2.3611104112520855e-05 5.553638906806837e-06 -0.0003978272629070721 0.0 0.0
0.0 0.0005245861773428627 -7.383762480144708e-05 5.973148039866931e-05 1.4106144402777721e-05 -0.0008035156396634529 0.0 0.0
0.0 0.0009296801452800274 -0.00018361389994344337 0.0001490499798753784 3.456392006806488e-05 -0.001501726279791192 0.0 0.0
0.0 0.0016464634930303068 -0.0004194515456909453 0.00034023076777273044 7.922077791821485e-05 -0.002531822458300934 0.0 0.0
0.0 0.0025304746770285326 -0.0008253489703840293 0.0006712891458292379 0.00015405982455479088 -0.0038762141840267303 0.0 0.0
0.0 0.0036854724057149325 -0.001362625424288252 0.0011259481310150067 0.00023667729327324455 -0.005387715570226045 0.0 0.0
0.0 0.0050749930193033565 -0.0020428177205564163 0.0017300232164535441 0.00031279450410287026 -0.0070574653883535435 0.0 0.0
0.0 0.006672730559555735 -0.002828354837469595 0.002448775264988612 0.0003795795724809804 -0.008852560380163476 0.0 0.0
0.0 0.008347565388800054 -0.003621453997206836 0.003182997216011215 0.0004384567811956206 -0.010767248893598891 0.0 0.0
0.0 0.009980887723237202 -0.0042074475627280495 0.0037174230540336656 0.000490024508694379 -0.012763501374883319 0.0 0.0
0.0 0.011261792507776753 -0.004250394269699375 0.0037176911325326337 0.0005327031371667396 -0.014828143781393266 0.0 0.0
0.0 0.01204964027111485 -0.003472037966248123 0.0029118835810946512 0.0005601543851534701 -0.017014539680508537 0.0 0.0
0.0 0.012314998796921049 -0.0019158955781991226 0.0013961895188472385 0.0005197060593518839 -0.0189435530348487 0.0 0.0
0.0 0.012010187927812088 0.0027903908457535894 -0.0028631429918574316 7.275214610384077e-05 -0.01770303371044301 0.0 0.0
0.0 0.01201018792781513 0.0027903908457524345 -0.0028631429918566814 7.275214610424961e-05 0.017703033710452218 0.0 0.0
0.0 0.012314998796923306 -0.0019158955781989468 0.001396189518846885 0.0005197060593520604 0.018943553034859742 0.0 0.0
0.0 0.012049640271111717 -0.0034720379662475515 0.0029118835810946096 0.0005601543851529388 0.017014539680507243 0.0 0.0
0.0 0.011261792507766233 -0.004250394269693692 0.0037176911325272613 0.0005327031371664277 0.01482814378138574 0.0 0.0
0.0 0.009980887723225213 -0.004207447562721383 0.00371742305402731 0.0004900245086940712 0.012763501374870086 0.0 0.0
0.0 0.008347565388790152 -0.0036214539972014063 0.003182997216006166 0.00043845678119523826 0.010767248893589005 0.0 0.0
0.0 0.006672730559546532 -0.0028283548374644697 0.0024487752649840068 0.00037957957248046186 0.008852560380154705 0.0 0.0
0.0 0.0050749930192924295 -0.002042817720549826 0.0017300232164475463 0.000312794504102279 0.007057465388344248 0.0 0.0
0.0 0.0036854724057035658 -0.0013626254242825192 0.001125948131009993 0.0002366772932725263 0.005387715570214683 0.0 0.0
0.0 0.002530474677018615 -0.0008253489703798053 0.0006712891458256412 0.00015405982455416446 0.003876214184014212 0.0 0.0
0.0 0.001646463493023515 -0.0004194515456883316 0.0003402307677705204 7.92207779178111e-05 0.0025318224582926508 0.0 0.0
0.0 0.0009296801452762625 -0.00018361389994218686 0.0001490499798743402 3.456392006784668e-05 0.0015017262797856728 0.0 0.0
0.0 0.0005245861773409007 -7.38376248010548e-05 5.97314803983323e-05 1.4106144402722463e-05 0.0008035156396607587 0.0 0.0
0.0 0.00025088570013866304 -2.9164743019230517e-05 2.361110411248224e-05 5.553638906748262e-06 0.00039782726290602715 0.0 0.0
0.0 0.00010184723027518847 -9.286377429660644e-06 7.644637949414974e-06 1.6417394802456814e-06 0.00014046335637226797 0.0 0.0
0.0 2.5148583342055267e-05 -2.1370841533460467e-06 1.850902375395747e-06 2.8618177795029513e-07 3.084535679326366e-05 0.0 0.0
0.0 5.858032704123214e-06 -6.228911765105179e-07 5.4452200475454e-07 7.83691717559784e-08 7.367126820935728e-06 0.0 0.0
0.0 3.432888095158044e-06 -2.2985588007716164e-07 1.9400358034334547e-07 3.585229973381676e-08 2.6721107298076803e-06 0.0 0.0
0.0 2.210353400221655e-06 -1.3435785218855251e-08 1.220308070953087e-08 1.2327045093292807e-09 1.2611653039694656e-07 0.0 0.0
0.0 6.431363563354577e-06 2.2206272621785397e-06 -3.215988006546395e-06 9.953607443678572e-07 4.557411033946573e-06 0.0 0.0
0.0 5.791226492451869e-07 -3.285152939261594e-08 4.863961923435166e-08 -1.578808984173702e-08 8.324711323925464e-08 0.0 0.0
0.0 1.060950242115051e-06 -1.7168916614124264e-08 1.3649192290521715e-08 3.519724323601009e-09 -3.1468535006377686e-07 0.0 0.0
0.0 4.344640265520669e-06 -4.84063174900498e-07 4.0008538397929684e-07 8.39777909211969e-08 -3.7112123807122037e-06 0.0 0.0
0.0 9.577852105977729e-06 -9.948397840140746e-07 8.560569853437792e-07 1.387827986703091e-07 -6.830225943594439e-06 0.0 0.0
0.0 3.2043070302248375e-05 -6.763866092608905e-06 5.63171696288074e-06 1.1321491297281694e-06 -4.0826836006432956e-05 0.0 0.0
0.0 0.00011203638283875864 -2.858254890636265e-05 2.3134243578568606e-05 5.44830532779402e-06 -0.0001519308316528931 0.0 0.0
0.0 0.0003254191321221776 -0.00010656031514099079 8.593339386563464e-05 2.062692127535618e-05 -0.00045844782158790585 0.0 0.0
0.0 0.0008769476778681563 -0.0004100598170589 0.0003331153118311737 7.694450522772619e-05 -0.0012622647770859862 0.0 0.0
0.0 0.002143537476838783 -0.0012256968798253767 0.0010232883442730892 0.00020240853555228704 -0.0026651644263680162 0.0 0.0
0.0 0.004039143924756398 -0.0026097892932724536 0.002256789495522096 0.0003529997977503575 -0.004453444853831857 0.0 0.0
0.0 0.006371229290537461 -0.004392313965428657 0.003916174900106127 0.00047613906532252613 -0.006428328805853004 0.0 0.0
0.0 0.009078470066528599 -0.006422791404459351 0.0058607708226297165 0.0005620205818296373 -0.008439198820801578 0.0 0.0
0.0 0.012024877420017928 -0.008690067236592724 0.008061860136623487 0.0006282070999692353 -0.010464576922239816 0.0 0.0
0.0 0.015272789196578646 -0.011199659471054975 0.010515636342722167 0.0006840231283328163 -0.012484801841103097 0.0 0.0
0.0 0.018747857482565477 -0.013866056616209621 0.013129526389527468 0.0007365302266821517 -0.014575609180124481 0.0 0.0
0.0 0.022197195137274642 -0.0164367502433457 0.015649559784045003 0.0007871904593006933 -0.016822299788670978 0.0 0.0
0.0 0.025231427595045583 -0.018483722959613043 0.01765263443038623 0.0008310885292268158 -0.01929673713834237 0.0 0.0
0.0 0.027238808247522263 -0.01947196005551003 0.018611188294327317 0.0008607717611827213 -0.02190745156704544 0.0 0.0
0.0 0.026621452787529656 -0.018350079213386945 0.017394231875374484 0.0009558473380124496 -0.02298073964974687 0.0 0.0
0.0 0.020901109804823088 -0.012517113011890992 0.011472103910655248 0.0010450091012357348 -0.020419317338094437 0.0 0.0
0.0 0.020901109804830488 -0.012517113011891262 0.011472103910655103 0.0010450091012361607 0.020419317338120847 0.0 0.0
0.0 0.02662145278754239 -0.018350079213389665 0.017394231875377447 0.0009558473380122048 0.022980739649786176 0.0 0.0
0.0 0.027238808247517822 -0.019471960055501402 0.018611188294318844 0.0008607717611825443 0.021907451567067526 0.0 0.0
0.0 0.025231427595030314 -0.018483722959599293 0.017652634430372925 0.0008310885292263719 0.019296737138342006 0.0 0.0
0.0 0.022197195137250422 -0.01643675024332626 0.015649559784025685 0.0007871904593005701 0.016822299788657805 0.0 0.0
0.0 0.018747857482543484 -0.013866056616192876 0.013129526389510928 0.0007365302266819496 0.014575609180109037 0.0 0.0
0.0 0.015272789196559533 -0.011199659471039724 0.0105156363427074 0.00068402312833232 0.012484801841092758 0.0 0.0
0.0 0.012024877419996506 -0.00869006723657504 0.008061860136606177 0.0006282070999688591 0.010464576922229112 0.0 0.0
0.0 0.009078470066506446 -0.006422791404442759 0.005860770822613698 0.0005620205818290587 0.008439198820785334 0.0 0.0
0.0 0.0063712292905183324 -0.004392313965415342 0.003916174900093614 0.00047613906532172854 0.006428328805835914 0.0 0.0
0.0 0.004039143924738102 -0.0026097892932599263 0.0022567894955106372 0.00035299979774928807 0.004453444853814591 0.0 0.0
0.0 0.002143537476828093 -0.0012256968798179853 0.0010232883442666233 0.0002024085355513628 0.0026651644263573472 0.0 0.0
0.0 0.000876947677863203 -0.0004100598170560833 0.00033311531182887147 7.694450522721191e-05 0.0012622647770801363 0.0 0.0
0.0 0.00032541913211977115 -0.0001065603151403838 8.593339386515783e-05 2.0626921275225922e-05 0.000458447821585667 0.0 0.0
0.0 0.00011203638283690723 -2.85825489061661e-05 2.3134243578407985e-05 5.4483053277580915e-06 0.00015193083165186995 0.0 0.0
0.0 3.2043070301317344e-05 -6.763866092623378e-06 5.63171696289483e-06 1.1321491297285296e-06 4.082683600652378e-05 0.0 0.0
0.0 9.57785210541951e-06 -9.9483978411729e-07 8.560569854306908e-07 1.3878279868660212e-07 6.8302259442580125e-06 0.0 0.0
0.0 4.3446402649168744e-06 -4.840631750014027e-07 4.000853840616721e-07 8.397779093973027e-08 3.7112123814841997e-06 0.0 0.0
0.0 1.060950241730525e-06 -1.7168916634852123e-08 1.3649192287186953e-08 3.5197243476655194e-09 3.146853506569284e-07 0.0 0.0
0.0 5.791226488939735e-07 -3.285152937202806e-08 4.863961920387383e-08 -1.57880898318369e-08 -8.324711318699175e-08 0.0 0.0
0.0 0.0 0.0 0.0 0.0 0.0 0.0 0.0
0.0 1.2508586812791678e-06 1.7693331314728913e-08 -8.022362203851962e-09 -9.670969110877117e-09 2.5436291706895875e-07 0.0 0.0
0.0 3.926671383941026e-06 -1.3032643400678763e-07 1.0671856421178443e-07 2.3607869794999472e-08 -6.893036852651312e-07 0.0 0.0
0.0 1.1743078439708453e-05 -1.3508106426577297e-06 1.1077998482292758e-06 2.430107944284623e-07 -5.741441764810776e-06 0.0 0.0
0.0 3.957901498926303e-05 -1.240657234885719e-05 1.0118064431706798e-05 2.2885079171504013e-06 -4.530004014675214e-05 0.0 0.0
0.0 0.00015104916489434053 -6.187874519932837e-05 4.994314674029614e-05 1.1935598459032187e-05 -0.00018773456888594755 0.0 0.0
0.0 0.0006055200279389376 -0.00033373088781548505 0.00027101112262476596 6.271976519071902e-05 -0.0007559703862407031 0.0 0.0
0.0 0.0018985432947635054 -0.0012643513048684488 0.001056992489481128 0.00020735881538732118 -0.002082746497684462 0.0 0.0
0.0 0.004282671227620587 -0.003076064549154852 0.0026814068583629704 0.00039465769079188027 -0.004011820883127851 0.0 0.0
0.0 0.007405049803815619 -0.00563736021613067 0.00509112108162606 0.0005462391345046082 -0.006336904992414425 0.0 0.0
0.0 0.011263725973521032 -0.008694691602021302 0.0080491387763378 0.0006455528256835083 -0.008807911459576306 0.0 0.0
0.0 0.015430629486509915 -0.012128498845590257 0.0114119894320644 0.000716509413525859 -0.011214325116739976 0.0 0.0
0.0 0.020051838146824017 -0.015938130166726606 0.015162931963706897 0.0007751982030197157 -0.013539841844373289 0.0 0.0
0.0 0.025182524124291332 -0.020163914045289173 0.019333425282608514 0.0008304887626806516 -0.015867612646889 0.0 0.0
0.0 0.03082079319420164 -0.024743301044988494 0.02385483575956753 0.0008884652854209466 -0.018390736829209123 0.0 0.0
0.0 0.03660518706115557 -0.029398681247387957 0.02844959417858066 0.0009490870688072767 -0.021380000041220225 0.0 0.0
0.0 0.042080865249735575 -0.03359202187658365 0.032584404698164586 0.0010076171784190492 -0.025017167235488177 0.0 0.0
0.0 0.045852665085018104 -0.03639570669829747 0.03531370571298753 0.00108200098530993 -0.028643056810301576 0.0 0.0
0.0 0.0460426842454021 -0.03605470842652229 0.034878683080125365 0.001176025346396907 -0.03044009493226699 0.0 0.0
0.0 0.037857541125216276 -0.029104128164678573 0.02771189510910291 0.0013922330555756577 -0.02663507607881086 0.0 0.0
0.0 0.03785754112522629 -0.02910412816468014 0.02771189510910455 0.0013922330555755928 0.026635076078847963 0.0 0.0
0.0 0.0460426842454085 -0.036054708426518964 0.034878683080122305 0.0011760253463966351 0.030440094932315358 0.0 0.0
0.0 0.04585266508500983 -0.03639570669828405 0.035313705712974895 0.001082000985309141 0.028643056810332676 0.0 0.0
0.0 0.04208086524971035 -0.033592021876559956 0.03258440469814151 0.0010076171784184726 0.025017167235492466 0.0 0.0
0.0 0.03660518706112367 -0.02939868124736122 0.028449594178554378 0.000949087068806846 0.021380000041206843 0.0 0.0
0.0 0.030820793194172545 -0.024743301044964326 0.023854835759543776 0.0008884652854205396 0.018390736829196074 0.0 0.0
0.0 0.02518252412426148 -0.020163914045264728 0.019333425282584145 0.000830488762680577 0.015867612646873974 0.0 0.0
0.0 0.02005183814679128 -0.015938130166698917 0.015162931963679325 0.0007751982030195876 0.013539841844360634 0.0 0.0
0.0 0.015430629486478288 -0.012128498845564592 0.011411989432039107 0.0007165094135254818 0.011214325116721859 0.0 0.0
0.0 0.011263725973490207 -0.008694691601997174 0.00804913877631421 0.0006455528256829632 0.00880791145955428 0.0 0.0
0.0 0.00740504980378825 -0.005637360216110197 0.005091121081606129 0.0005462391345040672 0.006336904992392348 0.0 0.0
0.0 0.0042826712276044735 -0.0030760645491422303 0.0026814068583512585 0.0003946576907909711 0.004011820883116199 0.0 0.0
0.0 0.001898543294753165 -0.0012643513048610213 0.0010569924894747221 0.00020735881538629905 0.0020827464976753795 0.0 0.0
0.0 0.0006055200279341559 -0.00033373088781312506 0.00027101112262285304 6.271976519027191e-05 0.0007559703862361816 0.0 0.0
0.0 0.00015104916489294874 -6.187874519928926e-05 4.994314674026872e-05 1.1935598459020506e-05 0.00018773456888564934 0.0 0.0
0.0 3.9579014988356e-05 -1.2406572348961917e-05 1.0118064431792338e-05 2.2885079171695413e-06 4.530004014713658e-05 0.0 0.0
0.0 1.174307843918323e-05 -1.3508106428465447e-06 1.1077998483855782e-06 2.4301079446095467e-07 5.741441765638509e-06 0.0 0.0
0.0 3.926671383602839e-06 -1.3032643417250695e-07 1.0671856434682844e-07 2.3607869825684848e-08 6.893036862242495e-07 0.0 0.0
0.0 1.2508586809248778e-06 1.7693331309732382e-08 -8.022362201433076e-09 -9.67096910830339e-09 -2.543629169952669e-07 0.0 0.0
0.0 0.0 0.0 0.0 0.0 0.0 0.0 0.0
0.0 0.0 0.0 0.0 0.0 0.0 0.0 0.0
0.0 1.142611525848342e-07 2.288734892542505e-09 -1.5997618405167106e-09 -6.88973052025528e-10 2.247828464461184e-08 0.0 0.0
0.0 2.2771202926524573e-06 2.1331364151365173e-08 -1.6867430869364666e-08 -4.4639332820053605e-09 1.212916709199155e-07 0.0 0.0
0.0 1.1477749750815603e-05 -2.639253452525113e-06 2.1805079076324136e-06 4.587455448926959e-07 -8.697320543620462e-06 0.0 0.0
0.0 4.9624323275127836e-05 -1.9450093428024254e-05 1.5834329101653635e-05 3.615764326370644e-06 -4.98860773843963e-05 0.0 0.0
0.0 0.0002632320090982052 -0.00015161507717849536 0.00012243485508317504 2.918022209532032e-05 -0.00029541540970300827 0.0 0.0
0.0 0.0011745627323982155 -0.0008178032013949079 0.0006750879314144892 0.00014271526998041893 -0.0011648712744692562 0.0 0.0
0.0 0.0033056199984166116 -0.0025087597981051073 0.002161204017060754 0.0003475557810443524 -0.002781314284665655 0.0 0.0
0.0 0.006715706282430892 -0.0052902873592923245 0.004755502587762911 0.0005347847715294152 -0.005013983617677046 0.0 0.0
0.0 0.011106833649388054 -0.00894855862610225 0.008287504644036894 0.0006610539820653547 -0.0076562906765267 0.0 0.0
0.0 0.016255507016551072 -0.01323522022241311 0.012489472200018958 0.0007457480223941545 -0.01037736515923799 0.0 0.0
0.0 0.022016638868196558 -0.018045504351724542 0.01723044870812247 0.0008150556436020723 -0.012971991950372753 0.0 0.0
0.0 0.028412922339985932 -0.023396124840595355 0.02251907324113537 0.0008770515994599656 -0.015465912460084894 0.0 0.0
0.0 0.035460241478850914 -0.029352221253206363 0.02841415508338598 0.0009380661698203828 -0.017978827345720098 0.0 0.0
0.0 0.043247758296429746 -0.035880748733057403 0.034877936077880776 0.0010028126551766133 -0.020772827292097264 0.0 0.0
0.0 0.051477018536302224 -0.042692110361272684 0.04161677249889327 0.001075337862379404 -0.024275150093327924 0.0 0.0
0.0 0.059264954621500575 -0.04904796266355846 0.0478893017284718 0.0011586609350866333 -0.02866340805595903 0.0 0.0
0.0 0.064987727835866 -0.053521663499855925 0.052264707756644414 0.0012569557432114597 -0.033142452454160615 0.0 0.0
0.0 0.0654919504378589 -0.05363173188077751 0.05223621643155933 0.0013955154492181594 -0.035368990234338066 0.0 0.0
0.0 0.05537728402649552 -0.04498046849361315 0.043368784852336285 0.0016116836412768958 -0.031910025860350646 0.0 0.0
0.0 0.05537728402649675 -0.04498046849360791 0.04336878485233073 0.0016116836412771525 0.031910025860389345 0.0 0.0
0.0 0.06549195043785516 -0.053631731880766205 0.05223621643154851 0.0013955154492176801 0.03536899023438893 0.0 0.0
0.0 0.06498772783584761 -0.05352166349983378 0.05226470775662289 0.0012569557432108552 0.0331424524541979 0.0 0.0
0.0 0.05926495462146658 -0.04904796266352666 0.047889301728440886 0.001158660935085756 0.02866340805596672 0.0 0.0
0.0 0.05147701853626051 -0.042692110361236525 0.04161677249885774 0.0010753378623787713 0.024275150093317696 0.0 0.0
0.0 0.04324775829638844 -0.03588074873302223 0.034877936077846235 0.0010028126551759713 0.020772827292082977 0.0 0.0
0.0 0.03546024147881173 -0.02935222125317325 0.028414155083353584 0.000938066169819665 0.01797882734570433 0.0 0.0
0.0 0.028412922339947043 -0.023396124840562006 0.02251907324110277 0.0008770515994592375 0.015465912460071883 0.0 0.0
0.0 0.02201663886815751 -0.018045504351691534 0.017230448708090252 0.0008150556436012746 0.012971991950354696 0.0 0.0
0.0 0.01625550701651232 -0.013235220222381449 0.012489472199987967 0.0007457480223934745 0.01037736515921475 0.0 0.0
0.0 0.011106833649351288 -0.008948558626072979 0.008287504644008188 0.0006610539820647867 0.007656290676501302 0.0 0.0
0.0 0.006715706282407653 -0.005290287359273951 0.004755502587745398 0.0005347847715285546 0.005013983617662193 0.0 0.0
0.0 0.0033056199984030014 -0.0025087597980944275 0.0021612040170511954 0.0003475557810432315 0.0027813142846563428 0.0 0.0
0.0 0.0011745627323896711 -0.0008178032013889852 0.0006750879314094767 0.0001427152699795081 0.0011648712744622655 0.0 0.0
0.0 0.0002632320090947325 -0.00015161507717701886 0.00012243485508195082 2.9180222095068128e-05 0.0002954154097003096 0.0 0.0
0.0 4.962432327402465e-05 -1.9450093427983474e-05 1.5834329101619103e-05 3.6157643263643247e-06 4.988607738429986e-05 0.0 0.0
0.0 1.1477749750094813e-05 -2.639253452665216e-06 2.1805079077461476e-06 4.5874554491906017e-07 8.697320544075083e-06 0.0 0.0
0.0 2.277120292050319e-06 2.1331364050389478e-08 -1.6867430789383017e-08 -4.463933261008367e-09 -1.2129167048108167e-07 0.0 0.0
0.0 1.1426115247963744e-07 2.288734890412389e-09 -1.5997618390303778e-09 -6.889730513817681e-10 -2.247828462369251e-08 0.0 0.0
0.0 0.0 0.0 0.0 0.0 0.0 0.0 0.0
0.0 0.0 0.0 0.0 0.0 0.0 0.0 0.0
0.0 0.0 0.0 0.0 0.0 0.0 0.0 0.0
0.0 6.301117771691601e-07 3.177133557320747e-08 -2.5610055499987776e-08 -6.161280073216576e-09 1.139376708674144e-07 0.0 0.0
0.0 1.0943220632008052e-05 -1.1243027956037334e-06 9.08396888143762e-07 2.1590590745998204e-07 -2.612260556396197e-06 0.0 0.0
0.0 7.91663497987769e-05 -3.378521782095224e-05 2.727269423340121e-05 6.512523587551015e-06 -6.041290825014586e-05 0.0 0.0
0.0 0.000501511838498846 -0.0003531540555213413 0.00028700071065378965 6.61533448675516e-05 -0.00046222916127393587 0.0 0.0
0.0 0.0020028573349420813 -0.001544795557170632 0.0013009390445642677 0.00024385651260636358 -0.0015042500509237031 0.0 0.0
0.0 0.004955314576048302 -0.0040078532002619065 0.0035419137794055373 0.00046593942085636935 -0.00324207211931779 0.0 0.0
0.0 0.009320539137873389 -0.007708683149670474 0.0070790343662963835 0.0006296487833740911 -0.005617015599057008 0.0 0.0
0.0 0.014883027161220171 -0.012404969726120672 0.011668089195539588 0.000736880530581085 -0.008330900055316282 0.0 0.0
0.0 0.021392881601772173 -0.017894483654892233 0.01707482217927882 0.0008196614756134123 -0.011074290888222869 0.0 0.0
0.0 0.028716009501141473 -0.024082133388540684 0.02318885913585716 0.0008932742526835325 -0.01370983884612784 0.0 0.0
0.0 0.036844334664594 -0.030980922961293567 0.030018739850106706 0.0009621831111868345 -0.016254935632007517 0.0 0.0
0.0 0.04588094371108259 -0.03866798526095511 0.037638617983966914 0.0010293672769881848 -0.018803254566100856 0.0 0.0
0.0 0.055908024678716924 -0.04715337776826216 0.046051930205176624 0.0011014475630855348 -0.021635071146975937 0.0 0.0
0.0 0.06637882382541904 -0.05612591422068919 0.05493833114411373 0.0011875830765754466 -0.02521274799531811 0.0 0.0
0.0 0.0766539884933446 -0.06460619435018342 0.06331269727575022 0.0012934970744332168 -0.029794181467703428 0.0 0.0
0.0 0.08410817258507963 -0.0706325191008019 0.06920848041383969 0.001424038686962195 -0.0346904483458683 0.0 0.0
0.0 0.08478199799488664 -0.07093082266053913 0.06934350694411894 0.0015873157164201577 -0.037723281115458605 0.0 0.0
0.0 0.0730099674707442 -0.06056579665784122 0.05878226346730697 0.0017835331905342474 -0.03656139689675644 0.0 0.0
0.0 0.0730099674707454 -0.06056579665783625 0.058782263467301706 0.0017835331905345332 0.036561396896798555 0.0 0.0
0.0 0.08478199799487725 -0.07093082266052404 0.06934350694410393 0.0015873157164200844 0.0377232811155114 0.0 0.0
0.0 0.0841081725850526 -0.07063251910077363 0.06920848041381113 0.0014240386869624668 0.0346904483459067 0.0 0.0
0.0 0.07665398849330055 -0.06460619435014352 0.06331269727571015 0.0012934970744333282 0.029794181467712736 0.0 0.0
0.0 0.0663788238253673 -0.05612591422064418 0.054938331144069145 0.0011875830765750287 0.025212747995309308 0.0 0.0
0.0 0.05590802467866476 -0.047153377768217326 0.04605193020513207 0.001101447563085292 0.021635071146962455 0.0 0.0
0.0 0.04588094371103107 -0.038667985260910934 0.03763861798392312 0.0010293672769878096 0.01880325456608526 0.0 0.0
0.0 0.036844334664540596 -0.03098092296124754 0.030018739850060792 0.0009621831111867386 0.016254935631994004 0.0 0.0
0.0 0.02871600950108842 -0.024082133388495523 0.023188859135812232 0.0008932742526832809 0.013709838846108297 0.0 0.0
0.0 0.02139288160172499 -0.017894483654852945 0.017074822179240008 0.0008196614756129275 0.01107429088819817 0.0 0.0
0.0 0.014883027161181193 -0.012404969726088193 0.011668089195507714 0.0007368805305804896 0.00833090005529309 0.0 0.0
0.0 0.009320539137843057 -0.0077086831496452 0.0070790343662717435 0.0006296487833734618 0.005617015599041255 0.0 0.0
0.0 0.004955314576027277 -0.004007853200244731 0.0035419137793893276 0.0004659394208554043 0.0032420721193058897 0.0 0.0
0.0 0.002002857334930167 -0.001544795557161572 0.0013009390445563808 0.00024385651260519102 0.001504250050915845 0.0 0.0
0.0 0.0005015118384939159 -0.00035315405551838617 0.0002870007106513855 6.615334486700074e-05 0.00046222916127046983 0.0 0.0
0.0 7.91663497975572e-05 -3.378521782090749e-05 2.7272694233352926e-05 6.512523587554464e-06 6.041290825002798e-05 0.0 0.0
0.0 1.094322063147506e-05 -1.1243027957901103e-06 9.083968882939095e-07 2.1590590749621126e-07 2.612260556855816e-06 0.0 0.0
0.0 6.301117768796378e-07 3.177133555832444e-08 -2.5610055487985994e-08 -6.161280070339225e-09 -1.1393767081387647e-07 0.0 0.0
0.0 0.0 0.0 0.0 0.0 0.0 0.0 0.0
0.0 0.0 0.0 0.0 0.0 0.0 0.0 0.0
0.0 0.0 0.0 0.0 0.0 0.0 0.0 0.0
0.0 0.0 0.0 0.0 0.0 0.0 0.0 0.0
0.0 9.159772724021529e-07 5.630253744311479e-08 -4.536700834069255e-08 -1.0935529102421052e-08 1.5681455061216043e-07 0.0 0.0
0.0 8.164109300267528e-06 -2.7550037078101403e-06 2.2136854583172613e-06 5.413182494929209e-07 -5.070009249456056e-06 0.0 0.0
0.0 0.00013026467420892317 -8.04390000911499e-05 6.468449265021795e-05 1.575450744093198e-05 -0.00010329232930993464 0.0 0.0
0.0 0.0009081241053291299 -0.000692352485761779 0.0005681321719625143 0.00012422031379926514 -0.0006188642651224971 0.0 0.0
0.0 0.0030704123048859028 -0.0024671575894402594 0.002121364092987466 0.00034579349645279353 -0.0016973992832129648 0.0 0.0
0.0 0.006708673088463188 -0.005685192028460926 0.005128298979939235 0.0005568930485216916 -0.003443396217845564 0.0 0.0
0.0 0.012021205045774669 -0.010236341987787848 0.009541574585654262 0.000694767402133589 -0.005744485661101526 0.0 0.0
0.0 0.018736216712770714 -0.015936343492861212 0.015141753512475587 0.0007945899803856293 -0.008321760545521337 0.0 0.0
0.0 0.026603807772743574 -0.022622212761753847 0.021741559273294825 0.0008806534884590086 -0.010953178610061353 0.0 0.0
0.0 0.03547023034050104 -0.030193021402179353 0.0292320152695165 0.0009610061326628242 -0.013482903932200252 0.0 0.0
0.0 0.045407684330928816 -0.038648996049411966 0.03761101339310467 0.0010379826563073106 -0.01593938827385662 0.0 0.0
0.0 0.0563051706532509 -0.0480646292513949 0.04695217004624492 0.0011124592051499841 -0.01841078113336371 0.0 0.0
0.0 0.0684360103448029 -0.058464423050860234 0.05727316981991393 0.0011912532309463072 -0.02102830420895083 0.0 0.0
0.0 0.08145932765324315 -0.06952818204524185 0.06823844311894169 0.001289738926300152 -0.02418493076783619 0.0 0.0
0.0 0.09373305112962438 -0.08007530452259812 0.07865699754206491 0.0014183069805331502 -0.02839810887576945 0.0 0.0
0.0 0.10270581397878276 -0.08759652561425343 0.0860188251534282 0.001577700460825191 -0.03346202572680599 0.0 0.0
0.0 0.10378234774770148 -0.08811359966536622 0.08635784412521019 0.001755755540155999 -0.03804632139873072 0.0 0.0
0.0 0.09104215786911529 -0.07627950828694574 0.07433978692226036 0.001939721364685387 -0.04092569543062963 0.0 0.0
0.0 0.09104215786911374 -0.07627950828693875 0.07433978692225363 0.0019397213646850965 0.04092569543067234 0.0 0.0
0.0 0.10378234774768227 -0.08811359966534402 0.08635784412518768 0.0017557555401563007 0.038046321398783035 0.0 0.0
0.0 0.10270581397874685 -0.08759652561421816 0.08601882515339333 0.001577700460824802 0.033462025726844584 0.0 0.0
0.0 0.09373305112957278 -0.08007530452255196 0.07865699754201888 0.001418306980533037 0.02839810887577922 0.0 0.0
0.0 0.08145932765318234 -0.0695281820451891 0.06823844311888898 0.001289738926300083 0.024184930767830126 0.0 0.0
0.0 0.0684360103447382 -0.058464423050804064 0.05727316981985833 0.0011912532309457187 0.02102830420894091 0.0 0.0
0.0 0.056305170653189185 -0.04806462925134154 0.04695217004619197 0.001112459205149543 0.018410781133350696 0.0 0.0
0.0 0.04540768433086677 -0.03864899604935815 0.03761101339305119 0.0010379826563069472 0.015939388273842406 0.0 0.0
0.0 0.03547023034043975 -0.03019302140212659 0.0292320152694639 0.0009610061326626759 0.013482903932182308 0.0 0.0
0.0 0.02660380777268969 -0.022622212761708158 0.021741559273249514 0.0008806534884586442 0.01095317861003833 0.0 0.0
0.0 0.018736216712722725 -0.015936343492820713 0.015141753512435588 0.0007945899803851175 0.008321760545498338 0.0 0.0
0.0 0.012021205045738488 -0.010236341987756872 0.00954157458562395 0.0006947674021329234 0.005744485661085841 0.0 0.0
0.0 0.006708673088437384 -0.005685192028438922 0.005128298979918262 0.0005568930485206579 0.003443396217833552 0.0 0.0
0.0 0.0030704123048705466 -0.0024671575894277785 0.002121364092976259 0.0003457934964515207 0.0016973992832051196 0.0 0.0
0.0 0.0009081241053225345 -0.0006923524857571475 0.0005681321719586311 0.0001242203137985162 0.0006188642651185904 0.0 0.0
0.0 0.00013026467420752577 -8.043900009094425e-05 6.46844926500419e-05 1.5754507440902325e-05 0.00010329232930966588 0.0 0.0
0.0 8.164109300060476e-06 -2.7550037080808736e-06 2.2136854585313294e-06 5.413182495495217e-07 5.070009249944664e-06 0.0 0.0
0.0 9.159772720464821e-07 5.630253742091469e-08 -4.5367008322703315e-08 -1.0935529098212496e-08 -1.5681455054918204e-07 0.0 0.0
0.0 0.0 0.0 0.0 0.0 0.0 0.0 0.0
0.0 0.0 0.0 0.0 0.0 0.0 0.0 0.0
0.0 0.0 0.0 0.0 0.0 0.0 0.0 0.0
0.0 0.0 0.0 0.0 0.0 0.0 0.0 0.0
0.0 0.0 0.0 0.0 0.0 0.0 0.0 0.0
0.0 7.518183148510935e-06 -3.367152126562973e-06 2.6738947896829957e-06 6.932573368799976e-07 -4.5568669262382424e-06 0.0 0.0
0.0 0.0002418744993466008 -0.0001716644170824356 0.00013823478496379545 3.342963211864017e-05 -0.00015373373888627858 0.0 0.0
0.0 0.0014867160235605401 -0.0011748782467788314 0.000977786609609738 0.00019709163716909422 -0.000713227486511678 0.0 0.0
0.0 0.004113312003091908 -0.0035629529070934354 0.003124503843862661 0.00043844906323077613 -0.0017498356728260739 0.0 0.0
0.0 0.008574276784340031 -0.007459049480000708 0.0068375894810945356 0.0006214599989061727 -0.0033298303613303027 0.0 0.0
0.0 0.014831917439710436 -0.012813343743469974 0.012069821501083015 0.000743522242386954 -0.005357654003027554 0.0 0.0
0.0 0.022643826917800095 -0.01950737067951538 0.018665172709425328 0.0008421979700900684 -0.0076690832722946705 0.0 0.0
0.0 0.03184198444204202 -0.027383965681085642 0.026450619766738587 0.0009333459143470494 -0.010030930741305141 0.0 0.0
0.0 0.042288228749079435 -0.036343170552434245 0.035321627708349616 0.0010215428440846239 -0.012308082422339089 0.0 0.0
0.0 0.05394481922208725 -0.0463709412448286 0.045263733186266614 0.0011072080585619777 -0.01454786161258609 0.0 0.0
0.0 0.06689809386898549 -0.05750503641938801 0.05631368187733837 0.0011913545420496217 -0.016789911759091572 0.0 0.0
0.0 0.08109814003366692 -0.0697382762901623 0.06846071743420999 0.0012775588559522807 -0.019022502993610062 0.0 0.0
0.0 0.09597376505815088 -0.0827482580151984 0.08136556274199633 0.001382695273202028 -0.021385000238779442 0.0 0.0
0.0 0.1105088839176516 -0.09525889040494756 0.09372882969765729 0.0015300607072902769 -0.024562504610659217 0.0 0.0
0.0 0.12124843207045397 -0.10435085172479172 0.10263639174881578 0.0017144599759759448 -0.02949098558701476 0.0 0.0
0.0 0.1230292252587708 -0.10540100858554723 0.10348972588266003 0.0019112827028871502 -0.036405921207923055 0.0 0.0
0.0 0.10956056600091334 -0.09248717710849333 0.09039339945688651 0.002093777651606728 -0.045016636229071344 0.0 0.0
0.0 0.10956056600091052 -0.09248717710848599 0.09039339945687921 0.0020937776516068026 0.04501663622911137 0.0 0.0
0.0 0.12302922525874951 -0.1054010085855242 0.10348972588263748 0.001911282702886725 0.03640592120797289 0.0 0.0
0.0 0.1212484320704125 -0.10435085172475293 0.10263639174877756 0.0017144599759752381 0.02949098558704983 0.0 0.0
0.0 0.11050888391759447 -0.09525889040489666 0.09372882969760771 0.0015300607072889663 0.02456250461066746 0.0 0.0
0.0 0.09597376505808165 -0.08274825801513798 0.08136556274193668 0.0013826952732012509 0.021385000238775445 0.0 0.0
0.0 0.08109814003359399 -0.06973827629009914 0.06846071743414711 0.001277558855952035 0.019022502993602308 0.0 0.0
0.0 0.06689809386891209 -0.057505036419324446 0.056313681877275513 0.0011913545420488753 0.016789911759080706 0.0 0.0
0.0 0.05394481922201622 -0.046370941244766775 0.0452637331862059 0.0011072080585608807 0.01454786161257354 0.0 0.0
0.0 0.042288228749011725 -0.03634317055237523 0.0353216277082916 0.0010215428440836598 0.01230808242232423 0.0 0.0
0.0 0.03184198444197967 -0.02738396568103165 0.026450619766685595 0.0009333459143460451 0.010030930741283866 0.0 0.0
0.0 0.02264382691774655 -0.019507370679469185 0.018665172709379882 0.0008421979700892894 0.007669083272274367 0.0 0.0
0.0 0.014831917439669112 -0.012813343743433958 0.012069821501047543 0.0007435222423864109 0.005357654003014347 0.0 0.0
0.0 0.008574276784311372 -0.00745904947997562 0.00683758948107022 0.0006214599989053986 0.003329830361319964 0.0 0.0
0.0 0.004113312003071591 -0.0035629529070759103 0.0031245038438463798 0.00043844906322953114 0.001749835672818099 0.0 0.0
0.0 0.0014867160235499442 -0.001174878246770747 0.0009777866096027199 0.00019709163716802696 0.0007132274865069467 0.0 0.0
0.0 0.0002418744993437734 -0.00017166441708106034 0.00013823478496266284 3.342963211839729e-05 0.00015373373888513068 0.0 0.0
0.0 7.51818314822438e-06 -3.3671521269320224e-06 2.673894789969014e-06 6.932573369630212e-07 4.55686692671076e-06 0.0 0.0
0.0 0.0 0.0 0.0 0.0 0.0 0.0 0.0
0.0 0.0 0.0 0.0 0.0 0.0 0.0 0.0
0.0 0.0 0.0 0.0 0.0 0.0 0.0 0.0
0.0 0.0 0.0 0.0 0.0 0.0 0.0 0.0
0.0 0.0 0.0 0.0 0.0 0.0 0.0 0.0
0.0 0.0 0.0 0.0 0.0 0.0 0.0 0.0
0.0 1.0918741479084638e-05 -6.156678719783958e-06 4.909418623402342e-06 1.2472600963816057e-06 -6.010739908369017e-06 0.0 0.0
0.0 0.00045572550630974357 -0.0003413958664423357 0.00027573636699325843 6.565949944907712e-05 -0.00019578443035871894 0.0 0.0
0.0 0.002171608453903946 -0.0018021835244267305 0.0015230952389932513 0.000279088285433479 -0.0007184115570159295 0.0 0.0
0.0 0.005348030799484494 -0.004753609606370109 0.004240002096831798 0.0005136075095383104 -0.0015731588900236 0.0 0.0
0.0 0.010557049444354264 -0.00927297244736361 0.00860416645087443 0.0006688059964891797 -0.0028404442186561983 0.0 0.0
0.0 0.0176824971694842 -0.015413415335804181 0.014631202676388408 0.0007822126594157593 -0.004492134306930594 0.0 0.0
0.0 0.026588338633511857 -0.02308621996158766 0.022203543264800812 0.0008826766967868443 -0.006386579760733739 0.0 0.0
0.0 0.037129215455571324 -0.03214876508188583 0.031168647467108155 0.0009801176147776613 -0.008329477818035828 0.0 0.0
0.0 0.04909936051119336 -0.042502111186582266 0.04142594153788933 0.0010761696486929202 -0.010199917286812176 0.0 0.0
0.0 0.0626312998249891 -0.05411197987028323 0.05294057446552344 0.0011714054047597656 -0.012050498945743716 0.0 0.0
0.0 0.07737178822756947 -0.06696418755182051 0.06569752493940265 0.00126666261241785 -0.013947992850982176 0.0 0.0
0.0 0.09345801244134506 -0.08094487112324866 0.07958132547019331 0.0013635456530553965 -0.01572467911474862 0.0 0.0
0.0 0.11041937348120195 -0.09566162844336348 0.09418947539228215 0.001472153051081319 -0.01708677871844134 0.0 0.0
0.0 0.12686152928049563 -0.10993207937256654 0.10831289870931506 0.0016191806632514277 -0.018584120636545874 0.0 0.0
0.0 0.1395327390921552 -0.12081193960312375 0.11898024320968915 0.0018316963934345242 -0.022740526695581704 0.0 0.0
0.0 0.14264788877842283 -0.12299407702723833 0.12093630327331868 0.0020577737539196734 -0.03238392205618897 0.0 0.0
0.0 0.129241255392852 -0.1096030077187911 0.10734425331399555 0.0022587544047955282 -0.0485348306179425 0.0 0.0
0.0 0.129241255392846 -0.10960300771878252 0.10734425331398684 0.002258754404795719 0.0485348306179733 0.0 0.0
0.0 0.14264788877839418 -0.12299407702721049 0.12093630327329126 0.0020577737539192245 0.032383922056231335 0.0 0.0
0.0 0.13953273909210315 -0.12081193960307679 0.11898024320964287 0.001831696393433856 0.022740526695612585 0.0 0.0
0.0 0.12686152928042707 -0.10993207937250653 0.10831289870925588 0.001619180663250681 0.01858412063655171 0.0 0.0
0.0 0.11041937348112649 -0.09566162844329743 0.09418947539221759 0.001472153051079875 0.017086778718440082 0.0 0.0
0.0 0.09345801244126702 -0.0809448711231802 0.07958132547012652 0.0013635456530537336 0.015724679114745628 0.0 0.0
0.0 0.07737178822748549 -0.06696418755174782 0.06569752493933015 0.0012666626124176333 0.01394799285097435 0.0 0.0
0.0 0.06263129982490521 -0.054111979870210686 0.0529405744654509 0.0011714054047598124 0.012050498945733523 0.0 0.0
0.0 0.04909936051110953 -0.04250211118650976 0.041425941537817035 0.0010761696486927136 0.010199917286801263 0.0 0.0
0.0 0.03712921545549795 -0.03214876508182201 0.031168647467044907 0.000980117614777117 0.008329477818018235 0.0 0.0
0.0 0.026588338633451968 -0.023086219961535665 0.022203543264749236 0.0008826766967864336 0.006386579760716164 0.0 0.0
0.0 0.017682497169436685 -0.015413415335762612 0.014631202676347346 0.0007822126594152709 0.00449213430691894 0.0 0.0
0.0 0.01055704944431928 -0.009272972447332719 0.008604166450844275 0.000668805996488445 0.002840444218646891 0.0 0.0
0.0 0.005348030799463086 -0.0047536096063510586 0.004240002096813778 0.0005136075095372829 0.001573158890016983 0.0 0.0
0.0 0.0021716084538932153 -0.0018021835244178292 0.001523095238985443 0.00027908828543238507 0.0007184115570123978 0.0 0.0
0.0 0.00045572550630579864 -0.00034139586643980606 0.00027573636699116836 6.565949944863786e-05 0.00019578443035738396 0.0 0.0
0.0 1.0918741478615714e-05 -6.156678720100416e-06 4.909418623642708e-06 1.247260096457718e-06 6.010739908633397e-06 0.0 0.0
0.0 0.0 0.0 0.0 0.0 0.0 0.0 0.0
0.0 0.0 0.0 0.0 0.0 0.0 0.0 0.0
0.0 0.0 0.0 0.0 0.0 0.0 0.0 0.0
0.0 0.0 0.0 0.0 0.0 0.0 0.0 0.0
0.0 0.0 0.0 0.0 0.0 0.0 0.0 0.0
0.0 0.0 0.0 0.0 0.0 0.0 0.0 0.0
0.0 2.5976167907924523e-05 -1.5685667014899158e-05 1.2505693700087188e-05 3.179973314812001e-06 -9.581521781882514e-06 0.0 0.0
0.0 0.0008045685708593889 -0.0006147573857016704 0.0005012172432645362 0.00011354014243713441 -0.0002018055364172942 0.0 0.0
0.0 0.002813742790277302 -0.0025578551456783066 0.0021954209361915882 0.00036243420948671716 -0.0005820636403479426 0.0 0.0
0.0 0.00670676526057998 -0.005991636955486856 0.00542240185276625 0.0005692351027206072 -0.0011605288158919491 0.0 0.0
0.0 0.012580550159979118 -0.011107121826033104 0.010401526373569302 0.000705595452463811 -0.002016255441674195 0.0 0.0
0.0 0.020553520318488082 -0.018008073261520756 0.017194596684701448 0.0008134765768193094 -0.00315492799933216 0.0 0.0
0.0 0.03053996658974352 -0.02664401083595109 0.02572656666082282 0.0009174441751282641 -0.004482194569844599 0.0 0.0
0.0 0.042401988763298606 -0.03688895109948005 0.03586708540387547 0.001021865695604601 -0.005844877179833372 0.0 0.0
0.0 0.05606390241129122 -0.048639685476927486 0.047513499889607076 0.0011261855873203985 -0.007157980800996568 0.0 0.0
0.0 0.07116849435530653 -0.06184184705692288 0.06061065232003576 0.001231194736887117 -0.008489375385083354 0.0 0.0
0.0 0.08790490593861502 -0.07640143143021917 0.07506304753162363 0.0013383838985954986 -0.009844386185745546 0.0 0.0
0.0 0.10597012819224563 -0.09206551539661104 0.0906163768590622 0.0014491385375487815 -0.01102985541575325 0.0 0.0
0.0 0.12462927938653674 -0.10827393132861579 0.1067090295822348 0.0015649017463809515 -0.011613664182304391 0.0 0.0
0.0 0.1425991519216478 -0.12390809522882523 0.12220989729672507 0.0016981979321002043 -0.011436368555811939 0.0 0.0
0.0 0.15723668628912524 -0.13658861455736018 0.13469904550618428 0.001889569051175874 -0.013109741914338413 0.0 0.0
0.0 0.16287345744770215 -0.1410400413698129 0.138832972829017 0.0022070685407958243 -0.024505482194674532 0.0 0.0
0.0 0.15062090581145407 -0.128258744406783 0.1258067113744641 0.002452033032318882 -0.0507160928439506 0.0 0.0
0.0 0.150620905811442 -0.12825874440677015 0.1258067113744514 0.0024520330323187546 0.05071609284397397 0.0 0.0
0.0 0.162873457447665 -0.14104004136977907 0.13883297282898382 0.002207068540795206 0.024505482194705823 0.0 0.0
0.0 0.15723668628906087 -0.1365886145573039 0.13469904550612807 0.0018895690511758203 0.013109741914360571 0.0 0.0
0.0 0.1425991519215667 -0.1239080952287546 0.12220989729665507 0.0016981979320995228 0.011436368555813682 0.0 0.0
0.0 0.1246292793864491 -0.10827393132853944 0.10670902958215958 0.0015649017463798592 0.011613664182303345 0.0 0.0
0.0 0.10597012819215622 -0.092065515396533 0.09061637685898544 0.0014491385375475544 0.011029855415751723 0.0 0.0
0.0 0.08790490593852457 -0.07640143143014042 0.07506304753154601 0.0013383838985943951 0.009844386185741356 0.0 0.0
0.0 0.07116849435521606 -0.06184184705684405 0.06061065231995822 0.0012311947368858597 0.008489375385076482 0.0 0.0
0.0 0.05606390241120496 -0.048639685476852136 0.047513499889532705 0.001126185587319423 0.007157980800989951 0.0 0.0
0.0 0.042401988763221425 -0.03688895109941294 0.03586708540380912 0.0010218656956038142 0.0058448771798212 0.0 0.0
0.0 0.030539966589677697 -0.026644010835893694 0.025726566660766146 0.0009174441751275606 0.004482194569832238 0.0 0.0
0.0 0.020553520318436345 -0.018008073261474977 0.0171945966846564 0.0008134765768185664 0.003154927999325054 0.0 0.0
0.0 0.012580550159941254 -0.0111071218259995 0.010401526373536404 0.0007055954524630892 0.00201625544166829 0.0 0.0
0.0 0.006706765260556525 -0.005991636955465673 0.005422401852745903 0.0005692351027197683 0.0011605288158875041 0.0 0.0
0.0 0.0028137427902636433 -0.0025578551456658678 0.0021954209361803633 0.00036243420948550524 0.0005820636403452951 0.0 0.0
0.0 0.0008045685708528571 -0.0006147573856967526 0.0005012172432603774 0.00011354014243637484 0.00020180553641578418 0.0 0.0
0.0 2.5976167907558236e-05 -1.5685667015461652e-05 1.2505693700512316e-05 3.1799733149492893e-06 9.581521782132914e-06 0.0 0.0
0.0 0.0 0.0 0.0 0.0 0.0 0.0 0.0
0.0 0.0 0.0 0.0 0.0 0.0 0.0 0.0
0.0 0.0 0.0 0.0 0.0 0.0 0.0 0.0
0.0 0.0 0.0 0.0 0.0 0.0 0.0 0.0
0.0 0.0 0.0 0.0 0.0 0.0 0.0 0.0
0.0 0.0 0.0 0.0 0.0 0.0 0.0 0.0
0.0 8.261743422925967e-05 -6.31199077925759e-05 4.994053394020999e-05 1.317937385236603e-05 -1.6333196653182082e-05 0.0 0.0
0.0 0.001297892000060062 -0.0009927899593683157 0.000817883773456326 0.00017490618591198896 -0.00012820251381496638 0.0 0.0
0.0 0.0037036036513327284 -0.003366639714621693 0.002933100126328529 0.00043353958829316455 -0.0002774679395057976 0.0 0.0
0.0 0.008114469634166482 -0.007258093548321725 0.006645833342920471 0.0006122602054012518 -0.0005125342737656677 0.0 0.0
0.0 0.014643358719598784 -0.012935931622996558 0.012201819916675105 0.0007341117063214458 -0.0008608281798717526 0.0 0.0
0.0 0.023447657039653708 -0.020569583943016966 0.019730004546734996 0.0008395793962819678 -0.0013545517290416002 0.0 0.0
0.0 0.03452715834837106 -0.030150879576838704 0.029203419261274448 0.0009474603155642585 -0.0019544135456988467 0.0 0.0
0.0 0.047786204521730685 -0.041577049316238915 0.04051813281356907 0.0010589165026698515 -0.002579712613720704 0.0 0.0
0.0 0.0628100628410361 -0.05473641685057066 0.05356406220547369 0.0011723546450969442 -0.0032026622577707633 0.0 0.0
0.0 0.07977952794461446 -0.06951830386085806 0.06823114596009378 0.0012871579007643066 -0.0038285086785253544 0.0 0.0
0.0 0.09850312876693637 -0.08576094731076588 0.08435506663085762 0.001405880679908204 -0.004429515074628777 0.0 0.0
0.0 0.1184701448679145 -0.10308316577507998 0.10155234284777184 0.001530822927308174 -0.0048957065320461846 0.0 0.0
0.0 0.13879052874240996 -0.1206950209225503 0.11903427597297363 0.0016607449495766487 -0.004933835846702092 0.0 0.0
0.0 0.15793992936103907 -0.13730428048795829 0.13551337694029597 0.0017909035476623089 -0.004116416691453247 0.0 0.0
0.0 0.17371400744182036 -0.15102113489822155 0.14909089444127022 0.0019302404569513237 -0.0029190056070147997 0.0 0.0
0.0 0.18247768041712537 -0.15847936835035958 0.15632547796835908 0.0021538903820004056 -0.009360988762685207 0.0 0.0
0.0 0.17522886755299605 -0.15018687990303786 0.14736468715190681 0.0028221927511310123 -0.04681329005126284 0.0 0.0
0.0 0.17522886755297917 -0.15018687990302265 0.14736468715189133 0.002822192751131201 0.04681329005127213 0.0 0.0
0.0 0.18247768041708212 -0.15847936835032153 0.1563254779683219 0.002153890381999533 0.009360988762700962 0.0 0.0
0.0 0.1737140074417488 -0.15102113489815921 0.14909089444120877 0.0019302404569504035 0.0029190056070255506 0.0 0.0
0.0 0.15793992936094892 -0.1373042804878799 0.13551337694021853 0.0017909035476613535 0.004116416691451229 0.0 0.0
0.0 0.13879052874231101 -0.12069502092246462 0.11903427597288818 0.0016607449495763735 0.0049338358467014625 0.0 0.0
0.0 0.11847014486780866 -0.10308316577498843 0.10155234284768025 0.0015308229273081077 0.004895706532045661 0.0 0.0
0.0 0.09850312876683023 -0.08576094731067388 0.08435506663076614 0.0014058806799076705 0.004429515074625244 0.0 0.0
0.0 0.07977952794451117 -0.06951830386076839 0.06823114596000486 0.0012871579007634763 0.0038285086785224765 0.0 0.0
0.0 0.06281006284093527 -0.054736416850483 0.05356406220538683 0.0011723546450961605 0.0032026622577689214 0.0 0.0
0.0 0.04778620452164223 -0.04157704931616174 0.040518132813493 0.0010589165026687396 0.0025797126137138233 0.0 0.0
0.0 0.034527158348298045 -0.030150879576775258 0.029203419261211845 0.0009474603155634269 0.0019544135456921186 0.0 0.0
0.0 0.02344765703959678 -0.02056958394296697 0.019730004546685553 0.0008395793962814167 0.0013545517290385824 0.0 0.0
0.0 0.014643358719555466 -0.01293593162295802 0.012201819916637133 0.0007341117063208757 0.0008608281798690115 0.0 0.0
0.0 0.008114469634135885 -0.007258093548294365 0.006645833342893779 0.0006122602054005836 0.0005125342737636908 0.0 0.0
0.0 0.003703603651317191 -0.0033666397146072734 0.0029331001263150558 0.00043353958829221647 0.00027746793950435413 0.0 0.0
0.0 0.0012978920000526067 -0.000992789959362559 0.0008178837734514086 0.00017490618591115107 0.00012820251381447665 0.0 0.0
0.0 8.261743422800869e-05 -6.311990779212911e-05 4.994053393983553e-05 1.3179373852293558e-05 1.633319665300904e-05 0.0 0.0
0.0 0.0 0.0 0.0 0.0 0.0 0.0 0.0
0.0 0.0 0.0 0.0 0.0 0.0 0.0 0.0
0.0 0.0 0.0 0.0 0.0 0.0 0.0 0.0