# vtk DataFile Version 3.0
Some data
ASCII
DATASET UNSTRUCTURED_GRID
POINTS 861 float
0.0 0.0 0.0
0.4 0.0 0.0
0.8 0.0 0.0
1.2000000000000002 0.0 0.0
1.6 0.0 0.0
2.0 0.0 0.0
2.4000000000000004 0.0 0.0
2.8000000000000003 0.0 0.0
3.2 0.0 0.0
3.6 0.0 0.0
4.0 0.0 0.0
4.4 0.0 0.0
4.800000000000001 0.0 0.0
5.2 0.0 0.0
5.6000000000000005 0.0 0.0
6.0 0.0 0.0
6.4 0.0 0.0
6.800000000000001 0.0 0.0
7.2 0.0 0.0
7.6000000000000005 0.0 0.0
8.0 0.0 0.0
8.4 0.0 0.0
8.8 0.0 0.0
9.200000000000001 0.0 0.0
9.600000000000001 0.0 0.0
10.0 0.0 0.0
10.4 0.0 0.0
10.8 0.0 0.0
11.200000000000001 0.0 0.0
11.600000000000001 0.0 0.0
12.0 0.0 0.0
12.4 0.0 0.0
12.8 0.0 0.0
13.200000000000001 0.0 0.0
13.600000000000001 0.0 0.0
14.0 0.0 0.0
14.4 0.0 0.0
14.8 0.0 0.0
15.200000000000001 0.0 0.0
15.600000000000001 0.0 0.0
16.0 0.0 0.0
0.0 0.1 0.0
0.4 0.1 0.0
0.8 0.1 0.0
1.2000000000000002 0.1 0.0
1.6 0.1 0.0
2.0 0.1 0.0
2.4000000000000004 0.1 0.0
2.8000000000000003 0.1 0.0
3.2 0.1 0.0
3.6 0.1 0.0
4.0 0.1 0.0
4.4 0.1 0.0
4.800000000000001 0.1 0.0
5.2 0.1 0.0
5.6000000000000005 0.1 0.0
6.0 0.1 0.0
6.4 0.1 0.0
6.800000000000001 0.1 0.0
7.2 0.1 0.0
7.6000000000000005 0.1 0.0
8.0 0.1 0.0
8.4 0.1 0.0
8.8 0.1 0.0
9.200000000000001 0.1 0.0
9.600000000000001 0.1 0.0
10.0 0.1 0.0
10.4 0.1 0.0
10.8 0.1 0.0
11.200000000000001 0.1 0.0
11.600000000000001 0.1 0.0
12.0 0.1 0.0
12.4 0.1 0.0
12.8 0.1 0.0
13.200000000000001 0.1 0.0
13.600000000000001 0.1 0.0
14.0 0.1 0.0
14.4 0.1 0.0
14.8 0.1 0.0
15.200000000000001 0.1 0.0
15.600000000000001 0.1 0.0
16.0 0.1 0.0
0.0 0.2 0.0
0.4 0.2 0.0
0.8 0.2 0.0
1.2000000000000002 0.2 0.0
1.6 0.2 0.0
2.0 0.2 0.0
2.4000000000000004 0.2 0.0
2.8000000000000003 0.2 0.0
3.2 0.2 0.0
3.6 0.2 0.0
4.0 0.2 0.0
4.4 0.2 0.0
4.800000000000001 0.2 0.0
5.2 0.2 0.0
5.6000000000000005 0.2 0.0
6.0 0.2 0.0
6.4 0.2 0.0
6.800000000000001 0.2 0.0
7.2 0.2 0.0
7.6000000000000005 0.2 0.0
8.0 0.2 0.0
8.4 0.2 0.0
8.8 0.2 0.0
9.200000000000001 0.2 0.0
9.600000000000001 0.2 0.0
10.0 0.2 0.0
10.4 0.2 0.0
10.8 0.2 0.0
11.200000000000001 0.2 0.0
11.600000000000001 0.2 0.0
12.0 0.2 0.0
12.4 0.2 0.0
12.8 0.2 0.0
13.200000000000001 0.2 0.0
13.600000000000001 0.2 0.0
14.0 0.2 0.0
14.4 0.2 0.0
14.8 0.2 0.0
15.200000000000001 0.2 0.0
15.600000000000001 0.2 0.0
16.0 0.2 0.0
0.0 0.30000000000000004 0.0
0.4 0.30000000000000004 0.0
0.8 0.30000000000000004 0.0
1.2000000000000002 0.30000000000000004 0.0
1.6 0.30000000000000004 0.0
2.0 0.30000000000000004 0.0
2.4000000000000004 0.30000000000000004 0.0
2.8000000000000003 0.30000000000000004 0.0
3.2 0.30000000000000004 0.0
3.6 0.30000000000000004 0.0
4.0 0.30000000000000004 0.0
4.4 0.30000000000000004 0.0
4.800000000000001 0.30000000000000004 0.0
5.2 0.30000000000000004 0.0
5.6000000000000005 0.30000000000000004 0.0
6.0 0.30000000000000004 0.0
6.4 0.30000000000000004 0.0
6.800000000000001 0.30000000000000004 0.0
7.2 0.30000000000000004 0.0
7.6000000000000005 0.30000000000000004 0.0
8.0 0.30000000000000004 0.0
8.4 0.30000000000000004 0.0
8.8 0.30000000000000004 0.0
9.200000000000001 0.30000000000000004 0.0
9.600000000000001 0.30000000000000004 0.0
10.0 0.30000000000000004 0.0
10.4 0.30000000000000004 0.0
10.8 0.30000000000000004 0.0
11.200000000000001 0.30000000000000004 0.0
11.600000000000001 0.30000000000000004 0.0
12.0 0.30000000000000004 0.0
12.4 0.30000000000000004 0.0
12.8 0.30000000000000004 0.0
13.200000000000001 0.30000000000000004 0.0
13.600000000000001 0.30000000000000004 0.0
14.0 0.30000000000000004 0.0
14.4 0.30000000000000004 0.0
14.8 0.30000000000000004 0.0
15.200000000000001 0.30000000000000004 0.0
15.600000000000001 0.30000000000000004 0.0
16.0 0.30000000000000004 0.0
0.0 0.4 0.0
0.4 0.4 0.0
0.8 0.4 0.0
1.2000000000000002 0.4 0.0
1.6 0.4 0.0
2.0 0.4 0.0
2.4000000000000004 0.4 0.0
2.8000000000000003 0.4 0.0
3.2 0.4 0.0
3.6 0.4 0.0
4.0 0.4 0.0
4.4 0.4 0.0
4.800000000000001 0.4 0.0
5.2 0.4 0.0
5.6000000000000005 0.4 0.0
6.0 0.4 0.0
6.4 0.4 0.0
6.800000000000001 0.4 0.0
7.2 0.4 0.0
7.6000000000000005 0.4 0.0
8.0 0.4 0.0
8.4 0.4 0.0
8.8 0.4 0.0
9.200000000000001 0.4 0.0
9.600000000000001 0.4 0.0
10.0 0.4 0.0
10.4 0.4 0.0
10.8 0.4 0.0
11.200000000000001 0.4 0.0
11.600000000000001 0.4 0.0
12.0 0.4 0.0
12.4 0.4 0.0
12.8 0.4 0.0
13.200000000000001 0.4 0.0
13.600000000000001 0.4 0.0
14.0 0.4 0.0
14.4 0.4 0.0
14.8 0.4 0.0
15.200000000000001 0.4 0.0
15.600000000000001 0.4 0.0
16.0 0.4 0.0
0.0 0.5 0.0
0.4 0.5 0.0
0.8 0.5 0.0
1.2000000000000002 0.5 0.0
1.6 0.5 0.0
2.0 0.5 0.0
2.4000000000000004 0.5 0.0
2.8000000000000003 0.5 0.0
3.2 0.5 0.0
3.6 0.5 0.0
4.0 0.5 0.0
4.4 0.5 0.0
4.800000000000001 0.5 0.0
5.2 0.5 0.0
5.6000000000000005 0.5 0.0
6.0 0.5 0.0
6.4 0.5 0.0
6.800000000000001 0.5 0.0
7.2 0.5 0.0
7.6000000000000005 0.5 0.0
8.0 0.5 0.0
8.4 0.5 0.0
8.8 0.5 0.0
9.200000000000001 0.5 0.0
9.600000000000001 0.5 0.0
10.0 0.5 0.0
10.4 0.5 0.0
10.8 0.5 0.0
11.200000000000001 0.5 0.0
11.600000000000001 0.5 0.0
12.0 0.5 0.0
12.4 0.5 0.0
12.8 0.5 0.0
13.200000000000001 0.5 0.0
13.600000000000001 0.5 0.0
14.0 0.5 0.0
14.4 0.5 0.0
14.8 0.5 0.0
15.200000000000001 0.5 0.0
15.600000000000001 0.5 0.0
16.0 0.5 0.0
0.0 0.6000000000000001 0.0
0.4 0.6000000000000001 0.0
0.8 0.6000000000000001 0.0
1.2000000000000002 0.6000000000000001 0.0
1.6 0.6000000000000001 0.0
2.0 0.6000000000000001 0.0
2.4000000000000004 0.6000000000000001 0.0
2.8000000000000003 0.6000000000000001 0.0
3.2 0.6000000000000001 0.0
3.6 0.6000000000000001 0.0
4.0 0.6000000000000001 0.0
4.4 0.6000000000000001 0.0
4.800000000000001 0.6000000000000001 0.0
5.2 0.6000000000000001 0.0
5.6000000000000005 0.6000000000000001 0.0
6.0 0.6000000000000001 0.0
6.4 0.6000000000000001 0.0
6.800000000000001 0.6000000000000001 0.0
7.2 0.6000000000000001 0.0
7.6000000000000005 0.6000000000000001 0.0
8.0 0.6000000000000001 0.0
8.4 0.6000000000000001 0.0
8.8 0.6000000000000001 0.0
9.200000000000001 0.6000000000000001 0.0
9.600000000000001 0.6000000000000001 0.0
10.0 0.6000000000000001 0.0
10.4 0.6000000000000001 0.0
10.8 0.6000000000000001 0.0
11.200000000000001 0.6000000000000001 0.0
11.600000000000001 0.6000000000000001 0.0
12.0 0.6000000000000001 0.0
12.4 0.6000000000000001 0.0
12.8 0.6000000000000001 0.0
13.200000000000001 0.6000000000000001 0.0
13.600000000000001 0.6000000000000001 0.0
14.0 0.6000000000000001 0.0
14.4 0.6000000000000001 0.0
14.8 0.6000000000000001 0.0
15.200000000000001 0.6000000000000001 0.0
15.600000000000001 0.6000000000000001 0.0
16.0 0.6000000000000001 0.0
0.0 0.7000000000000001 0.0
0.4 0.7000000000000001 0.0
0.8 0.7000000000000001 0.0
1.2000000000000002 0.7000000000000001 0.0
1.6 0.7000000000000001 0.0
2.0 0.7000000000000001 0.0
2.4000000000000004 0.7000000000000001 0.0
2.8000000000000003 0.7000000000000001 0.0
3.2 0.7000000000000001 0.0
3.6 0.7000000000000001 0.0
4.0 0.7000000000000001 0.0
4.4 0.7000000000000001 0.0
4.800000000000001 0.7000000000000001 0.0
5.2 0.7000000000000001 0.0
5.6000000000000005 0.7000000000000001 0.0
6.0 0.7000000000000001 0.0
6.4 0.7000000000000001 0.0
6.800000000000001 0.7000000000000001 0.0
7.2 0.7000000000000001 0.0
7.6000000000000005 0.7000000000000001 0.0
8.0 0.7000000000000001 0.0
8.4 0.7000000000000001 0.0
8.8 0.7000000000000001 0.0
9.200000000000001 0.7000000000000001 0.0
9.600000000000001 0.7000000000000001 0.0
10.0 0.7000000000000001 0.0
10.4 0.7000000000000001 0.0
10.8 0.7000000000000001 0.0
11.200000000000001 0.7000000000000001 0.0
11.600000000000001 0.7000000000000001 0.0
12.0 0.7000000000000001 0.0
12.4 0.7000000000000001 0.0
12.8 0.7000000000000001 0.0
13.200000000000001 0.7000000000000001 0.0
13.600000000000001 0.7000000000000001 0.0
14.0 0.7000000000000001 0.0
14.4 0.7000000000000001 0.0
14.8 0.7000000000000001 0.0
15.200000000000001 0.7000000000000001 0.0
15.600000000000001 0.7000000000000001 0.0
16.0 0.7000000000000001 0.0
0.0 0.8 0.0
0.4 0.8 0.0
0.8 0.8 0.0
1.2000000000000002 0.8 0.0
1.6 0.8 0.0
2.0 0.8 0.0
2.4000000000000004 0.8 0.0
2.8000000000000003 0.8 0.0
3.2 0.8 0.0
3.6 0.8 0.0
4.0 0.8 0.0
4.4 0.8 0.0
4.800000000000001 0.8 0.0
5.2 0.8 0.0
5.6000000000000005 0.8 0.0
6.0 0.8 0.0
6.4 0.8 0.0
6.800000000000001 0.8 0.0
7.2 0.8 0.0
7.6000000000000005 0.8 0.0
8.0 0.8 0.0
8.4 0.8 0.0
8.8 0.8 0.0
9.200000000000001 0.8 0.0
9.600000000000001 0.8 0.0
10.0 0.8 0.0
10.4 0.8 0.0
10.8 0.8 0.0
11.200000000000001 0.8 0.0
11.600000000000001 0.8 0.0
12.0 0.8 0.0
12.4 0.8 0.0
12.8 0.8 0.0
13.200000000000001 0.8 0.0
13.600000000000001 0.8 0.0
14.0 0.8 0.0
14.4 0.8 0.0
14.8 0.8 0.0
15.200000000000001 0.8 0.0
15.600000000000001 0.8 0.0
16.0 0.8 0.0
0.0 0.9 0.0
0.4 0.9 0.0
0.8 0.9 0.0
1.2000000000000002 0.9 0.0
1.6 0.9 0.0
2.0 0.9 0.0
2.4000000000000004 0.9 0.0
2.8000000000000003 0.9 0.0
3.2 0.9 0.0
3.6 0.9 0.0
4.0 0.9 0.0
4.4 0.9 0.0
4.800000000000001 0.9 0.0
5.2 0.9 0.0
5.6000000000000005 0.9 0.0
6.0 0.9 0.0
6.4 0.9 0.0
6.800000000000001 0.9 0.0
7.2 0.9 0.0
7.6000000000000005 0.9 0.0
8.0 0.9 0.0
8.4 0.9 0.0
8.8 0.9 0.0
9.200000000000001 0.9 0.0
9.600000000000001 0.9 0.0
10.0 0.9 0.0
10.4 0.9 0.0
10.8 0.9 0.0
11.200000000000001 0.9 0.0
11.600000000000001 0.9 0.0
12.0 0.9 0.0
12.4 0.9 0.0
12.8 0.9 0.0
13.200000000000001 0.9 0.0
13.600000000000001 0.9 0.0
14.0 0.9 0.0
14.4 0.9 0.0
14.8 0.9 0.0
15.200000000000001 0.9 0.0
15.600000000000001 0.9 0.0
16.0 0.9 0.0
0.0 1.0 0.0
0.4 1.0 0.0
0.8 1.0 0.0
1.2000000000000002 1.0 0.0
1.6 1.0 0.0
2.0 1.0 0.0
2.4000000000000004 1.0 0.0
2.8000000000000003 1.0 0.0
3.2 1.0 0.0
3.6 1.0 0.0
4.0 1.0 0.0
4.4 1.0 0.0
4.800000000000001 1.0 0.0
5.2 1.0 0.0
5.6000000000000005 1.0 0.0
6.0 1.0 0.0
6.4 1.0 0.0
6.800000000000001 1.0 0.0
7.2 1.0 0.0
7.6000000000000005 1.0 0.0
8.0 1.0 0.0
8.4 1.0 0.0
8.8 1.0 0.0
9.200000000000001 1.0 0.0
9.600000000000001 1.0 0.0
10.0 1.0 0.0
10.4 1.0 0.0
10.8 1.0 0.0
11.200000000000001 1.0 0.0
11.600000000000001 1.0 0.0
12.0 1.0 0.0
12.4 1.0 0.0
12.8 1.0 0.0
13.200000000000001 1.0 0.0
13.600000000000001 1.0 0.0
14.0 1.0 0.0
14.4 1.0 0.0
14.8 1.0 0.0
15.200000000000001 1.0 0.0
15.600000000000001 1.0 0.0
16.0 1.0 0.0
0.0 1.1 0.0
0.4 1.1 0.0
0.8 1.1 0.0
1.2000000000000002 1.1 0.0
1.6 1.1 0.0
2.0 1.1 0.0
2.4000000000000004 1.1 0.0
2.8000000000000003 1.1 0.0
3.2 1.1 0.0
3.6 1.1 0.0
4.0 1.1 0.0
4.4 1.1 0.0
4.800000000000001 1.1 0.0
5.2 1.1 0.0
5.6000000000000005 1.1 0.0
6.0 1.1 0.0
6.4 1.1 0.0
6.800000000000001 1.1 0.0
7.2 1.1 0.0
7.6000000000000005 1.1 0.0
8.0 1.1 0.0
8.4 1.1 0.0
8.8 1.1 0.0
9.200000000000001 1.1 0.0
9.600000000000001 1.1 0.0
10.0 1.1 0.0
10.4 1.1 0.0
10.8 1.1 0.0
11.200000000000001 1.1 0.0
11.600000000000001 1.1 0.0
12.0 1.1 0.0
12.4 1.1 0.0
12.8 1.1 0.0
13.200000000000001 1.1 0.0
13.600000000000001 1.1 0.0
14.0 1.1 0.0
14.4 1.1 0.0
14.8 1.1 0.0
15.200000000000001 1.1 0.0
15.600000000000001 1.1 0.0
16.0 1.1 0.0
0.0 1.2000000000000002 0.0
0.4 1.2000000000000002 0.0
0.8 1.2000000000000002 0.0
1.2000000000000002 1.2000000000000002 0.0
1.6 1.2000000000000002 0.0
2.0 1.2000000000000002 0.0
2.4000000000000004 1.2000000000000002 0.0
2.8000000000000003 1.2000000000000002 0.0
3.2 1.2000000000000002 0.0
3.6 1.2000000000000002 0.0
4.0 1.2000000000000002 0.0
4.4 1.2000000000000002 0.0
4.800000000000001 1.2000000000000002 0.0
5.2 1.2000000000000002 0.0
5.6000000000000005 1.2000000000000002 0.0
6.0 1.2000000000000002 0.0
6.4 1.2000000000000002 0.0
6.800000000000001 1.2000000000000002 0.0
7.2 1.2000000000000002 0.0
7.6000000000000005 1.2000000000000002 0.0
8.0 1.2000000000000002 0.0
8.4 1.2000000000000002 0.0
8.8 1.2000000000000002 0.0
9.200000000000001 1.2000000000000002 0.0
9.600000000000001 1.2000000000000002 0.0
10.0 1.2000000000000002 0.0
10.4 1.2000000000000002 0.0
10.8 1.2000000000000002 0.0
11.200000000000001 1.2000000000000002 0.0
11.600000000000001 1.2000000000000002 0.0
12.0 1.2000000000000002 0.0
12.4 1.2000000000000002 0.0
12.8 1.2000000000000002 0.0
13.200000000000001 1.2000000000000002 0.0
13.600000000000001 1.2000000000000002 0.0
14.0 1.2000000000000002 0.0
14.4 1.2000000000000002 0.0
14.8 1.2000000000000002 0.0
15.200000000000001 1.2000000000000002 0.0
15.600000000000001 1.2000000000000002 0.0
16.0 1.2000000000000002 0.0
0.0 1.3 0.0
0.4 1.3 0.0
0.8 1.3 0.0
1.2000000000000002 1.3 0.0
1.6 1.3 0.0
2.0 1.3 0.0
2.4000000000000004 1.3 0.0
2.8000000000000003 1.3 0.0
3.2 1.3 0.0
3.6 1.3 0.0
4.0 1.3 0.0
4.4 1.3 0.0
4.800000000000001 1.3 0.0
5.2 1.3 0.0
5.6000000000000005 1.3 0.0
6.0 1.3 0.0
6.4 1.3 0.0
6.800000000000001 1.3 0.0
7.2 1.3 0.0
7.6000000000000005 1.3 0.0
8.0 1.3 0.0
8.4 1.3 0.0
8.8 1.3 0.0
9.200000000000001 1.3 0.0
9.600000000000001 1.3 0.0
10.0 1.3 0.0
10.4 1.3 0.0
10.8 1.3 0.0
11.200000000000001 1.3 0.0
11.600000000000001 1.3 0.0
12.0 1.3 0.0
12.4 1.3 0.0
12.8 1.3 0.0
13.200000000000001 1.3 0.0
13.600000000000001 1.3 0.0
14.0 1.3 0.0
14.4 1.3 0.0
14.8 1.3 0.0
15.200000000000001 1.3 0.0
15.600000000000001 1.3 0.0
16.0 1.3 0.0
0.0 1.4000000000000001 0.0
0.4 1.4000000000000001 0.0
0.8 1.4000000000000001 0.0
1.2000000000000002 1.4000000000000001 0.0
1.6 1.4000000000000001 0.0
2.0 1.4000000000000001 0.0
2.4000000000000004 1.4000000000000001 0.0
2.8000000000000003 1.4000000000000001 0.0
3.2 1.4000000000000001 0.0
3.6 1.4000000000000001 0.0
4.0 1.4000000000000001 0.0
4.4 1.4000000000000001 0.0
4.800000000000001 1.4000000000000001 0.0
5.2 1.4000000000000001 0.0
5.6000000000000005 1.4000000000000001 0.0
6.0 1.4000000000000001 0.0
6.4 1.4000000000000001 0.0
6.800000000000001 1.4000000000000001 0.0
7.2 1.4000000000000001 0.0
7.6000000000000005 1.4000000000000001 0.0
8.0 1.4000000000000001 0.0
8.4 1.4000000000000001 0.0
8.8 1.4000000000000001 0.0
9.200000000000001 1.4000000000000001 0.0
9.600000000000001 1.4000000000000001 0.0
10.0 1.4000000000000001 0.0
10.4 1.4000000000000001 0.0
10.8 1.4000000000000001 0.0
11.200000000000001 1.4000000000000001 0.0
11.600000000000001 1.4000000000000001 0.0
12.0 1.4000000000000001 0.0
12.4 1.4000000000000001 0.0
12.8 1.4000000000000001 0.0
13.200000000000001 1.4000000000000001 0.0
13.600000000000001 1.4000000000000001 0.0
14.0 1.4000000000000001 0.0
14.4 1.4000000000000001 0.0
14.8 1.4000000000000001 0.0
15.200000000000001 1.4000000000000001 0.0
15.600000000000001 1.4000000000000001 0.0
16.0 1.4000000000000001 0.0
0.0 1.5 0.0
0.4 1.5 0.0
0.8 1.5 0.0
1.2000000000000002 1.5 0.0
1.6 1.5 0.0
2.0 1.5 0.0
2.4000000000000004 1.5 0.0
2.8000000000000003 1.5 0.0
3.2 1.5 0.0
3.6 1.5 0.0
4.0 1.5 0.0
4.4 1.5 0.0
4.800000000000001 1.5 0.0
5.2 1.5 0.0
5.6000000000000005 1.5 0.0
6.0 1.5 0.0
6.4 1.5 0.0
6.800000000000001 1.5 0.0
7.2 1.5 0.0
7.6000000000000005 1.5 0.0
8.0 1.5 0.0
8.4 1.5 0.0
8.8 1.5 0.0
9.200000000000001 1.5 0.0
9.600000000000001 1.5 0.0
10.0 1.5 0.0
10.4 1.5 0.0
10.8 1.5 0.0
11.200000000000001 1.5 0.0
11.600000000000001 1.5 0.0
12.0 1.5 0.0
12.4 1.5 0.0
12.8 1.5 0.0
13.200000000000001 1.5 0.0
13.600000000000001 1.5 0.0
14.0 1.5 0.0
14.4 1.5 0.0
14.8 1.5 0.0
15.200000000000001 1.5 0.0
15.600000000000001 1.5 0.0
16.0 1.5 0.0
0.0 1.6 0.0
0.4 1.6 0.0
0.8 1.6 0.0
1.2000000000000002 1.6 0.0
1.6 1.6 0.0
2.0 1.6 0.0
2.4000000000000004 1.6 0.0
2.8000000000000003 1.6 0.0
3.2 1.6 0.0
3.6 1.6 0.0
4.0 1.6 0.0
4.4 1.6 0.0
4.800000000000001 1.6 0.0
5.2 1.6 0.0
5.6000000000000005 1.6 0.0
6.0 1.6 0.0
6.4 1.6 0.0
6.800000000000001 1.6 0.0
7.2 1.6 0.0
7.6000000000000005 1.6 0.0
8.0 1.6 0.0
8.4 1.6 0.0
8.8 1.6 0.0
9.200000000000001 1.6 0.0
9.600000000000001 1.6 0.0
10.0 1.6 0.0
10.4 1.6 0.0
10.8 1.6 0.0
11.200000000000001 1.6 0.0
11.600000000000001 1.6 0.0
12.0 1.6 0.0
12.4 1.6 0.0
12.8 1.6 0.0
13.200000000000001 1.6 0.0
13.600000000000001 1.6 0.0
14.0 1.6 0.0
14.4 1.6 0.0
14.8 1.6 0.0
15.200000000000001 1.6 0.0
15.600000000000001 1.6 0.0
16.0 1.6 0.0
0.0 1.7000000000000002 0.0
0.4 1.7000000000000002 0.0
0.8 1.7000000000000002 0.0
1.2000000000000002 1.7000000000000002 0.0
1.6 1.7000000000000002 0.0
2.0 1.7000000000000002 0.0
2.4000000000000004 1.7000000000000002 0.0
2.8000000000000003 1.7000000000000002 0.0
3.2 1.7000000000000002 0.0
3.6 1.7000000000000002 0.0
4.0 1.7000000000000002 0.0
4.4 1.7000000000000002 0.0
4.800000000000001 1.7000000000000002 0.0
5.2 1.7000000000000002 0.0
5.6000000000000005 1.7000000000000002 0.0
6.0 1.7000000000000002 0.0
6.4 1.7000000000000002 0.0
6.800000000000001 1.7000000000000002 0.0
7.2 1.7000000000000002 0.0
7.6000000000000005 1.7000000000000002 0.0
8.0 1.7000000000000002 0.0
8.4 1.7000000000000002 0.0
8.8 1.7000000000000002 0.0
9.200000000000001 1.7000000000000002 0.0
9.600000000000001 1.7000000000000002 0.0
10.0 1.7000000000000002 0.0
10.4 1.7000000000000002 0.0
10.8 1.7000000000000002 0.0
11.200000000000001 1.7000000000000002 0.0
11.600000000000001 1.7000000000000002 0.0
12.0 1.7000000000000002 0.0
12.4 1.7000000000000002 0.0
12.8 1.7000000000000002 0.0
13.200000000000001 1.7000000000000002 0.0
13.600000000000001 1.7000000000000002 0.0
14.0 1.7000000000000002 0.0
14.4 1.7000000000000002 0.0
14.8 1.7000000000000002 0.0
15.200000000000001 1.7000000000000002 0.0
15.600000000000001 1.7000000000000002 0.0
16.0 1.7000000000000002 0.0
0.0 1.8 0.0
0.4 1.8 0.0
0.8 1.8 0.0
1.2000000000000002 1.8 0.0
1.6 1.8 0.0
2.0 1.8 0.0
2.4000000000000004 1.8 0.0
2.8000000000000003 1.8 0.0
3.2 1.8 0.0
3.6 1.8 0.0
4.0 1.8 0.0
4.4 1.8 0.0
4.800000000000001 1.8 0.0
5.2 1.8 0.0
5.6000000000000005 1.8 0.0
6.0 1.8 0.0
6.4 1.8 0.0
6.800000000000001 1.8 0.0
7.2 1.8 0.0
7.6000000000000005 1.8 0.0
8.0 1.8 0.0
8.4 1.8 0.0
8.8 1.8 0.0
9.200000000000001 1.8 0.0
9.600000000000001 1.8 0.0
10.0 1.8 0.0
10.4 1.8 0.0
10.8 1.8 0.0
11.200000000000001 1.8 0.0
11.600000000000001 1.8 0.0
12.0 1.8 0.0
12.4 1.8 0.0
12.8 1.8 0.0
13.200000000000001 1.8 0.0
13.600000000000001 1.8 0.0
14.0 1.8 0.0
14.4 1.8 0.0
14.8 1.8 0.0
15.200000000000001 1.8 0.0
15.600000000000001 1.8 0.0
16.0 1.8 0.0
0.0 1.9000000000000001 0.0
0.4 1.9000000000000001 0.0
0.8 1.9000000000000001 0.0
1.2000000000000002 1.9000000000000001 0.0
1.6 1.9000000000000001 0.0
2.0 1.9000000000000001 0.0
2.4000000000000004 1.9000000000000001 0.0
2.8000000000000003 1.9000000000000001 0.0
3.2 1.9000000000000001 0.0
3.6 1.9000000000000001 0.0
4.0 1.9000000000000001 0.0
4.4 1.9000000000000001 0.0
4.800000000000001 1.9000000000000001 0.0
5.2 1.9000000000000001 0.0
5.6000000000000005 1.9000000000000001 0.0
6.0 1.9000000000000001 0.0
6.4 1.9000000000000001 0.0
6.800000000000001 1.9000000000000001 0.0
7.2 1.9000000000000001 0.0
7.6000000000000005 1.9000000000000001 0.0
8.0 1.9000000000000001 0.0
8.4 1.9000000000000001 0.0
8.8 1.9000000000000001 0.0
9.200000000000001 1.9000000000000001 0.0
9.600000000000001 1.9000000000000001 0.0
10.0 1.9000000000000001 0.0
10.4 1.9000000000000001 0.0
10.8 1.9000000000000001 0.0
11.200000000000001 1.9000000000000001 0.0
11.600000000000001 1.9000000000000001 0.0
12.0 1.9000000000000001 0.0
12.4 1.9000000000000001 0.0
12.8 1.9000000000000001 0.0
13.200000000000001 1.9000000000000001 0.0
13.600000000000001 1.9000000000000001 0.0
14.0 1.9000000000000001 0.0
14.4 1.9000000000000001 0.0
14.8 1.9000000000000001 0.0
15.200000000000001 1.9000000000000001 0.0
15.600000000000001 1.9000000000000001 0.0
16.0 1.9000000000000001 0.0
0.0 2.0 0.0
0.4 2.0 0.0
0.8 2.0 0.0
1.2000000000000002 2.0 0.0
1.6 2.0 0.0
2.0 2.0 0.0
2.4000000000000004 2.0 0.0
2.8000000000000003 2.0 0.0
3.2 2.0 0.0
3.6 2.0 0.0
4.0 2.0 0.0
4.4 2.0 0.0
4.800000000000001 2.0 0.0
5.2 2.0 0.0
5.6000000000000005 2.0 0.0
6.0 2.0 0.0
6.4 2.0 0.0
6.800000000000001 2.0 0.0
7.2 2.0 0.0
7.6000000000000005 2.0 0.0
8.0 2.0 0.0
8.4 2.0 0.0
8.8 2.0 0.0
9.200000000000001 2.0 0.0
9.600000000000001 2.0 0.0
10.0 2.0 0.0
10.4 2.0 0.0
10.8 2.0 0.0
11.200000000000001 2.0 0.0
11.600000000000001 2.0 0.0
12.0 2.0 0.0
12.4 2.0 0.0
12.8 2.0 0.0
13.200000000000001 2.0 0.0
13.600000000000001 2.0 0.0
14.0 2.0 0.0
14.4 2.0 0.0
14.8 2.0 0.0
15.200000000000001 2.0 0.0
15.600000000000001 2.0 0.0
16.0 2.0 0.0
CELLS 800 4000
4 0 1 42 41
4 1 2 43 42
4 2 3 44 43
4 3 4 45 44
4 4 5 46 45
4 5 6 47 46
4 6 7 48 47
4 7 8 49 48
4 8 9 50 49
4 9 10 51 50
4 10 11 52 51
4 11 12 53 52
4 12 13 54 53
4 13 14 55 54
4 14 15 56 55
4 15 16 57 56
4 16 17 58 57
4 17 18 59 58
4 18 19 60 59
4 19 20 61 60
4 20 21 62 61
4 21 22 63 62
4 22 23 64 63
4 23 24 65 64
4 24 25 66 65
4 25 26 67 66
4 26 27 68 67
4 27 28 69 68
4 28 29 70 69
4 29 30 71 70
4 30 31 72 71
4 31 32 73 72
4 32 33 74 73
4 33 34 75 74
4 34 35 76 75
4 35 36 77 76
4 36 37 78 77
4 37 38 79 78
4 38 39 80 79
4 39 40 81 80
4 41 42 83 82
4 42 43 84 83
4 43 44 85 84
4 44 45 86 85
4 45 46 87 86
4 46 47 88 87
4 47 48 89 88
4 48 49 90 89
4 49 50 91 90
4 50 51 92 91
4 51 52 93 92
4 52 53 94 93
4 53 54 95 94
4 54 55 96 95
4 55 56 97 96
4 56 57 98 97
4 57 58 99 98
4 58 59 100 99
4 59 60 101 100
4 60 61 102 101
4 61 62 103 102
4 62 63 104 103
4 63 64 105 104
4 64 65 106 105
4 65 66 107 106
4 66 67 108 107
4 67 68 109 108
4 68 69 110 109
4 69 70 111 110
4 70 71 112 111
4 71 72 113 112
4 72 73 114 113
4 73 74 115 114
4 74 75 116 115
4 75 76 117 116
4 76 77 118 117
4 77 78 119 118
4 78 79 120 119
4 79 80 121 120
4 80 81 122 121
4 82 83 124 123
4 83 84 125 124
4 84 85 126 125
4 85 86 127 126
4 86 87 128 127
4 87 88 129 128
4 88 89 130 129
4 89 90 131 130
4 90 91 132 131
4 91 92 133 132
4 92 93 134 133
4 93 94 135 134
4 94 95 136 135
4 95 96 137 136
4 96 97 138 137
4 97 98 139 138
4 98 99 140 139
4 99 100 141 140
4 100 101 142 141
4 101 102 143 142
4 102 103 144 143
4 103 104 145 144
4 104 105 146 145
4 105 106 147 146
4 106 107 148 147
4 107 108 149 148
4 108 109 150 149
4 109 110 151 150
4 110 111 152 151
4 111 112 153 152
4 112 113 154 153
4 113 114 155 154
4 114 115 156 155
4 115 116 157 156
4 116 117 158 157
4 117 118 159 158
4 118 119 160 159
4 119 120 161 160
4 120 121 162 161
4 121 122 163 162
4 123 124 165 164
4 124 125 166 165
4 125 126 167 166
4 126 127 168 167
4 127 128 169 168
4 128 129 170 169
4 129 130 171 170
4 130 131 172 171
4 131 132 173 172
4 132 133 174 173
4 133 134 175 174
4 134 135 176 175
4 135 136 177 176
4 136 137 178 177
4 137 138 179 178
4 138 139 180 179
4 139 140 181 180
4 140 141 182 181
4 141 142 183 182
4 142 143 184 183
4 143 144 185 184
4 144 145 186 185
4 145 146 187 186
4 146 147 188 187
4 147 148 189 188
4 148 149 190 189
4 149 150 191 190
4 150 151 192 191
4 151 152 193 192
4 152 153 194 193
4 153 154 195 194
4 154 155 196 195
4 155 156 197 196
4 156 157 198 197
4 157 158 199 198
4 158 159 200 199
4 159 160 201 200
4 160 161 202 201
4 161 162 203 202
4 162 163 204 203
4 164 165 206 205
4 165 166 207 206
4 166 167 208 207
4 167 168 209 208
4 168 169 210 209
4 169 170 211 210
4 170 171 212 211
4 171 172 213 212
4 172 173 214 213
4 173 174 215 214
4 174 175 216 215
4 175 176 217 216
4 176 177 218 217
4 177 178 219 218
4 178 179 220 219
4 179 180 221 220
4 180 181 222 221
4 181 182 223 222
4 182 183 224 223
4 183 184 225 224
4 184 185 226 225
4 185 186 227 226
4 186 187 228 227
4 187 188 229 228
4 188 189 230 229
4 189 190 231 230
4 190 191 232 231
4 191 192 233 232
4 192 193 234 233
4 193 194 235 234
4 194 195 236 235
4 195 196 237 236
4 196 197 238 237
4 197 198 239 238
4 198 199 240 239
4 199 200 241 240
4 200 201 242 241
4 201 202 243 242
4 202 203 244 243
4 203 204 245 244
4 205 206 247 246
4 206 207 248 247
4 207 208 249 248
4 208 209 250 249
4 209 210 251 250
4 210 211 252 251
4 211 212 253 252
4 212 213 254 253
4 213 214 255 254
4 214 215 256 255
4 215 216 257 256
4 216 217 258 257
4 217 218 259 258
4 218 219 260 259
4 219 220 261 260
4 220 221 262 261
4 221 222 263 262
4 222 223 264 263
4 223 224 265 264
4 224 225 266 265
4 225 226 267 266
4 226 227 268 267
4 227 228 269 268
4 228 229 270 269
4 229 230 271 270
4 230 231 272 271
4 231 232 273 272
4 232 233 274 273
4 233 234 275 274
4 234 235 276 275
4 235 236 277 276
4 236 237 278 277
4 237 238 279 278
4 238 239 280 279
4 239 240 281 280
4 240 241 282 281
4 241 242 283 282
4 242 243 284 283
4 243 244 285 284
4 244 245 286 285
4 246 247 288 287
4 247 248 289 288
4 248 249 290 289
4 249 250 291 290
4 250 251 292 291
4 251 252 293 292
4 252 253 294 293
4 253 254 295 294
4 254 255 296 295
4 255 256 297 296
4 256 257 298 297
4 257 258 299 298
4 258 259 300 299
4 259 260 301 300
4 260 261 302 301
4 261 262 303 302
4 262 263 304 303
4 263 264 305 304
4 264 265 306 305
4 265 266 307 306
4 266 267 308 307
4 267 268 309 308
4 268 269 310 309
4 269 270 311 310
4 270 271 312 311
4 271 272 313 312
4 272 273 314 313
4 273 274 315 314
4 274 275 316 315
4 275 276 317 316
4 276 277 318 317
4 277 278 319 318
4 278 279 320 319
4 279 280 321 320
4 280 281 322 321
4 281 282 323 322
4 282 283 324 323
4 283 284 325 324
4 284 285 326 325
4 285 286 327 326
4 287 288 329 328
4 288 289 330 329
4 289 290 331 330
4 290 291 332 331
4 291 292 333 332
4 292 293 334 333
4 293 294 335 334
4 294 295 336 335
4 295 296 337 336
4 296 297 338 337
4 297 298 339 338
4 298 299 340 339
4 299 300 341 340
4 300 301 342 341
4 301 302 343 342
4 302 303 344 343
4 303 304 345 344
4 304 305 346 345
4 305 306 347 346
4 306 307 348 347
4 307 308 349 348
4 308 309 350 349
4 309 310 351 350
4 310 311 352 351
4 311 312 353 352
4 312 313 354 353
4 313 314 355 354
4 314 315 356 355
4 315 316 357 356
4 316 317 358 357
4 317 318 359 358
4 318 319 360 359
4 319 320 361 360
4 320 321 362 361
4 321 322 363 362
4 322 323 364 363
4 323 324 365 364
4 324 325 366 365
4 325 326 367 366
4 326 327 368 367
4 328 329 370 369
4 329 330 371 370
4 330 331 372 371
4 331 332 373 372
4 332 333 374 373
4 333 334 375 374
4 334 335 376 375
4 335 336 377 376
4 336 337 378 377
4 337 338 379 378
4 338 339 380 379
4 339 340 381 380
4 340 341 382 381
4 341 342 383 382
4 342 343 384 383
4 343 344 385 384
4 344 345 386 385
4 345 346 387 386
4 346 347 388 387
4 347 348 389 388
4 348 349 390 389
4 349 350 391 390
4 350 351 392 391
4 351 352 393 392
4 352 353 394 393
4 353 354 395 394
4 354 355 396 395
4 355 356 397 396
4 356 357 398 397
4 357 358 399 398
4 358 359 400 399
4 359 360 401 400
4 360 361 402 401
4 361 362 403 402
4 362 363 404 403
4 363 364 405 404
4 364 365 406 405
4 365 366 407 406
4 366 367 408 407
4 367 368 409 408
4 369 370 411 410
4 370 371 412 411
4 371 372 413 412
4 372 373 414 413
4 373 374 415 414
4 374 375 416 415
4 375 376 417 416
4 376 377 418 417
4 377 378 419 418
4 378 379 420 419
4 379 380 421 420
4 380 381 422 421
4 381 382 423 422
4 382 383 424 423
4 383 384 425 424
4 384 385 426 425
4 385 386 427 426
4 386 387 428 427
4 387 388 429 428
4 388 389 430 429
4 389 390 431 430
4 390 391 432 431
4 391 392 433 432
4 392 393 434 433
4 393 394 435 434
4 394 395 436 435
4 395 396 437 436
4 396 397 438 437
4 397 398 439 438
4 398 399 440 439
4 399 400 441 440
4 400 401 442 441
4 401 402 443 442
4 402 403 444 443
4 403 404 445 444
4 404 405 446 445
4 405 406 447 446
4 406 407 448 447
4 407 408 449 448
4 408 409 450 449
4 410 411 452 451
4 411 412 453 452
4 412 413 454 453
4 413 414 455 454
4 414 415 456 455
4 415 416 457 456
4 416 417 458 457
4 417 418 459 458
4 418 419 460 459
4 419 420 461 460
4 420 421 462 461
4 421 422 463 462
4 422 423 464 463
4 423 424 465 464
4 424 425 466 465
4 425 426 467 466
4 426 427 468 467
4 427 428 469 468
4 428 429 470 469
4 429 430 471 470
4 430 431 472 471
4 431 432 473 472
4 432 433 474 473
4 433 434 475 474
4 434 435 476 475
4 435 436 477 476
4 436 437 478 477
4 437 438 479 478
4 438 439 480 479
4 439 440 481 480
4 440 441 482 481
4 441 442 483 482
4 442 443 484 483
4 443 444 485 484
4 444 445 486 485
4 445 446 487 486
4 446 447 488 487
4 447 448 489 488
4 448 449 490 489
4 449 450 491 490
4 451 452 493 492
4 452 453 494 493
4 453 454 495 494
4 454 455 496 495
4 455 456 497 496
4 456 457 498 497
4 457 458 499 498
4 458 459 500 499
4 459 460 501 500
4 460 461 502 501
4 461 462 503 502
4 462 463 504 503
4 463 464 505 504
4 464 465 506 505
4 465 466 507 506
4 466 467 508 507
4 467 468 509 508
4 468 469 510 509
4 469 470 511 510
4 470 471 512 511
4 471 472 513 512
4 472 473 514 513
4 473 474 515 514
4 474 475 516 515
4 475 476 517 516
4 476 477 518 517
4 477 478 519 518
4 478 479 520 519
4 479 480 521 520
4 480 481 522 521
4 481 482 523 522
4 482 483 524 523
4 483 484 525 524
4 484 485 526 525
4 485 486 527 526
4 486 487 528 527
4 487 488 529 528
4 488 489 530 529
4 489 490 531 530
4 490 491 532 531
4 492 493 534 533
4 493 494 535 534
4 494 495 536 535
4 495 496 537 536
4 496 497 538 537
4 497 498 539 538
4 498 499 540 539
4 499 500 541 540
4 500 501 542 541
4 501 502 543 542
4 502 503 544 543
4 503 504 545 544
4 504 505 546 545
4 505 506 547 546
4 506 507 548 547
4 507 508 549 548
4 508 509 550 549
4 509 510 551 550
4 510 511 552 551
4 511 512 553 552
4 512 513 554 553
4 513 514 555 554
4 514 515 556 555
4 515 516 557 556
4 516 517 558 557
4 517 518 559 558
4 518 519 560 559
4 519 520 561 560
4 520 521 562 561
4 521 522 563 562
4 522 523 564 563
4 523 524 565 564
4 524 525 566 565
4 525 526 567 566
4 526 527 568 567
4 527 528 569 568
4 528 529 570 569
4 529 530 571 570
4 530 531 572 571
4 531 532 573 572
4 533 534 575 574
4 534 535 576 575
4 535 536 577 576
4 536 537 578 577
4 537 538 579 578
4 538 539 580 579
4 539 540 581 580
4 540 541 582 581
4 541 542 583 582
4 542 543 584 583
4 543 544 585 584
4 544 545 586 585
4 545 546 587 586
4 546 547 588 587
4 547 548 589 588
4 548 549 590 589
4 549 550 591 590
4 550 551 592 591
4 551 552 593 592
4 552 553 594 593
4 553 554 595 594
4 554 555 596 595
4 555 556 597 596
4 556 557 598 597
4 557 558 599 598
4 558 559 600 599
4 559 560 601 600
4 560 561 602 601
4 561 562 603 602
4 562 563 604 603
4 563 564 605 604
4 564 565 606 605
4 565 566 607 606
4 566 567 608 607
4 567 568 609 608
4 568 569 610 609
4 569 570 611 610
4 570 571 612 611
4 571 572 613 612
4 572 573 614 613
4 574 575 616 615
4 575 576 617 616
4 576 577 618 617
4 577 578 619 618
4 578 579 620 619
4 579 580 621 620
4 580 581 622 621
4 581 582 623 622
4 582 583 624 623
4 583 584 625 624
4 584 585 626 625
4 585 586 627 626
4 586 587 628 627
4 587 588 629 628
4 588 589 630 629
4 589 590 631 630
4 590 591 632 631
4 591 592 633 632
4 592 593 634 633
4 593 594 635 634
4 594 595 636 635
4 595 596 637 636
4 596 597 638 637
4 597 598 639 638
4 598 599 640 639
4 599 600 641 640
4 600 601 642 641
4 601 602 643 642
4 602 603 644 643
4 603 604 645 644
4 604 605 646 645
4 605 606 647 646
4 606 607 648 647
4 607 608 649 648
4 608 609 650 649
4 609 610 651 650
4 610 611 652 651
4 611 612 653 652
4 612 613 654 653
4 613 614 655 654
4 615 616 657 656
4 616 617 658 657
4 617 618 659 658
4 618 619 660 659
4 619 620 661 660
4 620 621 662 661
4 621 622 663 662
4 622 623 664 663
4 623 624 665 664
4 624 625 666 665
4 625 626 667 666
4 626 627 668 667
4 627 628 669 668
4 628 629 670 669
4 629 630 671 670
4 630 631 672 671
4 631 632 673 672
4 632 633 674 673
4 633 634 675 674
4 634 635 676 675
4 635 636 677 676
4 636 637 678 677
4 637 638 679 678
4 638 639 680 679
4 639 640 681 680
4 640 641 682 681
4 641 642 683 682
4 642 643 684 683
4 643 644 685 684
4 644 645 686 685
4 645 646 687 686
4 646 647 688 687
4 647 648 689 688
4 648 649 690 689
4 649 650 691 690
4 650 651 692 691
4 651 652 693 692
4 652 653 694 693
4 653 654 695 694
4 654 655 696 695
4 656 657 698 697
4 657 658 699 698
4 658 659 700 699
4 659 660 701 700
4 660 661 702 701
4 661 662 703 702
4 662 663 704 703
4 663 664 705 704
4 664 665 706 705
4 665 666 707 706
4 666 667 708 707
4 667 668 709 708
4 668 669 710 709
4 669 670 711 710
4 670 671 712 711
4 671 672 713 712
4 672 673 714 713
4 673 674 715 714
4 674 675 716 715
4 675 676 717 716
4 676 677 718 717
4 677 678 719 718
4 678 679 720 719
4 679 680 721 720
4 680 681 722 721
4 681 682 723 722
4 682 683 724 723
4 683 684 725 724
4 684 685 726 725
4 685 686 727 726
4 686 687 728 727
4 687 688 729 728
4 688 689 730 729
4 689 690 731 730
4 690 691 732 731
4 691 692 733 732
4 692 693 734 733
4 693 694 735 734
4 694 695 736 735
4 695 696 737 736
4 697 698 739 738
4 698 699 740 739
4 699 700 741 740
4 700 701 742 741
4 701 702 743 742
4 702 703 744 743
4 703 704 745 744
4 704 705 746 745
4 705 706 747 746
4 706 707 748 747
4 707 708 749 748
4 708 709 750 749
4 709 710 751 750
4 710 711 752 751
4 711 712 753 752
4 712 713 754 753
4 713 714 755 754
4 714 715 756 755
4 715 716 757 756
4 716 717 758 757
4 717 718 759 758
4 718 719 760 759
4 719 720 761 760
4 720 721 762 761
4 721 722 763 762
4 722 723 764 763
4 723 724 765 764
4 724 725 766 765
4 725 726 767 766
4 726 727 768 767
4 727 728 769 768
4 728 729 770 769
4 729 730 771 770
4 730 731 772 771
4 731 732 773 772
4 732 733 774 773
4 733 734 775 774
4 734 735 776 775
4 735 736 777 776
4 736 737 778 777
4 738 739 780 779
4 739 740 781 780
4 740 741 782 781
4 741 742 783 782
4 742 743 784 783
4 743 744 785 784
4 744 745 786 785
4 745 746 787 786
4 746 747 788 787
4 747 748 789 788
4 748 749 790 789
4 749 750 791 790
4 750 751 792 791
4 751 752 793 792
4 752 753 794 793
4 753 754 795 794
4 754 755 796 795
4 755 756 797 796
4 756 757 798 797
4 757 758 799 798
4 758 759 800 799
4 759 760 801 800
4 760 761 802 801
4 761 762 803 802
4 762 763 804 803
4 763 764 805 804
4 764 765 806 805
4 765 766 807 806
4 766 767 808 807
4 767 768 809 808
4 768 769 810 809
4 769 770 811 810
4 770 771 812 811
4 771 772 813 812
4 772 773 814 813
4 773 774 815 814
4 774 775 816 815
4 775 776 817 816
4 776 777 818 817
4 777 778 819 818
4 779 780 821 820
4 780 781 822 821
4 781 782 823 822
4 782 783 824 823
4 783 784 825 824
4 784 785 826 825
4 785 786 827 826
4 786 787 828 827
4 787 788 829 828
4 788 789 830 829
4 789 790 831 830
4 790 791 832 831
4 791 792 833 832
4 792 793 834 833
4 793 794 835 834
4 794 795 836 835
4 795 796 837 836
4 796 797 838 837
4 797 798 839 838
4 798 799 840 839
4 799 800 841 840
4 800 801 842 841
4 801 802 843 842
4 802 803 844 843
4 803 804 845 844
4 804 805 846 845
4 805 806 847 846
4 806 807 848 847
4 807 808 849 848
4 808 809 850 849
4 809 810 851 850
4 810 811 852 851
4 811 812 853 852
4 812 813 854 853
4 813 814 855 854
4 814 815 856 855
4 815 816 857 856
4 816 817 858 857
4 817 818 859 858
4 818 819 860 859
CELL_TYPES 800
9
9
9
9
9
9
9
9
9
9
9
9
9
9
9
9
9
9
9
9
9
9
9
9
9
9
9
9
9
9
9
9
9
9
9
9
9
9
9
9
9
9
9
9
9
9
9
9
9
9
9
9
9
9
9
9
9
9
9
9
9
9
9
9
9
9
9
9
9
9
9
9
9
9
9
9
9
9
9
9
9
9
9
9
9
9
9
9
9
9
9
9
9
9
9
9
9
9
9
9
9
9
9
9
9
9
9
9
9
9
9
9
9
9
9
9
9
9
9
9
9
9
9
9
9
9
9
9
9
9
9
9
9
9
9
9
9
9
9
9
9
9
9
9
9
9
9
9
9
9
9
9
9
9
9
9
9
9
9
9
9
9
9
9
9
9
9
9
9
9
9
9
9
9
9
9
9
9
9
9
9
9
9
9
9
9
9
9
9
9
9
9
9
9
9
9
9
9
9
9
9
9
9
9
9
9
9
9
9
9
9
9
9
9
9
9
9
9
9
9
9
9
9
9
9
9
9
9
9
9
9
9
9
9
9
9
9
9
9
9
9
9
9
9
9
9
9
9
9
9
9
9
9
9
9
9
9
9
9
9
9
9
9
9
9
9
9
9
9
9
9
9
9
9
9
9
9
9
9
9
9
9
9
9
9
9
9
9
9
9
9
9
9
9
9
9
9
9
9
9
9
9
9
9
9
9
9
9
9
9
9
9
9
9
9
9
9
9
9
9
9
9
9
9
9
9
9
9
9
9
9
9
9
9
9
9
9
9
9
9
9
9
9
9
9
9
9
9
9
9
9
9
9
9
9
9
9
9
9
9
9
9
9
9
9
9
9
9
9
9
9
9
9
9
9
9
9
9
9
9
9
9
9
9
9
9
9
9
9
9
9
9
9
9
9
9
9
9
9
9
9
9
9
9
9
9
9
9
9
9
9
9
9
9
9
9
9
9
9
9
9
9
9
9
9
9
9
9
9
9
9
9
9
9
9
9
9
9
9
9
9
9
9
9
9
9
9
9
9
9
9
9
9
9
9
9
9
9
9
9
9
9
9
9
9
9
9
9
9
9
9
9
9
9
9
9
9
9
9
9
9
9
9
9
9
9
9
9
9
9
9
9
9
9
9
9
9
9
9
9
9
9
9
9
9
9
9
9
9
9
9
9
9
9
9
9
9
9
9
9
9
9
9
9
9
9
9
9
9
9
9
9
9
9
9
9
9
9
9
9
9
9
9
9
9
9
9
9
9
9
9
9
9
9
9
9
9
9
9
9
9
9
9
9
9
9
9
9
9
9
9
9
9
9
9
9
9
9
9
9
9
9
9
9
9
9
9
9
9
9
9
9
9
9
9
9
9
9
9
9
9
9
9
9
9
9
9
9
9
9
9
9
9
9
9
9
9
9
9
9
9
9
9
9
9
9
9
9
9
9
9
9
9
9
9
9
9
9
9
9
9
9
9
9
9
9
9
9
9
9
9
9
9
9
9
9
9
9
9
9
9
9
9
9
9
9
9
9
9
9
9
9
9
9
9
9
9
9
9
9
9
9
9
9
9
9
9
9
9
9
9
9
9
9
9
9
9
9
9
9
9
9
9
9
9
9
9
9
9
9
9
9
9
9
9
9
9
9
9
9
9
9
9
9
9
9
9
9
9
9
9
9
9
9
9
9
9
9
9
9
9
9
9
9
9
9
9
9
9
9
9
9
9
9
9
9
9
9
9
9
9
9
9
9
9
9
9
9
9
9
9
9
9
9
9
9
9
9
9
9
9
9
9
9
9
9
9
9
9
9
9
9
9
9
9
9
9
9
9
9
POINT_DATA 861
SCALARS Disp float 2
LOOKUP_TABLE default
0.0 0.0
0.004938445750829283 -0.1739871271890748
0.006066893261856014 -0.3399782320310132
0.006810405299062926 -0.5051411868929766
0.007723912865767315 -0.6699920622757062
0.009072429584235443 -0.8342378177800489
0.011276091066208279 -0.9975020080973753
0.014809824452272542 -1.1593251872993544
0.020220288642552195 -1.3191393564399563
0.028097294379123717 -1.4762157704663899
0.0390403335851753 -1.6295783617689477
0.05365429517746476 -1.7779372149197994
0.07255319765661099 -1.9196837340921988
0.09635270781397165 -2.0529527392292333
0.12566969965462377 -2.175677480839698
0.16105438831087765 -2.2856313771886327
0.20286264947663218 -2.380475161158396
0.25109393185058093 -2.4578357682213148
0.3052431887381995 -2.5154635601983233
0.3642266804028267 -2.5514661373309515
0.42627978565884034 -2.5645397162092585
0.4883328909148508 -2.551466137330876
0.5473163825794668 -2.5154635601981687
0.601465639467066 -2.457835768221092
0.6496969218409903 -2.3804751611581167
0.6915051830067189 -2.285631377188315
0.7268898716629464 -2.175677480839348
0.7562068635035712 -2.052952739228863
0.7800063736609046 -1.9196837340918183
0.7989052761400249 -1.7779372149194221
0.8135192377322907 -1.6295783617685822
0.8244622769383233 -1.4762157704660457
0.83233928267488 -1.3191393564396372
0.8377497468651479 -1.1593251872990658
0.8412834802512046 -0.9975020080971199
0.8434871417331723 -0.8342378177798316
0.8448356584516382 -0.6699920622755273
0.8457491660183419 -0.5051411868928388
0.8464926780555486 -0.3399782320309154
0.8476211255665742 -0.17398712718901918
0.8525595713174001 0.0
0.04340654183117092 -0.00210939371772518
0.046787444656233024 -0.17417178621639687
0.04739409823691474 -0.3400394249394551
0.048059240848817304 -0.5052241978552955
0.04887075850126433 -0.6701086335803667
0.05003140167481484 -0.8344709740841639
0.05193893256593716 -0.9979608792808577
0.055044007540687265 -1.1601355666208817
0.05986036364839118 -1.3204406336115277
0.06692543124430698 -1.4781485489101251
0.07677259631820751 -1.6322818313887022
0.08992724236641897 -1.7815520482593912
0.10692590280565296 -1.9243549367844575
0.1283317752064215 -2.0588289842006438
0.1547114497307472 -2.182904185627156
0.18658000662199353 -2.2943266003790987
0.22428021436384282 -2.390692978763997
0.267835977248029 -2.46952763065743
0.3168196315176644 -2.5284478882835777
0.37023172333242 -2.5654100435167657
0.42627978565883107 -2.5788713689072065
0.4823278479852389 -2.5654100435166884
0.535739939799984 -2.5284478882834196
0.5847235940696027 -2.469527630657202
0.6282793569537676 -2.3906929787637123
0.6659795646955938 -2.294326600378775
0.6978481215868164 -2.1829041856268
0.7242277961111175 -2.0588289842002667
0.7456336685118616 -1.9243549367840709
0.7626323289510722 -1.781552048259008
0.7757869749992626 -1.6322818313883323
0.7856341400731457 -1.478148548909777
0.7926992076690479 -1.3204406336112056
0.7975155637767414 -1.1601355666205908
0.8006206387514845 -0.9979608792806008
0.8025281696426024 -0.8344709740839461
0.8036888128161511 -0.6701086335801876
0.8045003304685978 -0.5052241978551576
0.8051654730805001 -0.3400394249393572
0.8057721266611818 -0.17417178621634097
0.8091530294862389 -0.0021093937177227595
0.08594386745388835 -0.0037661170208925067
0.08839049040743943 -0.17426040970061926
0.08874222206630522 -0.3400757229045305
0.08928625178942617 -0.5052982271744901
0.09000332527624748 -0.6702047135314251
0.09099555978227064 -0.8346560810220293
0.09261072060344604 -0.9983397979159363
0.09528809153406129 -1.1608273522551271
0.0995005682470584 -1.3215750777413051
0.10573639985065383 -1.4798527910356194
0.11446562831091261 -1.634678075435547
0.12614203497478557 -1.7847615925337073
0.14122750768594758 -1.9285054166535183
0.1602175788005428 -2.0640564068385876
0.18363285256963435 -2.1893426461068253
0.21194900827923932 -2.3020874290191737
0.24550121060567998 -2.3998323174021783
0.28435431890824797 -2.480010912211386
0.32816261100659605 -2.5401175087152614
0.37600268709398493 -2.577940814537729
0.4262797856588222 -2.5917586772223613
0.47655688422365633 -2.5779408145376506
0.5243969603110356 -2.5401175087151007
0.5682052524093689 -2.4800109122111533
0.6070583607119187 -2.3998323174018883
0.6406105630383387 -2.3020874290188442
0.6689267187479225 -2.189342646106464
0.6923419925169922 -2.064056406838205
0.7113320636315658 -1.9285054166531266
0.7264175363427071 -1.784761592533319
0.7380939430065613 -1.6346780754351726
0.7468231714668044 -1.4798527910352677
0.7530590030703875 -1.3215750777409805
0.7572714797833754 -1.1608273522548342
0.7599488507139844 -0.9983397979156783
0.7615640115351562 -0.8346560810218107
0.7625562460411781 -0.6702047135312458
0.763273319527999 -0.5052982271743522
0.76381734925112 -0.3400757229044326
0.7641690809099858 -0.17426040970056308
0.7666157038635321 -0.0037661170208875463
0.12802700206712125 -0.005090510876595603
0.1298540303898634 -0.17432013234566987
0.1300697487294436 -0.34009619547625314
0.1304957672431744 -0.505359389948024
0.13111586034621478 -0.6702865515543636
0.13196112034497767 -0.8347995180269311
0.13329994943411844 -0.9986410496229152
0.13555205401972392 -1.1614018190313071
0.1391569196221654 -1.3225411526481503
0.14455279462787465 -1.481325489557562
0.15215030421239542 -1.6367635999402472
0.16233483877888538 -1.7875638085096537
0.17549798897449734 -1.932133879054733
0.1920660529919461 -2.068631421822378
0.21249765275290952 -2.194987251024136
0.2372357281427382 -2.308906592426892
0.26661048332334614 -2.407885863379975
0.30072863263569644 -2.489280818452419
0.33933193790942434 -2.5504686726405463
0.3816386518092753 -2.589084671257825
0.4262797856588136 -2.6032605869050514
0.4709209195083488 -2.589084671257745
0.5132276334081912 -2.550468672640383
0.5518309386819061 -2.489280818452183
0.5859490879942403 -2.4078858633796805
0.6153238431748306 -2.308906592426557
0.6400619185646406 -2.1949872510237705
0.6604935183255848 -2.06863142182199
0.6770615823430145 -1.9321338790543365
0.6902247325386085 -1.7875638085092604
0.7004092671050822 -1.636763599939869
0.7080067766895891 -1.4813254895572072
0.7134026516952874 -1.3225411526478232
0.7170075172977208 -1.1614018190310127
0.719259621883321 -0.9986410496226563
0.7205984509724588 -0.8347995180267123
0.7214437109712208 -0.6702865515541844
0.7220638040742609 -0.5053593899478861
0.7224898225879918 -0.3400961954761554
0.7227055409275721 -0.17432013234561333
0.7245325692503098 -0.005090510876588394
0.1698483907783665 -0.006154911162953408
0.1712193165279222 -0.1743685371942008
0.17136030905569274 -0.34010790866874174
0.17168556753514314 -0.5054069431237154
0.17220612610953992 -0.6703561269274777
0.1729192444230806 -0.8349113474661888
0.17401225885060545 -0.998870820170348
0.1758457826972894 -1.1618610517939127
0.17884566282644196 -1.3233395888147255
0.1833977736501564 -1.4825655904713135
0.18985656717627822 -1.6385372663876754
0.19854387112310684 -1.789957800054492
0.2097805905893356 -1.9352403543682049
0.22392355152968793 -2.072554162380597
0.24137216565615494 -2.1998356705968236
0.26252043376038103 -2.3147796120806254
0.2876932124790125 -2.4148473936303154
0.31704153979680666 -2.497329337653695
0.35041016942242165 -2.5595001630656444
0.3871986343206806 -2.598860394373006
0.4262797856588051 -2.6134106073771735
0.465360936996927 -2.5988603943729247
0.5021494018951782 -2.5595001630654783
0.5355180315207816 -2.4973293376534555
0.5648663588385621 -2.414847393630017
0.5900391375571782 -2.3147796120802866
0.6111874056613881 -2.1998356705964532
0.6286360197878386 -2.0725541623802055
0.6427789807281746 -1.935240354367804
0.654015700194388 -1.789957800054095
0.662703004141203 -1.6385372663872932
0.6691617976673128 -1.482565590470956
0.6737139084910178 -1.3233395888143964
0.6767137886201634 -1.1618610517936168
0.6785473124668431 -0.9988708201700882
0.6796403268943656 -0.8349113474659698
0.6803534452079057 -0.6703561269272984
0.6808740037823023 -0.5054069431235774
0.6811992622617528 -0.34010790866864404
0.6813402547895232 -0.174368537194144
0.6827111805390754 -0.006154911162944206
0.21149610936817825 -0.007005184166839821
0.2125152123181114 -0.17441125116826905
0.21261203746780608 -0.34011570198938984
0.21285317792730274 -0.5054418655072765
0.21327298032246902 -0.6704142863571831
0.21386401933414967 -0.834999084076173
0.2147390581274774 -0.999040463699047
0.216186055804286 -1.1622089606962456
0.21858352391375716 -1.3239728201597187
0.22229504741163855 -1.4835743916386661
0.22761539091978536 -1.6399996266779522
0.234805733678971 -1.791944853343443
0.2441203779248126 -1.9378267333821109
0.25584580908269283 -2.075826596954814
0.27031419959688613 -2.203889951373776
0.287878567891045 -2.3197060340122495
0.3088419713363988 -2.4207118632061326
0.3333864311606953 -2.5041481239197325
0.3614796795987247 -2.5672077469468664
0.39273293584823815 -2.6072760667849884
0.42627978565879654 -2.6222280557479785
0.45982663546935254 -2.6072760667849053
0.4910798917188593 -2.567207746946698
0.5191731401568788 -2.50414812391949
0.5437175999811638 -2.4207118632058306
0.5646810034265046 -2.3197060340119062
0.5822453717206496 -2.203889951373402
0.5967137622348293 -2.075826596954419
0.6084391933926961 -1.9378267333817065
0.617753837638525 -1.7919448533430429
0.6249441803976992 -1.6399996266775676
0.630264523905836 -1.483574391638306
0.6339760474037095 -1.3239728201593879
0.636373515513175 -1.1622089606959485
0.6378205131899802 -0.9990404636987866
0.6386955519833064 -0.8349990840759539
0.6392865909949866 -0.670414286357004
0.6397063933901528 -0.5054418655071387
0.6399475338496494 -0.3401157019892921
0.640044358999344 -0.17441125116821207
0.6410634619492743 -0.007005184166828965
0.2530174953265791 -0.007676648312019302
0.2537619749443547 -0.17445002458512107
0.25382916806026334 -0.3401220522083893
0.2539980777200077 -0.5054656033412445
0.25431799257933085 -0.6704607335858496
0.2547906237090534 -0.8350679668718716
0.25547022357838006 -0.9991627448998169
0.2565678576566928 -1.1624580367858741
0.25839280110830554 -1.324445249499596
0.26126954157838195 -1.484355317805607
0.2654592277491206 -1.6411537129076865
0.2711599356416036 -1.7935281378120704
0.2785626216003508 -1.93989721709965
0.2878852068833334 -2.0784537763501314
0.2993935345881195 -2.2071542903861303
0.3133845927347916 -2.323689213583444
0.33014141785993445 -2.4254784247160783
0.34986587323984336 -2.50972942095162
0.37263315891054155 -2.573581690507919
0.39829357890021466 -2.6143284487829286
0.4262797856587879 -2.629720129455064
0.45426599241735915 -2.6143284487828446
0.4799264124070264 -2.573581690507749
0.5026936980777162 -2.5097294209513743
0.522418153457616 -2.4254784247157737
0.5391749785827483 -2.323689213583098
0.5531660367294089 -2.2071542903857533
0.5646743644341844 -2.078453776349733
0.5739969497171565 -1.939897217099243
0.5813996356758937 -1.7935281378116676
0.5871003435683673 -1.6411537129072997
0.5912900297390979 -1.484355317805245
0.5941667702091682 -1.3244452494992636
0.5959917136607765 -1.1624580367855764
0.5970893477390868 -0.9991627448995563
0.5977689476084125 -0.8350679668716524
0.5982415787381348 -0.6704607335856702
0.5985614935974578 -0.5054656033411065
0.5987304032572022 -0.34012205220829156
0.5987975963731107 -0.17445002458506398
0.5995420759908842 -0.007676648312007075
0.2944447726263842 -0.00819736463084072
0.29497465663137834 -0.174486375778079
0.29501793967268425 -0.34012750590090496
0.29512162838332395 -0.5054795700651277
0.2953438720196332 -0.6704946441483459
0.29569539045586946 -0.8351214086733777
0.2962011766594638 -0.9992474779268874
0.2969836467446677 -1.1626244460573554
0.29828011988638775 -1.3247694664587637
0.30035184208352755 -1.484914830390835
0.30342305001009223 -1.6420050085910538
0.3076469488172933 -1.7947132779631185
0.3131552496725858 -1.9414585613230089
0.320098540233894 -2.0804437131098874
0.328673194498284 -2.2096372720403665
0.33911830998981746 -2.3267355926320192
0.35168409227800324 -2.4291499352878554
0.3665790964954762 -2.514068595303123
0.3839690339838529 -2.578607395108593
0.40394036245502174 -2.620001720849013
0.4262797856587789 -2.63588135054583
0.4486192088625346 -2.620001720848928
0.4685905373336989 -2.5786073951084214
0.48598047482206913 -2.5140685953028763
0.500875479039535 -2.4291499352875485
0.5134412613277123 -2.326735592631671
0.523886376819237 -2.2096372720399873
0.5324610310836193 -2.0804437131094873
0.53940432164492 -1.9414585613225999
0.5449126225002051 -1.7947132779627137
0.5491365213073991 -1.6420050085906652
0.5522077292339579 -1.4849148303904716
0.5542794514310933 -1.3247694664584304
0.5555759245728104 -1.1626244460570572
0.5563583946580126 -0.9992474779266265
0.5568641808616064 -0.8351214086731584
0.5572156992978424 -0.6704946441481665
0.5574379429341516 -0.5054795700649898
0.5575416316447912 -0.3401275059008072
0.5575849146860969 -0.1744863757780218
0.5581147986910897 -0.008197364630827405
0.33579651296593876 -0.008594490091801278
0.33616737553527065 -0.17452150592097435
0.33618390558129096 -0.3401313638081294
0.33622658148107154 -0.5054848496356675
0.3363543319008784 -0.6705156620953073
0.3365806360356571 -0.8351593776998392
0.336919046330966 -0.9993048887062768
0.33742570982329106 -1.1627252416133003
0.33824263448857483 -1.324965444294128
0.3395593387480122 -1.4852680367731708
0.341544971109692 -1.6425635041106719
0.34431470876463144 -1.7955096907287234
0.3479501687486075 -1.942521030446387
0.35254369754921394 -2.0818083782368473
0.35822224909354095 -2.211351552106526
0.3651577571812475 -2.3288564626131563
0.3735578955086645 -2.4317346906106256
0.3836376851522906 -2.5171654257008016
0.3956043518148082 -2.58226749127471
0.4097465890082801 -2.624266685506718
0.42627978565876956 -2.640692501193744
0.4428129823092582 -2.6242666855066323
0.45695521950272705 -2.5822674912745374
0.46892188616524005 -2.5171654257005533
0.479001675808861 -2.431734690610318
0.48740181413627237 -2.328856462612806
0.494337322223973 -2.2113515521061453
0.5000158737682953 -2.081808378236445
0.5046094025688971 -1.9425210304459766
0.5082448625528685 -1.795509690728317
0.5110146002078032 -1.6425635041102822
0.513000232569479 -1.4852680367728062
0.5143169368289138 -1.3249654442937944
0.5151338614941959 -1.1627252416130014
0.51564052498652 -0.999304888706016
0.5159789352818286 -0.8351593776996198
0.5162052394166072 -0.6705156620951279
0.516332989836414 -0.5054848496355295
0.5163756657361944 -0.3401313638080316
0.5163921957822146 -0.17452150592091717
0.5167630583515456 -0.008594490091787196
0.37708494772422785 -0.008896291467741435
0.3773455407069951 -0.17455704416097897
0.37733245339624244 -0.34013219034257514
0.37731670470368706 -0.5054822547734517
0.37735296789467393 -0.6705239702160082
0.37745272764799337 -0.8351804595090977
0.3776188937925269 -0.9993393217548728
0.3778728972642751 -1.162779504173798
0.3782667616962772 -1.3250607592626003
0.37889505718535665 -1.4854422502895128
0.3798519340409333 -1.642851515629685
0.3812093385013836 -1.79593586912943
0.38300290143665894 -1.9431021291331612
0.3852782697648536 -2.0825667746721
0.38810160434439317 -2.2123174710207762
0.3915704000574884 -2.3300707019881295
0.39583542305006686 -2.433247296223047
0.40111001430880083 -2.51903128781664
0.4076590790766908 -2.5845516078840127
0.41582550633580434 -2.627079720434397
0.42627978565875996 -2.644114381916455
0.43673406498171524 -2.6270797204343106
0.44490049224082734 -2.584551607883839
0.45144955700871453 -2.5190312878163907
0.45672414826744545 -2.4332472962227385
0.4609891712600215 -2.3300707019877778
0.46445796697311387 -2.2123174710203943
0.46728130155265163 -2.0825667746716974
0.46955666988084455 -1.94310212913275
0.4713502328161176 -1.7959358691290235
0.4727076372765658 -1.6428515156292947
0.47366451413214095 -1.4854422502891478
0.47429280962121945 -1.325060759262266
0.47468667405322085 -1.1627795041734994
0.4749406775249687 -0.999339321754612
0.4751068436695021 -0.8351804595088785
0.4752066034228216 -0.6705239702158288
0.4752428666138085 -0.5054822547733137
0.475227117921253 -0.3401321903424773
0.47521403061050027 -0.1745570441609218
0.475474623593267 -0.008896291467726794
0.41832589485531896 -0.009126060582658028
0.41850885396984167 -0.1745940795119767
0.4184682637222749 -0.3401290017724256
0.41839632427775253 -0.5054723115412042
0.4183440463251532 -0.6705198319171005
0.4183179307055053 -0.8351842052931007
0.41830828302260575 -0.9993500899348977
0.41830578309664046 -1.162797311192357
0.4183054306771736 -1.3250893524119314
0.4183056884141049 -1.4854888903357335
0.41830590517949795 -1.6429254532367883
0.41830591860038097 -1.7960459190915912
0.41830304624255316 -1.9432529757042583
0.4182940465957152 -2.0827673172396186
0.41828068035766064 -2.212582175193503
0.4182918602450499 -2.3304221800090077
0.41842357862277735 -2.433725855469767
0.41889227570142107 -2.51970046402516
0.42004168817620435 -2.585492399926069
0.42226609639614127 -2.628409721932048
0.42627978565875 -2.646089060758406
0.4302934749213591 -2.6284097219319613
0.43251788314129563 -2.5854923999258954
0.433667295616078 -2.5197004640249103
0.4341359926947217 -2.433725855469458
0.43426771107245 -2.330422180008656
0.43427889095983974 -2.212582175193121
0.4342655247217859 -2.0827673172392167
0.43425652507494894 -1.9432529757038468
0.4342536527171222 -1.7960459190911842
0.4342536661380058 -1.6429254532363977
0.4342538829033995 -1.4854888903353685
0.4342541406403313 -1.3250893524115974
0.4342537882208645 -1.162797311192058
0.43425128829489945 -0.9993500899346371
0.4342416406119999 -0.8351842052928816
0.4342155249923522 -0.6705198319169213
0.434163247039753 -0.5054723115410662
0.4340913075952305 -0.34012900177232774
0.4340507173476638 -0.17459407951191952
0.43423367646218625 -0.009126060582643062
0.4595305296780312 -0.009304240769580363
0.4596605573701138 -0.17463057400352447
0.459595127404033 -0.3401220407252961
0.45947007273798707 -0.5054552485602569
0.4593321083576183 -0.6705037145501616
0.45918218230581315 -0.8351706620655082
0.4589977140291024 -0.9993366308409597
0.45873842428600436 -1.1627789994170177
0.45834398933170356 -1.3250608138756153
0.45771627966909373 -1.4854423010408067
0.4567603256198057 -1.6428517103025062
0.4554027023185383 -1.7959353021784954
0.45360276391553317 -1.9430996234428528
0.4513090495675492 -2.0825613718497085
0.4484601384239905 -2.2123144644890687
0.4450157456623753 -2.330095097708719
0.441007629952329 -2.433364863725811
0.43660954278116704 -2.519367117490898
0.4321733911150584 -2.5852648485848864
0.42824121344865224 -2.6283688512904972
0.42627978565874014 -2.6467308011079664
0.42431835786882754 -2.6283688512904106
0.42038618020242147 -2.5852648485847127
0.4159500285363151 -2.519367117490648
0.41155194136515666 -2.4333648637255023
0.4075438256551146 -2.330095097708368
0.4040994328935031 -2.2123144644886867
0.4012505217499477 -2.0825613718493066
0.39895680740196754 -1.9430996234424422
0.3971568689989664 -1.7959353021780888
0.3957992456977027 -1.6428517103021163
0.3948432916484176 -1.4854423010404416
0.3942155819858096 -1.3250608138752813
0.3938211470315097 -1.1627789994167188
0.3935618572884124 -0.9993366308406991
0.3933773890117019 -0.8351706620652892
0.3932274629598971 -0.6705037145499824
0.39308949857952846 -0.5054552485601188
0.39296444391348256 -0.3401220407251982
0.39289901394740184 -0.17463057400346735
0.39302904163948427 -0.00930424076956517
0.5007143548500347 -0.009441590090121653
0.5008053140278493 -0.1746645762502423
0.5007174295741995 -0.3401115903656244
0.5005425308792397 -0.5054313949668939
0.5003221841002015 -0.6704762086262466
0.5000514788984098 -0.8351401340720296
0.4996961805012595 -0.9992995611571105
0.4991851323146822 -1.1627242340313235
0.4983678353492197 -1.3249655761336963
0.4970523377360995 -1.4852683157183697
0.4950675031996586 -1.6425637408642315
0.4922969186194359 -1.7955083220548278
0.4886557837796714 -1.9425155713148174
0.48404636028124526 -2.081797138202558
0.478345019096673 -2.2113453150799303
0.4714307993472427 -2.3289058045795095
0.46326301150796423 -2.4319688848900185
0.45396968206035254 -2.517823933368191
0.4439307487506218 -2.58369025819012
0.4340745453626572 -2.6270525535924882
0.42627978565873054 -2.6461990374694655
0.41848502595480336 -2.6270525535924016
0.40862882256683997 -2.583690258189947
0.3985898892571134 -2.517823933367942
0.38929655980950817 -2.4319688848897116
0.3811287719702372 -2.32890580457916
0.3742145522208131 -2.2113453150795492
0.3685132110362472 -2.0817971382021576
0.363903787537828 -1.9425155713144084
0.36026265269806995 -1.795508322054422
0.3574920681178537 -1.6425637408638425
0.3555072335814179 -1.4852683157180053
0.3541917359683013 -1.3249655761333625
0.35337443900284093 -1.1627242340310247
0.3528633908162648 -0.9992995611568497
0.352508092419115 -0.8351401340718106
0.35223738721732384 -0.6704762086260675
0.35201704043828574 -0.5054313949667558
0.3518421417433261 -0.3401115903655264
0.35175425728967635 -0.17466457625018514
0.35184521646749084 -0.009441590090106283
0.5418908998382583 -0.009544137954773216
0.5419488459723059 -0.17469451293898178
0.5418400268896251 -0.34009780250776894
0.5416184348114378 -0.5054011904982165
0.5413194307216008 -0.6704379321639555
0.5409324222831485 -0.835093705979091
0.5404126428231487 -0.9992393805770037
0.5396259932019379 -1.162622979247616
0.538330635063277 -1.3247698908566783
0.5362603574208186 -1.4849153927092116
0.5331893592726012 -1.6420051264842979
0.5289641103229066 -1.7947111233740427
0.5234521307062413 -1.941450847316913
0.5165000219158759 -2.0804280582585863
0.5079122640124447 -2.2096284831515227
0.4974829480621773 -2.326805035911682
0.48508394772110736 -2.429480602444572
0.47079880026836846 -2.515004595687861
0.4551464899423904 -2.5807183929739894
0.43941178757161764 -2.62431472481163
0.42627978565872104 -2.644512156650877
0.4131477837458247 -2.6243147248115433
0.39741308137505404 -2.5807183929738167
0.3817607710490822 -2.5150045956876133
0.3674756235963521 -2.429480602444267
0.3550766232552922 -2.3268050359113346
0.3446473073050343 -2.2096284831511435
0.3360595494016123 -2.0804280582581876
0.3291074406112562 -1.941450847316506
0.3235954609946002 -1.7947111233736388
0.31937021204491445 -1.6420051264839104
0.31629921389670473 -1.484915392708849
0.3142289362542515 -1.324769890856345
0.31293357811559414 -1.1626229792473175
0.3121469284943852 -0.999239380576743
0.31162714903438626 -0.8350937059788719
0.31124014059593447 -0.6704379321637765
0.3109411365060977 -0.5054011904980785
0.3107195444279106 -0.34009780250767097
0.31061072534522993 -0.17469451293892466
0.3106686714792774 -0.009544137954757703
0.5830685298649091 -0.009617165996953609
0.583097295351173 -0.17471903989428764
0.5829679108272182 -0.34008068805510705
0.5827023745232205 -0.505365071727574
0.5823281599268265 -0.6703897457919502
0.5818322574401171 -0.8350327512470623
0.5811405684860941 -0.9991517146844155
0.5800417120428707 -1.1624565249376528
0.5782187422933681 -1.324446185315774
0.5753431104548922 -1.4843560485317437
0.5711527877815493 -1.641153512623921
0.5654505081738028 -1.7935253402337283
0.5580471348904663 -1.939888604608614
0.5487270147769573 -2.078436894427563
0.5372234554730119 -2.2071452788700827
0.5232429339074354 -2.3237701675704288
0.5065602856240444 -2.425870473844178
0.4872402003874479 -2.5108874047387237
0.4659666632812393 -2.5763369314797875
0.44448657403710395 -2.6202062211767863
0.4262797856587118 -2.6417251048684007
0.40807299728032037 -2.6202062211767
0.38659290803618884 -2.576336931479616
0.3653193709299879 -2.5108874047384777
0.3459992856934023 -2.425870473843876
0.3293166374100238 -2.3237701675700837
0.31533611584445964 -2.2071452788697057
0.3038325565405264 -2.078436894427167
0.29451243642702934 -1.9398886046082096
0.28710906314370477 -1.7935253402333269
0.2814067835359697 -1.641153512623536
0.2772164608626365 -1.4843560485313823
0.2743408290241677 -1.3244461853154421
0.27251785927467004 -1.162456524937355
0.2714190028314494 -0.9991517146841551
0.2707273138774276 -0.8350327512468433
0.2702314113907187 -0.6703897457917712
0.269857196794325 -0.5053650717274359
0.26959166049032757 -0.3400806880550092
0.26946227596637295 -0.17471903989423046
0.26949104145263686 -0.009617165996938008
0.6242531226029238 -0.009665612685408963
0.6242561582214279 -0.17473725636402
0.6241062915576311 -0.3400601358468108
0.6237991600514545 -0.5053234623109893
0.6233542818339859 -0.6703328332182371
0.6227534635710946 -0.8349575594791464
0.6218709510853919 -0.9990271150702271
0.6204243829911007 -1.1622078950013355
0.618029118631346 -1.3239742663849459
0.6143178316430093 -1.4835750840852007
0.6089961820658395 -1.6399989668796204
0.6018043535275305 -1.7919416617758266
0.5924926938575145 -1.93781897212582
0.5807829327190246 -2.075812938421263
0.5663420756506321 -2.20388475902982
0.5487895220471036 -2.319789141258534
0.5278186066528587 -2.4211280336297816
0.5034777071268806 -2.505465806404448
0.47662719789270436 -2.5705555375362756
0.44950055477131434 -2.6147604731927307
0.4262797856587026 -2.637855774425235
0.4030590165460925 -2.614760473192646
0.37593237342470753 -2.5705555375361056
0.3490818641905411 -2.5054658064042044
0.3247409646645756 -2.4211280336294823
0.3037700492703455 -2.319789141258193
0.28621749566683197 -2.2038847590294464
0.2717766385984546 -2.07581293842087
0.26006687745997936 -1.937818972125419
0.25075521778997784 -1.7919416617754282
0.2435633892516826 -1.639998966879238
0.23824173967452433 -1.4835750840848416
0.23453045268619654 -1.3239742663846152
0.2321351883264483 -1.1622078950010384
0.230688620232161 -0.9990271150699672
0.2298061077464601 -0.8349575594789276
0.22920528948356927 -0.6703328332180579
0.2287604112661011 -0.5053234623108515
0.22845327975992474 -0.34006013584671285
0.22830341309612806 -0.17473725636396284
0.22830644871463232 -0.0096656126853933
0.6654489037951956 -0.009694285570364817
0.6654301087933286 -0.17474873792073925
0.6652603479171791 -0.34003600100796044
0.6649136942092357 -0.5052768334791504
0.6644020265022311 -0.6702682064051705
0.663692423086143 -0.834864832005453
0.6625984733398823 -0.9988560905392795
0.6607668490543414 -1.1618606533487021
0.6577679373560691 -1.323341306770598
0.6532150667726432 -1.4825660380734067
0.646754520034971 -1.6385360909087914
0.6380665027361289 -1.7899546148494765
0.6268369207261034 -1.935235275067548
0.6127213929412086 -2.0725482414069667
0.5953219852501079 -2.1998395902083607
0.5742031241704236 -2.314860663881365
0.5489866196588516 -2.4152584676283215
0.5196957421288275 -2.4987494842689086
0.48734831396393286 -2.5633880009358156
0.4545991109186596 -2.607981301631672
0.4262797856586937 -2.632884443865203
0.3979604603987298 -2.607981301631588
0.3652112573534631 -2.563388000935648
0.33286382918858 -2.4987494842686684
0.3035729516585707 -2.415258467628026
0.27835644714701546 -2.314860663881027
0.25723758606734914 -2.199839590207991
0.23983817837626603 -2.0725482414065777
0.22572265059138846 -1.9352352750671509
0.21449306858138031 -1.789954614849082
0.20580505128255427 -1.6385360909084123
0.19934450454489555 -1.4825660380730503
0.19479163396148025 -1.3233413067702693
0.19179272226321586 -1.1618606533484062
0.18996109797767982 -0.99885609053902
0.1888671482314216 -0.8348648320052343
0.18815754481533417 -0.6702682064049913
0.18764587710832994 -0.5052768334790126
0.1872992234003868 -0.34003600100786247
0.18712946252423748 -0.17474873792068207
0.18711066752237057 -0.009694285570349126
0.7066586140217491 -0.009708012439851579
0.7066229750660467 -0.17475351898671512
0.7064352422430227 -0.3400082601411133
0.7060511048144642 -0.5052256010917392
0.7054745548278686 -0.6701964036191256
0.7046473631303846 -0.8347504542466988
0.7033144072949344 -0.9986262830365606
0.701063246615231 -1.1614017399207
0.6974573842712964 -1.3225427802582055
0.6920597409722273 -1.4813255277229405
0.6844604219129272 -1.6367619830554305
0.6742767013232873 -1.7875612265301921
0.6611250540378358 -1.932133121352931
0.6445924578612336 -2.0686365592957676
0.6242254252291918 -2.1950059424962505
0.5995506118074033 -2.3089909180602404
0.5701745313370222 -2.408282888878524
0.5360846064562462 -2.490765233895924
0.4983456992181012 -2.554844198378907
0.45991801089908046 -2.5998432852981006
0.42627978565868485 -2.626758677210052
0.3926415604182915 -2.599843285298017
0.3542138720992785 -2.554844198378741
0.31647496486114707 -2.490765233895687
0.2823850399803883 -2.4082828888782326
0.2530089595100262 -2.308990918059907
0.2283341460882584 -2.1950059424958854
0.20796711345623672 -2.068636559295383
0.19143451727965435 -1.9321331213525386
0.17828286999422274 -1.7875612265298018
0.1680991494046013 -1.6367619830550553
0.1604998303453164 -1.4813255277225874
0.15510218704625944 -1.3225427802578789
0.15149632470233418 -1.1614017399204057
0.1492451640226368 -0.998626283036302
0.1479122081871897 -0.8347504542464803
0.14708501648970673 -0.6701964036189466
0.14650846650311164 -0.5052256010916014
0.14612432907455344 -0.3400082601410153
0.14593659625152966 -0.17475351898665795
0.1459009572958272 -0.00970801243983587
0.7478832868960671 -0.009711713501720261
0.7478376673640472 -0.17475216066010482
0.7476364492970252 -0.339977094409841
0.7472166788700938 -0.5051702644561615
0.7465739981869807 -0.6701162831001208
0.7456140173771301 -0.8346081025503642
0.7440087565869016 -0.9983255489160097
0.7413299124377895 -1.1608268907670591
0.7371140821941349 -1.32157622403192
0.7308757060879711 -1.4798523196319366
0.7221449745855473 -1.6346762281602847
0.7104715220819547 -1.7847603686197038
0.6954016789598222 -1.928510269262255
0.6764514161871251 -2.0640743290199564
0.6531086374122482 -2.189380744756872
0.6248953093536985 -2.30218951318313
0.5914650743133993 -2.400238749650546
0.5528115917811717 -2.4815599842662657
0.50984751056888 -2.544932957935977
0.465634241963301 -2.5902913600755104
0.4262797856586758 -2.619385300863537
0.3869253293540532 -2.5902913600754283
0.3427120607484836 -2.544932957935814
0.29974797953620747 -2.4815599842660325
0.2610944970039992 -2.400238749650259
0.22766426196372191 -2.302189513182802
0.19945093390519522 -2.1893807447565123
0.17610815513034103 -2.0640743290195767
0.15715789235766678 -1.9285102692618679
0.14208804923555635 -1.7847603686193185
0.13041459673198436 -1.6346762281599139
0.12168386522957747 -1.479852319631587
0.11544548912342767 -1.3215762240315965
0.1112296588797836 -1.160826890766767
0.10855081473067858 -0.998325548915752
0.10694555394045388 -0.8346081025501461
0.10598557313060471 -0.6701162830999421
0.10534289244749215 -0.5051702644560239
0.10492312202056106 -0.339977094409743
0.1047219039535392 -0.17475216066004765
0.10467628442151941 -0.009711713501704548
0.7891215885588324 -0.009710394306077952
0.7890761017241448 -0.17474593464741797
0.7888702643794872 -0.33994313175628327
0.7884161192930801 -0.5051108449150044
0.7877004927685978 -0.6700258810899732
0.7865831928940857 -0.8344272131415975
0.7846863201551559 -0.9979469025244776
0.781576111640771 -1.1601338899499478
0.776754484891224 -1.3204409584393957
0.7696862705933566 -1.4781475258426924
0.7598381640711288 -1.6322800644641005
0.7466888523283265 -1.781552992612381
0.7297093920417426 -1.9243663251602068
0.708345410727446 -2.0588602771476867
0.6820424569489779 -2.182964983161485
0.6503152451178236 -2.2944652708111835
0.612898007345262 -2.3911624753562317
0.5699259587509503 -2.4712147623263756
0.5221753960441173 -2.5336893754029584
0.4720450809122046 -2.579230024204659
0.4262797856586665 -2.6106039663818836
0.3805144904051314 -2.5792300242045787
0.3303841752732295 -2.5336893754027994
0.2826336125664143 -2.4712147623261473
0.2396615639721247 -2.3911624753559497
0.2022443261995877 -2.2944652708108606
0.17051711436845898 -2.182964983161131
0.14421416059001618 -2.0588602771473132
0.12285017927574511 -1.9243663251598255
0.10587071898918589 -1.7815529926120013
0.0927214072464062 -1.632280064463734
0.08287330072419737 -1.4781475258423469
0.07580508642634509 -1.3204409584390753
0.07098345967680976 -1.1601338899496574
0.06787325116243319 -0.9979469025242214
0.06597637842350788 -0.83442721314138
0.06485907854899771 -0.6700258810897943
0.06414345202451596 -0.5051108449148666
0.06368930693810922 -0.3399431317561854
0.06348346959345187 -0.17474593464736074
0.06343798275876425 -0.009710394306062239
0.8303684728502271 -0.009708969213348236
0.8303391602105176 -0.17473734630777032
0.8301448288590745 -0.339907562720839
0.8296555525099304 -0.5050466689706362
0.8288503963431368 -0.6699197671113053
0.8275509063706632 -0.8342005504849266
0.825353816146113 -0.9974870812869354
0.8218119607576239 -1.1593217731369283
0.8163948082504331 -1.3191385695026991
0.8085141251500557 -1.4762141894904346
0.7975708597810619 -1.629577021602401
0.7829643612560174 -1.777941066539926
0.7640875784688058 -1.919702345419577
0.7403319308720896 -2.0529976849412384
0.7110975710766432 -2.17576413242995
0.6758952470295053 -2.285826145990129
0.6345321312539233 -2.3810738629791444
0.58734070287612 -2.459804508844494
0.5353479327563114 -2.5212819236298993
0.4802201500360002 -2.5665627646811067
0.4262797856586569 -2.5999999999999988
0.372339421281317 -2.5665627646810285
0.31721163856101764 -2.521281923629744
0.2652188684412298 -2.459804508844271
0.2180274400634518 -2.381073862978869
0.17666432428789705 -2.2858261459898124
0.14146200024078717 -2.1757641324296024
0.11222764044536902 -2.0529976849408715
0.08847199284868093 -1.919702345419202
0.06959521006149631 -1.7779410665395528
0.05498871153647677 -1.6295770216020398
0.04404544616750375 -1.4762141894900933
0.03616476306714256 -1.3191385695023823
0.03074761055996488 -1.1593217731366405
0.02720575517148485 -0.997487081286681
0.02500866494693983 -0.8342005504847099
0.02370917497446863 -0.6699197671111268
0.02290401880767571 -0.5050466689704983
0.022414742458532137 -0.33990756272074113
0.022220411107089322 -0.17473734630771312
0.022191098467379943 -0.009708969213332527
SCALARS Stress float 6
LOOKUP_TABLE default
-1089.11439207869 -1878.2087520302453 -1406.5882559803583 -15.447649056856855 0.0 0.0
1245.591301418881 723.221418105288 899.7004325256154 -24.188010696165662 0.0 0.0
547.470135460702 112.85508019485891 203.68495978043475 -37.24418488274328 0.0 0.0
457.67611867264253 18.49214230788247 144.41417986980392 -3.0761555115250654 0.0 0.0
567.2927990111536 55.511773608834744 208.10408231082388 0.6340356647030077 0.0 0.0
660.1344371906114 91.63192091722422 302.563496592571 1.1905281435825867 0.0 0.0
764.8122772817743 124.13209125041655 402.5715065786053 0.5905879283879183 0.0 0.0
867.8290049111502 172.02600156678812 498.37187110142776 -0.3995050796030517 0.0 0.0
976.3012586408427 231.58288512834787 590.3987026544962 -1.6409874110833644 0.0 0.0
1097.9357360902409 308.6313125736222 692.0688217995714 -2.99471978279501 0.0 0.0
1237.3815722866718 406.9803036162426 811.4155242878817 -4.348761746786818 0.0 0.0
1394.594978679378 526.9647963216764 949.813571687677 -5.553510160153314 0.0 0.0
1565.4425947832706 662.5140538631811 1102.537787878201 -6.320362169459005 0.0 0.0
1744.3917009712277 807.9724119297908 1264.224778804033 -6.956040032966125 0.0 0.0
1923.2581473653436 955.0891019783763 1426.679123933733 -7.4079781851895525 0.0 0.0
2093.119393700838 1095.2078381575989 1581.1504545694838 -7.6446729158692435 0.0 0.0
2245.4722646540804 1220.5773269725257 1719.5770926842874 -7.52734141922989 0.0 0.0
2371.5273101461644 1323.313588129704 1833.6839596260686 -6.9098840996307445 0.0 0.0
2466.878959736607 1399.9570292748037 1919.4914298718165 -5.785015570539576 0.0 0.0
2520.716214139057 1440.832996190253 1966.7929359995837 -5.834670111689116 0.0 0.0
2515.075844836974 1432.773773090647 1960.268462349434 -1.694822060471779e-11 0.0 0.0
2520.716214138173 1440.8329961893837 1966.7929359988004 5.834670111650787 0.0 0.0
2466.8789597361692 1399.9570292744359 1919.4914298712877 5.785015570518409 0.0 0.0
2371.527310146034 1323.3135881296507 1833.6839596258303 6.909884099701221 0.0 0.0
2245.4722646517357 1220.5773269702568 1719.5770926823495 7.52734141913791 0.0 0.0
2093.1193936992972 1095.2078381561764 1581.1504545682037 7.6446729158449145 0.0 0.0
1923.2581473636474 955.089101976785 1426.6791239324511 7.407978185226902 0.0 0.0
1744.3917009714396 807.9724119301935 1264.2247788040663 6.956040032948076 0.0 0.0
1565.4425947816019 662.5140538616702 1102.5377878768222 6.3203621695006635 0.0 0.0
1394.5949786791634 526.964796321708 949.8135716873435 5.553510160085697 0.0 0.0
1237.3815722847532 406.98030361450617 811.4155242864426 4.348761746883055 0.0 0.0
1097.9357360901258 308.6313125737639 692.068821799308 2.9947197827232177 0.0 0.0
976.3012586406652 231.58288512843166 590.3987026542526 1.6409874110540894 0.0 0.0
867.829004910335 172.02600156621145 498.3718711007579 0.39950507974028326 0.0 0.0
764.8122772816436 124.13209125059231 402.5715065783268 -0.5905879283905549 0.0 0.0
660.1344371899165 91.63192091678775 302.56349659196354 -1.1905281436863575 0.0 0.0
567.2927990106396 55.5117736085361 208.1040823104665 -0.6340356647049656 0.0 0.0
457.6761186725673 18.492142308128486 144.41417986984396 3.0761555116611685 0.0 0.0
547.4701354605102 112.85508019491928 203.68495978034295 37.24418488269378 0.0 0.0
1245.5913014183861 723.2214181048267 899.7004325250346 24.18801069620593 0.0 0.0
-1089.1143920760376 -1878.2087520275616 -1406.588255977725 15.447649056485762 0.0 0.0
-1387.806624526774 -2146.565716487133 -1654.7916798897038 -15.02041013375808 0.0 0.0
844.8275721310192 403.3024134274071 560.8864891703553 -34.6231383800932 0.0 0.0
379.72143580691625 45.400352156986635 126.02364860778734 -30.668583697271984 0.0 0.0
405.7742474704567 1.9842828626881923 122.5534311017021 -16.374517522343638 0.0 0.0
505.6745514769755 24.005766197457458 171.29205927697 -15.245606138100435 0.0 0.0
596.0392703024545 32.61690633374894 243.29450883346243 -19.32828392056821 0.0 0.0
671.1218080033365 44.955872076647765 322.3264396876126 -21.58110368763214 0.0 0.0
744.5474163629312 61.415613355447036 389.5190073841483 -22.352598433289554 0.0 0.0
813.4338803320369 80.65609459036102 442.4965864670129 -22.656259586684417 0.0 0.0
881.7512184986613 104.54446602121634 491.29831104153953 -22.959008993941747 0.0 0.0
951.4864835994454 133.8207023514848 541.5405988711146 -23.022330103386963 0.0 0.0
1022.968695245067 167.56395577808468 594.339868860424 -22.83178278948119 0.0 0.0
1094.5990227850348 205.103641114087 648.9239578043484 -22.321044815119986 0.0 0.0
1163.914022887712 241.28264244412333 701.6011394656024 -21.70837392277891 0.0 0.0
1224.7571652338418 270.7803865412618 746.6939151397477 -21.0712071799754 0.0 0.0
1272.1639904483263 288.8307926613755 779.3535362235385 -20.204171207726677 0.0 0.0
1302.80797682036 292.71263460527706 796.5704203914612 -18.851242147319276 0.0 0.0
1316.8537357213938 283.46358093497275 798.9584293043064 -16.841930116958654 0.0 0.0
1313.920225167044 261.7866574352186 786.7631277969211 -14.306502968597806 0.0 0.0
1274.6008248283918 209.64292488647072 741.659571570464 -12.579021566693951 0.0 0.0
1204.18409628622 137.17117920092824 671.3200997685576 2.332445347974499e-11 0.0 0.0
1274.6008248275157 209.6429248856049 741.6595715698456 12.579021566729045 0.0 0.0
1313.920225167041 261.7866574352689 786.7631277968519 14.306502968620876 0.0 0.0
1316.8537357211608 283.4635809347911 798.9584293041578 16.841930116970747 0.0 0.0
1302.8079768195546 292.71263460456976 796.5704203908069 18.851242147243084 0.0 0.0
1272.1639904482122 288.83079266139794 779.3535362233476 20.20417120775689 0.0 0.0
1224.7571652329661 270.78038654051784 746.6939151391027 21.071207180065894 0.0 0.0
1163.9140228882193 241.2826424447983 701.6011394659467 21.708373922779806 0.0 0.0
1094.5990227837738 205.10364111299552 648.9239578034789 22.32104481515422 0.0 0.0
1022.9686952451515 167.56395577838828 594.3398688604957 22.831782789454998 0.0 0.0
951.4864835983943 133.82070235064955 541.5405988703894 23.022330103456525 0.0 0.0
881.7512184986805 104.54446602148056 491.29831104150406 22.95900899395621 0.0 0.0
813.4338803318103 80.6560945903685 442.4965864668139 22.656259586599116 0.0 0.0
744.5474163622908 61.415613355068444 389.5190073836663 22.35259843342955 0.0 0.0
671.1218080031164 44.95587207671698 322.32643968733754 21.58110368763183 0.0 0.0
596.039270302274 32.61690633390903 243.2945088332089 19.328283920448808 0.0 0.0
505.67455147671967 24.005766197513562 171.2920592768299 15.245606138153391 0.0 0.0
405.77424747026186 1.9842828627387772 122.55343110167122 16.374517522366205 0.0 0.0
379.7214358068187 45.40035215710356 126.02364860780135 30.668583697263067 0.0 0.0
844.8275721304452 403.30241342691556 560.8864891697208 34.623138380079006 0.0 0.0
-1387.806624524758 -2146.565716485009 -1654.791679887586 15.02041013340767 0.0 0.0
-1143.4137541398582 -1867.9133693882945 -1383.1870817090478 -53.69131221312391 0.0 0.0
648.2932569506971 311.72200397114824 418.0910486561981 -100.95096252452298 0.0 0.0
268.7063367512234 52.774152822314036 96.44403217291946 -32.23222255494736 0.0 0.0
346.64554753836956 -0.2794102160797808 103.84313707039928 -36.86153851087986 0.0 0.0
460.33730160591153 15.64301561976893 147.542243310064 -37.473218723360965 0.0 0.0
563.9375812282215 28.62705850581237 215.69758284697429 -37.96627259525287 0.0 0.0
642.6002196995385 42.17942802132973 297.62684200485813 -40.690774701186605 0.0 0.0
717.7604260784542 55.03287977460224 367.73044534120527 -42.05588745597024 0.0 0.0
785.2052910411198 71.77445550351801 421.91535976936734 -42.85111762538839 0.0 0.0
850.3619251118189 91.95833033607423 468.49066586861437 -43.42480454700253 0.0 0.0
916.2090058355375 117.57630175383215 515.31526613045 -43.415908649403136 0.0 0.0
983.5533655087575 148.49673843777796 564.7238797938691 -42.703971148690805 0.0 0.0
1052.0005520788288 182.080422675495 615.7782406545791 -41.654702013646705 0.0 0.0
1117.0355802058612 215.33111985335492 664.8797979094024 -40.46157609686103 0.0 0.0
1174.9289638761318 242.3055214930116 707.2454463664141 -39.19046116376847 0.0 0.0
1220.5434468397918 258.9122217965142 738.2879844085055 -37.536693457475124 0.0 0.0
1251.6450613167005 263.41630186380087 756.0462400055395 -35.0685730072475 0.0 0.0
1266.402305423549 254.83968823740344 759.1637694387896 -31.620746263218546 0.0 0.0
1258.379297018468 227.93503677581208 741.9548898689003 -27.42078828455392 0.0 0.0
1234.1176810317552 190.8832957950848 711.6638281667891 -22.694476967773276 0.0 0.0
1146.7084771845246 101.77413128579882 624.8456029619878 9.828582392401586e-12 0.0 0.0
1234.1176810312681 190.88329579463408 711.6638281665098 22.694476967828678 0.0 0.0
1258.3792970180361 227.93503677543796 741.9548898685798 27.420788284694282 0.0 0.0
1266.4023054236552 254.83968823758443 759.1637694389275 31.620746263312135 0.0 0.0
1251.6450613162328 263.4163018634217 756.0462400052008 35.06857300727064 0.0 0.0
1220.5434468409032 258.9122217977721 738.2879844092007 37.53669345759391 0.0 0.0
1174.9289638748573 242.30552149183706 707.2454463654149 39.19046116375312 0.0 0.0
1117.0355802055853 215.33111985321847 664.8797979091486 40.461576096798495 0.0 0.0
1052.000552078256 182.08042267512369 615.77824065419 41.654702013686375 0.0 0.0
983.5533655089038 148.49673843813696 564.7238797939584 42.70397114870051 0.0 0.0
916.2090058351341 117.57630175364824 515.3152661301627 43.415908649421795 0.0 0.0
850.3619251113373 91.95833033583189 468.4906658682922 43.424804547035116 0.0 0.0
785.2052910406045 71.77445550323048 421.91535976898035 42.85111762530628 0.0 0.0
717.7604260779342 55.032879774353724 367.73044534078537 42.055887456057526 0.0 0.0
642.6002196990246 42.17942802109018 297.6268420043937 40.69077470117421 0.0 0.0
563.9375812281181 28.62705850604094 215.69758284679673 37.96627259515646 0.0 0.0
460.33730160539056 15.643015619470384 147.54224330979835 37.47321872333795 0.0 0.0
346.64554753826474 -0.27941021614615513 103.84313707034626 36.86153851079439 0.0 0.0
268.7063367512365 52.77415282224132 96.44403217290167 32.2322225549505 0.0 0.0
648.2932569501355 311.72200397084845 418.0910486556442 100.95096252441175 0.0 0.0
-1143.4137541379687 -1867.9133693863043 -1383.1870817069992 53.69131221287199 0.0 0.0
-926.1012723927316 -1619.909902487288 -1142.1887768445167 -67.21100955330695 0.0 0.0
489.27316084425684 217.01870490892094 300.10606424444217 -144.20892426413013 0.0 0.0
197.40042320392865 49.231209712341354 73.98948987488097 -54.51054276962028 0.0 0.0
289.345665243428 4.524252081960685 88.15997009339881 -57.0321912922568 0.0 0.0
405.39089081524116 7.5529940130357796 124.36831366750377 -61.459425925635465 0.0 0.0
517.9564286111453 23.495686764042127 185.43745416539642 -58.38716080898391 0.0 0.0
612.1389248745836 36.91095849816469 267.7280273149086 -61.240023165815195 0.0 0.0
685.9245824353982 48.87893068082615 341.5540074489104 -62.09250444136171 0.0 0.0
752.9620609767225 63.00855469039519 398.21458087649626 -62.86362959799366 0.0 0.0
815.339521118116 79.88717818012661 443.6400803598094 -63.344776245676066 0.0 0.0
877.0277281137462 101.6822296789837 487.09025626732114 -63.008884901157636 0.0 0.0
940.53080940086 128.53403501443998 532.7193299372234 -61.85762047374785 0.0 0.0
1004.7735161402919 159.46767466188456 580.4234056439316 -60.22634346163078 0.0 0.0
1066.344961004183 188.39815603636916 625.6578894432214 -58.63415977610634 0.0 0.0
1120.7790069897144 212.72183344663304 664.9849038127907 -56.82968957767593 0.0 0.0
1165.4883405958933 229.09699680085956 695.4761154952721 -54.42649741969006 0.0 0.0
1197.323742041007 234.16096217890913 713.8900335360249 -51.097074131460374 0.0 0.0
1212.2601436140585 225.492342813385 717.0930240982203 -46.63248875513759 0.0 0.0
1207.5728133214595 201.54102695273608 703.0122672556382 -40.73412688731334 0.0 0.0
1191.3425128496492 171.83472935794885 680.278012968092 -31.912441195265053 0.0 0.0
1067.4613912481027 46.30614549684259 557.824388145603 -3.721645214227465e-11 0.0 0.0
1191.3425128501713 171.83472935855266 680.2780129684214 31.91244119532043 0.0 0.0
1207.5728133208665 201.5410269522033 703.0122672552847 40.734126887517945 0.0 0.0
1212.260143613965 225.49234281335043 717.0930240982028 46.63248875522159 0.0 0.0
1197.3237420406324 234.16096217865592 713.8900335357271 51.09707413154119 0.0 0.0
1165.4883405969497 229.09699680201555 695.4761154961024 54.42649741974244 0.0 0.0
1120.7790069893383 212.72183344644225 664.9849038124727 56.8296895776954 0.0 0.0
1066.344961003035 188.39815603534188 625.6578894424426 58.634159776185214 0.0 0.0
1004.7735161404653 159.46767466226555 580.4234056440329 60.22634346165938 0.0 0.0
940.5308094005791 128.534035014324 532.7193299369885 61.857620473741804 0.0 0.0
877.0277281143219 101.68222967983331 487.0902562676816 63.00888490119405 0.0 0.0
815.3395211177005 79.88717817997386 443.64008035949746 63.34477624574009 0.0 0.0
752.9620609762865 63.00855469017922 398.21458087615986 62.86362959793822 0.0 0.0
685.9245824351996 48.878930680913044 341.5540074486655 62.09250444131597 0.0 0.0
612.1389248739557 36.91095849784625 267.7280273143696 61.24002316580212 0.0 0.0
517.9564286106208 23.49568676379706 185.43745416501832 58.38716080890558 0.0 0.0
405.39089081470115 7.552994012668767 124.3683136672472 61.459425925549226 0.0 0.0
289.3456652434393 4.524252082173879 88.15997009346371 57.03219129227133 0.0 0.0
197.4004232039367 49.23120971225653 73.98948987485795 54.510542769518345 0.0 0.0
489.2731608437373 217.01870490870826 300.1060642439702 144.20892426399263 0.0 0.0
-926.1012723911357 -1619.9099024855725 -1142.1887768427052 67.21100955310612 0.0 0.0
-738.438793220283 -1403.6226992732577 -930.9645461723754 -67.30768227167182 0.0 0.0
372.26544770504273 135.2820428406631 209.60437628517232 -174.07071901497065 0.0 0.0
145.6576390820299 40.988973742101905 55.99398384723955 -83.58182462160035 0.0 0.0
237.06536580345846 10.970107567240678 74.41128715223536 -78.70764845279095 0.0 0.0
342.8858672007966 4.850452791080622 103.97472792035381 -84.9464518804165 0.0 0.0
465.1288543943457 11.825426561505308 152.96355910549934 -84.42823310992064 0.0 0.0
569.0293302558167 30.05436192748018 231.46753886765293 -81.96015052579503 0.0 0.0
648.2299728891852 43.96093375374917 310.8324159087403 -82.41598828727386 0.0 0.0
715.6914796935906 54.71419766455722 370.41988926270454 -82.70376940457264 0.0 0.0
775.6576281999203 68.14287772456763 415.7595099628103 -82.68713783711524 0.0 0.0
833.8727067348651 85.87376860758366 456.4976009892306 -81.86805150438106 0.0 0.0
893.008918101682 108.6286815189649 498.2649490673517 -80.19902824425502 0.0 0.0
953.2249722548252 135.0974479934028 541.8420154207508 -78.1870581591497 0.0 0.0
1010.7858876181363 161.92856968410055 584.0821283691799 -76.15925812980534 0.0 0.0
1062.4333401551792 183.29050787220143 620.5766720553131 -73.91470918272093 0.0 0.0
1105.3811806110623 197.53395190750777 649.1351683710925 -70.96735817381888 0.0 0.0
1138.0921761911914 203.9305381393341 668.6689930416825 -66.97484996233321 0.0 0.0
1156.4177453195666 198.33053212264315 675.0861439051865 -61.75906977031949 0.0 0.0
1156.6117087022305 178.43909743059686 665.447505489397 -54.13037195246555 0.0 0.0
1143.8643083357501 150.73705873505455 645.4199627593572 -41.46546274463437 0.0 0.0
974.4656419593164 -20.29805298635783 478.5994763637904 -9.297451697420911e-12 0.0 0.0
1143.86430833717 150.73705873656502 645.4199627604278 41.465462744745906 0.0 0.0
1156.6117087021535 178.43909743059305 665.4475054892794 54.130371952635855 0.0 0.0
1156.4177453188324 198.33053212198553 675.0861439047577 61.75906977041702 0.0 0.0
1138.0921761912698 203.9305381394945 668.6689930416071 66.97484996242343 0.0 0.0
1105.3811806125789 197.5339519092207 649.1351683721907 70.96735817393716 0.0 0.0
1062.4333401554013 183.29050787254522 620.576672055399 73.9147091827717 0.0 0.0
1010.78588761712 161.92856968323326 584.0821283684887 76.15925812977864 0.0 0.0
953.2249722546942 135.09744799343477 541.842015420624 78.18705815916697 0.0 0.0
893.0089181012354 108.62868151872257 498.26494906703016 80.19902824428338 0.0 0.0
833.8727067349132 85.87376860782534 456.497600989225 81.86805150439706 0.0 0.0
775.6576282000339 68.14287772496036 415.7595099628482 82.68713783709964 0.0 0.0
715.6914796932368 54.71419766449446 370.41988926239986 82.70376940460659 0.0 0.0
648.2299728889712 43.960933753797846 310.8324159084645 82.41598828725127 0.0 0.0
569.0293302555559 30.05436192751573 231.46753886732492 81.96015052561863 0.0 0.0
465.12885439370666 11.825426561142667 152.96355910512003 84.42823310985841 0.0 0.0
342.8858672005019 4.850452791058393 103.97472792027702 84.94645188036958 0.0 0.0
237.06536580345198 10.970107567270187 74.4112871522419 78.70764845274397 0.0 0.0
145.65763908197516 40.98897374203006 55.993983847201555 83.58182462139237 0.0 0.0
372.26544770450505 135.28204284041803 209.604376284746 174.07071901481535 0.0 0.0
-738.4387932187997 -1403.6226992716267 -930.9645461707181 67.307682271516 0.0 0.0
-574.1707200243635 -1211.9612927566984 -744.3321724671755 -66.41084810999502 0.0 0.0
280.25417955463263 72.39225850757504 141.09014690451536 -190.3583052472601 0.0 0.0
105.5786917580925 29.705659492364205 40.58530537513702 -111.07483853127631 0.0 0.0
188.58459135556348 16.36696850586779 61.487180480175255 -100.81556744810804 0.0 0.0
280.51528466924674 4.435885840752486 85.3080628400638 -107.18548882305356 0.0 0.0
396.52757525381105 5.047205467256869 123.17533320201188 -109.59090975052861 0.0 0.0
507.59567151016654 22.780437121063894 191.08486153151637 -104.52144276907931 0.0 0.0
603.3716330098105 35.53742813415195 271.4195753779134 -104.0978648590928 0.0 0.0
670.0114225802884 47.3275070139794 336.62911282493764 -102.07011809324138 0.0 0.0
730.492550823725 56.51887857225382 383.5871136381061 -101.52683692640751 0.0 0.0
785.3667435091809 70.18796321636859 422.5079103302887 -99.9989763661934 0.0 0.0
840.2675202898048 88.74923163593301 460.75573227024734 -97.73630544504789 0.0 0.0
896.0396233039526 111.39501461287809 500.45566079671073 -95.29237513782576 0.0 0.0
949.6384525281833 133.8449148973992 538.6202537847569 -93.04424397080278 0.0 0.0
998.2129978841521 153.1141096852353 572.5976743832699 -90.50201682305317 0.0 0.0
1039.4667266369722 166.45511565886017 599.9317378522193 -86.98792450354001 0.0 0.0
1072.8528242018358 172.4107050800957 619.5732998424211 -82.58180518243678 0.0 0.0
1096.1213214364632 171.5003013879757 630.7377963167709 -76.88362547448008 0.0 0.0
1102.9491569032343 157.4661677316442 627.3314993924741 -67.90165347714041 0.0 0.0
1092.226128499405 129.49205485241572 608.212079387006 -51.96680041851663 0.0 0.0
867.8912186804854 -96.29450376796014 388.1603535581427 5.5292659340011596e-11 0.0 0.0
1092.2261284999702 129.49205485304606 608.2120793874462 51.96680041871517 0.0 0.0
1102.9491569031402 157.46616773158826 627.3314993923602 67.90165347726366 0.0 0.0
1096.1213214368777 171.50030138849348 630.7377963170916 76.88362547451462 0.0 0.0
1072.8528242019975 172.410705080394 619.5732998424795 82.58180518255962 0.0 0.0
1039.4667266375084 166.45511565950403 599.9317378525376 86.98792450363578 0.0 0.0
998.2129978838016 153.11410968502082 572.5976743829433 90.50201682302188 0.0 0.0
949.6384525283354 133.84491489777045 538.6202537847913 93.04424397091431 0.0 0.0
896.0396233035175 111.3950146125988 500.4556607963701 95.29237513786543 0.0 0.0
840.2675202895994 88.74923163594192 460.7557322701204 97.73630544509766 0.0 0.0
785.3667435081983 70.1879632155462 422.5079103295608 99.99897636613223 0.0 0.0
730.4925508235764 56.51887857232843 383.58711363797715 101.52683692637639 0.0 0.0
670.011422580334 47.32750701434656 336.62911282485356 102.070118093249 0.0 0.0
603.3716330093507 35.537428133956425 271.41957537748215 104.09786485901455 0.0 0.0
507.5956715099312 22.780437121116652 191.0848615312455 104.52144276889229 0.0 0.0
396.5275752532913 5.04720546715453 123.1753332017981 109.59090975041113 0.0 0.0
280.51528466906456 4.435885840810031 85.30806284002817 107.18548882292431 0.0 0.0
188.5845913554655 16.366968505805477 61.48718048012657 100.8155674479735 0.0 0.0
105.57869175804532 29.705659492347696 40.58530537511791 111.07483853104469 0.0 0.0
280.25417955407204 72.3922585072503 141.09014690410794 190.35830524711483 0.0 0.0
-574.1707200232238 -1211.9612927553198 -744.3321724657875 66.41084810992837 0.0 0.0
-433.57750043212275 -1035.7884329946266 -580.4857043559393 -66.4845556624303 0.0 0.0
207.91494969095692 22.272152982081355 89.29683135485969 -199.5697886989956 0.0 0.0
72.64771593213766 18.163404064121572 27.243335998877765 -133.8432631356208 0.0 0.0
142.75451428323694 19.748186069306147 48.75122943671062 -121.62067463682976 0.0 0.0
220.44304450716757 6.071778884521102 67.93194185501163 -126.90340156365947 0.0 0.0
319.92562789484293 -0.7851671259377049 95.19242062463236 -135.2576714491191 0.0 0.0
434.9348655325592 10.576654576124254 147.7241275650519 -131.4682487254424 0.0 0.0
536.0221303553409 28.472500946045155 223.40292212820444 -125.29742240975435 0.0 0.0
617.9905809820618 36.070615239796304 292.87550722139 -123.75273777532564 0.0 0.0
675.7815304887583 45.36613762431871 344.2721019740621 -119.58562126884337 0.0 0.0
729.9898774522505 54.64203384638087 383.40959546102283 -117.35451862207998 0.0 0.0
780.9109676408697 68.7745005279815 418.8741396619227 -114.5075815679399 0.0 0.0
831.9725313324476 87.09573778507581 454.6564047187592 -111.64193366870309 0.0 0.0
881.2307928528496 106.12658251856837 489.17285430097553 -109.14861577544673 0.0 0.0
926.2466872591054 122.49497846103326 520.0728249657891 -106.43912656044198 0.0 0.0
965.473206639738 133.00225583461554 545.0550329843527 -102.86204429476662 0.0 0.0
999.0872118832744 140.77482361078268 565.7580758560939 -97.72161502781988 0.0 0.0
1028.7424822565317 144.89904229936587 582.5181735968195 -91.74831197414531 0.0 0.0
1044.1587042251192 137.41758615747 586.619343032397 -82.34266466918697 0.0 0.0
1036.2483706483222 109.62803248863813 569.1301544561128 -64.08257541175574 0.0 0.0
745.6129877760029 -181.6496050343763 285.558070844447 9.442580051199911e-11 0.0 0.0
1036.2483706484088 109.62803248882962 569.1301544562489 64.08257541199461 0.0 0.0
1044.1587042247431 137.41758615722554 586.6193430322319 82.34266466946585 0.0 0.0
1028.742482256115 144.89904229897434 582.5181735965291 91.74831197427933 0.0 0.0
999.0872118836558 140.77482361128122 565.7580758563286 97.72161502793118 0.0 0.0
965.4732066390009 133.0022558339198 545.0550329838572 102.86204429467251 0.0 0.0
926.2466872589365 122.49497846097357 520.0728249656078 106.43912656040132 0.0 0.0
881.230792852597 106.12658251844846 489.1728543007855 109.14861577548754 0.0 0.0
831.9725313322424 87.09573778503218 454.656404718596 111.64193366874896 0.0 0.0
780.9109676403283 68.77450052753926 418.8741396615831 114.50758156785848 0.0 0.0
729.9898774519856 54.64203384631654 383.409595460757 117.35451862200722 0.0 0.0
675.7815304883886 45.36613762419928 344.27210197379395 119.58562126883558 0.0 0.0
617.9905809817022 36.07061523971991 292.87550722106965 123.75273777533148 0.0 0.0
536.0221303548161 28.47250094578768 223.40292212777092 125.29742240968095 0.0 0.0
434.93486553212176 10.576654576033441 147.72412756476558 131.4682487253761 0.0 0.0
319.92562789447095 -0.7851671257594273 95.19242062459212 135.25767144897713 0.0 0.0
220.44304450719113 6.07177888472092 67.93194185507566 126.9034015635483 0.0 0.0
142.75451428323214 19.748186069335837 48.75122943671796 121.62067463665335 0.0 0.0
72.64771593209159 18.16340406411731 27.243335998862662 133.84326313544076 0.0 0.0
207.91494969047145 22.272152981785972 89.29683135453053 199.56978869878063 0.0 0.0
-433.577500431156 -1035.7884329933252 -580.4857043547469 66.48455566250843 0.0 0.0
-309.78627547153405 -884.691521066065 -437.77164667466377 -76.46693279144822 0.0 0.0
145.79862238835776 -15.35662791459361 49.08406983061315 -199.90949269406687 0.0 0.0
44.08970810655508 8.662846463307206 15.825791045800198 -151.37193515442053 0.0 0.0
98.5814157304516 21.103830961542016 35.906734093325575 -139.71374331986914 0.0 0.0
161.52056900557037 8.719275327271555 51.04017736378936 -144.09293053598225 0.0 0.0
237.72159545268906 -0.9590507748990995 70.52578529743032 -155.46169936553966 0.0 0.0
343.06742890285466 0.6378026785977124 106.09543276801851 -159.1848244333161 0.0 0.0
449.17274075354175 15.523905598913263 166.63080190979736 -149.1662941861622 0.0 0.0
541.1072993010798 27.26959267439013 236.25820848117147 -143.3540724030606 0.0 0.0
609.8696250373217 30.746103546871552 291.91817982176866 -139.17862937262552 0.0 0.0
662.6435109037847 38.25891224582577 334.06127799086335 -133.88883593080072 0.0 0.0
710.7524104311614 48.895057908927825 369.09502908638495 -130.2569131159626 0.0 0.0
757.7847928031372 62.87450669301952 402.05196903723845 -127.0254384061457 0.0 0.0
801.9582169704353 77.66927571641418 432.5833065843896 -124.35586376137302 0.0 0.0
843.2398282700723 90.69302246082734 460.26894573357276 -121.68986380280502 0.0 0.0
879.8403095968731 100.1916095866491 483.6566188595077 -118.12522973293605 0.0 0.0
913.041745178537 105.95384914310814 503.3312353469336 -112.80369919019537 0.0 0.0
947.9418903667531 115.09130457664416 525.0434982584763 -106.16869939657738 0.0 0.0
975.8116927643767 119.36450918254766 541.1131057916502 -97.10908723506137 0.0 0.0
974.9541160256629 94.6731067348976 529.0007645947985 -78.61960811604663 0.0 0.0
601.8476891957489 -276.53096263837745 168.0329314384157 8.682121688252664e-11 0.0 0.0
974.9541160259255 94.67310673522405 529.0007645950201 78.61960811618276 0.0 0.0
975.8116927643284 119.36450918263796 541.1131057916471 97.10908723521568 0.0 0.0
947.9418903658905 115.09130457593601 525.04349825786 106.16869939680066 0.0 0.0
913.0417451776199 105.95384914214571 503.3312353462061 112.80369919025239 0.0 0.0
879.8403095970835 100.19160958700749 483.6566188597056 118.12522973286232 0.0 0.0
843.2398282697216 90.69302246052709 460.2689457333228 121.68986380276911 0.0 0.0
801.9582169703875 77.66927571657192 432.58330658430464 124.35586376139804 0.0 0.0
757.7847928024959 62.874506692546326 402.0519690368114 127.0254384062305 0.0 0.0
710.7524104308374 48.895057908827056 369.0950290861897 130.25691311603717 0.0 0.0
662.6435109036039 38.25891224581145 334.06127799066405 133.88883593078816 0.0 0.0
609.8696250373264 30.746103547153695 291.91817982172495 139.17862937258909 0.0 0.0
541.1072993007078 27.269592674302082 236.2582084808197 143.354072402972 0.0 0.0
449.1727407531389 15.523905598983184 166.63080190953897 149.1662941861936 0.0 0.0
343.0674289022737 0.637802678240659 106.09543276769601 159.18482443326536 0.0 0.0
237.72159545253976 -0.9590507745361587 70.52578529751085 155.4616993653316 0.0 0.0
161.52056900541942 8.719275327173946 51.04017736371351 144.0929305358456 0.0 0.0
98.58141573039967 21.10383096156854 35.906734093317624 139.71374331967945 0.0 0.0
44.08970810654546 8.662846463407405 15.825791045827337 151.37193515426 0.0 0.0
145.7986223879782 -15.356627914844548 49.084069830366715 199.90949269380724 0.0 0.0
-309.78627547075143 -884.6915210649532 -437.7716466737107 76.46693279150249 0.0 0.0
-219.6688159684719 -737.6281483621697 -326.4419162562749 -85.91974076361947 0.0 0.0
92.27460284478998 -45.46656278473694 18.64138728502246 -194.0307021347686 0.0 0.0
17.223113763487692 2.23153832807652 5.837959858491236 -164.00869988380174 0.0 0.0
55.80639332045648 20.96672082150624 23.031564790287305 -154.24262202727775 0.0 0.0
102.30086454579163 11.537056924978252 34.13100598974792 -157.72505005146252 0.0 0.0
156.53128993214207 1.509648908888293 47.27849066360423 -170.18637312495875 0.0 0.0
233.32879586357316 -3.3278910771419787 68.5606425214488 -184.05276950267302 0.0 0.0
334.6832257823993 -1.0695002434675125 105.98358185988579 -180.64842538849973 0.0 0.0
433.2950035910843 10.26962325287722 161.72144151489942 -165.58858894624882 0.0 0.0
511.9848232275978 15.951526719480656 217.474291556906 -156.14119425869822 0.0 0.0
570.9892235433165 21.032848339423666 263.8165919264615 -148.79109695337235 0.0 0.0
619.1662824965782 27.332504557351832 300.2718214892957 -144.39307311759922 0.0 0.0
663.0247929753783 38.101050888186755 333.072621120413 -140.98072108258728 0.0 0.0
702.466626484099 48.78904050304019 361.14064306392214 -138.29333477325886 0.0 0.0
738.9855824092975 58.37412191098153 385.93011467605373 -135.84542465988966 0.0 0.0
773.1435962260322 66.03089907370736 407.8311238767458 -132.8456138905817 0.0 0.0
806.2483642760527 72.08633067888157 428.21794896821535 -127.78370206688271 0.0 0.0
841.6770497924576 80.43755391979488 450.1893038363979 -120.25212104471741 0.0 0.0
883.6235426509877 95.59040186979021 478.3190269230459 -111.58198883657631 0.0 0.0
904.0997630810332 87.39051794419888 485.6569079906636 -96.8093277712302 0.0 0.0
428.14334039654864 -377.6656969776458 33.439743130076856 1.0791367799356522e-10 0.0 0.0
904.0997630813598 87.39051794468173 485.65690799089674 96.80932777150575 0.0 0.0
883.6235426515708 95.5904018705952 478.319026923471 111.58198883687027 0.0 0.0
841.6770497922195 80.4375539196783 450.18930383623416 120.25212104496833 0.0 0.0
806.2483642747425 72.08633067757016 428.21794896725146 127.78370206691514 0.0 0.0
773.1435962268984 66.03089907482018 407.8311238773202 132.84561389074838 0.0 0.0
738.9855824097032 58.37412191169627 385.93011467638195 135.84542465997674 0.0 0.0
702.4666264842068 48.78904050327565 361.1406430639686 138.29333477349252 0.0 0.0
663.0247929747419 38.10105088759045 333.0726211199142 140.9807210824976 0.0 0.0
619.1662824961885 27.332504557086757 300.27182148901596 144.39307311762266 0.0 0.0
570.9892235428065 21.03284833898511 263.8165919260654 148.79109695321907 0.0 0.0
511.9848232272421 15.951526719378688 217.47429155664452 156.14119425866153 0.0 0.0
433.2950035911434 10.269623253424824 161.72144151494643 165.58858894629088 0.0 0.0
334.68322578191174 -1.0695002437477514 105.98358185959191 180.64842538852392 0.0 0.0
233.32879586292628 -3.3278910775338257 68.56064252116282 184.05276950239696 0.0 0.0
156.53128993198675 1.5096489088810092 47.278490663567034 170.18637312468738 0.0 0.0
102.30086454574858 11.537056924925713 34.131005989717615 157.72505005135017 0.0 0.0
55.80639332046315 20.966720821636148 23.031564790328268 154.24262202713197 0.0 0.0
17.22311376341616 2.2315383280725323 5.837959858468253 164.00869988362524 0.0 0.0
92.27460284442304 -45.46656278489781 18.6413872848333 194.030702134568 0.0 0.0
-219.66881596796057 -737.6281483612544 -326.4419162556112 85.91974076368865 0.0 0.0
-150.49872093317524 -612.1682971677862 -240.5179805817522 -102.28613247847237 0.0 0.0
44.34303706631462 -66.11226740290465 -4.973702160116357 -182.14147373721912 0.0 0.0
-8.341878690864231 -0.9792729040449571 -2.796261213059938 -171.90756479603527 0.0 0.0
14.135934509418194 19.838296137092556 10.192567031613713 -164.69894697711788 0.0 0.0
43.37401008229538 14.004322775854229 17.211452850140514 -167.33157496154274 0.0 0.0
75.56122871198875 4.622658940529089 23.950815351851503 -181.08386138067482 0.0 0.0
115.80581742609716 -0.6508071252040577 34.4479283227932 -196.58508365248844 0.0 0.0
176.28219680218638 -3.4340347880972635 51.89533018788065 -202.99061375533506 0.0 0.0
260.3117449061489 -8.696015640122383 77.46392690168253 -196.8583599927682 0.0 0.0
347.92176067402374 -16.896714885689107 107.57376321579264 -182.67286346972574 0.0 0.0
416.89913773024085 -16.63700262149999 141.2908721169485 -168.87089448536744 0.0 0.0
464.39700950040543 -9.016860463055373 173.40356612157 -158.5015383907055 0.0 0.0
504.12446441979205 4.818137874170738 204.27629269709755 -153.6824677265133 0.0 0.0
540.5048814234606 16.19114646712684 232.64578251381255 -151.57947225566676 0.0 0.0
572.867268072938 24.645566010579138 258.51088136983446 -150.69942661302144 0.0 0.0
604.2732725531484 31.907719327320642 283.1622095361953 -150.72965015029072 0.0 0.0
638.0973733952408 37.81968919079062 308.42969663174586 -147.71012519677873 0.0 0.0
675.7047465413942 42.426097375662025 334.0583618285251 -139.606970807847 0.0 0.0
720.9919899313583 51.24034400327278 362.678554543828 -128.53979352313223 0.0 0.0
788.0744739301895 79.50304388485345 412.77303265423205 -120.41646252167445 0.0 0.0
191.5712139729531 -483.42651517308514 -131.69445676035838 4.8977710775943706e-11 0.0 0.0
788.0744739300861 79.50304388483178 412.7730326542919 120.4164625219166 0.0 0.0
720.9919899319113 51.24034400396155 362.67855454425955 128.53979352348338 0.0 0.0
675.7047465407223 42.42609737497171 334.05836182812027 139.60697080798394 0.0 0.0
638.0973733951694 37.819689190810436 308.42969663160727 147.7101251968807 0.0 0.0
604.273272553392 31.907719327672744 283.1622095363763 150.72965015038776 0.0 0.0
572.8672680731776 24.64556601091349 258.51088137008026 150.69942661310526 0.0 0.0
540.5048814228592 16.191146466312965 232.64578251333137 151.5794722556965 0.0 0.0
504.124464419579 4.8181378740327006 204.27629269696791 153.68246772647498 0.0 0.0
464.3970095000415 -9.01686046331889 173.40356612126786 158.50153839058308 0.0 0.0
416.8991377299539 -16.63700262173235 141.29087211674792 168.87089448534337 0.0 0.0
347.92176067317683 -16.89671488649273 107.57376321529115 182.67286346961012 0.0 0.0
260.31174490589154 -8.696015640119992 77.46392690157953 196.85835999285158 0.0 0.0
176.28219680196653 -3.4340347879658277 51.89533018785465 202.9906137551837 0.0 0.0
115.80581742583026 -0.650807125507781 34.447928322624314 196.58508365233607 0.0 0.0
75.5612287117219 4.6226589399571205 23.950815351602365 181.08386138038543 0.0 0.0
43.37401008225545 14.004322775733257 17.211452850092073 167.33157496145472 0.0 0.0
14.135934509377314 19.83829613708211 10.192567031598173 164.69894697693871 0.0 0.0
-8.341878690936921 -0.9792729040711086 -2.7962612130897373 171.90756479592926 0.0 0.0
44.3430370660361 -66.11226740290282 -4.973702160218435 182.14147373699853 0.0 0.0
-150.49872093285282 -612.1682971670316 -240.51798058132314 102.28613247856183 0.0 0.0
-114.02690138061126 -493.57042475767696 -183.57703530568102 -109.55151774362065 0.0 0.0
5.778651015747878 -78.87388850645922 -21.748827025601482 -167.82886921705696 0.0 0.0
-32.016078950633 -2.5687720074038696 -10.372163400003334 -175.7823258552689 0.0 0.0
-26.228840977719265 18.443211206363067 -2.3347104428665895 -170.93289421877336 0.0 0.0
-14.71694784161591 15.980003701584693 0.3801261018833797 -172.84559097125964 0.0 0.0
-6.358554526814993 8.003577787603659 0.49652162084831897 -185.07389858242027 0.0 0.0
-2.4515250132829003 1.7883443834561341 -0.20179012765340776 -201.59322588991137 0.0 0.0
-0.581059310393993 0.1807317917543294 -0.12049642567650132 -207.58411394694457 0.0 0.0
-0.06013489898288071 -0.09113489316422729 -0.04443933017211599 -201.6718764065025 0.0 0.0
0.1060490654048678 0.014871332784441194 0.048765320445404825 -189.98498254024767 0.0 0.0
0.09172840040150732 -0.28209118831736113 -0.15245284197042608 -187.22095736485136 0.0 0.0
-0.9061782988728311 0.5288397180076814 0.007880326494785095 -184.6928753050942 0.0 0.0
-1.9321503232932002 0.7400900082923485 0.036283169718061004 -181.22593744447653 0.0 0.0
-1.8521380234122802 1.00283151334434 0.37768443013153785 -173.47233583384207 0.0 0.0
2.044392628313247 2.955299624494799 1.1501678503591393 -167.07204245594852 0.0 0.0
17.178611892403964 7.619141948219998 3.524360383639646 -161.2882081570245 0.0 0.0
54.76809815859687 17.026920357603807 9.545884807068376 -155.88772323946938 0.0 0.0
136.58478512452808 21.579360589618226 13.580139533462585 -148.34920743189917 0.0 0.0
332.09349029491125 -36.757495792676764 30.200187512757964 -142.45374258078442 0.0 0.0
506.08968216753624 -10.687809000507947 180.58191317473555 -170.22137522621534 0.0 0.0
-385.2365363813727 -679.7199759938943 -458.9798881405141 -1.801936377887614e-11 0.0 0.0
506.08968216696996 -10.68780900132569 180.5819131742465 170.22137522623234 0.0 0.0
332.09349029484827 -36.75749579244821 30.200187512990993 142.4537425814063 0.0 0.0
136.5847851247027 21.57936059007544 13.580139533792533 148.349207432412 0.0 0.0
54.768098158965955 17.026920357868548 9.545884807292182 155.8877232397474 0.0 0.0
17.178611891925556 7.6191419473459305 3.524360383121902 161.28820815703645 0.0 0.0
2.0443926283348617 2.955299624251424 1.1501678502952117 167.07204245595193 0.0 0.0
-1.8521380231480862 1.0028315134686352 0.37768443028183185 173.47233583389112 0.0 0.0
-1.9321503232098678 0.740090007289588 0.03628316941041021 181.2259374447554 0.0 0.0
-0.9061782983660791 0.5288397181449582 0.007880326685842931 184.69287530493256 0.0 0.0
0.09172840039968122 -0.28209118918867304 -0.15245284225948552 187.220957364782 0.0 0.0
0.10604906550330284 0.014871332326520381 0.048765320333732376 189.9849825401639 0.0 0.0
-0.06013489888331591 -0.09113489322063018 -0.04443933015244106 201.67187640648817 0.0 0.0
-0.5810593100981283 0.18073179223688163 -0.12049642543813288 207.5841139469704 0.0 0.0
-2.4515250134077107 1.7883443830210122 -0.20179012782202 201.59322588970022 0.0 0.0
-6.358554526874659 8.003577787333553 0.49652162074914674 185.07389858211357 0.0 0.0
-14.71694784158348 15.980003701440808 0.3801261018496722 172.84559097101896 0.0 0.0
-26.228840977662443 18.44321120651278 -2.3347104428040026 170.9328942185989 0.0 0.0
-32.01607895057482 -2.56877200723664 -10.372163399935335 175.78232585519618 0.0 0.0
5.77865101565717 -78.87388850656352 -21.74882702565636 167.82886921691255 0.0 0.0
-114.02690138054292 -493.5704247569032 -183.57703530546743 109.55151774345981 0.0 0.0
-94.49718082485637 -387.2741641612025 -144.51780856983564 -105.67733987583077 0.0 0.0
-18.93514661150857 -85.57738504690427 -31.355735254463887 -156.91783906891146 0.0 0.0
-54.06023996055208 -4.035042138187867 -17.429095977461643 -175.76216304017532 0.0 0.0
-64.93131814056851 17.162366399679705 -14.326516492676735 -172.84350172878328 0.0 0.0
-71.74310115343928 17.223738591355314 -16.35393041165649 -173.4257118073973 0.0 0.0
-87.21740632473953 11.167186365422742 -22.76818268587442 -183.18783600286895 0.0 0.0
-120.64736014755422 4.361926333728494 -34.74138409820521 -198.17678136029755 0.0 0.0
-177.43516582645628 3.7239915329346545 -52.17385899731677 -203.23706373709658 0.0 0.0
-260.26795247333916 8.428439969378235 -77.56017747707892 -196.83896617517703 0.0 0.0
-347.7178645040313 16.874937759005654 -107.51034978125787 -182.62976138768911 0.0 0.0
-417.5755894225948 16.98695672703813 -141.11628000906362 -168.99867847163532 0.0 0.0
-464.5027497465456 8.809800904113548 -173.79052441960872 -158.29100240496516 0.0 0.0
-505.0816701802971 -4.7110312234157306 -205.22929436200604 -153.21985187286097 0.0 0.0
-541.4286079283681 -14.270384683713132 -232.99434695198073 -150.92391543162796 0.0 0.0
-569.3906242607841 -18.2502012881141 -253.52383125304578 -150.35636801180192 0.0 0.0
-586.8671760431496 -16.910134574571728 -263.1019104253461 -152.79553603946883 0.0 0.0
-591.6601016255986 -10.542845628171492 -259.2474041294172 -158.06286049285927 0.0 0.0
-587.256835343424 -3.040353060191535 -239.77544246813082 -168.73122105133123 0.0 0.0
-571.5192037099808 38.40853280099462 -191.74082204184685 -179.97611487855983 0.0 0.0
-329.7290665214738 90.376425195464 -51.22991997404914 -127.12661877664668 0.0 0.0
-915.9617625163755 -904.0214642375486 -906.7432882855294 -1.3586998193204636e-10 0.0 0.0
-329.72906652143587 90.37642519528674 -51.22991997401701 127.12661877723517 0.0 0.0
-571.5192037089483 38.40853280195581 -191.7408220412131 179.97611487863702 0.0 0.0
-587.2568353425934 -3.0403530592729737 -239.77544246766396 168.73122105149562 0.0 0.0
-591.6601016257415 -10.542845628616 -259.2474041295519 158.06286049303495 0.0 0.0
-586.8671760433202 -16.910134575036125 -263.10191042538463 152.79553603948233 0.0 0.0
-569.39062425995 -18.25020128712685 -253.5238312523706 150.35636801163375 0.0 0.0
-541.4286079280853 -14.270384683797733 -232.99434695191334 150.92391543170464 0.0 0.0
-505.08167018093013 -4.7110312245553985 -205.22929436241003 153.21985187313828 0.0 0.0
-464.50274974591264 8.809800904759268 -173.79052441904207 158.29100240487298 0.0 0.0
-417.57558942258595 16.98695672645178 -141.11628000905947 168.9986784717013 0.0 0.0
-347.7178645032635 16.87493775911495 -107.5103497809671 182.62976138764859 0.0 0.0
-260.2679524727161 8.42843996953917 -77.56017747682384 196.8389661751042 0.0 0.0
-177.43516582598343 3.7239915330060565 -52.17385899714759 203.2370637370399 0.0 0.0
-120.64736014718243 4.361926334032765 -34.741384098002555 198.17678136007672 0.0 0.0
-87.21740632453378 11.167186365480719 -22.768182685799612 183.1878360026006 0.0 0.0
-71.74310115332847 17.223738591185814 -16.353930411678114 173.42571180718437 0.0 0.0
-64.93131814047092 17.16236639976063 -14.326516492624757 172.84350172852376 0.0 0.0
-54.06023996045393 -4.035042137990528 -17.429095977375837 175.76216303997097 0.0 0.0
-18.93514661153345 -85.57738504693555 -31.3557352544811 156.9178390687833 0.0 0.0
-94.49718082467037 -387.27416416068047 -144.5178085696189 105.67733987568604 0.0 0.0
-77.17969869752193 -296.70029415923597 -112.16399785702737 -96.58573839739091 0.0 0.0
-35.853469795672694 -85.62945478355834 -36.442711460939755 -145.86138904788913 0.0 0.0
-74.4634409771496 -5.264950097950676 -23.915532988050963 -171.8875670119503 0.0 0.0
-101.78217755538506 15.726690503172883 -25.82777909539928 -170.15926054299422 0.0 0.0
-127.46269370875203 17.85909575044759 -32.84792454536593 -169.60933600231687 0.0 0.0
-167.39084918805395 14.197483934211752 -45.668668042371245 -177.3293173843212 0.0 0.0
-235.86791481342243 6.289293359818396 -68.76233348581803 -183.5437270587629 0.0 0.0
-334.8685108485921 0.9387418683819888 -106.23552754107338 -180.8382195450806 0.0 0.0
-433.34226427897283 -10.532642182911992 -161.8141578092568 -165.62809672552302 0.0 0.0
-511.9485845204575 -16.020629973865212 -217.46754999338788 -156.08543711198098 0.0 0.0
-570.9313603384245 -20.972437515921953 -263.7736045390405 -148.72195057939234 0.0 0.0
-619.2915202334098 -27.22414148641554 -300.36196464025073 -144.15847397855964 0.0 0.0
-663.543956101274 -37.79175847987971 -333.3229319375707 -140.25233569875454 0.0 0.0
-702.722070396016 -47.40281193000921 -360.8190667434561 -137.09903715837837 0.0 0.0
-735.1105803434073 -52.986014654913106 -381.67564488920846 -135.31051546232993 0.0 0.0
-756.7166428713736 -51.63983317457004 -392.7437743045249 -136.03156644561054 0.0 0.0
-765.5710813249658 -43.675968806913545 -393.2980510761422 -140.101189251154 0.0 0.0
-760.5019408815191 -31.485497330979697 -384.37227753417596 -147.67755833195457 0.0 0.0
-723.0273375984937 4.055438567371752 -349.34950978703216 -156.78854893858548 0.0 0.0
-657.5763446195008 55.665094558392184 -294.6244852034646 -161.96265595046566 0.0 0.0
-1644.9181967480374 -1182.5987992881464 -1369.3214911496082 3.484501576167531e-11 0.0 0.0
-657.5763446188123 55.66509455891256 -294.6244852030143 161.9626559507016 0.0 0.0
-723.0273375972522 4.055438568635239 -349.349509786207 156.788548938719 0.0 0.0
-760.501940881444 -31.485497331020184 -384.3722775341625 147.67755833211518 0.0 0.0
-765.5710813249573 -43.675968807112525 -393.29805107618574 140.1011892511832 0.0 0.0
-756.7166428710595 -51.639833174423565 -392.74377430429246 136.03156644562318 0.0 0.0
-735.1105803423891 -52.98601465383742 -381.67564488847563 135.3105154622908 0.0 0.0
-702.7220703958911 -47.402811930169 -360.81906674341485 137.0990371584619 0.0 0.0
-663.5439561015586 -37.791758480518 -333.32293193778463 140.252335698824 0.0 0.0
-619.2915202331236 -27.22414148631688 -300.36196464001824 144.15847397859324 0.0 0.0
-570.9313603382565 -20.972437516069988 -263.77360453889514 148.721950579334 0.0 0.0
-511.9485845204973 -16.02062997438378 -217.4675499933556 156.0854371119956 0.0 0.0
-433.34226427844027 -10.532642182806567 -161.81415780887153 165.62809672555633 0.0 0.0
-334.8685108479688 0.9387418685172405 -106.23552754076806 180.8382195451977 0.0 0.0
-235.8679148127475 6.2892933601430485 -68.76233348553548 183.54372705847408 0.0 0.0
-167.3908491875514 14.19748393468651 -45.66866804208184 177.32931738408672 0.0 0.0
-127.4626937085896 17.859095750471468 -32.84792454530845 169.60933600219732 0.0 0.0
-101.78217755537683 15.726690502952291 -25.82777909546703 170.15926054281567 0.0 0.0
-74.46344097705293 -5.264950097872699 -23.915532987998706 171.887567011791 0.0 0.0
-35.853469795706665 -85.6294547835501 -36.44271146094823 145.8613890477378 0.0 0.0
-77.17969869746086 -296.70029415883045 -112.16399785688738 96.58573839725781 0.0 0.0
-62.291586794200114 -219.63695129857746 -84.57856142783326 -85.00479893454553 0.0 0.0
-48.54133779518038 -80.6543186859961 -38.7590465280172 -133.24004935089386 0.0 0.0
-93.36972278973141 -6.055513032389748 -29.825963427025407 -163.93226001879637 0.0 0.0
-137.0009036663693 14.248041245637465 -36.81164429447959 -163.65549103130635 0.0 0.0
-181.3549723676737 17.74315425446968 -48.988926326776046 -161.00059249244435 0.0 0.0
-243.51301016855706 14.008036318365498 -68.78040026432458 -161.13670192142084 0.0 0.0
-344.17982202748817 2.9388975695362927 -105.66106956120575 -162.08668846022758 0.0 0.0
-449.42089581263076 -15.769071501173148 -166.79214842919646 -149.73298995195267 0.0 0.0
-541.1506678209244 -27.547047742529983 -236.34760283032688 -143.35067004989128 0.0 0.0
-609.8789892814361 -30.795254302588674 -291.9551590233646 -139.14156355948842 0.0 0.0
-662.5028986195393 -38.12934135772689 -333.9515954417432 -133.83337196229868 0.0 0.0
-710.6762940206003 -48.654499582352706 -368.98250762328337 -130.00671065082395 0.0 0.0
-758.021646955513 -62.55146629575442 -402.0653756341458 -126.18569662256164 0.0 0.0
-802.3719582544506 -76.90957254573343 -432.525715334186 -122.82918031234627 0.0 0.0
-840.8761518434495 -87.1379066580499 -457.5665754409413 -120.7229851891064 0.0 0.0
-867.4338079453066 -89.01003708950195 -472.16131434915167 -121.39206655949991 0.0 0.0
-878.5177550260437 -79.79606073379436 -473.25094076844096 -126.01354090038721 0.0 0.0
-864.081129520444 -52.68056722920802 -452.8278412792077 -133.1564530202796 0.0 0.0
-820.0432151148347 -5.199633868526078 -408.32331065333926 -139.63074107494506 0.0 0.0
-709.4092696126988 93.1690475566769 -309.61891598254164 -144.81235100645011 0.0 0.0
-2087.0000413193707 -1422.6734895653042 -1720.4973575735137 1.0796341598506842e-10 0.0 0.0
-709.4092696126845 93.16904755653977 -309.6189159825501 144.81235100669844 0.0 0.0
-820.0432151147396 -5.199633868622186 -408.3233106532893 139.63074107529965 0.0 0.0
-864.0811295205242 -52.68056722943669 -452.8278412792696 133.15645302047633 0.0 0.0
-878.5177550260528 -79.7960607338687 -473.250940768421 126.01354090041039 0.0 0.0
-867.433807944746 -89.01003708900217 -472.16131434876917 121.39206655940222 0.0 0.0
-840.8761518425061 -87.13790665724147 -457.5665754402613 120.72298518911168 0.0 0.0
-802.3719582544637 -76.90957254586905 -432.5257153341846 122.82918031238115 0.0 0.0
-758.0216469552524 -62.551466295715194 -402.0653756339934 126.18569662251586 0.0 0.0
-710.6762940206545 -48.6544995826944 -368.9825076232811 130.00671065089347 0.0 0.0
-662.5028986190961 -38.129341357507606 -333.9515954414347 133.8333719621928 0.0 0.0
-609.8789892812963 -30.79525430295291 -291.95515902322256 139.14156355958363 0.0 0.0
-541.1506678206101 -27.54704774267672 -236.34760283002748 143.35067004998356 0.0 0.0
-449.420895812384 -15.769071501518097 -166.79214842903232 149.7329899520555 0.0 0.0
-344.1798220269201 2.9388975697402913 -105.66106956091659 162.08668846015848 0.0 0.0
-243.51301016798374 14.008036318505987 -68.78040026414678 161.1367019212112 0.0 0.0
-181.3549723673821 17.743154254503136 -48.98892632668966 161.00059249221974 0.0 0.0
-137.00090366625562 14.24804124564426 -36.81164429444217 163.65549103127617 0.0 0.0
-93.3697227897463 -6.055513032603141 -29.825963427093992 163.93226001869795 0.0 0.0
-48.54133779510528 -80.65431868593251 -38.75904652797557 133.24004935082806 0.0 0.0
-62.2915867940282 -219.6369512982343 -84.57856142767875 85.00479893452719 0.0 0.0
-50.7201903813356 -155.22593943347513 -61.78383894444322 -72.58237846207504 0.0 0.0
-58.52184443721922 -72.05158721840715 -39.17202949668791 -118.6801020831686 0.0 0.0
-111.17319077622157 -6.256281577236976 -35.22939272149586 -152.01241782972525 0.0 0.0
-170.42949515975013 12.338984784445104 -47.433334301682805 -152.47139035102978 0.0 0.0
-232.90082338170757 16.55186395449652 -64.7268532162464 -147.7724496770979 0.0 0.0
-322.21518714537945 12.98681959007271 -92.6500330407602 -143.69115045498683 0.0 0.0
-432.18386149159187 -9.010719799809197 -147.23252504636855 -132.11069751552037 0.0 0.0
-536.0573590980706 -28.90313077239949 -223.47026488235258 -125.61285766783746 0.0 0.0
-618.1385888986931 -36.37336082395254 -293.05286343307125 -123.72537618635462 0.0 0.0
-675.7776672895831 -45.3694664787563 -344.30287609071905 -119.55636531705883 0.0 0.0
-729.8135634008542 -54.42573849196429 -383.2381120951227 -117.3259944790867 0.0 0.0
-780.5588587604664 -68.31299534798137 -418.50720727777707 -114.26467372146458 0.0 0.0
-831.7234648986914 -86.50237548932031 -454.2695549083578 -110.80613551921502 0.0 0.0
-881.7509653060293 -105.89012986808929 -489.3589474263579 -107.54598019748572 0.0 0.0
-926.4620340114964 -121.82149107643552 -519.9567141053576 -105.21497628791914 0.0 0.0
-958.8702705664114 -126.92689202020851 -538.9473601477572 -105.6406586465779 0.0 0.0
-967.9201107980402 -114.71656929424918 -537.6497329240037 -109.53900830282306 0.0 0.0
-943.8186841815883 -74.34885436297205 -505.87321717526754 -115.86714723864785 0.0 0.0
-876.5294889945321 -0.6078424743011226 -436.74054321202186 -121.36603105509184 0.0 0.0
-738.2250831859726 127.30243677075107 -307.7468204156946 -125.50373132184863 0.0 0.0
-2432.475654560612 -1664.0727992246957 -2020.9814550997219 5.5425886102966615e-11 0.0 0.0
-738.2250831868264 127.30243676968976 -307.7468204163429 125.50373132215972 0.0 0.0
-876.5294889942431 -0.6078424742206181 -436.7405432117696 121.36603105538745 0.0 0.0
-943.8186841817774 -74.34885436323916 -505.873217175367 115.86714723881069 0.0 0.0
-967.9201107978065 -114.71656929415914 -537.6497329239232 109.53900830281661 0.0 0.0
-958.8702705661636 -126.92689202009693 -538.9473601475902 105.64065864664684 0.0 0.0
-926.4620340114518 -121.82149107651139 -519.9567141053365 105.2149762879424 0.0 0.0
-881.7509653055607 -105.89012986777949 -489.3589474260092 107.5459801974662 0.0 0.0
-831.7234648982973 -86.50237548915685 -454.2695549081036 110.80613551926277 0.0 0.0
-780.558858760542 -68.31299534828179 -418.5072072778378 114.2646737215112 0.0 0.0
-729.8135634003955 -54.425738491759766 -383.2381120948551 117.32599447905089 0.0 0.0
-675.7776672891681 -45.36946647856114 -344.30287609039874 119.55636531700847 0.0 0.0
-618.1385888982397 -36.373360823774846 -293.05286343263555 123.72537618623734 0.0 0.0
-536.0573590974532 -28.903130772135068 -223.47026488182703 125.61285766776524 0.0 0.0
-432.1838614910801 -9.010719799747742 -147.2325250460675 132.1106975155793 0.0 0.0
-322.2151871451854 12.986819589523066 -92.65003304085924 143.69115045489275 0.0 0.0
-232.90082338138933 16.55186395476697 -64.72685321607098 147.77244967695512 0.0 0.0
-170.4294951596044 12.338984784437798 -47.43333430164337 152.47139035096455 0.0 0.0
-111.17319077612362 -6.256281577312677 -35.22939272148894 152.01241782958337 0.0 0.0
-58.52184443717227 -72.05158721833692 -39.172029496652755 118.68010208304379 0.0 0.0
-50.720190381355955 -155.22593943332387 -61.78383894440394 72.58237846204455 0.0 0.0
-42.44885682099219 -102.93915117734215 -43.6164023995003 -59.78765731493573 0.0 0.0
-66.54777088789778 -61.155667140535286 -38.31103140852992 -102.23744161338183 0.0 0.0
-128.01387322068723 -5.759659918168461 -40.13270522794394 -136.19376145819402 0.0 0.0
-202.1763658532989 10.32113675397946 -57.55522712005468 -137.2556580915107 0.0 0.0
-282.2082932262108 13.139059873155583 -80.64259992270155 -129.13233289429147 0.0 0.0
-393.7990490560302 6.0116319633898 -119.49619675514884 -119.29425072712641 0.0 0.0
-505.92544357664246 -20.737355592146116 -189.9522004871177 -106.30981254066161 0.0 0.0
-603.6642668177292 -36.15516677293078 -271.6468778115059 -104.19544704411669 0.0 0.0
-670.1308351456133 -47.49544593952045 -336.77194853106886 -102.03878152517343 0.0 0.0
-730.4755446444632 -56.487899642828076 -383.59576331167847 -101.51695912687268 0.0 0.0
-785.1437657074589 -69.93142267608549 -422.2943459665162 -99.96721302740124 0.0 0.0
-839.6547016865048 -88.0648772451372 -460.1470906413327 -97.49317754469403 0.0 0.0
-895.1650413065831 -110.36518179621592 -499.53392954945605 -94.53753955657697 0.0 0.0
-949.9348079109607 -133.81861560830842 -538.7504042917282 -91.64298290562495 0.0 0.0
-1001.0317610804706 -155.44742437528484 -575.1808301897146 -89.29935738119768 0.0 0.0
-1038.6129973013042 -165.54995094721207 -599.2459526991731 -88.77027134105268 0.0 0.0
-1046.4606551857694 -148.44138454055965 -594.966745772711 -91.72055213193443 0.0 0.0
-1008.351178497566 -92.79818085711068 -548.679941203662 -97.16476213715623 0.0 0.0
-916.0213565111511 6.648426322024932 -454.0209321114786 -102.27613982020532 0.0 0.0
-757.3010369320909 155.38122073299246 -302.91396726670973 -108.68271546725133 0.0 0.0
-2733.787313670387 -1897.2805009118952 -2293.241068187145 4.384759222375578e-11 0.0 0.0
-757.3010369318647 155.3812207330226 -302.91396726661435 108.68271546750387 0.0 0.0
-916.0213565105705 6.648426322562159 -454.0209321110981 102.2761398203864 0.0 0.0
-1008.351178498507 -92.7981808581695 -548.6799412042632 97.16476213730462 0.0 0.0
-1046.4606551851061 -148.44138453994137 -594.9667457723463 91.72055213190987 0.0 0.0
-1038.612997300834 -165.54995094688485 -599.2459526988513 88.77027134103615 0.0 0.0
-1001.0317610801678 -155.4474243751917 -575.1808301895323 89.299357381333 0.0 0.0
-949.9348079100395 -133.81861560750684 -538.7504042910376 91.64298290565024 0.0 0.0
-895.1650413057632 -110.36518179554722 -499.53392954896987 94.53753955648145 0.0 0.0
-839.6547016866643 -88.06487724559427 -460.1470906414598 97.49317754480357 0.0 0.0
-785.1437657074406 -69.93142267640091 -422.2943459665812 99.9672130275353 0.0 0.0
-730.4755446442246 -56.48789964280686 -383.5957633114575 101.51695912677457 0.0 0.0
-670.130835145249 -47.49544593942419 -336.77194853072837 102.03878152512573 0.0 0.0
-603.6642668167515 -36.15516677215979 -271.64687781071694 104.19544704398382 0.0 0.0
-505.92544357625604 -20.737355592252438 -189.9522004868021 106.30981254071104 0.0 0.0
-393.79904905574966 6.011631963135528 -119.49619675508328 119.29425072709198 0.0 0.0
-282.20829322566897 13.139059873541617 -80.64259992244627 129.1323328941675 0.0 0.0
-202.1763658532107 10.32113675374284 -57.55522712010152 137.25565809139746 0.0 0.0
-128.01387322055564 -5.759659918023288 -40.13270522786051 136.19376145803054 0.0 0.0
-66.5477708878038 -61.15566714049944 -38.31103140849097 102.2374416132856 0.0 0.0
-42.44885682085185 -102.93915117720267 -43.61640239941635 59.78765731489192 0.0 0.0
-37.11187881966223 -62.49822767282716 -29.88303194774681 -46.82106013915926 0.0 0.0
-72.83858742581579 -49.08755141888015 -36.577841653408775 -84.08154414619416 0.0 0.0
-143.86341740813344 -4.65150658777612 -44.55492681845489 -116.56444190165257 0.0 0.0
-232.38310463518124 7.9266307067544375 -67.34136228877513 -117.7259126351129 0.0 0.0
-334.4715689676268 9.308095053492192 -97.0569802398473 -107.89415633493081 0.0 0.0
-451.5443928709471 -8.087017040660713 -149.82623543727848 -89.59771767694288 0.0 0.0
-567.6951988133906 -28.50015139794091 -230.208335498593 -83.17944088818477 0.0 0.0
-648.4150846821251 -44.314633077840284 -310.96757053411085 -82.33832122007476 0.0 0.0
-715.8047280001281 -54.80413493832246 -370.5397462712233 -82.67437851235563 0.0 0.0
-775.6380563695861 -68.10013302843032 -415.7567306376765 -82.69877383307188 0.0 0.0
-833.5956681426362 -85.56613739697836 -456.2311568069371 -81.82887548870836 0.0 0.0
-892.1838618747869 -107.76713959952504 -497.4604524816861 -79.95236618383291 0.0 0.0
-951.851400659784 -133.72001468903142 -540.4952742541748 -77.56618115547916 0.0 0.0
-1010.4664354381451 -161.65418466654322 -583.7662386538386 -75.1597152534026 0.0 0.0
-1066.0007146315988 -186.80155801770078 -624.0743751674573 -72.97658003382705 0.0 0.0
-1109.4735421213559 -201.3570832868031 -653.2148733915745 -71.58941074270082 0.0 0.0
-1118.7939743158654 -185.21960357224086 -650.2383199656728 -72.6919476784441 0.0 0.0
-1067.674222483373 -114.70881610914029 -590.126749420678 -77.23129435607046 0.0 0.0
-949.718542871877 11.634884784331959 -468.9629548479125 -83.68568762096135 0.0 0.0
-766.4555902542567 184.15183127970232 -292.5566952244982 -94.24713312268126 0.0 0.0
-3001.4770102939215 -2115.0278631143183 -2539.90866359129 1.2710899000012432e-10 0.0 0.0
-766.4555902535316 184.15183128041363 -292.55669522396147 94.2471331227961 0.0 0.0
-949.7185428706935 11.634884785445038 -468.96295484707775 83.68568762101691 0.0 0.0
-1067.6742224841064 -114.70881610999689 -590.1267494211742 77.23129435619619 0.0 0.0
-1118.7939743156678 -185.21960357210813 -650.2383199655103 72.69194767843383 0.0 0.0
-1109.4735421210812 -201.35708328662324 -653.2148733914074 71.58941074264419 0.0 0.0
-1066.0007146308799 -186.80155801710868 -624.0743751669047 72.97658003388321 0.0 0.0
-1010.4664354377699 -161.65418466631633 -583.7662386534547 75.15971525335493 0.0 0.0
-951.8514006596954 -133.720014689083 -540.4952742541662 77.56618115541538 0.0 0.0
-892.1838618741921 -107.76713959914122 -497.46045248124665 79.95236618378844 0.0 0.0
-833.5956681425249 -85.56613739717017 -456.23115680689784 81.8288754888063 0.0 0.0
-775.6380563696729 -68.1001330288048 -415.75673063770273 82.6987738330897 0.0 0.0
-715.8047279994842 -54.804134937965834 -370.5397462707235 82.67437851234185 0.0 0.0
-648.415084681952 -44.31463307801799 -310.9675705338626 82.33832122010831 0.0 0.0
-567.6951988127415 -28.50015139761486 -230.20833549803024 83.17944088809591 0.0 0.0
-451.5443928704849 -8.087017040621403 -149.82623543702152 89.5977176768865 0.0 0.0
-334.47156896738454 9.308095053038318 -97.0569802399325 107.89415633483311 0.0 0.0
-232.38310463496484 7.926630706866535 -67.3413622886756 117.72591263506399 0.0 0.0
-143.8634174079458 -4.651506587695621 -44.554926818374426 116.564441901621 0.0 0.0
-72.83858742570287 -49.08755141882856 -36.57784165335942 84.08154414623147 0.0 0.0
-37.11187881960062 -62.498227672783756 -29.883031947715324 46.82106013912434 0.0 0.0
-34.042334427892605 -33.74114481575 -20.33504377309278 -33.98852790778827 0.0 0.0
-77.14785208997387 -36.82461723147774 -34.19174079643548 -64.42436715261744 0.0 0.0
-158.4717588289876 -3.1839426635349635 -48.49671044775676 -93.04582554226056 0.0 0.0
-261.8624911088601 4.926453317594973 -77.07103920815631 -93.89724974066633 0.0 0.0
-384.6575327850662 2.2460918587767713 -115.11884899882456 -81.28411617321855 0.0 0.0
-509.9679373444313 -17.598906094762363 -180.7017269225878 -64.71188425877918 0.0 0.0
-610.7051792537187 -36.21830744417233 -266.79527709883257 -61.66772412697327 0.0 0.0
-685.9199686143719 -48.81972766122603 -341.4932393906782 -61.950549960758366 0.0 0.0
-753.0857576139412 -63.07260252077034 -398.32582004713584 -62.84396589445493 0.0 0.0
-815.3253536220575 -79.84445424520136 -443.6355624381508 -63.371122710175605 0.0 0.0
-876.6775674401558 -101.311309177067 -486.7540327039019 -62.96007560880297 0.0 0.0
-939.5850508400097 -127.59395743175476 -531.8103392280468 -61.62219796755913 0.0 0.0
-1003.2013507560079 -158.00446908381645 -578.9318307118792 -59.77235147771566 0.0 0.0
-1065.241231200714 -187.56182291133484 -624.6839837640598 -58.063741129594675 0.0 0.0
-1122.4923917712706 -214.7300742740157 -666.8176888755679 -56.293514928928126 0.0 0.0
-1170.1151998474325 -233.6844216852877 -700.1323154854468 -54.252715986645114 0.0 0.0
-1187.7703921795885 -224.4631916272906 -704.7248162272102 -53.225660430257584 0.0 0.0
-1132.071855633888 -147.83247840537788 -639.3657336782335 -56.35225713589801 0.0 0.0
-985.6320420943396 8.138363183604937 -489.0210447229166 -65.12951452771158 0.0 0.0
-763.549057764981 219.92729271641932 -272.72031918203004 -80.90724386171685 0.0 0.0
-3235.65390062982 -2307.6784410591927 -2756.591704640422 5.4647841807309305e-11 0.0 0.0
-763.5490577645403 219.92729271679616 -272.7203191815917 80.90724386183162 0.0 0.0
-985.6320420929044 8.138363185007265 -489.0210447219363 65.1295145277943 0.0 0.0
-1132.0718556336274 -147.8324784051743 -639.3657336780158 56.35225713593305 0.0 0.0
-1187.770392179242 -224.4631916270522 -704.7248162269995 53.22566043024814 0.0 0.0
-1170.1151998474793 -233.68442168547105 -700.1323154854088 54.25271598674205 0.0 0.0
-1122.4923917717715 -214.73007427468198 -666.8176888758867 56.293514929003024 0.0 0.0
-1065.2412312000154 -187.56182291078684 -624.6839837635105 58.063741129595805 0.0 0.0
-1003.201350756375 -158.0044690844552 -578.9318307121814 59.772351477859544 0.0 0.0
-939.5850508398812 -127.59395743182128 -531.8103392278775 61.622197967596634 0.0 0.0
-876.6775674400174 -101.31130917714577 -486.75403270382765 62.96007560871817 0.0 0.0
-815.3253536220013 -79.84445424543419 -443.63556243810604 63.371122710160385 0.0 0.0
-753.0857576138912 -63.072602521000476 -398.3258200470626 62.8439658944761 0.0 0.0
-685.9199686144705 -48.819727661711156 -341.49323939059417 61.950549960762174 0.0 0.0
-610.7051792531167 -36.21830744391412 -266.795277098283 61.66772412695554 0.0 0.0
-509.96793734395493 -17.59890609465028 -180.70172692225276 64.71188425873093 0.0 0.0
-384.6575327849753 2.2460918580783837 -115.11884899899327 81.28411617314427 0.0 0.0
-261.8624911085237 4.9264533178265 -77.07103920798653 93.89724974064566 0.0 0.0
-158.47175882886648 -3.183942663521166 -48.49671044771631 93.04582554229249 0.0 0.0
-77.14785208992566 -36.82461723146699 -34.19174079641779 64.42436715261256 0.0 0.0
-34.0423344278671 -33.741144815717554 -20.335043773075387 33.98852790777483 0.0 0.0
-32.07960783628188 -16.365838772013745 -14.533633982488684 -22.018862349564564 0.0 0.0
-78.69476546766926 -25.391889269455547 -31.225996421137445 -43.54560343537857 0.0 0.0
-171.41244421704624 -1.8928224336474981 -51.99157999520814 -65.19377405757768 0.0 0.0
-291.51991274462284 1.3757507891560223 -86.99733998550295 -65.37004579647194 0.0 0.0
-430.5189948031359 -8.864650225068122 -135.97346519287694 -51.70671164193623 0.0 0.0
-557.2290103041776 -26.08162444220999 -211.8626025501179 -41.59358681564752 0.0 0.0
-641.2076861597689 -41.24973236660206 -296.6568883539879 -40.750021914804194 0.0 0.0
-717.54692597176 -54.585517296522454 -367.4141253309654 -41.92237564153151 0.0 0.0
-785.3790456519453 -71.87712008674791 -422.068255872991 -42.84575726120286 0.0 0.0
-850.331684821474 -91.89352380380389 -468.4623461213408 -43.45152184279815 0.0 0.0
-915.7766810898327 -117.13942882671255 -514.9024155188742 -43.365455842935 0.0 0.0
-982.5849955163268 -147.58101192787817 -563.8089641059429 -42.511877326219455 0.0 0.0
-1050.4752464987741 -180.73327373789783 -614.367182222823 -41.37308024134721 0.0 0.0
-1115.2504352351075 -213.90280246573727 -663.2923593300018 -40.21990249450488 0.0 0.0
-1173.2370184840056 -241.10589248880154 -705.8255230034422 -39.002179922183736 0.0 0.0
-1218.7506214031444 -257.5767278751629 -736.7814648604049 -37.14254894850426 0.0 0.0
-1244.7794294755658 -256.9004977407172 -749.6097498821741 -34.634054886995344 0.0 0.0
-1216.728221185993 -206.81166760301295 -711.2585276641863 -34.89800590935579 0.0 0.0
-1043.6266691203173 -21.891400592860634 -533.2681265843931 -44.82619939705888 0.0 0.0
-738.6256844776115 274.60143871631277 -232.6510895126837 -67.48128202858048 0.0 0.0
-3421.8331461421794 -2457.21955727962 -2927.2406069375775 2.6085800186592678e-11 0.0 0.0
-738.6256844773088 274.601438716579 -232.65108951246646 67.48128202861935 0.0 0.0
-1043.6266691206774 -21.891400593269253 -533.2681265846355 44.826199397095195 0.0 0.0
-1216.7282211857391 -206.81166760283747 -711.2585276638945 34.89800590938951 0.0 0.0
-1244.779429474925 -256.9004977401491 -749.6097498817644 34.634054886899776 0.0 0.0
-1218.7506214026303 -257.57672787477907 -736.7814648599137 37.142548948528656 0.0 0.0
-1173.237018484211 -241.1058924891468 -705.8255230035866 39.00217992217569 0.0 0.0
-1115.250435234479 -213.9028024652644 -663.2923593295179 40.21990249448903 0.0 0.0
-1050.4752464984108 -180.73327373772642 -614.3671822226516 41.373080241372996 0.0 0.0
-982.5849955164134 -147.58101192820178 -563.808964105934 42.5118773262224 0.0 0.0
-915.7766810895644 -117.13942882666039 -514.9024155187282 43.36545584284355 0.0 0.0
-850.3316848211979 -91.89352380379975 -468.4623461211453 43.4515218428623 0.0 0.0
-785.3790456522388 -71.87712008734461 -422.06825587309686 42.845757261195175 0.0 0.0
-717.5469259708852 -54.58551729592474 -367.4141253302747 41.922375641417645 0.0 0.0
-641.2076861593633 -41.249732366556664 -296.65688835357753 40.750021914885075 0.0 0.0
-557.2290103036626 -26.081624442018374 -211.8626025497026 41.59358681567862 0.0 0.0
-430.51899480257475 -8.86465022502264 -135.97346519267603 51.70671164192163 0.0 0.0
-291.5199127442622 1.375750789428444 -86.99733998531106 65.37004579642712 0.0 0.0
-171.4124442168962 -1.8928224336862796 -51.991579995174725 65.19377405754273 0.0 0.0
-78.69476546755071 -25.391889269389925 -31.225996421082186 43.54560343536692 0.0 0.0
-32.07960783621439 -16.365838771964455 -14.533633982453656 22.018862349578583 0.0 0.0
-29.032895440507286 -9.426967966785469 -11.537959022187826 -12.53239096535745 0.0 0.0
-76.03351093280942 -16.306282339869085 -27.701937981803553 -21.80442926180968 0.0 0.0
-181.99503603024036 -1.5894231316640028 -55.07533774857129 -31.864617248918897 0.0 0.0
-322.63361157041237 -2.1136879584093573 -97.37124346367568 -31.554985826451496 0.0 0.0
-479.0468002810586 -17.084015764526892 -158.1582112870074 -23.124922803592316 0.0 0.0
-591.0866085025898 -32.8650236075831 -241.02608769684565 -20.658192989704965 0.0 0.0
-669.1917020727645 -43.23438726975136 -320.83062129323577 -21.60489116240803 0.0 0.0
-744.2771618413723 -61.06251586432772 -389.2632869256508 -22.290864806879195 0.0 0.0
-813.6505800677892 -80.72375913697772 -442.6399923772687 -22.658486738827982 0.0 0.0
-881.6918919797532 -104.44721942994053 -491.23604739415964 -22.972170690500604 0.0 0.0
-950.9807597765715 -133.32862269560312 -541.060638462123 -22.986218471800367 0.0 0.0
-1022.0335921036055 -166.72139489518077 -593.4723319235875 -22.718306174969968 0.0 0.0
-1093.2208159162842 -203.94052215055387 -647.6800557885977 -22.193611385348294 0.0 0.0
-1161.524120828031 -239.26220535635173 -699.4379099989187 -21.6535020356689 0.0 0.0
-1219.4750529225978 -266.0719387738533 -741.7756970118169 -21.03785084725319 0.0 0.0
-1260.4946343416218 -278.0861533910358 -768.2822320872867 -19.866605663245934 0.0 0.0
-1281.611613706151 -273.10320113907176 -776.3724859456286 -17.63575531916947 0.0 0.0
-1286.4706072590575 -256.01893236033516 -770.4539691670784 -15.42602076869425 0.0 0.0
-1205.1098709135704 -160.09939038960525 -682.753622718919 -21.177726049647347 0.0 0.0
-725.1000722222822 316.6942796808944 -204.86221235518272 -48.94219588044271 0.0 0.0
-3417.525825741646 -2417.530258625255 -2908.310823707845 -1.1127099242003169e-11 0.0 0.0
-725.1000722228066 316.6942796803444 -204.86221235552657 48.94219588047574 0.0 0.0
-1205.1098709137675 -160.0993903898612 -682.7536227190872 21.177726049644058 0.0 0.0
-1286.4706072584647 -256.0189323598225 -770.4539691666788 15.42602076877125 0.0 0.0
-1281.6116137061763 -273.10320113918414 -776.3724859456912 17.63575531910604 0.0 0.0
-1260.4946343412869 -278.0861533908374 -768.2822320870051 19.866605663317095 0.0 0.0
-1219.47505292225 -266.0719387736463 -741.7756970115101 21.03785084728669 0.0 0.0
-1161.5241208274617 -239.26220535595388 -699.4379099984037 21.65350203568571 0.0 0.0
-1093.2208159159036 -203.9405221503598 -647.6800557883628 22.193611385355265 0.0 0.0
-1022.033592103377 -166.7213948951725 -593.4723319233915 22.718306174937602 0.0 0.0
-950.980759776099 -133.32862269535548 -541.0606384618302 22.98621847173796 0.0 0.0
-881.6918919798602 -104.44721943034011 -491.2360473941526 22.97217069061457 0.0 0.0
-813.6505800676769 -80.72375913713488 -442.6399923771522 22.658486738779523 0.0 0.0
-744.2771618403273 -61.06251586352319 -389.26328692491444 22.290864806842112 0.0 0.0
-669.1917020727456 -43.2343872700692 -320.8306212930641 21.604891162378806 0.0 0.0
-591.0866085024618 -32.86502360785136 -241.02608769663254 20.658192989694086 0.0 0.0
-479.0468002804799 -17.084015764298034 -158.15821128670527 23.1249228036622 0.0 0.0
-322.6336115699315 -2.113687957999893 -97.37124346342334 31.55498582639788 0.0 0.0
-181.99503603010382 -1.5894231317300667 -55.07533774855017 31.864617248906935 0.0 0.0
-76.03351093271299 -16.306282339809627 -27.701937981756775 21.804429261896075 0.0 0.0
-29.032895440507737 -9.426967966792937 -11.5379590221902 12.532390965385304 0.0 0.0
-18.085323577858688 -4.618781028507263 -6.811231381909785 -7.853832469845229 0.0 0.0
-65.35518204446774 -9.133891980265792 -22.346722207420058 -9.050540048665516 0.0 0.0
-189.01908910807668 -2.834476773173133 -57.556069764374925 -10.84681020826946 0.0 0.0
-361.52781530366894 -13.886242320949062 -112.72654299551243 -9.474669866217987 0.0 0.0
-540.067315685082 -50.15725077437307 -194.60937724322824 -2.25352110395956 0.0 0.0
-664.1233851360636 -88.06066497969783 -299.8652896691947 0.4396502543955414 0.0 0.0
-763.3833013592009 -122.83565375626756 -401.5158653227045 0.6381991113175687 0.0 0.0
-868.1499476467745 -172.06446767350556 -498.58145438348834 -0.3779256208396724 0.0 0.0
-976.6627584670447 -231.8332573549212 -590.7065554251144 -1.65094090199986 0.0 0.0
-1097.8304303557404 -308.4872416694257 -691.9683600430702 -3.0088491953791667 0.0 0.0
-1236.56344274174 -406.18717884626403 -810.6375036883746 -4.343507491866456 0.0 0.0
-1393.2124538883104 -525.6955664065463 -948.5124375904874 -5.514421637029624 0.0 0.0
-1563.612568965093 -660.906930855786 -1100.8507869846037 -6.301539034081003 0.0 0.0
-1740.5857364763929 -804.5267774476936 -1260.681073937311 -7.025854011942959 0.0 0.0
-1910.757306114294 -943.2053850747523 -1414.7110527518607 -7.521369244929037 0.0 0.0
-2055.1094178426392 -1058.4147121290891 -1544.251653955679 -7.557508961512365 0.0 0.0
-2149.8575564353496 -1127.4719618988997 -1626.198692093763 -6.71624340540863 0.0 0.0
-2172.113068626176 -1128.6563320181776 -1638.087250955217 -4.631568157612691 0.0 0.0
-2171.4841148053397 -1112.6218165399623 -1628.9807284349808 -7.742458788304834 0.0 0.0
-2146.5180152582607 -1085.2521881344144 -1599.5241148779705 -37.314071076895786 0.0 0.0
-5324.734734344569 -4296.723654225124 -4784.165173682 -1.645616976020392e-11 0.0 0.0
-2146.51801525896 -1085.2521881351965 -1599.5241148782238 37.31407107704314 0.0 0.0
-2171.4841148043497 -1112.6218165390123 -1628.9807284342032 7.742458788408236 0.0 0.0
-2172.1130686248152 -1128.6563320168857 -1638.0872509542205 4.631568157693163 0.0 0.0
-2149.857556435249 -1127.4719618989138 -1626.1986920935396 6.716243405427768 0.0 0.0
-2055.1094178418957 -1058.414712128473 -1544.2516539549479 7.557508961620499 0.0 0.0
-1910.7573061134385 -943.2053850740324 -1414.7110527510404 7.521369244921864 0.0 0.0
-1740.5857364748924 -804.5267774463748 -1260.6810739359826 7.025854011999847 0.0 0.0
-1563.612568964213 -660.9069308550786 -1100.8507869838095 6.301539034050219 0.0 0.0
-1393.2124538878604 -525.6955664063402 -948.5124375899644 5.51442163694038 0.0 0.0
-1236.5634427408809 -406.1871788456301 -810.6375036876918 4.34350749188361 0.0 0.0
-1097.8304303553396 -308.48724166929867 -691.9683600425973 3.0088491954145304 0.0 0.0
-976.66275846706 -231.8332573552309 -590.7065554249955 1.6509409018902375 0.0 0.0
-868.1499476460126 -172.0644676730185 -498.58145438289375 0.3779256209223796 0.0 0.0
-763.3833013593022 -122.83565375673305 -401.5158653225535 -0.6381991113747532 0.0 0.0
-664.1233851359247 -88.06066497994081 -299.865289668904 -0.43965025445513817 0.0 0.0
-540.0673156847181 -50.15725077440021 -194.6093772429873 2.253521104059473 0.0 0.0
-361.5278153031429 -13.886242320536812 -112.72654299524032 9.474669866207954 0.0 0.0
-189.01908910780492 -2.834476773095048 -57.556069764269964 10.846810208309456 0.0 0.0
-65.3551820443255 -9.133891980226512 -22.346722207365605 9.050540048794302 0.0 0.0
-18.085323577810748 -4.6187810285075095 -6.811231381895478 7.853832469885419 0.0 0.0
SCALARS Strain float 6
LOOKUP_TABLE default
0.012346114377073215 -0.021093937177251797 0.0 -0.0009023996609778906 0.0 0.0
0.007583616577320018 -0.0018465902732204432 0.0 -0.006482800984729039 0.0 0.0
0.002339949435292049 -0.0006119290844200578 0.0 -0.0006705248792898692 0.0 0.0
0.0020712745048891232 -0.0008301096231884647 0.0 -2.893230832228412e-05 0.0 0.0
0.0028275303564656478 -0.0011657130466040235 0.0 9.766774612986663e-05 0.0 0.0
0.004440222750551207 -0.0023315630411503926 0.0 0.00020228862870770754 0.0 0.0
0.007171743585046377 -0.004588711834824783 0.0 0.00026920309815704757 0.0 0.0
0.011180246970429904 -0.008103793215271179 0.0 0.00029514545592081306 0.0 0.0
0.016609337408563976 -0.013012771715716603 0.0 0.0002875210995952801 0.0 0.0
0.0235250561782789 -0.019327784437352055 0.0 0.0002326119905929175 0.0 0.0
0.03194625099792631 -0.0270346961975447 0.0 0.00017082176355983606 0.0 0.0
0.041891080089294624 -0.03614833339591717 0.0 9.775648547811534e-05 0.0 0.0
0.05337301579563364 -0.046712026922584346 0.0 -4.235389637262084e-05 0.0 0.0
0.06639562749751607 -0.05876244971410595 0.0 -0.00020150950987556765 0.0 0.0
0.0808771006211327 -0.07226704787457766 0.0 -0.0004307966880150127 0.0 0.0
0.0964911872775106 -0.08695223190465479 0.0 -0.0007409172872134147 0.0 0.0
0.11254942942462898 -0.10217817605600721 0.0 -0.0010798399187458144 0.0 0.0
0.12797567407695912 -0.1169186243611551 0.0 -0.0013150448254275159 0.0 0.0
0.14141593569030728 -0.1298432808525408 0.0 -0.001273533592396369 0.0 0.0
0.15129574615080135 -0.13943906185814373 0.0 -0.0012947657177365965 0.0 0.0
0.15513276314003047 -0.14331652697947628 0.0 1.7832957333041577e-15 0.0 0.0
0.15129574615078295 -0.13943906185813018 0.0 0.0012947657177429742 0.0 0.0
0.1414159356902691 -0.12984328085250524 0.0 0.0012735335924018215 0.0 0.0
0.12797567407690447 -0.1169186243611014 0.0 0.001315044825431497 0.0 0.0
0.11254942942456636 -0.10217817605595769 0.0 0.0010798399187429133 0.0 0.0
0.09649118727744545 -0.08695223190459817 0.0 0.0007409172872102007 0.0 0.0
0.08087710062106544 -0.0722670478745196 0.0 0.00043079668801560087 0.0 0.0
0.06639562749744797 -0.0587624497140366 0.0 0.0002015095098745318 0.0 0.0
0.053373015795567316 -0.046712026922527065 0.0 4.235389637141651e-05 0.0 0.0
0.041891080089232674 -0.036148333395856255 0.0 -9.775648548104518e-05 0.0 0.0
0.03194625099787314 -0.027034696197501713 0.0 -0.0001708217635594904 0.0 0.0
0.023525056178236664 -0.0193277844373103 0.0 -0.00023261199059563913 0.0 0.0
0.016609337408530774 -0.013012771715684057 0.0 -0.00028752109959600625 0.0 0.0
0.011180246970405743 -0.008103793215251138 0.0 -0.00029514545591856334 0.0 0.0
0.0071717435850305565 -0.004588711834809428 0.0 -0.0002692030981569187 0.0 0.0
0.004440222750542041 -0.002331563041144704 0.0 -0.0002022886287082333 0.0 0.0
0.002827530356462009 -0.001165713046602724 0.0 -9.766774612939518e-05 0.0 0.0
0.0020712745048881314 -0.0008301096231870513 0.0 2.893230832412433e-05 0.0 0.0
0.0023399494352902843 -0.0006119290844187389 0.0 0.0006705248792881066 0.0 0.0
0.007583616577314321 -0.0018465902732178175 0.0 0.00648280098472096 0.0 0.0
0.012346114377064874 -0.02109393717722753 0.0 0.000902399660939542 0.0 0.0
0.008452257062655275 -0.018830585104462512 0.0 -0.00043664397723746306 0.0 0.0
0.004984445507179791 -0.0013664125577222228 0.0 -0.00515231574411158 0.0 0.0
0.0015897452407303554 -0.00048745436758697443 0.0 -0.0004388705263771618 0.0 0.0
0.001845825330436984 -0.0007852014075672894 0.0 -0.0002072783493231018 0.0 0.0
0.0024652010324969194 -0.0010632562785941135 0.0 -0.00016140823368474 0.0 0.0
0.003835217580841037 -0.0020913162099017064 0.0 -0.00019965613543755726 0.0 0.0
0.006265757332340535 -0.004188949092805337 0.0 -0.0004075929847081914 0.0 0.0
0.009901788853067533 -0.0075108247788624825 0.0 -0.0007083575043937372 0.0 0.0
0.014851779629524643 -0.012178606506745817 0.0 -0.0011148298390229704 0.0 0.0
0.021140290837270433 -0.018185102846147588 0.0 -0.001605969863817229 0.0 0.0
0.028752263902639994 -0.025498568332995922 0.0 -0.002127900557895732 0.0 0.0
0.037691633109306795 -0.034121888069539606 0.0 -0.002652682758089688 0.0 0.0
0.048005666050003164 -0.04410841280659615 0.0 -0.003224619779882531 0.0 0.0
0.05973193365636787 -0.055518338046772996 0.0 -0.003862206120517487 0.0 0.0
0.07281028926946513 -0.06832582633563541 0.0 -0.004556255648015636 0.0 0.0
0.08696095579136955 -0.08228025915270308 0.0 -0.0052628915792426335 0.0 0.0
0.10156996328254417 -0.09678578121890985 0.0 -0.005808482202674939 0.0 0.0
0.11567427144227684 -0.11087571995035563 0.0 -0.0058917016111403025 0.0 0.0
0.1279946826054887 -0.12326974258469026 0.0 -0.005255904732186471 0.0 0.0
0.13682519267645848 -0.13237338603388782 0.0 -0.004149317323744909 0.0 0.0
0.14012015581602383 -0.1360948050655125 0.0 6.011250525128631e-15 0.0 0.0
0.13682519267644105 -0.1323733860338751 0.0 0.004149317323760676 0.0 0.0
0.12799468260545466 -0.12326974258465628 0.0 0.005255904732202097 0.0 0.0
0.11567427144222941 -0.11087571995030908 0.0 0.00589170161114765 0.0 0.0
0.10156996328248878 -0.09678578121885888 0.0 0.005808482202674541 0.0 0.0
0.08696095579131087 -0.08228025915264482 0.0 0.005262891579240083 0.0 0.0
0.0728102892694046 -0.0683258263355795 0.0 0.004556255648016327 0.0 0.0
0.05973193365630668 -0.05551833804670871 0.0 0.0038622061205154843 0.0 0.0
0.04800566604994334 -0.044108412806542846 0.0 0.003224619779879707 0.0 0.0
0.03769163310925114 -0.03412188806948305 0.0 0.0026526827580847347 0.0 0.0
0.02875226390259175 -0.025498568332952914 0.0 0.00212790055789191 0.0 0.0
0.021140290837231592 -0.01818510284610825 0.0 0.0016059698638134024 0.0 0.0
0.014851779629494546 -0.012178606506716563 0.0 0.001114829839019233 0.0 0.0
0.00990178885304565 -0.00751082477884359 0.0 0.0007083575043936542 0.0 0.0
0.006265757332326324 -0.004188949092791979 0.0 0.0004075929847067163 0.0 0.0
0.0038352175808334154 -0.002091316209894632 0.0 0.00019965613543597424 0.0 0.0
0.0024652010324943386 -0.001063256278592213 0.0 0.0001614082336857869 0.0 0.0
0.001845825330436235 -0.0007852014075668913 0.0 0.00020727834932341696 0.0 0.0
0.0015897452407299744 -0.0004874543675865272 0.0 0.0004388705263768301 0.0 0.0
0.004984445507173581 -0.001366412557719415 0.0 0.005152315744101187 0.0 0.0
0.008452257062642982 -0.018830585104437705 0.0 0.00043664397720832697 0.0 0.0
0.006116557383877704 -0.014905585794352114 0.0 -0.0031334305195654007 0.0 0.0
0.0034979432655210855 -0.000741730646364997 0.0 -0.005054078686395481 0.0 0.0
0.0011197017274834236 -0.0002838526839905095 0.0 -0.00041901937969423994 0.0 0.0
0.0015763790124278096 -0.0006759604636424312 0.0 -0.0004786063118327786 0.0 0.0
0.002136634991055575 -0.0008895898699840857 0.0 -0.0004718080846719759 0.0 0.0
0.003259244158998191 -0.0016427197138361735 0.0 -0.000520262129824923 0.0 0.0
0.005365664689738295 -0.003400851710286845 0.0 -0.0009090047004658528 0.0 0.0
0.00861230955451546 -0.006331262052126932 0.0 -0.0015038673865277613 0.0 0.0
0.01306038539574068 -0.010502595183112666 0.0 -0.002299018606743984 0.0 0.0
0.01870632507981776 -0.015884703237184754 0.0 -0.0032419301999639894 0.0 0.0
0.025507043905164655 -0.022408842757725003 0.0 -0.00424746240167092 0.0 0.0
0.03345234921879372 -0.030058801251312883 0.0 -0.005246194460132098 0.0 0.0
0.04259442978219658 -0.03889471135137881 0.0 -0.006258087036878591 0.0 0.0
0.05300668110460852 -0.04901218810867126 0.0 -0.007375147889011613 0.0 0.0
0.06466428684837074 -0.06041532698489965 0.0 -0.008607762614921695 0.0 0.0
0.077335447545057 -0.07289996023896733 0.0 -0.009833481515467661 0.0 0.0
0.0905066382862607 -0.08596442307988864 0.0 -0.010753009192748008 0.0 0.0
0.1033267505011451 -0.09876593897494558 0.0 -0.010893212203016301 0.0 0.0
0.11456046023217123 -0.11010392178484478 0.0 -0.00985084594912905 0.0 0.0
0.12264646831528288 -0.1183731387052955 0.0 -0.007516818249598358 0.0 0.0
0.1256927464120895 -0.12194608998922488 0.0 1.0924421089963943e-14 0.0 0.0
0.12264646831526671 -0.11837313870528199 0.0 0.007516818249624886 0.0 0.0
0.11456046023214092 -0.11010392178481687 0.0 0.009850845949157964 0.0 0.0
0.10332675050110415 -0.09876593897490371 0.0 0.010893212203032136 0.0 0.0
0.09050663828621247 -0.08596442307984274 0.0 0.010753009192750088 0.0 0.0
0.07733544754500492 -0.07289996023890917 0.0 0.009833481515465054 0.0 0.0
0.06466428684831672 -0.060415326984852524 0.0 0.0086077626149195 0.0 0.0
0.05300668110455402 -0.049012188108618106 0.0 0.007375147889007646 0.0 0.0
0.04259442978214364 -0.038894711351328506 0.0 0.00625808703687257 0.0 0.0
0.033452349218744515 -0.03005880125126248 0.0 0.005246194460124031 0.0 0.0
0.02550704390512179 -0.022408842757683886 0.0 0.004247462401662905 0.0 0.0
0.0187063250797829 -0.01588470323715196 0.0 0.003241930199957191 0.0 0.0
0.013060385395713766 -0.010502595183088138 0.0 0.0022990186067379714 0.0 0.0
0.008612309554496092 -0.006331262052109944 0.0 0.0015038673865250085 0.0 0.0
0.005365664689726124 -0.0034008517102771065 0.0 0.0009090047004634042 0.0 0.0
0.0032592441589921997 -0.0016427197138302876 0.0 0.000520262129823071 0.0 0.0
0.0021366349910535644 -0.0008895898699842458 0.0 0.0004718080846720077 0.0 0.0
0.0015763790124274262 -0.0006759604636424962 0.0 0.00047860631183164483 0.0 0.0
0.0011197017274836264 -0.00028385268399086765 0.0 0.0004190193796942802 0.0 0.0
0.0034979432655152035 -0.0007417306463619451 0.0 0.0050540786863825776 0.0 0.0
0.006116557383865602 -0.014905585794328144 0.0 0.003133430519545556 0.0 0.0
0.00456757080685541 -0.01194397071030449 0.0 -0.003551437050295224 0.0 0.0
0.0025534333279029803 -0.0005406374679077397 0.0 -0.00461297514715816 0.0 0.0
0.0008021710666388097 -0.00016092882105650763 0.0 -0.0007086370560050638 0.0 0.0
0.0013076395209639879 -0.0005435797461264127 0.0 -0.0007413663690529957 0.0 0.0
0.0018316913772540504 -0.0007570669802624883 0.0 -0.0007861559321716627 0.0 0.0
0.0027301113598795575 -0.0012763322207983879 0.0 -0.0008246993816393771 0.0 0.0
0.004488667093432826 -0.002655111272057509 0.0 -0.0012451850196727894 0.0 0.0
0.007321212735058669 -0.005168497693928401 0.0 -0.0020866729654035686 0.0 0.0
0.011250925760188386 -0.008822555367101156 0.0 -0.0031791152609009846 0.0 0.0
0.01624173073778757 -0.013563997178471458 0.0 -0.004471190117608012 0.0 0.0
0.02222755518876341 -0.019295954760643285 0.0 -0.005843204363286314 0.0 0.0
0.029184605952627368 -0.02598103760392233 0.0 -0.007203668151500394 0.0 0.0
0.03716401776632589 -0.03367468857343369 0.0 -0.00856910212396542 0.0 0.0
0.046249579723015265 -0.042488777710047713 0.0 -0.010036851316028175 0.0 0.0
0.05646209393849022 -0.05246512244999193 0.0 -0.011647397823040228 0.0 0.0
0.06764103821304579 -0.06346091530726172 0.0 -0.013266138039090354 0.0 0.0
0.0793661306161977 -0.07507538114068578 0.0 -0.014507773165246273 0.0 0.0
0.09090181823259767 -0.08659212721154634 0.0 -0.014792407132920377 0.0 0.0
0.10113752396697359 -0.0969132717519138 0.0 -0.013517023927628746 0.0 0.0
0.10868480968673676 -0.10459789917638548 0.0 -0.01001015669715336 0.0 0.0
0.11160283462384196 -0.10825965077406088 0.0 1.3652707436806466e-14 0.0 0.0
0.10868480968672192 -0.1045978991763676 0.0 0.010010156697188497 0.0 0.0
0.10113752396694663 -0.09691327175188989 0.0 0.013517023927666471 0.0 0.0
0.09090181823256119 -0.08659212721151013 0.0 0.014792407132941807 0.0 0.0
0.07936613061615551 -0.07507538114064552 0.0 0.014507773165250246 0.0 0.0
0.06764103821300047 -0.06346091530721029 0.0 0.013266138039085395 0.0 0.0
0.05646209393844269 -0.052465122449946236 0.0 0.011647397823036048 0.0 0.0
0.04624957972296743 -0.042488777710005754 0.0 0.01003685131602471 0.0 0.0
0.03716401776627959 -0.033674688573386034 0.0 0.008569102123956864 0.0 0.0
0.029184605952584625 -0.02598103760388087 0.0 0.007203668151489252 0.0 0.0
0.022227555188725923 -0.01929595476060225 0.0 0.005843204363275415 0.0 0.0
0.01624173073775657 -0.013563997178442222 0.0 0.004471190117598911 0.0 0.0
0.011250925760164603 -0.008822555367079349 0.0 0.003179115260893321 0.0 0.0
0.007321212735041759 -0.0051684976939122 0.0 0.0020866729653975565 0.0 0.0
0.004488667093422184 -0.002655111272049839 0.0 0.001245185019669799 0.0 0.0
0.002730111359874814 -0.0012763322207959412 0.0 0.0008246993816379846 0.0 0.0
0.001831691377252695 -0.0007570669802634607 0.0 0.0007861559321708538 0.0 0.0
0.0013076395209635698 -0.000543579746125416 0.0 0.0007413663690531408 0.0 0.0
0.0008021710666390115 -0.0001609288210569093 0.0 0.0007086370560037385 0.0 0.0
0.002553433327897633 -0.0005406374679048035 0.0 0.004612975147146216 0.0 0.0
0.004567570806844435 -0.011943970710283252 0.0 0.0035514370502804913 0.0 0.0
0.003427314373889217 -0.00957336645122105 0.0 -0.003188528572833603 0.0 0.0
0.0018898978466577883 -0.0004555941129960303 0.0 -0.0041353372409952795 0.0 0.0
0.0005828137590261376 -9.753256568339463e-05 0.0 -0.0010865637200808047 0.0 0.0
0.0010572713173089164 -0.0004123777962630473 0.0 -0.0010232194027780834 0.0 0.0
0.0015420961099217889 -0.0006386740140973271 0.0 -0.001094905546820635 0.0 0.0
0.002257665926331871 -0.0009978302462091701 0.0 -0.0011288716077274912 0.0 0.0
0.0036581728427609863 -0.001997070380659085 0.0 -0.0014915869428600598 0.0 0.0
0.00604175496979563 -0.004035708324692282 0.0 -0.0024159518826617496 0.0 0.0
0.0094399886910837 -0.007158337557841992 0.0 -0.003747651888792199 0.0 0.0
0.01376363043729531 -0.011244510405520708 0.0 -0.005285833047368089 0.0 0.0
0.01893262184118808 -0.01618013368852473 0.0 -0.006914828442023673 0.0 0.0
0.024905029266321724 -0.021905224168945716 0.0 -0.008524385475233437 0.0 0.0
0.03172460050822637 -0.02846427163688839 0.0 -0.010133508156055295 0.0 0.0
0.03948946883352424 -0.03597587566218138 0.0 -0.011845364832040432 0.0 0.0
0.048246102788366475 -0.044513501748201095 0.0 -0.01369907790515261 0.0 0.0
0.05790130852857192 -0.05399720792679255 0.0 -0.01555045505033064 0.0 0.0
0.0681513825455319 -0.06412999913078746 0.0 -0.017029716901073178 0.0 0.0
0.07839619617926143 -0.0743365273365667 0.0 -0.017526969169166004 0.0 0.0
0.08769636815484247 -0.08369537153159799 0.0 -0.01617511245263656 0.0 0.0
0.09483702029547948 -0.09095697763581909 0.0 -0.011916635194597198 0.0 0.0
0.09770287834530812 -0.09483734421463465 0.0 1.5972032724187457e-14 0.0 0.0
0.09483702029546631 -0.09095697763579791 0.0 0.011916635194637568 0.0 0.0
0.0876963681548183 -0.08369537153157423 0.0 0.01617511245267692 0.0 0.0
0.07839619617922995 -0.07433652733653882 0.0 0.01752696916918984 0.0 0.0
0.06815138254549591 -0.06412999913075115 0.0 0.017029716901078646 0.0 0.0
0.05790130852853258 -0.05399720792674454 0.0 0.015550455050324551 0.0 0.0
0.04824610278832536 -0.044513501748158664 0.0 0.013699077905146725 0.0 0.0
0.03948946883348306 -0.035975875662145385 0.0 0.01184536483203439 0.0 0.0
0.0317246005081869 -0.028464271636849392 0.0 0.010133508156046803 0.0 0.0
0.024905029266285603 -0.021905224168911625 0.0 0.008524385475221594 0.0 0.0
0.018932621841155947 -0.016180133688492027 0.0 0.006914828442009595 0.0 0.0
0.013763630437268337 -0.011244510405492646 0.0 0.005285833047355317 0.0 0.0
0.009439988691063186 -0.007158337557822915 0.0 0.0037476518887843546 0.0 0.0
0.006041754969781725 -0.004035708324679262 0.0 0.002415951882655461 0.0 0.0
0.003658172842752912 -0.0019970703806521206 0.0 0.0014915869428546004 0.0 0.0
0.0022576659263283463 -0.0009978302462084066 0.0 0.0011288716077263834 0.0 0.0
0.001542096109920846 -0.0006386740140971713 0.0 0.0010949055468203516 0.0 0.0
0.0010572713173088212 -0.0004123777962628929 0.0 0.0010232194027774606 0.0 0.0
0.0005828137590260286 -9.753256568361479e-05 0.0 0.001086563720078101 0.0 0.0
0.0018898978466532403 -0.0004555941129939008 0.0 0.004135337240985168 0.0 0.0
0.0034273143738805184 -0.009573366451202815 0.0 0.0031885285728230506 0.0 0.0
0.0025477573748329376 -0.007608685745329413 0.0 -0.002669644762510513 0.0 0.0
0.0013949101245348222 -0.0004074369546013764 0.0 -0.0036748551960252033 0.0 0.0
0.00042245701148921073 -7.07176982380232e-05 0.0 -0.0014439729009065921 0.0 0.0
0.0008261785683287386 -0.00029330108764552543 0.0 -0.001310679535418995 0.0 0.0
0.0012635517585586863 -0.0005230332918585602 0.0 -0.0013871908621661874 0.0 0.0
0.0018325972562604547 -0.0007830970284142945 0.0 -0.0014258252474659999 0.0 0.0
0.002902545587670391 -0.0014596236473448973 0.0 -0.0017225221362178926 0.0 0.0
0.004805582232849726 -0.0029849249598059725 0.0 -0.0025550707788227203 0.0 0.0
0.007636239509190741 -0.005528303424352328 0.0 -0.003971097268707832 0.0 0.0
0.01128983375753527 -0.0089486366714671 0.0 -0.0056746685066641584 0.0 0.0
0.01563835783416557 -0.01308223260005389 0.0 -0.00744977426675889 0.0 0.0
0.02063123375628403 -0.01785168878789206 0.0 -0.0092035607877144 0.0 0.0
0.026300094254652306 -0.02328431365722525 0.0 -0.010942024459138234 0.0 0.0
0.032742277090092024 -0.029498069847671365 0.0 -0.012770745721354209 0.0 0.0
0.04004094851044025 -0.03659309894653493 0.0 -0.0147424516619718 0.0 0.0
0.048159714674390834 -0.044548007514094726 0.0 -0.016706594918393314 0.0 0.0
0.05688482908706281 -0.053155155428814105 0.0 -0.01831158547974368 0.0 0.0
0.06579713532790728 -0.06200041648962484 0.0 -0.018998187460733545 0.0 0.0
0.07418313085942857 -0.07040763721137389 0.0 -0.017794981140970435 0.0 0.0
0.08100013257508999 -0.07734027204961225 0.0 -0.013300663103720094 0.0 0.0
0.0838671245263931 -0.0815476103894518 0.0 1.7970867849381733e-14 0.0 0.0
0.08100013257507836 -0.07734027204959748 0.0 0.013300663103761726 0.0 0.0
0.07418313085940775 -0.07040763721135355 0.0 0.017794981141009893 0.0 0.0
0.06579713532788052 -0.06200041648959555 0.0 0.01899818746075718 0.0 0.0
0.056884829087032206 -0.05315515542878244 0.0 0.01831158547975008 0.0 0.0
0.04815971467435724 -0.04454800751405813 0.0 0.01670659491838661 0.0 0.0
0.04004094851040587 -0.03659309894650234 0.0 0.014742451661963217 0.0 0.0
0.032742277090058294 -0.02949806984763651 0.0 0.01277074572134838 0.0 0.0
0.026300094254619648 -0.023284313657194647 0.0 0.010942024459129862 0.0 0.0
0.02063123375625375 -0.017851688787862415 0.0 0.009203560787702353 0.0 0.0
0.015638357834138757 -0.013082232600032148 0.0 0.007449774266743566 0.0 0.0
0.011289833757512968 -0.008948636671445197 0.0 0.00567466850665026 0.0 0.0
0.007636239509173828 -0.005528303424334763 0.0 0.003971097268698393 0.0 0.0
0.004805582232838453 -0.0029849249597968712 0.0 0.0025550707788159653 0.0 0.0
0.002902545587664343 -0.001459623647339755 0.0 0.00172252213621227 0.0 0.0
0.0018325972562579676 -0.0007830970284134793 0.0 0.0014258252474645759 0.0 0.0
0.00126355175855779 -0.0005230332918579847 0.0 0.0013871908621646294 0.0 0.0
0.0008261785683284019 -0.0002933010876456067 0.0 0.0013106795354172187 0.0 0.0
0.00042245701148902837 -7.071769823800632e-05 0.0 0.001443972900903581 0.0 0.0
0.0013949101245310392 -0.00040743695460017864 0.0 0.0036748551960170094 0.0 0.0
0.002547757374825662 -0.007608685745314331 0.0 0.0026696447625035123 0.0 0.0
0.0018611990444391043 -0.005960902320004483 0.0 -0.0021901243917248226 0.0 0.0
0.0010145909171053412 -0.0003756230490495451 0.0 -0.0032595333041281075 0.0 0.0
0.00029512846956618923 -5.901955757591522e-05 0.0 -0.0017399624207630705 0.0 0.0
0.0006110306488342577 -0.0001885227892557502 0.0 -0.0015810994417196117 0.0 0.0
0.0009906824863070087 -0.0004017889558136081 0.0 -0.0016484959274628316 0.0 0.0
0.0014402887488114708 -0.0006116229860243953 0.0 -0.001720658533860179 0.0 0.0
0.0022215424345492785 -0.0010350711392018079 0.0 -0.0019269947325712918 0.0 0.0
0.0036532219124068626 -0.0020774268055476813 0.0 -0.0026151760478155214 0.0 0.0
0.005877104902111413 -0.003983231495224915 0.0 -0.003888621411513031 0.0 0.0
0.008833033301018874 -0.006702193760844598 0.0 -0.005601605900668115 0.0 0.0
0.012362992579027074 -0.010026909565507763 0.0 -0.007427729556544391 0.0 0.0
0.016379242314037642 -0.013842123098376095 0.0 -0.00922330454834323 0.0 0.0
0.020906589052162215 -0.01815913970448964 0.0 -0.01098268943370976 0.0 0.0
0.026038641234710943 -0.02308558077536615 0.0 -0.01280768585209519 0.0 0.0
0.031874232314322744 -0.028736603332950875 0.0 -0.01474932203465264 0.0 0.0
0.03843485408976868 -0.03514779309885126 0.0 -0.016706457418573066 0.0 0.0
0.04560160063131467 -0.04219036040861443 0.0 -0.018339654502198058 0.0 0.0
0.05311467631325885 -0.04960235691695334 0.0 -0.019165755565896544 0.0 0.0
0.0605346320754641 -0.056998240808634124 0.0 -0.018302012863493974 0.0 0.0
0.06705828343530795 -0.06362827032012185 0.0 -0.01413591565001207 0.0 0.0
0.06996551689643073 -0.06826647398925853 0.0 1.7012433128904547e-14 0.0 0.0
0.06705828343529806 -0.06362827032011102 0.0 0.014135915650053926 0.0 0.0
0.06053463207544631 -0.056998240808617914 0.0 0.018302012863536523 0.0 0.0
0.05311467631323709 -0.049602356916933876 0.0 0.01916575556592154 0.0 0.0
0.04560160063129014 -0.04219036040858759 0.0 0.01833965450220205 0.0 0.0
0.038434854089741115 -0.035147793098827575 0.0 0.016706457418563105 0.0 0.0
0.031874232314295196 -0.028736603332924146 0.0 0.01474932203464363 0.0 0.0
0.02603864123468465 -0.02308558077534098 0.0 0.012807685852089194 0.0 0.0
0.020906589052136694 -0.018159139704464953 0.0 0.010982689433700753 0.0 0.0
0.01637924231401352 -0.013842123098354624 0.0 0.009223304548329947 0.0 0.0
0.012362992579005314 -0.010026909565487194 0.0 0.007427729556527866 0.0 0.0
0.008833033301001065 -0.006702193760828305 0.0 0.005601605900655159 0.0 0.0
0.00587710490209814 -0.0039832314952131555 0.0 0.003888621411504649 0.0 0.0
0.003653221912398378 -0.0020774268055416267 0.0 0.0026151760478095583 0.0 0.0
0.0022215424345449065 -0.0010350711391990649 0.0 0.0019269947325679386 0.0 0.0
0.0014402887488098588 -0.0006116229860232513 0.0 0.0017206585338593143 0.0 0.0
0.000990682486306664 -0.0004017889558126886 0.0 0.001648495927461274 0.0 0.0
0.0006110306488341761 -0.00018852278925560398 0.0 0.001581099441717308 0.0 0.0
0.000295128469565988 -5.901955757584484e-05 0.0 0.0017399624207607295 0.0 0.0
0.0010145909171024232 -0.00037562304904884697 0.0 0.0032595333041206057 0.0 0.0
0.001861199044433757 -0.005960902319992212 0.0 0.0021901243917214885 0.0 0.0
0.0013247100124853582 -0.004589208898909884 0.0 -0.0018274396712973646 0.0 0.0
0.0007164588078750728 -0.0003574066792663181 0.0 -0.002885673633000462 0.0 0.0
0.00018371468993196876 -4.655799870064373e-05 0.0 -0.0019678052536726224 0.0 0.0
0.00040741543368617064 -9.623147211553214e-05 0.0 -0.001816404003981996 0.0 0.0
0.0007172025906819757 -0.00027464254728871306 0.0 -0.001870601652575098 0.0 0.0
0.0010716307997883474 -0.0004570541398379067 0.0 -0.001990980590158351 0.0 0.0
0.0016103203609978214 -0.0007107190322988797 0.0 -0.0021346829670425248 0.0 0.0
0.00259867903365494 -0.0013360241371304354 0.0 -0.002613224831853941 0.0 0.0
0.004210244173574867 -0.002600973972661584 0.0 -0.0036138135155030417 0.0 0.0
0.006428662654630618 -0.004563594837818691 0.0 -0.00509544181721162 0.0 0.0
0.009118883417207176 -0.007048956014926224 0.0 -0.006819342662497354 0.0 0.0
0.012165249578117007 -0.00990776458326407 0.0 -0.008543075299804278 0.0 0.0
0.015564489270750909 -0.013119066733684098 0.0 -0.010225308192177159 0.0 0.0
0.019397431032122762 -0.016773009433580285 0.0 -0.011930935067294327 0.0 0.0
0.023774712194904395 -0.020986308601975447 0.0 -0.013721276875557673 0.0 0.0
0.028763622224649087 -0.025836245148563003 0.0 -0.015525006827082424 0.0 0.0
0.034325983132073384 -0.03128132947273621 0.0 -0.017083865095230626 0.0 0.0
0.04035617713231207 -0.03718002374590832 0.0 -0.017962765213685537 0.0 0.0
0.04670158244943193 -0.04342900383395481 0.0 -0.017560442411029473 0.0 0.0
0.05288843959365755 -0.04969118361894688 0.0 -0.014327393756219985 0.0 0.0
0.05584855800939106 -0.0548618586933995 0.0 1.4895636807343848e-14 0.0 0.0
0.05288843959364993 -0.049691183618937554 0.0 0.014327393756255694 0.0 0.0
0.04670158244941827 -0.04342900383394105 0.0 0.017560442411067047 0.0 0.0
0.04035617713229519 -0.03718002374589584 0.0 0.01796276521371016 0.0 0.0
0.03432598313205398 -0.03128132947272202 0.0 0.017083865095232117 0.0 0.0
0.02876362222462751 -0.025836245148539938 0.0 0.01552500682707153 0.0 0.0
0.0237747121948836 -0.020986308601956452 0.0 0.013721276875549204 0.0 0.0
0.019397431032103736 -0.016773009433561224 0.0 0.011930935067288439 0.0 0.0
0.015564489270732246 -0.013119066733668524 0.0 0.010225308192170332 0.0 0.0
0.012165249578098714 -0.009907764583246994 0.0 0.00854307529979328 0.0 0.0
0.009118883417190943 -0.007048956014910781 0.0 0.0068193426624829825 0.0 0.0
0.006428662654617723 -0.004563594837805314 0.0 0.005095441817199279 0.0 0.0
0.004210244173565648 -0.0026009739726539868 0.0 0.0036138135154952615 0.0 0.0
0.002598679033649194 -0.0013360241371258722 0.0 0.00261322483185073 0.0 0.0
0.0016103203609950918 -0.0007107190322986713 0.0 0.0021346829670405828 0.0 0.0
0.0010716307997873393 -0.0004570541398363102 0.0 0.001990980590156765 0.0 0.0
0.0007172025906814447 -0.00027464254728883097 0.0 0.0018706016525732562 0.0 0.0
0.00040741543368587633 -9.623147211530466e-05 0.0 0.0018164040039794975 0.0 0.0
0.00018371468993173164 -4.655799870017113e-05 0.0 0.001967805253670598 0.0 0.0
0.0007164588078731342 -0.00035740667926613347 0.0 0.0028856736329940427 0.0 0.0
0.0013247100124817361 -0.004589208898900568 0.0 0.0018274396712947996 0.0 0.0
0.0009271564233296755 -0.0034946341845035096 0.0 -0.0016166640837147759 0.0 0.0
0.00048424076919013773 -0.00035334191449998655 0.0 -0.0025666717673259866 0.0 0.0
7.40074322510418e-05 -2.3422208350930903e-05 0.0 -0.0021316110255757497 0.0 0.0
0.0002130328994842617 -1.3423541619761595e-05 0.0 -0.0020049912571564487 0.0 0.0
0.0004425681932319148 -0.00014663033831087917 0.0 -0.0020476807050110353 0.0 0.0
0.0007058930376095041 -0.00029525417860023476 0.0 -0.0021998473030921824 0.0 0.0
0.0010563422345425105 -0.0004592191399267505 0.0 -0.002368744226511202 0.0 0.0
0.001654485197011077 -0.0007752905822134412 0.0 -0.0026294418867771545 0.0 0.0
0.0026670361559013645 -0.0014564640191836416 0.0 -0.0032452849003908857 0.0 0.0
0.004127920776396466 -0.002637099493388498 0.0 -0.004281499261534113 0.0 0.0
0.005944212520774113 -0.004232535193155708 0.0 -0.005657647290235736 0.0 0.0
0.00800649704864439 -0.006112955831557935 0.0 -0.007134959499191532 0.0 0.0
0.010286235980728104 -0.008217839050760144 0.0 -0.008635100564789428 0.0 0.0
0.012840100431166828 -0.010615307811064695 0.0 -0.010139504420376016 0.0 0.0
0.015767574540041917 -0.013400994902049265 0.0 -0.011668056239840519 0.0 0.0
0.019169558018904322 -0.016675546780551356 0.0 -0.013218472791770118 0.0 0.0
0.0230999099638038 -0.02048680467595749 0.0 -0.014629549999237372 0.0 0.0
0.027558070382679673 -0.024813462567582413 0.0 -0.015511411763481728 0.0 0.0
0.032636129819986905 -0.02972106387709922 0.0 -0.015426349293205882 0.0 0.0
0.03834429230495174 -0.035389997926919936 0.0 -0.013605542994878796 0.0 0.0
0.04133299162622268 -0.04116515685312476 0.0 1.2816137040516651e-14 0.0 0.0
0.03834429230494684 -0.035389997926912956 0.0 0.013605542994911062 0.0 0.0
0.032636129819977384 -0.029721063877086083 0.0 0.015426349293240854 0.0 0.0
0.027558070382667433 -0.02481346256757115 0.0 0.015511411763501036 0.0 0.0
0.023099909963790327 -0.020486804675951206 0.0 0.0146295499992368 0.0 0.0
0.019169558018889976 -0.01667554678053189 0.0 0.01321847279176223 0.0 0.0
0.01576757454002864 -0.013400994902033071 0.0 0.01166805623983538 0.0 0.0
0.012840100431155166 -0.010615307811052263 0.0 0.010139504420372683 0.0 0.0
0.01028623598071656 -0.008217839050752072 0.0 0.008635100564783196 0.0 0.0
0.008006497048632703 -0.006112955831548121 0.0 0.0071349594991811285 0.0 0.0
0.0059442125207631365 -0.004232535193147423 0.0 0.005657647290222385 0.0 0.0
0.004127920776388227 -0.0026370994933816957 0.0 0.004281499261525563 0.0 0.0
0.002667036155896189 -0.001456464019177159 0.0 0.0032452849003861764 0.0 0.0
0.0016544851970078055 -0.0007752905822122934 0.0 0.0026294418867743854 0.0 0.0
0.0010563422345408469 -0.00045921913992773625 0.0 0.0023687442265088875 0.0 0.0
0.0007058930376090476 -0.00029525417860017784 0.0 0.0021998473030899446 0.0 0.0
0.0004425681932317849 -0.00014663033831100112 0.0 0.0020476807050094263 0.0 0.0
0.0002130328994840359 -1.3423541619180722e-05 0.0 0.002004991257154577 0.0 0.0
7.400743225072633e-05 -2.342220835081246e-05 0.0 0.00213161102557359 0.0 0.0
0.0004842407691887545 -0.0003533419145000373 0.0 0.002566671767322548 0.0 0.0
0.0009271564233272202 -0.003494634184496873 0.0 0.0016166640837131422 0.0 0.0
0.0006514824569182878 -0.0026578524542837153 0.0 -0.0015049722861931424 0.0 0.0
0.00030938209001837326 -0.00036286795501178597 0.0 -0.002337481420686846 0.0 0.0
-3.604500413501309e-05 1.181017851907484e-05 0.0 -0.002234722560670751 0.0 0.0
2.5643123039331583e-05 6.269047231691735e-05 0.0 -0.002141010858386515 0.0 0.0
0.00017002868038287102 -2.0849108966290763e-05 0.0 -0.0021741837981833468 0.0 0.0
0.0003324073723161946 -0.00012413796630745592 0.0 -0.0023327160743394698 0.0 0.0
0.0005252120203521184 -0.0002260061431047456 0.0 -0.0025526223726763772 0.0 0.0
0.0008098348796878581 -0.00036034789528391846 0.0 -0.002751430517912266 0.0 0.0
0.0012776999013520004 -0.0006195405890165818 0.0 -0.003014451701649502 0.0 0.0
0.00198146543082025 -0.001104267812811996 0.0 -0.0035066971283916762 0.0 0.0
0.002892851645033764 -0.0018097456305823842 0.0 -0.0043123532008666554 0.0 0.0
0.00393870924465704 -0.0026811418143392004 0.0 -0.005357217700597103 0.0 0.0
0.005086164079337454 -0.0036597262893553304 0.0 -0.006524244458609404 0.0 0.0
0.006373378634667835 -0.004794695013859034 0.0 -0.007767432127012893 0.0 0.0
0.0078651628657936 -0.006153115434886895 0.0 -0.00908775282443792 0.0 0.0
0.00966727338209218 -0.007828586979258844 0.0 -0.010491766183826677 0.0 0.0
0.011924517814140504 -0.009955824295704945 0.0 -0.011872316715073081 0.0 0.0
0.014779570033279817 -0.012675191621788642 0.0 -0.012857436830554434 0.0 0.0
0.018394365033754276 -0.016124543256797377 0.0 -0.012873858965215975 0.0 0.0
0.023275883227586423 -0.020715182126647854 0.0 -0.011855930601246588 0.0 0.0
0.026135698307388676 -0.026982797823309652 0.0 1.0382753684590185e-14 0.0 0.0
0.0232758832275842 -0.020715182126645804 0.0 0.01185593060127342 0.0 0.0
0.018394365033749156 -0.016124543256788887 0.0 0.012873858965242974 0.0 0.0
0.014779570033272748 -0.01267519162178512 0.0 0.012857436830565533 0.0 0.0
0.011924517814133761 -0.00995582429569859 0.0 0.011872316715069858 0.0 0.0
0.00966727338208555 -0.007828586979250667 0.0 0.010491766183818762 0.0 0.0
0.007865162865787622 -0.006153115434879281 0.0 0.009087752824433989 0.0 0.0
0.006373378634663316 -0.0047946950138583145 0.0 0.007767432127009349 0.0 0.0
0.005086164079332533 -0.003659726289351371 0.0 0.006524244458601983 0.0 0.0
0.003938709244651619 -0.0026811418143356364 0.0 0.005357217700587718 0.0 0.0
0.0028928516450292237 -0.0018097456305792834 0.0 0.004312353200858177 0.0 0.0
0.0019814654308170213 -0.0011042678128130713 0.0 0.0035066971283882293 0.0 0.0
0.001277699901349879 -0.0006195405890151764 0.0 0.0030144517016472217 0.0 0.0
0.0008098348796866082 -0.00036034789528289747 0.0 0.0027514305179091912 0.0 0.0
0.0005252120203515737 -0.00022600614310567984 0.0 0.0025526223726748164 0.0 0.0
0.0003324073723161499 -0.00012413796630958708 0.0 0.0023327160743365494 0.0 0.0
0.00017002868038292076 -2.084910896675915e-05 0.0 0.002174183798181889 0.0 0.0
2.5643123039159958e-05 6.269047231695527e-05 0.0 0.002141010858384345 0.0 0.0
-3.604500413529268e-05 1.181017851909715e-05 0.0 0.0022347225606694295 0.0 0.0
0.000309382090017528 -0.0003628679550116982 0.0 0.002337481420684983 0.0 0.0
0.0006514824569168558 -0.0026578524542792722 0.0 0.0015049722861924437 0.0 0.0
0.00045739778630670845 -0.0020397465091946472 0.0 -0.0014421375542799197 0.0 0.0
0.0001779610836949588 -0.00036764921272758447 0.0 -0.0021785931716162125 0.0 0.0
-0.00014066211511135063 5.074808639527018e-05 0.0 -0.002284419997581502 0.0 0.0
-0.00015527174640208634 0.00013503106597364075 0.0 -0.0022216975093438387 0.0 0.0
-9.799196530893095e-05 0.00010127832923263524 0.0 -0.0022441648751490525 0.0 0.0
-4.470412818427171e-05 4.898721794754568e-05 0.0 -0.00239054923314745 0.0 0.0
-1.5184511081113474e-05 1.3454569566153105e-05 0.0 -0.0026222811911929553 0.0 0.0
-3.565431790229545e-06 2.523783901597222e-06 0.0 -0.0028464429876459384 0.0 0.0
-1.1835316940099244e-07 -2.7306507523748477e-07 0.0 -0.002978335752089029 0.0 0.0
5.931279054532501e-07 -2.5375646818377403e-07 0.0 -0.0031890136123861796 0.0 0.0
2.877328450732195e-07 -9.733641048456176e-07 0.0 -0.003654328050460435 0.0 0.0
-3.573671180979543e-06 2.834754672238879e-06 0.0 -0.004442583998564082 0.0 0.0
-1.4840005832232714e-05 1.2528451541667378e-05 0.0 -0.0054024352906634045 0.0 0.0
-2.7957356115589278e-05 2.70141119557163e-05 0.0 -0.006507600348077668 0.0 0.0
-2.7329383316394666e-06 1.5032658537973448e-05 0.0 -0.007775908063749344 0.0 0.0
0.00017862283139590397 -0.00012197860294737694 0.0 -0.009202872320894942 0.0 0.0
0.0007505193204640607 -0.0005878375138175229 0.0 -0.010736820508878973 0.0 0.0
0.002022636941783759 -0.0016791483712885434 0.0 -0.012210538208546633 0.0 0.0
0.004217275868400218 -0.003566203504370232 0.0 -0.013315012191771893 0.0 0.0
0.007797621853182039 -0.0064456542804985075 0.0 -0.013667290476182214 0.0 0.0
0.010034223156522254 -0.013082095957553809 0.0 8.984132882083884e-15 0.0 0.0
0.007797621853181952 -0.0064456542805021695 0.0 0.01366729047619998 0.0 0.0
0.004217275868398529 -0.003566203504367746 0.0 0.013315012191784412 0.0 0.0
0.00202263694178245 -0.0016791483712853112 0.0 0.012210538208549539 0.0 0.0
0.0007505193204649048 -0.0005878375138166515 0.0 0.010736820508874381 0.0 0.0
0.00017862283139760302 -0.00012197860295281562 0.0 0.009202872320887606 0.0 0.0
-2.7329383300505683e-06 1.5032658535812525e-05 0.0 0.007775908063745115 0.0 0.0
-2.7957356113547617e-05 2.701411195475266e-05 0.0 0.006507600348073392 0.0 0.0
-1.4840005829747614e-05 1.2528451536728132e-05 0.0 0.0054024352906556754 0.0 0.0
-3.5736711789823884e-06 2.8347546719116395e-06 0.0 0.0044425839985555785 0.0 0.0
2.877328466187497e-07 -9.733641087155282e-07 0.0 0.0036543280504542936 0.0 0.0
5.931279068642037e-07 -2.5375647053711616e-07 0.0 0.0031890136123834045 0.0 0.0
-1.1835316876081172e-07 -2.7306507575195225e-07 0.0 0.002978335752088314 0.0 0.0
-3.5654317898453853e-06 2.5237839032466255e-06 0.0 0.002846442987643896 0.0 0.0
-1.5184511080826432e-05 1.345456956440903e-05 0.0 0.002622281191190474 0.0 0.0
-4.470412818403968e-05 4.8987217946455775e-05 0.0 0.0023905492331443606 0.0 0.0
-9.799196530854422e-05 0.00010127832923195824 0.0 0.0022441648751470615 0.0 0.0
-0.00015527174640209645 0.00013503106597418914 0.0 0.0022216975093411273 0.0 0.0
-0.00014066211511141172 5.0748086395918065e-05 0.0 0.0022844199975805128 0.0 0.0
0.00017796108369469427 -0.00036764921272781963 0.0 0.0021785931716143277 0.0 0.0
0.0004573977863060123 -0.0020397465091918396 0.0 0.0014421375542788318 0.0 0.0
0.0003250692302063694 -0.0015776475373181589 0.0 -0.0013735331112817687 0.0 0.0
8.074715750224179e-05 -0.0003524836913279953 0.0 -0.002039949654606467 0.0 0.0
-0.00023810579015834317 8.705703400594002e-05 0.0 -0.0022850139362931457 0.0 0.0
-0.0003287738080184161 0.00020458287155128497 0.0 -0.002246059273646147 0.0 0.0
-0.0003598630402174636 0.00021811645426998266 0.0 -0.002253578006323368 0.0 0.0
-0.0004179929106448751 0.00022035610535449255 0.0 -0.00237340439897544 0.0 0.0
-0.0005546975247609052 0.000252643888936843 0.0 -0.002570934296117599 0.0 0.0
-0.0008171558717484657 0.00036538580516678874 0.0 -0.00275848270311095 0.0 0.0
-0.0012776807711382546 0.0006188813911761751 0.0 -0.00301710366950644 0.0 0.0
-0.0019795796398723734 0.001102873086819806 0.0 -0.003505373923641065 0.0 0.0
-0.0028919716881942743 0.0018085618627850333 0.0 -0.004308261321308426 0.0 0.0
-0.003946952130340558 0.0026879851838164767 0.0 -0.005354891330158746 0.0 0.0
-0.005117065938736388 0.003687021947204947 0.0 -0.0065188994034248654 0.0 0.0
-0.006428281864428339 0.004850895185300218 0.0 -0.0077569828801188605 0.0 0.0
-0.007866629881467373 0.006184300567863486 0.0 -0.009095463628702094 0.0 0.0
-0.009315635589576883 0.007581877147490753 0.0 -0.010618303534963618 0.0 0.0
-0.010507753601510373 0.008784852898744002 0.0 -0.012392860301788704 0.0 0.0
-0.011042798546588281 0.009382653284844783 0.0 -0.014487949279186594 0.0 0.0
-0.01046041166564349 0.009010708679741835 0.0 -0.016806864377412398 0.0 0.0
-0.007367006820397858 0.006785841697797746 0.0 -0.017790195821269904 0.0 0.0
-0.004903569474780888 -0.0005498835552980242 0.0 1.1017228795928702e-14 0.0 0.0
-0.007367006820398312 0.006785841697797983 0.0 0.01779019582128812 0.0 0.0
-0.010460411665640606 0.009010708679744201 0.0 0.016806864377425228 0.0 0.0
-0.011042798546581 0.009382653284841941 0.0 0.014487949279189938 0.0 0.0
-0.010507753601500512 0.00878485289873269 0.0 0.01239286030178224 0.0 0.0
-0.009315635589566986 0.007581877147479505 0.0 0.010618303534955412 0.0 0.0
-0.007866629881458689 0.006184300567859795 0.0 0.00909546362869379 0.0 0.0
-0.006428281864419454 0.004850895185291861 0.0 0.0077569828801124854 0.0 0.0
-0.005117065938726569 0.0036870219471907793 0.0 0.006518899403417842 0.0 0.0
-0.003946952130331043 0.0026879851838106515 0.0 0.005354891330147319 0.0 0.0
-0.002891971688186038 0.0018085618627756497 0.0 0.004308261321299108 0.0 0.0
-0.0019795796398663964 0.0011028730868161642 0.0 0.0035053739236355647 0.0 0.0
-0.0012776807711348144 0.000618881391174813 0.0 0.00301710366950329 0.0 0.0
-0.0008171558717464323 0.0003653858051661821 0.0 0.002758482703108998 0.0 0.0
-0.0005546975247597893 0.0002526438889374848 0.0 0.0025709342961146115 0.0 0.0
-0.0004179929106441628 0.00022035610535445737 0.0 0.0023734043989728647 0.0 0.0
-0.000359863040216755 0.0002181164542691134 0.0 0.002253578006321693 0.0 0.0
-0.000328773808018165 0.0002045828715514949 0.0 0.0022460592736432885 0.0 0.0
-0.00023810579015829091 8.705703400665023e-05 0.0 0.00228501393629104 0.0 0.0
8.074715750219986e-05 -0.0003524836913281001 0.0 0.0020399496546046666 0.0 0.0
0.0003250692302061365 -0.0015776475373160763 0.0 0.0013735331112797707 0.0 0.0
0.00022739794453678527 -0.001199485925964356 0.0 -0.0012556145991660817 0.0 0.0
3.843405206108285e-06 -0.00031969467728645 0.0 -0.0018960573334178537 0.0 0.0
-0.00032847893576203784 0.0001211910876357354 0.0 -0.0022340259678542856 0.0 0.0
-0.0004940568424975414 0.00027029031020231855 0.0 -0.002213962458523756 0.0 0.0
-0.0006138149760373283 0.0003289119310299875 0.0 -0.0021993120615069264 0.0 0.0
-0.0007825044986774679 0.0003847804320850412 0.0 -0.002277990776902948 0.0 0.0
-0.0010829332296595803 0.000486251319780736 0.0 -0.002405480978885899 0.0 0.0
-0.0016604314400498112 0.000780100847007244 0.0 -0.0026446741410642706 0.0 0.0
-0.0026659932232283405 0.0014546150946860579 0.0 -0.003246873450940096 0.0 0.0
-0.004125415186951324 0.0026345416579759006 0.0 -0.00427731715454476 0.0 0.0
-0.005944273895829497 0.004232919091042726 0.0 -0.005654839656594927 0.0 0.0
-0.008014649274983989 0.006120894022263836 0.0 -0.007132748041389858 0.0 0.0
-0.010313197922738285 0.008243880629700839 0.0 -0.008614186231123044 0.0 0.0
-0.012888455853747954 0.01066656795560899 0.0 -0.010082317964758088 0.0 0.0
-0.015769451167503216 0.013429906687728147 0.0 -0.01162520502891789 0.0 0.0
-0.01885250948588594 0.016450308985184996 0.0 -0.013443450263599558 0.0 0.0
-0.021826396608612582 0.019421306406196544 0.0 -0.015766072141959887 0.0 0.0
-0.024165328446678038 0.021812609015184697 0.0 -0.018705429189120434 0.0 0.0
-0.024868920872119213 0.02273227805448289 0.0 -0.0216702811437124 0.0 0.0
-0.022063703864864108 0.02027063239433495 0.0 -0.022283103484355114 0.0 0.0
-0.019486899259817336 0.011093222285445747 0.0 1.275108491016752e-14 0.0 0.0
-0.022063703864863192 0.020270632394337355 0.0 0.022283103484384146 0.0 0.0
-0.024868920872112434 0.022732278054482778 0.0 0.02167028114373759 0.0 0.0
-0.024165328446664764 0.0218126090151715 0.0 0.018705429189129152 0.0 0.0
-0.02182639660859524 0.019421306406178736 0.0 0.015766072141954194 0.0 0.0
-0.018852509485868682 0.01645030898516915 0.0 0.013443450263590485 0.0 0.0
-0.015769451167487455 0.013429906687718044 0.0 0.011625205028908731 0.0 0.0
-0.012888455853731457 0.010666567955592496 0.0 0.010082317964749557 0.0 0.0
-0.010313197922721564 0.008243880629681836 0.0 0.008614186231113116 0.0 0.0
-0.008014649274967811 0.006120894022248892 0.0 0.0071327480413763845 0.0 0.0
-0.005944273895815018 0.0042329190910285735 0.0 0.005654839656580019 0.0 0.0
-0.0041254151869405415 0.00263454165796407 0.0 0.004277317154535007 0.0 0.0
-0.00266599322322121 0.0014546150946809725 0.0 0.00324687345093556 0.0 0.0
-0.001660431440045593 0.0007801008470051534 0.0 0.00264467414106258 0.0 0.0
-0.0010829332296574412 0.00048625131978116123 0.0 0.0024054809788824727 0.0 0.0
-0.0007825044986762239 0.0003847804320863303 0.0 0.0022779907769005106 0.0 0.0
-0.000613814976036593 0.0003289119310297398 0.0 0.0021993120615051666 0.0 0.0
-0.000494056842497177 0.0002702903102013937 0.0 0.002213962458522209 0.0 0.0
-0.00032847893576174256 0.00012119108763589381 0.0 0.002234025967852205 0.0 0.0
3.8434052059389255e-06 -0.000319694677286349 0.0 0.0018960573334159238 0.0 0.0
0.00022739794453627242 -0.00119948592596263 0.0 0.0012556145991643511 0.0 0.0
0.00014486533511861546 -0.0008778795341598373 0.0 -0.0011050623861490918 0.0 0.0
-6.359118579169271e-05 -0.00027231822022669475 0.0 -0.0017321740746255184 0.0 0.0
-0.0004130139510850851 0.000154511552586792 0.0 -0.002130940683949312 0.0 0.0
-0.0006507452100303429 0.0003316161965999198 0.0 -0.002125943850328295 0.0 0.0
-0.0008575156603616099 0.00043231417148164957 0.0 -0.002085765217967993 0.0 0.0
-0.0011334848730649696 0.0005369141248359371 0.0 -0.002097917807772662 0.0 0.0
-0.0016330363515130388 0.0007392323634747231 0.0 -0.002189651661483183 0.0 0.0
-0.0026025096998394067 0.001338545468353406 0.0 -0.0026302392086503265 0.0 0.0
-0.004207044726399086 0.002596954089611521 0.0 -0.003610982106251822 0.0 0.0
-0.006426594738344727 0.0045613359331299515 0.0 -0.005090180940560186 0.0 0.0
-0.009120308872389989 0.007051141201551972 0.0 -0.006818240421585161 0.0 0.0
-0.012171535707950014 0.009914909105497537 0.0 -0.00853920326893343 0.0 0.0
-0.01558011050878852 0.013134833531017694 0.0 -0.010189413051704914 0.0 0.0
-0.019424833367245733 0.016801218874976986 0.0 -0.011818772314703137 0.0 0.0
-0.023771342317123245 0.02100018104923837 0.0 -0.013579040184675683 0.0 0.0
-0.028535395364171746 0.025678185045403815 0.0 -0.015754476315348744 0.0 0.0
-0.033355184742260985 0.03049205522920441 0.0 -0.01876307913982214 0.0 0.0
-0.03742182222339623 0.0346826431473385 0.0 -0.02269464652629398 0.0 0.0
-0.03923376587093853 0.03676663355166514 0.0 -0.02645808875162254 0.0 0.0
-0.03608338035458664 0.03423166207850949 0.0 -0.027682061223876283 0.0 0.0
-0.032830004782241136 0.022369663005324746 0.0 1.4580350815585064e-14 0.0 0.0
-0.03608338035458373 0.034231662078506364 0.0 0.02768206122391058 0.0 0.0
-0.03923376587092819 0.03676663355165486 0.0 0.02645808875165729 0.0 0.0
-0.037421822223377484 0.03468264314731903 0.0 0.02269464652630947 0.0 0.0
-0.03335518474223756 0.030492055229180894 0.0 0.018763079139818492 0.0 0.0
-0.02853539536414735 0.025678185045382298 0.0 0.015754476315337156 0.0 0.0
-0.023771342317099826 0.02100018104921981 0.0 0.013579040184665922 0.0 0.0
-0.019424833367222626 0.01680121887495358 0.0 0.011818772314693046 0.0 0.0
-0.015580110508765208 0.013134833530995288 0.0 0.010189413051692544 0.0 0.0
-0.012171535707927183 0.009914909105473926 0.0 0.008539203268918473 0.0 0.0
-0.009120308872369306 0.007051141201533228 0.0 0.00681824042156777 0.0 0.0
-0.006426594738328695 0.004561335933113749 0.0 0.005090180940549358 0.0 0.0
-0.004207044726388323 0.002596954089601692 0.0 0.0036109821062456585 0.0 0.0
-0.0026025096998329132 0.0013385454683470452 0.0 0.0026302392086468224 0.0 0.0
-0.0016330363515098087 0.000739232363473616 0.0 0.0021896516614807538 0.0 0.0
-0.0011334848730633895 0.0005369141248361403 0.0 0.0020979178077716446 0.0 0.0
-0.0008575156603606407 0.0004323141714815033 0.0 0.0020857652179662113 0.0 0.0
-0.000650745210029801 0.0003316161965996938 0.0 0.002125943850327789 0.0 0.0
-0.0004130139510847352 0.0001545115525858482 0.0 0.002130940683948029 0.0 0.0
-6.359118579147469e-05 -0.0002723182202265522 0.0 0.0017321740746246601 0.0 0.0
0.00014486533511872852 -0.0008778795341586111 0.0 0.0011050623861488535 0.0 0.0
7.191371566019956e-05 -0.0006073736531787075 0.0 -0.0009435709200069757 0.0 0.0
-0.00012577379711345353 -0.0002137171251911751 0.0 -0.0015428413270811919 0.0 0.0
-0.0004936510349407075 0.00018833330479079853 0.0 -0.001976216451577585 0.0 0.0
-0.0007996886254896016 0.0003886409361356259 0.0 -0.0019826959709694516 0.0 0.0
-0.001087646353879136 0.0005254947285922206 0.0 -0.0019103438374345185 0.0 0.0
-0.0014844893009154357 0.0006807324997233014 0.0 -0.001847254675850334 0.0 0.0
-0.0022381817465580334 0.0010613275338824933 0.0 -0.001988175802020869 0.0 0.0
-0.0036522827409075573 0.0020754212314019107 0.0 -0.002626139343384194 0.0 0.0
-0.005873251984973265 0.003978122358661828 0.0 -0.003881986652268748 0.0 0.0
-0.008832443139773513 0.006701543120055397 0.0 -0.005596788024229171 0.0 0.0
-0.012365752851361623 0.010030798023385731 0.0 -0.007427500661288769 0.0 0.0
-0.016382066113853726 0.013847307991081276 0.0 -0.009217648957746023 0.0 0.0
-0.02090436674605695 0.018159375955464213 0.0 -0.010936626985927414 0.0 0.0
-0.026029599271818117 0.023075599186617144 0.0 -0.012656288811092086 0.0 0.0
-0.03185510108690233 0.028718620608515724 0.0 -0.01451753323764547 0.0 0.0
-0.0383289623112093 0.0350794732657406 0.0 -0.016873623792987662 0.0 0.0
-0.045003416899984404 0.04176284407395172 0.0 -0.020223251801611653 0.0 0.0
-0.05074202792850641 0.04769394641706681 0.0 -0.02468853775195183 0.0 0.0
-0.05344203293792998 0.050814277188568215 0.0 -0.02924498079600764 0.0 0.0
-0.04960859702815951 0.04777125809449768 0.0 -0.03129138073728306 0.0 0.0
-0.04551697094597958 0.033281911128209475 0.0 1.5231739480814355e-14 0.0 0.0
-0.049608597028153685 0.04777125809448671 0.0 0.03129138073731909 0.0 0.0
-0.05344203293791566 0.0508142771885552 0.0 0.02924498079604536 0.0 0.0
-0.0507420279284832 0.04769394641704235 0.0 0.0246885377519699 0.0 0.0
-0.04500341689995514 0.041762844073923354 0.0 0.02022325180160953 0.0 0.0
-0.03832896231117835 0.03507947326571065 0.0 0.016873623792979082 0.0 0.0
-0.031855101086871736 0.028718620608485144 0.0 0.014517533237633967 0.0 0.0
-0.02602959927178796 0.02307559918658926 0.0 0.012656288811081334 0.0 0.0
-0.020904366746027074 0.018159375955435954 0.0 0.010936626985915923 0.0 0.0
-0.016382066113824537 0.01384730799105121 0.0 0.009217648957730439 0.0 0.0
-0.012365752851335359 0.010030798023361348 0.0 0.007427500661271368 0.0 0.0
-0.008832443139752509 0.00670154312003625 0.0 0.005596788024214435 0.0 0.0
-0.005873251984958065 0.0039781223586487675 0.0 0.0038819866522580154 0.0 0.0
-0.0036522827408979617 0.002075421231395131 0.0 0.0026261393433781176 0.0 0.0
-0.0022381817465531276 0.001061327533879336 0.0 0.001988175802019342 0.0 0.0
-0.001484489300913339 0.0006807324997202956 0.0 0.0018472546758490655 0.0 0.0
-0.0010876463538782469 0.0005254947285928599 0.0 0.0019103438374327444 0.0 0.0
-0.0007996886254889713 0.0003886409361353511 0.0 0.0019826959709687703 0.0 0.0
-0.0004936510349401081 0.00018833330479025754 0.0 0.001976216451575715 0.0 0.0
-0.00012577379711337685 -0.00021371712519094711 0.0 0.00154284132707957 0.0 0.0
7.191371565981192e-05 -0.0006073736531779795 0.0 0.0009435709200065788 0.0 0.0
7.589046260302751e-06 -0.0003855978670559721 0.0 -0.0007772395450941646 0.0 0.0
-0.00018353880661589118 -0.0001484901322580349 0.0 -0.0013290867409739635 0.0 0.0
-0.0005712477124666688 0.00022343523573306942 0.0 -0.0017705719839075807 0.0 0.0
-0.0009400121545565041 0.0004411912421177559 0.0 -0.0017842732842067418 0.0 0.0
-0.0013071206004499865 0.0006076969338984732 0.0 -0.0016732885831730498 0.0 0.0
-0.001854163435742484 0.0008395962080469056 0.0 -0.0015670240848583937 0.0 0.0
-0.002911350724992412 0.0014781207256805986 0.0 -0.0017733951337940972 0.0 0.0
-0.004802290567557434 0.0029793579447531015 0.0 -0.0025582540860457047 0.0 0.0
-0.007633189185114152 0.005524392725881742 0.0 -0.00396301104132653 0.0 0.0
-0.01129117070688296 0.008950052291685023 0.0 -0.005671094029588483 0.0 0.0
-0.015641847644348443 0.013087108575648319 0.0 -0.007449560846172324 0.0 0.0
-0.020629360260406286 0.017853626921260343 0.0 -0.009195033746118703 0.0 0.0
-0.02627677601063242 0.023266647705327888 0.0 -0.010890166628610741 0.0 0.0
-0.03268827275860302 0.029443265102981044 0.0 -0.01261034280874256 0.0 0.0
-0.03999176333990135 0.03652844330861035 0.0 -0.014477604661108272 0.0 0.0
-0.04815433624721673 0.04454751844532136 0.0 -0.0167531419350104 0.0 0.0
-0.056639768650278643 0.05306003107928056 0.0 -0.019964161258355716 0.0 0.0
-0.06398926095019292 0.060689602349076194 0.0 -0.024506671176219536 0.0 0.0
-0.06747144044445781 0.06474465271985663 0.0 -0.029710080071885678 0.0 0.0
-0.0629342652925023 0.06112459772557066 0.0 -0.03356261170342081 0.0 0.0
-0.058051922781527404 0.04420330501598852 0.0 1.5037450451504952e-14 0.0 0.0
-0.06293426529249375 0.06112459772556285 0.0 0.03356261170345929 0.0 0.0
-0.06747144044443928 0.06474465271984106 0.0 0.0297100800719231 0.0 0.0
-0.06398926095016501 0.06068960234904311 0.0 0.02450667117623861 0.0 0.0
-0.05663976865024449 0.05306003107924961 0.0 0.019964161258356206 0.0 0.0
-0.04815433624717949 0.04454751844528639 0.0 0.016753141935003373 0.0 0.0
-0.03999176333986365 0.03652844330857389 0.0 0.014477604661100776 0.0 0.0
-0.03268827275856578 0.029443265102948583 0.0 0.012610342808732558 0.0 0.0
-0.026276776010595904 0.023266647705295313 0.0 0.010890166628598014 0.0 0.0
-0.020629360260370936 0.017853626921223487 0.0 0.009195033746104779 0.0 0.0
-0.01564184764431689 0.013087108575616036 0.0 0.007449560846156916 0.0 0.0
-0.01129117070685759 0.00895005229166062 0.0 0.005671094029572971 0.0 0.0
-0.007633189185095025 0.00552439272586422 0.0 0.0039630110413163624 0.0 0.0
-0.004802290567544401 0.0029793579447451434 0.0 0.002558254086038219 0.0 0.0
-0.0029113507249852893 0.0014781207256746689 0.0 0.0017733951337915881 0.0 0.0
-0.0018541634357396959 0.0008395962080443005 0.0 0.0015670240848573527 0.0 0.0
-0.00130712060044875 0.0006076969338996029 0.0 0.0016732885831720731 0.0 0.0
-0.0009400121545556936 0.00044119124211655484 0.0 0.0017842732842054173 0.0 0.0
-0.0005712477124663431 0.00022343523573346413 0.0 0.0017705719839054236 0.0 0.0
-0.00018353880661553334 -0.00014849013225805508 0.0 0.0013290867409727126 0.0 0.0
7.589046260669191e-06 -0.000385597867055611 0.0 0.0007772395450935949 0.0 0.0
-4.698750466745019e-05 -0.00021199877221302228 0.0 -0.0006086737818090705 0.0 0.0
-0.0002356948475206455 -8.131311347556395e-05 0.0 -0.0010930600739005245 0.0 0.0
-0.0006455182301162199 0.0002593785284874908 0.0 -0.0015153660210562962 0.0 0.0
-0.001072901768685021 0.0004893060962506169 0.0 -0.0015305329314645097 0.0 0.0
-0.0015265889038660648 0.000682147995558101 0.0 -0.001383633188465592 0.0 0.0
-0.0022544414529361173 0.0010355261622383444 0.0 -0.0012653573711872714 0.0 0.0
-0.003656967539752057 0.0020041601683322076 0.0 -0.0015274956313495874 0.0 0.0
-0.006038169979766526 0.004030775403178373 0.0 -0.0024122021684968983 0.0 0.0
-0.009439727852122564 0.007157430633703221 0.0 -0.0037404027061286186 0.0 0.0
-0.013766771651372627 0.01124778181130124 0.0 -0.005283933526652802 0.0 0.0
-0.01893570504564305 0.016184919120949937 0.0 -0.006914521734647867 0.0 0.0
-0.02489699913608462 0.02190217622817263 0.0 -0.008512241219662925 0.0 0.0
-0.03168138724365024 0.02842925386444426 0.0 -0.010080232295256852 0.0 0.0
-0.0393936693449944 0.03588189562747735 0.0 -0.01170776821497163 0.0 0.0
-0.04814783596348134 0.04439408266784786 0.0 -0.013473780200200628 0.0 0.0
-0.05791920698907023 0.05399111599147066 0.0 -0.015468147973453639 0.0 0.0
-0.06813422755199491 0.06422572375628731 0.0 -0.018081402063612806 0.0 0.0
-0.07704788211864833 0.07350286254262199 0.0 -0.02212741998753952 0.0 0.0
-0.08137078901270989 0.0785566957868389 0.0 -0.02794726507647075 0.0 0.0
-0.07633566038154911 0.07458593947315097 0.0 -0.03478327302290371 0.0 0.0
-0.0707983131499124 0.05548548607591336 0.0 1.6726203755368374e-14 0.0 0.0
-0.0763356603815382 0.074585939473144 0.0 0.034783273022939265 0.0 0.0
-0.08137078901268735 0.07855669578682258 0.0 0.027947265076504565 0.0 0.0
-0.07704788211861555 0.073502862542585 0.0 0.02212741998755767 0.0 0.0
-0.06813422755195565 0.06422572375624913 0.0 0.018081402063615467 0.0 0.0
-0.05791920698902697 0.053991115991428695 0.0 0.015468147973448108 0.0 0.0
-0.04814783596343679 0.044394082667807006 0.0 0.013473780200193554 0.0 0.0
-0.039393669344950935 0.03588189562743584 0.0 0.011707768214961453 0.0 0.0
-0.03168138724360723 0.02842925386440137 0.0 0.010080232295245347 0.0 0.0
-0.024896999136042795 0.02190217622813362 0.0 0.008512241219648276 0.0 0.0
-0.01893570504560602 0.016184919120912838 0.0 0.006914521734633878 0.0 0.0
-0.013766771651342512 0.011247781811270141 0.0 0.005283933526639495 0.0 0.0
-0.00943972785209958 0.007157430633683232 0.0 0.0037404027061200325 0.0 0.0
-0.006038169979750525 0.004030775403162858 0.0 0.002412202168490417 0.0 0.0
-0.0036569675397428265 0.00200416016832605 0.0 0.0015274956313454352 0.0 0.0
-0.0022544414529320337 0.0010355261622357775 0.0 0.0012653573711857234 0.0 0.0
-0.0015265889038645678 0.0006821479955560105 0.0 0.0013836331884650162 0.0 0.0
-0.0010729017686842274 0.0004893060962506792 0.0 0.001530532931463805 0.0 0.0
-0.0006455182301155228 0.0002593785284874909 0.0 0.0015153660210558853 0.0 0.0
-0.00023569484752023238 -8.131311347554942e-05 0.0 0.001093060073901009 0.0 0.0
-4.698750466725452e-05 -0.00021199877221294498 0.0 0.0006086737818086167 0.0 0.0
-8.909738925619887e-05 -8.713965677727197e-05 0.0 -0.0004418508628012476 0.0 0.0
-0.0002792147234079996 -1.7113696827774685e-05 0.0 -0.0008375167729840265 0.0 0.0
-0.0007148378144780004 0.0002945329905974417 0.0 -0.0012095957320493876 0.0 0.0
-0.0012008592689426582 0.0005328451149438151 0.0 -0.001220256043225306 0.0 0.0
-0.0017546771050994813 0.0007596165252492534 0.0 -0.0010462080199526783 0.0 0.0
-0.002700184416167649 0.0012836472754440855 0.0 -0.0009293778168585519 0.0 0.0
-0.004480145643942087 0.002652708116348636 0.0 -0.0012626908574053257 0.0 0.0
-0.007321278779547587 0.0051688129082150345 0.0 -0.00208030460981605 0.0 0.0
-0.011254382053754713 0.008825413693391007 0.0 -0.0031740105624723765 0.0 0.0
-0.016246202947961527 0.013568592207350714 0.0 -0.004470806919891925 0.0 0.0
-0.022228799561174815 0.019299313742532558 0.0 -0.005842350756183434 0.0 0.0
-0.029169209843864105 0.025971231148864467 0.0 -0.007188826142746104 0.0 0.0
-0.037105304327567125 0.033625029026463714 0.0 -0.008520374788375475 0.0 0.0
-0.046124536010805045 0.04236956193505282 0.0 -0.009940910199567776 0.0 0.0
-0.05630230756728788 0.05229422725744614 0.0 -0.011509687644889905 0.0 0.0
-0.06756361736521192 0.06335575349117567 0.0 -0.013135257061467598 0.0 0.0
-0.0793325066889463 0.07509858988887808 0.0 -0.01482562152186558 0.0 0.0
-0.0897860401486513 0.08594750001321627 0.0 -0.01762238861375857 0.0 0.0
-0.0952082444464572 0.09227521499918998 0.0 -0.023851581227984964 0.0 0.0
-0.0900823919492705 0.08844970778080948 0.0 -0.03471744331572411 0.0 0.0
-0.08409556310098631 0.06749571500832743 0.0 1.4089424071883627e-14 0.0 0.0
-0.09008239194925786 0.08844970778079922 0.0 0.03471744331575565 0.0 0.0
-0.09520824444643054 0.09227521499917088 0.0 0.02385158122801582 0.0 0.0
-0.08978604014861284 0.08594750001317915 0.0 0.01762238861377335 0.0 0.0
-0.07933250668890113 0.07509858988883451 0.0 0.014825621521867983 0.0 0.0
-0.06756361736516242 0.0633557534911257 0.0 0.013135257061466662 0.0 0.0
-0.05630230756723686 0.05229422725739215 0.0 0.011509687644885205 0.0 0.0
-0.04612453601075512 0.042369561935006454 0.0 0.009940910199559973 0.0 0.0
-0.03710530432751757 0.03362502902641156 0.0 0.008520374788369364 0.0 0.0
-0.02916920984381631 0.025971231148817157 0.0 0.0071888261427351715 0.0 0.0
-0.022228799561132908 0.01929931374249092 0.0 0.005842350756169325 0.0 0.0
-0.016246202947927304 0.01356859220731621 0.0 0.004470806919880264 0.0 0.0
-0.01125438205372776 0.008825413693363848 0.0 0.0031740105624643257 0.0 0.0
-0.007321278779528283 0.005168812908194734 0.0 0.0020803046098098353 0.0 0.0
-0.004480145643930618 0.0026527081163399903 0.0 0.00126269085740207 0.0 0.0
-0.0027001844161626226 0.001283647275440905 0.0 0.0009293778168570773 0.0 0.0
-0.00175467710509756 0.0007596165252457788 0.0 0.0010462080199519503 0.0 0.0
-0.0012008592689415824 0.0005328451149442147 0.0 0.0012202560432250122 0.0 0.0
-0.0007148378144774765 0.0002945329905972684 0.0 0.0012095957320498024 0.0 0.0
-0.00027921472340780107 -1.7113696827819795e-05 0.0 0.000837516772983963 0.0 0.0
-8.909738925614607e-05 -8.713965677717405e-05 0.0 0.0004418508628010727 0.0 0.0
-0.00011404883004965575 -1.1909331131912904e-05 0.0 -0.0002862452105443393 0.0 0.0
-0.00030854699880245685 3.79216964859323e-05 0.0 -0.0005660928446599214 0.0 0.0
-0.0007762356174419482 0.0003256419241501441 0.0 -0.0008475190627485097 0.0 0.0
-0.001328063887555734 0.0005737808836737945 0.0 -0.0008489134697708458 0.0 0.0
-0.002003326866204735 0.0008526126457625723 0.0 -0.0006676079141075916 0.0 0.0
-0.0032065520000988694 0.0016162055255058575 0.0 -0.0005824334513547244 0.0 0.0
-0.005355131174175766 0.003396902560415049 0.0 -0.0009139209697608605 0.0 0.0
-0.008618342990958405 0.006339249853759914 0.0 -0.001499018767188497 0.0 0.0
-0.013067757937272889 0.010509109094049517 0.0 -0.0022962829814594287 0.0 0.0
-0.01871138451073466 0.015890009401241415 0.0 -0.003242357054809052 0.0 0.0
-0.02550523000752063 0.02240959295664977 0.0 -0.004246350443701208 0.0 0.0
-0.03342911953215631 0.03004116958905602 0.0 -0.005231796352266479 0.0 0.0
-0.04252513236853711 0.0388339809636181 0.0 -0.006220760480781933 0.0 0.0
-0.052866301934467626 0.04888141074040589 0.0 -0.007323330037209591 0.0 0.0
-0.06444513354178344 0.06020479667383101 0.0 -0.008558821605037667 0.0 0.0
-0.07705445387356126 0.07262823624528375 0.0 -0.009749339564991378 0.0 0.0
-0.09010464696565848 0.08560206761146169 0.0 -0.01059570881272047 0.0 0.0
-0.10202195468064913 0.09775235784774272 0.0 -0.011660998883268922 0.0 0.0
-0.10897168727233839 0.1057741148797432 0.0 -0.01676573563147677 0.0 0.0
-0.10445965613775549 0.10306630546720731 0.0 -0.03243007859383009 0.0 0.0
-0.09838614076155991 0.08077355414084109 0.0 1.025221574302293e-14 0.0 0.0
-0.1044596561377402 0.10306630546719385 0.0 0.032430078593853884 0.0 0.0
-0.10897168727230726 0.10577411487971011 0.0 0.016765735631499804 0.0 0.0
-0.10202195468060547 0.09775235784770052 0.0 0.01166099888327999 0.0 0.0
-0.0901046469656069 0.08560206761141327 0.0 0.010595708812720917 0.0 0.0
-0.077054453873505 0.07262823624523042 0.0 0.00974933956499062 0.0 0.0
-0.06444513354172607 0.06020479667377214 0.0 0.008558821605033675 0.0 0.0
-0.05286630193441063 0.04888141074035214 0.0 0.007323330037203117 0.0 0.0
-0.042525132368480933 0.03883398096356334 0.0 0.006220760480776917 0.0 0.0
-0.033429119532103084 0.03004116958900191 0.0 0.005231796352259025 0.0 0.0
-0.025505230007473643 0.02240959295660375 0.0 0.004246350443690051 0.0 0.0
-0.01871138451069583 0.01589000940120355 0.0 0.003242357054801393 0.0 0.0
-0.013067757937242325 0.010509109094016969 0.0 0.0022962829814530622 0.0 0.0
-0.008618342990936357 0.006339249853742186 0.0 0.0014990187671829087 0.0 0.0
-0.005355131174162143 0.0033969025604031478 0.0 0.0009139209697592689 0.0 0.0
-0.0032065520000923455 0.001616205525501576 0.0 0.0005824334513545374 0.0 0.0
-0.0020033268662021627 0.000852612645761615 0.0 0.0006676079141078561 0.0 0.0
-0.0013280638875545672 0.0005737808836742779 0.0 0.000848913469770197 0.0 0.0
-0.0007762356174411893 0.0003256419241496749 0.0 0.0008475190627480555 0.0 0.0
-0.0003085469988020454 3.792169648599969e-05 0.0 0.0005660928446597701 0.0 0.0
-0.00011404883004944483 -1.1909331131820207e-05 0.0 0.00028624521054452145 0.0 0.0
-0.00011371708671907655 1.3721441860115328e-05 0.0 -0.00016292108254964687 0.0 0.0
-0.0003141552241815382 7.407176167257401e-05 0.0 -0.0002834575804035259 0.0 0.0
-0.0008249780388308489 0.0003476584450098975 0.0 -0.0004142400242359456 0.0 0.0
-0.0014622145136117166 0.0006179774276267216 0.0 -0.0004090684679287332 0.0 0.0
-0.002291157998742906 0.00098257994407772 0.0 -0.0002634695024596463 0.0 0.0
-0.0037677157668022177 0.002037760327188181 0.0 -0.00021683182546409618 0.0 0.0
-0.006258851566643288 0.0041923381453717835 0.0 -0.0004080482143806099 0.0 0.0
-0.009914794079914892 0.007525588150652185 0.0 -0.0007073282944751154 0.0 0.0
-0.01486230130926796 0.01218827264610389 0.0 -0.0011134145844393765 0.0 0.0
-0.021145401025118967 0.018190650707511243 0.0 -0.001606787220456935 0.0 0.0
-0.028746772831287654 0.025496032789419077 0.0 -0.002127407484536564 0.0 0.0
-0.037660965036732746 0.034096510398888 0.0 -0.0026436299998190828 0.0 0.0
-0.047929302001100585 0.04403961921338969 0.0 -0.0032046081242133825 0.0 0.0
-0.0595836688659559 0.05538322039358927 0.0 -0.003845749076774211 0.0 0.0
-0.07253770701202805 0.06808306163461159 0.0 -0.004561573757395571 0.0 0.0
-0.0864305620046449 0.08181683596500498 0.0 -0.005247176864398478 0.0 0.0
-0.10048660795859146 0.09582443335700971 0.0 -0.005601579691370359 0.0 0.0
-0.11340326412643059 0.10877737710885776 0.0 -0.00551306958366621 0.0 0.0
-0.122351097298432 0.11825517153038761 0.0 -0.00751696641069699 0.0 0.0
-0.11986951298181371 0.11864297697202064 0.0 -0.023213698360160854 0.0 0.0
-0.11441323813384165 0.09692650431769205 0.0 5.336009412104659e-15 0.0 0.0
-0.11986951298179609 0.11864297697200005 0.0 0.02321369836017408 0.0 0.0
-0.12235109729839647 0.11825517153035084 0.0 0.0075169664107095045 0.0 0.0
-0.11340326412638105 0.10877737710881111 0.0 0.005513069583673404 0.0 0.0
-0.10048660795853326 0.09582443335695119 0.0 0.0056015796913708015 0.0 0.0
-0.08643056200458218 0.08181683596494382 0.0 0.005247176864399289 0.0 0.0
-0.07253770701196435 0.06808306163454961 0.0 0.004561573757393775 0.0 0.0
-0.05958366886589242 0.055383220393528686 0.0 0.0038457490767718214 0.0 0.0
-0.04792930200103792 0.04403961921332867 0.0 0.003204608124210688 0.0 0.0
-0.037660965036673676 0.03409651039882978 0.0 0.0026436299998144073 0.0 0.0
-0.028746772831235706 0.025496032789369124 0.0 0.002127407484530071 0.0 0.0
-0.021145401025076376 0.01819065070746767 0.0 0.0016067872204538584 0.0 0.0
-0.014862301309234497 0.01218827264607056 0.0 0.0011134145844354784 0.0 0.0
-0.009914794079889874 0.007525588150632336 0.0 0.0007073282944724843 0.0 0.0
-0.006258851566627361 0.004192338145355602 0.0 0.0004080482143784559 0.0 0.0
-0.003767715766794374 0.0020377603271804815 0.0 0.00021683182546390552 0.0 0.0
-0.0022911579987398975 0.0009825799440769307 0.0 0.00026346950246103687 0.0 0.0
-0.0014622145136105943 0.000617977427627885 0.0 0.0004090684679280346 0.0 0.0
-0.000824978038830099 0.00034765844500933064 0.0 0.00041424002423579026 0.0 0.0
-0.0003141552241812153 7.407176167265648e-05 0.0 0.00028345758040464896 0.0 0.0
-0.00011371708671906403 1.3721441860082218e-05 0.0 0.00016292108255000894 0.0 0.0
-7.328159927366787e-05 1.4250927297116393e-05 0.0 -0.000102099822107988 0.0 0.0
-0.00027955498894081 8.588339647650273e-05 0.0 -0.00011765702063265172 0.0 0.0
-0.0008545096257340614 0.0003556903544428117 0.0 -0.00014100853270750298 0.0 0.0
-0.001618040644922023 0.0006417594436817619 0.0 -0.00012092331957787302 0.0 0.0
-0.002630807674083981 0.001061139786678614 0.0 5.668385252962483e-05 0.0 0.0
-0.00437072524627977 0.0022666265667098573 0.0 0.00021799204623822855 0.0 0.0
-0.007173682016299254 0.004598212375422911 0.0 0.0002734315945695043 0.0 0.0
-0.011198759869599914 0.00812116813019237 0.0 0.0002941308988255118 0.0 0.0
-0.01662229450946013 0.01302388936696597 0.0 0.00028771315020811525 0.0 0.0
-0.023529935586713888 0.019333363522577415 0.0 0.00023048044236545994 0.0 0.0
-0.03193720486754771 0.027030428616994933 0.0 0.00016836078746948913 0.0 0.0
-0.041854101640320204 0.036119260724549504 0.0 9.843450543945169e-05 0.0 0.0
-0.05329053797990989 0.0466397974062989 0.0 -3.890873100671332e-05 0.0 0.0
-0.06623750924020341 0.05862592206448059 0.0 -0.00021203231652783781 0.0 0.0
-0.08054585480323043 0.07200850731534851 0.0 -0.0004844350344595464 0.0 0.0
-0.0957067997783998 0.0863912482105449 0.0 -0.0008371440696747796 0.0 0.0
-0.11069318019173145 0.10088612377087533 0.0 -0.0011317144813432038 0.0 0.0
-0.12398024812201455 0.11410253481881524 0.0 -0.0011126345617453182 0.0 0.0
-0.13390069105014957 0.1240745177305891 0.0 -0.001722452673822792 0.0 0.0
-0.13633518387206833 0.12667259523552693 0.0 -0.016646904224668482 0.0 0.0
-0.1348509109433542 0.1060396638188507 0.0 2.2412627309620348e-15 0.0 0.0
-0.1363351838720489 0.12667259523550403 0.0 0.01664690422467449 0.0 0.0
-0.13390069105010888 0.12407451773055385 0.0 0.0017224526738280118 0.0 0.0
-0.12398024812195725 0.1141025348187655 0.0 0.0011126345617477554 0.0 0.0
-0.11069318019166588 0.10088612377081024 0.0 0.0011317144813431917 0.0 0.0
-0.09570679977833076 0.08639124821048007 0.0 0.0008371440696763998 0.0 0.0
-0.08054585480315993 0.0720085073152829 0.0 0.00048443503445692003 0.0 0.0
-0.06623750924013286 0.05862592206441834 0.0 0.00021203231652781353 0.0 0.0
-0.05329053797984094 0.04663979740623472 0.0 3.890873100544177e-05 0.0 0.0
-0.04185410164025523 0.03611926072448688 0.0 -9.843450544359637e-05 0.0 0.0
-0.03193720486749076 0.027030428616942357 0.0 -0.00016836078747109202 0.0 0.0
-0.023529935586667737 0.019333363522533283 0.0 -0.0002304804423658921 0.0 0.0
-0.016622294509423555 0.013023889366928987 0.0 -0.0002877131502106072 0.0 0.0
-0.011198759869572104 0.008121168130168256 0.0 -0.00029413089882415473 0.0 0.0
-0.0071736820162813224 0.004598212375404144 0.0 -0.00027343159457012304 0.0 0.0
-0.004370725246270284 0.0022666265667007452 0.0 -0.00021799204623815954 0.0 0.0
-0.0026308076740801417 0.0010611397866759308 0.0 -5.668385252769354e-05 0.0 0.0
-0.0016180406449206155 0.000641759443682775 0.0 0.00012092331957777499 0.0 0.0
-0.000854509625732977 0.0003556903544426371 0.0 0.0001410085327080229 0.0 0.0
-0.0002795549889402393 8.58833964764041e-05 0.0 0.0001176570206343259 0.0 0.0
-7.328159927344927e-05 1.4250927297021796e-05 0.0 0.00010209982210851042 0.0 0.0
SCALARS Statev float 8
LOOKUP_TABLE default
0.0 0.016145023169159816 0.01286449082545076 -0.015446447389189141 0.002581956563738391 -0.0007015802232387517 0.0 0.0
0.0 0.005226968043666706 0.003790042846171965 -0.002244759762830139 -0.0015452830833418238 -0.006168356845678886 0.0 0.0
0.0 3.472898878120841e-05 7.740881795147917e-05 -4.9471842532646936e-05 -2.7936975418832268e-05 -0.00018635047581420675 0.0 0.0
0.0 0.00011079642025978921 2.725339479243905e-05 -1.9434886914207398e-05 -7.818507878231773e-06 1.1057713327541682e-05 0.0 0.0
0.0 0.0006910401935176697 0.0003864901452893676 -0.00028017659266523106 -0.0001063135526241372 8.942528248872756e-05 0.0 0.0
0.0 0.001701700615475221 0.0017308436908628443 -0.0013456757450617403 -0.0003851679458011023 0.00018681176284113395 0.0 0.0
0.0 0.004480725614934999 0.0041377375953810394 -0.0034582966152862946 -0.0006794409800947407 0.00026152545508800463 0.0 0.0
0.0 0.008619092386205314 0.007846698754876478 -0.006914621909086251 -0.0009320768457902315 0.0003003390219556526 0.0 0.0
0.0 0.014415664072581068 0.012960803497034035 -0.011820636199415337 -0.001140167297618696 0.0003088539359393637 0.0 0.0
0.0 0.021965833483268006 0.01953642769938749 -0.018185934163385445 -0.0013504935360020632 0.00027154334776925237 0.0 0.0
0.0 0.03127090240227449 0.02758693687834914 -0.025996402070764087 -0.0015905348075850373 0.00022735566626806448 0.0 0.0
0.0 0.04202169611391104 0.03713327274791175 -0.03526654455197498 -0.001866728195936806 0.0001699521175601088 0.0 0.0
0.0 0.054598348421603826 0.04819338058432936 -0.04602262661790807 -0.0021707539664213276 3.981081183034583e-05 0.0 0.0
0.0 0.06895661189424274 0.06078196477876069 -0.05828938705409201 -0.0024925777246686373 -0.00011108098944700756 0.0 0.0
0.0 0.08502599737468737 0.07483346222317412 -0.07201758747752093 -0.0028158747456530856 -0.0003344929716075473 0.0 0.0
0.0 0.10249619393770376 0.09004012774809703 -0.08691686632303726 -0.0031232614250597634 -0.0006415365393071135 0.0 0.0
0.0 0.12055912213747719 0.1057322997308438 -0.10233348865486226 -0.003398811075981529 -0.0009819844802958263 0.0 0.0
0.0 0.13798398391361544 0.12085353384786196 -0.11722737539714531 -0.0036261584507165426 -0.0012252163321323176 0.0 0.0
0.0 0.15321188148712392 0.13406071358034416 -0.13026351041450218 -0.003797203165841968 -0.001198328389979356 0.0 0.0
0.0 0.16423650037665838 0.14380360397839081 -0.13991196311388704 -0.0038916408645039567 -0.0012189150062846378 0.0 0.0
0.0 0.16866587272680933 0.1476469472690057 -0.14376737938414985 -0.0038795678848557373 2.0044729764912006e-15 0.0 0.0
0.0 0.16423650037664025 0.14380360397837436 -0.13991196311387172 -0.0038916408645026674 0.0012189150062915143 0.0 0.0
0.0 0.15321188148708145 0.13406071358030686 -0.1302635104144662 -0.003797203165840533 0.0011983283899850835 0.0 0.0
0.0 0.1379839839135531 0.12085353384780752 -0.11722737539709185 -0.0036261584507156267 0.0012252163321353786 0.0 0.0
0.0 0.12055912213741214 0.1057322997307866 -0.10233348865480785 -0.003398811075978762 0.0009819844802941213 0.0 0.0
0.0 0.10249619393763425 0.09004012774803553 -0.08691686632297778 -0.0031232614250578084 0.0006415365393042187 0.0 0.0
0.0 0.0850259973746152 0.07483346222311106 -0.07201758747745939 -0.002815874745651608 0.00033449297160765114 0.0 0.0
0.0 0.06895661189416397 0.06078196477869219 -0.0582893870540243 -0.0024925777246678827 0.00011108098944620764 0.0 0.0
0.0 0.05459834842153273 0.04819338058426705 -0.046022626617847784 -0.002170753966419203 -3.9810811832091935e-05 0.0 0.0
0.0 0.04202169611384112 0.03713327274785044 -0.03526654455191503 -0.0018667281959354111 -0.0001699521175621587 0.0 0.0
0.0 0.03127090240221956 0.0275869368783008 -0.025996402070717455 -0.001590534807583323 -0.00022735566626896973 0.0 0.0
0.0 0.021965833483220235 0.019536427699345646 -0.01818593416334497 -0.001350493536000706 -0.0002715433477710414 0.0 0.0
0.0 0.01441566407254435 0.012960803497001471 -0.011820636199383838 -0.0011401672976176168 -0.00030885393593970946 0.0 0.0
0.0 0.008619092386181311 0.007846698754854522 -0.0069146219090655565 -0.0009320768457889703 -0.00030033902195518685 0.0 0.0
0.0 0.004480725614919024 0.004137737595365719 -0.0034582966152724333 -0.0006794409800932805 -0.0002615254550878413 0.0 0.0
0.0 0.0017017006154683642 0.0017308436908555853 -0.0013456757450558221 -0.0003851679457997616 -0.00018681176284031072 0.0 0.0
0.0 0.0006910401935143668 0.0003864901452873154 -0.0002801765926637453 -0.00010631355262356916 -8.94252824882307e-05 0.0 0.0
0.0 0.00011079642025873709 2.725339479225405e-05 -1.943488691407701e-05 -7.818507878176572e-06 -1.1057713327470833e-05 0.0 0.0
0.0 3.472898878011728e-05 7.740881795062771e-05 -4.9471842532056025e-05 -2.793697541857123e-05 0.0001863504758130874 0.0 0.0
0.0 0.005226968043657493 0.003790042846167178 -0.002244759762826821 -0.0015452830833403524 0.006168356845670283 0.0 0.0
0.0 0.016145023169139888 0.012864490825437131 -0.015446447389170366 0.002581956563733228 0.0007015802232052265 0.0 0.0
0.0 0.013046501477920662 0.00968925409072389 -0.012661653978651561 0.002972399887927659 -0.00024137864549860866 0.0 0.0
0.0 0.003086159011085914 0.002206591000421337 -0.0012743535329071967 -0.0009322374675141363 -0.004702214945170368 0.0 0.0
0.0 -4.565626100392826e-05 -5.1725937157065204e-05 4.416149825014765e-05 7.564438906917571e-06 -4.017893831262596e-05 0.0 0.0
0.0 1.2033389013534337e-05 3.760664031285324e-06 -2.631304022492075e-06 -1.129360008793281e-06 5.5903784673655555e-06 0.0 0.0
0.0 0.0003338763535973207 0.0002297750133236832 -0.0001678351934504823 -6.193981987320063e-05 3.6784646110565704e-05 0.0 0.0
0.0 0.0015081355515381167 0.0012688883520795798 -0.0009954000728665752 -0.00027348827921300716 5.1611555529829547e-05 0.0 0.0
0.0 0.0037479527726091756 0.0034610717599702426 -0.002923556081652152 -0.0005375156783180869 -0.00012703863676897368 0.0 0.0
0.0 0.007585379868854052 0.0068554537023622665 -0.006116803210019098 -0.0007386504923431741 -0.0004177737247609732 0.0 0.0
0.0 0.012990873458754286 0.01156933924945052 -0.010697991279499046 -0.0008713479699514677 -0.000820298464396073 0.0 0.0
0.0 0.019956848797795752 0.017625298910371262 -0.016648250881943365 -0.0009770480284278821 -0.0013075027468959861 0.0 0.0
0.0 0.028491245586599837 0.025007873436476664 -0.023928131221047505 -0.0010797422154291787 -0.0018286102665517015 0.0 0.0
0.0 0.03869670995455225 0.033719645370039214 -0.0325337450022718 -0.001185900367767393 -0.002355869581826432 0.0 0.0
0.0 0.050045685892424786 0.043813712334455655 -0.04251864654128253 -0.0012950657931730604 -0.0029344461972859726 0.0 0.0
0.0 0.06332277379759517 0.05532668921479389 -0.05392647851546362 -0.0014002106993302606 -0.00357999725952136 0.0 0.0
0.0 0.07817668117083501 0.06821271489581747 -0.06672255164778136 -0.0014901632480360837 -0.004282329954675956 0.0 0.0
0.0 0.09433170883930961 0.08220241233245529 -0.0806471368260022 -0.0015552755064531401 -0.005000237353542188 0.0 0.0
0.0 0.11111626615439826 0.09668984798093745 -0.09510027679611852 -0.0015895711848188502 -0.005563416054759788 0.0 0.0
0.0 0.1274130065302963 0.11071363577902882 -0.1091193196074919 -0.0015943161715369818 -0.00567275651961984 0.0 0.0
0.0 0.14169070198563075 0.1229979061575017 -0.12142765084242044 -0.0015702553150812122 -0.005069920193594698 0.0 0.0
0.0 0.15207741873932124 0.1318791422970019 -0.1303972100637219 -0.0014819322332800268 -0.003985790043377884 0.0 0.0
0.0 0.15637828683775376 0.13531197225304703 -0.13396740466743498 -0.0013445675856120667 5.703770789011742e-15 0.0 0.0
0.0 0.15207741873930442 0.13187914229698666 -0.13039721006370708 -0.0014819322332795478 0.003985790043393198 0.0 0.0
0.0 0.1416907019855916 0.12299790615746763 -0.12142765084238677 -0.0015702553150807944 0.0050699201936100224 0.0 0.0
0.0 0.12741300653024207 0.11071363577898204 -0.1091193196074451 -0.0015943161715368628 0.005672756519627032 0.0 0.0
0.0 0.11111626615433662 0.09668984798088406 -0.09510027679606618 -0.0015895711848178482 0.00556341605476038 0.0 0.0
0.0 0.09433170883924272 0.08220241233239695 -0.08064713682594447 -0.0015552755064523237 0.005000237353539246 0.0 0.0
0.0 0.07817668117076822 0.06821271489575921 -0.066722551647724 -0.0014901632480352877 0.004282329954675469 0.0 0.0
0.0 0.06332277379752323 0.05532668921473169 -0.05392647851540146 -0.0014002106993302086 0.003579997259519346 0.0 0.0
0.0 0.05004568589235976 0.04381371233439918 -0.042518646541226945 -0.00129506579317224 0.0029344461972827026 0.0 0.0
0.0 0.038696709954488526 0.0337196453699837 -0.03253374500221653 -0.0011859003677671686 0.002355869581821818 0.0 0.0
0.0 0.02849124558654779 0.02500787343643135 -0.023928131221002992 -0.001079742215428382 0.0018286102665469762 0.0 0.0
0.0 0.019956848797752096 0.017625298910332668 -0.016648250881905375 -0.0009770480284272784 0.0013075027468919718 0.0 0.0
0.0 0.01299087345872169 0.011569339249421273 -0.010697991279470473 -0.0008713479699508018 0.000820298464393445 0.0 0.0
0.0 0.007585379868832158 0.006855453702342293 -0.006116803209999998 -0.0007386504923422931 0.00041777372475906995 0.0 0.0
0.0 0.003747952772594871 0.0034610717599568223 -0.0029235560816398823 -0.0005375156783169378 0.0001270386367675025 0.0 0.0
0.0 0.0015081355515303091 0.0012688883520727225 -0.000995400072860953 -0.00027348827921177025 -5.161155552986017e-05 0.0 0.0
0.0 0.00033387635359490974 0.00022977501332225545 -0.000167835193449456 -6.193981987279969e-05 -3.678464611020713e-05 0.0 0.0
0.0 1.2033389013095152e-05 3.760664031540772e-06 -2.6313040226856686e-06 -1.12936000885492e-06 -5.5903784673437325e-06 0.0 0.0
0.0 -4.56562610036662e-05 -5.1725937156761614e-05 4.416149824988514e-05 7.564438906876302e-06 4.0178938312410227e-05 0.0 0.0
0.0 0.003086159011076665 0.0022065910004163075 -0.0012743535329037452 -0.0009322374675125624 0.004702214945160159 0.0 0.0
0.0 0.013046501477899741 0.009689254090707882 -0.012661653978631173 0.0029723998879232793 0.0002413786454740272 0.0 0.0
0.0 0.009576613786985724 0.006956975477930981 -0.009355920201183997 0.00239894472325301 -0.00243544346079479 0.0 0.0
0.0 0.0021442749531294263 0.0013511965597086193 -0.0007007642078103957 -0.0006504323518982229 -0.003741716173576682 0.0 0.0
0.0 2.5678426942533087e-08 -2.678779843523035e-09 2.105284134767642e-09 5.734957087552363e-10 -4.864799241920996e-10 0.0 0.0
0.0 3.151695536857341e-07 -1.5031349825595103e-06 1.169614351121087e-06 3.335206314382964e-07 5.936888086596413e-07 0.0 0.0
0.0 0.00011284509073672743 7.97263714207663e-05 -5.5985630708967136e-05 -2.3740740711799466e-05 1.5343758731716603e-05 0.0 0.0
0.0 0.0010319876423611177 0.0008060432148862626 -0.0006164022602524415 -0.00018964095463382043 -2.6700586086635904e-05 0.0 0.0
0.0 0.0028162311393201086 0.0026623729962798846 -0.002201408257836898 -0.0004609647384429885 -0.0003800246293504267 0.0 0.0
0.0 0.006251132162131646 0.005657652411796897 -0.004978190143870453 -0.0006794622679264414 -0.0009571408496001478 0.0 0.0
0.0 0.011060284513846374 0.009874893663444411 -0.009050786484414524 -0.0008241071790298806 -0.0017419540776139346 0.0 0.0
0.0 0.01735531685517656 0.015295188948565696 -0.01436621600239448 -0.0009289729461712322 -0.0026774077408529564 0.0 0.0
0.0 0.025000988276108412 0.02187533622781339 -0.020849437858545174 -0.0010258983692681958 -0.0036830555892286786 0.0 0.0
0.0 0.03386758741050669 0.02960441331859739 -0.028478869075547825 -0.0011255442430495415 -0.004691042835199119 0.0 0.0
0.0 0.04436234071054365 0.03853121501679754 -0.03730344527565618 -0.0012277697411414107 -0.005716575910701183 0.0 0.0
0.0 0.05588194467487833 0.04874181958022336 -0.04741597064076513 -0.0013258489394581895 -0.006849147399752419 0.0 0.0
0.0 0.06914016655893947 0.06021396848077922 -0.05880359297700089 -0.001410375503778355 -0.008098286619792703 0.0 0.0
0.0 0.0836030088618959 0.07272853062016557 -0.0712562742010775 -0.0014722564190880682 -0.009345504500520482 0.0 0.0
0.0 0.09870033582350014 0.0857776067924812 -0.08426996763722427 -0.0015076391552569465 -0.010297117743653796 0.0 0.0
0.0 0.11344214682915169 0.09851574416054162 -0.0970017883038391 -0.001513955856702521 -0.01048214250159446 0.0 0.0
0.0 0.12644546992096709 0.10972339863704593 -0.10824309568839281 -0.0014803029486530827 -0.009494375701429851 0.0 0.0
0.0 0.13589092196657496 0.1178297005960669 -0.11640888292047315 -0.001420817675593686 -0.007221790049017307 0.0 0.0
0.0 0.13994772606576425 0.12104913362753857 -0.11979762952543409 -0.0012515041021044537 1.0796485233610653e-14 0.0 0.0
0.0 0.1358909219665591 0.11782970059605206 -0.11640888292045846 -0.0014208176755936958 0.007221790049043114 0.0 0.0
0.0 0.12644546992093394 0.10972339863701676 -0.10824309568836415 -0.0014803029486526874 0.009494375701456935 0.0 0.0
0.0 0.1134421468291042 0.09851574416050064 -0.09700178830379777 -0.0015139558567027792 0.010482142501609077 0.0 0.0
0.0 0.09870033582344542 0.08577760679243422 -0.08426996763717771 -0.0015076391552565221 0.010297117743655573 0.0 0.0
0.0 0.0836030088618328 0.07272853062011087 -0.07125627420102291 -0.0014722564190879904 0.009345504500516334 0.0 0.0
0.0 0.06914016655888128 0.060213968480728325 -0.05880359297695131 -0.0014103755037770322 0.008098286619790715 0.0 0.0
0.0 0.05588194467481657 0.04874181958016964 -0.04741597064071209 -0.001325848939457538 0.006849147399749265 0.0 0.0
0.0 0.044362340710484546 0.03853121501674633 -0.037303445275605446 -0.0012277697411408812 0.005716575910694648 0.0 0.0
0.0 0.03386758741044963 0.02960441331854813 -0.028478869075498875 -0.0011255442430492316 0.0046910428351909245 0.0 0.0
0.0 0.025000988276061193 0.02187533622777183 -0.020849437858504183 -0.0010258983692676403 0.0036830555892204218 0.0 0.0
0.0 0.017355316855138997 0.015295188948532396 -0.014366216002361674 -0.0009289729461707071 0.0026774077408457343 0.0 0.0
0.0 0.011060284513817931 0.009874893663419062 -0.009050786484389915 -0.0008241071790291494 0.00174195407760899 0.0 0.0
0.0 0.006251132162111733 0.00565765241177913 -0.004978190143853634 -0.0006794622679254954 0.0009571408495962603 0.0 0.0
0.0 0.0028162311393089157 0.0026623729962692274 -0.0022014082578274306 -0.0004609647384417968 0.0003800246293481395 0.0 0.0
0.0 0.0010319876423546372 0.0008060432148808658 -0.0006164022602481199 -0.0001896409546327451 2.670058608603701e-05 0.0 0.0
0.0 0.0001128450907356441 7.972637142051509e-05 -5.598563070881449e-05 -2.3740740711700634e-05 -1.5343758731385742e-05 0.0 0.0
0.0 3.1516955333906925e-07 -1.5031349825977017e-06 1.1696143511510296e-06 3.3352063144669357e-07 -5.936888086822343e-07 0.0 0.0
0.0 2.5678426919816804e-08 -2.678779841143436e-09 2.1052841328877173e-09 5.734957082559921e-10 4.864799235722653e-10 0.0 0.0
0.0 0.002144274953122226 0.0013511965597042652 -0.0007007642078075177 -0.0006504323518967457 0.0037417161735652247 0.0 0.0
0.0 0.009576613786964765 0.00695697547791549 -0.009355920201164072 0.002398944723248587 0.002435443460778219 0.0 0.0
0.0 0.007157435121021617 0.00505492914982136 -0.0069468562717239215 0.0018919271219025554 -0.002677693926102234 0.0 0.0
0.0 0.0014950174670820499 0.0008827546774117409 -0.00044166215481929627 -0.00044109252259244444 -0.002738259131724467 0.0 0.0
0.0 0.0 0.0 0.0 0.0 0.0 0.0 0.0
0.0 -4.063504674385143e-07 -6.247199011278618e-08 5.7446469023940636e-08 5.025521088842157e-09 5.211774634260132e-08 0.0 0.0
0.0 2.5569199772989857e-05 2.618884698653332e-06 -1.9314360354969684e-07 -2.4257410951033567e-06 1.2816604861598549e-05 0.0 0.0
0.0 0.0005425976689098638 0.00045372892821798796 -0.00033871983045378616 -0.00011500909776420097 -6.56662911225863e-05 0.0 0.0
0.0 0.0021688157563670863 0.0018849309477795174 -0.0015198656362640935 -0.0003650653115154211 -0.0004490647185171917 0.0 0.0
0.0 0.0049553792588094845 0.004477239230076281 -0.0038716744625060685 -0.0006055647675702157 -0.0012794704076658661 0.0 0.0
0.0 0.009201582723239864 0.008177950158655113 -0.007410833177773305 -0.0007671169808818056 -0.002361888076127066 0.0 0.0
0.0 0.014757994312082528 0.012950324020006893 -0.012074963667155202 -0.0008753603528516835 -0.0036477080264142245 0.0 0.0
0.0 0.021437198008070507 0.01872557527711413 -0.01775818893246661 -0.000967386344647511 -0.005024088859571264 0.0 0.0
0.0 0.029334966606499736 0.02547383195305057 -0.0244138325699874 -0.0010599993830631659 -0.006399519085341671 0.0 0.0
0.0 0.0382052051405555 0.03324998680608317 -0.03209423156406678 -0.001155755242016393 -0.007786159658964219 0.0 0.0
0.0 0.048730265105389886 0.04213893898621375 -0.04089276421455846 -0.0012461747716552792 -0.009274607238938795 0.0 0.0
0.0 0.06024293995486944 0.05217475900943079 -0.05085008575102133 -0.0013246732584094333 -0.010908611858530443 0.0 0.0
0.0 0.07281787691340927 0.06320045617851051 -0.061814953607129276 -0.001385502571381232 -0.012558593572634384 0.0 0.0
0.0 0.08632020630212717 0.07480158839956505 -0.07337936528821479 -0.0014222231113502507 -0.01384351120153729 0.0 0.0
0.0 0.09957584455357836 0.08625439556489481 -0.08482555917404484 -0.0014288363908499368 -0.014186184779103585 0.0 0.0
0.0 0.11135868181055107 0.09645648984167882 -0.09505509926581185 -0.0014013905758668986 -0.012987480278093677 0.0 0.0
0.0 0.12005022895947157 0.1040062662359776 -0.10264964203444862 -0.0013566242015290643 -0.009595294961614915 0.0 0.0
0.0 0.12407868766066686 0.1071717234680651 -0.10605325283245455 -0.001118470635610597 1.4135827924866007e-14 0.0 0.0
0.0 0.12005022895945461 0.10400626623596153 -0.1026496420344325 -0.0013566242015290225 0.009595294961649332 0.0 0.0
0.0 0.11135868181052294 0.09645648984165356 -0.0950550992657867 -0.0014013905758668182 0.012987480278128734 0.0 0.0
0.0 0.09957584455353716 0.08625439556485866 -0.08482555917400864 -0.0014288363908500428 0.014186184779123923 0.0 0.0
0.0 0.08632020630207943 0.07480158839952394 -0.07337936528817426 -0.0014222231113497031 0.013843511201540207 0.0 0.0
0.0 0.07281787691335373 0.06320045617846289 -0.06181495360708077 -0.0013855025713820635 0.012558593572628741 0.0 0.0
0.0 0.060242939954816284 0.05217475900938437 -0.050850085750975715 -0.001324673258408693 0.010908611858526008 0.0 0.0
0.0 0.048730265105338545 0.042138938986168925 -0.040892764214514245 -0.0012461747716546487 0.0092746072389343 0.0 0.0
0.0 0.038205205140501367 0.03324998680603671 -0.03209423156402064 -0.0011557552420160672 0.00778615965895529 0.0 0.0
0.0 0.029334966606451938 0.025473831953008702 -0.02441383256994614 -0.0010599993830625886 0.006399519085330608 0.0 0.0
0.0 0.021437198008026202 0.01872557527707559 -0.017758188932428406 -0.0009673863446471743 0.005024088859559893 0.0 0.0
0.0 0.01475799431204875 0.012950324019977276 -0.012074963667126295 -0.0008753603528509765 0.0036477080264042897 0.0 0.0
0.0 0.009201582723214294 0.008177950158632678 -0.007410833177751575 -0.0007671169808811009 0.0023618880761201244 0.0 0.0
0.0 0.004955379258792106 0.00447723923006013 -0.0038716744624909677 -0.0006055647675691591 0.0012794704076604488 0.0 0.0
0.0 0.002168815756356534 0.0018849309477707295 -0.0015198656362565832 -0.0003650653115141456 0.0004490647185143713 0.0 0.0
0.0 0.0005425976689056434 0.00045372892821493284 -0.0003387198304514682 -0.00011500909776346485 6.566629112221213e-05 0.0 0.0
0.0 2.556919977253139e-05 2.6188846990630283e-06 -1.9314360388197794e-07 -2.4257410951810787e-06 -1.2816604861286055e-05 0.0 0.0
0.0 -4.0635046735602503e-07 -6.247199017023959e-08 5.744646906909771e-08 5.02552110115408e-09 -5.21177463862885e-08 0.0 0.0
0.0 0.0 0.0 0.0 0.0 0.0 0.0 0.0
0.0 0.0014950174670754865 0.0008827546774079634 -0.0004416621548167836 -0.0004410925225911828 0.002738259131714312 0.0 0.0
0.0 0.0071574351210040585 0.005054929149807696 -0.00694685627170615 0.0018919271218984636 0.002677693926090112 0.0 0.0
0.0 0.005143537136299938 0.003617627471822181 -0.005059357963943747 0.0014417304921215666 -0.0023135287033018695 0.0 0.0
0.0 0.0011916541806717825 0.0005459002368213273 -0.00025919959121402364 -0.0002867006456073028 -0.0018724178938006614 0.0 0.0
0.0 0.0 0.0 0.0 0.0 0.0 0.0 0.0
0.0 -1.7918878968638495e-07 1.6580370838373166e-08 -1.3354665710081564e-08 -3.22570512829003e-09 -1.9972891801069645e-08 0.0 0.0
0.0 -1.7929868475366354e-05 -9.095455015041938e-06 7.3646146289952915e-06 1.7308403860466361e-06 9.398327624779806e-06 0.0 0.0
0.0 0.0002560182387701164 0.0001792051328606498 -0.0001298187587669292 -4.9386374093720375e-05 -3.130457729852281e-05 0.0 0.0
0.0 0.0015350404333471063 0.0012053090426746018 -0.000946596886611282 -0.0002587121560633193 -0.00042610498602472456 0.0 0.0
0.0 0.0037273285453127726 0.0033327951298434363 -0.002816919410264139 -0.0005158757195793002 -0.0013445440349271888 0.0 0.0
0.0 0.0073786655898853346 0.006499232423006639 -0.005802741492730334 -0.0006964909302763012 -0.0026725028865327545 0.0 0.0
0.0 0.012161000598981828 0.010611195877826777 -0.009798099086899452 -0.0008130967909273192 -0.004210900255485589 0.0 0.0
0.0 0.01796974295877983 0.015576815361908978 -0.014673947069976503 -0.0009028682919324803 -0.005850543772466719 0.0 0.0
0.0 0.024737163489581087 0.021350325121692788 -0.020361456775786987 -0.0009888683459057881 -0.007481798108058119 0.0 0.0
0.0 0.03256017528422864 0.02797388484207347 -0.02689715839534203 -0.0010767264467314121 -0.009117076399986348 0.0 0.0
0.0 0.04116685050230927 0.03555455544251348 -0.03439321648662091 -0.0011613389558925453 -0.010855294476352959 0.0 0.0
0.0 0.05125125831932571 0.04413973685748185 -0.04290543926924636 -0.001234297588235495 -0.012738186685777239 0.0 0.0
0.0 0.062379181450963696 0.053644406305934506 -0.052353103162856865 -0.0012913031430776074 -0.01462787939407099 0.0 0.0
0.0 0.07396198672637741 0.06376982096134746 -0.06243951006763481 -0.0013303108937126247 -0.016159043851562846 0.0 0.0
0.0 0.08568394782063546 0.07392423246670532 -0.07258092416334277 -0.0013433083033626188 -0.016724101262151854 0.0 0.0
0.0 0.09634193662932294 0.0831791395157113 -0.08185447819746353 -0.0013246613182477435 -0.015471417617254507 0.0 0.0
0.0 0.10450479653540794 0.09031193428604235 -0.08902673652285169 -0.0012851977631905792 -0.011377584178916954 0.0 0.0
0.0 0.10864075301287783 0.09351800227057773 -0.0925562562722182 -0.000961745998359515 1.6091728644029857e-14 0.0 0.0
0.0 0.10450479653539078 0.09031193428602598 -0.0890267365228343 -0.0012851977631915367 0.01137758417895587 0.0 0.0
0.0 0.09634193662929705 0.08317913951568733 -0.08185447819744007 -0.0013246613182472783 0.015471417617292654 0.0 0.0
0.0 0.0856839478206026 0.07392423246667593 -0.07258092416331338 -0.0013433083033625624 0.016724101262174416 0.0 0.0
0.0 0.07396198672633542 0.06376982096131123 -0.06243951006759932 -0.0013303108937118885 0.016159043851567138 0.0 0.0
0.0 0.06237918145091383 0.053644406305891804 -0.0523531031628135 -0.0012913031430782556 0.014627879394063369 0.0 0.0
0.0 0.051251258319277807 0.04413973685744026 -0.04290543926920518 -0.0012342975882350747 0.01273818668577069 0.0 0.0
0.0 0.041166850502265234 0.035554555442475044 -0.03439321648658313 -0.0011613389558919136 0.010855294476347265 0.0 0.0
0.0 0.03256017528418392 0.027973884842034523 -0.026897158395303593 -0.0010767264467309288 0.009117076399977633 0.0 0.0
0.0 0.024737163489541206 0.02135032512165806 -0.020361456775752847 -0.0009888683459052141 0.007481798108045908 0.0 0.0
0.0 0.017969742958742423 0.015576815361876953 -0.014673947069944947 -0.0009028682919320169 0.005850543772452433 0.0 0.0
0.0 0.012161000598950594 0.01061119587779988 -0.009798099086873126 -0.0008130967909267498 0.004210900255473021 0.0 0.0
0.0 0.0073786655898634744 0.00649923242298734 -0.005802741492711934 -0.0006964909302754026 0.0026725028865244686 0.0 0.0
0.0 0.003727328545297989 0.0033327951298302632 -0.0028169194102520964 -0.0005158757195781688 0.0013445440349211953 0.0 0.0
0.0 0.0015350404333379412 0.0012053090426673945 -0.0009465968866053783 -0.00025871215606201766 0.00042610498602155814 0.0 0.0
0.0 0.00025601823876755965 0.00017920513285920678 -0.0001298187587658802 -4.938637409332611e-05 3.130457729822388e-05 0.0 0.0
0.0 -1.7929868475566413e-05 -9.09545501466062e-06 7.3646146287051506e-06 1.7308403859554064e-06 -9.398327624452953e-06 0.0 0.0
0.0 -1.7918878958620634e-07 1.6580370829333657e-08 -1.3354665703083526e-08 -3.225705126253981e-09 1.9972891788994082e-08 0.0 0.0
0.0 0.0 0.0 0.0 0.0 0.0 0.0 0.0
0.0 0.0011916541806656997 0.0005459002368184611 -0.000259199591212114 -0.00028670064560634543 0.0018724178937925694 0.0 0.0
0.0 0.005143537136285633 0.0036176274718110017 -0.00505935796392896 0.0014417304921179514 0.0023135287032933446 0.0 0.0
0.0 0.0036700902022473265 0.002484170777118945 -0.00352663362028323 0.0010424628431642854 -0.0018063037370805771 0.0 0.0
0.0 0.0006651775815587002 0.00031386283487979446 -0.00013738175745052941 -0.00017648107742926524 -0.0012001972278108224 0.0 0.0
0.0 0.0 0.0 0.0 0.0 0.0 0.0 0.0
0.0 -4.930754295569554e-07 3.68350299857422e-08 -2.8272421256256188e-08 -8.562608729485888e-09 -7.715859359061078e-08 0.0 0.0
0.0 -4.39694491931519e-06 -4.408741766323266e-06 3.5223002016433634e-06 8.86441564679912e-07 6.2204925335091065e-06 0.0 0.0
0.0 4.4460508308372144e-05 4.229318799530217e-05 -2.8778693066844422e-05 -1.3514494928457878e-05 -1.1434207091276678e-06 0.0 0.0
0.0 0.0007779927160594088 0.0006853651780984288 -0.0005255050333876926 -0.00015986014471073635 -0.0003637433802198615 0.0 0.0
0.0 0.0028534326035743298 0.0022491595730687697 -0.0018504252878951463 -0.0003987342851736237 -0.0012017985356545138 0.0 0.0
0.0 0.005483338446053974 0.004862117326047676 -0.004254980156314385 -0.0006071371697332863 -0.0026441857334956946 0.0 0.0
0.0 0.009644485954344903 0.008297529991732184 -0.0075601115676356264 -0.0007374184240965627 -0.00435481962662086 0.0 0.0
0.0 0.014519829283616607 0.012450567926939651 -0.01162136043537653 -0.0008292074915631194 -0.006149787573998377 0.0 0.0
0.0 0.020160781784215855 0.017254153600694273 -0.016343900067231645 -0.0009102535334626304 -0.007932988816928778 0.0 0.0
0.0 0.026598068566297723 0.02273767215124692 -0.02174654580413864 -0.0009911263471083078 -0.009703223582346498 0.0 0.0
0.0 0.034024808014093556 0.029002782580474347 -0.027934906362688947 -0.0010678762177854107 -0.011561170549733768 0.0 0.0
0.0 0.04231773766500685 0.03613845119712225 -0.035002453486559976 -0.0011359977105622693 -0.013565925443272111 0.0 0.0
0.0 0.05148253845285939 0.04411196132147258 -0.042921185395655245 -0.0011907759258173482 -0.015575751899847294 0.0 0.0
0.0 0.06176722182540734 0.0527085409734374 -0.05147856976814819 -0.0012299712052892078 -0.017238022012372 0.0 0.0
0.0 0.07186369985053631 0.06151988586728207 -0.060267629319934894 -0.001252256547347195 -0.0179987003295653 0.0 0.0
0.0 0.08123326742807248 0.06984558157559859 -0.06859954706558855 -0.0012460345100100544 -0.016912259645767605 0.0 0.0
0.0 0.08902305228699015 0.07664555813395209 -0.07543707501204472 -0.0012084831219073 -0.01262509469827938 0.0 0.0
0.0 0.09339604957672493 0.07996546720767596 -0.07918206051225403 -0.0007834066954219268 1.7254860734672306e-14 0.0 0.0
0.0 0.08902305228697788 0.07664555813393925 -0.07543707501203162 -0.0012084831219077068 0.012625094698318427 0.0 0.0
0.0 0.08123326742805138 0.06984558157557796 -0.06859954706556826 -0.0012460345100097096 0.016912259645805464 0.0 0.0
0.0 0.07186369985050561 0.06151988586725451 -0.06026762931990705 -0.001252256547347401 0.017998700329588484 0.0 0.0
0.0 0.06176722182537143 0.05270854097340652 -0.0514785697681177 -0.001229971205288811 0.01723802201237681 0.0 0.0
0.0 0.051482538452818805 0.044111961321437757 -0.04292118539562059 -0.0011907759258171688 0.015575751899839344 0.0 0.0
0.0 0.04231773766496851 0.036138451197088806 -0.03500245348652733 -0.0011359977105614822 0.013565925443263932 0.0 0.0
0.0 0.03402480801405492 0.02900278258044046 -0.027934906362655682 -0.0010678762177847977 0.011561170549726493 0.0 0.0
0.0 0.02659806856626116 0.022737672151215506 -0.02174654580410781 -0.0009911263471076774 0.009703223582337613 0.0 0.0
0.0 0.02016078178418145 0.017254153600664845 -0.01634390006720255 -0.0009102535334622905 0.007932988816916085 0.0 0.0
0.0 0.014519829283587804 0.012450567926915426 -0.01162136043535324 -0.0008292074915621878 0.006149787573983845 0.0 0.0
0.0 0.009644485954319692 0.008297529991710545 -0.00756011156761451 -0.0007374184240960285 0.004354819626607366 0.0 0.0
0.0 0.005483338446035265 0.00486211732603096 -0.004254980156298715 -0.000607137169732247 0.0026441857334861566 0.0 0.0
0.0 0.002853432603561831 0.0022491595730588553 -0.0018504252878864048 -0.0003987342851724502 0.0012017985356487754 0.0 0.0
0.0 0.0007779927160526802 0.0006853651780932294 -0.0005255050333835734 -0.0001598601447096557 0.00036374338021667046 0.0 0.0
0.0 4.446050830726066e-05 4.229318799493983e-05 -2.877869306661806e-05 -1.3514494928321802e-05 1.1434207092311299e-06 0.0 0.0
0.0 -4.3969449204780185e-06 -4.408741766275051e-06 3.5223002016041445e-06 8.864415646708788e-07 -6.220492533387307e-06 0.0 0.0
0.0 -4.930754293848574e-07 3.683502997241244e-08 -2.8272421245946087e-08 -8.562608726462763e-09 7.715859356278835e-08 0.0 0.0
0.0 0.0 0.0 0.0 0.0 0.0 0.0 0.0
0.0 0.0006651775815538966 0.0003138628348777168 -0.00013738175744916004 -0.00017648107742855647 0.0012001972278045156 0.0 0.0
0.0 0.003670090202236001 0.002484170777110122 -0.0035266336202712475 0.0010424628431611224 0.0018063037370744431 0.0 0.0
0.0 0.0023393777954523825 0.0016046753405738693 -0.0023030549622134423 0.0006983796216395728 -0.001325825168113229 0.0 0.0
0.0 0.00037390479724347115 0.00014236964515596846 -4.1166142391227104e-05 -0.00010120350276474124 -0.0006651260510411644 0.0 0.0
0.0 0.0 0.0 0.0 0.0 0.0 0.0 0.0
0.0 -1.5718552920546317e-07 7.200677098081056e-09 -5.104022359583998e-09 -2.0966547385017164e-09 -3.067144082449297e-08 0.0 0.0
0.0 -2.960465340783658e-06 -5.271551195300382e-07 4.1462930705520154e-07 1.1252581247486399e-07 1.2482928647420476e-06 0.0 0.0
0.0 -2.300686073911023e-05 -1.7728510414702275e-05 1.4979922384506323e-05 2.7485880301960223e-06 3.7691194978369735e-05 0.0 0.0
0.0 0.0003720250769263196 0.00028431928009824646 -0.00021396592243601265 -7.035335766223415e-05 -0.0002179074991405408 0.0 0.0
0.0 0.0015947478133213934 0.0013509243952415327 -0.0010806517315525897 -0.0002702726636889434 -0.000986309556488716 0.0 0.0
0.0 0.0042116571635958475 0.003280571180892882 -0.0027972854391187197 -0.00048328574177416284 -0.0022798358204337964 0.0 0.0
0.0 0.007051756103104511 0.006038583007972652 -0.005398944000271962 -0.0006396390077006951 -0.004046992824173151 0.0 0.0
0.0 0.011138887065888694 0.009370120635726927 -0.00863002052536976 -0.0007401001103571677 -0.005902120814457351 0.0 0.0
0.0 0.015696581124259024 0.013206160436118152 -0.01238631794006181 -0.000819842496056337 -0.007734705987960012 0.0 0.0
0.0 0.020834790511489842 0.017559354609255725 -0.01666467498933821 -0.0008946796199175112 -0.009531344296016618 0.0 0.0
0.0 0.026699144980506073 0.02252543642567601 -0.021560608217228255 -0.0009648282084477513 -0.011388753847014382 0.0 0.0
0.0 0.03335038938412188 0.028206850583167457 -0.027179598956918696 -0.0010272516262487383 -0.013365613389366891 0.0 0.0
0.0 0.04113938833803656 0.03462457398979844 -0.033547012018588215 -0.001077561971210233 -0.0153692508427411 0.0 0.0
0.0 0.049014068802164204 0.04166596392109863 -0.04054696659505928 -0.0011189973260393846 -0.01706927350683639 0.0 0.0
0.0 0.05778927262101708 0.049062089725820476 -0.04790996114467014 -0.0011521285811502508 -0.017973027510232657 0.0 0.0
0.0 0.06635189675595136 0.056399893948123295 -0.0552391616685352 -0.001160732279588101 -0.017231558222794548 0.0 0.0
0.0 0.07364220180214576 0.06289517886248347 -0.06176834269490837 -0.0011268361675751248 -0.013302842169659249 0.0 0.0
0.0 0.0784101893638856 0.06639331465626581 -0.06581146937615598 -0.0005818452801097961 1.5787284673995927e-14 0.0 0.0
0.0 0.07364220180213782 0.06289517886247364 -0.06176834269489818 -0.0011268361675753871 0.013302842169698 0.0 0.0
0.0 0.06635189675593534 0.056399893948106766 -0.05523916166851858 -0.0011607322795882064 0.017231558222833464 0.0 0.0
0.0 0.05778927262099486 0.04906208972579977 -0.04790996114464978 -0.0011521285811500119 0.017973027510255906 0.0 0.0
0.0 0.04901406880213425 0.0416659639210733 -0.040546966595034026 -0.0011189973260392367 0.017069273506838945 0.0 0.0
0.0 0.041139388338006545 0.03462457398977279 -0.03354701201856288 -0.0010775619712099062 0.015369250842732364 0.0 0.0
0.0 0.033350389384091045 0.028206850583140382 -0.027179598956892197 -0.0010272516262481732 0.01336561338935841 0.0 0.0
0.0 0.026699144980476805 0.022525436425650518 -0.021560608217203143 -0.0009648282084473597 0.011388753847007856 0.0 0.0
0.0 0.020834790511460456 0.01755935460923093 -0.016664674989313864 -0.0008946796199170673 0.009531344296007016 0.0 0.0
0.0 0.0156965811242319 0.013206160436095559 -0.01238631794003946 -0.0008198424960561143 0.007734705987947787 0.0 0.0
0.0 0.011138887065863313 0.009370120635705997 -0.008630020525349663 -0.0007401001103563322 0.005902120814441776 0.0 0.0
0.0 0.007051756103084635 0.006038583007956115 -0.00539894400025603 -0.0006396390077000881 0.004046992824160298 0.0 0.0
0.0 0.00421165716358014 0.003280571180880813 -0.0027972854391075967 -0.0004832857417732148 0.0022798358204253405 0.0 0.0
0.0 0.00159474781331268 0.0013509243952346346 -0.0010806517315466847 -0.00027027266368794895 0.0009863095564837064 0.0 0.0
0.0 0.00037202507692187214 0.00028431928009549584 -0.00021396592243390112 -7.035335766159497e-05 0.0002179074991380496 0.0 0.0
0.0 -2.3006860739372036e-05 -1.7728510414246876e-05 1.4979922384140298e-05 2.7485880301064875e-06 -3.76911949773884e-05 0.0 0.0
0.0 -2.9604653408030896e-06 -5.271551195966303e-07 4.146293071069519e-07 1.1252581248968578e-07 -1.2482928648540831e-06 0.0 0.0
0.0 -1.5718552915767728e-07 7.200677095833753e-09 -5.104022357979988e-09 -2.096654737854836e-09 3.0671440814790696e-08 0.0 0.0
0.0 0.0 0.0 0.0 0.0 0.0 0.0 0.0
0.0 0.00037390479723978145 0.00014236964515454057 -4.116614239027414e-05 -0.0001012035027642665 0.0006651260510364571 0.0 0.0
0.0 0.002339377795444054 0.0016046753405674291 -0.0023030549622044395 0.0006983796216370131 0.001325825168108879 0.0 0.0
0.0 0.00175612705461042 0.0008899466382319356 -0.0012870881767988555 0.0003971415385669203 -0.0008333695450085374 0.0 0.0
0.0 7.47018326695749e-05 3.805685880731315e-05 1.1700498635106316e-05 -4.975735744241951e-05 -0.00028685022797759183 0.0 0.0
0.0 1.501239477888374e-07 -8.943371455963241e-10 1.017711353153143e-09 -1.233742075570957e-10 2.99033348444305e-08 0.0 0.0
0.0 -6.363894460634292e-07 2.4202616213886604e-08 -1.8402187576480567e-08 -5.800428637406307e-09 -1.2534082369721003e-07 0.0 0.0
0.0 2.766933796226049e-07 -7.610753092846694e-07 6.02195628968714e-07 1.5887968031596233e-07 2.606444392671993e-06 0.0 0.0
0.0 -2.0890294907158886e-05 -1.2627075691301215e-05 1.0112185161767985e-05 2.514890529533198e-06 3.002150159366515e-05 0.0 0.0
0.0 8.520705361639787e-05 5.508306965347225e-05 -4.0163753185558425e-05 -1.491931646791391e-05 -6.528024940941596e-05 0.0 0.0
0.0 0.0007726829740563779 0.0006260473911502967 -0.000489938351129993 -0.00013610904002030416 -0.0006740630074338312 0.0 0.0
0.0 0.002380163209491312 0.0018999993788028123 -0.0015712736743601586 -0.0003287257044426528 -0.001750210574263254 0.0 0.0
0.0 0.005039603639239097 0.0038633109544969693 -0.0033646436482644136 -0.0004986673062325533 -0.0032861196353674875 0.0 0.0
0.0 0.007848029181145405 0.006364146148043286 -0.00574519339281338 -0.0006189527552299013 -0.005078787795396943 0.0 0.0
0.0 0.011257396496813633 0.009238472656454172 -0.008532468713532393 -0.0007060039429217903 -0.006849735429296763 0.0 0.0
0.0 0.01517355376481862 0.01247295502033061 -0.01169368412438863 -0.0007792708959419569 -0.008573977492897265 0.0 0.0
0.0 0.01956402789001427 0.01615301882072179 -0.015309543526830118 -0.0008434752938916737 -0.010314308838396475 0.0 0.0
0.0 0.02469343443763046 0.020384956005845632 -0.019484510553274114 -0.0009004454525715156 -0.012139308646121205 0.0 0.0
0.0 0.030423575665019638 0.025240193019333952 -0.02429195780381167 -0.0009482352155222554 -0.013989378840554253 0.0 0.0
0.0 0.037017917947043344 0.03067470203291576 -0.029686539247663544 -0.0009881627852522006 -0.015617417005758081 0.0 0.0
0.0 0.04383562347260936 0.03657666988473099 -0.03554600218585368 -0.0010306676988772864 -0.016582572121530036 0.0 0.0
0.0 0.05082209282771812 0.04281324040807135 -0.041750439182033514 -0.0010628012260378654 -0.016298024276973678 0.0 0.0
0.0 0.057881548063460006 0.048949179820523776 -0.04790861683169067 -0.0010405629888331515 -0.013305338850711383 0.0 0.0
0.0 0.06325243098896557 0.05267657251661237 -0.05232438294925637 -0.00035218956735602136 1.3766765505351941e-14 0.0 0.0
0.0 0.057881548063454316 0.04894917982051568 -0.047908616831682266 -0.001040562988833376 0.013305338850745311 0.0 0.0
0.0 0.050822092827706424 0.042813240408058055 -0.04175043918202029 -0.001062801226037787 0.016298024277009243 0.0 0.0
0.0 0.043835623472594634 0.03657666988471643 -0.03554600218583989 -0.0010306676988765615 0.016582572121551748 0.0 0.0
0.0 0.03701791794702282 0.030674702032898425 -0.029686539247647012 -0.0009881627852513825 0.015617417005758838 0.0 0.0
0.0 0.030423575664993235 0.025240193019312164 -0.02429195780378979 -0.0009482352155223917 0.013989378840544318 0.0 0.0
0.0 0.024693434437607298 0.02038495600582577 -0.01948451055325452 -0.0009004454525712417 0.012139308646113203 0.0 0.0
0.0 0.019564027889992574 0.01615301882070312 -0.015309543526812045 -0.000843475293891085 0.010314308838390266 0.0 0.0
0.0 0.015173553764798309 0.012472955020313804 -0.011693684124372297 -0.0007792708959414936 0.008573977492889335 0.0 0.0
0.0 0.011257396496792912 0.009238472656437052 -0.008532468713515587 -0.0007060039429214519 0.006849735429284794 0.0 0.0
0.0 0.007848029181125636 0.006364146148027639 -0.005745193392798437 -0.0006189527552291971 0.005078787795382735 0.0 0.0
0.0 0.005039603639222781 0.00386331095448441 -0.003364643648252506 -0.000498667306231905 0.0032861196353556194 0.0 0.0
0.0 0.0023801632094809675 0.0018999993787947901 -0.0015712736743532054 -0.00032872570444158393 0.0017502105742566254 0.0 0.0
0.0 0.0007726829740510433 0.000626047391146283 -0.0004899383511267716 -0.00013610904001951142 0.0006740630074302138 0.0 0.0
0.0 8.520705361477462e-05 5.5083069652628955e-05 -4.016375318492022e-05 -1.4919316467708722e-05 6.528024940813313e-05 0.0 0.0
0.0 -2.089029490773339e-05 -1.2627075690897578e-05 1.0112185161446464e-05 2.5148905294511493e-06 -3.0021501592545893e-05 0.0 0.0
0.0 2.76693379117587e-07 -7.610753093210341e-07 6.021956289986268e-07 1.5887968032239989e-07 -2.606444392737072e-06 0.0 0.0
0.0 -6.363894459073826e-07 2.4202616207271002e-08 -1.8402187571489822e-08 -5.8004286357806e-09 1.2534082366478187e-07 0.0 0.0
0.0 1.5012394747879627e-07 -8.94337143643398e-10 1.0177113510135556e-09 -1.2337420737023362e-10 -2.990333478189685e-08 0.0 0.0
0.0 7.470183266740263e-05 3.805685880652628e-05 1.1700498635606805e-05 -4.975735744213312e-05 0.0002868502279745477 0.0 0.0
0.0 0.0017561270546027502 0.0008899466382274976 -0.0012870881767924945 0.00039714153856499674 0.0008333695450052673 0.0 0.0
0.0 0.0007730864377101436 0.00042939540624436855 -0.000625659541029781 0.00019626413478541235 -0.0004997074537877222 0.0 0.0
0.0 -2.2618327193461502e-05 -1.7370008283383858e-05 4.036488461841658e-05 -2.2994876335032705e-05 -4.427263957399458e-05 0.0 0.0
0.0 2.3116250982612743e-06 -3.889286545003302e-09 1.1710441654874343e-08 -7.821155109869604e-09 5.020729136728286e-07 0.0 0.0
0.0 7.864306231303351e-07 -1.6387003304045022e-09 -2.085611771306629e-10 1.847261507534281e-09 1.628291981626507e-07 0.0 0.0
0.0 -1.3066570115522055e-06 -4.340351249540583e-07 3.3218286753883855e-07 1.0185225741521884e-07 2.7449456579770933e-06 0.0 0.0
0.0 -1.5115159590202476e-05 -3.5812026924675937e-06 2.912247748943181e-06 6.689549435244146e-07 1.257554753228061e-05 0.0 0.0
0.0 2.51164029143477e-06 -1.2452617608895074e-05 1.0254473036492315e-05 2.198144572402696e-06 2.394177702354665e-05 0.0 0.0
0.0 0.0002935433835374551 0.00013844019052370742 -0.00010894286953267612 -2.9497320991031263e-05 -0.00028101235672665784 0.0 0.0
0.0 0.001096750248610531 0.0007585477350976078 -0.0006152874677890521 -0.000143260267308555 -0.0010926332440896515 0.0 0.0
0.0 0.002678216623915438 0.0019181353876730563 -0.0016226684548091453 -0.0002954669328639123 -0.0022516637361710366 0.0 0.0
0.0 0.00457894219753359 0.003516540563456359 -0.0030854907116481603 -0.0004310498518081972 -0.003723363029841896 0.0 0.0
0.0 0.00698506174987489 0.005402072125231469 -0.004870461198365883 -0.0005316109268655833 -0.005257849548662741 0.0 0.0
0.0 0.009636852500523485 0.0075278725238641115 -0.00691419818405739 -0.0006136743398067176 -0.006802351190715794 0.0 0.0
0.0 0.012615548313411985 0.009942661824096779 -0.009263842109257866 -0.000678819714838902 -0.008341691068323652 0.0 0.0
0.0 0.016093216950369645 0.012739102982875988 -0.012005491965976146 -0.0007336110168998514 -0.009902065719261952 0.0 0.0
0.0 0.020170700722237058 0.01601463307219984 -0.015234239195765723 -0.0007803938764341198 -0.011491479811192555 0.0 0.0
0.0 0.02483015664777994 0.019819124561894188 -0.018995536859485494 -0.0008235877024086758 -0.012968361872367894 0.0 0.0
0.0 0.029842376803174954 0.024145625420351677 -0.023277850806738106 -0.0008677746136136109 -0.013948134189900405 0.0 0.0
0.0 0.03550880415872156 0.02907887624992122 -0.02815610203208711 -0.000922774217834063 -0.013975783438330393 0.0 0.0
0.0 0.042121851423987305 0.03468336462844888 -0.03374231551003339 -0.0009410491184154704 -0.012347021733852805 0.0 0.0
0.0 0.048004383186270386 0.03867593599346859 -0.0385844537429466 -9.148225052202969e-05 1.1413613110189402e-14 0.0 0.0
0.0 0.04212185142398598 0.03468336462844342 -0.03374231551002798 -0.0009410491184154227 0.012347021733881483 0.0 0.0
0.0 0.03550880415871292 0.029078876249910627 -0.028156102032076503 -0.000922774217834106 0.013975783438361538 0.0 0.0
0.0 0.0298423768031624 0.02414562542034021 -0.023277850806726858 -0.000867774613613324 0.013948134189916448 0.0 0.0
0.0 0.024830156647766922 0.01981912456188385 -0.018995536859476067 -0.0008235877024077893 0.012968361872366906 0.0 0.0
0.0 0.020170700722216783 0.016014633072183697 -0.015234239195749661 -0.0007803938764340225 0.0114914798111825 0.0 0.0
0.0 0.016093216950353224 0.01273910298286224 -0.012005491965962425 -0.0007336110168998106 0.00990206571925568 0.0 0.0
0.0 0.012615548313397368 0.009942661824084997 -0.009263842109246379 -0.0006788197148386195 0.00834169106831728 0.0 0.0
0.0 0.00963685250051168 0.007527872523854109 -0.006914198184048042 -0.0006136743398060723 0.006802351190710727 0.0 0.0
0.0 0.006985061749860273 0.005402072125220917 -0.004870461198355748 -0.0005316109268651668 0.005257849548652034 0.0 0.0
0.0 0.004578942197520828 0.00351654056344668 -0.0030854907116390404 -0.0004310498518076394 0.0037233630298305373 0.0 0.0
0.0 0.0026782166239053794 0.0019181353876660504 -0.0016226684548027591 -0.00029546693286329164 0.002251663736162963 0.0 0.0
0.0 0.0010967502486039448 0.0007585477350930286 -0.0006152874677851482 -0.00014326026730787994 0.001092633244084395 0.0 0.0
0.0 0.00029354338353428984 0.00013844019052201292 -0.00010894286953129925 -2.9497320990713612e-05 0.000281012356723574 0.0 0.0
0.0 2.5116402907778906e-06 -1.2452617608341006e-05 1.0254473036066522e-05 2.198144572274518e-06 -2.3941777022272832e-05 0.0 0.0
0.0 -1.5115159590859411e-05 -3.5812026922142656e-06 2.9122477487477724e-06 6.689549434664639e-07 -1.2575547530991287e-05 0.0 0.0
0.0 -1.306657012218804e-06 -4.340351249929006e-07 3.3218286756958537e-07 1.0185225742332679e-07 -2.7449456581260254e-06 0.0 0.0
0.0 7.864306230353753e-07 -1.6387003332195712e-09 -2.0856117435996048e-10 1.847261507578611e-09 -1.6282919813890725e-07 0.0 0.0
0.0 2.311625097642687e-06 -3.8892865432529645e-09 1.1710441651487585e-08 -7.821155108233517e-09 -5.020729135380154e-07 0.0 0.0
0.0 -2.261832719434417e-05 -1.7370008283457705e-05 4.036488461833648e-05 -2.2994876334878677e-05 4.427263957316405e-05 0.0 0.0
0.0 0.0007730864377049704 0.00042939540624172527 -0.0006256595410259598 0.00019626413478423383 0.0004997074537851903 0.0 0.0
0.0 0.00028945640217435025 0.00012494664495985648 -0.0001835360207171752 5.858937575731897e-05 -0.00017525256397300126 0.0 0.0
0.0 -3.775138895606294e-05 -1.896204965773127e-05 2.6747384362034537e-05 -7.785334704303279e-06 3.0357737897003385e-05 0.0 0.0
0.0 3.752924145788859e-07 1.0881436507427485e-09 -6.668165866363456e-10 -4.213270641053044e-10 7.578167770759034e-08 0.0 0.0
0.0 4.128639114282105e-07 9.745245300033869e-09 -8.2560569975867e-09 -1.489188302449299e-09 7.54523160171094e-08 0.0 0.0
0.0 -5.103619076004284e-07 -1.7706589613734503e-08 7.47155309190834e-09 1.0235036521834491e-08 1.126676316708842e-06 0.0 0.0
0.0 -9.828719112426425e-06 -2.5385598051782372e-06 2.016805085658999e-06 5.217547195192122e-07 2.1374123609302277e-05 0.0 0.0
0.0 1.1212832963730838e-05 -3.1213849819838494e-06 2.6285111446102378e-06 4.928738373736394e-07 2.9837148059728505e-06 0.0 0.0
0.0 8.34348036623039e-05 1.115838776601052e-06 -9.114308583315623e-07 -2.044079182695904e-07 -0.00011255253909290998 0.0 0.0
0.0 0.000304968510894899 7.929304371359598e-05 -6.939700310422289e-05 -9.89604060937289e-06 -0.0004552930217435153 0.0 0.0
0.0 0.0008488473485002224 0.00037787219994528653 -0.00033654095254882587 -4.133124739646124e-05 -0.0011319499032852421 0.0 0.0
0.0 0.0019268543489067214 0.0009953367606257322 -0.0008892756027041 -0.00010606115792163135 -0.002117031572556878 0.0 0.0
0.0 0.003063475577843493 0.0018633042556427842 -0.0016793566485909597 -0.00018394760705182507 -0.00329669770151793 0.0 0.0
0.0 0.004523591802388857 0.0028791834030953973 -0.0026212158430508493 -0.0002579675600445437 -0.004526372378164732 0.0 0.0
0.0 0.006208954279089059 0.00404410962102194 -0.0037159247502887576 -0.00032818487073318166 -0.005796898987689225 0.0 0.0
0.0 0.008144227525257172 0.00542556119649953 -0.005029276040775631 -0.0003962851557238967 -0.00712866027846864 0.0 0.0
0.0 0.010466037229617923 0.00711851191262171 -0.006656972352761433 -0.00046153955986027285 -0.008532280731872895 0.0 0.0
0.0 0.013347895842693249 0.009253405025898104 -0.008725132136618421 -0.0005282728892796822 -0.009952085087514953 0.0 0.0
0.0 0.01688755756172828 0.011965772989379125 -0.011372677446112074 -0.0005930955432670416 -0.011042546210052425 0.0 0.0
0.0 0.02096364767928792 0.015410283431918137 -0.01475523916010096 -0.0006550442718171939 -0.011202841649415261 0.0 0.0
0.0 0.026116048894907457 0.020073924972744097 -0.019311426086195488 -0.000762498886548596 -0.010290516588464822 0.0 0.0
0.0 0.03355198021041787 0.02425516077962374 -0.02447585011162533 0.0002206893320015941 9.747411211513679e-15 0.0 0.0
0.0 0.026116048894910836 0.020073924972742452 -0.019311426086193392 -0.0007624988865490819 0.010290516588488507 0.0 0.0
0.0 0.020963647679283014 0.015410283431911927 -0.014755239160094441 -0.0006550442718174886 0.01120284164943769 0.0 0.0
0.0 0.016887557561721257 0.011965772989373777 -0.011372677446106714 -0.0005930955432670605 0.011042546210061741 0.0 0.0
0.0 0.013347895842682315 0.009253405025891543 -0.008725132136612478 -0.0005282728892790667 0.00995208508751041 0.0 0.0
0.0 0.010466037229607306 0.00711851191261466 -0.0066569723527543775 -0.0004615395598602836 0.00853228073186372 0.0 0.0
0.0 0.008144227525249015 0.005425561196493228 -0.005029276040768961 -0.0003962851557242655 0.007128660278463618 0.0 0.0
0.0 0.006208954279083131 0.004044109621018486 -0.0037159247502855917 -0.0003281848707328988 0.005796898987685292 0.0 0.0
0.0 0.0045235918023813 0.002879183403091138 -0.002621215843046714 -0.0002579675600444222 0.004526372378157808 0.0 0.0
0.0 0.003063475577836058 0.0018633042556383344 -0.001679356648587078 -0.00018394760705125568 0.0032966977015101376 0.0 0.0
0.0 0.0019268543488995772 0.0009953367606219783 -0.0008892756027005692 -0.00010606115792140731 0.0021170315725487134 0.0 0.0
0.0 0.0008488473484975493 0.0003778721999443347 -0.00033654095254790554 -4.133124739642966e-05 0.0011319499032832966 0.0 0.0
0.0 0.00030496851089258483 7.929304371261078e-05 -6.939700310336986e-05 -9.89604060924051e-06 0.00045529302174015043 0.0 0.0
0.0 8.343480366128513e-05 1.1158387766086898e-06 -9.114308583365793e-07 -2.0440791827223002e-07 0.00011255253909180238 0.0 0.0
0.0 1.1212832962751588e-05 -3.121384981902931e-06 2.6285111445408624e-06 4.928738373620822e-07 -2.9837148055526375e-06 0.0 0.0
0.0 -9.828719112319274e-06 -2.5385598051203442e-06 2.016805085613648e-06 5.217547195066975e-07 -2.137412360846135e-05 0.0 0.0
0.0 -5.10361908242742e-07 -1.7706589618533282e-08 7.471553095840748e-09 1.0235036522689297e-08 -1.126676317021406e-06 0.0 0.0
0.0 4.128639109976356e-07 9.745245293802483e-09 -8.256056992048192e-09 -1.4891883017534705e-09 -7.545231585831602e-08 0.0 0.0
0.0 3.752924143091098e-07 1.0881436506432341e-09 -6.668165872929771e-10 -4.213270633542405e-10 -7.578167765116563e-08 0.0 0.0
0.0 -3.775138895602645e-05 -1.896204965733448e-05 2.674738436154238e-05 -7.785334704207898e-06 -3.0357737895998455e-05 0.0 0.0
0.0 0.0002894564021711168 0.00012494664495858818 -0.00018353602071537764 5.858937575678934e-05 0.00017525256397114012 0.0 0.0
0.0 1.7720122084366017e-05 1.1811103114728242e-05 -1.8300290435701498e-05 6.4891873209732055e-06 -1.79678236128514e-05 0.0 0.0
0.0 -2.2861900905605106e-06 -1.8662446818716037e-06 2.76496578993123e-06 -8.987211080596145e-07 3.1821282055285106e-06 0.0 0.0
0.0 3.5760385135368334e-06 6.876530703638028e-09 9.582906335003528e-09 -1.6459437038646185e-08 7.502385369940139e-07 0.0 0.0
0.0 1.1381053240276772e-06 3.520963175477443e-08 -3.031718905340545e-08 -4.892442701365692e-09 4.3011550021486465e-07 0.0 0.0
0.0 -1.5632347491591593e-06 1.3296860435072688e-07 -1.269218848869889e-07 -6.046719463738126e-09 2.8278074773235206e-06 0.0 0.0
0.0 -7.403486044301195e-06 -1.6120643751876373e-07 1.7627965057735996e-07 -1.507321305859296e-08 1.541144842401333e-05 0.0 0.0
0.0 1.554365838001552e-05 -5.470546309948909e-07 5.328749374679915e-07 1.4179693526886171e-08 -1.569254624107128e-06 0.0 0.0
0.0 8.758791921985014e-05 -5.697821891428597e-07 5.677913387198458e-07 1.9908504230305278e-09 -0.00014784950633565957 0.0 0.0
0.0 0.00025522058594357286 -2.1040009491062998e-08 2.5748046851166926e-08 -4.708037360094346e-09 -0.00035660135880449594 0.0 0.0
0.0 0.0004179566176706114 1.5833755827358943e-07 -9.589155333054356e-08 -6.24460049430681e-08 -0.000719208839362959 0.0 0.0
0.0 0.0007455576877946472 -8.227252023662574e-07 3.460051743878175e-07 4.7672002797833824e-07 -0.001220455604717367 0.0 0.0
0.0 0.0010203096172564223 1.7623003801383664e-06 -1.1568908763665199e-06 -6.054095037715653e-07 -0.002041576619597857 0.0 0.0
0.0 0.0014798003600167693 -4.014694448751155e-06 5.984200769842973e-06 -1.9695063210914795e-06 -0.0030464981038852107 0.0 0.0
0.0 0.0022019999528861394 -1.6625892083313833e-05 1.9788273999073695e-05 -3.1623819157596455e-06 -0.004252459982237719 0.0 0.0
0.0 0.0031256445437466093 -6.796700260924815e-06 5.048001133508282e-06 1.7486991274164249e-06 -0.005603971511822012 0.0 0.0
0.0 0.004184797381003366 0.00010944502543167392 -0.00012901985427441192 1.9574828842737648e-05 -0.007106125614853623 0.0 0.0
0.0 0.0054495883296883 0.0005165380374180849 -0.0005765011411570443 5.996310373895903e-05 -0.008710280106765871 0.0 0.0
0.0 0.006883665466510921 0.0013924522663457395 -0.0015617977872496487 0.00016934552090390654 -0.010281998511931944 0.0 0.0
0.0 0.009031516579194003 0.0025469724545057848 -0.0028389755086953455 0.0002920030541895616 -0.0114631135382217 0.0 0.0
0.0 0.01328643212406542 0.005522014598605698 -0.00536220784248256 -0.00015980675612313494 -0.011454412598241417 0.0 0.0
0.0 0.023177055630988805 0.010252356042227507 -0.010949820714367169 0.0006974646721396703 9.215718466126788e-15 0.0 0.0
0.0 0.013286432124072056 0.005522014598606484 -0.005362207842483717 -0.0001598067561227666 0.011454412598258957 0.0 0.0
0.0 0.009031516579191719 0.002546972454505102 -0.0028389755086937465 0.000292003054188645 0.01146311353822613 0.0 0.0
0.0 0.006883665466505511 0.0013924522663447377 -0.001561797787247945 0.00016934552090320468 0.010281998511928181 0.0 0.0
0.0 0.005449588329680078 0.0005165380374178167 -0.0005765011411566069 5.9963103738790787e-05 0.008710280106757668 0.0 0.0
0.0 0.0041847973809976576 0.00010944502543367693 -0.00012901985427697356 1.9574828843297502e-05 0.00710612561484613 0.0 0.0
0.0 0.0031256445437430887 -6.796700259905123e-06 5.048001132500679e-06 1.748699127403306e-06 0.005603971511817739 0.0 0.0
0.0 0.002201999952883375 -1.6625892082181872e-05 1.9788273998110382e-05 -3.1623819159282796e-06 0.004252459982232805 0.0 0.0
0.0 0.001479800360010637 -4.014694448648589e-06 5.984200769580976e-06 -1.969506320932393e-06 0.0030464981038738556 0.0 0.0
0.0 0.0010203096172513163 1.7623003800943207e-06 -1.156890876333506e-06 -6.054095037608554e-07 0.0020415766195914556 0.0 0.0
0.0 0.0007455576877918497 -8.227252025521438e-07 3.4600517443819564e-07 4.767200281140024e-07 0.0012204556047121279 0.0 0.0
0.0 0.00041795661766998843 1.5833755833812106e-07 -9.589155341410463e-08 -6.24460049239385e-08 0.0007192088393612737 0.0 0.0
0.0 0.0002552205859429869 -2.1040009403876388e-08 2.5748046797525177e-08 -4.708037393692834e-09 0.00035660135880396837 0.0 0.0
0.0 8.758791921848798e-05 -5.697821891565941e-07 5.677913387578188e-07 1.9908503987867044e-09 0.00014784950633328078 0.0 0.0
0.0 1.554365837902196e-05 -5.470546309893993e-07 5.32874937459363e-07 1.4179693530051338e-08 1.5692546243707939e-06 0.0 0.0
0.0 -7.4034860444373436e-06 -1.6120643754235397e-07 1.7627965059974524e-07 -1.5073213057397918e-08 -1.541144842311514e-05 0.0 0.0
0.0 -1.5632347490420021e-06 1.3296860430891135e-07 -1.2692188484653418e-07 -6.04671946237389e-09 -2.827807476184777e-06 0.0 0.0
0.0 1.1381053231761614e-06 3.520963177892103e-08 -3.0317189074436246e-08 -4.892442704485708e-09 -4.3011550065848937e-07 0.0 0.0
0.0 3.5760385132114093e-06 6.87653070451175e-09 9.582906336029546e-09 -1.6459437040532104e-08 -7.502385370368246e-07 0.0 0.0
0.0 -2.286190091473538e-06 -1.8662446819214194e-06 2.76496578999905e-06 -8.987211080776435e-07 -3.1821282055346147e-06 0.0 0.0
0.0 1.7720122084310685e-05 1.1811103115171047e-05 -1.8300290436338856e-05 6.489187321167914e-06 1.796782361385358e-05 0.0 0.0
0.0 1.195319233563103e-06 -1.32824765906025e-07 2.0079939581619266e-07 -6.797462991018135e-08 2.723071040311907e-07 0.0 0.0
0.0 -2.428778579991395e-07 2.3210107732475584e-08 -3.308889243267129e-08 9.878784700197975e-09 -1.7746710616986654e-08 0.0 0.0
0.0 -3.242389806564689e-07 -7.975290571604364e-10 -1.759210141153929e-09 2.55673919831399e-09 -1.0581677086679e-07 0.0 0.0
0.0 9.695073040173953e-07 1.3655754493088993e-07 -1.1571239698136424e-07 -2.0845147949527295e-08 9.062488280351524e-07 0.0 0.0
0.0 -1.6317207174471792e-06 1.5717781928102257e-07 -1.477860344374995e-07 -9.391784843520592e-09 9.562471727973704e-07 0.0 0.0
0.0 -6.845092440118324e-06 6.926264981452106e-07 -4.5820998854209784e-07 -2.3441650960307914e-07 8.037469061856366e-06 0.0 0.0
0.0 2.9222213469952946e-05 2.9700893301512943e-06 -2.2488591004387902e-06 -7.212302297125668e-07 5.363861566269057e-06 0.0 0.0
0.0 9.103939969969863e-05 -2.654843812757403e-06 2.352310266455957e-06 3.0253354630145267e-07 -0.00011640087452869491 0.0 0.0
0.0 0.00030595834402258966 -8.003861503311044e-05 6.9996996403657e-05 1.0041618629453302e-05 -0.00045819710922913884 0.0 0.0
0.0 0.0008467684290924652 -0.00037694343538559425 0.00033565607659684403 4.128735878875089e-05 -0.0011311870256011064 0.0 0.0
0.0 0.0019321211325570822 -0.0009902877260043383 0.0008855892750023553 0.00010469845100198305 -0.0021112785011771656 0.0 0.0
0.0 0.003082808081946112 -0.0018719094668810722 0.0016864962680466764 0.00018541319883439575 -0.003297108298894199 0.0 0.0
0.0 0.004555936625714658 -0.002906568076213035 0.0026451106565085697 0.0002614574197044606 -0.004527041329077672 0.0 0.0
0.0 0.006263485806493742 -0.0040920359222400395 0.00376061267639826 0.00033142324584178146 -0.005794971979507696 0.0 0.0
0.0 0.008128606347899093 -0.00542733780897519 0.005041179891033311 0.0003861579179418816 -0.007140830844548664 0.0 0.0
0.0 0.010107936832347193 -0.006801317776861014 0.006391474190660864 0.00040984358620014876 -0.008631961566450519 0.0 0.0
0.0 0.011917420050893995 -0.007954138468018762 0.0075612058682523325 0.0003929325997664308 -0.010338043115381532 0.0 0.0
0.0 0.013370627744156947 -0.008470738063163645 0.008157306633428405 0.00031343142973523094 -0.012294443405519292 0.0 0.0
0.0 0.013570740031141844 -0.007832814080954863 0.00767377597710912 0.00015903810384575507 -0.014467174883991112 0.0 0.0
0.0 0.01122753542500975 -0.0056596417299583715 0.005762521092077142 -0.00010287936211876924 -0.0161375497771735 0.0 0.0
0.0 0.02213276402280719 -0.0030399077909836264 0.001236166189686861 0.0018037416012967621 1.2779707847521138e-14 0.0 0.0
0.0 0.01122753542501432 -0.0056596417299592285 0.0057625210920783715 -0.00010287936211913847 0.016137549777184065 0.0 0.0
0.0 0.013570740031142767 -0.007832814080954754 0.0076737759771091825 0.00015903810384557696 0.01446717488400294 0.0 0.0
0.0 0.013370627744149282 -0.008470738063158439 0.008157306633422918 0.0003134314297355212 0.012294443405520494 0.0 0.0
0.0 0.011917420050880086 -0.007954138468009056 0.007561205868242834 0.0003929325997662233 0.010338043115372786 0.0 0.0
0.0 0.010107936832334257 -0.006801317776851012 0.006391474190651624 0.00040984358619938896 0.008631961566442144 0.0 0.0
0.0 0.008128606347891022 -0.005427337808968183 0.00504117989102695 0.0003861579179412381 0.007140830844542551 0.0 0.0
0.0 0.0062634858064836985 -0.004092035922232593 0.0037606126763908513 0.00033142324584174243 0.005794971979500324 0.0 0.0
0.0 0.004555936625700012 -0.002906568076202368 0.0026451106564985448 0.00026145741970382214 0.004527041329067045 0.0 0.0
0.0 0.0030828080819345367 -0.0018719094668729049 0.0016864962680394238 0.00018541319883348055 0.00329710829888397 0.0 0.0
0.0 0.0019321211325451836 -0.0009902877259970197 0.0008855892749959228 0.00010469845100109616 0.0021112785011669906 0.0 0.0
0.0 0.0008467684290862778 -0.00037694343538285626 0.0003356560765942433 4.128735878861266e-05 0.0011311870255961336 0.0 0.0
0.0 0.00030595834402035517 -8.003861503216121e-05 6.999699640280742e-05 1.004161862935389e-05 0.0004581971092269359 0.0 0.0
0.0 9.103939969838795e-05 -2.65484381272724e-06 2.3523102664552913e-06 3.0253354627193696e-07 0.0001164008745274794 0.0 0.0
0.0 2.9222213468457777e-05 2.970089330168091e-06 -2.248859100456507e-06 -7.212302297115702e-07 -5.3638615663864504e-06 0.0 0.0
0.0 -6.845092440580136e-06 6.926264980279017e-07 -4.5820998844631927e-07 -2.34416509581584e-07 -8.037469060942886e-06 0.0 0.0
0.0 -1.631720717380736e-06 1.571778191490488e-07 -1.4778603432559628e-07 -9.39178482345633e-09 -9.562471717038386e-07 0.0 0.0
0.0 9.695073037692657e-07 1.365575448933889e-07 -1.1571239695173639e-07 -2.0845147941651818e-08 -9.062488275202837e-07 0.0 0.0
0.0 -3.2423898087788385e-07 -7.975290707971964e-10 -1.7592101417445044e-09 2.5567392125374733e-09 1.0581677141746136e-07 0.0 0.0
0.0 -2.428778580850895e-07 2.3210107742203837e-08 -3.308889244413045e-08 9.87878470193016e-09 1.7746710483997922e-08 0.0 0.0
0.0 1.1953192325735992e-06 -1.3282476596062038e-07 2.0079939589209926e-07 -6.797462993149934e-08 -2.7230710414792463e-07 0.0 0.0
0.0 0.0 0.0 0.0 0.0 0.0 0.0 0.0
0.0 6.880248193494307e-07 2.5048177246087156e-09 8.32474642317674e-09 -1.0829564147790443e-08 1.407242047044977e-07 0.0 0.0
0.0 5.022181113092171e-07 6.754449470764505e-08 -5.262282231205687e-08 -1.49216723955972e-08 5.124033010677606e-07 0.0 0.0
0.0 -3.7778464708906753e-07 -2.9758760895583037e-07 2.4192271027766494e-07 5.5664898678158364e-08 -1.8920714648311736e-06 0.0 0.0
0.0 3.980869985061983e-06 1.0152493140543907e-06 -8.494751034273343e-07 -1.6577421062700987e-07 5.609306523193802e-06 0.0 0.0
0.0 4.241620816081947e-06 7.242971100562237e-06 -5.7962634316552375e-06 -1.4467076689069772e-06 2.729034909322723e-05 0.0 0.0
0.0 4.532579904784106e-06 2.6967842185327434e-06 -2.1405194672167368e-06 -5.562647513159329e-07 -1.9412527121981745e-05 0.0 0.0
0.0 0.00030712903530519454 -0.00014403406431588814 0.00011375108008083605 3.0282984235051955e-05 -0.00029377728697822217 0.0 0.0
0.0 0.0010957784212997802 -0.000757802101821729 0.0006145436724682732 0.00014325842935345652 -0.001093708193508296 0.0 0.0
0.0 0.002673907108471069 -0.0019159045342999152 0.0016205206060744587 0.00029538392822545546 -0.0022482064720890055 0.0 0.0
0.0 0.004578178225337295 -0.003516736157219819 0.003085723831306138 0.000431012325913683 -0.0037214542990628248 0.0 0.0
0.0 0.006994199270812214 -0.005409570833006938 0.0048775345023854225 0.0005320363306215158 -0.00525868787966858 0.0 0.0
0.0 0.009663277065942378 -0.007552150177858092 0.0069375390900419664 0.0006146110878161227 -0.006790905867039237 0.0 0.0
0.0 0.012656506677878803 -0.009987178319778071 0.00930827030954983 0.0006789080102282432 -0.008300030481699168 0.0 0.0
0.0 0.01608219756715337 -0.012745890755102362 0.012019657423153791 0.0007262333319485621 -0.009866168327907605 0.0 0.0
0.0 0.019847740859714566 -0.01573550168274771 0.014984317525294 0.0007511841574537096 -0.011675039899806623 0.0 0.0
0.0 0.023583759925108905 -0.018654002231812336 0.01790138255162944 0.0007526196801828925 -0.01394475668169489 0.0 0.0
0.0 0.026563482747556905 -0.02098660540456817 0.020252725174216047 0.0007338802303521322 -0.016785620930805017 0.0 0.0
0.0 0.028205579597495797 -0.02177172529095623 0.021103435590567737 0.0006682897003884777 -0.019632030007510785 0.0 0.0
0.0 0.026118685682727415 -0.019134261227734206 0.01856400567680854 0.0005702555509256611 -0.020177588956999056 0.0 0.0
0.0 0.027321445786593606 -0.015090188711733779 0.012484856750040007 0.0026053319616937665 1.2297454721199585e-14 0.0 0.0
0.0 0.026118685682735704 -0.019134261227735275 0.01856400567681005 0.000570255550925221 0.020177588957025025 0.0 0.0
0.0 0.028205579597495933 -0.021771725290952528 0.021103435590564417 0.0006682897003881089 0.019632030007534242 0.0 0.0
0.0 0.02656348274754218 -0.02098660540455532 0.020252725174203193 0.0007338802303521164 0.016785620930811655 0.0 0.0
0.0 0.023583759925087974 -0.0186540022317954 0.01790138255161258 0.0007526196801828243 0.013944756681688812 0.0 0.0
0.0 0.019847740859694693 -0.01573550168273146 0.014984317525278238 0.0007511841574532373 0.01167503989979738 0.0 0.0
0.0 0.016082197567137035 -0.012745890755088975 0.012019657423140933 0.0007262333319480383 0.009866168327898949 0.0 0.0
0.0 0.012656506677860476 -0.009987178319762376 0.009308270309534383 0.000678908010227984 0.008300030481689554 0.0 0.0
0.0 0.009663277065921379 -0.007552150177841223 0.006937539090025412 0.0006146110878158085 0.006790905867028402 0.0 0.0
0.0 0.006994199270792238 -0.0054095708329916945 0.0048775345023707615 0.0005320363306209308 0.005258687879654671 0.0 0.0
0.0 0.004578178225319663 -0.003516736157206181 0.0030857238312931956 0.00043101232591298593 0.003721454299048676 0.0 0.0
0.0 0.0026739071084571652 -0.0019159045342896663 0.0016205206060652096 0.0002953839282244568 0.002248206472079065 0.0 0.0
0.0 0.0010957784212926656 -0.0007578021018165247 0.0006145436724640372 0.00014325842935248749 0.001093708193503328 0.0 0.0
0.0 0.0003071290353019485 -0.00014403406431412512 0.0001137510800794619 3.0282984234662994e-05 0.00029377728697501076 0.0 0.0
0.0 4.532579903667227e-06 2.6967842182076072e-06 -2.140519466978463e-06 -5.562647512291781e-07 1.9412527122309872e-05 0.0 0.0
0.0 4.2416208149900406e-06 7.242971100439966e-06 -5.7962634315520655e-06 -1.4467076688879992e-06 -2.729034909261654e-05 0.0 0.0
0.0 3.9808699844031875e-06 1.0152493140995048e-06 -8.494751034646258e-07 -1.657742106348809e-07 -5.609306523399101e-06 0.0 0.0
0.0 -3.777846469965247e-07 -2.975876090647378e-07 2.419227103664258e-07 5.566489869832202e-08 1.892071465604915e-06 0.0 0.0
0.0 5.022181104123345e-07 6.75444947149462e-08 -5.2622822320079355e-08 -1.4921672394862812e-08 -5.124033010773866e-07 0.0 0.0
0.0 6.880248191809002e-07 2.5048177248053658e-09 8.324746419153091e-09 -1.0829564143958909e-08 -1.407242046677047e-07 0.0 0.0
0.0 0.0 0.0 0.0 0.0 0.0 0.0 0.0
0.0 0.0 0.0 0.0 0.0 0.0 0.0 0.0
0.0 -2.601208151042033e-07 -4.54463681070783e-09 2.796718489368658e-09 1.747918321339569e-09 -5.343306389855201e-08 0.0 0.0
0.0 8.768806017353131e-07 1.2448174449155846e-08 -4.41157639447504e-09 -8.036598054674761e-09 1.786962950399552e-07 0.0 0.0
0.0 1.4933507544977054e-06 4.1390372824070907e-07 -3.4283156954086043e-07 -7.107215869985121e-08 1.577533078686903e-06 0.0 0.0
0.0 -9.163830746497952e-08 2.390543368299036e-06 -1.9174478323733462e-06 -4.730955359257251e-07 7.242484433783958e-06 0.0 0.0
0.0 -1.5221261889514807e-05 1.9216318588770036e-06 -1.5661724052126647e-06 -3.5545945366428237e-07 -3.1406827941915077e-06 0.0 0.0
0.0 0.00014594205995431943 -6.622049936310198e-05 4.977653824400096e-05 1.6443961119100842e-05 -8.252471150022397e-05 0.0 0.0
0.0 0.000786634741451275 -0.0006292470506718067 0.0004930712594965307 0.00013617579117527638 -0.0006837103392749413 0.0 0.0
0.0 0.0023764633367162266 -0.0018971333631537506 0.0015684419223472947 0.0003286914408064532 -0.001747423395603236 0.0 0.0
0.0 0.005036742913025685 -0.003861325411926477 0.0033625609821856923 0.0004987644297407858 -0.003281340614286836 0.0 0.0
0.0 0.00784523422618281 -0.006365915784491498 0.005747106167248681 0.0006188096172428173 -0.005078406586075279 0.0 0.0
0.0 0.01126525540889271 -0.009244609748655465 0.008538693400943473 0.0007059163477119877 -0.006849116030472718 0.0 0.0
0.0 0.015187012292450761 -0.0124869275369058 0.011707460328611976 0.0007794672082938286 -0.008548998995611614 0.0 0.0
0.0 0.01957681967893517 -0.016177126507793356 0.015333420227322701 0.0008437062804706539 -0.010221992970642631 0.0 0.0
0.0 0.02466036053788618 -0.020384018281054482 0.019488206491602034 0.0008958117894524577 -0.012009641377217299 0.0 0.0
0.0 0.030179150699629332 -0.025039983351603193 0.024113842547409645 0.000926140804193546 -0.014176379450075239 0.0 0.0
0.0 0.03613585007114093 -0.02979216646938412 0.028863382489181657 0.0009287839802024477 -0.017124903108117106 0.0 0.0
0.0 0.041237851314530054 -0.033859679188556646 0.03297068252728505 0.0008889966612715605 -0.02096361263703034 0.0 0.0
0.0 0.04400048833130328 -0.035753834212147145 0.0349500819323555 0.0008037522797916549 -0.024642889117648253 0.0 0.0
0.0 0.04120782124683993 -0.03286100880916193 0.032237274562333225 0.0006237342468286761 -0.025799500660792438 0.0 0.0
0.0 0.03844157311162016 -0.027109760846352506 0.02377178435481194 0.0033379764915405577 1.3178694246995803e-14 0.0 0.0
0.0 0.04120782124684383 -0.03286100880915931 0.03223727456233081 0.0006237342468285333 0.025799500660823503 0.0 0.0
0.0 0.044000488331297403 -0.03575383421213737 0.034950081932345924 0.0008037522797914038 0.024642889117678396 0.0 0.0
0.0 0.04123785131450997 -0.03385967918853792 0.032970682527266516 0.0008889966612714061 0.020963612637043275 0.0 0.0
0.0 0.03613585007111321 -0.029792166469360726 0.028863382489158526 0.0009287839802022233 0.017124903108113154 0.0 0.0
0.0 0.030179150699602184 -0.025039983351580277 0.024113842547387042 0.0009261408041932242 0.014176379450064924 0.0 0.0
0.0 0.024660360537861203 -0.020384018281033547 0.019488206491581863 0.0008958117894516846 0.012009641377207472 0.0 0.0
0.0 0.01957681967890802 -0.016177126507770388 0.015333420227299957 0.0008437062804704239 0.01022199297063209 0.0 0.0
0.0 0.015187012292423816 -0.012486927536883512 0.011707460328589995 0.000779467208293516 0.008548998995599839 0.0 0.0
0.0 0.011265255408864664 -0.009244609748632874 0.008538693400921497 0.0007059163477113818 0.006849116030456858 0.0 0.0
0.0 0.00784523422615865 -0.006365915784472238 0.0057471061672299695 0.0006188096172422679 0.005078406586059261 0.0 0.0
0.0 0.005036742913006903 -0.003861325411911474 0.003362560982171735 0.0004987644297397393 0.0032813406142747697 0.0 0.0
0.0 0.002376463336703967 -0.0018971333631443293 0.0015684419223391192 0.0003286914408052073 0.0017474233955958737 0.0 0.0
0.0 0.0007866347414445849 -0.0006292470506668191 0.0004930712594925111 0.00013617579117430862 0.0006837103392701006 0.0 0.0
0.0 0.00014594205995177557 -6.622049936197294e-05 4.977653824315961e-05 1.6443961118813464e-05 8.252471149869346e-05 0.0 0.0
0.0 -1.5221261889414184e-05 1.9216318580678686e-06 -1.5661724045852244e-06 -3.5545945348262133e-07 3.1406827958985256e-06 0.0 0.0
0.0 -9.163830793211766e-08 2.3905433679899953e-06 -1.9174478321198843e-06 -4.7309553587010726e-07 -7.242484432644929e-06 0.0 0.0
0.0 1.4933507535646596e-06 4.1390372828034545e-07 -3.4283156957413495e-07 -7.107215870621493e-08 -1.5775330788009e-06 0.0 0.0
0.0 8.768806017548074e-07 1.2448174450744215e-08 -4.411576396546859e-09 -8.036598054201751e-09 -1.7869629504425285e-07 0.0 0.0
0.0 -2.601208150903466e-07 -4.544636810377973e-09 2.7967184891725414e-09 1.7479183212069819e-09 5.3433063895465725e-08 0.0 0.0
0.0 0.0 0.0 0.0 0.0 0.0 0.0 0.0
0.0 0.0 0.0 0.0 0.0 0.0 0.0 0.0
0.0 0.0 0.0 0.0 0.0 0.0 0.0 0.0
0.0 -2.95889627028445e-07 -1.3592507698731995e-08 1.083743040721265e-08 2.7550772915178707e-09 -5.501979115714737e-08 0.0 0.0
0.0 -1.154770290595386e-06 -1.826739667076016e-07 1.5176802125108027e-07 3.090594545653178e-08 -5.678964060646724e-07 0.0 0.0
0.0 1.969880578107934e-06 4.595279136777626e-06 -3.70610607719297e-06 -8.891730595846517e-07 1.0698008367754303e-05 0.0 0.0
0.0 2.8436335964774613e-05 7.091814635430345e-06 -6.499428506271398e-06 -5.923861291590156e-07 2.0730280064495202e-05 0.0 0.0
0.0 0.0003919230276820505 -0.00031162730636933943 0.00023725655307459858 7.437075329474107e-05 -0.0002707367343191036 0.0 0.0
0.0 0.00160212389530327 -0.0013505560388993325 0.0010806454492932741 0.00026991058960605804 -0.0009931721937023066 0.0 0.0
0.0 0.0042061162682367976 -0.0032766983768653334 0.002793201984283944 0.0004834963925813878 -0.002273556761846138 0.0 0.0
0.0 0.0070494045756629535 -0.00603806331717981 0.005398269637378727 0.0006397936798010862 -0.004042555275107407 0.0 0.0
0.0 0.011143258009462309 -0.009373180810237984 0.008633349202601583 0.000739831607636386 -0.00590226273306064 0.0 0.0
0.0 0.01570090531129043 -0.013209502123990033 0.012390273868763815 0.0008192282552262139 -0.007732208199366983 0.0 0.0
0.0 0.02082987078024675 -0.017556907317160007 0.016662898303200245 0.0008940090139597717 -0.009496147224177619 0.0 0.0
0.0 0.026671002541281807 -0.02251371806122964 0.021548384966859013 0.0009653330943706119 -0.011258191068524775 0.0 0.0
0.0 0.033288715441419044 -0.028185458224617533 0.027158099941722618 0.0010273582828948906 -0.013149738545902522 0.0 0.0
0.0 0.04100519635521888 -0.03453342233662921 0.03346738127977039 0.001066041056858856 -0.015500295230582141 0.0 0.0
0.0 0.04852771096574842 -0.04114236579932159 0.040078072154839904 0.0010642936444815853 -0.018799244693674944 0.0 0.0
0.0 0.05579194549226664 -0.04689326761490583 0.04589115283684639 0.0010021147780594972 -0.023182264837849412 0.0 0.0
0.0 0.05981967267421169 -0.049715408071486784 0.0488474113526299 0.0008679967188568597 -0.027667222392291437 0.0 0.0
0.0 0.05629146094183502 -0.04618813818769706 0.045565788055241405 0.0006223501324556412 -0.029659832230099024 0.0 0.0
0.0 0.050559861032191816 -0.03888217405466315 0.03492208945984246 0.00396008459482065 1.451703340871191e-14 0.0 0.0
0.0 0.0562914609418322 -0.046188138187689534 0.0455657880552335 0.0006223501324560106 0.029659832230131012 0.0 0.0
0.0 0.05981967267420159 -0.049715408071473406 0.0488474113526173 0.0008679967188561521 0.027667222392325313 0.0 0.0
0.0 0.055791945492240966 -0.046893267614882224 0.04589115283682284 0.0010021147780593105 0.023182264837865365 0.0 0.0
0.0 0.04852771096571548 -0.04114236579929324 0.04007807215481155 0.001064293644481669 0.01879924469367291 0.0 0.0
0.0 0.04100519635518351 -0.03453342233659905 0.0334673812797405 0.0010660410568585593 0.015500295230572673 0.0 0.0
0.0 0.03328871544138344 -0.028185458224587238 0.02715809994169252 0.0010273582828947382 0.013149738545890716 0.0 0.0
0.0 0.02667100254124846 -0.02251371806120084 0.021548384966830796 0.0009653330943700355 0.011258191068514273 0.0 0.0
0.0 0.020829870780213037 -0.017556907317131477 0.01666289830317214 0.0008940090139593367 0.009496147224165509 0.0 0.0
0.0 0.015700905311255807 -0.013209502123961006 0.01239027386873505 0.0008192282552259536 0.007732208199350794 0.0 0.0
0.0 0.011143258009432798 -0.009373180810213303 0.008633349202577268 0.0007398316076360431 0.005902262733043706 0.0 0.0
0.0 0.007049404575639653 -0.006038063317160108 0.005398269637359705 0.0006397936798004003 0.004042555275093323 0.0 0.0
0.0 0.004206116268218994 -0.0032766983768514803 0.0027932019842713284 0.0004834963925801554 0.002273556761836929 0.0 0.0
0.0 0.0016021238952934657 -0.0013505560388916392 0.0010806454492868862 0.0002699105896047531 0.000993172193697169 0.0 0.0
0.0 0.00039192302767747297 -0.00031162730636644955 0.00023725655307235357 7.437075329409576e-05 0.00027073673431681096 0.0 0.0
0.0 2.8436335963490836e-05 7.091814635583937e-06 -6.499428506386642e-06 -5.923861291973303e-07 -2.0730280064540864e-05 0.0 0.0
0.0 1.9698805769100207e-06 4.595279136743922e-06 -3.706106077165252e-06 -8.891730595786503e-07 -1.069800836767145e-05 0.0 0.0
0.0 -1.1547702913681377e-06 -1.8267396675730775e-07 1.51768021290399e-07 3.090594546692714e-08 5.678964062301872e-07 0.0 0.0
0.0 -2.9588962689353585e-07 -1.3592507692400482e-08 1.0837430402124616e-08 2.755077290274585e-09 5.50197911312241e-08 0.0 0.0
0.0 0.0 0.0 0.0 0.0 0.0 0.0 0.0
0.0 0.0 0.0 0.0 0.0 0.0 0.0 0.0
0.0 0.0 0.0 0.0 0.0 0.0 0.0 0.0
0.0 0.0 0.0 0.0 0.0 0.0 0.0 0.0
0.0 -3.008317283811859e-07 -1.6894082401111415e-08 1.3667650964936457e-08 3.226431436173586e-09 -5.3084951058647605e-08 0.0 0.0
0.0 9.06173730882996e-07 1.8539160877284768e-08 -1.1831112171621305e-08 -6.708048705638463e-09 5.027098289715334e-08 0.0 0.0
0.0 -1.3626731563973623e-05 2.665555606747962e-06 -2.2747051906730193e-06 -3.908504160749502e-07 5.431744452739391e-06 0.0 0.0
0.0 0.00012402000757186622 -5.539503764997174e-05 3.9595179513188144e-05 1.5799858136783687e-05 -1.61988254057506e-05 0.0 0.0
0.0 0.0008182179361399488 -0.0006977578412280948 0.000537991037545689 0.00015976680368240544 -0.00039136757076549617 0.0 0.0
0.0 0.00285425631742598 -0.0022456723003454414 0.0018471670616739023 0.0003985052386715394 -0.0012037132744721873 0.0 0.0
0.0 0.005479590274873566 -0.004858936101091967 0.0042515157800643195 0.0006074203210276436 -0.0026365068814992757 0.0 0.0
0.0 0.009644946784414394 -0.008298918478092403 0.007561384827964952 0.0007375336501274553 -0.004351373560939139 0.0 0.0
0.0 0.0145242755722864 -0.012454467468775047 0.011625608521517788 0.0008288589472572641 -0.006149987076816108 0.0 0.0
0.0 0.02016018486417953 -0.017253404703803474 0.01634424861899427 0.0009091560848092006 -0.00792762243803768 0.0 0.0
0.0 0.026571201554828887 -0.022715799471118004 0.02172642515802491 0.0009893743130930826 -0.009661178614375236 0.0 0.0
0.0 0.033949216744718846 -0.02894745224889828 0.027879330362718554 0.001068121886179738 -0.011418984030969434 0.0 0.0
0.0 0.04222032885306003 -0.03608254691634649 0.0349413615435815 0.0011411853727649407 -0.0133167130151527 0.0 0.0
0.0 0.05144440196697478 -0.044108465116179774 0.0429184797750567 0.0011899853411230926 -0.01559912840757672 0.0 0.0
0.0 0.061617756232045004 -0.05252257756981972 0.05134009690054563 0.0011824806692740625 -0.01877179408064057 0.0 0.0
0.0 0.07039817017000652 -0.05990972224079626 0.0588180465738099 0.0010916756669862953 -0.023243529268436508 0.0 0.0
0.0 0.07497542722178979 -0.06356239242058624 0.06265634715531254 0.0009060452652737047 -0.028380490254223 0.0 0.0
0.0 0.07102201683927697 -0.05936905922764242 0.0587573691156075 0.000611690112034901 -0.032149736402346536 0.0 0.0
0.0 0.06365238266372916 -0.05066876856682402 0.046149164947761716 0.004519603619062305 1.446846115138456e-14 0.0 0.0
0.0 0.07102201683927412 -0.059369059227634816 0.05875736911560003 0.0006116901120348079 0.03214973640238174 0.0 0.0
0.0 0.07497542722177457 -0.06356239242056923 0.06265634715529575 0.0009060452652734781 0.028380490254258064 0.0 0.0
0.0 0.07039817016997309 -0.05990972224076613 0.058818046573779835 0.0010916756669863026 0.023243529268453654 0.0 0.0
0.0 0.06161775623200771 -0.052522577569787406 0.051340096900513145 0.0011824806692741607 0.018771794080641377 0.0 0.0
0.0 0.051444401966933326 -0.04410846511614393 0.042918479775021307 0.0011899853411226787 0.015599128407569902 0.0 0.0
0.0 0.04222032885301746 -0.036082546916309896 0.03494136154354528 0.0011411853727646222 0.013316713015143446 0.0 0.0
0.0 0.03394921674467898 -0.02894745224886339 0.02787933036268451 0.0010681218861788686 0.011418984030959103 0.0 0.0
0.0 0.02657120155478919 -0.022715799471083854 0.02172642515799095 0.0009893743130928833 0.009661178614363755 0.0 0.0
0.0 0.020160184864137985 -0.017253404703768196 0.016344248618959268 0.0009091560848089109 0.007927622438022329 0.0 0.0
0.0 0.01452427557224969 -0.01245446746874416 0.01162560852148701 0.0008288589472571437 0.006149987076798959 0.0 0.0
0.0 0.009644946784385438 -0.008298918478067862 0.0075613848279411314 0.000737533650126741 0.004351373560924902 0.0 0.0
0.0 0.005479590274853928 -0.004858936101074009 0.004251515780047373 0.000607420321026633 0.0026365068814897283 0.0 0.0
0.0 0.0028542563174126638 -0.002245672300334958 0.00184716706166474 0.0003985052386702178 0.0012037132744664295 0.0 0.0
0.0 0.0008182179361329352 -0.0006977578412225905 0.0005379910375413435 0.00015976680368124784 0.00039136757076234493 0.0 0.0
0.0 0.0001240200075693031 -5.53950376488688e-05 3.95951795123735e-05 1.579985813649511e-05 1.6198825405157417e-05 0.0 0.0
0.0 -1.3626731564329392e-05 2.665555606237777e-06 -2.2747051902781635e-06 -3.9085041595964275e-07 -5.431744452104994e-06 0.0 0.0
0.0 9.061737302222672e-07 1.853916082190388e-08 -1.1831112127778971e-08 -6.7080486941203136e-09 -5.027098274945701e-08 0.0 0.0
0.0 -3.0083172820327663e-07 -1.6894082390560128e-08 1.3667650956397697e-08 3.226431434162971e-09 5.3084951026648725e-08 0.0 0.0
0.0 0.0 0.0 0.0 0.0 0.0 0.0 0.0
0.0 0.0 0.0 0.0 0.0 0.0 0.0 0.0
0.0 0.0 0.0 0.0 0.0 0.0 0.0 0.0
0.0 0.0 0.0 0.0 0.0 0.0 0.0 0.0
0.0 -1.680433764396781e-07 -1.0793184899027673e-08 8.54508648894806e-09 2.2480984100807976e-09 -2.827633481288059e-08 0.0 0.0
0.0 -1.024207271231364e-06 -1.083428821454584e-07 8.624233091007551e-08 2.210055123535409e-08 -9.606720804212404e-08 0.0 0.0
0.0 3.4169371529110046e-07 1.4145613192536485e-05 -1.16853035205711e-05 -2.460309671965332e-06 1.899084388850869e-05 0.0 0.0
0.0 0.00023563215067218897 -0.0002335893672982907 0.00017390530497930973 5.968406231898078e-05 -0.000100587041387014 0.0 0.0
0.0 0.001564879466936518 -0.0012065542760299052 0.0009498056238539372 0.0002567486521759677 -0.00044616289980318514 0.0 0.0
0.0 0.0037238834608318786 -0.003329017861773827 0.0028132745857432214 0.0005157432760306064 -0.0013418039926359258 0.0 0.0
0.0 0.007378079221262713 -0.006498720033936243 0.005801934596987806 0.0006967854369484411 -0.0026656357854679953 0.0 0.0
0.0 0.012164294402050607 -0.010614366665023856 0.009801190295932495 0.0008131763690913588 -0.004208849466822866 0.0 0.0
0.0 0.017974105974431505 -0.015580422646235744 0.014678009570510466 0.0009024130757252645 -0.005850746353294659 0.0 0.0
0.0 0.02473007495791988 -0.021343921214832504 0.02035654545463554 0.0009873757601969629 -0.007472860459273097 0.0 0.0
0.0 0.03251237567647069 -0.027933453173766127 0.026859333925518477 0.0010741192482476508 -0.00907187194023562 0.0 0.0
0.0 0.04104992117311407 -0.03545946780278425 0.03429881753967208 0.0011606502631121604 -0.010730691916677394 0.0 0.0
0.0 0.05110868809611331 -0.04403414629010108 0.04279297782323777 0.0012411684668633372 -0.012525084659760878 0.0 0.0
0.0 0.062355647673865436 -0.053653697213481 0.052353868784635285 0.0012998284288456346 -0.014537485633798529 0.0 0.0
0.0 0.07399816144635527 -0.06379344456572243 0.062498273332726215 0.0012951712329962047 -0.017136406743793034 0.0 0.0
0.0 0.08457512740412422 -0.07276676435452618 0.07158970516531162 0.001177059189214621 -0.0211234131609106 0.0 0.0
0.0 0.0903154169870761 -0.07730818840344587 0.07637049911633755 0.0009376892871082447 -0.02685935113739825 0.0 0.0
0.0 0.0858122380046729 -0.07266598972619502 0.07207666188853433 0.0005893278376606594 -0.03355806029230886 0.0 0.0
0.0 0.076967526796178 -0.06277333288850118 0.05774854688065715 0.005024786007844091 1.5079083814928396e-14 0.0 0.0
0.0 0.08581223800466752 -0.07266598972618588 0.07207666188852568 0.0005893278376601308 0.03355806029234292 0.0 0.0
0.0 0.09031541698705725 -0.07730818840342632 0.07637049911631867 0.0009376892871075163 0.026859351137431337 0.0 0.0
0.0 0.08457512740408521 -0.0727667643544918 0.07158970516527707 0.0011770591892147156 0.021123413160927113 0.0 0.0
0.0 0.07399816144631101 -0.06379344456568375 0.06249827333268789 0.0012951712329958877 0.017136406743795823 0.0 0.0
0.0 0.062355647673816544 -0.053653697213438614 0.05235386878459308 0.0012998284288454813 0.014537485633793732 0.0 0.0
0.0 0.05110868809606411 -0.0440341462900584 0.042792977823195855 0.0012411684668625408 0.01252508465975307 0.0 0.0
0.0 0.041049921173065204 -0.035459467802741736 0.03429881753963059 0.0011606502631111442 0.010730691916667841 0.0 0.0
0.0 0.03251237567642174 -0.027933453173723637 0.026859333925475994 0.0010741192482476634 0.009071871940224947 0.0 0.0
0.0 0.024730074957873504 -0.021343921214792415 0.02035654545459617 0.000987375760196233 0.007472860459259026 0.0 0.0
0.0 0.017974105974389403 -0.015580422646199497 0.014678009570474557 0.0009024130757249461 0.005850746353279396 0.0 0.0
0.0 0.012164294402016067 -0.01061436666499391 0.009801190295903098 0.0008131763690907976 0.004208849466809331 0.0 0.0
0.0 0.007378079221239199 -0.006498720033915193 0.0058019345969677494 0.0006967854369474419 0.002665635785459588 0.0 0.0
0.0 0.0037238834608144754 -0.0033290178617585834 0.002813274585729225 0.0005157432760293585 0.0013418039926290093 0.0 0.0
0.0 0.0015648794669270258 -0.0012065542760225857 0.0009498056238479672 0.00025674865217461656 0.0004461628998001883 0.0 0.0
0.0 0.00023563215066873115 -0.0002335893672960735 0.00017390530497762502 5.968406231844819e-05 0.00010058704138619843 0.0 0.0
0.0 3.416937147958225e-07 1.414561319201354e-05 -1.1685303520156639e-05 -2.46030967185677e-06 -1.899084388781454e-05 0.0 0.0
0.0 -1.0242072714736455e-06 -1.0834288211647452e-07 8.624233088592274e-08 2.2100551230553262e-08 9.606720797319523e-08 0.0 0.0
0.0 -1.6804337643450485e-07 -1.0793184898566844e-08 8.545086488621468e-09 2.248098409945835e-09 2.8276334812116163e-08 0.0 0.0
0.0 0.0 0.0 0.0 0.0 0.0 0.0 0.0
0.0 0.0 0.0 0.0 0.0 0.0 0.0 0.0
0.0 0.0 0.0 0.0 0.0 0.0 0.0 0.0
0.0 0.0 0.0 0.0 0.0 0.0 0.0 0.0
0.0 0.0 0.0 0.0 0.0 0.0 0.0 0.0
0.0 -1.1375550295065938e-06 2.3630776580077925e-07 -1.8744711968447306e-07 -4.8860646116297845e-08 4.0820340335601814e-07 0.0 0.0
0.0 2.6651208216586005e-05 -6.985768842219539e-07 -1.2785067204665783e-06 1.977083604688754e-06 1.0485490299163125e-05 0.0 0.0
0.0 0.0005591874785517384 -0.0004477956789715169 0.00033563730951736856 0.00011215836945414831 -8.812332149442266e-05 0.0 0.0
0.0 0.002170606316547681 -0.0018811401244879992 0.0015175489690406707 0.00036359115544732615 -0.00046101044375467323 0.0 0.0
0.0 0.0049569534514762445 -0.004477148387053585 0.0038717917345135904 0.0006053566525399941 -0.0012749474603261908 0.0 0.0
0.0 0.009205288712007922 -0.008181050899536867 0.007413659339503243 0.0007673915600336118 -0.0023570390058444625 0.0 0.0
0.0 0.0147632795240898 -0.012954796204876263 0.012079373104486407 0.0008754231003898665 -0.003646982324659641 0.0 0.0
0.0 0.02143991238516295 -0.018727509736795486 0.017760722888201803 0.0009667868485936757 -0.005023869773268994 0.0 0.0
0.0 0.029319840507137162 -0.025460391034653758 0.024402107850921163 0.0010582831837325887 -0.006387737569167834 0.0 0.0
0.0 0.03814077929854944 -0.03319470202348063 0.032041851599680954 0.0011528504237996598 -0.00774333421916517 0.0 0.0
0.0 0.048586302145161485 -0.042016698564814575 0.040772483227162336 0.0012442153376522264 -0.009186081564883045 0.0 0.0
0.0 0.060047458958271786 -0.05201216725315588 0.05068391250784596 0.0013282547453099106 -0.010777871950813839 0.0 0.0
0.0 0.07269949592050393 -0.06311376647173086 0.061718804326602796 0.0013949621451281554 -0.012429971753641213 0.0 0.0
0.0 0.08627811368346888 -0.0747874367398301 0.07338216303440429 0.0014052737054257333 -0.014133687936272232 0.0 0.0
0.0 0.09854565060445682 -0.0853064781886073 0.08402950602127499 0.0012769721673322682 -0.016889809270991898 0.0 0.0
0.0 0.1055065291414587 -0.09100140825829447 0.09002254355304608 0.0009788647052484806 -0.023004897539124713 0.0 0.0
0.0 0.1011334764761447 -0.08634383620014402 0.08579566725180687 0.0005481689483373079 -0.03366564914552179 0.0 0.0
0.0 0.09153058407514403 -0.07551369881638663 0.07004573880571802 0.005467960010668594 1.3382524255423078e-14 0.0 0.0
0.0 0.10113347647613549 -0.08634383620013239 0.085795667251796 0.0005481689483363422 0.03366564914555185 0.0 0.0
0.0 0.1055065291414344 -0.09100140825827142 0.0900225435530236 0.0009788647052478376 0.023004897539154488 0.0 0.0
0.0 0.09854565060441363 -0.08530647818856948 0.08402950602123757 0.0012769721673318755 0.016889809271006223 0.0 0.0
0.0 0.08627811368341815 -0.07478743673978598 0.07338216303436042 0.001405273705425557 0.014133687936274758 0.0 0.0
0.0 0.07269949592044696 -0.06311376647168132 0.061718804326553744 0.0013949621451276183 0.012429971753639012 0.0 0.0
0.0 0.06004745895821144 -0.05201216725310384 0.05068391250779409 0.0013282547453097537 0.010777871950808163 0.0 0.0
0.0 0.04858630214510629 -0.042016698564766496 0.0407724832271151 0.0012442153376513497 0.009186081564875227 0.0 0.0
0.0 0.0381407792984915 -0.033194702023430646 0.032041851599631 0.0011528504237996635 0.007743334219157188 0.0 0.0
0.0 0.029319840507083198 -0.02546039103460645 0.024402107850874637 0.001058283183731834 0.006387737569156415 0.0 0.0
0.0 0.021439912385115487 -0.018727509736754286 0.01776072288816088 0.0009667868485933938 0.005023869773255988 0.0 0.0
0.0 0.014763279524051055 -0.012954796204842611 0.012079373104453226 0.0008754231003893778 0.0036469823246481777 0.0 0.0
0.0 0.009205288711978 -0.008181050899510395 0.007413659339477419 0.0007673915600329761 0.0023570390058361363 0.0 0.0
0.0 0.00495695345145531 -0.0044771483870343865 0.003871791734495693 0.0006053566525386988 0.0012749474603199272 0.0 0.0
0.0 0.0021706063165363256 -0.0018811401244783281 0.0015175489690324611 0.00036359115544586817 0.00046101044375164814 0.0 0.0
0.0 0.0005591874785470199 -0.00044779567896820156 0.0003356373095148451 0.00011215836945335625 8.812332149357525e-05 0.0 0.0
0.0 2.6651208215538245e-05 -6.985768840553601e-07 -1.2785067205658082e-06 1.9770836046210538e-06 -1.0485490298925128e-05 0.0 0.0
0.0 -1.1375550300058785e-06 2.3630776579627746e-07 -1.8744711968310198e-07 -4.8860646113170024e-08 -4.082034033815548e-07 0.0 0.0
0.0 0.0 0.0 0.0 0.0 0.0 0.0 0.0
0.0 0.0 0.0 0.0 0.0 0.0 0.0 0.0
0.0 0.0 0.0 0.0 0.0 0.0 0.0 0.0
0.0 0.0 0.0 0.0 0.0 0.0 0.0 0.0
0.0 0.0 0.0 0.0 0.0 0.0 0.0 0.0
0.0 0.0 0.0 0.0 0.0 0.0 0.0 0.0
0.0 -4.803026365800515e-07 1.1032923728596647e-06 -8.737493671743501e-07 -2.2954300568532975e-07 8.971255832891123e-07 0.0 0.0
0.0 6.807825815567133e-05 -6.798906531597235e-05 4.719720689389369e-05 2.0791858422078698e-05 4.579337237579455e-06 0.0 0.0
0.0 0.0009955761537470342 -0.000777323289066474 0.0005929762284354645 0.00018434706063100848 -4.171682275130671e-05 0.0 0.0
0.0 0.002809753327227116 -0.002655952674457806 0.0021963543604774237 0.00045959831398038284 -0.0003841706848684061 0.0 0.0
0.0 0.006267100767930699 -0.005663607825040835 0.004984735863288438 0.0006788719617524034 -0.0009540278838485875 0.0 0.0
0.0 0.011067272607351566 -0.009881780772952767 0.009057323742195852 0.0008244570307569155 -0.0017392881370637912 0.0 0.0
0.0 0.017361777753399806 -0.015300259891515011 0.014371285973846213 0.0009289739176687876 -0.0026774872708526755 0.0 0.0
0.0 0.02500066524138917 -0.02187440936858985 0.020849271455870268 0.0010251379127195542 -0.003682599517743053 0.0 0.0
0.0 0.03384378750686487 -0.029583279518625414 0.028459483709262004 0.0011237958093634065 -0.0046791419470256276 0.0 0.0
0.0 0.04428663401542075 -0.038465406819984324 0.03724038368922519 0.0012250231307591077 -0.005682910437644418 0.0 0.0
0.0 0.05572547525388589 -0.0486058425009857 0.0472831105608869 0.0013227319400987425 -0.006800471304781026 0.0 0.0
0.0 0.06889450673816033 -0.05999934557260178 0.05859173232404385 0.0014076132485579995 -0.008051793266049278 0.0 0.0
0.0 0.08328378491875374 -0.07245223805564889 0.07098282175526424 0.001469416300384564 -0.009266486428660821 0.0 0.0
0.0 0.09823354978635382 -0.085390515189715 0.08389498633112866 0.0014955288585864462 -0.010145466099189529 0.0 0.0
0.0 0.11201039390368304 -0.09731541886761996 0.09589443606248249 0.0014209828051374223 -0.011207324806447299 0.0 0.0
0.0 0.12065216641329371 -0.10458629321750268 0.10351822968915042 0.0010680635283521994 -0.016182995039315008 0.0 0.0
0.0 0.11719065053786458 -0.10070360219156198 0.10023638311264035 0.0004672190789214716 -0.03155282192745855 0.0 0.0
0.0 0.10742713604133922 -0.08935366527717481 0.08353604129761955 0.005817623979555193 9.907873133041534e-15 0.0 0.0
0.0 0.1171906505378503 -0.10070360219154752 0.10023638311262628 0.0004672190789212372 0.03155282192748183 0.0 0.0
0.0 0.12065216641325786 -0.10458629321747072 0.10351822968911847 0.001068063528352258 0.016182995039337567 0.0 0.0
0.0 0.11201039390363356 -0.09731541886757687 0.09589443606244023 0.0014209828051366066 0.011207324806457926 0.0 0.0
0.0 0.09823354978629631 -0.08539051518966514 0.08389498633107897 0.001495528858586212 0.010145466099191218 0.0 0.0
0.0 0.08328378491869078 -0.07245223805559389 0.07098282175521049 0.0014694163003834558 0.009266486428659744 0.0 0.0
0.0 0.06889450673809343 -0.05999934557254412 0.058591732323986186 0.0014076132485578968 0.008051793266045389 0.0 0.0
0.0 0.05572547525382224 -0.0486058425009304 0.04728311056083247 0.0013227319400979747 0.00680047130477476 0.0 0.0
0.0 0.04428663401535751 -0.03846540681992944 0.03724038368917038 0.0012250231307590522 0.00568291043763907 0.0 0.0
0.0 0.03384378750680339 -0.029583279518572213 0.028459483709209404 0.001123795809362748 0.004679141947018134 0.0 0.0
0.0 0.025000665241336928 -0.021874409368543898 0.02084927145582461 0.0010251379127193037 0.0036825995177330846 0.0 0.0
0.0 0.01736177775335722 -0.015300259891477255 0.014371285973809031 0.00092897391766823 0.002677487270844183 0.0 0.0
0.0 0.01106727260731696 -0.009881780772921794 0.009057323742165687 0.0008244570307561094 0.001739288137057525 0.0 0.0
0.0 0.0062671007679093935 -0.0056636078250212295 0.00498473586327007 0.0006788719617511586 0.0009540278838444794 0.0 0.0
0.0 0.0028097533272139984 -0.0026559526744455273 0.0021963543604665192 0.00045959831397900764 0.000384170684865763 0.0 0.0
0.0 0.0009955761537410615 -0.0007773232890616129 0.0005929762284316206 0.00018434706062999122 4.171682275071537e-05 0.0 0.0
0.0 6.807825815452645e-05 -6.798906531583715e-05 4.7197206893852604e-05 2.0791858421984372e-05 -4.5793372371252235e-06 0.0 0.0
0.0 -4.803026370103168e-07 1.103292372919365e-06 -8.7374936722413e-07 -2.295430056952559e-07 -8.971255833558017e-07 0.0 0.0
0.0 0.0 0.0 0.0 0.0 0.0 0.0 0.0
0.0 0.0 0.0 0.0 0.0 0.0 0.0 0.0
0.0 0.0 0.0 0.0 0.0 0.0 0.0 0.0
0.0 0.0 0.0 0.0 0.0 0.0 0.0 0.0
0.0 0.0 0.0 0.0 0.0 0.0 0.0 0.0
0.0 0.0 0.0 0.0 0.0 0.0 0.0 0.0
0.0 -2.6135768727654016e-06 1.7261471072173535e-06 -1.4614151323634567e-06 -2.647319748538939e-07 1.1463478151361837e-06 0.0 0.0
0.0 0.00023277819891605832 -0.0001587873379149139 0.0001121925055482552 4.6594832366658714e-05 3.71544939870538e-05 0.0 0.0
0.0 0.00140768596934831 -0.0012231193912459123 0.0009539164009269436 0.0002692029903189685 5.172468340206846e-05 0.0 0.0
0.0 0.003738107582221107 -0.003458990569123947 0.0029234765966715407 0.0005355139724524054 -0.0001271846292693056 0.0 0.0
0.0 0.0075890714679145805 -0.006868896974892998 0.006130590056823289 0.000738306918069704 -0.00041754705198568604 0.0 0.0
0.0 0.013008170579776539 -0.011579094036200388 0.01070745558312119 0.0008716384530791932 -0.0008188542568346124 0.0 0.0
0.0 0.019963642622580366 -0.017630466465456355 0.016653494895600078 0.0009769715698562586 -0.001308149001480427 0.0 0.0
0.0 0.02848702578488796 -0.025003452924141377 0.023924613805539043 0.0010788391186023528 -0.0018285866444031598 0.0 0.0
0.0 0.038664654264471486 -0.03369108766644287 0.03250685848732311 0.0011842291791197591 -0.0023482920195444725 0.0 0.0
0.0 0.049962038648831524 -0.043740628788427875 0.04244797051658513 0.0012926582718427323 -0.002916091176203856 0.0 0.0
0.0 0.06316047332978866 -0.05518409843484862 0.05378808837413059 0.0013960100607180192 -0.003564253550310516 0.0 0.0
0.0 0.07788323649631822 -0.06795210320109356 0.0664715452035792 0.0014805579975144083 -0.004288081696381278 0.0 0.0
0.0 0.09376095046383896 -0.08169764141115425 0.08016410143231681 0.0015335399788374462 -0.004988910990776279 0.0 0.0
0.0 0.10991502637866216 -0.09565276342068778 0.09410297321322744 0.0015497902074603088 -0.005372314872221157 0.0 0.0
0.0 0.12479531666144798 -0.10851062044242642 0.10697208490602027 0.001538535536406304 -0.005312531313673185 0.0 0.0
0.0 0.1353028738288393 -0.11758982746352689 0.11622387324188693 0.0013659542216398314 -0.007241655972051575 0.0 0.0
0.0 0.13429925618711547 -0.11607626451971373 0.11566456214674997 0.0004117023729638318 -0.022577449813715098 0.0 0.0
0.0 0.1257768227359068 -0.10531437062863305 0.09952540063664408 0.0057889699919888744 5.483460907562687e-15 0.0 0.0
0.0 0.13429925618709476 -0.11607626451969481 0.11566456214673083 0.00041170237296393926 0.022577449813727894 0.0 0.0
0.0 0.13530287382879808 -0.11758982746349103 0.11622387324185088 0.001365954221639993 0.007241655972064129 0.0 0.0
0.0 0.12479531666139243 -0.10851062044237847 0.10697208490597247 0.0015385355364059645 0.005312531313679378 0.0 0.0
0.0 0.10991502637859499 -0.09565276342062967 0.0941029732131693 0.0015497902074604148 0.005372314872222422 0.0 0.0
0.0 0.09376095046376791 -0.08169764141109251 0.08016410143225555 0.0015335399788368395 0.004988910990776168 0.0 0.0
0.0 0.07788323649624604 -0.06795210320103083 0.06647154520351717 0.0014805579975137055 0.004288081696379047 0.0 0.0
0.0 0.06316047332971746 -0.055184098434786624 0.05378808837406965 0.0013960100607168973 0.003564253550307908 0.0 0.0
0.0 0.049962038648760754 -0.0437406287883665 0.042447970516524075 0.001292658271842419 0.002916091176201068 0.0 0.0
0.0 0.03866465426440466 -0.03369108766638463 0.03250685848726548 0.0011842291791191338 0.0023482920195402185 0.0 0.0
0.0 0.028487025784829794 -0.025003452924090983 0.02392461380548901 0.00107883911860197 0.0018285866443974782 0.0 0.0
0.0 0.019963642622532272 -0.01763046646541381 0.01665349489555835 0.0009769715698554622 0.0013081490014758687 0.0 0.0
0.0 0.013008170579739886 -0.011579094036167546 0.01070745558308899 0.0008716384530785445 0.0008188542568313448 0.0 0.0
0.0 0.007589071467890396 -0.006868896974870893 0.006130590056802093 0.0007383069180687964 0.0004175470519835369 0.0 0.0
0.0 0.0037381075822044522 -0.0034589905691083333 0.0029234765966572335 0.0005355139724510985 0.00012718462926753144 0.0 0.0
0.0 0.0014076859693401276 -0.0012231193912387887 0.000953916400921096 0.00026920299031769305 -5.172468340211769e-05 0.0 0.0
0.0 0.00023277819891408125 -0.0001587873379140029 0.0001121925055476433 4.659483236635978e-05 -3.7154493986571826e-05 0.0 0.0
0.0 -2.6135768729739484e-06 1.7261471069282489e-06 -1.461415132147855e-06 -2.647319747803331e-07 -1.146347815137693e-06 0.0 0.0
0.0 0.0 0.0 0.0 0.0 0.0 0.0 0.0
0.0 0.0 0.0 0.0 0.0 0.0 0.0 0.0
0.0 0.0 0.0 0.0 0.0 0.0 0.0 0.0
0.0 0.0 0.0 0.0 0.0 0.0 0.0 0.0
0.0 0.0 0.0 0.0 0.0 0.0 0.0 0.0
0.0 0.0 0.0 0.0 0.0 0.0 0.0 0.0
0.0 1.7243954255958002e-06 -3.2074637837045203e-07 -1.908821622647694e-07 5.116285406353392e-07 2.2473886829608095e-06 0.0 0.0
0.0 0.0004566265094361493 -0.00029762103768497263 0.00020991100115801416 8.771003652695853e-05 8.597962688109906e-05 0.0 0.0
0.0 0.0018698977602706562 -0.0016319972525727909 0.0012609468794004591 0.0003710503731723313 0.00021227659293108643 0.0 0.0
0.0 0.004467777602088089 -0.004143292788121708 0.00346504189418139 0.0006782508939403202 0.000265135006122376 0.0 0.0
0.0 0.008645113097430091 -0.007863979014451532 0.006931393365514505 0.0009325856489370225 0.0002990439318964277 0.0 0.0
0.0 0.014430875904670376 -0.01297279043629496 0.011832001682902339 0.0011407887533926232 0.0003091753819341133 0.0 0.0
0.0 0.02197260482839642 -0.01954146683750393 0.018191101545326323 0.001350365292177602 0.00026959548190538894 0.0 0.0
0.0 0.03126360380528668 -0.027579624677640968 0.025990563091581084 0.0015890615860598674 0.00022482638486375243 0.0 0.0
0.0 0.04198373613300857 -0.03709935137687421 0.03523515121936404 0.001864200157510152 0.00017012198672083662 0.0 0.0
0.0 0.05450955094561796 -0.048115111711845016 0.04594763702665328 0.002167474685191701 4.3011276436339015e-05 0.0 0.0
0.0 0.06878791206321587 -0.060632392334898956 0.0581466557360985 0.0024857365988004278 -0.00012069621437257871 0.0 0.0
0.0 0.08468584982227881 -0.07452894292939888 0.07173633170242302 0.0027926112269757346 -0.00038665723427546914 0.0 0.0
0.0 0.10171370745313439 -0.08933525223831375 0.08628428016349288 0.003050972074820803 -0.0007388964531751209 0.0 0.0
0.0 0.1187189764423578 -0.10407439839054371 0.10085939920757617 0.0032149991829674407 -0.0010444033170728916 0.0 0.0
0.0 0.13398684728926613 -0.11726979815334378 0.11403051599953405 0.0032392821538095567 -0.001052424175696353 0.0 0.0
0.0 0.14528184833385835 -0.1271556742935853 0.12393692954842842 0.0032187447451569517 -0.0016218007095748282 0.0 0.0
0.0 0.1475865452820901 -0.12962975825029557 0.12647979298099465 0.0031499652693008405 -0.01616182130066884 0.0 0.0
0.0 0.14336755221174918 -0.12184857051349203 0.11235993222793646 0.009488638285555462 2.4494295480792516e-15 0.0 0.0
0.0 0.1475865452820662 -0.12962975825027423 0.12647979298097425 0.0031499652692998847 0.016161821300672938 0.0 0.0
0.0 0.14528184833381416 -0.12715567429354696 0.12393692954839107 0.0032187447451559755 0.0016218007095787045 0.0 0.0
0.0 0.13398684728920443 -0.11726979815328986 0.1140305159994814 0.0032392821538085514 0.001052424175697746 0.0 0.0
0.0 0.11871897644228288 -0.10407439839047831 0.10085939920751164 0.003214999182966454 0.0010444033170726313 0.0 0.0
0.0 0.10171370745305743 -0.08933525223824641 0.08628428016342718 0.003050972074819188 0.0007388964531753316 0.0 0.0
0.0 0.08468584982220062 -0.07452894292933035 0.07173633170235634 0.0027926112269739973 0.0003866572342729347 0.0 0.0
0.0 0.06878791206313975 -0.06063239233483193 0.058146655736033906 0.0024857365987980126 0.0001206962143718163 0.0 0.0
0.0 0.054509550945541635 -0.04811511171177821 0.045947637026588085 0.00216747468519011 -4.301127643721071e-05 0.0 0.0
0.0 0.04198373613293556 -0.03709935137681038 0.03523515121930185 0.0018642001575085222 -0.00017012198672382035 0.0 0.0
0.0 0.03126360380522436 -0.027579624677586338 0.025990563091527648 0.001589061586058694 -0.00022482638486557953 0.0 0.0
0.0 0.021972604828344934 -0.01954146683745888 0.018191101545282876 0.001350365292176028 -0.000269595481906281 0.0 0.0
0.0 0.014430875904629232 -0.01297279043625859 0.01183200168286706 0.0011407887533915408 -0.00030917538193518017 0.0 0.0
0.0 0.008645113097401876 -0.007863979014425908 0.006931393365489988 0.0009325856489359225 -0.0002990439318961457 0.0 0.0
0.0 0.0044677776020689685 -0.00414329278810374 0.003465041894165027 0.0006782508939387152 -0.00026513500612225115 0.0 0.0
0.0 0.0018698977602614767 -0.0016319972525639277 0.0012609468793932067 0.00037105037317072207 -0.0002122765929302427 0.0 0.0
0.0 0.00045662650943274817 -0.0002976210376826326 0.000209911001156374 8.771003652625935e-05 -8.597962688046675e-05 0.0 0.0
0.0 1.7243954255837588e-06 -3.207463785661522e-07 -1.9088216211590167e-07 5.116285406820319e-07 -2.24738868292841e-06 0.0 0.0
0.0 0.0 0.0 0.0 0.0 0.0 0.0 0.0
0.0 0.0 0.0 0.0 0.0 0.0 0.0 0.0
0.0 0.0 0.0 0.0 0.0 0.0 0.0 0.0
SCALARS Wm float 4
LOOKUP_TABLE default
11.224308200018585 1.957963455230812 4.537128074228903 4.7292166705588645
5.310734353522199 2.601562461628104 1.1916971617238432 1.5174747301702538
0.5926578024522837 0.5768892127678985 -0.0013488314043108105 0.017117421088696082
0.47604778144891696 0.4638281492704589 0.0033292757841468226 0.00889035639431144
0.8834861156370644 0.6978124686510172 0.06537570952266805 0.12029793746337858
1.7959381845697109 0.9585051660894078 0.29035027824734844 0.5470827402329538
3.5896266390119953 1.328477957819155 0.9267739130374691 1.3343747681553717
6.446268838514279 1.7623179116051348 2.102218751633843 2.5817321752752953
10.606299275406283 2.287013420148166 3.9978758652821584 4.321409989975954
16.270125158539038 2.9381517866088434 6.7635098856975 6.568463486232709
23.582866981866403 3.7556357449946116 10.505575932459731 9.321655304412058
32.56521750109136 4.765683655526985 15.213894298714038 12.585639546850352
43.44144276748784 5.965239665687275 21.106839662488667 16.3693634393119
56.28831837999665 7.351282734239232 28.25498866112202 20.682046984635413
71.03133311213759 8.825153970977349 36.7117282941145 25.49445084704572
87.27777261874253 10.202909702486446 46.376020839313156 30.69884207694292
104.13503782979868 11.248562899579307 56.794726733832505 36.091748196386874
120.28410897009238 11.76469787707083 67.22374711742836 41.29566397559315
134.21286765835438 11.755071333602572 76.61221576650105 45.845580558250816
143.96262176873535 11.186477278481835 83.55874358980051 49.21740090045289
147.22068027160196 10.21423058241989 86.38651314948177 50.61993653970036
143.9626217687106 11.18647727847399 83.5587435897889 49.217400900447814
134.2128676583171 11.755071333604622 76.6122157664744 45.84558055823804
120.28410897003977 11.764697877075273 67.22374711739033 41.29566397557417
104.13503782972214 11.248562899560605 56.794726733794214 36.09174819636729
87.27777261866744 10.202909702471697 46.376020839273856 30.698842076921906
71.0313331120635 8.825153970964111 36.71172829407558 25.494450847023828
56.28831837993586 7.3512827342424645 28.25498866108164 20.682046984611713
43.441442767422856 5.965239665677977 21.106839662454288 16.369363439290627
32.56521750103729 4.765683655525616 15.213894298682343 12.585639546829341
23.582866981815393 3.755635744983212 10.505575932436615 9.32165530439555
16.27012515850434 2.9381517866067877 6.763509885679125 6.568463486218431
10.60629927538051 2.287013420146237 3.9978758652694424 4.321409989964833
6.446268838495993 1.762317911601591 2.1022187516265127 2.5817321752678914
3.5896266390017617 1.3284779578181647 0.9267739130332968 1.3343747681503022
1.7959381845641629 0.9585051660876486 0.29035027824611603 0.547082740230398
0.8834861156348984 0.6978124686498844 0.06537570952227113 0.12029793746274342
0.4760477814484494 0.46382814927008975 0.0033292757841113137 0.008890356394248528
0.5926578024515087 0.5768892127674241 -0.0013488314043810185 0.01711742108846522
5.310734353517127 2.60156246162836 1.191697161721312 1.5174747301674532
11.224308199993128 1.9579634552184282 4.537128074221807 4.729216670552902
13.19954000957322 5.865761513553597 3.4803819535706055 3.853396542449019
2.0089977807596866 0.44122479751380445 0.6403571849188121 0.9274157983270696
0.2438532102329686 0.2713811117200269 -0.007628945335250835 -0.019898956151807472
0.37688344193898 0.3757711627777168 3.0895497164608616e-05 0.0010813836640984952
0.6746791334186868 0.5739491578767014 0.029312064064256155 0.07141791147772963
1.4427362996198445 0.8230259049330766 0.21942251930767753 0.4002878753790906
2.9491416716609375 1.0885356859506385 0.7401032466320057 1.1205027390782931
5.4596089399063175 1.4017629432330734 1.7889351112399443 2.268910885433301
9.136441521111792 1.7446960893594574 3.5068888785800167 3.884856553172318
14.096748745052091 2.1277892340682882 5.997619092445677 5.971340418538122
20.43855278015108 2.560514267656821 9.358486097232872 8.519552415261385
28.29457652454729 3.0613796095938257 13.707311087542493 11.52588582741098
37.588078349340634 3.643617515135812 18.933115138187098 15.011345696017722
48.68180237591475 4.291684189907757 25.40163490866643 18.988483277340563
61.45945282149312 4.962779410127015 33.04873649626134 23.447936915104755
75.63218100931687 5.551144830755321 41.78942203754077 28.291614141020748
90.50916163890925 5.922468859165588 51.290366504091054 33.29632627565262
104.98626941021192 5.978187322286251 60.8583410120331 38.149741075892564
117.5718195864587 5.669389257667151 69.49075020364472 42.411680125146816
126.45463894247246 5.042063165736118 75.9100183088164 45.502557467919885
129.73979511789457 4.362358527558294 78.6006660818353 46.77677050850104
126.45463894245427 5.042063165733446 75.91001830880593 45.502557467914876
117.57181958642545 5.66938925766984 69.49075020362064 42.411680125135
104.98626941015924 5.978187322282059 60.85834101200069 38.14974107587653
90.50916163885596 5.922468859166223 51.29036650405557 33.296326275634165
75.63218100926144 5.551144830757048 41.789422037503684 28.291614141000732
61.4594528214322 4.962779410121581 33.048736496225935 23.44793691508469
48.68180237585823 4.291684189908882 25.401634908630307 18.988483277319034
37.58807834928463 3.643617515130169 18.93311513815634 15.011345695998118
28.294576524497792 3.0613796095919152 13.707311087514183 11.5258858273917
20.438552780109994 2.560514267652783 9.358486097211484 8.51955241524572
14.096748745020694 2.12778923406663 5.9976190924292085 5.971340418524856
9.136441521088672 1.744696089357455 3.5068888785689616 3.8848565531622503
5.459608939890718 1.4017629432307306 1.788935111233476 2.268910885426514
2.9491416716516317 1.0885356859493238 0.7401032466285029 1.120502739073804
1.4427362996154134 0.8230259049322907 0.21942251930619489 0.40028787537692795
0.6746791334173651 0.5739491578760654 0.029312064064007427 0.07141791147729244
0.37688344193866014 0.37577116277730643 3.08954971782166e-05 0.0010813836641756025
0.24385321023291442 0.2713811117197918 -0.007628945335190158 -0.019898956151687228
2.008997780753977 0.4412247975130988 0.6403571849164549 0.9274157983244242
13.199540009548501 5.865761513542258 3.4803819535635494 3.8533965424426917
9.831247992122046 4.612696206874385 2.3686570128359827 2.849894772411682
1.2276554874419416 0.16307389454840254 0.421016020653406 0.6435655722401333
0.15375471556076448 0.15375560079046557 -3.6811495252537546e-08 -8.48418205815541e-07
0.2835468069463831 0.28413341907694245 -9.033890162643786e-05 -0.000496273228932937
0.5187670840493721 0.48762130993072705 0.0070524510069010305 0.02409332311174419
1.1229408763185411 0.7388740296695817 0.13129715401245798 0.2527696926365017
2.3783046630887914 0.9960580292814482 0.5236482690551933 0.8585983647521502
4.56793960756114 1.2957670797857155 1.4022961957338371 1.8698763320415879
7.79812487576387 1.6124313632405667 2.867648317405658 3.318045195117644
12.178703511271625 1.9533023135978078 5.03438278853775 5.1910184091360625
17.74202767292638 2.331230843353832 7.94316334339439 7.467633486178159
24.52179737415174 2.7621874620227884 11.617244036260416 10.142365875868526
32.75934603682834 3.2696311361465313 16.262596524380868 13.227118376300947
42.33622989782746 3.847371053046142 21.72745976347717 16.76139908130415
53.52793210384992 4.447950755992206 28.34708892189372 20.73289242596399
66.00727392949271 4.998303825258791 35.937161666819414 25.071808437414518
79.20579451947262 5.390300794744453 44.208828271964336 29.60666545276385
92.1369457969017 5.505865293362947 52.61587308444069 34.01520741909805
103.41124052131558 5.256092312234117 60.267141579723294 37.888006629358166
111.41417632936732 4.770816361706617 65.95767994927128 40.68568001838939
114.29048393744375 3.9675851948139416 68.42350361363273 41.89939512899712
111.41417632935499 4.770816361708941 65.95767994926166 40.68568001838436
103.41124052128227 5.256092312230546 60.26714157970351 37.88800662934821
92.13694579686604 5.505865293369108 52.61587308441327 34.015207419083616
79.20579451941913 5.390300794738133 44.208828271933626 29.60666545274738
66.00727392944573 4.998303825264536 35.937161666785514 25.071808437395653
53.527932103795635 4.447950755985164 28.347088921863893 20.73289242594657
42.33622989777595 3.847371053043247 21.72745976344711 16.761399081285592
32.75934603678134 3.269631136144466 16.262596524353736 13.227118376283135
24.52179737410984 2.7621874620225007 11.617244036235942 10.142365875851409
17.742027672891307 2.3312308433520674 7.9431633433755335 7.467633486163706
12.178703511243526 1.9533023135949046 5.034382788524065 5.191018409124556
7.798124875743861 1.6124313632385432 2.8676483173964153 3.318045195108903
4.567939607547731 1.2957670797839262 1.4022961957282702 1.8698763320355356
2.3783046630808995 0.9960580292796987 0.5236482690526884 0.8585983647485127
1.1229408763149378 0.7388740296687751 0.13129715401138217 0.25276969263478066
0.5187670840483328 0.4876213099298162 0.007052451006843861 0.024093323111672574
0.2835468069462173 0.2841334190767943 -9.03389016304278e-05 -0.0004962732289466582
0.1537547155607552 0.15375560079045547 -3.68114952114993e-08 -8.484182050657688e-07
1.227655487437649 0.16307389454824342 0.42101602065156063 0.6435655722378446
9.831247992099112 4.612696206864474 2.368657012829385 2.8498947724052535
7.362040698765012 3.582944842502998 1.6447324841327216 2.134363372129296
0.8086085423861089 0.08521227094816418 0.2680243219353643 0.4553719495025804
0.10847554740598017 0.10847554740598017 0.0 0.0
0.21410949351703396 0.2141304380340785 2.3901546928138343e-06 -2.333467173736531e-05
0.40098580162381353 0.40173497098338234 -0.0007507093929164672 1.5400333476879623e-06
0.8387387033687425 0.635968109351384 0.060594229127403865 0.14217636488995475
1.8731836488960454 0.9092267340763572 0.3553881449926603 0.6085687698270273
3.7119129189984137 1.1839848716403085 1.0461332779313612 1.4817947694267433
6.509073800446542 1.4767100265358544 2.2746047253146484 2.7577590485960366
10.303143085132074 1.780226292712247 4.108228900495423 4.414687891924407
15.083825607138316 2.1061096141004385 6.555647695674998 6.42206829736288
20.94252994266491 2.4790494749061813 9.6981299204716 8.765350547287131
27.88450269277292 2.91383138355925 13.508671429761456 11.46199987945221
36.24438844019884 3.414433741184797 18.289335327484277 14.540619371529774
45.831343279966255 3.955702676130626 23.85090948827768 18.02473111555796
56.57584744852879 4.472122939836492 30.246292506176633 21.857432002515655
68.16084355331012 4.877970776635016 37.39850214131915 25.884370635355932
79.61505510204714 5.055793361898667 44.70099029086197 29.858271449286505
89.70255091128328 4.910286527711982 51.39467561681522 33.39758876675605
96.9843173555458 4.5228219808127035 56.45132430873312 36.010171066000034
99.60706104739357 3.561954577853137 58.84393896329875 37.20116750624167
96.98431735553767 4.5228219808194385 56.45132430872317 36.01017106599503
89.70255091126016 4.910286527713681 51.39467561679897 33.39758876674755
79.61505510200547 5.055793361892466 44.70099029083876 29.858271449274273
68.16084355327041 4.877970776635616 37.3985021412933 25.8843706353415
56.57584744848548 4.472122939838753 30.246292506147757 21.857432002498992
45.83134327992943 3.9557026761361276 23.850909488251343 18.02473111554196
36.24438844015438 3.414433741179967 18.289335327460115 14.540619371514298
27.88450269273111 2.913831383557596 13.508671429737545 11.461999879435975
20.942529942627065 2.4790494749028116 9.698129920451724 8.765350547272533
15.083825607109763 2.1061096141024045 6.555647695658017 6.422068297349345
10.303143085108658 1.7802262927109038 4.108228900483628 4.414687891914124
6.509073800428988 1.4767100265339945 2.2746047253067436 2.757759048588248
3.7119129189873328 1.1839848716393482 1.0461332779268255 1.481794769421158
1.8731836488893525 0.9092267340747326 0.35538814499047655 0.6085687698241422
0.8387387033659618 0.6359681093501276 0.06059422912683714 0.14217636488899701
0.400985801623221 0.4017349709826224 -0.0007507093928899385 1.5400334884735507e-06
0.21410949351692055 0.21413043803398618 2.390154691070161e-06 -2.3334671756689243e-05
0.10847554740590931 0.10847554740590931 0.0 0.0
0.8086085423824508 0.08521227094800882 0.2680243219338163 0.455371949500626
7.362040698746631 3.582944842495493 1.64473248412755 2.1343633721235906
5.427863273421448 2.760860729639671 1.0991650279856862 1.56783751579609
0.5919250727936821 0.10697215219856016 0.18542866694954646 0.29952425364557606
0.09869619466835522 0.09869619466835522 0.0 0.0
0.1706964671092669 0.17069017754227395 3.5059575947504334e-07 5.938971233487455e-06
0.3133232036949862 0.31802369683315274 -0.0013165615451988292 -0.0033839315929675676
0.6210996467635191 0.5478584020657598 0.01843391125777169 0.05480733343998724
1.4146589130833789 0.8016112414249736 0.2220623094593661 0.39098536219904
2.9050452988585236 1.0676307121253532 0.7281185263461036 1.1092960603870683
5.263941529233476 1.335928086611595 1.7210957806952392 2.2069176619266444
8.474992950669808 1.605916687187326 3.2235740937936326 3.6455021696888497
12.52708641191614 1.8888515307627751 5.2550154228648465 5.383219458288513
17.438563792523144 2.20485537901117 7.835174719468285 7.398533694043693
23.321560204769224 2.576735781676725 11.039800122447385 9.705024300645114
30.173364387262655 3.0083423559383267 14.822374810338145 12.342647220986176
38.29390038937345 3.478879614441616 19.485862087561564 15.329158687370274
47.502066903430936 3.9603509758257016 24.902895997781737 18.638819929823505
57.37455834865585 4.381997777520678 30.825412417685847 22.167148153449318
67.37097971939849 4.631783444177063 37.05027757301926 25.68891870220217
76.37808871825898 4.599666529300143 42.894014397778164 28.88440779118067
83.10613931119455 4.29479695389917 47.4802036604711 31.33113869682425
85.56985137720633 3.1587438628009474 49.83936626790595 32.57174124649946
83.10613931118739 4.294796953906891 47.48020366046141 31.331138696819096
76.37808871824011 4.599666529303463 42.894014397763726 28.884407791172894
67.37097971936873 4.631783444174948 37.050277573001445 25.688918702192325
57.37455834861882 4.381997777518196 30.825412417663898 22.167148153436727
47.50206690339946 3.9603509758340776 24.90289599775681 18.63881992980855
38.29390038933322 3.4788796144385374 19.485862087538788 15.329158687355905
30.173364387226844 3.0083423559356204 14.822374810318303 12.342647220972918
23.32156020473429 2.5767357816745085 11.039800122428302 9.705024300631475
17.43856379249373 2.204855379009823 7.83517471945242 7.398533694031485
12.527086411887971 1.8888515307597864 5.2550154228510975 5.383219458277087
8.47499295064968 1.6059166871870023 3.2235740937832804 3.645502169679398
5.263941529218763 1.3359280866100094 1.7210957806888971 2.206917661919856
2.9050452988489597 1.0676307121239421 0.7281185263424701 1.1092960603825464
1.4146589130783078 0.8016112414239689 0.22206230945770056 0.3909853621966387
0.6210996467616426 0.5478584020645456 0.01843391125755761 0.05480733343953941
0.3133232036945904 0.31802369683259746 -0.0013165615451707937 -0.0033839315928361918
0.17069646710913514 0.17069017754214574 3.5059575927603094e-07 5.938971230153005e-06
0.09869619466811819 0.09869619466811819 0.0 0.0
0.5919250727909073 0.10697215219852314 0.18542866694831883 0.29952425364406565
5.427863273406513 2.7608607296333165 1.0991650279817766 1.5678375157914188
3.9240975453067737 2.1119246721246747 0.7116361946796342 1.100536678502465
0.41860986592244964 0.14271154977237627 0.091004574012688 0.18489374213738483
0.11074120016286934 0.11074120016286934 0.0 0.0
0.14920003722067177 0.14918230846921257 1.169214643420643e-06 1.655953681576686e-05
0.25473050625843674 0.25686909208094033 -0.00036652925274713885 -0.001772056569756457
0.4578687031548563 0.44647251463417753 -0.00018160682312231028 0.011577795343801042
0.9981958191030674 0.6738412704675412 0.09805914022985497 0.22629540840567172
2.19727930370546 0.9446929358563116 0.49383975247006867 0.7587466153790794
4.053694351312404 1.1860683859318768 1.198481348610967 1.669144616769561
6.722077063518403 1.4302799879132473 2.4056120479477863 2.8861850276573677
10.049726124531285 1.6740818292782758 4.022504637217754 4.353139658035254
14.051729542725711 1.9413483714705897 6.066894895082635 6.043486276172489
18.796634507982457 2.253392946834974 8.578638660074544 7.964602901072929
24.441968690480977 2.6183804841377976 11.666660467491866 10.156927738851312
31.012191125255153 3.0341386933872645 15.32505231487177 12.653000116996127
38.510202497099876 3.464692556087977 19.60568819959247 15.439821741419422
46.911754038902686 3.883324190497533 24.59408983782949 18.434340010575657
55.4446915331702 4.217013671753528 29.724790309488778 21.50288755192789
63.35431789062584 4.310569545026869 34.66461623821759 24.379132107381388
69.64302297665205 4.088271435036003 38.86476639398977 26.689985147626306
72.03238789530384 2.7660016910348437 41.26632324973182 28.000062954537192
69.64302297663728 4.088271435031689 38.86476639398301 26.689985147622547
63.3543178906069 4.310569545025562 34.66461623820628 24.379132107375057
55.44469153314978 4.217013671758189 29.72479030947286 21.50288755191873
46.91175403887714 3.883324190500551 24.594089837811616 18.43434001056498
38.510202497061904 3.4646925560815642 19.60568819957311 15.43982174140725
31.01219112522556 3.034138693386581 15.32505231485436 12.653000116984614
24.441968690453553 2.618380484138737 11.666660467475246 10.156927738839569
18.796634507954835 2.253392946833163 8.578638660059777 7.9646029010619
14.051729542700663 1.9413483714689832 6.0668948950696535 6.043486276162029
10.049726124509718 1.6740818292754558 4.022504637207767 4.353139658026496
6.722077063501163 1.4302799879116646 2.405612047939894 2.886185027649601
4.053694351301012 1.186068385931532 1.1984813486058212 1.6691446167636603
2.1972793036976985 0.9446929358547315 0.49383975246732 0.7587466153756467
0.9981958190991813 0.6738412704664871 0.09805914022880508 0.2262954084038894
0.45786870315367745 0.44647251463312443 -0.00018160682315716 0.011577795343710262
0.25473050625802524 0.2568690920805016 -0.000366529252742126 -0.0017720565697342235
0.1492000372204159 0.14918230846896308 1.1692146428938903e-06 1.6559536809874406e-05
0.11074120016251822 0.11074120016251822 0.0 0.0
0.41860986592026794 0.14271154977221046 0.09100457401183296 0.1848937421362249
3.924097545295815 2.111924672120255 0.7116361946768053 1.100536678498756
2.731557220278398 1.5909315678654237 0.4138072944126808 0.7268183580002935
0.31763715204785137 0.1848375930524906 0.03929236005466949 0.09350719894069137
0.13256955802728637 0.13256955802728637 0.0 0.0
0.14435550501507033 0.14434984306778822 3.8189143181449443e-07 5.280055850313281e-06
0.21681459227288452 0.21715859585567043 -6.485701074226567e-05 -0.0002791465720436166
0.3486136182738701 0.36126975080187873 -0.004089208673184078 -0.00856692385482461
0.6921367423894329 0.5619433613735638 0.03274796377299154 0.09744541724287725
1.5013134301585578 0.7866139360350625 0.24487889604661553 0.4698205980768794
3.005990692506063 1.037893187967401 0.8154971716804459 1.152600332858215
5.019304722820519 1.2459353530003743 1.6347652706431461 2.138604099176999
7.675503305574607 1.4596887986821987 2.880653924987861 3.3351605819045473
10.8175215421569 1.6847054156303347 4.431456719142137 4.7013594073844285
14.502975391886958 1.9434162070579382 6.317352998400216 6.242206186428805
18.85858053547079 2.248350790915272 8.616227024051692 7.994002720503822
23.983857882918826 2.600032526052109 11.385599139593394 9.99822621727332
30.02565490709083 2.991820476153036 14.77729099554927 12.256543435388513
36.557002998645714 3.391921032815787 18.435991489003158 14.729090476826794
43.71493585159792 3.7811123533330897 22.64044548325741 17.293378015007427
50.74461890596796 4.0206573617222 26.898348042222338 19.825613502023412
56.59392188914538 3.908013714729156 30.65007250023127 22.035835674184955
59.00782130939411 2.3945690556422603 33.152339112081116 23.460913141670755
56.59392188914464 3.9080137147349063 30.650072500227115 22.03583567418261
50.74461890595365 4.020657361720889 26.898348042214167 19.82561350201859
43.714935851568725 3.7811123533215794 22.640445483246427 17.29337801500071
36.55700299862178 3.391921032814842 18.43599148898906 14.729090476817879
30.02565490706782 2.9918204761525624 14.777290995535736 12.256543435379513
23.98385788289339 2.600032526049282 11.385599139580162 9.998226217263937
18.858580535446578 2.24835079091181 8.616227024039823 7.99400272049495
14.502975391865698 1.9434162070567165 6.317352998389046 6.2422061864199385
10.817521542137275 1.6847054156285057 4.4314567191325285 4.70135940737624
7.675503305557822 1.4596887986814258 2.880653924979626 3.335160581896769
5.0193047228076155 1.245935352999268 1.634765270637369 2.138604099170978
3.0059906924961224 1.0378931879656743 0.8154971716765792 1.1526003328538699
1.5013134301528797 0.7866139360335193 0.24487889604491908 0.4698205980744417
0.6921367423868305 0.5619433613724865 0.032747963772465916 0.09744541724187826
0.34861361827322335 0.36126975080093554 -0.004089208673105987 -0.008566923854606199
0.2168145922725822 0.21715859585540206 -6.485701074838803e-05 -0.0002791465720714507
0.14435550501475122 0.1443498430674709 3.8189143166517263e-07 5.28005584866719e-06
0.1325695580269765 0.1325695580269765 0.0 0.0
0.3176371520462123 0.1848375930522321 0.039292360054118264 0.09350719893986159
2.731557220270228 1.5909315678619036 0.4138072944108153 0.7268183579975102
1.8823405739668488 1.2230078839316119 0.2443447274922947 0.4149879625429424
0.2386738857306568 0.20344217990279734 0.0023944668017334015 0.032837239026125994
0.1561241019609761 0.15612928740682902 -2.1719582759986377e-07 -4.968250025342334e-06
0.15075522148180434 0.15073217314636062 1.6035202761400769e-06 2.1444815167550736e-05
0.19434319024614077 0.19493018474658763 -7.815757472490652e-05 -0.0005088369257219241
0.28220366680436604 0.29107271553941005 -0.0022731623090867 -0.0065958864259572855
0.470097969306811 0.4483318697310771 0.0007741470708768478 0.020991952504857164
0.9627329254818031 0.6318644990451746 0.09567148680160353 0.23519693963502503
1.950200977286461 0.8464848989204024 0.4051146729259536 0.698601405440105
3.50611514180999 1.0559626190705675 1.0337052334649919 1.4164472892744295
5.415899816859229 1.2364153765405765 1.8480687873954291 2.331415652923224
7.724782215327034 1.4249567054935135 2.92213874213731 3.3776867676962112
10.426620697282935 1.6386809927719854 4.245044890150752 4.542894814360196
13.585996213524478 1.8866360721922253 5.837924509255747 5.861435632076511
17.364591050288873 2.1829577028957337 7.8075389759225615 7.374094371470578
21.77135728018918 2.5251652535500084 10.140503410519134 9.105688616120043
26.87882928503287 2.898807427086833 12.954904411165733 11.025117446780303
32.41395168832555 3.316051106039163 16.000741354481804 13.097159227804578
38.2254166313362 3.694376760712837 19.28262258936062 15.248417281262741
43.76359993118819 3.745856989606331 22.685346229060894 17.33239671252096
46.32629570195883 2.0506834051854117 25.356356938687966 18.919255358085433
43.763599931180565 3.7458569896031406 22.685346229058062 17.332396712519362
38.22541663132841 3.694376760714166 19.28262258935501 15.248417281259243
32.413951688317916 3.316051106042718 16.00074135447507 13.097159227800137
26.878829285009605 2.898807427078865 12.954904411156651 11.025117446774086
21.77135728017236 2.5251652535521063 10.140503410508124 9.10568861611213
17.364591050270967 2.18295770289402 7.80753897591336 7.374094371463593
13.585996213512672 1.8866360721950177 5.837924509247665 5.861435632069992
10.426620697266419 1.6386809927687673 4.245044890143597 4.542894814354052
7.724782215313498 1.424956705493145 2.9221387421305294 3.377686767689822
5.415899816845878 1.2364153765391397 1.8480687873895583 2.331415652917179
3.5061151418005037 1.055962619070071 1.0337052334607166 1.416447289269716
1.9502009772805795 0.8464848989196566 0.4051146729237456 0.6986014054371773
0.9627329254787506 0.6318644990444257 0.09567148680076201 0.23519693963356195
0.4700979693053252 0.44833186973007527 0.0007741470707516938 0.020991952504498246
0.2822036668038954 0.2910727155386664 -0.002273162309043417 -0.0065958864257277495
0.1943431902457724 0.19493018474623597 -7.815757472497358e-05 -0.0005088369257385346
0.1507552214814455 0.15073217314600784 1.6035202755702054e-06 2.1444815162099012e-05
0.15612410196066528 0.1561292874065074 -2.171958270000216e-07 -4.968250015090288e-06
0.23867388572947423 0.20344217990237837 0.0023944668014820574 0.03283723902561374
1.8823405739609005 1.223007883928996 0.24434472749090194 0.414987962541003
1.2123209350312676 0.9077246980942149 0.09447087842085589 0.21012535851619674
0.1972673734528177 0.20772745459864822 -0.006445232152714601 -0.004014848993115907
0.17683703225594927 0.17692436418774557 -7.364109696389855e-06 -7.996782209991661e-05
0.16362961899401027 0.16365792074918797 -1.911838206656354e-06 -2.6389916971011686e-05
0.1847467188385632 0.1853233381832417 -8.256394932280774e-05 -0.0004940553953557049
0.24162874294011075 0.24522050502417445 -0.0011191670834701335 -0.0024725950005936117
0.3419824846728811 0.35192775687988936 -0.004468362338390188 -0.005476909868618065
0.5787657159198981 0.4909280056807632 0.01976411784275824 0.06807359239637682
1.1135626825259644 0.6467112326416249 0.14677692770960468 0.32007452217473475
2.048043580795318 0.818629224378307 0.4649256327484242 0.7644887236685874
3.2938258779607725 0.9771312522336448 0.9429642212659461 1.3737304044611829
4.825162963484237 1.1384317132762878 1.600158191064291 2.0865730591436575
6.599657022369689 1.314010652913431 2.402123828214525 2.883522541241732
8.662447143043247 1.5117661760401422 3.369626316994008 3.781054650009091
11.132130166449846 1.750236199521525 4.569199239532824 4.812694727395498
14.113520334590433 2.0437832617286515 6.057166504814412 6.0125705680473684
17.63806605858946 2.392855254019899 7.85245232784249 7.392758476727065
21.608095634147663 2.7738267692019547 9.904192114124735 8.930076750820977
26.209767507743997 3.2544495422579276 12.311691753260071 10.643626212225993
31.37832896918294 3.5904108957062357 15.224509931410397 12.563408142066299
34.15948829252108 1.770044105215973 17.95744094309101 14.43200324421411
31.37832896918701 3.5904108957113734 15.224509931409774 12.563408142065871
26.20976750774181 3.2544495422621535 12.3116917532563 10.643626212223362
21.608095634134205 2.773826769197402 9.904192114119505 8.930076750817292
17.638066058578623 2.3928552540181802 7.852452327837304 7.39275847672314
14.113520334578624 2.0437832617305793 6.057166504806741 6.012570568041304
11.132130166441835 1.7502361995241942 4.569199239527032 4.812694727390605
8.662447143030171 1.511766176036387 3.369626316989062 3.7810546500047266
6.599657022361843 1.314010652913057 2.4021238282108035 2.8835225412379817
4.825162963473325 1.138431713273876 1.6001581910600653 2.086573059139384
3.29382587795214 0.9771312522323837 0.9429642212625704 1.3737304044571865
2.0480435807888586 0.8186292243768388 0.4649256327462036 0.7644887236658158
1.1135626825225953 0.6467112326412159 0.1467769277084563 0.3200745221729233
0.5787657159179556 0.49092800567996187 0.01976411784240357 0.06807359239559024
0.3419824846720499 0.35192775687872474 -0.004468362338331901 -0.005476909868342917
0.24162874293958198 0.24522050502337814 -0.0011191670834360924 -0.0024725950003599098
0.18474671883830318 0.18532333818301464 -8.256394932700916e-05 -0.000494055395384447
0.16362961899371925 0.16365792074889285 -1.91183820609508e-06 -2.638991696751545e-05
0.17683703225558836 0.17692436418736118 -7.364109694593524e-06 -7.996782207820683e-05
0.19726737345228568 0.2077274545982397 -0.006445232152752109 -0.004014848993202079
1.2123209350275055 0.9077246980924577 0.09447087842009312 0.21012535851495534
0.77886667812337 0.6907948122675801 0.02359714317038982 0.06447472268540028
0.17814921149040236 0.1919170216033445 -0.0037324761245914728 -0.010035333988350733
0.19223357648397119 0.19224625740524653 -6.695763111968447e-07 -1.2011344964188092e-05
0.17911054995331657 0.17912356005558908 -5.126289852708978e-07 -1.2497473287190317e-05
0.18608342734713132 0.18631648569426382 -3.7660623195957094e-05 -0.00019539772393653522
0.2203347170093763 0.22526791918412348 -0.0011549705662323318 -0.0037782316085148405
0.2800688585748658 0.28225307861925214 -0.001512404350574019 -0.0006718156938124256
0.3654968710525157 0.34318555951802404 0.003943578202815187 0.01836773333167651
0.536749831322903 0.4257634795370322 0.027545509498709674 0.08344084228716121
0.893240525825952 0.5377592870314979 0.11130466703342431 0.24417657176103028
1.4954116690228627 0.6582930517057995 0.3093262093449227 0.5277924079721401
2.2409750487873854 0.7599975526333408 0.5709822962512668 0.9099951999027776
3.1596148541535527 0.877312613564976 0.9324107015634282 1.3498915390251498
4.257141193578338 1.0207996523257452 1.3876848583081764 1.8486566829444164
5.576548622339281 1.1949163334702162 1.9517817646253386 2.4298505242437263
7.229455438319212 1.4270834611700207 2.6721545293223956 3.1302174478267917
9.341665773637772 1.7359478669279977 3.6174139783240813 3.9883039283856903
11.962295208089364 2.095768202377588 4.850149060464563 5.016377945247214
15.058565915037585 2.487275207866684 6.3468238853591 6.224466821811806
19.380243005621455 3.2131926523333476 8.367043787468383 7.800006565819727
23.115656091364883 1.622006452703051 11.459929220402564 10.033720418259268
19.380243005615995 3.21319265232562 8.367043787469669 7.800006565820697
15.05856591503149 2.4872752078639366 6.346823885357189 6.224466821810364
11.962295208083248 2.095768202376139 4.850149060462002 5.016377945245111
9.34166577363301 1.7359478669301456 3.6174139783203603 3.9883039283825057
7.229455438308735 1.4270834611662695 2.672154529318922 3.1302174478235436
5.576548622331021 1.1949163334669648 1.9517817646228808 2.4298505242411763
4.2571411935744115 1.0207996523250467 1.3876848583065675 1.8486566829427957
3.15961485414855 0.8773126135643198 0.9324107015613798 1.3498915390228499
2.240975048783585 0.7599975526335436 0.570982296249509 0.909995199900532
1.495411669018608 0.6582930517051196 0.30932620934341565 0.5277924079700732
0.893240525824021 0.5377592870303978 0.11130466703308389 0.24417657176053914
0.5367498313215938 0.42576347953673005 0.027545509498387695 0.08344084228647605
0.36549687105182666 0.343185559517603 0.003943578202723314 0.01836773333150041
0.28006885857445313 0.28225307861876037 -0.0015124043505662511 -0.0006718156937409814
0.2203347170088651 0.22526791918343178 -0.0011549705661970378 -0.0037782316083696554
0.18608342734685446 0.1863164856940515 -3.7660623204890866e-05 -0.00019539772399215866
0.17911054995295367 0.1791235600551973 -5.126289829088738e-07 -1.2497473260708088e-05
0.192233576483755 0.19224625740502077 -6.695763105209002e-07 -1.2011344955200635e-05
0.17814921149019525 0.1919170216028284 -0.0037324761245236928 -0.01003533398810945
0.7788666781211228 0.6907948122662885 0.023597143170091223 0.06447472268474314
0.5015710623428452 0.4943449919464973 0.0008771734742500543 0.006348896922097742
0.1717652397649213 0.17291964476867308 -0.00014074858892615248 -0.0010136564148255467
0.201929408519584 0.20205911918058725 -1.0466398979258888e-05 -0.00011924426202397825
0.19443559224140788 0.19451431394391705 -6.397592490967839e-06 -7.232411001819518e-05
0.19558370310215403 0.1961737078386183 -9.673147759378913e-05 -0.0004932732588704846
0.21823314474834407 0.22184135074882128 -0.0009463285628950062 -0.0026618774375821077
0.26158700877965435 0.26220868648958395 -0.0009645621094607267 0.0003428843995310986
0.3090746385645944 0.27695492132521243 0.006512176924462271 0.025607540314919634
0.3468139844417275 0.259306415342568 0.025634212309762365 0.06187335678939721
0.39755999701855604 0.21957233391888434 0.054880545119237845 0.12310711798043382
0.5225927375082293 0.21435208186407842 0.11363188488517409 0.19460877075897678
0.724574324064406 0.23848056097784076 0.18298810641520702 0.30310565667135814
1.01518470351371 0.2838218343948772 0.289769010798956 0.44159385831987713
1.3979715533925083 0.29657244160493035 0.44669078559655534 0.6547083261910225
1.8985591633676917 0.2992210923740233 0.6691278967948976 0.9302101741987706
2.5174883587034746 0.3200919387029566 0.9428916809027379 1.2545047390977802
3.3062755664784484 0.3751090318005107 1.3022422994078129 1.6289242352701243
4.288546792524348 0.47086654385024657 1.758549046995212 2.059131201678888
5.811931911382084 0.7083942595459896 2.424672899891673 2.6788647519444195
9.338090982315752 1.7972133594141306 3.585830476640772 3.9550471462608527
15.511497442746693 1.5500212137743872 7.050776677981628 6.910699550990676
9.338090982321702 1.797213359416106 3.585830476642985 3.955047146262614
5.811931911381279 0.7083942595462586 2.424672899891018 2.678864751944002
4.2885467925253025 0.4708665438541702 1.7585490469935205 2.0591312016776135
3.306275566471948 0.37510903179858657 1.3022422994055398 1.6289242352678177
2.5174883586990218 0.32009193870190733 0.9428916809012323 1.2545047390958808
1.8985591633672105 0.2992210923751243 0.6691278967941022 0.9302101741979849
1.3979715533922898 0.2965724416061398 0.4466907855958966 0.6547083261902538
1.0151847035093935 0.2838218343937632 0.28976901079746653 0.4415938583181634
0.7245743240618435 0.23848056097665227 0.18298810641461524 0.30310565667057676
0.5225927375062036 0.21435208186332327 0.11363188488458803 0.19460877075829164
0.3975599970185244 0.21957233391929504 0.054880545119097915 0.12310711798013158
0.3468139844417017 0.25930641534268417 0.025634212309713883 0.06187335678930362
0.3090746385638346 0.27695492132506366 0.006512176924264977 0.025607540314505996
0.26158700877915747 0.26220868648903894 -0.0009645621094545665 0.00034288439957314096
0.21823314474778438 0.22184135074807615 -0.0009463285628628721 -0.00266187743742906
0.19558370310180634 0.19617370783805016 -9.673147757006502e-05 -0.0004932732586737665
0.1944355922409616 0.19451431394355934 -6.397592500542152e-06 -7.232411009720224e-05
0.2019294085194094 0.20205911918042094 -1.0466398978755146e-05 -0.00011924426203274661
0.1717652397647226 0.17291964476848845 -0.00014074858892708703 -0.001013656414838747
0.5015710623416024 0.49434499194498477 0.0008771734742615176 0.006348896922355945
0.33188502145000337 0.3319673604967108 -7.516280129224805e-06 -7.482276657818287e-05
0.16328546178902204 0.16327758109089033 6.102270974900467e-07 7.270471034197768e-06
0.20576645793100978 0.20574798562815627 1.8046628228050884e-06 1.6667640030714386e-05
0.2075631388291165 0.20774516806218915 -2.3310675281624667e-05 -0.0001587185577910317
0.21072337412206021 0.21096762051205165 -6.619298219118092e-05 -0.0001780534078002255
0.23493879202396203 0.23720155257854264 -0.0008463909496381239 -0.0014163696049425529
0.28802566003991104 0.29011742528332357 -0.00109658749087644 -0.0009951777525361181
0.36838561347677934 0.3447088987811058 0.004516026244418134 0.01916068845125521
0.537285298717265 0.4254529467043545 0.027830703420656147 0.08400164859225417
0.8921570099072693 0.537222179005601 0.11105080363851695 0.2438840272631514
1.4953397320318094 0.6603232665393529 0.30879594306142416 0.5262205224310326
2.248470053995448 0.7611299447930882 0.57508678027461 0.9122533289277498
3.179329113650005 0.880759095527011 0.939956025870913 1.3586139922520786
4.288798456702931 1.0247279530867506 1.4017203193162824 1.8623501842998986
5.559084082525289 1.1854590012580588 1.948731584390798 2.424893496876431
6.950374153213169 1.3670636878537104 2.564571032470266 3.0187394328891926
8.286511362595297 1.557680623759775 3.1622540167945354 3.5665767220409843
9.382178331063745 1.7660020713561564 3.6702767651218338 3.9458994945857544
9.767997230657613 1.896808632675492 3.8399218371403485 4.031266760841775
7.797623227084998 1.0549989679373377 3.3686019453838556 3.374022313763805
15.703069672493356 2.7120489689993823 6.425958193447467 6.565062510046513
7.7976232270914245 1.0549989679396783 3.368601945386067 3.3740223137656713
9.76799723065928 1.8968086326766396 3.8399218371406034 4.0312667608420405
9.382178331051746 1.7660020713493596 3.6702767651189836 3.9458994945834003
8.286511362583674 1.5576806237572123 3.1622540167897637 3.566576722036703
6.950374153207222 1.3670636878557596 2.5645710324662017 3.018739432885262
5.559084082519482 1.1854590012574957 1.9487315843882742 2.4248934968737106
4.288798456694114 1.0247279530838147 1.4017203193133576 1.8623501842969419
3.1793291136422765 0.8807590955275612 0.9399560258670767 1.3586139922476397
2.2484700539887035 0.7611299447925985 0.5750867802718457 0.9122533289242589
1.4953397320262558 0.6603232665392506 0.30879594305914965 0.5262205224278557
0.8921570099035421 0.5372221790040533 0.11105080363765088 0.24388402726183794
0.537285298715629 0.4254529467034735 0.027830703420408776 0.08400164859174652
0.3683856134760148 0.34470889878063926 0.004516026244318499 0.01916068845105709
0.288025660039239 0.29011742528269546 -0.0010965874908928364 -0.0009951777525636636
0.23493879202343604 0.23720155257782827 -0.0008463909496090363 -0.001416369604783209
0.21072337412169345 0.21096762051146675 -6.619298216556796e-05 -0.00017805340760772233
0.20756313882858796 0.20774516806156473 -2.3310675274176825e-05 -0.00015871855770252638
0.20576645793063827 0.20574798562768462 1.804662828255344e-06 1.6667640125387177e-05
0.16328546178881104 0.16327758109070248 6.10227096135514e-07 7.270471012437534e-06
0.331885021449125 0.3319673604958724 -7.516280136079295e-06 -7.482276661121946e-05
0.21469528920139672 0.21469528920139672 0.0 0.0
0.14966711321444728 0.14969170928896494 -1.5725880685879657e-06 -2.3023486449051548e-05
0.20289605117765652 0.20299519343863953 -8.644865730506953e-06 -9.049739525253708e-05
0.21717369947475182 0.21679547273186545 4.284813410554996e-05 0.00033537860878086876
0.22962621581786677 0.2308449067170324 -0.00021845175061560614 -0.001000239148549991
0.2692227866038389 0.27588712870437 -0.0014826295587721861 -0.005181712541758999
0.35420135158228894 0.35435533291421917 -0.0026463883705372055 0.002492407038607123
0.5837989677696458 0.49149311332487033 0.021363740027759814 0.07094211441701544
1.11325223491438 0.6465368925614841 0.14669928672303037 0.32001605562986596
2.046003514083105 0.8184233457863678 0.46401409032216545 0.7635660779745714
3.2936798051099396 0.9771779947947363 0.9427862801872499 1.3737155301279527
4.831310453943587 1.1392689150250959 1.6027454900348872 2.0892960488836003
6.61742829198197 1.3159361761050423 2.410288838272452 2.8912032776044794
8.688221341726342 1.5123378646875882 3.383222208183296 3.7926612688554555
11.10803235859272 1.7349948545810312 4.565388243771584 4.807649260240098
13.828287145393876 1.9771139372569264 5.937468650749573 5.913704557387375
16.62642325127718 2.233163163298882 7.369453097545858 7.023806990432437
19.09172994225211 2.519088844657701 8.59025625037365 7.982384847220758
20.360699853088008 2.614226819231617 9.279588381119954 8.466884652736438
18.8153962679168 2.582743005240717 8.49818361104498 7.7344696516310965
22.875665356667994 5.827827784565361 8.841487305778495 8.206350266324122
18.815396267921688 2.582743005239767 8.498183611048383 7.734469651633546
20.36069985308313 2.614226819226662 9.27958838111997 8.466884652736498
19.091729942241034 2.5190888446570385 8.590256250367613 7.9823848472163785
16.62642325126464 2.2331631633008198 7.369453097537633 7.023806990426178
13.82828714537844 1.9771139372549147 5.937468650742124 5.913704557381399
11.108032358577857 1.7349948545769416 4.565388243765746 4.807649260235169
8.688221341715023 1.512337864688111 3.383222208177097 3.7926612688498142
6.617428291969515 1.3159361761054928 2.410288838265858 2.8912032775981604
4.831310453929542 1.1392689150227742 1.6027454900291047 2.089296048877663
3.2936798050987806 0.9771779947935897 0.9427862801826165 1.373715530122574
2.046003514075292 0.8184233457855008 0.4640140903190856 0.7635660779707061
1.1132522349102938 0.6465368925605433 0.14669928672181562 0.32001605562793456
0.5837989677675671 0.4914931133239772 0.02136374002738907 0.07094211441620091
0.3542013515809503 0.35435533291279087 -0.002646388370544277 0.002492407038703689
0.2692227866032715 0.2758871287036545 -0.0014826295587300345 -0.005181712541652904
0.2296262158174836 0.23084490671669716 -0.0002184517506229659 -0.0010002391485906784
0.2171736994744154 0.21679547273137795 4.284813411898591e-05 0.00033537860891841325
0.20289605117727783 0.20299519343826578 -8.644865731540849e-06 -9.04973952564296e-05
0.14966711321418272 0.14969170928869388 -1.5725880679371782e-06 -2.302348644323898e-05
0.21469528920082673 0.21469528920082673 0.0 0.0
0.1323325650178528 0.1323325650178528 0.0 0.0
0.13075967029708366 0.13075029810666863 6.316936465528355e-07 8.74049676847986e-06
0.1933873627270719 0.1934184138981463 -1.8256901364633365e-06 -2.9225480937948953e-05
0.22286712573282463 0.22320862517901413 -4.237187610274084e-05 -0.00029912757008673807
0.25210831458507743 0.2539158314658356 -0.000354203684919658 -0.0014533131958384335
0.31465618630704106 0.316080589551207 -0.0014459593485725217 2.1556104406799228e-05
0.4896245530407464 0.45922768337198455 0.004521840101305799 0.02587502956745615
0.9677278280862683 0.6329371768564432 0.0976454669237057 0.23714518430611942
1.9482950067502232 0.8464235371838968 0.4042845019849097 0.6975869675814158
3.504573728081756 1.0560642716683548 1.0331889977096664 1.4153204587037354
5.415957086446222 1.2363481783039543 1.8469086577247116 2.33270025041756
7.729797735252394 1.425171375806855 2.924684695430299 3.3799416640152415
10.436129796569892 1.6393397990328067 4.249852138881298 4.546937858655792
13.593600009124255 1.8855967384044559 5.84284016915424 5.865163101565556
17.32477882478674 2.1665259571191298 7.794516888550752 7.363735979116857
21.534957664645983 2.465070912010054 10.038672236252859 9.031214516383063
26.101027583164516 2.7704977454133086 12.57106631950835 10.759463518242853
30.133041371886954 2.978960387632312 14.832569524193815 12.321511460060826
32.26787859721907 2.978772783420178 16.120282933582327 13.16882288021656
29.89001107181822 2.6206416575528264 14.915885829520704 12.35348358474469
33.593399867515245 8.502215197085587 13.591223063767368 11.49996160666229
29.890011071815778 2.620641657547423 14.915885829522491 12.35348358474587
32.267878597207954 2.9787727834135644 16.120282933579556 13.168822880214815
30.133041371869993 2.9789603876305017 14.832569524184727 12.321511460054772
26.101027583140755 2.770497745409947 12.57106631949623 10.759463518234567
21.53495766462541 2.465070912008978 10.038672236241554 9.031214516374892
17.324778824766728 2.1665259571164994 7.794516888540855 7.36373597910937
13.593600009103685 1.885596738402193 5.842840169144065 5.865163101557421
10.436129796551167 1.6393397990316305 4.249852138871836 4.546937858647704
7.729797735235447 1.425171375807419 2.924684695421184 3.3799416640068434
5.41595708643068 1.2363481783027903 1.8469086577175557 2.332700250410335
3.5045737280710485 1.0560642716679935 1.0331889977047535 1.4153204586983024
1.9482950067432179 0.8464235371829258 0.40428450198228055 0.697586967578012
0.9677278280824887 0.6329371768555964 0.09764546692263043 0.23714518430426154
0.4896245530391747 0.4592276833710288 0.004521840101143276 0.02587502956700261
0.3146561863064105 0.31608058955012924 -0.0014459593485150895 2.1556104796342226e-05
0.2521083145845778 0.2539158314650823 -0.0003542036848836636 -0.0014533131956208684
0.22286712573266387 0.2232086251788844 -4.2371876108382e-05 -0.0002991275701121474
0.19338736272684015 0.1934184138979154 -1.8256901365811306e-06 -2.9225480938672146e-05
0.1307596702969774 0.13075029810656294 6.316936464977709e-07 8.740496767980233e-06
0.1323325650175792 0.1323325650175792 0.0 0.0
0.07731908495533896 0.07731908495533896 0.0 0.0
0.10831348084698558 0.10831348084698558 0.0 0.0
0.17827636801760569 0.17826592719215673 6.169848764971448e-07 9.823840572470336e-06
0.22506008657049342 0.22493708376670174 1.7813179759951777e-05 0.00010518962403176525
0.27627657534604166 0.2791899975405007 -0.0005610514030747043 -0.0023523707913843004
0.38354123320706224 0.3899133277040993 -0.0025037088392961555 -0.0038683856577409665
0.7070801693423735 0.5590452154168366 0.0379498823970804 0.11008507152845626
1.5034567569503619 0.7870321175506676 0.24597937075874088 0.47044526864095315
3.0033313542554496 1.038207573396035 0.8140866424145587 1.1510371384448561
5.018463622980704 1.2461857977329278 1.6340467537802361 2.1382310714675397
7.6777500295490855 1.459540029456612 2.8821391472147018 3.33607085287777
10.819476457988177 1.683807763947737 4.433022186065721 4.702646507974716
14.497451415180223 1.9411917075758 6.315603787586927 6.240655920017504
18.834940287308648 2.244530817299138 8.605036454471426 7.985373015538077
23.929820812414697 2.590838588750541 11.359332260930254 9.97964996273391
29.89898281333326 2.96514435321687 14.717006539313449 12.216831920802939
36.06515166508714 3.274775873001923 18.207170411355516 14.583205380729718
41.74237121066409 3.3782583499825485 21.66874753084558 16.69536532983595
44.635548043140766 3.128269913819921 23.647536070088947 17.859742059231888
41.494755337060205 2.6951782111084155 21.961868585112114 16.837708540839678
45.38899904429405 11.066516595645083 19.161348694829183 15.161133753819787
41.49475533705734 2.695178211107705 21.961868585110796 16.837708540838825
44.635548043138414 3.128269913825577 23.64753607008395 17.85974205922891
41.74237121064577 3.3782583499843897 21.668747530833045 16.69536532982833
36.065151665063176 3.274775873003362 18.207170411340076 14.583205380719747
29.89898281330132 2.9651443532114548 14.717006539297506 12.216831920792357
23.9298208123845 2.5908385887464256 11.359332260914986 9.979649962723082
18.83494028728616 2.2445308173001637 8.60503645445796 7.985373015528036
14.497451415154883 1.9411917075734193 6.315603787574112 6.24065592000735
10.81947645796397 1.6838077639464066 4.433022186053424 4.70264650796414
7.677750029528555 1.4595400294547594 2.882139147205109 3.3360708528686853
5.01846362296479 1.2461857977309423 1.634046753773437 2.138231071460412
3.0033313542447804 1.0382075733946492 0.814086642410194 1.151037138439937
1.5034567569444421 0.7870321175493208 0.2459793707568502 0.470445268638272
0.707080169339655 0.5590452154157008 0.037949882396512646 0.1100850715274414
0.3835412332060785 0.3899133277031706 -0.0025037088393025857 -0.003868385657789509
0.2762765753456158 0.2791899975400547 -0.0005610514030675065 -0.002352370791371372
0.2250600865702539 0.22493708376642876 1.7813179761851567e-05 0.00010518962406327785
0.17827636801727093 0.17826592719182688 6.169848761276928e-07 9.823840567913113e-06
0.10831348084677356 0.10831348084677356 0.0 0.0
0.07731908495522827 0.07731908495522827 0.0 0.0
0.042530693596755965 0.042530693596755965 0.0 0.0
0.08501662277672407 0.08501662277672407 0.0 0.0
0.1592631442210523 0.15925248562675795 6.366593226293898e-07 1.002193497175889e-05
0.22464123317310378 0.22465003791930155 3.056182705465791e-06 -1.1860928903213268e-05
0.3029788170382571 0.30495650868694046 -0.0006567614942064228 -0.001320930154477017
0.48738587336376415 0.467332701191557 0.003298447238041454 0.01675472493416584
1.0107566298685964 0.6751408493769314 0.10317794058127204 0.23243783991039246
2.1968021243481384 0.9453182184511865 0.4934946834898568 0.7579892224070952
4.05186104050771 1.1866769885489512 1.1974552847720794 1.6677287671866803
6.722766377769332 1.4305317207298782 2.4057719734454706 2.886462683593983
10.052318111029393 1.6737406426109778 4.0240628192055645 4.354514649212854
14.048915972609526 1.9388764613424772 6.0667135680490105 6.043325943218038
18.7708320687857 2.246466618734979 8.567890651955555 7.956474798095174
24.37865194995088 2.610133240415026 11.634375492354586 10.134143217181267
30.944686659618647 3.039534871378359 15.281212957697011 12.623938830543281
38.49472852391592 3.4785797867533645 19.587286623715542 15.428862113447009
46.6965468481754 3.787250522167396 24.51912451427177 18.390171811736234
53.75487715945869 3.72523543095733 28.967490177421084 21.062151551080284
57.061949195728516 3.1850140763465493 31.3671863190363 22.509748800345655
53.43448693962699 2.829017974965578 29.34421876922921 21.261250195432197
58.24746148329996 13.691938010204865 25.546967910979134 19.008555562115944
53.434486939630695 2.829017974971573 29.34421876922779 21.261250195431355
57.061949195707875 3.1850140763385526 31.367186319028296 22.50974880034102
53.75487715942904 3.72523543095501 28.967490177403807 21.062151551070244
46.6965468481433 3.7872505221649813 24.519124514253164 18.39017181172516
38.49472852388497 3.478579786754648 19.587286623695814 15.42886211343453
30.94468665958899 3.0395348713808574 15.281212957677717 12.623938830530411
24.37865194991623 2.6101332404095943 11.634375492337432 10.134143217169198
18.770832068755006 2.2464666187323785 8.567890651939503 7.956474798083113
14.048915972581838 1.9388764613430578 6.0667135680333395 6.043325943205443
10.052318111004341 1.6737406426098447 4.024062819192805 4.354514649201688
6.722766377750115 1.4305317207284218 2.4057719734364467 2.8864626835852456
4.051861040494645 1.1866769885476163 1.1974552847666613 1.6677287671803684
2.196802124339114 0.9453182184487033 0.4934946834869177 0.757989222403492
1.0107566298646034 0.6751408493759301 0.10317794058014945 0.23243783990852396
0.4873858733624457 0.46733270119074555 0.0032984472378923507 0.016754724933807693
0.3029788170377628 0.30495650868622887 -0.0006567614941809498 -0.0013209301542849317
0.22464123317272844 0.22465003791889385 3.056182708313323e-06 -1.1860928873734573e-05
0.15926314422071583 0.15925248562642796 6.366593221431451e-07 1.0021934965748754e-05
0.08501662277656027 0.08501662277656027 0.0 0.0
0.042530693596667626 0.042530693596667626 0.0 0.0
0.02195854854815607 0.02195854854815607 0.0 0.0
0.06324741586296836 0.06324741586296836 0.0 0.0
0.13867176170747791 0.13866578756443426 3.662909033654852e-07 5.6078521402870744e-06
0.22343866487375014 0.22340428193320228 2.547896752687784e-06 3.183504379523843e-05
0.3404893798044064 0.3478046890498523 -0.0017792972555170407 -0.005536011989928737
0.6302157494217155 0.5325554558375434 0.02254069642698959 0.07511959715718244
1.4202353531766305 0.8022520954507849 0.2251149035316052 0.3928683541942404
2.9039204752046146 1.0684481129605534 0.7270710346750671 1.1084013275689948
5.263862165998941 1.3365442208259 1.7209805961964915 2.2063373489765508
8.477267838265655 1.6061470777939144 3.2246692231448852 3.6464515373268567
12.529263559584777 1.8881013360549896 5.256627385221321 5.384534838308466
17.429291202242233 2.2005088563903863 7.832394985642069 7.396387360209777
23.275062023810847 2.564874934692487 11.0195562222797 9.690630866838667
30.072161533981415 2.9947559431859263 14.769884086719808 12.307521504075684
38.19713462987049 3.492270515679015 19.418312653786174 15.286551460405292
47.53537560346723 4.011038762008848 24.891607936008757 18.632728905449646
57.336082404656054 4.313170638706431 30.844044728810672 22.178867037138964
65.84518290357573 4.039621494437615 36.44975802848016 25.35580338065798
69.86804490327353 3.2244480371897937 39.56804497710233 27.075551888981416
65.86317360521912 2.975361519925254 37.152554446822755 25.7352576384711
71.86380061701551 16.359933235396273 32.41013903552918 23.093728346090064
65.86317360520741 2.9753615199180485 37.152554446819835 25.735257638469502
69.8680449032621 3.2244480371944735 39.5680449770919 27.075551888975706
65.84518290355282 4.0396214944473545 36.449758028459094 25.355803380646343
57.336082404618196 4.313170638705014 30.844044728787573 22.1788670371256
47.53537560342296 4.0110387620037695 24.89160793598426 18.632728905434924
38.19713462982484 3.492270515671536 19.418312653762783 15.286551460390502
30.072161533941838 2.9947559431830344 14.769884086697825 12.30752150406097
23.27506202377147 2.5648749346888793 11.019556222258815 9.690630866823774
17.429291202207995 2.2005088563886854 7.832394985623644 7.396387360195668
12.529263559555385 1.8881013360538925 5.256627385205866 5.384534838295622
8.477267838241959 1.6061470777922287 3.2246692231334055 3.646451537316322
5.263862165983291 1.3365442208244487 1.7209805961896727 2.206337348969169
2.9039204751933765 1.0684481129588572 0.727071034670741 1.1084013275637794
1.4202353531709329 0.8022520954492092 0.22511490352988967 0.39286835419183314
0.6302157494195101 0.532555455836438 0.022540696426611478 0.07511959715646067
0.340489379803748 0.34780468904893747 -0.001779297255464735 -0.005536011989724662
0.22343866487350494 0.2234042819329758 2.5478967487772225e-06 3.183504378044246e-05
0.13867176170731677 0.13866578756427328 3.662909033509835e-07 5.607852140109466e-06
0.06324741586295277 0.06324741586295277 0.0 0.0
0.021958548548116227 0.021958548548116227 0.0 0.0
0.010778771619104678 0.010778771619104678 0.0 0.0
0.04480037122691252 0.04480037122691252 0.0 0.0
0.11896807585446559 0.11896807585446559 0.0 0.0
0.22460188603652934 0.22472181513652822 -1.6679952223066982e-05 -0.00010324914777581928
0.3949717506242831 0.3963922978234925 -0.0009053329451237831 -0.000515214254085474
0.8347665384333789 0.6323045278603522 0.06108687431056868 0.14137513626245796
1.8723361950774695 0.9086155330579604 0.3553166870367824 0.6084039749827275
3.7130081842311187 1.184564503852175 1.0466244441765082 1.481819236202433
6.511593769769635 1.4772561252827945 2.2757133349776058 2.7586243095092344
10.306536398346108 1.7803252949618178 4.110050634018258 4.416160469366033
15.084189438829728 2.1046674087182886 6.5566865754097075 6.422835454701735
20.92544930913769 2.472796491239728 9.691878890766468 8.760773927131499
27.82165552107739 2.898775831464921 13.48023079046462 11.442648899147848
36.11517205711515 3.3958659008939636 18.221815221176243 14.49749093504495
45.680668712286945 3.9599347574370443 23.754426689554805 17.966307265295082
56.5311370103021 4.523743486524511 30.185426959085994 21.82196656469161
68.0844723450276 4.835840998276943 37.37656276040234 25.872068586348338
78.06297565334549 4.392904468235756 44.121657810120894 29.548413374988854
82.95678282808643 3.2806587148775987 48.0311071171947 31.645016996014125
79.00405220936739 3.0853250930792138 45.59616924183991 30.322557874448254
86.70370106241282 19.017447442581638 40.246604771452695 27.439648848378486
79.00405220935968 3.0853250930794065 45.59616924183468 30.322557874445618
82.95678282805281 3.280658714865117 48.03110711718085 31.645016996006845
78.06297565330735 4.392904468234693 44.12165781009665 29.54841337497602
68.08447234498371 4.835840998275868 37.37656276037487 25.872068586333
56.531137010257744 4.523743486526712 30.18542695905643 21.82196656467458
45.68066871223922 3.959934757437334 23.75442668952491 17.966307265276967
36.115172057069756 3.395865900891092 18.221815221150287 14.497490935028368
27.821655521037137 2.8987758314676864 13.480230790439034 11.442648899130413
20.925449309095274 2.4727964912362568 9.691878890744043 8.760773927114974
15.084189438795459 2.1046674087166704 6.556686575391512 6.422835454687279
10.306536398320299 1.7803252949612483 4.110050634004747 4.416160469354301
6.51159376974916 1.477256125280826 2.2757133349682994 2.7586243095000347
3.7130081842185203 1.1845645038516783 1.046624444171135 1.4818192361957077
1.8723361950701072 0.9086155330561205 0.3553166870344299 0.6084039749795574
0.8347665384304941 0.6323045278591373 0.06108687430995812 0.1413751362613988
0.3949717506234459 0.3963922978227093 -0.0009053329451473803 -0.0005152142541161211
0.22460188603622755 0.2247218151362293 -1.6679952224298355e-05 -0.00010324914777737817
0.11896807585441613 0.11896807585441613 0.0 0.0
0.0448003712268833 0.0448003712268833 0.0 0.0
0.010778771619091463 0.010778771619091463 0.0 0.0
0.0052459513395356075 0.0052459513395356075 0.0 0.0
0.030710100961657386 0.030710100961657386 0.0 0.0
0.10283416402412385 0.10283416402412385 0.0 0.0
0.23285292044857317 0.23329498766186973 -6.0886134036545676e-05 -0.00038118107925990964
0.4743147494408543 0.4492960361400323 0.004701480304402916 0.020317232996419236
1.1012244643180031 0.7314121253225276 0.12581461092000398 0.2439977280754716
2.3753726691240495 0.9957046003022905 0.521753566183224 0.8579145026385339
4.57442019719459 1.2959939057041197 1.4067000432655752 1.8717262482248962
7.803071392917598 1.6127720516612167 2.870003823531038 3.3202955177253433
12.1825880271421 1.9531590858539603 5.036675960945477 5.192752980342664
17.73924656227711 2.328806117649457 7.943007385580199 7.4674330590474565
24.496550310950838 2.7543594083033964 11.607023896683677 10.135167005963762
32.68576331191698 3.2535786578634944 16.227835952798088 13.204348701255393
42.19134879839959 3.8254590853507286 21.65144401481088 16.714445698237977
53.309064410788565 4.428427833984339 28.221417719666086 20.659218857138153
65.72464487102854 4.982126454623815 35.76650709777844 24.97601131862629
78.72157482141085 5.306564340769111 43.95211171933503 29.462898761306718
90.2632631622498 4.891269247951573 51.777936792684486 33.59405712161376
96.35705950265474 3.38165389150105 56.83035889759203 36.14504671356165
93.00575007233822 3.082712107763763 54.82176680875461 35.10127115581982
102.88532130369255 21.52175389291416 49.145786635354256 32.217780775424146
93.0057500723174 3.0827121077555626 54.821766808746276 35.10127115581555
96.35705950262096 3.3816538914993695 56.830358897570804 36.14504671355082
90.26326316220832 4.891269247953545 51.777936792655886 33.5940571215989
78.72157482135856 5.306564340766235 43.952111719302806 29.46289876128952
65.72464487097146 4.982126454619461 35.766507097744636 24.97601131860735
53.309064410736624 4.428427833986634 28.221417719631834 20.65921885711815
42.19134879834564 3.82545908534686 21.651444014779955 16.71444569821884
32.68576331186652 3.2535786578611265 16.22783595276905 13.204348701236356
24.496550310906915 2.754359408304307 11.607023896657308 10.135167005945302
17.739246562238016 2.328806117647268 7.943007385559321 7.467433059031424
12.182588027110876 1.9531590858513384 5.036675960929949 5.192752980329587
7.803071392895961 1.6127720516615047 2.8700038235198067 3.3202955177146487
4.574420197179794 1.2959939057019814 1.4067000432595793 1.8717262482182335
2.3753726691150274 0.9957046003003723 0.5217535661803958 0.8579145026342586
1.1012244643141527 0.7314121253211757 0.12581461091905302 0.24399772807392411
0.47431474943970897 0.44929603613897484 0.004701480304340525 0.020317232996393805
0.23285292044818623 0.23329498766150886 -6.088613403990975e-05 -0.00038118107928267246
0.10283416402395383 0.10283416402395383 0.0 0.0
0.030710100961609085 0.030710100961609085 0.0 0.0
0.005245951339531292 0.005245951339531292 0.0 0.0
0.002489576505628791 0.002489576505628791 0.0 0.0
0.02103110816447087 0.02103110816447087 0.0 0.0
0.09382682925634649 0.09382682925634649 0.0 0.0
0.25579497938556545 0.2565468703209222 -0.00016830492340519208 -0.0005835860119516283
0.5986325234214318 0.5307139183787772 0.019291162763344548 0.04862744227931026
1.407063632598793 0.8152703559105186 0.20613338253603672 0.38565989415223845
2.94589349053339 1.0876192513540195 0.7380334198615331 1.1202408193178377
5.465233577422614 1.4011455202954435 1.7903825319011901 2.27370552522598
9.145345045554585 1.7449263030597484 3.5122235817418948 3.8881951607529457
14.100519961432411 2.127277084092806 6.000109263435955 5.973133613903655
20.431814704001756 2.556946757422022 9.356707671389628 8.518160275190107
28.2616238257761 3.052413345728165 13.693038395181931 11.516172084865998
37.507785205486314 3.628006194720107 18.893537086936735 14.98624192382949
48.5270629756955 4.267017965972595 25.32025952561646 18.93978548410645
61.166077751371645 4.912454914097039 32.89405319515507 23.359569642119542
75.01605952618812 5.421180593273291 41.47381418518843 28.121064747726354
89.16136848533415 5.6220876730233 50.59689121143704 32.942389600873824
102.05688941058114 5.382646806186627 59.301280522714414 37.37296208168007
109.9819511654374 3.887942435440234 65.59269343409991 40.501315295897214
107.94716897556938 2.7927834243794147 64.98876176202843 40.16562378916155
120.45271960273159 22.889743706972897 59.89054142611612 37.67243446964253
107.94716897554646 2.792783424375232 64.98876176201584 40.165623789155376
109.98195116540629 3.887942435446696 65.59269343407493 40.50131529588474
102.05688941052915 5.382646806184265 59.3012805226814 37.37296208166349
89.16136848527364 5.622087673021729 50.59689121139838 32.94238960085351
75.01605952612593 5.421180593271672 41.473814185149095 28.121064747705177
61.16607775130669 4.912454914091929 32.89405319511691 23.359569642097835
48.52706297563688 4.267017965970991 25.320259525580784 18.939785484085103
37.50778520542893 3.6280061947174453 18.893537086903237 14.986241923808235
28.26162382572369 3.0524133457256286 13.693038395152259 11.516172084845795
20.431814703957407 2.556946757419017 9.356707671365742 8.518160275172654
14.100519961398144 2.127277084091308 6.000109263417822 5.9731336138890185
9.145345045529108 1.744926303058026 3.5122235817294594 3.888195160741623
5.465233577404703 1.4011455202922118 1.790382531894055 2.2737055252184386
2.945893490522525 1.0876192513524665 0.7380334198574666 1.1202408193125915
1.407063632594239 0.8152703559097237 0.20613338253451957 0.38565989414999563
0.598632523419884 0.5307139183776686 0.019291162763176623 0.04862744227903865
0.255794979385154 0.25654687032041623 -0.0001683049233992332 -0.0005835860118631684
0.09382682925617317 0.09382682925617317 0.0 0.0
0.021031108164449207 0.021031108164449207 0.0 0.0
0.002489576505633393 0.002489576505633393 0.0 0.0
0.0007091295405078123 0.0007091295405078123 0.0 0.0
0.015168442854752833 0.015168442854752833 0.0 0.0
0.0970763920930596 0.0970763920930596 0.0 0.0
0.3073218179370446 0.3075120233295209 -0.00020880521221758265 1.859981974126467e-05
0.7803039715514029 0.6442973921579722 0.04404365067475907 0.09196292871867146
1.7876402343087427 0.9785292893745676 0.2952625643382842 0.5138483805958903
3.5876828976013786 1.3269367726071812 0.9238864407969585 1.3368596841972402
6.460138915226382 1.7626924131358017 2.109734522677028 2.5877119794135512
10.615774093842788 2.287243622443252 4.003036365657987 4.325494105741552
16.272824823438675 2.9365672498059556 6.766029855132524 6.570227718500194
23.570588621841654 3.7488340848388675 10.502429989695585 9.319324547307199
32.522552538531215 4.751668012717179 15.196662298327379 12.574222227486656
43.35005081525317 5.943460630354489 21.063872295158586 16.3427178897401
56.1026359633617 7.3026717067538796 28.16853935476542 20.631424901842387
70.5821698666864 8.660788757641672 36.52719218323978 25.39418892580491
86.0991079646858 9.698329422089754 45.933723371252 30.467055171344068
101.28040427533314 10.022022703301023 55.71369275674836 35.544688815283756
114.35354342864443 9.44971121247071 64.7997553753172 40.104076840856564
123.71797475059344 8.546864797842476 71.69079172265396 43.480318230097026
120.16196747147634 2.8093745448212317 73.10690033445074 44.245692592204335
172.58317142572935 59.27546834930476 70.49447175242564 42.81323132399895
120.16196747146412 2.8093745448311207 73.10690033443589 44.2456925921971
123.71797475055112 8.546864797840247 71.69079172262686 43.480318230083945
114.3535434285765 9.44971121245898 64.79975537527989 40.10407684083773
101.28040427526787 10.022022703302088 55.71369275670438 35.54468881526142
86.09910796461645 9.698329422086985 45.93372337120856 30.467055171320844
70.5821698666139 8.660788757634952 36.52719218319756 25.394188925781393
56.102635963291576 7.302671706745672 28.168539354726377 20.631424901819543
43.350050815187856 5.943460630348958 21.06387229512171 16.34271788971721
32.52255253847095 4.751668012711831 15.196662298294358 12.574222227464755
23.57058862179191 3.7488340848341064 10.50242998966937 9.319324547288435
16.272824823399745 2.936567249802176 6.766029855112746 6.570227718484822
10.615774093814498 2.2872436224416473 4.003036365643735 4.325494105729117
6.460138915206128 1.7626924131328665 2.109734522668411 2.5877119794048493
3.587682897589296 1.3269367726059687 0.9238864407920571 1.3368596841912699
1.7876402343032465 0.9785292893737559 0.29526256433651654 0.5138483805929733
0.780303971549253 0.644297392156936 0.044043650674365456 0.09196292871795174
0.30732181793650826 0.3075120233289028 -0.0002088052121967624 1.8599819802114e-05
0.09707639209284295 0.09707639209284295 0.0 0.0
0.015168442854706405 0.015168442854706405 0.0 0.0
0.0007091295405113571 0.0007091295405113571 0.0 0.0
CELL_DATA 800
SCALARS Stress float 6
LOOKUP_TABLE default
156.27334047292348 -509.2218379177115 -182.59050524118413 -107.52924827529995 0.0 0.0
397.2415466689683 -44.299308592944485 116.86610483168309 58.13952649242482 0.0 0.0
391.6033237892041 8.47026451558592 119.82589048653229 -4.2322408771258075 0.0 0.0
452.02443230847484 -9.441758104302732 136.60242031728558 -13.759226869223653 0.0 0.0
526.0232073351747 -14.313210574157607 182.19591381227917 -11.321659619250457 0.0 0.0
596.0960364976821 -7.585516468727736 250.91599416156635 -9.731923888287808 0.0 0.0
663.9325003927376 0.019136287617740777 312.17732630432 -9.823831421504282 0.0 0.0
731.8265889355447 15.52998921615152 365.26487534105956 -10.92710513274447 0.0 0.0
800.9738968672171 37.74058164047793 414.94231603007717 -12.269431437469901 0.0 0.0
871.7312951462898 65.85032741485848 465.67589368434994 -13.25636898644246 0.0 0.0
943.3458080193419 98.11908395503143 518.1574849736578 -13.719554161800982 0.0 0.0
1014.9697479460392 133.78399221747014 572.1330041985412 -13.664763705031778 0.0 0.0
1086.5974120147166 171.2433745502177 626.9041530932584 -13.435980523337246 0.0 0.0
1158.9295983687862 211.0099816259738 683.102500945888 -13.163174955896705 0.0 0.0
1232.7232756998583 254.09500395533857 741.6402427240281 -12.774502509836593 0.0 0.0
1307.4902430813577 300.43581235904685 802.2650216466295 -12.084076133215245 0.0 0.0
1380.950518576599 348.610550580848 863.1421128859504 -10.892890831864214 0.0 0.0
1449.8106193299368 396.3221287483051 921.4604217821195 -9.223291616043625 0.0 0.0
1510.7959972213382 441.4045421178314 974.4534576034579 -7.857848557695299 0.0 0.0
1581.2173311779914 503.1210894255812 1039.9941090072734 -10.307503570446226 0.0 0.0
1581.2173311775666 503.12108942516363 1039.9941090069312 10.307503570448224 0.0 0.0
1510.795997221166 441.40454211769327 974.4534576032761 7.857848557655001 0.0 0.0
1449.8106193295296 396.3221287479623 921.4604217816733 9.223291616116882 0.0 0.0
1380.950518575739 348.6105505800723 863.1421128851845 10.892890831808137 0.0 0.0
1307.4902430797038 300.4358123574855 802.2650216453661 12.08407613314047 0.0 0.0
1232.7232756989247 254.0950039545241 741.6402427234101 12.774502509927935 0.0 0.0
1158.9295983687157 211.00998162605495 683.102500945891 13.163174955853103 0.0 0.0
1086.5974120144099 171.24337455008475 626.9041530930041 13.435980523408169 0.0 0.0
1014.9697479454561 133.7839922170877 572.1330041980451 13.664763704941205 0.0 0.0
943.3458080183827 98.11908395428091 518.1574849729826 13.719554161894465 0.0 0.0
871.731295145884 65.85032741469314 465.6758936840028 13.256368986415543 0.0 0.0
800.973896867155 37.740581640656444 414.94231602999395 12.269431437475047 0.0 0.0
731.8265889352899 15.529989216146788 365.2648753408568 10.927105132800348 0.0 0.0
663.9325003926431 0.019136287811697628 312.17732630417305 9.823831421536239 0.0 0.0
596.0960364974204 -7.585516468690372 250.91599416129768 9.73192388827174 0.0 0.0
526.0232073347495 -14.31321057435898 182.19591381197142 11.321659619204645 0.0 0.0
452.0244323083368 -9.441758104146821 136.6024203172798 13.75922686926257 0.0 0.0
391.6033237891802 8.470264515858911 119.82589048661012 4.2322408771891284 0.0 0.0
397.2415466689925 -44.299308592720834 116.86610483171029 -58.13952649237062 0.0 0.0
156.27334047341967 -509.22183791717794 -182.59050524066893 107.52924827505596 0.0 0.0
58.42595018188726 -538.8826486748932 -240.70665834807215 -151.39988459328828 0.0 0.0
250.46493258665515 -29.936072992485155 66.1582918785297 11.705020359436773 0.0 0.0
343.28421174869993 25.881164282843454 110.7491226831351 -10.263559347497052 0.0 0.0
414.22811966005435 -6.912354550562621 122.78052130075008 -33.43284304116559 0.0 0.0
496.63531924826304 -15.325768697862816 161.27177687392145 -32.15224357729209 0.0 0.0
571.534333403597 -8.895931680798004 228.9799861032854 -28.795782471258736 0.0 0.0
643.4393745318727 -1.423605983659474 295.2522489953354 -29.241805244526393 0.0 0.0
712.3427931719792 13.387071879803258 351.7162378290231 -30.925839644976644 0.0 0.0
780.4008387258341 34.19395594572462 401.7515668435807 -32.97653805319723 0.0 0.0
848.4968399776415 59.952164951299736 450.58152307313594 -34.263409796117585 0.0 0.0
916.1970491386801 89.00627097448817 499.7338220367043 -34.45159658429202 0.0 0.0
983.2731321221152 120.03806316951938 549.211665263883 -33.84708446815855 0.0 0.0
1049.8999790681792 153.35610223244234 599.4523482899892 -32.93316051562473 0.0 0.0
1117.2385324563006 188.85003135013113 651.0463255451542 -31.993086942662533 0.0 0.0
1185.6967333726489 227.0338932052953 704.4919495936194 -30.868129519001386 0.0 0.0
1254.7535841611318 267.98975419967473 759.5947586792445 -29.12697796936947 0.0 0.0
1322.8776286666887 310.9255105373126 815.1908721748351 -26.469905021841882 0.0 0.0
1388.0673952460143 354.87382839351767 869.7702922514185 -23.149122619379426 0.0 0.0
1452.364772362721 403.2940631855816 925.9674716744232 -20.133240215691057 0.0 0.0
1499.1131143171467 440.9352417242011 967.9788606934007 -16.751925972816927 0.0 0.0
1499.1131143168766 440.9352417239463 967.9788606932514 16.751925972898498 0.0 0.0
1452.364772361977 403.29406318487446 925.9674716739364 20.133240215761163 0.0 0.0
1388.0673952452657 354.8738283928326 869.770292250832 23.14912261947477 0.0 0.0
1322.8776286661916 310.9255105368968 815.1908721743874 26.469905021845335 0.0 0.0
1254.7535841614624 267.9897542001209 759.5947586792812 29.126977969411932 0.0 0.0
1185.6967333725167 227.03389320529712 704.4919495933252 30.86812951910101 0.0 0.0
1117.2385324562783 188.85003135025943 651.0463255450421 31.993086942667937 0.0 0.0
1049.899979067361 153.3561022317801 599.4523482893748 32.93316051561796 0.0 0.0
983.2731321213582 120.03806316895694 549.2116652633747 33.847084468165875 0.0 0.0
916.1970491384205 89.00627097445185 499.73382203651187 34.45159658433563 0.0 0.0
848.496839977249 59.95216495113155 450.5815230728682 34.26340979606799 0.0 0.0
780.4008387254478 34.19395594558051 401.75156684329386 32.97653805318808 0.0 0.0
712.3427931714732 13.387071879534687 351.7162378286383 30.92583964497719 0.0 0.0
643.4393745313573 -1.4236059839080966 295.2522489949262 29.24180524452248 0.0 0.0
571.5343334036085 -8.895931680413966 228.9799861031811 28.795782471222637 0.0 0.0
496.63531924841135 -15.32576869730459 161.27177687401115 32.15224357735596 0.0 0.0
414.2281196598584 -6.912354550525704 122.78052130070932 33.432843041144906 0.0 0.0
343.28421174859307 25.88116428272587 110.74912268306812 10.263559347548082 0.0 0.0
250.46493258684228 -29.936072992104133 66.15829187870052 -11.705020359536547 0.0 0.0
58.42595018218134 -538.8826486745562 -240.70665834772876 151.39988459308012 0.0 0.0
11.167849658110725 -542.436859124382 -257.99019473473254 -165.4978556842803 0.0 0.0
144.70227826165998 -26.111349726643898 35.57727856050482 -41.06824540819471 0.0 0.0
279.36122667709014 30.01706939283971 92.81348882097893 -32.454834056151206 0.0 0.0
367.0275924254787 0.7326803756188118 110.46685468187917 -52.27776828310553 0.0 0.0
457.56168634296665 -13.723256757355962 141.408066304778 -55.150544767698804 0.0 0.0
543.9084117166544 -12.437747365967645 203.0512498951462 -50.01866541279796 0.0 0.0
618.6762558349149 -1.9715639662977082 274.9212978723633 -48.963042114413504 0.0 0.0
688.4467759190335 11.267136242048572 334.7708274254646 -50.890992944028575 0.0 0.0
755.9915062818974 30.737702896385194 386.153849667983 -53.284914123355975 0.0 0.0
821.4589460867281 53.89277482120383 433.30199047220066 -54.602102375938045 0.0 0.0
885.3014672514526 79.36240742808076 479.0731926805021 -54.45804855582135 0.0 0.0
947.6950848186519 106.56711944929384 524.4311695622814 -53.28867668799004 0.0 0.0
1009.7710647040383 135.23443416167126 570.1354961490703 -51.872886402335325 0.0 0.0
1071.9849747377998 166.27723855864244 616.9839902355403 -50.34699281256511 0.0 0.0
1134.8998999155629 199.40938065354538 665.1643440042202 -48.520173606989765 0.0 0.0
1198.2208772846698 234.74099976024752 714.6131010734733 -45.88994790582882 0.0 0.0
1261.124069816709 272.3441097247901 764.9372827076543 -42.12616228135906 0.0 0.0
1323.928478872368 313.6681085979334 816.9763542811371 -37.493113656719835 0.0 0.0
1382.0332343194725 355.37848016708165 866.7804140861251 -31.65861756562448 0.0 0.0
1422.2137910786787 385.4726262000529 901.7928347415747 -22.47321205038111 0.0 0.0
1422.2137910781394 385.4726261995184 901.79283474117 22.473212050334105 0.0 0.0
1382.033234319037 355.378480166695 866.7804140858082 31.658617565795605 0.0 0.0
1323.9284788721152 313.66810859775757 816.9763542809147 37.493113656853545 0.0 0.0
1261.1240698163167 272.3441097244811 764.9372827073612 42.12616228137027 0.0 0.0
1198.220877284945 234.74099976063474 714.6131010736908 45.88994790589845 0.0 0.0
1134.899899915347 199.40938065345517 665.1643440040053 48.52017360700077 0.0 0.0
1071.9849747364508 166.2772385574352 616.9839902345155 50.346992812619355 0.0 0.0
1009.7710647033957 135.2344341611787 570.1354961485556 51.872886402283285 0.0 0.0
947.6950848190328 106.56711944990857 524.4311695624706 53.28867668809314 0.0 0.0
885.3014672513445 79.36240742818009 479.0731926803967 54.45804855581255 0.0 0.0
821.4589460860212 53.89277482072522 433.3019904717009 54.60210237596518 0.0 0.0
755.9915062814031 30.737702896142025 386.15384966764447 53.284914123384084 0.0 0.0
688.4467759185143 11.267136241764703 334.7708274250748 50.89099294397879 0.0 0.0
618.6762558343776 -1.9715639665680058 274.9212978719181 48.96304211440292 0.0 0.0
543.9084117160949 -12.437747366226695 203.0512498947158 50.0186654127837 0.0 0.0
457.561686342405 -13.723256757789372 141.40806630444766 55.15054476759463 0.0 0.0
367.02759242506147 0.7326803752494069 110.46685468165619 52.277768282977746 0.0 0.0
279.3612266770888 30.017069392790326 92.81348882096373 32.45483405611277 0.0 0.0
144.7022782618887 -26.111349726234764 35.57727856069617 41.06824540804312 0.0 0.0
11.167849658258987 -542.4368591240714 -257.9901947344362 165.49785568415382 0.0 0.0
-6.1440629695330955 -527.2868428515777 -249.86063621460133 -167.88667197859786 0.0 0.0
85.36344130867965 -29.479449350745444 16.76519758738026 -85.77391806658481 0.0 0.0
218.64146798599597 28.575609158870193 74.16512314345985 -61.6140821031495 0.0 0.0
316.326412955847 6.822811044894232 96.93670238360349 -72.71456202232 0.0 0.0
408.8976593780161 -10.820219922394907 122.39697480461575 -79.76092283968917 0.0 0.0
504.4094423588805 -13.869144594659705 175.36193342537382 -73.39010922897894 0.0 0.0
586.7552622943513 -4.072287432576633 248.32652022333778 -69.56416359832207 0.0 0.0
659.8891669304674 9.776369701146791 314.1282226620348 -70.981212259276 0.0 0.0
726.8200348967088 27.134173621442635 367.1942340549363 -73.17661490553661 0.0 0.0
789.9214932506072 47.59048199828126 413.2590659528555 -74.28264709977547 0.0 0.0
850.1277641549136 69.58319636393642 456.04312963904727 -73.74225236488248 0.0 0.0
908.3844668070332 92.80907677926757 497.5578492892938 -72.09131235799197 0.0 0.0
965.4427591024555 117.19814601616682 538.7100142797608 -70.17670380086884 0.0 0.0
1022.8544738819662 143.52048832135236 580.8583901724147 -68.21642709851051 0.0 0.0
1080.3311983949352 171.33234267968027 623.7030766550629 -65.7955656449494 0.0 0.0
1137.5341789938543 201.00750898390402 667.2922388603112 -62.408667045333544 0.0 0.0
1195.4795353369286 233.40208099262998 712.5426484696228 -57.8728580022255 0.0 0.0
1253.5402129469935 269.3564106162915 759.5386225923893 -51.936643894218065 0.0 0.0
1307.01745084974 305.27783106933725 804.1576162013632 -43.114643744969484 0.0 0.0
1344.8176017114488 331.2970574295085 835.9546148908695 -28.550587068717135 0.0 0.0
1344.8176017118044 331.297057429879 835.9546148910572 28.550587068698807 0.0 0.0
1307.0174508501268 305.27783106979945 804.1576162016496 43.11464374521617 0.0 0.0
1253.5402129461265 269.35641061550814 759.5386225917763 51.936643894390954 0.0 0.0
1195.4795353366994 233.40208099248954 712.5426484693979 57.87285800231655 0.0 0.0
1137.5341789941424 201.00750898432193 667.2922388604547 62.408667045426675 0.0 0.0
1080.3311983958224 171.33234268071467 623.7030766556912 65.7955656450161 0.0 0.0
1022.8544738819567 143.52048832152343 580.85839017248 68.21642709864635 0.0 0.0
965.4427591014575 117.19814601532025 538.710014279096 70.17670380084954 0.0 0.0
908.3844668065426 92.80907677895662 497.5578492889301 72.09131235800513 0.0 0.0
850.1277641552525 69.58319636449255 456.0431296391767 73.74225236487582 0.0 0.0
789.9214932511611 47.59048199908921 413.25906595318577 74.2826470997745 0.0 0.0
726.8200348964428 27.134173621444504 367.1942340547169 73.17661490556296 0.0 0.0
659.8891669304408 9.776369701433367 314.12822266194377 70.98121225930383 0.0 0.0
586.7552622941489 -4.072287432476671 248.3265202230996 69.56416359829049 0.0 0.0
504.40944235839896 -13.869144594806674 175.36193342502736 73.39010922891427 0.0 0.0
408.8976593777194 -10.820219922353877 122.39697480453158 79.7609228396251 0.0 0.0
316.3264129558168 6.822811045179612 96.93670238368139 72.71456202229194 0.0 0.0
218.6414679860849 28.57560915898148 74.16512314351989 61.614082103093985 0.0 0.0
85.36344130880428 -29.47944935042972 16.765197587512368 85.77391806636703 0.0 0.0
-6.14406296940885 -527.2868428512768 -249.86063621431168 167.8866719784814 0.0 0.0
-9.343361804001134 -501.3197965519744 -228.03634935017163 -165.98483049642988 0.0 0.0
50.895971425967765 -33.68996248378652 5.161802682654372 -120.51206600496428 0.0 0.0
165.9713520249245 24.190245143385596 57.04847915049302 -91.13872651620105 0.0 0.0
262.7705290800218 10.323450316442859 81.9270934140781 -94.59422277030829 0.0 0.0
351.7822430888586 -5.96150499881921 104.53749094933963 -103.31035364146557 0.0 0.0
453.53209977520737 -14.09229999222155 147.1431165422055 -99.78451918643128 0.0 0.0
547.0204657089289 -6.917469989112979 216.34187888325312 -92.41469869331955 0.0 0.0
624.9352268392257 7.855175934999764 287.70162805069816 -91.19139247929118 0.0 0.0
692.0957319419891 23.613211098642317 343.9812270925825 -92.7304039729677 0.0 0.0
753.1934178607793 41.06765554738173 389.79592893674624 -93.360907328339 0.0 0.0
810.1736291218912 59.62302317554784 430.19859089279316 -92.35304626424927 0.0 0.0
864.1651184522389 78.87939448782855 467.9770499617101 -90.21396805297701 0.0 0.0
916.7174388657903 99.04483664484789 504.9488155765423 -87.95278488000382 0.0 0.0
968.6269331266608 120.64378358355503 542.0688057791454 -85.56093523707489 0.0 0.0
1020.6614944172748 143.30900841407532 579.6704747175226 -82.64644309641034 0.0 0.0
1072.7478606625757 167.25444074999072 617.8827824754337 -78.76772979024008 0.0 0.0
1124.4662329786772 193.43619992494652 656.9499262663824 -73.59850769322163 0.0 0.0
1176.870448632058 222.953691045124 697.9242819523259 -66.54010066201654 0.0 0.0
1226.651031667452 253.34724987433913 737.9367028044899 -55.033096738858646 0.0 0.0
1264.4583489999834 276.8046018856775 768.4358100728119 -35.486425089274945 0.0 0.0
1264.4583490008772 276.80460188658896 768.4358100734712 35.486425089294166 0.0 0.0
1226.6510316684207 253.34724987539983 737.9367028051253 55.0330967390721 0.0 0.0
1176.8704486312974 222.95369104442517 697.9242819517126 66.54010066206592 0.0 0.0
1124.4662329787702 193.43619992513845 656.9499262664148 73.59850769331001 0.0 0.0
1072.7478606634431 167.25444075096937 617.8827824759261 78.76772979028395 0.0 0.0
1020.6614944175112 143.30900841447357 579.6704747175784 82.64644309647812 0.0 0.0
968.626933125991 120.64378358299803 542.0688057786026 85.56093523701801 0.0 0.0
916.7174388658432 99.04483664509681 504.9488155765442 87.95278488010254 0.0 0.0
864.1651184518646 78.87939448762684 467.9770499613923 90.21396805297861 0.0 0.0
810.1736291211224 59.62302317497901 430.1985908922285 92.3530462642756 0.0 0.0
753.1934178603492 41.06765554716233 389.79592893639244 93.36090732827783 0.0 0.0
692.0957319418325 23.613211098764012 343.9812270924356 92.73040397299222 0.0 0.0
624.9352268387372 7.855175934797167 287.7016280502894 91.19139247928643 0.0 0.0
547.0204657087517 -6.917469988987197 216.34187888300988 92.4146986931919 0.0 0.0
453.532099774646 -14.092299992546096 147.14311654183544 99.78451918628917 0.0 0.0
351.78224308857347 -5.961504998803329 104.53749094926536 103.31035364141515 0.0 0.0
262.7705290797497 10.323450316086934 81.92709341389082 94.5942227701963 0.0 0.0
165.97135202486524 24.190245143226 57.04847915042736 91.1387265159961 0.0 0.0
50.89597142598511 -33.68996248357168 5.161802682724027 120.51206600474009 0.0 0.0
-9.343361803966502 -501.31979655173666 -228.03634934991828 165.9848304963121 0.0 0.0
-6.223552159834156 -468.1747723790612 -198.95647572185203 -162.75460410493295 0.0 0.0
29.165587932945186 -37.0868753380742 -2.376386221538705 -146.2409201526127 0.0 0.0
120.63914418645054 18.638695895948004 41.78335202471956 -117.46087597048931 0.0 0.0
208.4604616458604 12.203618568464119 66.19654725574424 -116.15399920217139 0.0 0.0
291.00617061452704 -1.503650600736132 86.9662574506608 -125.17033680032651 0.0 0.0
386.8577254429955 -12.285372268088793 119.16681981225932 -127.09097037717606 0.0 0.0
490.74619123885765 -8.44337669791938 179.69880641389295 -118.44924187300091 0.0 0.0
578.6023254556566 4.358090805110034 252.28323565267982 -112.88655284117291 0.0 0.0
650.0698661092192 19.735393815187994 314.4709530039475 -112.22631707434081 0.0 0.0
710.0660926641498 34.49416615373092 361.6772987973953 -111.87510565262478 0.0 0.0
763.8281336036569 49.35287321799997 400.29890456723933 -110.3122360133966 0.0 0.0
814.0297430249337 64.83465730390141 435.0465121226597 -107.74279202547953 0.0 0.0
861.9130749391466 80.94585457517915 467.99356388453725 -105.09344733476027 0.0 0.0
908.6763465595504 97.68960416869511 500.2869169548227 -102.49175655621742 0.0 0.0
955.3929469765119 115.21222556958078 532.7398940998853 -99.24406962013981 0.0 0.0
1001.5359077829078 133.86817846863377 565.3860674575685 -94.79983463395627 0.0 0.0
1047.2297318152537 153.1387335323305 598.0571826978262 -89.21626229955963 0.0 0.0
1093.0678269946386 174.79386706885492 631.8706415397146 -81.44870224316229 0.0 0.0
1139.0227861217388 199.22783152288665 666.9831343650364 -67.8338445199964 0.0 0.0
1178.7025663954846 220.86672750613673 697.4517992426216 -43.813890360287466 0.0 0.0
1178.702566395029 220.86672750571768 697.4517992422303 43.81389036049597 0.0 0.0
1139.022786120922 199.22783152216348 666.9831343644486 67.83384452025264 0.0 0.0
1093.0678269953116 174.79386706963842 631.8706415402005 81.44870224329438 0.0 0.0
1047.2297318159956 153.13873353317328 598.057182698291 89.2162622996474 0.0 0.0
1001.5359077826286 133.86817846849584 565.386067457275 94.7998346340406 0.0 0.0
955.3929469760433 115.21222556920634 532.7398940994714 99.244069620104 0.0 0.0
908.676346559916 97.68960416924833 500.286916955008 102.4917565563451 0.0 0.0
861.9130749388892 80.9458545751615 467.9935638843332 105.09344733491383 0.0 0.0
814.0297430246441 64.83465730379335 435.04651212242845 107.74279202549948 0.0 0.0
763.8281336030755 49.35287321758993 400.29890456683114 110.31223601333582 0.0 0.0
710.0660926636758 34.49416615342615 361.677298797001 111.87510565252668 0.0 0.0
650.0698661090726 19.73539381528915 314.4709530037492 112.22631707429396 0.0 0.0
578.6023254554219 4.358090805197264 252.28323565243102 112.8865528411462 0.0 0.0
490.7461912386135 -8.443376697812052 179.69880641367598 118.44924187293935 0.0 0.0
386.85772544276745 -12.285372267823202 119.16681981220106 127.09097037702851 0.0 0.0
291.0061706144179 -1.5036506005186343 86.9662574506981 125.17033680018554 0.0 0.0
208.46046164592855 12.20361856883831 66.19654725587785 116.15399920200385 0.0 0.0
120.63914418652845 18.638695896115603 41.78335202479322 117.46087597030997 0.0 0.0
29.165587932876328 -37.08687533804271 -2.3763862215499136 146.2409201524056 0.0 0.0
-6.2235521598157035 -468.1747723787596 -198.95647572159197 162.75460410489046 0.0 0.0
-0.5781202112058139 -429.2790447705124 -166.3343502355076 -159.31755056177363 0.0 0.0
13.061272827836287 -40.34174623154486 -8.184142021112573 -164.16774503036785 0.0 0.0
80.53574980294798 13.174204422268513 28.11298626756495 -139.0698263585822 0.0 0.0
154.84605227362673 13.737768802535642 50.572022745161526 -135.8350441456228 0.0 0.0
226.63299927009666 1.5391141839956417 68.54045526392926 -144.89108409461898 0.0 0.0
310.6732625662204 -8.220009658682176 92.97597122637026 -152.57278950962828 0.0 0.0
416.11598975206704 -8.904019253026036 139.99738531984008 -147.3033806943883 0.0 0.0
515.3132276181259 1.1328626703911642 207.87370392242383 -137.4767461890268 0.0 0.0
594.8148419908264 14.558158893121318 274.09230513727425 -132.55718513034924 0.0 0.0
657.4753466139201 27.670074749041923 325.8927179634963 -130.10646853290888 0.0 0.0
708.7332608744323 38.81293531392601 364.2434050760554 -127.68452613757836 0.0 0.0
755.4558792345201 50.71445034843375 396.9854931749336 -124.6877614317625 0.0 0.0
798.8538309526757 62.72194364023236 426.39417030282516 -121.72313353756003 0.0 0.0
840.3255546852082 75.02251368834875 454.21962738143077 -118.93500873388089 0.0 0.0
880.9635933623445 87.1288692744697 481.1143042134274 -115.5657917713776 0.0 0.0
922.4139104684187 100.59427241555744 508.89739956563517 -110.78691025157886 0.0 0.0
961.7866596841448 113.39356908619743 535.2697113921084 -104.55067407874701 0.0 0.0
999.5544459751568 125.917725744055 560.594922259759 -96.5204354006257 0.0 0.0
1040.9523031910553 142.13016544377558 589.3186524953294 -81.9600917465125 0.0 0.0
1084.4143542196825 162.12495777885638 620.7465223312319 -54.33411502032753 0.0 0.0
1084.414354220014 162.12495777924082 620.7465223315733 54.33411502047256 0.0 0.0
1040.9523031911956 142.13016544399653 589.3186524955764 81.96009174666611 0.0 0.0
999.5544459739664 125.91772574299941 560.5949222589794 96.52043540088869 0.0 0.0
961.7866596833446 113.39356908549144 535.2697113914815 104.55067407887685 0.0 0.0
922.4139104679706 100.59427241513256 508.89739956531656 110.78691025143976 0.0 0.0
880.9635933618939 87.128869274079 481.1143042131445 115.56579177129254 0.0 0.0
840.3255546848744 75.02251368808341 454.21962738118015 118.93500873381106 0.0 0.0
798.853830951733 62.72194363933352 426.39417030216737 121.72313353750272 0.0 0.0
755.4558792342734 50.71445034836756 396.985493174771 124.68776143177416 0.0 0.0
708.7332608740021 38.81293531361975 364.2434050757216 127.68452613750046 0.0 0.0
657.4753466137375 27.670074749115678 325.8927179633278 130.1064685329142 0.0 0.0
594.814841990185 14.558158892696405 274.0923051368134 132.55718513030678 0.0 0.0
515.3132276172649 1.1328626697406676 207.87370392179133 137.47674618897088 0.0 0.0
416.11598975145967 -8.904019253270778 139.9973853194846 147.30338069438454 0.0 0.0
310.67326256600387 -8.22000965840889 92.97597122636894 152.572789509499 0.0 0.0
226.63299926994955 1.5391141840715683 68.54045526391721 144.89108409451273 0.0 0.0
154.84605227345534 13.737768802295289 50.572022745039 135.83504414543955 0.0 0.0
80.53574980285885 13.174204422096107 28.112986267486484 139.06982635835377 0.0 0.0
13.061272827776506 -40.34174623148508 -8.184142021112573 164.16774503014793 0.0 0.0
-0.5781202111391863 -429.2790447701391 -166.33435023523177 159.31755056171897 0.0 0.0
3.542714970651126 -386.171724817277 -135.0433908394177 -156.297055876017 0.0 0.0
-2.3635926378683387 -43.85715691207791 -13.866196170743859 -174.64124012138512 0.0 0.0
43.985699027418335 8.809829512521814 15.83865856198204 -155.9494198407063 0.0 0.0
102.61941296065663 15.076085564003403 35.30699279465087 -152.3435980263699 0.0 0.0
160.26403301813986 4.063946675985734 49.34369363287821 -161.9371369583846 0.0 0.0
225.42678322548045 -3.743388969180879 67.48990293175599 -172.97166058036947 0.0 0.0
316.9298527832598 -6.510157690403036 99.77295252722251 -176.19546383483853 0.0 0.0
425.39950095470107 -1.1601863144172277 154.7008364628807 -166.35343348738266 0.0 0.0
517.3320031725505 8.70493178875157 218.76905614859362 -155.71391637215282 0.0 0.0
586.3061331338413 19.81768026837783 275.14661186649295 -148.8468312009184 0.0 0.0
639.1174500348982 27.913881046379856 316.7207446990176 -144.93134975292026 0.0 0.0
682.474750309805 36.18881908306132 348.98223269292475 -141.15130875400644 0.0 0.0
721.6636694379918 44.65190173674087 376.36090417624274 -137.8421567116256 0.0 0.0
757.9446611474598 52.5127455690197 400.433240933571 -134.94538250837138 0.0 0.0
792.8718633656232 59.5677174649621 422.57503795364437 -131.68271901370403 0.0 0.0
828.1767563608792 66.97450082441927 444.4858677975314 -126.81003795005167 0.0 0.0
863.8793804168786 74.79006217685425 466.6124194711183 -119.83121966221617 0.0 0.0
893.7713991726514 78.12413139320874 483.6656542550352 -111.36678968755729 0.0 0.0
925.566374864166 81.49238744460462 501.26771853668345 -97.36345892983513 0.0 0.0
973.5986171746656 98.33009665380561 533.1704310296733 -68.15490784712736 0.0 0.0
973.598617174248 98.33009665346273 533.1704310293283 68.15490784738145 0.0 0.0
925.5663748641277 81.49238744469994 501.2677185365999 97.36345893008755 0.0 0.0
893.771399172443 78.12413139316786 483.6656542548354 111.36678968782778 0.0 0.0
863.8793804162849 74.79006217645954 466.6124194706567 119.83121966244263 0.0 0.0
828.1767563609324 66.97450082452696 444.48586779749365 126.81003795003205 0.0 0.0
792.871863365432 59.56771746493999 422.5750379535355 131.68271901377696 0.0 0.0
757.9446611476307 52.512745569381764 400.4332409336654 134.94538250852096 0.0 0.0
721.6636694382191 44.651901737265575 376.3609041764207 137.84215671178066 0.0 0.0
682.4747503092054 36.18881908264525 348.982232692484 141.15130875409236 0.0 0.0
639.1174500348031 27.91388104660505 316.72074469893465 144.93134975299165 0.0 0.0
586.3061331334554 19.817680268129465 275.1466118661418 148.84683120078566 0.0 0.0
517.3320031727106 8.70493178928259 218.76905614861786 155.71391637213176 0.0 0.0
425.3995009548282 -1.16018631363972 154.70083646299605 166.35343348747298 0.0 0.0
316.92985278275023 -6.5101576904349026 99.77295252702139 176.19546383478516 0.0 0.0
225.42678322517023 -3.7433889694106384 67.48990293158819 172.97166058016015 0.0 0.0
160.26403301820903 4.06394667640385 49.343693633029346 161.93713695817337 0.0 0.0
102.61941296070056 15.07608556422039 35.30699279472995 152.34359802616953 0.0 0.0
43.985699027428474 8.809829512709165 15.838658562041289 155.9494198405355 0.0 0.0
-2.3635926379215952 -43.85715691205124 -13.866196170751968 174.64124012117037 0.0 0.0
3.542714970616572 -386.1717248170245 -135.04339083924708 156.29705587588592 0.0 0.0
0.9218258456973096 -339.6899894178538 -109.9211562278376 -151.43034629852366 0.0 0.0
-19.82011614419217 -48.45830826970963 -20.481802169600375 -180.62514911013298 0.0 0.0
10.082379680319441 6.264250922011259 4.90369333884223 -168.17303105340804 0.0 0.0
51.903424118865736 15.963094540586631 20.358841874335276 -165.1655448953485 0.0 0.0
92.67391282382802 7.542231089292222 30.098961249951323 -174.37832796303488 0.0 0.0
136.0216025056962 -0.5568594952537727 41.108387254612545 -188.8466467185663 0.0 0.0
196.04809518657055 -2.66652447534101 60.29625909988683 -198.31708311086845 0.0 0.0
288.03480400611966 -0.18269150896636788 94.94725088199594 -196.58283529315352 0.0 0.0
392.5956177310204 4.370436861873749 144.83757619493792 -184.6092342118937 0.0 0.0
475.1980076161883 10.520918863916481 197.78674591722788 -170.97214890638088 0.0 0.0
533.9480675426192 17.03481415287362 243.00614112352594 -162.82617746358153 0.0 0.0
576.9325438323829 21.12709788078373 276.88696411771195 -157.73755660847803 0.0 0.0
613.0883162732856 26.31842499803797 304.916159161289 -153.76480855086706 0.0 0.0
644.6461523411339 30.424913467890335 327.81938784976364 -150.54669535495978 0.0 0.0
673.2620540917125 32.49308019976493 346.53901815067974 -147.29672694722163 0.0 0.0
701.8826384520903 33.48738119403282 363.2433368646627 -142.92053634672146 0.0 0.0
734.0605465504358 35.27275557534088 380.9854412004497 -135.60403380834353 0.0 0.0
765.0761234589392 35.143524340610014 397.16568335363763 -125.5655592222795 0.0 0.0
782.4325794739732 18.977288840362164 398.62657209644937 -113.01755410584806 0.0 0.0
831.2092822457745 24.13630159420258 424.5377735873998 -86.95032065706306 0.0 0.0
831.2092822463319 24.136301594853336 424.5377735878484 86.95032065727781 0.0 0.0
782.4325794746495 18.977288841242682 398.626572096999 113.01755410618952 0.0 0.0
765.0761234589503 35.143524340875786 397.16568335368726 125.56555922258981 0.0 0.0
734.0605465500618 35.27275557509802 380.9854412001806 135.60403380849914 0.0 0.0
701.8826384523054 33.487381194278186 363.2433368647415 142.92053634675204 0.0 0.0
673.2620540923759 32.493080200697534 346.53901815115233 147.29672694734694 0.0 0.0
644.6461523410812 30.42491346818315 327.81938784981116 150.54669535521816 0.0 0.0
613.0883162731599 26.31842499792421 304.91615916113454 153.76480855083128 0.0 0.0
576.93254383152 21.127097879874526 276.88696411705683 157.73755660833132 0.0 0.0
533.9480675418156 17.034814151936253 243.00614112288676 162.8261774633354 0.0 0.0
475.19800761568797 10.520918863522915 197.78674591683819 170.97214890626896 0.0 0.0
392.5956177305953 4.370436861766006 144.83757619467966 184.6092342119254 0.0 0.0
288.03480400556623 -0.18269150928146516 94.94725088169871 196.58283529310387 0.0 0.0
196.04809518594632 -2.66652447598353 60.29625909950212 198.3170831106874 0.0 0.0
136.02160250540527 -0.5568594956726169 41.108387254399446 188.84664671838536 0.0 0.0
92.67391282360069 7.542231088795843 30.098961249738288 174.37832796288768 0.0 0.0
51.90342411882365 15.963094540569681 20.358841874317974 165.16554489522082 0.0 0.0
10.082379680214279 6.264250921929512 4.903693338786278 168.17303105325567 0.0 0.0
-19.820116144281737 -48.45830826979561 -20.481802169653808 180.62514911004672 0.0 0.0
0.9218258456070529 -339.68998941747014 -109.92115622769548 151.4303462984672 0.0 0.0
-7.467023882586732 -291.14710420532003 -91.17697589163382 -142.8693733829364 0.0 0.0
-37.5916517910955 -53.30694383214308 -27.26683044691618 -184.0349853409719 0.0 0.0
-21.935738183211132 5.031328717039678 -5.071170214944614 -176.13361371106117 0.0 0.0
2.734027542669593 16.64663760352273 5.813936733554317 -173.70972243013685 0.0 0.0
24.993174785547687 11.16156397123775 10.854132049580231 -182.00210997161773 0.0 0.0
43.75929668646489 3.458828342445689 14.321003422844916 -197.22113012842217 0.0 0.0
65.47669587108521 -0.056459877588130425 20.331483660771603 -211.08138235801505 0.0 0.0
98.43841117117749 0.08065152138048859 31.425525416822488 -217.17772472169182 0.0 0.0
151.00884624605095 3.1638876477736115 50.59004348377239 -210.32718178211022 0.0 0.0
216.76159749375475 4.692638626312 75.2851436765343 -198.08308006993303 0.0 0.0
277.43360179177677 7.099978804332061 103.88367207598466 -184.21958885480709 0.0 0.0
326.5956312465434 8.53737766462141 131.8072688475113 -176.14524120604474 0.0 0.0
369.53225868903127 9.443614663425237 159.0317059560474 -170.76143602129193 0.0 0.0
402.22641441696527 8.954442645535408 181.93250575025073 -165.87272941672438 0.0 0.0
427.9041746458049 6.257989583479457 200.3671020599995 -161.71529050044273 0.0 0.0
455.5404025898596 0.5056987092752365 216.8240861473311 -157.89971690147493 0.0 0.0
491.35010138175255 -5.824476687249472 234.6909480673986 -151.77765313781362 0.0 0.0
537.780757780856 -9.1726381022944 258.0195305515412 -141.1913692692543 0.0 0.0
574.3673407039236 -27.71369146988809 270.63467590483634 -125.28462407040351 0.0 0.0
599.7402125801963 -77.24602245096227 258.2853268458357 -109.25071920033284 0.0 0.0
599.7402125794289 -77.24602245174589 258.2853268453508 109.25071920061637 0.0 0.0
574.3673407033733 -27.713691470511833 270.6346759044298 125.28462407073792 0.0 0.0
537.7807577803842 -9.172638102718395 258.0195305512568 141.19136926953513 0.0 0.0
491.3501013818853 -5.824476687143175 234.69094806746455 151.77765313792685 0.0 0.0
455.54040258985486 0.5056987093510656 216.82408614732293 157.8997169015164 0.0 0.0
427.9041746454312 6.2579895829713195 200.36710205969433 161.71529050046095 0.0 0.0
402.2264144166118 8.954442644980105 181.9325057499522 165.87272941680055 0.0 0.0
369.53225868864615 9.443614662621727 159.03170595566758 170.76143602129142 0.0 0.0
326.5956312468175 8.537377665102845 131.80726884767168 176.14524120599225 0.0 0.0
277.43360179171674 7.099978804559132 103.88367207598408 184.2195888548797 0.0 0.0
216.7615974934166 4.692638625832778 75.28514367627623 198.08308006984083 0.0 0.0
151.0088462456119 3.163887647015464 50.59004348339448 210.32718178210374 0.0 0.0
98.43841117110223 0.08065152151561605 31.425525416832023 217.1777247216662 0.0 0.0
65.47669587130629 -0.05645987708163158 20.33148366098771 211.0813823578586 0.0 0.0
43.759296686205275 3.45882834191562 14.32100342260765 197.22113012818014 0.0 0.0
24.993174785503808 11.161563970976733 10.854132049489609 182.00210997136574 0.0 0.0
2.734027542683852 16.64663760347671 5.81393673354445 173.70972242988086 0.0 0.0
-21.935738183241316 5.031328717123321 -5.071170214928684 176.13361371090667 0.0 0.0
-37.59165179103634 -53.30694383198266 -27.266830446851277 184.03498534083266 0.0 0.0
-7.46702388267469 -291.14710420503735 -91.17697589156751 142.86937338278574 0.0 0.0
-18.508901698584538 -243.85703690715968 -78.70400344124413 -131.64673537836381 0.0 0.0
-52.71912995572966 -55.048732065345874 -32.328382554304504 -183.88473460768216 0.0 0.0
-52.43365186309582 3.925594946694388 -14.553191996741797 -180.18728619154956 0.0 0.0
-44.86880162384283 17.216687526485234 -8.298474292111353 -177.69794929206327 0.0 0.0
-42.05971006433088 14.471379540282832 -8.286227805631286 -184.240084474644 0.0 0.0
-49.03967414650779 7.768470143800574 -12.545466927338605 -198.18523226768514 0.0 0.0
-66.94467660731048 2.7343655760537997 -19.98105893954464 -211.21948253516643 0.0 0.0
-98.59498646348229 0.33117393829901154 -31.352516941131082 -217.28513445102337 0.0 0.0
-150.73605061508397 -3.1138356818046002 -50.48798914461427 -210.35254901172354 0.0 0.0
-216.53770365749924 -4.7340918703614925 -75.2334338843323 -198.05257302199766 0.0 0.0
-277.646147050143 -6.430843291165505 -103.52956645389014 -184.16466150952158 0.0 0.0
-327.6993667245501 -7.310468655221676 -131.82395388786531 -175.78906509145057 0.0 0.0
-372.8614295687255 -8.127127550435503 -159.963561355136 -170.21037994992372 0.0 0.0
-408.1723710521884 -11.176570238932598 -185.43418635567195 -165.62456998996296 0.0 0.0
-432.7448729659789 -18.134612252890065 -207.89604936392553 -163.24738152229335 0.0 0.0
-446.7401493165605 -28.845255865191533 -226.977816904696 -163.547582394292 0.0 0.0
-440.0688700920159 -41.81565077945416 -238.1385914066058 -165.06892133425202 0.0 0.0
-383.7433600242191 -40.653947331878925 -227.56999861029553 -166.02217246084317 0.0 0.0
-204.7369482432308 -34.22695550045549 -157.33704346621664 -168.00520664394446 0.0 0.0
16.665748633532303 -171.77082970657057 -64.40576851565139 -139.2180824968316 0.0 0.0
16.665748633478188 -171.77082970658455 -64.40576851567471 139.21808249718623 0.0 0.0
-204.73694824309212 -34.22695550009439 -157.33704346600786 168.00520664434868 0.0 0.0
-383.74336002357785 -40.653947331154825 -227.56999860978092 166.02217246120935 0.0 0.0
-440.0688700915415 -41.81565077877343 -238.1385914061786 165.06892133436736 0.0 0.0
-446.7401493167769 -28.845255865696373 -226.9778169048359 163.54758239430078 0.0 0.0
-432.7448729657314 -18.134612253023064 -207.8960493638246 163.24738152236145 0.0 0.0
-408.1723710515146 -11.176570238476842 -185.4341863552268 165.62456999001404 0.0 0.0
-372.8614295685286 -8.127127550995553 -159.96356135510575 170.2103799500774 0.0 0.0
-327.69936672449177 -7.310468656205295 -131.82395388801558 175.78906509140137 0.0 0.0
-277.64614705004294 -6.43084329199889 -103.52956645398268 184.16466150950464 0.0 0.0
-216.537703656874 -4.734091870617657 -75.23343388420174 198.0525730219798 0.0 0.0
-150.73605061441356 -3.113835681404657 -50.48798914427603 210.35254901170092 0.0 0.0
-98.59498646328117 0.3311739382320944 -31.352516941084858 217.28513445106094 0.0 0.0
-66.94467660720586 2.734365575777301 -19.981058939587875 211.21948253501637 0.0 0.0
-49.039674146566426 7.768470143537537 -12.54546692743327 198.18523226749144 0.0 0.0
-42.05971006419668 14.471379540234857 -8.286227805606476 184.24008447443563 0.0 0.0
-44.86880162370579 17.216687526579097 -8.298474292043892 177.69794929184525 0.0 0.0
-52.4336518630703 3.92559494680394 -14.553191996703397 180.18728619134123 0.0 0.0
-52.71912995569425 -55.048732065325595 -32.328382554290805 183.88473460757666 0.0 0.0
-18.508901698644515 -243.85703690695766 -78.70400344121445 131.64673537818655 0.0 0.0
-24.48609220329397 -198.79246507516424 -66.98356718353745 -118.74923799121353 0.0 0.0
-65.18468187712102 -53.81749828456911 -35.69904978519791 -179.84352728368862 0.0 0.0
-81.14662080085118 2.908951633803557 -23.473298874839966 -180.16130197976298 0.0 0.0
-90.9597167193221 17.4609515064391 -22.0469162214728 -177.2266565827207 0.0 0.0
-107.69273641241159 17.132116920295573 -27.24912052213866 -180.8748226474145 0.0 0.0
-140.25750876035085 11.22084258711103 -39.32331167096146 -191.17510402580524 0.0 0.0
-197.23940502468926 5.2730985015500185 -59.907225665861574 -199.2907610444009 0.0 0.0
-287.9758801984316 0.5142156536105436 -94.86296627425972 -196.8276437879213 0.0 0.0
-392.3292172087597 -4.379203848411244 -144.73846538362562 -184.67324851300492 0.0 0.0
-475.0305572896317 -10.417182491071664 -197.65822452046618 -170.91913341773483 0.0 0.0
-533.6324859262852 -16.464887623121328 -242.65864752569846 -162.65825482251162 0.0 0.0
-576.742624505091 -19.974753875315514 -276.3727690924263 -157.22524169956696 0.0 0.0
-613.7894804928985 -25.198780885376806 -304.75845466405525 -152.7495219701481 0.0 0.0
-647.9669979881514 -32.31418100807453 -330.16888536612 -149.79196498924196 0.0 0.0
-680.5698889405522 -42.73528871760266 -354.7212958770356 -149.1095968833366 0.0 0.0
-710.7226095865769 -57.152563126821406 -378.88463310909725 -151.36297109885527 0.0 0.0
-734.4865980808688 -73.95958278365319 -400.7818096206447 -157.11212241804068 0.0 0.0
-746.5205069100259 -89.56644562875297 -416.40486367914536 -166.19666356551886 0.0 0.0
-783.4134548417481 -144.42071986598097 -462.683752337438 -175.32283496418552 0.0 0.0
-767.5547793284269 -218.2923312249106 -491.61673182326456 -190.59493339912663 0.0 0.0
-767.5547793278204 -218.29233122430026 -491.61673182288104 190.59493339933056 0.0 0.0
-783.41345484118 -144.42071986557553 -462.6837523371224 175.3228349644237 0.0 0.0
-746.5205069090982 -89.56644562782006 -416.40486367853 166.19666356561711 0.0 0.0
-734.4865980810746 -73.95958278396381 -400.7818096207793 157.11212241805492 0.0 0.0
-710.7226095867309 -57.15256312725812 -378.8846331091812 151.36297109894022 0.0 0.0
-680.5698889397578 -42.73528871691933 -354.7212958764678 149.10959688328305 0.0 0.0
-647.9669979876735 -32.31418100740265 -330.168885365742 149.791964989034 0.0 0.0
-613.7894804933524 -25.198780886282783 -304.7584546644155 152.7495219703869 0.0 0.0
-576.7426245049877 -19.974753875698333 -276.3727690923677 157.22524169970643 0.0 0.0
-533.6324859255484 -16.46488762250155 -242.65864752509862 162.65825482238353 0.0 0.0
-475.0305572891597 -10.417182491053062 -197.65822452011054 170.9191334177268 0.0 0.0
-392.32921720825243 -4.379203848356047 -144.73846538330693 184.6732485129908 0.0 0.0
-287.9758801976312 0.5142156541023706 -94.86296627381712 196.82764378788414 0.0 0.0
-197.23940502387472 5.273098502381879 -59.90722566535686 199.29076104420346 0.0 0.0
-140.25750875990553 11.220842587735401 -39.32331167063641 191.17510402553083 0.0 0.0
-107.69273641220494 17.13211692022881 -27.24912052209814 180.8748226471826 0.0 0.0
-90.95971671927478 17.46095150630216 -22.046916221501135 177.22665658252288 0.0 0.0
-81.14662080077105 2.908951633848494 -23.473298874805455 180.16130197948286 0.0 0.0
-65.1846818770285 -53.817498284425824 -35.69904978512839 179.84352728350547 0.0 0.0
-24.486092203277153 -198.79246507493284 -66.983567183463 118.74923799101711 0.0 0.0
-26.321031618148343 -156.86786343090867 -54.95666851471709 -105.10128977004615 0.0 0.0
-75.51730253418833 -50.10806056230132 -37.68642432016928 -171.72540587275594 0.0 0.0
-108.07080338793827 2.047447253012632 -31.802560749636797 -175.93192323524892 0.0 0.0
-135.3100337660439 17.309978278873842 -35.391910138800725 -172.09929691335978 0.0 0.0
-171.67309244686354 18.512685264690976 -46.14922989628158 -172.30252985312293 0.0 0.0
-228.22596615085178 13.466259431083326 -65.64227138546673 -176.7519562408977 0.0 0.0
-317.0092104097972 8.83590660087205 -99.29941652270838 -177.31072349357655 0.0 0.0
-424.9200977968612 1.3699597875413758 -154.50915025407105 -166.76340573635144 0.0 0.0
-517.1878491080786 -8.712508514856417 -218.6884616733941 -155.70897517248682 0.0 0.0
-586.2241141159151 -19.74431040455849 -275.08353066091206 -148.7937777218568 0.0 0.0
-638.8902822281626 -27.506603052597583 -316.46641912048153 -144.79270594906257 0.0 0.0
-682.1937707864374 -35.251118110293234 -348.44494964698924 -140.59489138127216 0.0 0.0
-721.9099160878982 -43.596241828168715 -375.9416678878199 -136.5827933519284 0.0 0.0
-760.2771762899238 -53.64817829960447 -401.9818944645123 -133.61499308688607 0.0 0.0
-799.1224978442524 -67.35875096956944 -429.2270729092191 -132.84217897433396 0.0 0.0
-837.6073635349035 -85.76129351302099 -458.24617248351876 -135.50235839385812 0.0 0.0
-872.9599112464573 -107.28121763866852 -487.2566193915977 -141.98935871252257 0.0 0.0
-913.0653236643683 -141.14904102858299 -524.8056664727494 -149.31636417302266 0.0 0.0
-956.6358001850788 -191.1900241789647 -572.2552823744979 -156.39909274871653 0.0 0.0
-1034.3271067162004 -313.20098844191364 -669.9239167392477 -167.52170105992877 0.0 0.0
-1034.3271067159735 -313.20098844189295 -669.9239167391811 167.52170106020122 0.0 0.0
-956.635800184334 -191.19002417838234 -572.2552823740195 156.399092748968 0.0 0.0
-913.0653236636126 -141.1490410279544 -524.8056664722915 149.31636417321184 0.0 0.0
-872.9599112460802 -107.28121763845067 -487.2566193913426 141.98935871260977 0.0 0.0
-837.6073635344509 -85.7612935126547 -458.24617248322784 135.50235839381583 0.0 0.0
-799.1224978439698 -67.35875096943712 -429.2270729090371 132.84217897442423 0.0 0.0
-760.2771762892366 -53.64817829911348 -401.98189446404035 133.61499308698865 0.0 0.0
-721.9099160872975 -43.59624182768148 -375.9416678874067 136.58279335183926 0.0 0.0
-682.1937707869281 -35.25111811105996 -348.4449496473067 140.59489138132162 0.0 0.0
-638.8902822280778 -27.506603052819425 -316.4664191203912 144.79270594902417 0.0 0.0
-586.2241141163001 -19.744310405376375 -275.0835306610972 148.79377772187627 0.0 0.0
-517.1878491081584 -8.712508515583004 -218.6884616734415 155.70897517267252 0.0 0.0
-424.9200977962006 1.369959787647287 -154.5091502536858 166.76340573647326 0.0 0.0
-317.00921040938545 8.83590660058255 -99.29941652261556 177.31072349353056 0.0 0.0
-228.22596615052237 13.466259431081664 -65.6422713853643 176.7519562407197 0.0 0.0
-171.67309244636047 18.51268526520499 -46.14922989598023 172.30252985298145 0.0 0.0
-135.31003376591582 17.309978278834436 -35.39191013877833 172.0992969132517 0.0 0.0
-108.07080338793907 2.0474472528115553 -31.802560749698603 175.9319232351439 0.0 0.0
-75.51730253412467 -50.10806056231135 -37.686424320153534 171.7254058726445 0.0 0.0
-26.321031618127392 -156.86786343076014 -54.95666851466625 105.10128976993941 0.0 0.0
-27.09993402184221 -118.81755137888348 -43.77524562021769 -91.14723648751843 0.0 0.0
-84.4411191431486 -44.334658362460196 -38.63273325168264 -159.57735228505203 0.0 0.0
-133.2373845841096 1.4104826325614406 -39.54527865302773 -167.38009469037087 0.0 0.0
-177.8854083060441 16.353002760325026 -48.4664167288378 -162.49530968134206 0.0 0.0
-232.91342351837184 18.556629593407735 -64.60977421603395 -158.4275657213217 0.0 0.0
-310.56516450537 16.206615225683578 -91.25764794294588 -157.0055290900322 0.0 0.0
-414.92444274394876 10.968398404286248 -139.18473955353534 -148.8844304649192 0.0 0.0
-514.9279446164566 -0.9927294215463363 -207.63462889566176 -137.7030974846366 0.0 0.0
-594.82550872616 -14.63550460213306 -274.1081163252733 -132.49808407975556 0.0 0.0
-657.429657255196 -27.629704425313165 -325.8710571831354 -130.06745948772846 0.0 0.0
-708.5968793650229 -38.543652415833826 -364.0723148926811 -127.57138449845961 0.0 0.0
-755.2992448078892 -50.10190573473298 -396.62979042471477 -124.13682386613576 0.0 0.0
-798.8835874434592 -61.80398299328739 -425.939146179155 -120.35339370681007 0.0 0.0
-841.3757914193635 -75.09019688684212 -454.6869851450866 -117.2320682788451 0.0 0.0
-884.5281948817303 -91.53572511859129 -484.9029706684658 -116.21983745004106 0.0 0.0
-930.0661793216987 -114.22801923839928 -519.2438376104137 -118.82591393517183 0.0 0.0
-979.2065939416868 -145.90273597766588 -559.8622270860607 -124.66137973903916 0.0 0.0
-1033.3409988000635 -189.56455316301182 -609.1179848041395 -131.00619367850885 0.0 0.0
-1100.2163590840037 -257.5507985985146 -676.5647790200645 -134.98405231752915 0.0 0.0
-1188.0451938042575 -379.40181526134506 -780.4083796895785 -142.8407549726884 0.0 0.0
-1188.0451938049102 -379.40181526214485 -780.4083796900618 142.84075497290684 0.0 0.0
-1100.2163590851092 -257.5507985998405 -676.5647790208242 134.98405231790693 0.0 0.0
-1033.340998800313 -189.56455316354393 -609.1179848042793 131.00619367884485 0.0 0.0
-979.2065939416424 -145.90273597772182 -559.8622270859271 124.6613797390488 0.0 0.0
-930.0661793214239 -114.22801923825887 -519.2438376101281 118.82591393519478 0.0 0.0
-884.5281948810007 -91.53572511794653 -484.9029706679405 116.21983744998934 0.0 0.0
-841.3757914190747 -75.09019688665006 -454.6869851448658 117.2320682787894 0.0 0.0
-798.8835874432782 -61.803982993247416 -425.9391461789975 120.3533937067713 0.0 0.0
-755.2992448076695 -50.1019057348105 -396.62979042453105 124.13682386625625 0.0 0.0
-708.5968793643952 -38.543652415402875 -364.0723148922212 127.57138449838638 0.0 0.0
-657.4296572542607 -27.629704424608818 -325.8710571824781 130.0674594876935 0.0 0.0
-594.8255087256848 -14.635504602014283 -274.10811632487474 132.49808407977343 0.0 0.0
-514.9279446161987 -0.992729421791585 -207.63462889541074 137.7030974847079 0.0 0.0
-414.92444274342336 10.96839840430879 -139.1847395532505 148.88443046494785 0.0 0.0
-310.56516450480643 16.20661522585408 -91.25764794271547 157.00552908989405 0.0 0.0
-232.91342351817858 18.556629593215717 -64.60977421603513 158.42756572118222 0.0 0.0
-177.88540830592456 16.353002760208565 -48.46641672884087 162.49530968123875 0.0 0.0
-133.23738458403236 1.4104826324687494 -39.54527865303312 167.38009469023996 0.0 0.0
-84.4411191430664 -44.334658362467664 -38.63273325166021 159.57735228503498 0.0 0.0
-27.099934021804913 -118.81755137870393 -43.775245620152646 91.14723648750348 0.0 0.0
-27.757219465186445 -85.1521689880796 -33.87281653597981 -76.89376373717488 0.0 0.0
-92.63122362957111 -37.13235016664522 -38.929072138864896 -143.80319624416626 0.0 0.0
-156.86715581361437 1.0867316499538289 -46.73289499308351 -154.53233194176354 0.0 0.0
-218.90609501920136 14.559053912064153 -61.280991812547484 -148.42239024250256 0.0 0.0
-291.2859308752651 18.369841217489114 -82.27352476997449 -140.72496148260646 0.0 0.0
-385.1210779928456 18.282006295346015 -117.55837287026931 -132.1123615119897 0.0 0.0
-489.2285582423767 10.087416216968208 -178.67531765694454 -119.55221627894464 0.0 0.0
-578.4888840149124 -4.374613378322579 -252.16065302909544 -112.89761262642888 0.0 0.0
-650.1786197777859 -19.861397407857602 -314.5758061438796 -112.15627738091678 0.0 0.0
-710.0648862722579 -34.46406157187427 -361.6782316173782 -111.85738320321593 0.0 0.0
-763.8024592657318 -49.22356153759023 -400.23106497459867 -110.20228109885788 0.0 0.0
-814.0757658648738 -64.59032537815293 -434.9521528633253 -107.22710664800037 0.0 0.0
-861.8158585691272 -80.27474163243477 -467.6139595630947 -103.79508104361598 0.0 0.0
-908.1273994034214 -96.5201525014007 -499.42306439925045 -100.75308462542421 0.0 0.0
-955.5669347207402 -115.74220572104278 -532.9974598537265 -99.3847472346655 0.0 0.0
-1007.9904901510697 -143.62736025866093 -573.1931323842239 -101.16789592930812 0.0 0.0
-1069.2042383490239 -184.51141837906567 -624.3034482013529 -106.2282650723643 0.0 0.0
-1139.6732113807966 -241.98136509849434 -688.3936917933718 -111.50139521349443 0.0 0.0
-1220.141746716954 -322.38646211893416 -768.8247006990559 -114.75664438658644 0.0 0.0
-1302.1038796835846 -436.1148113504803 -866.3086727899914 -124.63943402246221 0.0 0.0
-1302.1038796841717 -436.1148113511477 -866.3086727904608 124.63943402265443 0.0 0.0
-1220.1417467168353 -322.38646211903597 -768.8247006990583 114.75664438693565 0.0 0.0
-1139.6732113799317 -241.98136509772024 -688.393691792782 111.50139521364005 0.0 0.0
-1069.2042383483713 -184.5114183784982 -624.3034482009606 106.22826507237856 0.0 0.0
-1007.9904901506947 -143.6273602584049 -573.1931323840706 101.16789592934367 0.0 0.0
-955.5669347216481 -115.74220572217337 -532.9974598543805 99.38474723483759 0.0 0.0
-908.1273994030037 -96.52015250119078 -499.4230643990157 100.75308462553963 0.0 0.0
-861.8158585682621 -80.27474163171644 -467.613959562476 103.79508104359742 0.0 0.0
-814.0757658649579 -64.59032537847503 -434.95215286337896 107.2271066480537 0.0 0.0
-763.8024592658605 -49.22356153800805 -400.2310649747318 110.2022810988997 0.0 0.0
-710.0648862720204 -34.46406157193885 -361.678231617223 111.85738320321607 0.0 0.0
-650.1786197775394 -19.86139740779853 -314.5758061436524 112.15627738074853 0.0 0.0
-578.488884014105 -4.374613377742584 -252.1606530284646 112.89761262631797 0.0 0.0
-489.22855824182875 10.087416217131809 -178.67531765651114 119.5522162789288 0.0 0.0
-385.1210779927111 18.2820062947336 -117.55837287033609 132.11236151201325 0.0 0.0
-291.28593087502895 18.369841217430327 -82.27352476992624 140.7249614824685 0.0 0.0
-218.90609501892712 14.55905391219482 -61.28099181242852 148.42239024241243 0.0 0.0
-156.86715581350586 1.0867316499365027 -46.73289499305673 154.5323319416164 0.0 0.0
-92.63122362941071 -37.132350166509376 -38.92907213877602 143.80319624396344 0.0 0.0
-27.757219465128934 -85.15216898799166 -33.872816535936174 76.89376373701049 0.0 0.0
-28.469662675049427 -56.32704408612601 -25.43901202835263 -62.227785797544726 0.0 0.0
-100.26699009862115 -29.066861546548438 -38.800155493550875 -124.81873502089334 0.0 0.0
-179.20733743690573 0.9698226618912775 -53.46906732668384 -137.49253054732938 0.0 0.0
-257.73751845106676 11.811046158099439 -73.7756182389529 -129.975392442656 0.0 0.0
-345.0457412101103 18.677687158014063 -99.25977841012562 -119.14440901889238 0.0 0.0
-449.0173282553444 18.29026770479628 -145.18182282420008 -104.73035078702962 0.0 0.0
-545.8596302687149 8.061628043426893 -215.40677621691856 -92.99023933955816 0.0 0.0
-625.0673302488722 -8.017652225918297 -287.7718863382423 -91.02638952252843 0.0 0.0
-692.2302433344041 -23.73997112556681 -344.11420253637203 -92.6864991676985 0.0 0.0
-753.2123337942058 -41.05117487319374 -389.8042315512918 -93.35213015494844 0.0 0.0
-810.2499386968277 -59.61712004580248 -430.22934652915546 -92.23229659244079 0.0 0.0
-864.3728646624193 -78.93909046164853 -468.1041333466525 -89.75502427309587 0.0 0.0
-916.5190381007781 -98.63778951968536 -504.6635680743758 -86.90750691358721 0.0 0.0
-966.770398508729 -118.57640114842201 -540.15408563809 -84.09731411399201 0.0 0.0
-1017.9330511445718 -140.64213853626123 -576.9434907565552 -82.21841690841973 0.0 0.0
-1076.857946744919 -172.75424438694597 -622.4168034308943 -82.84186707314791 0.0 0.0
-1148.7643060420514 -222.98184439549667 -683.3941670654856 -86.62078093718839 0.0 0.0
-1233.757696984457 -293.93188293645767 -761.3744544998383 -91.63380910161642 0.0 0.0
-1322.653060830632 -382.7139170252648 -850.2664725120027 -96.71561212935056 0.0 0.0
-1401.0399450619432 -491.44087661627964 -943.8228584570169 -110.80266149957485 0.0 0.0
-1401.0399450614736 -491.4408766159058 -943.8228584567363 110.80266149973939 0.0 0.0
-1322.6530608306375 -382.71391702535027 -850.2664725119885 96.7156121295239 0.0 0.0
-1233.7576969853487 -293.9318829374663 -761.3744545004213 91.63380910177123 0.0 0.0
-1148.764306042483 -222.9818443960521 -683.3941670656611 86.62078093728306 0.0 0.0
-1076.8579467440018 -172.75424438608513 -622.4168034301263 82.84186707303235 0.0 0.0
-1017.9330511425967 -140.64213853436215 -576.9434907551585 82.21841690837083 0.0 0.0
-966.7703985078258 -118.57640114765253 -540.1540856374683 84.09731411397351 0.0 0.0
-916.5190381000368 -98.63778951906846 -504.6635680738855 86.90750691348758 0.0 0.0
-864.3728646620779 -78.93909046149211 -468.104133346417 89.75502427308155 0.0 0.0
-810.2499386962912 -59.6171200455071 -430.2293465287882 92.23229659245354 0.0 0.0
-753.2123337939731 -41.051174873273425 -389.8042315511194 93.35213015500548 0.0 0.0
-692.2302433343859 -23.739971125862446 -344.11420253626386 92.68649916772821 0.0 0.0
-625.0673302481559 -8.017652225485545 -287.77188633768003 91.02638952249961 0.0 0.0
-545.859630268189 8.061628043609298 -215.40677621646483 92.99023933951162 0.0 0.0
-449.0173282547666 18.290267704977317 -145.1818228238555 104.7303507869943 0.0 0.0
-345.0457412096628 18.67768715809055 -99.25977840998002 119.14440901883387 0.0 0.0
-257.7375184508167 11.811046158054577 -73.7756182388979 129.9753924425159 0.0 0.0
-179.20733743680623 0.9698226618564836 -53.46906732666528 137.49253054723061 0.0 0.0
-100.26699009846155 -29.06686154642514 -38.80015549346601 124.81873502079512 0.0 0.0
-28.469662674962418 -56.32704408603688 -25.439012028299786 62.22778579756607 0.0 0.0
-28.996775410464615 -32.765580079909085 -18.52870664711211 -47.08200962997374 0.0 0.0
-107.0643405653288 -20.654166977152467 -38.31555226274437 -102.9771007089709 0.0 0.0
-200.37783194294343 0.9075821984783241 -59.841074923339534 -116.24554783923965 0.0 0.0
-295.1466490728822 8.592392414497237 -85.99386820127953 -107.86051613511594 0.0 0.0
-397.26555165241143 18.94663614718988 -116.72666847901394 -94.22553335700051 0.0 0.0
-500.605157313035 17.21194674773104 -172.95962432134093 -77.31588474652344 0.0 0.0
-586.4048714799718 4.401259665209032 -247.93466466061017 -69.49678266615457 0.0 0.0
-660.1167613479299 -9.954314275313017 -314.31284976937206 -70.78393393152007 0.0 0.0
-726.9440994235366 -27.228669359432644 -367.3062506290794 -73.15788413947031 0.0 0.0
-789.9738233898588 -47.60488788866252 -413.29190226140946 -74.27551226445509 0.0 0.0
-850.272753368168 -69.6731821210883 -456.14981319849596 -73.60772463816625 0.0 0.0
-908.6215475537056 -93.01827888524915 -497.7733984808762 -71.71160752910589 0.0 0.0
-965.1134824099167 -116.93781986525272 -538.4366091188442 -69.47117104336948 0.0 0.0
-1020.5911186668762 -141.391979974806 -578.717545048453 -67.21863122344182 0.0 0.0
-1076.0317306004583 -167.0817570424473 -619.4492426896795 -64.98446416016559 0.0 0.0
-1137.8623159140705 -201.62842190778161 -667.5634485922951 -63.9230452050198 0.0 0.0
-1218.402562665162 -258.8212264705152 -736.2049106584952 -66.19266702253407 0.0 0.0
-1316.094244712719 -341.43607197110896 -826.2969854839196 -71.7567613716938 0.0 0.0
-1415.2284310842954 -440.35577624713585 -925.4256691521789 -80.2395558337855 0.0 0.0
-1494.8268331206273 -549.2803877919231 -1019.9043700076445 -99.37208384496745 0.0 0.0
-1494.8268331203817 -549.2803877917348 -1019.904370007468 99.37208384510721 0.0 0.0
-1415.228431083536 -440.3557762464293 -925.4256691516077 80.23955583386736 0.0 0.0
-1316.094244711153 -341.4360719695855 -826.2969854828293 71.75676137171511 0.0 0.0
-1218.4025626645557 -258.82122646998835 -736.2049106580832 66.19266702254919 0.0 0.0
-1137.8623159141741 -201.6284219080003 -667.5634485923549 63.92304520507214 0.0 0.0
-1076.0317306005986 -167.08175704274635 -619.4492426897656 64.98446416027417 0.0 0.0
-1020.5911186668162 -141.39197997492477 -578.7175450482475 67.21863122350983 0.0 0.0
-965.1134824104207 -116.9378198659451 -538.4366091190441 69.47117104339436 0.0 0.0
-908.6215475533396 -93.01827888511802 -497.77339848056164 71.71160752918193 0.0 0.0
-850.2727533678303 -69.67318212098971 -456.1498131982463 73.60772463817953 0.0 0.0
-789.9738233897529 -47.60488788882489 -413.29190226132334 74.27551226445357 0.0 0.0
-726.9440994233332 -27.228669359515123 -367.3062506289583 73.15788413948196 0.0 0.0
-660.1167613476014 -9.954314275294013 -314.3128497690635 70.78393393148264 0.0 0.0
-586.404871479816 4.401259664965401 -247.93466466038626 69.49678266617326 0.0 0.0
-500.6051573126508 17.21194674773549 -172.95962432104923 77.31588474645599 0.0 0.0
-397.265551652407 18.94663614652792 -116.72666847917498 94.22553335694913 0.0 0.0
-295.1466490727332 8.592392414164268 -85.99386820134188 107.8605161350302 0.0 0.0
-200.3778319427251 0.9075821985962853 -59.84107492323865 116.24554783928022 0.0 0.0
-107.06434056521056 -20.6541669771079 -38.31555226269553 102.97710070899225 0.0 0.0
-28.996775410421847 -32.76558007985911 -18.528706647084284 47.08200962999723 0.0 0.0
-28.69818447869308 -14.873656269285355 -13.071552224393528 -31.58586692052319 0.0 0.0
-112.13305460242657 -12.316300453067793 -37.33480651664831 -78.46899001166273 0.0 0.0
-220.6407012610861 0.4972454484660034 -66.04303674378602 -90.71024600172139 0.0 0.0
-332.0618453347033 6.410413630132014 -97.72485040741824 -82.32883149521012 0.0 0.0
-444.5831641624871 18.900172478343748 -135.11928705166787 -66.7243811835118 0.0 0.0
-541.4092571286478 13.882999328738595 -201.14459103538513 -52.18971305274128 0.0 0.0
-618.931757952593 1.7488132984843432 -275.1118878765206 -48.669245120026666 0.0 0.0
-688.6798306080966 -11.396064155369707 -334.96852266352744 -50.71780802156742 0.0 0.0
-756.08668119648 -30.788149764701572 -386.2265040856615 -53.28199301106698 0.0 0.0
-821.5515356674408 -53.950762213646925 -433.3718378226239 -54.59230730979523 0.0 0.0
-885.4684839514669 -79.51189876810125 -479.22078646531077 -54.32557061216542 0.0 0.0
-947.8172161274207 -106.75598508788852 -524.5833006146172 -53.01110121857311 0.0 0.0
-1009.3006700974436 -134.9864149137884 -569.7938420829697 -51.47727905964782 0.0 0.0
-1070.0716569289855 -164.7105786837677 -615.2798557370575 -49.81941119460721 0.0 0.0
-1131.1280781115852 -195.89938543007764 -661.5544204472151 -47.71095946235127 0.0 0.0
-1195.69719274269 -232.33556470381518 -712.054174007655 -45.280087185340705 0.0 0.0
-1274.9243489517057 -287.35086645008664 -778.8822736342245 -45.298185409495034 0.0 0.0
-1385.4420534858746 -381.64849485228405 -881.0520517131828 -51.2819135367054 0.0 0.0
-1500.8678509070896 -495.80312823927454 -996.0129349282761 -64.15223103996905 0.0 0.0
-1591.8815565468524 -614.2007983210428 -1101.0896880078465 -89.07770009155462 0.0 0.0
-1591.8815565464956 -614.2007983207418 -1101.089688007507 89.07770009167905 0.0 0.0
-1500.8678509068418 -495.8031282390897 -996.0129349279747 64.15223104009533 0.0 0.0
-1385.4420534854703 -381.64849485195936 -881.0520517128053 51.281913536796274 0.0 0.0
-1274.9243489509217 -287.35086644937184 -778.882273633548 45.29818540942837 0.0 0.0
-1195.6971927422142 -232.33556470343905 -712.0541740071709 45.28008718533626 0.0 0.0
-1131.1280781119324 -195.89938543056604 -661.55442044743 47.71095946237256 0.0 0.0
-1070.0716569285885 -164.71057868350562 -615.2798557368296 49.8194111945688 0.0 0.0
-1009.3006700968954 -134.98641491341502 -569.7938420825866 51.47727905967274 0.0 0.0
-947.8172161272591 -106.75598508796824 -524.5833006144715 53.01110121866414 0.0 0.0
-885.4684839515667 -79.51189876842629 -479.22078646534493 54.32557061209519 0.0 0.0
-821.5515356672126 -53.95076221362652 -433.3718378224549 54.59230730965727 0.0 0.0
-756.0866811966217 -30.78814976514529 -386.2265040856968 53.28199301109423 0.0 0.0
-688.6798306083913 -11.396064156003398 -334.9685226636531 50.71780802157437 0.0 0.0
-618.9317579521065 1.7488132986458425 -275.11188787609694 48.6692451200564 0.0 0.0
-541.4092571281905 13.882999328861189 -201.14459103501557 52.18971305277481 0.0 0.0
-444.58316416226427 18.90017247810751 -135.11928705160602 66.72438118347506 0.0 0.0
-332.06184533453086 6.410413629760943 -97.72485040748509 82.32883149513 0.0 0.0
-220.6407012608655 0.49724544854833175 -66.04303674369514 90.71024600170857 0.0 0.0
-112.13305460228833 -12.316300453008544 -37.33480651658906 78.46899001164138 0.0 0.0
-28.698184478657783 -14.873656269281286 -13.071552224381719 31.585866920506106 0.0 0.0
-26.307791682816507 -2.983330139709577 -8.787336546757825 -16.254173872392712 0.0 0.0
-113.80403302033906 -4.609787509180153 -35.52414615885576 -51.262796958055745 0.0 0.0
-240.23183926883274 -0.33870615387396796 -72.171163626812 -60.371267620096255 0.0 0.0
-370.4282626168317 5.56384711858769 -109.52371098670946 -53.502182603706544 0.0 0.0
-484.5600438440134 18.860136636659114 -154.37197323344904 -39.27599656022642 0.0 0.0
-570.7110716270552 8.769253472507053 -228.05213682260683 -29.5139104259782 0.0 0.0
-644.0726859825907 0.8966562572287486 -295.86386335227945 -28.978147807741173 0.0 0.0
-712.4568558277346 -13.450569217681121 -351.8371716166849 -30.80476951669901 0.0 0.0
-780.472319274444 -34.20653338541102 -401.79169543794234 -32.97722425606791 0.0 0.0
-848.6287838013906 -60.05864219465846 -450.6926258396985 -34.25008281324595 0.0 0.0
-916.3343083901461 -89.16757861818463 -499.87650822098186 -34.350048899588565 0.0 0.0
-983.2050070274134 -120.09983616380997 -549.2095138290922 -33.68413518061526 0.0 0.0
-1049.3247068999299 -153.0610263973118 -599.0268852792346 -32.76160361218899 0.0 0.0
-1115.9945545982614 -188.0298353407946 -650.024786758212 -31.766092397294777 0.0 0.0
-1183.9667921128048 -225.83136749044786 -703.0293531274525 -30.28384484427665 0.0 0.0
-1253.1099330483787 -267.0156981934528 -758.2532111441337 -27.652988797905113 0.0 0.0
-1326.6266010676386 -316.1600909354228 -819.4296765731763 -25.16940537287506 0.0 0.0
-1423.0719505186644 -394.9832551403731 -906.5860615217011 -29.193693162584385 0.0 0.0
-1584.3467989607138 -552.2385423506536 -1065.858484945818 -46.348770901428765 0.0 0.0
-1702.246541723115 -694.3800247199418 -1196.5422761473333 -78.95718543830316 0.0 0.0
-1702.2465417234089 -694.3800247202278 -1196.5422761475952 78.95718543824779 0.0 0.0
-1584.3467989610235 -552.2385423510062 -1065.8584849460917 46.348770901445576 0.0 0.0
-1423.0719505188843 -394.9832551406589 -906.586061521789 29.193693162617716 0.0 0.0
-1326.6266010670163 -316.1600909348924 -819.4296765726134 25.169405372870806 0.0 0.0
-1253.1099330474824 -267.0156981926504 -758.253211143445 27.65298879783309 0.0 0.0
-1183.9667921119353 -225.83136748971512 -703.0293531267815 30.283844844325685 0.0 0.0
-1115.9945545981343 -188.02983534082574 -650.0247867580173 31.766092397319152 0.0 0.0
-1049.3247068996448 -153.06102639720592 -599.0268852789959 32.76160361221602 0.0 0.0
-983.2050070272722 -120.09983616387991 -549.2095138289773 33.68413518062407 0.0 0.0
-916.3343083891843 -89.1675786174532 -499.87650822030184 34.35004889958906 0.0 0.0
-848.6287838012112 -60.05864219472463 -450.69262583953633 34.25008281323041 0.0 0.0
-780.4723192744035 -34.20653338566211 -401.7916954378946 32.97722425614268 0.0 0.0
-712.4568558268085 -13.45056921699878 -351.83717161602084 30.80476951659803 0.0 0.0
-644.0726859815594 0.8966562580070452 -295.8638633515109 28.97814780764846 0.0 0.0
-570.7110716269412 8.76925347225096 -228.05213682242382 29.513910426102626 0.0 0.0
-484.5600438435822 18.860136636752838 -154.37197323320538 39.275996560323236 0.0 0.0
-370.4282626162528 5.563847119032738 -109.52371098641856 53.50218260367774 0.0 0.0
-240.23183926855174 -0.3387061536559237 -72.17116362666229 60.37126762003648 0.0 0.0
-113.80403302023444 -4.6097875092634215 -35.524146158849355 51.26279695801731 0.0 0.0
-26.30779168275326 -2.983330139626043 -8.787336546713789 16.25417387241193 0.0 0.0
-19.39591981976847 2.6912347776430194 -5.0114055126376345 -2.321761989483904 0.0 0.0
-109.19674863472841 1.7259814553630015 -32.241230153809624 -20.857851739608524 0.0 0.0
-259.95241784174004 -1.7983111492201154 -78.52521869728804 -24.118136804439896 0.0 0.0
-410.24114914247605 7.2745570953139636 -121.79778241018882 -21.724655162486975 0.0 0.0
-519.2093649425798 16.47449763067713 -175.8171987070363 -13.529793005203505 0.0 0.0
-596.9403392777864 5.940873432910742 -251.51765079709884 -9.613639463177307 0.0 0.0
-664.4796896274246 -0.47253896353849 -312.7425843015673 -9.739530939515674 0.0 0.0
-732.0112566412171 -15.556981606541058 -365.40442292320813 -10.865863442704102 0.0 0.0
-801.0390475545432 -37.73824438942928 -414.97035957328626 -12.260229345114787 0.0 0.0
-871.8749818353995 -65.9804935509781 -465.80392173443204 -13.245266385767847 0.0 0.0
-943.4300384473347 -98.26068185650306 -518.2683617139528 -13.677481631465739 0.0 0.0
-1014.7205003361362 -133.69804222651277 -571.9688458478299 -13.615842385594302 0.0 0.0
-1085.9854562195574 -170.9172015745716 -626.4355438940983 -13.391423232872384 0.0 0.0
-1158.4379016874732 -210.95682760274923 -682.81890944825 -13.034962730796586 0.0 0.0
-1233.21487356824 -255.32994617524434 -742.4762227161658 -12.302017073038204 0.0 0.0
-1309.5058083727763 -303.9096880219861 -804.9624758395895 -10.770455924442002 0.0 0.0
-1383.615936142242 -354.2257334428235 -867.1667905638285 -8.053006617976603 0.0 0.0
-1456.1358192536306 -408.74568116148555 -930.4383788855855 -7.17575203036352 0.0 0.0
-1561.7928719091365 -506.3098679379498 -1031.4301762633372 -22.044011055855393 0.0 0.0
-1899.410349659678 -860.4223353575827 -1378.1398206895324 -64.21406607507674 0.0 0.0
-1899.4103496601424 -860.4223353580671 -1378.1398206897925 64.21406607512007 0.0 0.0
-1561.792871909316 -506.30986793818477 -1031.4301762633813 22.044011055989433 0.0 0.0
-1456.1358192522584 -408.7456811601754 -930.4383788845612 7.175752030407723 0.0 0.0
-1383.61593614222 -354.2257334428984 -867.1667905638014 8.053006618026558 0.0 0.0
-1309.5058083729214 -303.90968802224467 -804.9624758396866 10.770455924482437 0.0 0.0
-1233.214873567632 -255.32994617477348 -742.4762227156878 12.302017073094984 0.0 0.0
-1158.4379016871821 -210.95682760261403 -682.8189094479458 13.03496273078571 0.0 0.0
-1085.9854562187263 -170.9172015739264 -626.4355438934335 13.39142323294702 0.0 0.0
-1014.7205003354926 -133.6980422260736 -571.9688458472837 13.615842385484015 0.0 0.0
-943.4300384473104 -98.26068185671261 -518.2683617138755 13.677481631492347 0.0 0.0
-871.8749818349959 -65.98049355082415 -465.8039217341252 13.245266385700887 0.0 0.0
-801.0390475545324 -37.73824438969637 -414.97035957322606 12.260229345142973 0.0 0.0
-732.011256641265 -15.556981606873904 -365.40442292322257 10.865863442744796 0.0 0.0
-664.4796896271703 -0.4725389636094022 -312.7425843013407 9.739530939451603 0.0 0.0
-596.9403392781426 5.9408734321931895 -251.51765079719576 9.613639463116318 0.0 0.0
-519.2093649424764 16.474497630427578 -175.81719870692902 13.529793005235806 0.0 0.0
-410.24114914215966 7.274557095238877 -121.79778241012396 21.724655162464764 0.0 0.0
-259.95241784143 -1.798311149038435 -78.52521869714052 24.118136804435625 0.0 0.0
-109.19674863453567 1.7259814554151074 -32.24123015373617 20.857851739685383 0.0 0.0
-19.395919819754393 2.6912347776269394 -5.011405512638236 2.3217619895906565 0.0 0.0
SCALARS Strain float 6
LOOKUP_TABLE default
0.01039918571986424 -0.011470263725236185 0.0 -0.006284195926809816 0.0 0.0
0.002168876364635563 -0.0012292596788201493 0.0 0.001057589946066556 0.0 0.0
0.0017608183113868425 -0.0007210193538041976 0.0 -5.4457098189020225e-05 0.0 0.0
0.0021562815239392664 -0.0009979113348963509 0.0 -0.00019073295849397764 0.0 0.0
0.0031364498650232973 -0.0017486380438767046 0.0 -0.00023103137979288424 0.0 0.0
0.0051389904663689395 -0.003460137437987898 0.0 -0.00033355144098351497 0.0 0.0
0.008298510451017965 -0.006346252525048612 0.0 -0.0005122102367858816 0.0 0.0
0.012783525372479466 -0.010558282465493951 0.0 -0.0007777546927914547 0.0 0.0
0.018677591665609145 -0.016170278076533595 0.0 -0.0011393523011773155 0.0 0.0
0.025987755349940165 -0.02318124031744917 0.0 -0.0015678442353414812 0.0 0.0
0.03471075955062612 -0.03159151479673006 0.0 -0.002010287916993536 0.0 0.0
0.04487195364797526 -0.04143018015925115 0.0 -0.0024584979318511557 0.0 0.0
0.05650672819766152 -0.05273723831834509 0.0 -0.0029199529840666927 0.0 0.0
0.06962083295622237 -0.06551474879434105 0.0 -0.0033958414533552528 0.0 0.0
0.08406655693437537 -0.07960963988961689 0.0 -0.0038835469398997013 0.0 0.0
0.0993855861345047 -0.09456520398033064 0.0 -0.0042967869516939705 0.0 0.0
0.11473380657266838 -0.10954840020858159 0.0 -0.004446022272145689 0.0 0.0
0.1289161389465675 -0.12338095260684678 0.0 -0.004092621119379858 0.0 0.0
0.14049447934922832 -0.13464117135534304 0.0 -0.0032984869119793148 0.0 0.0
0.1476264594780314 -0.1413777944188097 0.0 -0.0031434156880149056 0.0 0.0
0.14762645947802283 -0.1413777944188035 0.0 0.0031434156880200126 0.0 0.0
0.14049447934920112 -0.13464117135531684 0.0 0.00329848691199619 0.0 0.0
0.1289161389465225 -0.12338095260680415 0.0 0.004092621119388018 0.0 0.0
0.11473380657261123 -0.10954840020852918 0.0 0.004446022272149519 0.0 0.0
0.09938558613444379 -0.09456520398027868 0.0 0.004296786951684672 0.0 0.0
0.08406655693431242 -0.07960963988955871 0.0 0.003883546939902671 0.0 0.0
0.06962083295615754 -0.06551474879427621 0.0 0.0033958414533536985 0.0 0.0
0.05650672819759703 -0.05273723831828203 0.0 0.002919952984067664 0.0 0.0
0.04487195364791349 -0.04143018015919231 0.0 0.0024584979318449385 0.0 0.0
0.03471075955057029 -0.03159151479667899 0.0 0.0020102879169922594 0.0 0.0
0.025987755349894587 -0.023181240317405427 0.0 0.0015678442353359023 0.0 0.0
0.018677591665573673 -0.016170278076498068 0.0 0.0011393523011756224 0.0 0.0
0.01278352537245167 -0.010558282465467084 0.0 0.0007777546927900114 0.0 0.0
0.008298510450999663 -0.006346252525030405 0.0 0.000512210236785382 0.0 0.0
0.005138990466357185 -0.003460137437977129 0.0 0.00033355144098234923 0.0 0.0
0.0031364498650183203 -0.001748638043873596 0.0 0.00023103137979194055 0.0 0.0
0.0021562815239380695 -0.0009979113348951296 0.0 0.00019073295849442173 0.0 0.0
0.0017608183113862752 -0.0007210193538029763 0.0 5.445709818985289e-05 0.0 0.0
0.002168876364633976 -0.0012292596788180121 0.0 -0.0010575899460642801 0.0 0.0
0.010399185719853904 -0.011470263725222762 0.0 0.006284195926781422 0.0 0.0
0.007284407223266485 -0.008726733936948644 0.0 -0.007493999603378765 0.0 0.0
0.0011979815494343946 -0.0006246072464889951 0.0 0.0001521579942726503 0.0 0.0
0.0015114654187793897 -0.0005516364213500324 0.0 -0.00013342263225302187 0.0 0.0
0.0019107389240853971 -0.0008505463512649136 0.0 -0.00044076402454759633 0.0 0.0
0.0026910970994670942 -0.0014059344446184507 0.0 -0.0005335105808070562 0.0 0.0
0.004403364640372137 -0.002820127864719968 0.0 -0.0007872968884272136 0.0 0.0
0.007228057381706694 -0.005353521346619594 0.0 -0.0012484419446039952 0.0 0.0
0.011286041025876287 -0.009131148820114676 0.0 -0.0018945476358236124 0.0 0.0
0.01662612399938903 -0.014193431276358748 0.0 -0.002726169716068677 0.0 0.0
0.023220491917699163 -0.02050243086169501 0.0 -0.003678205602871354 0.0 0.0
0.031038815890105476 -0.028028941605805713 0.0 -0.004653044455702832 0.0 0.0
0.04010516643799502 -0.03680012071688399 0.0 -0.005601403362790358 0.0 0.0
0.050494929394204725 -0.04688951253502349 0.0 -0.006594254629489843 0.0 0.0
0.06224368536677167 -0.05832941558806848 0.0 -0.007665768703396025 0.0 0.0
0.07523089075106422 -0.07099644559872109 0.0 -0.008756974599699097 0.0 0.0
0.08906551258536236 -0.08450083639128225 0.0 -0.00968909396446338 0.0 0.0
0.10301108898344251 -0.09811310096068482 0.0 -0.010069868868019582 0.0 0.0
0.11598993295997945 -0.11076450992819753 0.0 -0.009476961916775217 0.0 0.0
0.1265652098776805 -0.12100195726323504 0.0 -0.00791211006708692 0.0 0.0
0.13290645111406085 -0.1270903966805914 0.0 -0.005244166286060725 0.0 0.0
0.13290645111405244 -0.1270903966805843 0.0 0.005244166286078489 0.0 0.0
0.12656520987765527 -0.12100195726321372 0.0 0.007912110067118117 0.0 0.0
0.11598993295994034 -0.11076450992816245 0.0 0.009476961916794924 0.0 0.0
0.10301108898339323 -0.09811310096063819 0.0 0.010069868868029186 0.0 0.0
0.08906551258530804 -0.0845008363912263 0.0 0.009689093964456719 0.0 0.0
0.07523089075100786 -0.07099644559866558 0.0 0.008756974599699374 0.0 0.0
0.062243685366713486 -0.0583294155880103 0.0 0.00766576870339386 0.0 0.0
0.05049492939414724 -0.0468895125349702 0.0 0.006594254629487262 0.0 0.0
0.040105166437939876 -0.036800120716832474 0.0 0.005601403362783419 0.0 0.0
0.03103881589005586 -0.028028941605757085 0.0 0.004653044455696531 0.0 0.0
0.023220491917657765 -0.020502430861655263 0.0 0.0036782056028615284 0.0 0.0
0.016626123999356757 -0.014193431276328106 0.0 0.002726169716064264 0.0 0.0
0.01128604102585154 -0.00913114882009225 0.0 0.0018945476358191438 0.0 0.0
0.007228057381690134 -0.005353521346605383 0.0 0.0012484419446012751 0.0 0.0
0.004403364640362284 -0.002820127864709532 0.0 0.0007872968884246878 0.0 0.0
0.0026910970994633576 -0.0014059344446131217 0.0 0.0005335105808069451 0.0 0.0
0.001910738924084554 -0.0008505463512644695 0.0 0.00044076402454734653 0.0 0.0
0.0015114654187791399 -0.0005516364213503655 0.0 0.000133422632253688 0.0 0.0
0.0011979815494345125 -0.0006246072464876351 0.0 -0.00015215799427395482 0.0 0.0
0.007284407223254297 -0.008726733936934503 0.0 0.007493999603354368 0.0 0.0
0.0053420640953665555 -0.006920582503768563 0.0 -0.006921519707717122 0.0 0.0
0.0007093124980575086 -0.00040097608386646666 0.0 -0.0005338871903065312 0.0 0.0
0.0012125602960647228 -0.000408176726282905 0.0 -0.00042191284272996565 0.0 0.0
0.0016714582373270823 -0.0007150039823611287 0.0 -0.000681807335515705 0.0 0.0
0.0022968681309825517 -0.001126375139201774 0.0 -0.0008149392905931474 0.0 0.0
0.0036924873878951825 -0.002223443559403515 0.0 -0.001132613645466518 0.0 0.0
0.00616184439527593 -0.004378592415793969 0.0 -0.0017944481028035475 0.0 0.0
0.009771677894298197 -0.0077027084151251035 0.0 -0.0027572545749287303 0.0 0.0
0.014539633261630866 -0.01219386714393833 0.0 -0.00396383199301828 0.0 0.0
0.020408422555974456 -0.017791115133214186 0.0 -0.005323890084748234 0.0 0.0
0.027326176537953613 -0.024438702403233536 0.0 -0.006717258556545147 0.0 0.0
0.035310778633467474 -0.032153391885807014 0.0 -0.008075942867865227 0.0 0.0
0.044447668915054986 -0.041017386925025434 0.0 -0.009465888791127558 0.0 0.0
0.0548085919125688 -0.05109809950550481 0.0 -0.010986213714103382 0.0 0.0
0.06631778887429213 -0.06231884162514545 0.0 -0.012572555160010657 0.0 0.0
0.07865869688381066 -0.07436354692757385 0.0 -0.013925236264284269 0.0 0.0
0.0912140720186477 -0.08661726109414936 0.0 -0.014549005126491044 0.0 0.0
0.10301449671509502 -0.09810535083159211 0.0 -0.01389986021361933 0.0 0.0
0.11268348748404976 -0.10747510322690434 0.0 -0.011522672459089278 0.0 0.0
0.11864779051796986 -0.11322883201392919 0.0 -0.006812399338414599 0.0 0.0
0.11864779051796157 -0.11322883201392386 0.0 0.006812399338440134 0.0 0.0
0.11268348748402701 -0.10747510322688392 0.0 0.011522672459130967 0.0 0.0
0.10301449671506047 -0.0981053508315588 0.0 0.013899860213649085 0.0 0.0
0.09121407201860479 -0.0866172610941085 0.0 0.014549005126503367 0.0 0.0
0.07865869688376312 -0.07436354692752456 0.0 0.013925236264277885 0.0 0.0
0.0663177888742422 -0.0623188416250966 0.0 0.012572555160007992 0.0 0.0
0.05480859191251722 -0.051098099505460404 0.0 0.0109862137141018 0.0 0.0
0.04444766891500418 -0.04101738692497792 0.0 0.00946588879112209 0.0 0.0
0.035310778633419 -0.032153391885756166 0.0 0.008075942867855068 0.0 0.0
0.027326176537910085 -0.024438702403190238 0.0 0.0067172585565348775 0.0 0.0
0.020408422555937555 -0.017791115133180657 0.0 0.005323890084736604 0.0 0.0
0.014539633261601848 -0.012193867143911463 0.0 0.003963831993011424 0.0 0.0
0.009771677894276493 -0.007702708415105786 0.0 0.0027572545749217636 0.0 0.0
0.006161844395261434 -0.004378592415781979 0.0 0.0017944481027993842 0.0 0.0
0.0036924873878869113 -0.002223443559397742 0.0 0.0011326136454638258 0.0 0.0
0.002296868130980012 -0.001126375139201885 0.0 0.00081493929059126 0.0 0.0
0.0016714582373261733 -0.0007150039823622389 0.0 0.000681807335514234 0.0 0.0
0.001212560296064813 -0.00040817672628312707 0.0 0.00042191284272946605 0.0 0.0
0.0007093124980577514 -0.0004009760838650511 0.0 0.0005338871903045606 0.0 0.0
0.005342064095355065 -0.00692058250375556 0.0 0.00692151970769736 0.0 0.0
0.003997442590372324 -0.005564025674443751 0.0 -0.005870685128881864 0.0 0.0
0.00044588858418844607 -0.0003005902050978171 0.0 -0.0011150609348656026 0.0 0.0
0.000939096241476485 -0.0002963318408998328 0.0 -0.0008009830673409435 0.0 0.0
0.0014258145967964153 -0.0005856427440277256 0.0 -0.000945101486157951 0.0 0.0
0.0019479728903794152 -0.0009070240618589409 0.0 -0.0010932845569578131 0.0 0.0
0.00303980439583202 -0.0017079999334528306 0.0 -0.0013990879022289515 0.0 0.0
0.005107035540361807 -0.003445016550191582 0.0 -0.0021585608196833528 0.0 0.0
0.008255932164492517 -0.0062883446459052195 0.0 -0.003359978887859799 0.0 0.0
0.012434982286779604 -0.010192685401633428 0.0 -0.004844312074708007 0.0 0.0
0.017570378888303262 -0.015068836805899766 0.0 -0.006506022942986384 0.0 0.0
0.02358979814164821 -0.020838289961332412 0.0 -0.008199451254757129 0.0 0.0
0.030499837077300883 -0.02750233429154969 0.0 -0.009857611278191597 0.0 0.0
0.03838878119725137 -0.035146079358454596 0.0 -0.011563687712146109 0.0 0.0
0.04735026735928812 -0.04385580065453665 0.0 -0.01338661456754503 0.0 0.0
0.05735792936756855 -0.05360719613210918 0.0 -0.015283011003755786 0.0 0.0
0.06818441737404914 -0.064172749520373 0.0 -0.016971641761920175 0.0 0.0
0.07933309578768045 -0.07505024725808207 0.0 -0.017867942285896 0.0 0.0
0.08996491862417863 -0.0854000481318673 0.0 -0.01724265612955772 0.0 0.0
0.09886897349763739 -0.0940360677013965 0.0 -0.014279217283787005 0.0 0.0
0.10465285648457885 -0.09962871793651518 0.0 -0.008107748257258851 0.0 0.0
0.1046528564845713 -0.09962871793650585 0.0 0.008107748257291658 0.0 0.0
0.09886897349761702 -0.09403606770137385 0.0 0.014279217283836743 0.0 0.0
0.08996491862414793 -0.0854000481318411 0.0 0.017242656129591638 0.0 0.0
0.07933309578764325 -0.0750502472580461 0.0 0.01786794228591282 0.0 0.0
0.06818441737400821 -0.06417274952033036 0.0 0.016971641761914347 0.0 0.0
0.05735792936752482 -0.05360719613206033 0.0 0.015283011003750513 0.0 0.0
0.047350267359243275 -0.04385580065449135 0.0 0.013386614567541422 0.0 0.0
0.03838878119720726 -0.035146079358415516 0.0 0.011563687712140114 0.0 0.0
0.030499837077259256 -0.02750233429151039 0.0 0.009857611278179468 0.0 0.0
0.02358979814161094 -0.02083828996129311 0.0 0.008199451254744583 0.0 0.0
0.0175703788882709 -0.015068836805864017 0.0 0.006506022942970313 0.0 0.0
0.012434982286753993 -0.010192685401608781 0.0 0.004844312074699042 0.0 0.0
0.008255932164473762 -0.006288344645886124 0.0 0.003359978887852222 0.0 0.0
0.0051070355403498024 -0.0034450165501802577 0.0 0.0021585608196779127 0.0 0.0
0.0030398043958254073 -0.0017079999334481677 0.0 0.001399087902225149 0.0 0.0
0.001947972890377736 -0.0009070240618579417 0.0 0.0010932845569567307 0.0 0.0
0.0014258145967957492 -0.0005856427440263934 0.0 0.0009451014861576179 0.0 0.0
0.0009390962414766724 -0.0002963318408994997 0.0 0.0008009830673402218 0.0 0.0
0.0004458885841883975 -0.0003005902050966236 0.0 0.0011150609348627716 0.0 0.0
0.003997442590362443 -0.005564025674432439 0.0 0.00587068512886596 0.0 0.0
0.002987535874361076 -0.00446493488977337 0.0 -0.004806544390840994 0.0 0.0
0.00029727209683153705 -0.0002525364735818658 0.0 -0.0015666568580645357 0.0 0.0
0.0007079986736838045 -0.00021357852104619823 0.0 -0.0011848034447106137 0.0 0.0
0.0011754512119538305 -0.0004654090663327448 0.0 -0.0012296827916427056 0.0 0.0
0.001630196656526632 -0.0007294801984478738 0.0 -0.0013668772021353248 0.0 0.0
0.002460066526065688 -0.0012869006934153049 0.0 -0.00164319446908609 0.0 0.0
0.004100651904365683 -0.0025877621551595453 0.0 -0.002363048856611649 0.0 0.0
0.00674668529827966 -0.004905701236629811 0.0 -0.003662324633798647 0.0 0.0
0.010329542901994782 -0.008210162561728351 0.0 -0.005358792175432253 0.0 0.0
0.014723921292835819 -0.012355807288146003 0.0 -0.007215651169613757 0.0 0.0
0.01984705838251786 -0.01724706789613739 0.0 -0.009103768918527128 0.0 0.0
0.025689204640087913 -0.022867161514284362 0.0 -0.01094729348377027 0.0 0.0
0.03233549012279076 -0.029294067940616397 0.0 -0.012831865038960277 0.0 0.0
0.039896255800825495 -0.036633576755846775 0.0 -0.014859620825305397 0.0 0.0
0.04839079549798124 -0.044903513542883466 0.0 -0.016949189795868957 0.0 0.0
0.05767022770498152 -0.053954457537205514 0.0 -0.018807548489214843 0.0 0.0
0.0673659839276132 -0.06341627920927317 0.0 -0.01992950481484912 0.0 0.0
0.07682734757955545 -0.07263185073629641 0.0 -0.01946605284789571 0.0 0.0
0.08505215143471552 -0.08061628146602295 0.0 -0.01626663041255122 0.0 0.0
0.09078500143585391 -0.0861656039139369 0.0 -0.009206244821202303 0.0 0.0
0.0907850014358473 -0.08616560391392536 0.0 0.009206244821237497 0.0 0.0
0.08505215143469735 -0.08061628146599942 0.0 0.016266630412600125 0.0 0.0
0.07682734757952864 -0.07263185073627376 0.0 0.01946605284792957 0.0 0.0
0.06736598392758184 -0.0634162792092412 0.0 0.019929504814866772 0.0 0.0
0.05767022770494623 -0.053954457537165545 0.0 0.01880754848920918 0.0 0.0
0.048390795497943506 -0.04490351354284439 0.0 0.016949189795861463 0.0 0.0
0.03989625580078776 -0.03663357675581258 0.0 0.014859620825299347 0.0 0.0
0.032335490122753635 -0.02929406794057865 0.0 0.012831865038954837 0.0 0.0
0.025689204640052837 -0.022867161514251055 0.0 0.010947293483757503 0.0 0.0
0.019847058382486515 -0.017247067896109858 0.0 0.009103768918513833 0.0 0.0
0.014723921292808279 -0.012355807288120468 0.0 0.007215651169595605 0.0 0.0
0.010329542901973104 -0.008210162561707035 0.0 0.0053587921754219 0.0 0.0
0.006746685298263916 -0.004905701236616267 0.0 0.003662324633790126 0.0 0.0
0.004100651904356212 -0.0025877621551506635 0.0 0.002363048856604766 0.0 0.0
0.0024600665260609555 -0.0012869006934130844 0.0 0.0016431944690814826 0.0 0.0
0.00163019665652539 -0.0007294801984473187 0.0 0.0013668772021347142 0.0 0.0
0.00117545121195331 -0.00046540906633385504 0.0 0.00122968279164129 0.0 0.0
0.0007079986736838462 -0.00021357852104680886 0.0 0.0011848034447079492 0.0 0.0
0.00029727209683119704 -0.00025253647358092213 0.0 0.0015666568580616214 0.0 0.0
0.002987535874353048 -0.004464934889764292 0.0 0.004806544390828588 0.0 0.0
0.0022044782096360127 -0.003551187810157508 0.0 -0.003883561169943567 0.0 0.0
0.00020502283200414528 -0.00022561817925748073 0.0 -0.001901131961983965 0.0 0.0
0.0005125626490512514 -0.00015044026483701511 0.0 -0.001526991387616361 0.0 0.0
0.0009246465681117394 -0.0003509253131716017 0.0 -0.0015098786203059378 0.0 0.0
0.0013295876767539655 -0.0005766501218250619 0.0 -0.0016319555974371736 0.0 0.0
0.0019432983283179522 -0.0009558199823436198 0.0 -0.0018813479344922113 0.0 0.0
0.003180789693901717 -0.001856786451992054 0.0 -0.0025148995875227675 0.0 0.0
0.0052780144513548816 -0.003607527147527989 0.0 -0.0037334449867179043 0.0 0.0
0.00823532995994726 -0.006266777534090551 0.0 -0.005470692924739229 0.0 0.0
0.011887537098606862 -0.00967506198337631 0.0 -0.007437882696313958 0.0 0.0
0.01611381331458578 -0.013686853491807982 0.0 -0.009409370502503733 0.0 0.0
0.0208966627557359 -0.01826884093083292 0.0 -0.011331470966955859 0.0 0.0
0.026310020551078603 -0.02348831556428088 0.0 -0.013287321148086895 0.0 0.0
0.03247089777372433 -0.029457592038358182 0.0 -0.01536117160933198 0.0 0.0
0.039444283051038684 -0.03623759291774675 0.0 -0.01751195811983547 0.0 0.0
0.04715028571312084 -0.04374870540570264 0.0 -0.019466443571735437 0.0 0.0
0.055336144005256604 -0.051739292709165774 0.0 -0.02071462817300851 0.0 0.0
0.06357566763590952 -0.059776202964703096 0.0 -0.020475258774466598 0.0 0.0
0.07114209529898317 -0.06713162779496384 0.0 -0.017448235822447367 0.0 0.0
0.07691632071141474 -0.07272227852512625 0.0 -0.010126371784067334 0.0 0.0
0.07691632071140908 -0.07272227852512314 0.0 0.010126371784105748 0.0 0.0
0.07114209529896735 -0.0671316277949523 0.0 0.017448235822497216 0.0 0.0
0.06357566763588673 -0.05977620296467645 0.0 0.02047525877450218 0.0 0.0
0.05533614400523096 -0.05173929270913602 0.0 0.02071462817302372 0.0 0.0
0.04715028571309149 -0.04374870540567466 0.0 0.019466443571729997 0.0 0.0
0.03944428305100689 -0.03623759291771744 0.0 0.017511958119826088 0.0 0.0
0.03247089777369411 -0.029457592038325764 0.0 0.015361171609326707 0.0 0.0
0.02631002055104878 -0.023488315564252016 0.0 0.013287321148081399 0.0 0.0
0.020896662755707562 -0.01826884093080583 0.0 0.011331470966943091 0.0 0.0
0.01611381331455966 -0.013686853491784667 0.0 0.009409370502489134 0.0 0.0
0.011887537098584311 -0.009675061983356104 0.0 0.0074378826962954725 0.0 0.0
0.008235329959929677 -0.006266777534073453 0.0 0.005470692924727405 0.0 0.0
0.005278014451342322 -0.0036075271475162207 0.0 0.003733444986708634 0.0 0.0
0.00318078969389457 -0.0018567864519856148 0.0 0.002514899587516717 0.0 0.0
0.001943298328314691 -0.0009558199823404001 0.0 0.001881347934487937 0.0 0.0
0.0013295876767531467 -0.0005766501218239517 0.0 0.001631955597435536 0.0 0.0
0.0009246465681113369 -0.0003509253131700474 0.0 0.0015098786203038006 0.0 0.0
0.0005125626490512791 -0.0001504402648364045 0.0 0.0015269913876140295 0.0 0.0
0.00020502283200377058 -0.00022561817925720318 0.0 0.0019011319619812728 0.0 0.0
0.0022044782096297677 -0.0035511878101501023 0.0 0.003883561169934907 0.0 0.0
0.001592954528462226 -0.0027853375588966778 0.0 -0.0031281893412812567 0.0 0.0
0.0001380951965181676 -0.0002090244273678099 0.0 -0.002134180685394782 0.0 0.0
0.00034074796297998977 -9.710208199442683e-05 0.0 -0.0018079077426615686 0.0 0.0
0.0006776981195404513 -0.0002393864318978034 0.0 -0.0017656048916862288 0.0 0.0
0.0010301869574485534 -0.00043676182001251007 0.0 -0.0018892663282251698 0.0 0.0
0.001481732591151308 -0.0006908741428834908 0.0 -0.0020974599623196644 0.0 0.0
0.0023501302043958117 -0.0012557114927580493 0.0 -0.002606614175363675 0.0 0.0
0.0039017707416659636 -0.0024531311532440814 0.0 -0.003649752063627165 0.0 0.0
0.0061855783340203085 -0.004418647721977864 0.0 -0.005221193881463693 0.0 0.0
0.009076117621629187 -0.007054041342976269 0.0 -0.007130102797286708 0.0 0.0
0.01240575837460503 -0.0101821791720762 0.0 -0.009099190662253842 0.0 0.0
0.016138733517549603 -0.013732421872033829 0.0 -0.01099474706971354 0.0 0.0
0.020332344805363542 -0.017756404915572066 0.0 -0.012897331682721447 0.0 0.0
0.0251037274614702 -0.02236459206996022 0.0 -0.01490262490447225 0.0 0.0
0.03054521704775695 -0.02764680351405646 0.0 -0.016974668910256563 0.0 0.0
0.0366532592666608 -0.033589448101761565 0.0 -0.01887248387011531 0.0 0.0
0.04327432449672727 -0.04005342461640238 0.0 -0.020182581945004163 0.0 0.0
0.050196528948843674 -0.046824394760885735 0.0 -0.020243345057489592 0.0 0.0
0.05703968557605238 -0.05349488333379204 0.0 -0.01776306187869503 0.0 0.0
0.06290703745291316 -0.059172465784253614 0.0 -0.010855220187199754 0.0 0.0
0.06290703745290864 -0.05917246578424695 0.0 0.010855220187233616 0.0 0.0
0.05703968557603936 -0.05349488333377783 0.0 0.01776306187874166 0.0 0.0
0.05019652894882522 -0.0468243947608733 0.0 0.020243345057527007 0.0 0.0
0.04327432449670701 -0.04005342461638639 0.0 0.020182581945020317 0.0 0.0
0.036653259266637095 -0.03358944810174025 0.0 0.01887248387010565 0.0 0.0
0.03054521704773161 -0.02764680351403337 0.0 0.016974668910245683 0.0 0.0
0.02510372746144718 -0.022364592069938904 0.0 0.014902624904464812 0.0 0.0
0.020332344805341213 -0.017756404915554747 0.0 0.012897331682714896 0.0 0.0
0.016138733517527787 -0.013732421872012956 0.0 0.010994747069700883 0.0 0.0
0.012405758374584464 -0.01018217917205777 0.0 0.009099190662238521 0.0 0.0
0.009076117621611757 -0.007054041342959394 0.0 0.007130102797269888 0.0 0.0
0.006185578334007041 -0.00441864772196765 0.0 0.005221193881453423 0.0 0.0
0.0039017707416567904 -0.0024531311532391964 0.0 0.0036497520636200043 0.0 0.0
0.0023501302043907324 -0.0012557114927553847 0.0 0.0026066141753599004 0.0 0.0
0.0014817325911493096 -0.0006908741428813814 0.0 0.002097459962316889 0.0 0.0
0.0010301869574479428 -0.000436761820012066 0.0 0.0018892663282243927 0.0 0.0
0.0006776981195401599 -0.00023938643189858055 0.0 0.001765604891683925 0.0 0.0
0.0003407479629799204 -9.710208199503745e-05 0.0 0.0018079077426585988 0.0 0.0
0.00013809519651777902 -0.00020902442736742133 0.0 0.002134180685391923 0.0 0.0
0.0015929545284577296 -0.0027853375588907502 0.0 0.0031281893412745954 0.0 0.0
0.0011259332179075349 -0.002161278019279622 0.0 -0.00254773750327969 0.0 0.0
7.476635915769358e-05 -0.00019494025059907383 0.0 -0.0022703109499812857 0.0 0.0
0.0001829557630253359 -4.568738882149148e-05 0.0 -0.002027342457929182 0.0 0.0
0.00043749257014509546 -0.0001314875875064736 0.0 -0.001980293283608603 0.0 0.0
0.0007222782137687456 -0.0002949348671147378 0.0 -0.002109572856790448 0.0 0.0
0.0010552456236290753 -0.000476899029252964 0.0 -0.002323899068484986 0.0 0.0
0.0016114169719112087 -0.0007910316766710501 0.0 -0.002696987546236651 0.0 0.0
0.0026417472587547813 -0.001483866956548452 0.0 -0.003458640448742889 0.0 0.0
0.004235533070721484 -0.0027459210885016905 0.0 -0.004709889180533777 0.0 0.0
0.006321050360305641 -0.004558509509768216 0.0 -0.006334968101728289 0.0 0.0
0.008742045577675703 -0.0067745414261151105 0.0 -0.00811966475295528 0.0 0.0
0.011429701049085694 -0.009294409444914109 0.0 -0.009882383730142996 0.0 0.0
0.014421024202393301 -0.012135671251691349 0.0 -0.011640242514965371 0.0 0.0
0.017816507260896314 -0.015394725965596212 0.0 -0.013449856447312947 0.0 0.0
0.021725779474050008 -0.019175750236481548 0.0 -0.015311529939419866 0.0 0.0
0.026207400769503397 -0.02352812651953773 0.0 -0.017049461206175343 0.0 0.0
0.031218492326373762 -0.02840792860224406 0.0 -0.01827478444442643 0.0 0.0
0.03669575518861794 -0.033784632818976146 0.0 -0.018581549285373755 0.0 0.0
0.042641957080800846 -0.039625304119109916 0.0 -0.017034178044467274 0.0 0.0
0.04859077481780841 -0.04538057652809213 0.0 -0.011350673963558211 0.0 0.0
0.04859077481780534 -0.04538057652809124 0.0 0.01135067396358902 0.0 0.0
0.04264195708079145 -0.03962530411910059 0.0 0.017034178044510295 0.0 0.0
0.03669575518860417 -0.03378463281896327 0.0 0.018581549285406562 0.0 0.0
0.031218492326358427 -0.028407928602231625 0.0 0.018274784444439085 0.0 0.0
0.026207400769485883 -0.023528126519519965 0.0 0.017049461206167238 0.0 0.0
0.021725779474031592 -0.019175750236463784 0.0 0.015311529939410873 0.0 0.0
0.017816507260880687 -0.015394725965579337 0.0 0.013449856447309338 0.0 0.0
0.014421024202378285 -0.012135671251674474 0.0 0.011640242514960764 0.0 0.0
0.011429701049070567 -0.009294409444901897 0.0 0.009882383730134503 0.0 0.0
0.008742045577660923 -0.0067745414261002335 0.0 0.008119664752942846 0.0 0.0
0.006321050360293234 -0.00455850950975778 0.0 0.006334968101712968 0.0 0.0
0.004235533070712699 -0.0027459210884914764 0.0 0.004709889180523841 0.0 0.0
0.00264174725874905 -0.0014838669565406803 0.0 0.003458640448737116 0.0 0.0
0.0016114169719079474 -0.0007910316766692738 0.0 0.002696987546233598 0.0 0.0
0.0010552456236279928 -0.0004768990292532971 0.0 0.0023238990684818217 0.0 0.0
0.000722278213768357 -0.0002949348671130725 0.0 0.0021095728567882277 0.0 0.0
0.0004374925701448873 -0.00013148758750558542 0.0 0.001980293283606105 0.0 0.0
0.0001829557630250167 -4.5687388820658814e-05 0.0 0.0020273424579269617 0.0 0.0
7.476635915740215e-05 -0.00019494025059885178 0.0 0.0022703109499785934 0.0 0.0
0.0011259332179045234 -0.0021612780192758335 0.0 0.0025477375032744443 0.0 0.0
0.0007893194401239756 -0.001686698079723964 0.0 -0.002151711002945478 0.0 0.0
4.303419084569771e-06 -0.00018182387225157415 0.0 -0.002347690152559645 0.0 0.0
3.3659009031503095e-05 8.84163885084277e-06 0.0 -0.0021860826351832174 0.0 0.0
0.000205017013492112 -2.8566292424536677e-05 0.0 -0.0021468637956901238 0.0 0.0
0.0004075798601227004 -0.00014694964979655722 0.0 -0.0022716180913677775 0.0 0.0
0.0006307205498029961 -0.0002775742892728861 0.0 -0.0025207711957796197 0.0 0.0
0.000950833705091636 -0.00044347804546940317 0.0 -0.0028404946447116997 0.0 0.0
0.0015134863716073088 -0.0007478876448490102 0.0 -0.0032952489686055575 0.0 0.0
0.0024312496856460364 -0.0013476424240703722 0.0 -0.0040558761572093704 0.0 0.0
0.003678136521570674 -0.0023111251767760077 0.0 -0.005167509004162962 0.0 0.0
0.005158927644237199 -0.00357094959859916 0.0 -0.006530211807277864 0.0 0.0
0.00678627864906424 -0.00503638543740248 0.0 -0.007985187527724924 0.0 0.0
0.008586121411001346 -0.006697475610136117 0.0 -0.009503467143294309 0.0 0.0
0.010627357654833317 -0.008621576747515736 0.0 -0.011047700440484032 0.0 0.0
0.013005379751002202 -0.010900791446117886 0.0 -0.01261268620701439 0.0 0.0
0.01583145164999432 -0.01363422493697275 0.0 -0.014117675702267074 0.0 0.0
0.019192976127950026 -0.016892338641297577 0.0 -0.015269124865146866 0.0 0.0
0.023144664288009487 -0.02074989362570312 0.0 -0.01564269995963735 0.0 0.0
0.027885830565731698 -0.025485757684910126 0.0 -0.01499091053095597 0.0 0.0
0.03373434496680644 -0.03117457825195169 0.0 -0.011431009823781368 0.0 0.0
0.03373434496680486 -0.031174578251946805 0.0 0.011431009823806626 0.0 0.0
0.027885830565726147 -0.025485757684900356 0.0 0.014990910530994273 0.0 0.0
0.023144664288000383 -0.02074989362569335 0.0 0.01564269995966422 0.0 0.0
0.019192976127939826 -0.01689233864128914 0.0 0.015269124865154249 0.0 0.0
0.0158314516499843 -0.013634224936961648 0.0 0.01411767570225958 0.0 0.0
0.013005379750991239 -0.010900791446102787 0.0 0.012612686207005397 0.0 0.0
0.010627357654825004 -0.008621576747506854 0.0 0.011047700440482755 0.0 0.0
0.00858612141099345 -0.006697475610129011 0.0 0.009503467143289979 0.0 0.0
0.006786278649055608 -0.005036385437398705 0.0 0.00798518752771521 0.0 0.0
0.005158927644228664 -0.0035709495985953854 0.0 0.0065302118072644855 0.0 0.0
0.0036781365215636658 -0.002311125176771567 0.0 0.005167509004150972 0.0 0.0
0.0024312496856415677 -0.0013476424240674856 0.0 0.0040558761572048185 0.0 0.0
0.0015134863716045333 -0.0007478876448485661 0.0 0.0032952489686021713 0.0 0.0
0.0009508337050898874 -0.0004434780454709575 0.0 0.0028404946447083135 0.0 0.0
0.0006307205498024826 -0.00027757428927421834 0.0 0.0025207711957771772 0.0 0.0
0.0004075798601227143 -0.0001469496497984446 0.0 0.0022716180913665562 0.0 0.0
0.00020501701349195933 -2.8566292424536677e-05 0.0 0.0021468637956885694 0.0 0.0
3.3659009031183906e-05 8.841638850676237e-06 0.0 0.00218608263518133 0.0 0.0
4.303419084333848e-06 -0.0001818238722517962 0.0 0.0023476901525586735 0.0 0.0
0.0007893194401220049 -0.0016866980797211224 0.0 0.002151711002943757 0.0 0.0
0.0005544401216124456 -0.001334022329571527 0.0 -0.001889662558506644 0.0 0.0
-6.70969478991923e-05 -0.00016923390424111728 0.0 -0.0023919676081610164 0.0 0.0
-0.00010961017134719642 6.565901198496427e-05 0.0 -0.002289568249078805 0.0 0.0
-2.001845201554664e-05 7.040765577503993e-05 0.0 -0.0022580547503422976 0.0 0.0
9.205516708950257e-05 1.9625745232287883e-06 0.0 -0.002369670896405718 0.0 0.0
0.0001956480770424346 -7.256982013892355e-05 0.0 -0.002632972171510428 0.0 0.0
0.00031437943222860365 -0.00014287599292006625 0.0 -0.002997879283259619 0.0 0.0
0.0004918900156690581 -0.00023200083945029704 0.0 -0.0033588463191618345 0.0 0.0
0.0007856915325135522 -0.00037616597775835814 0.0 -0.0037297851401696946 0.0 0.0
0.0011963670262121195 -0.0006028882666189173 0.0 -0.004234273464969185 0.0 0.0
0.001696772351666681 -0.0009199378463224939 0.0 -0.005003268005374595 0.0 0.0
0.0022383632218093696 -0.0013044826662920173 0.0 -0.0059830212460400545 0.0 0.0
0.0028329608516958343 -0.0017569456930788263 0.0 -0.007144125659095224 0.0 0.0
0.0035124604268563647 -0.002326233701230862 0.0 -0.008482678657554865 0.0 0.0
0.004349969500605552 -0.003080910968026984 0.0 -0.009988863724426922 0.0 0.0
0.005495926712882515 -0.004150186337989581 0.0 -0.011552258318235697 0.0 0.0
0.0071791104217220625 -0.005738677276198256 0.0 -0.012846165359577721 0.0 0.0
0.009623096553341537 -0.008049841252881329 0.0 -0.013315967499683556 0.0 0.0
0.012988544348812997 -0.01135396769853525 0.0 -0.012690797396201714 0.0 0.0
0.018084960731955507 -0.01652340169800537 0.0 -0.011189550083885003 0.0 0.0
0.018084960731955438 -0.016523401698009366 0.0 0.011189550083906263 0.0 0.0
0.012988544348810721 -0.011353967698536138 0.0 0.01269079739623219 0.0 0.0
0.009623096553336957 -0.008049841252879109 0.0 0.013315967499701264 0.0 0.0
0.007179110421718232 -0.005738677276193815 0.0 0.012846165359578887 0.0 0.0
0.0054959267128804196 -0.0041501863379873605 0.0 0.011552258318227815 0.0 0.0
0.004349969500602735 -0.00308091096802654 0.0 0.009988863724419428 0.0 0.0
0.003512460426854838 -0.0023262337012317502 0.0 0.00848267865755209 0.0 0.0
0.0028329608516949184 -0.0017569456930810468 0.0 0.007144125659090672 0.0 0.0
0.002238363221807871 -0.0013044826662886866 0.0 0.0059830212460303955 0.0 0.0
0.0016967723516647937 -0.0009199378463202734 0.0 0.0050032680053682665 0.0 0.0
0.0011963670262110787 -0.0006028882666200275 0.0 0.004234273464962357 0.0 0.0
0.0007856915325128444 -0.00037616597776080063 0.0 0.003729785140167252 0.0 0.0
0.0004918900156683087 -0.00023200083944940886 0.0 0.003358846319159725 0.0 0.0
0.00031437943222849263 -0.00014287599291806785 0.0 0.0029978792832556223 0.0 0.0
0.00019564807704226805 -7.256982014081093e-05 0.0 0.0026329721715068477 0.0 0.0
9.205516708982175e-05 1.9625745221185653e-06 0.0 0.0023696708964029145 0.0 0.0
-2.001845201540786e-05 7.040765577481789e-05 0.0 0.00225805475033955 0.0 0.0
-0.00010961017134750173 6.565901198540836e-05 0.0 0.00228956824907689 0.0 0.0
-6.709694789923393e-05 -0.00016923390424050666 0.0 0.002391967608159351 0.0 0.0
0.0005544401216114325 -0.0013340223295699918 0.0 0.0018896625585047566 0.0 0.0
0.00039123350825658043 -0.0010733733923505573 0.0 -0.0017112490891570409 0.0 0.0
-0.0001325252670593413 -0.0001476672220914188 0.0 -0.002390150817625114 0.0 0.0
-0.00024624263821038106 0.00012012014038409458 0.0 -0.0023425862947114573 0.0 0.0
-0.0002378029162101447 0.00016590173943120679 0.0 -0.0023109304937539155 0.0 0.0
-0.0002200520893162472 0.00014830297265688852 0.0 -0.0024025829503195317 0.0 0.0
-0.0002426449495129268 0.00013501160765283515 0.0 -0.0026464037375381333 0.0 0.0
-0.0003272370863291185 0.00015885434638751583 0.0 -0.0030016263125942078 0.0 0.0
-0.0004934842172095721 0.00023425155827694333 0.0 -0.003361320378245769 0.0 0.0
-0.0007843149070980854 0.0003756391562150796 0.0 -0.003730531813648852 0.0 0.0
-0.001194671604868816 0.0006016611460444299 0.0 -0.004232406726961291 0.0 0.0
-0.0016970123504803508 0.000921799236889953 0.0 -0.004999051371164909 0.0 0.0
-0.0022535134510411614 0.001319845872505887 0.0 -0.0059817153905945 0.0 0.0
-0.0028783924935274485 0.0017964882565788542 0.0 -0.007146509203699414 0.0 0.0
-0.0035778467270164704 0.0023682804717228834 0.0 -0.008487633050735965 0.0 0.0
-0.004291516092782499 0.002973965023616909 0.0 -0.010009080125667702 0.0 0.0
-0.004845496665398463 0.003440370221225564 0.0 -0.011677118112928153 0.0 0.0
-0.004911737615647865 0.0034716913910917135 0.0 -0.013464485854111363 0.0 0.0
-0.004108423989156673 0.0028044893772238844 0.0 -0.015367233650621981 0.0 0.0
-0.002134711808086595 0.0013421099136667891 0.0 -0.01699255593266208 0.0 0.0
0.0025653268408707824 -0.003004348540048163 0.0 -0.01517602554227937 0.0 0.0
0.002565326840870602 -0.003004348540048163 0.0 0.015176025542293359 0.0 0.0
-0.002134711808086956 0.0013421099136685655 0.0 0.016992555932675846 0.0 0.0
-0.004108423989155133 0.002804489377226105 0.0 0.015367233650627476 0.0 0.0
-0.004911737615643369 0.0034716913910903813 0.0 0.013464485854107922 0.0 0.0
-0.0048454966653921905 0.00344037022121757 0.0 0.011677118112918772 0.0 0.0
-0.004291516092777184 0.002973965023612024 0.0 0.010009080125660597 0.0 0.0
-0.003577846727011544 0.002368280471721107 0.0 0.008487633050731025 0.0 0.0
-0.0028783924935214533 0.001796488256572193 0.0 0.007146509203695917 0.0 0.0
-0.0022535134510348748 0.0013198458724974493 0.0 0.005981715390583786 0.0 0.0
-0.0016970123504751189 0.0009217992368830696 0.0 0.00499905137115586 0.0 0.0
-0.0011946716048642642 0.0006016611460408772 0.0 0.004232406726954796 0.0 0.0
-0.0007843149070952682 0.0003756391562150796 0.0 0.0037305318136456322 0.0 0.0
-0.0004934842172083231 0.00023425155827605515 0.0 0.003361320378245103 0.0 0.0
-0.0003272370863279944 0.00015885434638596152 0.0 0.0030016263125905995 0.0 0.0
-0.00024264494951264926 0.00013501160765172493 0.0 0.0026464037375351634 0.0 0.0
-0.00022005208931558107 0.00014830297265644443 0.0 0.0024025829503173946 0.0 0.0
-0.00023780291620977 0.00016590173943142883 0.0 0.0023109304937518615 0.0 0.0
-0.0002462426382105337 0.00012012014038459418 0.0 0.002342586294709348 0.0 0.0
-0.0001325252670592303 -0.00014766722209139105 0.0 0.0023901508176242536 0.0 0.0
0.00039123350825608083 -0.0010733733923497142 0.0 0.0017112490891550702 0.0 0.0
0.00027623358737158266 -0.0008567578362955741 0.0 -0.001543740093885776 0.0 0.0
-0.00019164302466320726 -0.00011775943523056887 0.0 -0.0023378069069321106 0.0 0.0
-0.0003749417012571532 0.00017151976517337797 0.0 -0.0023424639881923226 0.0 0.0
-0.0004478889492587901 0.00025679758639007844 0.0 -0.002303930142392635 0.0 0.0
-0.0005257890669959908 0.0002901695869674814 0.0 -0.002366729525513145 0.0 0.0
-0.0006747083423263023 0.00033798838663789965 0.0 -0.0025679295018961046 0.0 0.0
-0.0009629224120941138 0.000459175347716112 0.0 -0.002857929308663687 0.0 0.0
-0.0015146648997041434 0.0007500156380659817 0.0 -0.003301175470243445 0.0 0.0
-0.0024290090946624543 0.0013461153217808608 0.0 -0.00405576301472127 0.0 0.0
-0.003675985732161241 0.002309773803558901 0.0 -0.005164864775158096 0.0 0.0
-0.005160259851862553 0.003574747809712342 0.0 -0.006528246929478898 0.0 0.0
-0.006801341553462015 0.00505516125851635 0.0 -0.00797828233025466 0.0 0.0
-0.008628922308012654 0.0067414288759279906 0.0 -0.009477491229073598 0.0 0.0
-0.010687815410163615 0.008666915281438925 0.0 -0.011015629964023166 0.0 0.0
-0.012948265638806966 0.01079221269173658 0.0 -0.012676731611287406 0.0 0.0
-0.015219879436655884 0.012926359825010891 0.0 -0.01456388170698758 0.0 0.0
-0.01711427077346704 0.014695814792496709 0.0 -0.01674402362997124 0.0 0.0
-0.018093856219799254 0.015588872587363412 0.0 -0.019117585321153097 0.0 0.0
-0.01723547631796346 0.01445444046387312 0.0 -0.02012942488713193 0.0 0.0
-0.012195234367298483 0.009240306682545274 0.0 -0.017718882548081516 0.0 0.0
-0.012195234367299718 0.009240306682549715 0.0 0.017718882548105608 0.0 0.0
-0.017235476317961768 0.014454440463874008 0.0 0.02012942488716235 0.0 0.0
-0.018093856219791205 0.015588872587360303 0.0 0.01911758532117125 0.0 0.0
-0.01711427077345458 0.014695814792482942 0.0 0.016744023629968796 0.0 0.0
-0.015219879436641243 0.012926359824994904 0.0 0.014563881706977255 0.0 0.0
-0.012948265638794434 0.010792212691728142 0.0 0.012676731611277636 0.0 0.0
-0.01068781541015168 0.008666915281430043 0.0 0.011015629964012064 0.0 0.0
-0.00862892230799922 0.006741428875911115 0.0 0.009477491229068102 0.0 0.0
-0.006801341553448914 0.005055161258502805 0.0 0.007978282330244446 0.0 0.0
-0.00516025985184998 0.0035747478097036822 0.0 0.00652824692946441 0.0 0.0
-0.0036759857321511102 0.0023097738035504634 0.0 0.00516486477514605 0.0 0.0
-0.002429009094655807 0.0013461153217759758 0.0 0.00405576301471372 0.0 0.0
-0.0015146648997002299 0.0007500156380655376 0.0 0.003301175470239781 0.0 0.0
-0.0009629224120918101 0.0004591753477181104 0.0 0.0028579293086599677 0.0 0.0
-0.0006747083423254002 0.00033798838663978703 0.0 0.0025679295018919968 0.0 0.0
-0.0005257890669949639 0.0002901695869668153 0.0 0.002366729525510425 0.0 0.0
-0.00044788894925835987 0.0002567975863894123 0.0 0.0023039301423904424 0.0 0.0
-0.00037494170125694504 0.000171519765173489 0.0 0.002342463988189214 0.0 0.0
-0.00019164302466306848 -0.00011775943523009702 0.0 0.0023378069069298624 0.0 0.0
0.00027623358737120796 -0.0008567578362945541 0.0 0.0015437400938832224 0.0 0.0
0.00018613163982769687 -0.0006624227669552452 0.0 -0.0013663167670106002 0.0 0.0
-0.00024587942041331967 -8.074415441999827e-05 0.0 -0.0022322333058008015 0.0 0.0
-0.0004956134664338141 0.00021996163266468916 0.0 -0.0022864845015275748 0.0 0.0
-0.0006491885860940849 0.00034240465484214333 0.0 -0.002236191388377523 0.0 0.0
-0.0008221420503048971 0.0004235227761479887 0.0 -0.0022586740454577925 0.0 0.0
-0.0010938473214375521 0.0005330433652270816 0.0 -0.0023943485706021117 0.0 0.0
-0.0016221222597350982 0.0008071768190718309 0.0 -0.0027237233853072973 0.0 0.0
-0.0026408188801541332 0.001484700303627351 0.0 -0.0034670141327280413 0.0 0.0
-0.004232219069473325 0.002743041430880666 0.0 -0.004706204802625902 0.0 0.0
-0.0063197908558227656 0.004557686945459993 0.0 -0.006332069862877154 0.0 0.0
-0.00874479191239666 0.006779065303594178 0.0 -0.008117983718358868 0.0 0.0
-0.011441393070537265 0.009309613393449823 0.0 -0.009866023353372333 0.0 0.0
-0.014451915360989553 0.012169019709381779 0.0 -0.011573429480765784 0.0 0.0
-0.017861373860004137 0.01542955936189605 0.0 -0.013331219460874566 0.0 0.0
-0.021679419624622276 0.01908800298117619 0.0 -0.015324334671141915 0.0 0.0
-0.025708485225435396 0.022945255566372502 0.0 -0.017807883913859457 0.0 0.0
-0.029473096125438192 0.02653810062888473 0.0 -0.020973530046031086 0.0 0.0
-0.032114054544636075 0.02895601448230467 0.0 -0.024250855636148982 0.0 0.0
-0.031988632198421615 0.028548469984944536 0.0 -0.025933367046365285 0.0 0.0
-0.026158452021029108 0.022123547997234372 0.0 -0.02249368360052645 0.0 0.0
-0.026158452021029358 0.02212354799723526 0.0 0.022493683600556702 0.0 0.0
-0.03198863219841758 0.02854846998494409 0.0 0.025933367046404032 0.0 0.0
-0.03211405454462307 0.028956014482295345 0.0 0.02425085563617463 0.0 0.0
-0.02947309612541915 0.02653810062886741 0.0 0.020973530046034028 0.0 0.0
-0.02570848522541362 0.022945255566352962 0.0 0.017807883913849465 0.0 0.0
-0.02167941962460243 0.019088002981157537 0.0 0.015324334671132811 0.0 0.0
-0.017861373859984847 0.015429559361880063 0.0 0.01333121946086585 0.0 0.0
-0.014451915360969236 0.01216901970936446 0.0 0.011573429480756015 0.0 0.0
-0.011441393070517544 0.009309613393426952 0.0 0.009866023353358566 0.0 0.0
-0.00874479191237744 0.0067790653035748605 0.0 0.008117983718340938 0.0 0.0
-0.006319790855806889 0.0045576869454413416 0.0 0.0063320698628604455 0.0 0.0
-0.004232219069462376 0.0027430414308680096 0.0 0.004706204802618297 0.0 0.0
-0.0026408188801471666 0.001484700303622688 0.0 0.0034670141327241 0.0 0.0
-0.0016221222597313373 0.0008071768190685003 0.0 0.002723723385303689 0.0 0.0
-0.0010938473214359146 0.0005330433652263045 0.0 0.0023943485705991696 0.0 0.0
-0.0008221420503037036 0.000423522776149432 0.0 0.0022586740454563214 0.0 0.0
-0.0006491885860935298 0.00034240465484181026 0.0 0.0022361913883765794 0.0 0.0
-0.0004956134664334533 0.00021996163266380098 0.0 0.0022864845015263813 0.0 0.0
-0.00024587942041301436 -8.07441544201648e-05 0.0 0.0022322333057994137 0.0 0.0
0.00018613163982750258 -0.0006624227669546102 0.0 0.0013663167670092125 0.0 0.0
0.00010838952538944069 -0.0004877749874313275 0.0 -0.0011849140743377395 0.0 0.0
-0.00029775450829452876 -3.706251322005416e-05 0.0 -0.0020745055797056766 0.0 0.0
-0.0006089104777312337 0.0002661661165220819 0.0 -0.0021755963317628413 0.0 0.0
-0.000841523357788726 0.0004215257132396122 0.0 -0.0021134250776015107 0.0 0.0
-0.0011036386564520773 0.0005457055201700811 0.0 -0.0020806522768371527 0.0 0.0
-0.0015143355175283868 0.000743103123083122 0.0 -0.00219199344451132 0.0 0.0
-0.0023568825805427296 0.0012706010127563339 0.0 -0.0026422886354209307 0.0 0.0
-0.0038979098602043294 0.0024507992543369994 0.0 -0.003651584628859783 0.0 0.0
-0.006182386851168065 0.004415248591860932 0.0 -0.005214905014804594 0.0 0.0
-0.009076651026950128 0.007054790189222837 0.0 -0.0071280896189701015 0.0 0.0
-0.01240941069680146 0.010186985003454385 0.0 -0.009098148825218033 0.0 0.0
-0.016144191125002344 0.013740129243067667 0.0 -0.010971725221588013 0.0 0.0
-0.020340286129843094 0.017767032696611285 0.0 -0.012796890724246057 0.0 0.0
-0.025114146509220697 0.022371840562318113 0.0 -0.014695090061077942 0.0 0.0
-0.03051229689480489 0.027590363113467298 0.0 -0.016895915296506026 0.0 0.0
-0.03635206078057612 0.033224984708235095 0.0 -0.019788222267322908 0.0 0.0
-0.04200654086166922 0.038636597747658374 0.0 -0.0235874650622101 0.0 0.0
-0.046157309290233386 0.04249326221669891 0.0 -0.027646287744347853 0.0 0.0
-0.04651848951863512 0.04244982564522992 0.0 -0.02985722789662243 0.0 0.0
-0.03917348786411107 0.034477777086600714 0.0 -0.026771462086192355 0.0 0.0
-0.039173487864109624 0.034477777086595385 0.0 0.02677146208622483 0.0 0.0
-0.046518489518627706 0.042449825645216155 0.0 0.029857227896665117 0.0 0.0
-0.04615730929021611 0.04249326221667982 0.0 0.027646287744379827 0.0 0.0
-0.042006540861644556 0.03863659774763395 0.0 0.023587465062214652 0.0 0.0
-0.03635206078054809 0.03322498470820845 0.0 0.01978822226731436 0.0 0.0
-0.030512296894777538 0.02759036311344376 0.0 0.01689591529649559 0.0 0.0
-0.025114146509193983 0.0223718405622928 0.0 0.01469509006106473 0.0 0.0
-0.020340286129816573 0.017767032696585527 0.0 0.012796890724235177 0.0 0.0
-0.016144191124975713 0.013740129243041688 0.0 0.010971725221575246 0.0 0.0
-0.012409410696775994 0.010186985003431959 0.0 0.009098148825199215 0.0 0.0
-0.009076651026928659 0.007054790189205962 0.0 0.007128089618953115 0.0 0.0
-0.006182386851152535 0.004415248591847387 0.0 0.005214905014794213 0.0 0.0
-0.00389790986019381 0.0024507992543270074 0.0 0.0036515846288523446 0.0 0.0
-0.0023568825805370675 0.001270601012752337 0.0 0.002642288635416712 0.0 0.0
-0.0015143355175259027 0.0007431031230825669 0.0 0.0021919934445089606 0.0 0.0
-0.001103638656450856 0.0005457055201688599 0.0 0.002080652276835432 0.0 0.0
-0.0008415233577880599 0.00042152571323894605 0.0 0.002113425077600539 0.0 0.0
-0.0006089104777307203 0.0002661661165215268 0.0 0.0021755963317612315 0.0 0.0
-0.0002977545082941402 -3.706251322024845e-05 0.0 0.0020745055797054546 0.0 0.0
0.00010838952538926028 -0.0004877749874305833 0.0 0.0011849140743375453 0.0 0.0
3.9751380960156846e-05 -0.0003333157909386486 0.0 -0.0009996189285832735 0.0 0.0
-0.00034906398468959043 1.1678692819427905e-05 0.0 -0.0018694415511741613 0.0 0.0
-0.0007158347627178041 0.00031080812440431593 0.0 -0.002008806377572059 0.0 0.0
-0.0010238660173282899 0.0004926099514889204 0.0 -0.0019280190375623174 0.0 0.0
-0.0013709009370007352 0.0006605217081452341 0.0 -0.001848024454341901 0.0 0.0
-0.0019677517996570804 0.0009989569105215423 0.0 -0.0019777051341644813 0.0 0.0
-0.003181780671893286 0.0018661477525285797 0.0 -0.002541719992792235 0.0 0.0
-0.005272792636571599 0.0036027443357269373 0.0 -0.0037298032711242657 0.0 0.0
-0.008233648533515686 0.0062644168868566386 0.0 -0.00546286351480485 0.0 0.0
-0.011889965313140766 0.00967755095421774 0.0 -0.0074361062462087735 0.0 0.0
-0.016117635182569395 0.013691121011013552 0.0 -0.009406954942425994 0.0 0.0
-0.02089379119169063 0.018266554703477933 0.0 -0.011303696802219876 0.0 0.0
-0.026287351564998673 0.023467942445469347 0.0 -0.013170435597412156 0.0 0.0
-0.03243052046542247 0.029422379232814322 0.0 -0.015102565715407024 0.0 0.0
-0.03941634396138122 0.0362077307607902 0.0 -0.01733554707488283 0.0 0.0
-0.04706695459704477 0.04361733263145684 0.0 -0.020274452463832415 0.0 0.0
-0.05457623095321823 0.05082019274335936 0.0 -0.024214240745280557 0.0 0.0
-0.06015505792548112 0.0560149613889358 0.0 -0.028683865586625834 0.0 0.0
-0.060758415456906675 0.05613570963783676 0.0 -0.03172020496343947 0.0 0.0
-0.05178444686375508 0.04657539213610695 0.0 -0.030697827484142792 0.0 0.0
-0.05178444686375187 0.04657539213610029 0.0 0.030697827484177098 0.0 0.0
-0.06075841545689553 0.05613570963782566 0.0 0.0317202049634846 0.0 0.0
-0.060155057925459346 0.05601496138891848 0.0 0.02868386558665853 0.0 0.0
-0.05457623095318885 0.05082019274333316 0.0 0.024214240745286553 0.0 0.0
-0.04706695459701078 0.04361733263142442 0.0 0.02027445246382703 0.0 0.0
-0.039416343961347064 0.03620773076075068 0.0 0.01733554707487528 0.0 0.0
-0.03243052046538833 0.029422379232781903 0.0 0.015102565715395755 0.0 0.0
-0.026287351564965394 0.02346794244544048 0.0 0.013170435597402275 0.0 0.0
-0.020893791191657587 0.01826655470344396 0.0 0.011303696802206387 0.0 0.0
-0.016117635182537893 0.013691121010980689 0.0 0.009406954942407286 0.0 0.0
-0.011889965313114342 0.009677550954191982 0.0 0.00743610624619051 0.0 0.0
-0.008233648533495744 0.006264416886837765 0.0 0.0054628635147904725 0.0 0.0
-0.005272792636557347 0.0036027443357167233 0.0 0.0037298032711146345 0.0 0.0
-0.003181780671885001 0.0018661477525225845 0.0 0.002541719992786573 0.0 0.0
-0.001967751799653396 0.0009989569105167684 0.0 0.001977705134162344 0.0 0.0
-0.001370900936999618 0.000660521708144568 0.0 0.001848024454340208 0.0 0.0
-0.001023866017327353 0.0004926099514890314 0.0 0.0019280190375612904 0.0 0.0
-0.0007158347627172906 0.0003108081244040384 0.0 0.002008806377570199 0.0 0.0
-0.00034906398468912553 1.1678692819733216e-05 0.0 0.0018694415511715246 0.0 0.0
3.975138096024705e-05 -0.00033331579093836064 0.0 0.0009996189285811363 0.0 0.0
-1.9699229203529178e-05 -0.000200772208375527 0.0 -0.0008089612153680814 0.0 0.0
-0.0003995344249329569 6.326641065551586e-05 0.0 -0.0016226435552716134 0.0 0.0
-0.0008172315176498968 0.00035381835344650003 0.0 -0.0017872460825646697 0.0 0.0
-0.0011956824055915916 0.0005562782245277509 0.0 -0.0016895356614532453 0.0 0.0
-0.0016380270987244594 0.0007867714338000154 0.0 -0.0015931689100222857 0.0 0.0
-0.0024705777899542425 0.0013187600232047458 0.0 -0.00174360880844035 0.0 0.0
-0.00409774047479039 0.0025913309179059762 0.0 -0.002381736837009263 0.0 0.0
-0.006742720072533598 0.004901006334907532 0.0 -0.0036523570670650707 0.0 0.0
-0.010330196964703164 0.008210028130710478 0.0 -0.005351666982045256 0.0 0.0
-0.01472774539355251 0.012359609913115133 0.0 -0.007214554043429022 0.0 0.0
-0.019849807296438926 0.017249614485895348 0.0 -0.0090990876574642 0.0 0.0
-0.02567655210005193 0.02285371992311047 0.0 -0.010915582824145398 0.0 0.0
-0.03228161115423073 0.02924197036284104 0.0 -0.01272023033971259 0.0 0.0
-0.039800330949366663 0.03654932917877618 0.0 -0.014612112654140086 0.0 0.0
-0.048339268354015974 0.04486823099314119 0.0 -0.016689261263169608 0.0 0.0
-0.05773427488227095 0.053990216893145426 0.0 -0.019262794501191394 0.0 0.0
-0.0670397213200026 0.06292944068499651 0.0 -0.022855746729367188 0.0 0.0
-0.07399742174883864 0.06941929367999711 0.0 -0.027464554382541584 0.0 0.0
-0.07484480770832902 0.0697335408075932 0.0 -0.03189943434752074 0.0 0.0
-0.06442511796572234 0.058752510605451835 0.0 -0.03450527359586242 0.0 0.0
-0.06442511796571744 0.05875251060544917 0.0 0.03450527359589722 0.0 0.0
-0.07484480770831453 0.06973354080757854 0.0 0.031899434347564815 0.0 0.0
-0.07399742174881206 0.06941929367996558 0.0 0.027464554382573003 0.0 0.0
-0.06703972131996849 0.06292944068496009 0.0 0.02285574672937518 0.0 0.0
-0.05773427488223168 0.05399021689311123 0.0 0.01926279450118673 0.0 0.0
-0.0483392683539748 0.04486823099311055 0.0 0.01668926126316389 0.0 0.0
-0.03980033094932567 0.036549329178739765 0.0 0.014612112654129927 0.0 0.0
-0.032281611154191064 0.02924197036280507 0.0 0.0127202303397011 0.0 0.0
-0.025676552100012046 0.022853719923072058 0.0 0.01091558282413263 0.0 0.0
-0.019849807296401664 0.017249614485860487 0.0 0.009099087657446964 0.0 0.0
-0.01472774539352123 0.01235960991308449 0.0 0.007214554043412563 0.0 0.0
-0.010330196964678857 0.008210028130685831 0.0 0.005351666982033598 0.0 0.0
-0.006742720072515744 0.004901006334893099 0.0 0.0036523570670562167 0.0 0.0
-0.004097740474779184 0.0025913309178970945 0.0 0.0023817368370026015 0.0 0.0
-0.0024705777899489273 0.0013187600232016372 0.0 0.0017436088084371304 0.0 0.0
-0.0016380270987227871 0.0007867714337996823 0.0 0.0015931689100217583 0.0 0.0
-0.001195682405590516 0.0005562782245271958 0.0 0.0016895356614517187 0.0 0.0
-0.0008172315176493972 0.00035381835344616697 0.0 0.0017872460825634484 0.0 0.0
-0.00039953442493247115 6.326641065576566e-05 0.0 0.0016226435552703367 0.0 0.0
-1.9699229203307134e-05 -0.00020077220837529108 0.0 0.000808961215368359 0.0 0.0
-6.804244696179129e-05 -9.253967731318036e-05 0.0 -0.0006120661251896586 0.0 0.0
-0.00044686712396679873 0.00011479900435634738 0.0 -0.0013387023092166217 0.0 0.0
-0.0009134889206274255 0.00039486627129181606 0.0 -0.0015111921219101154 0.0 0.0
-0.0013602721170003218 0.0006151758672809926 0.0 -0.0014030246624291975 0.0 0.0
-0.0019209938919652336 0.0009309027239967627 0.0 -0.0013010034354254407 0.0 0.0
-0.00303363197713849 0.0017209263073652004 0.0 -0.0014794891581424996 0.0 0.0
-0.005103481206555571 0.003443604653604826 0.0 -0.002163367037244457 0.0 0.0
-0.008255967552758564 0.006287199701973334 0.0 -0.0033478948186669855 0.0 0.0
-0.01243814235311877 0.01019518431429467 0.0 -0.004838742885372782 0.0 0.0
-0.01757483224621531 0.015073091019135454 0.0 -0.0065052548221423145 0.0 0.0
-0.023589672360602526 0.02083748086322701 0.0 -0.008191706943735277 0.0 0.0
-0.030476536619346184 0.02747771016950651 0.0 -0.009824034306559593 0.0 0.0
-0.03831015495187118 0.03506917912908314 0.0 -0.011474514194033003 0.0 0.0
-0.04720805040392828 0.043726649116548 0.0 -0.013203390506802637 0.0 0.0
-0.05724209312684092 0.05351696766617575 0.0 -0.015002923465925466 0.0 0.0
-0.06824073122744123 0.06422662285461289 0.0 -0.01693522163079908 0.0 0.0
-0.0792260030135 0.07479914561391166 0.0 -0.019582822044537207 0.0 0.0
-0.08760791925379968 0.08264026464946417 0.0 -0.02396560352942778 0.0 0.0
-0.08897111420536741 0.08340909445240019 0.0 -0.03040905834586688 0.0 0.0
-0.07744693812545217 0.07131891494361176 0.0 -0.03817866777979306 0.0 0.0
-0.07744693812544647 0.07131891494360731 0.0 0.03817866777982709 0.0 0.0
-0.08897111420534956 0.08340909445238642 0.0 0.030409058345905626 0.0 0.0
-0.08760791925376832 0.08264026464944108 0.0 0.023965603529455592 0.0 0.0
-0.07922600301346006 0.0747991456138748 0.0 0.01958282204454448 0.0 0.0
-0.0682407312273967 0.0642266228545676 0.0 0.016935221630798636 0.0 0.0
-0.057242093126792674 0.05351696766612646 0.0 0.015002923465922413 0.0 0.0
-0.04720805040388093 0.043726649116500926 0.0 0.013203390506794588 0.0 0.0
-0.038310154951825104 0.03506917912903429 0.0 0.011474514194023872 0.0 0.0
-0.03047653661929968 0.027477710169461655 0.0 0.009824034306549073 0.0 0.0
-0.023589672360559408 0.020837480863185265 0.0 0.008191706943719262 0.0 0.0
-0.017574832246179513 0.015073091019099705 0.0 0.00650525482212741 0.0 0.0
-0.012438142353090306 0.010195184314266692 0.0 0.004838742885362679 0.0 0.0
-0.008255967552737047 0.006287199701953128 0.0 0.0033478948186584923 0.0 0.0
-0.005103481206541756 0.003443604653591281 0.0 0.0021633670372386005 0.0 0.0
-0.00303363197713169 0.0017209263073597603 0.0 0.0014794891581385028 0.0 0.0
-0.0019209938919629854 0.0009309027239928769 0.0 0.0013010034354239142 0.0 0.0
-0.0013602721169991491 0.0006151758672793273 0.0 0.0014030246624283094 0.0 0.0
-0.0009134889206266622 0.0003948662712919271 0.0 0.0015111921219106428 0.0 0.0
-0.0004468671239663477 0.00011479900435631962 0.0 0.0013387023092168993 0.0 0.0
-6.804244696169415e-05 -9.253967731303638e-05 0.0 0.000612066125189964 0.0 0.0
-0.00010157310965294708 -1.171367629179687e-05 0.0 -0.00041061626996680145 0.0 0.0
-0.00048618861255755874 0.00016262028941327333 0.0 -0.0010200968701516155 0.0 0.0
-0.0010048848193624504 0.00043251183424963813 0.0 -0.001179233198022378 0.0 0.0
-0.0015240383371359079 0.0006772857729119286 0.0 -0.0010709393904739517 0.0 0.0
-0.002233965634168278 0.0011123610766966552 0.0 -0.0009768495679830513 0.0 0.0
-0.0036727707820982114 0.0022154290844276225 0.0 -0.001186576250820054 0.0 0.0
-0.0061625060360195605 0.004377916370958301 0.0 -0.0017909228463580118 0.0 0.0
-0.009777115734486419 0.00770702689963243 0.0 -0.0027461482759739697 0.0 0.0
-0.014545024256541167 0.012198821586447472 0.0 -0.003960238638027858 0.0 0.0
-0.020412563202155065 0.017794814930747638 0.0 -0.005322865884228756 0.0 0.0
-0.027321466366540453 0.024433064028170692 0.0 -0.006707362761287805 0.0 0.0
-0.035276863009479964 0.03211855000582009 0.0 -0.008045015928343113 0.0 0.0
-0.04435357368662424 0.04092541183243581 0.0 -0.009406455886283638 0.0 0.0
-0.054637264258648455 0.05093714007594885 0.0 -0.010883896127009685 0.0 0.0
-0.06611017685042286 0.06213301308244512 0.0 -0.012352631341052578 0.0 0.0
-0.07850789438835032 0.07422772052544202 0.0 -0.013500306493762881 0.0 0.0
-0.09092925926625442 0.08624694428818236 0.0 -0.014666833034887583 0.0 0.0
-0.10087873556304597 0.09558245036294322 0.0 -0.018170939312347034 0.0 0.0
-0.10330119615574958 0.09731582832760033 0.0 -0.026856649248412467 0.0 0.0
-0.09124085193127636 0.08462650784552483 0.0 -0.041430510553916 0.0 0.0
-0.09124085193126985 0.0846265078455204 0.0 0.04143051055394342 0.0 0.0
-0.10330119615572818 0.09731582832758034 0.0 0.02685664924844644 0.0 0.0
-0.10087873556300955 0.09558245036290902 0.0 0.018170939312372403 0.0 0.0
-0.09092925926620872 0.08624694428814106 0.0 0.014666833034891413 0.0 0.0
-0.07850789438829925 0.07422772052539361 0.0 0.013500306493762215 0.0 0.0
-0.0661101768503681 0.06213301308238828 0.0 0.012352631341050718 0.0 0.0
-0.05463726425859476 0.05093714007589689 0.0 0.010883896127002496 0.0 0.0
-0.04435357368657096 0.04092541183238518 0.0 0.009406455886276699 0.0 0.0
-0.035276863009427534 0.03211855000576813 0.0 0.008045015928337701 0.0 0.0
-0.027321466366491853 0.024433064028121176 0.0 0.006707362761273761 0.0 0.0
-0.0204125632021147 0.017794814930708114 0.0 0.005322865884213962 0.0 0.0
-0.014545024256508426 0.0121988215864135 0.0 0.003960238638019614 0.0 0.0
-0.009777115734461658 0.007707026899605562 0.0 0.0027461482759663924 0.0 0.0
-0.0061625060360029835 0.004377916370943868 0.0 0.0017909228463533489 0.0 0.0
-0.0036727707820897633 0.0022154290844210722 0.0 0.001186576250817556 0.0 0.0
-0.002233965634165183 0.0011123610766936576 0.0 0.0009768495679816636 0.0 0.0
-0.0015240383371345513 0.0006772857729100412 0.0 0.0010709393904730635 0.0 0.0
-0.0010048848193616074 0.0004325118342495826 0.0 0.0011792331980222115 0.0 0.0
-0.00048618861255704526 0.00016262028941327333 0.0 0.001020096870151338 0.0 0.0
-0.00010157310965279442 -1.1713676291847178e-05 0.0 0.0004106162699665794 0.0 0.0
-0.00011388295838438145 3.772604164581361e-05 0.0 -0.00021130426034110528 0.0 0.0
-0.0005088192645996414 0.00020094333122289143 0.0 -0.0006664163604547246 0.0 0.0
-0.001092394391673135 0.0004669109735740973 0.0 -0.0007848264790612514 0.0 0.0
-0.001697884009494277 0.0007491077565243698 0.0 -0.0006966435006434957 0.0 0.0
-0.0025966008554533793 0.0013564570945717724 0.0 -0.000638088884470811 0.0 0.0
-0.004377666911447725 0.002797679001493414 0.0 -0.0008127242596064066 0.0 0.0
-0.0072363158293713425 0.005358236043216058 0.0 -0.0012415977394710787 0.0 0.0
-0.011296821241501886 0.009141332048177686 0.0 -0.0018874926925333546 0.0 0.0
-0.01663323800503888 0.01420029690884328 0.0 -0.0027234927417685295 0.0 0.0
-0.023223547530814626 0.020504787427143123 0.0 -0.0036767889823606237 0.0 0.0
-0.031028455307993502 0.028017698517534884 0.0 -0.004643737099857659 0.0 0.0
-0.04006162926089557 0.03675660054685492 0.0 -0.005578824846510511 0.0 0.0
-0.05039280510874214 0.04678997987158917 0.0 -0.006563976570269747 0.0 0.0
-0.06205716569168129 0.05814906733828673 0.0 -0.007624831803139442 0.0 0.0
-0.07492567486213014 0.07070001983666874 0.0 -0.008617543590672239 0.0 0.0
-0.08855934101607599 0.08400258333130406 0.0 -0.009168707285641231 0.0 0.0
-0.10203191390817393 0.09710748117102153 0.0 -0.00898040197412342 0.0 0.0
-0.11339330489890573 0.10794402236454426 0.0 -0.010098221207788138 0.0 0.0
-0.11792947967186461 0.11152459201935017 0.0 -0.019930191555838472 0.0 0.0
-0.10639968944770459 0.09921335176252377 0.0 -0.043530658962093516 0.0 0.0
-0.10639968944769694 0.09921335176251445 0.0 0.043530658962111224 0.0 0.0
-0.11792947967183938 0.11152459201932308 0.0 0.019930191555862897 0.0 0.0
-0.11339330489886432 0.10794402236450162 0.0 0.010098221207806013 0.0 0.0
-0.10203191390812218 0.09710748117097312 0.0 0.008980401974125696 0.0 0.0
-0.08855934101601796 0.08400258333125077 0.0 0.009168707285639538 0.0 0.0
-0.07492567486206919 0.07070001983661234 0.0 0.008617543590672211 0.0 0.0
-0.0620571656916212 0.05814906733822722 0.0 0.007624831803136334 0.0 0.0
-0.050392805108681805 0.04678997987153011 0.0 0.006563976570264307 0.0 0.0
-0.04006162926083702 0.03675660054679675 0.0 0.005578824846506458 0.0 0.0
-0.03102845530793971 0.028017698517485812 0.0 0.004643737099848749 0.0 0.0
-0.023223547530769648 0.020504787427098714 0.0 0.003676788982351381 0.0 0.0
-0.016633238005002562 0.014200296908806642 0.0 0.0027234927417641164 0.0 0.0
-0.011296821241474252 0.009141332048154593 0.0 0.001887492692527304 0.0 0.0
-0.007236315829351976 0.005358236043201847 0.0 0.0012415977394665823 0.0 0.0
-0.004377666911437539 0.002797679001483311 0.0 0.0008127242596058792 0.0 0.0
-0.0025966008554491778 0.001356457094569108 0.0 0.0006380888844712551 0.0 0.0
-0.0016978840094928685 0.000749107756525591 0.0 0.0006966435006433569 0.0 0.0
-0.0010923943916722814 0.00046691097357454137 0.0 0.0007848264790604742 0.0 0.0
-0.0005088192645990031 0.00020094333122230856 0.0 0.000666416360454225 0.0 0.0
-0.00011388295838425655 3.772604164607035e-05 0.0 0.00021130426034135508 0.0 0.0
-9.349934299635043e-05 5.006716188682425e-05 0.0 -3.0182905863290754e-05 0.0 0.0
-0.0005002108701259722 0.00022078687545962206 0.0 -0.0002711520726149108 0.0 0.0
-0.0011792767944389382 0.0004987248990624416 0.0 -0.00031353577845771863 0.0 0.0
-0.0019009783640948352 0.0008514496151801332 0.0 -0.0002884839375988657 0.0 0.0
-0.0030209873087320704 0.001663883176694192 0.0 -0.0002645590259727215 0.0 0.0
-0.0051174537043499335 0.003432419471065984 0.0 -0.000331727893437439 0.0 0.0
-0.008315079878592646 0.006359690252807582 0.0 -0.0005103735552780542 0.0 0.0
-0.012798474070922217 0.010572528748580279 0.0 -0.0007739686887126562 0.0 0.0
-0.01868612174780593 0.016178626444771416 0.0 -0.0011368446592475712 0.0 0.0
-0.025989214864027 0.02318189606978538 0.0 -0.0015664620835552645 0.0 0.0
-0.03469476283480846 0.03157484467077287 0.0 -0.002005193169135333 0.0 0.0
-0.0448203038422445 0.041379529065423526 0.0 -0.002449787510574175 0.0 0.0
-0.05639953613876603 0.05263285973538956 0.0 -0.002913081527890604 0.0 0.0
-0.06942164196739334 0.06531721468991636 0.0 -0.0033807705165915802 0.0 0.0
-0.0836619198478652 0.0791998777629459 0.0 -0.0037772963156108563 0.0 0.0
-0.09847544193517951 0.09363868599071079 0.0 -0.0038605228158634652 0.0 0.0
-0.11270434621514344 0.10749432929484559 0.0 -0.0032343258752115522 0.0 0.0
-0.12467916603330179 0.11908852627470035 0.0 -0.0020036306406643334 0.0 0.0
-0.13157262231527983 0.12537355648305892 0.0 -0.006788833136186168 0.0 0.0
-0.12463207453860227 0.11635612952718866 0.0 -0.04013862625121595 0.0 0.0
-0.1246320745385936 0.11635612952717755 0.0 0.040138626251224274 0.0 0.0
-0.13157262231525144 0.1253735564830296 0.0 0.0067888331361982135 0.0 0.0
-0.12467916603325399 0.11908852627465993 0.0 0.0020036306406737703 0.0 0.0
-0.1127043462150844 0.10749432929478653 0.0 0.003234325875211358 0.0 0.0
-0.09847544193511479 0.09363868599064507 0.0 0.003860522815863965 0.0 0.0
-0.08366191984779818 0.07919987776288195 0.0 0.003777296315611328 0.0 0.0
-0.06942164196732613 0.06531721468985063 0.0 0.0033807705165894986 0.0 0.0
-0.05639953613869915 0.05263285973532694 0.0 0.002913081527889605 0.0 0.0
-0.04482030384217974 0.04137952906536202 0.0 0.002449787510571566 0.0 0.0
-0.03469476283474916 0.031574844670713365 0.0 0.002005193169130226 0.0 0.0
-0.025989214863977306 0.023181896069737418 0.0 0.0015664620835500465 0.0 0.0
-0.018686121747766803 0.01617862644473189 0.0 0.0011368446592459613 0.0 0.0
-0.01279847407089125 0.010572528748548526 0.0 0.0007739686887109631 0.0 0.0
-0.00831507987857073 0.006359690252786487 0.0 0.0005103735552757782 0.0 0.0
-0.005117453704337953 0.003432419471051662 0.0 0.00033172789343549614 0.0 0.0
-0.0030209873087267075 0.0016638831766887519 0.0 0.00026455902597263825 0.0 0.0
-0.0019009783640933347 0.000851449615179245 0.0 0.00028848393759853264 0.0 0.0
-0.0011792767944378817 0.0004987248990626636 0.0 0.0003135357784576631 0.0 0.0
-0.0005002108701251968 0.00022078687545948328 0.0 0.00027115207261591 0.0 0.0
-9.349934299625502e-05 5.006716188672364e-05 0.0 3.0182905864678533e-05 0.0 0.0
SCALARS Statev float 8
LOOKUP_TABLE default
0.0 0.011184255521587218 0.008580100502761279 -0.008963630282800018 0.0003835297800387386 -0.004886315699230917 0.0 0.0
0.0 0.0004509971720990623 0.00029151882564882985 -0.00023660165860444997 -5.491716704437985e-05 0.0003017761016650335 0.0 0.0
0.0 3.342380937738801e-05 -4.754075056001044e-06 3.773145031477424e-06 9.809300245235895e-07 5.62033213615258e-07 0.0 0.0
0.0 0.0001608970692003842 8.690035571636616e-05 -6.776226543619653e-05 -1.9138090280169722e-05 -1.1863009194070164e-05 0.0 0.0
0.0 0.0010053195384427654 0.0007581578832046061 -0.0006147433092847359 -0.00014341457391987033 -8.384980474262826e-05 0.0 0.0
0.0 0.0027546372818136444 0.0025235060004197866 -0.0021516918096553864 -0.0003718141907644004 -0.0002070364304357735 0.0 0.0
0.0 0.0060465767833678425 0.005447142642942183 -0.004882183466441115 -0.000564959176501067 -0.0003845004283063259 0.0 0.0
0.0 0.01090071721397284 0.009695584724637558 -0.008990295215159802 -0.0007052895094777534 -0.0006357023260657765 0.0 0.0
0.0 0.017414537665194272 0.01535174652777889 -0.014535106665390044 -0.0008166398623888437 -0.0009798496924902068 0.0 0.0
0.0 0.02559585711063796 0.02242638820585753 -0.021504381171277502 -0.0009220070345800275 -0.0013955114385177292 0.0 0.0
0.0 0.035463374953401655 0.030918445363922444 -0.029889855277015716 -0.0010285900869067286 -0.0018319337128901237 0.0 0.0
0.0 0.04676289510564205 0.040855980402869085 -0.03971844599212163 -0.0011375344107474425 -0.0022808560036857426 0.0 0.0
0.0 0.059839876799037246 0.05227096242905315 -0.051023202843434215 -0.001247759585618891 -0.002745285237263309 0.0 0.0
0.0 0.07469662902054426 0.06516735368823624 -0.06380675055349891 -0.0013606031347373003 -0.0032247201789285963 0.0 0.0
0.0 0.09109800128688529 0.07939654342589512 -0.07791856963175775 -0.0014779737941373458 -0.0037174784072718254 0.0 0.0
0.0 0.10855238633942174 0.09450218617010642 -0.09290275014503388 -0.001599436025072542 -0.004139693961962173 0.0 0.0
0.0 0.12605966728963908 0.10964668297498557 -0.10792531401429199 -0.0017213689606935816 -0.004304414691331453 0.0 0.0
0.0 0.1422312756163174 0.12364375967571346 -0.12180565668892022 -0.0018381029867932345 -0.00397271832837129 0.0 0.0
0.0 0.1554185662560291 0.13506428636270357 -0.133120319883695 -0.0019439664790085356 -0.003196334880729276 0.0 0.0
0.0 0.16330537917351415 0.14203504561979072 -0.13996158270565973 -0.0020734629141310086 -0.003009418141599105 0.0 0.0
0.0 0.16330537917350577 0.14203504561978314 -0.13996158270565257 -0.002073462914130561 0.0030094181416041857 0.0 0.0
0.0 0.15541856625599842 0.13506428636267676 -0.13312031988366863 -0.0019439664790080922 0.003196334880746675 0.0 0.0
0.0 0.14223127561626686 0.12364375967566932 -0.12180565668887715 -0.0018381029867921292 0.003972718328378498 0.0 0.0
0.0 0.12605966728957604 0.10964668297493041 -0.10792531401423816 -0.0017213689606922062 0.004304414691336013 0.0 0.0
0.0 0.10855238633935681 0.09450218617004955 -0.0929027501449785 -0.0015994360250710475 0.004139693961953846 0.0 0.0
0.0 0.09109800128681578 0.0793965434258347 -0.07791856963169783 -0.0014779737941368774 0.003717478407273608 0.0 0.0
0.0 0.07469662902046983 0.06516735368817188 -0.06380675055343459 -0.0013606031347373 0.0032247201789276083 0.0 0.0
0.0 0.05983987679896412 0.05227096242898961 -0.051023202843371335 -0.0012477595856182789 0.002745285237263358 0.0 0.0
0.0 0.04676289510557305 0.04085598040280891 -0.0397184459920625 -0.0011375344107464101 0.002280856003680703 0.0 0.0
0.0 0.03546337495334094 0.030918445363869274 -0.029889855276963345 -0.0010285900869059176 0.0018319337128876313 0.0 0.0
0.0 0.025595857110587136 0.022426388205813212 -0.021504381171234065 -0.0009220070345791483 0.0013955114385125003 0.0 0.0
0.0 0.01741453766515467 0.015351746527743876 -0.014535106665355627 -0.0008166398623882533 0.0009798496924884467 0.0 0.0
0.0 0.010900717213942984 0.009695584724610726 -0.008990295215133597 -0.0007052895094771291 0.0006357023260636069 0.0 0.0
0.0 0.006046576783348538 0.005447142642924425 -0.0048821834664242395 -0.0005649591765001833 0.0003845004283054109 0.0 0.0
0.0 0.002754637281802335 0.0025235060004089936 -0.0021516918096456 -0.0003718141907633934 0.0002070364304348166 0.0 0.0
0.0 0.0010053195384381868 0.0007581578832009916 -0.0006147433092817199 -0.0001434145739192714 8.384980474228017e-05 0.0 0.0
0.0 0.00016089706919903413 8.69003557160847e-05 -6.776226543597063e-05 -1.9138090280114112e-05 1.1863009194008325e-05 0.0 0.0
0.0 3.342380937687491e-05 -4.754075055922566e-06 3.7731450314146314e-06 9.80930024507978e-07 -5.620332136057866e-07 0.0 0.0
0.0 0.00045099717209668203 0.0002915188256474977 -0.00023660165860335384 -5.491716704414408e-05 -0.00030177610166346223 0.0 0.0
0.0 0.011184255521570527 0.008580100502750036 -0.008963630282787745 0.00038352978003770724 0.004886315699205694 0.0 0.0
0.0 0.008096322835202188 0.005822893511822601 -0.006305741755823455 0.000482848244000852 -0.005525801103666017 0.0 0.0
0.0 9.735811856412316e-08 -9.785169814275069e-09 7.955171207828274e-09 1.8299986064463344e-09 -7.27040002772591e-09 0.0 0.0
0.0 9.430826945183483e-08 -1.020951514236367e-08 7.758883502814768e-09 2.450631639548195e-09 3.6392644398315674e-09 0.0 0.0
0.0 4.6836667484373644e-05 1.3400575910406717e-05 -1.0471617070894011e-05 -2.928958839512939e-06 -6.1370650124436375e-06 0.0 0.0
0.0 0.000629035704216394 0.0004268395154898671 -0.0003424449569458601 -8.439455854400696e-05 -0.00011553141430225894 0.0 0.0
0.0 0.0020447733335193894 0.001875819054987883 -0.0015748767270556546 -0.0003009423279322285 -0.00041295171630085 0.0 0.0
0.0 0.004941802774524129 0.004451603473564844 -0.003938365881410485 -0.0005132375921543572 -0.000868298476425152 0.0 0.0
0.0 0.00930682663023593 0.00827198202457963 -0.007601995633012189 -0.0006699863915674419 -0.0014925117204389162 0.0 0.0
0.0 0.015181679184352042 0.013378038089943818 -0.01259117244773325 -0.0007868656422105659 -0.002297474721377113 0.0 0.0
0.0 0.022533603726722435 0.019743808249847606 -0.018853574141875343 -0.0008902341079722683 -0.003232781275521825 0.0 0.0
0.0 0.03132712754914912 0.027340940783928864 -0.02635007665391508 -0.0009908641300137692 -0.004205173700107035 0.0 0.0
0.0 0.04163180310423894 0.036192675370034545 -0.035101583836652586 -0.0010910915333819638 -0.005161391264704297 0.0 0.0
0.0 0.05323968064640899 0.04637464217464748 -0.045182264555148455 -0.0011923776194990138 -0.006166123542786722 0.0 0.0
0.0 0.06648514163594349 0.0579173372398331 -0.05662123845781695 -0.001296098782016124 -0.0072498585731414125 0.0 0.0
0.0 0.0812265680446294 0.07069969584839934 -0.06929633204029817 -0.0014033638081011814 -0.008355688915952078 0.0 0.0
0.0 0.09694118967339217 0.08433312143387509 -0.08281926264802006 -0.001513858785855013 -0.009310443250861576 0.0 0.0
0.0 0.11279515760337944 0.09808587541417729 -0.09646062576210909 -0.0016252496520681738 -0.009725760102735638 0.0 0.0
0.0 0.12755914726416134 0.11088656216471676 -0.10915212253891897 -0.001734439625797795 -0.009176023322723284 0.0 0.0
0.0 0.13954850634330082 0.12129727831815688 -0.11945092921310724 -0.0018463491050496623 -0.0076503779442829364 0.0 0.0
0.0 0.1466938683025562 0.12752425669610154 -0.12559443492669659 -0.0019298217694049833 -0.005026391248414105 0.0 0.0
0.0 0.14669386830254755 0.12752425669609385 -0.12559443492668884 -0.0019298217694050232 0.005026391248430809 0.0 0.0
0.0 0.13954850634327462 0.1212972783181336 -0.11945092921308423 -0.0018463491050494058 0.007650377944313221 0.0 0.0
0.0 0.12755914726411915 0.1108865621646795 -0.10915212253888247 -0.0017344396257970122 0.009176023322741752 0.0 0.0
0.0 0.11279515760332451 0.09808587541412919 -0.0964606257620618 -0.0016252496520673047 0.009725760102745198 0.0 0.0
0.0 0.0969411896733286 0.08433312143381984 -0.0828192626479658 -0.0015138587858540315 0.009310443250854363 0.0 0.0
0.0 0.08122656804456524 0.07069969584834321 -0.0692963320402433 -0.0014033638080999057 0.008355688915951062 0.0 0.0
0.0 0.06648514163587674 0.057917337239775046 -0.05662123845775962 -0.0012960987820154048 0.007249858573139176 0.0 0.0
0.0 0.05323968064634553 0.04637464217459216 -0.045182264555094 -0.001192377619498162 0.006166123542784228 0.0 0.0
0.0 0.04163180310417809 0.03619267536998158 -0.035101583836600156 -0.0010910915333814013 0.005161391264697264 0.0 0.0
0.0 0.03132712754909318 0.027340940783880205 -0.026350076653866947 -0.0009908641300132512 0.004205173700100168 0.0 0.0
0.0 0.02253360372667657 0.01974380824980752 -0.018853574141835746 -0.0008902341079717701 0.0032327812755126445 0.0 0.0
0.0 0.015181679184317315 0.013378038089912829 -0.012591172447702897 -0.0007868656422099267 0.002297474721372819 0.0 0.0
0.0 0.009306826630209998 0.008271982024556434 -0.007601995632989756 -0.0006699863915666798 0.0014925117204344404 0.0 0.0
0.0 0.004941802774507929 0.004451603473549874 -0.003938365881396418 -0.0005132375921534571 0.0008682984764224828 0.0 0.0
0.0 0.002044773333508883 0.001875819054978392 -0.0015748767270472779 -0.0003009423279311137 0.00041295171629879355 0.0 0.0
0.0 0.0006290357042115814 0.0004268395154863606 -0.000342444956942965 -8.439455854339573e-05 0.00011553141430131758 0.0 0.0
0.0 4.683666748380782e-05 1.3400575910537252e-05 -1.0471617070989474e-05 -2.928958839547639e-06 6.137065012462755e-06 0.0 0.0
0.0 9.430826938068039e-08 -1.0209515134588993e-08 7.758883496907494e-09 2.4506316376819497e-09 -3.6392644370560787e-09 0.0 0.0
0.0 9.735811846572097e-08 -9.78516980428818e-09 7.9551711997036e-09 1.8299986045861706e-09 7.270400020323914e-09 0.0 0.0
0.0 0.00809632283518314 0.0058228935118099625 -0.006305741755810043 0.00048284824400008156 0.005525801103644326 0.0 0.0
0.0 0.006016185297076048 0.0040855842662873305 -0.004578631725761586 0.0004930474594742559 -0.004770047583821478 0.0 0.0
0.0 0.0 0.0 0.0 0.0 0.0 0.0 0.0
0.0 0.0 0.0 0.0 0.0 0.0 0.0 0.0
0.0 6.631000026402495e-06 3.1195777859356414e-06 -2.425713578185987e-06 -6.938642077496746e-07 -2.196347835333106e-06 0.0 0.0
0.0 0.00030106062676374455 0.00020058691358885148 -0.00015930422644337726 -4.128268714547416e-05 -9.798220861306295e-05 0.0 0.0
0.0 0.0015566731541257386 0.0012588655831056784 -0.0010408153301559762 -0.00021805025294970108 -0.0004823709951001447 0.0 0.0
0.0 0.003880458277244219 0.0034778877169604535 -0.003028338265401564 -0.000449549451558891 -0.0011579285553161719 0.0 0.0
0.0 0.007733819411338933 0.006848500960204299 -0.006224217691318599 -0.0006242832688856998 -0.002095671666656359 0.0 0.0
0.0 0.012977402934719906 0.01138501305906793 -0.010634337624495437 -0.0007506754345724914 -0.003271128109414652 0.0 0.0
0.0 0.019516602568765556 0.01703191997348092 -0.01617843760248181 -0.0008534823709991058 -0.004614062753861039 0.0 0.0
0.0 0.027313579562966952 0.023737322601859224 -0.02278895245047601 -0.0009483701513832105 -0.00600930392531947 0.0 0.0
0.0 0.0362966409227084 0.03151880064289157 -0.030478038101482086 -0.0010407625414094882 -0.007383190070921356 0.0 0.0
0.0 0.046728449316439484 0.040456868487000905 -0.03932369925455413 -0.0011331692324467874 -0.0087915412678972 0.0 0.0
0.0 0.05835718007876937 0.050623558882071075 -0.049396032250838016 -0.0012275266312330385 -0.010331702807540036 0.0 0.0
0.0 0.07137026260002985 0.06194014996170097 -0.0606157921625335 -0.001324357799167439 -0.011941792903119789 0.0 0.0
0.0 0.08539195687668528 0.07409162364863789 -0.07266800095883788 -0.0014236226897999908 -0.013328666941508494 0.0 0.0
0.0 0.09963061250233071 0.08646437375821282 -0.08493988961398675 -0.0015244841442260228 -0.014001365016833375 0.0 0.0
0.0 0.11295562871307988 0.09809082101505179 -0.09646233412485151 -0.0016284868902002344 -0.013412449736081971 0.0 0.0
0.0 0.12381864123806419 0.1076065596538322 -0.10587877515513136 -0.0017277844987007946 -0.01111111043073616 0.0 0.0
0.0 0.130452555052675 0.11346761975398892 -0.11167018520619908 -0.001797434547789777 -0.006520247581759644 0.0 0.0
0.0 0.13045255505266756 0.11346761975398191 -0.11167018520619248 -0.0017974345477893637 0.00652024758178579 0.0 0.0
0.0 0.1238186412380406 0.10760655965381058 -0.10587877515511013 -0.0017277844987004431 0.011111110430775624 0.0 0.0
0.0 0.1129556287130421 0.0980908210150179 -0.09646233412481804 -0.0016284868901997652 0.013412449736109989 0.0 0.0
0.0 0.09963061250228324 0.08646437375817098 -0.08493988961394539 -0.00152448414422561 0.014001365016845554 0.0 0.0
0.0 0.08539195687662941 0.07409162364858989 -0.07266800095878978 -0.0014236226898000854 0.013328666941501206 0.0 0.0
0.0 0.07137026259997328 0.06194014996165165 -0.06061579216248485 -0.001324357799166824 0.011941792903116982 0.0 0.0
0.0 0.05835718007871451 0.05062355888202289 -0.04939603225079113 -0.0012275266312317486 0.010331702807537748 0.0 0.0
0.0 0.04672844931638329 0.040456868486951805 -0.03932369925450588 -0.0011331692324459165 0.008791541267892408 0.0 0.0
0.0 0.03629664092265149 0.031518800642842404 -0.030478038101433454 -0.0010407625414089409 0.007383190070909857 0.0 0.0
0.0 0.02731357956291779 0.023737322601816227 -0.022788952450433525 -0.0009483701513826969 0.006009303925309314 0.0 0.0
0.0 0.019516602568725883 0.017031919973446087 -0.0161784376024477 -0.0008534823709983851 0.0046140627538490565 0.0 0.0
0.0 0.012977402934688798 0.011385013059040511 -0.010634337624468602 -0.0007506754345719051 0.003271128109407431 0.0 0.0
0.0 0.007733819411316385 0.006848500960184181 -0.006224217691299227 -0.0006242832688849555 0.0020956716666500393 0.0 0.0
0.0 0.0038804582772300937 0.0034778877169475714 -0.0030283382653896952 -0.0004495494515578764 0.0011579285553121462 0.0 0.0
0.0 0.0015566731541178161 0.0012588655830991701 -0.0010408153301503925 -0.00021805025294877682 0.00048237099509763773 0.0 0.0
0.0 0.000301060626761968 0.0002005869135879743 -0.00015930422644265928 -4.12826871453149e-05 9.798220861252978e-05 0.0 0.0
0.0 6.631000026134659e-06 3.1195777862241417e-06 -2.4257135784095055e-06 -6.938642078146559e-07 2.1963478355232114e-06 0.0 0.0
0.0 0.0 0.0 0.0 0.0 0.0 0.0 0.0
0.0 0.0 0.0 0.0 0.0 0.0 0.0 0.0
0.0 0.0060161852970595725 0.004085584266276008 -0.00457863172574947 0.0004930474594734626 0.00477004758380336 0.0 0.0
0.0 0.004411952059793648 0.0028624416866207215 -0.0033115985089620637 0.00044915682234134035 -0.0036881583931600917 0.0 0.0
0.0 0.0 0.0 0.0 0.0 0.0 0.0 0.0
0.0 0.0 0.0 0.0 0.0 0.0 0.0 0.0
0.0 1.7764958665315978e-06 -1.7819784007305854e-07 1.3787375697884427e-07 4.03240830942293e-08 1.8782013220909485e-07 0.0 0.0
0.0 0.00011737998025411383 7.084972581266584e-05 -5.598101097301864e-05 -1.4868714839647074e-05 -5.63925600418539e-05 0.0 0.0
0.0 0.000996621357158682 0.0007599963672836885 -0.0006189971468031507 -0.00014099922048053796 -0.0004450164822522252 0.0 0.0
0.0 0.002923574689412387 0.0025396405780761925 -0.0021720324392521654 -0.0003676081388240272 -0.0012542266929051657 0.0 0.0
0.0 0.006203977145581475 0.005442343218384953 -0.004876200410022201 -0.000566142808362753 -0.002437223128489211 0.0 0.0
0.0 0.010794621243191943 0.009392374723810628 -0.008687334866313174 -0.0007050398574974546 -0.003893016080936031 0.0 0.0
0.0 0.016513906735849994 0.01431204574397693 -0.013502018377085978 -0.0008100273668909454 -0.005540348530689303 0.0 0.0
0.0 0.02329634457890956 0.020127598809878116 -0.019226949602461154 -0.0009006492074169615 -0.007240801974013656 0.0 0.0
0.0 0.03112543730129501 0.026843465132368557 -0.025857466201301537 -0.000985998931067018 -0.008920424217537701 0.0 0.0
0.0 0.04007686068231468 0.03454542964218298 -0.033475840928462106 -0.0010695887137208706 -0.010651390562734814 0.0 0.0
0.0 0.05029670173905972 0.04332256330761894 -0.04216783380006184 -0.0011547295075570957 -0.012499801015264394 0.0 0.0
0.0 0.06171414483965354 0.053148826504595986 -0.05190780643293258 -0.0012410200716633914 -0.014427668650371445 0.0 0.0
0.0 0.07384104783352789 0.0637991961008462 -0.06247054743851126 -0.001328648662334919 -0.01616032909033084 0.0 0.0
0.0 0.08647117568611086 0.07477461520518919 -0.0733552243873354 -0.0014193908178537766 -0.017115595131867067 0.0 0.0
0.0 0.09842758235656467 0.08524056010925668 -0.08372721193163969 -0.0015133481776170188 -0.01656747975893289 0.0 0.0
0.0 0.10832446092189865 0.09399803941429474 -0.09239569425616652 -0.0016023451581282009 -0.013718726915102402 0.0 0.0
0.0 0.11463583786182516 0.09967964598450217 -0.09801404489875924 -0.0016656010857429122 -0.007736590625365529 0.0 0.0
0.0 0.1146358378618161 0.09967964598449369 -0.09801404489875096 -0.0016656010857427617 0.007736590625398574 0.0 0.0
0.0 0.1083244609218761 0.09399803941427355 -0.09239569425614519 -0.0016023451581283587 0.013718726915148933 0.0 0.0
0.0 0.09842758235653398 0.08524056010922823 -0.08372721193161178 -0.0015133481776164299 0.016567479758964554 0.0 0.0
0.0 0.08647117568607006 0.07477461520515258 -0.07335522438729941 -0.001419390817853206 0.017115595131882703 0.0 0.0
0.0 0.07384104783347978 0.06379919610080467 -0.06247054743847008 -0.0013286486623345778 0.016160329090323798 0.0 0.0
0.0 0.06171414483960043 0.053148826504550314 -0.05190780643288664 -0.0012410200716636514 0.014427668650365303 0.0 0.0
0.0 0.05029670173900839 0.043322563307574495 -0.04216783380001732 -0.00115472950755718 0.012499801015259018 0.0 0.0
0.0 0.040076860682267346 0.0345454296421416 -0.03347584092842129 -0.0010695887137203133 0.01065139056272907 0.0 0.0
0.0 0.031125437301248848 0.026843465132328374 -0.02585746620126196 -0.0009859989310664022 0.0089204242175254 0.0 0.0
0.0 0.02329634457886618 0.02012759880984018 -0.01922694960242393 -0.0009006492074162661 0.007240801974001197 0.0 0.0
0.0 0.016513906735811 0.014312045743943506 -0.013502018377052942 -0.0008100273668905535 0.0055403485306732446 0.0 0.0
0.0 0.010794621243163854 0.00939237472378602 -0.008687334866289264 -0.0007050398574967536 0.0038930160809267237 0.0 0.0
0.0 0.0062039771455606706 0.005442343218366623 -0.004876200410004713 -0.0005661428083619077 0.002437223128481272 0.0 0.0
0.0 0.0029235746893994845 0.0025396405780649927 -0.0021720324392420017 -0.00036760813882298984 0.0012542266929001364 0.0 0.0
0.0 0.000996621357151813 0.0007599963672787432 -0.0006189971467989949 -0.00014099922047974836 0.00044501648224926354 0.0 0.0
0.0 0.00011737998025277284 7.084972581240573e-05 -5.598101097279604e-05 -1.4868714839609778e-05 5.639256004160435e-05 0.0 0.0
0.0 1.7764958662467406e-06 -1.7819784004332652e-07 1.3787375695581053e-07 4.032408308752122e-08 -1.8782013217738892e-07 0.0 0.0
0.0 0.0 0.0 0.0 0.0 0.0 0.0 0.0
0.0 0.0 0.0 0.0 0.0 0.0 0.0 0.0
0.0 0.0044119520597790465 0.002862441686611105 -0.003311598508951636 0.00044915682234053045 0.003688158393145702 0.0 0.0
0.0 0.0031170626055094484 0.0019402184645278629 -0.002314405473744757 0.00037418700921689493 -0.0026487415943874056 0.0 0.0
0.0 0.0 0.0 0.0 0.0 0.0 0.0 0.0
0.0 0.0 0.0 0.0 0.0 0.0 0.0 0.0
0.0 3.1234164431588785e-07 -2.5617850497127908e-08 2.0115826190663957e-08 5.502024306463789e-09 4.21043713021938e-08 0.0 0.0
0.0 4.030378318459289e-05 1.9149420008119734e-05 -1.5193072396480546e-05 -3.956347611639206e-06 -2.3842604796272443e-05 0.0 0.0
0.0 0.0005467059672713629 0.0003919822520146267 -0.00031542636897807796 -7.655588303654879e-05 -0.00034599571966248334 0.0 0.0
0.0 0.0021328566718119826 0.0016796861891622485 -0.0014081312883257075 -0.00027155490083654167 -0.0011616577735984951 0.0 0.0
0.0 0.004777407229081831 0.0040653443700620785 -0.0035760218339699248 -0.0004893225360921527 -0.0024768365315678614 0.0 0.0
0.0 0.008649224491968597 0.0074204558995716735 -0.006774113178669706 -0.0006463427209019655 -0.004153296923783673 0.0 0.0
0.0 0.013551879388766383 0.011604249580258115 -0.010846661545686625 -0.0007575880345714898 -0.00600195937434535 0.0 0.0
0.0 0.019337076076444706 0.016530922658010913 -0.015684624681993102 -0.0008462979760178072 -0.007903179317091887 0.0 0.0
0.0 0.025957101808760624 0.02218866371450103 -0.02126334523410258 -0.0009253184803984498 -0.00977451189908157 0.0 0.0
0.0 0.0335765018928652 0.028657893406793894 -0.02765679274217714 -0.0010011006646167544 -0.011688478835520228 0.0 0.0
0.0 0.04212216127080691 0.03604719001923624 -0.03497075206540584 -0.001076437953830403 -0.013747328667223424 0.0 0.0
0.0 0.05183440675560053 0.044371957250592266 -0.043219560631251645 -0.0011523966193405877 -0.015874786035615623 0.0 0.0
0.0 0.0625096200303995 0.05348419423650678 -0.052254783776248453 -0.001229410460258319 -0.017783568001941717 0.0 0.0
0.0 0.07334097186671301 0.0630192319520068 -0.06171133597003031 -0.0013078959819764766 -0.018972724214837238 0.0 0.0
0.0 0.08386921206799589 0.07232431229589133 -0.07093442709564546 -0.001389885200245857 -0.018601031539289496 0.0 0.0
0.0 0.09290918243083156 0.08040582220539651 -0.07893613611368674 -0.0014696860917097633 -0.015551200154946057 0.0 0.0
0.0 0.09904412410082071 0.08603057030879172 -0.0845002856847561 -0.0015302846240355685 -0.008744921295041728 0.0 0.0
0.0 0.09904412410081136 0.08603057030878301 -0.08450028568474678 -0.0015302846240361574 0.008744921295076672 0.0 0.0
0.0 0.09290918243081048 0.08040582220537604 -0.0789361361136661 -0.0014696860917098962 0.015551200154992187 0.0 0.0
0.0 0.08386921206797009 0.07232431229586636 -0.07093442709562137 -0.0013898852002449797 0.018601031539322715 0.0 0.0
0.0 0.0733409718666784 0.06301923195197531 -0.061711335969999115 -0.001307895981976211 0.018972724214853742 0.0 0.0
0.0 0.0625096200303563 0.05348419423646936 -0.05225478377621134 -0.0012294104602580123 0.01778356800193549 0.0 0.0
0.0 0.051834406755556554 0.04437195725055403 -0.04321956063121412 -0.0011523966193399153 0.015874786035607248 0.0 0.0
0.0 0.04212216127076583 0.036047190019200204 -0.03497075206537068 -0.0010764379538295305 0.013747328667218112 0.0 0.0
0.0 0.03357650189282302 0.028657893406756882 -0.027656792742140553 -0.001001100664616311 0.011688478835513504 0.0 0.0
0.0 0.025957101808721485 0.022188663714467042 -0.021263345234069305 -0.0009253184803977248 0.00977451189906878 0.0 0.0
0.0 0.019337076076410956 0.016530922657981714 -0.015684624681964725 -0.0008462979760169905 0.007903179317078249 0.0 0.0
0.0 0.01355187938873509 0.011604249580231865 -0.010846661545661166 -0.0007575880345706948 0.006001959374327993 0.0 0.0
0.0 0.008649224491944333 0.0074204558995507415 -0.006774113178649453 -0.0006463427209012833 0.004153296923773002 0.0 0.0
0.0 0.004777407229065024 0.004065344370047859 -0.003576021833956713 -0.0004893225360911457 0.0024768365315594025 0.0 0.0
0.0 0.0021328566718011584 0.0016796861891534873 -0.0014081312883180853 -0.00027155490083540304 0.0011616577735932712 0.0 0.0
0.0 0.0005467059672668111 0.00039198225201165935 -0.00031542636897563184 -7.655588303602744e-05 0.0003459957196597233 0.0 0.0
0.0 4.0303783183869134e-05 1.914942000821558e-05 -1.519307239654388e-05 -3.9563476116716266e-06 2.3842604796317292e-05 0.0 0.0
0.0 3.1234164401444015e-07 -2.5617850471780222e-08 2.0115826170972936e-08 5.502024300809174e-09 -4.2104371261965705e-08 0.0 0.0
0.0 0.0 0.0 0.0 0.0 0.0 0.0 0.0
0.0 0.0 0.0 0.0 0.0 0.0 0.0 0.0
0.0 0.0031170626054977018 0.001940218464520398 -0.0023144054737364353 0.0003741870092160368 0.0026487415943765307 0.0 0.0
0.0 0.0020510547913701396 0.0012348990982838136 -0.001518083990084731 0.0002831848918009172 -0.0017677513165794388 0.0 0.0
0.0 0.0 0.0 0.0 0.0 0.0 0.0 0.0
0.0 0.0 0.0 0.0 0.0 0.0 0.0 0.0
0.0 7.616774122468806e-07 -5.549138125016537e-08 4.2107338484635224e-08 1.338404276552882e-08 1.233693222903045e-07 0.0 0.0
0.0 1.5793442096646705e-05 2.750733956217407e-06 -2.1732267235995742e-06 -5.775072326178317e-07 -4.741219032928922e-06 0.0 0.0
0.0 0.00024320689011740737 0.0001693318724192301 -0.00013535630312029346 -3.397556929893647e-05 -0.00022916531958892252 0.0 0.0
0.0 0.0013021074142082348 0.000983941882281389 -0.0008089020720233312 -0.0001750398102580575 -0.0009750594431737555 0.0 0.0
0.0 0.0034431379071976167 0.0027699648137632835 -0.0023829892598910348 -0.0003869755538722494 -0.0022659197997826563 0.0 0.0
0.0 0.006604279973575722 0.005486290149629867 -0.004918643274496741 -0.0005676468751331268 -0.0040117508027727984 0.0 0.0
0.0 0.010644679822373793 0.008931463832712802 -0.008239917726952647 -0.0006915461057601554 -0.005983506322829836 0.0 0.0
0.0 0.015411586863546382 0.012969150313245352 -0.012187427300641637 -0.0007817230126037115 -0.007975311434329578 0.0 0.0
0.0 0.020860458463361587 0.017576335794751072 -0.016719399834631037 -0.0008569359601200459 -0.009930814670624625 0.0 0.0
0.0 0.027052634861898038 0.022823864304072447 -0.02189818487892125 -0.000925679425151198 -0.01192110633273501 0.0 0.0
0.0 0.03412562013585008 0.028824480822611857 -0.027832595163930097 -0.0009918856586817455 -0.014028778774101153 0.0 0.0
0.0 0.04217493520564517 0.035639246495660325 -0.034581454783980066 -0.0010577917116802876 -0.016221785214773653 0.0 0.0
0.0 0.05083022861822936 0.043191487543095604 -0.04206766333518509 -0.0011238242079105304 -0.018234045721494008 0.0 0.0
0.0 0.060194233122016286 0.05122678922052557 -0.050037056005057805 -0.0011897332154677549 -0.019554816763114234 0.0 0.0
0.0 0.0694148579604259 0.059320325263849186 -0.05806276459724584 -0.0012575606666033327 -0.019416425645305487 0.0 0.0
0.0 0.07746411904741897 0.06674629781720637 -0.06541875807184812 -0.0013275397453582447 -0.01656639584368741 0.0 0.0
0.0 0.08351653777067633 0.07240028566956044 -0.07101238061419977 -0.0013879050553606762 -0.009556791209383598 0.0 0.0
0.0 0.08351653777067275 0.07240028566955585 -0.07101238061419585 -0.001387905055360032 0.0095567912094193 0.0 0.0
0.0 0.07746411904740699 0.06674629781719266 -0.06541875807183506 -0.0013275397453576148 0.01656639584373393 0.0 0.0
0.0 0.06941485796040113 0.059320325263824934 -0.05806276459722137 -0.001257560666603578 0.019416425645339352 0.0 0.0
0.0 0.0601942331219864 0.05122678922049818 -0.05003705600503046 -0.0011897332154677022 0.019554816763128303 0.0 0.0
0.0 0.050830228618196416 0.043191487543067 -0.04206766333515728 -0.001123824207909688 0.018234045721487468 0.0 0.0
0.0 0.04217493520560986 0.03563924649562969 -0.0345814547839502 -0.0010577917116794825 0.016221785214764736 0.0 0.0
0.0 0.03412562013581466 0.028824480822580913 -0.02783259516389962 -0.0009918856586812936 0.01402877877409422 0.0 0.0
0.0 0.027052634861864926 0.022823864304043574 -0.02189818487889299 -0.0009256794251505903 0.01192110633272752 0.0 0.0
0.0 0.02086045846332933 0.017576335794723674 -0.016719399834604187 -0.0008569359601194864 0.009930814670611599 0.0 0.0
0.0 0.015411586863517481 0.012969150313220915 -0.012187427300617757 -0.000781723012603158 0.007975311434315768 0.0 0.0
0.0 0.010644679822348136 0.008931463832691573 -0.008239917726932219 -0.0006915461057593521 0.005983506322812625 0.0 0.0
0.0 0.006604279973555721 0.005486290149612871 -0.004918643274480666 -0.0005676468751322037 0.004011750802761583 0.0 0.0
0.0 0.00344313790718331 0.0027699648137516552 -0.0023829892598804282 -0.00038697555387122646 0.0022659197997737333 0.0 0.0
0.0 0.0013021074142001527 0.0009839418822752983 -0.0008089020720181204 -0.00017503981025717786 0.0009750594431685052 0.0 0.0
0.0 0.0002432068901140885 0.0001693318724174203 -0.00013535630311883136 -3.3975569298588955e-05 0.00022916531958656636 0.0 0.0
0.0 1.579344209613914e-05 2.750733956326068e-06 -2.1732267236845075e-06 -5.775072326415501e-07 4.741219033123757e-06 0.0 0.0
0.0 7.616774120036076e-07 -5.54913812317514e-08 4.210733847065235e-08 1.3384042761090036e-08 -1.2336932224923908e-07 0.0 0.0
0.0 0.0 0.0 0.0 0.0 0.0 0.0 0.0
0.0 0.0 0.0 0.0 0.0 0.0 0.0 0.0
0.0 0.0020510547913610475 0.0012348990982783189 -0.0015180839900784157 0.000283184891800097 0.0017677513165713311 0.0 0.0
0.0 0.0012353388498293476 0.000702425037009225 -0.0008893110407141855 0.0001868860037049607 -0.0010570611839781996 0.0 0.0
0.0 0.0 0.0 0.0 0.0 0.0 0.0 0.0
0.0 0.0 0.0 0.0 0.0 0.0 0.0 0.0
0.0 1.343535810957597e-06 -6.745450613659108e-08 5.1836617700734505e-08 1.5617888435866596e-08 2.5068220686766373e-07 0.0 0.0
0.0 7.561615280581212e-06 2.1413152699573153e-06 -1.697209131449396e-06 -4.4410613850792324e-07 -5.682234995123223e-06 0.0 0.0
0.0 0.00012277678559646449 5.5500220671737916e-05 -4.430024390119398e-05 -1.1199976770543994e-05 -0.00011401369869449664 0.0 0.0
0.0 0.0006898097890553422 0.0004661903047356976 -0.00037702133388505855 -8.916897085063912e-05 -0.0006916702263366275 0.0 0.0
0.0 0.002193198725022829 0.001638714453464557 -0.001374015069285213 -0.00026469938417934385 -0.0018625543631698167 0.0 0.0
0.0 0.004640663464281178 0.0036444798201117692 -0.0031880777957513195 -0.0004564020243604496 -0.0034979504747691525 0.0 0.0
0.0 0.007812029354119846 0.0063190850776283945 -0.0057173396198553555 -0.0006017454577730383 -0.005438718706358893 0.0 0.0
0.0 0.011562196890050313 0.00946667658081784 -0.0087667788497201 -0.0006998977310977394 -0.007439291822465323 0.0 0.0
0.0 0.015825001553767357 0.013033004036662053 -0.012257332065161818 -0.000775671971500237 -0.009373806171100627 0.0 0.0
0.0 0.02066689184632584 0.01707174982151475 -0.016232142631889976 -0.000839607189624764 -0.011314930946733165 0.0 0.0
0.0 0.026148625447292302 0.021695962899648827 -0.020797886865302005 -0.0008980760343468186 -0.013356469790931799 0.0 0.0
0.0 0.03243986441285043 0.026992763841177072 -0.02603933101406515 -0.0009534328271119155 -0.015472313617228655 0.0 0.0
0.0 0.039452552832880655 0.032955427222290494 -0.031945452498788274 -0.0010099747235022116 -0.017432254036844785 0.0 0.0
0.0 0.046907871982148165 0.039438386119024005 -0.03837480790521899 -0.0010635782138050296 -0.01882342318198045 0.0 0.0
0.0 0.05459880890277253 0.046228525690973604 -0.04511375933725364 -0.0011147663537199775 -0.018988579397281456 0.0 0.0
0.0 0.06204453369143529 0.052932097287005764 -0.05176012772748134 -0.0011719695595244013 -0.01669758068599037 0.0 0.0
0.0 0.06813674393641173 0.058659272901979885 -0.057425349258321524 -0.0012339236436583508 -0.010148876691935496 0.0 0.0
0.0 0.06813674393640685 0.058659272901974785 -0.05742534925831577 -0.0012339236436589845 0.010148876691967474 0.0 0.0
0.0 0.062044533691423966 0.052932097286992746 -0.05176012772746766 -0.0011719695595250941 0.016697580686035003 0.0 0.0
0.0 0.05459880890275934 0.04622852569095835 -0.04511375933723888 -0.001114766353719448 0.018988579397315457 0.0 0.0
0.0 0.04690787198212992 0.03943838611900575 -0.038374807905201605 -0.001063578213804153 0.018823423181994918 0.0 0.0
0.0 0.039452552832854294 0.032955427222267915 -0.03194545249876598 -0.0010099747235019284 0.017432254036836934 0.0 0.0
0.0 0.032439864412822025 0.026992763841152973 -0.026039331014041205 -0.000953432827111763 0.015472313617218878 0.0 0.0
0.0 0.02614862544726681 0.0216959628996267 -0.020797886865280238 -0.0008980760343464643 0.013356469790925267 0.0 0.0
0.0 0.020666891846303034 0.0170717498214948 -0.016232142631870564 -0.0008396071896242372 0.01131493094672736 0.0 0.0
0.0 0.015825001553742266 0.013033004036641128 -0.012257332065141228 -0.000775671971499894 0.00937380617108782 0.0 0.0
0.0 0.011562196890026685 0.009466676580798465 -0.008766778849701284 -0.0006998977310971756 0.007439291822451015 0.0 0.0
0.0 0.007812029354098555 0.006319085077611734 -0.005717339619839374 -0.0006017454577723592 0.005438718706342004 0.0 0.0
0.0 0.004640663464266587 0.0036444798201003808 -0.003188077795740635 -0.0004564020243597452 0.0034979504747594346 0.0 0.0
0.0 0.0021931987250137933 0.0016387144534577636 -0.0013740150692793153 -0.00026469938417844857 0.0018625543631633826 0.0 0.0
0.0 0.0006898097890508003 0.0004661903047327545 -0.00037702133388261443 -8.916897085013971e-05 0.0006916702263329013 0.0 0.0
0.0 0.00012277678559468222 5.55002206712301e-05 -4.430024390077773e-05 -1.1199976770452284e-05 0.00011401369869340219 0.0 0.0
0.0 7.561615280414658e-06 2.141315270178084e-06 -1.6972091316237455e-06 -4.4410613855434425e-07 5.682234995727239e-06 0.0 0.0
0.0 1.343535810551308e-06 -6.74545061154224e-08 5.1836617684484416e-08 1.561788843093987e-08 -2.5068220678900275e-07 0.0 0.0
0.0 0.0 0.0 0.0 0.0 0.0 0.0 0.0
0.0 0.0 0.0 0.0 0.0 0.0 0.0 0.0
0.0 0.0012353388498223072 0.0007024250370053692 -0.0008893110407096109 0.0001868860037042416 0.0010570611839722487 0.0 0.0
0.0 0.0006328275154933828 0.00032639696956923735 -0.0004276704089963871 0.00010127343942714981 -0.0005158757768914687 0.0 0.0
0.0 1.266647607192392e-07 -7.072771973675951e-10 8.507483974345466e-10 -1.4347120006705642e-10 2.5171596720899338e-08 0.0 0.0
0.0 0.0 0.0 0.0 0.0 0.0 0.0 0.0
0.0 8.694762653476193e-07 -2.987712020632065e-08 2.159330647060148e-08 8.283813735721381e-09 1.7349073420562356e-07 0.0 0.0
0.0 6.087226904687445e-06 1.0695091413420286e-06 -8.430105181393913e-07 -2.264986232026508e-07 -4.3900763314479935e-06 0.0 0.0
0.0 7.136162881655739e-05 2.373147844553563e-05 -1.8807055171204964e-05 -4.924423274330662e-06 -7.526748094018309e-05 0.0 0.0
0.0 0.0003272918810610405 0.00016666190025013913 -0.00013342668025331163 -3.32352199968275e-05 -0.00040644651638374976 0.0 0.0
0.0 0.0011624075043567214 0.000745060729203971 -0.0006079155188499932 -0.00013714521035397765 -0.0012960458134069143 0.0 0.0
0.0 0.0028306833357941634 0.0019900840367647493 -0.0016852941584637323 -0.00030478987830101533 -0.002685608267695791 0.0 0.0
0.0 0.005039050198993857 0.003831966132838741 -0.0033654187936096036 -0.0004665473392291361 -0.0043999592961163495 0.0 0.0
0.0 0.007855157616958682 0.006063410266119307 -0.005480353539246136 -0.000583056726873171 -0.006235557206167317 0.0 0.0
0.0 0.010904645492922922 0.008595083875200648 -0.007928168065825322 -0.0006669158093753243 -0.008047416716340912 0.0 0.0
0.0 0.014360701475014701 0.011444225064072819 -0.010711893899953702 -0.0007323311641191149 -0.009848294477714238 0.0 0.0
0.0 0.018328679477374477 0.014706202934912902 -0.013919722840319764 -0.0007864800945931359 -0.011695566474704119 0.0 0.0
0.0 0.0229449163474599 0.018484634290349803 -0.017650418471827457 -0.0008342158185223443 -0.013599654592241713 0.0 0.0
0.0 0.028123542677019372 0.02283370754063193 -0.02195400508742221 -0.0008797024532097095 -0.015400930712824671 0.0 0.0
0.0 0.03386356669924668 0.027711199146761324 -0.026786141213296335 -0.0009250579334649927 -0.01671697858881762 0.0 0.0
0.0 0.03987591067080568 0.03306958287122705 -0.03210909789580066 -0.0009604849754263853 -0.017133781019435513 0.0 0.0
0.0 0.04617731040973354 0.038888265365451945 -0.03789251491623166 -0.0009957504492202614 -0.015768453078379416 0.0 0.0
0.0 0.05219288425436848 0.044670032523460294 -0.043612073439054655 -0.00105795908440566 -0.010464660161545555 0.0 0.0
0.0 0.05219288425436827 0.04467003252345829 -0.04361207343905319 -0.0010579590844050763 0.010464660161573061 0.0 0.0
0.0 0.04617731040972776 0.038888265365442765 -0.037892514916223 -0.0009957504492197576 0.015768453078419155 0.0 0.0
0.0 0.03987591067079522 0.03306958287121396 -0.03210909789578819 -0.0009604849754257607 0.017133781019464802 0.0 0.0
0.0 0.03386356669923322 0.027711199146747675 -0.02678614121328351 -0.0009250579334641674 0.01671697858882733 0.0 0.0
0.0 0.028123542676998268 0.022833707540614253 -0.02195400508740496 -0.0008797024532092796 0.015400930712816821 0.0 0.0
0.0 0.022944916347438407 0.018484634290332147 -0.01765041847181003 -0.0008342158185221199 0.013599654592231773 0.0 0.0
0.0 0.018328679477355964 0.014706202934897104 -0.013919722840304303 -0.0007864800945928083 0.011695566474698566 0.0 0.0
0.0 0.014360701474996875 0.01144422506405772 -0.010711893899938842 -0.0007323311641188767 0.009848294477707614 0.0 0.0
0.0 0.01090464549290656 0.008595083875187235 -0.007928168065812589 -0.0006669158093746437 0.008047416716331302 0.0 0.0
0.0 0.007855157616940663 0.006063410266105216 -0.005480353539232653 -0.0005830567268725611 0.006235557206153954 0.0 0.0
0.0 0.005039050198978327 0.003831966132827364 -0.0033654187935990318 -0.0004665473392283318 0.0043999592961027545 0.0 0.0
0.0 0.0028306833357823425 0.0019900840367559967 -0.0016852941584558966 -0.0003047898783000997 0.0026856082676861275 0.0 0.0
0.0 0.0011624075043494403 0.0007450607291989428 -0.0006079155188457453 -0.0001371452103531975 0.0012960458133999667 0.0 0.0
0.0 0.0003272918810584499 0.00016666190024907588 -0.00013342668025244185 -3.323521999663406e-05 0.00040644651638139075 0.0 0.0
0.0 7.13616288152915e-05 2.3731478445407902e-05 -1.8807055171106336e-05 -4.92442327430155e-06 7.526748093973977e-05 0.0 0.0
0.0 6.087226904443961e-06 1.0695091414616754e-06 -8.430105182342239e-07 -2.2649862322744455e-07 4.3900763319738045e-06 0.0 0.0
0.0 8.694762648168817e-07 -2.987712019000699e-08 2.1593306458356525e-08 8.283813731647456e-09 -1.7349073409897767e-07 0.0 0.0
0.0 0.0 0.0 0.0 0.0 0.0 0.0 0.0
0.0 1.2666476022059354e-07 -7.072771946710994e-10 8.50748394078545e-10 -1.4347119940746084e-10 -2.5171596621278046e-08 0.0 0.0
0.0 0.000632827515488571 0.0003263969695670333 -0.00042767040899365665 0.0001012734394266235 0.0005158757768879274 0.0 0.0
0.0 0.00021739256210149654 0.0001102935924269521 -0.00015174712820790543 4.1453535780953374e-05 -0.00018311650106467032 0.0 0.0
0.0 2.0717276247831737e-06 -6.165853434397743e-09 1.47916262852059e-08 -8.625772850807937e-09 4.367858720835785e-07 0.0 0.0
0.0 8.129603515550081e-07 -9.729788138728575e-10 -5.062304710215263e-10 1.479209284894036e-09 1.6676851108718092e-07 0.0 0.0
0.0 1.3942118126280809e-06 -1.7202479833820512e-08 1.1633862331670308e-08 5.568617502153395e-09 2.882879494068393e-07 0.0 0.0
0.0 6.252525823829899e-06 6.720845124256159e-07 -5.014941323493354e-07 -1.7059038007628492e-07 -4.6998278483241626e-06 0.0 0.0
0.0 5.920624059663124e-05 1.1439828913553262e-05 -9.095007156154155e-06 -2.3448217573991092e-06 -6.576478843825804e-05 0.0 0.0
0.0 0.00019442369870438747 5.703783109560203e-05 -4.562889166301209e-05 -1.1408939432589894e-05 -0.00026237256427040967 0.0 0.0
0.0 0.0005044854710620826 0.0002154591906362549 -0.00017250110497200492 -4.2958085664249895e-05 -0.0007396721097945617 0.0 0.0
0.0 0.0013014975523913638 0.0006920836165761518 -0.0005633448174908035 -0.00012873879908534855 -0.0016559561124547524 0.0 0.0
0.0 0.0025883251960199093 0.0016146079806614489 -0.001354252640795466 -0.00026035533986598224 -0.002944871068380011 0.0 0.0
0.0 0.004233771655516338 0.0028792487394387017 -0.0024906923563643105 -0.00038855638307439054 -0.004413471500251304 0.0 0.0
0.0 0.006204236880508238 0.004348637022900068 -0.0038612916648812557 -0.00048734535801880994 -0.005934599291814709 0.0 0.0
0.0 0.008377935787397994 0.006017531705873908 -0.005452061021974444 -0.00056547068389946 -0.007504524632133036 0.0 0.0
0.0 0.010866230070762104 0.007941493345104128 -0.0073150030045688414 -0.0006264903405352826 -0.009090593400869554 0.0 0.0
0.0 0.013753460920867586 0.010207617628069307 -0.009533555238753122 -0.0006740623893161828 -0.010697828756700507 0.0 0.0
0.0 0.01712022224732019 0.012917134534821911 -0.012203972879967785 -0.0007131616548541292 -0.012259708729759695 0.0 0.0
0.0 0.021029026409687374 0.01614706069036153 -0.015396133437547954 -0.0007509272528135841 -0.0135062724256384 0.0 0.0
0.0 0.025414300234587017 0.019967747482256163 -0.019182248537187304 -0.0007854989450688648 -0.014010347689747718 0.0 0.0
0.0 0.030526725807380847 0.024600073459767047 -0.0238090554017563 -0.000791018058010744 -0.013521682327579946 0.0 0.0
0.0 0.03631045745152783 0.03025130966834997 -0.02941163917617294 -0.0008396704921770338 -0.010300655655239547 0.0 0.0
0.0 0.036310457451526626 0.030251309668347253 -0.0294116391761698 -0.0008396704921774644 0.010300655655262014 0.0 0.0
0.0 0.030526725807377475 0.024600073459760265 -0.0238090554017491 -0.000791018058011157 0.013521682327613808 0.0 0.0
0.0 0.025414300234581196 0.019967747482247476 -0.019182248537178773 -0.0007854989450686976 0.014010347689770553 0.0 0.0
0.0 0.021029026409678325 0.016147060690352433 -0.015396133437539266 -0.0007509272528131636 0.01350627242564376 0.0 0.0
0.0 0.01712022224730625 0.012917134534811301 -0.012203972879957468 -0.0007131616548538321 0.012259708729751803 0.0 0.0
0.0 0.013753460920851383 0.010207617628057135 -0.009533555238740981 -0.0006740623893161518 0.010697828756689887 0.0 0.0
0.0 0.010866230070752653 0.007941493345096588 -0.007315003004561432 -0.0006264903405351594 0.009090593400864919 0.0 0.0
0.0 0.0083779357873888 0.006017531705866238 -0.0054520610219671905 -0.0005654706838990467 0.007504524632129171 0.0 0.0
0.0 0.006204236880498872 0.004348637022893404 -0.0038612916648752124 -0.00048734535801819216 0.005934599291806902 0.0 0.0
0.0 0.004233771655505987 0.002879248739431821 -0.002490692356358013 -0.00038855638307380626 0.004413471500241125 0.0 0.0
0.0 0.002588325196010362 0.0016146079806557674 -0.0013542526407903921 -0.0002603553398653747 0.0029448710683694754 0.0 0.0
0.0 0.0013014975523867427 0.0006920836165732599 -0.0005633448174884033 -0.00012873879908485648 0.001655956112449788 0.0 0.0
0.0 0.0005044854710596902 0.00021545919063532798 -0.00017250110497126143 -4.295808566406645e-05 0.0007396721097918212 0.0 0.0
0.0 0.00019442369870305927 5.703783109543374e-05 -4.5628891662867244e-05 -1.140893943256648e-05 0.0002623725642693774 0.0 0.0
0.0 5.920624059574839e-05 1.143982891354651e-05 -9.09500715614822e-06 -2.3448217573982732e-06 6.576478843816742e-05 0.0 0.0
0.0 6.252525823659405e-06 6.720845125120482e-07 -5.014941324153778e-07 -1.705903800966723e-07 4.6998278490163986e-06 0.0 0.0
0.0 1.3942118121365584e-06 -1.7202479827439693e-08 1.1633862327329383e-08 5.568617500112952e-09 -2.8828794930130727e-07 0.0 0.0
0.0 8.12960351106587e-07 -9.729788137991681e-10 -5.062304704954294e-10 1.479209284295063e-09 -1.667685109932312e-07 0.0 0.0
0.0 2.0717276240791394e-06 -6.165853431574411e-09 1.4791626278552993e-08 -8.625772846978897e-09 -4.3678587193397695e-07 0.0 0.0
0.0 0.0002173925620992165 0.00011029359242622129 -0.00015174712820690428 4.145353578068288e-05 0.0001831165010636832 0.0 0.0
0.0 4.24743552605967e-05 1.8289120879948535e-05 -2.625280820625747e-05 7.963687326308935e-06 -3.236070452847078e-05 0.0 0.0
0.0 2.3409661729961703e-06 6.496376963596438e-10 1.3091562580591183e-08 -1.3741200276949575e-08 4.872012716183131e-07 0.0 0.0
0.0 8.28283976103979e-07 8.757322001854407e-09 -7.994197467743662e-09 -7.631245341108108e-10 1.6872916499049268e-07 0.0 0.0
0.0 1.0580016095170872e-06 2.2717767209589927e-09 -3.5858282378611167e-09 1.3140515169027216e-09 1.7164124948164472e-07 0.0 0.0
0.0 8.276662248559868e-06 1.1283719299109592e-07 -7.428508026809921e-08 -3.855211272300306e-08 -3.643466774687473e-06 0.0 0.0
0.0 5.45677712516935e-05 3.5213412580459914e-06 -2.743511687187282e-06 -7.778295708586994e-07 -6.909747984093972e-05 0.0 0.0
0.0 0.000166857867846388 1.7408488547952757e-05 -1.3881424234340382e-05 -3.5270643136123922e-06 -0.0002538213126054233 0.0 0.0
0.0 0.00036741060017593476 4.695722522047507e-05 -3.7608192175199544e-05 -9.349033045275465e-06 -0.0005355358977798407 0.0 0.0
0.0 0.0006249710340540677 0.00011127819798061626 -8.958708140249116e-05 -2.1691116578125106e-05 -0.0009955317770022618 0.0 0.0
0.0 0.0010850533753527763 0.00023252571219761507 -0.00018828134799504364 -4.424436420257137e-05 -0.0016591934240600555 0.0 0.0
0.0 0.0016374879174127057 0.0004760798190282721 -0.00038346182954251203 -9.26179894857601e-05 -0.0026084133502621027 0.0 0.0
0.0 0.0024333358061959906 0.0008159020353448515 -0.0006595652044740423 -0.0001563368308708093 -0.0036931331103614734 0.0 0.0
0.0 0.0033734281253811975 0.0012380125391798869 -0.0010113178194283345 -0.00022669471975155246 -0.0049242269908184285 0.0 0.0
0.0 0.0045475198489925706 0.001787658777365217 -0.001494767534207715 -0.00029289124315750247 -0.006326333175137449 0.0 0.0
0.0 0.005952987924709599 0.0025203862648417457 -0.002169794000885675 -0.00035059226395607113 -0.007886564947921166 0.0 0.0
0.0 0.007687796386877976 0.003544219377218127 -0.003144168098430171 -0.0004000512787879536 -0.009499561998516523 0.0 0.0
0.0 0.009790334363672151 0.005065659621883524 -0.0046204933185882814 -0.00044516630329523884 -0.010873055868786143 0.0 0.0
0.0 0.012349864438407819 0.007307463103111127 -0.006810277629871261 -0.0004971854732398641 -0.01148047969918325 0.0 0.0
0.0 0.015672538163999803 0.010481089121945801 -0.00994789621627267 -0.0005331929056731287 -0.011062097283286469 0.0 0.0
0.0 0.020602039156128536 0.015357818625646835 -0.01485013327661151 -0.000507685349035328 -0.009769290734280674 0.0 0.0
0.0 0.02060203915613293 0.015357818625648698 -0.014850133276613468 -0.0005076853490352296 0.00976929073429825 0.0 0.0
0.0 0.015672538164003297 0.010481089121944731 -0.009947896216271873 -0.0005331929056728571 0.011062097283312596 0.0 0.0
0.0 0.012349864438407097 0.007307463103107845 -0.006810277629868055 -0.0004971854732397859 0.011480479699197306 0.0 0.0
0.0 0.009790334363666438 0.005065659621879287 -0.004620493318584074 -0.0004451663032952097 0.010873055868785838 0.0 0.0
0.0 0.007687796386872361 0.0035442193772161562 -0.003144168098428349 -0.0004000512787878059 0.009499561998508103 0.0 0.0
0.0 0.005952987924703977 0.0025203862648395772 -0.0021697940008837085 -0.00035059226395586795 0.007886564947913436 0.0 0.0
0.0 0.004547519848989455 0.0017876587773641773 -0.0014947675342068048 -0.00029289124315737345 0.006326333175133682 0.0 0.0
0.0 0.0033734281253782355 0.0012380125391791216 -0.0010113178194276849 -0.00022669471975143613 0.004924226990813884 0.0 0.0
0.0 0.0024333358061895813 0.0008159020353429452 -0.0006595652044724671 -0.00015633683087047813 0.003693133110352496 0.0 0.0
0.0 0.0016374879174082518 0.0004760798190270248 -0.0003834618295415178 -9.261798948550668e-05 0.0026084133502548303 0.0 0.0
0.0 0.0010850533753489428 0.00023252571219715916 -0.00018828134799465213 -4.424436420250712e-05 0.001659193424054426 0.0 0.0
0.0 0.0006249710340525934 0.00011127819798039995 -8.958708140236848e-05 -2.1691116578031435e-05 0.0009955317769999037 0.0 0.0
0.0 0.00036741060017484784 4.6957225220319e-05 -3.760819217508558e-05 -9.349033045233387e-06 0.0005355358977780641 0.0 0.0
0.0 0.0001668578678443056 1.7408488547820254e-05 -1.3881424234218687e-05 -3.5270643136015655e-06 0.00025382131260346047 0.0 0.0
0.0 5.4567771250917014e-05 3.521341258026552e-06 -2.7435116871696474e-06 -7.778295708569085e-07 6.909747984050566e-05 0.0 0.0
0.0 8.276662248268451e-06 1.1283719300221783e-07 -7.428508027498077e-08 -3.855211272724039e-08 3.643466775159957e-06 0.0 0.0
0.0 1.058001609270531e-06 2.2717767046175976e-09 -3.585828223202952e-09 1.3140515185852703e-09 -1.716412489010566e-07 0.0 0.0
0.0 8.282839756553083e-07 8.757321996808003e-09 -7.99419746324245e-09 -7.631245335657651e-10 -1.687291648967851e-07 0.0 0.0
0.0 2.340966172321822e-06 6.496376968874008e-10 1.3091562575233056e-08 -1.3741200272117913e-08 -4.87201271473837e-07 0.0 0.0
0.0 4.24743552596413e-05 1.8289120879898702e-05 -2.625280820616822e-05 7.963687326269469e-06 3.2360704528542055e-05 0.0 0.0
0.0 2.0846035627958805e-06 -6.354377310255404e-08 9.243447549821077e-08 -2.8890702395663365e-08 1.58470761688793e-07 0.0 0.0
0.0 1.9344371443154204e-06 4.710789831444049e-09 5.16947025930567e-09 -9.880260090744861e-09 3.5073227475407157e-07 0.0 0.0
0.0 1.2160637581924274e-06 -1.5774469973050784e-08 1.1899860866211926e-08 3.8746091068401635e-09 -1.5157422131275991e-07 0.0 0.0
0.0 2.051821006958742e-06 -8.158823936971331e-08 6.738792484933502e-08 1.4200314520378414e-08 -8.571529570928116e-07 0.0 0.0
0.0 1.1519867497545179e-05 -4.758113926154709e-07 4.271681505311136e-07 4.864324208436668e-08 -7.461852149159913e-06 0.0 0.0
0.0 5.981989550098716e-05 -4.61207395569491e-06 3.7915453230627044e-06 8.205286326321997e-07 -6.999571805822656e-05 0.0 0.0
0.0 0.0001679339433183775 -1.8383743337802346e-05 1.4793915186964166e-05 3.5898281508381782e-06 -0.0002557730396370442 0.0 0.0
0.0 0.000367377570531515 -4.704129939640882e-05 3.767443347852824e-05 9.366865917880525e-06 -0.0005366136303824648 0.0 0.0
0.0 0.0006248610375617754 -0.00011103739126229375 8.937227498455527e-05 2.1665116277738486e-05 -0.0009959486764964459 0.0 0.0
0.0 0.0010836620592351235 -0.0002319343752133606 0.00018767489908349006 4.4259476129870534e-05 -0.0016577232776753214 0.0 0.0
0.0 0.0016435635221708877 -0.00047372222984721926 0.0003821898830897309 9.153234675748803e-05 -0.002604910771541128 0.0 0.0
0.0 0.0024364410411168206 -0.0008237182512330413 0.0006671132348633725 0.0001566050163696689 -0.0036964575444056427 0.0 0.0
0.0 0.003395515479798014 -0.0012662213790421784 0.0010378864079452397 0.00022833497109693847 -0.004933774264350405 0.0 0.0
0.0 0.004582767696608359 -0.0018319010066474351 0.001533753486805756 0.0002981475198416783 -0.006334513640866447 0.0 0.0
0.0 0.005908216840838949 -0.002466837720377828 0.0021036767013865028 0.00036316101899132433 -0.007886864165877888 0.0 0.0
0.0 0.007285578176481711 -0.0029955305279704917 0.0025740195512196366 0.0004215109767508521 -0.009550999541802357 0.0 0.0
0.0 0.008440317059201166 -0.0031313246284668753 0.0026634584527410517 0.000467866175725824 -0.011318589876766087 0.0 0.0
0.0 0.009212119338587442 -0.0025920431079488396 0.002090789075931507 0.0005012540320173308 -0.013208945408631021 0.0 0.0
0.0 0.009524358523644933 -0.0013983730653204494 0.0009701337036048955 0.00042823936171555385 -0.0148084882462908 0.0 0.0
0.0 0.009108051679601213 0.0021277332003697873 -0.0022171044213384885 8.937122096869975e-05 -0.013366190469820557 0.0 0.0
0.0 0.009108051679604493 0.0021277332003698224 -0.002217104421338535 8.937122096871407e-05 0.013366190469829939 0.0 0.0
0.0 0.009524358523648567 -0.0013983730653206487 0.0009701337036053876 0.0004282393617152596 0.014808488246299312 0.0 0.0
0.0 0.009212119338586082 -0.002592043107948647 0.0020907890759318407 0.0005012540320168059 0.013208945408631755 0.0 0.0
0.0 0.00844031705919438 -0.0031313246284630893 0.002663458452737668 0.00046786617572542076 0.011318589876761147 0.0 0.0
0.0 0.007285578176471176 -0.002995530527964104 0.002574019551213633 0.0004215109767504694 0.009550999541792862 0.0 0.0
0.0 0.005908216840831279 -0.0024668377203737983 0.002103676701382805 0.0003631610189909915 0.007886864165869898 0.0 0.0
0.0 0.0045827676966027076 -0.0018319010066445264 0.0015337534868033794 0.00029814751984114703 0.006334513640860842 0.0 0.0
0.0 0.003395515479791029 -0.0012662213790379621 0.0010378864079417193 0.00022833497109624247 0.004933774264344911 0.0 0.0
0.0 0.002436441041107347 -0.0008237182512287472 0.0006671132348597148 0.00015660501636903247 0.0036964575443955683 0.0 0.0
0.0 0.0016435635221640158 -0.0004737222298438763 0.0003821898830870256 9.153234675685072e-05 0.0026049107715323 0.0 0.0
0.0 0.0010836620592302312 -0.00023193437521212314 0.00018767489908235184 4.425947612977127e-05 0.0016577232776690588 0.0 0.0
0.0 0.0006248610375597012 -0.00011103739126172136 8.937227498406853e-05 2.1665116277652823e-05 0.0009959486764935205 0.0 0.0
0.0 0.00036737757053046326 -4.704129939619639e-05 3.767443347834564e-05 9.366865917850717e-06 0.0005366136303813105 0.0 0.0
0.0 0.0001679339433165685 -1.8383743337680986e-05 1.4793915186884418e-05 3.5898281507965614e-06 0.0002557730396353866 0.0 0.0
0.0 5.981989550007995e-05 -4.612073955660746e-06 3.791545323037712e-06 8.205286326230444e-07 6.999571805777478e-05 0.0 0.0
0.0 1.1519867497172288e-05 -4.7581139265506594e-07 4.2716815056542614e-07 4.86432420896359e-08 7.461852149731258e-06 0.0 0.0
0.0 2.051821006868123e-06 -8.158823943822283e-08 6.738792490881051e-08 1.4200314529412743e-08 8.57152957873377e-07 0.0 0.0
0.0 1.216063757862599e-06 -1.577447003138609e-08 1.1899860913926814e-08 3.874609117459763e-09 1.5157422191199517e-07 0.0 0.0
0.0 1.9344371437294527e-06 4.710789816375556e-09 5.1694702593588745e-09 -9.88026007572954e-09 -3.5073227424302387e-07 0.0 0.0
0.0 2.0846035622380547e-06 -6.354377295465017e-08 9.243447528557e-08 -2.8890702330916587e-08 -1.5847076135478083e-07 0.0 0.0
0.0 0.0 0.0 0.0 0.0 0.0 0.0 0.0
0.0 7.864401988905609e-07 5.562617747313795e-09 2.4586987983438436e-09 -8.021316545659175e-09 1.5894775584115108e-07 0.0 0.0
0.0 2.359886588188461e-06 -5.511811445191223e-08 4.512749082349399e-08 9.990623628414136e-09 -3.670624554038374e-07 0.0 0.0
0.0 4.99722669796104e-06 3.068726526990423e-08 -1.7120553309387166e-08 -1.3566711960503553e-08 1.6393182734075074e-08 0.0 0.0
0.0 1.5622855221502767e-05 -2.500890336697494e-06 2.096216964178187e-06 4.0467337251931435e-07 -1.535683109675627e-05 0.0 0.0
0.0 6.967033703802436e-05 -1.5574502150323696e-05 1.2512943055376073e-05 3.061559094947592e-06 -8.265314956063683e-05 0.0 0.0
0.0 0.00020332350844676843 -5.867657771713469e-05 4.7089909172535694e-05 1.1586668544599021e-05 -0.00026714941508647523 0.0 0.0
0.0 0.0005071281213930584 -0.00021630862464295915 0.0001731862900888921 4.312233455406708e-05 -0.000742416101000468 0.0 0.0
0.0 0.0012989068811146548 -0.0006910395124667111 0.0005624098171343391 0.00012862969533237187 -0.0016550107840522057 0.0 0.0
0.0 0.0025852466581407123 -0.0016129460562303894 0.0013528265432991128 0.00026011951293127597 -0.002942916040727543 0.0 0.0
0.0 0.0042350563193781655 -0.0028807827249543567 0.002492635547649973 0.0003881471773043826 -0.004413689616786247 0.0 0.0
0.0 0.006216964127776169 -0.004362149715388172 0.003875361937496651 0.000486787777891522 -0.005934354188160289 0.0 0.0
0.0 0.008411502667847084 -0.00605491075887231 0.005489600877619444 0.0005653098812528635 -0.007491747443461672 0.0 0.0
0.0 0.01091129322550239 -0.00799170501978415 0.007361282361447891 0.000630422658336261 -0.009068334419163021 0.0 0.0
0.0 0.013699694470909362 -0.010141601070996162 0.009452952358098211 0.000688648712897946 -0.01073830685180403 0.0 0.0
0.0 0.016598191558189358 -0.012320322183076876 0.011577711776601487 0.000742610406475389 -0.012596163082702462 0.0 0.0
0.0 0.019266760815794357 -0.014153949871669142 0.013362710094862704 0.0007912397768064405 -0.01470156603853671 0.0 0.0
0.0 0.02110802026349483 -0.015120210649210972 0.01429231675962342 0.0008278938895875588 -0.01695702869480135 0.0 0.0
0.0 0.020641251783031587 -0.01422906575205985 0.013307398252434245 0.0009216674996255969 -0.01785022803259752 0.0 0.0
0.0 0.015765285952026885 -0.00942232406522861 0.00844301107194229 0.0009793129932863167 -0.015241148413892869 0.0 0.0
0.0 0.015765285952035985 -0.009422324065231387 0.008443011071945165 0.0009793129932862243 0.01524114841391431 0.0 0.0
0.0 0.020641251783038432 -0.014229065752059913 0.013307398252434433 0.0009216674996254789 0.017850228032624843 0.0 0.0
0.0 0.021108020263492244 -0.01512021064920524 0.014292316759617962 0.0008278938895872725 0.016957028694818226 0.0 0.0
0.0 0.01926676081577955 -0.01415394987165632 0.013362710094849982 0.0007912397768063391 0.014701566038534081 0.0 0.0
0.0 0.016598191558170963 -0.012320322183062248 0.011577711776587327 0.0007426104064749226 0.012596163082691032 0.0 0.0
0.0 0.013699694470896036 -0.010141601070985726 0.009452952358088402 0.0006886487128973239 0.010738306851794957 0.0 0.0
0.0 0.010911293225488162 -0.007991705019773029 0.007361282361436933 0.000630422658336096 0.009068334419154622 0.0 0.0
0.0 0.00841150266783034 -0.006054910758858506 0.005489600877605878 0.0005653098812526251 0.007491747443453073 0.0 0.0
0.0 0.006216964127759943 -0.004362149715376074 0.003875361937485264 0.00048678777789080974 0.005934354188148262 0.0 0.0
0.0 0.004235056319363036 -0.0028807827249436374 0.0024926355476402196 0.0003881471773034181 0.004413689616773424 0.0 0.0
0.0 0.0025852466581282475 -0.0016129460562220573 0.0013528265432918235 0.00026011951293023367 0.0029429160407156013 0.0 0.0
0.0 0.0012989068811076051 -0.000691039512462039 0.0005624098171304171 0.00012862969533162196 0.0016550107840448398 0.0 0.0
0.0 0.0005071281213903506 -0.00021630862464164553 0.0001731862900878533 4.3122334553792274e-05 0.0007424161009972872 0.0 0.0
0.0 0.00020332350844510442 -5.8676577716898793e-05 4.708990917235364e-05 1.1586668544545103e-05 0.0002671494150853226 0.0 0.0
0.0 6.967033703647034e-05 -1.5574502150224024e-05 1.251294305529713e-05 3.0615590949268765e-06 8.265314956009598e-05 0.0 0.0
0.0 1.5622855221070357e-05 -2.500890336743182e-06 2.096216964216629e-06 4.046733725265359e-07 1.535683109705107e-05 0.0 0.0
0.0 4.99722669766214e-06 3.068726521561786e-08 -1.7120553262367984e-08 -1.3566711953246007e-08 -1.639318235512725e-08 0.0 0.0
0.0 2.3598865874433207e-06 -5.511811452523868e-08 4.512749088177638e-08 9.990623643462401e-09 3.670624559365811e-07 0.0 0.0
0.0 7.864401982389868e-07 5.562617742716562e-09 2.4586987968030427e-09 -8.021316539519248e-09 -1.5894775570840683e-07 0.0 0.0
0.0 0.0 0.0 0.0 0.0 0.0 0.0 0.0
0.0 0.0 0.0 0.0 0.0 0.0 0.0 0.0
0.0 9.659038647247042e-07 1.536493391610939e-08 -9.441890028047111e-09 -5.923043888061976e-09 1.9697054502569396e-07 0.0 0.0
0.0 3.123797815057657e-06 1.0788026094104876e-07 -8.564980673659911e-08 -2.2230454204453356e-08 6.305005306608872e-07 0.0 0.0
0.0 7.1202953662002e-06 2.386849462442743e-07 -1.981524094928259e-07 -4.053253675143734e-08 1.0994714961542932e-06 0.0 0.0
0.0 2.1862799188613242e-05 -5.231405017965284e-06 4.225866309816182e-06 1.005538708149116e-06 -1.8741157367194405e-05 0.0 0.0
0.0 8.887796807167135e-05 -3.098150861486827e-05 2.490971176718731e-05 6.0717968476809325e-06 -9.65731394704415e-05 0.0 0.0
0.0 0.0003434895109152604 -0.00017277147256886645 0.00013853434566871227 3.42371269001542e-05 -0.0004186839798908023 0.0 0.0
0.0 0.0011651504485925427 -0.0007459271768696212 0.0006087066326132457 0.0001372205442563755 -0.0012990898581554723 0.0 0.0
0.0 0.0028255861375168193 -0.0019873812792153083 0.0016827895072827393 0.00030459177193256843 -0.0026819881253835735 0.0 0.0
0.0 0.005036491971881794 -0.0038309120468413955 0.003364447030317545 0.00046646501652385 -0.004397750752493016 0.0 0.0
0.0 0.007858040121442025 -0.0060663000345154644 0.0054835632668342 0.0005827367676812672 -0.006235678541021054 0.0 0.0
0.0 0.010914226755578602 -0.008605968318241002 0.007939910903351149 0.0006660574148898504 -0.008038289765415794 0.0 0.0
0.0 0.014377403147763118 -0.011471672645124045 0.010740223542559046 0.0007314491025649993 -0.009797853167190717 0.0 0.0
0.0 0.01834401459579765 -0.01474343308770069 0.013954411647262417 0.0007890214404382693 -0.011594224550745045 0.0 0.0
0.0 0.022882606951487788 -0.018428685871219194 0.017582272379893828 0.0008464134913253628 -0.013597386344475574 0.0 0.0
0.0 0.02771973234203702 -0.022336459606755687 0.021430281729909975 0.0009061778768457074 -0.016046353254739302 0.0 0.0
0.0 0.032480357218583375 -0.026000103324751306 0.025034181921120995 0.0009659214036303 -0.01912766838276829 0.0 0.0
0.0 0.0358603418787931 -0.02854765998756623 0.02750495320224191 0.0010427067853243201 -0.022309742901899687 0.0 0.0
0.0 0.03613876587098881 -0.028350621157326415 0.027211083481999992 0.001139537675326425 -0.023900178840631968 0.0 0.0
0.0 0.02911123105112291 -0.022461503845219846 0.021133176404260767 0.0013283274409590677 -0.020315901486747372 0.0 0.0
0.0 0.029111231051130212 -0.022461503845221102 0.021133176404261995 0.0013283274409591058 0.020315901486774087 0.0 0.0
0.0 0.03613876587099428 -0.028350621157324507 0.027211083481998473 0.0011395376753260231 0.023900178840667446 0.0 0.0
0.0 0.03586034187878574 -0.028547659987555377 0.027504953202231258 0.001042706785324107 0.022309742901922874 0.0 0.0
0.0 0.032480357218564015 -0.026000103324733438 0.02503418192110353 0.0009659214036299172 0.0191276683827701 0.0 0.0
0.0 0.027719732342012665 -0.022336459606735193 0.021430281729889717 0.0009061778768454813 0.016046353254729858 0.0 0.0
0.0 0.02288260695146499 -0.018428685871200293 0.01758227237987521 0.0008464134913250751 0.013597386344465296 0.0 0.0
0.0 0.01834401459577692 -0.014743433087683394 0.013954411647245715 0.000789021440437677 0.011594224550735 0.0 0.0
0.0 0.014377403147741292 -0.011471672645105381 0.010740223542540811 0.000731449102564565 0.009797853167182104 0.0 0.0
0.0 0.010914226755553282 -0.008605968318220452 0.0079399109033309 0.0006660574148895513 0.008038289765401385 0.0 0.0
0.0 0.007858040121418275 -0.006066300034496866 0.0054835632668162534 0.0005827367676806102 0.0062356785410036236 0.0 0.0
0.0 0.005036491971860251 -0.003830912046825099 0.0033644470303021276 0.0004664650165229716 0.0043977507524760534 0.0 0.0
0.0 0.0028255861375036466 -0.0019873812792051203 0.001682789507273525 0.0003045917719315955 0.0026819881253735537 0.0 0.0
0.0 0.001165150448586184 -0.0007459271768652213 0.0006087066326096221 0.0001372205442555991 0.0012990898581499478 0.0 0.0
0.0 0.00034348951091182705 -0.00017277147256745967 0.00013853434566758613 3.423712689987351e-05 0.000418683979887792 0.0 0.0
0.0 8.887796807005821e-05 -3.0981508614726724e-05 2.490971176706618e-05 6.071796847660493e-06 9.657313946981346e-05 0.0 0.0
0.0 2.1862799188091886e-05 -5.23140501806402e-06 4.225866309896046e-06 1.0055387081679317e-06 1.8741157367562336e-05 0.0 0.0
0.0 7.120295365636293e-06 2.386849461335013e-07 -1.9815240940311281e-07 -4.053253673039855e-08 -1.0994714956927426e-06 0.0 0.0
0.0 3.1237978142420583e-06 1.0788026091149483e-07 -8.564980671326711e-08 -2.2230454198221235e-08 -6.305005304893692e-07 0.0 0.0
0.0 9.659038644330307e-07 1.5364933911636078e-08 -9.441890025310556e-09 -5.923043886328447e-09 -1.969705449648645e-07 0.0 0.0
0.0 0.0 0.0 0.0 0.0 0.0 0.0 0.0
0.0 0.0 0.0 0.0 0.0 0.0 0.0 0.0
0.0 0.0 0.0 0.0 0.0 0.0 0.0 0.0
0.0 1.762862297087584e-06 7.425115861487428e-08 -6.029149643128876e-08 -1.3959662183589334e-08 3.448992119798501e-07 0.0 0.0
0.0 5.899586453619595e-06 -2.664372112747175e-07 2.3296188566424826e-07 3.347532561046539e-08 -9.860517440638295e-07 0.0 0.0
0.0 2.9103849722559055e-05 -8.151255794157432e-06 6.637575601433798e-06 1.5136801927236653e-06 -2.1093922459970425e-05 0.0 0.0
0.0 0.00014534643142498192 -7.408624407743007e-05 5.933582828223032e-05 1.4750415795199725e-05 -0.000150921566340901 0.0 0.0
0.0 0.0007150498518399822 -0.0004745848785468594 0.00038459524728867657 8.998963125818293e-05 -0.0007067910393769813 0.0 0.0
0.0 0.0021917123937213326 -0.0016362111745978588 0.0013719190411765536 0.0002642921334213048 -0.0018614443615595072 0.0 0.0
0.0 0.0046351583537578836 -0.0036413747389283735 0.0031850256772944473 0.0004563490616339267 -0.0034924299217677715 0.0 0.0
0.0 0.007809459947662724 -0.00631975388308682 0.005717987639691906 0.0006017662433949135 -0.005437212645629631 0.0 0.0
0.0 0.011566390376138682 -0.009470350250939119 0.008770699474147 0.0006996507767921209 -0.007439720826738059 0.0 0.0
0.0 0.0158271532681566 -0.01303779244520207 0.012262745218892427 0.0007750472263096406 -0.009357946511328248 0.0 0.0
0.0 0.02065703312033643 -0.01707748288638446 0.016238818511143803 0.0008386643752406552 -0.011232296606057526 0.0 0.0
0.0 0.026120278437659808 -0.02170193332517177 0.02080319738190565 0.0008987359432661249 -0.013171073173452957 0.0 0.0
0.0 0.03238106347284518 -0.026954313964076826 0.02599389499073496 0.0009604189733418469 -0.015385057409655492 0.0 0.0
0.0 0.03925109931560604 -0.03265193766924085 0.03162215977902892 0.0010297778902119224 -0.018243485386165676 0.0 0.0
0.0 0.04598221932963479 -0.038169155336556376 0.03705750819600508 0.0011116471405512745 -0.021966867125602592 0.0 0.0
0.0 0.05110319320600612 -0.042188628103183794 0.04097739650710767 0.0012112315960760847 -0.025943207226527237 0.0 0.0
0.0 0.05172518174192927 -0.04241858108964297 0.041072407931066396 0.0013461731585765453 -0.02810243521649455 0.0 0.0
0.0 0.04296819330187534 -0.034972977187516165 0.033422105802666684 0.001550871384849489 -0.024914532271547406 0.0 0.0
0.0 0.04296819330187771 -0.03497297718751338 0.03342210580266365 0.0015508713848497264 0.024914532271577042 0.0 0.0
0.0 0.05172518174192466 -0.04241858108963316 0.04107240793105646 0.0013461731585766965 0.02810243521653233 0.0 0.0
0.0 0.05110319320599124 -0.04218862810316628 0.040977396507090647 0.0012112315960756117 0.025943207226554844 0.0 0.0
0.0 0.04598221932960827 -0.03816915533653182 0.037057508195981206 0.00111164714055059 0.02196686712560702 0.0 0.0
0.0 0.03925109931557453 -0.03265193766921355 0.031622159779002415 0.0010297778902111168 0.01824348538615683 0.0 0.0
0.0 0.032381063472815455 -0.026954313964051364 0.02599389499071008 0.0009604189733412819 0.015385057409645728 0.0 0.0
0.0 0.02612027843762907 -0.021701933325145882 0.02080319738188014 0.0008987359432657419 0.013171073173440469 0.0 0.0
0.0 0.020657033120306104 -0.017077482886358547 0.01623881851111835 0.0008386643752401994 0.01123229660604715 0.0 0.0
0.0 0.015827153268126285 -0.013037792445176378 0.01226274521886744 0.0007750472263089354 0.009357946511313914 0.0 0.0
0.0 0.01156639037610976 -0.009470350250915452 0.008770699474124049 0.0006996507767914089 0.007439720826720193 0.0 0.0
0.0 0.007809459947639259 -0.006319753883067985 0.005717987639673898 0.0006017662433940866 0.0054372126456131 0.0 0.0
0.0 0.004635158353740483 -0.0036413747389144454 0.0031850256772816194 0.0004563490616328253 0.0034924299217571585 0.0 0.0
0.0 0.002191712393709506 -0.0016362111745886199 0.0013719190411685513 0.0002642921334200684 0.0018614443615511417 0.0 0.0
0.0 0.0007150498518344351 -0.0004745848785433632 0.0003845952472857824 8.998963125758079e-05 0.0007067910393723897 0.0 0.0
0.0 0.00014534643142330642 -7.40862440771626e-05 5.9335828282013696e-05 1.4750415795148923e-05 0.0001509215663403379 0.0 0.0
0.0 2.9103849721591208e-05 -8.151255794192265e-06 6.637575601460768e-06 1.5136801927314516e-06 2.1093922460062677e-05 0.0 0.0
0.0 5.899586453109427e-06 -2.664372113855767e-07 2.3296188575512728e-07 3.3475325630439384e-08 9.86051744435638e-07 0.0 0.0
0.0 1.7628622966370727e-06 7.425115859493936e-08 -6.029149641515662e-08 -1.3959662179784548e-08 -3.4489921188806817e-07 0.0 0.0
0.0 0.0 0.0 0.0 0.0 0.0 0.0 0.0
0.0 0.0 0.0 0.0 0.0 0.0 0.0 0.0
0.0 0.0 0.0 0.0 0.0 0.0 0.0 0.0
0.0 0.0 0.0 0.0 0.0 0.0 0.0 0.0
0.0 6.301117771691601e-07 3.177133557320747e-08 -2.5610055499987776e-08 -6.161280073216576e-09 1.139376708674144e-07 0.0 0.0
0.0 7.970808409918044e-06 5.815509169919215e-07 -4.6594831902360824e-07 -1.1560259796830223e-07 1.4720355902156086e-06 0.0 0.0
0.0 4.443439183822466e-05 -1.032680795313791e-05 8.333318589929287e-06 1.9934893632086243e-06 -1.8599955068017364e-05 0.0 0.0
0.0 0.00029140980133866834 -0.00019106095955523725 0.00015352770275014002 3.753325680509723e-05 -0.0002602444345086154 0.0 0.0
0.0 0.001319786805177665 -0.000988519732841367 0.0008138548575947567 0.0001746648752466101 -0.0009875411811659548 0.0 0.0
0.0 0.0034385958693597335 -0.0027651511161081634 0.0023786430970525385 0.00038650801905562473 -0.0022621343069806903 0.0 0.0
0.0 0.0066004185407862685 -0.005484411239954363 0.004916592235013428 0.0005678190049409329 -0.004004831908852932 0.0 0.0
0.0 0.01064692820944546 -0.008933854321563354 0.008242256585242656 0.0006915977363206927 -0.005981960264566966 0.0 0.0
0.0 0.015415396736133093 -0.012972804826009019 0.012191188532341008 0.0007816162936680107 -0.00797432528814084 0.0 0.0
0.0 0.02085284429778586 -0.017572726079728478 0.016715964452276397 0.000856761627452087 -0.009909744415795872 0.0 0.0
0.0 0.02701033249054072 -0.022800105323946333 0.02187517142643319 0.000924933897513131 -0.01182109954384515 0.0 0.0
0.0 0.034045780350609525 -0.028783798293756338 0.027793654299617318 0.0009901439941390196 -0.013792775615276507 0.0 0.0
0.0 0.04212012510028523 -0.03561161878613967 0.03455359519753372 0.0010580235886059582 -0.016043545360832176 0.0 0.0
0.0 0.050823555825075736 -0.04310223288525375 0.041963693998947206 0.0011385388863065244 -0.01895926981675141 0.0 0.0
0.0 0.059711024625432804 -0.05044343206134374 0.04920248830542912 0.0012409437559146312 -0.02283327329933982 0.0 0.0
0.0 0.06639705448213838 -0.05585225445391494 0.05448276785966702 0.001369486594247923 -0.027234347448850407 0.0 0.0
0.0 0.06722492973041003 -0.056294523467548895 0.054764192277307416 0.0015303311902414483 -0.030228368586413847 0.0 0.0
0.0 0.056887892801635226 -0.04722756269154786 0.04550334736414899 0.0017242153273988605 -0.029077514841850782 0.0 0.0
0.0 0.05688789280163533 -0.04722756269154343 0.04550334736414409 0.0017242153273993256 0.02907751484188259 0.0 0.0
0.0 0.06722492973040421 -0.05629452346753849 0.054764192277297 0.0015303311902414851 0.030228368586454432 0.0 0.0
0.0 0.06639705448212066 -0.055852254453895446 0.054482767859648014 0.0013694865942474321 0.02723434744888121 0.0 0.0
0.0 0.0597110246254024 -0.050443432061316185 0.04920248830540165 0.0012409437559144994 0.022833273299345633 0.0 0.0
0.0 0.050823555825037864 -0.043102232885221026 0.0419636939989143 0.001138538886306704 0.01895926981674556 0.0 0.0
0.0 0.042120125100243225 -0.03561161878610365 0.0345535951974975 0.0010580235886061707 0.016043545360822392 0.0 0.0
0.0 0.03404578035057126 -0.02878379829372362 0.027793654299584827 0.0009901439941387869 0.01379277561526374 0.0 0.0
0.0 0.027010332490505166 -0.02280010532391537 0.021875171426402957 0.0009249338975124122 0.01182109954383551 0.0 0.0
0.0 0.02085284429774739 -0.017572726079695577 0.01671596445224383 0.000856761627451745 0.009909744415781688 0.0 0.0
0.0 0.015415396736095516 -0.0129728048259777 0.012191188532309842 0.0007816162936678564 0.00797432528812159 0.0 0.0
0.0 0.010646928209415162 -0.008933854321537982 0.008242256585217812 0.0006915977363201761 0.005981960264548701 0.0 0.0
0.0 0.006600418540763363 -0.0054844112399352225 0.00491659223499497 0.0005678190049402555 0.004004831908840742 0.0 0.0
0.0 0.0034385958693451037 -0.002765151116096133 0.002378643097041582 0.0003865080190545519 0.002262134306972501 0.0 0.0
0.0 0.0013197868051690622 -0.0009885197328349262 0.0008138548575894159 0.00017466487524551023 0.0009875411811604987 0.0 0.0
0.0 0.00029140980133493424 -0.00019106095955324397 0.0001535277027485297 3.753325680471425e-05 0.0002602444345061718 0.0 0.0
0.0 4.443439183718838e-05 -1.0326807953217118e-05 8.333318589983655e-06 1.9934893632333585e-06 1.859995506811755e-05 0.0 0.0
0.0 7.970808409158845e-06 5.815509169319078e-07 -4.659483189760668e-07 -1.1560259795583037e-07 -1.4720355900711992e-06 0.0 0.0
0.0 6.301117768796378e-07 3.177133555832444e-08 -2.5610055487985994e-08 -6.161280070339225e-09 -1.1393767081387647e-07 0.0 0.0
0.0 0.0 0.0 0.0 0.0 0.0 0.0 0.0
0.0 0.0 0.0 0.0 0.0 0.0 0.0 0.0
0.0 0.0 0.0 0.0 0.0 0.0 0.0 0.0
0.0 0.0 0.0 0.0 0.0 0.0 0.0 0.0
0.0 9.159772724021529e-07 5.630253744311479e-08 -4.536700834069255e-08 -1.0935529102421052e-08 1.5681455061216043e-07 0.0 0.0
0.0 3.926458124985334e-06 5.832854246233088e-08 -4.671129777581417e-08 -1.16172446864755e-08 1.444403012827591e-07 0.0 0.0
0.0 6.989692203092517e-05 -3.3671529552074876e-05 2.692471857959113e-05 6.746810972483758e-06 -4.429159277668467e-05 0.0 0.0
0.0 0.0005785458266369711 -0.0004158284813566257 0.0003360099580614477 7.981852329517819e-05 -0.0003821142482089648 0.0 0.0
0.0 0.0021408457391432975 -0.0016794600457070528 0.0014091231679603917 0.000270336877746661 -0.0011728637255950065 0.0 0.0
0.0 0.004772316675033982 -0.0040610677291354775 0.003571835771156452 0.0004892319579790261 -0.0024690140032722014 0.0 0.0
0.0 0.00864856732411645 -0.007420827008524051 0.006774211317532148 0.0006466156909919039 -0.004146742492865175 0.0 0.0
0.0 0.013555891171112774 -0.01160796683421821 0.010850340939462856 0.0007576258947553601 -0.006000976351414692 0.0 0.0
0.0 0.019339200357552197 -0.016533327302817223 0.015686981158285387 0.0008463461445318322 -0.007900067801762469 0.0 0.0
0.0 0.02593818329579625 -0.022175252612452283 0.02124969987840511 0.000925552734047161 -0.00974876750859515 0.0 0.0
0.0 0.03350320758215669 -0.028603968000117927 0.02760338540117674 0.0010005825989411838 -0.011590432749835957 0.0 0.0
0.0 0.041991915212685235 -0.03595457468700279 0.03488182445829806 0.0010727502287047235 -0.01351884757065819 0.0 0.0
0.0 0.05175706415663874 -0.04432598154223234 0.043179126872970805 0.001146854669261527 -0.015620421843360151 0.0 0.0
0.0 0.06261192958945692 -0.053542741720273124 0.05230507598981644 0.0012376657304566745 -0.01818585022924047 0.0 0.0
0.0 0.07317795245573847 -0.06265546380698382 0.061296112197312694 0.001359351609671106 -0.021729676577183738 0.0 0.0
0.0 0.08122078888310855 -0.06941159277007079 0.06789625486745296 0.0015153379026178202 -0.026273314864220573 0.0 0.0
0.0 0.08244099572820157 -0.07008101298848177 0.06838773109270557 0.0016932818957761681 -0.030642131389839178 0.0 0.0
0.0 0.07112331040669045 -0.05957281384302257 0.05769242078325479 0.0018803930597677504 -0.033064838996367946 0.0 0.0
0.0 0.07112331040669148 -0.05957281384301904 0.05769242078325138 0.001880393059767613 0.033064838996400614 0.0 0.0
0.0 0.08244099572819032 -0.07008101298846735 0.06838773109269136 0.0016932818957759613 0.030642131389881005 0.0 0.0
0.0 0.08122078888307892 -0.06941159277004215 0.06789625486742426 0.0015153379026178841 0.026273314864249976 0.0 0.0
0.0 0.07317795245569929 -0.06265546380694864 0.06129611219727814 0.0013593516096705028 0.0217296765771905 0.0 0.0
0.0 0.06261192958941483 -0.05354274172023599 0.052305075989780465 0.0012376657304555012 0.01818585022923731 0.0 0.0
0.0 0.05175706415659763 -0.044325981542196094 0.04317912687293572 0.001146854669260354 0.015620421843355069 0.0 0.0
0.0 0.0419919152126408 -0.035954574686964225 0.03488182445826009 0.0010727502287041244 0.01351884757064827 0.0 0.0
0.0 0.03350320758211353 -0.02860396800008031 0.02760338540113953 0.0010005825989407699 0.011590432749825762 0.0 0.0
0.0 0.0259381832957516 -0.022175252612413522 0.02124969987836678 0.0009255527340467299 0.00974876750858257 0.0 0.0
0.0 0.019339200357510567 -0.01653332730278165 0.015686981158250405 0.0008463461445312438 0.007900067801745066 0.0 0.0
0.0 0.01355589117107718 -0.011607966834187954 0.010850340939433219 0.0007576258947547276 0.006000976351397493 0.0 0.0
0.0 0.008648567324088845 -0.007420827008500117 0.006774211317509169 0.0006466156909909469 0.004146742492853132 0.0 0.0
0.0 0.004772316675015735 -0.004061067729119712 0.0035718357711417726 0.000489231957977938 0.0024690140032637216 0.0 0.0
0.0 0.002140845739131483 -0.001679460045697522 0.0014091231679520674 0.0002703368777454547 0.0011728637255889506 0.0 0.0
0.0 0.0005785458266320775 -0.00041582848135341153 0.0003360099580588175 7.981852329459386e-05 0.0003821142482062045 0.0 0.0
0.0 6.989692203007605e-05 -3.3671529552306915e-05 2.692471857976525e-05 6.746810972541685e-06 4.429159277691784e-05 0.0 0.0
0.0 3.926458124615893e-06 5.8328542302666404e-08 -4.671129764901343e-08 -1.1617244653675594e-08 -1.4444030098795789e-07 0.0 0.0
0.0 9.159772720464821e-07 5.630253742091469e-08 -4.5367008322703315e-08 -1.0935529098212496e-08 -1.5681455054918204e-07 0.0 0.0
0.0 0.0 0.0 0.0 0.0 0.0 0.0 0.0
0.0 0.0 0.0 0.0 0.0 0.0 0.0 0.0
0.0 0.0 0.0 0.0 0.0 0.0 0.0 0.0
0.0 0.0 0.0 0.0 0.0 0.0 0.0 0.0
0.0 0.0 0.0 0.0 0.0 0.0 0.0 0.0
0.0 3.92411825176287e-06 -6.410853160840933e-07 5.031292972638875e-07 1.379560188202242e-07 -8.379526726902625e-07 0.0 0.0
0.0 0.00013556682029752332 -8.133618220091262e-05 6.51812130636753e-05 1.6154969137237446e-05 -7.607150178443396e-05 0.0 0.0
0.0 0.0010169620791843604 -0.0007642277069337297 0.0006245194011749814 0.00013970830575874875 -0.00047438265643769497 0.0 0.0
0.0 0.002923042083269774 -0.002536756956648814 0.002170089051067908 0.0003666679055809068 -0.0012599088625844476 0.0 0.0
0.0 0.006203529984325093 -0.005441784492085942 0.0048753268566739455 0.0005664576354119963 -0.002427703677557225 0.0 0.0
0.0 0.010797730583018784 -0.009395224235983855 0.008689952136012908 0.000705272099970943 -0.0038876903915596684 0.0 0.0
0.0 0.016518782064530693 -0.014316308314491124 0.013506216870101865 0.0008100914443892657 -0.005539673162704398 0.0 0.0
0.0 0.023294901009590127 -0.020127043086741063 0.019226212923982453 0.0009008301627585957 -0.007234806523439116 0.0 0.0
0.0 0.031094917896746437 -0.026819616397626846 0.02583320914488088 0.000986407252745949 -0.008891783408681214 0.0 0.0
0.0 0.03998054835938662 -0.03446764918329774 0.03339854309111626 0.0010691060921814667 -0.0105713889704692 0.0 0.0
0.0 0.050126394965117456 -0.04318525909812879 0.04203464602084903 0.0011506130772797418 -0.012329548300897893 0.0 0.0
0.0 0.06157111136775099 -0.05304173097343681 0.051809154991452784 0.0012325759819840393 -0.014158125431843312 0.0 0.0
0.0 0.07389682182287402 -0.063855207453621 0.06252662631739225 0.001328581136228698 -0.016104222043133824 0.0 0.0
0.0 0.0863929238668275 -0.0746265294058677 0.07316134053627875 0.0014651888695889608 -0.018722317373244264 0.0 0.0
0.0 0.09600156264653972 -0.08277904761641863 0.08113385816402476 0.0016451894523938563 -0.023032765631595762 0.0 0.0
0.0 0.09785349504190204 -0.0839436442180449 0.08209989218328116 0.0018437520347637478 -0.02936594412002767 0.0 0.0
0.0 0.08572730717121398 -0.07232658109654838 0.07029322007787897 0.002033361018669397 -0.036886830689808484 0.0 0.0
0.0 0.08572730717121305 -0.07232658109654336 0.07029322007787422 0.002033361018669166 0.036886830689840694 0.0 0.0
0.0 0.0978534950418879 -0.08394364421802894 0.08209989218326585 0.0018437520347630916 0.02936594412006535 0.0 0.0
0.0 0.09600156264651073 -0.08277904761639118 0.08113385816399803 0.0016451894523930393 0.023032765631623296 0.0 0.0
0.0 0.08639292386678413 -0.0746265294058294 0.07316134053624078 0.0014651888695886006 0.018722317373251342 0.0 0.0
0.0 0.07389682182282276 -0.06385520745357637 0.0625266263173478 0.001328581136228513 0.016104222043132697 0.0 0.0
0.0 0.061571111367695275 -0.05304173097338845 0.05180915499140464 0.0012325759819838103 0.014158125431838848 0.0 0.0
0.0 0.050126394965063235 -0.04318525909808161 0.04203464602080295 0.0011506130772786264 0.01232954830088896 0.0 0.0
0.0 0.03998054835933234 -0.03446764918325048 0.03339854309106982 0.0010691060921806717 0.010571388970459745 0.0 0.0
0.0 0.03109491789669461 -0.0268196163975815 0.025833209144836396 0.000986407252745122 0.008891783408669708 0.0 0.0
0.0 0.02329490100954177 -0.02012704308669911 0.0192262129239411 0.0009008301627580017 0.007234806523422928 0.0 0.0
0.0 0.016518782064490166 -0.014316308314455971 0.013506216870067214 0.0008100914443887506 0.005539673162689513 0.0 0.0
0.0 0.010797730582987386 -0.00939522423595635 0.008689952135985831 0.0007052720999705191 0.0038876903915494136 0.0 0.0
0.0 0.006203529984302205 -0.005441784492065576 0.004875326856654601 0.0005664576354109746 0.002427703677549218 0.0 0.0
0.0 0.00292304208325481 -0.0025367569566358064 0.0021700890510561507 0.0003666679055796555 0.001259908862578348 0.0 0.0
0.0 0.00101696207917701 -0.0007642277069284064 0.0006245194011705328 0.00013970830575787334 0.00047438265643457486 0.0 0.0
0.0 0.0001355668202951429 -8.133618219992078e-05 6.518121306286435e-05 1.6154969137056313e-05 7.607150178357542e-05 0.0 0.0
0.0 3.92411825121925e-06 -6.410853162493596e-07 5.031292973933562e-07 1.3795601885601582e-07 8.379526729168332e-07 0.0 0.0
0.0 0.0 0.0 0.0 0.0 0.0 0.0 0.0
0.0 0.0 0.0 0.0 0.0 0.0 0.0 0.0
0.0 0.0 0.0 0.0 0.0 0.0 0.0 0.0
0.0 0.0 0.0 0.0 0.0 0.0 0.0 0.0
0.0 0.0 0.0 0.0 0.0 0.0 0.0 0.0
0.0 0.0 0.0 0.0 0.0 0.0 0.0 0.0
0.0 4.373281561711846e-06 -7.007656283207076e-07 5.536611480862961e-07 1.4710448023440158e-07 -6.645810362200128e-07 0.0 0.0
0.0 0.00028130852958882974 -0.0001853784852158285 0.00014830653748370404 3.707194773212437e-05 -0.00010943261259739796 0.0 0.0
0.0 0.0015463140197931988 -0.0012466168840149418 0.0010321833155378802 0.00021443356847706174 -0.0005081099811344173 0.0 0.0
0.0 0.0038801220703465816 -0.00347789185812365 0.0030281068357222093 0.00044978502240144026 -0.001158222659797665 0.0 0.0
0.0 0.007740204059378148 -0.006853263461674281 0.006228534690501842 0.0006247287711724379 -0.002086816771693593 0.0 0.0
0.0 0.012983525400506962 -0.011390112831334311 0.010639292557347768 0.0007508202739865352 -0.003267572728883987 0.0 0.0
0.0 0.019521238372063446 -0.017035789423872266 0.016182183681580777 0.0008536057422914884 -0.004613165889201417 0.0 0.0
0.0 0.027306972394279976 -0.02373222297463324 0.022783589616386032 0.0009486333582472018 -0.006001130343329654 0.0 0.0
0.0 0.036255329939466216 -0.03148478585739661 0.030443729156146477 0.001041056701250122 -0.007355871612501662 0.0 0.0
0.0 0.04661886247825833 -0.04036424072163215 0.039231702138734136 0.0011325385828980005 -0.008737251258508216 0.0 0.0
0.0 0.05816158698320056 -0.05045689162563477 0.04923266570036862 0.0012242259252661582 -0.010236243781479791 0.0 0.0
0.0 0.07112980055219834 -0.061740717168680875 0.06042348626175731 0.0013172309069235813 -0.011732388868042013 0.0 0.0
0.0 0.08519303219847096 -0.07394599303270408 0.07252777129883559 0.0014182217338685175 -0.012911665360353453 0.0 0.0
0.0 0.09924441411587548 -0.08615398723162236 0.0846029886865539 0.0015509985450684344 -0.014077956624564148 0.0 0.0
0.0 0.11050126157867321 -0.09584557611546479 0.09409095167940605 0.0017546244360586766 -0.017504274436369864 0.0 0.0
0.0 0.11353784426901853 -0.09803458099596546 0.09604952279004367 0.001985058205921834 -0.02602267024489287 0.0 0.0
0.0 0.10133104105433666 -0.08585437987803543 0.083658054970298 0.00219632490773739 -0.04027250045272579 0.0 0.0
0.0 0.101331041054334 -0.08585437987802974 0.08365805497029309 0.0021963249077366787 0.040272500452751596 0.0 0.0
0.0 0.11353784426899735 -0.09803458099594456 0.09604952279002356 0.001985058205920977 0.026022670244925203 0.0 0.0
0.0 0.11050126157863406 -0.09584557611542935 0.0940909516793714 0.001754624436057883 0.017504274436394053 0.0 0.0
0.0 0.0992444141158257 -0.0861539872315785 0.0846029886865112 0.0015509985450673006 0.014077956624568844 0.0 0.0
0.0 0.08519303219841387 -0.07394599303265409 0.07252777129878674 0.0014182217338673752 0.012911665360352844 0.0 0.0
0.0 0.07112980055213447 -0.06174071716862544 0.06042348626170206 0.001317230906923402 0.011732388868039876 0.0 0.0
0.0 0.0581615869831399 -0.050456891625582326 0.04923266570031629 0.0012242259252660064 0.0102362437814731 0.0 0.0
0.0 0.04661886247819894 -0.040364240721580485 0.03923170213868303 0.0011325385828974677 0.008737251258500953 0.0 0.0
0.0 0.03625532993940679 -0.0314847858573449 0.030443729156095375 0.0010410567012495166 0.007355871612495067 0.0 0.0
0.0 0.027306972394224405 -0.023732222974584678 0.02278358961633794 0.0009486333582467355 0.006001130343316523 0.0 0.0
0.0 0.019521238372018256 -0.01703578942383276 0.016182183681541746 0.0008536057422910157 0.004613165889188418 0.0 0.0
0.0 0.01298352540046993 -0.011390112831301579 0.010639292557315749 0.0007508202739858337 0.003267572728875389 0.0 0.0
0.0 0.007740204059349951 -0.006853263461649186 0.006228534690477513 0.0006247287711716738 0.0020868167716859257 0.0 0.0
0.0 0.003880122070329995 -0.003477891858108627 0.003028106835708334 0.00044978502240029366 0.0011582226597926155 0.0 0.0
0.0 0.0015463140197847609 -0.0012466168840080422 0.0010321833155319574 0.00021443356847608385 0.0005081099811314834 0.0 0.0
0.0 0.00028130852958580357 -0.00018537848521410965 0.0001483065374823147 3.707194773179503e-05 0.00010943261259648788 0.0 0.0
0.0 4.373281561070991e-06 -7.007656284833421e-07 5.536611482126622e-07 1.4710448027068803e-07 6.645810363735167e-07 0.0 0.0
0.0 0.0 0.0 0.0 0.0 0.0 0.0 0.0
0.0 0.0 0.0 0.0 0.0 0.0 0.0 0.0
0.0 0.0 0.0 0.0 0.0 0.0 0.0 0.0
0.0 0.0 0.0 0.0 0.0 0.0 0.0 0.0
0.0 0.0 0.0 0.0 0.0 0.0 0.0 0.0
0.0 0.0 0.0 0.0 0.0 0.0 0.0 0.0
0.0 1.0372021039766947e-05 -1.6824922123009748e-06 1.3605605261196471e-06 3.2193168618135674e-07 -1.1151267953106045e-06 0.0 0.0
0.0 0.0005446688728001546 -0.00037706839112849725 0.0003037583857722834 7.331000535621389e-05 -0.00012750092918786758 0.0 0.0
0.0 0.0020230369221005936 -0.0018530358783375985 0.0015556879214563856 0.000297347956881212 -0.00042904342406869004 0.0 0.0
0.0 0.004948052251251398 -0.004458403210100966 0.003943847937927609 0.0005145552721733547 -0.0008648818179704434 0.0 0.0
0.0 0.009311146593204016 -0.008282468573614763 0.007612143853099463 0.000670324720515301 -0.0014870306888162673 0.0 0.0
0.0 0.015190420345989608 -0.01338487375190169 0.012597933553701757 0.0007869401981999295 -0.002294788826439647 0.0 0.0
0.0 0.022537029094310955 -0.019746530513859207 0.01885609852365478 0.000890431990204419 -0.003231537905788426 0.0 0.0
0.0 0.031314471761135686 -0.02733034989630152 0.026339220185709115 0.0009911297105924134 -0.004197186464163008 0.0 0.0
0.0 0.04158116945007524 -0.03614956825074786 0.035058477946389215 0.0010910903043586263 -0.005140931089162512 0.0 0.0
0.0 0.053123453163517756 -0.046274313441757316 0.04508275761530699 0.0011915558264503114 -0.00613807572331129 0.0 0.0
0.0 0.06627403234571333 -0.0577342748518385 0.05644018750295599 0.0012940873488824765 -0.00721187260197461 0.0 0.0
0.0 0.08087411677686265 -0.07039913198249297 0.06899868245626059 0.0014004495262323843 -0.008223853607696643 0.0 0.0
0.0 0.09633339856692326 -0.08383169471484046 0.08232061710598255 0.001511077608857922 -0.008809218431268464 0.0 0.0
0.0 0.11157977980947546 -0.09710216555409862 0.09546919720923742 0.0016329683448612897 -0.008653199704276044 0.0 0.0
0.0 0.12440321874539942 -0.10823029912130552 0.10642445162218558 0.0018058474991199498 -0.009718703196674542 0.0 0.0
0.0 0.1296598481513233 -0.11243489121800575 0.11031047680524364 0.0021244144127620396 -0.0193276575341199 0.0 0.0
0.0 0.1184038823710081 -0.10072484019038992 0.0983370686593178 0.002387771531072082 -0.04250421555139558 0.0 0.0
0.0 0.1184038823710005 -0.10072484019038164 0.09833706865930908 0.0023877715310725205 0.042504215551414 0.0 0.0
0.0 0.12965984815129444 -0.11243489121797991 0.11031047680521744 0.0021244144127624135 0.019327657534144106 0.0 0.0
0.0 0.12440321874535155 -0.10823029912126357 0.10642445162214391 0.001805847499119631 0.009718703196691983 0.0 0.0
0.0 0.111579779809418 -0.09710216555404835 0.09546919720918813 0.0016329683448602045 0.008653199704278376 0.0 0.0
0.0 0.09633339856685923 -0.08383169471478469 0.08232061710592763 0.001511077608857026 0.008809218431267708 0.0 0.0
0.0 0.08087411677679535 -0.07039913198243426 0.06899868245620285 0.0014004495262314326 0.008223853607695977 0.0 0.0
0.0 0.06627403234564469 -0.057734274851778795 0.05644018750289712 0.001294087348881647 0.007211872601971186 0.0 0.0
0.0 0.05312345316344936 -0.046274313441697884 0.04508275761524817 0.0011915558264497036 0.006138075723305499 0.0 0.0
0.0 0.0415811694500089 -0.03614956825068995 0.03505847794633177 0.0010910903043581585 0.005140931089158345 0.0 0.0
0.0 0.031314471761077135 -0.027330349896250418 0.02633922018565885 0.000991129710591553 0.004197186464154091 0.0 0.0
0.0 0.022537029094260447 -0.019746530513814982 0.01885609852361122 0.000890431990203778 0.003231537905779386 0.0 0.0
0.0 0.015190420345949345 -0.01338487375186588 0.012597933553666507 0.0007869401981993751 0.0022947888264342616 0.0 0.0
0.0 0.009311146593176207 -0.00828246857358974 0.007612143853075344 0.0006703247205143933 0.0014870306888115294 0.0 0.0
0.0 0.004948052251233532 -0.004458403210084434 0.0039438479379122066 0.0005145552721722258 0.0008648818179671522 0.0 0.0
0.0 0.0020230369220903053 -0.0018530358783280915 0.0015556879214480084 0.0002973479568800836 0.0004290434240665451 0.0 0.0
0.0 0.0005446688727962426 -0.0003770683911259454 0.00030375838577016245 7.331000535578282e-05 0.00012750092918705307 0.0 0.0
0.0 1.0372021039220545e-05 -1.6824922126832364e-06 1.36056052642036e-06 3.2193168626283e-07 1.1151267955462181e-06 0.0 0.0
0.0 0.0 0.0 0.0 0.0 0.0 0.0 0.0
0.0 0.0 0.0 0.0 0.0 0.0 0.0 0.0
0.0 0.0 0.0 0.0 0.0 0.0 0.0 0.0
0.0 0.0 0.0 0.0 0.0 0.0 0.0 0.0
0.0 0.0 0.0 0.0 0.0 0.0 0.0 0.0
0.0 0.0 0.0 0.0 0.0 0.0 0.0 0.0
0.0 3.817531919765562e-05 -2.1557456354766985e-05 1.7018432374566108e-05 4.539023980201024e-06 -6.0634204865350405e-06 0.0 0.0
0.0 0.0009397861042096413 -0.0006639545356337103 0.0005389708430663823 0.0001249836925673278 -8.867171690507599e-05 0.0 0.0
0.0 0.0027299809523871586 -0.002501117174007283 0.002130028118789102 0.0003710890552181806 -0.00020675058041613403 0.0 0.0
0.0 0.006055042428814225 -0.005462504115353182 0.004896219536731786 0.0005662845786213922 -0.00038375965306435044 0.0 0.0
0.0 0.010918967277013556 -0.009709859894510755 0.009004190137266346 0.0007056697572444038 -0.0006327124639575029 0.0 0.0
0.0 0.017425244670896883 -0.015359989415977285 0.014543303556026817 0.0008166858599504724 -0.000977461677761079 0.0 0.0
0.0 0.02559757239159384 -0.02242751657777812 0.021505280182185522 0.000922236395592594 -0.0013942736205402825 0.0 0.0
0.0 0.0354447650539442 -0.03090240620792747 0.029873600479813456 0.0010288057281140073 -0.0018273859079262784 0.0 0.0
0.0 0.046704105069996074 -0.04080520167267534 0.039667985257280144 0.001137216415395176 -0.002272781559561449 0.0 0.0
0.0 0.05971867620697313 -0.052165637975871246 0.05091881424309193 0.0012468237327792984 -0.0027389930258632633 0.0 0.0
0.0 0.07446898758376448 -0.06497011606453247 0.06361011361122652 0.001360002453305917 -0.003211316001091225 0.0 0.0
0.0 0.0906243027688846 -0.07899255473336111 0.07751299084939552 0.0014795638839656031 -0.00361737009366136 0.0 0.0
0.0 0.10746696760596612 -0.09359122113910799 0.09198653200450217 0.001604689134605804 -0.0037205068888457194 0.0 0.0
0.0 0.12364016049453684 -0.10761835532044221 0.10588928387200061 0.0017290714484415447 -0.0031296367891778566 0.0 0.0
0.0 0.13718869988771132 -0.11940726302710424 0.11755239338329895 0.0018548696438052536 -0.0019103458642696076 0.0 0.0
0.0 0.14498476685857614 -0.12607026802203608 0.12401527125048996 0.002054996771546057 -0.0065022609924600475 0.0 0.0
0.0 0.13829503177047417 -0.11849286602437456 0.11574191594845276 0.002750950075921771 -0.039303843392239954 0.0 0.0
0.0 0.13829503177046365 -0.11849286602436467 0.11574191594844299 0.0027509500759216486 0.03930384339224771 0.0 0.0
0.0 0.1449847668585432 -0.12607026802200721 0.1240152712504615 0.002054996771545656 0.006502260992470351 0.0 0.0
0.0 0.1371886998876605 -0.1194072630270598 0.11755239338325559 0.0018548696438041553 0.00191034586427847 0.0 0.0
0.0 0.12364016049446895 -0.10761835532038334 0.10588928387194199 0.0017290714484413294 0.0031296367891770127 0.0 0.0
0.0 0.10746696760589115 -0.09359122113904308 0.09198653200443738 0.0016046891346056847 0.003720506888845693 0.0 0.0
0.0 0.09062430276880941 -0.07899255473329572 0.07751299084933083 0.0014795638839648307 0.003617370093661093 0.0 0.0
0.0 0.07446898758368814 -0.06497011606446605 0.063610113611161 0.001360002453305034 0.0032113160010892846 0.0 0.0
0.0 0.059718676206898955 -0.05216563797580656 0.05091881424302834 0.0012468237327781888 0.0027389930258612935 0.0 0.0
0.0 0.046704105069923875 -0.04080520167261231 0.03966798525721822 0.0011372164153940693 0.0022727815595602737 0.0 0.0
0.0 0.03544476505387656 -0.030902406207868494 0.029873600479755152 0.0010288057281133433 0.0018273859079208257 0.0 0.0
0.0 0.025597572391538204 -0.02242751657772975 0.021505280182137855 0.000922236395591896 0.0013942736205359348 0.0 0.0
0.0 0.017425244670853036 -0.015359989415938524 0.014543303555988735 0.0008166858599497877 0.0009774616777591027 0.0 0.0
0.0 0.010918967276979281 -0.00970985989448007 0.009004190137236164 0.0007056697572439048 0.0006327124639552808 0.0 0.0
0.0 0.006055042428791238 -0.005462504115332303 0.004896219536711768 0.0005662845786205341 0.00038375965306290736 0.0 0.0
0.0 0.0027299809523739045 -0.0025011171739947437 0.002130028118777689 0.0003710890552170549 0.000206750580414984 0.0 0.0
0.0 0.0009397861042034481 -0.0006639545356290774 0.0005389708430625058 0.00012498369256657191 8.867171690457275e-05 0.0 0.0
0.0 3.8175319196988685e-05 -2.1557456354864017e-05 1.7018432374625292e-05 4.539023980238716e-06 6.063420486490705e-06 0.0 0.0
0.0 0.0 0.0 0.0 0.0 0.0 0.0 0.0
0.0 0.0 0.0 0.0 0.0 0.0 0.0 0.0
0.0 0.0 0.0 0.0 0.0 0.0 0.0 0.0