# vtk DataFile Version 3.0
Some data
ASCII
DATASET UNSTRUCTURED_GRID
POINTS 861 float
0.0 0.0 0.0
0.4 0.0 0.0
0.8 0.0 0.0
1.2000000000000002 0.0 0.0
1.6 0.0 0.0
2.0 0.0 0.0
2.4000000000000004 0.0 0.0
2.8000000000000003 0.0 0.0
3.2 0.0 0.0
3.6 0.0 0.0
4.0 0.0 0.0
4.4 0.0 0.0
4.800000000000001 0.0 0.0
5.2 0.0 0.0
5.6000000000000005 0.0 0.0
6.0 0.0 0.0
6.4 0.0 0.0
6.800000000000001 0.0 0.0
7.2 0.0 0.0
7.6000000000000005 0.0 0.0
8.0 0.0 0.0
8.4 0.0 0.0
8.8 0.0 0.0
9.200000000000001 0.0 0.0
9.600000000000001 0.0 0.0
10.0 0.0 0.0
10.4 0.0 0.0
10.8 0.0 0.0
11.200000000000001 0.0 0.0
11.600000000000001 0.0 0.0
12.0 0.0 0.0
12.4 0.0 0.0
12.8 0.0 0.0
13.200000000000001 0.0 0.0
13.600000000000001 0.0 0.0
14.0 0.0 0.0
14.4 0.0 0.0
14.8 0.0 0.0
15.200000000000001 0.0 0.0
15.600000000000001 0.0 0.0
16.0 0.0 0.0
0.0 0.1 0.0
0.4 0.1 0.0
0.8 0.1 0.0
1.2000000000000002 0.1 0.0
1.6 0.1 0.0
2.0 0.1 0.0
2.4000000000000004 0.1 0.0
2.8000000000000003 0.1 0.0
3.2 0.1 0.0
3.6 0.1 0.0
4.0 0.1 0.0
4.4 0.1 0.0
4.800000000000001 0.1 0.0
5.2 0.1 0.0
5.6000000000000005 0.1 0.0
6.0 0.1 0.0
6.4 0.1 0.0
6.800000000000001 0.1 0.0
7.2 0.1 0.0
7.6000000000000005 0.1 0.0
8.0 0.1 0.0
8.4 0.1 0.0
8.8 0.1 0.0
9.200000000000001 0.1 0.0
9.600000000000001 0.1 0.0
10.0 0.1 0.0
10.4 0.1 0.0
10.8 0.1 0.0
11.200000000000001 0.1 0.0
11.600000000000001 0.1 0.0
12.0 0.1 0.0
12.4 0.1 0.0
12.8 0.1 0.0
13.200000000000001 0.1 0.0
13.600000000000001 0.1 0.0
14.0 0.1 0.0
14.4 0.1 0.0
14.8 0.1 0.0
15.200000000000001 0.1 0.0
15.600000000000001 0.1 0.0
16.0 0.1 0.0
0.0 0.2 0.0
0.4 0.2 0.0
0.8 0.2 0.0
1.2000000000000002 0.2 0.0
1.6 0.2 0.0
2.0 0.2 0.0
2.4000000000000004 0.2 0.0
2.8000000000000003 0.2 0.0
3.2 0.2 0.0
3.6 0.2 0.0
4.0 0.2 0.0
4.4 0.2 0.0
4.800000000000001 0.2 0.0
5.2 0.2 0.0
5.6000000000000005 0.2 0.0
6.0 0.2 0.0
6.4 0.2 0.0
6.800000000000001 0.2 0.0
7.2 0.2 0.0
7.6000000000000005 0.2 0.0
8.0 0.2 0.0
8.4 0.2 0.0
8.8 0.2 0.0
9.200000000000001 0.2 0.0
9.600000000000001 0.2 0.0
10.0 0.2 0.0
10.4 0.2 0.0
10.8 0.2 0.0
11.200000000000001 0.2 0.0
11.600000000000001 0.2 0.0
12.0 0.2 0.0
12.4 0.2 0.0
12.8 0.2 0.0
13.200000000000001 0.2 0.0
13.600000000000001 0.2 0.0
14.0 0.2 0.0
14.4 0.2 0.0
14.8 0.2 0.0
15.200000000000001 0.2 0.0
15.600000000000001 0.2 0.0
16.0 0.2 0.0
0.0 0.30000000000000004 0.0
0.4 0.30000000000000004 0.0
0.8 0.30000000000000004 0.0
1.2000000000000002 0.30000000000000004 0.0
1.6 0.30000000000000004 0.0
2.0 0.30000000000000004 0.0
2.4000000000000004 0.30000000000000004 0.0
2.8000000000000003 0.30000000000000004 0.0
3.2 0.30000000000000004 0.0
3.6 0.30000000000000004 0.0
4.0 0.30000000000000004 0.0
4.4 0.30000000000000004 0.0
4.800000000000001 0.30000000000000004 0.0
5.2 0.30000000000000004 0.0
5.6000000000000005 0.30000000000000004 0.0
6.0 0.30000000000000004 0.0
6.4 0.30000000000000004 0.0
6.800000000000001 0.30000000000000004 0.0
7.2 0.30000000000000004 0.0
7.6000000000000005 0.30000000000000004 0.0
8.0 0.30000000000000004 0.0
8.4 0.30000000000000004 0.0
8.8 0.30000000000000004 0.0
9.200000000000001 0.30000000000000004 0.0
9.600000000000001 0.30000000000000004 0.0
10.0 0.30000000000000004 0.0
10.4 0.30000000000000004 0.0
10.8 0.30000000000000004 0.0
11.200000000000001 0.30000000000000004 0.0
11.600000000000001 0.30000000000000004 0.0
12.0 0.30000000000000004 0.0
12.4 0.30000000000000004 0.0
12.8 0.30000000000000004 0.0
13.200000000000001 0.30000000000000004 0.0
13.600000000000001 0.30000000000000004 0.0
14.0 0.30000000000000004 0.0
14.4 0.30000000000000004 0.0
14.8 0.30000000000000004 0.0
15.200000000000001 0.30000000000000004 0.0
15.600000000000001 0.30000000000000004 0.0
16.0 0.30000000000000004 0.0
0.0 0.4 0.0
0.4 0.4 0.0
0.8 0.4 0.0
1.2000000000000002 0.4 0.0
1.6 0.4 0.0
2.0 0.4 0.0
2.4000000000000004 0.4 0.0
2.8000000000000003 0.4 0.0
3.2 0.4 0.0
3.6 0.4 0.0
4.0 0.4 0.0
4.4 0.4 0.0
4.800000000000001 0.4 0.0
5.2 0.4 0.0
5.6000000000000005 0.4 0.0
6.0 0.4 0.0
6.4 0.4 0.0
6.800000000000001 0.4 0.0
7.2 0.4 0.0
7.6000000000000005 0.4 0.0
8.0 0.4 0.0
8.4 0.4 0.0
8.8 0.4 0.0
9.200000000000001 0.4 0.0
9.600000000000001 0.4 0.0
10.0 0.4 0.0
10.4 0.4 0.0
10.8 0.4 0.0
11.200000000000001 0.4 0.0
11.600000000000001 0.4 0.0
12.0 0.4 0.0
12.4 0.4 0.0
12.8 0.4 0.0
13.200000000000001 0.4 0.0
13.600000000000001 0.4 0.0
14.0 0.4 0.0
14.4 0.4 0.0
14.8 0.4 0.0
15.200000000000001 0.4 0.0
15.600000000000001 0.4 0.0
16.0 0.4 0.0
0.0 0.5 0.0
0.4 0.5 0.0
0.8 0.5 0.0
1.2000000000000002 0.5 0.0
1.6 0.5 0.0
2.0 0.5 0.0
2.4000000000000004 0.5 0.0
2.8000000000000003 0.5 0.0
3.2 0.5 0.0
3.6 0.5 0.0
4.0 0.5 0.0
4.4 0.5 0.0
4.800000000000001 0.5 0.0
5.2 0.5 0.0
5.6000000000000005 0.5 0.0
6.0 0.5 0.0
6.4 0.5 0.0
6.800000000000001 0.5 0.0
7.2 0.5 0.0
7.6000000000000005 0.5 0.0
8.0 0.5 0.0
8.4 0.5 0.0
8.8 0.5 0.0
9.200000000000001 0.5 0.0
9.600000000000001 0.5 0.0
10.0 0.5 0.0
10.4 0.5 0.0
10.8 0.5 0.0
11.200000000000001 0.5 0.0
11.600000000000001 0.5 0.0
12.0 0.5 0.0
12.4 0.5 0.0
12.8 0.5 0.0
13.200000000000001 0.5 0.0
13.600000000000001 0.5 0.0
14.0 0.5 0.0
14.4 0.5 0.0
14.8 0.5 0.0
15.200000000000001 0.5 0.0
15.600000000000001 0.5 0.0
16.0 0.5 0.0
0.0 0.6000000000000001 0.0
0.4 0.6000000000000001 0.0
0.8 0.6000000000000001 0.0
1.2000000000000002 0.6000000000000001 0.0
1.6 0.6000000000000001 0.0
2.0 0.6000000000000001 0.0
2.4000000000000004 0.6000000000000001 0.0
2.8000000000000003 0.6000000000000001 0.0
3.2 0.6000000000000001 0.0
3.6 0.6000000000000001 0.0
4.0 0.6000000000000001 0.0
4.4 0.6000000000000001 0.0
4.800000000000001 0.6000000000000001 0.0
5.2 0.6000000000000001 0.0
5.6000000000000005 0.6000000000000001 0.0
6.0 0.6000000000000001 0.0
6.4 0.6000000000000001 0.0
6.800000000000001 0.6000000000000001 0.0
7.2 0.6000000000000001 0.0
7.6000000000000005 0.6000000000000001 0.0
8.0 0.6000000000000001 0.0
8.4 0.6000000000000001 0.0
8.8 0.6000000000000001 0.0
9.200000000000001 0.6000000000000001 0.0
9.600000000000001 0.6000000000000001 0.0
10.0 0.6000000000000001 0.0
10.4 0.6000000000000001 0.0
10.8 0.6000000000000001 0.0
11.200000000000001 0.6000000000000001 0.0
11.600000000000001 0.6000000000000001 0.0
12.0 0.6000000000000001 0.0
12.4 0.6000000000000001 0.0
12.8 0.6000000000000001 0.0
13.200000000000001 0.6000000000000001 0.0
13.600000000000001 0.6000000000000001 0.0
14.0 0.6000000000000001 0.0
14.4 0.6000000000000001 0.0
14.8 0.6000000000000001 0.0
15.200000000000001 0.6000000000000001 0.0
15.600000000000001 0.6000000000000001 0.0
16.0 0.6000000000000001 0.0
0.0 0.7000000000000001 0.0
0.4 0.7000000000000001 0.0
0.8 0.7000000000000001 0.0
1.2000000000000002 0.7000000000000001 0.0
1.6 0.7000000000000001 0.0
2.0 0.7000000000000001 0.0
2.4000000000000004 0.7000000000000001 0.0
2.8000000000000003 0.7000000000000001 0.0
3.2 0.7000000000000001 0.0
3.6 0.7000000000000001 0.0
4.0 0.7000000000000001 0.0
4.4 0.7000000000000001 0.0
4.800000000000001 0.7000000000000001 0.0
5.2 0.7000000000000001 0.0
5.6000000000000005 0.7000000000000001 0.0
6.0 0.7000000000000001 0.0
6.4 0.7000000000000001 0.0
6.800000000000001 0.7000000000000001 0.0
7.2 0.7000000000000001 0.0
7.6000000000000005 0.7000000000000001 0.0
8.0 0.7000000000000001 0.0
8.4 0.7000000000000001 0.0
8.8 0.7000000000000001 0.0
9.200000000000001 0.7000000000000001 0.0
9.600000000000001 0.7000000000000001 0.0
10.0 0.7000000000000001 0.0
10.4 0.7000000000000001 0.0
10.8 0.7000000000000001 0.0
11.200000000000001 0.7000000000000001 0.0
11.600000000000001 0.7000000000000001 0.0
12.0 0.7000000000000001 0.0
12.4 0.7000000000000001 0.0
12.8 0.7000000000000001 0.0
13.200000000000001 0.7000000000000001 0.0
13.600000000000001 0.7000000000000001 0.0
14.0 0.7000000000000001 0.0
14.4 0.7000000000000001 0.0
14.8 0.7000000000000001 0.0
15.200000000000001 0.7000000000000001 0.0
15.600000000000001 0.7000000000000001 0.0
16.0 0.7000000000000001 0.0
0.0 0.8 0.0
0.4 0.8 0.0
0.8 0.8 0.0
1.2000000000000002 0.8 0.0
1.6 0.8 0.0
2.0 0.8 0.0
2.4000000000000004 0.8 0.0
2.8000000000000003 0.8 0.0
3.2 0.8 0.0
3.6 0.8 0.0
4.0 0.8 0.0
4.4 0.8 0.0
4.800000000000001 0.8 0.0
5.2 0.8 0.0
5.6000000000000005 0.8 0.0
6.0 0.8 0.0
6.4 0.8 0.0
6.800000000000001 0.8 0.0
7.2 0.8 0.0
7.6000000000000005 0.8 0.0
8.0 0.8 0.0
8.4 0.8 0.0
8.8 0.8 0.0
9.200000000000001 0.8 0.0
9.600000000000001 0.8 0.0
10.0 0.8 0.0
10.4 0.8 0.0
10.8 0.8 0.0
11.200000000000001 0.8 0.0
11.600000000000001 0.8 0.0
12.0 0.8 0.0
12.4 0.8 0.0
12.8 0.8 0.0
13.200000000000001 0.8 0.0
13.600000000000001 0.8 0.0
14.0 0.8 0.0
14.4 0.8 0.0
14.8 0.8 0.0
15.200000000000001 0.8 0.0
15.600000000000001 0.8 0.0
16.0 0.8 0.0
0.0 0.9 0.0
0.4 0.9 0.0
0.8 0.9 0.0
1.2000000000000002 0.9 0.0
1.6 0.9 0.0
2.0 0.9 0.0
2.4000000000000004 0.9 0.0
2.8000000000000003 0.9 0.0
3.2 0.9 0.0
3.6 0.9 0.0
4.0 0.9 0.0
4.4 0.9 0.0
4.800000000000001 0.9 0.0
5.2 0.9 0.0
5.6000000000000005 0.9 0.0
6.0 0.9 0.0
6.4 0.9 0.0
6.800000000000001 0.9 0.0
7.2 0.9 0.0
7.6000000000000005 0.9 0.0
8.0 0.9 0.0
8.4 0.9 0.0
8.8 0.9 0.0
9.200000000000001 0.9 0.0
9.600000000000001 0.9 0.0
10.0 0.9 0.0
10.4 0.9 0.0
10.8 0.9 0.0
11.200000000000001 0.9 0.0
11.600000000000001 0.9 0.0
12.0 0.9 0.0
12.4 0.9 0.0
12.8 0.9 0.0
13.200000000000001 0.9 0.0
13.600000000000001 0.9 0.0
14.0 0.9 0.0
14.4 0.9 0.0
14.8 0.9 0.0
15.200000000000001 0.9 0.0
15.600000000000001 0.9 0.0
16.0 0.9 0.0
0.0 1.0 0.0
0.4 1.0 0.0
0.8 1.0 0.0
1.2000000000000002 1.0 0.0
1.6 1.0 0.0
2.0 1.0 0.0
2.4000000000000004 1.0 0.0
2.8000000000000003 1.0 0.0
3.2 1.0 0.0
3.6 1.0 0.0
4.0 1.0 0.0
4.4 1.0 0.0
4.800000000000001 1.0 0.0
5.2 1.0 0.0
5.6000000000000005 1.0 0.0
6.0 1.0 0.0
6.4 1.0 0.0
6.800000000000001 1.0 0.0
7.2 1.0 0.0
7.6000000000000005 1.0 0.0
8.0 1.0 0.0
8.4 1.0 0.0
8.8 1.0 0.0
9.200000000000001 1.0 0.0
9.600000000000001 1.0 0.0
10.0 1.0 0.0
10.4 1.0 0.0
10.8 1.0 0.0
11.200000000000001 1.0 0.0
11.600000000000001 1.0 0.0
12.0 1.0 0.0
12.4 1.0 0.0
12.8 1.0 0.0
13.200000000000001 1.0 0.0
13.600000000000001 1.0 0.0
14.0 1.0 0.0
14.4 1.0 0.0
14.8 1.0 0.0
15.200000000000001 1.0 0.0
15.600000000000001 1.0 0.0
16.0 1.0 0.0
0.0 1.1 0.0
0.4 1.1 0.0
0.8 1.1 0.0
1.2000000000000002 1.1 0.0
1.6 1.1 0.0
2.0 1.1 0.0
2.4000000000000004 1.1 0.0
2.8000000000000003 1.1 0.0
3.2 1.1 0.0
3.6 1.1 0.0
4.0 1.1 0.0
4.4 1.1 0.0
4.800000000000001 1.1 0.0
5.2 1.1 0.0
5.6000000000000005 1.1 0.0
6.0 1.1 0.0
6.4 1.1 0.0
6.800000000000001 1.1 0.0
7.2 1.1 0.0
7.6000000000000005 1.1 0.0
8.0 1.1 0.0
8.4 1.1 0.0
8.8 1.1 0.0
9.200000000000001 1.1 0.0
9.600000000000001 1.1 0.0
10.0 1.1 0.0
10.4 1.1 0.0
10.8 1.1 0.0
11.200000000000001 1.1 0.0
11.600000000000001 1.1 0.0
12.0 1.1 0.0
12.4 1.1 0.0
12.8 1.1 0.0
13.200000000000001 1.1 0.0
13.600000000000001 1.1 0.0
14.0 1.1 0.0
14.4 1.1 0.0
14.8 1.1 0.0
15.200000000000001 1.1 0.0
15.600000000000001 1.1 0.0
16.0 1.1 0.0
0.0 1.2000000000000002 0.0
0.4 1.2000000000000002 0.0
0.8 1.2000000000000002 0.0
1.2000000000000002 1.2000000000000002 0.0
1.6 1.2000000000000002 0.0
2.0 1.2000000000000002 0.0
2.4000000000000004 1.2000000000000002 0.0
2.8000000000000003 1.2000000000000002 0.0
3.2 1.2000000000000002 0.0
3.6 1.2000000000000002 0.0
4.0 1.2000000000000002 0.0
4.4 1.2000000000000002 0.0
4.800000000000001 1.2000000000000002 0.0
5.2 1.2000000000000002 0.0
5.6000000000000005 1.2000000000000002 0.0
6.0 1.2000000000000002 0.0
6.4 1.2000000000000002 0.0
6.800000000000001 1.2000000000000002 0.0
7.2 1.2000000000000002 0.0
7.6000000000000005 1.2000000000000002 0.0
8.0 1.2000000000000002 0.0
8.4 1.2000000000000002 0.0
8.8 1.2000000000000002 0.0
9.200000000000001 1.2000000000000002 0.0
9.600000000000001 1.2000000000000002 0.0
10.0 1.2000000000000002 0.0
10.4 1.2000000000000002 0.0
10.8 1.2000000000000002 0.0
11.200000000000001 1.2000000000000002 0.0
11.600000000000001 1.2000000000000002 0.0
12.0 1.2000000000000002 0.0
12.4 1.2000000000000002 0.0
12.8 1.2000000000000002 0.0
13.200000000000001 1.2000000000000002 0.0
13.600000000000001 1.2000000000000002 0.0
14.0 1.2000000000000002 0.0
14.4 1.2000000000000002 0.0
14.8 1.2000000000000002 0.0
15.200000000000001 1.2000000000000002 0.0
15.600000000000001 1.2000000000000002 0.0
16.0 1.2000000000000002 0.0
0.0 1.3 0.0
0.4 1.3 0.0
0.8 1.3 0.0
1.2000000000000002 1.3 0.0
1.6 1.3 0.0
2.0 1.3 0.0
2.4000000000000004 1.3 0.0
2.8000000000000003 1.3 0.0
3.2 1.3 0.0
3.6 1.3 0.0
4.0 1.3 0.0
4.4 1.3 0.0
4.800000000000001 1.3 0.0
5.2 1.3 0.0
5.6000000000000005 1.3 0.0
6.0 1.3 0.0
6.4 1.3 0.0
6.800000000000001 1.3 0.0
7.2 1.3 0.0
7.6000000000000005 1.3 0.0
8.0 1.3 0.0
8.4 1.3 0.0
8.8 1.3 0.0
9.200000000000001 1.3 0.0
9.600000000000001 1.3 0.0
10.0 1.3 0.0
10.4 1.3 0.0
10.8 1.3 0.0
11.200000000000001 1.3 0.0
11.600000000000001 1.3 0.0
12.0 1.3 0.0
12.4 1.3 0.0
12.8 1.3 0.0
13.200000000000001 1.3 0.0
13.600000000000001 1.3 0.0
14.0 1.3 0.0
14.4 1.3 0.0
14.8 1.3 0.0
15.200000000000001 1.3 0.0
15.600000000000001 1.3 0.0
16.0 1.3 0.0
0.0 1.4000000000000001 0.0
0.4 1.4000000000000001 0.0
0.8 1.4000000000000001 0.0
1.2000000000000002 1.4000000000000001 0.0
1.6 1.4000000000000001 0.0
2.0 1.4000000000000001 0.0
2.4000000000000004 1.4000000000000001 0.0
2.8000000000000003 1.4000000000000001 0.0
3.2 1.4000000000000001 0.0
3.6 1.4000000000000001 0.0
4.0 1.4000000000000001 0.0
4.4 1.4000000000000001 0.0
4.800000000000001 1.4000000000000001 0.0
5.2 1.4000000000000001 0.0
5.6000000000000005 1.4000000000000001 0.0
6.0 1.4000000000000001 0.0
6.4 1.4000000000000001 0.0
6.800000000000001 1.4000000000000001 0.0
7.2 1.4000000000000001 0.0
7.6000000000000005 1.4000000000000001 0.0
8.0 1.4000000000000001 0.0
8.4 1.4000000000000001 0.0
8.8 1.4000000000000001 0.0
9.200000000000001 1.4000000000000001 0.0
9.600000000000001 1.4000000000000001 0.0
10.0 1.4000000000000001 0.0
10.4 1.4000000000000001 0.0
10.8 1.4000000000000001 0.0
11.200000000000001 1.4000000000000001 0.0
11.600000000000001 1.4000000000000001 0.0
12.0 1.4000000000000001 0.0
12.4 1.4000000000000001 0.0
12.8 1.4000000000000001 0.0
13.200000000000001 1.4000000000000001 0.0
13.600000000000001 1.4000000000000001 0.0
14.0 1.4000000000000001 0.0
14.4 1.4000000000000001 0.0
14.8 1.4000000000000001 0.0
15.200000000000001 1.4000000000000001 0.0
15.600000000000001 1.4000000000000001 0.0
16.0 1.4000000000000001 0.0
0.0 1.5 0.0
0.4 1.5 0.0
0.8 1.5 0.0
1.2000000000000002 1.5 0.0
1.6 1.5 0.0
2.0 1.5 0.0
2.4000000000000004 1.5 0.0
2.8000000000000003 1.5 0.0
3.2 1.5 0.0
3.6 1.5 0.0
4.0 1.5 0.0
4.4 1.5 0.0
4.800000000000001 1.5 0.0
5.2 1.5 0.0
5.6000000000000005 1.5 0.0
6.0 1.5 0.0
6.4 1.5 0.0
6.800000000000001 1.5 0.0
7.2 1.5 0.0
7.6000000000000005 1.5 0.0
8.0 1.5 0.0
8.4 1.5 0.0
8.8 1.5 0.0
9.200000000000001 1.5 0.0
9.600000000000001 1.5 0.0
10.0 1.5 0.0
10.4 1.5 0.0
10.8 1.5 0.0
11.200000000000001 1.5 0.0
11.600000000000001 1.5 0.0
12.0 1.5 0.0
12.4 1.5 0.0
12.8 1.5 0.0
13.200000000000001 1.5 0.0
13.600000000000001 1.5 0.0
14.0 1.5 0.0
14.4 1.5 0.0
14.8 1.5 0.0
15.200000000000001 1.5 0.0
15.600000000000001 1.5 0.0
16.0 1.5 0.0
0.0 1.6 0.0
0.4 1.6 0.0
0.8 1.6 0.0
1.2000000000000002 1.6 0.0
1.6 1.6 0.0
2.0 1.6 0.0
2.4000000000000004 1.6 0.0
2.8000000000000003 1.6 0.0
3.2 1.6 0.0
3.6 1.6 0.0
4.0 1.6 0.0
4.4 1.6 0.0
4.800000000000001 1.6 0.0
5.2 1.6 0.0
5.6000000000000005 1.6 0.0
6.0 1.6 0.0
6.4 1.6 0.0
6.800000000000001 1.6 0.0
7.2 1.6 0.0
7.6000000000000005 1.6 0.0
8.0 1.6 0.0
8.4 1.6 0.0
8.8 1.6 0.0
9.200000000000001 1.6 0.0
9.600000000000001 1.6 0.0
10.0 1.6 0.0
10.4 1.6 0.0
10.8 1.6 0.0
11.200000000000001 1.6 0.0
11.600000000000001 1.6 0.0
12.0 1.6 0.0
12.4 1.6 0.0
12.8 1.6 0.0
13.200000000000001 1.6 0.0
13.600000000000001 1.6 0.0
14.0 1.6 0.0
14.4 1.6 0.0
14.8 1.6 0.0
15.200000000000001 1.6 0.0
15.600000000000001 1.6 0.0
16.0 1.6 0.0
0.0 1.7000000000000002 0.0
0.4 1.7000000000000002 0.0
0.8 1.7000000000000002 0.0
1.2000000000000002 1.7000000000000002 0.0
1.6 1.7000000000000002 0.0
2.0 1.7000000000000002 0.0
2.4000000000000004 1.7000000000000002 0.0
2.8000000000000003 1.7000000000000002 0.0
3.2 1.7000000000000002 0.0
3.6 1.7000000000000002 0.0
4.0 1.7000000000000002 0.0
4.4 1.7000000000000002 0.0
4.800000000000001 1.7000000000000002 0.0
5.2 1.7000000000000002 0.0
5.6000000000000005 1.7000000000000002 0.0
6.0 1.7000000000000002 0.0
6.4 1.7000000000000002 0.0
6.800000000000001 1.7000000000000002 0.0
7.2 1.7000000000000002 0.0
7.6000000000000005 1.7000000000000002 0.0
8.0 1.7000000000000002 0.0
8.4 1.7000000000000002 0.0
8.8 1.7000000000000002 0.0
9.200000000000001 1.7000000000000002 0.0
9.600000000000001 1.7000000000000002 0.0
10.0 1.7000000000000002 0.0
10.4 1.7000000000000002 0.0
10.8 1.7000000000000002 0.0
11.200000000000001 1.7000000000000002 0.0
11.600000000000001 1.7000000000000002 0.0
12.0 1.7000000000000002 0.0
12.4 1.7000000000000002 0.0
12.8 1.7000000000000002 0.0
13.200000000000001 1.7000000000000002 0.0
13.600000000000001 1.7000000000000002 0.0
14.0 1.7000000000000002 0.0
14.4 1.7000000000000002 0.0
14.8 1.7000000000000002 0.0
15.200000000000001 1.7000000000000002 0.0
15.600000000000001 1.7000000000000002 0.0
16.0 1.7000000000000002 0.0
0.0 1.8 0.0
0.4 1.8 0.0
0.8 1.8 0.0
1.2000000000000002 1.8 0.0
1.6 1.8 0.0
2.0 1.8 0.0
2.4000000000000004 1.8 0.0
2.8000000000000003 1.8 0.0
3.2 1.8 0.0
3.6 1.8 0.0
4.0 1.8 0.0
4.4 1.8 0.0
4.800000000000001 1.8 0.0
5.2 1.8 0.0
5.6000000000000005 1.8 0.0
6.0 1.8 0.0
6.4 1.8 0.0
6.800000000000001 1.8 0.0
7.2 1.8 0.0
7.6000000000000005 1.8 0.0
8.0 1.8 0.0
8.4 1.8 0.0
8.8 1.8 0.0
9.200000000000001 1.8 0.0
9.600000000000001 1.8 0.0
10.0 1.8 0.0
10.4 1.8 0.0
10.8 1.8 0.0
11.200000000000001 1.8 0.0
11.600000000000001 1.8 0.0
12.0 1.8 0.0
12.4 1.8 0.0
12.8 1.8 0.0
13.200000000000001 1.8 0.0
13.600000000000001 1.8 0.0
14.0 1.8 0.0
14.4 1.8 0.0
14.8 1.8 0.0
15.200000000000001 1.8 0.0
15.600000000000001 1.8 0.0
16.0 1.8 0.0
0.0 1.9000000000000001 0.0
0.4 1.9000000000000001 0.0
0.8 1.9000000000000001 0.0
1.2000000000000002 1.9000000000000001 0.0
1.6 1.9000000000000001 0.0
2.0 1.9000000000000001 0.0
2.4000000000000004 1.9000000000000001 0.0
2.8000000000000003 1.9000000000000001 0.0
3.2 1.9000000000000001 0.0
3.6 1.9000000000000001 0.0
4.0 1.9000000000000001 0.0
4.4 1.9000000000000001 0.0
4.800000000000001 1.9000000000000001 0.0
5.2 1.9000000000000001 0.0
5.6000000000000005 1.9000000000000001 0.0
6.0 1.9000000000000001 0.0
6.4 1.9000000000000001 0.0
6.800000000000001 1.9000000000000001 0.0
7.2 1.9000000000000001 0.0
7.6000000000000005 1.9000000000000001 0.0
8.0 1.9000000000000001 0.0
8.4 1.9000000000000001 0.0
8.8 1.9000000000000001 0.0
9.200000000000001 1.9000000000000001 0.0
9.600000000000001 1.9000000000000001 0.0
10.0 1.9000000000000001 0.0
10.4 1.9000000000000001 0.0
10.8 1.9000000000000001 0.0
11.200000000000001 1.9000000000000001 0.0
11.600000000000001 1.9000000000000001 0.0
12.0 1.9000000000000001 0.0
12.4 1.9000000000000001 0.0
12.8 1.9000000000000001 0.0
13.200000000000001 1.9000000000000001 0.0
13.600000000000001 1.9000000000000001 0.0
14.0 1.9000000000000001 0.0
14.4 1.9000000000000001 0.0
14.8 1.9000000000000001 0.0
15.200000000000001 1.9000000000000001 0.0
15.600000000000001 1.9000000000000001 0.0
16.0 1.9000000000000001 0.0
0.0 2.0 0.0
0.4 2.0 0.0
0.8 2.0 0.0
1.2000000000000002 2.0 0.0
1.6 2.0 0.0
2.0 2.0 0.0
2.4000000000000004 2.0 0.0
2.8000000000000003 2.0 0.0
3.2 2.0 0.0
3.6 2.0 0.0
4.0 2.0 0.0
4.4 2.0 0.0
4.800000000000001 2.0 0.0
5.2 2.0 0.0
5.6000000000000005 2.0 0.0
6.0 2.0 0.0
6.4 2.0 0.0
6.800000000000001 2.0 0.0
7.2 2.0 0.0
7.6000000000000005 2.0 0.0
8.0 2.0 0.0
8.4 2.0 0.0
8.8 2.0 0.0
9.200000000000001 2.0 0.0
9.600000000000001 2.0 0.0
10.0 2.0 0.0
10.4 2.0 0.0
10.8 2.0 0.0
11.200000000000001 2.0 0.0
11.600000000000001 2.0 0.0
12.0 2.0 0.0
12.4 2.0 0.0
12.8 2.0 0.0
13.200000000000001 2.0 0.0
13.600000000000001 2.0 0.0
14.0 2.0 0.0
14.4 2.0 0.0
14.8 2.0 0.0
15.200000000000001 2.0 0.0
15.600000000000001 2.0 0.0
16.0 2.0 0.0
CELLS 800 4000
4 0 1 42 41
4 1 2 43 42
4 2 3 44 43
4 3 4 45 44
4 4 5 46 45
4 5 6 47 46
4 6 7 48 47
4 7 8 49 48
4 8 9 50 49
4 9 10 51 50
4 10 11 52 51
4 11 12 53 52
4 12 13 54 53
4 13 14 55 54
4 14 15 56 55
4 15 16 57 56
4 16 17 58 57
4 17 18 59 58
4 18 19 60 59
4 19 20 61 60
4 20 21 62 61
4 21 22 63 62
4 22 23 64 63
4 23 24 65 64
4 24 25 66 65
4 25 26 67 66
4 26 27 68 67
4 27 28 69 68
4 28 29 70 69
4 29 30 71 70
4 30 31 72 71
4 31 32 73 72
4 32 33 74 73
4 33 34 75 74
4 34 35 76 75
4 35 36 77 76
4 36 37 78 77
4 37 38 79 78
4 38 39 80 79
4 39 40 81 80
4 41 42 83 82
4 42 43 84 83
4 43 44 85 84
4 44 45 86 85
4 45 46 87 86
4 46 47 88 87
4 47 48 89 88
4 48 49 90 89
4 49 50 91 90
4 50 51 92 91
4 51 52 93 92
4 52 53 94 93
4 53 54 95 94
4 54 55 96 95
4 55 56 97 96
4 56 57 98 97
4 57 58 99 98
4 58 59 100 99
4 59 60 101 100
4 60 61 102 101
4 61 62 103 102
4 62 63 104 103
4 63 64 105 104
4 64 65 106 105
4 65 66 107 106
4 66 67 108 107
4 67 68 109 108
4 68 69 110 109
4 69 70 111 110
4 70 71 112 111
4 71 72 113 112
4 72 73 114 113
4 73 74 115 114
4 74 75 116 115
4 75 76 117 116
4 76 77 118 117
4 77 78 119 118
4 78 79 120 119
4 79 80 121 120
4 80 81 122 121
4 82 83 124 123
4 83 84 125 124
4 84 85 126 125
4 85 86 127 126
4 86 87 128 127
4 87 88 129 128
4 88 89 130 129
4 89 90 131 130
4 90 91 132 131
4 91 92 133 132
4 92 93 134 133
4 93 94 135 134
4 94 95 136 135
4 95 96 137 136
4 96 97 138 137
4 97 98 139 138
4 98 99 140 139
4 99 100 141 140
4 100 101 142 141
4 101 102 143 142
4 102 103 144 143
4 103 104 145 144
4 104 105 146 145
4 105 106 147 146
4 106 107 148 147
4 107 108 149 148
4 108 109 150 149
4 109 110 151 150
4 110 111 152 151
4 111 112 153 152
4 112 113 154 153
4 113 114 155 154
4 114 115 156 155
4 115 116 157 156
4 116 117 158 157
4 117 118 159 158
4 118 119 160 159
4 119 120 161 160
4 120 121 162 161
4 121 122 163 162
4 123 124 165 164
4 124 125 166 165
4 125 126 167 166
4 126 127 168 167
4 127 128 169 168
4 128 129 170 169
4 129 130 171 170
4 130 131 172 171
4 131 132 173 172
4 132 133 174 173
4 133 134 175 174
4 134 135 176 175
4 135 136 177 176
4 136 137 178 177
4 137 138 179 178
4 138 139 180 179
4 139 140 181 180
4 140 141 182 181
4 141 142 183 182
4 142 143 184 183
4 143 144 185 184
4 144 145 186 185
4 145 146 187 186
4 146 147 188 187
4 147 148 189 188
4 148 149 190 189
4 149 150 191 190
4 150 151 192 191
4 151 152 193 192
4 152 153 194 193
4 153 154 195 194
4 154 155 196 195
4 155 156 197 196
4 156 157 198 197
4 157 158 199 198
4 158 159 200 199
4 159 160 201 200
4 160 161 202 201
4 161 162 203 202
4 162 163 204 203
4 164 165 206 205
4 165 166 207 206
4 166 167 208 207
4 167 168 209 208
4 168 169 210 209
4 169 170 211 210
4 170 171 212 211
4 171 172 213 212
4 172 173 214 213
4 173 174 215 214
4 174 175 216 215
4 175 176 217 216
4 176 177 218 217
4 177 178 219 218
4 178 179 220 219
4 179 180 221 220
4 180 181 222 221
4 181 182 223 222
4 182 183 224 223
4 183 184 225 224
4 184 185 226 225
4 185 186 227 226
4 186 187 228 227
4 187 188 229 228
4 188 189 230 229
4 189 190 231 230
4 190 191 232 231
4 191 192 233 232
4 192 193 234 233
4 193 194 235 234
4 194 195 236 235
4 195 196 237 236
4 196 197 238 237
4 197 198 239 238
4 198 199 240 239
4 199 200 241 240
4 200 201 242 241
4 201 202 243 242
4 202 203 244 243
4 203 204 245 244
4 205 206 247 246
4 206 207 248 247
4 207 208 249 248
4 208 209 250 249
4 209 210 251 250
4 210 211 252 251
4 211 212 253 252
4 212 213 254 253
4 213 214 255 254
4 214 215 256 255
4 215 216 257 256
4 216 217 258 257
4 217 218 259 258
4 218 219 260 259
4 219 220 261 260
4 220 221 262 261
4 221 222 263 262
4 222 223 264 263
4 223 224 265 264
4 224 225 266 265
4 225 226 267 266
4 226 227 268 267
4 227 228 269 268
4 228 229 270 269
4 229 230 271 270
4 230 231 272 271
4 231 232 273 272
4 232 233 274 273
4 233 234 275 274
4 234 235 276 275
4 235 236 277 276
4 236 237 278 277
4 237 238 279 278
4 238 239 280 279
4 239 240 281 280
4 240 241 282 281
4 241 242 283 282
4 242 243 284 283
4 243 244 285 284
4 244 245 286 285
4 246 247 288 287
4 247 248 289 288
4 248 249 290 289
4 249 250 291 290
4 250 251 292 291
4 251 252 293 292
4 252 253 294 293
4 253 254 295 294
4 254 255 296 295
4 255 256 297 296
4 256 257 298 297
4 257 258 299 298
4 258 259 300 299
4 259 260 301 300
4 260 261 302 301
4 261 262 303 302
4 262 263 304 303
4 263 264 305 304
4 264 265 306 305
4 265 266 307 306
4 266 267 308 307
4 267 268 309 308
4 268 269 310 309
4 269 270 311 310
4 270 271 312 311
4 271 272 313 312
4 272 273 314 313
4 273 274 315 314
4 274 275 316 315
4 275 276 317 316
4 276 277 318 317
4 277 278 319 318
4 278 279 320 319
4 279 280 321 320
4 280 281 322 321
4 281 282 323 322
4 282 283 324 323
4 283 284 325 324
4 284 285 326 325
4 285 286 327 326
4 287 288 329 328
4 288 289 330 329
4 289 290 331 330
4 290 291 332 331
4 291 292 333 332
4 292 293 334 333
4 293 294 335 334
4 294 295 336 335
4 295 296 337 336
4 296 297 338 337
4 297 298 339 338
4 298 299 340 339
4 299 300 341 340
4 300 301 342 341
4 301 302 343 342
4 302 303 344 343
4 303 304 345 344
4 304 305 346 345
4 305 306 347 346
4 306 307 348 347
4 307 308 349 348
4 308 309 350 349
4 309 310 351 350
4 310 311 352 351
4 311 312 353 352
4 312 313 354 353
4 313 314 355 354
4 314 315 356 355
4 315 316 357 356
4 316 317 358 357
4 317 318 359 358
4 318 319 360 359
4 319 320 361 360
4 320 321 362 361
4 321 322 363 362
4 322 323 364 363
4 323 324 365 364
4 324 325 366 365
4 325 326 367 366
4 326 327 368 367
4 328 329 370 369
4 329 330 371 370
4 330 331 372 371
4 331 332 373 372
4 332 333 374 373
4 333 334 375 374
4 334 335 376 375
4 335 336 377 376
4 336 337 378 377
4 337 338 379 378
4 338 339 380 379
4 339 340 381 380
4 340 341 382 381
4 341 342 383 382
4 342 343 384 383
4 343 344 385 384
4 344 345 386 385
4 345 346 387 386
4 346 347 388 387
4 347 348 389 388
4 348 349 390 389
4 349 350 391 390
4 350 351 392 391
4 351 352 393 392
4 352 353 394 393
4 353 354 395 394
4 354 355 396 395
4 355 356 397 396
4 356 357 398 397
4 357 358 399 398
4 358 359 400 399
4 359 360 401 400
4 360 361 402 401
4 361 362 403 402
4 362 363 404 403
4 363 364 405 404
4 364 365 406 405
4 365 366 407 406
4 366 367 408 407
4 367 368 409 408
4 369 370 411 410
4 370 371 412 411
4 371 372 413 412
4 372 373 414 413
4 373 374 415 414
4 374 375 416 415
4 375 376 417 416
4 376 377 418 417
4 377 378 419 418
4 378 379 420 419
4 379 380 421 420
4 380 381 422 421
4 381 382 423 422
4 382 383 424 423
4 383 384 425 424
4 384 385 426 425
4 385 386 427 426
4 386 387 428 427
4 387 388 429 428
4 388 389 430 429
4 389 390 431 430
4 390 391 432 431
4 391 392 433 432
4 392 393 434 433
4 393 394 435 434
4 394 395 436 435
4 395 396 437 436
4 396 397 438 437
4 397 398 439 438
4 398 399 440 439
4 399 400 441 440
4 400 401 442 441
4 401 402 443 442
4 402 403 444 443
4 403 404 445 444
4 404 405 446 445
4 405 406 447 446
4 406 407 448 447
4 407 408 449 448
4 408 409 450 449
4 410 411 452 451
4 411 412 453 452
4 412 413 454 453
4 413 414 455 454
4 414 415 456 455
4 415 416 457 456
4 416 417 458 457
4 417 418 459 458
4 418 419 460 459
4 419 420 461 460
4 420 421 462 461
4 421 422 463 462
4 422 423 464 463
4 423 424 465 464
4 424 425 466 465
4 425 426 467 466
4 426 427 468 467
4 427 428 469 468
4 428 429 470 469
4 429 430 471 470
4 430 431 472 471
4 431 432 473 472
4 432 433 474 473
4 433 434 475 474
4 434 435 476 475
4 435 436 477 476
4 436 437 478 477
4 437 438 479 478
4 438 439 480 479
4 439 440 481 480
4 440 441 482 481
4 441 442 483 482
4 442 443 484 483
4 443 444 485 484
4 444 445 486 485
4 445 446 487 486
4 446 447 488 487
4 447 448 489 488
4 448 449 490 489
4 449 450 491 490
4 451 452 493 492
4 452 453 494 493
4 453 454 495 494
4 454 455 496 495
4 455 456 497 496
4 456 457 498 497
4 457 458 499 498
4 458 459 500 499
4 459 460 501 500
4 460 461 502 501
4 461 462 503 502
4 462 463 504 503
4 463 464 505 504
4 464 465 506 505
4 465 466 507 506
4 466 467 508 507
4 467 468 509 508
4 468 469 510 509
4 469 470 511 510
4 470 471 512 511
4 471 472 513 512
4 472 473 514 513
4 473 474 515 514
4 474 475 516 515
4 475 476 517 516
4 476 477 518 517
4 477 478 519 518
4 478 479 520 519
4 479 480 521 520
4 480 481 522 521
4 481 482 523 522
4 482 483 524 523
4 483 484 525 524
4 484 485 526 525
4 485 486 527 526
4 486 487 528 527
4 487 488 529 528
4 488 489 530 529
4 489 490 531 530
4 490 491 532 531
4 492 493 534 533
4 493 494 535 534
4 494 495 536 535
4 495 496 537 536
4 496 497 538 537
4 497 498 539 538
4 498 499 540 539
4 499 500 541 540
4 500 501 542 541
4 501 502 543 542
4 502 503 544 543
4 503 504 545 544
4 504 505 546 545
4 505 506 547 546
4 506 507 548 547
4 507 508 549 548
4 508 509 550 549
4 509 510 551 550
4 510 511 552 551
4 511 512 553 552
4 512 513 554 553
4 513 514 555 554
4 514 515 556 555
4 515 516 557 556
4 516 517 558 557
4 517 518 559 558
4 518 519 560 559
4 519 520 561 560
4 520 521 562 561
4 521 522 563 562
4 522 523 564 563
4 523 524 565 564
4 524 525 566 565
4 525 526 567 566
4 526 527 568 567
4 527 528 569 568
4 528 529 570 569
4 529 530 571 570
4 530 531 572 571
4 531 532 573 572
4 533 534 575 574
4 534 535 576 575
4 535 536 577 576
4 536 537 578 577
4 537 538 579 578
4 538 539 580 579
4 539 540 581 580
4 540 541 582 581
4 541 542 583 582
4 542 543 584 583
4 543 544 585 584
4 544 545 586 585
4 545 546 587 586
4 546 547 588 587
4 547 548 589 588
4 548 549 590 589
4 549 550 591 590
4 550 551 592 591
4 551 552 593 592
4 552 553 594 593
4 553 554 595 594
4 554 555 596 595
4 555 556 597 596
4 556 557 598 597
4 557 558 599 598
4 558 559 600 599
4 559 560 601 600
4 560 561 602 601
4 561 562 603 602
4 562 563 604 603
4 563 564 605 604
4 564 565 606 605
4 565 566 607 606
4 566 567 608 607
4 567 568 609 608
4 568 569 610 609
4 569 570 611 610
4 570 571 612 611
4 571 572 613 612
4 572 573 614 613
4 574 575 616 615
4 575 576 617 616
4 576 577 618 617
4 577 578 619 618
4 578 579 620 619
4 579 580 621 620
4 580 581 622 621
4 581 582 623 622
4 582 583 624 623
4 583 584 625 624
4 584 585 626 625
4 585 586 627 626
4 586 587 628 627
4 587 588 629 628
4 588 589 630 629
4 589 590 631 630
4 590 591 632 631
4 591 592 633 632
4 592 593 634 633
4 593 594 635 634
4 594 595 636 635
4 595 596 637 636
4 596 597 638 637
4 597 598 639 638
4 598 599 640 639
4 599 600 641 640
4 600 601 642 641
4 601 602 643 642
4 602 603 644 643
4 603 604 645 644
4 604 605 646 645
4 605 606 647 646
4 606 607 648 647
4 607 608 649 648
4 608 609 650 649
4 609 610 651 650
4 610 611 652 651
4 611 612 653 652
4 612 613 654 653
4 613 614 655 654
4 615 616 657 656
4 616 617 658 657
4 617 618 659 658
4 618 619 660 659
4 619 620 661 660
4 620 621 662 661
4 621 622 663 662
4 622 623 664 663
4 623 624 665 664
4 624 625 666 665
4 625 626 667 666
4 626 627 668 667
4 627 628 669 668
4 628 629 670 669
4 629 630 671 670
4 630 631 672 671
4 631 632 673 672
4 632 633 674 673
4 633 634 675 674
4 634 635 676 675
4 635 636 677 676
4 636 637 678 677
4 637 638 679 678
4 638 639 680 679
4 639 640 681 680
4 640 641 682 681
4 641 642 683 682
4 642 643 684 683
4 643 644 685 684
4 644 645 686 685
4 645 646 687 686
4 646 647 688 687
4 647 648 689 688
4 648 649 690 689
4 649 650 691 690
4 650 651 692 691
4 651 652 693 692
4 652 653 694 693
4 653 654 695 694
4 654 655 696 695
4 656 657 698 697
4 657 658 699 698
4 658 659 700 699
4 659 660 701 700
4 660 661 702 701
4 661 662 703 702
4 662 663 704 703
4 663 664 705 704
4 664 665 706 705
4 665 666 707 706
4 666 667 708 707
4 667 668 709 708
4 668 669 710 709
4 669 670 711 710
4 670 671 712 711
4 671 672 713 712
4 672 673 714 713
4 673 674 715 714
4 674 675 716 715
4 675 676 717 716
4 676 677 718 717
4 677 678 719 718
4 678 679 720 719
4 679 680 721 720
4 680 681 722 721
4 681 682 723 722
4 682 683 724 723
4 683 684 725 724
4 684 685 726 725
4 685 686 727 726
4 686 687 728 727
4 687 688 729 728
4 688 689 730 729
4 689 690 731 730
4 690 691 732 731
4 691 692 733 732
4 692 693 734 733
4 693 694 735 734
4 694 695 736 735
4 695 696 737 736
4 697 698 739 738
4 698 699 740 739
4 699 700 741 740
4 700 701 742 741
4 701 702 743 742
4 702 703 744 743
4 703 704 745 744
4 704 705 746 745
4 705 706 747 746
4 706 707 748 747
4 707 708 749 748
4 708 709 750 749
4 709 710 751 750
4 710 711 752 751
4 711 712 753 752
4 712 713 754 753
4 713 714 755 754
4 714 715 756 755
4 715 716 757 756
4 716 717 758 757
4 717 718 759 758
4 718 719 760 759
4 719 720 761 760
4 720 721 762 761
4 721 722 763 762
4 722 723 764 763
4 723 724 765 764
4 724 725 766 765
4 725 726 767 766
4 726 727 768 767
4 727 728 769 768
4 728 729 770 769
4 729 730 771 770
4 730 731 772 771
4 731 732 773 772
4 732 733 774 773
4 733 734 775 774
4 734 735 776 775
4 735 736 777 776
4 736 737 778 777
4 738 739 780 779
4 739 740 781 780
4 740 741 782 781
4 741 742 783 782
4 742 743 784 783
4 743 744 785 784
4 744 745 786 785
4 745 746 787 786
4 746 747 788 787
4 747 748 789 788
4 748 749 790 789
4 749 750 791 790
4 750 751 792 791
4 751 752 793 792
4 752 753 794 793
4 753 754 795 794
4 754 755 796 795
4 755 756 797 796
4 756 757 798 797
4 757 758 799 798
4 758 759 800 799
4 759 760 801 800
4 760 761 802 801
4 761 762 803 802
4 762 763 804 803
4 763 764 805 804
4 764 765 806 805
4 765 766 807 806
4 766 767 808 807
4 767 768 809 808
4 768 769 810 809
4 769 770 811 810
4 770 771 812 811
4 771 772 813 812
4 772 773 814 813
4 773 774 815 814
4 774 775 816 815
4 775 776 817 816
4 776 777 818 817
4 777 778 819 818
4 779 780 821 820
4 780 781 822 821
4 781 782 823 822
4 782 783 824 823
4 783 784 825 824
4 784 785 826 825
4 785 786 827 826
4 786 787 828 827
4 787 788 829 828
4 788 789 830 829
4 789 790 831 830
4 790 791 832 831
4 791 792 833 832
4 792 793 834 833
4 793 794 835 834
4 794 795 836 835
4 795 796 837 836
4 796 797 838 837
4 797 798 839 838
4 798 799 840 839
4 799 800 841 840
4 800 801 842 841
4 801 802 843 842
4 802 803 844 843
4 803 804 845 844
4 804 805 846 845
4 805 806 847 846
4 806 807 848 847
4 807 808 849 848
4 808 809 850 849
4 809 810 851 850
4 810 811 852 851
4 811 812 853 852
4 812 813 854 853
4 813 814 855 854
4 814 815 856 855
4 815 816 857 856
4 816 817 858 857
4 817 818 859 858
4 818 819 860 859
CELL_TYPES 800
9
9
9
9
9
9
9
9
9
9
9
9
9
9
9
9
9
9
9
9
9
9
9
9
9
9
9
9
9
9
9
9
9
9
9
9
9
9
9
9
9
9
9
9
9
9
9
9
9
9
9
9
9
9
9
9
9
9
9
9
9
9
9
9
9
9
9
9
9
9
9
9
9
9
9
9
9
9
9
9
9
9
9
9
9
9
9
9
9
9
9
9
9
9
9
9
9
9
9
9
9
9
9
9
9
9
9
9
9
9
9
9
9
9
9
9
9
9
9
9
9
9
9
9
9
9
9
9
9
9
9
9
9
9
9
9
9
9
9
9
9
9
9
9
9
9
9
9
9
9
9
9
9
9
9
9
9
9
9
9
9
9
9
9
9
9
9
9
9
9
9
9
9
9
9
9
9
9
9
9
9
9
9
9
9
9
9
9
9
9
9
9
9
9
9
9
9
9
9
9
9
9
9
9
9
9
9
9
9
9
9
9
9
9
9
9
9
9
9
9
9
9
9
9
9
9
9
9
9
9
9
9
9
9
9
9
9
9
9
9
9
9
9
9
9
9
9
9
9
9
9
9
9
9
9
9
9
9
9
9
9
9
9
9
9
9
9
9
9
9
9
9
9
9
9
9
9
9
9
9
9
9
9
9
9
9
9
9
9
9
9
9
9
9
9
9
9
9
9
9
9
9
9
9
9
9
9
9
9
9
9
9
9
9
9
9
9
9
9
9
9
9
9
9
9
9
9
9
9
9
9
9
9
9
9
9
9
9
9
9
9
9
9
9
9
9
9
9
9
9
9
9
9
9
9
9
9
9
9
9
9
9
9
9
9
9
9
9
9
9
9
9
9
9
9
9
9
9
9
9
9
9
9
9
9
9
9
9
9
9
9
9
9
9
9
9
9
9
9
9
9
9
9
9
9
9
9
9
9
9
9
9
9
9
9
9
9
9
9
9
9
9
9
9
9
9
9
9
9
9
9
9
9
9
9
9
9
9
9
9
9
9
9
9
9
9
9
9
9
9
9
9
9
9
9
9
9
9
9
9
9
9
9
9
9
9
9
9
9
9
9
9
9
9
9
9
9
9
9
9
9
9
9
9
9
9
9
9
9
9
9
9
9
9
9
9
9
9
9
9
9
9
9
9
9
9
9
9
9
9
9
9
9
9
9
9
9
9
9
9
9
9
9
9
9
9
9
9
9
9
9
9
9
9
9
9
9
9
9
9
9
9
9
9
9
9
9
9
9
9
9
9
9
9
9
9
9
9
9
9
9
9
9
9
9
9
9
9
9
9
9
9
9
9
9
9
9
9
9
9
9
9
9
9
9
9
9
9
9
9
9
9
9
9
9
9
9
9
9
9
9
9
9
9
9
9
9
9
9
9
9
9
9
9
9
9
9
9
9
9
9
9
9
9
9
9
9
9
9
9
9
9
9
9
9
9
9
9
9
9
9
9
9
9
9
9
9
9
9
9
9
9
9
9
9
9
9
9
9
9
9
9
9
9
9
9
9
9
9
9
9
9
9
9
9
9
9
9
9
9
9
9
9
9
9
9
9
9
9
9
9
9
9
9
9
9
9
9
9
9
9
9
9
9
9
9
9
9
9
9
9
9
9
9
9
9
9
9
9
9
9
9
9
9
9
9
9
9
9
9
9
9
9
9
9
9
9
9
9
9
9
9
9
9
9
9
9
9
9
9
9
9
9
9
9
9
9
9
9
9
9
9
9
9
9
9
9
9
9
9
9
9
9
9
9
9
9
9
9
9
9
9
9
9
9
9
9
9
9
9
9
9
9
9
9
9
9
9
9
9
POINT_DATA 861
SCALARS Disp float 2
LOOKUP_TABLE default
0.0 0.0
0.009401112582131412 -0.17181236417553405
0.016744914495521852 -0.31698758039154157
0.0226356349030592 -0.45967085405878444
0.029365549523415312 -0.5996098776966878
0.03745946425123415 -0.7367424248873999
0.047175462628590424 -0.8704131915101208
0.058617123453064815 -0.9999141711132958
0.07181835334751725 -1.124513741356208
0.08678701088210129 -1.2434892750848645
0.10352192085434386 -1.3561265133386342
0.1220203739723525 -1.461717747068761
0.14228070288010305 -1.5595596194025096
0.16430475328521135 -1.6489521453342053
0.18810319042266796 -1.7291963872921312
0.2137052203821471 -1.7995848437036273
0.24116837332861793 -1.8593740195820756
0.2705688302093237 -1.9077291956584443
0.30193025265921963 -1.9436530989112535
0.3350485644551116 -1.9659768391304302
0.3692690688125908 -1.9735869271996267
0.4034895731700705 -1.9659768391304302
0.4366078849659624 -1.943653098911253
0.4679693074158582 -1.907729195658444
0.497369764296564 -1.8593740195820754
0.5248329172430348 -1.799584843703627
0.550434947202514 -1.7291963872921305
0.5742333843399705 -1.6489521453342044
0.5962574347450786 -1.5595596194025092
0.6165177636528294 -1.4617177470687606
0.635016216770838 -1.3561265133386342
0.6517511267430804 -1.2434892750848645
0.6667197842776645 -1.1245137413562079
0.6799210141721169 -0.9999141711132958
0.6913626749965914 -0.8704131915101202
0.7010786733739476 -0.7367424248874005
0.7091725881017664 -0.599609877696688
0.7159025027221225 -0.459670854058785
0.7217932231296599 -0.31698758039154135
0.7291370250430503 -0.1718123641755336
0.7385381376251817 0.0
0.042560243230874435 -0.005838272917494991
0.04841433674120083 -0.17135725060455145
0.052466240075443926 -0.31781196278618384
0.05792455169629058 -0.4602456119687994
0.06390991082655909 -0.6003671349584511
0.07121756450021634 -0.7376444213165703
0.07997404314833076 -0.8714898615916956
0.09027968350648818 -1.0011681986428729
0.1021644784805962 -1.1259475154615715
0.1156376482286375 -1.2451028509109263
0.13069952071338553 -1.3579197109710122
0.14734853073278076 -1.4636903373131542
0.16558382448854772 -1.5617115788339664
0.18540759170500523 -1.651283977860772
0.20682933390337727 -1.7317098337356511
0.22987279833165217 -1.8022839190168563
0.2545810294547544 -1.862265381981553
0.28100269565509306 -1.9108188718549597
0.3091269496484252 -1.94693472148969
0.3387410024423656 -1.969409866113466
0.36926906881259086 -1.9770799923780082
0.3997971351828164 -1.969409866113466
0.4294111879767567 -1.9469347214896897
0.45753544197008883 -1.9108188718549592
0.48395710817042753 -1.8622653819815524
0.5086653392935296 -1.802283919016856
0.5317088037218046 -1.7317098337356502
0.5531305459201765 -1.651283977860771
0.572954313136634 -1.561711578833966
0.5911896068924011 -1.4636903373131538
0.6078386169117963 -1.357919710971012
0.6229004893965442 -1.245102850910926
0.6363736591445855 -1.1259475154615715
0.6482584541186936 -1.0011681986428727
0.658564094476851 -0.8714898615916951
0.6673205731249654 -0.7376444213165708
0.6746282267986227 -0.6003671349584513
0.6806135859288911 -0.4602456119688
0.6860718975497379 -0.3178119627861836
0.690123800883981 -0.171357250604551
0.6959778943943072 -0.0058382729174949995
0.08222256679712864 -0.010853189988421313
0.08642145453068968 -0.17102347144907362
0.08860216680571797 -0.3182661858604914
0.09297245053168557 -0.46080515567926456
0.09827986289862942 -0.6010227309341122
0.10474693334209366 -0.7384545096161217
0.11253726932206984 -0.8724525277145894
0.1217017863650304 -1.0022907905386913
0.13226935222244107 -1.1272305692240532
0.14424709727775095 -1.2465467247670818
0.157636236281283 -1.3595242331205704
0.17243598444188632 -1.4654553702397675
0.18864601826600386 -1.5636371090615673
0.20626825364929147 -1.653370362207543
0.22530988602009566 -1.7339582963654665
0.24578801698731506 -1.8046973280155088
0.2677323393908705 -1.8648486178913541
0.2911728670801577 -1.9135765042474682
0.3160869704375073 -1.9498618537448573
0.34228397341268396 -1.9724733871309041
0.3692690688125909 -1.9801996473155137
0.396254164212498 -1.9724733871309041
0.42245116718767467 -1.9498618537448573
0.4473652705450242 -1.913576504247468
0.4708057982343114 -1.864848617891354
0.4927501206378668 -1.804697328015509
0.5132282516050862 -1.7339582963654658
0.5322698839758903 -1.653370362207542
0.5498921193591779 -1.563637109061567
0.5661021531832955 -1.4654553702397672
0.5809019013438987 -1.3595242331205701
0.5942910403474307 -1.2465467247670816
0.6062687854027407 -1.1272305692240534
0.6168363512601513 -1.002290790538691
0.6260008683031121 -0.8724525277145887
0.633791204283088 -0.7384545096161221
0.6402582747265523 -0.6010227309341122
0.6455656870934962 -0.4608051556792652
0.6499359708194637 -0.31826618586049116
0.652116683094492 -0.17102347144907312
0.6563155708280531 -0.010853189988421346
0.12017261589143859 -0.015139403826203122
0.12350794522417675 -0.1709253305282988
0.12466426524683788 -0.31846733149871137
0.1279170738612506 -0.46126747104269455
0.13245532882389835 -0.6015932280794493
0.13808144206792283 -0.7391631780313072
0.14489004018826876 -0.8733016341321832
0.15291111579957584 -1.0032811550750769
0.1621600093675573 -1.128362943855552
0.17264230065918829 -1.2478209103334452
0.1843588372744001 -1.3609401268323724
0.1973094004963209 -1.4670128458523564
0.2114939039428157 -1.5653361020584444
0.22691352180739782 -1.655210936927258
0.2435723874721399 -1.735940949960255
0.26148042011483247 -1.8068237114839387
0.28065561748007084 -1.867122559945007
0.3011173531821881 -1.9160037795972535
0.32284951632670134 -1.9524441423900563
0.3457054622619641 -1.9751891110238493
0.36926906881259086 -1.9829743932431971
0.39283267536321786 -1.9751891110238493
0.41568862129848055 -1.952444142390056
0.4374207844429938 -1.916003779597253
0.45788252014511105 -1.8671225599450068
0.4770577175103493 -1.8068237114839385
0.49496575015304184 -1.735940949960254
0.511624615817784 -1.655210936927257
0.5270442336823661 -1.5653361020584442
0.5412287371288609 -1.467012845852356
0.5541793003507817 -1.3609401268323724
0.5658958369659934 -1.2478209103334452
0.5763781282576245 -1.1283629438555518
0.5856270218256059 -1.0032811550750769
0.5936480974369132 -0.8733016341321825
0.6004566955572588 -0.7391631780313077
0.6060828088012834 -0.6015932280794493
0.6106210637639311 -0.46126747104269517
0.6138738723783438 -0.3184673314987111
0.6150301924010049 -0.17092533052829836
0.6183655217337432 -0.015139403826203152
0.15702856935202672 -0.018790084369753247
0.1598436602145416 -0.17105076352051046
0.1604544775307462 -0.31852374320763777
0.16274690087002705 -0.46160912075066585
0.1664641645618864 -0.602073615901951
0.1712397268780597 -0.739769955262358
0.1770603479537467 -0.8740354193552452
0.1839342497168503 -1.0041391996266815
0.19186360642634037 -1.129344482895253
0.20085014069418108 -1.2489254358172852
0.21089411109262723 -1.362167406088704
0.22199547147274118 -1.4683627543229854
0.23415417463808869 -1.5668084622442928
0.24737033393279736 -1.6568054281022984
0.2616446266043096 -1.7376572230522929
0.27697973487270106 -1.8086622231408094
0.2933837035216956 -1.8690867487073937
0.3108718150151718 -1.9181027768333079
0.32944852687336834 -1.954690145150741
0.3490274554002601 -1.97757514534815
0.36926906881259086 -1.9854279839358824
0.3895106822249218 -1.97757514534815
0.40908961075181355 -1.9546901451507406
0.42766632261001003 -1.9181027768333077
0.4451544341034862 -1.8690867487073932
0.46155840275248067 -1.808662223140809
0.47689351102087213 -1.7376572230522924
0.49116780369238433 -1.6568054281022973
0.5043839629870931 -1.5668084622442926
0.5165426661524406 -1.4683627543229851
0.5276440265325545 -1.3621674060887041
0.5376879969310007 -1.2489254358172852
0.5466745311988414 -1.1293444828952532
0.5546038879083315 -1.0041391996266813
0.5614777896714351 -0.8740354193552444
0.5672984107471221 -0.7397699552623586
0.5720739730632953 -0.602073615901951
0.5757912367551546 -0.46160912075066635
0.5780836600944355 -0.31852374320763754
0.5786944774106401 -0.17105076352051005
0.5815095682731549 -0.01879008436975326
0.1931455427435931 -0.02189090397218632
0.19559184410738764 -0.17134830514870714
0.19591451609724214 -0.31851033058692413
0.19743037902990873 -0.4618359900389047
0.20032873431740858 -0.60245810642563
0.20424398188487466 -0.7402746121203045
0.20907398899192667 -0.874653068966367
0.21479816449408126 -1.0048646249363502
0.2214070527879693 -1.1301751202307235
0.22889752490904972 -1.2498602786790056
0.2372688379448428 -1.3632060747118044
0.24652091751401173 -1.4695050767195519
0.25665357961674257 -1.5680541185962145
0.26766573109280667 -1.6581536647817041
0.2795545215460288 -1.7391068034778763
0.2923156944353697 -1.8102124720415371
0.30594885353881573 -1.870741203974271
0.3204698611956703 -1.9198754811420182
0.33591386667846973 -1.9566068586545933
0.35226780406768077 -1.9796464889264693
0.36926906881259086 -1.9875808473939873
0.38627033355750107 -1.9796464889264689
0.40262427094671216 -1.956606858654593
0.4180682764295115 -1.919875481142018
0.432589284086366 -1.8707412039742706
0.4462224431898121 -1.8102124720415371
0.458983616079153 -1.7391068034778756
0.47087240653237505 -1.6581536647817037
0.4818845580084392 -1.5680541185962145
0.49201722011117 -1.4695050767195517
0.5012692996803388 -1.3632060747118044
0.5096406127161319 -1.2498602786790056
0.5171310848372124 -1.1301751202307235
0.5237399731311005 -1.0048646249363502
0.5294641486332552 -0.8746530689663662
0.534294155740307 -0.740274612120305
0.5382094033077731 -0.6024581064256301
0.5411077585952729 -0.46183599003890524
0.5426236215279395 -0.3185103305869239
0.542946293517794 -0.17134830514870675
0.5453925948815885 -0.021890903972186335
0.22874498206938831 -0.02451635629431974
0.23088911388405994 -0.17176082796891837
0.231052282048337 -0.3184717116817039
0.23194926117379494 -0.4619648534086664
0.23406457446277762 -0.6027453059187803
0.23711788783304116 -0.740676735996692
0.24095632157046562 -0.8751543968138981
0.245529623583238 -1.0054571977967834
0.25081724118213733 -1.130854790292418
0.2568113170305196 -1.2506254089531907
0.2635098058627187 -1.3640561188392104
0.2709124757426668 -1.4704397927773076
0.27901890744606234 -1.569073029945071
0.2878268052733847 -1.6592555844821566
0.2973300108849678 -1.740289630421505
0.30751789439274807 -1.8114744662805315
0.3183827143111098 -1.8720862469743618
0.3299434524691931 -1.9213234299515172
0.34227241846121453 -1.958199411280187
0.3554414340953908 -1.9814153830396886
0.36926906881259086 -1.989451153103343
0.38309670352979097 -1.9814153830396883
0.39626571916396736 -1.9581994112801868
0.40859468515598857 -1.921323429951517
0.4201554233140719 -1.8720862469743615
0.43102024323243354 -1.8114744662805313
0.441208126740214 -1.7402896304215045
0.450711332351797 -1.6592555844821564
0.4595192301791194 -1.569073029945071
0.4676256618825149 -1.4704397927773074
0.475028331762463 -1.3640561188392106
0.481726820594662 -1.2506254089531907
0.48772089644304434 -1.130854790292418
0.49300851404194374 -1.0054571977967834
0.49758181605471613 -0.8751543968138973
0.5014202497921405 -0.7406767359966926
0.5044735631624041 -0.6027453059187802
0.5065888764513867 -0.4619648534086669
0.5074858555768448 -0.3184717116817037
0.5076490237411218 -0.17176082796891792
0.5097931555557934 -0.02451635629431977
0.26397494348769635 -0.02672907032930625
0.2658458159355017 -0.1722377103507983
0.26590544391820253 -0.31843068389228446
0.266303120330408 -0.46201396715172316
0.2676856908332288 -0.6029379139952958
0.2698849851473874 -0.7409764578948072
0.2727328794410994 -0.8755395242138712
0.2761551981534547 -1.005916841307712
0.2801210308271087 -1.131383430632601
0.2846183550838026 -1.2512207911894315
0.2896437998066678 -1.3647175132918545
0.29519689666117893 -1.4711668828040758
0.30127696711896107 -1.5698651871810958
0.30788065086708666 -1.660111228779201
0.31499895414216383 -1.74120587582098
0.32261567272999114 -1.8124485647139723
0.33071635042240805 -1.8731223831701143
0.3393233708427862 -1.9224474827621947
0.3485490634963443 -1.959470828967023
0.3585611957712864 -1.9828915107774585
0.3692690688125909 -1.9910557059138563
0.37997694185389536 -1.9828915107774583
0.3899890741288375 -1.959470828967023
0.3992147667823955 -1.9224474827621947
0.4078217872027736 -1.873122383170114
0.4159224648951905 -1.812448564713972
0.4235391834830179 -1.7412058758209796
0.430657486758095 -1.6601112287792004
0.4372611705062207 -1.5698651871810956
0.4433412409640028 -1.4711668828040758
0.44889433781851384 -1.3647175132918545
0.45391978254137905 -1.2512207911894315
0.4584171067980729 -1.131383430632601
0.46238293947172704 -1.005916841307712
0.46580525818408236 -0.8755395242138704
0.4686531524777943 -0.7409764578948076
0.47085244679195287 -0.6029379139952958
0.4722350172947738 -0.46201396715172366
0.4726326937069792 -0.31843068389228424
0.47269232168968 -0.17223771035079785
0.4745631941374854 -0.026729070329306267
0.298940658914089 -0.028580930999208252
0.3005510776682327 -0.17273819465590481
0.30052349073452495 -0.3183959015652486
0.3005061014234794 -0.46199903679656745
0.3012081496863108 -0.6030411065455428
0.302568631694895 -0.741174806674969
0.3044293875328674 -0.8758088050129433
0.30670140782612093 -1.006243613137765
0.3093452312788412 -1.1317610007628542
0.3123454583369316 -1.2516463839691048
0.31569759837729694 -1.365190225785175
0.3194009377334354 -1.4716863293185771
0.32345457183402593 -1.5704306110893436
0.32785432235764717 -1.6607207306559222
0.33258904378533644 -1.741855916168157
0.3376380013837339 -1.813135439236224
0.34298029051298123 -1.8738502521449647
0.34863971455298215 -1.9232477061966338
0.35476759695889337 -1.9604218239850348
0.3616385174444308 -1.9840820317129428
0.36926906881259086 -1.9924107858262885
0.3768996201807509 -1.9840820317129426
0.38377054066628835 -1.9604218239850346
0.3898984230721996 -1.9232477061966333
0.3955578471122004 -1.8738502521449647
0.4009001362414477 -1.8131354392362238
0.4059490938398453 -1.7418559161681566
0.41068381526753456 -1.6607207306559217
0.4150835657911559 -1.5704306110893433
0.4191371998917463 -1.471686329318577
0.4228405392478848 -1.3651902257851751
0.42619267928825005 -1.2516463839691048
0.4291929063463404 -1.1317610007628542
0.4318367297990608 -1.006243613137765
0.4341087500923143 -0.8758088050129426
0.43596950593028666 -0.7411748066749694
0.43732998793887085 -0.6030411065455427
0.4380320362017023 -0.46199903679656795
0.43801464689065683 -0.3183959015652484
0.43798705995694903 -0.17273819465590437
0.4395974787110928 -0.02858093099920828
0.3337211317359813 -0.030114970869386724
0.3350779747392374 -0.17323128148978875
0.33495905947965304 -0.3183675538764102
0.3345825145459939 -0.46193198586993406
0.33465154607393305 -0.6030610355970818
0.3351925382749291 -0.7412736461688849
0.3360717355521601 -0.8759628280010855
0.3371948011645806 -1.006437668351593
0.3385166152351628 -1.131987487234832
0.34001942570420157 -1.2519021427121835
0.34169797293942616 -1.3654742190479217
0.3435513575141819 -1.471998117806031
0.34557852546265505 -1.5707693470482413
0.34777480144117034 -1.6610842948368323
0.3501277312275667 -1.7422402945334872
0.35261337812904964 -1.8135360454369103
0.3552045543693454 -1.8742706468080919
0.3579223897044446 -1.9237233760628845
0.36095164541337976 -1.9610505841791352
0.36468397506728256 -1.9849914219672526
0.36926906881259086 -1.993533030460046
0.3738541625578991 -1.9849914219672524
0.377586492211802 -1.961050584179135
0.38061574792073705 -1.9237233760628842
0.38333358325583616 -1.8742706468080919
0.38592475949613203 -1.81353604543691
0.38841040639761504 -1.7422402945334872
0.3907633361840114 -1.6610842948368316
0.3929596121625268 -1.5707693470482411
0.3949867801109998 -1.4719981178060308
0.39684016468575556 -1.3654742190479217
0.3985187119209801 -1.2519021427121835
0.4000215223900188 -1.131987487234832
0.40134333646060105 -1.0064376683515928
0.4024664020730216 -0.8759628280010848
0.4033455993502526 -0.7412736461688852
0.4038865915512487 -0.6030610355970818
0.4039556230791878 -0.4619319858699345
0.4035790781455287 -0.3183675538764099
0.4034601628859444 -0.17323128148978834
0.40481700588920044 -0.03011497086938676
0.36837860012372126 -0.031367425257263055
0.36948768831578904 -0.17369442904117402
0.3692639233250373 -0.31834121484234046
0.3685631333314953 -0.4618210398382
0.3680391769166055 -0.6030037968101211
0.3677812820712532 -0.7412754013311323
0.3676860275528896 -0.8760023957735859
0.36766198739469463 -1.0064992297329816
0.36766193647433965 -1.132062897996789
0.36766703492336916 -1.2519880223636277
0.3676716863423624 -1.365569452489742
0.367674911369434 -1.4721022362878355
0.36767561230304335 -1.5708814576685728
0.367668975654337 -1.6612021730373183
0.3676421717226934 -1.742359671715117
0.3675697109543135 -1.8136515937522175
0.367418617005662 -1.8743845992527697
0.367201565971976 -1.923873113163993
0.36712566448046063 -1.9613525640675824
0.3677078793651305 -1.9856210626595006
0.3692690688125908 -1.9944404547981622
0.37083025826005117 -1.9856210626595006
0.3714124731447211 -1.9613525640675826
0.37133657165320566 -1.9238731131639928
0.3711195206195196 -1.8743845992527695
0.37096842667086816 -1.8136515937522173
0.3708959659024883 -1.742359671715117
0.3708691619708447 -1.6612021730373179
0.37086252532213837 -1.5708814576685723
0.37086322625574775 -1.4721022362878349
0.3708664512828193 -1.3655694524897422
0.3708711027018125 -1.2519880223636277
0.3708762011508419 -1.132062897996789
0.3708761502304871 -1.0064992297329813
0.370852110072292 -0.8760023957735853
0.3707568555539284 -0.7412754013311328
0.3704989607085763 -0.6030037968101212
0.36997500429368646 -0.46182103983820055
0.3692742143001444 -0.31834121484234007
0.3690504493093927 -0.17369442904117363
0.3701595375014604 -0.03136742525726306
0.4029640879143373 -0.03236965911835224
0.4038325545550996 -0.1741120026359412
0.4034873044019966 -0.31831032541269794
0.40248252592593187 -0.4616713419053665
0.4013976182744549 -0.6028748406882134
0.4003606104532797 -0.7411827342723715
0.3992986683857733 -0.8759284581272009
0.39812964962327824 -1.0064285608809247
0.396807940933649 -1.1319872527560804
0.39531504343903845 -1.2519039784786188
0.3936454917202386 -1.3654758838074195
0.3917983489034038 -1.4719986739963327
0.3897725903902209 -1.5707670142442671
0.3875636290560989 -1.6610746368771976
0.38515919586856434 -1.7422147658168565
0.38253419594976656 -1.8134835065450923
0.3796512594215272 -1.8741935223451807
0.3765080413413273 -1.9236951870679144
0.37331610652918557 -1.9613203092517295
0.3707210056323118 -1.985968480621689
0.3692690688125908 -1.9951537132801518
0.3678171319928698 -1.9859684806216888
0.36522203109599616 -1.9613203092517293
0.3620300962838543 -1.9236951870679144
0.3588868782036544 -1.8741935223451804
0.3560039416754151 -1.8134835065450923
0.3533789417566173 -1.7422147658168565
0.3509745085690827 -1.6610746368771971
0.3487655472349607 -1.570767014244267
0.3467397887217779 -1.4719986739963322
0.3448926459049431 -1.3654758838074195
0.34322309418614333 -1.251903978478619
0.34173019669153265 -1.1319872527560801
0.3404084880019035 -1.0064285608809245
0.33923946923940834 -0.8759284581272001
0.3381775271719019 -0.741182734272372
0.33714051935072675 -0.6028748406882136
0.3360556116992498 -0.4616713419053671
0.33505083322318513 -0.31831032541269766
0.33470558307008214 -0.1741120026359408
0.33557404971084437 -0.03236965911835227
0.4375206650737975 -0.0331498557410832
0.4381581711399543 -0.17447384149148876
0.4376753257109868 -0.31826774160895505
0.4363772994959964 -0.46148571623560997
0.43475612345996445 -0.6026787057161431
0.43295753637763695 -0.7409982521094195
0.4309364342445355 -0.8757420129052014
0.4286245511050746 -1.00622593607083
0.4259813699064821 -1.131760572793849
0.42299018932717836 -1.2516499671392816
0.41964613193310774 -1.3651934705413975
0.41594841342382555 -1.471687419565813
0.4118961884646679 -1.5704260875627991
0.4074854428472842 -1.6607019519062431
0.40270531683167227 -1.741806282340233
0.3975332073140176 -1.8130333398885619
0.3919302518854903 -1.8736993797510357
0.3858734096371873 -1.923188040394263
0.3795528602057869 -1.9609433944406294
0.37373566006295 -1.986026088974031
0.36926906881259086 -1.9956977270165979
0.36480247756223155 -1.986026088974031
0.35898527741939484 -1.960943394440629
0.35266472798799436 -1.9231880403942627
0.3466078857396913 -1.8736993797510353
0.3410049303111641 -1.8130333398885616
0.33583282079350946 -1.7418062823402332
0.33105269477789734 -1.6607019519062425
0.3266419491605137 -1.570426087562799
0.3225897242013561 -1.4716874195658123
0.318892005692074 -1.3651934705413977
0.31554794829800337 -1.2516499671392816
0.3125567677186996 -1.131760572793849
0.30991358652010703 -1.0062259360708297
0.30760170338064613 -0.8757420129052006
0.3055806012475447 -0.7409982521094199
0.3037820141652172 -0.6026787057161433
0.3021608381291853 -0.4614857162356105
0.30086281191419495 -0.3182677416089548
0.3003799664852274 -0.1744738414914883
0.30101747255138417 -0.033149855741083235
0.4720852700967638 -0.03373444685893293
0.4725047531328591 -0.17477406155157132
0.47187101079500354 -0.3182066887407875
0.4702850581218708 -0.46126540566868396
0.46814605106129176 -0.6024189495270205
0.4656002815092125 -0.7407242732929192
0.4626264973053485 -0.8754439943855831
0.45917353347157247 -1.0058916059798582
0.45520895733556466 -1.131382871449334
0.45071919127520704 -1.2512259446062712
0.4457003396180451 -1.3647221716943898
0.4401518436888361 -1.4711684593023695
0.43407310762969464 -1.5698587380622924
0.42746100049089686 -1.6600843558820417
0.42030677787654297 -1.741134843240631
0.41259224753146045 -1.8123026454750801
0.404281827557697 -1.8729048254128713
0.39532982543338124 -1.9223510999011255
0.3858710621185266 -1.9602086436420494
0.3767674279499598 -1.9857791949999328
0.3692690688125908 -1.9961038139611322
0.3617707096752217 -1.9857791949999328
0.35266707550665505 -1.960208643642049
0.34320831219180037 -1.9223510999011253
0.33425631006748463 -1.872904825412871
0.3259458900937212 -1.8123026454750801
0.31823135974863875 -1.741134843240631
0.3110771371342847 -1.6600843558820415
0.30446502999548697 -1.5698587380622921
0.2983862939363455 -1.471168459302369
0.2928377980071366 -1.3647221716943898
0.2878189463499747 -1.2512259446062715
0.28332918028961707 -1.1313828714493337
0.27936460415360914 -1.0058916059798577
0.2759116403198331 -0.8754439943855823
0.2729378561159692 -0.7407242732929199
0.2703920865638899 -0.6024189495270206
0.2682530795033108 -0.46126540566868446
0.2666671268301782 -0.3182066887407873
0.26603338449232256 -0.1747740615515709
0.2664528675284179 -0.03373444685893296
0.5066895395255775 -0.03414929845020815
0.5069078929603746 -0.17501011675630143
0.5061145584114636 -0.3181213735858478
0.504243905536505 -0.4610107152647012
0.501600407033153 -0.6020981771217685
0.49831812118164975 -0.7403626497869477
0.4943963956909679 -0.8750351658575454
0.4898035027203061 -1.005425762350773
0.4845174227302162 -1.1308541459530526
0.47852874762897873 -1.2506318674686696
0.4718348377248769 -1.3640619495106008
0.46443537718202105 -1.4704417764416264
0.45633003062790245 -1.5690650051487578
0.447516791439353 -1.659222041329549
0.43798962617716974 -1.740200933234437
0.42773604434660584 -1.811292756934031
0.41672996708597815 -1.8718131966817353
0.404908982418991 -1.9211859322052953
0.39231331913804257 -1.9591009668760606
0.3798382720482467 -1.9852029336165176
0.3692690688125908 -1.9964124457373675
0.3586998655769349 -1.9852029336165173
0.34622481848713893 -1.9591009668760602
0.3336291552061906 -1.921185932205295
0.3218081705392035 -1.871813196681735
0.3108020932785759 -1.811292756934031
0.30054851144801187 -1.7402009332344368
0.29102134618582853 -1.6592220413295484
0.28220810699727916 -1.5690650051487576
0.27410276044316056 -1.4704417764416258
0.2667032999003049 -1.3640619495106012
0.260009389996203 -1.2506318674686696
0.25402071489496547 -1.1308541459530523
0.24873463490487555 -1.0054257623507727
0.24414174193421373 -0.8750351658575448
0.24022001644353194 -0.7403626497869482
0.23693773059202855 -0.6020981771217684
0.23429423208867667 -0.4610107152647018
0.232423579213718 -0.31812137358584747
0.23163024466480697 -0.17501011675630102
0.23184859809960412 -0.03414929845020816
0.5413598450922648 -0.03442066847024867
0.5413988317098729 -0.17518211929856128
0.540443807048622 -0.31800744138458903
0.5382923804353285 -0.4607215359658839
0.5351535123809359 -0.6017180882465967
0.5311411660369741 -0.7399146313984084
0.5262739527344904 -0.8745160277492521
0.5205414004284825 -1.0048285062484352
0.5139334605083532 -1.130174371485491
0.5064455348650782 -1.249867693920788
0.4980763410842904 -1.363212771286269
0.48882575256742444 -1.4695073522893514
0.478693641444636 -1.5680448974212733
0.4676792189364816 -1.6581151348643763
0.4557797588969661 -1.7390048888904839
0.4429888999103643 -1.810004525940997
0.42929571090130086 -1.8704281560234388
0.4146396297958439 -1.9196977201707102
0.3989321082972527 -1.9576054650345518
0.3829823603866261 -1.9842576550887048
0.36926906881259075 -1.9966766366433848
0.35555577723855547 -1.9842576550887048
0.33960602932792877 -1.9576054650345514
0.3238985078293377 -1.9196977201707102
0.30924242672388075 -1.8704281560234388
0.29554923771481745 -1.8100045259409974
0.2827583787282155 -1.7390048888904832
0.2708589186887 -1.658115134864376
0.25984449618054567 -1.568044897421273
0.2497123850577572 -1.4695073522893507
0.2404617965408914 -1.3632127712862694
0.2320926027601036 -1.249867693920788
0.22460467711682855 -1.1301743714854908
0.21799673719669913 -1.004828506248435
0.21226418489069132 -0.8745160277492513
0.20739697158820758 -0.7399146313984089
0.20338462524424572 -0.6017180882465968
0.20024575718985319 -0.46072153596588444
0.19809433057655967 -0.3180074413845888
0.19713930591530873 -0.17518211929856084
0.19717829253291688 -0.03442066847024869
0.5761165563131825 -0.034575931966369405
0.5760043098632786 -0.17529244328583804
0.5748949425833694 -0.3178624213638196
0.5724697603035581 -0.46039772695752373
0.5688407596794817 -0.6012794832688014
0.5641000966301792 -0.7393807592067447
0.5582871558651012 -0.8738867485158015
0.5514141601914186 -1.0040998244270047
0.5434837266916951 -1.1293434985996058
0.5344962055827549 -1.2489333866695143
0.5244515601084662 -1.362174611285587
0.5133497103391571 -1.4683651681663368
0.5011906465919713 -1.566798391337477
0.4879746505537749 -1.656763658029476
0.4737028473821396 -1.7375469376606492
0.45837528590696497 -1.808438141935379
0.4419972082524441 -1.8687526768128586
0.4245425973956384 -1.9178967375603293
0.4057911598415617 -1.9557120680011695
0.3862576612278236 -1.982882211601565
0.3692690688125908 -1.9969655343450419
0.35228047639735793 -1.9828822116015647
0.3327469777836197 -1.955712068001169
0.31399554022954324 -1.917896737560329
0.2965409293727375 -1.8687526768128586
0.28016285171821664 -1.808438141935379
0.26483529024304203 -1.737546937660649
0.25056348707140663 -1.6567636580294758
0.23734749103321026 -1.5667983913374768
0.22518842728602456 -1.4683651681663366
0.21408657751671561 -1.3621746112855875
0.20404193204242674 -1.2489333866695143
0.19505441093348663 -1.1293434985996054
0.1871239774337631 -1.0040998244270043
0.1802509817600804 -0.8738867485158006
0.17443804099500243 -0.7393807592067451
0.16969737794570006 -0.6012794832688015
0.1660683773216236 -0.4603977269575242
0.16364319504181232 -0.3178624213638193
0.16253382776190303 -0.1752924432858376
0.16242158131199916 -0.034575931966369426
0.6109723543647844 -0.034644026050630855
0.6107460473650657 -0.17534570488381482
0.6095036517573041 -0.3176862739376456
0.606816686703618 -0.4600393080244621
0.6026983793102396 -0.6007821817014566
0.5972258596054222 -0.7387607835121054
0.5904640072432457 -0.8731471222074384
0.5824486511507462 -1.0032395774826706
0.5731948245499103 -1.128361455432637
0.5627073868504692 -1.2478289171369967
0.5509872040112608 -1.360947454731609
0.5380340026891327 -1.4670152026980476
0.5238477625228315 -1.5653254490556954
0.5084295726040712 -1.6551674735576714
0.4917841492084769 -1.735827195545597
0.4739201459903213 -1.806593367581446
0.4548521710184974 -1.866787123940035
0.4346224787721127 -1.9157985881270845
0.41296136681652545 -1.9534251550255866
0.389770514084051 -1.9809848337272635
0.3692690688125908 -1.9973663950292908
0.3487676235411305 -1.9809848337272635
0.325576770808656 -1.9534251550255861
0.3039156588530689 -1.9157985881270845
0.28368596660668416 -1.866787123940035
0.26461799163486033 -1.8065933675814458
0.24675398841670468 -1.735827195545597
0.23010856502111038 -1.6551674735576711
0.21469037510235014 -1.5653254490556952
0.200504134936049 -1.4670152026980476
0.18755093361392086 -1.3609474547316094
0.17583075077471244 -1.2478289171369967
0.16534331307527128 -1.1283614554326369
0.15608948647443543 -1.0032395774826701
0.14807413038193606 -0.8731471222074376
0.14131227801975954 -0.7387607835121058
0.13583975831494202 -0.6007821817014566
0.13172145092156376 -0.4600393080244624
0.1290344858678775 -0.31768627393764537
0.12779209026011598 -0.17534570488381432
0.12756578326039733 -0.0346440260506309
0.6459291335619587 -0.034655494016410264
0.64563992851341 -0.17534935199333623
0.6443071560430408 -0.3174821143541051
0.6413760000493871 -0.459646349635521
0.6367631006503102 -0.6002248332446624
0.6305493450919128 -0.7380536134381591
0.6228323526325915 -0.8722965527507696
0.6136716137656427 -1.0022475030953948
0.6030932898748521 -1.127228156335371
0.5911056835929409 -1.246554269442842
0.5777099737490757 -1.3595313059220282
0.562905427949432 -1.4654574261372595
0.546691669937402 -1.563626029165656
0.5290707004392352 -1.653326334288805
0.5100488784543616 -1.733845315177994
0.48964708878785207 -1.8044706056861577
0.4678850244412614 -1.8645271216880663
0.4448591846341949 -1.9134193609819405
0.42049548565692013 -1.950782801607588
0.3937318612032465 -1.9784329773973202
0.36926906881259086 -1.9979788020212195
0.3448062764219349 -1.97843297739732
0.3180426519682613 -1.9507828016075879
0.2936789529909867 -1.9134193609819403
0.27065311318392016 -1.8645271216880661
0.24889104883732946 -1.8044706056861577
0.22848925917081991 -1.733845315177994
0.20946743718594632 -1.6533263342888045
0.1918464676877796 -1.563626029165656
0.17563270967574962 -1.4654574261372593
0.160828163876106 -1.3595313059220282
0.14743245403224062 -1.246554269442842
0.13544484775032953 -1.127228156335371
0.12486652385953895 -1.0022475030953943
0.1157057849925903 -0.8722965527507689
0.10798879253326892 -0.7380536134381596
0.1017750369748715 -0.6002248332446624
0.09716213757579459 -0.4596463496355214
0.09423098158214094 -0.3174821143541049
0.09289820911177164 -0.17534935199333573
0.092609004063223 -0.03465549401641031
0.6809724790706294 -0.034641883060386444
0.680695086218898 -0.1753153819300252
0.679348019293505 -0.3172570903330887
0.6761933620678016 -0.4592183350027643
0.6710716395811198 -0.5996046718074654
0.6641010783059216 -0.7372573040323799
0.6554196808271691 -0.8713340625314842
0.6451095994645315 -1.0011232397471115
0.633205579817617 -1.1259435140924465
0.6197176756541339 -1.2451094515251244
0.6046465864301885 -1.3579261784452807
0.587990758569699 -1.4636918508149142
0.569749300714166 -1.561699952237042
0.5499241542660591 -1.651240275127397
0.528524753072783 -1.7315996733690109
0.5055732973540358 -1.8020716361009261
0.48113299275908916 -1.8619665654800963
0.4552270746599871 -1.9107545925152123
0.42832496796194625 -1.9478937154170577
0.3985987126103512 -1.9750510186011372
0.3692690688125908 -1.9988810091070628
0.3399394250148302 -1.9750510186011372
0.3102131696632352 -1.9478937154170572
0.28331106296519454 -1.9107545925152118
0.2574051448660925 -1.8619665654800963
0.2329648402711458 -1.8020716361009257
0.21001338455239865 -1.731599673369011
0.18861398335912233 -1.6512402751273965
0.16878883691101562 -1.5616999522370418
0.15054737905548266 -1.463691850814914
0.13389155119499302 -1.357926178445281
0.11882046197104762 -1.2451094515251246
0.10533255780756452 -1.1259435140924463
0.09342853816065011 -1.001123239747111
0.08311845679801261 -0.8713340625314835
0.07443705931926022 -0.7372573040323803
0.06746649804406184 -0.5996046718074654
0.06234477555738017 -0.45921833500276477
0.059190118331676755 -0.31725709033308835
0.05784305140628377 -0.17531538193002472
0.057565658554552326 -0.03464188306038647
0.7160616183724793 -0.03463400633439483
0.7159133356156897 -0.1752643269430514
0.7146817495531567 -0.31702309043899624
0.7113160946119563 -0.45875259368187277
0.7056604953966046 -0.5989174650240195
0.6979107616518441 -0.7363690041973041
0.6882529477684898 -0.8702583566672679
0.676788911382578 -0.9998663629111179
0.6635580658762412 -1.1245074616080644
0.648569927313165 -1.2434944977377291
0.6318237578959804 -1.3561321199525593
0.6133168386807397 -1.461718455537961
0.5930474567527514 -1.5595472185285184
0.5710171053525848 -1.6489085164304433
0.5472359281643963 -1.7290912109400038
0.5217319941506814 -1.79938763442748
0.49457472353582876 -1.8591298661108882
0.4658937892697115 -1.9077115348200238
0.43586431770740275 -1.9450011342799836
0.40547208545389196 -1.9706657892205413
0.3692690688125908 -2.0
0.33306605217128943 -1.9706657892205415
0.3026738199177786 -1.9450011342799833
0.2726443483554701 -1.9077115348200235
0.24396341408935276 -1.8591298661108877
0.2168061434745003 -1.7993876344274797
0.19130220946078536 -1.7290912109400043
0.16752103227259657 -1.648908516430443
0.14549068087243017 -1.5595472185285182
0.12522129894444184 -1.4617184555379608
0.10671437972920104 -1.3561321199525593
0.08996821031201659 -1.2434944977377291
0.07498007174894036 -1.124507461608064
0.06174922624260368 -0.9998663629111175
0.05028518985669201 -0.8702583566672671
0.04062737597333766 -0.7363690041973046
0.032877642228577114 -0.5989174650240194
0.027222043013225436 -0.45875259368187316
0.02385638807202504 -0.3170230904389959
0.022624802009492018 -0.17526432694305094
0.02247651925270238 -0.03463400633439487
SCALARS Stress float 6
LOOKUP_TABLE default
-408.7968206749969 -13006.567686871676 -4024.6093522640026 -302.19062539160535 0.0 0.0
6160.438806357468 3640.4376664226365 2940.2629418340307 -469.4026075948277 0.0 0.0
3502.715325725008 -310.6657277492078 957.6148793927398 -200.75819652632015 0.0 0.0
3584.1468920623624 272.8587559061156 1157.1016943905436 -29.900284547609008 0.0 0.0
4115.0303439858935 99.28275893185156 1264.293930875323 -68.91157725628699 0.0 0.0
4952.955645968181 140.2855424032472 1527.9723565114282 -71.01075207455209 0.0 0.0
5878.054444952792 152.85831910095877 1809.2738292161257 -75.2982757666383 0.0 0.0
6846.32568858844 178.03512021478963 2107.3082426409683 -76.92975179811776 0.0 0.0
7825.895840121773 202.80348013254132 2408.609796076295 -77.5098948977891 0.0 0.0
8807.651573187519 228.38732024098744 2710.8116680285507 -77.66088559006609 0.0 0.0
9788.307618013996 253.89528161520911 3012.6608698887603 -77.66087611186221 0.0 0.0
10767.75520744607 279.3890572721011 3314.14327941545 -77.67807504323605 0.0 0.0
11747.289847839416 304.97162389525687 3615.678441520402 -77.82936518145624 0.0 0.0
12730.453469247755 331.0019778825878 3918.436634139102 -78.27505108372942 0.0 0.0
13725.026684330333 358.0961756580649 4224.93685799652 -79.18755036036276 0.0 0.0
14744.157347315195 386.8909219726542 4539.3144807863555 -80.48160518306193 0.0 0.0
15800.604384748869 417.04495724958986 4865.294802599538 -81.06759093508578 0.0 0.0
16883.69839412718 445.3736051418124 5198.721599780696 -77.70728490606766 0.0 0.0
17913.422972983055 464.82395889127747 5513.474079562301 -64.81418830204626 0.0 0.0
18700.91660965103 469.56429856309927 5751.14427246424 -37.91580676359581 0.0 0.0
19002.57195786283 466.8930843985095 5840.839512678405 5.1869619710487314e-11 0.0 0.0
18700.916609651373 469.5642985637303 5751.144272464533 37.91580676355079 0.0 0.0
17913.422972982116 464.8239588891671 5513.474079561384 64.81418830194619 0.0 0.0
16883.698394127183 445.37360514185866 5198.721599780713 77.70728490599734 0.0 0.0
15800.60438474911 417.0449572500727 4865.294802599755 81.06759093511482 0.0 0.0
14744.157347315066 386.8909219723772 4539.314480786235 80.48160518294341 0.0 0.0
13725.02668433048 358.0961756585292 4224.936857996704 79.18755036037854 0.0 0.0
12730.453469247484 331.00197788207436 3918.4366341388695 78.2750510837152 0.0 0.0
11747.289847839174 304.9716238946543 3615.6784415201487 77.82936518133695 0.0 0.0
10767.755207446156 279.3890572722417 3314.1432794155194 77.67807504312546 0.0 0.0
9788.307618014056 253.89528161547912 3012.6608698888604 77.66087611178108 0.0 0.0
8807.651573187855 228.3873202418493 2710.8116680289127 77.66088559001743 0.0 0.0
7825.895840121469 202.8034801318691 2408.6097960760017 77.50989489776192 0.0 0.0
6846.3256885886 178.0351202152769 2107.3082426411634 76.92975179817213 0.0 0.0
5878.05444495282 152.85831910112697 1809.2738292161848 75.29827576662312 0.0 0.0
4952.955645968111 140.28554240315972 1527.972356511382 71.01075207451015 0.0 0.0
4115.030343985877 99.2827589317946 1264.2939308753016 68.91157725635179 0.0 0.0
3584.146892062336 272.8587559060043 1157.1016943905022 29.900284547577755 0.0 0.0
3502.715325725047 -310.66572774910827 957.6148793927817 200.75819652632134 0.0 0.0
6160.43880635745 3640.4376664225683 2940.262941834005 469.4026075948685 0.0 0.0
-408.79682067494355 -13006.56768687167 -4024.6093522639844 302.19062539154766 0.0 0.0
-2321.200515215682 -12921.38262566531 -4572.774942264297 -206.5084793844656 0.0 0.0
3788.8793571880574 2490.7205228173334 1883.8799640016173 -374.2617379284433 0.0 0.0
2462.896108568785 -349.5340512175408 634.0086172053732 -140.3223195637879 0.0 0.0
3196.8305678867837 123.58494614918358 996.1246542107905 -116.14515940016413 0.0 0.0
3658.5024412686403 15.343642494925616 1102.15382512907 -167.457292972558 0.0 0.0
4418.45718787214 12.212719283916606 1329.2009721468175 -189.69714132753757 0.0 0.0
5238.596086071189 4.083812196962617 1572.8039694804452 -199.66832234468785 0.0 0.0
6096.808376015004 1.2481771981904033 1829.4169659639588 -203.75021365515002 0.0 0.0
6966.5297423512275 0.1304743648595722 2089.9980650148273 -204.87084311136118 0.0 0.0
7839.2259347556355 -0.16655787103976571 2351.7178130653797 -204.9855698886581 0.0 0.0
8711.708660854361 -0.1685760470221278 2613.462025442202 -204.82929754529542 0.0 0.0
9583.588864137577 -0.02583955215599154 2875.068907375627 -204.7524985402505 0.0 0.0
10455.939946965515 0.3592530320583567 3136.889759999272 -205.03644269367817 0.0 0.0
11331.729010757483 1.2719130305789914 3399.9002771364176 -206.17821590037886 0.0 0.0
12216.996995504926 2.988741660875702 3665.995721149741 -208.95757368976479 0.0 0.0
13120.771976781845 5.073361608165861 3937.7536015170035 -213.88094473367292 0.0 0.0
14048.75488234341 4.852851467419153 4216.082320143249 -219.14313356664874 0.0 0.0
14983.352802279336 -4.1769188294326405 4493.75276503497 -216.65307930779437 0.0 0.0
15849.186995560804 -30.298797071256978 4745.666459546864 -188.85799474573778 0.0 0.0
16492.127795359163 -71.00896734513302 4926.33564840421 -115.7341401950903 0.0 0.0
16732.706143870797 -95.5656261289704 4991.142155322547 6.484413006546674e-11 0.0 0.0
16492.127795359356 -71.00896734467081 4926.335648404408 115.73414019502457 0.0 0.0
15849.186995560047 -30.29879707292524 4745.666459546139 188.8579947457532 0.0 0.0
14983.35280227911 -4.17691883003279 4493.752765034723 216.65307930780563 0.0 0.0
14048.75488234325 4.852851467108373 4216.082320143108 219.1431335665835 0.0 0.0
13120.771976781514 5.073361607464584 3937.7536015166943 213.88094473360832 0.0 0.0
12216.99699550501 2.9887416611572846 3665.99572114985 208.9575736898655 0.0 0.0
11331.729010757332 1.2719130303372665 3399.900277136301 206.17821590041095 0.0 0.0
10455.939946965338 0.35925303155882915 3136.889759999069 205.03644269360373 0.0 0.0
9583.588864137553 -0.025839552350348072 2875.068907375561 204.75249854027646 0.0 0.0
8711.708660854387 -0.16857604695970707 2613.462025442229 204.8292975453083 0.0 0.0
7839.22593475581 -0.16655787058115124 2351.717813065569 204.98556988863498 0.0 0.0
6966.5297423509455 0.13047436414496616 2089.998065014527 204.87084311136485 0.0 0.0
6096.808376015069 1.2481771983399383 1829.4169659640233 203.75021365510253 0.0 0.0
5238.596086071278 4.083812197167234 1572.8039694805336 199.66832234475044 0.0 0.0
4418.457187872256 12.212719284216785 1329.2009721469421 189.69714132744167 0.0 0.0
3658.5024412686416 15.34364249506526 1102.1538251291124 167.45729297258814 0.0 0.0
3196.8305678867023 123.58494614900769 996.1246542107134 116.14515940014181 0.0 0.0
2462.896108568859 -349.5340512174468 634.0086172054238 140.32231956376458 0.0 0.0
3788.8793571880196 2490.7205228173366 1883.8799640016064 374.2617379283889 0.0 0.0
-2321.2005152158094 -12921.382625665392 -4572.77494226436 206.5084793844785 0.0 0.0
-2539.8626266655338 -11309.535530887564 -4154.819447265931 -951.0646422161608 0.0 0.0
2396.16543149794 1501.5654885020358 1169.3192759999927 -676.7848019390817 0.0 0.0
1826.564781569301 62.62807943357107 566.7578583008618 -95.15226390529517 0.0 0.0
2667.3828732518205 20.242029311019408 806.287470768852 -267.9285013250666 0.0 0.0
3255.2049144652947 47.73274246512122 990.8812970791248 -333.4309564904053 0.0 0.0
3921.9598263095904 11.876502773396712 1180.1508987248965 -382.14293362029906 0.0 0.0
4660.706763207066 6.486919959611143 1400.1581049500032 -401.1819964247665 0.0 0.0
5421.591495968755 1.6090672788621145 1626.9601689742851 -408.876186260873 0.0 0.0
6193.847868330809 0.18931282280923512 1858.211154346086 -410.9433346678705 0.0 0.0
6968.820929887912 -0.2409449038036824 2090.573995495233 -411.06290137634903 0.0 0.0
7744.097106376094 -0.23954931177342775 2323.1572671192966 -410.7095412141517 0.0 0.0
8519.152472241478 -0.042939590943239736 2555.7328597951614 -410.5189314265867 0.0 0.0
9294.788738370102 0.48833350128981756 2788.583121561418 -411.02636064460233 0.0 0.0
10073.248340423728 1.7667981093049985 3022.5045415599106 -413.2179706085442 0.0 0.0
10858.891763024825 4.2324867863465006 3258.9372749433514 -418.7261089341697 0.0 0.0
11657.676153386386 7.363992020255754 3499.5120436219913 -428.8302301121288 0.0 0.0
12471.529571560037 7.383043356363343 3743.673784474918 -440.46385872053315 0.0 0.0
13281.90021244876 -5.457867514913033 3982.9327034801536 -437.9428601079985 0.0 0.0
14022.341034773444 -44.73395253262856 4193.282124672246 -385.25155483953444 0.0 0.0
14563.641812547183 -109.2578060333139 4336.31520195416 -238.45714348676313 0.0 0.0
14762.429096944223 -150.6082608571055 4383.546250826137 1.1397105481592007e-11 0.0 0.0
14563.641812547263 -109.25780603311127 4336.315201954245 238.45714348675426 0.0 0.0
14022.341034773317 -44.73395253289834 4193.282124672125 385.25155483960725 0.0 0.0
13281.90021244853 -5.457867515453863 3982.9327034799244 437.94286010804217 0.0 0.0
12471.529571559873 7.38304335591679 3743.6737844747377 440.46385872051354 0.0 0.0
11657.676153386332 7.363992020102351 3499.5120436219295 428.8302301122235 0.0 0.0
10858.891763024987 4.232486786825831 3258.9372749435447 418.72610893422006 0.0 0.0
10073.248340423823 1.766798109556568 3022.504541560014 413.2179706085591 0.0 0.0
9294.788738370002 0.48833350102425044 2788.5831215613084 411.02636064450724 0.0 0.0
8519.15247224153 -0.042939590801395866 2555.7328597952182 410.51893142660253 0.0 0.0
7744.0971063758925 -0.23954931226509046 2323.1572671190884 410.7095412141738 0.0 0.0
6968.820929887746 -0.24094490414982062 2090.573995495079 411.0629013763614 0.0 0.0
6193.8478683309095 0.1893128230046628 1858.2111543461742 410.94333466790374 0.0 0.0
5421.591495968676 1.609067278570521 1626.960168974174 408.8761862608742 0.0 0.0
4660.706763207006 6.4869199595637745 1400.1581049499707 401.181996424875 0.0 0.0
3921.9598263097 11.876502773731724 1180.15089872503 382.14293362021095 0.0 0.0
3255.20491446541 47.73274246530215 990.8812970792135 333.43095649042243 0.0 0.0
2667.382873251815 20.242029310999683 806.2874707688444 267.9285013250527 0.0 0.0
1826.5647815692757 62.6280794335824 566.7578583008574 95.15226390526541 0.0 0.0
2396.1654314979614 1501.5654885020447 1169.319276000002 676.784801939039 0.0 0.0
-2539.8626266654537 -11309.535530887564 -4154.819447265907 951.0646422162027 0.0 0.0
-2334.044322963874 -9722.166667349271 -3616.8632970939425 -1187.2926139037586 0.0 0.0
1495.8673380073683 611.0947147099453 632.0886158151941 -926.8370131827592 0.0 0.0
1335.2505910461991 289.2202014963633 487.3412377627689 -282.00938598873006 0.0 0.0
2158.166547240778 41.45041980509308 659.8850901137615 -387.31684878575237 0.0 0.0
2814.421049646154 51.36180387162672 859.7348560553343 -496.0096476523819 0.0 0.0
3425.8476824883464 22.675769158451644 1034.5570354940396 -551.6569143144167 0.0 0.0
4077.548867004832 8.07957964396952 1225.6885339946405 -579.3906266405966 0.0 0.0
4745.6189999585495 2.617936256775364 1424.4710808645978 -589.563107316271 0.0 0.0
5420.7370174464895 0.19095121332069986 1626.278390597943 -592.5710041126164 0.0 0.0
6098.426093531768 -0.35700409433803415 1829.4207268312293 -592.7893568365287 0.0 0.0
6776.520348188549 -0.36267290146249387 2032.8473025861267 -592.3496416859765 0.0 0.0
7454.656619244923 -0.07472715643788419 2236.3745676265457 -592.1179906396815 0.0 0.0
8133.298605039919 0.6959046592349569 2440.1983529097456 -592.8332294771466 0.0 0.0
8813.874710009968 2.577189174386298 2644.935569755306 -595.8198815179964 0.0 0.0
9499.094611063778 6.285946690668651 2851.6141673263337 -603.2511749831889 0.0 0.0
10192.493680380518 11.183967085984861 3061.103294239951 -616.8017733853671 0.0 0.0
10894.277003798505 11.689247737819533 3271.789875460897 -632.1741913474767 0.0 0.0
11588.558696939403 -7.400762673741067 3474.347380279699 -627.4798754800809 0.0 0.0
12220.060898453215 -68.6457752604762 3645.4245369578216 -551.8370849184017 0.0 0.0
12678.642730494 -172.62368390476797 3751.8057139767693 -341.9541252727322 0.0 0.0
12843.77174347868 -240.95125319962062 3780.8461470837174 -7.59143858886091e-11 0.0 0.0
12678.642730494033 -172.6236839047217 3751.8057139767943 341.9541252727113 0.0 0.0
12220.060898453488 -68.64577525981329 3645.4245369581026 551.8370849183791 0.0 0.0
11588.558696939333 -7.400762673945685 3474.3473802796157 627.4798754800224 0.0 0.0
10894.277003798608 11.68924773809524 3271.789875461011 632.1741913475179 0.0 0.0
10192.493680380701 11.183967086498235 3061.10329424016 616.8017733854721 0.0 0.0
9499.094611063689 6.285946690511835 2851.61416732626 603.2511749831469 0.0 0.0
8813.874710009984 2.577189174446694 2644.935569755329 595.8198815179097 0.0 0.0
8133.298605039957 0.6959046593347367 2440.1983529097884 592.8332294771031 0.0 0.0
7454.656619244976 -0.07472715633717897 2236.3745676265917 592.1179906396571 0.0 0.0
6776.520348188276 -0.3626729020686419 2032.8473025858623 592.3496416859583 0.0 0.0
6098.426093531558 -0.35700409482570805 1829.4207268310197 592.7893568365702 0.0 0.0
5420.737017446573 0.19095121357661426 1626.2783905980448 592.5710041125783 0.0 0.0
4745.618999958507 2.6179362566772504 1424.4710808645561 589.5631073162969 0.0 0.0
4077.548867004859 8.079579644089108 1225.6885339946848 579.3906266405263 0.0 0.0
3425.8476824883323 22.675769158524837 1034.5570354940571 551.6569143144684 0.0 0.0
2814.4210496461765 51.361803871627835 859.7348560553414 496.0096476523672 0.0 0.0
2158.1665472408517 41.45041980530241 659.8850901138463 387.31684878577727 0.0 0.0
1335.2505910461125 289.22020149625973 487.3412377627116 282.0093859887142 0.0 0.0
1495.867338007324 611.0947147098454 632.0886158151507 926.8370131827786 0.0 0.0
-2334.0443229638045 -9722.16666734924 -3616.8632970939125 1187.2926139037475 0.0 0.0
-2000.3235421437475 -8276.512447713467 -3083.0507969571645 -1214.3895089323364 0.0 0.0
908.926048371964 -75.26754015741392 250.09755246436518 -1095.9676254847159 0.0 0.0
952.2449773964229 360.8532450240442 393.92946672614016 -534.3609450517602 0.0 0.0
1694.4990992047763 101.46774997768802 538.7900547547392 -528.5242326615967 0.0 0.0
2359.1943222143645 60.66751591516504 725.958551438859 -641.0781286203168 0.0 0.0
2924.811282454623 32.13440786829349 887.0837070968747 -703.0427101429561 0.0 0.0
3492.521243333099 11.701594193505118 1051.2668512579812 -733.9854951626651 0.0 0.0
4068.3255275421734 3.491312602450485 1221.5450520433872 -746.2373809602177 0.0 0.0
4647.361554771691 0.3237705372844344 1394.305597592693 -749.8137027842154 0.0 0.0
5227.93810179263 -0.5192152318545169 1568.2256659682325 -750.1948263466551 0.0 0.0
5808.939466189147 -0.5071292510289762 1742.529701081436 -749.741906147068 0.0 0.0
6390.080500571464 -0.10930985982221664 1916.9913572134933 -749.5180850793859 0.0 0.0
6971.530709959132 0.9675155096339427 2091.74946764063 -750.3818349620573 0.0 0.0
7553.866803374809 3.6046141431770202 2267.2414252553945 -753.8388140735424 0.0 0.0
8138.2482869169735 8.860784919251804 2444.132721550868 -762.3325714380483 0.0 0.0
8726.3659485828 15.958420163653596 2622.6973106239375 -777.7334973992344 0.0 0.0
9318.309261832776 17.029211923466114 2800.601542126872 -794.962447838339 0.0 0.0
9903.5261982949 -10.24871146103495 2967.98324605016 -787.8234989825622 0.0 0.0
10439.273438518065 -100.43914671956725 3101.6502875395486 -693.746837285426 0.0 0.0
10829.579747265316 -256.96901229284424 3171.7832204917418 -431.58380406482297 0.0 0.0
10966.593171305478 -362.0690263524605 3181.3572434859057 -4.760636329592671e-12 0.0 0.0
10829.579747265472 -256.9690122925274 3171.783220491884 431.5838040648583 0.0 0.0
10439.273438517945 -100.43914671984042 3101.6502875394312 693.7468372854576 0.0 0.0
9903.52619829491 -10.248711461032052 2967.983246050164 787.8234989824888 0.0 0.0
9318.309261832905 17.029211923786463 2800.6015421270067 794.9624478383527 0.0 0.0
8726.365948582597 15.95842016328659 2622.6973106237656 777.7334973992308 0.0 0.0
8138.248286916671 8.86078491862553 2444.1327215505894 762.3325714380464 0.0 0.0
7553.866803374301 3.6046141419448574 2267.2414252548733 753.8388140734849 0.0 0.0
6971.530709959201 0.9675155097356516 2091.749467640681 750.3818349619896 0.0 0.0
6390.080500571293 -0.10930986015009836 1916.9913572133432 749.518085079363 0.0 0.0
5808.939466189209 -0.5071292508242102 1742.5297010815157 749.7419061470127 0.0 0.0
5227.938101792465 -0.5192152321912324 1568.2256659680822 750.1948263466014 0.0 0.0
4647.361554771747 0.3237705374398807 1394.305597592756 749.8137027841365 0.0 0.0
4068.32552754209 3.4913126022018766 1221.5450520432876 746.2373809602262 0.0 0.0
3492.5212433332235 11.701594193748758 1051.266851258092 733.9854951625961 0.0 0.0
2924.811282454629 32.134407868367305 887.0837070968986 703.0427101430314 0.0 0.0
2359.194322214286 60.667515915078226 725.9585514388094 641.0781286202487 0.0 0.0
1694.4990992047724 101.4677499777462 538.7900547547557 528.5242326616218 0.0 0.0
952.244977396366 360.8532450239548 393.92946672609634 534.3609450518229 0.0 0.0
908.9260483719613 -75.26754015742884 250.09755246435986 1095.9676254847284 0.0 0.0
-2000.323542143727 -8276.51244771346 -3083.0507969571563 1214.389508932341 0.0 0.0
-1657.0694231574287 -7002.779120437229 -2597.9545630783973 -1158.5722580380157 0.0 0.0
522.213466088869 -556.4848314650828 -10.281409612864167 -1195.9242246792958 0.0 0.0
648.7559023487272 335.21574488992985 295.19149417159707 -778.5064249840908 0.0 0.0
1280.3238290941772 157.79520367717004 431.43570983140404 -686.3783291956329 0.0 0.0
1905.525951096616 78.53308142677177 595.2177097570161 -772.7867767149146 0.0 0.0
2419.971822577862 40.668435682916005 738.1920774782337 -834.8383385395233 0.0 0.0
2906.3244596448044 15.922066602891675 876.6739578743089 -865.9729181894263 0.0 0.0
3390.166756301737 4.5789723690471735 1018.4237186012354 -878.8995960390332 0.0 0.0
3873.6458720574847 0.45548674411623846 1162.2304076404805 -882.7994922565094 0.0 0.0
4357.347041694643 -0.6679007083331161 1307.0037422958935 -883.2931861275871 0.0 0.0
4841.307462916074 -0.6624615048246181 1452.1935004233749 -882.8864384788953 0.0 0.0
5325.419723626552 -0.13710121736312608 1597.5847867227571 -882.6948850680328 0.0 0.0
5809.561665491496 1.276207432134015 1743.2513618770893 -883.6208490632449 0.0 0.0
6293.496007053224 4.733036145810958 1889.4687129597105 -887.1922614723721 0.0 0.0
6776.964181124685 11.657869699212593 2036.5866152471694 -895.8913593462173 0.0 0.0
7260.259916963701 21.162887795479513 2184.426841427754 -911.707924635271 0.0 0.0
7744.4801980041975 22.91100027865358 2330.2173594848564 -929.5159560407511 0.0 0.0
8226.310315339839 -13.617687062164578 2463.8077884833037 -921.0677754074546 0.0 0.0
8676.654161092503 -137.77033694469986 2561.66514724434 -814.9462916410114 0.0 0.0
9009.78666540319 -358.7042769573794 2595.324716533743 -511.35326527605895 0.0 0.0
9122.09982784695 -511.593664395778 2583.151849035353 2.751221472863108e-11 0.0 0.0
9009.786665403231 -358.7042769573972 2595.3247165337502 511.35326527601705 0.0 0.0
8676.654161092141 -137.7703369455437 2561.6651472439794 814.9462916409844 0.0 0.0
8226.310315340032 -13.617687061617211 2463.8077884835247 921.0677754073738 0.0 0.0
7744.480198004012 22.911000278192056 2330.2173594846613 929.5159560407628 0.0 0.0
7260.259916963407 21.162887794716724 2184.4268414274375 911.707924635288 0.0 0.0
6776.964181124606 11.657869699083104 2036.5866152471065 895.8913593462269 0.0 0.0
6293.49600705267 4.7330361445535445 1889.468712959167 887.1922614723065 0.0 0.0
5809.561665491538 1.276207432231324 1743.251361877131 883.6208490632122 0.0 0.0
5325.419723626439 -0.13710121756340143 1597.5847867226626 882.6948850680471 0.0 0.0
4841.307462916107 -0.6624615047324198 1452.1935004234124 882.8864384788715 0.0 0.0
4357.347041694566 -0.6679007085355018 1307.0037422958092 883.293186127502 0.0 0.0
3873.645872057777 0.4554867446949942 1162.2304076407418 882.7994922564635 0.0 0.0
3390.166756301647 4.578972368721672 1018.4237186011107 878.8995960390109 0.0 0.0
2906.324459644784 15.922066602871958 876.6739578742964 865.9729181894381 0.0 0.0
2419.9718225778256 40.66843568283543 738.1920774781983 834.8383385395073 0.0 0.0
1905.5259510967257 78.53308142701131 595.2177097571212 772.7867767148641 0.0 0.0
1280.323829094155 157.79520367714267 431.4357098313893 686.3783291956361 0.0 0.0
648.7559023487345 335.21574488994526 295.191494171604 778.5064249841657 0.0 0.0
522.2134660888912 -556.4848314650171 -10.28140961283772 1195.9242246792942 0.0 0.0
-1657.0694231574766 -7002.77912043729 -2597.9545630784305 1158.5722580381046 0.0 0.0
-1348.0841769248057 -5894.416688044624 -2172.7502594908287 -1074.1673435369732 0.0 0.0
263.3767994013374 -864.4925827742704 -180.33473501188004 -1244.1796225892358 0.0 0.0
402.730354029817 260.1225634189161 198.85587523461996 -984.6455919140809 0.0 0.0
911.0731513107545 194.8806771349517 331.78614853371187 -844.4835610653307 0.0 0.0
1462.629604746756 99.5801936102336 468.66293950709706 -892.6977427639195 0.0 0.0
1914.42694518198 49.209597932302955 589.090962934285 -946.64210048718 0.0 0.0
2319.456119294618 19.92597694588188 701.8146288721497 -975.4711541731076 0.0 0.0
2711.5308089116634 5.80290561969426 815.200114359407 -987.7171962525282 0.0 0.0
3099.621601367403 0.5956292921089066 930.0651691978534 -991.5672115240073 0.0 0.0
3486.6251268727665 -0.80078125928795 1045.7473036840436 -992.1161392096932 0.0 0.0
3873.5984627130056 -0.8078896613915294 1161.837171915484 -991.782343924688 0.0 0.0
4260.674907169031 -0.15700080022161345 1278.1553719106432 -991.6340881915145 0.0 0.0
4647.475177713881 1.589818051668768 1394.719498729665 -992.5232399976427 0.0 0.0
5033.026735691099 5.842230134721323 1511.6606897477463 -995.857824934017 0.0 0.0
5415.805563379563 14.386622652705796 1629.057655809681 -1003.9568667148726 0.0 0.0
5794.990957393206 26.322858185395585 1746.3941446735807 -1018.9137859972413 0.0 0.0
6173.305585817245 29.02195892931287 1860.698263423967 -1036.4400131361458 0.0 0.0
6555.957192722063 -16.67946704901253 1961.783317701916 -1028.7620882078395 0.0 0.0
6928.760943953156 -177.75114756938126 2025.302938915132 -918.3813285262493 0.0 0.0
7213.283184988581 -474.55099872942867 2021.6196558777453 -584.4399046858598 0.0 0.0
7302.335759729516 -688.9533775543282 1984.0147146525564 7.688072400924284e-11 0.0 0.0
7213.283184988657 -474.55099872934704 2021.6196558777926 584.4399046859203 0.0 0.0
6928.760943952979 -177.75114756968702 2025.3029389149883 918.3813285262167 0.0 0.0
6555.957192721768 -16.679467049532548 1961.783317701671 1028.762088207816 0.0 0.0
6173.305585817075 29.021958928967678 1860.698263423813 1036.4400131361772 0.0 0.0
5794.99095739298 26.32285818488608 1746.39414467336 1018.9137859971678 0.0 0.0
5415.805563379528 14.386622652626865 1629.0576558096468 1003.9568667148337 0.0 0.0
5033.026735691164 5.842230134881756 1511.6606897478134 995.8578249340003 0.0 0.0
4647.475177714059 1.5898180520691731 1394.7194987298385 992.5232399975904 0.0 0.0
4260.674907168917 -0.15700080048205933 1278.1553719105302 991.6340881915336 0.0 0.0
3873.5984627129283 -0.8078896615489093 1161.8371719154136 991.7823439247111 0.0 0.0
3486.6251268728583 -0.8007812590483923 1045.747303684143 992.1161392096983 0.0 0.0
3099.621601367524 0.5956292923430944 930.0651691979604 991.5672115239854 0.0 0.0
2711.5308089116766 5.802905619715805 815.2001143594177 987.7171962525247 0.0 0.0
2319.4561192945384 19.925976945746758 701.8146288720856 975.4711541731078 0.0 0.0
1914.4269451820255 49.209597932442385 589.0909629343404 946.6421004872316 0.0 0.0
1462.629604746841 99.58019361043038 468.6629395071815 892.6977427639399 0.0 0.0
911.0731513107851 194.8806771349791 331.78614853372926 844.4835610653722 0.0 0.0
402.7303540298575 260.12256341899473 198.85587523465566 984.6455919141132 0.0 0.0
263.37679940132637 -864.4925827742434 -180.33473501187518 1244.1796225892435 0.0 0.0
-1348.0841769248245 -5894.416688044631 -2172.750259490837 1074.1673435370105 0.0 0.0
-1085.7058744897608 -4931.868127406068 -1805.272200568749 -984.0935254020508 0.0 0.0
85.8222485435836 -1037.2483626971466 -285.427834246069 -1255.1690794506935 0.0 0.0
197.63712316375828 168.00944449347844 109.69397029717102 -1143.4059669397257 0.0 0.0
579.4003726139972 210.75028287737476 237.04519664741161 -988.4489523339934 0.0 0.0
1034.781067197381 118.42196642249417 345.9609100859626 -998.864408553008 0.0 0.0
1411.2246209505197 57.48013614700528 440.6114271292575 -1038.330266457661 0.0 0.0
1732.6246468234228 23.423531006403117 526.8144533489477 -1062.3191887785956 0.0 0.0
2032.6959428023015 6.962721660974043 611.8975993389827 -1072.766292999821 0.0 0.0
2325.3640801538118 0.7489239820317 697.8339012407532 -1076.15283604846 0.0 0.0
2615.753974324245 -0.913149371089311 784.4522474859467 -1076.6843686158998 0.0 0.0
2905.7936389454285 -0.9312382147228906 871.458720219212 -1076.434765031855 0.0 0.0
3195.852533212348 -0.16928935913002974 958.7049731559651 -1076.329415977559 0.0 0.0
3485.3512360617256 1.8745470237100363 1046.1677349256306 -1077.0854253145258 0.0 0.0
3772.699763328519 6.820586739109219 1133.8561050202884 -1079.8673368110117 0.0 0.0
4055.275196178184 16.781955887252376 1221.6171456196307 -1086.6542628170218 0.0 0.0
4331.254735259658 31.00702314162727 1308.6785275203863 -1099.6230178068063 0.0 0.0
4605.087727996628 35.14180584143789 1392.06886015142 -1116.2128116092824 0.0 0.0
4891.2344507768785 -18.345944300232624 1461.8665519429937 -1111.865140553107 0.0 0.0
5192.106828909853 -217.02312260789648 1492.5251118905871 -1006.0878869758463 0.0 0.0
5434.627554551656 -601.2570626145101 1450.0111475811436 -653.5138029493667 0.0 0.0
5499.741822255867 -895.3114420497552 1381.3291140618333 2.5409008230781183e-11 0.0 0.0
5434.627554551658 -601.2570626144118 1450.0111475811736 653.5138029493189 0.0 0.0
5192.1068289099785 -217.0231226075624 1492.5251118907252 1006.087886975751 0.0 0.0
4891.234450776816 -18.34594430035191 1461.8665519429394 1111.865140553161 0.0 0.0
4605.0877279965935 35.141805841380524 1392.0688601513923 1116.2128116093295 0.0 0.0
4331.254735259847 31.0070231420299 1308.6785275205627 1099.6230178068379 0.0 0.0
4055.2751961782437 16.781955887366593 1221.6171456196832 1086.6542628169536 0.0 0.0
3772.6997633284855 6.8205867389483466 1133.8561050202302 1079.8673368110046 0.0 0.0
3485.351236061948 1.8745470241477022 1046.1677349258287 1077.0854253145278 0.0 0.0
3195.852533212407 -0.16928935898272712 958.7049731560274 1076.3294159775721 0.0 0.0
2905.793638945336 -0.9312382149247078 871.4587202191236 1076.4347650319112 0.0 0.0
2615.7539743243597 -0.9131493707732119 784.4522474860761 1076.6843686159032 0.0 0.0
2325.364080153948 0.748923982272089 697.8339012408661 1076.1528360484067 0.0 0.0
2032.6959428023433 6.962721660942092 611.8975993389857 1072.7662929998132 0.0 0.0
1732.6246468233344 23.42353100620076 526.8144533488608 1062.3191887786188 0.0 0.0
1411.2246209506704 57.48013614739991 440.6114271294211 1038.3302664576925 0.0 0.0
1034.781067197367 118.42196642239726 345.9609100859293 998.8644085530078 0.0 0.0
579.4003726140323 210.75028287738857 237.0451966474263 988.4489523339527 0.0 0.0
197.63712316379298 168.00944449357817 109.69397029721135 1143.4059669397225 0.0 0.0
85.8222485435935 -1037.2483626971377 -285.42783424606324 1255.1690794506728 0.0 0.0
-1085.7058744897265 -4931.868127406048 -1805.2722005687328 984.0935254020694 0.0 0.0
-869.4684578342985 -4093.3991633360924 -1488.8602863511176 -897.0936846397461 0.0 0.0
-40.5303329246851 -1109.206559155014 -344.9210676239096 -1239.0707068363238 0.0 0.0
21.284926789303896 78.49575529894648 29.934204626475147 -1254.4596052750617 0.0 0.0
277.710963652399 209.10830506977373 146.04578061665183 -1108.425780572143 0.0 0.0
623.0890710806884 131.73970981930472 226.44863426999797 -1087.7258572677708 0.0 0.0
912.6156556232473 64.54047430261312 293.14683897775814 -1109.3736497340105 0.0 0.0
1146.624397692655 26.241459215014142 351.8597570723007 -1126.2867325531954 0.0 0.0
1353.893350732854 7.902596598573276 408.5387841994281 -1134.017663981473 0.0 0.0
1550.9458821587632 0.8926283635766445 465.551553156702 -1136.5801153003438 0.0 0.0
1744.7284334695998 -0.9971798886762677 523.1193760742769 -1137.0137058389437 0.0 0.0
1937.879168400028 -1.0251432869896533 581.0562075339114 -1136.8512325422612 0.0 0.0
2130.961258348236 -0.17594637273878888 639.2355935926491 -1136.7828742458607 0.0 0.0
2323.2583636410577 2.099884257483968 697.6074743695623 -1137.3238425547313 0.0 0.0
2512.7168734423512 7.575300012571917 756.0876520364772 -1139.298344469113 0.0 0.0
2695.8042611790224 18.620823464660607 814.3275253931051 -1144.192330643345 0.0 0.0
2869.6614624162394 34.82115099380555 871.3447840230135 -1154.18407505517 0.0 0.0
3040.039833125151 41.04604059443754 924.3257621158765 -1169.1779973712312 0.0 0.0
3230.7896881303527 -17.456398152356087 963.9999869933991 -1170.7208070611825 0.0 0.0
3463.1998891727376 -251.76621465378201 963.4301023556866 -1079.2305623237462 0.0 0.0
3668.8158028055636 -735.2450842853788 880.0712155560559 -720.946601660455 0.0 0.0
3706.722336536847 -1133.7393790550968 771.8948872445253 2.5579538487363607e-13 0.0 0.0
3668.8158028054404 -735.2450842856981 880.0712155559228 720.9466016604338 0.0 0.0
3463.199889172814 -251.76621465362052 963.4301023557581 1079.2305623237992 0.0 0.0
3230.7896881305096 -17.45639815192957 963.9999869935743 1170.720807061123 0.0 0.0
3040.0398331250913 41.04604059430466 924.3257621158186 1169.1779973711352 0.0 0.0
2869.6614624165736 34.82115099447421 871.3447840233144 1154.1840750552294 0.0 0.0
2695.8042611787273 18.62082346394066 814.3275253928005 1144.1923306433027 0.0 0.0
2512.716873442296 7.575300012408118 756.0876520364112 1139.2983444691185 0.0 0.0
2323.2583636411805 2.0998842577793297 697.6074743696881 1137.3238425547313 0.0 0.0
2130.961258348302 -0.17594637249468192 639.2355935927421 1136.7828742457818 0.0 0.0
1937.8791684000291 -1.025143286949259 581.0562075339241 1136.851232542237 0.0 0.0
1744.7284334695828 -0.9971798886500949 523.1193760742798 1137.0137058388882 0.0 0.0
1550.9458821587928 0.8926283636535892 465.551553156734 1136.5801153003267 0.0 0.0
1353.893350733037 7.902596598941617 408.5387841995936 1134.017663981498 0.0 0.0
1146.624397692607 26.241459214863298 351.8597570722411 1126.2867325531734 0.0 0.0
912.6156556233433 64.54047430281874 293.1468389778486 1109.3736497340178 0.0 0.0
623.0890710806212 131.73970981912743 226.44863426992458 1087.7258572677854 0.0 0.0
277.7109636525026 209.10830506996518 146.0457806167404 1108.42578057209 0.0 0.0
21.28492678936164 78.49575529902584 29.934204626516262 1254.45960527507 0.0 0.0
-40.53033292468601 -1109.2065591550283 -344.92106762391415 1239.070706836324 0.0 0.0
-869.4684578343155 -4093.3991633361256 -1488.860286351133 897.093684639777 0.0 0.0
-694.3331274553849 -3359.6529425960603 -1216.195821015433 -815.4669617571901 0.0 0.0
-135.06338545808393 -1108.691324832805 -373.12641308726666 -1202.5135016152026 0.0 0.0
-135.19137874074127 2.1561375815404187 -39.91057234776025 -1321.0551940476364 0.0 0.0
-0.7995355591455251 195.25839505428036 58.337657848540445 -1198.5917392892316 0.0 0.0
226.8212945965513 138.20883551038065 109.50903903207961 -1155.5337863242864 0.0 0.0
419.91300353983644 69.41913760125765 146.79964234232827 -1158.768355631797 0.0 0.0
562.1514951851391 28.184969757941364 177.1009394829241 -1167.0636637133953 0.0 0.0
675.3249345393353 8.52761456436891 205.15576473111128 -1171.378938408775 0.0 0.0
776.4233158714944 0.9976475328753978 233.22628902131092 -1172.8513056342929 0.0 0.0
873.5501536329839 -1.0481698969976847 261.7505951207959 -1173.1178333980556 0.0 0.0
969.8462603392946 -1.0842450931713827 290.6286045738371 -1173.0406955370681 0.0 0.0
1066.0088476685871 -0.17969084308827377 319.74874704764966 -1173.0032169543542 0.0 0.0
1161.2475258733991 2.2417097376565955 349.04677068331677 -1173.2706879549391 0.0 0.0
1253.227489308985 8.03993344428137 378.38022682598 -1174.262913316006 0.0 0.0
1337.7389544057592 19.73917061388438 407.2434375058932 -1176.8498894856164 0.0 0.0
1410.7647981025384 37.41072007340111 434.45265545278187 -1183.0301915659581 0.0 0.0
1478.4094102932936 46.409409020943656 457.44564579427106 -1195.579293774132 0.0 0.0
1573.305466342703 -12.986632401828523 468.0956501822625 -1205.0511245257624 0.0 0.0
1738.5681033312799 -277.6906837897882 438.26322586244765 -1138.0553671248954 0.0 0.0
1911.2304055668471 -872.1440531716844 311.7259057185488 -788.9421728953553 0.0 0.0
1915.1579217225776 -1409.6234971451138 151.66032737323937 -1.2988721209694631e-11 0.0 0.0
1911.2304055664995 -872.1440531724948 311.7259057182014 788.942172895381 0.0 0.0
1738.5681033311066 -277.69068379022184 438.2632258622655 1138.0553671248838 0.0 0.0
1573.3054663427156 -12.986632401725998 468.09565018229677 1205.051124525699 0.0 0.0
1478.409410293571 46.409409021551326 457.4456457945367 1195.579293774132 0.0 0.0
1410.7647981024188 37.41072007306531 434.4526554526453 1183.0301915659968 0.0 0.0
1337.738954405523 19.739170613318883 407.2434375056526 1176.849889485597 0.0 0.0
1253.2274893090685 8.03993344437713 378.38022682603366 1174.2629133160121 0.0 0.0
1161.2475258736642 2.241709738276654 349.0467706835823 1173.2706879549055 0.0 0.0
1066.0088476686747 -0.17969084282469083 319.748747047755 1173.003216954426 0.0 0.0
969.8462603393266 -1.084245093084526 290.6286045738726 1173.0406955371282 0.0 0.0
873.5501536329691 -1.0481698969682434 261.7505951208003 1173.1178333980308 0.0 0.0
776.4233158714478 0.9976475327863241 233.2262890212702 1172.851305634258 0.0 0.0
675.324934539541 8.527614564841539 205.15576473131483 1171.3789384088182 0.0 0.0
562.1514951849723 28.184969757514295 177.10093948274599 1167.0636637133446 0.0 0.0
419.91300353979585 69.41913760117957 146.79964234229266 1158.7683556317734 0.0 0.0
226.82129459637838 138.20883551003666 109.50903903192452 1155.5337863243087 0.0 0.0
-0.7995355591540445 195.25839505426669 58.3376578485338 1198.5917392892645 0.0 0.0
-135.19137874060078 2.156137581835619 -39.91057234762954 1321.0551940476296 0.0 0.0
-135.0633854581175 -1108.6913248328858 -373.12641308730093 1202.5135016152149 0.0 0.0
-694.3331274554099 -3359.6529425960434 -1216.1958210154362 815.4669617571772 0.0 0.0
-554.2800143575402 -2715.227972049416 -980.852395922087 -738.67142830747 0.0 0.0
-210.1630454142973 -1057.8953119385335 -380.4175072058493 -1149.564454002747 0.0 0.0
-278.131890649475 -56.31096004509004 -100.33285520836947 -1347.4645295818864 0.0 0.0
-261.80275404865 174.2207587786968 -26.274598580985963 -1256.0131200027877 0.0 0.0
-155.70288054199915 137.87998401877155 -5.346868956968272 -1199.045451042795 0.0 0.0
-66.39917249287741 71.44639477038262 1.5141666832515668 -1185.2221394290484 0.0 0.0
-20.318473523640108 29.061174956721374 2.6228104299243924 -1184.2401026342714 0.0 0.0
-2.853264511226172 8.785381877623843 1.7796352099192987 -1184.7219604243014 0.0 0.0
1.8339637375351998 1.0436534167312992 0.8632851462799707 -1184.9509458366497 0.0 0.0
2.222109564112614 -1.0649930829393206 0.34713494435198555 -1185.0080340004934 0.0 0.0
1.6902888692145268 -1.104996526182351 0.17558770290964532 -1185.0133462459419 0.0 0.0
1.0003577477562118 -0.18247338401233293 0.24536530912315158 -1185.0038098022098 0.0 0.0
-0.651747980180744 2.284200287929938 0.4897356923247713 -1184.9689460787745 0.0 0.0
-5.682141674782855 8.177938880614722 0.7487391617496044 -1184.8945756567177 0.0 0.0
-18.678283682328328 20.048556038345698 0.41108170680522704 -1184.9578991258477 0.0 0.0
-44.9238614136423 38.48196249091086 -1.9325696768194405 -1186.6977168062408 0.0 0.0
-79.40006353015892 50.723558389584824 -8.602951542172242 -1195.6441541392232 0.0 0.0
-82.3269104218202 -4.306044060327842 -25.989886344644404 -1213.9767564693766 0.0 0.0
14.78331158400269 -290.06547371073464 -82.58464863801963 -1181.7408684888553 0.0 0.0
157.65031113825816 -1006.126409991637 -254.5428296560137 -859.5931221598936 0.0 0.0
115.79127034502027 -1731.3453018364498 -484.66620944742897 -2.7853275241795927e-11 0.0 0.0
157.65031113795936 -1006.1264099923701 -254.54282965632325 859.593122159832 0.0 0.0
14.783311584259337 -290.0654737101046 -82.58464863775362 1181.7408684888833 0.0 0.0
-82.32691042171584 -4.306044059972443 -25.98988634450653 1213.9767564694314 0.0 0.0
-79.4000635301015 50.723558389686744 -8.60295154212443 1195.6441541392703 0.0 0.0
-44.92386141364625 38.481962490764516 -1.9325696768645315 1186.697716806208 0.0 0.0
-18.678283682224645 20.04855603859252 0.41108170691034474 1184.9578991258263 0.0 0.0
-5.682141675000594 8.1779388800856 0.7487391615255063 1184.8945756567437 0.0 0.0
-0.6517479800077837 2.2842002882915438 0.4897356924851195 1184.9689460787267 0.0 0.0
1.0003577474630987 -0.18247338469145546 0.2453653088315093 1185.0038098022296 0.0 0.0
1.690288869332477 -1.1049965258847187 0.17558770303431004 1185.0133462459532 0.0 0.0
2.222109563960217 -1.0649930831980967 0.3471349442286531 1185.0080340005627 0.0 0.0
1.833963737593578 1.0436534168294962 0.8632851463269446 1184.9509458366833 0.0 0.0
-2.8532645110369828 8.785381878022733 1.7796352100957016 1184.7219604243248 0.0 0.0
-20.31847352377983 29.061174956503713 2.622810429817161 1184.2401026342375 0.0 0.0
-66.39917249292067 71.44639477018882 1.5141666831804539 1185.2221394290389 0.0 0.0
-155.70288054204264 137.8799840185431 -5.346868957049871 1199.0454510427537 0.0 0.0
-261.8027540487354 174.2207587785498 -26.27459858105569 1256.0131200027924 0.0 0.0
-278.13189064948773 -56.310960045067084 -100.33285520836645 1347.464529581882 0.0 0.0
-210.16304541430742 -1057.8953119385017 -380.4175072058427 1149.5644540027658 0.0 0.0
-554.2800143575901 -2715.227972049432 -980.8523959221066 738.6714283074875 0.0 0.0
-443.78042476780166 -2148.9064279995487 -777.8060558302051 -665.0410802762701 0.0 0.0
-273.578557219354 -973.7451512421071 -374.1971125384383 -1082.570672854261 0.0 0.0
-411.9481540167468 -95.80939195722628 -152.32726379219193 -1337.8586274641928 0.0 0.0
-509.8038298899314 150.0001197066165 -107.94111305499446 -1279.601020914585 0.0 0.0
-526.5536144630281 131.5771256453496 -118.49294664530352 -1215.731364766289 0.0 0.0
-546.4835846258305 70.35233374583181 -142.83937526399964 -1187.3654051396488 0.0 0.0
-600.5832398747245 28.74220311374262 -171.55231102829453 -1177.3269078817123 0.0 0.0
-680.5561643776342 8.655778070321404 -201.5701158921939 -1173.8980564769006 0.0 0.0
-772.8048487691142 1.0234196924384982 -231.5344287230027 -1172.8542181850064 0.0 0.0
-869.253932774896 -1.04814223731535 -261.09062250366344 -1172.693599625239 0.0 0.0
-966.5903062169301 -1.0860121762927477 -290.30289551796693 -1172.7801110319954 0.0 0.0
-1064.0629156657483 -0.1844121831030101 -319.2741983546554 -1172.8002133924006 0.0 0.0
-1162.4325798967266 2.221318256912568 -348.06337849194415 -1172.4671379198621 0.0 0.0
-1263.995580706333 7.981158900949623 -376.8043265416152 -1171.3348846923811 0.0 0.0
-1373.3345791210238 19.548229699906745 -406.13590482633504 -1168.8739646134488 0.0 0.0
-1496.9475367976179 37.85090582938433 -437.72898929047005 -1165.8433739911375 0.0 0.0
-1632.7138576089926 53.25395304007008 -473.8379713706768 -1169.7250964912269 0.0 0.0
-1736.788317770954 8.489369009830405 -518.4896846283372 -1196.0973313176198 0.0 0.0
-1711.5006942149435 -283.8633448249488 -598.6092117119679 -1208.1260242759665 0.0 0.0
-1595.6528745446294 -1128.93509406903 -817.3763905840977 -934.8347343408383 0.0 0.0
-1702.6145239095742 -2111.3097612749143 -1144.1772855553468 5.0391690820106305e-11 0.0 0.0
-1595.652874544724 -1128.9350940693162 -817.3763905842121 934.8347343407914 0.0 0.0
-1711.5006942144819 -283.8633448238355 -598.6092117114954 1208.1260242759504 0.0 0.0
-1736.7883177707904 8.489369010295594 -518.4896846281484 1196.097331317679 0.0 0.0
-1632.7138576090533 53.25395303990787 -473.8379713707435 1169.7250964912862 0.0 0.0
-1496.9475367973128 37.850905830006184 -437.728989290192 1165.843373991126 0.0 0.0
-1373.3345791211104 19.54822969970697 -406.135904826421 1168.873964613415 0.0 0.0
-1263.9955807063534 7.981158900965436 -376.8043265416164 1171.334884692366 0.0 0.0
-1162.432579896695 2.221318256917698 -348.06337849193324 1172.4671379198337 0.0 0.0
-1064.0629156660548 -0.18441218384999658 -319.27419835497153 1172.8002133924026 0.0 0.0
-966.5903062167692 -1.0860121758767178 -290.3028955177939 1172.780111031945 0.0 0.0
-869.2539327749316 -1.048142237362267 -261.0906225036882 1172.6935996252632 0.0 0.0
-772.804848769124 1.0234196924181322 -231.53442872301179 1172.8542181851208 0.0 0.0
-680.5561643772842 8.655778071163635 -201.57011589183622 1173.898056476856 0.0 0.0
-600.5832398747798 28.742203113713778 -171.55231102831982 1177.3269078817032 0.0 0.0
-546.4835846257255 70.35233374608013 -142.83937526389354 1187.3654051396666 0.0 0.0
-526.5536144630903 131.5771256451616 -118.4929466453786 1215.7313647662468 0.0 0.0
-509.8038298898622 150.00011970676425 -107.94111305492933 1279.601020914552 0.0 0.0
-411.9481540168539 -95.8093919575163 -152.3272637923111 1337.8586274642057 0.0 0.0
-273.5785572192927 -973.745151241969 -374.19711253837863 1082.5706728543144 0.0 0.0
-443.78042476784935 -2148.9064279996055 -777.8060558302365 665.0410802762474 0.0 0.0
-358.2869211909848 -1653.3182855441546 -603.4815620205419 -592.6194972216763 0.0 0.0
-329.90781380947396 -868.9263329844397 -359.6502440381741 -1002.7972650801564 0.0 0.0
-539.5414156144435 -117.34558261447371 -197.0660994686752 -1295.8701127012669 0.0 0.0
-748.2298517771619 125.41384009835109 -186.84480350364322 -1269.311088791615 0.0 0.0
-887.867687221197 120.4645749193858 -230.22093369054335 -1203.7312236982775 0.0 0.0
-1020.9756132007519 66.24229703734507 -286.41999484902215 -1163.9060543583546 0.0 0.0
-1178.717885025093 27.212930173770246 -345.45148645539695 -1145.8046426067135 0.0 0.0
-1357.7880554604574 8.151164216214784 -404.8910673732728 -1138.752355333722 0.0 0.0
-1547.4979213614108 0.9418872696157088 -463.96681022753864 -1136.5351404604867 0.0 0.0
-1740.87785314656 -0.9983410763819478 -522.5628582668826 -1136.1833079686817 0.0 0.0
-1934.9945176498882 -1.0282954440958818 -580.8068439281953 -1136.352003394763 0.0 0.0
-2129.1840361308195 -0.18360453613919958 -638.8102922000878 -1136.4074884300564 0.0 0.0
-2324.1096082737704 2.0587195030796295 -696.6152666312069 -1135.8137867822409 0.0 0.0
-2521.7658408219627 7.464084874183218 -754.2905267843338 -1133.722022907863 0.0 0.0
-2726.2777797194008 18.32334300516138 -812.386331014272 -1128.9480721542448 0.0 0.0
-2944.957778035111 35.52476547062997 -872.8299037693447 -1121.2395273102977 0.0 0.0
-3180.4913726009067 53.08274395064995 -938.2225885950768 -1118.5026885597736 0.0 0.0
-3390.0334498297825 24.14738610452156 -1009.7658191175781 -1149.6998385940053 0.0 0.0
-3443.474024206758 -254.164021714951 -1109.2914137765129 -1213.290982923459 0.0 0.0
-3351.688090927675 -1228.431575500488 -1374.0358999284488 -1016.2157024400841 0.0 0.0
-3554.494503691864 -2567.421469692283 -1836.5747920152442 -3.998934516857844e-11 0.0 0.0
-3351.6880909278157 -1228.4315755008197 -1374.0358999285907 1016.2157024400556 0.0 0.0
-3443.4740242065573 -254.1640217145674 -1109.291413776337 1213.2909829234998 0.0 0.0
-3390.033449829512 24.14738610515756 -1009.7658191173063 1149.6998385940567 0.0 0.0
-3180.491372600967 53.08274395045858 -938.2225885951526 1118.5026885598586 0.0 0.0
-2944.957778034897 35.524765471046194 -872.8299037691552 1121.239527310224 0.0 0.0
-2726.2777797194885 18.323343004997 -812.3863310143478 1128.9480721542916 0.0 0.0
-2521.765840822161 7.4640848737630066 -754.2905267845191 1133.7220229079453 0.0 0.0
-2324.109608273586 2.0587195034474686 -696.6152666310417 1135.8137867822554 0.0 0.0
-2129.184036130876 -0.18360453634147333 -638.8102922001652 1136.4074884300005 0.0 0.0
-1934.9945176497447 -1.0282954438230565 -580.8068439280703 1136.3520033947264 0.0 0.0
-1740.8778531465932 -0.9983410764253353 -522.5628582669056 1136.1833079686762 0.0 0.0
-1547.4979213613628 0.9418872698406453 -463.96681022745673 1136.5351404605046 0.0 0.0
-1357.7880554602543 8.151164216740668 -404.891067373054 1138.7523553336803 0.0 0.0
-1178.7178850251003 27.212930173688054 -345.4514864554237 1145.8046426066785 0.0 0.0
-1020.9756132007878 66.242297037204 -286.41999484907524 1163.9060543583687 0.0 0.0
-887.8676872211436 120.46457491952856 -230.22093369048446 1203.731223698273 0.0 0.0
-748.2298517771073 125.41384009849837 -186.84480350358265 1269.3110887915632 0.0 0.0
-539.541415614459 -117.34558261455328 -197.0660994687037 1295.8701127013023 0.0 0.0
-329.90781380945094 -868.9263329843959 -359.650244038154 1002.7972650801368 0.0 0.0
-358.286921191021 -1653.3182855441712 -603.4815620205579 592.6194972216599 0.0 0.0
-294.2572117387258 -1224.3989249484302 -455.59684100614686 -519.5895748227399 0.0 0.0
-381.4960716381633 -752.8117942325038 -340.29235976120003 -910.8994807859026 0.0 0.0
-662.5696538283695 -123.11444163273151 -235.70522863833028 -1224.4628187696921 0.0 0.0
-979.5531963979952 102.17057616862975 -263.2147860688095 -1225.5612138652418 0.0 0.0
-1241.6871709669686 105.79186560159303 -340.7685916096128 -1161.7051280270014 0.0 0.0
-1490.8484818240017 59.52902698963285 -429.39583645031064 -1113.7216963953017 0.0 0.0
-1755.051523634966 24.590058723541993 -519.1384394734272 -1089.181432808536 0.0 0.0
-2034.6488051828546 7.319435204007668 -608.1988109936544 -1079.1414041177616 0.0 0.0
-2322.2727540865385 0.8136996733808601 -696.4377163239474 -1075.973781872724 0.0 0.0
-2612.6503834276377 -0.9164603570815792 -784.0700531354158 -1075.4872151782552 0.0 0.0
-2903.5183045691797 -0.9352835005768085 -871.3360764209273 -1075.7395700982324 0.0 0.0
-3194.3705013565086 -0.17733114570524222 -958.3643497506641 -1075.8376283769212 0.0 0.0
-3485.7169912056625 1.8162499683299167 -1045.1702223711995 -1075.0507621859726 0.0 0.0
-3779.104872679408 6.6589849991726915 -1131.7337663040707 -1072.183731736878 0.0 0.0
-4077.74430031272 16.51519634495792 -1218.3687311903286 -1065.4857895238956 0.0 0.0
-4388.829652767079 31.80152741908031 -1307.1084376043996 -1053.7148117199479 0.0 0.0
-4721.28643533384 49.32017529744624 -1401.5898780109178 -1043.2301561628722 0.0 0.0
-5040.868259931777 39.746777576071494 -1500.3364447067117 -1073.2237598041906 0.0 0.0
-5184.021711977267 -197.0779154973681 -1614.3298882423903 -1190.9864778638837 0.0 0.0
-5112.311964009152 -1286.4245147804513 -1919.6209436368808 -1104.3002286438273 0.0 0.0
-5459.310219826982 -3125.1095675846536 -2575.32593622349 -3.498712430882733e-11 0.0 0.0
-5112.311964009099 -1286.4245147803622 -1919.6209436368383 1104.3002286439048 0.0 0.0
-5184.021711977218 -197.07791549724953 -1614.32988824234 1190.9864778638218 0.0 0.0
-5040.86825993166 39.746777576377426 -1500.3364447065849 1073.2237598041022 0.0 0.0
-4721.286435334023 49.320175296983564 -1401.5898780111118 1043.230156162871 0.0 0.0
-4388.829652767033 31.801527419163843 -1307.108437604361 1053.7148117198885 0.0 0.0
-4077.744300312562 16.515196345348038 -1218.3687311901642 1065.4857895238579 0.0 0.0
-3779.1048726795393 6.65898499887572 -1131.733766304199 1072.18373173695 0.0 0.0
-3485.716991205445 1.8162499688101157 -1045.1702223709904 1075.0507621860238 0.0 0.0
-3194.370501356576 -0.17733114587876386 -958.3643497507366 1075.8376283769542 0.0 0.0
-2903.518304569135 -0.9352835004950091 -871.3360764208894 1075.7395700982122 0.0 0.0
-2612.650383427736 -0.9164603573173391 -784.070053135516 1075.4872151782797 0.0 0.0
-2322.2727540862998 0.8136996739699889 -696.4377163236989 1075.9737818727706 0.0 0.0
-2034.6488051829797 7.319435203766044 -608.1988109937645 1079.1414041177827 0.0 0.0
-1755.0515236350604 24.590058723273152 -519.1384394735362 1089.1814328085356 0.0 0.0
-1490.8484818242268 59.52902698913199 -429.39583645052835 1113.7216963953306 0.0 0.0
-1241.6871709668071 105.79186560212268 -340.76859160940523 1161.7051280269638 0.0 0.0
-979.5531963979838 102.17057616865239 -263.2147860687994 1225.561213865239 0.0 0.0
-662.5696538283105 -123.11444163259797 -235.70522863827242 1224.462818769679 0.0 0.0
-381.4960716381691 -752.8117942324968 -340.2923597611997 910.8994807858303 0.0 0.0
-294.2572117386505 -1224.3989249483493 -455.5968410061001 519.5895748227406 0.0 0.0
-248.92842541487963 -860.7732936566642 -332.9105157214631 -444.5515990559473 0.0 0.0
-428.92119051331457 -632.2384739452123 -318.34789933755803 -807.284694960036 0.0 0.0
-781.5838313800758 -116.01136048322687 -269.27855755899077 -1125.905143646651 0.0 0.0
-1205.4145776237256 81.05276651293218 -337.30854333323805 -1148.7994502009053 0.0 0.0
-1589.911303793383 88.7866724662435 -450.33738939814197 -1088.6624272759268 0.0 0.0
-1957.3258010175855 50.862452872540146 -571.9390044435137 -1035.9087139162955 0.0 0.0
-2330.1312304535604 21.115886213286064 -692.7046032720825 -1007.0471968516588 0.0 0.0
-2711.327593662825 6.243922960918024 -811.5251012105723 -994.9531026794789 0.0 0.0
-3097.1772150566044 0.6602746931695549 -928.9550821090305 -991.1627333405644 0.0 0.0
-3484.571481325809 -0.8046068504007096 -1045.6128264528631 -990.6181921214719 0.0 0.0
-3872.1532803487544 -0.8124958408922893 -1161.889732856894 -990.9522219207885 0.0 0.0
-4259.632957817461 -0.16465992377135308 -1277.9392853223696 -991.0980888272484 0.0 0.0
-4647.308293579141 1.5279192564110886 -1393.7341122968187 -990.2047719382124 0.0 0.0
-5036.162449189595 5.623804924735136 -1509.1615932794582 -986.8321445519431 0.0 0.0
-5428.162377281849 14.253871436709595 -1624.1725517535415 -978.7299541143668 0.0 0.0
-5828.854770641554 27.325465420756302 -1740.4587915662396 -964.0051857387051 0.0 0.0
-6253.336577890063 41.613323137871134 -1863.516976425658 -945.9271054662158 0.0 0.0
-6686.345138007805 50.22541383797886 -1990.835917250948 -966.2069946610201 0.0 0.0
-6935.424485828899 -111.68894722620267 -2114.134029916531 -1132.0016054151595 0.0 0.0
-6877.465064587723 -1275.4631472099427 -2445.8784635393004 -1197.2835687155602 0.0 0.0
-7444.361417606443 -3819.9160825484632 -3379.283250046472 1.48929757415317e-11 0.0 0.0
-6877.4650645879565 -1275.463147210442 -2445.87846353952 1197.2835687156617 0.0 0.0
-6935.424485828791 -111.68894722594669 -2114.1340299164212 1132.0016054151022 0.0 0.0
-6686.3451380078495 50.22541383776199 -1990.8359172510266 966.2069946609819 0.0 0.0
-6253.336577890224 41.61332313739611 -1863.5169764258483 945.9271054661925 0.0 0.0
-5828.854770641676 27.3254654204845 -1740.4587915663571 964.0051857387825 0.0 0.0
-5428.162377281395 14.253871437870352 -1624.1725517530574 978.7299541143548 0.0 0.0
-5036.162449189716 5.623804924496817 -1509.1615932795667 986.8321445519446 0.0 0.0
-4647.308293579018 1.5279192566474524 -1393.7341122967111 990.2047719381703 0.0 0.0
-4259.632957817304 -0.1646599235501789 -1277.9392853222557 991.0980888272079 0.0 0.0
-3872.1532803489595 -0.8124958414432921 -1161.8897328571213 990.9522219206667 0.0 0.0
-3484.571481325723 -0.8046068501611341 -1045.6128264527651 990.6181921215124 0.0 0.0
-3097.1772150564934 0.660274693468689 -928.955082108907 991.1627333405999 0.0 0.0
-2711.3275936629525 6.243922960634846 -811.5251012106951 994.9531026795014 0.0 0.0
-2330.1312304535345 21.115886213293976 -692.7046032720722 1007.0471968517033 0.0 0.0
-1957.3258010175384 50.86245287264593 -571.9390044434676 1035.9087139164099 0.0 0.0
-1589.9113037933225 88.78667246639296 -450.3373893980788 1088.6624272759004 0.0 0.0
-1205.414577623746 81.05276651288999 -337.3085433332569 1148.7994502009576 0.0 0.0
-781.5838313800978 -116.0113604832509 -269.27855755900464 1125.9051436466757 0.0 0.0
-428.9211905132882 -632.2384739451576 -318.3478993375337 807.284694960007 0.0 0.0
-248.92842541484964 -860.773293656614 -332.9105157214392 444.55159905598236 0.0 0.0
-219.89372824137763 -563.0682089839469 -234.88858116759738 -366.81101021201084 0.0 0.0
-471.16272403552955 -512.1758152862653 -295.00156179653845 -692.4139714158389 0.0 0.0
-896.0448200707827 -99.45632725202285 -298.65034419684156 -1001.7192288172673 0.0 0.0
-1426.7405282535447 62.15329797647972 -409.3761690831195 -1039.1565186341018 0.0 0.0
-1934.3353150420994 70.66272538530849 -559.1017768970374 -983.8158506932787 0.0 0.0
-2421.838007821222 41.07006280523042 -714.2303835047975 -929.8113181285632 0.0 0.0
-2904.6803441594384 17.13407419951615 -866.2638809879767 -899.1186686051275 0.0 0.0
-3388.0860816221702 5.037749379805977 -1014.9144996727091 -886.1263319027198 0.0 0.0
-3872.273591464865 0.5062118411884597 -1161.5302138871032 -882.1126756189276 0.0 0.0
-4356.637806662249 -0.6680719152362578 -1307.1917635732461 -881.5930755455586 0.0 0.0
-4840.885451125482 -0.66714387376879 -1452.4657784997753 -881.9970032890512 0.0 0.0
-5324.980681447385 -0.14746206034009646 -1597.538443052318 -882.1916833134642 0.0 0.0
-5808.960080828417 1.230087645769391 -1742.3189979547942 -881.2806460335966 0.0 0.0
-6293.104722731328 4.475228799956444 -1886.5888481794116 -877.7456741848882 0.0 0.0
-6778.090687373328 11.582643640044289 -2029.9524131199857 -868.8948323790007 0.0 0.0
-7266.007499318936 22.936344964254523 -2172.9213463064048 -852.5289318767626 0.0 0.0
-7774.935210342451 31.093556970359593 -2323.1524960116285 -829.2528426778255 0.0 0.0
-8320.907811958808 48.396261870573326 -2481.75346502647 -831.04318312728 0.0 0.0
-8698.754777203625 -3.973063976559743 -2610.8183523540565 -1023.9011638382624 0.0 0.0
-8643.875587173188 -1154.2741363131092 -2939.4449170458884 -1287.8475856274433 0.0 0.0
-9549.18967925894 -4700.299541302492 -4274.846766168431 4.547473508864641e-13 0.0 0.0
-8643.875587173336 -1154.274136313463 -2939.4449170460402 1287.8475856274924 0.0 0.0
-8698.754777203498 -3.9730639762371105 -2610.8183523539205 1023.9011638382633 0.0 0.0
-8320.907811958677 48.39626187079532 -2481.7534650263647 831.0431831272344 0.0 0.0
-7774.935210342472 31.093556970283295 -2323.1524960116567 829.2528426777652 0.0 0.0
-7266.0074993187945 22.936344964635516 -2172.921346306248 852.5289318768272 0.0 0.0
-6778.090687373315 11.582643640119379 -2029.9524131199587 868.8948323790491 0.0 0.0
-6293.104722731862 4.4752287987039985 -1886.5888481799473 877.7456741848913 0.0 0.0
-5808.96008082838 1.2300876458866075 -1742.3189979547483 881.2806460336213 0.0 0.0
-5324.9806814476115 -0.1474620609038393 -1597.5384430525546 882.1916833134933 0.0 0.0
-4840.885451125484 -0.6671438738056299 -1452.4657784997871 881.9970032889916 0.0 0.0
-4356.6378066620855 -0.668071914832252 -1307.1917635730756 881.593075545517 0.0 0.0
-3872.273591464747 0.5062118415186361 -1161.5302138869686 882.1126756189817 0.0 0.0
-3388.0860816220757 5.037749380020266 -1014.9144996726168 886.1263319028018 0.0 0.0
-2904.680344159264 17.134074199913602 -866.2638809878052 899.1186686051284 0.0 0.0
-2421.838007821196 41.070062805451485 -714.2303835047235 929.8113181285614 0.0 0.0
-1934.3353150421913 70.66272538515042 -559.1017768971124 983.8158506933071 0.0 0.0
-1426.7405282534564 62.15329797659764 -409.37616908305756 1039.1565186341895 0.0 0.0
-896.0448200708312 -99.45632725213669 -298.65034419689044 1001.7192288173046 0.0 0.0
-471.16272403550806 -512.1758152861854 -295.00156179650804 692.413971415852 0.0 0.0
-219.89372824138897 -563.0682089839723 -234.88858116760844 366.81101021203693 0.0 0.0
-204.4106376558875 -333.0524495252515 -161.2389261543417 -286.82553354413034 0.0 0.0
-505.4963044103241 -396.40565271822663 -270.5705871385652 -567.0794977576792 0.0 0.0
-1004.2229593615718 -77.45000792033464 -324.50189018457206 -852.4908497074922 0.0 0.0
-1643.8723572189008 45.18431000704746 -479.60641416355605 -896.1381569061363 0.0 0.0
-2276.7676524986673 52.71116556658248 -667.2169460796255 -846.4965896160493 0.0 0.0
-2886.012118510891 31.102373718489062 -856.4729234377205 -795.0472089622741 0.0 0.0
-3479.5523350750436 13.055089158598111 -1039.9491737749338 -765.273767811504 0.0 0.0
-4065.233606955141 3.83259236497598 -1218.4203043770494 -752.6679994952565 0.0 0.0
-4647.629308961317 0.37431028488306595 -1394.1764996029299 -748.8563534885292 0.0 0.0
-5228.838686399406 -0.516817477554099 -1568.806651163088 -748.4331485017353 0.0 0.0
-5809.695579291635 -0.5106827075147606 -1743.0618785997453 -748.8778643211863 0.0 0.0
-6390.4134384527715 -0.1226919699786535 -1917.1608391268253 -749.1134197170646 0.0 0.0
-6970.771063016517 0.931484616753977 -2090.951873519929 -748.2697644574752 0.0 0.0
-7550.12782636373 3.4191806845088877 -2264.0125937037665 -744.9165050782799 0.0 0.0
-8128.040018703266 8.524986365468344 -2435.8545097013407 -736.24256344812 0.0 0.0
-8702.191038137371 19.015224920174408 -2604.95274396516 -719.3033492674604 0.0 0.0
-9285.40550857904 21.674653909506848 -2779.1192564008606 -695.4572265542819 0.0 0.0
-9935.228574647621 26.805384080107444 -2972.526957170254 -675.7687772341972 0.0 0.0
-10472.636205150067 105.47460324902927 -3110.1484805703126 -852.7346119369429 0.0 0.0
-10402.922156995355 -861.888219546225 -3379.4431129624736 -1355.8511109781377 0.0 0.0
-11832.56704058316 -5829.076408498098 -5298.493034724378 3.609557097661309e-11 0.0 0.0
-10402.922156995382 -861.8882195462552 -3379.443112962491 1355.8511109781462 0.0 0.0
-10472.636205150115 105.47460324887459 -3110.1484805703726 852.7346119369762 0.0 0.0
-9935.228574647508 26.80538408026053 -2972.5269571701742 675.7687772341616 0.0 0.0
-9285.40550857883 21.674653909993225 -2779.1192564006515 695.4572265542005 0.0 0.0
-8702.191038136914 19.01522492123288 -2604.9527439647045 719.3033492674842 0.0 0.0
-8128.040018703695 8.524986364469997 -2435.8545097017673 736.2425634480771 0.0 0.0
-7550.127826363814 3.419180684284134 -2264.0125937038597 744.9165050783342 0.0 0.0
-6970.771063016378 0.9314846169742381 -2090.9518735198208 748.2697644574743 0.0 0.0
-6390.413438453141 -0.122691970982034 -1917.1608391272366 749.1134197170356 0.0 0.0
-5809.695579291576 -0.5106827073504983 -1743.0618785996776 748.8778643212058 0.0 0.0
-5228.838686399318 -0.5168174772802958 -1568.8066511629797 748.4331485016976 0.0 0.0
-4647.629308961435 0.37431028461422877 -1394.1764996030463 748.8563534885855 0.0 0.0
-4065.2336069550256 3.8325923653284324 -1218.4203043769087 752.6679994951563 0.0 0.0
-3479.552335075117 13.055089158489757 -1039.9491737749881 765.273767811459 0.0 0.0
-2886.012118510847 31.102373718518066 -856.4729234376986 795.0472089622945 0.0 0.0
-2276.767652498498 52.711165566847555 -667.2169460794953 846.4965896160116 0.0 0.0
-1643.872357218721 45.1843100074088 -479.6064141633938 896.1381569062244 0.0 0.0
-1004.2229593616468 -77.45000792042501 -324.5018901846216 852.4908497074395 0.0 0.0
-505.49630441026505 -396.405652718098 -270.570587138509 567.0794977576788 0.0 0.0
-204.41063765578969 -333.0524495252275 -161.23892615430512 286.8255335441695 0.0 0.0
-198.22320175730667 -172.38362497386657 -111.18204801935198 -207.02391069841042 0.0 0.0
-527.1068626124968 -288.43998232641286 -244.66405348167288 -432.6705083162931 0.0 0.0
-1102.9731016135001 -54.78296693933193 -347.3268205658497 -677.3797405732623 0.0 0.0
-1856.7490031451239 29.939792061690422 -548.04276332503 -718.3604596630001 0.0 0.0
-2619.230259504853 36.42881640901912 -774.84043292875 -676.1645773394278 0.0 0.0
-3351.6757329774173 21.96948651035271 -998.9118739401192 -631.5333326007096 0.0 0.0
-4055.6783654974993 9.320002734072961 -1213.9075088290276 -605.5775865966052 0.0 0.0
-4743.097253559113 2.7619810129630515 -1422.1005817638454 -594.6652815675194 0.0 0.0
-5423.304948611738 0.27838931435455194 -1626.907967789215 -591.4506655478164 0.0 0.0
-6101.150819734626 -0.3643879386945841 -1830.4545623019962 -591.1622363680527 0.0 0.0
-6778.558883012104 -0.365495402331085 -2033.6773135243318 -591.5991344819558 0.0 0.0
-7455.92240721507 -0.07440630356935429 -2236.7990440555914 -591.838834902608 0.0 0.0
-8132.820410268368 0.6178151824662947 -2439.6607785257706 -591.17091133669 0.0 0.0
-8807.567707328451 2.606961332637816 -2641.4882237987445 -588.2256680827754 0.0 0.0
-9478.197908864575 5.632195822345992 -2841.769713912669 -580.9393975852887 0.0 0.0
-10140.067900923277 14.18655808898383 -3037.7644028502887 -564.6843145086559 0.0 0.0
-10787.356203363315 20.31451151674672 -3230.1125075539694 -543.6495952278267 0.0 0.0
-11514.764926593327 -14.705212069075671 -3458.841041598719 -516.5078972428208 0.0 0.0
-12250.603658338954 166.5175459666112 -3625.225833711703 -612.3983018024509 0.0 0.0
-12137.272864259798 -312.42001408395805 -3734.907863503128 -1350.4269328858627 0.0 0.0
-14383.627207431575 -7277.892623160508 -6498.455949177625 1.0061285138363019e-11 0.0 0.0
-12137.27286425983 -312.42001408399784 -3734.9078635031487 1350.4269328857567 0.0 0.0
-12250.60365833919 166.51754596596228 -3625.2258337119697 612.3983018024588 0.0 0.0
-11514.7649265933 -14.70521206907642 -3458.841041598713 516.5078972427347 0.0 0.0
-10787.356203363053 20.3145115173191 -3230.11250755372 543.6495952278233 0.0 0.0
-10140.067900923206 14.186558089069331 -3037.7644028502423 564.6843145086144 0.0 0.0
-9478.197908864684 5.632195822095012 -2841.7697139127763 580.9393975852092 0.0 0.0
-8807.567707328362 2.6069613329030403 -2641.488223798639 588.2256680828185 0.0 0.0
-8132.8204102684795 0.6178151821409035 -2439.6607785259016 591.1709113366425 0.0 0.0
-7455.922407215147 -0.07440630375073898 -2236.79904405567 591.838834902542 0.0 0.0
-6778.558883011837 -0.3654954015987393 -2033.6773135240312 591.5991344819902 0.0 0.0
-6101.150819734605 -0.3643879387204416 -1830.4545623019972 591.1622363680597 0.0 0.0
-5423.304948611909 0.2783893138779392 -1626.907967789409 591.450665547918 0.0 0.0
-4743.097253559027 2.761981013044822 -1422.1005817637945 594.665281567505 0.0 0.0
-4055.678365497684 9.3200027335681 -1213.9075088292352 605.577586596596 0.0 0.0
-3351.6757329775023 21.969486510235235 -998.9118739401798 631.533332600744 0.0 0.0
-2619.230259504789 36.42881640918671 -774.8404329286807 676.1645773393668 0.0 0.0
-1856.7490031450639 29.939792061852327 -548.0427633249634 718.3604596630018 0.0 0.0
-1102.9731016135559 -54.78296693948059 -347.3268205659109 677.3797405732687 0.0 0.0
-527.1068626124185 -288.43998232630764 -244.6640534816178 432.6705083163172 0.0 0.0
-198.22320175729206 -172.38362497387425 -111.1820480193499 207.02391069841048 0.0 0.0
-193.4209036898286 -80.5397386754176 -82.18819270957387 -133.3862625454402 0.0 0.0
-528.3638070648673 -193.1197043578534 -216.4450534268162 -291.3908579197859 0.0 0.0
-1187.3699996864339 -37.242522330615174 -367.38375660511474 -473.03149013285037 0.0 0.0
-2065.2265138817615 17.071078333953352 -614.4466306643426 -503.4632147906537 0.0 0.0
-2964.2531718473365 23.572699967898195 -882.2041415638316 -472.52141529975967 0.0 0.0
-3820.840498429014 14.67218169042626 -1141.8504950215765 -439.5042984721856 0.0 0.0
-4634.009767905705 6.369084034213682 -1388.2922051614469 -420.3072424559444 0.0 0.0
-5421.989734493626 1.9359770401170806 -1626.0161272360529 -412.28945475576455 0.0 0.0
-6199.337265703227 0.2195676551771868 -1859.7353094144153 -409.9755073673138 0.0 0.0
-6973.539689325286 -0.23611754337843394 -2092.1327420606 -409.8071511536775 0.0 0.0
-7747.426637914735 -0.2418708338468889 -2324.300552624574 -410.1564441063843 0.0 0.0
-8521.533850197651 -0.05089938830686691 -2556.475424875787 -410.3557424387485 0.0 0.0
-9295.054362862436 0.4677111394422724 -2788.3759955168985 -409.8803255969028 0.0 0.0
-10066.01727009552 1.5952691620089396 -3019.326600280053 -407.7845542679265 0.0 0.0
-10828.606511569436 4.797403378501556 -3247.14273245728 -402.1015327046484 0.0 0.0
-11581.06732333962 5.621125733295884 -3472.633859281897 -391.2693322321459 0.0 0.0
-12291.760940208533 29.41944313977065 -3678.7024491206294 -367.83349359765737 0.0 0.0
-13038.405007111629 -45.03553945199268 -3925.032163969087 -368.97080461765137 0.0 0.0
-14015.095611264156 72.0355166325689 -4182.918028389477 -342.2319070861994 0.0 0.0
-13816.304634460816 599.4025480076558 -3965.070625935947 -1142.6159911952893 0.0 0.0
-17339.1568462713 -9095.478294305058 -7930.390542172906 6.508571459562518e-11 0.0 0.0
-13816.304634461098 599.402548007098 -3965.0706259361996 1142.6159911952518 0.0 0.0
-14015.095611264062 72.03551663272452 -4182.918028389401 342.2319070862238 0.0 0.0
-13038.405007111385 -45.035539451455094 -3925.032163968853 368.97080461773896 0.0 0.0
-12291.760940208469 29.419443139986363 -3678.7024491205457 367.83349359769625 0.0 0.0
-11581.067323339512 5.621125733621978 -3472.633859281767 391.26933223212 0.0 0.0
-10828.606511569666 4.797403377907571 -3247.142732457527 402.1015327047226 0.0 0.0
-10066.017270095535 1.5952691619340573 -3019.3266002800806 407.78455426788014 0.0 0.0
-9295.0543628625 0.4677111392706763 -2788.375995516969 409.88032559684916 0.0 0.0
-8521.53385019746 -0.0508993878843933 -2556.4754248756035 410.35574243870497 0.0 0.0
-7747.426637914661 -0.24187083354065253 -2324.300552624461 410.1564441063614 0.0 0.0
-6973.5396893255165 -0.23611754387306982 -2092.132742060817 409.80715115359914 0.0 0.0
-6199.337265703069 0.2195676554415873 -1859.7353094142882 409.9755073673448 0.0 0.0
-5421.989734493607 1.9359770400450937 -1626.0161272360688 412.28945475581423 0.0 0.0
-4634.009767905814 6.3690840339183605 -1388.2922051615694 420.3072424559314 0.0 0.0
-3820.8404984290796 14.672181690384052 -1141.8504950216086 439.5042984721293 0.0 0.0
-2964.253171847336 23.572699967964905 -882.2041415638115 472.5214152997757 0.0 0.0
-2065.226513881819 17.071078333811794 -614.4466306644022 503.46321479067444 0.0 0.0
-1187.3699996864086 -37.242522330509914 -367.3837566050756 473.03149013288566 0.0 0.0
-528.3638070649093 -193.11970435790448 -216.4450534268441 291.39085791983473 0.0 0.0
-193.42090368980544 -80.53973867538706 -82.18819270955778 133.38626254538153 0.0 0.0
-174.30998750260758 -51.09144297865311 -67.62042914437819 -78.56331703798868 0.0 0.0
-497.64028059869236 -119.84028477875748 -185.244169613235 -146.30565995989235 0.0 0.0
-1250.1818305946529 -31.370328377038284 -384.4656476915074 -231.20952233417003 0.0 0.0
-2269.691660717133 9.424402163313054 -678.0801775661457 -248.76954077875695 0.0 0.0
-3315.267677184975 15.839369824759348 -989.8284922080645 -235.51827350362058 0.0 0.0
-4295.596172470834 10.249157792801611 -1285.6041044034105 -219.5888927205235 0.0 0.0
-5215.480715755359 4.569894897781776 -1563.2732462572733 -209.95722799401125 0.0 0.0
-6102.164656516476 1.4241409180436335 -1830.22215467953 -205.7943358866107 0.0 0.0
-6975.727401206791 0.1769679518336389 -2092.6651299764867 -204.52959350534482 0.0 0.0
-7845.946790896592 -0.16213553530848657 -2353.8326779295703 -204.39321845556637 0.0 0.0
-8716.259036414456 -0.17038981641284323 -2614.928827869261 -204.54449059324074 0.0 0.0
-9587.180424066002 -0.0327099857213895 -2876.1639402155165 -204.6279679355942 0.0 0.0
-10457.716465376348 0.3310061986581374 -3137.2156377533074 -204.3535626043549 0.0 0.0
-11324.904768718274 1.2142841336217245 -3397.107145375395 -203.27898832408454 0.0 0.0
-12183.016708090396 2.9974965220025425 -3654.0057634705186 -200.30405128753569 0.0 0.0
-13016.666687102075 7.11126451430286 -3902.8666267763315 -194.92987113150767 0.0 0.0
-13829.63903520216 4.061926867159478 -4147.6731325005 -185.01538807854018 0.0 0.0
-14478.954790240285 67.07010299243998 -4323.565406174354 -171.99340335525494 0.0 0.0
-15722.044539240282 -384.5385084607173 -4831.9749143103 -271.2594119225113 0.0 0.0
-15393.51134250682 1938.1524760453751 -4036.6076599384332 -387.15352763684916 0.0 0.0
-20907.18215932734 -11181.317605404114 -9626.549929419438 -1.3073986337985843e-11 0.0 0.0
-15393.511342507174 1938.1524760445373 -4036.607659938792 387.15352763685286 0.0 0.0
-15722.044539240229 -384.5385084607034 -4831.974914310282 271.2594119224935 0.0 0.0
-14478.954790240321 67.0701029922921 -4323.565406174408 171.99340335521646 0.0 0.0
-13829.63903520186 4.0619268679341385 -4147.673132500178 185.01538807852188 0.0 0.0
-13016.666687101964 7.111264514555579 -3902.8666267762223 194.92987113160729 0.0 0.0
-12183.016708090865 2.997496520960052 -3654.0057634709715 200.30405128758622 0.0 0.0
-11324.904768718201 1.2142841338631163 -3397.1071453753016 203.27898832411228 0.0 0.0
-10457.716465376301 0.3310061986911572 -3137.2156377532833 204.35356260431882 0.0 0.0
-9587.180424065951 -0.03270998552394078 -2876.163940215443 204.62796793556365 0.0 0.0
-8716.259036414529 -0.17038981653727936 -2614.9288278693202 204.54449059325387 0.0 0.0
-7845.946790896525 -0.16213553517469026 -2353.83267792951 204.39321845558123 0.0 0.0
-6975.727401206539 0.17696795236351237 -2092.6651299762534 204.52959350543142 0.0 0.0
-6102.164656516461 1.424140917911835 -1830.2221546795647 205.79433588661144 0.0 0.0
-5215.480715755223 4.569894898016154 -1563.2732462571628 209.95722799400667 0.0 0.0
-4295.59617247091 10.249157792765084 -1285.6041044034432 219.5888927205078 0.0 0.0
-3315.2676771848437 15.83936982514387 -989.8284922079099 235.5182735036305 0.0 0.0
-2269.691660717166 9.424402163210587 -678.0801775661866 248.7695407788225 0.0 0.0
-1250.1818305945865 -31.370328376868116 -384.4656476914364 231.20952233415707 0.0 0.0
-497.64028059872845 -119.84028477881367 -185.24416961326264 146.30565995993305 0.0 0.0
-174.30998750263603 -51.09144297866082 -67.62042914438905 78.56331703795219 0.0 0.0
-90.71717169497862 -21.567302173392168 -33.68534216051123 -52.64680793395868 0.0 0.0
-405.4693292253953 -61.563807088311435 -140.10994089411201 -61.83547406405448 0.0 0.0
-1277.1485369190632 -33.063891443593775 -393.0637285087971 -78.69467900070819 0.0 0.0
-2498.605163195446 -47.2234855637316 -763.7485946277535 -87.74175305617595 0.0 0.0
-3718.479226831214 -83.2893753547157 -1140.530580655779 -87.07346072626356 0.0 0.0
-4833.347949758979 -119.12750577416007 -1485.742636659942 -83.0216226794745 0.0 0.0
-5867.115920368963 -150.289539023737 -1805.2216378178098 -79.92530608144367 0.0 0.0
-6860.535056821769 -177.86263755309403 -2111.5193083124586 -78.327845809926 0.0 0.0
-7839.78984907306 -203.75062898257147 -2413.06214341669 -77.71599592467675 0.0 0.0
-8816.406969439735 -229.11114647424404 -2713.655434774194 -77.56202617754647 0.0 0.0
-9793.952721233829 -254.4226108115193 -3014.512599613604 -77.55635325919195 0.0 0.0
-10772.722180563576 -279.7484577066927 -3315.741191481081 -77.54400842627655 0.0 0.0
-11751.563667909686 -305.10155322838887 -3616.9995663414234 -77.38582536527866 0.0 0.0
-12726.850547673082 -329.62013152236153 -3916.9412037586335 -76.95997300771182 0.0 0.0
-13691.955774863014 -354.8768067936617 -4214.0497744970025 -75.93435232025195 0.0 0.0
-14625.595780637563 -369.20770061120186 -4498.441044374631 -73.95007670370279 0.0 0.0
-15518.588908932492 -416.3197099644874 -4780.472585669095 -75.96674794488843 0.0 0.0
-16247.089236272077 -274.99935359262366 -4956.62657695941 -51.68762416344521 0.0 0.0
-16996.63362600719 -926.9503736197228 -5377.075199888073 -253.79388816007577 0.0 0.0
-17351.982554297374 2201.3028186984257 -4545.2039206796835 -1.142593431763089 0.0 0.0
-25658.558385034157 -13455.845665975496 -11734.321215302896 2.7284841053187847e-12 0.0 0.0
-17351.982554297494 2201.3028186982124 -4545.2039206797845 1.1425934317218776 0.0 0.0
-16996.63362600764 -926.9503736208381 -5377.075199888542 253.79388816008645 0.0 0.0
-16247.089236272295 -274.9993535932194 -4956.626576959655 51.68762416343077 0.0 0.0
-15518.588908931688 -416.31970996257417 -4780.472585668278 75.96674794475666 0.0 0.0
-14625.595780637908 -369.2077006119066 -4498.441044374946 73.95007670373127 0.0 0.0
-13691.955774863509 -354.87680679456656 -4214.049774497422 75.9343523201519 0.0 0.0
-12726.850547672904 -329.6201315219059 -3916.941203758443 76.9599730076398 0.0 0.0
-11751.563667909773 -305.1015532287144 -3616.9995663415466 77.3858253651556 0.0 0.0
-10772.722180563573 -279.74845770658226 -3315.7411914810464 77.54400842611227 0.0 0.0
-9793.952721233632 -254.42261081097823 -3014.5125996133834 77.55635325917592 0.0 0.0
-8816.406969439227 -229.1111464731683 -2713.655434773719 77.56202617749915 0.0 0.0
-7839.7898490727675 -203.75062898205445 -2413.0621434164464 77.71599592473734 0.0 0.0
-6860.535056821861 -177.86263755337615 -2111.5193083125714 78.32784580999726 0.0 0.0
-5867.115920368841 -150.28953902341786 -1805.2216378176777 79.92530608154846 0.0 0.0
-4833.347949758893 -119.1275057739977 -1485.7426366598677 83.02162267952627 0.0 0.0
-3718.4792268309343 -83.28937535408919 -1140.530580655507 87.07346072623284 0.0 0.0
-2498.6051631955006 -47.22348556381286 -763.7485946277942 87.74175305618556 0.0 0.0
-1277.1485369190418 -33.063891443535 -393.06372850877307 78.69467900063547 0.0 0.0
-405.4693292253919 -61.5638070883124 -140.1099408941113 61.83547406407493 0.0 0.0
-90.71717169501987 -21.567302173460966 -33.68534216054426 52.646807933917415 0.0 0.0
SCALARS Strain float 6
LOOKUP_TABLE default
0.023502781455328546 -0.05838272917494991 0.0 -0.0039284781300908695 0.0 0.0
0.02093114311940233 0.004551135709825936 0.0 -0.006102233898732758 0.0 0.0
0.016543152901159743 -0.008243823946422662 0.0 -0.002609856554842162 0.0 0.0
0.015775793784866824 -0.005747579100148781 0.0 -0.00038870369911891696 0.0 0.0
0.018529786685218704 -0.007572572617632568 0.0 -0.0008958505043317308 0.0 0.0
0.02226239138146889 -0.009019964291703179 0.0 -0.0009231397769691773 0.0 0.0
0.026447074002288337 -0.010766700815748584 0.0 -0.0009788775849662976 0.0 0.0
0.030803613398658558 -0.012540275295770162 0.0 -0.0010000867733755314 0.0 0.0
0.03521235928629562 -0.014337741053634397 0.0 -0.0010076286336712578 0.0 0.0
0.03962945938353329 -0.01613575826061917 0.0 -0.0010095915126708595 0.0 0.0
0.044041703862814016 -0.01793197632377809 0.0 -0.0010095913894542096 0.0 0.0
0.048448477532199004 -0.019725902443931766 0.0 -0.0010098149755620692 0.0 0.0
0.05285547414107361 -0.02151959431456345 0.0 -0.0010117817473589323 0.0 0.0
0.05727810942820623 -0.023318325265667343 0.0 -0.0010175756640884819 0.0 0.0
0.0617505838711698 -0.02513446443519996 0.0 -0.0010294381546847157 0.0 0.0
0.06633147863243749 -0.02699075313228906 0.0 -0.001046260867379805 0.0 0.0
0.07107951228397066 -0.028913623994774672 0.0 -0.0010538786821561142 0.0 0.0
0.07595234916325214 -0.03089676196515275 0.0 -0.0010101947037788805 0.0 0.0
0.08059966780723492 -0.03281622578436165 0.0 -0.0008425844479266005 0.0 0.0
0.08417352019171415 -0.03433026983035742 0.0 -0.000492905487926746 0.0 0.0
0.08555126089369884 -0.034930651783819315 0.0 6.735063895479954e-16 0.0 0.0
0.08417352019171452 -0.034330269830355226 0.0 0.0004929054879261609 0.0 0.0
0.08059966780723474 -0.03281622578436941 0.0 0.0008425844479252997 0.0 0.0
0.07595234916325208 -0.03089676196515255 0.0 0.0010101947037779667 0.0 0.0
0.07107951228397086 -0.028913623994772944 0.0 0.0010538786821564913 0.0 0.0
0.06633147863243746 -0.026990753132290088 0.0 0.0010462608673782632 0.0 0.0
0.06175058387116955 -0.025134464435198144 0.0 0.0010294381546849195 0.0 0.0
0.05727810942820602 -0.023318325265669165 0.0 0.0010175756640882984 0.0 0.0
0.05285547414107368 -0.02151959431456572 0.0 0.0010117817473573815 0.0 0.0
0.048448477532199136 -0.019725902443931295 0.0 0.001009814975560631 0.0 0.0
0.04404170386281378 -0.017931976323776983 0.0 0.0010095913894531527 0.0 0.0
0.03962945938353315 -0.016135758260615914 0.0 0.001009591512670226 0.0 0.0
0.03521235928629555 -0.014337741053636863 0.0 0.001007628633670905 0.0 0.0
0.030803613398658336 -0.012540275295768264 0.0 0.0010000867733762377 0.0 0.0
0.02644707400228815 -0.010766700815747876 0.0 0.0009788775849661005 0.0 0.0
0.02226239138146876 -0.009019964291703443 0.0 0.0009231397769686313 0.0 0.0
0.018529786685218746 -0.007572572617632795 0.0 0.0008958505043325743 0.0 0.0
0.01577579378486692 -0.005747579100149239 0.0 0.0003887036991185108 0.0 0.0
0.01654315290115973 -0.008243823946422285 0.0 0.0026098565548421772 0.0 0.0
0.02093114311940239 0.004551135709825654 0.0 0.006102233898733287 0.0 0.0
0.023502781455328768 -0.05838272917494997 0.0 0.003928478130090117 0.0 0.0
0.014635233775816006 -0.05426594994210658 0.0 -0.0026846102319980562 0.0 0.0
0.012382496055711864 0.0039444636323021556 0.0 -0.00486540259306976 0.0 0.0
0.011887768693862176 -0.006393027344748944 0.0 -0.0018241901543292424 0.0 0.0
0.014304588438893963 -0.0056715081024004445 0.0 -0.0015098870722021335 0.0 0.0
0.016616266004907218 -0.007064266187121941 0.0 -0.002176944808643255 0.0 0.0
0.020080165402214606 -0.00856042364360886 0.0 -0.0024660628372579893 0.0 0.0
0.023827648757839832 -0.01019668102234264 0.0 -0.002595688190480943 0.0 0.0
0.027738044165331807 -0.011883097126977493 0.0 -0.00264875277751695 0.0 0.0
0.031697455902686626 -0.013584139339224791 0.0 -0.0026633209604476943 0.0 0.0
0.03566880279098668 -0.015287248411086727 0.0 -0.0026648124085525563 0.0 0.0
0.03963860313017904 -0.01698859890967996 0.0 -0.002662780868088839 0.0 0.0
0.04360537971895269 -0.018688115855030586 0.0 -0.002661782481023256 0.0 0.0
0.04757382621528057 -0.020387448295286895 0.0 -0.0026654737550178167 0.0 0.0
0.05155688676853692 -0.022091084366687958 0.0 -0.002680316806704923 0.0 0.0
0.05558150828330872 -0.02380954536667763 0.0 -0.0027164484579669432 0.0 0.0
0.05968961943922149 -0.025562421559407446 0.0 -0.0027804522815377494 0.0 0.0
0.06391237165430105 -0.027372991546392896 0.0 -0.0028488607363664348 0.0 0.0
0.06818240024208837 -0.029236542945118627 0.0 -0.0028164900310013287 0.0 0.0
0.07217288348409062 -0.031043774168017797 0.0 -0.0024551539316945907 0.0 0.0
0.07517764895520722 -0.03248274000237074 0.0 -0.0015045438225361764 0.0 0.0
0.07632016592556365 -0.033063600579434874 0.0 8.424250880212369e-16 0.0 0.0
0.07517764895520722 -0.032482740002369004 0.0 0.0015045438225353186 0.0 0.0
0.07217288348409047 -0.031043774168023924 0.0 0.002455153931694792 0.0 0.0
0.0681824002420885 -0.029236542945120916 0.0 0.0028164900310014714 0.0 0.0
0.06391237165430093 -0.027372991546394002 0.0 0.002848860736365586 0.0 0.0
0.05968961943922134 -0.025562421559409992 0.0 0.002780452281536907 0.0 0.0
0.055581508283308545 -0.023809545366676503 0.0 0.0027164484579682534 0.0 0.0
0.05155688676853671 -0.022091084366688763 0.0 0.0026803168067053443 0.0 0.0
0.047573826215280765 -0.02038744829528882 0.0 0.0026654737550168475 0.0 0.0
0.04360537971895295 -0.01868811585503143 0.0 0.0026617824810235956 0.0 0.0
0.03963860313017904 -0.01698859890967973 0.0 0.002662780868089008 0.0 0.0
0.035668802790986574 -0.015287248411084975 0.0 0.0026648124085522544 0.0 0.0
0.03169745590268672 -0.013584139339227488 0.0 0.0026633209604477433 0.0 0.0
0.027738044165331814 -0.011883097126976945 0.0 0.0026487527775163333 0.0 0.0
0.023827648757839843 -0.010196681022341884 0.0 0.002595688190481755 0.0 0.0
0.020080165402214547 -0.008560423643607715 0.0 0.002466062837256742 0.0 0.0
0.016616266004906947 -0.007064266187121308 0.0 0.002176944808643646 0.0 0.0
0.014304588438893939 -0.005671508102401087 0.0 0.0015098870722018436 0.0 0.0
0.011887768693862334 -0.006393027344748662 0.0 0.0018241901543289397 0.0 0.0
0.012382496055711687 0.003944463632302241 0.0 0.004865402593069055 0.0 0.0
0.014635233775815588 -0.054265949942106706 0.0 0.0026846102319982197 0.0 0.0
0.010497219333902574 -0.04650565454354064 0.0 -0.012363840348810093 0.0 0.0
0.007974500010736657 0.002159600381263279 0.0 -0.00879820242520806 0.0 0.0
0.008188745001244859 -0.00327684356263739 0.0 -0.001236979430768837 0.0 0.0
0.012097120116139297 -0.005109295369475912 0.0 -0.0034830705172258663 0.0 0.0
0.01471810351301011 -0.006130465604991024 0.0 -0.004334602434375267 0.0 0.0
0.017821758029300517 -0.007593783573684749 0.0 -0.004967858137063888 0.0 0.0
0.021193566278670913 -0.009058862702437548 0.0 -0.005215365953521966 0.0 0.0
0.024665103625464063 -0.010564782161020251 0.0 -0.005315390421391348 0.0 0.0
0.02818163864090071 -0.012077141969901301 0.0 -0.005342263350682318 0.0 0.0
0.03170860507355243 -0.013590297112593738 0.0 -0.005343817717892539 0.0 0.0
0.0352361089551692 -0.01510207930680196 0.0 -0.0053392240357839705 0.0 0.0
0.038762227480901065 -0.016612542696009678 0.0 -0.005336746108545628 0.0 0.0
0.042290336509256454 -0.018122616122390835 0.0 -0.005343342688379831 0.0 0.0
0.045829834692614826 -0.01963479533242894 0.0 -0.005371833617911073 0.0 0.0
0.04939970417252959 -0.021155581123020538 0.0 -0.005443439416144207 0.0 0.0
0.053028066713468554 -0.02269896233541129 0.0 -0.0055747929914576715 0.0 0.0
0.05673106261605325 -0.024285889817270624 0.0 -0.005726030163366934 0.0 0.0
0.06044328880829593 -0.02592453871146794 0.0 -0.00569325718140398 0.0 0.0
0.06388888291565782 -0.02754710450183169 0.0 -0.005008270212913948 0.0 0.0
0.06647762296885466 -0.028896224551918585 0.0 -0.003099942865327921 0.0 0.0
0.0674627384997676 -0.029472004325941076 0.0 1.485356976305141e-16 0.0 0.0
0.06647762296885461 -0.028896224551917822 0.0 0.003099942865327806 0.0 0.0
0.06388888291565772 -0.02754710450183265 0.0 0.005008270212914893 0.0 0.0
0.06044328880829597 -0.02592453871146996 0.0 0.0056932571814045495 0.0 0.0
0.05673106261605339 -0.024285889817272338 0.0 0.005726030163366678 0.0 0.0
0.053028066713468616 -0.022698962335411882 0.0 0.005574792991458908 0.0 0.0
0.04939970417252939 -0.02115558112301867 0.0 0.0054434394161448595 0.0 0.0
0.045829834692614764 -0.019634795332427978 0.0 0.0053718336179112685 0.0 0.0
0.04229033650925652 -0.01812261612239184 0.0 0.005343342688378593 0.0 0.0
0.03876222748090103 -0.016612542696009144 0.0 0.005336746108545834 0.0 0.0
0.03523610895516924 -0.015102079306803799 0.0 0.005339224035784259 0.0 0.0
0.031708605073552346 -0.01359029711259499 0.0 0.0053438177178927 0.0 0.0
0.028181638640900775 -0.012077141969900602 0.0 0.005342263350682749 0.0 0.0
0.02466510362546427 -0.010564782161021427 0.0 0.005315390421391365 0.0 0.0
0.02119356627867073 -0.009058862702437647 0.0 0.005215365953523376 0.0 0.0
0.017821758029300364 -0.007593783573683439 0.0 0.004967858137062741 0.0 0.0
0.014718103513010276 -0.0061304656049904266 0.0 0.004334602434375492 0.0 0.0
0.012097120116139311 -0.005109295369475991 0.0 0.0034830705172256846 0.0 0.0
0.008188745001244719 -0.0032768435626372877 0.0 0.0012369794307684502 0.0 0.0
0.007974500010736739 0.002159600381263279 0.0 0.008798202425207506 0.0 0.0
0.010497219333902946 -0.0465056545435408 0.0 0.012363840348810634 0.0 0.0
0.008338323331845452 -0.03968447190665963 0.0 -0.015434803980748861 0.0 0.0
0.0056145616942491336 -0.0001364603571841165 0.0 -0.012048881171375867 0.0 0.0
0.005511410796342302 -0.0012877867357316368 0.0 -0.003666122017853489 0.0 0.0
0.00973882947132561 -0.004019825357006346 0.0 -0.005035119034214783 0.0 0.0
0.012705460258340334 -0.005254424839194101 0.0 -0.006448125419480965 0.0 0.0
0.015543389205463002 -0.006577228231181322 0.0 -0.007171539886087416 0.0 0.0
0.01853709216456625 -0.007914458203279365 0.0 -0.0075320781463277565 0.0 0.0
0.021587461474110694 -0.009242045439950847 0.0 -0.007664320395111526 0.0 0.0
0.024663981074515555 -0.010569568356000047 0.0 -0.007703423053464014 0.0 0.0
0.02774853488355351 -0.011893555251016189 0.0 -0.007706261638874872 0.0 0.0
0.030833874796415757 -0.013215864840669328 0.0 -0.007700545341917695 0.0 0.0
0.03391883333551946 -0.014536920416089397 0.0 -0.0076975338783158605 0.0 0.0
0.03700515163884613 -0.015856765913628324 0.0 -0.007706831983202905 0.0 0.0
0.0400981044116553 -0.017175329473775987 0.0 -0.007745658459733955 0.0 0.0
0.04320862288429337 -0.018494633434131824 0.0 -0.007842265274781456 0.0 0.0
0.04635403750991368 -0.019824475626500776 0.0 -0.008018423054009767 0.0 0.0
0.049546166334194446 -0.021190654080200006 0.0 -0.008218264487517194 0.0 0.0
0.052742373558288085 -0.022631362929197364 0.0 -0.008157238381241052 0.0 0.0
0.05573513634972007 -0.024141457029418945 0.0 -0.00717388210393922 0.0 0.0
0.058024440607362004 -0.02550879108623 0.0 -0.004445403628545514 0.0 0.0
0.05890901637656726 -0.026141683101841704 0.0 -9.883587004377858e-16 0.0 0.0
0.058024440607362074 -0.025508791086229863 0.0 0.004445403628545249 0.0 0.0
0.05573513634972001 -0.024141457029416457 0.0 0.00717388210393893 0.0 0.0
0.052742373558288154 -0.022631362929198158 0.0 0.008157238381240295 0.0 0.0
0.049546166334194376 -0.021190654080198955 0.0 0.008218264487517734 0.0 0.0
0.04635403750991352 -0.0198244756264988 0.0 0.008018423054011136 0.0 0.0
0.0432086228842933 -0.018494633434132365 0.0 0.007842265274780913 0.0 0.0
0.040098104411655254 -0.01717532947377574 0.0 0.007745658459732827 0.0 0.0
0.037005151638846115 -0.015856765913627953 0.0 0.007706831983202343 0.0 0.0
0.03391883333551951 -0.01453692041608904 0.0 0.007697533878315543 0.0 0.0
0.0308338747964157 -0.013215864840671552 0.0 0.007700545341917459 0.0 0.0
0.027748534883553506 -0.011893555251017996 0.0 0.00770626163887541 0.0 0.0
0.024663981074515437 -0.010569568355999044 0.0 0.0077034230534635175 0.0 0.0
0.021587461474110694 -0.009242045439951212 0.0 0.00766432039511186 0.0 0.0
0.018537092164566133 -0.007914458203278874 0.0 0.007532078146326842 0.0 0.0
0.015543389205462794 -0.006577228231180963 0.0 0.007171539886088089 0.0 0.0
0.012705460258340429 -0.0052544248391941375 0.0 0.006448125419480774 0.0 0.0
0.009738829471325539 -0.004019825357005536 0.0 0.005035119034215105 0.0 0.0
0.005511410796342107 -0.0012877867357319382 0.0 0.0036661220178532848 0.0 0.0
0.005614561694249124 -0.00013646035718448482 0.0 0.012048881171376124 0.0 0.0
0.008338323331845704 -0.039684471906659614 0.0 0.01543480398074871 0.0 0.0
0.007037727156287215 -0.03375750072991598 0.0 -0.015787063616120367 0.0 0.0
0.004282385223399393 -0.002114873102041563 0.0 -0.014247579131301306 0.0 0.0
0.0036290508193568384 -0.0002149954410636236 0.0 -0.006946692285672882 0.0 0.0
0.007512108788925238 -0.002842594981050833 0.0 -0.006870815024600759 0.0 0.0
0.010616032510040788 -0.00432439173090401 0.0 -0.008334015672064118 0.0 0.0
0.01324522923982536 -0.005557170444985781 0.0 -0.00913955523185843 0.0 0.0
0.015868153548488265 -0.006757174170919095 0.0 -0.009541811437114649 0.0 0.0
0.018504073090742115 -0.007917349306366091 0.0 -0.009701085952482827 0.0 0.0
0.021144863721663493 -0.009060881875860155 0.0 -0.009747578136194798 0.0 0.0
0.023788130832858585 -0.010196841727800568 0.0 -0.009752532742506518 0.0 0.0
0.026431663473200133 -0.011329739397161023 0.0 -0.009746644779911884 0.0 0.0
0.029075079431826828 -0.012461154335976552 0.0 -0.009743735106032018 0.0 0.0
0.03171857807507027 -0.013590082688851474 0.0 -0.009754963854506745 0.0 0.0
0.03436306495777619 -0.014713639272229427 0.0 -0.009799904582956055 0.0 0.0
0.037011751174879697 -0.015829267588105506 0.0 -0.009910323428694627 0.0 0.0
0.03967384614673263 -0.016943802787991843 0.0 -0.01011053546619005 0.0 0.0
0.04236510017808836 -0.01809322014632214 0.0 -0.010334511821898405 0.0 0.0
0.04508102918959082 -0.01935850772382277 0.0 -0.010241705486773306 0.0 0.0
0.04769455048136034 -0.02081358132268426 0.0 -0.009018708884710541 0.0 0.0
0.049775677424028233 -0.02228688951309981 0.0 -0.0056105894528426965 0.0 0.0
0.050604033530827236 -0.023032270753949383 0.0 -6.136584296267955e-17 0.0 0.0
0.04977567742402834 -0.02228688951309868 0.0 0.00561058945284316 0.0 0.0
0.04769455048136034 -0.020813581322685272 0.0 0.009018708884710947 0.0 0.0
0.04508102918959086 -0.019358507723822777 0.0 0.010241705486772359 0.0 0.0
0.04236510017808833 -0.018093220146320935 0.0 0.010334511821898583 0.0 0.0
0.03967384614673242 -0.01694380278799312 0.0 0.010110535466190002 0.0 0.0
0.037011751174879544 -0.01582926758810777 0.0 0.009910323428694605 0.0 0.0
0.034363064957776274 -0.014713639272234041 0.0 0.009799904582955304 0.0 0.0
0.03171857807507038 -0.013590082688851148 0.0 0.009754963854505866 0.0 0.0
0.029075079431826682 -0.012461154335977706 0.0 0.009743735106031721 0.0 0.0
0.02643166347320002 -0.01132973939716021 0.0 0.009746644779911164 0.0 0.0
0.0237881308328585 -0.01019684172780178 0.0 0.009752532742505815 0.0 0.0
0.02114486372166344 -0.00906088187585956 0.0 0.009747578136193771 0.0 0.0
0.018504073090742215 -0.007917349306367057 0.0 0.00970108595248294 0.0 0.0
0.015868153548488362 -0.006757174170918231 0.0 0.009541811437113747 0.0 0.0
0.013245229239825247 -0.005557170444985455 0.0 0.009139555231859407 0.0 0.0
0.0106160325100406 -0.004324391730904253 0.0 0.00833401567206323 0.0 0.0
0.007512108788925113 -0.0028425949810505623 0.0 0.006870815024601084 0.0 0.0
0.003629050819356754 -0.00021499544106391938 0.0 0.006946692285673699 0.0 0.0
0.004282385223399411 -0.0021148731020416275 0.0 0.01424757913130147 0.0 0.0
0.007037727156287288 -0.03375750072991598 0.0 0.015787063616120433 0.0 0.0
0.006115753409486299 -0.028631359622832413 0.0 -0.0150614393544942 0.0 0.0
0.0034612166920612664 -0.003550322242039423 0.0 -0.015547014920830847 0.0 0.0
0.002298168653151346 0.00026015762966916263 0.0 -0.01012058352479318 0.0 0.0
0.005517772775208025 -0.0017786632900025226 0.0 -0.008922918279543227 0.0 0.0
0.0085170035687074 -0.0033584500841465897 0.0 -0.010046228097293894 0.0 0.0
0.010931568343147591 -0.004533903671669566 0.0 -0.010852898401013803 0.0 0.0
0.01319272826150822 -0.005594887293264212 0.0 -0.01125764793646254 0.0 0.0
0.015416329745053269 -0.006589990850509224 0.0 -0.01142569474850743 0.0 0.0
0.017624200518710532 -0.007551536985826371 0.0 -0.011476393399334624 0.0 0.0
0.01982723144609188 -0.008499865679527475 0.0 -0.011482811419658632 0.0 0.0
0.02202924075620255 -0.0094435637525333 0.0 -0.01147752370022564 0.0 0.0
0.024230927089874676 -0.01038519227161078 0.0 -0.011475033505884425 0.0 0.0
0.026431016973493655 -0.011322838503892211 0.0 -0.011487071037822183 0.0 0.0
0.028626177411607848 -0.01225078189929035 0.0 -0.01153349939914084 0.0 0.0
0.030812454178203857 -0.013162036846061724 0.0 -0.01164658767150083 0.0 0.0
0.03299291499098366 -0.01406121569860979 0.0 -0.011852203020258523 0.0 0.0
0.03519270845037572 -0.014997491334840313 0.0 -0.012083707428529761 0.0 0.0
0.0374562664245675 -0.016103265591045544 0.0 -0.011973881080296914 0.0 0.0
0.03974742859001305 -0.01754633064722877 0.0 -0.010594301791333147 0.0 0.0
0.04169400266765141 -0.019201188457692298 0.0 -0.006647592448588767 0.0 0.0
0.042503161862275395 -0.02011584583730235 0.0 3.5800355735471356e-16 0.0 0.0
0.04169400266765163 -0.01920118845769246 0.0 0.006647592448588225 0.0 0.0
0.03974742859001306 -0.0175463306472319 0.0 0.0105943017913328 0.0 0.0
0.03745626642456731 -0.016103265591043425 0.0 0.01197388108029586 0.0 0.0
0.03519270845037577 -0.014997491334842052 0.0 0.01208370742852992 0.0 0.0
0.032992914990983814 -0.014061215698612689 0.0 0.011852203020258746 0.0 0.0
0.030812454178203746 -0.013162036846062153 0.0 0.011646587671500952 0.0 0.0
0.02862617741160777 -0.012250781899294991 0.0 0.011533499399139988 0.0 0.0
0.026431016973493655 -0.01132283850389185 0.0 0.011487071037821766 0.0 0.0
0.024230927089874548 -0.010385192271611469 0.0 0.011475033505884615 0.0 0.0
0.022029240756202512 -0.009443563752532946 0.0 0.011477523700225329 0.0 0.0
0.01982723144609192 -0.008499865679528242 0.0 0.01148281141965753 0.0 0.0
0.017624200518710737 -0.007551536985824305 0.0 0.011476393399334027 0.0 0.0
0.01541632974505349 -0.00658999085051053 0.0 0.011425694748507142 0.0 0.0
0.013192728261508168 -0.005594887293264262 0.0 0.011257647936462698 0.0 0.0
0.010931568343147577 -0.004533903671669859 0.0 0.010852898401013594 0.0 0.0
0.008517003568707432 -0.003358450084145714 0.0 0.010046228097293235 0.0 0.0
0.005517772775207978 -0.0017786632900026035 0.0 0.00892291827954327 0.0 0.0
0.0022981686531513505 0.0002601576296692182 0.0 0.010120583524794153 0.0 0.0
0.0034612166920612378 -0.0035503222420391646 0.0 0.01554701492083082 0.0 0.0
0.006115753409486201 -0.0286313596228326 0.0 0.015061439354495358 0.0 0.0
0.005360329536679151 -0.024190831785599668 0.0 -0.013964175465980652 0.0 0.0
0.002884124973685913 -0.004447026010455541 0.0 -0.016174335093660064 0.0 0.0
0.0013251841121687813 0.0003982334731979252 0.0 -0.012800392694883056 0.0 0.0
0.003765365518050778 -0.0008898855640919411 0.0 -0.010978286293849301 0.0 0.0
0.006460783324057787 -0.002399037848329613 0.0 -0.011605070655930952 0.0 0.0
0.00861468388461002 -0.0035092288725128836 0.0 -0.012306347306333338 0.0 0.0
0.010514669687746041 -0.004432276237520742 0.0 -0.012681125004250402 0.0 0.0
0.012326149514589662 -0.005261081856808134 0.0 -0.012840323551282866 0.0 0.0
0.014102116809102071 -0.006041552009387341 0.0 -0.012890373749812098 0.0 0.0
0.015865705850726705 -0.006802562552131656 0.0 -0.012897509809726013 0.0 0.0
0.017626448390183888 -0.0075571929002496915 0.0 -0.012893170471020947 0.0 0.0
0.019386376979179533 -0.008309030422620624 0.0 -0.012891243146489692 0.0 0.0
0.021142911913397407 -0.009055342924406977 0.0 -0.012902802119969357 0.0 0.0
0.022888879298631797 -0.009787819987484665 0.0 -0.012946151724142223 0.0 0.0
0.02461386139920424 -0.010495361715520339 0.0 -0.013051439267293343 0.0 0.0
0.02631587928267757 -0.011180463362173203 0.0 -0.013245879217964131 0.0 0.0
0.028031947595556307 -0.011905895979215257 0.0 -0.0134737201707699 0.0 0.0
0.02986213018763098 -0.012860008100881035 0.0 -0.013373907146701914 0.0 0.0
0.031872477032747155 -0.014319851562149342 0.0 -0.011938957270841242 0.0 0.0
0.03374581293922043 -0.016225109254946635 0.0 -0.007597718760916178 0.0 0.0
0.034569086793000234 -0.017374292599344754 0.0 9.99634403031635e-16 0.0 0.0
0.03374581293922062 -0.016225109254946413 0.0 0.007597718760916963 0.0 0.0
0.03187247703274696 -0.01431985156215039 0.0 0.01193895727084082 0.0 0.0
0.02986213018763064 -0.012860008100882822 0.0 0.01337390714670161 0.0 0.0
0.028031947595556207 -0.011905895979216496 0.0 0.013473720170770302 0.0 0.0
0.026315879282677538 -0.011180463362175083 0.0 0.013245879217963184 0.0 0.0
0.024613861399204236 -0.010495361715520629 0.0 0.013051439267292839 0.0 0.0
0.022888879298631776 -0.009787819987484054 0.0 0.012946151724142006 0.0 0.0
0.021142911913397438 -0.009055342924405503 0.0 0.012902802119968675 0.0 0.0
0.019386376979179516 -0.008309030422621586 0.0 0.012891243146489937 0.0 0.0
0.017626448390183843 -0.0075571929002502605 0.0 0.012893170471021247 0.0 0.0
0.015865705850726653 -0.0068025625521307455 0.0 0.012897509809726078 0.0 0.0
0.014102116809102167 -0.006041552009386512 0.0 0.012890373749811812 0.0 0.0
0.012326149514589687 -0.0052610818568080645 0.0 0.012840323551282822 0.0 0.0
0.010514669687745946 -0.004432276237521204 0.0 0.012681125004250404 0.0 0.0
0.008614683884609954 -0.003509228872512337 0.0 0.012306347306334016 0.0 0.0
0.00646078332405779 -0.0023990378483288825 0.0 0.011605070655931221 0.0 0.0
0.003765365518050863 -0.0008898855640918762 0.0 0.010978286293849839 0.0 0.0
0.001325184112168812 0.00039823347319820394 0.0 0.012800392694883467 0.0 0.0
0.00288412497368581 -0.004447026010455394 0.0 0.016174335093660168 0.0 0.0
0.00536032953667908 -0.024190831785599665 0.0 0.013964175465981133 0.0 0.0
0.0046771811195134225 -0.020322873524442585 0.0 -0.012793215830226658 0.0 0.0
0.0024131255381327423 -0.004886833434932006 0.0 -0.01631719803285902 0.0 0.0
0.0005716304936328172 0.0003790505822759983 0.0 -0.014864277570216428 0.0 0.0
0.002225308643782808 -0.00017091693950524014 0.0 -0.012849836380341914 0.0 0.0
0.004477331021224222 -0.0014790031338125452 0.0 -0.012985237311189104 0.0 0.0
0.006308985759838205 -0.0024903533913846402 0.0 -0.013498293463949597 0.0 0.0
0.00783776625758409 -0.0032720409952265413 0.0 -0.013810149454121748 0.0 0.0
0.009235189232511577 -0.003932076704907058 0.0 -0.01394596180899767 0.0 0.0
0.010578946162934887 -0.004531052352181692 0.0 -0.013989986868629982 0.0 0.0
0.011903461224448941 -0.0051048750795707355 0.0 -0.013996896792006702 0.0 0.0
0.013223176971720414 -0.005670534729820577 0.0 -0.013993651945414118 0.0 0.0
0.014541459140366492 -0.006232682706348121 0.0 -0.013992282407708272 0.0 0.0
0.015854692757384617 -0.006787905721362485 0.0 -0.014002110529088839 0.0 0.0
0.0171524837790035 -0.007325730868827665 0.0 -0.014038275378543156 0.0 0.0
0.0184187773286306 -0.007831428733260462 0.0 -0.014126505416621289 0.0 0.0
0.019646745350305285 -0.008304864778461934 0.0 -0.01429509923148848 0.0 0.0
0.020884622640993864 -0.008820025853014887 0.0 -0.014510766550920672 0.0 0.0
0.022290891342420252 -0.009621381225580972 0.0 -0.014454246827190393 0.0 0.0
0.024047281160625236 -0.011112063524240146 0.0 -0.013079142530686007 0.0 0.0
0.025900006645308334 -0.01333324336627175 0.0 -0.008495679438341765 0.0 0.0
0.026769682603261218 -0.014798163614725326 0.0 3.2873009869760494e-16 0.0 0.0
0.025900006645308147 -0.013333243366271308 0.0 0.008495679438341147 0.0 0.0
0.024047281160625152 -0.01111206352423887 0.0 0.013079142530684765 0.0 0.0
0.0222908913424202 -0.00962138122558139 0.0 0.014454246827191094 0.0 0.0
0.020884622640993812 -0.008820025853015077 0.0 0.014510766550921286 0.0 0.0
0.019646745350305347 -0.008304864778460465 0.0 0.014295099231488893 0.0 0.0
0.018418777328630648 -0.00783142873326006 0.0 0.014126505416620395 0.0 0.0
0.017152483779003667 -0.007325730868828335 0.0 0.014038275378543064 0.0 0.0
0.015854692757384777 -0.006787905721360928 0.0 0.014002110529088861 0.0 0.0
0.014541459140366468 -0.006232682706347568 0.0 0.013992282407708445 0.0 0.0
0.013223176971720388 -0.005670534729821318 0.0 0.013993651945414846 0.0 0.0
0.011903461224448847 -0.005104875079569522 0.0 0.01399689679200674 0.0 0.0
0.010578946162935036 -0.004531052352180862 0.0 0.013989986868629293 0.0 0.0
0.009235189232511829 -0.003932076704907285 0.0 0.013945961808997574 0.0 0.0
0.007837766257584082 -0.0032720409952272894 0.0 0.013810149454122043 0.0 0.0
0.006308985759838121 -0.002490353391383138 0.0 0.01349829346395 0.0 0.0
0.004477331021224345 -0.0014790031338129585 0.0 0.012985237311189106 0.0 0.0
0.00222530864378294 -0.00017091693950524564 0.0 0.012849836380341383 0.0 0.0
0.0005716304936327803 0.0003790505822763849 0.0 0.01486427757021639 0.0 0.0
0.002413125538132769 -0.004886833434931984 0.0 0.01631719803285875 0.0 0.0
0.00467718111951354 -0.020322873524442557 0.0 0.012793215830226901 0.0 0.0
0.004026046885359323 -0.01692950270040234 0.0 -0.0116622179003167 0.0 0.0
0.0019785397755449604 -0.0049678556949521785 0.0 -0.016107919188872208 0.0 0.0
-5.622030594161292e-05 0.0003156500793710642 0.0 -0.016307974868575797 0.0 0.0
0.0008558236897323571 0.0004099064089452923 0.0 -0.014409535147437855 0.0 0.0
0.0025781628392694887 -0.000615608008929506 0.0 -0.01414043614448102 0.0 0.0
0.004026547308195682 -0.0014859413703884432 0.0 -0.01442185744654214 0.0 0.0
0.005165970164032303 -0.0021165189360723637 0.0 -0.014641727523191542 0.0 0.0
0.006144804682467269 -0.0026041352194055567 0.0 -0.014742229631759154 0.0 0.0
0.007055063138513401 -0.003020283011155315 0.0 -0.014775541498904466 0.0 0.0
0.007940458873069598 -0.003406757613759197 0.0 -0.014781178175906268 0.0 0.0
0.008819349245629757 -0.003783528780335858 0.0 -0.014779066023049396 0.0 0.0
0.009696216820911313 -0.004156175009775023 0.0 -0.01477817736519619 0.0 0.0
0.010566730780264719 -0.00452079933572851 0.0 -0.01478520995321151 0.0 0.0
0.01141808993913819 -0.004865330288155384 0.0 -0.01481087847809847 0.0 0.0
0.012229598782608469 -0.005172093562534889 0.0 -0.014874500298363486 0.0 0.0
0.012989058409555969 -0.005437403614689852 0.0 -0.015004392975717207 0.0 0.0
0.013752141461560289 -0.005741318189889355 0.0 -0.015199313965826005 0.0 0.0
0.014734133057390207 -0.0063794665034474125 0.0 -0.015219370491795375 0.0 0.0
0.016248503614310832 -0.007898776060561547 0.0 -0.014029997310208707 0.0 0.0
0.01812683981712181 -0.010499555948969326 0.0 -0.009372305821585911 0.0 0.0
0.0190763784204001 -0.012386622730947544 0.0 3.686287386450715e-18 0.0 0.0
0.018126839817121872 -0.010499555948970538 0.0 0.009372305821585639 0.0 0.0
0.01624850361431087 -0.007898776060560964 0.0 0.014029997310209385 0.0 0.0
0.014734133057390082 -0.006379466503445776 0.0 0.015219370491794604 0.0 0.0
0.013752141461560272 -0.005741318189889843 0.0 0.01519931396582476 0.0 0.0
0.012989058409556189 -0.005437403614687463 0.0 0.015004392975717984 0.0 0.0
0.01222959878260853 -0.00517209356253759 0.0 0.014874500298362937 0.0 0.0
0.011418089939138253 -0.004865330288156022 0.0 0.014810878478098536 0.0 0.0
0.010566730780264705 -0.004520799335727409 0.0 0.014785209953211503 0.0 0.0
0.009696216820911142 -0.004156175009774041 0.0 0.014778177365195162 0.0 0.0
0.008819349245629684 -0.0037835287803356767 0.0 0.014779066023049084 0.0 0.0
0.007940458873069472 -0.0034067576137590456 0.0 0.014781178175905546 0.0 0.0
0.007055063138513385 -0.003020283011155023 0.0 0.014775541498904247 0.0 0.0
0.006144804682467383 -0.002604135219404238 0.0 0.014742229631759477 0.0 0.0
0.00516597016403238 -0.002116518936072956 0.0 0.014641727523191254 0.0 0.0
0.004026547308195716 -0.0014859413703876942 0.0 0.01442185744654223 0.0 0.0
0.0025781628392695286 -0.0006156080089301818 0.0 0.014140436144481211 0.0 0.0
0.0008558236897324544 0.0004099064089459618 0.0 0.014409535147437171 0.0 0.0
-5.622030594150498e-05 0.0003156500793713127 0.0 0.0163079748685759 0.0 0.0
0.0019785397755449838 -0.004967855694952242 0.0 0.01610791918887222 0.0 0.0
0.004026046885359314 -0.01692950270040246 0.0 0.011662217900317101 0.0 0.0
0.0033921075081403155 -0.01393247129027407 0.0 -0.010601070502843474 0.0 0.0
0.001547409679589689 -0.004781171926346001 0.0 -0.015632675520997633 0.0 0.0
-0.0006193252415543765 0.00027343361454045434 0.0 -0.017173717522619276 0.0 0.0
-0.00038439175714995914 0.0008899847918373094 0.0 -0.015581692610760017 0.0 0.0
0.0007625296611690661 0.00018654867710895715 0.0 -0.015021939222215727 0.0 0.0
0.001775236847783804 -0.000502973280816959 0.0 -0.01506398862321336 0.0 0.0
0.002502828612064397 -0.000967953803212388 0.0 -0.01517182762827414 0.0 0.0
0.003056099603753457 -0.001278082976083826 0.0 -0.015227926199314078 0.0 0.0
0.003530780674526194 -0.0015094861696748315 0.0 -0.01524706697324581 0.0 0.0
0.003976697130329224 -0.0017081919726156588 0.0 -0.015250531834174727 0.0 0.0
0.004414914762475475 -0.0018961335228355552 0.0 -0.015249529041981895 0.0 0.0
0.004850690654036095 -0.0020795348462897966 0.0 -0.015249041820406612 0.0 0.0
0.005279304908735538 -0.0022542328961467914 0.0 -0.015252518943414211 0.0 0.0
0.005686507206139535 -0.0024072119069810417 0.0 -0.015265417873108075 0.0 0.0
0.006048220859849132 -0.0025187777347980577 0.0 -0.015299048563313017 0.0 0.0
0.0063460289272234205 -0.002580772579965976 0.0 -0.015379392490357462 0.0 0.0
0.006636264469243648 -0.0026717355390266295 0.0 -0.015542530819063715 0.0 0.0
0.007183863805042869 -0.0031270348367965924 0.0 -0.01566566461883491 0.0 0.0
0.008451981703547412 -0.004653700412739533 0.0 -0.014794719772623638 0.0 0.0
0.01039677924901394 -0.007695154732786515 0.0 -0.010256248247639614 0.0 0.0
0.011462734363270704 -0.010148344859369293 0.0 -1.715207836872068e-16 0.0 0.0
0.010396779249013936 -0.007695154732789526 0.0 0.01025624824763995 0.0 0.0
0.008451981703547468 -0.00465370041274117 0.0 0.014794719772623487 0.0 0.0
0.00718386380504272 -0.0031270348367961488 0.0 0.015665664618834087 0.0 0.0
0.006636264469243723 -0.002671735539024406 0.0 0.015542530819063718 0.0 0.0
0.00634602892722353 -0.0025807725799672707 0.0 0.015379392490357958 0.0 0.0
0.006048220859849158 -0.0025187777348001698 0.0 0.015299048563312767 0.0 0.0
0.005686507206139727 -0.002407211906980768 0.0 0.015265417873108159 0.0 0.0
0.005279304908735535 -0.0022542328961444873 0.0 0.01525251894341377 0.0 0.0
0.004850690654035978 -0.002079534846288768 0.0 0.015249041820407538 0.0 0.0
0.004414914762475452 -0.001896133522835222 0.0 0.015249529041982665 0.0 0.0
0.0039766971303290995 -0.0017081919726154961 0.0 0.015250531834174404 0.0 0.0
0.003530780674526154 -0.0015094861696751454 0.0 0.015247066973245352 0.0 0.0
0.0030560996037534713 -0.0012780829760820765 0.0 0.01522792619931463 0.0 0.0
0.0025028286120644715 -0.0009679538032140063 0.0 0.015171827628273477 0.0 0.0
0.0017752368477837713 -0.0005029732808172351 0.0 0.015063988623213051 0.0 0.0
0.0007625296611689502 0.0001865486771077289 0.0 0.015021939222216014 0.0 0.0
-0.000384391757149971 0.0008899847918372641 0.0 0.015581692610760447 0.0 0.0
-0.000619325241554313 0.0002734336145415235 0.0 0.017173717522619186 0.0 0.0
0.001547409679589693 -0.004781171926346302 0.0 0.0156326755209978 0.0 0.0
0.0033921075081401715 -0.013932471290273949 0.0 0.0106010705028433 0.0 0.0
0.0027727204801695536 -0.011273441244827641 0.0 -0.009602728567997109 0.0 0.0
0.0011066540016450878 -0.0044036057307624485 0.0 -0.014944337902035712 0.0 0.0
-0.0011556937303671853 0.0002861423185613165 0.0 -0.017517038884564528 0.0 0.0
-0.001530933010539817 0.0013032198228379382 0.0 -0.016328170560036243 0.0 0.0
-0.000977314075302701 0.0009309745443423089 0.0 -0.01558759086355634 0.0 0.0
-0.00044143670464483865 0.0004545594825663521 0.0 -0.015407887812577632 0.0 0.0
-0.0001491183456981691 0.00017184936942418052 0.0 -0.015395121334245528 0.0 0.0
-3.011384818744548e-05 4.5537353340079466e-05 0.0 -0.015401385485515923 0.0 0.0
6.30941084315943e-06 1.172393757933616e-06 0.0 -0.015404362295876446 0.0 0.0
1.218733502844399e-05 -9.1788321773934e-06 0.0 -0.015405104442006413 0.0 0.0
9.845557580981682e-06 -8.323797489097852e-06 0.0 -0.015405173501197252 0.0 0.0
4.907450851114755e-06 -2.7809515053805057e-06 0.0 -0.015405049527428737 0.0 0.0
-7.419643871285002e-06 1.1664019871433453e-05 0.0 -0.015404596299024069 0.0 0.0
-4.1800725437460035e-05 4.828979817262321e-05 0.0 -0.015403629483537334 0.0 0.0
-0.0001240808750293679 0.00012764358315501282 0.0 -0.015404452688636026 0.0 0.0
-0.00027944339628934876 0.0002626944590902469 0.0 -0.015427070318481128 0.0 0.0
-0.0004601812279219138 0.00038562231455642075 0.0 -0.015543374003809899 0.0 0.0
-0.0003661906565016425 0.00014094497484805758 0.0 -0.0157816978341019 0.0 0.0
0.0006328917414431454 -0.0013486253629726485 0.0 -0.015362631290355117 0.0 0.0
0.002679255415162768 -0.004885293272181554 0.0 -0.01117471058807862 0.0 0.0
0.003902973618650921 -0.008103414100528639 0.0 -3.5908775952719907e-16 0.0 0.0
0.0026792554151628366 -0.004885293272184305 0.0 0.011174710588077817 0.0 0.0
0.000632891741443084 -0.0013486253629702814 0.0 0.015362631290355488 0.0 0.0
-0.0003661906565018611 0.000140944974849471 0.0 0.015781697834102607 0.0 0.0
-0.00046018122792185125 0.000385622314556773 0.0 0.015543374003810513 0.0 0.0
-0.0002794433962890813 0.00026269445908958856 0.0 0.015427070318480705 0.0 0.0
-0.00012408087502937767 0.0001276435831559341 0.0 0.015404452688635741 0.0 0.0
-4.180072543741992e-05 4.828979817064066e-05 0.0 0.015403629483537667 0.0 0.0
-7.41964387120412e-06 1.1664019872741787e-05 0.0 0.015404596299023448 0.0 0.0
4.9074508511058644e-06 -2.7809515078993513e-06 0.0 0.015405049527428986 0.0 0.0
9.845557580938098e-06 -8.32379748797371e-06 0.0 0.015405173501197394 0.0 0.0
1.2187335028255176e-05 -9.178832178273718e-06 0.0 0.015405104442007312 0.0 0.0
6.3094108432333726e-06 1.1723937582667235e-06 0.0 0.015404362295876883 0.0 0.0
-3.0113848187362645e-05 4.553735334152574e-05 0.0 0.015401385485516225 0.0 0.0
-0.0001491183456983808 0.00017184936942346267 0.0 0.015395121334245088 0.0 0.0
-0.00044143670464465737 0.0004545594825655547 0.0 0.015407887812577504 0.0 0.0
-0.0009773140753024533 0.0009309745443413545 0.0 0.015587590863555802 0.0 0.0
-0.0015309330105399187 0.001303219822837436 0.0 0.016328170560036298 0.0 0.0
-0.0011556937303672885 0.00028614231856144575 0.0 0.017517038884564472 0.0 0.0
0.0011066540016449798 -0.004403605730762284 0.0 0.014944337902035955 0.0 0.0
0.002772720480169357 -0.011273441244827615 0.0 0.009602728567997338 0.0 0.0
0.002171166601905623 -0.008912152419100736 0.0 -0.008645534043591509 0.0 0.0
0.0006540206095740481 -0.0038970622515738483 0.0 -0.014073418747105389 0.0 0.0
-0.0016875357864596075 0.00036736616692727706 0.0 -0.017392162157034503 0.0 0.0
-0.002612107659427091 0.0016766180129504712 0.0 -0.01663481327188961 0.0 0.0
-0.00265239434081521 0.0016254554698892463 0.0 -0.01580450774196175 0.0 0.0
-0.0026236873608519013 0.0013857461085639046 0.0 -0.015435750266815436 0.0 0.0
-0.0027887010375017944 0.001301914341923242 0.0 -0.01530524980246226 0.0 0.0
-0.003113409315155363 0.0013664683107563495 0.0 -0.015260674734199713 0.0 0.0
-0.003518257730299724 0.0015116260147003682 0.0 -0.015247104836405085 0.0 0.0
-0.003953061516763014 0.0016902761217312623 0.0 -0.015245016795128102 0.0 0.0
-0.004395868169543264 0.001879909741720883 0.0 -0.01524614144341594 0.0 0.0
-0.004841126662522104 0.002074083610115091 0.0 -0.015246402774101206 0.0 0.0
-0.005293399809131087 0.002276850528867569 0.0 -0.015242072792958212 0.0 0.0
-0.00576674315207067 0.0025011056553766713 0.0 -0.015227353501000955 0.0 0.0
-0.006286791382915479 0.0027669468744205726 0.0 -0.015195361539974837 0.0 0.0
-0.0068849205587964615 0.003091269318279055 0.0 -0.015155963861884787 0.0 0.0
-0.007532693260549056 0.0034260975086698557 0.0 -0.015206426254385952 0.0 0.0
-0.007918941115427014 0.00342536384864809 0.0 -0.015549265307129061 0.0 0.0
-0.007233794636269346 0.0020458481347656247 0.0 -0.015705638315587564 0.0 0.0
-0.005058797145743455 -0.0020251315726520598 0.0 -0.012152851546430898 0.0 0.0
-0.0036298420493024817 -0.0062863610921771946 0.0 6.557254739192331e-16 0.0 0.0
-0.005058797145743329 -0.002025131572653176 0.0 0.01215285154643029 0.0 0.0
-0.007233794636269416 0.002045848134769789 0.0 0.01570563831558736 0.0 0.0
-0.007918941115427175 0.003425363848649887 0.0 0.015549265307129825 0.0 0.0
-0.007532693260549015 0.0034260975086692347 0.0 0.015206426254386722 0.0 0.0
-0.006884920558796286 0.003091269318281289 0.0 0.015155963861884638 0.0 0.0
-0.006286791382915485 0.0027669468744198336 0.0 0.015195361539974396 0.0 0.0
-0.005766743152070794 0.0025011056553767824 0.0 0.01522735350100075 0.0 0.0
-0.005293399809130953 0.0022768505288675313 0.0 0.015242072792957834 0.0 0.0
-0.004841126662522045 0.0020740836101122906 0.0 0.015246402774101234 0.0 0.0
-0.004395868169543343 0.001879909741722462 0.0 0.015246141443415285 0.0 0.0
-0.003953061516763083 0.0016902761217311192 0.0 0.015245016795128422 0.0 0.0
-0.0035182577302997307 0.0015116260147002944 0.0 0.015247104836406573 0.0 0.0
-0.0031134093151554136 0.0013664683107594993 0.0 0.015260674734199127 0.0 0.0
-0.002788701037501991 0.0013019143419232188 0.0 0.015305249802462138 0.0 0.0
-0.0026236873608519082 0.0013857461085648299 0.0 0.015435750266815668 0.0 0.0
-0.002652394340815126 0.0016254554698885116 0.0 0.01580450774196121 0.0 0.0
-0.0026121076594270627 0.0016766180129510083 0.0 0.016634813271889176 0.0 0.0
-0.001687535786459529 0.0003673661669261662 0.0 0.017392162157034676 0.0 0.0
0.0006540206095740587 -0.00389706225157334 0.0 0.014073418747106086 0.0 0.0
0.0021711666019055163 -0.008912152419100901 0.0 0.008645534043591217 0.0 0.0
0.0015937651653921217 -0.006823938702903485 0.0 -0.007704053463881793 0.0 0.0
0.00019332579648655054 -0.003310294578150726 0.0 -0.013036364446042037 0.0 0.0
-0.0022260895549474943 0.0005181833595523096 0.0 -0.016846311465116472 0.0 0.0
-0.0036490028137778716 0.002029681183412964 0.0 -0.016501044154290993 0.0 0.0
-0.004274703897949249 0.00227945580596454 0.0 -0.01564850590807761 0.0 0.0
-0.004774611519286246 0.002292304897261387 0.0 -0.015130778706658608 0.0 0.0
-0.005416231590703026 0.002422318708089587 0.0 -0.01489546035388728 0.0 0.0
-0.006193830422566702 0.0026847745053316698 0.0 -0.014803780619338389 0.0 0.0
-0.007042952222370171 0.0030219065337315034 0.0 -0.014774956825986327 0.0 0.0
-0.007919047466717904 0.003390169361738255 0.0 -0.014770383003592864 0.0 0.0
-0.008802219879191006 0.0037685605651466463 0.0 -0.014772576044131923 0.0 0.0
-0.00968742933554976 0.004151073469815666 0.0 -0.014773297349590736 0.0 0.0
-0.010578713220676658 0.004541380909872864 0.0 -0.014765579228169134 0.0 0.0
-0.01148858954124459 0.004951404975780363 0.0 -0.014738386297802216 0.0 0.0
-0.012440294416583342 0.005399612881126318 0.0 -0.014676324938005181 0.0 0.0
-0.013468831182727486 0.005904305350059835 0.0 -0.014576113855033868 0.0 0.0
-0.014574747096037892 0.006443484661547225 0.0 -0.014540534951277054 0.0 0.0
-0.01547173959962933 0.00672043583394365 0.0 -0.014946097901722067 0.0 0.0
-0.015172186967796594 0.005558328048400152 0.0 -0.01577278277800497 0.0 0.0
-0.012854739241494974 0.0009464281087817475 0.0 -0.013210804131721097 0.0 0.0
-0.011166478125898029 -0.004750503404900754 0.0 -5.204170427930421e-16 0.0 0.0
-0.012854739241494969 0.0009464281087805127 0.0 0.013210804131720724 0.0 0.0
-0.01517218696779643 0.005558328048401505 0.0 0.0157727827780055 0.0 0.0
-0.015471739599629337 0.006720435833946017 0.0 0.014946097901722744 0.0 0.0
-0.014574747096037805 0.006443484661546476 0.0 0.014540534951278161 0.0 0.0
-0.013468831182727323 0.00590430535006131 0.0 0.014576113855032921 0.0 0.0
-0.012440294416583418 0.0053996128811257425 0.0 0.014676324938005789 0.0 0.0
-0.011488589541244668 0.004951404975778834 0.0 0.014738386297803288 0.0 0.0
-0.010578713220676543 0.0045413809098741814 0.0 0.014765579228169321 0.0 0.0
-0.009687429335549625 0.004151073469814857 0.0 0.014773297349590011 0.0 0.0
-0.008802219879190885 0.003768560565147609 0.0 0.01477257604413144 0.0 0.0
-0.00791904746671797 0.0033901693617381223 0.0 0.014770383003592794 0.0 0.0
-0.007042952222370389 0.0030219065337324324 0.0 0.01477495682598656 0.0 0.0
-0.0061938304225668 0.0026847745053336664 0.0 0.01480378061933784 0.0 0.0
-0.005416231590702899 0.0024223187080892276 0.0 0.014895460353886822 0.0 0.0
-0.004774611519286136 0.0022923048972608158 0.0 0.015130778706658795 0.0 0.0
-0.004274703897949284 0.0022794558059650856 0.0 0.015648505908077544 0.0 0.0
-0.0036490028137779107 0.002029681183413527 0.0 0.016501044154290313 0.0 0.0
-0.0022260895549474093 0.0005181833595519776 0.0 0.01684631146511693 0.0 0.0
0.0001933257964865704 -0.003310294578150572 0.0 0.01303636444604178 0.0 0.0
0.0015937651653919885 -0.006823938702903489 0.0 0.007704053463881579 0.0 0.0
0.0010487075902382368 -0.004997213545624844 0.0 -0.006754664472695619 0.0 0.0
-0.0002678241272002601 -0.0026813763240634753 0.0 -0.011841693250216735 0.0 0.0
-0.0027746187637352556 0.0007318401155363924 0.0 -0.015918016644006 0.0 0.0
-0.004656199667139705 0.002375004854543356 0.0 -0.015932295780248143 0.0 0.0
-0.005855970765822815 0.0029026429718728383 0.0 -0.015102166664351015 0.0 0.0
-0.0068994421949289935 0.003178011612359633 0.0 -0.014478382053138918 0.0 0.0
-0.008033435047050005 0.0035342352382803 0.0 -0.014159358626510972 0.0 0.0
-0.009271924962229809 0.004000868600284804 0.0 -0.014028838253530903 0.0 0.0
-0.010567927745456843 0.004532134203982635 0.0 -0.01398765916434541 0.0 0.0
-0.011885772146899445 0.005090498353059174 0.0 -0.013981333797317315 0.0 0.0
-0.013209184482963644 0.005657605153982279 0.0 -0.013984614411277022 0.0 0.0
-0.014534039985437994 0.006228215620932233 0.0 -0.013985889168899982 0.0 0.0
-0.015863553997424007 0.006805412070206943 0.0 -0.013975659908417646 0.0 0.0
-0.01720791219143969 0.007399552883471081 0.0 -0.013938388512579414 0.0 0.0
-0.018585941199295547 0.008026745528979366 0.0 -0.013851315263810645 0.0 0.0
-0.020031187898557422 0.008702914772652623 0.0 -0.01369829255235932 0.0 0.0
-0.021578027622598993 0.009430915346504372 0.0 -0.013561992030117341 0.0 0.0
-0.023013456798962925 0.010010540944838095 0.0 -0.013951908877454483 0.0 0.0
-0.023202996854276698 0.009212137822842647 0.0 -0.01548282421223049 0.0 0.0
-0.02075249163241976 0.004115776787566793 0.0 -0.014355902972369754 0.0 0.0
-0.018745897843422694 -0.00357359360384756 0.0 -4.51461784622964e-16 0.0 0.0
-0.020752491632419698 0.004115776787567097 0.0 0.01435590297237076 0.0 0.0
-0.023202996854276705 0.009212137822843091 0.0 0.015482824212229681 0.0 0.0
-0.023013456798962998 0.010010540944839259 0.0 0.013951908877453331 0.0 0.0
-0.02157802762259892 0.009430915346502622 0.0 0.013561992030117327 0.0 0.0
-0.020031187898557377 0.008702914772652915 0.0 0.013698292552358549 0.0 0.0
-0.01858594119929559 0.00802674552898083 0.0 0.013851315263810154 0.0 0.0
-0.01720791219143971 0.00739955288346999 0.0 0.01393838851258035 0.0 0.0
-0.01586355399742395 0.006805412070208705 0.0 0.013975659908418307 0.0 0.0
-0.014534039985437959 0.006228215620931575 0.0 0.013985889168900405 0.0 0.0
-0.013209184482963605 0.005657605153982562 0.0 0.013984614411276755 0.0 0.0
-0.011885772146899433 0.005090498353058294 0.0 0.013981333797317634 0.0 0.0
-0.010567927745456906 0.004532134203984849 0.0 0.013987659164346019 0.0 0.0
-0.009271924962229908 0.004000868600283948 0.0 0.014028838253531174 0.0 0.0
-0.00803343504704991 0.00353423523827926 0.0 0.014159358626510972 0.0 0.0
-0.00689944219492904 0.0031780116123577926 0.0 0.0144783820531393 0.0 0.0
-0.005855970765823113 0.002902642971874932 0.0 0.01510216666435053 0.0 0.0
-0.0046561996671397 0.0023750048545434373 0.0 0.01593229578024811 0.0 0.0
-0.0027746187637352464 0.0007318401155368848 0.0 0.015918016644005824 0.0 0.0
-0.00026782412720030064 -0.002681376324063431 0.0 0.011841693250215793 0.0 0.0
0.001048707590238422 -0.004997213545624622 0.0 0.006754664472695629 0.0 0.0
0.0005458835869927933 -0.003431108056578807 0.0 -0.005779170787727316 0.0 0.0
-0.000718726392642418 -0.0020402887349497524 0.0 -0.01049470103448047 0.0 0.0
-0.003329984279837055 0.0009962367809924664 0.0 -0.014636766867406465 0.0 0.0
-0.00564268922288817 0.002719348514000107 0.0 -0.014934392852611767 0.0 0.0
-0.007407230443569071 0.0035043064021185065 0.0 -0.014152611554587047 0.0 0.0
-0.00900501417773147 0.00404820947255435 0.0 -0.013466813280911845 0.0 0.0
-0.01064327307667961 0.0046398331816548954 0.0 -0.013091613559071565 0.0 0.0
-0.01234871620093965 0.005315498657114688 0.0 -0.012934390334833226 0.0 0.0
-0.014093443864159231 0.006042499819214301 0.0 -0.012885115533427336 0.0 0.0
-0.015853231256674157 0.006791253427416008 0.0 -0.012878036497579137 0.0 0.0
-0.017616713058697095 0.00754700204060401 0.0 -0.012882378884970246 0.0 0.0
-0.0193810088712181 0.00830553506509089 0.0 -0.012884275154754226 0.0 0.0
-0.021148232178335093 0.009069203205095994 0.0 -0.012872662035196755 0.0 0.0
-0.022925505563415886 0.009846105088327256 0.0 -0.012828817879175258 0.0 0.0
-0.024725933865934004 0.010649771750736638 0.0 -0.012723489403486773 0.0 0.0
-0.02657457386398956 0.011490597670415475 0.0 -0.012532067414603163 0.0 0.0
-0.028533827409518646 0.012383346947162942 0.0 -0.012297052371060806 0.0 0.0
-0.030520809934919575 0.013266898652078028 0.0 -0.012560690930593265 0.0 0.0
-0.03133838796343041 0.013015893037487137 0.0 -0.014716020870397074 0.0 0.0
-0.028805312906814755 0.007607699556140823 0.0 -0.01556468639330228 0.0 0.0
-0.026423008089139815 -0.0028641134112629423 0.0 1.93421667571414e-16 0.0 0.0
-0.028805312906814845 0.007607699556139004 0.0 0.0155646863933036 0.0 0.0
-0.031338387963430414 0.013015893037488091 0.0 0.014716020870396335 0.0 0.0
-0.03052080993491936 0.01326689865207713 0.0 0.012560690930592767 0.0 0.0
-0.028533827409518445 0.012383346947161093 0.0 0.012297052371060503 0.0 0.0
-0.02657457386398957 0.011490597670414474 0.0 0.012532067414604173 0.0 0.0
-0.02472593386593421 0.010649771750741036 0.0 0.012723489403486615 0.0 0.0
-0.022925505563415983 0.009846105088326413 0.0 0.012828817879175277 0.0 0.0
-0.021148232178334992 0.009069203205096837 0.0 0.01287266203519622 0.0 0.0
-0.01938100887121781 0.008305535065091588 0.0 0.012884275154753705 0.0 0.0
-0.017616713058696963 0.007547002040601906 0.0 0.012882378884968666 0.0 0.0
-0.01585323125667423 0.006791253427416928 0.0 0.012878036497579666 0.0 0.0
-0.01409344386415931 0.006042499819215444 0.0 0.0128851155334278 0.0 0.0
-0.01234871620093967 0.005315498657113647 0.0 0.012934390334833522 0.0 0.0
-0.010643273076679506 0.004639833181654882 0.0 0.013091613559072145 0.0 0.0
-0.009005014177731457 0.004048209472554739 0.0 0.013466813280913325 0.0 0.0
-0.007407230443569083 0.0035043064021190668 0.0 0.014152611554586705 0.0 0.0
-0.005642689222888181 0.0027193485139999553 0.0 0.014934392852612454 0.0 0.0
-0.0033299842798371073 0.0009962367809923994 0.0 0.014636766867406788 0.0 0.0
-0.0007187263926424039 -0.002040288734949556 0.0 0.010494701034480091 0.0 0.0
0.0005458835869928314 -0.0034311080565786367 0.0 0.00577917078772777 0.0 0.0
9.746654402042837e-05 -0.0021331675808062725 0.0 -0.004768543132756141 0.0 0.0
-0.0011450475545534422 -0.0014116326476832249 0.0 -0.009001381628405906 0.0 0.0
-0.0038830640931806163 0.0012947611101413222 0.0 -0.013022349974624476 0.0 0.0
-0.006612868334607764 0.003064941535887395 0.0 -0.013509034742243322 0.0 0.0
-0.008939017997942908 0.00409346926483525 0.0 -0.012789606059012623 0.0 0.0
-0.011099449558056761 0.0049094529010151825 0.0 -0.012087547135671317 0.0 0.0
-0.013249707010614504 0.005742086708718704 0.0 -0.011688542691866657 0.0 0.0
-0.015425615282671497 0.00662968961884135 0.0 -0.011519642314735356 0.0 0.0
-0.01761983195425546 0.007553236767233896 0.0 -0.011467464783046059 0.0 0.0
-0.019821399280078533 0.008492403995777066 0.0 -0.011460709982092261 0.0 0.0
-0.022024727872067097 0.00943669112506904 0.0 -0.011465961042757667 0.0 0.0
-0.024228374549567947 0.010383041376447856 0.0 -0.011468491883075034 0.0 0.0
-0.026433167038678557 0.011333069056403668 0.0 -0.011456648398436756 0.0 0.0
-0.028642353184587473 0.012291916500365898 0.0 -0.011410693764403547 0.0 0.0
-0.030862898782646732 0.013269977868940195 0.0 -0.011295632820927009 0.0 0.0
-0.033105059994581465 0.014273074993259284 0.0 -0.011082876114397915 0.0 0.0
-0.03543658764315037 0.015302599344382925 0.0 -0.01078028695481173 0.0 0.0
-0.037954503255060196 0.01644597322483078 0.0 -0.010803561380654643 0.0 0.0
-0.03957158676152222 0.01694449437445373 0.0 -0.013310715129897416 0.0 0.0
-0.03707879935582744 0.01160361007476307 0.0 -0.01674201861315677 0.0 0.0
-0.034283228935088346 -0.002765443038371397 0.0 3.903127820947816e-18 0.0 0.0
-0.03707879935582744 0.011603610074761756 0.0 0.016742018613157404 0.0 0.0
-0.039571586761522254 0.016944494374454947 0.0 0.013310715129897423 0.0 0.0
-0.03795450325506005 0.016445973224831545 0.0 0.01080356138065405 0.0 0.0
-0.03543658764315031 0.015302599344382606 0.0 0.010780286954810946 0.0 0.0
-0.03310505999458156 0.014273074993260745 0.0 0.011082876114398753 0.0 0.0
-0.030862898782646815 0.01326997786894051 0.0 0.01129563282092764 0.0 0.0
-0.028642353184587445 0.012291916500361237 0.0 0.011410693764403587 0.0 0.0
-0.026433167038678613 0.011333069056404129 0.0 0.011456648398437077 0.0 0.0
-0.02422837454956788 0.010383041376445737 0.0 0.011468491883075416 0.0 0.0
-0.022024727872067034 0.00943669112506888 0.0 0.011465961042756892 0.0 0.0
-0.019821399280078568 0.008492403995778582 0.0 0.011460709982091722 0.0 0.0
-0.017619831954255573 0.007553236767235169 0.0 0.011467464783046765 0.0 0.0
-0.015425615282671487 0.006629689618842141 0.0 0.011519642314736423 0.0 0.0
-0.013249707010614484 0.005742086708720172 0.0 0.01168854269186667 0.0 0.0
-0.01109944955805707 0.004909452901016137 0.0 0.012087547135671298 0.0 0.0
-0.008939017997943013 0.004093469264834708 0.0 0.012789606059012991 0.0 0.0
-0.006612868334607591 0.0030649415358877594 0.0 0.013509034742244467 0.0 0.0
-0.0038830640931806163 0.0012947611101408994 0.0 0.013022349974624954 0.0 0.0
-0.0011450475545535 -0.0014116326476829035 0.0 0.009001381628406073 0.0 0.0
9.74665440204261e-05 -0.0021331675808063657 0.0 0.004768543132756478 0.0 0.0
-0.0002806161247600478 -0.0011167879019109137 0.0 -0.003728731936073695 0.0 0.0
-0.0015270171622664332 -0.0008179279262677989 0.0 -0.00737203347084983 0.0 0.0
-0.0044181869496505 0.0016058372347175433 0.0 -0.0110823810461974 0.0 0.0
-0.007567728629859745 0.0034111397071089236 0.0 -0.011649796039779774 0.0 0.0
-0.010462079591723775 0.004679532725700353 0.0 -0.011004455665008642 0.0 0.0
-0.013192004767975607 0.005769239431515364 0.0 -0.010335613716509566 0.0 0.0
-0.01585742054845072 0.006844527709067959 0.0 -0.009948558981549551 0.0 0.0
-0.018504286466757603 0.007944643828823168 0.0 -0.009784683993438332 0.0 0.0
-0.02114744326082952 0.009064580264270787 0.0 -0.00973513259535088 0.0 0.0
-0.023790208229036068 0.010193883918955973 0.0 -0.009729630930522558 0.0 0.0
-0.026433119054497294 0.0113265827732995 0.0 -0.009735412236175424 0.0 0.0
-0.029076141895618655 0.012460747956519502 0.0 -0.009738474456321842 0.0 0.0
-0.031718824731727824 0.013597241827888441 0.0 -0.009727506937947179 0.0 0.0
-0.034359749012289775 0.014738306533523794 0.0 -0.009683914566017643 0.0 0.0
-0.03699920580851254 0.01588846672443426 0.0 -0.00957115332482556 0.0 0.0
-0.03963204891211938 0.017055791797754672 0.0 -0.009350943540476983 0.0 0.0
-0.04229086063915818 0.01820516041701739 0.0 -0.009040943945205665 0.0 0.0
-0.04525756051360288 0.019495660218127354 0.0 -0.008784994104044567 0.0 0.0
-0.04785617020976842 0.02090155004482572 0.0 -0.011085549955180256 0.0 0.0
-0.04565261378621372 0.01636410680720562 0.0 -0.017626064442715795 0.0 0.0
-0.042471481038082105 -0.0034487919295291746 0.0 4.727121472036799e-16 0.0 0.0
-0.04565261378621379 0.01636410680720554 0.0 0.017626064442715902 0.0 0.0
-0.047856170209768345 0.02090155004482511 0.0 0.011085549955180692 0.0 0.0
-0.04525756051360267 0.01949566021812783 0.0 0.0087849941040441 0.0 0.0
-0.04229086063915815 0.01820516041701919 0.0 0.009040943945204606 0.0 0.0
-0.039632048912119376 0.017055791797758596 0.0 0.009350943540477295 0.0 0.0
-0.03699920580851254 0.015888466724430544 0.0 0.009571153324825004 0.0 0.0
-0.03435974901228971 0.014738306533522937 0.0 0.009683914566018349 0.0 0.0
-0.03171882473172762 0.013597241827889172 0.0 0.009727506937947166 0.0 0.0
-0.029076141895618385 0.01246074795651566 0.0 0.009738474456321464 0.0 0.0
-0.026433119054497335 0.011326582773300129 0.0 0.009735412236175675 0.0 0.0
-0.0237902082290362 0.010193883918957047 0.0 0.009729630930522072 0.0 0.0
-0.021147443260829527 0.009064580264269796 0.0 0.009735132595351612 0.0 0.0
-0.018504286466757763 0.007944643828824545 0.0 0.009784683993437031 0.0 0.0
-0.015857420548450837 0.006844527709067608 0.0 0.009948558981548967 0.0 0.0
-0.01319200476797546 0.005769239431515407 0.0 0.010335613716509831 0.0 0.0
-0.010462079591723522 0.00467953272570123 0.0 0.011004455665008153 0.0 0.0
-0.007567728629859631 0.003411139707110217 0.0 0.011649796039780915 0.0 0.0
-0.004418186949650664 0.0016058372347172779 0.0 0.01108238104619671 0.0 0.0
-0.0015270171622664157 -0.000817927926267329 0.0 0.007372033470849826 0.0 0.0
-0.0002806161247596498 -0.0011167879019109948 0.0 0.0037287319360742024 0.0 0.0
-0.0005657674992967058 -0.00039781025020434494 0.0 -0.002691310839079336 0.0 0.0
-0.0018358782593503554 -0.00028454353749080957 0.0 -0.005624716608111809 0.0 0.0
-0.004911700826809731 0.0019015350485723655 0.0 -0.008805936627452412 0.0 0.0
-0.008506590558830612 0.0037568866100136846 0.0 -0.009338685975619 0.0 0.0
-0.011988533872744669 0.005273250120695502 0.0 -0.00879013950541256 0.0 0.0
-0.015292965083742435 0.006635728842928068 0.0 -0.008209933323809227 0.0 0.0
-0.018471510568345065 0.007950978825160158 0.0 -0.00787250862575587 0.0 0.0
-0.021586478366669257 0.009261606658049258 0.0 -0.007730648660377756 0.0 0.0
-0.024676580375346403 0.010576711321173203 0.0 -0.007688858652121612 0.0 0.0
-0.0277595256733121 0.011895586133361464 0.0 -0.007685109072784687 0.0 0.0
-0.03084173020167054 0.013216526817793003 0.0 -0.0076907887482654275 0.0 0.0
-0.033924301860536604 0.014538710145388146 0.0 -0.007693904853733906 0.0 0.0
-0.03700553760632689 0.015861810859103546 0.0 -0.0076852218473769714 0.0 0.0
-0.04007951664294312 0.017186618703353994 0.0 -0.007646933685076079 0.0 0.0
-0.043136783267187395 0.0185081124132776 0.0 -0.007552212168608754 0.0 0.0
-0.04616497273747442 0.019837681246105264 0.0 -0.007340896088612524 0.0 0.0
-0.04912208402276073 0.021127775623959656 0.0 -0.0070674447379617455 0.0 0.0
-0.052363505252464956 0.02238688289194269 0.0 -0.00671460266415667 0.0 0.0
-0.05606495586007715 0.024646331967909052 0.0 -0.007961177923431862 0.0 0.0
-0.05461537250491837 0.022246171021224607 0.0 -0.01755555012751622 0.0 0.0
-0.0512536131786507 -0.005066338380888737 0.0 1.3444106938820255e-16 0.0 0.0
-0.05461537250491845 0.02224617102122449 0.0 0.017555550127514842 0.0 0.0
-0.05606495586007697 0.02464633196790657 0.0 0.007961177923431964 0.0 0.0
-0.05236350525246482 0.022386882891942638 0.0 0.006714602664155552 0.0 0.0
-0.049122084022760686 0.021127775623961755 0.0 0.0070674447379616995 0.0 0.0
-0.0461649727374743 0.019837681246105528 0.0 0.007340896088611989 0.0 0.0
-0.04313678326718739 0.01850811241327667 0.0 0.007552212168607721 0.0 0.0
-0.04007951664294322 0.017186618703355024 0.0 0.007646933685076641 0.0 0.0
-0.03700553760632675 0.015861810859102276 0.0 0.007685221847376352 0.0 0.0
-0.03392430186053662 0.01453871014538748 0.0 0.007693904853733046 0.0 0.0
-0.030841730201670747 0.013216526817795815 0.0 0.007690788748265873 0.0 0.0
-0.027759525673311948 0.011895586133361303 0.0 0.0076851090727847755 0.0 0.0
-0.024676580375346244 0.010576711321171366 0.0 0.007688858652122934 0.0 0.0
-0.021586478366669014 0.00926160665804946 0.0 0.007730648660377565 0.0 0.0
-0.018471510568344927 0.00795097882515822 0.0 0.007872508625755748 0.0 0.0
-0.015292965083742595 0.006635728842927701 0.0 0.008209933323809673 0.0 0.0
-0.01198853387274471 0.00527325012069614 0.0 0.008790139505411765 0.0 0.0
-0.008506590558830652 0.003756886610014303 0.0 0.009338685975619024 0.0 0.0
-0.004911700826809693 0.001901535048571797 0.0 0.008805936627452493 0.0 0.0
-0.001835878259350204 -0.0002845435374904839 0.0 0.005624716608112123 0.0 0.0
-0.0005657674992966243 -0.0003978102502044082 0.0 0.0026913108390793352 0.0 0.0
-0.0007230126213716558 1.071495122201561e-05 0.0 -0.0017340214130907223 0.0 0.0
-0.002027471898647332 0.00015161476894825834 0.0 -0.0037880811529572176 0.0 0.0
-0.005329910580028576 0.0021459180227842477 0.0 -0.006149409371727057 0.0 0.0
-0.009430069240913226 0.004104865108488925 0.0 -0.006545021792278498 0.0 0.0
-0.013533318696842784 0.005887549469956243 0.0 -0.0061427783988968745 0.0 0.0
-0.01741343502214835 0.007517397398628018 0.0 -0.005713555880138414 0.0 0.0
-0.02109716415783767 0.009065298379771797 0.0 -0.005463994151927278 0.0 0.0
-0.02467382844717423 0.010581688677795105 0.0 -0.005359762911824937 0.0 0.0
-0.02820741271587729 0.012089706700952352 0.0 -0.005329681595775079 0.0 0.0
-0.031729145157220466 0.013597328059361941 0.0 -0.005327492964997808 0.0 0.0
-0.03525031955438603 0.01510638143163973 0.0 -0.0053320337733829964 0.0 0.0
-0.03877287976459212 0.01661675941566863 0.0 -0.005334624651703729 0.0 0.0
-0.042293409387746006 0.018127484093266213 0.0 -0.005328444232759737 0.0 0.0
-0.04580348935380054 0.019635992151373412 0.0 -0.005301199205483045 0.0 0.0
-0.04927951456422902 0.021137610882932582 0.0 -0.0052273199251604285 0.0 0.0
-0.0527048175163752 0.022608657402598757 0.0 -0.005086501319017899 0.0 0.0
-0.05598488019207139 0.024102792299692605 0.0 -0.004781835416769546 0.0 0.0
-0.05923692348042653 0.025219978059361114 0.0 -0.004796620460029466 0.0 0.0
-0.06390915428868542 0.0276571980426433 0.0 -0.004449014792120593 0.0 0.0
-0.06403302105541164 0.029669075630633424 0.0 -0.014854007885538763 0.0 0.0
-0.061156980976639574 -0.007573070388858972 0.0 8.491471414906471e-16 0.0 0.0
-0.06403302105541185 0.029669075630631446 0.0 0.014854007885538274 0.0 0.0
-0.0639091542886853 0.027657198042643823 0.0 0.004449014792120909 0.0 0.0
-0.05923692348042646 0.025219978059363088 0.0 0.004796620460030607 0.0 0.0
-0.055984880192071526 0.02410279229969346 0.0 0.0047818354167700515 0.0 0.0
-0.052704817516375346 0.02260865740260003 0.0 0.00508650131901756 0.0 0.0
-0.04927951456422889 0.02113761088293033 0.0 0.005227319925161394 0.0 0.0
-0.04580348935380047 0.019635992151373106 0.0 0.005301199205482442 0.0 0.0
-0.04229340938774595 0.018127484093265558 0.0 0.005328444232759039 0.0 0.0
-0.03877287976459206 0.016616759415670174 0.0 0.005334624651703166 0.0 0.0
-0.03525031955438631 0.015106381431640982 0.0 0.0053320337733827 0.0 0.0
-0.03172914515722055 0.01359732805936014 0.0 0.005327492964996789 0.0 0.0
-0.028207412715877074 0.012089706700953242 0.0 0.005329681595775482 0.0 0.0
-0.024673828447174005 0.010581688677794743 0.0 0.005359762911825584 0.0 0.0
-0.021097164157837602 0.009065298379770671 0.0 0.005463994151927108 0.0 0.0
-0.017413435022148566 0.007517397398627954 0.0 0.005713555880137681 0.0 0.0
-0.013533318696842912 0.005887549469956547 0.0 0.0061427783988970835 0.0 0.0
-0.00943006924091321 0.004104865108488389 0.0 0.006545021792278766 0.0 0.0
-0.005329910580028666 0.0021459180227846775 0.0 0.006149409371727512 0.0 0.0
-0.0020274718986474237 0.000151614768948108 0.0 0.0037880811529578517 0.0 0.0
-0.0007230126213716101 1.0714951222109578e-05 0.0 0.00173402141308996 0.0 0.0
-0.000693482129328491 0.00010743841007721306 0.0 -0.0010213231214938527 0.0 0.0
-0.0020305747214054734 0.0004251252514241037 0.0 -0.0019019735794786005 0.0 0.0
-0.005627155188870449 0.0022951195755440503 0.0 -0.0030057237903442107 0.0 0.0
-0.010345474640481415 0.004468779768241483 0.0 -0.0032340040301238404 0.0 0.0
-0.015115354702349915 0.006536841103213357 0.0 -0.003061737555547068 0.0 0.0
-0.01956494844243827 0.00842304620427538 0.0 -0.0028546556053668038 0.0 0.0
-0.02373934855173756 0.01019098041750786 0.0 -0.0027294439639221463 0.0 0.0
-0.027767626261940154 0.01190570092138423 0.0 -0.002675326366525939 0.0 0.0
-0.03173990476299698 0.013603473636534089 0.0 -0.002658884715569484 0.0 0.0
-0.035698741734285645 0.01529885852556271 0.0 -0.0026571118399223628 0.0 0.0
-0.039658646355543774 0.016995929847343515 0.0 -0.0026590783777121294 0.0 0.0
-0.04362160714502816 0.018694852996493677 0.0 -0.0026601635831627253 0.0 0.0
-0.047583255379549785 0.020394053185687776 0.0 -0.0026565963138566132 0.0 0.0
-0.05153068455172872 0.022089089291808618 0.0 -0.0026426268482130978 0.0 0.0
-0.05543857114002923 0.02377052118995139 0.0 -0.0026039526667379622 0.0 0.0
-0.059239700392117345 0.025414856293389135 0.0 -0.0025340883247096 0.0 0.0
-0.06293277836756081 0.026986277885889795 0.0 -0.0024052000450210213 0.0 0.0
-0.06601003099642859 0.028539130809584166 0.0 -0.0022359142436183155 0.0 0.0
-0.07078545256204488 0.028908336638022294 0.0 -0.003526372354992648 0.0 0.0
-0.07381987393669452 0.03883594088389477 0.0 -0.005032995859279039 0.0 0.0
-0.07332410949440138 -0.010105989893900396 0.0 -1.7867651802561113e-16 0.0 0.0
-0.0738198739366945 0.038835940883891654 0.0 0.005032995859279087 0.0 0.0
-0.0707854525620447 0.02890833663802226 0.0 0.0035263723549924138 0.0 0.0
-0.06601003099642845 0.02853913080958357 0.0 0.0022359142436178146 0.0 0.0
-0.06293277836756093 0.026986277885892734 0.0 0.0024052000450207863 0.0 0.0
-0.05923970039211732 0.02541485629339006 0.0 0.0025340883247108956 0.0 0.0
-0.05543857114002933 0.023770521189947564 0.0 0.002603952666738619 0.0 0.0
-0.05153068455172886 0.022089089291809572 0.0 0.002642626848213459 0.0 0.0
-0.04758325537954962 0.02039405318568784 0.0 0.0026565963138561457 0.0 0.0
-0.04362160714502831 0.01869485299649448 0.0 0.0026601635831623276 0.0 0.0
-0.039658646355543864 0.016995929847343088 0.0 0.0026590783777122994 0.0 0.0
-0.0356987417342856 0.015298858525563178 0.0 0.002657111839922556 0.0 0.0
-0.031739904762996866 0.013603473636536008 0.0 0.0026588847155706095 0.0 0.0
-0.027767626261939835 0.0119057009213836 0.0 0.0026753263665259485 0.0 0.0
-0.0237393485517374 0.010190980417508664 0.0 0.0027294439639220865 0.0 0.0
-0.019564948442438532 0.008423046204275357 0.0 0.0028546556053666025 0.0 0.0
-0.01511535470235007 0.006536841103214851 0.0 0.003061737555547198 0.0 0.0
-0.010345474640481364 0.004468779768241083 0.0 0.003234004030124692 0.0 0.0
-0.005627155188870477 0.0022951195755446948 0.0 0.003005723790344042 0.0 0.0
-0.002030574721405528 0.0004251252514239184 0.0 0.00190197357947913 0.0 0.0
-0.0006934821293286054 0.00010743841007723353 0.0 0.001021323121493379 0.0 0.0
-0.00037070689197403787 7.876725991627393e-05 0.0 -0.0006844085031414628 0.0 0.0
-0.0017248360241533412 0.0005105498697377038 0.0 -0.0008038611628327086 0.0 0.0
-0.005746551254666731 0.002339998940923822 0.0 -0.0010230308270092062 0.0 0.0
-0.011276567695690009 0.004657413208916143 0.0 -0.001140642789730287 0.0 0.0
-0.01675666620014033 0.006872067834456913 0.0 -0.0011319549894414263 0.0 0.0
-0.021759434535143746 0.008882998350757582 0.0 -0.001079281094833168 0.0 0.0
-0.026402312836582495 0.010757058642161478 0.0 -0.0010390289790587677 0.0 0.0
-0.030868602365310523 0.012568768359935874 0.0 -0.0010182619955290385 0.0 0.0
-0.03527373008676642 0.014360524843821772 0.0 -0.0010103079470207975 0.0 0.0
-0.03966788497532603 0.016149537873949682 0.0 -0.0010083063403081042 0.0 0.0
-0.04406636079053146 0.017940584927213555 0.0 -0.0010082325923694954 0.0 0.0
-0.048470376429036226 0.019733952769533526 0.0 -0.001008072109541595 0.0 0.0
-0.05287466666019374 0.02152733708523473 0.0 -0.0010060157297486216 0.0 0.0
-0.05726441073544393 0.023317586969535772 0.0 -0.0010004796491002547 0.0 0.0
-0.06160638900237908 0.025084624290071723 0.0 -0.0009871465801632754 0.0 0.0
-0.06582650578570907 0.026840016734462284 0.0 -0.0009613509971481372 0.0 0.0
-0.06979775610121211 0.028366993692079946 0.0 -0.0009875677232835485 0.0 0.0
-0.07338800728553235 0.030430576951884124 0.0 -0.0006719391141247859 0.0 0.0
-0.07552712976977426 0.028925811370744292 0.0 -0.0032993205460809857 0.0 0.0
-0.08324406111851498 0.04385229380595772 0.0 -1.4853714612916152e-05 0.0 0.0
-0.09050754160325321 -0.0111899089293719 0.0 2.7755575615628914e-17 0.0 0.0
-0.08324406111851512 0.043852293805956996 0.0 1.4853714612385327e-05 0.0 0.0
-0.07552712976977413 0.028925811370740087 0.0 0.0032993205460811236 0.0 0.0
-0.07338800728553217 0.030430576951881835 0.0 0.000671939114124602 0.0 0.0
-0.06979775610121217 0.028366993692087086 0.0 0.0009875677232818363 0.0 0.0
-0.06582650578570928 0.026840016734459755 0.0 0.0009613509971485067 0.0 0.0
-0.06160638900237956 0.02508462429006857 0.0 0.0009871465801619744 0.0 0.0
-0.05726441073544399 0.023317586969537493 0.0 0.0010004796490993171 0.0 0.0
-0.05287466666019349 0.021527337085233415 0.0 0.001006015729747023 0.0 0.0
-0.048470376429036434 0.019733952769534026 0.0 0.0010080721095394596 0.0 0.0
-0.044066360790531625 0.017940584927215637 0.0 0.0010082325923692868 0.0 0.0
-0.039667884975325814 0.01614953787395358 0.0 0.0010083063403074901 0.0 0.0
-0.035273730086766084 0.014360524843823549 0.0 0.0010103079470215855 0.0 0.0
-0.030868602365310388 0.012568768359934772 0.0 0.0010182619955299635 0.0 0.0
-0.026402312836582564 0.01075705864216269 0.0 0.0010390289790601307 0.0 0.0
-0.021759434535143677 0.008882998350758156 0.0 0.0010792810948338414 0.0 0.0
-0.016756666200140283 0.006872067834459218 0.0 0.001131954989441027 0.0 0.0
-0.011276567695690097 0.00465741320891588 0.0 0.0011406427897304124 0.0 0.0
-0.005746551254666748 0.0023399989409240473 0.0 0.0010230308270082612 0.0 0.0
-0.0017248360241533243 0.0005105498697376932 0.0 0.0008038611628329744 0.0 0.0
-0.00037070689197409165 7.87672599160414e-05 0.0 0.0006844085031409264 0.0 0.0