# vtk DataFile Version 3.0
Some data
ASCII
DATASET UNSTRUCTURED_GRID
POINTS 861 float
0.0 0.0 0.0
0.4 0.0 0.0
0.8 0.0 0.0
1.2000000000000002 0.0 0.0
1.6 0.0 0.0
2.0 0.0 0.0
2.4000000000000004 0.0 0.0
2.8000000000000003 0.0 0.0
3.2 0.0 0.0
3.6 0.0 0.0
4.0 0.0 0.0
4.4 0.0 0.0
4.800000000000001 0.0 0.0
5.2 0.0 0.0
5.6000000000000005 0.0 0.0
6.0 0.0 0.0
6.4 0.0 0.0
6.800000000000001 0.0 0.0
7.2 0.0 0.0
7.6000000000000005 0.0 0.0
8.0 0.0 0.0
8.4 0.0 0.0
8.8 0.0 0.0
9.200000000000001 0.0 0.0
9.600000000000001 0.0 0.0
10.0 0.0 0.0
10.4 0.0 0.0
10.8 0.0 0.0
11.200000000000001 0.0 0.0
11.600000000000001 0.0 0.0
12.0 0.0 0.0
12.4 0.0 0.0
12.8 0.0 0.0
13.200000000000001 0.0 0.0
13.600000000000001 0.0 0.0
14.0 0.0 0.0
14.4 0.0 0.0
14.8 0.0 0.0
15.200000000000001 0.0 0.0
15.600000000000001 0.0 0.0
16.0 0.0 0.0
0.0 0.1 0.0
0.4 0.1 0.0
0.8 0.1 0.0
1.2000000000000002 0.1 0.0
1.6 0.1 0.0
2.0 0.1 0.0
2.4000000000000004 0.1 0.0
2.8000000000000003 0.1 0.0
3.2 0.1 0.0
3.6 0.1 0.0
4.0 0.1 0.0
4.4 0.1 0.0
4.800000000000001 0.1 0.0
5.2 0.1 0.0
5.6000000000000005 0.1 0.0
6.0 0.1 0.0
6.4 0.1 0.0
6.800000000000001 0.1 0.0
7.2 0.1 0.0
7.6000000000000005 0.1 0.0
8.0 0.1 0.0
8.4 0.1 0.0
8.8 0.1 0.0
9.200000000000001 0.1 0.0
9.600000000000001 0.1 0.0
10.0 0.1 0.0
10.4 0.1 0.0
10.8 0.1 0.0
11.200000000000001 0.1 0.0
11.600000000000001 0.1 0.0
12.0 0.1 0.0
12.4 0.1 0.0
12.8 0.1 0.0
13.200000000000001 0.1 0.0
13.600000000000001 0.1 0.0
14.0 0.1 0.0
14.4 0.1 0.0
14.8 0.1 0.0
15.200000000000001 0.1 0.0
15.600000000000001 0.1 0.0
16.0 0.1 0.0
0.0 0.2 0.0
0.4 0.2 0.0
0.8 0.2 0.0
1.2000000000000002 0.2 0.0
1.6 0.2 0.0
2.0 0.2 0.0
2.4000000000000004 0.2 0.0
2.8000000000000003 0.2 0.0
3.2 0.2 0.0
3.6 0.2 0.0
4.0 0.2 0.0
4.4 0.2 0.0
4.800000000000001 0.2 0.0
5.2 0.2 0.0
5.6000000000000005 0.2 0.0
6.0 0.2 0.0
6.4 0.2 0.0
6.800000000000001 0.2 0.0
7.2 0.2 0.0
7.6000000000000005 0.2 0.0
8.0 0.2 0.0
8.4 0.2 0.0
8.8 0.2 0.0
9.200000000000001 0.2 0.0
9.600000000000001 0.2 0.0
10.0 0.2 0.0
10.4 0.2 0.0
10.8 0.2 0.0
11.200000000000001 0.2 0.0
11.600000000000001 0.2 0.0
12.0 0.2 0.0
12.4 0.2 0.0
12.8 0.2 0.0
13.200000000000001 0.2 0.0
13.600000000000001 0.2 0.0
14.0 0.2 0.0
14.4 0.2 0.0
14.8 0.2 0.0
15.200000000000001 0.2 0.0
15.600000000000001 0.2 0.0
16.0 0.2 0.0
0.0 0.30000000000000004 0.0
0.4 0.30000000000000004 0.0
0.8 0.30000000000000004 0.0
1.2000000000000002 0.30000000000000004 0.0
1.6 0.30000000000000004 0.0
2.0 0.30000000000000004 0.0
2.4000000000000004 0.30000000000000004 0.0
2.8000000000000003 0.30000000000000004 0.0
3.2 0.30000000000000004 0.0
3.6 0.30000000000000004 0.0
4.0 0.30000000000000004 0.0
4.4 0.30000000000000004 0.0
4.800000000000001 0.30000000000000004 0.0
5.2 0.30000000000000004 0.0
5.6000000000000005 0.30000000000000004 0.0
6.0 0.30000000000000004 0.0
6.4 0.30000000000000004 0.0
6.800000000000001 0.30000000000000004 0.0
7.2 0.30000000000000004 0.0
7.6000000000000005 0.30000000000000004 0.0
8.0 0.30000000000000004 0.0
8.4 0.30000000000000004 0.0
8.8 0.30000000000000004 0.0
9.200000000000001 0.30000000000000004 0.0
9.600000000000001 0.30000000000000004 0.0
10.0 0.30000000000000004 0.0
10.4 0.30000000000000004 0.0
10.8 0.30000000000000004 0.0
11.200000000000001 0.30000000000000004 0.0
11.600000000000001 0.30000000000000004 0.0
12.0 0.30000000000000004 0.0
12.4 0.30000000000000004 0.0
12.8 0.30000000000000004 0.0
13.200000000000001 0.30000000000000004 0.0
13.600000000000001 0.30000000000000004 0.0
14.0 0.30000000000000004 0.0
14.4 0.30000000000000004 0.0
14.8 0.30000000000000004 0.0
15.200000000000001 0.30000000000000004 0.0
15.600000000000001 0.30000000000000004 0.0
16.0 0.30000000000000004 0.0
0.0 0.4 0.0
0.4 0.4 0.0
0.8 0.4 0.0
1.2000000000000002 0.4 0.0
1.6 0.4 0.0
2.0 0.4 0.0
2.4000000000000004 0.4 0.0
2.8000000000000003 0.4 0.0
3.2 0.4 0.0
3.6 0.4 0.0
4.0 0.4 0.0
4.4 0.4 0.0
4.800000000000001 0.4 0.0
5.2 0.4 0.0
5.6000000000000005 0.4 0.0
6.0 0.4 0.0
6.4 0.4 0.0
6.800000000000001 0.4 0.0
7.2 0.4 0.0
7.6000000000000005 0.4 0.0
8.0 0.4 0.0
8.4 0.4 0.0
8.8 0.4 0.0
9.200000000000001 0.4 0.0
9.600000000000001 0.4 0.0
10.0 0.4 0.0
10.4 0.4 0.0
10.8 0.4 0.0
11.200000000000001 0.4 0.0
11.600000000000001 0.4 0.0
12.0 0.4 0.0
12.4 0.4 0.0
12.8 0.4 0.0
13.200000000000001 0.4 0.0
13.600000000000001 0.4 0.0
14.0 0.4 0.0
14.4 0.4 0.0
14.8 0.4 0.0
15.200000000000001 0.4 0.0
15.600000000000001 0.4 0.0
16.0 0.4 0.0
0.0 0.5 0.0
0.4 0.5 0.0
0.8 0.5 0.0
1.2000000000000002 0.5 0.0
1.6 0.5 0.0
2.0 0.5 0.0
2.4000000000000004 0.5 0.0
2.8000000000000003 0.5 0.0
3.2 0.5 0.0
3.6 0.5 0.0
4.0 0.5 0.0
4.4 0.5 0.0
4.800000000000001 0.5 0.0
5.2 0.5 0.0
5.6000000000000005 0.5 0.0
6.0 0.5 0.0
6.4 0.5 0.0
6.800000000000001 0.5 0.0
7.2 0.5 0.0
7.6000000000000005 0.5 0.0
8.0 0.5 0.0
8.4 0.5 0.0
8.8 0.5 0.0
9.200000000000001 0.5 0.0
9.600000000000001 0.5 0.0
10.0 0.5 0.0
10.4 0.5 0.0
10.8 0.5 0.0
11.200000000000001 0.5 0.0
11.600000000000001 0.5 0.0
12.0 0.5 0.0
12.4 0.5 0.0
12.8 0.5 0.0
13.200000000000001 0.5 0.0
13.600000000000001 0.5 0.0
14.0 0.5 0.0
14.4 0.5 0.0
14.8 0.5 0.0
15.200000000000001 0.5 0.0
15.600000000000001 0.5 0.0
16.0 0.5 0.0
0.0 0.6000000000000001 0.0
0.4 0.6000000000000001 0.0
0.8 0.6000000000000001 0.0
1.2000000000000002 0.6000000000000001 0.0
1.6 0.6000000000000001 0.0
2.0 0.6000000000000001 0.0
2.4000000000000004 0.6000000000000001 0.0
2.8000000000000003 0.6000000000000001 0.0
3.2 0.6000000000000001 0.0
3.6 0.6000000000000001 0.0
4.0 0.6000000000000001 0.0
4.4 0.6000000000000001 0.0
4.800000000000001 0.6000000000000001 0.0
5.2 0.6000000000000001 0.0
5.6000000000000005 0.6000000000000001 0.0
6.0 0.6000000000000001 0.0
6.4 0.6000000000000001 0.0
6.800000000000001 0.6000000000000001 0.0
7.2 0.6000000000000001 0.0
7.6000000000000005 0.6000000000000001 0.0
8.0 0.6000000000000001 0.0
8.4 0.6000000000000001 0.0
8.8 0.6000000000000001 0.0
9.200000000000001 0.6000000000000001 0.0
9.600000000000001 0.6000000000000001 0.0
10.0 0.6000000000000001 0.0
10.4 0.6000000000000001 0.0
10.8 0.6000000000000001 0.0
11.200000000000001 0.6000000000000001 0.0
11.600000000000001 0.6000000000000001 0.0
12.0 0.6000000000000001 0.0
12.4 0.6000000000000001 0.0
12.8 0.6000000000000001 0.0
13.200000000000001 0.6000000000000001 0.0
13.600000000000001 0.6000000000000001 0.0
14.0 0.6000000000000001 0.0
14.4 0.6000000000000001 0.0
14.8 0.6000000000000001 0.0
15.200000000000001 0.6000000000000001 0.0
15.600000000000001 0.6000000000000001 0.0
16.0 0.6000000000000001 0.0
0.0 0.7000000000000001 0.0
0.4 0.7000000000000001 0.0
0.8 0.7000000000000001 0.0
1.2000000000000002 0.7000000000000001 0.0
1.6 0.7000000000000001 0.0
2.0 0.7000000000000001 0.0
2.4000000000000004 0.7000000000000001 0.0
2.8000000000000003 0.7000000000000001 0.0
3.2 0.7000000000000001 0.0
3.6 0.7000000000000001 0.0
4.0 0.7000000000000001 0.0
4.4 0.7000000000000001 0.0
4.800000000000001 0.7000000000000001 0.0
5.2 0.7000000000000001 0.0
5.6000000000000005 0.7000000000000001 0.0
6.0 0.7000000000000001 0.0
6.4 0.7000000000000001 0.0
6.800000000000001 0.7000000000000001 0.0
7.2 0.7000000000000001 0.0
7.6000000000000005 0.7000000000000001 0.0
8.0 0.7000000000000001 0.0
8.4 0.7000000000000001 0.0
8.8 0.7000000000000001 0.0
9.200000000000001 0.7000000000000001 0.0
9.600000000000001 0.7000000000000001 0.0
10.0 0.7000000000000001 0.0
10.4 0.7000000000000001 0.0
10.8 0.7000000000000001 0.0
11.200000000000001 0.7000000000000001 0.0
11.600000000000001 0.7000000000000001 0.0
12.0 0.7000000000000001 0.0
12.4 0.7000000000000001 0.0
12.8 0.7000000000000001 0.0
13.200000000000001 0.7000000000000001 0.0
13.600000000000001 0.7000000000000001 0.0
14.0 0.7000000000000001 0.0
14.4 0.7000000000000001 0.0
14.8 0.7000000000000001 0.0
15.200000000000001 0.7000000000000001 0.0
15.600000000000001 0.7000000000000001 0.0
16.0 0.7000000000000001 0.0
0.0 0.8 0.0
0.4 0.8 0.0
0.8 0.8 0.0
1.2000000000000002 0.8 0.0
1.6 0.8 0.0
2.0 0.8 0.0
2.4000000000000004 0.8 0.0
2.8000000000000003 0.8 0.0
3.2 0.8 0.0
3.6 0.8 0.0
4.0 0.8 0.0
4.4 0.8 0.0
4.800000000000001 0.8 0.0
5.2 0.8 0.0
5.6000000000000005 0.8 0.0
6.0 0.8 0.0
6.4 0.8 0.0
6.800000000000001 0.8 0.0
7.2 0.8 0.0
7.6000000000000005 0.8 0.0
8.0 0.8 0.0
8.4 0.8 0.0
8.8 0.8 0.0
9.200000000000001 0.8 0.0
9.600000000000001 0.8 0.0
10.0 0.8 0.0
10.4 0.8 0.0
10.8 0.8 0.0
11.200000000000001 0.8 0.0
11.600000000000001 0.8 0.0
12.0 0.8 0.0
12.4 0.8 0.0
12.8 0.8 0.0
13.200000000000001 0.8 0.0
13.600000000000001 0.8 0.0
14.0 0.8 0.0
14.4 0.8 0.0
14.8 0.8 0.0
15.200000000000001 0.8 0.0
15.600000000000001 0.8 0.0
16.0 0.8 0.0
0.0 0.9 0.0
0.4 0.9 0.0
0.8 0.9 0.0
1.2000000000000002 0.9 0.0
1.6 0.9 0.0
2.0 0.9 0.0
2.4000000000000004 0.9 0.0
2.8000000000000003 0.9 0.0
3.2 0.9 0.0
3.6 0.9 0.0
4.0 0.9 0.0
4.4 0.9 0.0
4.800000000000001 0.9 0.0
5.2 0.9 0.0
5.6000000000000005 0.9 0.0
6.0 0.9 0.0
6.4 0.9 0.0
6.800000000000001 0.9 0.0
7.2 0.9 0.0
7.6000000000000005 0.9 0.0
8.0 0.9 0.0
8.4 0.9 0.0
8.8 0.9 0.0
9.200000000000001 0.9 0.0
9.600000000000001 0.9 0.0
10.0 0.9 0.0
10.4 0.9 0.0
10.8 0.9 0.0
11.200000000000001 0.9 0.0
11.600000000000001 0.9 0.0
12.0 0.9 0.0
12.4 0.9 0.0
12.8 0.9 0.0
13.200000000000001 0.9 0.0
13.600000000000001 0.9 0.0
14.0 0.9 0.0
14.4 0.9 0.0
14.8 0.9 0.0
15.200000000000001 0.9 0.0
15.600000000000001 0.9 0.0
16.0 0.9 0.0
0.0 1.0 0.0
0.4 1.0 0.0
0.8 1.0 0.0
1.2000000000000002 1.0 0.0
1.6 1.0 0.0
2.0 1.0 0.0
2.4000000000000004 1.0 0.0
2.8000000000000003 1.0 0.0
3.2 1.0 0.0
3.6 1.0 0.0
4.0 1.0 0.0
4.4 1.0 0.0
4.800000000000001 1.0 0.0
5.2 1.0 0.0
5.6000000000000005 1.0 0.0
6.0 1.0 0.0
6.4 1.0 0.0
6.800000000000001 1.0 0.0
7.2 1.0 0.0
7.6000000000000005 1.0 0.0
8.0 1.0 0.0
8.4 1.0 0.0
8.8 1.0 0.0
9.200000000000001 1.0 0.0
9.600000000000001 1.0 0.0
10.0 1.0 0.0
10.4 1.0 0.0
10.8 1.0 0.0
11.200000000000001 1.0 0.0
11.600000000000001 1.0 0.0
12.0 1.0 0.0
12.4 1.0 0.0
12.8 1.0 0.0
13.200000000000001 1.0 0.0
13.600000000000001 1.0 0.0
14.0 1.0 0.0
14.4 1.0 0.0
14.8 1.0 0.0
15.200000000000001 1.0 0.0
15.600000000000001 1.0 0.0
16.0 1.0 0.0
0.0 1.1 0.0
0.4 1.1 0.0
0.8 1.1 0.0
1.2000000000000002 1.1 0.0
1.6 1.1 0.0
2.0 1.1 0.0
2.4000000000000004 1.1 0.0
2.8000000000000003 1.1 0.0
3.2 1.1 0.0
3.6 1.1 0.0
4.0 1.1 0.0
4.4 1.1 0.0
4.800000000000001 1.1 0.0
5.2 1.1 0.0
5.6000000000000005 1.1 0.0
6.0 1.1 0.0
6.4 1.1 0.0
6.800000000000001 1.1 0.0
7.2 1.1 0.0
7.6000000000000005 1.1 0.0
8.0 1.1 0.0
8.4 1.1 0.0
8.8 1.1 0.0
9.200000000000001 1.1 0.0
9.600000000000001 1.1 0.0
10.0 1.1 0.0
10.4 1.1 0.0
10.8 1.1 0.0
11.200000000000001 1.1 0.0
11.600000000000001 1.1 0.0
12.0 1.1 0.0
12.4 1.1 0.0
12.8 1.1 0.0
13.200000000000001 1.1 0.0
13.600000000000001 1.1 0.0
14.0 1.1 0.0
14.4 1.1 0.0
14.8 1.1 0.0
15.200000000000001 1.1 0.0
15.600000000000001 1.1 0.0
16.0 1.1 0.0
0.0 1.2000000000000002 0.0
0.4 1.2000000000000002 0.0
0.8 1.2000000000000002 0.0
1.2000000000000002 1.2000000000000002 0.0
1.6 1.2000000000000002 0.0
2.0 1.2000000000000002 0.0
2.4000000000000004 1.2000000000000002 0.0
2.8000000000000003 1.2000000000000002 0.0
3.2 1.2000000000000002 0.0
3.6 1.2000000000000002 0.0
4.0 1.2000000000000002 0.0
4.4 1.2000000000000002 0.0
4.800000000000001 1.2000000000000002 0.0
5.2 1.2000000000000002 0.0
5.6000000000000005 1.2000000000000002 0.0
6.0 1.2000000000000002 0.0
6.4 1.2000000000000002 0.0
6.800000000000001 1.2000000000000002 0.0
7.2 1.2000000000000002 0.0
7.6000000000000005 1.2000000000000002 0.0
8.0 1.2000000000000002 0.0
8.4 1.2000000000000002 0.0
8.8 1.2000000000000002 0.0
9.200000000000001 1.2000000000000002 0.0
9.600000000000001 1.2000000000000002 0.0
10.0 1.2000000000000002 0.0
10.4 1.2000000000000002 0.0
10.8 1.2000000000000002 0.0
11.200000000000001 1.2000000000000002 0.0
11.600000000000001 1.2000000000000002 0.0
12.0 1.2000000000000002 0.0
12.4 1.2000000000000002 0.0
12.8 1.2000000000000002 0.0
13.200000000000001 1.2000000000000002 0.0
13.600000000000001 1.2000000000000002 0.0
14.0 1.2000000000000002 0.0
14.4 1.2000000000000002 0.0
14.8 1.2000000000000002 0.0
15.200000000000001 1.2000000000000002 0.0
15.600000000000001 1.2000000000000002 0.0
16.0 1.2000000000000002 0.0
0.0 1.3 0.0
0.4 1.3 0.0
0.8 1.3 0.0
1.2000000000000002 1.3 0.0
1.6 1.3 0.0
2.0 1.3 0.0
2.4000000000000004 1.3 0.0
2.8000000000000003 1.3 0.0
3.2 1.3 0.0
3.6 1.3 0.0
4.0 1.3 0.0
4.4 1.3 0.0
4.800000000000001 1.3 0.0
5.2 1.3 0.0
5.6000000000000005 1.3 0.0
6.0 1.3 0.0
6.4 1.3 0.0
6.800000000000001 1.3 0.0
7.2 1.3 0.0
7.6000000000000005 1.3 0.0
8.0 1.3 0.0
8.4 1.3 0.0
8.8 1.3 0.0
9.200000000000001 1.3 0.0
9.600000000000001 1.3 0.0
10.0 1.3 0.0
10.4 1.3 0.0
10.8 1.3 0.0
11.200000000000001 1.3 0.0
11.600000000000001 1.3 0.0
12.0 1.3 0.0
12.4 1.3 0.0
12.8 1.3 0.0
13.200000000000001 1.3 0.0
13.600000000000001 1.3 0.0
14.0 1.3 0.0
14.4 1.3 0.0
14.8 1.3 0.0
15.200000000000001 1.3 0.0
15.600000000000001 1.3 0.0
16.0 1.3 0.0
0.0 1.4000000000000001 0.0
0.4 1.4000000000000001 0.0
0.8 1.4000000000000001 0.0
1.2000000000000002 1.4000000000000001 0.0
1.6 1.4000000000000001 0.0
2.0 1.4000000000000001 0.0
2.4000000000000004 1.4000000000000001 0.0
2.8000000000000003 1.4000000000000001 0.0
3.2 1.4000000000000001 0.0
3.6 1.4000000000000001 0.0
4.0 1.4000000000000001 0.0
4.4 1.4000000000000001 0.0
4.800000000000001 1.4000000000000001 0.0
5.2 1.4000000000000001 0.0
5.6000000000000005 1.4000000000000001 0.0
6.0 1.4000000000000001 0.0
6.4 1.4000000000000001 0.0
6.800000000000001 1.4000000000000001 0.0
7.2 1.4000000000000001 0.0
7.6000000000000005 1.4000000000000001 0.0
8.0 1.4000000000000001 0.0
8.4 1.4000000000000001 0.0
8.8 1.4000000000000001 0.0
9.200000000000001 1.4000000000000001 0.0
9.600000000000001 1.4000000000000001 0.0
10.0 1.4000000000000001 0.0
10.4 1.4000000000000001 0.0
10.8 1.4000000000000001 0.0
11.200000000000001 1.4000000000000001 0.0
11.600000000000001 1.4000000000000001 0.0
12.0 1.4000000000000001 0.0
12.4 1.4000000000000001 0.0
12.8 1.4000000000000001 0.0
13.200000000000001 1.4000000000000001 0.0
13.600000000000001 1.4000000000000001 0.0
14.0 1.4000000000000001 0.0
14.4 1.4000000000000001 0.0
14.8 1.4000000000000001 0.0
15.200000000000001 1.4000000000000001 0.0
15.600000000000001 1.4000000000000001 0.0
16.0 1.4000000000000001 0.0
0.0 1.5 0.0
0.4 1.5 0.0
0.8 1.5 0.0
1.2000000000000002 1.5 0.0
1.6 1.5 0.0
2.0 1.5 0.0
2.4000000000000004 1.5 0.0
2.8000000000000003 1.5 0.0
3.2 1.5 0.0
3.6 1.5 0.0
4.0 1.5 0.0
4.4 1.5 0.0
4.800000000000001 1.5 0.0
5.2 1.5 0.0
5.6000000000000005 1.5 0.0
6.0 1.5 0.0
6.4 1.5 0.0
6.800000000000001 1.5 0.0
7.2 1.5 0.0
7.6000000000000005 1.5 0.0
8.0 1.5 0.0
8.4 1.5 0.0
8.8 1.5 0.0
9.200000000000001 1.5 0.0
9.600000000000001 1.5 0.0
10.0 1.5 0.0
10.4 1.5 0.0
10.8 1.5 0.0
11.200000000000001 1.5 0.0
11.600000000000001 1.5 0.0
12.0 1.5 0.0
12.4 1.5 0.0
12.8 1.5 0.0
13.200000000000001 1.5 0.0
13.600000000000001 1.5 0.0
14.0 1.5 0.0
14.4 1.5 0.0
14.8 1.5 0.0
15.200000000000001 1.5 0.0
15.600000000000001 1.5 0.0
16.0 1.5 0.0
0.0 1.6 0.0
0.4 1.6 0.0
0.8 1.6 0.0
1.2000000000000002 1.6 0.0
1.6 1.6 0.0
2.0 1.6 0.0
2.4000000000000004 1.6 0.0
2.8000000000000003 1.6 0.0
3.2 1.6 0.0
3.6 1.6 0.0
4.0 1.6 0.0
4.4 1.6 0.0
4.800000000000001 1.6 0.0
5.2 1.6 0.0
5.6000000000000005 1.6 0.0
6.0 1.6 0.0
6.4 1.6 0.0
6.800000000000001 1.6 0.0
7.2 1.6 0.0
7.6000000000000005 1.6 0.0
8.0 1.6 0.0
8.4 1.6 0.0
8.8 1.6 0.0
9.200000000000001 1.6 0.0
9.600000000000001 1.6 0.0
10.0 1.6 0.0
10.4 1.6 0.0
10.8 1.6 0.0
11.200000000000001 1.6 0.0
11.600000000000001 1.6 0.0
12.0 1.6 0.0
12.4 1.6 0.0
12.8 1.6 0.0
13.200000000000001 1.6 0.0
13.600000000000001 1.6 0.0
14.0 1.6 0.0
14.4 1.6 0.0
14.8 1.6 0.0
15.200000000000001 1.6 0.0
15.600000000000001 1.6 0.0
16.0 1.6 0.0
0.0 1.7000000000000002 0.0
0.4 1.7000000000000002 0.0
0.8 1.7000000000000002 0.0
1.2000000000000002 1.7000000000000002 0.0
1.6 1.7000000000000002 0.0
2.0 1.7000000000000002 0.0
2.4000000000000004 1.7000000000000002 0.0
2.8000000000000003 1.7000000000000002 0.0
3.2 1.7000000000000002 0.0
3.6 1.7000000000000002 0.0
4.0 1.7000000000000002 0.0
4.4 1.7000000000000002 0.0
4.800000000000001 1.7000000000000002 0.0
5.2 1.7000000000000002 0.0
5.6000000000000005 1.7000000000000002 0.0
6.0 1.7000000000000002 0.0
6.4 1.7000000000000002 0.0
6.800000000000001 1.7000000000000002 0.0
7.2 1.7000000000000002 0.0
7.6000000000000005 1.7000000000000002 0.0
8.0 1.7000000000000002 0.0
8.4 1.7000000000000002 0.0
8.8 1.7000000000000002 0.0
9.200000000000001 1.7000000000000002 0.0
9.600000000000001 1.7000000000000002 0.0
10.0 1.7000000000000002 0.0
10.4 1.7000000000000002 0.0
10.8 1.7000000000000002 0.0
11.200000000000001 1.7000000000000002 0.0
11.600000000000001 1.7000000000000002 0.0
12.0 1.7000000000000002 0.0
12.4 1.7000000000000002 0.0
12.8 1.7000000000000002 0.0
13.200000000000001 1.7000000000000002 0.0
13.600000000000001 1.7000000000000002 0.0
14.0 1.7000000000000002 0.0
14.4 1.7000000000000002 0.0
14.8 1.7000000000000002 0.0
15.200000000000001 1.7000000000000002 0.0
15.600000000000001 1.7000000000000002 0.0
16.0 1.7000000000000002 0.0
0.0 1.8 0.0
0.4 1.8 0.0
0.8 1.8 0.0
1.2000000000000002 1.8 0.0
1.6 1.8 0.0
2.0 1.8 0.0
2.4000000000000004 1.8 0.0
2.8000000000000003 1.8 0.0
3.2 1.8 0.0
3.6 1.8 0.0
4.0 1.8 0.0
4.4 1.8 0.0
4.800000000000001 1.8 0.0
5.2 1.8 0.0
5.6000000000000005 1.8 0.0
6.0 1.8 0.0
6.4 1.8 0.0
6.800000000000001 1.8 0.0
7.2 1.8 0.0
7.6000000000000005 1.8 0.0
8.0 1.8 0.0
8.4 1.8 0.0
8.8 1.8 0.0
9.200000000000001 1.8 0.0
9.600000000000001 1.8 0.0
10.0 1.8 0.0
10.4 1.8 0.0
10.8 1.8 0.0
11.200000000000001 1.8 0.0
11.600000000000001 1.8 0.0
12.0 1.8 0.0
12.4 1.8 0.0
12.8 1.8 0.0
13.200000000000001 1.8 0.0
13.600000000000001 1.8 0.0
14.0 1.8 0.0
14.4 1.8 0.0
14.8 1.8 0.0
15.200000000000001 1.8 0.0
15.600000000000001 1.8 0.0
16.0 1.8 0.0
0.0 1.9000000000000001 0.0
0.4 1.9000000000000001 0.0
0.8 1.9000000000000001 0.0
1.2000000000000002 1.9000000000000001 0.0
1.6 1.9000000000000001 0.0
2.0 1.9000000000000001 0.0
2.4000000000000004 1.9000000000000001 0.0
2.8000000000000003 1.9000000000000001 0.0
3.2 1.9000000000000001 0.0
3.6 1.9000000000000001 0.0
4.0 1.9000000000000001 0.0
4.4 1.9000000000000001 0.0
4.800000000000001 1.9000000000000001 0.0
5.2 1.9000000000000001 0.0
5.6000000000000005 1.9000000000000001 0.0
6.0 1.9000000000000001 0.0
6.4 1.9000000000000001 0.0
6.800000000000001 1.9000000000000001 0.0
7.2 1.9000000000000001 0.0
7.6000000000000005 1.9000000000000001 0.0
8.0 1.9000000000000001 0.0
8.4 1.9000000000000001 0.0
8.8 1.9000000000000001 0.0
9.200000000000001 1.9000000000000001 0.0
9.600000000000001 1.9000000000000001 0.0
10.0 1.9000000000000001 0.0
10.4 1.9000000000000001 0.0
10.8 1.9000000000000001 0.0
11.200000000000001 1.9000000000000001 0.0
11.600000000000001 1.9000000000000001 0.0
12.0 1.9000000000000001 0.0
12.4 1.9000000000000001 0.0
12.8 1.9000000000000001 0.0
13.200000000000001 1.9000000000000001 0.0
13.600000000000001 1.9000000000000001 0.0
14.0 1.9000000000000001 0.0
14.4 1.9000000000000001 0.0
14.8 1.9000000000000001 0.0
15.200000000000001 1.9000000000000001 0.0
15.600000000000001 1.9000000000000001 0.0
16.0 1.9000000000000001 0.0
0.0 2.0 0.0
0.4 2.0 0.0
0.8 2.0 0.0
1.2000000000000002 2.0 0.0
1.6 2.0 0.0
2.0 2.0 0.0
2.4000000000000004 2.0 0.0
2.8000000000000003 2.0 0.0
3.2 2.0 0.0
3.6 2.0 0.0
4.0 2.0 0.0
4.4 2.0 0.0
4.800000000000001 2.0 0.0
5.2 2.0 0.0
5.6000000000000005 2.0 0.0
6.0 2.0 0.0
6.4 2.0 0.0
6.800000000000001 2.0 0.0
7.2 2.0 0.0
7.6000000000000005 2.0 0.0
8.0 2.0 0.0
8.4 2.0 0.0
8.8 2.0 0.0
9.200000000000001 2.0 0.0
9.600000000000001 2.0 0.0
10.0 2.0 0.0
10.4 2.0 0.0
10.8 2.0 0.0
11.200000000000001 2.0 0.0
11.600000000000001 2.0 0.0
12.0 2.0 0.0
12.4 2.0 0.0
12.8 2.0 0.0
13.200000000000001 2.0 0.0
13.600000000000001 2.0 0.0
14.0 2.0 0.0
14.4 2.0 0.0
14.8 2.0 0.0
15.200000000000001 2.0 0.0
15.600000000000001 2.0 0.0
16.0 2.0 0.0
CELLS 800 4000
4 0 1 42 41
4 1 2 43 42
4 2 3 44 43
4 3 4 45 44
4 4 5 46 45
4 5 6 47 46
4 6 7 48 47
4 7 8 49 48
4 8 9 50 49
4 9 10 51 50
4 10 11 52 51
4 11 12 53 52
4 12 13 54 53
4 13 14 55 54
4 14 15 56 55
4 15 16 57 56
4 16 17 58 57
4 17 18 59 58
4 18 19 60 59
4 19 20 61 60
4 20 21 62 61
4 21 22 63 62
4 22 23 64 63
4 23 24 65 64
4 24 25 66 65
4 25 26 67 66
4 26 27 68 67
4 27 28 69 68
4 28 29 70 69
4 29 30 71 70
4 30 31 72 71
4 31 32 73 72
4 32 33 74 73
4 33 34 75 74
4 34 35 76 75
4 35 36 77 76
4 36 37 78 77
4 37 38 79 78
4 38 39 80 79
4 39 40 81 80
4 41 42 83 82
4 42 43 84 83
4 43 44 85 84
4 44 45 86 85
4 45 46 87 86
4 46 47 88 87
4 47 48 89 88
4 48 49 90 89
4 49 50 91 90
4 50 51 92 91
4 51 52 93 92
4 52 53 94 93
4 53 54 95 94
4 54 55 96 95
4 55 56 97 96
4 56 57 98 97
4 57 58 99 98
4 58 59 100 99
4 59 60 101 100
4 60 61 102 101
4 61 62 103 102
4 62 63 104 103
4 63 64 105 104
4 64 65 106 105
4 65 66 107 106
4 66 67 108 107
4 67 68 109 108
4 68 69 110 109
4 69 70 111 110
4 70 71 112 111
4 71 72 113 112
4 72 73 114 113
4 73 74 115 114
4 74 75 116 115
4 75 76 117 116
4 76 77 118 117
4 77 78 119 118
4 78 79 120 119
4 79 80 121 120
4 80 81 122 121
4 82 83 124 123
4 83 84 125 124
4 84 85 126 125
4 85 86 127 126
4 86 87 128 127
4 87 88 129 128
4 88 89 130 129
4 89 90 131 130
4 90 91 132 131
4 91 92 133 132
4 92 93 134 133
4 93 94 135 134
4 94 95 136 135
4 95 96 137 136
4 96 97 138 137
4 97 98 139 138
4 98 99 140 139
4 99 100 141 140
4 100 101 142 141
4 101 102 143 142
4 102 103 144 143
4 103 104 145 144
4 104 105 146 145
4 105 106 147 146
4 106 107 148 147
4 107 108 149 148
4 108 109 150 149
4 109 110 151 150
4 110 111 152 151
4 111 112 153 152
4 112 113 154 153
4 113 114 155 154
4 114 115 156 155
4 115 116 157 156
4 116 117 158 157
4 117 118 159 158
4 118 119 160 159
4 119 120 161 160
4 120 121 162 161
4 121 122 163 162
4 123 124 165 164
4 124 125 166 165
4 125 126 167 166
4 126 127 168 167
4 127 128 169 168
4 128 129 170 169
4 129 130 171 170
4 130 131 172 171
4 131 132 173 172
4 132 133 174 173
4 133 134 175 174
4 134 135 176 175
4 135 136 177 176
4 136 137 178 177
4 137 138 179 178
4 138 139 180 179
4 139 140 181 180
4 140 141 182 181
4 141 142 183 182
4 142 143 184 183
4 143 144 185 184
4 144 145 186 185
4 145 146 187 186
4 146 147 188 187
4 147 148 189 188
4 148 149 190 189
4 149 150 191 190
4 150 151 192 191
4 151 152 193 192
4 152 153 194 193
4 153 154 195 194
4 154 155 196 195
4 155 156 197 196
4 156 157 198 197
4 157 158 199 198
4 158 159 200 199
4 159 160 201 200
4 160 161 202 201
4 161 162 203 202
4 162 163 204 203
4 164 165 206 205
4 165 166 207 206
4 166 167 208 207
4 167 168 209 208
4 168 169 210 209
4 169 170 211 210
4 170 171 212 211
4 171 172 213 212
4 172 173 214 213
4 173 174 215 214
4 174 175 216 215
4 175 176 217 216
4 176 177 218 217
4 177 178 219 218
4 178 179 220 219
4 179 180 221 220
4 180 181 222 221
4 181 182 223 222
4 182 183 224 223
4 183 184 225 224
4 184 185 226 225
4 185 186 227 226
4 186 187 228 227
4 187 188 229 228
4 188 189 230 229
4 189 190 231 230
4 190 191 232 231
4 191 192 233 232
4 192 193 234 233
4 193 194 235 234
4 194 195 236 235
4 195 196 237 236
4 196 197 238 237
4 197 198 239 238
4 198 199 240 239
4 199 200 241 240
4 200 201 242 241
4 201 202 243 242
4 202 203 244 243
4 203 204 245 244
4 205 206 247 246
4 206 207 248 247
4 207 208 249 248
4 208 209 250 249
4 209 210 251 250
4 210 211 252 251
4 211 212 253 252
4 212 213 254 253
4 213 214 255 254
4 214 215 256 255
4 215 216 257 256
4 216 217 258 257
4 217 218 259 258
4 218 219 260 259
4 219 220 261 260
4 220 221 262 261
4 221 222 263 262
4 222 223 264 263
4 223 224 265 264
4 224 225 266 265
4 225 226 267 266
4 226 227 268 267
4 227 228 269 268
4 228 229 270 269
4 229 230 271 270
4 230 231 272 271
4 231 232 273 272
4 232 233 274 273
4 233 234 275 274
4 234 235 276 275
4 235 236 277 276
4 236 237 278 277
4 237 238 279 278
4 238 239 280 279
4 239 240 281 280
4 240 241 282 281
4 241 242 283 282
4 242 243 284 283
4 243 244 285 284
4 244 245 286 285
4 246 247 288 287
4 247 248 289 288
4 248 249 290 289
4 249 250 291 290
4 250 251 292 291
4 251 252 293 292
4 252 253 294 293
4 253 254 295 294
4 254 255 296 295
4 255 256 297 296
4 256 257 298 297
4 257 258 299 298
4 258 259 300 299
4 259 260 301 300
4 260 261 302 301
4 261 262 303 302
4 262 263 304 303
4 263 264 305 304
4 264 265 306 305
4 265 266 307 306
4 266 267 308 307
4 267 268 309 308
4 268 269 310 309
4 269 270 311 310
4 270 271 312 311
4 271 272 313 312
4 272 273 314 313
4 273 274 315 314
4 274 275 316 315
4 275 276 317 316
4 276 277 318 317
4 277 278 319 318
4 278 279 320 319
4 279 280 321 320
4 280 281 322 321
4 281 282 323 322
4 282 283 324 323
4 283 284 325 324
4 284 285 326 325
4 285 286 327 326
4 287 288 329 328
4 288 289 330 329
4 289 290 331 330
4 290 291 332 331
4 291 292 333 332
4 292 293 334 333
4 293 294 335 334
4 294 295 336 335
4 295 296 337 336
4 296 297 338 337
4 297 298 339 338
4 298 299 340 339
4 299 300 341 340
4 300 301 342 341
4 301 302 343 342
4 302 303 344 343
4 303 304 345 344
4 304 305 346 345
4 305 306 347 346
4 306 307 348 347
4 307 308 349 348
4 308 309 350 349
4 309 310 351 350
4 310 311 352 351
4 311 312 353 352
4 312 313 354 353
4 313 314 355 354
4 314 315 356 355
4 315 316 357 356
4 316 317 358 357
4 317 318 359 358
4 318 319 360 359
4 319 320 361 360
4 320 321 362 361
4 321 322 363 362
4 322 323 364 363
4 323 324 365 364
4 324 325 366 365
4 325 326 367 366
4 326 327 368 367
4 328 329 370 369
4 329 330 371 370
4 330 331 372 371
4 331 332 373 372
4 332 333 374 373
4 333 334 375 374
4 334 335 376 375
4 335 336 377 376
4 336 337 378 377
4 337 338 379 378
4 338 339 380 379
4 339 340 381 380
4 340 341 382 381
4 341 342 383 382
4 342 343 384 383
4 343 344 385 384
4 344 345 386 385
4 345 346 387 386
4 346 347 388 387
4 347 348 389 388
4 348 349 390 389
4 349 350 391 390
4 350 351 392 391
4 351 352 393 392
4 352 353 394 393
4 353 354 395 394
4 354 355 396 395
4 355 356 397 396
4 356 357 398 397
4 357 358 399 398
4 358 359 400 399
4 359 360 401 400
4 360 361 402 401
4 361 362 403 402
4 362 363 404 403
4 363 364 405 404
4 364 365 406 405
4 365 366 407 406
4 366 367 408 407
4 367 368 409 408
4 369 370 411 410
4 370 371 412 411
4 371 372 413 412
4 372 373 414 413
4 373 374 415 414
4 374 375 416 415
4 375 376 417 416
4 376 377 418 417
4 377 378 419 418
4 378 379 420 419
4 379 380 421 420
4 380 381 422 421
4 381 382 423 422
4 382 383 424 423
4 383 384 425 424
4 384 385 426 425
4 385 386 427 426
4 386 387 428 427
4 387 388 429 428
4 388 389 430 429
4 389 390 431 430
4 390 391 432 431
4 391 392 433 432
4 392 393 434 433
4 393 394 435 434
4 394 395 436 435
4 395 396 437 436
4 396 397 438 437
4 397 398 439 438
4 398 399 440 439
4 399 400 441 440
4 400 401 442 441
4 401 402 443 442
4 402 403 444 443
4 403 404 445 444
4 404 405 446 445
4 405 406 447 446
4 406 407 448 447
4 407 408 449 448
4 408 409 450 449
4 410 411 452 451
4 411 412 453 452
4 412 413 454 453
4 413 414 455 454
4 414 415 456 455
4 415 416 457 456
4 416 417 458 457
4 417 418 459 458
4 418 419 460 459
4 419 420 461 460
4 420 421 462 461
4 421 422 463 462
4 422 423 464 463
4 423 424 465 464
4 424 425 466 465
4 425 426 467 466
4 426 427 468 467
4 427 428 469 468
4 428 429 470 469
4 429 430 471 470
4 430 431 472 471
4 431 432 473 472
4 432 433 474 473
4 433 434 475 474
4 434 435 476 475
4 435 436 477 476
4 436 437 478 477
4 437 438 479 478
4 438 439 480 479
4 439 440 481 480
4 440 441 482 481
4 441 442 483 482
4 442 443 484 483
4 443 444 485 484
4 444 445 486 485
4 445 446 487 486
4 446 447 488 487
4 447 448 489 488
4 448 449 490 489
4 449 450 491 490
4 451 452 493 492
4 452 453 494 493
4 453 454 495 494
4 454 455 496 495
4 455 456 497 496
4 456 457 498 497
4 457 458 499 498
4 458 459 500 499
4 459 460 501 500
4 460 461 502 501
4 461 462 503 502
4 462 463 504 503
4 463 464 505 504
4 464 465 506 505
4 465 466 507 506
4 466 467 508 507
4 467 468 509 508
4 468 469 510 509
4 469 470 511 510
4 470 471 512 511
4 471 472 513 512
4 472 473 514 513
4 473 474 515 514
4 474 475 516 515
4 475 476 517 516
4 476 477 518 517
4 477 478 519 518
4 478 479 520 519
4 479 480 521 520
4 480 481 522 521
4 481 482 523 522
4 482 483 524 523
4 483 484 525 524
4 484 485 526 525
4 485 486 527 526
4 486 487 528 527
4 487 488 529 528
4 488 489 530 529
4 489 490 531 530
4 490 491 532 531
4 492 493 534 533
4 493 494 535 534
4 494 495 536 535
4 495 496 537 536
4 496 497 538 537
4 497 498 539 538
4 498 499 540 539
4 499 500 541 540
4 500 501 542 541
4 501 502 543 542
4 502 503 544 543
4 503 504 545 544
4 504 505 546 545
4 505 506 547 546
4 506 507 548 547
4 507 508 549 548
4 508 509 550 549
4 509 510 551 550
4 510 511 552 551
4 511 512 553 552
4 512 513 554 553
4 513 514 555 554
4 514 515 556 555
4 515 516 557 556
4 516 517 558 557
4 517 518 559 558
4 518 519 560 559
4 519 520 561 560
4 520 521 562 561
4 521 522 563 562
4 522 523 564 563
4 523 524 565 564
4 524 525 566 565
4 525 526 567 566
4 526 527 568 567
4 527 528 569 568
4 528 529 570 569
4 529 530 571 570
4 530 531 572 571
4 531 532 573 572
4 533 534 575 574
4 534 535 576 575
4 535 536 577 576
4 536 537 578 577
4 537 538 579 578
4 538 539 580 579
4 539 540 581 580
4 540 541 582 581
4 541 542 583 582
4 542 543 584 583
4 543 544 585 584
4 544 545 586 585
4 545 546 587 586
4 546 547 588 587
4 547 548 589 588
4 548 549 590 589
4 549 550 591 590
4 550 551 592 591
4 551 552 593 592
4 552 553 594 593
4 553 554 595 594
4 554 555 596 595
4 555 556 597 596
4 556 557 598 597
4 557 558 599 598
4 558 559 600 599
4 559 560 601 600
4 560 561 602 601
4 561 562 603 602
4 562 563 604 603
4 563 564 605 604
4 564 565 606 605
4 565 566 607 606
4 566 567 608 607
4 567 568 609 608
4 568 569 610 609
4 569 570 611 610
4 570 571 612 611
4 571 572 613 612
4 572 573 614 613
4 574 575 616 615
4 575 576 617 616
4 576 577 618 617
4 577 578 619 618
4 578 579 620 619
4 579 580 621 620
4 580 581 622 621
4 581 582 623 622
4 582 583 624 623
4 583 584 625 624
4 584 585 626 625
4 585 586 627 626
4 586 587 628 627
4 587 588 629 628
4 588 589 630 629
4 589 590 631 630
4 590 591 632 631
4 591 592 633 632
4 592 593 634 633
4 593 594 635 634
4 594 595 636 635
4 595 596 637 636
4 596 597 638 637
4 597 598 639 638
4 598 599 640 639
4 599 600 641 640
4 600 601 642 641
4 601 602 643 642
4 602 603 644 643
4 603 604 645 644
4 604 605 646 645
4 605 606 647 646
4 606 607 648 647
4 607 608 649 648
4 608 609 650 649
4 609 610 651 650
4 610 611 652 651
4 611 612 653 652
4 612 613 654 653
4 613 614 655 654
4 615 616 657 656
4 616 617 658 657
4 617 618 659 658
4 618 619 660 659
4 619 620 661 660
4 620 621 662 661
4 621 622 663 662
4 622 623 664 663
4 623 624 665 664
4 624 625 666 665
4 625 626 667 666
4 626 627 668 667
4 627 628 669 668
4 628 629 670 669
4 629 630 671 670
4 630 631 672 671
4 631 632 673 672
4 632 633 674 673
4 633 634 675 674
4 634 635 676 675
4 635 636 677 676
4 636 637 678 677
4 637 638 679 678
4 638 639 680 679
4 639 640 681 680
4 640 641 682 681
4 641 642 683 682
4 642 643 684 683
4 643 644 685 684
4 644 645 686 685
4 645 646 687 686
4 646 647 688 687
4 647 648 689 688
4 648 649 690 689
4 649 650 691 690
4 650 651 692 691
4 651 652 693 692
4 652 653 694 693
4 653 654 695 694
4 654 655 696 695
4 656 657 698 697
4 657 658 699 698
4 658 659 700 699
4 659 660 701 700
4 660 661 702 701
4 661 662 703 702
4 662 663 704 703
4 663 664 705 704
4 664 665 706 705
4 665 666 707 706
4 666 667 708 707
4 667 668 709 708
4 668 669 710 709
4 669 670 711 710
4 670 671 712 711
4 671 672 713 712
4 672 673 714 713
4 673 674 715 714
4 674 675 716 715
4 675 676 717 716
4 676 677 718 717
4 677 678 719 718
4 678 679 720 719
4 679 680 721 720
4 680 681 722 721
4 681 682 723 722
4 682 683 724 723
4 683 684 725 724
4 684 685 726 725
4 685 686 727 726
4 686 687 728 727
4 687 688 729 728
4 688 689 730 729
4 689 690 731 730
4 690 691 732 731
4 691 692 733 732
4 692 693 734 733
4 693 694 735 734
4 694 695 736 735
4 695 696 737 736
4 697 698 739 738
4 698 699 740 739
4 699 700 741 740
4 700 701 742 741
4 701 702 743 742
4 702 703 744 743
4 703 704 745 744
4 704 705 746 745
4 705 706 747 746
4 706 707 748 747
4 707 708 749 748
4 708 709 750 749
4 709 710 751 750
4 710 711 752 751
4 711 712 753 752
4 712 713 754 753
4 713 714 755 754
4 714 715 756 755
4 715 716 757 756
4 716 717 758 757
4 717 718 759 758
4 718 719 760 759
4 719 720 761 760
4 720 721 762 761
4 721 722 763 762
4 722 723 764 763
4 723 724 765 764
4 724 725 766 765
4 725 726 767 766
4 726 727 768 767
4 727 728 769 768
4 728 729 770 769
4 729 730 771 770
4 730 731 772 771
4 731 732 773 772
4 732 733 774 773
4 733 734 775 774
4 734 735 776 775
4 735 736 777 776
4 736 737 778 777
4 738 739 780 779
4 739 740 781 780
4 740 741 782 781
4 741 742 783 782
4 742 743 784 783
4 743 744 785 784
4 744 745 786 785
4 745 746 787 786
4 746 747 788 787
4 747 748 789 788
4 748 749 790 789
4 749 750 791 790
4 750 751 792 791
4 751 752 793 792
4 752 753 794 793
4 753 754 795 794
4 754 755 796 795
4 755 756 797 796
4 756 757 798 797
4 757 758 799 798
4 758 759 800 799
4 759 760 801 800
4 760 761 802 801
4 761 762 803 802
4 762 763 804 803
4 763 764 805 804
4 764 765 806 805
4 765 766 807 806
4 766 767 808 807
4 767 768 809 808
4 768 769 810 809
4 769 770 811 810
4 770 771 812 811
4 771 772 813 812
4 772 773 814 813
4 773 774 815 814
4 774 775 816 815
4 775 776 817 816
4 776 777 818 817
4 777 778 819 818
4 779 780 821 820
4 780 781 822 821
4 781 782 823 822
4 782 783 824 823
4 783 784 825 824
4 784 785 826 825
4 785 786 827 826
4 786 787 828 827
4 787 788 829 828
4 788 789 830 829
4 789 790 831 830
4 790 791 832 831
4 791 792 833 832
4 792 793 834 833
4 793 794 835 834
4 794 795 836 835
4 795 796 837 836
4 796 797 838 837
4 797 798 839 838
4 798 799 840 839
4 799 800 841 840
4 800 801 842 841
4 801 802 843 842
4 802 803 844 843
4 803 804 845 844
4 804 805 846 845
4 805 806 847 846
4 806 807 848 847
4 807 808 849 848
4 808 809 850 849
4 809 810 851 850
4 810 811 852 851
4 811 812 853 852
4 812 813 854 853
4 813 814 855 854
4 814 815 856 855
4 815 816 857 856
4 816 817 858 857
4 817 818 859 858
4 818 819 860 859
CELL_TYPES 800
9
9
9
9
9
9
9
9
9
9
9
9
9
9
9
9
9
9
9
9
9
9
9
9
9
9
9
9
9
9
9
9
9
9
9
9
9
9
9
9
9
9
9
9
9
9
9
9
9
9
9
9
9
9
9
9
9
9
9
9
9
9
9
9
9
9
9
9
9
9
9
9
9
9
9
9
9
9
9
9
9
9
9
9
9
9
9
9
9
9
9
9
9
9
9
9
9
9
9
9
9
9
9
9
9
9
9
9
9
9
9
9
9
9
9
9
9
9
9
9
9
9
9
9
9
9
9
9
9
9
9
9
9
9
9
9
9
9
9
9
9
9
9
9
9
9
9
9
9
9
9
9
9
9
9
9
9
9
9
9
9
9
9
9
9
9
9
9
9
9
9
9
9
9
9
9
9
9
9
9
9
9
9
9
9
9
9
9
9
9
9
9
9
9
9
9
9
9
9
9
9
9
9
9
9
9
9
9
9
9
9
9
9
9
9
9
9
9
9
9
9
9
9
9
9
9
9
9
9
9
9
9
9
9
9
9
9
9
9
9
9
9
9
9
9
9
9
9
9
9
9
9
9
9
9
9
9
9
9
9
9
9
9
9
9
9
9
9
9
9
9
9
9
9
9
9
9
9
9
9
9
9
9
9
9
9
9
9
9
9
9
9
9
9
9
9
9
9
9
9
9
9
9
9
9
9
9
9
9
9
9
9
9
9
9
9
9
9
9
9
9
9
9
9
9
9
9
9
9
9
9
9
9
9
9
9
9
9
9
9
9
9
9
9
9
9
9
9
9
9
9
9
9
9
9
9
9
9
9
9
9
9
9
9
9
9
9
9
9
9
9
9
9
9
9
9
9
9
9
9
9
9
9
9
9
9
9
9
9
9
9
9
9
9
9
9
9
9
9
9
9
9
9
9
9
9
9
9
9
9
9
9
9
9
9
9
9
9
9
9
9
9
9
9
9
9
9
9
9
9
9
9
9
9
9
9
9
9
9
9
9
9
9
9
9
9
9
9
9
9
9
9
9
9
9
9
9
9
9
9
9
9
9
9
9
9
9
9
9
9
9
9
9
9
9
9
9
9
9
9
9
9
9
9
9
9
9
9
9
9
9
9
9
9
9
9
9
9
9
9
9
9
9
9
9
9
9
9
9
9
9
9
9
9
9
9
9
9
9
9
9
9
9
9
9
9
9
9
9
9
9
9
9
9
9
9
9
9
9
9
9
9
9
9
9
9
9
9
9
9
9
9
9
9
9
9
9
9
9
9
9
9
9
9
9
9
9
9
9
9
9
9
9
9
9
9
9
9
9
9
9
9
9
9
9
9
9
9
9
9
9
9
9
9
9
9
9
9
9
9
9
9
9
9
9
9
9
9
9
9
9
9
9
9
9
9
9
9
9
9
9
9
9
9
9
9
9
9
9
9
9
9
9
9
9
9
9
9
9
9
9
9
9
9
9
9
9
9
9
9
9
9
9
9
9
9
9
9
9
9
9
9
9
9
9
9
9
9
9
9
9
9
9
9
9
9
9
9
9
9
9
9
9
9
9
9
9
9
9
9
9
9
9
9
9
9
9
9
9
9
9
9
9
9
9
9
9
9
9
9
9
9
9
9
9
9
9
9
9
9
9
9
9
9
9
9
9
9
9
9
9
9
9
9
9
9
9
9
9
9
9
9
9
9
9
9
9
9
9
9
9
9
9
9
9
9
9
9
9
9
9
9
9
9
9
9
9
9
9
9
9
9
9
9
9
9
9
9
9
9
9
9
9
9
9
9
9
9
9
9
9
9
9
9
9
9
9
9
9
9
POINT_DATA 861
SCALARS Disp float 2
LOOKUP_TABLE default
0.0 0.0
0.005226744812644505 -0.1969053274300977
0.006416585588366905 -0.38541510495739567
0.007173377059232825 -0.57302652720352
0.008116625832619975 -0.7603114121903196
0.009550319156996372 -0.9469415670694618
0.01195368962505185 -1.1324897324726846
0.015886549155581766 -1.316426338583809
0.021999618822937914 -1.4980945865116637
0.03099884784912397 -1.6766491902421603
0.043597343452523564 -1.850956119556246
0.060494801443893305 -2.0195200979505863
0.08237070122533242 -2.180487140507589
0.10987648765628381 -2.3317230441709564
0.14363604129206264 -2.470879308298417
0.18417976698625438 -2.595442347184983
0.2318195754634596 -2.702790141827401
0.2864914474668049 -2.7902867404137157
0.34761321224738834 -2.8554582820385863
0.4140151070654682 -2.8962313611923904
0.48380825388419274 -2.911177753662583
0.5536014007029139 -2.896231361192302
0.6200032955209805 -2.855458282038406
0.6811250603015411 -2.790286740413456
0.7357969323048577 -2.7027901418270748
0.7834367407820318 -2.5954423471846106
0.8239804664761917 -2.4708793082980085
0.8577400201119395 -2.3317230441705243
0.8852458065428591 -2.180487140507145
0.9071217063242673 -2.0195200979501453
0.9240191643156098 -1.85095611955582
0.9366176599189867 -1.6766491902417586
0.9456168889451554 -1.498094586511292
0.951729958612498 -1.3164263385834731
0.9556628181430188 -1.132489732472388
0.9580661886110688 -0.94694156706921
0.9594998819354427 -0.7603114121901127
0.9604431307088291 -0.5730265272033609
0.9611999221796947 -0.3854151049572835
0.9623897629554161 -0.19690532743003458
0.9676165077680573 0.0
0.04912031330004552 -0.0022114672973865697
0.05272541684659435 -0.19711557913948968
0.05335860548698854 -0.3854761695175461
0.05403356189747646 -0.5731116076792309
0.05486834226601011 -0.7604361191630069
0.05609714010549002 -0.9472000548860917
0.058172076050877035 -1.1330093364980636
0.06162311735328645 -1.3173566299515034
0.06706205838831786 -1.4996018936754267
0.07513344547737363 -1.6789020899591427
0.08647293848813357 -1.8541190280760613
0.1016899713256095 -2.0237528648237295
0.12137958690380453 -2.1859466547835336
0.14613618326663486 -2.338562885124534
0.17653181109930846 -2.479243081340662
0.21306239711240035 -2.6054402526096094
0.25603115969430906 -2.714463443566713
0.3054072579915782 -2.8035704530897783
0.3606964439760036 -2.8701514105964896
0.4208120200259757 -2.9119764028711232
0.48380825388418197 -2.9273515171607127
0.5468044877423845 -2.911976402871033
0.6069200637923445 -2.8701514105963053
0.66220924977675 -2.803570453089512
0.711585348073994 -2.7144634435663804
0.7545541106558752 -2.60544025260923
0.7910846966689385 -2.4792430813402464
0.8214803245015838 -2.3385628851240936
0.8462369208643857 -2.185946654783082
0.865926536442553 -2.023752864823282
0.8811435692800044 -1.8541190280756292
0.8924830622907438 -1.6789020899587366
0.9005544493797836 -1.4996018936750513
0.9059933904148028 -1.317356629951165
0.909444431717204 -1.1330093364977654
0.9115193676625863 -0.9472000548858391
0.9127481655020643 -0.7604361191627997
0.9135829458705975 -0.5731116076790717
0.914257902281085 -0.38547616951743385
0.9148910909214792 -0.1971155791394263
0.9184961944680229 -0.002211467297384141
0.09733398656570993 -0.003954566448437119
0.09995508984553071 -0.19721791114058296
0.10032096999128794 -0.3855113481991941
0.10087271036155307 -0.5731870364038218
0.10160715053185479 -0.7605377780194487
0.10265213687663007 -0.947404912838331
0.10440431887563222 -1.133438543629813
0.10737529054763477 -1.3181517838038737
0.11212900052451696 -1.5009179267915742
0.11925156802461014 -1.6808915140080791
0.12930451166933357 -1.8569263866478916
0.14281565009339026 -2.027516393005144
0.1602983594185504 -2.19080452051505
0.18227570780395683 -2.3446552341416225
0.20927214198808106 -2.4867022157027745
0.2417464404366165 -2.614370434409397
0.2800000620132446 -2.7249097959136455
0.32405207792302293 -2.8154843963241993
0.3734974468960812 -2.883357580147316
0.4273241530993222 -2.9261215858887857
0.48380825388417154 -2.9418886711472547
0.5402923546690173 -2.9261215858886933
0.5941190608722474 -2.883357580147128
0.6435644298452878 -2.8154843963239276
0.6876164457550444 -2.7249097959133066
0.725870067331648 -2.614370434409011
0.7583443657801583 -2.486702215702352
0.7853407999642571 -2.3446552341411757
0.8073181483496383 -2.190804520514592
0.824800857674774 -2.0275163930046904
0.8383119960988086 -1.8569263866474544
0.848364939743514 -1.6808915140076686
0.8554875072435927 -1.500917926791196
0.8602412172204639 -1.3181517838035333
0.8632121888924592 -1.1334385436295134
0.8649643708914576 -0.9474049128380777
0.8660093572362313 -0.7605377780192414
0.8667437974065326 -0.5731870364036628
0.8672955377767978 -0.38551134819908184
0.867661417922555 -0.19721791114051926
0.8702825212023707 -0.003954566448432078
0.14507256863675888 -0.005350417427435739
0.14703803429495668 -0.19728717113656535
0.14726211791563631 -0.3855311034363426
0.14769416497607607 -0.5732490467446668
0.14832758295752335 -0.7606231472873881
0.1492116448110201 -0.9475630064172891
0.15065931284530945 -1.1337802259996028
0.15315430727831467 -1.3188130788905992
0.15721887904060447 -1.5020406575918666
0.16337993011013727 -1.682613505017497
0.17212897866960902 -1.8593734499891388
0.1839158918694784 -2.030807102782699
0.19917679988325404 -2.1950576443263814
0.21836191239919975 -2.349994691404047
0.24193349056674174 -2.4932493712034245
0.2703200268034033 -2.6222242862207046
0.30382444335142866 -2.734121087252936
0.34251616404282137 -2.826023298987147
0.3860850200492032 -2.8950723116267705
0.43367312000301955 -2.9386985894439817
0.4838082538841614 -2.9548603452251654
0.5339433877652999 -2.9386985894438875
0.5815314877191063 -2.895072311626579
0.6251003437254726 -2.8260232989868705
0.6637920644168461 -2.7341210872525923
0.6972964809648502 -2.622224286220313
0.7256830172014896 -2.493249371202997
0.7492545953690093 -2.349994691403594
0.7684397078849329 -2.1950576443259173
0.7837006158986871 -2.0308071027822394
0.7954875290985375 -1.859373449988697
0.8042365776579933 -1.682613505017083
0.8103976287275132 -1.5020406575914853
0.8144622004897933 -1.3188130788902568
0.8169571949227925 -1.1337802259993022
0.8184048629570788 -0.9475630064170355
0.8192889248105744 -0.7606231472871808
0.8199223427920215 -0.5732490467445077
0.8203543898524612 -0.3855311034362304
0.820578473473141 -0.1972871711365013
0.8225439391313342 -0.005350417427428347
0.19253830263124827 -0.006474280668573328
0.19401849214737368 -0.1973422827240493
0.19416495788866284 -0.3855424550074341
0.19449526233520809 -0.5732972895798094
0.19502676352643727 -0.7606948132202875
0.19576722032328578 -0.9476849075671727
0.19694295746153564 -1.1340411690228414
0.19897105808477225 -1.3193429240794774
0.20235034313899025 -1.5029706571430528
0.20754569053102837 -1.6840664941403183
0.21498217745181078 -1.8614582528973953
0.22503664068954837 -2.033623040296696
0.23806761635655416 -2.1987047161253748
0.2544526083225198 -2.354579896101385
0.27459480081598237 -2.4988808850552453
0.29887721731657796 -2.6289961299799622
0.3276030310377714 -2.7420899533418743
0.3608941296082232 -2.8351780188872793
0.39855536631732 -2.9052950514177285
0.4399281603622022 -2.9497305868311288
0.48380825388415155 -2.9663066487753325
0.5276883474060978 -2.949730586831033
0.5690611414509708 -2.9052950514175335
0.6067223781600539 -2.835178018886999
0.6400134767304891 -2.7420899533415253
0.6687392904516642 -2.6289961299795657
0.6930217069522407 -2.4988808850548123
0.713163899445684 -2.354579896100927
0.7295488914116308 -2.1987047161249063
0.7425798670786184 -2.0336230402962325
0.7526343303163401 -1.8614582528969497
0.7600708172371086 -1.684066494139901
0.7652661646291355 -1.5029706571426689
0.7686454496833452 -1.3193429240791335
0.7706735503065769 -1.1340411690225398
0.7718492874448245 -0.9476849075669188
0.7725897442416723 -0.7606948132200803
0.7731212454329013 -0.5732972895796503
0.7734515498794466 -0.385542455007322
0.7735980156207357 -0.19734228272398494
0.7750782051368572 -0.006474280668563872
0.2398232409719183 -0.00737371193502047
0.2409268433357924 -0.19738951158711554
0.24102771379891577 -0.3855502051931448
0.24127339683339796 -0.5733328515616136
0.2417026443624014 -0.7607543129606513
0.2423128289256409 -0.9477790429602266
0.24324703550846058 -1.1342333438041745
0.24484318883686026 -1.319745954384433
0.2475423904114198 -1.5037105359214824
0.2517764539807203 -1.685251652361425
0.2579007289011663 -1.8631809990154988
0.2662220796941085 -2.0359648667027814
0.27702547737248556 -2.2017467372047705
0.2906146991006254 -2.3584117962802145
0.307326921927283 -2.5035977377200234
0.32750735819515514 -2.6346844614239893
0.3514425084664256 -2.748810062519426
0.3792937563646086 -2.8429390879971135
0.41100362857474726 -2.914021890666251
0.44614738922854313 -2.9592282758065376
0.48380825388414156 -2.97625103079553
0.5214691185397371 -2.9592282758064403
0.5566128791935248 -2.914021890666054
0.5883227514036518 -2.8429390879968297
0.6161739993018208 -2.7488100625190732
0.640109149573076 -2.6346844614235883
0.660289585840932 -2.503597737719586
0.6770018086675734 -2.358411796279752
0.6905910303956976 -2.2017467372042976
0.7013944280740596 -2.0359648667023142
0.7097157788669886 -1.8631809990150496
0.7158400537874229 -1.685251652361005
0.720074117356714 -1.5037105359210967
0.7227733189312671 -1.3197459543840875
0.7243694722596627 -1.1342333438038725
0.7253036788424808 -0.9477790429599725
0.7259138634057198 -0.7607543129604439
0.7263431109347231 -0.5733328515614545
0.7265887939692054 -0.3855502051930326
0.7266896644323286 -0.19738951158705095
0.7277932667961997 -0.0073737119350092565
0.2869765092276778 -0.008085228824465827
0.28778427193147676 -0.197430997862111
0.28785494073799517 -0.38555680319258556
0.28802816303414314 -0.5733571540700806
0.2883560126341528 -0.7608018977563266
0.2888427409261547 -0.9478516765858019
0.2895617742401466 -1.1343704910666004
0.29076644773927346 -1.3200353339843078
0.29281911357365215 -1.5042653693524655
0.29610094640456636 -1.6861726573491143
0.30092260758773803 -1.8645447575830505
0.3075191645052868 -2.037835612301159
0.3161050947133866 -2.2041875235620823
0.3269123218295594 -2.361494807550755
0.34021240319362156 -2.5074034613525997
0.35629900614225984 -2.639291807319804
0.3754431373005984 -2.7542794089806497
0.39783327050542766 -2.849297493306925
0.4235357516289264 -2.9212425137751077
0.4523903112425993 -2.9671893131112967
0.48380825388413135 -2.9847028555757857
0.5152261965256608 -2.967189313111198
0.5440807561393267 -2.9212425137749087
0.5697832372628158 -2.849297493306638
0.5921733704676337 -2.754279408980294
0.6113175016259598 -2.639291807319399
0.627404104574585 -2.5074034613521587
0.6407041859386342 -2.3614948075502893
0.6515114130547949 -2.2041875235616066
0.6600973432628829 -2.0378356123006887
0.6666939001804209 -1.8645447575825989
0.671515561363583 -1.686172657348692
0.67479739419449 -1.5042653693520782
0.6768500600288638 -1.3200353339839614
0.6780547335279876 -1.134370491066298
0.6787737668419785 -0.9478516765855478
0.6792604951339802 -0.7608018977561191
0.6795883447339897 -0.5733571540699215
0.6797615670301376 -0.38555680319247343
0.679832235836656 -0.19743099786204624
0.6806399985404527 -0.008085228824453169
0.3340313864107709 -0.008637954084897558
0.3346066051529294 -0.197468492537585
0.3346532819762049 -0.3855627801062027
0.33476107113285375 -0.5733715769981272
0.3349894477230549 -0.7608368576852127
0.33535203856761336 -0.9479072348584654
0.33588222366975146 -1.1344640354049136
0.33673414329608314 -1.3202283536644528
0.33818888320318974 -1.5046486098013756
0.3405529856267196 -1.6868366839931426
0.3440883045740085 -1.865555429566507
0.3489756534572271 -2.0392411850081564
0.3553638923290011 -2.2060339673189615
0.3634138817356606 -2.3638368234064298
0.37332788275654566 -2.5103061553169193
0.38534611247603295 -2.6428241213704817
0.39971327959808556 -2.758500173326655
0.41662971285482253 -2.854247177312285
0.43626525518037923 -2.9269405869123606
0.45872501835927454 -2.973596916782108
0.48380825388412074 -2.9916568829454846
0.5088914894089651 -2.973596916782008
0.5313512525878551 -2.9269405869121594
0.5509867949134041 -2.8542471773119957
0.5679032281701323 -2.758500173326296
0.582270395292175 -2.642824121370074
0.5942886250116525 -2.5103061553164747
0.6042026260325281 -2.3638368234059612
0.6122526154391787 -2.2060339673184832
0.6186408543109441 -2.0392411850076835
0.6235282031941544 -1.8655554295660532
0.6270635221414365 -1.6868366839927187
0.629427624564961 -1.5046486098009872
0.6308823644720642 -1.3202283536641057
0.6317342840983942 -1.134464035404611
0.6322644692005315 -0.9479072348582113
0.6326270600450897 -0.7608368576850053
0.6328554366352909 -0.5733715769979681
0.6329632257919396 -0.3855627801060906
0.633009902615215 -0.19746849253752016
0.6335851213573719 -0.008637954084883784
0.3810074527237939 -0.009059781570492769
0.3814087231565572 -0.19750345403821876
0.3814287297206332 -0.385567382378946
0.38147499958143116 -0.5733771999327352
0.38160694184457633 -0.7608586540370723
0.38184101476266896 -0.947946750905717
0.3821946566799083 -1.1345258327005843
0.3827391638148991 -1.3203440328391423
0.38365078142401227 -1.5048815917018328
0.3851531330127943 -1.6872598110211012
0.3874409517446165 -1.8662238150481292
0.3906467881677454 -2.04019162942359
0.3948631580855007 -2.2072968984773658
0.40018897535745096 -2.3654501855150594
0.4067563900064989 -2.512318390205527
0.4147417625482778 -2.6452923168507767
0.4243562570246943 -2.7614805049995064
0.4358133987531948 -2.8577869797084112
0.44932841360010833 -2.9310958510586738
0.465235757930472 -2.9784185524372617
0.48380825388410975 -2.997091812580712
0.5023807498377464 -2.9784185524371614
0.5182880941681065 -2.9310958510584717
0.5318031090150144 -2.857786979708121
0.5432602507435086 -2.761480504999146
0.5528747452199186 -2.645292316850367
0.5608601177616908 -2.512318390205081
0.567427532410733 -2.3654501855145895
0.5727533496826774 -2.207296898476886
0.5769697196004275 -2.0401916294231155
0.5801755560235509 -1.866223815047674
0.5824633747553686 -1.687259811020676
0.5839657263441477 -1.5048815917014435
0.5848773439532589 -1.3203440328387948
0.5854218510882485 -1.1345258327002816
0.5857754930054875 -0.9479467509054628
0.5860095659235799 -0.7608586540368649
0.5861415081867252 -0.5733771999325762
0.586187778047523 -0.3855673823788338
0.5862077846115988 -0.19750345403815392
0.5866090550443611 -0.009059781570478114
0.4279178069349431 -0.009379446862141557
0.4281974294845659 -0.19753784626493892
0.4281869032769694 -0.38556902352298345
0.428173823299515 -0.5733748162390759
0.42821230095857094 -0.7608673813829206
0.4283159347350217 -0.9479688823163133
0.42849000547136684 -1.1345625074842582
0.4287609845434275 -1.3204042018922544
0.42919433917886407 -1.5049941499350363
0.4299084818986882 -1.6874708797968245
0.4310125770923576 -1.8665732721274284
0.43258529078156205 -2.0407062822488102
0.43466683481705914 -2.2079945941187
0.4373058015384806 -2.366354588500061
0.4405716570263866 -2.513460780214475
0.44456856099328673 -2.646714874592773
0.4494586115981472 -2.763234856128362
0.4554676266198739 -2.8599285206657026
0.46286868654163565 -2.933694919313867
0.4720524621128751 -2.9816041907533286
0.4838082538840984 -3.0009631272793493
0.49556404565532125 -2.9816041907532274
0.5047478212265593 -2.933694919313664
0.5121488811483175 -2.8599285206654104
0.5181578961700405 -2.7632348561280007
0.523047946774898 -2.646714874592362
0.5270448507417951 -2.513460780214028
0.5303107062296986 -2.3663545884995902
0.5329496729511181 -2.2079945941182193
0.5350312169866128 -2.0407062822483346
0.5366039306758148 -1.8665732721269723
0.5377080258694823 -1.6874708797963986
0.5384221685893051 -1.504994149934647
0.5388555232247411 -1.3204042018919069
0.5391265022968013 -1.1345625074839554
0.5393005730331462 -0.947968882316059
0.539404206809597 -0.7608673813827131
0.539442684468653 -0.5733748162389168
0.5394296044911985 -0.3855690235228712
0.539419078283602 -0.19753784626487408
0.5396987008332242 -0.009379446862126311
0.4747785491530078 -0.009621116368902878
0.47497256800372945 -0.197573478757902
0.4749326481820978 -0.38556641565267147
0.4748620186469741 -0.5733649443983233
0.47480984291524175 -0.7608632860346733
0.4747836084226421 -0.9479730195498519
0.4747738099856565 -1.1345740604080536
0.47477109755641317 -1.3204235958206554
0.47477054638654204 -1.505026469755975
0.4747707325816302 -1.687525719539301
0.47477096089039755 -1.866662575175762
0.47477072533646725 -2.0408390257432925
0.4747665979622137 -2.208177577925964
0.47475483937145097 -2.366598255237674
0.47473970453710035 -2.5137801894456864
0.4747589941953053 -2.64713499488245
0.47492618973459655 -2.7638000411992327
0.4754833226454853 -2.860706790505371
0.47679887756334244 -2.934770381973875
0.47928813376736806 -2.9831141511325585
0.4838082538840868 -3.0032017295075355
0.4883283740008058 -2.983114151132457
0.49081763020483116 -2.9347703819736717
0.492133185122687 -2.860706790505078
0.4926903180335757 -2.763800041198871
0.4928575135728677 -2.6471349948820384
0.4928768032310733 -2.5137801894452387
0.4928616683967236 -2.366598255237203
0.49284990980596216 -2.208177577925483
0.4928457824317097 -2.040839025742817
0.49284554687778026 -1.866662575175306
0.4928457751865484 -1.6875257195388749
0.4928459613816369 -1.505026469755586
0.49284541021176614 -1.3204235958203079
0.49284269778252293 -1.1345740604077508
0.4928328993455374 -0.9479730195495978
0.4928066648529379 -0.760863286034466
0.4927544891212056 -0.5733649443981641
0.49268385958608185 -0.3855664156525592
0.49264393976445026 -0.1975734787578372
0.4928379586151715 -0.009621116368887258
0.5216007250605694 -0.009806978854168326
0.5217362055970403 -0.19760888960647183
0.5216697921662976 -0.38555962171654146
0.5215442850197546 -0.5733477866019305
0.5214041950319672 -0.7608468157000741
0.5212502675209559 -0.947959149851403
0.5210575240900067 -1.134559891855712
0.5207808795202475 -1.3204036638209988
0.5203465683838449 -1.5049941528703017
0.5196329410207029 -1.687470928229818
0.5185297478974622 -1.8665734042154951
0.5169560696323207 -2.0407053689802757
0.5148654452152466 -2.2079910686204895
0.5122028719062917 -2.3663477997780262
0.5089086432627556 -2.5134584489716385
0.5049533180338942 -2.6467480598250703
0.5003911753407311 -2.7633795478344436
0.4954299346170578 -2.860323053254114
0.490453966142932 -2.9345064564529624
0.4860381954657423 -2.9830619668947493
0.4838082538840751 -3.0039191825852387
0.48157831230240744 -2.983061966894648
0.47716254162521793 -2.934506456452759
0.47218657315109436 -2.860323053253821
0.4672253324274253 -2.763379547834082
0.46266318973426723 -2.6467480598246595
0.4587078645054099 -2.5134584489711913
0.45541363586187805 -2.366347799777556
0.4527510625529279 -2.20799106862001
0.45066043813585843 -2.0407053689798005
0.44908675987072094 -1.86657340421504
0.44798356674748374 -1.687470928229392
0.4472699393843439 -1.504994152869913
0.4468356282479425 -1.3204036638206513
0.4465589836781839 -1.134559891855409
0.44636624024723504 -0.9479591498511487
0.4462123127362242 -0.7608468156998666
0.4460722227484369 -0.5733477866017713
0.44594671560189386 -0.3855596217164291
0.44588030217115127 -0.1976088896064071
0.4460157827076219 -0.009806978854152477
0.5683989768007017 -0.009949999686549294
0.5684928075756402 -0.19764207321115634
0.5684025552326901 -0.3855490004974859
0.5682253855644971 -0.5733236261282938
0.5680008961756599 -0.7608185815356292
0.5677222110087866 -0.9479276099435305
0.5673513589719108 -1.1345206297892403
0.5668018287192361 -1.3203429192052136
0.5658897017720966 -1.5048816303671924
0.5643886116735924 -1.6872600837263085
0.5621014849158336 -1.8662239009680248
0.5588939435219118 -2.040189516449951
0.5546693844069892 -2.207289439935581
0.5493232448214657 -2.36543634931615
0.5427316305350866 -2.5123138958697204
0.5347860569927029 -2.645359873649787
0.5254741519017847 -2.7617691345085347
0.5149635350007514 -2.858559406724314
0.5036784104384531 -2.9327143556415227
0.492615254672065 -2.9815488056722645
0.4838082538840637 -3.003280153828795
0.4750012530960624 -2.9815488056721637
0.46393809732967567 -2.9327143556413198
0.4526529727673821 -2.8585594067240225
0.44214235586635603 -2.7617691345081745
0.4328304507754468 -2.645359873649378
0.4248848772330706 -2.512313895869274
0.41829326294669916 -2.3654363493156816
0.41294712336118355 -2.2072894399351033
0.4087225642462688 -2.040189516449477
0.4055150228523543 -1.8662239009675707
0.40322789609460136 -1.6872600837258835
0.4017268059961015 -1.504881630366804
0.4008146790489645 -1.3203429192048663
0.400265148796291 -1.1345206297889372
0.39989429675941596 -0.9479276099432762
0.39961561159254316 -0.7608185815354218
0.39939112220370615 -0.5733236261281345
0.3992139525355132 -0.38554900049737356
0.3991237001925631 -0.19764207321109162
0.3992175309675015 -0.009949999686533253
0.6151883860328018 -0.010056767434436635
0.615247839269999 -0.19767145284055726
0.615135744256733 -0.38553479764423076
0.614910294814442 -0.5732928797724821
0.6146049751420151 -0.7607792468576
0.6142066795588845 -0.9478795409147037
0.6136615640089526 -1.1344559787044157
0.612805247759608 -1.320226718024836
0.6113518489546345 -1.5046489588775807
0.6089892566288996 -1.68683721939113
0.6054538948793363 -1.865555270325431
0.6005643480030891 -2.0392379137195342
0.5941706962211482 -2.206023503414595
0.5861095018996136 -2.3638177931182818
0.576183228748342 -2.5103005143057517
0.564198345715932 -2.6429208248321623
0.5500581542586788 -2.758910175708501
0.5338949574617005 -2.8553490064151164
0.51629378104251 -2.9293462229356018
0.4986329205858079 -2.978434552031842
0.4838082538840527 -3.00131162711353
0.468983587182298 -2.9784345520317412
0.4513227267255988 -2.9293462229353997
0.43372155030641496 -2.855349006414827
0.4175583535094467 -2.7589101757081433
0.4034181620522055 -2.642920824831755
0.39143327901980657 -2.510300514305308
0.3815070058685458 -2.3638177931178155
0.3734458115470226 -2.206023503414119
0.36705215976509264 -2.0392379137190626
0.3621626128888559 -1.8655552703249791
0.35862725113930116 -1.6868372193907069
0.35626465881357267 -1.5046489588771927
0.35481126000860297 -1.3202267180244887
0.3539549437592606 -1.1344559787041129
0.3534098282093297 -0.9478795409144496
0.35301153262619966 -0.7607792468573926
0.3527062129537729 -0.5732928797723228
0.3524807635114821 -0.3855347976441184
0.3523686684982161 -0.19767145284049253
0.3524281217354134 -0.010056767434420485
0.6619782026284928 -0.010132835642019033
0.6620075737007931 -0.19769562810032737
0.6618743289802732 -0.38551710695931235
0.6616034894545728 -0.5732560220208524
0.6612210627695687 -0.760729715851256
0.660710317544011 -0.947816134110341
0.6599783206560647 -1.1343593972767319
0.6587727466393053 -1.3200337335821435
0.6567224327982641 -1.5042662723953169
0.6534416828138021 -1.6861733058389703
0.6486189842690886 -1.8645441278527972
0.6420201651338996 -2.0378314349218867
0.6334331654398138 -2.204175871731543
0.6226292151658349 -2.3614745291129604
0.6093377157832527 -2.5073992473680518
0.5932755439070191 -2.639407284629178
0.5742513009719473 -2.754771626564214
0.5523917237452493 -2.8506699065608974
0.5284703880392226 -2.924391184708006
0.5043706792269136 -2.973777977271653
0.4838082538840417 -2.9980784594263494
0.463245828541171 -2.9737779772715522
0.4391461197288667 -2.9243911847078055
0.41522478402284885 -2.8506699065606096
0.3933652067961635 -2.7547716265638598
0.37434096386110643 -2.639407284628774
0.3582787919848874 -2.5073992473676108
0.3449872926023192 -2.3614745291124972
0.33418334232835467 -2.20417587173107
0.32559634263428316 -2.0378314349214173
0.3189975234991073 -1.8645441278523478
0.314174824954405 -1.6861733058385493
0.3108940749699515 -1.5042662723949305
0.3088437611289158 -1.3200337335817969
0.30763818711215984 -1.1343593972764292
0.3069061902242148 -0.947816134110087
0.30639544499865773 -0.7607297158510486
0.3060130183136539 -0.5732560220206931
0.3057421787879536 -0.38551710695919994
0.3056089340674339 -0.19769562810026267
0.3056383051397342 -0.010132835642002782
0.7087747706957541 -0.01018336356126158
0.708777718888098 -0.19771361489586067
0.7086235407411655 -0.38549588459744805
0.7083098779508368 -0.5732134982459274
0.707855364346544 -0.760671321289598
0.7072340609701346 -0.9477367722229765
0.7062920783318389 -1.1342199476314703
0.7046969185612063 -1.3197449754072206
0.7020002562873434 -1.5037119702537542
0.6977662976296571 -1.6852521750920795
0.6916402122750784 -1.8631797484451122
0.6833170306491304 -2.0359602134371086
0.672517947051157 -2.2017362758674626
0.658948987753699 -2.358395722235703
0.6422715373538916 -2.503599171744979
0.6221132511278477 -2.634807056674978
0.598202573974345 -2.7493428925208847
0.5706634731322011 -2.844516093030068
0.5404770721540217 -2.9178626032945147
0.5100500455204687 -2.9676166767431615
0.483808253884031 -2.9935982768492
0.4575664622475951 -2.9676166767430616
0.4271394356140486 -2.9178626032943153
0.3969530346358803 -2.844516093029784
0.36941393379375137 -2.7493428925205343
0.3455032566402659 -2.634807056674578
0.32534497041423965 -2.503599171744542
0.30866752001444986 -2.358395722235244
0.2950985607170094 -2.2017362758669936
0.28429947711905323 -2.0359602134366437
0.2759762954931212 -1.8631797484446662
0.26985021013855603 -1.6852521750916611
0.26561625148088025 -1.5037119702533692
0.26291958920702474 -1.3197449754068753
0.26132442943639633 -1.1342199476311683
0.26038244679810296 -0.9477367722227226
0.2597611434216941 -0.7606713212893907
0.2593066298174017 -0.5732134982457682
0.2589929670270732 -0.38549588459733564
0.2588387888801408 -0.19771361489579597
0.25884173707248476 -0.010183363561245282
0.7555825995664447 -0.010213351709802473
0.7555631456058379 -0.19772491387213265
0.7553886452785955 -0.38547101562171765
0.7550344187179414 -0.5731658656675965
0.7545114856765351 -0.7606048607452229
0.7537736349123543 -0.9476374046241927
0.7525970737720601 -1.1340265687469102
0.7505713066276087 -1.3193427531364055
0.7471932230906553 -1.5029723645761024
0.7419968792038769 -1.6840666585547517
0.7345581351330774 -1.8614563515386255
0.7245031672907766 -2.0336185480641373
0.7114824231239583 -2.1986979372243707
0.6951328730231862 -2.3545735821735105
0.6750511200850331 -2.498893729874158
0.6508086477345272 -2.6291199981169724
0.6220619685773583 -2.7426302782971805
0.5889222020327887 -2.836899022871464
0.5525576730544782 -2.9097765862442353
0.5158272072650065 -2.959954614016656
0.48380825388402043 -2.9878476261036044
0.4517893005030368 -2.959954614016557
0.4150588347135732 -2.9097765862440395
0.37869430573527635 -2.8368990228711835
0.345554539190724 -2.7426302782968346
0.3168078600335748 -2.6291199981165767
0.29256538768309 -2.4988937298737257
0.2724836347449575 -2.3545735821730553
0.2561340846442062 -2.1986979372239066
0.24311334047740807 -2.033618548063677
0.23305837263512577 -1.8614563515381832
0.2256196285643424 -1.6840666585543365
0.22042328467757633 -1.5029723645757194
0.21704520114063194 -1.3193427531360615
0.21501943399618598 -1.1340265687466087
0.2138428728558947 -0.9476374046239389
0.21310502209171467 -0.7606048607450157
0.2125820890503089 -0.5731658656674373
0.21222786248965497 -0.3854710156216053
0.2120533621624128 -0.19772491387206798
0.21203390820180604 -0.010213351709786152
0.802404613010483 -0.010227804398520496
0.8023678495360478 -0.19772950224913127
0.80217492623094 -0.38544248321354435
0.8017822709655038 -0.5731136166078021
0.8011925261353047 -0.7605306186403588
0.8003264011375955 -0.9475129980675722
0.7988846032611231 -1.133765735263057
0.7963907833089946 -1.3188133078233946
0.7923253169270827 -1.502042255805387
0.7861621653749968 -1.6826131337576515
0.7774109485792685 -1.8593710434391044
0.7656257866235032 -2.0308036357114108
0.7503810000982893 -2.1950567384081436
0.7312418122270309 -2.350002344640893
0.7077503494281087 -2.4932803654840474
0.6794438140585849 -2.6223548572680793
0.6459621227069487 -2.734657661327063
0.607383465001601 -2.827847264028627
0.5649475008466044 -2.900142994081811
0.5218470198212548 -2.9507635532665097
0.48380825388400994 -2.9807682584061803
0.4457694879467681 -2.950763553266412
0.40266900692142793 -2.9001429940816177
0.36023304276644746 -2.827847264028351
0.32165438506111965 -2.7346576613267217
0.2881726937095057 -2.6223548572676894
0.25986615834000626 -2.49328036548362
0.23637469554110782 -2.350002344640443
0.21723550766987326 -2.1950567384076853
0.2019907211446824 -2.030803635710955
0.19020555918893836 -1.8593710434386665
0.18145434239322838 -1.6826131337572399
0.17529119084115663 -1.502042255805007
0.17122572445925544 -1.3188133078230522
0.16873190450713366 -1.1337657352627564
0.16729010663066488 -0.9475129980673186
0.16642398163295696 -0.7605306186401516
0.16583423680275827 -0.573113616607643
0.16544158153732244 -0.3854424832134319
0.16524865823221468 -0.1977295022490666
0.16521189475777953 -0.010227804398504148
0.8492419570512251 -0.010231809181715327
0.8491948798225339 -0.19772790591043704
0.8489880058835575 -0.38541045757060854
0.8485587417657584 -0.573057296404139
0.8478999988341938 -0.7604470346711364
0.8468875330423262 -0.947356167004752
0.8451449371878081 -1.133424591448157
0.8421725588056724 -1.3181516713992454
0.8374154343798805 -1.5009189943141443
0.83028992792328 -1.680890515393068
0.8202354102207118 -1.856923799835662
0.8067289610279716 -2.0275149672806885
0.7892676524443216 -2.190811160080841
0.7673421209801012 -2.344679229498211
0.7404377822579948 -2.4867575531860235
0.7080942984286815 -2.6145247861637917
0.6700036126409402 -2.725467151945211
0.6262402761297688 -2.8174096293173485
0.5778953480593999 -2.888968407802946
0.5282972798180897 -2.9399829356686977
0.48380825388399923 -2.972258878039661
0.4393192279499123 -2.939982935668602
0.3897211597086134 -2.8889684078027558
0.3413762316382628 -2.8174096293170763
0.2976128951271143 -2.725467151944876
0.25952220933939824 -2.6145247861634076
0.22717872551011214 -2.4867575531856025
0.20027438678803272 -2.3446792294977667
0.17834885532383934 -2.1908111600803886
0.16088754674021538 -2.0275149672802386
0.147381097547499 -1.856923799835229
0.137326579844951 -1.6808905153926603
0.13020107338836662 -1.5009189943137675
0.12544394896258673 -1.3181516713989052
0.12247157058045904 -1.1334245914478578
0.12072897472594539 -0.9473561670044989
0.11971650893407965 -0.7604470346709292
0.11905776600251552 -0.5730572964039798
0.11862850188471671 -0.3854104575704962
0.11842162794574049 -0.19772790591037231
0.11837455071704935 -0.010231809181698994
0.8960933484913582 -0.010230532876088097
0.8960462565416344 -0.19772138885469176
0.8958343686223083 -0.3853755423718286
0.8953695571950381 -0.5729969310704479
0.8946333955227284 -0.7603515909252916
0.8934478907067307 -0.9471556176487551
0.8913831535285781 -1.1329955906609432
0.8879268872697764 -1.3173553060350212
0.8824824345378262 -1.4996020583597336
0.8744075196112281 -1.67890045312783
0.8630673724602999 -1.854116708036579
0.8478581592546481 -2.0237545173408638
0.8281943513688509 -2.1859620136571603
0.8034927709929012 -2.338604294624327
0.7731973965273716 -2.4793277799508417
0.736849227218181 -2.6056417419618234
0.694233985686525 -2.7151015732008075
0.6455641148161145 -2.8056717692291464
0.591756977663372 -2.8762839227254684
0.5354900062123074 -2.927507700529336
0.4838082538839882 -2.9621483517901317
0.4321265015556735 -2.9275077005292425
0.3758595301046218 -2.8762839227252823
0.32205239295189997 -2.8056717692288795
0.2733825220815156 -2.7151015732004784
0.230767280549888 -2.6056417419614464
0.1944191112407278 -2.4793277799504274
0.16412373677522832 -2.33860429462389
0.13942215639930874 -2.185962013656715
0.11975834851354053 -2.02375451734042
0.10454913530791496 -1.8541167080361514
0.09320898815700907 -1.6789004531274268
0.08513407323042896 -1.4996020583593603
0.07968962049849189 -1.3173553060346836
0.0762333542396995 -1.1329955906606455
0.07416861706155199 -0.9471556176485028
0.07298311224555679 -0.7603515909250845
0.07224695057324759 -0.5729969310702889
0.07178213914597786 -0.3853755423717162
0.07157025122665192 -0.1977213888546271
0.07152315927692814 -0.010230532876071763
0.942953732806423 -0.010229046589943785
0.9429229076702923 -0.19771247289397384
0.9427224577688155 -0.38533895844520843
0.9422206160321065 -0.57293150398858
0.9413883985511572 -0.7602382223103017
0.9400036773062835 -0.9469034573668519
0.9376063872609572 -1.1324749864637318
0.9336650905910255 -1.3164232108848752
0.9275449815422381 -1.498093545515189
0.9185417810785954 -1.6766469534275164
0.905943683017767 -1.8509545423400973
0.8890567872453043 -2.0195257522830636
0.8672103187836966 -2.1805120965879317
0.8397627525554956 -2.3317826325099853
0.8061137852890171 -2.470998345942304
0.7658070528295672 -2.5957156367534178
0.7187149375556052 -2.703585449464564
0.6652639543100883 -2.792718701859673
0.6065966038951836 -2.862259680929121
0.5445566334297088 -2.9132256118246085
0.48380825388397697 -2.9499999999999975
0.4230598743382499 -2.9132256118245166
0.36101990387278976 -2.86225968092894
0.3023525534579086 -2.792718701859412
0.2489015702124216 -2.703585449464242
0.20180945493849128 -2.595715636753048
0.16150272247907468 -2.470998345941897
0.1278537552126299 -2.331782632509556
0.10040618898446212 -2.1805120965874942
0.07855972052288598 -2.0195257522826275
0.061672824750452285 -1.8509545423396758
0.049074726689648164 -1.6766469534271182
0.04007152622602492 -1.4980935455148197
0.03395141717725214 -1.3164232108845404
0.03001012050733059 -1.1324749864634358
0.027612830462010372 -0.9469034573666003
0.026228109217139577 -0.7602382223100949
0.025395891736191147 -0.5729315039884209
0.024894049999482606 -0.385338958445096
0.024693600098005832 -0.19771247289390914
0.024662774961875113 -0.010229046589927453
SCALARS Stress float 6
LOOKUP_TABLE default
-1137.0486455843784 -1930.0679648880832 -1456.7888606547451 -19.020440528608184 0.0 0.0
1279.4820219291971 745.1886178646636 934.4368059754385 -23.33081222663501 0.0 0.0
566.8878994850213 127.5156176010974 216.91883627956884 -38.468618980639 0.0 0.0
467.27363042909525 20.923643063698172 148.92550061150146 -2.6154960564363936 0.0 0.0
580.8864481493174 61.775693247496946 219.3918062688989 1.2394266191096768 0.0 0.0
681.3815162829308 101.6657545490846 322.678516287845 1.5090326108038488 0.0 0.0
792.703259715132 139.9507113800239 429.4696511264033 0.7361634952369545 0.0 0.0
903.5401028292309 193.82436367320472 529.8844437051989 -0.42072983045140666 0.0 0.0
1020.8065730066909 260.09436577459127 627.7499258673863 -1.8048559090319054 0.0 0.0
1152.068039170516 344.75222985978724 737.2590395490331 -3.297260730285595 0.0 0.0
1302.2117968617772 452.03636808173894 866.180232711906 -4.768010432062017 0.0 0.0
1471.36234658247 582.4482116553019 1015.703684050482 -6.0238923056800475 0.0 0.0
1655.1820045169006 729.9129154016604 1180.8875831025684 -6.818806014512007 0.0 0.0
1847.620721908443 888.2265395010002 1355.7855124070702 -7.458411492224107 0.0 0.0
2040.1397992255709 1048.7343194775858 1531.8102513030822 -7.895500333930245 0.0 0.0
2223.3223843748756 1202.1970425354173 1699.6623070798933 -8.098015662029857 0.0 0.0
2387.8929087782544 1339.9617979280822 1850.4368970795324 -7.922184594975607 0.0 0.0
2524.2609801610342 1453.214951094994 1974.983678385754 -7.240729580328405 0.0 0.0
2628.3512779601574 1538.7140745848326 2069.5791071043686 -6.1080179222849225 0.0 0.0
2688.2497621600387 1585.5800383888884 2122.8628287907304 -6.613645925545018 0.0 0.0
2681.1562457009672 1576.4201085679192 2115.0396784872487 2.589040093425865e-11 0.0 0.0
2688.2497621588877 1585.5800383877554 2122.8628287898077 6.613645925565278 0.0 0.0
2628.3512779586135 1538.7140745833335 2069.5791071029685 6.108017922299956 0.0 0.0
2524.260980162464 1453.214951096537 1974.9836783866035 7.2407295804701715 0.0 0.0
2387.892908775366 1339.9617979252835 1850.4368970770583 7.92218459491216 0.0 0.0
2223.322384372631 1202.1970425332581 1699.6623070781366 8.098015661936666 0.0 0.0
2040.1397992247194 1048.7343194768891 1531.8102513021738 7.895500334031636 0.0 0.0
1847.6207219100884 888.2265395028537 1355.7855124080381 7.458411492329759 0.0 0.0
1655.1820045157704 729.9129154007268 1180.8875831014948 6.8188060146132 0.0 0.0
1471.362346581375 582.4482116544135 1015.7036840495567 6.023892305604706 0.0 0.0
1302.2117968612479 452.0363680814638 866.1802327113826 4.768010432047879 0.0 0.0
1152.068039168634 344.7522298581288 737.2590395476368 3.2972607302736954 0.0 0.0
1020.8065730067158 260.0943657749004 627.7499258672419 1.8048559090471663 0.0 0.0
903.5401028280623 193.82436367228263 529.8844437043065 0.4207298304278222 0.0 0.0
792.7032597147188 139.95071137987946 429.4696511259395 -0.7361634952987437 0.0 0.0
681.3815162825375 101.66575454901022 322.6785162874135 -1.5090326108952148 0.0 0.0
580.886448148916 61.77569324736256 219.391806268582 -1.2394266190970917 0.0 0.0
467.27363042874316 20.923643063532936 148.9255006113421 2.6154960565035523 0.0 0.0
566.8878994847021 127.51561760088342 216.91883627937466 38.468618980615965 0.0 0.0
1279.482021928899 745.1886178643365 934.4368059749568 23.33081222659807 0.0 0.0
-1137.0486455817168 -1930.0679648854325 -1456.7888606520985 19.020440528018838 0.0 0.0
-1448.6183730329844 -2211.888110966697 -1719.5302039070712 -19.245623399390624 0.0 0.0
869.8480975115242 413.9324734940621 583.6927696206169 -32.74289904291538 0.0 0.0
394.1002149385546 50.96838568642018 131.91395168040285 -32.16703248465622 0.0 0.0
413.65176618358186 2.999759077367402 125.66096087324681 -16.19976878353269 0.0 0.0
517.4316484516521 26.975151459646433 179.41500727460806 -15.532948883521618 0.0 0.0
610.9594054356983 37.44305943072052 258.06672850216614 -20.044360374872298 0.0 0.0
689.6155987901919 51.50230528543025 340.5899829771804 -22.21286443823182 0.0 0.0
765.9397389487712 69.11761394787939 407.5685578429453 -22.874251643733725 0.0 0.0
837.205314738357 88.6731516087816 459.72591143134764 -23.24311787201525 0.0 0.0
906.6226490143581 111.65572350511187 507.7122750682188 -23.69174834927072 0.0 0.0
976.2983479116049 139.11103867055434 556.7515394511631 -23.876793457182334 0.0 0.0
1047.0651950940783 170.76356709178117 608.08886121429 -23.74089013067896 0.0 0.0
1117.8412310965844 206.33122913052838 661.2599842605129 -23.263668339962724 0.0 0.0
1186.1357992506207 240.88756906811793 712.6418272060063 -22.658933983658624 0.0 0.0
1245.927054875434 269.0926293148318 756.595458518765 -21.976251510100543 0.0 0.0
1292.354883753453 286.19823613929344 788.3216909470511 -21.0179425900414 0.0 0.0
1322.1620503124784 289.4290730782893 804.8117104858418 -19.53824084481265 0.0 0.0
1335.4621747532578 279.64263052162613 806.5580945754999 -17.416113139550678 0.0 0.0
1330.75755604872 256.3266310955843 792.6468125298254 -14.91495069155644 0.0 0.0
1283.469899909732 196.2374366589679 739.612115055199 -13.729204346964213 0.0 0.0
1200.1085461130635 111.29415095523404 656.5959140099075 2.3582913399877725e-11 0.0 0.0
1283.4698999096101 196.23743665888986 739.6121150550781 13.729204347058413 0.0 0.0
1330.757556048476 256.3266310954044 792.6468125295727 14.91495069170368 0.0 0.0
1335.4621747540127 279.6426305224394 806.5580945760595 17.416113139620666 0.0 0.0
1322.1620503115294 289.42907307744434 804.8117104850592 19.538240844718274 0.0 0.0
1292.3548837521657 286.1982361381236 788.3216909461041 21.01794259001819 0.0 0.0
1245.9270548756592 269.09262931522466 756.5954585188584 21.976251510252787 0.0 0.0
1186.1357992512317 240.88756906888966 712.6418272064096 22.658933983774318 0.0 0.0
1117.8412310969043 206.33122913104148 661.2599842606581 23.263668339938448 0.0 0.0
1047.0651950932565 170.76356709115197 608.0888612137414 23.740890130534133 0.0 0.0
976.2983479115092 139.1110386707013 556.7515394510813 23.87679345718177 0.0 0.0
906.622649014059 111.65572350507699 507.7122750679687 23.691748349257878 0.0 0.0
837.2053147379501 88.67315160861747 459.72591143104705 23.24311787198115 0.0 0.0
765.9397389475204 69.11761394686292 407.5685578420907 22.874251643699758 0.0 0.0
689.6155987897502 51.50230528525388 340.58998297676345 22.212864438171238 0.0 0.0
610.9594054355496 37.443059430904924 258.06672850192604 20.04436037485221 0.0 0.0
517.4316484512793 26.97515145954289 179.41500727437833 15.532948883492342 0.0 0.0
413.65176618316667 2.999759077033383 125.66096087303684 16.199768783484874 0.0 0.0
394.100214938398 50.96838568643626 131.91395168036416 32.16703248457825 0.0 0.0
869.8480975109123 413.93247349357983 583.6927696199739 32.74289904290414 0.0 0.0
-1448.6183730309476 -2211.888110964612 -1719.5302039049564 19.245623398836415 0.0 0.0
-1199.432816425734 -1928.3191643173984 -1443.2442446038285 -57.69558984488228 0.0 0.0
674.9151403024408 323.0552548349792 439.9142531596226 -100.06340887351766 0.0 0.0
277.1188250754202 58.40228671558124 100.65691373163037 -34.14306817567895 0.0 0.0
354.30628900676703 -0.0910727267889112 106.04995798471361 -37.085233721615104 0.0 0.0
472.1272136365292 18.25725787177844 154.18678946198892 -37.80004878128447 0.0 0.0
578.47936148802 33.080356865655254 229.2916685133601 -39.04088143694281 0.0 0.0
660.816797635696 48.10164572363391 315.82884717120066 -41.695889752912585 0.0 0.0
738.4701231181848 62.206236403313184 386.1273232923582 -42.918879700461694 0.0 0.0
807.9136788680948 79.01224578949385 438.8377073525407 -43.83329627696032 0.0 0.0
873.9221419482 98.17431654725588 484.06036112822017 -44.60878734501853 0.0 0.0
939.7737655325072 122.10499329193581 529.6177514685817 -44.72133503218052 0.0 0.0
1006.6671799154772 151.14514742032281 577.747618501958 -44.0636534107937 0.0 0.0
1074.3964629080642 183.0727306065257 627.5930184697777 -43.058235683208274 0.0 0.0
1138.6382856540029 214.86649729777895 675.5936242227793 -41.87448823658979 0.0 0.0
1195.6786550227991 240.7727788394498 717.0318046432208 -40.51941222361299 0.0 0.0
1240.6367333075957 256.76728327036415 747.4619714113546 -38.713832226491675 0.0 0.0
1271.2027155301785 260.9210072939403 764.7904906231543 -36.069275414510315 0.0 0.0
1285.0331870888085 251.6241814517873 767.0934398110686 -32.5055996561342 0.0 0.0
1273.9867209402266 221.86365281485413 746.9440357283778 -28.440413979390573 0.0 0.0
1245.5488451634003 180.72212693057935 712.5169633170749 -24.330910807265738 0.0 0.0
1143.7280591455008 77.75979517320347 611.5679656106341 9.372946863095422e-12 0.0 0.0
1245.5488451637275 180.7221269309386 712.51696331724 24.330910807402894 0.0 0.0
1273.9867209406502 221.86365281531744 746.9440357287175 28.44041397939518 0.0 0.0
1285.0331870881741 251.6241814512278 767.0934398106486 32.505599656138045 0.0 0.0
1271.2027155298206 260.92100729368656 764.7904906228714 36.06927541455545 0.0 0.0
1240.6367333065036 256.7672832693447 747.4619714105588 38.713832226476136 0.0 0.0
1195.6786550229508 240.7727788397653 717.0318046433337 40.51941222360952 0.0 0.0
1138.63828565377 214.8664972977399 675.5936242225359 41.87448823671329 0.0 0.0
1074.3964629084078 183.07273060701533 627.5930184700493 43.05823568318098 0.0 0.0
1006.6671799152602 151.14514742031787 577.7476185018226 44.06365341064079 0.0 0.0
939.7737655325086 122.10499329216103 529.6177514685835 44.72133503218383 0.0 0.0
873.9221419486399 98.17431654793843 484.06036112847755 44.6087873449805 0.0 0.0
807.9136788677998 79.01224578946311 438.8377073523116 43.83329627687819 0.0 0.0
738.4701231172897 62.206236402673525 386.1273232917139 42.918879700415935 0.0 0.0
660.8167976353768 48.101645723615974 315.82884717084147 41.69588975291646 0.0 0.0
578.4793614878306 33.0803568658084 229.29166851312772 39.04088143689079 0.0 0.0
472.1272136358288 18.25725787129463 154.1867894616032 37.800048781142856 0.0 0.0
354.3062890064102 -0.09107272723973447 106.04995798447615 37.0852337214979 0.0 0.0
277.1188250754163 58.40228671559702 100.65691373163432 34.14306817559694 0.0 0.0
674.9151403018313 323.0552548346818 439.9142531590412 100.06340887342054 0.0 0.0
-1199.4328164237597 -1928.3191643153718 -1443.244244601734 57.6955898445349 0.0 0.0
-974.4261235286958 -1672.7023424449478 -1195.3250116196382 -71.15742225714689 0.0 0.0
511.4953920115955 227.69558265833544 318.34836596263807 -144.6705703329242 0.0 0.0
202.86697446897335 52.759683299791206 76.68799733062937 -56.338847942477365 0.0 0.0
295.00527955340806 5.218957511671465 90.05847414545592 -57.88670179049487 0.0 0.0
417.2050187296112 9.24921556233993 129.38266045107957 -62.10453316823076 0.0 0.0
532.5996801161497 27.444854938715146 197.2998227063805 -59.668394163592524 0.0 0.0
629.596417023875 42.417047186442936 285.58709527810646 -62.580494393864015 0.0 0.0
706.0106404114962 55.491113816415684 360.37642882176476 -63.27313576526321 0.0 0.0
774.5951297351099 69.50337041868949 415.08989103886245 -64.20066635782983 0.0 0.0
837.581225668945 85.24657587905021 458.53413598108716 -64.92040225412195 0.0 0.0
899.3225987757552 105.44864385130259 500.5392332017862 -64.72033987384197 0.0 0.0
962.5446508971766 130.7043594730772 545.0210192783845 -63.62597801412738 0.0 0.0
1026.3604731334742 160.1883846190454 591.7249475118701 -62.06851646941066 0.0 0.0
1087.2578043706453 187.95723575761843 636.061737645186 -60.47344608609683 0.0 0.0
1141.0692588744469 211.40710054638802 674.671762028882 -58.53684879789753 0.0 0.0
1185.4022513457246 227.404735442652 704.7995772279423 -55.9349028097549 0.0 0.0
1216.889291822119 232.32470941495353 722.9782028262898 -52.413942524743184 0.0 0.0
1230.7551190556442 222.80961841148542 725.2392909431351 -47.85958173590946 0.0 0.0
1223.7503427919348 196.73716616187176 708.9317901375534 -42.117835835134606 0.0 0.0
1205.402339326805 165.0070232056423 684.1094284587954 -33.85790721724113 0.0 0.0
1061.6357657272088 20.245601603385495 542.0919139004931 7.02087277204555e-11 0.0 0.0
1205.4023393269952 165.0070232058802 684.1094284589235 33.85790721746259 0.0 0.0
1223.750342792799 196.73716616282948 708.9317901381766 42.11783583526709 0.0 0.0
1230.7551190550191 222.80961841087338 725.239290942818 47.85958173592153 0.0 0.0
1216.8892918221602 232.32470941511428 722.9782028262849 52.41394252468878 0.0 0.0
1185.4022513451148 227.40473544212153 704.7995772274953 55.93490280969325 0.0 0.0
1141.0692588742445 211.40710054635065 674.6717620286976 58.53684879788429 0.0 0.0
1087.2578043706756 187.9572357577856 636.0617376452093 60.47344608609167 0.0 0.0
1026.3604731325709 160.18838461830742 591.7249475113205 62.068516469377634 0.0 0.0
962.5446508968222 130.70435947287277 545.021019278131 63.62597801401513 0.0 0.0
899.3225987756028 105.44864385136918 500.5392332016896 64.7203398738251 0.0 0.0
837.5812256690267 85.24657587938202 458.5341359810902 64.92040225409181 0.0 0.0
774.5951297352912 69.50337041915658 415.089891038963 64.20066635785732 0.0 0.0
706.0106404110461 55.49111381621226 360.3764288213654 63.27313576513434 0.0 0.0
629.5964170233725 42.41704718623851 285.58709527764137 62.580494393872335 0.0 0.0
532.5996801159793 27.444854938949423 197.29982270621403 59.66839416349461 0.0 0.0
417.20501872914843 9.249215562122808 129.38266045087374 62.10453316814683 0.0 0.0
295.0052795532903 5.218957511419849 90.05847414534286 57.8867017904333 0.0 0.0
202.8669744690117 52.75968329985863 76.68799733066109 56.3388479424231 0.0 0.0
511.4953920110713 227.6955826581318 318.3483659621505 144.6705703327469 0.0 0.0
-974.4261235270349 -1672.702342443149 -1195.3250116177753 71.15742225696843 0.0 0.0
-779.8043809422289 -1450.305674744783 -977.889318118047 -70.71528146123573 0.0 0.0
391.00052886548355 145.21089226961215 224.59698837363254 -175.24861244152788 0.0 0.0
149.43126121222656 43.05102755006274 57.744686628686786 -85.8291656386734 0.0 0.0
241.67925980154178 11.486767968320175 75.95045347198423 -80.32834665888491 0.0 0.0
353.7765270073131 5.697042452662633 107.58598993084567 -86.30842736850269 0.0 0.0
479.24587568420026 15.5536157293665 162.7303606785709 -85.47586553724432 0.0 0.0
586.0183233500438 35.23107515470377 248.35469099558787 -83.63775967007103 0.0 0.0
667.6978434664156 49.80993006162876 329.91954029626567 -83.9815507971649 0.0 0.0
736.3511301861046 60.502024346242045 387.59630033834844 -84.33973328649708 0.0 0.0
796.6161985699925 72.66577705732502 430.2461100660775 -84.58889054220148 0.0 0.0
854.8437289633817 88.91567522387042 469.21187898768693 -83.92746602771707 0.0 0.0
913.8537129693025 110.29024767324108 509.8455546173186 -82.33546286953288 0.0 0.0
973.882656756879 135.69976458400916 552.6651532922768 -80.42047049164456 0.0 0.0
1031.0342707206853 161.50051577491024 594.1933102286939 -78.38877327885804 0.0 0.0
1082.1803384489972 182.16750233383948 630.1164890052979 -75.9555097075447 0.0 0.0
1124.9349092294171 196.26391989355352 658.5070512830819 -72.76447128442793 0.0 0.0
1157.4927647135592 202.66727335704888 677.9719779822541 -68.59907268387542 0.0 0.0
1175.1786880056231 196.66739810365053 683.8909386934446 -63.32284093337277 0.0 0.0
1173.9127944562156 175.52277541209313 672.8860526666142 -55.826243982017495 0.0 0.0
1160.1299681712162 146.8709108496021 651.8379438591855 -43.697336113219315 0.0 0.0
964.2831142018708 -49.82339730618615 458.9432596269355 1.0689049645407067e-10 0.0 0.0
1160.129968171468 146.87091084989132 651.8379438594837 43.69733611337145 0.0 0.0
1173.9127944554555 175.52277541132457 672.8860526660568 55.826243982015754 0.0 0.0
1175.1786880053198 196.66739810341386 683.8909386933702 63.322840933283956 0.0 0.0
1157.4927647136913 202.6672733572701 677.9719779822943 68.5990726838994 0.0 0.0
1124.9349092294215 196.26391989370296 658.5070512830841 72.76447128447984 0.0 0.0
1082.1803384491388 182.167502334164 630.1164890053229 75.9555097076995 0.0 0.0
1031.0342707207283 161.50051577508867 594.1933102287255 78.38877327879464 0.0 0.0
973.8826567569081 135.69976458421957 552.6651532922625 80.42047049162477 0.0 0.0
913.8537129677087 110.29024767177086 509.845554616192 82.33546286939435 0.0 0.0
854.8437289632735 88.91567522401121 469.21187898757444 83.92746602776538 0.0 0.0
796.616198569817 72.66577705737258 430.2461100659556 84.58889054216525 0.0 0.0
736.3511301855505 60.502024345895315 387.5963003379448 84.33973328639867 0.0 0.0
667.6978434661423 49.80993006165957 329.9195402959429 83.98155079708975 0.0 0.0
586.0183233491649 35.23107515400651 248.35469099487872 83.63775966992925 0.0 0.0
479.24587568409515 15.553615729706934 162.7303606785089 85.47586553723428 0.0 0.0
353.7765270070843 5.697042452863482 107.58598993084826 86.3084273684994 0.0 0.0
241.67925980141473 11.486767968111678 75.95045347188316 80.32834665879267 0.0 0.0
149.4312612122984 43.051027550239795 57.74468662876144 85.82916563855818 0.0 0.0
391.0005288649368 145.21089226936698 224.59698837318442 175.24861244134584 0.0 0.0
-779.8043809407866 -1450.3056747431408 -977.889318116377 70.7152814611413 0.0 0.0
-609.1947036408075 -1253.4050296266103 -785.2677016211845 -68.76435717021002 0.0 0.0
296.2422631022017 81.53027629129164 153.23513232576067 -192.40569960653957 0.0 0.0
108.35078179911558 30.668812912322167 41.70587841343133 -113.7892862662407 0.0 0.0
192.59787236994023 16.76277232147556 62.809731809082564 -103.12037704896552 0.0 0.0
289.30683193953 4.749250538519627 87.87763507629641 -109.46056836798292 0.0 0.0
410.579086456085 7.374983381274476 130.36784987613336 -111.16741357614208 0.0 0.0
524.7396953985024 27.449930201235553 205.9802095152548 -106.34614685960318 0.0 0.0
622.0249431020746 40.97434887001625 290.57276030127406 -105.94210133119483 0.0 0.0
689.95974754989 52.23938379804918 354.31106003285583 -104.06246564666583 0.0 0.0
750.2238867731447 60.23673051622046 398.0929168126361 -103.66467790436856 0.0 0.0
805.0153466615327 72.51571245753131 434.7232976107645 -102.33827026815771 0.0 0.0
859.903018112818 89.91735863107887 471.7174066749379 -100.18418812877061 0.0 0.0
915.7485392285278 111.81582333883321 510.8041747359417 -97.87544351552026 0.0 0.0
969.1092024477027 133.54980575259157 548.4652151214619 -95.61906154111581 0.0 0.0
1017.3214514315916 152.1883186648074 581.9614205994368 -92.83490088934211 0.0 0.0
1058.481686839305 165.39906445117884 609.1674860686114 -89.03975161287619 0.0 0.0
1092.0092967320295 171.7722178047793 629.0782444337101 -84.47433218339125 0.0 0.0
1115.3576056916806 171.18476230288917 640.4716505914587 -78.75848308968541 0.0 0.0
1121.5907532846127 156.72536282019684 636.5485304070996 -69.90893696220469 0.0 0.0
1110.5217332744396 128.47481147342998 617.0785732046029 -54.508178298151925 0.0 0.0
852.2574066379507 -130.23982488383461 363.5462366071139 6.569145227786066e-11 0.0 0.0
1110.5217332745638 128.4748114736192 617.0785732047602 54.5081782983035 0.0 0.0
1121.590753282891 156.72536281848727 636.5485304059772 69.90893696226743 0.0 0.0
1115.3576056919221 171.1847623032141 640.4716505916344 78.75848308967443 0.0 0.0
1092.009296731038 171.77221780386333 629.0782444329251 84.47433218339498 0.0 0.0
1058.481686839834 165.399064451879 609.1674860690237 89.03975161299304 0.0 0.0
1017.3214514313452 152.18831866480207 581.9614205992276 92.83490088953818 0.0 0.0
969.1092024483022 133.5498057534234 548.4652151217916 95.61906154128535 0.0 0.0
915.748539228424 111.815823338854 510.80417473588443 97.87544351554158 0.0 0.0
859.9030181116111 89.91735863006528 471.7174066741124 100.18418812873432 0.0 0.0
805.0153466613126 72.51571245744194 434.7232976105421 102.33827026807145 0.0 0.0
750.2238867727833 60.23673051605807 398.0929168123776 103.66467790424085 0.0 0.0
689.9597475492745 52.23938379760917 354.31106003235396 104.06246564651603 0.0 0.0
622.0249431018417 40.974348870150976 290.5727603010155 105.94210133121862 0.0 0.0
524.739695397746 27.449930200659914 205.98020951464244 106.34614685945232 0.0 0.0
410.57908645575156 7.3749833813956265 130.36784987602024 111.16741357609783 0.0 0.0
289.3068319394075 4.749250538661204 87.877635076306 109.46056836790896 0.0 0.0
192.5978723698918 16.762772321425288 62.80973180905243 103.1203770487547 0.0 0.0
108.35078179910514 30.668812912330445 41.70587841343067 113.7892862659817 0.0 0.0
296.2422631017398 81.53027629113492 153.23513232542328 192.40569960639306 0.0 0.0
-609.194703639517 -1253.4050296250946 -785.2677016196984 68.76435717016717 0.0 0.0
-462.6425696406634 -1072.8807427878983 -615.3786825155004 -67.6358205466299 0.0 0.0
221.5736014323555 30.940910868029377 99.05280547425727 -202.46010342840864 0.0 0.0
74.82488500236163 18.2480026465732 27.921768872754704 -136.91881952806023 0.0 0.0
146.28482693146213 20.142307421204162 49.92920946176282 -124.45581230136912 0.0 0.0
226.8192172543886 6.127915053693858 69.8022387956617 -129.88776982893845 0.0 0.0
332.98738569577006 0.12719445789190176 100.00667799513758 -137.99413515154527 0.0 0.0
451.2549326236234 14.664223641203039 159.66860008715767 -133.13250174619523 0.0 0.0
555.0376065419565 33.293871427791345 241.50740542185974 -127.50501781995956 0.0 0.0
636.9870004138738 40.49801298278981 311.39195267863624 -125.79180303594437 0.0 0.0
694.6102865047242 48.17550421413071 359.31888879029344 -121.94713694618115 0.0 0.0
748.3846442810258 56.294491641406054 395.6307995072776 -119.8892420214712 0.0 0.0
799.2950296199006 69.48602843325358 429.47763204009175 -117.18184651988003 0.0 0.0
850.6324580181421 87.38504531410182 464.63053886040575 -114.4977172427479 0.0 0.0
899.8409310039261 105.91398144422098 498.7450721588224 -112.0039922479966 0.0 0.0
944.6215449616701 121.77161589700769 529.2405423411319 -109.04353808721082 0.0 0.0
983.7411369359326 132.21571846326793 554.1020952299034 -105.10661291965953 0.0 0.0
1017.8171893952723 140.54550571641178 575.2755137954621 -99.81254308462518 0.0 0.0
1048.4433641434252 146.0013752214011 593.2159279118554 -93.89708982421946 0.0 0.0
1064.3131468970823 139.20632393533515 597.8903746259911 -84.68561072353849 0.0 0.0
1056.5838848121828 111.5974902132775 580.5300955518259 -67.0016633039942 0.0 0.0
723.4991788177256 -220.77593564524776 255.07468385297926 6.118128226262343e-11 0.0 0.0
1056.583884812593 111.59749021377843 580.5300955521607 67.00166330414478 0.0 0.0
1064.3131468971976 139.20632393557776 597.8903746261649 84.68561072374281 0.0 0.0
1048.4433641437986 146.00137522190357 593.2159279120968 93.89708982442696 0.0 0.0
1017.8171893954285 140.54550571673246 575.2755137954696 99.8125430847247 0.0 0.0
983.7411369363563 132.21571846386328 554.1020952303259 105.10661291980855 0.0 0.0
944.621544961791 121.77161589732731 529.2405423411427 109.04353808732657 0.0 0.0
899.8409310044427 105.91398144493589 498.74507215914616 112.00399224807896 0.0 0.0
850.6324580174174 87.38504531353381 464.6305388598883 114.49771724275577 0.0 0.0
799.2950296197007 69.48602843326661 429.47763204000137 117.18184651989009 0.0 0.0
748.3846442805298 56.29449164105625 395.630799506874 119.88924202138277 0.0 0.0
694.6102865043775 48.17550421400247 359.31888879004623 121.94713694612778 0.0 0.0
636.9870004135153 40.49801298267103 311.39195267828256 125.79180303586439 0.0 0.0
555.0376065413776 33.2938714275444 241.50740542139795 127.50501781994222 0.0 0.0
451.2549326229736 14.664223640831697 159.66860008670636 133.13250174614382 0.0 0.0
332.9873856953663 0.12719445787634154 100.00667799501527 137.9941351514175 0.0 0.0
226.81921725421176 6.1279150536672695 69.80223879560154 129.88776982880924 0.0 0.0
146.28482693128848 20.14230742102303 49.92920946165598 124.4558123011191 0.0 0.0
74.82488500234439 18.248002646514752 27.92176887273213 136.9188195279236 0.0 0.0
221.57360143197346 30.940910867872127 99.05280547398827 202.46010342826872 0.0 0.0
-462.6425696396715 -1072.8807427866589 -615.3786825142863 67.63582054660631 0.0 0.0
-333.6245766930721 -917.097859756711 -466.6360009194388 -75.86161037374168 0.0 0.0
157.7617015349156 -7.192514661282578 56.97510125322596 -203.8453823386103 0.0 0.0
45.87978468961868 8.038267504855023 16.175219357297745 -154.60599039059696 0.0 0.0
101.56401194163757 21.503525929388978 36.92139727361673 -142.94356754544927 0.0 0.0
166.35668531053182 8.661426279812153 52.44583327011811 -147.6737320135187 0.0 0.0
248.0832507065764 -1.2251434672179013 73.44105965799746 -159.90826651496945 0.0 0.0
358.3396344824017 2.9596642990351585 114.16207155249737 -161.3761285718389 0.0 0.0
468.05188176092986 19.8566036493258 182.00658590337036 -151.33107643406436 0.0 0.0
560.5499603451019 30.928767418334665 254.74185546644117 -145.71194117936813 0.0 0.0
627.9833987978576 32.98582707725041 308.2849509191541 -141.42561446390366 0.0 0.0
680.075342412956 39.274828828924385 347.1735601286524 -136.5206877850444 0.0 0.0
728.0140208209955 49.173856802923794 380.01166316852164 -133.08249743797083 0.0 0.0
775.3583150309021 63.07115502574078 412.0259157556374 -130.05900652668862 0.0 0.0
819.5383181665048 77.52361767271513 441.98717061526395 -127.39250378270688 0.0 0.0
860.7287264978727 90.28018326806296 469.3131706480698 -124.50605255433898 0.0 0.0
897.336344826357 99.6954940704916 492.5673596338997 -120.57664427545816 0.0 0.0
930.8962841165202 106.00103415262575 512.612871332482 -114.98417924888045 0.0 0.0
967.6355891420911 117.29768018812811 536.3354658877349 -108.47595320708497 0.0 0.0
997.6451395715802 123.92040498147122 554.6571868149734 -99.85813683980088 0.0 0.0
997.7237824957349 100.14320133535625 543.4088910949527 -82.0467525211002 0.0 0.0
572.2448663795622 -321.43941470654966 130.8464420679234 1.06350483974893e-10 0.0 0.0
997.7237824958503 100.1432013355628 543.4088910950754 82.04675252130313 0.0 0.0
997.6451395708576 123.92040498076393 554.6571868145177 99.85813683996518 0.0 0.0
967.6355891417398 117.29768018792893 536.3354658874964 108.47595320729687 0.0 0.0
930.8962841162174 106.00103415240571 512.612871332216 114.98417924898743 0.0 0.0
897.3363448261034 99.69549407045274 492.5673596337756 120.5766442755765 0.0 0.0
860.7287264977283 90.28018326793239 469.31317064796497 124.50605255431273 0.0 0.0
819.5383181663494 77.5236176727085 441.98717061514884 127.39250378273508 0.0 0.0
775.358315030114 63.071155025019614 412.02591575510655 130.05900652666662 0.0 0.0
728.0140208207221 49.17385680276252 380.0116631683738 133.08249743787994 0.0 0.0
680.0753424128184 39.274828828949666 347.1735601284876 136.52068778498486 0.0 0.0
627.9833987976031 32.985827077202956 308.284950918948 141.42561446375333 0.0 0.0
560.5499603447814 30.9287674183065 254.74185546613103 145.71194117935153 0.0 0.0
468.0518817603732 19.856603649089074 182.00658590296146 151.3310764340605 0.0 0.0
358.33963448171426 2.9596642985693573 114.16207155209 161.37612857186338 0.0 0.0
248.08325070632185 -1.2251434668215304 73.44105965807289 159.90826651469914 0.0 0.0
166.3566853103858 8.661426279661208 52.44583327002842 147.67373201328863 0.0 0.0
101.5640119415424 21.50352592916629 36.921397273521684 142.94356754530588 0.0 0.0
45.87978468955459 8.038267504825038 16.175219357269366 154.60599039048583 0.0 0.0
157.76170153448504 -7.192514661504724 56.975101252962645 203.84538233842966 0.0 0.0
-333.62457669224773 -917.0978597555751 -466.6360009184297 75.86161037373576 0.0 0.0
-237.52111357327453 -766.1330857670864 -348.48970281542756 -84.23458984043214 0.0 0.0
102.88324226578759 -37.98023986180692 25.010802235723816 -198.91693768315818 0.0 0.0
18.70291242664394 1.1528186241242953 5.958492543783669 -167.27205473903416 0.0 0.0
58.10823035131254 21.34205501565071 23.834189725642485 -157.74538143690475 0.0 0.0
105.69798015466368 11.601088394235727 35.151175454712956 -161.7498764988058 0.0 0.0
163.02204222114418 1.1250173666361996 49.05606787483976 -175.4664179062256 0.0 0.0
245.92201840587853 -3.5158034370140747 72.75674431345755 -188.60612530426482 0.0 0.0
352.473254901592 1.7420330453860133 116.2421076143251 -182.21062798489237 0.0 0.0
453.4248836656436 13.66366313515666 177.79186773185802 -167.22678972915475 0.0 0.0
531.1086152890441 17.67031546388495 234.58801041995244 -158.30572536773667 0.0 0.0
588.5637308359385 21.516623601471334 278.84771510414384 -151.46103712272264 0.0 0.0
635.7998562857778 27.37712034399802 312.95888478672504 -147.34206850588006 0.0 0.0
679.748401368393 38.311568418778194 344.24002443476616 -144.13904006507627 0.0 0.0
718.9990279035512 48.75539583969222 371.10279280185074 -141.38580657305536 0.0 0.0
755.4611522505702 58.27616495258905 395.19243317406296 -138.78594744934523 0.0 0.0
789.853314411255 66.18127388451975 416.9992423469518 -135.488517803177 0.0 0.0
823.1495522388253 72.48603570729718 437.4300358592262 -130.06491280112365 0.0 0.0
860.323633249335 82.76006364582467 461.1557791930843 -122.51143001825326 0.0 0.0
906.6648865563797 102.67942815331243 493.7991673241577 -114.70427015638116 0.0 0.0
930.1287232305184 97.49945117539043 504.0870750440688 -101.008887090298 0.0 0.0
389.8708107542336 -428.64584716118367 -11.215856209374309 8.178346888598753e-11 0.0 0.0
930.1287232305888 97.499451175519 504.0870750441922 101.00888709031403 0.0 0.0
906.6648865552316 102.67942815227504 493.799167323429 114.70427015660947 0.0 0.0
860.323633249583 82.76006364626714 461.15577919317866 122.51143001853569 0.0 0.0
823.1495522382829 72.48603570682477 437.43003585875306 130.06491280114054 0.0 0.0
789.8533144114223 66.18127388492948 416.99924234707765 135.48851780332257 0.0 0.0
755.4611522501253 58.2761649521931 395.19243317376583 138.785947449306 0.0 0.0
718.9990279033232 48.75539583960781 371.1027928016332 141.38580657304826 0.0 0.0
679.7484013668432 38.311568417137906 344.2400244337408 144.13904006497785 0.0 0.0
635.799856285773 27.377120344411313 312.9588847867222 147.34206850605426 0.0 0.0
588.5637308355334 21.516623601246742 278.84771510386065 151.46103712277633 0.0 0.0
531.1086152893005 17.670315464533 234.58801042006203 158.30572536771194 0.0 0.0
453.4248836651413 13.66366313483983 177.79186773147336 167.22678972911888 0.0 0.0
352.4732549009672 1.7420330449456878 116.24210761392219 182.2106279848716 0.0 0.0
245.92201840524746 -3.515803437407283 72.75674431316102 188.6061253040129 0.0 0.0
163.02204222114491 1.1250173670522987 49.0560678749704 175.46641790593128 0.0 0.0
105.69798015473549 11.601088394470114 35.151175454804125 161.74987649861552 0.0 0.0
58.10823035132181 21.342055015749448 23.83418972567495 157.7453814367357 0.0 0.0
18.702912426561685 1.1528186240606042 5.958492543739519 167.27205473881168 0.0 0.0
102.8832422654791 -37.980239861925526 25.01080223556055 198.91693768298617 0.0 0.0
-237.52111357268598 -766.1330857660502 -348.4897028146778 84.23458984056153 0.0 0.0
-162.49969500631926 -635.5807499570019 -255.72836403341904 -100.05867297045316 0.0 0.0
53.454068961537814 -60.329297154860114 -0.001357248360195129 -187.9828389615385 0.0 0.0
-7.386807242345333 -2.103292226915399 -2.846950501047562 -175.13023114784227 0.0 0.0
15.616788801956691 20.16204796430278 10.733550264316154 -168.30460286094174 0.0 0.0
45.186976386221694 14.236959754851684 17.81571704811132 -171.6938858740068 0.0 0.0
78.77127851173165 4.313296717787441 24.809134930134757 -186.7839795034165 0.0 0.0
122.38749464865631 -1.108581712139276 36.30794864412858 -202.76242559863218 0.0 0.0
189.79119258977445 -4.3799262960380005 55.88984710939586 -208.51956216465848 0.0 0.0
280.66601616008785 -10.32569108787855 84.65038660953634 -199.63433243562014 0.0 0.0
370.72294810267744 -17.53258983722577 118.43704216755317 -182.61208909451386 0.0 0.0
436.0909444300535 -14.67288396050164 154.68717224451544 -168.23832294039968 0.0 0.0
481.8188805100494 -4.139983850348571 187.74138202087855 -159.38749469702208 0.0 0.0
521.8389255246026 8.268023567185736 218.51365248826238 -156.22376798846338 0.0 0.0
557.1075455116455 17.63957517323874 245.59245360850454 -154.77293481695943 0.0 0.0
588.8342283579591 25.655900857446127 270.23642963986555 -154.02356746526473 0.0 0.0
620.4208646880054 33.02875381872758 294.20190965861894 -153.45833712191038 0.0 0.0
654.724466378064 39.29129442855757 319.05975649475 -149.7609720342497 0.0 0.0
692.7677152642974 44.33677971988263 344.66535229760933 -141.45661920024506 0.0 0.0
742.9804717411381 58.53732599473982 377.6770973859086 -131.47376764690244 0.0 0.0
817.8638572956442 94.77900323154704 435.5899902704483 -125.79941659540901 0.0 0.0
143.31403093291274 -539.4060271881717 -183.9606067759202 1.999254095608194e-10 0.0 0.0
817.8638572960101 94.77900323201311 435.58999027076214 125.79941659557946 0.0 0.0
742.9804717411946 58.53732599521257 377.6770973860989 131.47376764733667 0.0 0.0
692.7677152649522 44.33677972072468 344.6653522981006 141.45661920069944 0.0 0.0
654.7244663779817 39.291294428389975 319.05975649458424 149.76097203427048 0.0 0.0
620.4208646887721 33.02875381982315 294.20190965915174 153.45833712198274 0.0 0.0
588.8342283587091 25.65590085872616 270.23642964045087 154.02356746539505 0.0 0.0
557.10754551138 17.639575172916572 245.5924536083085 154.77293481695818 0.0 0.0
521.8389255237454 8.268023566240801 218.51365248767112 156.22376798843652 0.0 0.0
481.81888051020525 -4.139983849894296 187.74138202101054 159.38749469714912 0.0 0.0
436.0909444294601 -14.672883961186553 154.68717224410076 168.23832294037567 0.0 0.0
370.72294810310285 -17.5325898359237 118.43704216800072 182.6120890945656 0.0 0.0
280.6660161596397 -10.325691088256093 84.6503866092668 199.63433243560442 0.0 0.0
189.79119258942123 -4.379926296206154 55.889847109240804 208.51956216459678 0.0 0.0
122.38749464835706 -1.1085817122994226 36.30794864399149 202.76242559845238 0.0 0.0
78.77127851173749 4.313296717938331 24.809134930185646 186.7839795031319 0.0 0.0
45.18697638630206 14.236959754943086 17.81571704816427 171.6938858739061 0.0 0.0
15.61678880214752 20.162047964712826 10.733550264496152 168.30460286074359 0.0 0.0
-7.3868072423542275 -2.1032922269911682 -2.8469505010731924 175.1302311476988 0.0 0.0
53.454068961306966 -60.32929715491682 -0.001357248465560179 187.9828389612864 0.0 0.0
-162.49969500592158 -635.5807499561664 -255.72836403292678 100.05867297058131 0.0 0.0
-119.7392736626668 -513.956315276087 -192.6108277261638 -109.86646874579021 0.0 0.0
11.492476213182812 -74.29647130669652 -18.492465557526515 -172.72296603651426 0.0 0.0
-31.782780490879013 -3.2885776387301693 -10.517473737354175 -178.91329471103978 0.0 0.0
-25.745570241759427 18.683625092865306 -2.1172537726984793 -174.60914297746808 0.0 0.0
-14.534261507283741 16.385405616573326 0.5566728000495846 -177.2156945198655 0.0 0.0
-6.458726213900331 7.848052711799851 0.42125478648389914 -190.89122885387087 0.0 0.0
-2.574380844925564 1.5923356181299786 -0.29817480081907544 -208.0210951554419 0.0 0.0
-0.6793603166857878 0.14677087296998703 -0.16198186413508964 -213.11036024302155 0.0 0.0
-0.11309773870960527 -0.0673870472960365 -0.05496261711193284 -205.73786930022922 0.0 0.0
0.09554907987420336 0.0033009776907562127 0.03913236790347341 -195.8359769929343 0.0 0.0
-0.03869390684619134 -0.16457445080379074 -0.1314800365920803 -194.14288032125182 0.0 0.0
-0.6945704692093955 0.17593387669004912 0.07497781468701703 -191.1787332466269 0.0 0.0
-1.9580215908310379 0.6876051933194631 0.15543378918804507 -183.5701241106207 0.0 0.0
-1.6962406417748639 1.3130683725294077 0.546586661121367 -175.44699106809253 0.0 0.0
3.1587625043217997 3.8278222131818964 1.4382872823800739 -169.63146785524853 0.0 0.0
20.24811844450406 9.204964302313748 4.137084945386903 -164.54093138357146 0.0 0.0
60.57642744659263 19.54114125744769 10.858447454930328 -159.31837390051396 0.0 0.0
143.33300223252587 25.972069610936288 14.793350094526858 -150.99988380538556 0.0 0.0
348.0426267132517 -27.709351998868257 28.830828721780904 -144.43529389352219 0.0 0.0
535.9543282701812 1.4934054649372257 198.97211317902932 -179.75171701153724 0.0 0.0
-460.46941671029555 -749.9174372556232 -529.6012648593044 6.188116685734713e-11 0.0 0.0
535.9543282696956 1.4934054638837324 198.97211317860916 179.75171701157723 0.0 0.0
348.0426267137353 -27.70935199749573 28.830828722456317 144.435293894157 0.0 0.0
143.33300223249515 25.972069611067056 14.793350094567927 150.99988380593393 0.0 0.0
60.57642744661975 19.54114125706053 10.85844745485808 159.31837390063293 0.0 0.0
20.24811844474604 9.204964302570481 4.137084945515483 164.54093138362165 0.0 0.0
3.158762505096405 3.827822214082026 1.438287282976134 169.63146785526544 0.0 0.0
-1.6962406416649571 1.3130683723899281 0.5465866610871757 175.4469910680781 0.0 0.0
-1.9580215910542051 0.6876051923138959 0.1554337887584225 183.57012411100808 0.0 0.0
-0.6945704686342822 0.1759338761450131 0.07497781470960518 191.17873324640263 0.0 0.0
-0.038693906709220016 -0.16457445152209083 -0.1314800367872948 194.14288032119066 0.0 0.0
0.09554908051234179 0.003300978596534776 0.03913236837234457 195.83597699287418 0.0 0.0
-0.11309773868605788 -0.06738704765220138 -0.054962617211087306 205.73786930026768 0.0 0.0
-0.6793603164302926 0.1467708732494959 -0.16198186396801972 213.1103602430588 0.0 0.0
-2.5743808448091166 1.5923356182610457 -0.2981748007466267 208.02109515520542 0.0 0.0
-6.458726213602317 7.848052712331759 0.4212547867328147 190.89122885356963 0.0 0.0
-14.534261507250411 16.385405616518955 0.5566728000426107 177.21569451974378 0.0 0.0
-25.745570241679673 18.68362509304716 -2.117253772621568 174.60914297726356 0.0 0.0
-31.782780490873037 -3.2885776386827836 -10.517473737337305 178.91329471095736 0.0 0.0
11.492476213006427 -74.29647130689315 -18.492465557638443 172.72296603632506 0.0 0.0
-119.73927366260466 -513.9563152753494 -192.61082772593716 109.86646874566105 0.0 0.0
-98.40344010553989 -403.8621411492169 -150.59204227263047 -108.05046056839764 0.0 0.0
-16.351687299899467 -82.34669973625488 -29.6208050195788 -160.73099609231835 0.0 0.0
-54.54470874675755 -4.2329982133512996 -17.634765879433587 -178.75876695968694 0.0 0.0
-65.5697016481633 17.333826146177064 -14.466658380936682 -176.37450940947832 0.0 0.0
-73.15268281580074 17.770385596019782 -16.617391919143838 -177.59939625741734 0.0 0.0
-90.55891296260701 11.176387307386861 -23.762797267285364 -188.76934040041382 0.0 0.0
-127.51224442400996 4.494482355348501 -36.77319134044957 -204.34519855854126 0.0 0.0
-190.98291240498162 4.566406770925104 -56.23927211369599 -208.73421997391094 0.0 0.0
-280.69806120336693 10.096982900732062 -84.76201195616233 -199.6380906913565 0.0 0.0
-370.5781912067703 17.530775297852937 -118.3758555991464 -182.57902656011646 0.0 0.0
-436.6168943053691 14.877568228957458 -154.61977231980808 -168.31962532416316 0.0 0.0
-482.1719126081283 4.0362448576594545 -188.28027528013465 -159.23796014826084 0.0 0.0
-522.9256189993152 -7.910427763963142 -219.56755604728687 -155.7459395815992 0.0 0.0
-557.7136309554646 -15.027125311621475 -245.49566023132775 -154.02871874253762 0.0 0.0
-583.7457534315124 -17.911574368809767 -263.5799025318727 -153.75398870664498 0.0 0.0
-599.1015183134338 -15.804918254704333 -270.7079330395842 -156.08016447684037 0.0 0.0
-601.6253512689199 -8.699074792858028 -264.52348271615324 -161.03238209678608 0.0 0.0
-596.3680753735871 -1.6647390104301962 -244.2634815988475 -171.28552904401218 0.0 0.0
-579.7962747876086 41.802801703597304 -191.77766560832845 -184.0957641109359 0.0 0.0
-326.02391732909473 112.87361896282013 -27.0562126836855 -134.47115257949022 0.0 0.0
-1000.8993273732669 -984.3882798027188 -998.2001730576568 -1.4281198446042254e-10 0.0 0.0
-326.0239173302894 112.87361896063811 -27.05621268478606 134.471152580259 0.0 0.0
-579.7962747866547 41.80280170479958 -191.7776656076683 184.09576411108029 0.0 0.0
-596.36807537392 -1.6647390108328324 -244.26348159901283 171.28552904434318 0.0 0.0
-601.6253512683461 -8.699074792452961 -264.52348271587374 161.03238209671073 0.0 0.0
-599.1015183135743 -15.804918255240402 -270.70793303969947 156.08016447693035 0.0 0.0
-583.745753431265 -17.91157436866262 -263.57990253160693 153.753988706681 0.0 0.0
-557.7136309551097 -15.027125311566508 -245.49566023115784 154.02871874262354 0.0 0.0
-522.9256189994452 -7.9104277646781505 -219.56755604736804 155.74593958167156 0.0 0.0
-482.17191260774337 4.036244858031045 -188.28027527973478 159.23796014834923 0.0 0.0
-436.6168943051432 14.877568228757902 -154.6197723196545 168.31962532420215 0.0 0.0
-370.578191206005 17.530775298095314 -118.37585559877031 182.57902656014898 0.0 0.0
-280.698061202778 10.09698290068405 -84.76201195596288 199.6380906913185 0.0 0.0
-190.98291240441569 4.5664067711381335 -56.23927211345975 208.73421997390375 0.0 0.0
-127.5122444236367 4.494482355638596 -36.77319134024714 204.3451985583776 0.0 0.0
-90.55891296199903 11.176387308204385 -23.762797266862975 188.76934040004542 0.0 0.0
-73.15268281550166 17.77038559635207 -16.617391918957342 177.59939625721523 0.0 0.0
-65.5697016480841 17.33382614628882 -14.466658380882937 176.37450940926686 0.0 0.0
-54.54470874672276 -4.232998213268018 -17.634765879401623 178.75876695950282 0.0 0.0
-16.351687300037835 -82.34669973637361 -29.62080501965998 160.7309960921981 0.0 0.0
-98.40344010549244 -403.8621411487508 -150.59204227247434 108.05046056832785 0.0 0.0
-80.95346702312355 -309.1872883596938 -117.0422266148452 -99.37530387352396 0.0 0.0
-34.8908221433672 -83.70539871221173 -35.57534436534133 -149.29354323405 0.0 0.0
-75.69329808834497 -5.139888703482964 -24.24538939589348 -174.84846713146902 0.0 0.0
-103.41983794325219 15.919047210827493 -26.269046290453215 -173.3592737192777 0.0 0.0
-130.72455581554675 18.691342888847363 -33.52877820730567 -174.08146276167747 0.0 0.0
-173.7603282496131 14.349483367604261 -47.527565713620504 -182.19865102049926 0.0 0.0
-248.23816243156614 5.943665158290681 -73.16155545466867 -187.96395908465055 0.0 0.0
-352.71251010242463 -1.9233804095845883 -116.53536896446442 -182.51203075307953 0.0 0.0
-453.47431544321677 -13.909985304828432 -177.8913709768222 -167.28920986181984 0.0 0.0
-531.0594506715083 -17.72265399470806 -234.58133377845888 -158.26141598714491 0.0 0.0
-588.5301830611768 -21.469538879215214 -278.83314769939807 -151.39840554584777 0.0 0.0
-636.0235348999237 -27.294517463029095 -313.10661381174623 -147.05623306181076 0.0 0.0
-680.3538494182333 -37.92108113136288 -344.49874249273967 -143.2942601656033 0.0 0.0
-718.881130015826 -46.83438030335962 -370.3640102592683 -140.0977208821726 0.0 0.0
-749.9724116189104 -51.48172992548042 -389.4515867146878 -138.45074922843227 0.0 0.0
-769.8440891888371 -49.193447347902094 -398.799127005919 -139.37662294453096 0.0 0.0
-777.1208081385203 -40.5184217782285 -398.00670019595196 -143.39770107058604 0.0 0.0
-771.155391828444 -27.84775296155368 -388.21817229823546 -150.59428940671592 0.0 0.0
-729.685289182029 11.502507789889577 -348.9086306350809 -159.20193471732887 0.0 0.0
-648.917869764074 77.78621992976589 -279.17903939045294 -165.6285304507689 0.0 0.0
-1749.6307962261542 -1270.929640714278 -1469.3018687893082 7.069189678077237e-11 0.0 0.0
-648.9178697643698 77.78621992908222 -279.17903939068617 165.6285304510293 0.0 0.0
-729.6852891815571 11.50250779023608 -348.9086306348215 159.20193471770148 0.0 0.0
-771.1553918288635 -27.847752962271088 -388.2181722984979 150.59428940699027 0.0 0.0
-777.1208081385564 -40.51842177829098 -398.00670019602705 143.39770107065303 0.0 0.0
-769.8440891886095 -49.19344734789328 -398.7991270057901 139.3766229444704 0.0 0.0
-749.9724116189436 -51.48172992567441 -389.4515867146849 138.45074922856068 0.0 0.0
-718.8811300158256 -46.83438030355191 -370.3640102592899 140.09772088216965 0.0 0.0
-680.3538494176219 -37.92108113095818 -344.49874249236575 143.29426016557883 0.0 0.0
-636.0235348995017 -27.294517462883995 -313.10661381146264 147.05623306187601 0.0 0.0
-588.5301830611714 -21.469538879645093 -278.8331476993945 151.39840554590637 0.0 0.0
-531.0594506714723 -17.722653995114943 -234.58133377837441 158.26141598717615 0.0 0.0
-453.4743154422855 -13.909985304191471 -177.89137097614102 167.289209861796 0.0 0.0
-352.71251010166446 -1.923380409073727 -116.53536896398424 182.5120307531065 0.0 0.0
-248.23816243119626 5.943665158016698 -73.16155545463835 187.9639590845211 0.0 0.0
-173.7603282491429 14.349483367764025 -47.52756571344431 182.1986510202091 0.0 0.0
-130.72455581532384 18.69134288895786 -33.52877820720893 174.0814627614582 0.0 0.0
-103.41983794311056 15.919047211002534 -26.269046290359988 173.35927371913036 0.0 0.0
-75.69329808831407 -5.139888703468533 -24.245389395880295 174.84846713132882 0.0 0.0
-34.89082214337628 -83.7053987122013 -35.57534436534091 149.29354323395364 0.0 0.0
-80.95346702300708 -309.1872883593206 -117.04222661469828 99.37530387344756 0.0 0.0
-65.46568004209422 -228.97535240236232 -88.33230973333697 -87.73725971886306 0.0 0.0
-48.6121554933005 -79.68600496394191 -38.490172513359276 -136.43269286368547 0.0 0.0
-95.20527528197374 -5.744840236540264 -30.28132377094731 -166.79395999393202 0.0 0.0
-139.74695111517246 14.555891507530662 -37.529368487454704 -166.76952614426116 0.0 0.0
-185.85022393252433 18.402220637409513 -50.14732049553864 -164.42202228125882 0.0 0.0
-253.0619228870264 13.922801793409025 -71.80325409697721 -165.02128164248262 0.0 0.0
-359.12630436280244 0.1507829777901435 -113.83807189159344 -164.16558466821132 0.0 0.0
-468.2635089856518 -20.167129555585262 -182.17721273186896 -151.9272174460245 0.0 0.0
-560.5717351865183 -31.193437449664508 -254.83435436724886 -145.7286650137578 0.0 0.0
-627.962654099309 -33.006928862751835 -308.30699575356465 -141.40305157804772 0.0 0.0
-679.9368766235623 -39.13567827321927 -347.0625481653165 -136.46650567764956 0.0 0.0
-727.9744658529524 -48.91731677478673 -379.9035585794681 -132.77062133490804 0.0 0.0
-775.6466628370091 -62.67781245142493 -412.03382928845326 -129.0725219669247 0.0 0.0
-819.6614529860714 -76.34982758944174 -441.6053819536936 -125.7376188006965 0.0 0.0
-857.003024352962 -85.50609088466813 -465.342245391685 -123.75783907080532 0.0 0.0
-881.9494368764397 -86.27897608146013 -478.4705915566863 -124.70213662072999 0.0 0.0
-891.3979071768717 -76.1902865110354 -478.25960440479776 -129.37687011255215 0.0 0.0
-875.1338241421972 -47.73141854001895 -456.1176088817068 -136.1411253145874 0.0 0.0
-827.0352310802006 3.610921941508934 -407.42140450196894 -142.0499060254897 0.0 0.0
-701.1834255658385 117.4634761237954 -292.66352306476307 -146.50727532860108 0.0 0.0
-2194.219141401566 -1510.9187026433615 -1821.4595270354257 9.249845334124984e-11 0.0 0.0
-701.1834255650268 117.46347612453343 -292.6635230642097 146.50727532866406 0.0 0.0
-827.0352310806178 3.6109219408966453 -407.4214045023076 142.04990602585912 0.0 0.0
-875.1338241418504 -47.73141853975291 -456.11760888133904 136.14112531465236 0.0 0.0
-891.3979071774502 -76.19028651180832 -478.25960440529343 129.3768701127136 0.0 0.0
-881.9494368760243 -86.27897608118056 -478.4705915564133 124.70213662071302 0.0 0.0
-857.0030243527663 -85.50609088453743 -465.34224539143906 123.75783907079823 0.0 0.0
-819.6614529861642 -76.3498275896965 -441.60538195380565 125.7376188005928 0.0 0.0
-775.6466628365486 -62.67781245113835 -412.03382928821907 129.07252196691815 0.0 0.0
-727.9744658519122 -48.91731677386072 -379.9035585787434 132.7706213348061 0.0 0.0
-679.9368766234517 -39.13567827345291 -347.06254816528894 136.46650567763584 0.0 0.0
-627.9626540997847 -33.00692886381711 -308.30699575382704 141.40305157821913 0.0 0.0
-560.5717351863162 -31.193437449913137 -254.83435436701444 145.72866501386488 0.0 0.0
-468.263508984707 -20.16712955488666 -182.17721273117726 151.92721744595215 0.0 0.0
-359.12630436237737 0.1507829775322984 -113.83807189145477 164.16558466830554 0.0 0.0
-253.06192288661606 13.922801793125728 -71.80325409695965 165.0212816422829 0.0 0.0
-185.85022393218878 18.402220637586 -50.14732049539559 164.4220222810876 0.0 0.0
-139.74695111513745 14.555891507288887 -37.529368487522156 166.76952614404468 0.0 0.0
-95.20527528181381 -5.7448402363303925 -30.281323770835613 166.79395999379383 0.0 0.0
-48.612155493252736 -79.68600496393296 -38.49017251334214 136.43269286359595 0.0 0.0
-65.465680041931 -228.97535240207682 -88.33230973320234 87.73725971882125 0.0 0.0
-53.267236043061764 -161.94543833158224 -64.5638023123932 -75.00444853907355 0.0 0.0
-59.28174044125095 -71.73838909394676 -39.30603886055931 -121.61085047086607 0.0 0.0
-113.53777505227058 -5.900255003868912 -35.832006874777605 -154.7267209898886 0.0 0.0
-174.03951578301331 12.62749720559721 -48.425546725822635 -155.2012249457297 0.0 0.0
-239.42526916962734 17.353149947548008 -66.34640487405791 -151.0552397333501 0.0 0.0
-333.7697380830184 11.54246024778282 -97.56481378698874 -145.81013982795727 0.0 0.0
-448.59812539985387 -13.195526611183947 -159.1104810660324 -133.90096692742753 0.0 0.0
-555.1258100215491 -33.827319151810926 -241.6202379134847 -127.8257825639745 0.0 0.0
-637.1021751423187 -40.77321937333618 -311.5679368574289 -125.78791308620119 0.0 0.0
-694.5732352044452 -48.147875256412824 -359.3234726471346 -121.9326905283817 0.0 0.0
-748.1766550761945 -56.039665273000274 -395.4275287929463 -119.8542460363904 0.0 0.0
-798.8983337214233 -68.94310157911823 -429.0446269323783 -116.872857896723 0.0 0.0
-850.3749200180471 -86.70453999563712 -464.1954021961425 -113.50982067729582 0.0 0.0
-900.2371194267655 -105.46622810427677 -498.7754813732251 -110.25479080941352 0.0 0.0
-943.9957053880561 -120.34555078330985 -528.3468786565927 -108.0091682206435 0.0 0.0
-974.6326224777351 -124.16564189668347 -545.7905997299515 -108.71947711628151 0.0 0.0
-981.4228151484642 -110.2705634550183 -542.486253461818 -112.79314953662299 0.0 0.0
-954.6511074199777 -67.87269648481629 -508.26331642730725 -118.8308709893954 0.0 0.0
-881.8126223876603 11.21017525815867 -433.5012741116552 -123.47969855958847 0.0 0.0
-730.7492584592518 152.36786952915872 -290.7642363568782 -126.12603169370526 0.0 0.0
-2542.6163656551234 -1753.4264868226896 -2123.6131652873037 2.375699637013895e-11 0.0 0.0
-730.7492584586608 152.36786952967392 -290.7642363565569 126.12603169381305 0.0 0.0
-881.8126223877545 11.21017525785227 -433.50127411168216 123.47969855990627 0.0 0.0
-954.6511074203822 -67.87269648533984 -508.26331642750677 118.83087098955694 0.0 0.0
-981.4228151488672 -110.2705634555555 -542.4862534622465 112.79314953675026 0.0 0.0
-974.6326224771996 -124.16564189627994 -545.7905997295974 108.71947711624121 0.0 0.0
-943.9957053878757 -120.34555078328728 -528.346878656419 108.00916822071672 0.0 0.0
-900.2371194266499 -105.46622810433594 -498.77548137310606 110.2547908094258 0.0 0.0
-850.3749200177349 -86.70453999557898 -464.195402195995 113.50982067733179 0.0 0.0
-798.8983337211766 -68.94310157899027 -429.0446269322272 116.87285789668289 0.0 0.0
-748.176655075808 -56.03966527279037 -395.427528792721 119.85424603621873 0.0 0.0
-694.5732352045907 -48.147875256914375 -359.32347264717407 121.93269052837641 0.0 0.0
-637.1021751418381 -40.77321937323277 -311.56793685701 125.78791308617622 0.0 0.0
-555.1258100210996 -33.82731915188213 -241.62023791311145 127.82578256411165 0.0 0.0
-448.59812539953145 -13.195526611341162 -159.1104810658028 133.90096692739806 0.0 0.0
-333.76973808244657 11.542460247909332 -97.5648137867695 145.81013982793073 0.0 0.0
-239.42526916931837 17.353149947449012 -66.34640487401127 151.05523973313475 0.0 0.0
-174.03951578306183 12.627497205290865 -48.42554672592955 155.20122494562585 0.0 0.0
-113.53777505213478 -5.900255003623172 -35.83200687466334 154.72672098979027 0.0 0.0
-59.28174044121668 -71.7383890939685 -39.306038860555546 121.61085047074822 0.0 0.0
-53.26723604292716 -161.94543833135305 -64.56380231228405 75.0044485390284 0.0 0.0
-44.46721733581545 -107.53657422463385 -45.60113746813478 -61.818742056754346 0.0 0.0
-67.79033383571277 -61.23516703431246 -38.70765026100756 -104.83013615457219 0.0 0.0
-130.8527138763695 -5.433129596842479 -40.886398328250806 -138.70920084773627 0.0 0.0
-206.56190516174186 10.613150591187633 -58.77060892823707 -139.65133030775766 0.0 0.0
-290.49596023013055 13.33223160855137 -83.08411923452698 -131.4153711230222 0.0 0.0
-406.77765285664503 3.247721570282579 -126.70011253339074 -120.33773540517727 0.0 0.0
-523.133890280622 -25.672352425135205 -204.8364383202234 -107.9525041719446 0.0 0.0
-622.3890312792441 -41.675558891148974 -290.8730732939594 -106.05075997067478 0.0 0.0
-690.0446808517088 -52.37943673789718 -354.4444165931096 -104.05471265893541 0.0 0.0
-750.1698721306757 -60.17092288510994 -398.0685021027345 -103.6659362371372 0.0 0.0
-804.725348294984 -72.18341952205292 -434.44230958312073 -102.29412264429064 0.0 0.0
-859.1568270587815 -89.07782989303219 -470.9639636264843 -99.87537584057995 0.0 0.0
-914.77583866042 -110.65288796331714 -509.7618150892878 -96.9893187963205 0.0 0.0
-969.4641383082111 -133.54273137151426 -548.6318424868805 -94.09072341057207 0.0 0.0
-1019.8918744581952 -154.31344936665965 -584.3363325977539 -91.74950730108569 0.0 0.0
-1055.5440592467098 -162.7312172235298 -606.6105552337294 -91.47912290162066 0.0 0.0
-1060.1681992017202 -143.12544769938958 -599.4469327948177 -94.71957480929316 0.0 0.0
-1017.9504797925671 -83.99881826203875 -549.2801160637507 -99.96098718973222 0.0 0.0
-919.6171277570571 21.25045346292623 -448.5294236116334 -104.12144557824426 0.0 0.0
-751.7512278466868 179.57595464714927 -287.4280080525896 -108.78784218736581 0.0 0.0
-2844.194885097688 -1985.7204938092345 -2395.240859777067 1.0534506600379245e-10 0.0 0.0
-751.7512278460376 179.57595464762193 -287.42800805221987 108.78784218763641 0.0 0.0
-919.6171277576341 21.250453462267544 -448.52942361202446 104.12144557848575 0.0 0.0
-1017.9504797934791 -83.99881826314515 -549.2801160643805 99.96098718994308 0.0 0.0
-1060.1681992018905 -143.12544769967977 -599.4469327949943 94.71957480943026 0.0 0.0
-1055.5440592455286 -162.73121722241618 -606.6105552328431 91.47912290152703 0.0 0.0
-1019.891874458587 -154.31344936721212 -584.3363325979836 91.7495073011446 0.0 0.0
-969.4641383068636 -133.54273137035875 -548.6318424858617 94.09072341055241 0.0 0.0
-914.7758386605421 -110.65288796367557 -509.7618150894627 96.98931879645029 0.0 0.0
-859.1568270590159 -89.07782989352188 -470.9639636266069 99.87537584059068 0.0 0.0
-804.725348294784 -72.18341952207629 -434.44230958304775 102.29412264422356 0.0 0.0
-750.1698721304911 -60.17092288525626 -398.0685021025993 103.66593623717044 0.0 0.0
-690.0446808502718 -52.37943673662515 -354.44441659210395 104.05471265882107 0.0 0.0
-622.3890312789458 -41.675558891290116 -290.87307329361835 106.05075997074968 0.0 0.0
-523.133890279979 -25.672352424890697 -204.83643831969795 107.95250417187827 0.0 0.0
-406.7776528559323 3.24772157065802 -126.70011253299933 120.33773540511615 0.0 0.0
-290.4959602298328 13.332231608279468 -83.0841192345434 131.41537112282802 0.0 0.0
-206.56190516155223 10.613150591099592 -58.77060892820617 139.65133030771915 0.0 0.0
-130.85271387623726 -5.4331295967878175 -40.88639832819435 138.709200847661 0.0 0.0
-67.79033383570132 -61.235167034338396 -38.707650261011906 104.8301361544716 0.0 0.0
-44.46721733579836 -107.53657422452606 -45.60113746809731 61.81874205669869 0.0 0.0
-38.732956519380025 -65.4359234082195 -31.250663978279853 -48.43798709086025 0.0 0.0
-74.43885837463803 -49.36099784256369 -37.13995686516052 -86.26358847282862 0.0 0.0
-147.12678222305212 -4.373522051065455 -45.45054090191728 -118.78723224021874 0.0 0.0
-237.59085825737787 7.956024790945456 -68.88582250807924 -119.66804942871202 0.0 0.0
-344.52991011449063 8.832513660139844 -100.53585893966242 -109.27408447955871 0.0 0.0
-466.18774631065816 -11.489480394496258 -159.39482508092152 -90.46885885513409 0.0 0.0
-584.8187769419633 -33.948010147162464 -247.15746984383765 -84.65826039449942 0.0 0.0
-667.9296151183352 -50.20042428377115 -330.10767691107617 -83.92615041095311 0.0 0.0
-736.441710120941 -60.58042572336773 -387.7088830703889 -84.33117986903116 0.0 0.0
-796.5498416543296 -72.57669444055193 -430.20010132099634 -84.60725494960582 0.0 0.0
-854.4648088108777 -88.49841006882905 -468.84421178825573 -83.86911834811431 0.0 0.0
-912.8246782228798 -109.21727895644531 -508.83373427679135 -82.0289683904011 0.0 0.0
-972.3237852414132 -134.13925084420433 -551.1272328607748 -79.70774569966738 0.0 0.0
-1030.8144479839343 -161.33394372587014 -593.9720205921092 -77.308583144935 0.0 0.0
-1085.9295650476006 -185.87782014200155 -633.8177678942334 -75.04519772461484 0.0 0.0
-1127.6054627050405 -198.81779627721087 -661.297916069112 -73.77858551855718 0.0 0.0
-1132.656717674366 -178.9671538833121 -654.3267074752124 -75.28198102906947 0.0 0.0
-1075.8511149620185 -103.47735573515115 -588.783727500181 -79.81560875137644 0.0 0.0
-952.0117428991538 28.386189330430923 -461.72314453561455 -85.38032073568831 0.0 0.0
-763.2755525546243 206.8507944154286 -279.1535317688166 -94.05444506111347 0.0 0.0
-3109.58703531563 -2200.2465919702236 -2638.8119913969977 6.514966344184359e-11 0.0 0.0
-763.2755525537307 206.85079441631814 -279.15353176813437 94.05444506116305 0.0 0.0
-952.011742900117 28.386189329371177 -461.72314453627405 85.38032073575074 0.0 0.0
-1075.851114962388 -103.47735573566443 -588.7837275004722 79.8156087515494 0.0 0.0
-1132.656717674487 -178.96715388358254 -654.3267074753056 75.28198102926673 0.0 0.0
-1127.6054627043325 -198.8177962765502 -661.2979160685381 73.77858551845407 0.0 0.0
-1085.9295650463705 -185.87782014095907 -633.8177678934115 75.04519772463455 0.0 0.0
-1030.8144479835419 -161.33394372566022 -593.9720205917928 77.30858314504121 0.0 0.0
-972.3237852414004 -134.1392508444331 -551.1272328607386 79.70774569978728 0.0 0.0
-912.8246782217893 -109.21727895553107 -508.83373427604903 82.02896839032887 0.0 0.0
-854.4648088107155 -88.49841006887358 -468.84421178820463 83.86911834799791 0.0 0.0
-796.5498416541961 -72.57669444079019 -430.200101320905 84.60725494971031 0.0 0.0
-736.4417101202592 -60.580425722906035 -387.7088830698881 84.33117986898856 0.0 0.0
-667.9296151175353 -50.20042428326449 -330.1076769104328 83.92615041088058 0.0 0.0
-584.8187769412086 -33.9480101467165 -247.15746984320674 84.658260394472 0.0 0.0
-466.1877463099156 -11.489480393955024 -159.39482508041317 90.46885885488793 0.0 0.0
-344.5299101140721 8.832513659998448 -100.5358589395948 109.27408447955999 0.0 0.0
-237.5908582572201 7.956024790813746 -68.88582250807129 119.66804942863095 0.0 0.0
-147.1267822229049 -4.373522051011365 -45.45054090185686 118.78723224018461 0.0 0.0
-74.43885837452332 -49.360997842513314 -37.139956865110975 86.2635884726838 0.0 0.0
-38.732956519285715 -65.43592340812799 -31.250663978224104 48.43798709082291 0.0 0.0
-35.39318774267646 -35.451445200551625 -21.25338988296842 -35.18901558659075 0.0 0.0
-79.024611367993 -37.155644766941435 -34.85407684048033 -66.12903348466655 0.0 0.0
-162.1323740624652 -2.937994258521452 -49.521110496296004 -94.87230180991227 0.0 0.0
-268.11172588804214 4.56434880968316 -79.02952404969733 -95.3660140329636 0.0 0.0
-396.04626431078174 0.716579880509622 -120.0237727960729 -81.7004697880697 0.0 0.0
-524.8475137027315 -21.876903907963303 -192.633330151303 -65.40788942265304 0.0 0.0
-628.3150953969542 -41.80368696527535 -284.6991136306571 -62.90338112821988 0.0 0.0
-706.0365053031126 -55.467438968864506 -360.34567160311457 -63.14969593527314 0.0 0.0
-774.7033626793652 -69.56172240591158 -415.19546876817304 -64.19715891065213 0.0 0.0
-837.5065479352686 -85.14284845699814 -458.47291678211997 -64.9495213327453 0.0 0.0
-898.8411409933949 -104.94237052951294 -500.0739507517755 -64.64803104856614 0.0 0.0
-961.3596802361469 -129.53056353180563 -543.8755982235299 -63.342902561221436 0.0 0.0
-1024.5419997448857 -158.50521772296824 -589.9939215036807 -61.564959660836976 0.0 0.0
-1086.107032283543 -187.11500340411263 -635.0529449246268 -59.8690040936253 0.0 0.0
-1142.9671119195864 -213.6322465575428 -676.7077764672119 -57.97748894805011 0.0 0.0
-1189.3607411549326 -231.38747946712775 -708.8635971510499 -55.87403106942455 0.0 0.0
-1202.5245297549818 -218.1465016888543 -709.2312492483106 -55.20040324691296 0.0 0.0
-1139.3068811316339 -134.7329106442115 -636.6149856504974 -58.69065175288564 0.0 0.0
-986.6573862778025 26.93283213009377 -480.10758034535365 -66.79214298096652 0.0 0.0
-762.6016240642156 241.11534115395787 -261.3471988164141 -80.56639194018234 0.0 0.0
-3339.005090580594 -2387.5078011269247 -2850.0743699879085 1.000124427719129e-10 0.0 0.0
-762.6016240641039 241.11534115404297 -261.34719881624494 80.56639194025725 0.0 0.0
-986.6573862773666 26.93283213046024 -480.1075803450974 66.79214298106135 0.0 0.0
-1139.306881131167 -134.73291064384537 -636.6149856502059 58.69065175288925 0.0 0.0
-1202.5245297545273 -218.1465016884799 -709.2312492479475 55.2004032469851 0.0 0.0
-1189.3607411548503 -231.3874794672032 -708.8635971509539 55.87403106942268 0.0 0.0
-1142.967111918093 -213.6322465561161 -676.7077764661303 57.97748894801312 0.0 0.0
-1086.1070322831129 -187.11500340385925 -635.0529449242844 59.869004093554544 0.0 0.0
-1024.5419997442707 -158.50521772257488 -589.9939215032811 61.56495966085889 0.0 0.0
-961.3596802348708 -129.53056353072347 -543.8755982226972 63.342902561228755 0.0 0.0
-898.8411409927878 -104.94237052913417 -500.07395075141426 64.64803104850506 0.0 0.0
-837.506547935098 -85.14284845709724 -458.4729167819991 64.94952133270192 0.0 0.0
-774.7033626789366 -69.56172240579215 -415.19546876787035 64.19715891065383 0.0 0.0
-706.0365053023143 -55.467438968324934 -360.34567160248764 63.14969593524133 0.0 0.0
-628.3150953965907 -41.803686965256816 -284.69911363024573 62.90338112817511 0.0 0.0
-524.8475137021599 -21.876903907689233 -192.63333015085877 65.40788942249473 0.0 0.0
-396.0462643102935 0.7165798804774592 -120.02377279593374 81.70046978805772 0.0 0.0
-268.1117258878427 4.564348809677765 -79.02952404963766 95.36601403294162 0.0 0.0
-162.13237406229516 -2.9379942584165804 -49.52111049621353 94.87230180985246 0.0 0.0
-79.02461136792506 -37.155644766867724 -34.854076840437834 66.12903348455602 0.0 0.0
-35.39318774261699 -35.45144520051555 -21.25338988293976 35.18901558652425 0.0 0.0
-33.260717907998846 -17.252920386500712 -15.154091488349868 -22.812647494455852 0.0 0.0
-80.78353078841964 -25.70569512965759 -31.94676777542316 -44.71349678336376 0.0 0.0
-175.46520657884383 -1.6380097252260315 -53.13096489122096 -66.50201232974163 0.0 0.0
-299.1898480466843 0.4335453309101558 -89.53425975093532 -66.24417725634113 0.0 0.0
-443.4446914884558 -11.033347035686196 -142.4581259533061 -51.72297793082446 0.0 0.0
-572.1804426779283 -30.671465766992238 -225.61057350371607 -42.29893927055909 0.0 0.0
-659.4889247597049 -47.15548776592411 -314.8529800981564 -41.70632362394284 0.0 0.0
-738.2867214487961 -61.812823639329395 -385.83523893307637 -42.79410159286729 0.0 0.0
-808.0691858703987 -79.1022373753421 -438.9792641156829 -43.83999533744712 0.0 0.0
-873.8171051412214 -98.03484424161282 -483.96157554379295 -44.635384353166046 0.0 0.0
-939.1899455116098 -121.5183332909612 -529.0575244513172 -44.64822315029758 0.0 0.0
-1005.455191324856 -150.00119747181145 -576.5962950807918 -43.840071067848754 0.0 0.0
-1072.5820113526408 -181.47411616927312 -625.9070249391704 -42.7585616808232 0.0 0.0
-1136.5747148241337 -213.21723044603263 -673.7518797688485 -41.62644369884726 0.0 0.0
-1193.7054508632573 -239.35724792636734 -715.3625628327429 -40.30084893657641 0.0 0.0
-1238.248793039697 -254.9049462627196 -745.4140057173101 -38.259436293722125 0.0 0.0
-1261.3784549192567 -251.62663224137802 -755.5385340223756 -35.84441870542681 0.0 0.0
-1225.3329273996978 -194.15560349861963 -709.4398338619359 -36.72633461141249 0.0 0.0
-1043.2278513942729 -0.908913993449147 -522.5575385566226 -46.6400423861806 0.0 0.0
-738.4869453260632 295.5965050068034 -221.9115763726545 -67.16597647415406 0.0 0.0
-3518.3712307128894 -2529.795830834901 -3013.348815940593 6.195399748776254e-11 0.0 0.0
-738.4869453265626 295.5965050062532 -221.91157637300643 67.16597647422539 0.0 0.0
-1043.2278513937904 -0.9089139930224235 -522.5575385563483 46.640042386299655 0.0 0.0
-1225.3329273987454 -194.15560349771803 -709.4398338612878 36.72633461133873 0.0 0.0
-1261.378454918623 -251.6266322408454 -755.5385340218625 35.84441870539194 0.0 0.0
-1238.2487930397401 -254.90494626288296 -745.4140057172801 38.25943629376192 0.0 0.0
-1193.705450862726 -239.35724792600962 -715.3625628322714 40.30084893660888 0.0 0.0
-1136.574714823314 -213.21723044537575 -673.7518797682815 41.62644369891292 0.0 0.0
-1072.5820113521247 -181.47411616893905 -625.9070249388299 42.75856168079077 0.0 0.0
-1005.4551913235996 -150.00119747077932 -576.5962950799359 43.84007106787023 0.0 0.0
-939.189945511117 -121.51833329068714 -529.0575244510082 44.64822315021629 0.0 0.0
-873.8171051407285 -98.03484424137203 -483.96157554343364 44.6353843530667 0.0 0.0
-808.0691858698672 -79.10223737511727 -438.9792641153033 43.83999533753364 0.0 0.0
-738.2867214482637 -61.812823639061676 -385.8352389326192 42.79410159278113 0.0 0.0
-659.4889247595945 -47.155487766169955 -314.85298009790625 41.70632362389702 0.0 0.0
-572.1804426775652 -30.671465767021804 -225.61057350336017 42.29893927049837 0.0 0.0
-443.4446914877409 -11.033347035380388 -142.45812595297403 51.72297793077117 0.0 0.0
-299.1898480464725 0.43354533086275815 -89.5342597508815 66.2441772563125 0.0 0.0
-175.46520657866114 -1.6380097252003896 -53.130964891158456 66.50201232962563 0.0 0.0
-80.78353078835417 -25.705695129632776 -31.94676777539608 44.71349678333276 0.0 0.0
-33.26071790805044 -17.2529203865307 -15.154091488374341 22.812647494469708 0.0 0.0
-30.10270167670838 -9.865342727862606 -11.990413321371292 -12.94316696295436 0.0 0.0
-78.25302335535824 -16.577651258685712 -28.449202384213187 -22.394048529436514 0.0 0.0
-186.48586160441795 -1.3520446434856068 -56.35137187437106 -32.47448795421038 0.0 0.0
-332.15600695035266 -3.4136113976024376 -100.55752999189508 -31.788352178605894 0.0 0.0
-492.30647174453543 -20.23030798863679 -166.47387337252673 -23.107546806438382 0.0 0.0
-606.2973634126714 -37.43624266477855 -255.89354551635398 -21.24995618981599 0.0 0.0
-687.7448714419245 -49.79910549600028 -339.0707100951331 -22.193753021838678 0.0 0.0
-765.6921592337302 -68.7928474892052 -407.3130765721066 -22.815837936862962 0.0 0.0
-837.3988379074874 -88.72762504898684 -459.85632624742107 -23.253255799219147 0.0 0.0
-906.4734300001494 -111.470261151999 -507.56519342251454 -23.703544853679606 0.0 0.0
-975.62924669684 -138.46321174435514 -556.114025508756 -23.82552551391298 0.0 0.0
-1045.8957711736343 -169.70810494396778 -606.9968119755608 -23.611334981363512 0.0 0.0
-1116.1306710943184 -204.87674415957594 -659.7015160660386 -23.133061447862165 0.0 0.0
-1183.2179928681553 -238.4042589940717 -709.9820534978768 -22.603904002897025 0.0 0.0
-1239.760977077684 -263.59426920681267 -750.8415036156596 -21.91537212140314 0.0 0.0
-1279.2454383613938 -274.135598478676 -775.8772127550964 -20.583762982733692 0.0 0.0
-1298.7293045143424 -267.74350645368395 -782.4662387066046 -18.20239642208267 0.0 0.0
-1300.0752196861374 -247.52672927407434 -773.2094213199598 -16.310132016725973 0.0 0.0
-1208.0129870242642 -141.50206321425617 -674.9856425794037 -22.856104358240444 0.0 0.0
-722.9030684892646 340.22430167172695 -191.96398507446744 -49.38964265501571 0.0 0.0
-3499.756402745429 -2475.6415620503944 -2979.597346441064 5.254463530945941e-12 0.0 0.0
-722.9030684889317 340.22430167201367 -191.9639850742179 49.38964265504318 0.0 0.0
-1208.012987024471 -141.5020632145304 -674.9856425795467 22.856104358365368 0.0 0.0
-1300.075219686291 -247.52672927430518 -773.2094213200885 16.31013201673823 0.0 0.0
-1298.7293045136385 -267.7435064530832 -782.4662387062085 18.202396422042295 0.0 0.0
-1279.245438361184 -274.135598478623 -775.8772127549419 20.583762982845954 0.0 0.0
-1239.7609770766062 -263.59426920587003 -750.8415036148574 21.9153721214769 0.0 0.0
-1183.2179928679868 -238.40425899408189 -709.9820534977698 22.603904002849312 0.0 0.0
-1116.1306710942654 -204.87674415974536 -659.7015160659474 23.133061447970157 0.0 0.0
-1045.8957711731812 -169.70810494374248 -606.9968119752454 23.6113349814185 0.0 0.0
-975.6292466968453 -138.46321174459518 -556.11402550876 23.825525513828158 0.0 0.0
-906.4734299996303 -111.47026115174346 -507.5651934221331 23.703544853612172 0.0 0.0
-837.3988379072623 -88.72762504906251 -459.85632624723473 23.253255799231408 0.0 0.0
-765.6921592329978 -68.79284748874858 -407.3130765715812 22.81583793686071 0.0 0.0
-687.7448714416855 -49.79910549609079 -339.07071009481166 22.19375302181769 0.0 0.0
-606.2973634120673 -37.43624266452919 -255.89354551584327 21.249956189802113 0.0 0.0
-492.3064717438685 -20.23030798826024 -166.47387337211538 23.10754680643119 0.0 0.0
-332.1560069499372 -3.4136113975122058 -100.55752999177211 31.78835217861323 0.0 0.0
-186.4858616042307 -1.3520446434126567 -56.351371874292994 32.47448795419575 0.0 0.0
-78.25302335528087 -16.577651258662613 -28.44920238418304 22.39404852939972 0.0 0.0
-30.10270167664669 -9.86534272784726 -11.990413321348182 12.943166962936555 0.0 0.0
-19.03274222913722 -4.890326572215276 -7.176920640405749 -8.05558534050955 0.0 0.0
-67.54529836650673 -9.352466952875792 -23.069329595814757 -9.298348653783833 0.0 0.0
-194.13592444317678 -2.796876145620786 -59.07984017663926 -10.992107937221817 0.0 0.0
-372.665618730232 -16.72208215970209 -117.26390080692886 -9.065162852957842 0.0 0.0
-555.5985174088215 -56.86497875622979 -206.2801325249636 -1.499778282089153 0.0 0.0
-684.7366614862653 -98.07464322612132 -320.14434214635423 0.8455708064192677 0.0 0.0
-791.3896128886215 -138.76335553885778 -428.4427425516846 0.7943634131419124 0.0 0.0
-903.8852437782343 -193.9096742776964 -530.1079054143381 -0.40292241081202107 0.0 0.0
-1021.1418179303064 -260.3227003426271 -628.0397042727973 -1.820256599030408 0.0 0.0
-1151.8199609050716 -344.46838630844127 -737.02472901274 -3.3141475551688355 0.0 0.0
-1301.137994754164 -450.9985022295216 -865.1561664139308 -4.758249938727138 0.0 0.0
-1469.6232016430351 -580.846255588426 -1014.0579000617095 -5.98064245982037 0.0 0.0
-1652.7738998743885 -727.7695205657567 -1178.6429145495656 -6.805538393147749 0.0 0.0
-1842.5056025543122 -883.5414673377563 -1350.9757925726494 -7.535347134089065 0.0 0.0
-2024.5120798596774 -1033.8350109345558 -1516.7951952220071 -7.9942610418509865 0.0 0.0
-2178.6423964677197 -1158.894659623194 -1656.2167352634783 -7.938936027321613 0.0 0.0
-2279.709867062881 -1234.4904890881903 -1744.617537306628 -6.916601592336722 0.0 0.0
-2306.7182775808774 -1240.6693991642712 -1761.2340136495482 -4.877584445359872 0.0 0.0
-2318.678437193943 -1237.572165722244 -1764.6159655845565 -9.076926624002649 0.0 0.0
-2324.474310976879 -1241.4174564938326 -1766.38346589468 -38.26238132047967 0.0 0.0
-5599.111798926035 -4547.075333162351 -5047.528349402175 1.3244516594568267e-11 0.0 0.0
-2324.474310975338 -1241.4174564922841 -1766.3834658935334 38.262381320391775 0.0 0.0
-2318.67843719402 -1237.5721657224135 -1764.6159655844153 9.0769266241089 0.0 0.0
-2306.718277580697 -1240.6693991641714 -1761.2340136492023 4.877584445342443 0.0 0.0
-2279.7098670610467 -1234.4904890864607 -1744.6175373053356 6.916601592378612 0.0 0.0
-2178.6423964664327 -1158.8946596220349 -1656.216735262319 7.938936027338023 0.0 0.0
-2024.5120798577793 -1033.8350109327946 -1516.7951952204776 7.994261041824096 0.0 0.0
-1842.505602553074 -883.5414673366615 -1350.9757925715694 7.535347133969303 0.0 0.0
-1652.7738998741988 -727.7695205658134 -1178.642914549289 6.8055383931979065 0.0 0.0
-1469.6232016425874 -580.8462555882148 -1014.0579000612125 5.980642459861386 0.0 0.0
-1301.1379947538958 -450.99850222951807 -865.1561664135941 4.7582499386702075 0.0 0.0
-1151.819960904173 -344.4683863078089 -737.0247290119974 3.3141475551285815 0.0 0.0
-1021.1418179296095 -260.32270034223257 -628.0397042722284 1.8202565989417465 0.0 0.0
-903.8852437772208 -193.9096742769316 -530.1079054135671 0.40292241091585623 0.0 0.0
-791.3896128879376 -138.76335553849503 -428.442742551063 -0.7943634131715349 0.0 0.0
-684.736661485408 -98.07464322555403 -320.1443421456264 -0.8455708063270464 0.0 0.0
-555.5985174080902 -56.86497875574639 -206.28013252445345 1.4997782821546366 0.0 0.0
-372.6656187295824 -16.72208215911676 -117.26390080655977 9.065162852987232 0.0 0.0
-194.13592444294198 -2.7968761455115043 -59.07984017653603 10.992107937220258 0.0 0.0
-67.54529836644498 -9.352466952796714 -23.0693295957725 9.298348653757543 0.0 0.0
-19.032742229163155 -4.89032657225099 -7.176920640424243 8.055585340300091 0.0 0.0
SCALARS Strain float 6
LOOKUP_TABLE default
0.01306686203161126 -0.02211467297386567 0.0 -0.0010601855747890633 0.0 0.0
0.008020731985458628 -0.0021025170939200305 0.0 -0.006782160857246147 0.0 0.0
0.0024332903082354015 -0.000610645601504026 0.0 -0.0007313007305613907 0.0 0.0
0.0021250503053163367 -0.0008508047571077471 0.0 -1.8535658718549882e-05 0.0 0.0
0.0029711776222044314 -0.001247069726873004 0.0 0.00012336450147397443 0.0 0.0
0.004796329740539841 -0.0025848781663001183 0.0 0.00024530913198050387 0.0 0.0
0.007920287498231744 -0.005196040253788619 0.0 0.00032789986531760933 0.0 0.0
0.01255741149735759 -0.009302913676942323 0.0 0.0003596144283225882 0.0 0.0
0.018890373366927768 -0.015073071637630418 0.0 0.00034583108086081626 0.0 0.0
0.026997155786982086 -0.02252899716982345 0.0 0.00026905997676890094 0.0 0.0
0.036869941993461684 -0.031629085198150775 0.0 0.00016731572056792523 0.0 0.0
0.04846669721601109 -0.04232766873143457 0.0 3.7922627983209833e-05 0.0 0.0
0.061727107765488176 -0.05459514275944592 0.0 -0.00016482599074181515 0.0 0.0
0.07658167508341289 -0.0683984095357798 0.0 -0.0003932536350249858 0.0 0.0
0.09287909916246338 -0.08363773042245073 0.0 -0.0006914306950749413 0.0 0.0
0.1102294177142463 -0.09997905424626594 0.0 -0.0010622406497705023 0.0 0.0
0.12788960060068802 -0.11673301739311617 0.0 -0.0014396492274210298 0.0 0.0
0.14474204597991086 -0.1328371267606272 0.0 -0.001677070016247476 0.0 0.0
0.15940457449832915 -0.14693128557903032 0.0 -0.0015984586871903724 0.0 0.0
0.1702438020460058 -0.15745041678732663 0.0 -0.0016802099249211152 0.0 0.0
0.17448286704680752 -0.16173763498129518 0.0 2.7929047963226594e-15 0.0 0.0
0.17024380204598463 -0.15745041678731161 0.0 0.001680209924929038 0.0 0.0
0.15940457449828394 -0.1469312855789942 0.0 0.0015984586871976526 0.0 0.0
0.14474204597984652 -0.13283712676055537 0.0 0.0016770700162534588 0.0 0.0
0.12788960060061375 -0.11673301739305836 0.0 0.0014396492274188905 0.0 0.0
0.11022941771416783 -0.09997905424619993 0.0 0.0010622406497657376 0.0 0.0
0.09287909916238458 -0.0836377304223769 0.0 0.0006914306950756297 0.0 0.0
0.07658167508333438 -0.06839840953569244 0.0 0.0003932536350251042 0.0 0.0
0.06172710776541 -0.05459514275937395 0.0 0.00016482599074142245 0.0 0.0
0.048466697215938534 -0.042327668731367854 0.0 -3.79226279866177e-05 0.0 0.0
0.036869941993399345 -0.03162908519809115 0.0 -0.00016731572056926042 0.0 0.0
0.02699715578693189 -0.022528997169783117 0.0 -0.0002690599767708108 0.0 0.0
0.018890373366889097 -0.015073071637591352 0.0 -0.0003458310808608345 0.0 0.0
0.012557411497329361 -0.009302913676920065 0.0 -0.00035961442832239455 0.0 0.0
0.00792028749821377 -0.00519604025377269 0.0 -0.000327899865318323 0.0 0.0
0.004796329740529921 -0.0025848781662919946 0.0 -0.00024530913198097333 0.0 0.0
0.002971177622200235 -0.0012470697268705127 0.0 -0.00012336450147321456 0.0 0.0
0.0021250503053150474 -0.0008508047571078095 0.0 1.8535658719520863e-05 0.0 0.0
0.002433290308233889 -0.0006106456015039677 0.0 0.0007313007305600873 0.0 0.0
0.008020731985453281 -0.002102517093916889 0.0 0.006782160857236173 0.0 0.0
0.013066862031602908 -0.022114672973841412 0.0 0.0010601855747455846 0.0 0.0
0.009012758866372081 -0.019772832242185595 0.0 -0.0005903467767080859 0.0 0.0
0.005297865233678788 -0.0015629185524263763 0.0 -0.005439152610768392 0.0 0.0
0.0016351813136026478 -0.0004812162089918922 0.0 -0.0004731136600712644 0.0 0.0
0.0018871709737769567 -0.0008025460015085646 0.0 -0.00020327054522469357 0.0 0.0
0.002579472760016957 -0.0011318291456451442 0.0 -0.00015793551240197138 0.0 0.0
0.0041296672310836575 -0.002316728844346489 0.0 -0.0002074330706520563 0.0 0.0
0.006907471559745523 -0.004744055785639913 0.0 -0.00044257257886248173 0.0 0.0
0.011112477921801027 -0.008627226100321841 0.0 -0.0007969895114390152 0.0 0.0
0.016887910155108973 -0.014116701399551984 0.0 -0.001284916501653857 0.0 0.0
0.024263600124769653 -0.02121161882959427 0.0 -0.0018828171233626597 0.0 0.0
0.03319565731029484 -0.02985133545822824 0.0 -0.0025276274966834753 0.0 0.0
0.04363331051958869 -0.039981475272788385 0.0 -0.003180290136855353 0.0 0.0
0.055557764926281686 -0.051586900037306364 0.0 -0.0038742344099161894 0.0 0.0
0.06894028024437995 -0.06466094985333044 0.0 -0.004624432458045544 0.0 0.0
0.083657767307207 -0.07911453702178889 0.0 -0.005416205876252678 0.0 0.0
0.09937418574375079 -0.09464043612207125 0.0 -0.006192085530754291 0.0 0.0
0.11543107609897217 -0.11059827043121886 0.0 -0.0067603178512861736 0.0 0.0
0.13083160535211807 -0.12598827955241737 0.0 -0.006806806506129461 0.0 0.0
0.14425595254299678 -0.13949649054364854 0.0 -0.00608626398321548 0.0 0.0
0.15388976238522317 -0.1494511234819753 0.0 -0.00495490303600874 0.0 0.0
0.15749058464551124 -0.1535545874233549 0.0 6.319597622983508e-15 0.0 0.0
0.15388976238520313 -0.14945112348195588 0.0 0.0049549030360265525 0.0 0.0
0.14425595254295703 -0.13949649054361 0.0 0.006086263983235299 0.0 0.0
0.13083160535206192 -0.12598827955235684 0.0 0.00680680650613959 0.0 0.0
0.1154310760989064 -0.11059827043115832 0.0 0.006760317851285052 0.0 0.0
0.09937418574368063 -0.09464043612200768 0.0 0.006192085530748376 0.0 0.0
0.08365776730713574 -0.07911453702171632 0.0 0.005416205876253155 0.0 0.0
0.0689402802443091 -0.06466094985325598 0.0 0.004624432458044973 0.0 0.0
0.05555776492621157 -0.051586900037234415 0.0 0.003874234409911396 0.0 0.0
0.04363331051952334 -0.03998147527272703 0.0 0.003180290136848403 0.0 0.0
0.03319565731023852 -0.029851335458171945 0.0 0.002527627496677191 0.0 0.0
0.024263600124724005 -0.02121161882954978 0.0 0.0018828171233576357 0.0 0.0
0.016887910155073654 -0.014116701399518433 0.0 0.0012849165016504743 0.0 0.0
0.01111247792177541 -0.008627226100302471 0.0 0.0007969895114364687 0.0 0.0
0.006907471559729382 -0.004744055785625843 0.0 0.00044257257886011627 0.0 0.0
0.0041296672310753586 -0.0023167288443385957 0.0 0.00020743307065158214 0.0 0.0
0.0025794727600140445 -0.0011318291456436428 0.0 0.00015793551240196659 0.0 0.0
0.0018871709737760239 -0.0008025460015095488 0.0 0.00020327054522410612 0.0 0.0
0.0016351813136021055 -0.0004812162089917081 0.0 0.00047311366007003015 0.0 0.0
0.005297865233672324 -0.001562918552423393 0.0 0.005439152610757583 0.0 0.0
0.009012758866359306 -0.019772832242160348 0.0 0.000590346776674072 0.0 0.0
0.006552758199551926 -0.015694750650245854 0.0 -0.003397085046797846 0.0 0.0
0.0037337292819724895 -0.000857959985378404 0.0 -0.005382889946634548 0.0 0.0
0.0011470256450279441 -0.00027466959398268027 0.0 -0.0004438444358098532 0.0 0.0
0.0016077256757085817 -0.000687195327179198 0.0 -0.0004800218823203616 0.0 0.0
0.0022242831438462575 -0.0009351406219056649 0.0 -0.0004761420855703305 0.0 0.0
0.003496460429721798 -0.0018147576559877257 0.0 -0.0005534334853045706 0.0 0.0
0.0059039420887558956 -0.0038544475076948363 0.0 -0.0009974047347660658 0.0 0.0
0.009655852061105948 -0.007282244695478231 0.0 -0.0016932793270606808 0.0 0.0
0.014845346846219219 -0.01219381958219896 0.0 -0.0026405594938239386 0.0 0.0
0.021469388931020746 -0.01855707529177339 0.0 -0.003778151656578916 0.0 0.0
0.029455102585975126 -0.026272109565389057 0.0 -0.005000897838953405 0.0 0.0
0.03874230968652102 -0.03527118979484548 0.0 -0.006218064614604228 0.0 0.0
0.04932507213820825 -0.04555494771423954 0.0 -0.007437486523350995 0.0 0.0
0.061217228211913416 -0.05715903139756423 0.0 -0.008743473321830265 0.0 0.0
0.0743384157908247 -0.07003144931381383 0.0 -0.010135602997552237 0.0 0.0
0.08840990003145448 -0.08392016805547571 0.0 -0.011471326808574458 0.0 0.0
0.10288204685800782 -0.09828821843111335 0.0 -0.012426034107904424 0.0 0.0
0.11687173110354554 -0.1122642294868422 0.0 -0.012515200035872054 0.0 0.0
0.12909009397037402 -0.12460450515140703 0.0 -0.011353606589734866 0.0 0.0
0.1378885087351131 -0.13361093286429085 0.0 -0.00885836386470407 0.0 0.0
0.1412102519621191 -0.13754414032226037 0.0 1.2438401003622701e-14 0.0 0.0
0.13788850873509467 -0.13361093286427098 0.0 0.008858363864735933 0.0 0.0
0.12909009397033816 -0.1246045051513689 0.0 0.01135360658976469 0.0 0.0
0.1168717311034963 -0.11226422948679607 0.0 0.012515200035889594 0.0 0.0
0.10288204685795037 -0.0982882184310576 0.0 0.012426034107906988 0.0 0.0
0.08840990003139254 -0.08392016805541971 0.0 0.011471326808568518 0.0 0.0
0.0743384157907614 -0.07003144931374934 0.0 0.010135602997549259 0.0 0.0
0.061217228211850175 -0.057159031397502086 0.0 0.008743473321828187 0.0 0.0
0.04932507213814616 -0.04555494771417518 0.0 0.0074374865233430044 0.0 0.0
0.03874230968646284 -0.035271189794787994 0.0 0.006218064614592754 0.0 0.0
0.029455102585925194 -0.02627210956533869 0.0 0.005000897838943264 0.0 0.0
0.021469388930980066 -0.01855707529172995 0.0 0.0037781516565693037 0.0 0.0
0.014845346846187293 -0.012193819582168147 0.0 0.002640559493816935 0.0 0.0
0.009655852061083202 -0.007282244695459839 0.0 0.0016932793270557807 0.0 0.0
0.0059039420887422814 -0.0038544475076826125 0.0 0.0009974047347635622 0.0 0.0
0.0034964604297152025 -0.001814757655981668 0.0 0.0005534334853030688 0.0 0.0
0.0022242831438436575 -0.0009351406219062037 0.0 0.00047614208556876446 0.0 0.0
0.001607725675707935 -0.0006871953271806416 0.0 0.0004800218823188564 0.0 0.0
0.0011470256450279073 -0.00027466959398261197 0.0 0.00044384443580877957 0.0 0.0
0.003733729281966208 -0.0008579599853750973 0.0 0.005382889946621417 0.0 0.0
0.006552758199539277 -0.01569475065022101 0.0 0.003397085046775386 0.0 0.0
0.0049136641454944705 -0.01259857110068105 0.0 -0.0038203039451324148 0.0 0.0
0.0027369365985967812 -0.0006218579173316397 0.0 -0.004908846001918881 0.0 0.0
0.0008201633513992362 -0.00015553404120044806 0.0 -0.0007324050232522057 0.0 0.0
0.0013318313023587738 -0.0005512658799377028 0.0 -0.0007522949455318578 0.0 0.0
0.0018968497936799875 -0.0007851760041939256 0.0 -0.000794384617865625 0.0 0.0
0.002914662359732566 -0.0013999736442100747 0.0 -0.0008709311569896647 0.0 0.0
0.004928328084118182 -0.0030131269651413307 0.0 -0.001369397662120427 0.0 0.0
0.00819945774411875 -0.005955701378019395 0.0 -0.002346701804642507 0.0 0.0
0.012782028539778218 -0.010263651757392885 0.0 -0.0036438195862561543 0.0 0.0
0.018637624536255698 -0.015874900661197535 0.0 -0.005195377964499524 0.0 0.0
0.025669952199176407 -0.022659331247518708 0.0 -0.006853668294116275 0.0 0.0
0.033809776517056224 -0.030533236457758933 0.0 -0.00850028994076264 0.0 0.0
0.04305752566215168 -0.03950097805162295 0.0 -0.010138201086666286 0.0 0.0
0.05344586335435968 -0.04962330979881274 0.0 -0.011855156003489997 0.0 0.0
0.0649476430052545 -0.06089334676235501 0.0 -0.01367369938131633 0.0 0.0
0.0773636909808587 -0.07312847785282607 0.0 -0.01543576066208232 0.0 0.0
0.09024517154927246 -0.08590078714114571 0.0 -0.01673392083541952 0.0 0.0
0.10282572087221811 -0.09846811281539751 0.0 -0.016978772041291317 0.0 0.0
0.1139461949502477 -0.10968735635206497 0.0 -0.015554515964848557 0.0 0.0
0.1221540422936978 -0.1180450047117155 0.0 -0.011715005683593427 0.0 0.0
0.12533783470285062 -0.12208988814038851 0.0 1.78312226095656e-14 0.0 0.0
0.12215404229368104 -0.1180450047116974 0.0 0.01171500568363677 0.0 0.0
0.11394619495021588 -0.10968735635202823 0.0 0.015554515964887976 0.0 0.0
0.10282572087217477 -0.09846811281535738 0.0 0.016978772041314774 0.0 0.0
0.09024517154922183 -0.08590078714109468 0.0 0.01673392083542053 0.0 0.0
0.07736369098080438 -0.07312847785277486 0.0 0.015435760662074926 0.0 0.0
0.06494764300519881 -0.060893346762300224 0.0 0.01367369938131088 0.0 0.0
0.05344586335430388 -0.04962330979875655 0.0 0.011855156003483545 0.0 0.0
0.04305752566209733 -0.0395009780515729 0.0 0.010138201086656742 0.0 0.0
0.03380977651700591 -0.03053323645771029 0.0 0.00850028994074807 0.0 0.0
0.025669952199132824 -0.022659331247475475 0.0 0.006853668294103225 0.0 0.0
0.01863762453621967 -0.015874900661160655 0.0 0.005195377964486697 0.0 0.0
0.012782028539749978 -0.01026365175736315 0.0 0.003643819586247673 0.0 0.0
0.008199457744098998 -0.0059557013780017435 0.0 0.0023467018046345574 0.0 0.0
0.0049283280841068465 -0.003013126965132341 0.0 0.0013693976621174987 0.0 0.0
0.002914662359727413 -0.0013999736442051273 0.0 0.0008709311569873753 0.0 0.0
0.001896849793678441 -0.0007851760041941504 0.0 0.000794384617864835 0.0 0.0
0.001331831302358681 -0.0005512658799385749 0.0 0.0007522949455310192 0.0 0.0
0.0008201633513992789 -0.00015553404120021596 0.0 0.0007324050232515004 0.0 0.0
0.002736936598591068 -0.0006218579173283617 0.0 0.0049088460019056646 0.0 0.0
0.0049136641454830465 -0.012598571100658965 0.0 0.0038203039451173465 0.0 0.0
0.0037004737903135587 -0.010116472537923674 0.0 -0.003416643462892636 0.0 0.0
0.0020333190717682164 -0.0005117022527507593 0.0 -0.00439117271939757 0.0 0.0
0.0005959627347930086 -9.550878401105618e-05 0.0 -0.0011157791533027545 0.0 0.0
0.0010772570472180906 -0.00041902408473439815 0.0 -0.0010442884794573048 0.0 0.0
0.0015899474850971664 -0.0006558283663155234 0.0 -0.001109215459813505 0.0 0.0
0.002395242418872976 -0.001080182714688701 0.0 -0.001177024180087792 0.0 0.0
0.004004797201858111 -0.0022655890228574374 0.0 -0.0016339073246250464 0.0 0.0
0.0067592320968182865 -0.00466437746916967 0.0 -0.002717452357536177 0.0 0.0
0.010718290557820125 -0.008349391648078734 0.0 -0.004286905721974227 0.0 0.0
0.01578979289102561 -0.013190736719638815 0.0 -0.006126875340013308 0.0 0.0
0.02186368769814999 -0.019037745131800118 0.0 -0.008086931537685586 0.0 0.0
0.028856798630929235 -0.025788819600409504 0.0 -0.010027139911823427 0.0 0.0
0.036769959541214266 -0.033445464391947885 0.0 -0.011952682309703455 0.0 0.0
0.045658980574285246 -0.042085524380836674 0.0 -0.013956277655210686 0.0 0.0
0.05553076124257278 -0.051741832582996514 0.0 -0.016053135545515726 0.0 0.0
0.0662602877772363 -0.06230087601642417 0.0 -0.018074678399526863 0.0 0.0
0.07752114036455647 -0.07344487633245071 0.0 -0.01963703555916155 0.0 0.0
0.08869041909943576 -0.0845789450498304 0.0 -0.020118410985882015 0.0 0.0
0.09879253844247383 -0.09474789519740393 0.0 -0.018597667302092613 0.0 0.0
0.10656610945853964 -0.10264843181277952 0.0 -0.013893150569387365 0.0 0.0
0.10970023380486975 -0.10695342785182452 0.0 2.0918596715935323e-14 0.0 0.0
0.10656610945852395 -0.10264843181276216 0.0 0.013893150569434142 0.0 0.0
0.09879253844244505 -0.09474789519737933 0.0 0.018597667302134312 0.0 0.0
0.08869041909939801 -0.08457894504979382 0.0 0.02011841098590638 0.0 0.0
0.07752114036451309 -0.07344487633240662 0.0 0.019637035559164972 0.0 0.0
0.06626028777718972 -0.06230087601637724 0.0 0.018074678399520008 0.0 0.0
0.055530761242524755 -0.0517418325829475 0.0 0.016053135545510924 0.0 0.0
0.045658980574237576 -0.04208552438078846 0.0 0.013956277655202718 0.0 0.0
0.03676995954116811 -0.03344546439190129 0.0 0.011952682309692039 0.0 0.0
0.028856798630886617 -0.02578881960037527 0.0 0.01002713991180804 0.0 0.0
0.021863687698112533 -0.01903774513176283 0.0 0.008086931537670235 0.0 0.0
0.015789792890994383 -0.013190736719608088 0.0 0.006126875339998715 0.0 0.0
0.010718290557795978 -0.008349391648057192 0.0 0.004286905721963063 0.0 0.0
0.006759232096801613 -0.004664377469154126 0.0 0.0027174523575279512 0.0 0.0
0.004004797201848982 -0.0022655890228528834 0.0 0.0016339073246205073 0.0 0.0
0.002395242418869189 -0.0010801827146845657 0.0 0.0011770241800864653 0.0 0.0
0.0015899474850959855 -0.000655828366314393 0.0 0.0011092154598137793 0.0 0.0
0.0010772570472179109 -0.00041902408473509144 0.0 0.0010442884794560935 0.0 0.0
0.0005959627347929902 -9.55087840103908e-05 0.0 0.0011157791533012561 0.0 0.0
0.0020333190717633097 -0.0005117022527483311 0.0 0.0043911727193863175 0.0 0.0
0.0037004737903038945 -0.010116472537904512 0.0 0.0034166434628823353 0.0 0.0
0.00275900590968527 -0.008054740779462477 0.0 -0.0028484661480904284 0.0 0.0
0.0015055910337468657 -0.0004435756903083566 0.0 -0.003891717652140126 0.0 0.0
0.00043319187200694775 -7.174092575720953e-05 0.0 -0.0014792607214611287 0.0 0.0
0.000843663204357004 -0.00029932245135600723 0.0 -0.0013406312147082034 0.0 0.0
0.001299290115303654 -0.0005354226801949619 0.0 -0.0014114937096886887 0.0 0.0
0.0019304889325739726 -0.0008338450931469866 0.0 -0.0014711855400592342 0.0 0.0
0.003162949889024221 -0.0016466102187942366 0.0 -0.0018645553872030695 0.0 0.0
0.005369193628699 -0.0034620495241522663 0.0 -0.002869541874129227 0.0 0.0
0.008666581429825014 -0.00647356104706342 0.0 -0.004538270297930942 0.0 0.0
0.01294792311218312 -0.010530816043979119 0.0 -0.006561799499831038 0.0 0.0
0.018057032141735287 -0.015432523428275623 0.0 -0.008689367247059824 0.0 0.0
0.023905935589149167 -0.021062860022311496 0.0 -0.010794553657897235 0.0 0.0
0.030490774258146155 -0.027414037183539568 0.0 -0.012871270187628696 0.0 0.0
0.03787680569349678 -0.03457455724685328 0.0 -0.015015183108867871 0.0 0.0
0.04611582386816224 -0.04261288148677056 0.0 -0.017252819541523037 0.0 0.0
0.0551444831739283 -0.05147838669921009 0.0 -0.0194064618708442 0.0 0.0
0.0647329977118167 -0.06094727819387563 0.0 -0.021117751902269992 0.0 0.0
0.07445140013540195 -0.07059737209822994 0.0 -0.021819080697508667 0.0 0.0
0.08356704107991814 -0.07973731178689433 0.0 -0.02045955820374695 0.0 0.0
0.09100578163674308 -0.08729363140083807 0.0 -0.015475670759612864 0.0 0.0
0.09415216163899265 -0.09198103400227013 0.0 2.0620657958936306e-14 0.0 0.0
0.091005781636729 -0.0872936314008232 0.0 0.015475670759659336 0.0 0.0
0.08356704107989334 -0.07973731178687866 0.0 0.0204595582037924 0.0 0.0
0.07445140013536998 -0.07059737209819636 0.0 0.02181908069753423 0.0 0.0
0.06473299771178018 -0.06094727819384452 0.0 0.021117751902274925 0.0 0.0
0.05514448317388897 -0.05147838669916746 0.0 0.019406461870837177 0.0 0.0
0.046115823868121776 -0.04261288148673104 0.0 0.017252819541516716 0.0 0.0
0.03787680569345705 -0.034574557246810037 0.0 0.015015183108862067 0.0 0.0
0.030490774258107735 -0.02741403718350139 0.0 0.012871270187617695 0.0 0.0
0.023905935589113667 -0.02106286002228208 0.0 0.010794553657882873 0.0 0.0
0.018057032141704066 -0.01543252342824547 0.0 0.008689367247040667 0.0 0.0
0.012947923112156808 -0.01053081604395436 0.0 0.006561799499813923 0.0 0.0
0.008666581429805264 -0.006473561047046788 0.0 0.004538270297918579 0.0 0.0
0.005369193628685959 -0.003462049524139939 0.0 0.0028695418741225003 0.0 0.0
0.00316294988901723 -0.0016466102187911338 0.0 0.0018645553871984074 0.0 0.0
0.0019304889325713532 -0.000833845093145018 0.0 0.0014711855400582681 0.0 0.0
0.001299290115302914 -0.0005354226801941643 0.0 0.0014114937096878937 0.0 0.0
0.000843663204356871 -0.00029932245135613186 0.0 0.0013406312147054397 0.0 0.0
0.0004331918720068839 -7.174092575715141e-05 0.0 0.001479260721457762 0.0 0.0
0.001505591033743087 -0.0004435756903064905 0.0 0.003891717652131599 0.0 0.0
0.002759005909677862 -0.008054740779446488 0.0 0.002848466148083328 0.0 0.0
0.0020194067594972876 -0.006321210749385414 0.0 -0.0023236953998501337 0.0 0.0
0.0010980393878965954 -0.0003949047523473105 0.0 -0.0034406588744649146 0.0 0.0
0.0003048638783328499 -6.287456528947073e-05 0.0 -0.0017798543735163428 0.0 0.0
0.0006263398701969837 -0.00019362718256812526 0.0 -0.0016179967073975344 0.0 0.0
0.001018222365014469 -0.00041272362280698013 0.0 -0.001684136341384229 0.0 0.0
0.00150720200749226 -0.0006409594911946607 0.0 -0.0017646934279798815 0.0 0.0
0.0024046335163984043 -0.0011534580036944354 0.0 -0.002053630941678304 0.0 0.0
0.004071674166881877 -0.0024119964000986613 0.0 -0.002913825561216807 0.0 0.0
0.006668123331616119 -0.004690369399465516 0.0 -0.004439190247158322 0.0 0.0
0.010129367517607363 -0.00792515815858907 0.0 -0.006466577058234784 0.0 0.0
0.014272772625900553 -0.011872152755041134 0.0 -0.008640815325844792 0.0 0.0
0.01897810890706069 -0.01638159152687419 0.0 -0.010785588658196872 0.0 0.0
0.024241446655340726 -0.02143615057095543 0.0 -0.012881919279418052 0.0 0.0
0.030134135600293717 -0.02712513563107979 0.0 -0.015024009062972011 0.0 0.0
0.03673335539087562 -0.03354208798447597 0.0 -0.01724144556499833 0.0 0.0
0.04403841763372106 -0.040698299732462875 0.0 -0.01940116313067297 0.0 0.0
0.051917830453959604 -0.04845055403614535 0.0 -0.021153251825601516 0.0 0.0
0.060115767910409915 -0.05654044657585648 0.0 -0.02202409854200262 0.0 0.0
0.06819630092146448 -0.06459348123054766 0.0 -0.021056641727303954 0.0 0.0
0.07534062781900616 -0.07184320487785159 0.0 -0.01643728159719115 0.0 0.0
0.07854485660382697 -0.07702926074977605 0.0 1.8911087973361163e-14 0.0 0.0
0.07534062781899416 -0.07184320487783706 0.0 0.016437281597236057 0.0 0.0
0.06819630092144373 -0.06459348123052581 0.0 0.021056641727351638 0.0 0.0
0.06011576791038396 -0.056540446575828365 0.0 0.02202409854203016 0.0 0.0
0.05191783045393023 -0.04845055403611495 0.0 0.021153251825606154 0.0 0.0
0.044038417633689105 -0.04069829973242802 0.0 0.01940116313066558 0.0 0.0
0.036733355390843006 -0.033542087984442456 0.0 0.017241445564989355 0.0 0.0
0.030134135600262416 -0.02712513563104535 0.0 0.015024009062963996 0.0 0.0
0.02424144665531098 -0.021436150570929312 0.0 0.012881919279407503 0.0 0.0
0.01897810890703262 -0.01638159152684669 0.0 0.010785588658182296 0.0 0.0
0.01427277262587529 -0.011872152755018368 0.0 0.00864081532582568 0.0 0.0
0.010129367517586479 -0.007925158158569628 0.0 0.006466577058218604 0.0 0.0
0.006668123331600942 -0.004690369399452003 0.0 0.004439190247147674 0.0 0.0
0.004071674166872057 -0.0024119964000914153 0.0 0.002913825561210872 0.0 0.0
0.0024046335163933124 -0.0011534580036922882 0.0 0.0020536309416753057 0.0 0.0
0.0015072020074905856 -0.0006409594911940703 0.0 0.001764693427978705 0.0 0.0
0.0010182223650137343 -0.000412723622806773 0.0 0.0016841363413826033 0.0 0.0
0.0006263398701965384 -0.0001936271825686033 0.0 0.0016179967073942571 0.0 0.0
0.0003048638783328923 -6.287456528970977e-05 0.0 0.0017798543735146732 0.0 0.0
0.001098039387893756 -0.00039490475234608806 0.0 0.003440658874457936 0.0 0.0
0.002019406759491435 -0.006321210749372667 0.0 0.0023236953998450284 0.0 0.0
0.0014380468553962956 -0.004872763730134741 0.0 -0.0019216286511380735 0.0 0.0
0.0007773694567925957 -0.00036228088053887747 0.0 -0.0030337764012292145 0.0 0.0
0.00019308247490546065 -5.289593180191775e-05 0.0 -0.002009910662487568 0.0 0.0
0.0004202071835624915 -0.00010022931327320491 0.0 -0.0018584142373221208 0.0 0.0
0.00073870929344955 -0.0002837814037286258 0.0 -0.0019149262733051467 0.0 0.0
0.0011159699333706796 -0.0004753715995759675 0.0 -0.0020426029670544744 0.0 0.0
0.0017276309105873132 -0.0007767081699194449 0.0 -0.002236986308675522 0.0 0.0
0.002883324416797887 -0.0015434942741706348 0.0 -0.0028671376174492546 0.0 0.0
0.00477355291329546 -0.0030811117468357014 0.0 -0.004102073659061411 0.0 0.0
0.00737427671352342 -0.005435768359934891 0.0 -0.005872591665274679 0.0 0.0
0.010528334788134296 -0.008395287325393228 0.0 -0.007913905484375006 0.0 0.0
0.014094484693740719 -0.01178008561215585 0.0 -0.009960053878275475 0.0 0.0
0.01804778534804187 -0.015546874576417288 0.0 -0.011954231137271528 0.0 0.0
0.022454988034430676 -0.019776889821521686 0.0 -0.013956967357989819 0.0 0.0
0.027415288425465482 -0.02457464426463746 0.0 -0.01601418839067916 0.0 0.0
0.032981746051924776 -0.030002547654863244 0.0 -0.018028740482080082 0.0 0.0
0.039104500473486944 -0.03600548009428369 0.0 -0.019713221306774085 0.0 0.0
0.04568996947786721 -0.042447432007431285 0.0 -0.02064987574329679 0.0 0.0
0.05261913188056505 -0.049266686417829046 0.0 -0.020223864481370413 0.0 0.0
0.059428748379677 -0.056146196629824945 0.0 -0.01666813660204205 0.0 0.0
0.06270808881211323 -0.06194478502463137 0.0 1.741315425185519e-14 0.0 0.0
0.05942874837966794 -0.05614619662981488 0.0 0.01666813660208481 0.0 0.0
0.05261913188054887 -0.049266686417816646 0.0 0.020223864481414864 0.0 0.0
0.045689969477846426 -0.04244743200741212 0.0 0.020649875743323054 0.0 0.0
0.03910450047346341 -0.036005480094261695 0.0 0.01971322130677656 0.0 0.0
0.03298174605190007 -0.030002547654839423 0.0 0.018028740482071502 0.0 0.0
0.02741528842544125 -0.024574644264614004 0.0 0.016014188390668732 0.0 0.0
0.02245498803440786 -0.01977688982149948 0.0 0.013956967357983175 0.0 0.0
0.01804778534802 -0.01554687457639951 0.0 0.011954231137260725 0.0 0.0
0.014094484693719498 -0.011780085612135775 0.0 0.009960053878260437 0.0 0.0
0.010528334788115403 -0.008395287325374886 0.0 0.007913905484356908 0.0 0.0
0.00737427671350835 -0.005435768359920842 0.0 0.00587259166525945 0.0 0.0
0.004773552913284854 -0.003081111746826416 0.0 0.0041020736590534285 0.0 0.0
0.002883324416791386 -0.0015434942741665379 0.0 0.002867137617444932 0.0 0.0
0.001727630910584014 -0.0007767081699192665 0.0 0.002236986308674332 0.0 0.0
0.001115969933369405 -0.00047537159957425855 0.0 0.002042602967052504 0.0 0.0
0.0007387092934491612 -0.0002837814037290104 0.0 0.0019149262733021435 0.0 0.0
0.00042020718356249433 -0.00010022931327403358 0.0 0.0018584142373203262 0.0 0.0
0.0001930824749052245 -5.289593180192655e-05 0.0 0.0020099106624861173 0.0 0.0
0.0007773694567902443 -0.00036228088053835835 0.0 0.003033776401223387 0.0 0.0
0.0014380468553922352 -0.0048727637301247415 0.0 0.0019216286511344602 0.0 0.0
0.0010031760819084364 -0.0037074638862200143 0.0 -0.0016770785484540992 0.0 0.0
0.0005265962460491225 -0.0003467686367697137 0.0 -0.002680379352384201 0.0 0.0
8.284553109240777e-05 -3.121708390330395e-05 0.0 -0.002174075864322917 0.0 0.0
0.00022276515492890002 -1.619620474368853e-05 0.0 -0.0020503287393517306 0.0 0.0
0.0004575189765472071 -0.0001526184885399822 0.0 -0.0020976725386473104 0.0 0.0
0.0007346435441649711 -0.0003082372892397307 0.0 -0.002264492492347784 0.0 0.0
0.0011226863152875878 -0.000492360396722944 0.0 -0.0024576934087041933 0.0 0.0
0.0018201559301299795 -0.0008792411390073734 0.0 -0.002810492514838954 0.0 0.0
0.0030174614973690964 -0.001727700668303779 0.0 -0.0036174428490774665 0.0 0.0
0.004737712900755354 -0.003170979018409593 0.0 -0.004900297823028293 0.0 0.0
0.006867068943688965 -0.0050892128046058525 0.0 -0.006543410411365099 0.0 0.0
0.009277757926105256 -0.007325486203272249 0.0 -0.008293167664869986 0.0 0.0
0.011927733987131971 -0.009803133998688091 0.0 -0.010058482674046592 0.0 0.0
0.014866539901247783 -0.01258882546815759 0.0 -0.01181726564610219 0.0 0.0
0.018190983988533603 -0.01577312448777917 0.0 -0.013583792820442715 0.0 0.0
0.021999833772744247 -0.01945376611145879 0.0 -0.015340400906205243 0.0 0.0
0.0263395452561461 -0.023673414008535378 0.0 -0.016891668571734013 0.0 0.0
0.031215195719267445 -0.028406716767090993 0.0 -0.017829613748701945 0.0 0.0
0.03677794897159645 -0.0337716620075287 0.0 -0.01777230910478018 0.0 0.0
0.04309980035500186 -0.04003636985610191 0.0 -0.015857733134544656 0.0 0.0
0.04643123988409312 -0.04653122166932579 0.0 1.4196109565656201e-14 0.0 0.0
0.043099800354995936 -0.04003636985609533 0.0 0.015857733134579836 0.0 0.0
0.036777948971585095 -0.03377166200752318 0.0 0.01777230910482122 0.0 0.0
0.031215195719252804 -0.028406716767074715 0.0 0.017829613748723664 0.0 0.0
0.0263395452561305 -0.023673414008522787 0.0 0.01689166857173261 0.0 0.0
0.02199983377272774 -0.019453766111440864 0.0 0.015340400906196643 0.0 0.0
0.018190983988517845 -0.01577312448776567 0.0 0.013583792820434263 0.0 0.0
0.014866539901233475 -0.012588825468144344 0.0 0.011817265646096182 0.0 0.0
0.011927733987118374 -0.009803133998682937 0.0 0.01005848267404014 0.0 0.0
0.009277757926091887 -0.007325486203258071 0.0 0.008293167664860122 0.0 0.0
0.0068670689436764005 -0.005089212804595116 0.0 0.006543410411352507 0.0 0.0
0.004737712900745984 -0.0031709790183981927 0.0 0.004900297823017174 0.0 0.0
0.0030174614973627763 -0.0017277006682998664 0.0 0.0036174428490713282 0.0 0.0
0.0018201559301259957 -0.0008792411390063258 0.0 0.002810492514835196 0.0 0.0
0.0011226863152857267 -0.000492360396723724 0.0 0.002457693408701479 0.0 0.0
0.0007346435441642868 -0.00030823728923795146 0.0 0.002264492492344768 0.0 0.0
0.00045751897654705803 -0.00015261848853903855 0.0 0.002097672538644798 0.0 0.0
0.00022276515492874904 -1.61962047432566e-05 0.0 0.002050328739349619 0.0 0.0
8.284553109215964e-05 -3.1217083903436014e-05 0.0 0.002174075864320147 0.0 0.0
0.000526596246047768 -0.00034676863676953967 0.0 0.002680379352380575 0.0 0.0
0.0010031760819057833 -0.0037074638862126127 0.0 0.0016770785484532614 0.0 0.0
0.0006990563740571194 -0.0028066739920506 0.0 -0.0015405163609231256 0.0 0.0
0.00033637042753296027 -0.0003501235984163252 0.0 -0.002417746590191369 0.0 0.0
-2.950773131368425e-05 4.833631373067658e-06 0.0 -0.0022766201603476835 0.0 0.0
3.174710200186399e-05 6.127767205928727e-05 0.0 -0.0021878519972070997 0.0 0.0
0.00017763929438341608 -2.315998800504665e-05 0.0 -0.0022280772432191993 0.0 0.0
0.00034713064099487097 -0.00013134322067556324 0.0 -0.0024059393268062836 0.0 0.0
0.0005563122605072457 -0.00024113853734595414 0.0 -0.002648382941185516 0.0 0.0
0.0008804171343715045 -0.0003978149075652399 0.0 -0.0028798843559025146 0.0 0.0
0.0014343716940758253 -0.0007243902707123333 0.0 -0.0032345225680636687 0.0 0.0
0.00227279739186682 -0.001329542591000811 0.0 -0.003885904896311113 0.0 0.0
0.0033460111035922046 -0.0021938006381640686 0.0 -0.004894207336077077 0.0 0.0
0.004567822155876933 -0.0032369815985157755 0.0 -0.0061569666454799185 0.0 0.0
0.005900638446148112 -0.004403397242988006 0.0 -0.007543183430498721 0.0 0.0
0.007381027761659298 -0.005740348613072519 0.0 -0.009003412549719914 0.0 0.0
0.009078449318507674 -0.007308996200797126 0.0 -0.010533784962883095 0.0 0.0
0.011108693214700746 -0.00921339015837004 0.0 -0.012131436657221498 0.0 0.0
0.013623832033233958 -0.011597680998631208 0.0 -0.013667394041650712 0.0 0.0
0.016762593679360584 -0.014599053984797002 0.0 -0.014725459520428433 0.0 0.0
0.0207310443662516 -0.018372654576008045 0.0 -0.014742267793362877 0.0 0.0
0.026174459178078573 -0.023477993476483265 0.0 -0.013823380772373306 0.0 0.0
0.029389479428057697 -0.030549584634120067 0.0 1.2535111837408408e-14 0.0 0.0
0.026174459178076013 -0.023477993476478456 0.0 0.013823380772403866 0.0 0.0
0.020731044366245302 -0.018372654576000298 0.0 0.014742267793395603 0.0 0.0
0.01676259367935155 -0.014599053984784 0.0 0.01472545952044296 0.0 0.0
0.013623832033225591 -0.011597680998623685 0.0 0.013667394041645884 0.0 0.0
0.011108693214693209 -0.009213390158357718 0.0 0.012131436657212107 0.0 0.0
0.00907844931850072 -0.007308996200784948 0.0 0.010533784962877015 0.0 0.0
0.00738102776165365 -0.005740348613068447 0.0 0.009003412549714701 0.0 0.0
0.00590063844614279 -0.004403397242987471 0.0 0.007543183430493899 0.0 0.0
0.004567822155870984 -0.00323698159850834 0.0 0.006156966645470308 0.0 0.0
0.0033460111035868594 -0.0021938006381621088 0.0 0.004894207336067976 0.0 0.0
0.0022727973918628434 -0.0013295425909924834 0.0 0.003885904896305222 0.0 0.0
0.0014343716940735292 -0.0007243902707122282 0.0 0.0032345225680606576 0.0 0.0
0.0008804171343701628 -0.00039781490756525073 0.0 0.002879884355900442 0.0 0.0
0.0005563122605062448 -0.00024113853734614654 0.0 0.0026483829411831756 0.0 0.0
0.00034713064099467413 -0.00013134322067495115 0.0 0.0024059393268034395 0.0 0.0
0.00017763929438360432 -2.3159988004785413e-05 0.0 0.002228077243218238 0.0 0.0
3.174710200193491e-05 6.127767206077808e-05 0.0 0.0021878519972043423 0.0 0.0
-2.950773131357912e-05 4.833631372741939e-06 0.0 0.002276620160345923 0.0 0.0
0.00033637042753233756 -0.0003501235984164883 0.0 0.0024177465901886993 0.0 0.0
0.000699056374055689 -0.0028066739920457194 0.0 0.001540516360922861 0.0 0.0
0.00048504712680404486 -0.002137659960133881 0.0 -0.0014663153443656885 0.0 0.0
0.00019262378636246234 -0.00035521670766454295 0.0 -0.00223774354233897 0.0 0.0
-0.00013818669594415278 4.700903221022605e-05 0.0 -0.0023248876038854693 0.0 0.0
-0.00015350658356996815 0.000135148185726783 0.0 -0.002268779376304377 0.0 0.0
-9.801278041491148e-05 0.0001028284142335898 0.0 -0.002300623572428878 0.0 0.0
-4.5041161981547985e-05 4.866232455031482e-05 0.0 -0.00246680403705436 0.0 0.0
-1.563858278613485e-05 1.307814273090548e-05 0.0 -0.002725627245305047 0.0 0.0
-4.079498893115038e-06 2.6903562774132752e-06 0.0 -0.0029660368008014833 0.0 0.0
-4.562184787024659e-07 -1.4676327532752635e-08 0.0 -0.003116508623403175 0.0 0.0
5.1812981957238e-07 -2.4216496863542036e-07 0.0 -0.0034228361646602722 0.0 0.0
-9.056453528408746e-09 -6.604403349556561e-07 0.0 -0.0040557787294656505 0.0 0.0
-5.453660229816338e-06 4.5663426741519766e-06 0.0 -0.005039859183960298 0.0 0.0
-1.9857456270371498e-05 1.762749105372474e-05 0.0 -0.006205984877039354 0.0 0.0
-3.361678139166121e-05 3.3943610175413705e-05 0.0 -0.007517912560597798 0.0 0.0
5.193529817908854e-06 1.1656214181858472e-05 0.0 -0.008985993374126002 0.0 0.0
0.00023310649687026484 -0.00016592616148585458 0.0 -0.010601029488895134 0.0 0.0
0.0009054105627250387 -0.0007234585304070984 0.0 -0.012301925815730964 0.0 0.0
0.002340859785932312 -0.001972662942056338 0.0 -0.013901385982382122 0.0 0.0
0.0047560139023533465 -0.004057685695481017 0.0 -0.015082802777503087 0.0 0.0
0.00876172040093047 -0.007288880707102169 0.0 -0.015610517652740189 0.0 0.0
0.011300300291797202 -0.014780276529447653 0.0 9.840218917478438e-15 0.0 0.0
0.008761720400930397 -0.007288880707106014 0.0 0.015610517652760097 0.0 0.0
0.004756013902351431 -0.00405768569547404 0.0 0.015082802777516138 0.0 0.0
0.002340859785930606 -0.0019726629420543447 0.0 0.01390138598238469 0.0 0.0
0.000905410562725797 -0.0007234585304087187 0.0 0.012301925815722925 0.0 0.0
0.00023310649687186046 -0.0001659261614861949 0.0 0.010601029488886832 0.0 0.0
5.193529819758503e-06 1.165621418454995e-05 0.0 0.008985993374118047 0.0 0.0
-3.3616781388880125e-05 3.394361017250555e-05 0.0 0.007517912560592217 0.0 0.0
-1.9857456267324456e-05 1.7627491047360745e-05 0.0 0.006205984877032092 0.0 0.0
-5.453660227312698e-06 4.5663426717532335e-06 0.0 0.00503985918394963 0.0 0.0
-9.056451604437781e-09 -6.604403384328822e-07 0.0 0.004055778729459659 0.0 0.0
5.181298207948451e-07 -2.421649658323376e-07 0.0 0.0034228361646568197 0.0 0.0
-4.5621847782442476e-07 -1.4676329274259151e-08 0.0 0.0031165086234027297 0.0 0.0
-4.07949889250985e-06 2.6903562782121933e-06 0.0 0.0029660368008002018 0.0 0.0
-1.5638582785887394e-05 1.3078142731298022e-05 0.0 0.0027256272453023193 0.0 0.0
-4.5041161981245404e-05 4.866232455216993e-05 0.0 0.0024668040370513173 0.0 0.0
-9.80127804146979e-05 0.00010282841423332021 0.0 0.0023006235724283017 0.0 0.0
-0.00015350658357002637 0.00013514818572751822 0.0 0.002268779376302796 0.0 0.0
-0.00013818669594419644 4.7009032210410205e-05 0.0 0.002324887603884005 0.0 0.0
0.00019262378636204818 -0.00035521670766509855 0.0 0.0022377435423366256 0.0 0.0
0.00048504712680307597 -0.002137659960130859 0.0 0.0014663153443645381 0.0 0.0
0.0003387013411772581 -0.001644416588232033 0.0 -0.001402638642289416 0.0 0.0
8.633388216039504e-05 -0.00034297226627186137 0.0 -0.0020896057184124216 0.0 0.0
-0.00023990072160705918 8.707577592797425e-05 0.0 -0.002324085991362167 0.0 0.0
-0.000331996417913067 0.0002065913501472211 0.0 -0.0022921578918010804 0.0 0.0
-0.0003675218734983938 0.0002235224952205443 0.0 -0.0023089377597497944 0.0 0.0
-0.00043333867745071295 0.00022704803160570176 0.0 -0.002448332263825388 0.0 0.0
-0.0005867350008855222 0.00026715309406730013 0.0 -0.0026678975307232134 0.0 0.0
-0.0008886946327021916 0.00040338307720668657 0.0 -0.002889170454121663 0.0 0.0
-0.0014349231244306622 0.0007241969439130678 0.0 -0.003238303583251882 0.0 0.0
-0.0022710256079783893 0.0013281790649622626 0.0 -0.003884668721680253 0.0 0.0
-0.0033460892354779774 0.002193371038685536 0.0 -0.004890430810892112 0.0 0.0
-0.004580378352769595 0.003247546466708387 0.0 -0.006155989579020373 0.0 0.0
-0.005941497157536276 0.004440689951915145 0.0 -0.007539106273310602 0.0 0.0
-0.007446002440613608 0.005809529607616781 0.0 -0.008992198188862835 0.0 0.0
-0.009061942340496763 0.007331467879832377 0.0 -0.010540695068874565 0.0 0.0
-0.010646834902530822 0.008875606163315381 0.0 -0.012266059591518549 0.0 0.0
-0.011904229271045539 0.010154533453489673 0.0 -0.014228930950364238 0.0 0.0
-0.012421511497248808 0.010736918905283076 0.0 -0.0165075739968179 0.0 0.0
-0.011739673939144376 0.010280131661759702 0.0 -0.01902597767524085 0.0 0.0
-0.008307140323571088 0.007826727301471173 0.0 -0.020130303141860154 0.0 0.0
-0.005574853954168579 -0.000392121606298714 0.0 1.1518563880485999e-14 0.0 0.0
-0.008307140323571553 0.00782672730146268 0.0 0.02013030314188292 0.0 0.0
-0.011739673939141423 0.01028013166176238 0.0 0.019025977675256496 0.0 0.0
-0.012421511497240773 0.010736918905273235 0.0 0.01650757399682164 0.0 0.0
-0.011904229271033797 0.010154533453480451 0.0 0.014228930950354185 0.0 0.0
-0.010646834902519164 0.008875606163302133 0.0 0.012266059591509691 0.0 0.0
-0.009061942340486441 0.007331467879823375 0.0 0.010540695068865572 0.0 0.0
-0.00744600244060256 0.005809529607606893 0.0 0.00899219818885469 0.0 0.0
-0.0059414971575246014 0.004440689951901615 0.0 0.007539106273301902 0.0 0.0
-0.0045803783527586985 0.003247546466699804 0.0 0.0061559895790086906 0.0 0.0
-0.0033460892354683887 0.002193371038676307 0.0 0.004890430810881575 0.0 0.0
-0.0022710256079713147 0.001328179064957954 0.0 0.003884668721673646 0.0 0.0
-0.0014349231244265878 0.0007241969439104736 0.0 0.0032383035832485112 0.0 0.0
-0.0008886946326999905 0.00040338307720651597 0.0 0.002889170454120856 0.0 0.0
-0.0005867350008842835 0.00026715309406779284 0.0 0.002667897530719942 0.0 0.0
-0.00043333867744967374 0.00022704803160835828 0.0 0.002448332263821683 0.0 0.0
-0.0003675218734977722 0.00022352249522155835 0.0 0.0023089377597480167 0.0 0.0
-0.00033199641791302166 0.00020659135014766518 0.0 0.002292157891799293 0.0 0.0
-0.000239900721607082 8.707577592829715e-05 0.0 0.0023240859913606095 0.0 0.0
8.633388216000934e-05 -0.0003429722662721522 0.0 0.002089605718410975 0.0 0.0
0.0003387013411765323 -0.0016444165882299677 0.0 0.0014026386422884435 0.0 0.0
0.0002345769373461908 -0.0012489429013415162 0.0 -0.0012918789503558116 0.0 0.0
4.473039985435328e-06 -0.0003128161704272759 0.0 -0.0019405826488764276 0.0 0.0
-0.00033427751392895973 0.00012412036155351686 0.0 -0.002272180694244847 0.0 0.0
-0.0005020738212877054 0.00027453414724194964 0.0 -0.0022569273242415595 0.0 0.0
-0.0006289681946379374 0.0003378442123699272 0.0 -0.0022510792188069175 0.0 0.0
-0.0008119215046863622 0.0003980446834951034 0.0 -0.0023455001273711014 0.0 0.0
-0.001150477861938111 0.0005195657564822226 0.0 -0.002498936982374673 0.0 0.0
-0.0018270714997677224 0.0008847289808147744 0.0 -0.002829409525638319 0.0 0.0
-0.0030165213070546784 0.001725969963604944 0.0 -0.003620052797420536 0.0 0.0
-0.0047352710703289095 0.0031685441934395566 0.0 -0.004896260210057203 0.0 0.0
-0.0068683351896008625 0.005090669450321285 0.0 -0.006541055995182114 0.0 0.0
-0.009290125636055392 0.007337276303705993 0.0 -0.00829053185560279 0.0 0.0
-0.011963373375557626 0.009837826029472956 0.0 -0.010032286053240766 0.0 0.0
-0.014922192339878314 0.012650033298721415 0.0 -0.011747419951064549 0.0 0.0
-0.01817148478595351 0.015789673329435337 0.0 -0.013531477989115135 0.0 0.0
-0.021571848291627223 0.019136174964541904 0.0 -0.015593909888329177 0.0 0.0
-0.02477815248993912 0.022346860629713736 0.0 -0.01816452175341914 0.0 0.0
-0.02724467682916446 0.024870234194987993 0.0 -0.021356412193021358 0.0 0.0
-0.02793535041085795 0.025801167586803505 0.0 -0.024537674187048598 0.0 0.0
-0.024837695692986727 0.023137074314537195 0.0 -0.02523362213376309 0.0 0.0
-0.022017501970003354 0.013037777358543858 0.0 1.3825746103535153e-14 0.0 0.0
-0.024837695692984975 0.023137074314533018 0.0 0.025233622133796575 0.0 0.0
-0.027935350410850365 0.02580116758679806 0.0 0.02453767418708113 0.0 0.0
-0.02724467682914955 0.024870234194970284 0.0 0.021356412193034052 0.0 0.0
-0.0247781524899191 0.022346860629693342 0.0 0.018164521753412446 0.0 0.0
-0.02157184829160679 0.01913617496452222 0.0 0.015593909888316906 0.0 0.0
-0.01817148478593456 0.01578967332941594 0.0 0.013531477989104375 0.0 0.0
-0.014922192339858805 0.012650033298701471 0.0 0.011747419951053474 0.0 0.0
-0.011963373375537933 0.009837826029456044 0.0 0.010032286053229601 0.0 0.0
-0.009290125636036532 0.007337276303688835 0.0 0.008290531855587487 0.0 0.0
-0.006868335189584242 0.005090669450303822 0.0 0.0065410559951667915 0.0 0.0
-0.004735271070315962 0.003168544193426039 0.0 0.004896260210045157 0.0 0.0
-0.003016521307046027 0.0017259699636007907 0.0 0.0036200527974149087 0.0 0.0
-0.001827071499763183 0.0008847289808137375 0.0 0.002829409525635178 0.0 0.0
-0.001150477861935787 0.0005195657564801508 0.0 0.00249893698237232 0.0 0.0
-0.0008119215046848368 0.00039804468349519015 0.0 0.002345500127368246 0.0 0.0
-0.0006289681946372233 0.00033784421237007336 0.0 0.0022510792188045023 0.0 0.0
-0.0005020738212874463 0.0002745341472425101 0.0 0.0022569273242399822 0.0 0.0
-0.00033427751392884947 0.00012412036155352355 0.0 0.002272180694243016 0.0 0.0
4.473039985372936e-06 -0.00031281617042720994 0.0 0.0019405826488751686 0.0 0.0
0.00023457693734599275 -0.0012489429013400448 0.0 0.0012918789503548183 0.0 0.0
0.00014863309299307782 -0.0009141797773486652 0.0 -0.0011405843763452198 0.0 0.0
-6.580222008606079e-05 -0.00026777444585514276 0.0 -0.001773707136477831 0.0 0.0
-0.0004219305694463634 0.00015946769086744064 0.0 -0.0021679149269899977 0.0 0.0
-0.0006634613933975107 0.0003380205372073176 0.0 -0.002165042066332725 0.0 0.0
-0.0008795190694469374 0.00044432842186563045 0.0 -0.00213249345823261 0.0 0.0
-0.0011792639163281972 0.0005573791659470078 0.0 -0.0021553821323967806 0.0 0.0
-0.0017517897490958198 0.0008061625625426084 0.0 -0.002299162966895381 0.0 0.0
-0.002887143817897728 0.0015459281153515157 0.0 -0.0028866356161103023 0.0 0.0
-0.004769988913385422 0.0030767898593785574 0.0 -0.004099471577029437 0.0 0.0
-0.0073724425941226 0.005433889436691349 0.0 -0.005867533608764923 0.0 0.0
-0.010531135782263062 0.008398865576138859 0.0 -0.007913371144229202 0.0 0.0
-0.014103998322735158 0.011790407640320735 0.0 -0.009954183301515552 0.0 0.0
-0.01806855762934434 0.015567841020190577 0.0 -0.01190594408431048 0.0 0.0
-0.022484334341007602 0.019809101015949165 0.0 -0.013816411892100347 0.0 0.0
-0.027388945229602085 0.02457324250834347 0.0 -0.015848363401521227 0.0 0.0
-0.03265634311207914 0.029762945103049943 0.0 -0.018314642181855297 0.0 0.0
-0.03787923531778926 0.03498753972160385 0.0 -0.02164948162787877 0.0 0.0
-0.04220546652021088 0.039447500817082995 0.0 -0.02590411531138742 0.0 0.0
-0.04407754609486573 0.04161585466758439 0.0 -0.02989704401705867 0.0 0.0
-0.040606908948071695 0.03885414200305807 0.0 -0.03117963244816775 0.0 0.0
-0.03706166675438743 0.026008472012226714 0.0 1.7088760961847527e-14 0.0 0.0
-0.04060690894806729 0.038854142003057895 0.0 0.031179632448204923 0.0 0.0
-0.0440775460948538 0.04161585466756971 0.0 0.02989704401709771 0.0 0.0
-0.042205466520190166 0.039447500817064274 0.0 0.025904115311403964 0.0 0.0
-0.03787923531776192 0.03498753972157284 0.0 0.021649481627876457 0.0 0.0
-0.032656343112050186 0.029762945103022916 0.0 0.01831464218184198 0.0 0.0
-0.027388945229574545 0.024573242508317075 0.0 0.01584836340150734 0.0 0.0
-0.02248433434098001 0.01980910101592066 0.0 0.013816411892086544 0.0 0.0
-0.01806855762931654 0.015567841020164709 0.0 0.011905944084297251 0.0 0.0
-0.01410399832270847 0.011790407640299438 0.0 0.00995418330149693 0.0 0.0
-0.010531135782239343 0.008398865576114956 0.0 0.00791337114421029 0.0 0.0
-0.0073724425941039985 0.005433889436669139 0.0 0.005867533608751129 0.0 0.0
-0.0047699889133727665 0.0030767898593662747 0.0 0.004099471577021818 0.0 0.0
-0.002887143817890076 0.0015459281153485346 0.0 0.002886635616104856 0.0 0.0
-0.001751789749091604 0.0008061625625390041 0.0 0.0022991629668939985 0.0 0.0
-0.0011792639163262127 0.0005573791659453126 0.0 0.002155382132395164 0.0 0.0
-0.0008795190694460336 0.0004443284218660368 0.0 0.002132493458231479 0.0 0.0
-0.0006634613933970012 0.00033802053720625996 0.0 0.0021650420663306426 0.0 0.0
-0.00042193056944601844 0.00015946769086805872 0.0 0.002167914926988046 0.0 0.0
-6.580222008586052e-05 -0.00026777444585519524 0.0 0.0017737071364766583 0.0 0.0
0.00014863309299326365 -0.0009141797773476843 0.0 0.001140584376344676 0.0 0.0
7.342768075065429e-05 -0.0006329806341247289 0.0 -0.0009750578310079561 0.0 0.0
-0.0001298420602744956 -0.0002108102765170185 0.0 -0.001580941056121259 0.0 0.0
-0.0005051053077752101 0.00019456523391337587 0.0 -0.0020115099784929437 0.0 0.0
-0.0008165827633804927 0.00039690763277401493 0.0 -0.0020178454329552098 0.0 0.0
-0.001116464888202314 0.0005396278400100397 0.0 -0.0019481940892160693 0.0 0.0
-0.0015534276418800864 0.0007138434586356375 0.0 -0.0019001947255924043 0.0 0.0
-0.002421963630882067 0.001180155364727926 0.0 -0.00211942772532054 0.0 0.0
-0.004069859822250611 0.00240871308807692 0.0 -0.002925239890239021 0.0 0.0
-0.006663829781878983 0.004684943119132814 0.0 -0.004432428657488089 0.0 0.0
-0.010129310661469363 0.007925221495253381 0.0 -0.0064621143180623565 0.0 0.0
-0.014276897099877964 0.01187760940159367 0.0 -0.008641074374933609 0.0 0.0
-0.01898227353659346 0.016388501412127617 0.0 -0.010776266618225542 0.0 0.0
-0.024238687460080836 0.021436137735661193 0.0 -0.012817613588796939 0.0 0.0
-0.030119312070701343 0.02711035441289278 0.0 -0.01483179027520843 0.0 0.0
-0.036692089073519875 0.03350671280386392 0.0 -0.016974401367524275 0.0 0.0
-0.0438580185141318 0.040568840785923106 0.0 -0.019640946935624022 0.0 0.0
-0.05110477520221223 0.04783641593808152 0.0 -0.023356178836317545 0.0 0.0
-0.05722614116590574 0.054164566925241596 0.0 -0.028181869327237596 0.0 0.0
-0.06002630564791955 0.05741809820543721 0.0 -0.03296863283088506 0.0 0.0
-0.05582766769397628 0.054089376443402316 0.0 -0.03502346872462456 0.0 0.0
-0.051406063357178296 0.038566751321648 0.0 1.7305601396344628e-14 0.0 0.0
-0.055827667693968686 0.05408937644339759 0.0 0.03502346872466546 0.0 0.0
-0.06002630564790268 0.0574180982054195 0.0 0.03296863283092773 0.0 0.0
-0.05722614116587897 0.05416456692521245 0.0 0.028181869327258843 0.0 0.0
-0.05110477520217806 0.04783641593804471 0.0 0.02335617883631751 0.0 0.0
-0.04385801851409521 0.04056884078588902 0.0 0.01964094693561265 0.0 0.0
-0.036692089073484035 0.03350671280382887 0.0 0.016974401367511494 0.0 0.0
-0.030119312070665864 0.027110354412857668 0.0 0.014831790275195968 0.0 0.0
-0.024238687460045087 0.021436137735626474 0.0 0.012817613588783614 0.0 0.0
-0.01898227353655923 0.016388501412094435 0.0 0.010776266618205797 0.0 0.0
-0.01427689709984769 0.011877609401565061 0.0 0.008641074374911267 0.0 0.0
-0.010129310661444787 0.007925221495227435 0.0 0.006462114318044835 0.0 0.0
-0.006663829781861503 0.004684943119117343 0.0 0.0044324286574776986 0.0 0.0
-0.0040698598222396005 0.002408713088067412 0.0 0.002925239890234181 0.0 0.0
-0.0024219636308763625 0.0011801553647230113 0.0 0.00211942772531658 0.0 0.0
-0.0015534276418776745 0.0007138434586350611 0.0 0.0019001947255922786 0.0 0.0
-0.0011164648882010797 0.0005396278400093181 0.0 0.0019481940892140475 0.0 0.0
-0.0008165827633801239 0.00039690763277272305 0.0 0.002017845432953897 0.0 0.0
-0.0005051053077750723 0.00019456523391422965 0.0 0.002011509978491669 0.0 0.0
-0.00012984206027429737 -0.00021081027651718417 0.0 0.0015809410561197267 0.0 0.0
7.342768075081981e-05 -0.0006329806341239486 0.0 0.0009750578310073691 0.0 0.0
7.3704808600756625e-06 -0.00040258033891724397 0.0 -0.0008036436467378067 0.0 0.0
-0.00018903744323558373 -0.00014642885902648183 0.0 -0.0013627917700094385 0.0 0.0
-0.0005848011715766085 0.000230456687973683 0.0 -0.0018032726959716304 0.0 0.0
-0.0009602204932771259 0.000450781766279543 0.0 -0.0018146495483436914 0.0 0.0
-0.0013447712258778304 0.000624275530165618 0.0 -0.0017019779364790297 0.0 0.0
-0.0019541075183814607 0.0008936474307419545 0.0 -0.0016191960856236172 0.0 0.0
-0.0031714280111605517 0.0016641426491085898 0.0 -0.001916488400328049 0.0 0.0
-0.0053647775556195446 0.0034549022286908407 0.0 -0.002872228336337432 0.0 0.0
-0.008663276164436632 0.0064695390960711995 0.0 -0.004530048144118053 0.0 0.0
-0.012950055015331184 0.010533236421094147 0.0 -0.006558740788823647 0.0 0.0
-0.01806158372565831 0.015438881570857998 0.0 -0.00868929361134151 0.0 0.0
-0.023902831529901695 0.021064434288745104 0.0 -0.01078064849355258 0.0 0.0
-0.0304600536192893 0.02738967253586322 0.0 -0.012798097577520231 0.0 0.0
-0.03780801212158201 0.034504734697248816 0.0 -0.014810330560138831 0.0 0.0
-0.046044670782314404 0.04252758746946916 0.0 -0.016947146540191013 0.0 0.0
-0.055086204224433374 0.05143643256102546 0.0 -0.019514131832341415 0.0 0.0
-0.0643122224945582 0.060706741335166334 0.0 -0.02308295741680794 0.0 0.0
-0.07215687727540407 0.06885441844716726 0.0 -0.027997247029340932 0.0 0.0
-0.07576678451466554 0.07307299231885396 0.0 -0.03343930456508888 0.0 0.0
-0.07083602283748851 0.06911681627498426 0.0 -0.03738695175289124 0.0 0.0
-0.06560447909109203 0.051154166613724066 0.0 1.850516267998259e-14 0.0 0.0
-0.07083602283747788 0.0691168162749766 0.0 0.03738695175293516 0.0 0.0
-0.07576678451464355 0.07307299231882879 0.0 0.03343930456513043 0.0 0.0
-0.0721568772753716 0.06885441844712953 0.0 0.027997247029363903 0.0 0.0
-0.06431222249451803 0.06070674133512481 0.0 0.02308295741681004 0.0 0.0
-0.05508620422438964 0.051436432560988135 0.0 0.019514131832332145 0.0 0.0
-0.04604467078227001 0.04252758746942247 0.0 0.016947146540179585 0.0 0.0
-0.03780801212153796 0.03450473469721178 0.0 0.014810330560126875 0.0 0.0
-0.03046005361924585 0.027389672535818442 0.0 0.012798097577508154 0.0 0.0
-0.02390283152986027 0.021064434288701965 0.0 0.010780648493534268 0.0 0.0
-0.018061583725621565 0.015438881570821732 0.0 0.008689293611320491 0.0 0.0
-0.012950055015301203 0.010533236421064508 0.0 0.006558740788807742 0.0 0.0
-0.00866327616441408 0.006469539096056079 0.0 0.00453004814410649 0.0 0.0
-0.005364777555604859 0.0034549022286771485 0.0 0.0028722283363310794 0.0 0.0
-0.003171428011152196 0.0016641426491030608 0.0 0.0019164884003232225 0.0 0.0
-0.0019541075183777787 0.0008936474307412315 0.0 0.001619196085622298 0.0 0.0
-0.001344771225876504 0.0006242755301643101 0.0 0.0017019779364774393 0.0 0.0
-0.0009602204932760753 0.0004507817662787576 0.0 0.0018146495483431927 0.0 0.0
-0.0005848011715761035 0.00023045668797366467 0.0 0.0018032726959706204 0.0 0.0
-0.0001890374432354812 -0.00014642885902662218 0.0 0.001362791770008131 0.0 0.0
7.370480859943271e-06 -0.00040258033891678687 0.0 0.0008036436467370827 0.0 0.0
-4.8634901517151114e-05 -0.0002222041862946077 0.0 -0.0006296938321811832 0.0 0.0
-0.0002424428598116039 -7.943676635312071e-05 0.0 -0.001121426650146772 0.0 0.0
-0.0006609086098706854 0.0002670069195186156 0.0 -0.0015442622954576566 0.0 0.0
-0.001096449502575629 0.0004994081906266052 0.0 -0.0015553413310471981 0.0 0.0
-0.0015759797569841105 0.0007035132461960838 0.0 -0.0014036147519414439 0.0 0.0
-0.002393014880593795 0.0011188707770216429 0.0 -0.001315434164806647 0.0 0.0
-0.004002910355931954 0.0022710618420660267 0.0 -0.0016690609938457745 0.0 0.0
-0.00675481335175614 0.004658337919129773 0.0 -0.0027129210475492936 0.0 0.0
-0.010718034279664808 0.008348572241835417 0.0 -0.004279578574236821 0.0 0.0
-0.015793859946972234 0.013195206672140487 0.0 -0.006125644976456133 0.0 0.0
-0.021867139891375294 0.019043525030039355 0.0 -0.00808618036578269 0.0 0.0
-0.028844640011398887 0.02578288862848664 0.0 -0.01000820223531768 0.0 0.0
-0.03671286783448799 0.03339768729659518 0.0 -0.011878527401055152 0.0 0.0
-0.04553912879865654 0.04196688797405273 0.0 -0.013780618445575618 0.0 0.0
-0.05540528161082377 0.05159403130465612 0.0 -0.015788959558242995 0.0 0.0
-0.06623643938459355 0.06226099703449074 0.0 -0.01801787087509294 0.0 0.0
-0.07735805712717317 0.07342615596910737 0.0 -0.020926037280096132 0.0 0.0
-0.08688036940360015 0.08334414500720547 0.0 -0.025332925586819714 0.0 0.0
-0.09136874345972759 0.08859804606351883 0.0 -0.03146734546857717 0.0 0.0
-0.08593677396307225 0.08426561738325626 0.0 -0.03860392832028211 0.0 0.0
-0.08004738345246244 0.06415009221509678 0.0 1.8421028591397715e-14 0.0 0.0
-0.08593677396305902 0.08426561738324784 0.0 0.038603928320321154 0.0 0.0
-0.09136874345970053 0.08859804606348633 0.0 0.03146734546861362 0.0 0.0
-0.08688036940356157 0.08334414500716453 0.0 0.02533292558684187 0.0 0.0
-0.07735805712712701 0.07342615596906031 0.0 0.020926037280101197 0.0 0.0
-0.06623643938454249 0.06226099703444361 0.0 0.018017870875085717 0.0 0.0
-0.055405281610771476 0.051594031304609975 0.0 0.01578895955823467 0.0 0.0
-0.045539128798604764 0.04196688797400277 0.0 0.013780618445565537 0.0 0.0
-0.03671286783443685 0.033397687296543736 0.0 0.011878527401043932 0.0 0.0
-0.028844640011350488 0.02578288862844374 0.0 0.010008202235301652 0.0 0.0
-0.02186713989133207 0.019043525029996494 0.0 0.008086180365762332 0.0 0.0
-0.01579385994693673 0.013195206672104942 0.0 0.006125644976442453 0.0 0.0
-0.010718034279638048 0.008348572241811942 0.0 0.004279578574225793 0.0 0.0
-0.006754813351737926 0.004658337919115463 0.0 0.0027129210475416283 0.0 0.0
-0.004002910355921573 0.002271061842059306 0.0 0.0016690609938417205 0.0 0.0
-0.0023930148805891608 0.0011188707770205925 0.0 0.001315434164802497 0.0 0.0
-0.00157597975698229 0.0007035132461949533 0.0 0.0014036147519419795 0.0 0.0
-0.0010964495025746468 0.0004994081906256912 0.0 0.0015553413310461154 0.0 0.0
-0.0006609086098701209 0.0002670069195185743 0.0 0.0015442622954572119 0.0 0.0
-0.00024244285981118015 -7.943676635311513e-05 0.0 0.0011214266501448891 0.0 0.0
-4.863490151690045e-05 -0.0002222041862943753 0.0 0.0006296938321806979 0.0 0.0
-9.190868608810224e-05 -9.228735956429082e-05 0.0 -0.00045745720262567967 0.0 0.0
-0.0002871084744288325 -1.4960191521997181e-05 0.0 -0.0008596774353006654 0.0 0.0
-0.0007319732131801001 0.00030279025554553454 0.0 -0.0012333399235288595 0.0 0.0
-0.001228000119544126 0.000542846317288013 0.0 -0.0012385540444333743 0.0 0.0
-0.0018198372848853353 0.0007891303704326448 0.0 -0.0010566610364194603 0.0 0.0
-0.002884903592726883 0.0014061880972028875 0.0 -0.0009744051285141321 0.0 0.0
-0.004919522285751079 0.003009886493765303 0.0 -0.0013860701160383964 0.0 0.0
-0.008199107917550543 0.005955408685800363 0.0 -0.00233938978759396 0.0 0.0
-0.012785772417497118 0.010266851309790204 0.0 -0.003638725971694876 0.0 0.0
-0.018642960434767653 0.015880715808418887 0.0 -0.005195740945131554 0.0 0.0
-0.025670473439367045 0.022662758514817655 0.0 -0.006851752004027687 0.0 0.0
-0.033787435601224 0.030517903917241018 0.0 -0.008478150025323412 0.0 0.0
-0.042979967995590444 0.0394338857176474 0.0 -0.010072239560036415 0.0 0.0
-0.053288313337725934 0.049471763376501304 0.0 -0.011733294060304872 0.0 0.0
-0.06474749771055768 0.06068088344066902 0.0 -0.013507329919174553 0.0 0.0
-0.07723528340145004 0.0729760597659039 0.0 -0.015293366332997849 0.0 0.0
-0.09007543632122973 0.08581563175984541 0.0 -0.01715728813277578 0.0 0.0
-0.1012682773254304 0.09744696777057768 0.0 -0.020266295458534596 0.0 0.0
-0.10692055647543279 0.10404089220644668 0.0 -0.026956986522743184 0.0 0.0
-0.10142405870324314 0.09985839173979001 0.0 -0.03843121764004594 0.0 0.0
-0.09509691484310848 0.07794374031971758 0.0 1.6710591244084583e-14 0.0 0.0
-0.10142405870322742 0.0998583917397748 0.0 0.03843121764008067 0.0 0.0
-0.10692055647540083 0.10404089220641682 0.0 0.026956986522776838 0.0 0.0
-0.1012682773253854 0.09744696777053491 0.0 0.02026629545855159 0.0 0.0
-0.09007543632117715 0.08581563175979523 0.0 0.017157288132778396 0.0 0.0
-0.07723528340139171 0.0729760597658457 0.0 0.015293366332994131 0.0 0.0
-0.06474749771049731 0.060680883440616645 0.0 0.013507329919168618 0.0 0.0
-0.0532883133376663 0.04947176337644377 0.0 0.011733294060294303 0.0 0.0
-0.04297996799553184 0.03943388571759161 0.0 0.010072239560027306 0.0 0.0
-0.03378743560116866 0.030517903917192092 0.0 0.008478150025311573 0.0 0.0
-0.025670473439317554 0.022662758514770884 0.0 0.00685175200401115 0.0 0.0
-0.018642960434727157 0.015880715808378753 0.0 0.005195740945117645 0.0 0.0
-0.012785772417466194 0.010266851309760993 0.0 0.003638725971685789 0.0 0.0
-0.008199107917528713 0.005955408685782463 0.0 0.002339389787587118 0.0 0.0
-0.004919522285738225 0.0030098864937540383 0.0 0.0013860701160339172 0.0 0.0
-0.002884903592720872 0.0014061880971994543 0.0 0.0009744051285109974 0.0 0.0
-0.0018198372848832176 0.0007891303704317173 0.0 0.0010566610364198502 0.0 0.0
-0.0012280001195431624 0.0005428463172875568 0.0 0.0012385540444330072 0.0 0.0
-0.0007319732131795311 0.0003027902555456801 0.0 0.0012333399235280819 0.0 0.0
-0.00028710847442866704 -1.4960191521794257e-05 0.0 0.0008596774352992281 0.0 0.0
-9.190868608790196e-05 -9.228735956424266e-05 0.0 0.0004574572026248152 0.0 0.0
-0.00011769307172771842 -1.3642387837980468e-05 0.0 -0.0002965644174279261 0.0 0.0
-0.0003174389595844772 4.056697219747627e-05 0.0 -0.0005812754581837289 0.0 0.0
-0.0007951725709695489 0.0003347042085789671 0.0 -0.0008645261602866414 0.0 0.0
-0.0013600088117047971 0.0005834276867713782 0.0 -0.000859290227988176 0.0 0.0
-0.002089010904290214 0.0008951385753353171 0.0 -0.0006692413136484144 0.0 0.0
-0.0034438270579819187 0.001786902094084645 0.0 -0.0006144981255993034 0.0 0.0
-0.005893717795817031 0.0038507230105694623 0.0 -0.0010016291558423277 0.0 0.0
-0.009661878509909445 0.0072900089418670485 0.0 -0.001687483778575183 0.0 0.0
-0.014853288602990684 0.012200987228267826 0.0 -0.002637966938560733 0.0 0.0
-0.021475030198961187 0.018563403149107927 0.0 -0.0037792357207411713 0.0 0.0
-0.02945120861913572 0.026271677012627927 0.0 -0.004998445454369392 0.0 0.0
-0.03870969722048793 0.035245591852732995 0.0 -0.006197337150748214 0.0 0.0
-0.049233550059838094 0.04547362375491591 0.0 -0.007388571419095234 0.0 0.0
-0.06103733773290833 0.05699025008283025 0.0 -0.008678197552126671 0.0 0.0
-0.07405977818927453 0.06976292766602983 0.0 -0.010071710335661796 0.0 0.0
-0.08804271202131828 0.08356557653127872 0.0 -0.011359932651004694 0.0 0.0
-0.10231752787364075 0.09778044063127482 0.0 -0.012246739044065313 0.0 0.0
-0.11513533072692525 0.11087747399740472 0.0 -0.013473320749601123 0.0 0.0
-0.12242874538959883 0.11929535678171008 0.0 -0.019169248855348063 0.0 0.0
-0.11760886771925107 0.11627926368586705 0.0 -0.035898155840631586 0.0 0.0
-0.11122256483522197 0.09309953308024514 0.0 1.124621229475764e-14 0.0 0.0
-0.11760886771923221 0.11627926368584568 0.0 0.03589815584065882 0.0 0.0
-0.12242874538956183 0.11929535678167558 0.0 0.019169248855376495 0.0 0.0
-0.1151353307268738 0.11087747399735831 0.0 0.013473320749612487 0.0 0.0
-0.10231752787358074 0.09778044063121817 0.0 0.012246739044066538 0.0 0.0
-0.08804271202125273 0.08356557653121299 0.0 0.011359932651003128 0.0 0.0
-0.07405977818920681 0.0697629276659648 0.0 0.010071710335658134 0.0 0.0
-0.06103733773284106 0.05699025008276716 0.0 0.008678197552120364 0.0 0.0
-0.04923355005977176 0.04547362375485195 0.0 0.007388571419087974 0.0 0.0
-0.03870969722042547 0.03524559185267678 0.0 0.006197337150740406 0.0 0.0
-0.029451208619080516 0.02627167701257492 0.0 0.004998445454356285 0.0 0.0
-0.021475030198915487 0.01856340314906442 0.0 0.003779235720729874 0.0 0.0
-0.014853288602955345 0.012200987228234775 0.0 0.002637966938555002 0.0 0.0
-0.009661878509884446 0.007290008941844553 0.0 0.0016874837785688908 0.0 0.0
-0.005893717795801679 0.0038507230105543407 0.0 0.0010016291558385421 0.0 0.0
-0.0034438270579742634 0.0017869020940783683 0.0 0.0006144981255976047 0.0 0.0
-0.0020890109042873365 0.0008951385753351452 0.0 0.0006692413136481905 0.0 0.0
-0.001360008811703652 0.0005834276867706686 0.0 0.0008592902279877422 0.0 0.0
-0.0007951725709687674 0.0003347042085787274 0.0 0.0008645261602851333 0.0 0.0
-0.00031743895958422764 4.0566972197461476e-05 0.0 0.0005812754581833258 0.0 0.0
-0.00011769307172789462 -1.3642387838016344e-05 0.0 0.00029656441742810616 0.0 0.0
-0.00011772987430969106 1.3812958857806473e-05 0.0 -0.0001682611705184067 0.0 0.0
-0.00032372483631244297 7.716508231592858e-05 0.0 -0.0002911226308826746 0.0 0.0
-0.0008458741832453049 0.00035749562700075556 0.0 -0.00042216834340473493 0.0 0.0
-0.0015012163744748737 0.0006289620777951731 0.0 -0.0004106893600875324 0.0 0.0
-0.002402083110384265 0.0010440618041728667 0.0 -0.0002563596380661402 0.0 0.0
-0.004062802492687824 0.0022635481895002156 0.0 -0.0002242783497768085 0.0 0.0
-0.006901254296192868 0.004748024922126751 0.0 -0.0004423601170862447 0.0 0.0
-0.011125898738440049 0.008642302571849959 0.0 -0.0007954256967221917 0.0 0.0
-0.016899209573185407 0.014127243994777619 0.0 -0.0012836980542230768 0.0 0.0
-0.024268827596907693 0.021217809827758352 0.0 -0.0018840463194794153 0.0 0.0
-0.03318670044572481 0.02984628747782491 0.0 -0.0025262162810158733 0.0 0.0
-0.04359127636431108 0.03994607498812476 0.0 -0.0031675009390623693 0.0 0.0
-0.055456735327183634 0.0514953174645437 0.0 -0.0038488899074526637 0.0 0.0
-0.06874619355184916 0.06448298494112896 0.0 -0.004604049990130337 0.0 0.0
-0.08330442971840042 0.07879603621860018 0.0 -0.005416794016759626 0.0 0.0
-0.09870426355105856 0.09404574705186822 0.0 -0.006153469558028294 0.0 0.0
-0.114106390502583 0.10940851240323375 0.0 -0.006480909510828429 0.0 0.0
-0.12809626002894095 0.12345463728838066 0.0 -0.006359546004228233 0.0 0.0
-0.13759263575475886 0.13354363436912287 0.0 -0.008788634946318739 0.0 0.0
-0.13493590472422987 0.13378661922044588 0.0 -0.026033768272733973 0.0 0.0
-0.12920438082079244 0.11129439019831866 0.0 5.143455106271233e-15 0.0 0.0
-0.13493590472420786 0.13378661922042542 0.0 0.026033768272749492 0.0 0.0
-0.13759263575471692 0.13354363436907976 0.0 0.008788634946336145 0.0 0.0
-0.12809626002888283 0.12345463728832146 0.0 0.006359546004234178 0.0 0.0
-0.11410639050251502 0.10940851240316916 0.0 0.006480909510828121 0.0 0.0
-0.09870426355098479 0.09404574705179518 0.0 0.006153469558029343 0.0 0.0
-0.08330442971832451 0.07879603621852993 0.0 0.005416794016757688 0.0 0.0
-0.06874619355177389 0.06448298494105413 0.0 0.004604049990126733 0.0 0.0
-0.055456735327109784 0.05149531746446986 0.0 0.003848889907451352 0.0 0.0
-0.04359127636424226 0.039946074988057946 0.0 0.003167500939057482 0.0 0.0
-0.03318670044566439 0.029846287477763953 0.0 0.0025262162810081247 0.0 0.0
-0.024268827596857483 0.021217809827710467 0.0 0.0018840463194733786 0.0 0.0
-0.01689920957314646 0.01412724399473933 0.0 0.0012836980542195741 0.0 0.0
-0.011125898738411806 0.008642302571825144 0.0 0.0007954256967194942 0.0 0.0
-0.006901254296174879 0.004748024922109702 0.0 0.0004423601170843503 0.0 0.0
-0.0040628024926784075 0.002263548189493527 0.0 0.00022427834977632242 0.0 0.0
-0.002402083110380492 0.0010440618041720033 0.0 0.00025635963806655196 0.0 0.0
-0.0015012163744736744 0.0006289620777952315 0.0 0.00041068936008772797 0.0 0.0
-0.000845874183244595 0.00035749562700072233 0.0 0.0004221683434045448 0.0 0.0
-0.000323724836312136 7.716508231588281e-05 0.0 0.0002911226308821963 0.0 0.0
-0.00011772987430944026 1.3812958857755988e-05 0.0 0.0001682611705181752 0.0 0.0
-7.706284032675458e-05 1.4862861443238073e-05 0.0 -0.00010472260942662415 0.0 0.0
-0.00028909379700949793 8.915960717910328e-05 0.0 -0.00012087853249918983 0.0 0.0
-0.0008778645477324938 0.0003658392662016201 0.0 -0.00014289740318388364 0.0 0.0
-0.001667574022072982 0.0006542708186792557 0.0 -0.00011349146068167251 0.0 0.0
-0.0027711734072786193 0.0011336861498985888 0.0 8.5088561450883e-05 0.0 0.0
-0.0047275141127499165 0.002521602819032434 0.0 0.0002619108037425498 0.0 0.0
-0.007923233394072507 0.005206041972114179 0.0 0.0003326454262641321 0.0 0.0
-0.01257675714839885 0.009320951501458306 0.0 0.00035883439817113055 0.0 0.0
-0.01890413689053754 0.015085128445446077 0.0 0.0003457918658183166 0.0 0.0
-0.027001623155588954 0.022534997003136464 0.0 0.0002663686425389512 0.0 0.0
-0.03685624229161392 0.03162165696481865 0.0 0.00016460700523802767 0.0 0.0
-0.0484167052925881 0.04228765057800175 0.0 3.933709677059454e-05 0.0 0.0
-0.061617543362260996 0.0544991706922815 0.0 -0.00016142613519266533 0.0 0.0
-0.07637066686834922 0.06821662114341981 0.0 -0.0004079960670216234 0.0 0.0
-0.0924446246574105 0.08329434008537785 0.0 -0.0007523676878362301 0.0 0.0
-0.10924855966676487 0.09926105208405606 0.0 -0.0011556232889624336 0.0 0.0
-0.12567887314934842 0.11516123736243282 0.0 -0.0014443126920147438 0.0 0.0
-0.14014791707552698 0.12953067369473747 0.0 -0.0013443943909575082 0.0 0.0
-0.15088415110047418 0.1402424179634729 0.0 -0.0022373751380521424 0.0 0.0
-0.15348543751400845 0.14282088704727755 0.0 -0.019009126664580052 0.0 0.0
-0.15187094886432398 0.12148351790134278 0.0 1.734723475976807e-15 0.0 0.0
-0.1534854375139838 0.14282088704726145 0.0 0.019009126664584312 0.0 0.0
-0.1508841511004265 0.14024241796342474 0.0 0.0022373751380589633 0.0 0.0
-0.1401479170754602 0.12953067369467217 0.0 0.00134439439095785 0.0 0.0
-0.12567887314927162 0.11516123736236569 0.0 0.0014443126920151567 0.0 0.0
-0.10924855966668362 0.09926105208398198 0.0 0.0011556232889634952 0.0 0.0
-0.09244462465732661 0.08329434008530442 0.0 0.0007523676878325759 0.0 0.0
-0.07637066686826574 0.0682166211433431 0.0 0.00040799606701838985 0.0 0.0
-0.061617543362179956 0.054499170692201365 0.0 0.0001614261351926636 0.0 0.0
-0.04841670529251232 0.042287650577928215 0.0 -3.933709677335882e-05 0.0 0.0
-0.03685624229154731 0.0316216569647533 0.0 -0.0001646070052409715 0.0 0.0
-0.027001623155534164 0.022534997003086223 0.0 -0.0002663686425408945 0.0 0.0
-0.018904136890494996 0.01508512844540687 0.0 -0.000345791865820171 0.0 0.0
-0.012576757148367878 0.00932095150143243 0.0 -0.000358834398169715 0.0 0.0
-0.007923233394052216 0.005206041972097223 0.0 -0.0003326454262642686 0.0 0.0
-0.004727514112738781 0.0025216028190256047 0.0 -0.0002619108037405552 0.0 0.0
-0.002771173407274031 0.001133686149897452 0.0 -8.508856144925719e-05 0.0 0.0
-0.0016675740220712092 0.000654270818680691 0.0 0.00011349146068208223 0.0 0.0
-0.0008778645477316384 0.0003658392662016594 0.0 0.00014289740318386334 0.0 0.0
-0.000289093797009371 8.915960717934263e-05 0.0 0.00012087853249884805 0.0 0.0
-7.706284032680291e-05 1.486286144312615e-05 0.0 0.00010472260942390116 0.0 0.0
SCALARS Statev float 8
LOOKUP_TABLE default
0.0 0.01710915206999413 0.01367182002121891 -0.016355089408783947 0.0026832693875650355 -0.0008129198479171578 0.0 0.0
0.0 0.005673971282869211 0.004142760011572797 -0.0025075819413863964 -0.0016351780701864011 -0.006478860298299891 0.0 0.0
0.0 6.986184229083638e-05 0.00011550249163129384 -7.251358586262752e-05 -4.298890576866644e-05 -0.00023120868381308382 0.0 0.0
0.0 0.00012744010690646072 4.34558686836601e-05 -3.112427586534297e-05 -1.233159281831728e-05 1.5465790015123173e-05 0.0 0.0
0.0 0.0007971698820280409 0.0004884966307324378 -0.00035553081148316485 -0.00013296581924927326 0.00010725195542554867 0.0 0.0
0.0 0.002017315795002027 0.0020259385653805806 -0.0015871168901893777 -0.00043882167519120237 0.00022569170804005378 0.0 0.0
0.0 0.005223731144773187 0.004810901743415726 -0.004062534444426436 -0.0007483672989892826 0.00031832973987952875 0.0 0.0
0.0 0.010059436152740749 0.00912527419427904 -0.008121898675506703 -0.001003375518772341 0.00036508391611845653 0.0 0.0
0.0 0.016867864000649505 0.015118106939357275 -0.01390070871819226 -0.001217398221165008 0.000369294207678231 0.0 0.0
0.0 0.025758235748237306 0.022859832495242732 -0.021418767701043055 -0.0014410647941997103 0.0003119243662626143 0.0 0.0
0.0 0.036701338848965974 0.032336207910343265 -0.03063667899419895 -0.0016995289161442551 0.00022929985618473067 0.0 0.0
0.0 0.04931829826868142 0.043507113326657416 -0.04150931074376168 -0.0019978025828957533 0.00011623322795705057 0.0 0.0
0.0 0.06390485783721495 0.056317398490660024 -0.053990602955025016 -0.0023267955356350008 -7.618151255315837e-05 0.0 0.0
0.0 0.08033405088477072 0.07070958955173279 -0.06803443288181152 -0.0026751566699211864 -0.0002962942856260737 0.0 0.0
0.0 0.0984563352454876 0.08654921702250652 -0.08352347694404569 -0.0030257400784606757 -0.0005887891907338486 0.0 0.0
0.0 0.11788933070624491 0.10346559481679489 -0.10010556242176091 -0.003360032395034027 -0.0009569664461641144 0.0 0.0
0.0 0.13776402343894634 0.12073573409930813 -0.11707533167396991 -0.0036604024253381567 -0.0013366608276863447 0.0 0.0
0.0 0.15680352332866102 0.13726303902332682 -0.13335433452828205 -0.003908704495044728 -0.0015829405317032048 0.0 0.0
0.0 0.17341390840927445 0.15167525788106215 -0.1475779603743577 -0.004097297506704361 -0.0015190544542006681 0.0 0.0
0.0 0.185520535172806 0.16236521753597508 -0.15816164809284491 -0.004203569443130264 -0.0015942325278890303 0.0 0.0
0.0 0.19047537065106424 0.1666142754988854 -0.16242544163785236 -0.004188833861032913 2.456368441983159e-15 0.0 0.0
0.0 0.1855205351727852 0.16236521753595656 -0.15816164809282734 -0.004203569443129076 0.0015942325278966883 0.0 0.0
0.0 0.17341390840922766 0.15167525788102035 -0.14757796037431853 -0.004097297506701925 0.001519054454207757 0.0 0.0
0.0 0.15680352332858277 0.1372630390232589 -0.13335433452821444 -0.003908704495044514 0.0015829405317073462 0.0 0.0
0.0 0.13776402343886973 0.12073573409924038 -0.11707533167390616 -0.003660402425334321 0.0013366608276850333 0.0 0.0
0.0 0.11788933070616214 0.10346559481672181 -0.10010556242169008 -0.00336003239503185 0.0009569664461605608 0.0 0.0
0.0 0.0984563352453997 0.08654921702242957 -0.08352347694397103 -0.0030257400784584575 0.0005887891907332171 0.0 0.0
0.0 0.08033405088467561 0.07070958955165026 -0.06803443288172951 -0.0026751566699207766 0.00029629428562481623 0.0 0.0
0.0 0.06390485783712853 0.05631739849058447 -0.053990602954951686 -0.0023267955356327287 7.618151255145119e-05 0.0 0.0
0.0 0.04931829826860186 0.04350711332658762 -0.041509310743693524 -0.001997802582894101 -0.00011623322795947821 0.0 0.0
0.0 0.036701338848896425 0.032336207910282376 -0.030636678994139525 -0.0016995289161428446 -0.00022929985618588182 0.0 0.0
0.0 0.025758235748185625 0.022859832495197373 -0.02141876770099936 -0.001441064794198039 -0.0003119243662643694 0.0 0.0
0.0 0.01686786400060594 0.01511810693931873 -0.013900708718154919 -0.0012173982211637854 -0.00036929420767844746 0.0 0.0
0.0 0.010059436152713146 0.009125274194253935 -0.008121898675482925 -0.0010033755187710146 -0.00036508391611795644 0.0 0.0
0.0 0.005223731144755503 0.004810901743398907 -0.004062534444411101 -0.0007483672989878006 -0.0003183297398794392 0.0 0.0
0.0 0.0020173157949935515 0.002025938565371868 -0.0015871168901821196 -0.00043882167518974623 -0.00022569170803933555 0.0 0.0
0.0 0.0007971698820238901 0.0004884966307295721 -0.0003555308114810787 -0.0001329658192484923 -0.00010725195542495242 0.0 0.0
0.0 0.0001274401069055864 4.345586868364337e-05 -3.1124275865346255e-05 -1.2331592818296564e-05 -1.5465790015025324e-05 0.0 0.0
0.0 6.986184229007619e-05 0.00011550249163076539 -7.251358586226972e-05 -4.2988905768495136e-05 0.00023120868381207985 0.0 0.0
0.0 0.005673971282859468 0.004142760011567725 -0.002507581941382788 -0.0016351780701849322 0.006478860298290401 0.0 0.0
0.0 0.017109152069973897 0.013671820021205193 -0.016355089408764973 0.0026832693875597697 0.0008129198478813396 0.0 0.0
0.0 0.013884748535321739 0.010358723259226349 -0.013465614552762194 0.0031068912935358333 -0.0003401536725160071 0.0 0.0
0.0 0.0034142591784734576 0.0024450626107931864 -0.0014522696191984765 -0.0009927929915947054 -0.005013494923210492 0.0 0.0
0.0 -5.9501225559753335e-05 -6.099625503989091e-05 5.296311250444288e-05 8.033142535448047e-06 -5.494223777073372e-05 0.0 0.0
0.0 2.0333936775280956e-05 1.1903222784968783e-05 -8.575706310158413e-06 -3.3275164748103837e-06 7.326448961231407e-06 0.0 0.0
0.0 0.0004084404297955144 0.0003018997558600798 -0.00022143491935398637 -8.04648365060931e-05 4.399282308380969e-05 0.0 0.0
0.0 0.001774570226382632 0.001518134885804495 -0.001200404940593295 -0.0003177299452112022 5.314361422128366e-05 0.0 0.0
0.0 0.004398514335742635 0.004047531998188477 -0.0034562589394160053 -0.0005912730587724687 -0.00015380534116546813 0.0 0.0
0.0 0.008882981476563447 0.007997808484743409 -0.007212551724873665 -0.0007852567598697512 -0.0004996242400704769 0.0 0.0
0.0 0.015233964411408216 0.013524482175977383 -0.012614670318341334 -0.0009098118576360315 -0.0009827559693176581 0.0 0.0
0.0 0.023451912376658206 0.020659538877557858 -0.019648395060995964 -0.0010111438165618897 -0.0015748243948221399 0.0 0.0
0.0 0.033512080201893925 0.029357959437919398 -0.028247315820536863 -0.0011106436173825773 -0.002217229181740106 0.0 0.0
0.0 0.045452602819865726 0.039566263186577424 -0.03835256202378474 -0.0012137011627926617 -0.0028716585651565253 0.0 0.0
0.0 0.0586670127659311 0.051269945590885324 -0.04994990435992335 -0.0013200412309618962 -0.0035718067214966743 0.0 0.0
0.0 0.07386391141543625 0.06443989534253802 -0.06301722125898608 -0.0014226740835519246 -0.004329866316257981 0.0 0.0
0.0 0.09061865300764665 0.07896666416458024 -0.07745621639827174 -0.0015104477663084274 -0.005130514606621373 0.0 0.0
0.0 0.10858987376053467 0.09452419121561305 -0.09295041244071699 -0.001573778774896137 -0.005918852277083749 0.0 0.0
0.0 0.1270534783038792 0.11046162702275598 -0.10885495515541285 -0.0016066718673430572 -0.006506320720303608 0.0 0.0
0.0 0.14485205171320464 0.1257835955659975 -0.12417346230103236 -0.0016101332649651732 -0.006580397035315303 0.0 0.0
0.0 0.16041058674878234 0.1391756249281913 -0.1375930171462586 -0.0015826077819326718 -0.005892369624225244 0.0 0.0
0.0 0.1717510546480942 0.14887618721324575 -0.14739768764282274 -0.0014784995704229462 -0.004776423379498207 0.0 0.0
0.0 0.17651309581918773 0.15264187701239362 -0.1513260014879466 -0.0013158755244470914 6.015587333818573e-15 0.0 0.0
0.0 0.17175105464807197 0.14887618721322604 -0.1473976876428033 -0.0014784995704226409 0.004776423379514793 0.0 0.0
0.0 0.16041058674873737 0.13917562492815205 -0.1375930171462199 -0.001582607781932042 0.00589236962424315 0.0 0.0
0.0 0.14485205171313725 0.1257835955659396 -0.12417346230097388 -0.0016101332649656208 0.006580397035324518 0.0 0.0
0.0 0.127053478303806 0.11046162702269254 -0.10885495515535065 -0.0016066718673418358 0.006506320720303715 0.0 0.0
0.0 0.10858987376045788 0.09452419121554613 -0.09295041244065091 -0.0015737787748950876 0.00591885227707814 0.0 0.0
0.0 0.09061865300756435 0.07896666416450858 -0.0774562163982007 -0.0015104477663079661 0.005130514606619868 0.0 0.0
0.0 0.07386391141535273 0.06443989534246589 -0.06301722125891396 -0.0014226740835518673 0.004329866316255905 0.0 0.0
0.0 0.05866701276584946 0.051269945590814596 -0.049949904359853275 -0.001320041230961371 0.003571806721492196 0.0 0.0
0.0 0.04545260281979349 0.0395662631865144 -0.03835256202372229 -0.0012137011627920944 0.0028716585651514586 0.0 0.0
0.0 0.03351208020182953 0.02935795943786365 -0.028247315820481567 -0.0011106436173820911 0.002217229181733828 0.0 0.0
0.0 0.023451912376607698 0.020659538877513275 -0.01964839506095212 -0.00101114381656114 0.0015748243948172833 0.0 0.0
0.0 0.015233964411370128 0.0135244821759434 -0.012614670318308024 -0.0009098118576353844 0.000982755969314719 0.0 0.0
0.0 0.00888298147653902 0.007997808484721243 -0.007212551724852367 -0.0007852567598688795 0.000499624240068372 0.0 0.0
0.0 0.00439851433572671 0.004047531998173657 -0.003456258939402342 -0.0005912730587713118 0.0001538053411638904 0.0 0.0
0.0 0.001774570226373926 0.0015181348857968558 -0.0012004049405869065 -0.00031772994520994834 -5.314361422149648e-05 0.0 0.0
0.0 0.0004084404297929803 0.0003018997558585289 -0.00022143491935287089 -8.046483650565826e-05 -4.399282308343386e-05 0.0 0.0
0.0 2.0333936774918257e-05 1.1903222785294776e-05 -8.575706310410505e-06 -3.3275164748840844e-06 -7.32644896119735e-06 0.0 0.0
0.0 -5.9501225559589776e-05 -6.099625503968428e-05 5.2963112504253595e-05 8.033142535430532e-06 5.494223777051274e-05 0.0 0.0
0.0 0.0034142591784639647 0.002445062610788093 -0.0014522696191949626 -0.0009927929915931313 0.0050134949231998285 0.0 0.0
0.0 0.013884748535299953 0.010358723259209696 -0.013465614552741145 0.0031068912935314453 0.00034015367248919865 0.0 0.0
0.0 0.010263940890889962 0.007492577168298757 -0.010017170420203206 0.0025245932519044447 -0.0026470423788143753 0.0 0.0
0.0 0.002374315772310404 0.001503607842452188 -0.0008009921693602053 -0.0007026156730919835 -0.0040820656312788185 0.0 0.0
0.0 5.2126402612484404e-08 2.0320321660410207e-08 -1.7419350010730168e-08 -2.900971649680192e-09 1.545047397303964e-08 0.0 0.0
0.0 -3.3493034821029153e-06 -4.867441438366409e-06 3.794406941967289e-06 1.0730344963989927e-06 2.0861560606349197e-06 0.0 0.0
0.0 0.0001563795313969354 0.0001223131466642623 -8.695590661677965e-05 -3.535724004748309e-05 1.5258548586367547e-05 0.0 0.0
0.0 0.001235016525144425 0.0009976216603502209 -0.0007685028953139319 -0.00022911876503628811 -4.590202662431406e-05 0.0 0.0
0.0 0.0033494336045495725 0.0031457538399196666 -0.002629987269102661 -0.0005157665708170081 -0.0004553581679782022 0.0 0.0
0.0 0.007361656177753353 0.006636001785058529 -0.005906379707878984 -0.0007296220771795439 -0.001135333890954679 0.0 0.0
0.0 0.01302458438544466 0.011582553381591797 -0.010718753731815476 -0.0008637996497763206 -0.0020707266422234543 0.0 0.0
0.0 0.020451594951378074 0.01797313023779296 -0.01701097311989504 -0.0009621571178979175 -0.003198237421093674 0.0 0.0
0.0 0.029471867143226756 0.025733817875453358 -0.024678547256347102 -0.0010552706191062446 -0.004419520483535059 0.0 0.0
0.0 0.039896166677629644 0.03480231293582706 -0.033650293334320944 -0.0011520196015060895 -0.005645237120263909 0.0 0.0
0.0 0.05206371190788653 0.04516908844728239 -0.043917327145205395 -0.0012517613020770035 -0.0068777294594692855 0.0 0.0
0.0 0.06530133306624943 0.056859726965924236 -0.055512016019237956 -0.001347710946686225 -0.008199104974754593 0.0 0.0
0.0 0.0802590354331785 0.06979672939093469 -0.06836624751851206 -0.0014304818724227293 -0.009608850638645267 0.0 0.0
0.0 0.096346833590163 0.08371306024693907 -0.08222185641474912 -0.0014912038321898329 -0.01096804698963006 0.0 0.0
0.0 0.11295174719148172 0.09806460052723256 -0.09653883365835308 -0.0015257668688795937 -0.011957133527515788 0.0 0.0
0.0 0.12904729224249092 0.11197464159999576 -0.11044416045375131 -0.0015304811462444503 -0.012092627240342319 0.0 0.0
0.0 0.14319585523060502 0.12417337189848772 -0.12268242728047835 -0.0014909446180092687 -0.010983881208002793 0.0 0.0
0.0 0.1534774733706357 0.13300062314466757 -0.13157744478622305 -0.0014231783584444059 -0.008542062024209613 0.0 0.0
0.0 0.1579700307500092 0.13652560330756736 -0.13529999526099215 -0.0012256080465751153 1.231436827509036e-14 0.0 0.0
0.0 0.15347747337061496 0.13300062314464833 -0.13157744478620426 -0.001423178358444201 0.008542062024239697 0.0 0.0
0.0 0.14319585523056283 0.12417337189845096 -0.12268242728044142 -0.0014909446180096377 0.01098388120803255 0.0 0.0
0.0 0.12904729224243622 0.11197464159994819 -0.11044416045370396 -0.001530481146244139 0.0120926272403598 0.0 0.0
0.0 0.11295174719141604 0.09806460052717612 -0.096538833658297 -0.0015257668688790965 0.011957133527517767 0.0 0.0
0.0 0.09634683359009513 0.08371306024687988 -0.08222185641469085 -0.0014912038321890232 0.010968046989624329 0.0 0.0
0.0 0.08025903543310513 0.06979672939087131 -0.06836624751844873 -0.001430481872422594 0.009608850638642337 0.0 0.0
0.0 0.06530133306617779 0.05685972696586174 -0.05551201601917631 -0.0013477109466854165 0.008199104974750914 0.0 0.0
0.0 0.05206371190781367 0.0451690884472197 -0.043917327145142585 -0.0012517613020771126 0.006877729459461652 0.0 0.0
0.0 0.03989616667756328 0.03480231293576976 -0.03365029333426396 -0.001152019601505745 0.005645237120254423 0.0 0.0
0.0 0.02947186714317 0.025733817875403766 -0.024678547256297857 -0.0010552706191059135 0.004419520483524874 0.0 0.0
0.0 0.02045159495133096 0.01797313023775149 -0.01701097311985396 -0.0009621571178975206 0.0031982374210845566 0.0 0.0
0.0 0.013024584385409795 0.011582553381560952 -0.010718753731785295 -0.0008637996497756635 0.002070726642217518 0.0 0.0
0.0 0.0073616561777306005 0.006636001785038332 -0.0059063797078597 -0.0007296220771786248 0.0011353338909503735 0.0 0.0
0.0 0.0033494336045362073 0.003145753839907085 -0.002629987269091366 -0.0005157665708157189 0.00045535816797564826 0.0 0.0
0.0 0.0012350165251375203 0.0009976216603444536 -0.0007685028953092727 -0.0002291187650351802 4.590202662348832e-05 0.0 0.0
0.0 0.00015637953139569646 0.00012231314666385996 -8.695590661652897e-05 -3.535724004733101e-05 -1.5258548586092577e-05 0.0 0.0
0.0 -3.3493034822965416e-06 -4.867441438261486e-06 3.7944069418865116e-06 1.0730344963749975e-06 -2.0861560606162502e-06 0.0 0.0
0.0 5.2126402601424966e-08 2.032032167293065e-08 -1.7419350021163136e-08 -2.9009716517672444e-09 -1.5450473980773608e-08 0.0 0.0
0.0 0.0023743157723028533 0.0015036078424476354 -0.0008009921693571971 -0.0007026156730904367 0.0040820656312669495 0.0 0.0
0.0 0.010263940890867893 0.00749257716828242 -0.010017170420182391 0.002524593251899974 0.002647042378796432 0.0 0.0
0.0 0.007720466182783178 0.00548375373204107 -0.00748968609117881 0.002005932359137727 -0.002895257455789505 0.0 0.0
0.0 0.0016820342679847353 0.0009985255614702625 -0.0005155701936619665 -0.0004829553678082941 -0.0030281285875908667 0.0 0.0
0.0 0.0 0.0 0.0 0.0 0.0 0.0 0.0
0.0 -6.589767157319429e-07 -2.789479225756368e-07 2.3496305223587188e-07 4.3984870339761245e-08 2.3217774457544292e-07 0.0 0.0
0.0 4.149308206856644e-05 1.8772514052060788e-05 -1.1540563234589225e-05 -7.231950817471251e-06 1.2974313321375028e-05 0.0 0.0
0.0 0.000685196587544253 0.0005887809756194619 -0.00044234866466985574 -0.00014643231094960566 -9.52420328629619e-05 0.0 0.0
0.0 0.0025949310709997807 0.00227235221269563 -0.0018524369326205735 -0.00041991528007505536 -0.0005558512350001943 0.0 0.0
0.0 0.005882961675210809 0.0052932058560185395 -0.004633576343251582 -0.0006596295127669562 -0.0015241510396940847 0.0 0.0
0.0 0.010887588911257582 0.009635942783288994 -0.008826641078325377 -0.0008093017049636134 -0.002809210923604366 0.0 0.0
0.0 0.017452616479134694 0.015265389475701177 -0.014356960498117737 -0.0009084289775834434 -0.004351412735195939 0.0 0.0
0.0 0.025352783355370827 0.02208232102087727 -0.021086781718808914 -0.0009955393020683453 -0.00601230387575633 0.0 0.0
0.0 0.03462964631401584 0.03001064133069753 -0.028925409749860975 -0.001085231580836542 -0.0076731522265789855 0.0 0.0
0.0 0.04497705768760726 0.03905359329468068 -0.037874791843750165 -0.0011788014509305717 -0.009331310372563947 0.0 0.0
0.0 0.0570193284411513 0.04924560279261065 -0.04797811666457709 -0.0012674861280335353 -0.011069001204370741 0.0 0.0
0.0 0.07003193932707767 0.060571415004745166 -0.059226770733731976 -0.0013446442710131569 -0.01291272034694366 0.0 0.0
0.0 0.0840432319275647 0.07283498619313597 -0.07143019878717884 -0.0014047874059571475 -0.01470860692555551 0.0 0.0
0.0 0.09888468430872428 0.08559367945852372 -0.08415260944624788 -0.0014410700122758397 -0.016052539582597863 0.0 0.0
0.0 0.11334841344339601 0.0980940186409718 -0.09664816929245677 -0.0014458493485149811 -0.01635659747872449 0.0 0.0
0.0 0.12615592000631126 0.10918594667073717 -0.10777201898348011 -0.0014139276872570578 -0.0150069840989918 0.0 0.0
0.0 0.13561056240735425 0.11740070527456044 -0.1160357721760653 -0.0013649330984953068 -0.011274852889769291 0.0 0.0
0.0 0.1400863985828598 0.12087316214747042 -0.11978552462896387 -0.0010876375185065752 1.6919625422939788e-14 0.0 0.0
0.0 0.13561056240733635 0.11740070527454324 -0.11603577217604794 -0.0013649330984953048 0.01127485288980975 0.0 0.0
0.0 0.12615592000627307 0.10918594667070339 -0.1077720189834459 -0.0014139276872574386 0.015006984099029506 0.0 0.0
0.0 0.11334841344334848 0.09809401864093022 -0.09664816929241499 -0.0014458493485152513 0.016356597478747785 0.0 0.0
0.0 0.09888468430866545 0.08559367945847313 -0.0841526094461976 -0.0014410700122755129 0.016052539582599567 0.0 0.0
0.0 0.08404323192750389 0.07283498619308326 -0.0714301987871266 -0.0014047874059566225 0.014708606925548911 0.0 0.0
0.0 0.07003193932701449 0.06057141500469015 -0.05922677073367757 -0.001344644271012595 0.012912720346938376 0.0 0.0
0.0 0.05701932844108722 0.049245602792555014 -0.04797811666452165 -0.0012674861280333543 0.011069001204364354 0.0 0.0
0.0 0.04497705768754689 0.03905359329462891 -0.03787479184369859 -0.0011788014509302857 0.009331310372554831 0.0 0.0
0.0 0.03462964631395932 0.030010641330648298 -0.028925409749812236 -0.001085231580836113 0.007673152226565872 0.0 0.0
0.0 0.02535278335532142 0.022082321020834402 -0.02108678171876639 -0.00099553930206799 0.006012303875743497 0.0 0.0
0.0 0.017452616479093422 0.015265389475665237 -0.014356960498082388 -0.0009084289775828379 0.004351412735183504 0.0 0.0
0.0 0.010887588911224993 0.009635942783260699 -0.00882664107829755 -0.0008093017049631439 0.0028092109235955285 0.0 0.0
0.0 0.005882961675190764 0.005293205856000133 -0.004633576343234189 -0.000659629512765939 0.0015241510396878104 0.0 0.0
0.0 0.0025949310709880197 0.002272352212685802 -0.0018524369326120128 -0.0004199152800737905 0.0005558512349971582 0.0 0.0
0.0 0.0006851965875387435 0.0005887809756152614 -0.0004423486646665846 -0.00014643231094867726 9.52420328619453e-05 0.0 0.0
0.0 4.149308206783406e-05 1.877251405219317e-05 -1.1540563234731324e-05 -7.231950817461863e-06 -1.2974313321073948e-05 0.0 0.0
0.0 -6.589767156418537e-07 -2.789479226266444e-07 2.3496305227569275e-07 4.398487035096369e-08 -2.3217774461355965e-07 0.0 0.0
0.0 0.0 0.0 0.0 0.0 0.0 0.0 0.0
0.0 0.0016820342679775987 0.0009985255614661341 -0.000515570193659188 -0.00048295536780694796 0.0030281285875799536 0.0 0.0
0.0 0.007720466182764934 0.005483753732026837 -0.007489686091160434 0.0020059323591336015 0.0028952574557767567 0.0 0.0
0.0 0.005598080967449492 0.003957203205730459 -0.005501484712790174 0.001544281507059718 -0.002497344803896571 0.0 0.0
0.0 0.0013409412616596922 0.0006330282484056655 -0.0003143604382401457 -0.00031866781016551927 -0.0021129407576577076 0.0 0.0
0.0 0.0 0.0 0.0 0.0 0.0 0.0 0.0
0.0 -1.7918878968638495e-07 1.6580370838373166e-08 -1.3354665710081564e-08 -3.22570512829003e-09 -1.9972891801069645e-08 0.0 0.0
0.0 -1.8812887303070447e-05 -9.010601364136942e-06 7.730196828401697e-06 1.2804045357352393e-06 1.2794095977030063e-05 0.0 0.0
0.0 0.0003491074873819978 0.0002664390050638814 -0.0001949864387913769 -7.145256627250437e-05 -6.583792810361538e-05 0.0 0.0
0.0 0.0018601263020886689 0.0015000842343333282 -0.001190184877112509 -0.0003098993572208179 -0.0005466164489141227 0.0 0.0
0.0 0.004478303893742748 0.003990337085023049 -0.003417001043833793 -0.0005733360411892619 -0.0016256921971730329 0.0 0.0
0.0 0.008788690677061818 0.0077086823939164825 -0.006965980624023264 -0.0007427017698932218 -0.0031904891892497633 0.0 0.0
0.0 0.014452946367767096 0.012561079728860752 -0.011713772141971335 -0.000847307586889411 -0.005027219762964689 0.0 0.0
0.0 0.021326545715756033 0.018426660384650413 -0.017496240095992863 -0.000930420288657557 -0.006995874479325263 0.0 0.0
0.0 0.029291664659071535 0.025217733769518566 -0.024204721937395778 -0.0010130118321227768 -0.0089567788945195 0.0 0.0
0.0 0.038394847924146616 0.0329330936342443 -0.0318341414997942 -0.0010989521344500523 -0.01090721619331207 0.0 0.0
0.0 0.04831589567111461 0.04163734995968723 -0.04045518558828717 -0.0011821643714000772 -0.012937223602585536 0.0 0.0
0.0 0.05970216958971805 0.051338285537336485 -0.05008422485348428 -0.0012540606838522355 -0.015065713919317648 0.0 0.0
0.0 0.07207929394258596 0.06191776968785417 -0.06060703267512318 -0.0013107370127309538 -0.017128740272829297 0.0 0.0
0.0 0.08483218241984054 0.07305463541799762 -0.07170501558519222 -0.0013496198328053588 -0.018745247614271168 0.0 0.0
0.0 0.09762061055394507 0.08413536316460331 -0.08277367760030009 -0.0013616855643033114 -0.01929521405374817 0.0 0.0
0.0 0.10920092941104477 0.09419558771231082 -0.09285531080378014 -0.0013402769085306087 -0.017871926130326392 0.0 0.0
0.0 0.1180823878992848 0.10196352289974674 -0.10066483449898192 -0.0012986884007647013 -0.01332508519991552 0.0 0.0
0.0 0.12269818982073315 0.10549249802734151 -0.10456947130455035 -0.0009230267227911503 1.9529516892546894e-14 0.0 0.0
0.0 0.11808238789926831 0.10196352289973068 -0.10066483449896518 -0.0012986884007653815 0.01332508519996032 0.0 0.0
0.0 0.10920092941101568 0.09419558771228384 -0.0928553108037537 -0.001340276908530114 0.017871926130368105 0.0 0.0
0.0 0.09762061055390348 0.0841353631645666 -0.08277367760026286 -0.0013616855643037498 0.019295214053773685 0.0 0.0
0.0 0.08483218241978974 0.073054635417954 -0.07170501558514898 -0.0013496198328050288 0.018745247614274277 0.0 0.0
0.0 0.0720792939425324 0.06191776968780781 -0.06060703267507699 -0.0013107370127307344 0.017128740272821772 0.0 0.0
0.0 0.05970216958966263 0.0513382855372883 -0.050084224853436624 -0.0012540606838516606 0.015065713919310827 0.0 0.0
0.0 0.04831589567105966 0.04163734995963965 -0.04045518558823972 -0.001182164371399903 0.012937223602578386 0.0 0.0
0.0 0.03839484792409353 0.03293309363419829 -0.031834141499748635 -0.0010989521344496212 0.010907216193300914 0.0 0.0
0.0 0.029291664659027387 0.025217733769480024 -0.024204721937358276 -0.001013011832121741 0.008956778894505914 0.0 0.0
0.0 0.021326545715713026 0.01842666038461355 -0.017496240095956617 -0.0009304202886569463 0.006995874479309288 0.0 0.0
0.0 0.014452946367731565 0.012561079728830289 -0.011713772141941295 -0.0008473075868889939 0.005027219762950565 0.0 0.0
0.0 0.008788690677035986 0.007708682393893986 -0.006965980624001429 -0.0007427017698925547 0.00319048918923988 0.0 0.0
0.0 0.004478303893724972 0.003990337085007307 -0.0034170010438192944 -0.0005733360411880124 0.001625692197165785 0.0 0.0
0.0 0.0018601263020799346 0.0015000842343264854 -0.0011901848771068509 -0.0003098993572196366 0.0005466164489114269 0.0 0.0
0.0 0.00034910748737784357 0.0002664390050610371 -0.00019498643878919475 -7.145256627184176e-05 6.583792810241929e-05 0.0 0.0
0.0 -1.8812887303377947e-05 -9.010601363869178e-06 7.730196828188755e-06 1.2804045356803639e-06 -1.2794095976712504e-05 0.0 0.0
0.0 -1.7918878958620634e-07 1.6580370829333657e-08 -1.3354665703083526e-08 -3.225705126253981e-09 1.9972891788994082e-08 0.0 0.0
0.0 0.0 0.0 0.0 0.0 0.0 0.0 0.0
0.0 0.0013409412616530439 0.0006330282484024523 -0.00031436043823798433 -0.0003186678101644663 0.002112940757648821 0.0 0.0
0.0 0.005598080967434291 0.003957203205718553 -0.005501484712774555 0.001544281507055994 0.002497344803887498 0.0 0.0
0.0 0.004029844109318457 0.0027469703310176157 -0.003879409239222413 0.0011324389082047965 -0.001954529504877698 0.0 0.0
0.0 0.000779006568100448 0.00037652783116143534 -0.00017701097862287177 -0.00019951685253856349 -0.0013904435572551117 0.0 0.0
0.0 0.0 0.0 0.0 0.0 0.0 0.0 0.0
0.0 -4.2819074672083497e-07 3.2598703140169964e-08 -2.4906694850939358e-08 -7.692008289230642e-09 -6.631307165159322e-08 0.0 0.0
0.0 -1.0097059299225974e-05 -8.303715971771816e-06 6.60776763617953e-06 1.6959483355922954e-06 1.1493679095089695e-05 0.0 0.0
0.0 9.01354415331328e-05 8.420775017965893e-05 -5.929960555503152e-05 -2.4908144624627486e-05 -2.6009163569386342e-05 0.0 0.0
0.0 0.001006579706947091 0.0008893966216064446 -0.0006877800124297786 -0.00020161660917666712 -0.0004820554780282283 0.0 0.0
0.0 0.003438424414686236 0.002756389576945562 -0.0022980247133973235 -0.000458364863548234 -0.001492294556823693 0.0 0.0
0.0 0.006621192460091127 0.005826608357821919 -0.005168351754679548 -0.000658256603142371 -0.003185458244524286 0.0 0.0
0.0 0.011534733750192159 0.009884298149310682 -0.00910952449118155 -0.0007747736581291332 -0.005214158687074245 0.0 0.0
0.0 0.017315790722564714 0.01479281392353007 -0.013935494024154836 -0.0008573198993752264 -0.007358969733573774 0.0 0.0
0.0 0.0239703164858705 0.020448872646544103 -0.019515016178285254 -0.0009338564682588447 -0.009492159212223216 0.0 0.0
0.0 0.031487500362538584 0.026845961559115672 -0.02583328722928703 -0.0010126743298286675 -0.011598889421926932 0.0 0.0
0.0 0.04002530521861836 0.03405428221256935 -0.03296594464926249 -0.0010883375633068681 -0.013772135308833366 0.0 0.0
0.0 0.04942180782674535 0.04213044121990063 -0.04097489877204805 -0.0011555424478525852 -0.016045965829961584 0.0 0.0
0.0 0.05964767921417641 0.05101392456551146 -0.04980390826210411 -0.0012100163034073322 -0.01824894509987681 0.0 0.0
0.0 0.07093228601978441 0.06047422692151429 -0.0592245079711509 -0.0012497189503633366 -0.0200195855838859 0.0 0.0
0.0 0.08195618067302264 0.07009209672628508 -0.0688195520253197 -0.0012725447009654394 -0.020795220417342754 0.0 0.0
0.0 0.09215900629476241 0.07914899815333598 -0.07788372967545774 -0.0012652684778782827 -0.019550742023238286 0.0 0.0
0.0 0.10064343809004231 0.08657150304738791 -0.08534460499848665 -0.00122689804890121 -0.014767064441736893 0.0 0.0
0.0 0.10554819013321799 0.09024083422338781 -0.08950612941298339 -0.0007347048104043961 1.976630664701773e-14 0.0 0.0
0.0 0.10064343809002912 0.08657150304737374 -0.08534460499847234 -0.0012268980489015268 0.01476706444178139 0.0 0.0
0.0 0.09215900629474208 0.07914899815331558 -0.0778837296754378 -0.001265268477877819 0.019550742023282927 0.0 0.0
0.0 0.08195618067298649 0.07009209672625262 -0.06881955202528711 -0.0012725447009654665 0.020795220417368462 0.0 0.0
0.0 0.07093228601974505 0.06047422692148017 -0.059224507971117876 -0.0012497189503622734 0.02001958558389079 0.0 0.0
0.0 0.05964767921412942 0.05101392456547114 -0.04980390826206359 -0.0012100163034075497 0.018248945099868265 0.0 0.0
0.0 0.04942180782669992 0.04213044121986111 -0.040974898772009195 -0.001155542447851916 0.016045965829952713 0.0 0.0
0.0 0.040025305218571526 0.03405428221252836 -0.032965944649222007 -0.0010883375633063705 0.013772135308825357 0.0 0.0
0.0 0.03148750036249395 0.026845961559077727 -0.0258332872292492 -0.001012674329828505 0.011598889421915655 0.0 0.0
0.0 0.023970316485833004 0.020448872646511875 -0.01951501617825382 -0.0009338564682580476 0.009492159212209325 0.0 0.0
0.0 0.017315790722528042 0.014792813923499475 -0.0139354940241249 -0.0008573198993745786 0.00735896973355574 0.0 0.0
0.0 0.011534733750162753 0.009884298149285542 -0.00910952449115691 -0.0007747736581286251 0.00521415868705879 0.0 0.0
0.0 0.006621192460070686 0.005826608357803836 -0.005168351754662394 -0.0006582566031414447 0.0031854582445138705 0.0 0.0
0.0 0.0034384244146711236 0.0027563895769334977 -0.002298024713386409 -0.0004583648635470883 0.0014922945568166578 0.0 0.0
0.0 0.0010065797069406896 0.0008893966216014538 -0.0006877800124258506 -0.0002016166091756035 0.0004820554780255274 0.0 0.0
0.0 9.013544153130694e-05 8.420775017871886e-05 -5.9299605554338284e-05 -2.4908144624380562e-05 2.6009163568996385e-05 0.0 0.0
0.0 -1.009705930010445e-05 -8.303715971672874e-06 6.607767636099762e-06 1.695948335573083e-06 -1.1493679094923302e-05 0.0 0.0
0.0 -4.2819074657463115e-07 3.259870312858171e-08 -2.4906694842016207e-08 -7.692008286562386e-09 6.631307162822855e-08 0.0 0.0
0.0 0.0 0.0 0.0 0.0 0.0 0.0 0.0
0.0 0.0007790065680954309 0.0003765278311592253 -0.00017701097862142035 -0.00019951685253780444 0.0013904435572484881 0.0 0.0
0.0 0.004029844109306464 0.002746970331008259 -0.0038794092392098363 0.0011324389082015753 0.001954529504871155 0.0 0.0
0.0 0.0026145126521098746 0.0018002304697455063 -0.0025738389136801686 0.0007736084439346597 -0.0014444297327439446 0.0 0.0
0.0 0.0004568999030551877 0.0001851619552482479 -6.866969632753826e-05 -0.00011649225892070914 -0.0008086775298956017 0.0 0.0
0.0 4.5030000765742004e-07 -5.889399966331698e-09 5.402290337682763e-09 4.871096286490315e-10 9.028034844085993e-08 0.0 0.0
0.0 -3.9933846218285653e-07 2.3010864123224606e-08 -1.7665084308602554e-08 -5.345779814626124e-09 -7.114747973550936e-08 0.0 0.0
0.0 -3.301500222862529e-06 -1.978490483441254e-06 1.5689859996260762e-06 4.095044838152168e-07 4.404666391970824e-06 0.0 0.0
0.0 -1.183614252581292e-05 -7.5341123070462025e-06 7.89563205224128e-06 -3.615197451950415e-07 2.9230328990207228e-05 0.0 0.0
0.0 0.0005187250805386942 0.00040985808887282764 -0.0003103938228342788 -9.946426603854877e-05 -0.000322908418977766 0.0 0.0
0.0 0.0020170391478266285 0.0017086880494465704 -0.0013836482392918937 -0.00032503981015467685 -0.0012562603295573327 0.0 0.0
0.0 0.005089088507301679 0.004011023278038889 -0.0034702910347407007 -0.0005407322432981858 -0.002803896807691045 0.0 0.0
0.0 0.00854267175696908 0.007267557674590381 -0.006585141916717195 -0.0006824157578731853 -0.00488126427793443 0.0 0.0
0.0 0.013373474547035052 0.01120873734121845 -0.01043760204756571 -0.0007711352936527405 -0.007082255179565667 0.0 0.0
0.0 0.018758252183832785 0.015730079249671212 -0.014885862676550473 -0.0008442165731207277 -0.009262224653438431 0.0 0.0
0.0 0.024773648832064333 0.02081630774151178 -0.019900181302208112 -0.0009161264393036631 -0.011393448955262328 0.0 0.0
0.0 0.0315422587092796 0.026541919525678647 -0.02555682653355677 -0.000985092992121892 -0.013567957163748057 0.0 0.0
0.0 0.03909794318759303 0.03298676590342447 -0.031940152933006796 -0.0010466129704176442 -0.015823879569864592 0.0 0.0
0.0 0.047761176951789226 0.04014918866958115 -0.039052613476530454 -0.0010965751930507167 -0.018034777162717397 0.0 0.0
0.0 0.05646183449217615 0.04790247603625106 -0.046763642509941306 -0.0011388335263097856 -0.01985568876550138 0.0 0.0
0.0 0.06602279342739248 0.05598237704439266 -0.05480796451388056 -0.001174412530512037 -0.02080343637428776 0.0 0.0
0.0 0.07533651178821328 0.06398038023482105 -0.06279620756793974 -0.0011841726668813295 -0.019955728787897954 0.0 0.0
0.0 0.08331328963503637 0.0710958997735929 -0.06994552135837197 -0.0011503784152209397 -0.015566259974239228 0.0 0.0
0.0 0.08868784454382733 0.07497880883204994 -0.07445752027754374 -0.0005212885545061798 1.811701830223278e-14 0.0 0.0
0.0 0.08331328963502532 0.0710958997735801 -0.06994552135835881 -0.0011503784152212479 0.015566259974282171 0.0 0.0
0.0 0.07533651178819284 0.06398038023480034 -0.06279620756791866 -0.0011841726668816615 0.019955728787942977 0.0 0.0
0.0 0.06602279342736338 0.05598237704436596 -0.05480796451385406 -0.0011744125305119305 0.020803436374312607 0.0 0.0
0.0 0.056461834492141656 0.0479024760362214 -0.046763642509912266 -0.001138833526309107 0.01985568876550474 0.0 0.0
0.0 0.04776117695175072 0.040149188669548606 -0.03905261347649733 -0.0010965751930513017 0.01803477716270807 0.0 0.0
0.0 0.039097943187555585 0.03298676590339176 -0.03194015293297469 -0.001046612970417037 0.01582387956985411 0.0 0.0
0.0 0.031542258709242106 0.026541919525646326 -0.025556826533524642 -0.0009850929921216627 0.013567957163738969 0.0 0.0
0.0 0.024773648832031547 0.020816307741484033 -0.019900181302181026 -0.0009161264393030149 0.011393448955251675 0.0 0.0
0.0 0.01875825218380009 0.015730079249644015 -0.014885862676523472 -0.0008442165731205561 0.009262224653423726 0.0 0.0
0.0 0.013373474547005814 0.011208737341194538 -0.010437602047542545 -0.0007711352936519912 0.007082255179547706 0.0 0.0
0.0 0.008542671756945223 0.0072675576745706615 -0.006585141916698007 -0.0006824157578726611 0.0048812642779189445 0.0 0.0
0.0 0.005089088507283588 0.0040110232780247975 -0.00347029103472766 -0.0005407322432971337 0.0028038968076814367 0.0 0.0
0.0 0.0020170391478166183 0.0017086880494385818 -0.001383648239284974 -0.0003250398101536064 0.0012562603295516227 0.0 0.0
0.0 0.000518725080533997 0.0004098580888697504 -0.0003103938228319266 -9.946426603782362e-05 0.0003229084189754365 0.0 0.0
0.0 -1.1836142526402152e-05 -7.534112306907793e-06 7.895632052120211e-06 -3.6151974521253687e-07 -2.9230328989721895e-05 0.0 0.0
0.0 -3.301500223588814e-06 -1.97849048342121e-06 1.5689859996104686e-06 4.0950448381074057e-07 -4.404666391916852e-06 0.0 0.0
0.0 -3.9933846203843063e-07 2.3010864114477826e-08 -1.766508430182229e-08 -5.345779812654833e-09 7.114747970917023e-08 0.0 0.0
0.0 4.503000071303827e-07 -5.889399959299267e-09 5.402290331223529e-09 4.871096280759266e-10 -9.028034833325816e-08 0.0 0.0
0.0 0.0004568999030513869 0.00018516195524667905 -6.866969632650601e-05 -0.00011649225892017294 0.0008086775298904415 0.0 0.0
0.0 0.0026145126521006424 0.0018002304697383757 -0.002573838913670309 0.0007736084439319362 0.0014444297327391462 0.0 0.0
0.0 0.0019621910142201358 0.0010305689478474311 -0.0014876652977699508 0.0004570963499225195 -0.0009354277162794318 0.0 0.0
0.0 0.0001292754116266654 6.323482900593267e-05 -4.213103050252388e-06 -5.9021725955680284e-05 -0.0003837864308272808 0.0 0.0
0.0 -1.6359315948714524e-07 3.781750596414535e-09 -4.763255818210833e-09 9.815052217967462e-10 -3.278740980812844e-08 0.0 0.0
0.0 -7.398519191745401e-07 2.4508658812307933e-08 -1.8829097268388878e-08 -5.679561543919343e-09 -1.4785923128019126e-07 0.0 0.0
0.0 -1.1792402095743378e-06 -1.4132437782136019e-06 1.1152427432882958e-06 2.980010349253123e-07 4.832242870596932e-06 0.0 0.0
0.0 -2.599456991286868e-05 -1.6122445876033312e-05 1.304058330698279e-05 3.0818625690505015e-06 3.620449764012815e-05 0.0 0.0
0.0 0.00015907031991610303 0.00011161534195260373 -8.275393236227223e-05 -2.8861409590331612e-05 -0.00013909663724161593 0.0 0.0
0.0 0.0010461251474272373 0.0008458597923222819 -0.0006676895909208138 -0.00017817020140146832 -0.0008998336238064183 0.0 0.0
0.0 0.0030002612525324174 0.0023993090458971126 -0.00201281786021006 -0.0003864911856870514 -0.0022078184237296255 0.0 0.0
0.0 0.006140329777367783 0.004746265886528738 -0.004196294970745625 -0.0005499709157831091 -0.00403405867724393 0.0 0.0
0.0 0.009522909916644628 0.007707630659505883 -0.0070507881157254385 -0.0006568425437804418 -0.006139136543169427 0.0 0.0
0.0 0.013569921065742072 0.011098192869592906 -0.010363916370186197 -0.0007342764994067295 -0.008229981411581856 0.0 0.0
0.0 0.018158930598823238 0.014883639379059425 -0.014081154005366183 -0.0008024853736932232 -0.010263464052424575 0.0 0.0
0.0 0.023244196218126376 0.01913656262603012 -0.01827221967671261 -0.0008643429493174897 -0.01230086480881463 0.0 0.0
0.0 0.02907543115529 0.023951034823850317 -0.023030982335258857 -0.0009200524885914454 -0.014395609707472754 0.0 0.0
0.0 0.03549336023434873 0.029383458608349577 -0.028416169568525322 -0.0009672890398242255 -0.01646124410649913 0.0 0.0
0.0 0.04274236235538246 0.03537793991113201 -0.034370221531873316 -0.001007718379258691 -0.018218426976538638 0.0 0.0
0.0 0.05019377587598219 0.04183224125127054 -0.04077796382582718 -0.0010542774254433454 -0.019239688351604684 0.0 0.0
0.0 0.057841860439052345 0.04864877257040182 -0.047557834953156575 -0.00109093761724529 -0.018925708702452998 0.0 0.0
0.0 0.0655911558169325 0.05540545760584378 -0.0543352136261157 -0.0010702439797281257 -0.015601528819267747 0.0 0.0
0.0 0.0716766031266917 0.05956097502125747 -0.059282950988427396 -0.00027802403283009897 1.602797755628771e-14 0.0 0.0
0.0 0.06559115581692658 0.05540545760583466 -0.05433521362610631 -0.0010702439797282573 0.015601528819307868 0.0 0.0
0.0 0.05784186043904008 0.04864877257038751 -0.047557834953142405 -0.001090937617245156 0.018925708702495315 0.0 0.0
0.0 0.050193775875961535 0.04183224125125086 -0.04077796382580791 -0.001054277425442979 0.0192396883516282 0.0 0.0
0.0 0.04274236235535552 0.03537793991110924 -0.03437022153185108 -0.0010077183792581458 0.01821842697653972 0.0 0.0
0.0 0.03549336023432022 0.029383458608325884 -0.028416169568501876 -0.0009672890398240445 0.016461244106489005 0.0 0.0
0.0 0.02907543115526192 0.02395103482382646 -0.023030982335235126 -0.0009200524885913338 0.014395609707462663 0.0 0.0
0.0 0.023244196218100404 0.019136562626007898 -0.018272219676690772 -0.0008643429493171575 0.01230086480880762 0.0 0.0
0.0 0.018158930598799045 0.014883639379039615 -0.014081154005346777 -0.000802485373692833 0.010263464052414056 0.0 0.0
0.0 0.013569921065717283 0.011098192869572594 -0.010363916370165944 -0.0007342764994066422 0.008229981411568001 0.0 0.0
0.0 0.009522909916621084 0.007707630659487467 -0.0070507881157076775 -0.0006568425437797861 0.006139136543152105 0.0 0.0
0.0 0.0061403297773494426 0.004746265886514561 -0.00419629497073203 -0.0005499709157825315 0.004034058677230655 0.0 0.0
0.0 0.003000261252520209 0.002399309045887604 -0.00201281786020158 -0.0003864911856860236 0.00220781842372186 0.0 0.0
0.0 0.001046125147421035 0.0008458597923175959 -0.0006676895909169814 -0.0001781702014006141 0.0008998336238021454 0.0 0.0
0.0 0.00015907031991413664 0.0001116153419514311 -8.275393236140673e-05 -2.8861409590024373e-05 0.00013909663724010718 0.0 0.0
0.0 -2.5994569913051602e-05 -1.6122445875327147e-05 1.3040583306441076e-05 3.0818625688861026e-06 -3.620449763858432e-05 0.0 0.0
0.0 -1.1792402100440074e-06 -1.413243778233356e-06 1.1152427433049588e-06 2.980010349283893e-07 -4.832242870608764e-06 0.0 0.0
0.0 -7.398519195415277e-07 2.4508658814311785e-08 -1.882909726890552e-08 -5.679561545406168e-09 1.4785923135050773e-07 0.0 0.0
0.0 -1.635931594526776e-07 3.781750593238529e-09 -4.763255815837391e-09 9.815052225990617e-10 3.278740980120743e-08 0.0 0.0
0.0 0.00012927541162392989 6.323482900500594e-05 -4.213103049663263e-06 -5.90217259553427e-05 0.00038378643082380214 0.0 0.0
0.0 0.001962191014211763 0.0010305689478424672 -0.001487665297762882 0.0004570963499204144 0.0009354277162758958 0.0 0.0
0.0 0.0009107381216196753 0.0005188474669010381 -0.0007558146819676338 0.0002369672150665962 -0.0005820288805284818 0.0 0.0
0.0 2.5583432300580625e-06 -7.274121718939915e-06 3.497362929158796e-05 -2.7699507572648117e-05 -9.445916250314421e-05 0.0 0.0
0.0 2.1122780755375956e-06 -2.0642889499915286e-09 1.0930431715996376e-08 -8.866142766003806e-09 4.60847284526908e-07 0.0 0.0
0.0 1.7511861102621881e-06 -1.1629715722904351e-08 7.150293490461872e-09 4.479422232442335e-09 3.6121932803134345e-07 0.0 0.0
0.0 -2.717489496798638e-06 -8.42528452688441e-07 6.498029029041021e-07 1.9272554978433785e-07 5.075855837165141e-06 0.0 0.0
0.0 -1.7966338265718472e-05 -5.1950390785360125e-06 4.254789071064249e-06 9.40250007471768e-07 1.6570940433148994e-05 0.0 0.0
0.0 2.2620543142417313e-05 -3.0623654271396314e-06 3.236764541130542e-06 -1.7439911399096646e-07 -5.813779748751061e-06 0.0 0.0
0.0 0.0004349234720589154 0.0002347658666115865 -0.00018487826046042797 -4.988760615115871e-05 -0.00044175435103535355 0.0 0.0
0.0 0.001471890769584891 0.0010375203753414006 -0.0008491938568833097 -0.00018832651845808994 -0.001443494582598455 0.0 0.0
0.0 0.0033918742775518387 0.002460557313135889 -0.002110785657165522 -0.0003497716559703685 -0.002842323393247716 0.0 0.0
0.0 0.0056976990244272385 0.004374796797567694 -0.003895678753703086 -0.00047911804386460433 -0.004574416928769705 0.0 0.0
0.0 0.008551610242817278 0.006609262652372452 -0.006039233693383485 -0.0005700289589889619 -0.006377720774293546 0.0 0.0
0.0 0.011671536610958396 0.009102819369570322 -0.008458709202077244 -0.0006441101674930741 -0.008184675153200599 0.0 0.0
0.0 0.015134614197773982 0.011901332044692344 -0.01119744971629795 -0.0007038823283943881 -0.009979250160652469 0.0 0.0
0.0 0.019107713620682743 0.01509388112447073 -0.014338524934405168 -0.0007553561900655759 -0.011779575503601225 0.0 0.0
0.0 0.02368561917867391 0.018775337975035177 -0.01797439364574408 -0.000800944329291097 -0.013579050174763936 0.0 0.0
0.0 0.028835889851248474 0.02298867160230176 -0.022144974804924788 -0.0008436967973769479 -0.015200824705319404 0.0 0.0
0.0 0.03432450423226294 0.02772945131727913 -0.026838297966656488 -0.0008911533506226823 -0.016236965158464654 0.0 0.0
0.0 0.040532685576420126 0.033139342432030754 -0.032184363067474464 -0.0009549793645562506 -0.016281153592747222 0.0 0.0
0.0 0.047834347175857835 0.03935153652817846 -0.03837254341456699 -0.0009789931136114803 -0.014544617602370781 0.0 0.0
0.0 0.05459653656303855 0.04382209327526612 -0.04382001000170259 -2.0832735635537545e-06 1.3131423032275436e-14 0.0 0.0
0.0 0.047834347175856745 0.03935153652817256 -0.03837254341456075 -0.000978993113611801 0.014544617602405753 0.0 0.0
0.0 0.040532685576415275 0.03313934243202248 -0.03218436306746657 -0.0009549793645558843 0.016281153592785293 0.0 0.0
0.0 0.03432450423224642 0.027729451317264057 -0.026838297966641906 -0.0008911533506221192 0.016236965158482698 0.0 0.0
0.0 0.028835889851230433 0.022988671602287448 -0.02214497480491135 -0.0008436967973761037 0.015200824705317782 0.0 0.0
0.0 0.023685619178653333 0.01877533797501863 -0.017974393645727754 -0.0008009443292908607 0.013579050174753448 0.0 0.0
0.0 0.019107713620665035 0.015093881124456164 -0.014338524934390801 -0.0007553561900653523 0.011779575503593286 0.0 0.0
0.0 0.015134614197757643 0.01190133204467872 -0.011197449716284948 -0.0007038823283937696 0.009979250160646554 0.0 0.0
0.0 0.011671536610946423 0.009102819369560476 -0.00845870920206775 -0.0006441101674927329 0.008184675153195427 0.0 0.0
0.0 0.008551610242800045 0.006609262652359722 -0.006039233693371384 -0.0005700289589883346 0.006377720774281417 0.0 0.0
0.0 0.005697699024412148 0.004374796797556395 -0.0038956787536922584 -0.000479118043864133 0.004574416928756415 0.0 0.0
0.0 0.0033918742775384926 0.0024605573131263724 -0.0021107856571568133 -0.0003497716559695599 0.002842323393236919 0.0 0.0
0.0 0.0014718907695778728 0.0010375203753365395 -0.0008491938568791434 -0.00018832651845739534 0.001443494582592783 0.0 0.0
0.0 0.0004349234720552364 0.00023476586660946226 -0.00018487826045872032 -4.9887606150741835e-05 0.00044175435103186453 0.0 0.0
0.0 2.2620543141189573e-05 -3.062365426880282e-06 3.236764540925144e-06 -1.743991140448372e-07 5.813779749310876e-06 0.0 0.0
0.0 -1.7966338266506735e-05 -5.195039078403816e-06 4.254789070960024e-06 9.402500074437601e-07 -1.6570940432338437e-05 0.0 0.0
0.0 -2.71748949739847e-06 -8.425284527080691e-07 6.498029029202813e-07 1.9272554978779968e-07 -5.075855837203657e-06 0.0 0.0
0.0 1.751186109882542e-06 -1.162971572337093e-08 7.150293491276846e-09 4.479422232094953e-09 -3.6121932794506737e-07 0.0 0.0
0.0 2.112278074978371e-06 -2.0642889486199333e-09 1.093043171278356e-08 -8.866142764163054e-09 -4.608472844053425e-07 0.0 0.0
0.0 2.5583432288969073e-06 -7.274121719175068e-06 3.4973629291647605e-05 -2.7699507572472422e-05 9.445916250175494e-05 0.0 0.0
0.0 0.0009107381216141659 0.0005188474668981217 -0.0007558146819634075 0.00023696721506528495 0.0005820288805259621 0.0 0.0
0.0 0.0003720949582951522 0.0001745911781030841 -0.00025611233082519733 8.152115272211343e-05 -0.0002397536123072341 0.0 0.0
0.0 -3.969584581878303e-05 -2.1395898879559213e-05 3.170195492774174e-05 -1.0306056048182537e-05 2.603031630863182e-05 0.0 0.0
0.0 3.7699548254782504e-07 9.40806097985509e-10 -5.441074447001478e-10 -3.966986532842626e-10 7.284457426585127e-08 0.0 0.0
0.0 3.9420681621679737e-07 6.555335008942897e-09 -7.059162817378883e-09 5.038278084338519e-10 1.0783998514297013e-07 0.0 0.0
0.0 -2.149617526963467e-06 -2.1657234324789352e-07 1.5925337219441588e-07 5.7318971053486014e-08 3.943273142889087e-06 0.0 0.0
0.0 -1.0181038550873907e-05 -3.0421040919040685e-06 2.460915898299177e-06 5.811881936048636e-07 2.2252406738130877e-05 0.0 0.0
0.0 1.9798468393324363e-05 -2.826162338052111e-06 2.4475361539194822e-06 3.7862618413264814e-07 -1.2471408403298904e-05 0.0 0.0
0.0 0.00011680441972854477 8.726052642668976e-06 -7.393716536294395e-06 -1.3323361063746044e-06 -0.00016913004776195493 0.0 0.0
0.0 0.0004367088495684744 0.00014252865655787223 -0.0001247872111185043 -1.7741445439367813e-05 -0.000639276246400607 0.0 0.0
0.0 0.0011724501717714196 0.0005705393298489238 -0.0005081396564093362 -6.239967343958854e-05 -0.0015119477380824324 0.0 0.0
0.0 0.0025097194539171414 0.0013755778138679572 -0.0012342690433497071 -0.00014130877051824958 -0.002707109137851881 0.0 0.0
0.0 0.003914753775925722 0.00243412985058248 -0.002211941285467641 -0.0002221885651148416 -0.004084929214418631 0.0 0.0
0.0 0.005638485061178663 0.0036316163326082706 -0.0033342084938046373 -0.00029740783880362955 -0.005512274446648696 0.0 0.0
0.0 0.007605830737519697 0.004990338077273684 -0.004624496490258488 -0.00036584158701519627 -0.006991364397099444 0.0 0.0
0.0 0.009838154152302296 0.006578116672463846 -0.006148669718087621 -0.00042944695437622046 -0.008531478585834654 0.0 0.0
0.0 0.012474998045090809 0.008497434886476739 -0.008006599765943739 -0.0004908351205329948 -0.010136478274636663 0.0 0.0
0.0 0.01569225619841443 0.010887736277728599 -0.010333461136464772 -0.0005542751412638175 -0.011720501405205462 0.0 0.0
0.0 0.019567818167049784 0.013882258301065334 -0.013264588282053555 -0.0006176700190117762 -0.01288652347082525 0.0 0.0
0.0 0.024020024923415224 0.01767046364261688 -0.016984354852291175 -0.0006861087903257252 -0.013033108813953143 0.0 0.0
0.0 0.029789585475612137 0.022880693381853345 -0.022071707721291862 -0.0008089856605614552 -0.012187988356632989 0.0 0.0
0.0 0.03837550949118885 0.027587859322446995 -0.027913524361943717 0.00032566503949671324 9.935195027788168e-15 0.0 0.0
0.0 0.029789585475614725 0.02288069338185012 -0.02207170772128837 -0.0008089856605617763 0.012187988356661336 0.0 0.0
0.0 0.02402002492341182 0.0176704636426113 -0.01698435485228542 -0.000686108790325884 0.013033108813980225 0.0 0.0
0.0 0.019567818167036143 0.013882258301055026 -0.01326458828204304 -0.0006176700190119873 0.012886523470833858 0.0 0.0
0.0 0.015692256198400617 0.010887736277720146 -0.010333461136456787 -0.0005542751412633635 0.011720501405200368 0.0 0.0
0.0 0.012474998045077876 0.008497434886467812 -0.008006599765934944 -0.0004908351205328663 0.010136478274626328 0.0 0.0
0.0 0.009838154152291702 0.006578116672455938 -0.006148669718079838 -0.0004294469543761014 0.00853147858582688 0.0 0.0
0.0 0.0076058307375113186 0.004990338077268586 -0.004624496490253495 -0.00036584158701509766 0.006991364397094243 0.0 0.0
0.0 0.005638485061172753 0.0036316163326049295 -0.00333420849380155 -0.00029740783880337644 0.005512274446644223 0.0 0.0
0.0 0.003914753775915493 0.0024341298505766314 -0.0022119412854620444 -0.00022218856511458654 0.00408492921440737 0.0 0.0
0.0 0.0025097194539094136 0.0013755778138639292 -0.0012342690433458348 -0.0001413087705180933 0.002707109137843092 0.0 0.0
0.0 0.001172450171764707 0.0005705393298454443 -0.0005081396564062098 -6.2399673439235e-05 0.0015119477380758682 0.0 0.0
0.0 0.0004367088495663768 0.00014252865655684703 -0.00012478721111758797 -1.774144543925874e-05 0.0006392762463978002 0.0 0.0
0.0 0.00011680441972741339 8.726052642608367e-06 -7.393716536226935e-06 -1.3323361063814984e-06 0.00016913004776068386 0.0 0.0
0.0 1.979846839228095e-05 -2.8261623380023786e-06 2.4475361538734485e-06 3.786261841289388e-07 1.2471408403294496e-05 0.0 0.0
0.0 -1.0181038551420694e-05 -3.0421040918274023e-06 2.4609158982418905e-06 5.811881935855112e-07 -2.2252406737275628e-05 0.0 0.0
0.0 -2.1496175272240786e-06 -2.1657234324500435e-07 1.5925337219862597e-07 5.7318971046374974e-08 -3.94327314254124e-06 0.0 0.0
0.0 3.942068155897212e-07 6.555335010784762e-09 -7.059162820524959e-09 5.038278097410148e-10 -1.0783998532372648e-07 0.0 0.0
0.0 3.7699548230565806e-07 9.408060954967168e-10 -5.441074433664347e-10 -3.9669865213426626e-10 -7.284457416181215e-08 0.0 0.0
0.0 -3.9695845819000544e-05 -2.139589887927085e-05 3.1701954927357844e-05 -1.030605604808697e-05 -2.6030316308025118e-05 0.0 0.0
0.0 0.00037209495829170495 0.0001745911781016571 -0.00025611233082315936 8.15211527215019e-05 0.00023975361230530386 0.0 0.0
0.0 3.962515684595824e-05 2.3892780614002628e-05 -3.6403535836691035e-05 1.2510755222688349e-05 -3.805125067041577e-05 0.0 0.0
0.0 -6.431843019133103e-06 -4.021999999786231e-06 5.765664852424208e-06 -1.743664852637965e-06 7.655016135715892e-06 0.0 0.0
0.0 4.0959259718219696e-06 1.8129446115713707e-08 1.539061527150771e-09 -1.9668507642869874e-08 9.85227358047579e-07 0.0 0.0
0.0 5.505075357471065e-07 7.082461907923074e-08 -6.417575923044134e-08 -6.648859848785957e-09 1.1394824027085464e-06 0.0 0.0
0.0 -1.7601723408123998e-06 7.164474644163767e-08 -6.499691012808912e-08 -6.6478363135486925e-09 3.1804563293734557e-06 0.0 0.0
0.0 -7.065780990480181e-06 -3.435696646207186e-07 3.6585385019094436e-07 -2.228418557022328e-08 1.4781938045960706e-05 0.0 0.0
0.0 2.6970532865750085e-05 -8.254373355406254e-07 8.076311716386413e-07 1.7806163901974128e-08 -2.1353008284302698e-05 0.0 0.0
0.0 0.0001151368375719081 -7.055137964337667e-07 6.944886413320229e-07 1.1025155101754605e-08 -0.0001956021176422028 0.0 0.0
0.0 0.0003037591226980082 -7.42542817664233e-08 7.016837521523058e-08 4.085906551197377e-09 -0.0004419163225001943 0.0 0.0
0.0 0.0004958640708795187 1.0403443859276802e-07 -5.6647685422810565e-08 -4.738675316994814e-08 -0.0008769684637521261 0.0 0.0
0.0 0.0008793954781216222 -2.5966865039109017e-07 -9.282899609414763e-08 3.5249764648533267e-07 -0.0015319212852893773 0.0 0.0
0.0 0.00124222745612228 -1.6044403467042434e-06 2.7572843089186124e-06 -1.152843962214125e-06 -0.002554535651754148 0.0 0.0
0.0 0.0019298564300928745 -8.802789842455032e-06 1.1485583384662914e-05 -2.682793542207489e-06 -0.003819573263601285 0.0 0.0
0.0 0.0028523768378225286 -2.2346095632311117e-05 2.5653787341786216e-05 -3.3076917094750855e-06 -0.005237101676712597 0.0 0.0
0.0 0.003941878656089066 -2.701118460357219e-06 -5.873222039977756e-07 3.288440664355022e-06 -0.006780784292007772 0.0 0.0
0.0 0.005160686883452235 0.00015187897851929514 -0.00017537317791258667 2.349419939329215e-05 -0.008461997380908704 0.0 0.0
0.0 0.006571771641672919 0.0006481278085606422 -0.0007140119243420522 6.588411578140892e-05 -0.010230786955024279 0.0 0.0
0.0 0.008124871807685478 0.001685342904327879 -0.00186533376162044 0.00017999085729255898 -0.011938387492912109 0.0 0.0
0.0 0.010378894007551806 0.003017482983871456 -0.0033538287523341252 0.0003363457684626706 -0.013205143956887301 0.0 0.0
0.0 0.015240877527852371 0.006382647037545512 -0.00619395807225304 -0.00018868896529246936 -0.013273745331590203 0.0 0.0
0.0 0.026724219841156673 0.011683369322176288 -0.012515795365523935 0.0008324260433476441 9.038776671577153e-15 0.0 0.0
0.0 0.015240877527858396 0.006382647037545659 -0.0061939580722529764 -0.00018868896529267702 0.01327374533160959 0.0 0.0
0.0 0.010378894007548947 0.0030174829838701955 -0.0033538287523322725 0.0003363457684620777 0.013205143956892096 0.0 0.0
0.0 0.008124871807675627 0.0016853429043265822 -0.0018653337616190851 0.0001799908572925037 0.011938387492907548 0.0 0.0
0.0 0.006571771641664883 0.0006481278085605764 -0.0007140119243418041 6.588411578123e-05 0.010230786955014698 0.0 0.0
0.0 0.005160686883444704 0.000151878978520259 -0.00017537317791365564 2.34941993933974e-05 0.008461997380899748 0.0 0.0
0.0 0.00394187865608114 -2.7011184601372345e-06 -5.873222037511196e-07 3.2884406638868905e-06 0.006780784291999596 0.0 0.0
0.0 0.0028523768378198515 -2.2346095630339767e-05 2.565378733968899e-05 -3.3076917093482745e-06 0.0052371016767072 0.0 0.0
0.0 0.001929856430085002 -8.802789840445246e-06 1.1485583382347573e-05 -2.682793541902462e-06 0.0038195732635889863 0.0 0.0
0.0 0.0012422274561170892 -1.604440347859244e-06 2.7572843101409826e-06 -1.1528439622819623e-06 0.002554535651746395 0.0 0.0
0.0 0.0008793954781188938 -2.5966865052218376e-07 -9.282899606723909e-08 3.524976465894601e-07 0.001531921285284179 0.0 0.0
0.0 0.0004958640708786092 1.0403443868658031e-07 -5.664768548797281e-08 -4.738675319845503e-08 0.0008769684637494545 0.0 0.0
0.0 0.0003037591226971957 -7.425428168912222e-08 7.016837514104701e-08 4.085906548032015e-09 0.00044191632249924984 0.0 0.0
0.0 0.00011513683757090009 -7.055137964361516e-07 6.944886413672494e-07 1.1025155068898786e-08 0.00019560211764043802 0.0 0.0
0.0 2.6970532864767855e-05 -8.254373355701906e-07 8.076311716591915e-07 1.7806163911015463e-08 2.1353008284648172e-05 0.0 0.0
0.0 -7.065780990485102e-06 -3.4356966463698164e-07 3.6585385020688494e-07 -2.228418556990935e-08 -1.478193804508799e-05 0.0 0.0
0.0 -1.7601723407713005e-06 7.164474639654136e-08 -6.499691008629053e-08 -6.647836310247676e-09 -3.1804563283666444e-06 0.0 0.0
0.0 5.505075358472509e-07 7.08246190103504e-08 -6.417575916941623e-08 -6.648859840935269e-09 -1.1394824016305767e-06 0.0 0.0
0.0 4.095925971043571e-06 1.8129446138640675e-08 1.5390615085574067e-09 -1.9668507647188114e-08 -9.852273584399297e-07 0.0 0.0
0.0 -6.431843019939338e-06 -4.02199999978135e-06 5.765664852419171e-06 -1.7436648526378348e-06 -7.655016135599815e-06 0.0 0.0
0.0 3.962515684540329e-05 2.3892780614169805e-05 -3.64035358369243e-05 1.251075522275462e-05 3.8051250670944795e-05 0.0 0.0
0.0 -3.9393899359453544e-07 -9.627334278134292e-07 1.4008939467961265e-06 -4.3816051898271076e-07 2.01734509975336e-06 0.0 0.0
0.0 -1.160750024366683e-07 1.410615261418659e-07 -1.9750606980434819e-07 5.644454366248445e-08 -1.0276921228285362e-07 0.0 0.0
0.0 9.8429982691633e-08 2.1175987551262773e-08 -2.8444944555951408e-08 7.268957004688304e-09 -2.2202088623629523e-07 0.0 0.0
0.0 9.797252164703677e-07 1.528419756101629e-07 -1.3232062731420143e-07 -2.0521348295962957e-08 7.107305221372e-07 0.0 0.0
0.0 -1.2796385699505057e-06 -2.8968904076213694e-08 1.5455138028475646e-08 1.3513766047739792e-08 -1.45608403369492e-07 0.0 0.0
0.0 -5.268334194261503e-06 5.762724224744622e-07 -3.164702760710701e-07 -2.598021464033573e-07 5.66916137999134e-06 0.0 0.0
0.0 3.856879786673835e-05 2.408157756875871e-06 -1.747471356131631e-06 -6.606864007442888e-07 -1.140994946217695e-05 0.0 0.0
0.0 0.00012624929002081532 -1.128936869143976e-05 9.71776657404456e-06 1.5716021173951886e-06 -0.0001756255944608196 0.0 0.0
0.0 0.00043817984710400594 -0.00014343036199697317 0.00012552191967011352 1.790844232685942e-05 -0.0006430084042642471 0.0 0.0
0.0 0.0011702077430545033 -0.0005694022723964779 0.0005070941182641225 6.230815413235617e-05 -0.0015111413763987394 0.0 0.0
0.0 0.0025173016333895964 -0.0013726180700874074 0.0012321281976029827 0.00014048987248442313 -0.002702275681677988 0.0 0.0
0.0 0.003937792092872076 -0.002445884835362666 0.0022216869605876945 0.00022419787477497003 -0.004085896097092981 0.0 0.0
0.0 0.0056806397945425805 -0.003668086038256577 0.003366502328165056 0.00030158371009151674 -0.005514409058749812 0.0 0.0
0.0 0.007669119258680706 -0.00504821846415071 0.0046798512973947 0.0003683671667560096 -0.006989824845209845 0.0 0.0
0.0 0.009801173699068137 -0.0065654507886902256 0.006150037267731347 0.00041541352095888 -0.00854189321568818 0.0 0.0
0.0 0.01200239335213905 -0.008081096587905089 0.007649916577559378 0.0004311800103457137 -0.01023701745331962 0.0 0.0
0.0 0.013956707844281338 -0.009305936350964453 0.008898805576476355 0.00040713077448809953 -0.012135509983106023 0.0 0.0
0.0 0.01546812278887069 -0.009808563451294793 0.009484295264876576 0.0003242681864182121 -0.014280862119245742 0.0 0.0
0.0 0.015647102562513504 -0.009065654861063423 0.008913756742647811 0.00015189811841562467 -0.01663273274179869 0.0 0.0
0.0 0.01284642392116804 -0.006548294627506912 0.006732739011637901 -0.0001844443841309845 -0.018382178158326785 0.0 0.0
0.0 0.02560914911695051 -0.003544239996592804 0.0015311705420684963 0.0020130694545243046 1.3377320084995148e-14 0.0 0.0
0.0 0.012846423921171092 -0.006548294627506325 0.006732739011636877 -0.00018444438413054608 0.01838217815833955 0.0 0.0
0.0 0.015647102562513972 -0.009065654861062455 0.0089137567426469 0.0001518981184155588 0.01663273274181245 0.0 0.0
0.0 0.01546812278885828 -0.009808563451285935 0.009484295264868003 0.000324268186417935 0.014280862119245178 0.0 0.0
0.0 0.01395670784426697 -0.009305936350954556 0.008898805576466386 0.00040713077448816985 0.012135509983096945 0.0 0.0
0.0 0.012002393352124018 -0.008081096587893702 0.007649916577548427 0.0004311800103452753 0.010237017453309596 0.0 0.0
0.0 0.009801173699056129 -0.006565450788680522 0.006150037267722383 0.0004154135209581441 0.008541893215678718 0.0 0.0
0.0 0.007669119258667895 -0.005048218464141098 0.004679851297385322 0.0003683671667557747 0.0069898248452005835 0.0 0.0
0.0 0.005680639794527788 -0.0036680860382454425 0.0033665023281547867 0.000301583710090655 0.005514409058740172 0.0 0.0
0.0 0.003937792092857498 -0.002445884835352537 0.0022216869605784302 0.00022419787477410567 0.004085896097080152 0.0 0.0
0.0 0.002517301633376271 -0.0013726180700790163 0.0012321281975953206 0.0001404898724836946 0.0027022756816669456 0.0 0.0
0.0 0.001170207743046278 -0.0005694022723923013 0.0005070941182603146 6.230815413198723e-05 0.0015111413763917079 0.0 0.0
0.0 0.0004381798471011653 -0.0001434303619956156 0.00012552191966894207 1.790844232667353e-05 0.0006430084042613714 0.0 0.0
0.0 0.00012624929001976302 -1.128936869139483e-05 9.717766574012342e-06 1.5716021173824992e-06 0.00017562559446010652 0.0 0.0
0.0 3.85687978647952e-05 2.408157756987376e-06 -1.7474713562259516e-06 -6.606864007614228e-07 1.1409949461033245e-05 0.0 0.0
0.0 -5.268334195192062e-06 5.762724223336116e-07 -3.164702759565392e-07 -2.598021463770723e-07 -5.669161378907631e-06 0.0 0.0
0.0 -1.2796385699441413e-06 -2.8968904171790334e-08 1.5455138109437487e-08 1.3513766062348192e-08 1.4560840421936862e-07 0.0 0.0
0.0 9.797252165480702e-07 1.5284197550773233e-07 -1.323206272294862e-07 -2.052134827824532e-08 -7.107305211754086e-07 0.0 0.0
0.0 9.842998241391639e-08 2.1175987527368023e-08 -2.844494454932191e-08 7.2689570219492516e-09 2.2202088707307532e-07 0.0 0.0
0.0 -1.1607500237959985e-07 1.4106152614813754e-07 -1.9750606983084613e-07 5.64445436827121e-08 1.0276921239992851e-07 0.0 0.0
0.0 -3.939389945368596e-07 -9.627334278431677e-07 1.4008939468362272e-06 -4.381605189930796e-07 -2.0173450998187543e-06 0.0 0.0
0.0 0.0 0.0 0.0 0.0 0.0 0.0 0.0
0.0 1.2281032982514138e-06 6.036085941832283e-09 1.1573370719959562e-08 -1.760945666179771e-08 2.3341316622260703e-07 0.0 0.0
0.0 1.431328168665494e-07 1.1105936370046672e-07 -8.822615542597461e-08 -2.2833208274500853e-08 8.493784642506224e-07 0.0 0.0
0.0 1.0439070252143536e-06 -4.996301908831317e-07 4.0558483725403723e-07 9.404535362908241e-08 -3.25676589094989e-06 0.0 0.0
0.0 2.0954361838524175e-06 2.3984314621089418e-06 -1.992503108588218e-06 -4.0592835352066617e-07 1.1979797094889749e-05 0.0 0.0
0.0 5.897310613615848e-06 7.11301304267908e-06 -5.634574287768308e-06 -1.4784387549107568e-06 2.308233589538846e-05 0.0 0.0
0.0 2.9673307173718477e-05 -1.0113885224847244e-05 7.747853861417077e-06 2.3660313634302362e-06 -5.540551427421697e-05 0.0 0.0
0.0 0.00045007396478360777 -0.0002411970733166725 0.00019047406426236387 5.072300905430838e-05 -0.00045675312584828476 0.0 0.0
0.0 0.001471239262693676 -0.0010368517642610712 0.0008484713604990281 0.00018838040376204353 -0.0014452930692168773 0.0 0.0
0.0 0.003387715682250476 -0.002458429798631119 0.0021086962867381473 0.0003497335118929703 -0.0028388618022243167 0.0 0.0
0.0 0.0056983246568328635 -0.004376138304162896 0.003896972148576499 0.00047916615558640227 -0.004572876723086092 0.0 0.0
0.0 0.008565221067128969 -0.006620609658467935 0.006050053667953634 0.0005705559905143016 -0.00637880082579925 0.0 0.0
0.0 0.011706214217221957 -0.009135233863902617 0.008490152547263312 0.0006450813166393043 -0.008169460671087925 0.0 0.0
0.0 0.015180764620059456 -0.01195358427564313 0.01125033748982557 0.0007032467858175635 -0.0099261495795963 0.0 0.0
0.0 0.01907128752803042 -0.01508302270281921 0.014337945981562343 0.0007450767212568526 -0.011731618249145516 0.0 0.0
0.0 0.02324707436944849 -0.01839461670721377 0.017629177376989272 0.0007654393302244866 -0.013782013790050274 0.0 0.0
0.0 0.027301118009618618 -0.0215503361322078 0.020786761476103168 0.0007635746561046369 -0.01630035163950152 0.0 0.0
0.0 0.030486496532320075 -0.02401299875791193 0.02327041261360574 0.00074258614430618 -0.019398686430734047 0.0 0.0
0.0 0.032186029104767526 -0.024793033149215597 0.024125764168128394 0.0006672689810871956 -0.022468049035723314 0.0 0.0
0.0 0.02983898827326422 -0.021895195573357392 0.02135599785115658 0.0005391977222008028 -0.023080451237903088 0.0 0.0
0.0 0.031528017411934305 -0.01737969525312796 0.01456402656459206 0.0028156686885358927 1.2913281555171352e-14 0.0 0.0
0.0 0.029838988273270473 -0.021895195573355536 0.021355997851155023 0.0005391977222004995 0.023080451237933196 0.0 0.0
0.0 0.032186029104765555 -0.024793033149209442 0.024125764168122316 0.0006672689810871263 0.022468049035751007 0.0 0.0
0.0 0.03048649653230281 -0.02401299875789639 0.023270412613590603 0.0007425861443057881 0.019398686430743182 0.0 0.0
0.0 0.027301118009593495 -0.021550336132187795 0.02078676147608292 0.0007635746561048645 0.016300351639493955 0.0 0.0
0.0 0.023247074369424643 -0.018394616707194267 0.017629177376970083 0.0007654393302241962 0.013782013790038792 0.0 0.0
0.0 0.019071287528007096 -0.015083022702800375 0.014337945981543867 0.0007450767212564971 0.011731618249133085 0.0 0.0
0.0 0.015180764620036919 -0.01195358427562394 0.011250337489806556 0.0007032467858173835 0.009926149579585269 0.0 0.0
0.0 0.011706214217199931 -0.009135233863884809 0.008490152547245854 0.0006450813166389583 0.008169460671077074 0.0 0.0
0.0 0.00856522106710605 -0.006620609658450545 0.006050053667936809 0.0005705559905137351 0.006378800825783097 0.0 0.0
0.0 0.005698324656812295 -0.004376138304146945 0.0038969721485611983 0.0004791661555857476 0.0045728767230700075 0.0 0.0
0.0 0.0033877156822337807 -0.002458429798618835 0.002108696286726844 0.0003497335118919913 0.002838861802211868 0.0 0.0
0.0 0.0014712392626857168 -0.0010368517642550979 0.0008484713604941083 0.0001883804037609899 0.0014452930692115604 0.0 0.0
0.0 0.0004500739647798736 -0.00024119707331444698 0.00019047406426063302 5.0723009053813657e-05 0.00045675312584479374 0.0 0.0
0.0 2.967330717186043e-05 -1.0113885224738069e-05 7.747853861315585e-06 2.3660313634224346e-06 5.540551427354592e-05 0.0 0.0
0.0 5.897310613069714e-06 7.113013042357393e-06 -5.63457428751076e-06 -1.4784387548467321e-06 -2.308233589447243e-05 0.0 0.0
0.0 2.0954361826235192e-06 2.398431462019332e-06 -1.9925031085150035e-06 -4.05928353504321e-07 -1.1979797094454496e-05 0.0 0.0
0.0 1.0439070246942984e-06 -4.996301909296144e-07 4.055848372917019e-07 9.404535363791955e-08 3.2567658912878967e-06 0.0 0.0
0.0 1.4313281600758845e-07 1.1105936369772748e-07 -8.822615542529771e-08 -2.283320827242514e-08 -8.493784642591815e-07 0.0 0.0
0.0 1.2281032979265782e-06 6.036085941050957e-09 1.1573370720670148e-08 -1.7609456661723717e-08 -2.3341316622970424e-07 0.0 0.0
0.0 0.0 0.0 0.0 0.0 0.0 0.0 0.0
0.0 0.0 0.0 0.0 0.0 0.0 0.0 0.0
0.0 -4.0259822338143506e-07 -5.708835510017592e-09 2.086954577271083e-09 3.62188093274714e-09 -8.212924992018442e-08 0.0 0.0
0.0 1.3313349713321813e-06 5.656095227404661e-08 -3.800652923959776e-08 -1.855442303444414e-08 4.0655293111852187e-07 0.0 0.0
0.0 1.1306577113043026e-06 8.131467084656056e-07 -6.733997342764581e-07 -1.3974697418914775e-07 2.9617735426701434e-06 0.0 0.0
0.0 7.297869949249618e-07 2.1144004284902177e-06 -1.6789979635113788e-06 -4.3540246497887626e-07 4.992831423755312e-06 0.0 0.0
0.0 -1.0138032727414386e-05 -7.749803484169974e-07 4.673915039570576e-07 3.0758884445999776e-07 -1.0105471044506181e-05 0.0 0.0
0.0 0.00022646311247932736 -0.0001266891606525128 9.596208327206394e-05 3.072707738044887e-05 -0.00016501036620863413 0.0 0.0
0.0 0.001061009603908131 -0.0008493427864006505 0.0006711026805531608 0.0001782401058474895 -0.0009115817893119832 0.0 0.0
0.0 0.0029963220862021253 -0.0023961719251782013 0.0020096479122962293 0.0003865240128819704 -0.0022049989318505842 0.0 0.0
0.0 0.006137849916735388 -0.00474460021055053 0.004194519606225798 0.0005500806043247323 -0.004029293938250304 0.0 0.0
0.0 0.009521787798878393 -0.0077107487388030525 0.007054044830321635 0.0006567039084814103 -0.006139306570419758 0.0 0.0
0.0 0.013581220813459227 -0.011107357306501775 0.010373177187546039 0.0007341801189557325 -0.008228165224161747 0.0 0.0
0.0 0.01817621070381302 -0.014902391777769109 0.014099709344259501 0.0008026824335096154 -0.010228001298740455 0.0 0.0
0.0 0.023254487679366245 -0.01916295989039195 0.018298949901486727 0.0008640099889051986 -0.012181822847691289 0.0 0.0
0.0 0.02901257474288708 -0.023930202612251806 0.02301725505814985 0.0009129475541019799 -0.014239511493600757 0.0 0.0
0.0 0.035148264873430646 -0.029093720279154175 0.028153709940807566 0.0009400103383465815 -0.016693514405785804 0.0 0.0
0.0 0.041617267261089726 -0.034253920618278644 0.03331400488678653 0.0009399157314921279 -0.0199675823164156 0.0 0.0
0.0 0.047076807024485696 -0.038585570940632474 0.037689280760247246 0.0008962901803852108 -0.024134280682297792 0.0 0.0
0.0 0.04996978265123766 -0.040548085663305394 0.03974611510450359 0.0008019705588018082 -0.028050395238727297 0.0 0.0
0.0 0.046879951832212545 -0.03736379189065395 0.03677605419949319 0.0005877376911607507 -0.029275037868895938 0.0 0.0
0.0 0.044143236689764845 -0.031089138391897767 0.027539547522788036 0.0035495908691097404 1.5884862869519623e-14 0.0 0.0
0.0 0.04687995183221804 -0.03736379189065167 0.03677605419949137 0.0005877376911603085 0.029275037868932284 0.0 0.0
0.0 0.04996978265122908 -0.040548085663292835 0.03974611510449082 0.000801970558801956 0.028050395238761534 0.0 0.0
0.0 0.04707680702446497 -0.038585570940612546 0.03768928076022826 0.000896290180384291 0.024134280682313478 0.0 0.0
0.0 0.04161726726105584 -0.03425392061825031 0.03331400488675776 0.00093991573149258 0.019967582316411183 0.0 0.0
0.0 0.035148264873397506 -0.029093720279126448 0.02815370994078016 0.0009400103383462597 0.01669351440577271 0.0 0.0
0.0 0.0290125747428546 -0.02393020261222468 0.023017255058123454 0.0009129475541012403 0.014239511493586963 0.0 0.0
0.0 0.023254487679333642 -0.019162959890364435 0.018298949901459183 0.0008640099889052368 0.012181822847678834 0.0 0.0
0.0 0.018176210703781216 -0.01490239177774283 0.014099709344233248 0.0008026824335095651 0.010228001298727314 0.0 0.0
0.0 0.013581220813429364 -0.011107357306477812 0.010373177187522753 0.0007341801189550579 0.00822816522414445 0.0 0.0
0.0 0.009521787798849643 -0.0077107487387802 0.007054044830299109 0.0006567039084810884 0.006139306570401022 0.0 0.0
0.0 0.006137849916711427 -0.00474460021053154 0.004194519606207807 0.0005500806043237332 0.004029293938234281 0.0 0.0
0.0 0.0029963220861871204 -0.002396171925166576 0.0020096479122858443 0.0003865240128807281 0.002204998931841575 0.0 0.0
0.0 0.0010610096039015238 -0.0008493427863956364 0.0006711026805491413 0.00017824010584649593 0.0009115817893074778 0.0 0.0
0.0 0.00022646311247572325 -0.00012668916065060096 9.596208327059459e-05 3.072707738000636e-05 0.00016501036620602646 0.0 0.0
0.0 -1.0138032727924351e-05 -7.749803488831924e-07 4.673915043204284e-07 3.0758884456278733e-07 1.0105471045486749e-05 0.0 0.0
0.0 7.297869947356073e-07 2.1144004281958936e-06 -1.6789979632697174e-06 -4.354024649261779e-07 -4.992831422659482e-06 0.0 0.0
0.0 1.1306577105754468e-06 8.131467083357599e-07 -6.733997341737891e-07 -1.397469741619678e-07 -2.961773541938159e-06 0.0 0.0
0.0 1.3313349709275382e-06 5.6560952301545434e-08 -3.8006529263357124e-08 -1.855442303819463e-08 -4.06552931272763e-07 0.0 0.0
0.0 -4.025982233362702e-07 -5.708835509426125e-09 2.086954577233801e-09 3.6218809321944536e-09 8.212924991066692e-08 0.0 0.0
0.0 0.0 0.0 0.0 0.0 0.0 0.0 0.0
0.0 0.0 0.0 0.0 0.0 0.0 0.0 0.0
0.0 0.0 0.0 0.0 0.0 0.0 0.0 0.0
0.0 -3.327481570650355e-07 -1.482533182699559e-08 1.1836042148116669e-08 2.989289678877303e-09 -6.260562439208767e-08 0.0 0.0
0.0 -1.5926857769669053e-06 -8.225874576402296e-08 7.25529827749863e-08 9.705762989046934e-09 -2.2950866072328774e-07 0.0 0.0
0.0 -1.8682022528591185e-06 7.171575256057567e-06 -5.795420793228183e-06 -1.376154462829377e-06 1.552402731748221e-05 0.0 0.0
0.0 5.488914424719159e-05 -1.3612481773803527e-05 9.129329591712989e-06 4.483152182090466e-06 -4.662907828960034e-06 0.0 0.0
0.0 0.0005399188713744917 -0.00043743201539862153 0.0003345700880850164 0.00010286192731360522 -0.0003787151552639819 0.0 0.0
0.0 0.0020236437709823052 -0.001707402107740807 0.0013827306119334234 0.00032467149580738344 -0.001263504716907353 0.0 0.0
0.0 0.00508314050570436 -0.0040068306405135375 0.0034658040479998726 0.0005410265925136626 -0.002797185787367474 0.0 0.0
0.0 0.008541053884258507 -0.007267651507302458 0.006585115809758076 0.0006825356975443861 -0.004876989341193395 0.0 0.0
0.0 0.013379627890719203 -0.011213214615595912 0.010442401452154962 0.0007708131634409403 -0.007082969176460535 0.0 0.0
0.0 0.018764010587013987 -0.015734763460753587 0.0148913024790425 0.0008434609817110796 -0.009256919465568142 0.0 0.0
0.0 0.024766024597203017 -0.020813162773278267 0.019897804952318097 0.0009153578209601862 -0.011341985919992094 0.0 0.0
0.0 0.031501834903511404 -0.026524489037783764 0.025539166652214177 0.000985322385569561 -0.013398477994686053 0.0 0.0
0.0 0.039005224896183 -0.032945149190739445 0.03189992668171349 0.0010452225090259153 -0.015570282180655912 0.0 0.0
0.0 0.04755085003675589 -0.039989789764183076 0.038909034162094985 0.0010807556020881299 -0.01822759373311237 0.0 0.0
0.0 0.0557772640473443 -0.04717679635184515 0.0461019051524412 0.0010748911994038666 -0.021889867892341448 0.0 0.0
0.0 0.0635381682439332 -0.053317089648174026 0.052309558771894756 0.001007530876279346 -0.026637068004375458 0.0 0.0
0.0 0.06773915654052202 -0.05625067918426151 0.055389076484397434 0.0008616026998640233 -0.031363396749610396 0.0 0.0
0.0 0.06383878606618065 -0.052381515951921594 0.05179526685353235 0.0005862490983892523 -0.03338383031260638 0.0 0.0
0.0 0.05793027344019147 -0.044508541007067665 0.040334539459347805 0.0041740015477198 1.6995953255882768e-14 0.0 0.0
0.0 0.06383878606618121 -0.052381515951915696 0.051795266853526395 0.0005862490983893044 0.0333838303126459 0.0 0.0
0.0 0.06773915654050854 -0.05625067918424465 0.0553890764843811 0.0008616026998635566 0.03136339674964894 0.0 0.0
0.0 0.06353816824390324 -0.05331708964814634 0.052309558771867326 0.001007530876278951 0.026637068004394596 0.0 0.0
0.0 0.055777264047303814 -0.04717679635181042 0.046101905152405816 0.0010748911994045984 0.02188986789233975 0.0 0.0
0.0 0.04755085003671471 -0.03998978976414802 0.03890903416206023 0.0010807556020877686 0.018227593733101514 0.0 0.0
0.0 0.03900522489614183 -0.03294514919070422 0.03189992668167886 0.0010452225090253496 0.015570282180642171 0.0 0.0
0.0 0.0315018349034708 -0.02652448903774878 0.025539166652179715 0.0009853223855690518 0.013398477994673433 0.0 0.0
0.0 0.024766024597162147 -0.02081316277324377 0.01989780495228377 0.0009153578209600042 0.011341985919978299 0.0 0.0
0.0 0.018764010586973856 -0.01573476346072017 0.014891302479009286 0.0008434609817108856 0.00925691946554892 0.0 0.0
0.0 0.013379627890684323 -0.011213214615566916 0.010442401452126215 0.0007708131634407075 0.00708296917644042 0.0 0.0
0.0 0.008541053884229346 -0.007267651507277967 0.006585115809734361 0.0006825356975436131 0.00487698934117594 0.0 0.0
0.0 0.005083140505684217 -0.004006830640497675 0.003465804047985236 0.0005410265925124435 0.0027971857873574073 0.0 0.0
0.0 0.0020236437709705117 -0.0017074021077315923 0.001382730611925507 0.0003246714958060846 0.0012635047169007295 0.0 0.0
0.0 0.0005399188713683003 -0.0004374320153944209 0.00033457008808171566 0.00010286192731270524 0.0003787151552604058 0.0 0.0
0.0 5.48891442460842e-05 -1.3612481773732283e-05 9.129329591690454e-06 4.483152182041799e-06 4.6629078291794424e-06 0.0 0.0
0.0 -1.8682022535345377e-06 7.1715752556692016e-06 -5.795420792921512e-06 -1.376154462747673e-06 -1.552402731670443e-05 0.0 0.0
0.0 -1.5926857776430661e-06 -8.225874577307606e-08 7.255298278178309e-08 9.705762991309434e-09 2.2950866076069054e-07 0.0 0.0
0.0 -3.327481570925252e-07 -1.4825331828201173e-08 1.1836042148335524e-08 2.9892896798660335e-09 6.260562439504761e-08 0.0 0.0
0.0 0.0 0.0 0.0 0.0 0.0 0.0 0.0
0.0 0.0 0.0 0.0 0.0 0.0 0.0 0.0
0.0 0.0 0.0 0.0 0.0 0.0 0.0 0.0
0.0 0.0 0.0 0.0 0.0 0.0 0.0 0.0
0.0 -3.008317283811859e-07 -1.6894082401111415e-08 1.3667650964936457e-08 3.226431436173586e-09 -5.3084951058647605e-08 0.0 0.0
0.0 3.38324439717778e-07 3.5284502600968767e-07 -2.8275781136359337e-07 -7.00872146460693e-08 8.177456571582159e-07 0.0 0.0
0.0 -1.4316379258972707e-05 3.080743833858881e-06 -2.7557470741250843e-06 -3.249967597338086e-07 6.421888120259092e-06 0.0 0.0
0.0 0.00018123770568708808 -0.0001053978405428978 7.71921748054879e-05 2.820566573740998e-05 -5.480552535631319e-05 0.0 0.0
0.0 0.0010476203528386465 -0.0009015217458754799 0.0007005489183329978 0.00020097282754248143 -0.0005131058460927694 0.0 0.0
0.0 0.003437844958934062 -0.0027516553475009863 0.00229338686628678 0.00045826848121420754 -0.0014935684567186599 0.0 0.0
0.0 0.006617213807109763 -0.005823288540174597 0.005164702633593456 0.0006585859065811392 -0.003177336879551893 0.0 0.0
0.0 0.011536268770278389 -0.009886564792159571 0.009111733474169582 0.000774831317989994 -0.005211083617740864 0.0 0.0
0.0 0.017321751503517183 -0.014797895577841152 0.013941047181651105 0.0008568483961900485 -0.007359470016965732 0.0 0.0
0.0 0.02396838427186042 -0.02044711008488706 0.019514642252182367 0.0009324678327047023 -0.009482268607625043 0.0 0.0
0.0 0.03145048912913684 -0.0268167964805661 0.025806130495055243 0.0010106659855108327 -0.011537236433168065 0.0 0.0
0.0 0.03992744438272457 -0.03398395329082855 0.03289530438291376 0.0010886489079148147 -0.013587151155801393 0.0 0.0
0.0 0.04929275617750351 -0.04205318608297004 0.04089281240571853 0.001160373677251488 -0.0157544029452769 0.0 0.0
0.0 0.05955473857620258 -0.05096249658688573 0.049756856725422446 0.0012056398614632875 -0.018324903234620347 0.0 0.0
0.0 0.07062090334568441 -0.06012524006929091 0.05893294587566848 0.0011922941936224232 -0.02185160294428713 0.0 0.0
0.0 0.08002416641254848 -0.0680170432779299 0.06692356664469296 0.0010934766332368444 -0.026697754195874418 0.0 0.0
0.0 0.08480020264803548 -0.0718096173311033 0.0709145202244863 0.0008950971066169715 -0.032085725772571703 0.0 0.0
0.0 0.08043377482859719 -0.06723904477836325 0.06666016764789959 0.0005788771304636418 -0.03597270980445547 0.0 0.0
0.0 0.07279851792704345 -0.05795494669598308 0.0532236154654581 0.0047313312305249525 1.714080266612683e-14 0.0 0.0
0.0 0.08043377482859392 -0.06723904477835457 0.06666016764789111 0.000578877130463476 0.03597270980449588 0.0 0.0
0.0 0.08480020264801325 -0.07180961733108002 0.07091452022446294 0.0008950971066170725 0.032085725772610124 0.0 0.0
0.0 0.0800241664125104 -0.06801704327789551 0.06692356664465847 0.0010934766332369658 0.026697754195894638 0.0 0.0
0.0 0.07062090334563781 -0.0601252400692506 0.0589329458756279 0.0011922941936226166 0.021851602944287445 0.0 0.0
0.0 0.05955473857615563 -0.05096249658684488 0.04975685672538266 0.0012056398614622976 0.01832490323461229 0.0 0.0
0.0 0.049292756177450804 -0.042053186082924875 0.04089281240567368 0.0011603736772512192 0.015754402945264704 0.0 0.0
0.0 0.03992744438267834 -0.03398395329078797 0.032895304382874475 0.001088648907913476 0.01358715115578969 0.0 0.0
0.0 0.03145048912908631 -0.02681679648052285 0.025806130495011816 0.0010106659855109873 0.0115372364331543 0.0 0.0
0.0 0.023968384271811284 -0.020447110084845385 0.01951464225214114 0.0009324678327042282 0.009482268607606589 0.0 0.0
0.0 0.01732175150347445 -0.014797895577805328 0.013941047181615367 0.0008568483961899492 0.007359470016945585 0.0 0.0
0.0 0.011536268770244072 -0.00988656479213053 0.00911173347414115 0.0007748313179893755 0.005211083617724527 0.0 0.0
0.0 0.006617213807089097 -0.005823288540155814 0.00516470263357564 0.0006585859065801747 0.0031773368795418155 0.0 0.0
0.0 0.003437844958917213 -0.00275165534748749 0.0022933868662747534 0.00045826848121273775 0.001493568456711333 0.0 0.0
0.0 0.001047620352830649 -0.0009015217458691834 0.0007005489183279988 0.00020097282754118486 0.0005131058460888045 0.0 0.0
0.0 0.0001812377056843885 -0.00010539784054162962 7.71921748045442e-05 2.8205665737085365e-05 5.48055253557878e-05 0.0 0.0
0.0 -1.4316379259141963e-05 3.080743833264275e-06 -2.755747073651526e-06 -3.2499675961278086e-07 -6.4218881193244256e-06 0.0 0.0
0.0 3.383244389434035e-07 3.5284502602600925e-07 -2.8275781137789896e-07 -7.008721464810565e-08 -8.177456571563018e-07 0.0 0.0
0.0 -3.0083172820327663e-07 -1.6894082390560128e-08 1.3667650956397697e-08 3.226431434162971e-09 5.3084951026648725e-08 0.0 0.0
0.0 0.0 0.0 0.0 0.0 0.0 0.0 0.0
0.0 0.0 0.0 0.0 0.0 0.0 0.0 0.0
0.0 0.0 0.0 0.0 0.0 0.0 0.0 0.0
0.0 0.0 0.0 0.0 0.0 0.0 0.0 0.0
0.0 -1.680433764396781e-07 -1.0793184899027673e-08 8.54508648894806e-09 2.2480984100807976e-09 -2.827633481288059e-08 0.0 0.0
0.0 -1.364922362955851e-06 1.1009213555999695e-07 -8.69544763077019e-08 -2.3137659252323957e-08 3.433115260582412e-07 0.0 0.0
0.0 5.4826873215524485e-06 9.114775669059037e-06 -8.247975685844967e-06 -8.667999832140062e-07 1.6948346292819775e-05 0.0 0.0
0.0 0.0003273815915474571 -0.0003184026072536308 0.00023794432190675459 8.045828534687602e-05 -0.00013933899968990413 0.0 0.0
0.0 0.0018897163366780585 -0.001500474691208638 0.0011928375226231385 0.0003076371685854998 -0.0005685036087172819 0.0 0.0
0.0 0.004473704066860508 -0.003985627427956733 0.0034122841025045125 0.0005733433254522212 -0.0016218810922069033 0.0 0.0
0.0 0.008788135761854271 -0.007708259692250737 0.006965248480665262 0.0007430112115854814 -0.0031832732359394155 0.0 0.0
0.0 0.014457521098535087 -0.012565275932342907 0.011717965229880254 0.0008473107024626593 -0.005025750662111258 0.0 0.0
0.0 0.02133169691401365 -0.018430829780106534 0.017501053549484797 0.0009297762306217184 -0.006995881827257206 0.0 0.0
0.0 0.02928008202951138 -0.025207593140134335 0.02419648740451936 0.0010111057356149689 -0.008941825646242466 0.0 0.0
0.0 0.038330166331964795 -0.03287914863383838 0.03178320702366292 0.0010959416101754484 -0.010842326706959476 0.0 0.0
0.0 0.04816770464115513 -0.04151801550521383 0.04033637798981801 0.0011816375153958388 -0.012775606864691463 0.0 0.0
0.0 0.059522796990456595 -0.051205177167640115 0.049943799405953386 0.0012613777616867642 -0.014813371987823003 0.0 0.0
0.0 0.07200907034443986 -0.061888585639587844 0.06057173094771556 0.0013168546918721836 -0.0170587492633517 0.0 0.0
0.0 0.08472809609644044 -0.07294471433083913 0.07164051660079956 0.0013041977300395449 -0.01994737152671823 0.0 0.0
0.0 0.09605384104735618 -0.08253950545364307 0.08136457952218794 0.0011749259314551503 -0.024295322673051813 0.0 0.0
0.0 0.1020339888453674 -0.08725869017803961 0.0863355127857145 0.0009231773923249883 -0.03035740129901322 0.0 0.0
0.0 0.09711510084315793 -0.08222885030632923 0.08166771978469396 0.0005611305216352894 -0.037381220534487634 0.0 0.0
0.0 0.08797991875600841 -0.0717580361509351 0.06652872663487895 0.005229309516056208 1.7573616173383044e-14 0.0 0.0
0.0 0.09711510084315084 -0.08222885030631807 0.08166771978468347 0.0005611305216345537 0.037381220534526034 0.0 0.0
0.0 0.10203398884533714 -0.08725869017801026 0.08633551278568487 0.0009231773923252513 0.03035740129904886 0.0 0.0
0.0 0.09605384104731178 -0.08253950545360385 0.08136457952214854 0.0011749259314552825 0.02429532267307172 0.0 0.0
0.0 0.08472809609638741 -0.07294471433079291 0.07164051660075353 0.001304197730039425 0.019947371526720725 0.0 0.0
0.0 0.0720090703443831 -0.061888585639538474 0.060571730947667046 0.001316854691871368 0.017058749263345815 0.0 0.0
0.0 0.059522796990400174 -0.05120517716759119 0.049943799405905105 0.0012613777616860636 0.014813371987814425 0.0 0.0
0.0 0.04816770464109658 -0.04151801550516324 0.04033637798976808 0.0011816375153951605 0.012775606864680003 0.0 0.0
0.0 0.03833016633190655 -0.03287914863378761 0.031783207023612696 0.0010959416101749431 0.010842326706946697 0.0 0.0
0.0 0.02928008202945874 -0.025207593140088906 0.024196487404474637 0.0010111057356142652 0.008941825646227374 0.0 0.0
0.0 0.021331696913963975 -0.018430829780064113 0.017501053549442477 0.0009297762306216397 0.006995881827238358 0.0 0.0
0.0 0.01445752109849516 -0.012565275932308299 0.011717965229846245 0.0008473107024620454 0.005025750662096219 0.0 0.0
0.0 0.008788135761826132 -0.007708259692225944 0.006965248480641252 0.0007430112115846929 0.003183273235928942 0.0 0.0
0.0 0.004473704066842374 -0.003985627427940798 0.003412284102489833 0.0005733433254509644 0.0016218810922001806 0.0 0.0
0.0 0.0018897163366674433 -0.0015004746912004134 0.0011928375226162653 0.00030763716858414603 0.0005685036087135847 0.0 0.0
0.0 0.00032738159154369474 -0.0003184026072511347 0.00023794432190487425 8.045828534625996e-05 0.0001393389996889542 0.0 0.0
0.0 5.482687320874138e-06 9.114775668676118e-06 -8.24797568553935e-06 -8.667999831366268e-07 -1.6948346292300093e-05 0.0 0.0
0.0 -1.36492236316535e-06 1.1009213556740759e-07 -8.695447631438838e-08 -2.3137659253017806e-08 -3.4331152608664644e-07 0.0 0.0
0.0 -1.6804337643450485e-07 -1.0793184898566844e-08 8.545086488621468e-09 2.248098409945835e-09 2.8276334812116163e-08 0.0 0.0
0.0 0.0 0.0 0.0 0.0 0.0 0.0 0.0
0.0 0.0 0.0 0.0 0.0 0.0 0.0 0.0
0.0 0.0 0.0 0.0 0.0 0.0 0.0 0.0
0.0 0.0 0.0 0.0 0.0 0.0 0.0 0.0
0.0 0.0 0.0 0.0 0.0 0.0 0.0 0.0
0.0 -1.943119684631396e-06 8.607470360638217e-07 -6.87301667011954e-07 -1.7344536905185927e-07 1.2041379951522033e-06 0.0 0.0
0.0 4.506987103690518e-05 -1.8566752704771143e-05 1.1442415369814786e-05 7.124337334956626e-06 5.445070825446014e-06 0.0 0.0
0.0 0.0007024981499533653 -0.0005824313753021249 0.00043935135096165247 0.00014308002434047264 -0.00012410256601964252 0.0 0.0
0.0 0.002596194104935448 -0.002267701009660207 0.001849383615050263 0.00041831739460994127 -0.0005683261613715378 0.0 0.0
0.0 0.005883893521069345 -0.005292645056892947 0.004633172615285345 0.0006594724416076071 -0.001518443740435409 0.0 0.0
0.0 0.010891646162512977 -0.009639391390861417 0.008829811674648453 0.0008095797162129501 -0.0028041629058563984 0.0 0.0
0.0 0.017459160796556655 -0.015270851342949983 0.014362460853627792 0.0009083904893222002 -0.004351397167805866 0.0 0.0
0.0 0.025355093585282158 -0.022083792216322 0.02108909772984746 0.000994694486474517 -0.006011327600396328 0.0 0.0
0.0 0.03460694382520382 -0.029990746442676262 0.028907703817210535 0.0010830426254657207 -0.007654692292027533 0.0 0.0
0.0 0.0448907906263143 -0.038980006705705984 0.03780460792438939 0.001175398781316622 -0.009271895084445533 0.0 0.0
0.0 0.05683654483323411 -0.04909103009880132 0.047825598427709615 0.0012654316710916515 -0.010954997007087745 0.0 0.0
0.0 0.06978701766020359 -0.060368172185496886 0.05901953234087655 0.0013486398446203663 -0.012753622562849905 0.0 0.0
0.0 0.08386450831181722 -0.07269885631060266 0.07128566065578058 0.0014131956548221595 -0.014567003929095327 0.0 0.0
0.0 0.09869990588372203 -0.08545388029886056 0.08403873059978474 0.0014151496990757995 -0.016439682890565906 0.0 0.0
0.0 0.11186081253732644 -0.0967287647642143 0.09545674952362551 0.0012720152405887196 -0.019503316985747088 0.0 0.0
0.0 0.1191359211918886 -0.10266703166636665 0.10170608059586146 0.0009609510705052052 -0.026088688663990615 0.0 0.0
0.0 0.11438029129747743 -0.09764139836941574 0.09711689179969925 0.0005245065697166848 -0.03738385454482356 0.0 0.0
0.0 0.1045048443223413 -0.08625826264687773 0.08059766013449945 0.005660602512378266 1.5406079190150024e-14 0.0 0.0
0.0 0.11438029129746383 -0.09764139836940018 0.09711689179968408 0.0005245065697161334 0.03738385454485732 0.0 0.0
0.0 0.11913592119185545 -0.10266703166633596 0.10170608059583083 0.0009609510705051279 0.026088688664023044 0.0 0.0
0.0 0.11186081253727652 -0.09672876476417065 0.09545674952358207 0.001272015240588511 0.01950331698576402 0.0 0.0
0.0 0.0986999058836629 -0.08545388029880917 0.08403873059973394 0.001415149699075227 0.016439682890567586 0.0 0.0
0.0 0.08386450831175052 -0.07269885631054471 0.071285660655723 0.00141319565482169 0.01456700392909163 0.0 0.0
0.0 0.06978701766013846 -0.06036817218544023 0.059019532340820906 0.0013486398446193382 0.012753622562844446 0.0 0.0
0.0 0.056836544833166865 -0.04909103009874295 0.047825598427651966 0.0012654316710909632 0.010954997007078093 0.0 0.0
0.0 0.044890790626248775 -0.03898000670564927 0.03780460792433316 0.001175398781316137 0.00927189508443614 0.0 0.0
0.0 0.03460694382514453 -0.029990746442624436 0.028907703817159364 0.0010830426254650953 0.007654692292015602 0.0 0.0
0.0 0.025355093585227233 -0.022083792216274437 0.02108909772980025 0.000994694486474188 0.006011327600380583 0.0 0.0
0.0 0.017459160796510855 -0.015270851342910305 0.014362460853588593 0.0009083904893217028 0.004351397167792519 0.0 0.0
0.0 0.01089164616247967 -0.009639391390832006 0.00882981167461974 0.0008095797162122591 0.0028041629058472893 0.0 0.0
0.0 0.005883893521047842 -0.0052926450568733605 0.004633172615266885 0.0006594724416064801 0.0015184437404289802 0.0 0.0
0.0 0.0025961941049217384 -0.002267701009648525 0.0018493836150400675 0.0004183173946084578 0.0005683261613676407 0.0 0.0
0.0 0.0007024981499476554 -0.0005824313752978931 0.0004393513509583721 0.00014308002433952016 0.00012410256601856585 0.0 0.0
0.0 4.506987103625466e-05 -1.8566752704934014e-05 1.144241536998934e-05 7.124337334944606e-06 -5.445070824900267e-06 0.0 0.0
0.0 -1.9431196851947822e-06 8.60747036111532e-07 -6.87301667052512e-07 -1.7344536905901452e-07 -1.2041379952336743e-06 0.0 0.0
0.0 0.0 0.0 0.0 0.0 0.0 0.0 0.0
0.0 0.0 0.0 0.0 0.0 0.0 0.0 0.0
0.0 0.0 0.0 0.0 0.0 0.0 0.0 0.0
0.0 0.0 0.0 0.0 0.0 0.0 0.0 0.0
0.0 0.0 0.0 0.0 0.0 0.0 0.0 0.0
0.0 0.0 0.0 0.0 0.0 0.0 0.0 0.0
0.0 -1.8616886513380313e-06 2.2893568985867183e-06 -1.826201579601972e-06 -4.6315531898476133e-07 1.8840763442586862e-06 0.0 0.0
0.0 0.0001026414931819698 -0.0001020246563314232 7.14510843511053e-05 3.057357198031783e-05 3.1573994523035133e-06 0.0 0.0
0.0 0.0011973973558446842 -0.0009673479034983403 0.0007435728986471398 0.00022377500485119944 -6.46119150820352e-05 0.0 0.0
0.0 0.003343160701239852 -0.0031392858738146273 0.002624987592112291 0.0005142982817023383 -0.0004594469487310703 0.0 0.0
0.0 0.007377524860621197 -0.0066419169965240745 0.0059128901194908864 0.000729026877033194 -0.001131160457867908 0.0 0.0
0.0 0.013032272317934 -0.011590064925875223 0.010725925740165412 0.0008641391857098026 -0.00206804699917392 0.0 0.0
0.0 0.0204590193350871 -0.017978939302933195 0.017016909349288473 0.0009620299536447148 -0.0031989757241500127 0.0 0.0
0.0 0.02946964155976929 -0.02573112267819109 0.024676897474138343 0.00105422520405273 -0.004418018553415524 0.0 0.0
0.0 0.039862137894048244 -0.03477231750269254 0.03362252061048358 0.0011497968922089578 -0.005627416226866181 0.0 0.0
0.0 0.05196292795486375 -0.04508171171473755 0.04383326078132457 0.0012484509334129803 -0.006832710117244533 0.0 0.0
0.0 0.0650998030499226 -0.056684917824109976 0.05534084634317094 0.001344071480938994 -0.008137053784041658 0.0 0.0
0.0 0.07994513146679257 -0.0695233306510969 0.06809611188511766 0.0014272187659792783 -0.009547799299486301 0.0 0.0
0.0 0.09592797349830756 -0.0833519464840898 0.0818646070644568 0.0014873394196329255 -0.010862559979186307 0.0 0.0
0.0 0.11230138542380337 -0.0975213833484401 0.09601319830906924 0.0015081850393709264 -0.011780761600894763 0.0 0.0
0.0 0.1271461054833947 -0.11036405924596758 0.10894609287300537 0.0014179663729622033 -0.01299587839965276 0.0 0.0
0.0 0.13623245721888444 -0.11799780581145258 0.11695122326675098 0.0010465825447015303 -0.01856292830432772 0.0 0.0
0.0 0.13246390082163606 -0.1138059055996695 0.11336068337828496 0.00044522222138438294 -0.03502499814646759 0.0 0.0
0.0 0.12247708781948226 -0.10194542565182074 0.09595093216443942 0.005994493487381278 1.0432626984524518e-14 0.0 0.0
0.0 0.13246390082161552 -0.11380590559964952 0.11336068337826503 0.00044522222138456823 0.035024998146493895 0.0 0.0
0.0 0.13623245721884453 -0.11799780581141697 0.1169512232667155 0.0010465825447015227 0.018562928304354593 0.0 0.0
0.0 0.12714610548333832 -0.11036405924591862 0.10894609287295684 0.0014179663729617447 0.012995878399665085 0.0 0.0
0.0 0.11230138542373631 -0.09752138334838172 0.09601319830901167 0.0015081850393701098 0.011780761600896441 0.0 0.0
0.0 0.09592797349823201 -0.08335194648402425 0.08186460706439187 0.0014873394196324664 0.010862559979184222 0.0 0.0
0.0 0.07994513146671628 -0.06952333065103063 0.06809611188505232 0.0014272187659782538 0.009547799299482216 0.0 0.0
0.0 0.06509980304984753 -0.05668491782404496 0.05534084634310664 0.001344071480938374 0.008137053784034495 0.0 0.0
0.0 0.05196292795478924 -0.0450817117146728 0.043833260781260215 0.0012484509334125542 0.006832710117237694 0.0 0.0
0.0 0.03986213789398016 -0.03477231750263355 0.033622520610425366 0.0011497968922081123 0.005627416226858093 0.0 0.0
0.0 0.029469641559708153 -0.02573112267813747 0.024676897474085163 0.0010542252040523347 0.004418018553403474 0.0 0.0
0.0 0.02045901933503715 -0.017978939302889053 0.017016909349245036 0.0009620299536440171 0.003198975724140007 0.0 0.0
0.0 0.013032272317896349 -0.011590064925841638 0.010725925740132605 0.0008641391857090399 0.002068046999167065 0.0 0.0
0.0 0.00737752486059532 -0.006641916996500649 0.005912890119468536 0.0007290268770321078 0.0011311604578627362 0.0 0.0
0.0 0.003343160701223855 -0.003139285873799821 0.0026249875920989403 0.000514298281700885 0.00045944694872788083 0.0 0.0
0.0 0.0011973973558371204 -0.0009673479034920109 0.0007435728986420892 0.00022377500484992036 6.461191508112583e-05 0.0 0.0
0.0 0.00010264149318069794 -0.00010202465633116402 7.14510843509751e-05 3.057357198018877e-05 -3.1573994518347284e-06 0.0 0.0
0.0 -1.8616886518032074e-06 2.2893568986832796e-06 -1.8262015796761666e-06 -4.631553190071337e-07 -1.8840763443201967e-06 0.0 0.0
0.0 0.0 0.0 0.0 0.0 0.0 0.0 0.0
0.0 0.0 0.0 0.0 0.0 0.0 0.0 0.0
0.0 0.0 0.0 0.0 0.0 0.0 0.0 0.0
0.0 0.0 0.0 0.0 0.0 0.0 0.0 0.0
0.0 0.0 0.0 0.0 0.0 0.0 0.0 0.0
0.0 0.0 0.0 0.0 0.0 0.0 0.0 0.0
0.0 -4.752342000552151e-06 3.6069481926434003e-06 -3.040170630186238e-06 -5.667775624571612e-07 2.5592182343441523e-06 0.0 0.0
0.0 0.00029615006201528756 -0.0002206070237033329 0.00015704282644045747 6.356419726287546e-05 4.4038470417558816e-05 0.0 0.0
0.0 0.0016729952299222072 -0.0014713103578961652 0.0011574430394305703 0.00031386731846559483 5.1971080690799394e-05 0.0 0.0
0.0 0.004389308689162341 -0.004045834662369944 0.003456797077301167 0.0005890375850687782 -0.0001538413278023419 0.0 0.0
0.0 0.00888711166623236 -0.008011596828363367 0.007226758955587229 0.0007848378727761296 -0.0004988198035429729 0.0 0.0
0.0 0.015252240322265144 -0.013535091310592579 0.012624999373790191 0.0009100919368023941 -0.0009814057288332284 0.0 0.0
0.0 0.023459156757137396 -0.02066501362876872 0.019654103198384346 0.0010109104303843504 -0.0015759002363815808 0.0 0.0
0.0 0.033504416505923465 -0.02935042006812026 0.028240988628238275 0.001109431439881987 -0.0022164844493350053 0.0 0.0
0.0 0.045408162092692814 -0.039526854883822196 0.0383152766381208 0.001211578245701402 -0.0028605535843046425 0.0 0.0
0.0 0.05855596435749466 -0.05117294936205044 0.04985595290460106 0.0013169964574493525 -0.003548160108630457 0.0 0.0
0.0 0.07365057668335769 -0.06425268305624632 0.06283520616655028 0.0014174768896960445 -0.0043101992380926765 0.0 0.0
0.0 0.09023508061346128 -0.07862727849224573 0.07712810384359423 0.0014991746486515533 -0.005131894179181386 0.0 0.0
0.0 0.10786227630342912 -0.09388305557610227 0.09233374106758689 0.0015493145085153776 -0.005885880639252759 0.0 0.0
0.0 0.1255775864817486 -0.10918805859775171 0.10762543662067076 0.001562621977080984 -0.006244278357341354 0.0 0.0
0.0 0.14170525223725866 -0.1231269881564013 0.12158234397324189 0.001544644183159481 -0.006147514288010797 0.0 0.0
0.0 0.15287879240718508 -0.13277730237832802 0.13142664674078863 0.0013506556375392378 -0.008491505589661615 0.0 0.0
0.0 0.15172288074132895 -0.1310989989068877 0.13071319713174165 0.0003858017751460311 -0.025391702918218767 0.0 0.0
0.0 0.14306517344989966 -0.11988845716980251 0.11395356738479089 0.005934889785011589 5.081005061136068e-15 0.0 0.0
0.0 0.15172288074130594 -0.1310989989068665 0.13071319713172064 0.00038580177514571255 0.02539170291823393 0.0 0.0
0.0 0.15287879240713653 -0.13277730237828572 0.13142664674074636 0.0013506556375392311 0.008491505589677394 0.0 0.0
0.0 0.14170525223719088 -0.123126988156343 0.12158234397318338 0.0015446441831595483 0.006147514288016577 0.0 0.0
0.0 0.1255775864816722 -0.10918805859768574 0.10762543662060481 0.0015626219770809601 0.006244278357341568 0.0 0.0
0.0 0.10786227630334497 -0.09388305557602922 0.09233374106751413 0.0015493145085149992 0.005885880639252343 0.0 0.0
0.0 0.09023508061337714 -0.07862727849217259 0.0771281038435221 0.0014991746486505727 0.00513189417917849 0.0 0.0
0.0 0.0736505766832715 -0.06425268305617174 0.06283520616647592 0.0014174768896957463 0.004310199238089692 0.0 0.0
0.0 0.05855596435741009 -0.05117294936197703 0.049855952904528274 0.0013169964574487206 0.003548160108627741 0.0 0.0
0.0 0.045408162092615376 -0.039526854883754854 0.03831527663805402 0.0012115782457008412 0.0028605535842990415 0.0 0.0
0.0 0.03350441650585407 -0.02935042006806019 0.028240988628178525 0.0011094314398816397 0.0022164844493283587 0.0 0.0
0.0 0.023459156757082312 -0.020665013628720145 0.019654103198336548 0.0010109104303836053 0.0015759002363764207 0.0 0.0
0.0 0.015252240322222563 -0.013535091310554597 0.012624999373752896 0.0009100919368016868 0.0009814057288295662 0.0 0.0
0.0 0.008887111666203575 -0.008011596828337308 0.007226758955562019 0.0007848378727752862 0.0004988198035403048 0.0 0.0
0.0 0.004389308689143958 -0.004045834662352805 0.0034567970772854113 0.0005890375850673937 0.0001538413278007204 0.0 0.0
0.0 0.001672995229913545 -0.0014713103578886302 0.0011574430394243069 0.000313867318464322 -5.197108069110509e-05 0.0 0.0
0.0 0.0002961500620125757 -0.00022060702370171255 0.00015704282643932881 6.356419726238395e-05 -4.403847041705368e-05 0.0 0.0
0.0 -4.752342000475209e-06 3.606948192085116e-06 -3.040170629771563e-06 -5.667775623134909e-07 -2.5592182342440817e-06 0.0 0.0
0.0 0.0 0.0 0.0 0.0 0.0 0.0 0.0
0.0 0.0 0.0 0.0 0.0 0.0 0.0 0.0
0.0 0.0 0.0 0.0 0.0 0.0 0.0 0.0
0.0 0.0 0.0 0.0 0.0 0.0 0.0 0.0
0.0 0.0 0.0 0.0 0.0 0.0 0.0 0.0
0.0 0.0 0.0 0.0 0.0 0.0 0.0 0.0
0.0 6.568890555155426e-06 -5.224902871768234e-06 2.9869501720250515e-06 2.237952699743293e-06 4.355656406779498e-06 0.0 0.0
0.0 0.0005500701237225398 -0.00038789848715630127 0.0002751930687790602 0.00011270541837724116 0.000104585679118042 0.0 0.0
0.0 0.0021895357361097537 -0.0019311592833773025 0.0015046545297141105 0.00042650475366319145 0.0002509183832590992 0.0 0.0
0.0 0.005211607201243344 -0.004817094476765212 0.004070110216648009 0.0007469842601172045 0.0003223187018932871 0.0 0.0
0.0 0.010086415482023638 -0.009143357299045729 0.00813951014905793 0.0010038471499877943 0.000364072389511687 0.0 0.0
0.0 0.01688408722904479 -0.01513097140780915 0.013912969663854555 0.001218001743954587 0.0003694552016057118 0.0 0.0
0.0 0.02576500169068551 -0.022864763024045373 0.021424071899801955 0.0014406911242434307 0.00030945256075614615 0.0 0.0
0.0 0.03668954078245001 -0.03232478432080827 0.030627208234214116 0.0016975760865941259 0.0002264642544414796 0.0 0.0
0.0 0.04926653868066747 -0.04346094551784812 0.04146636020338676 0.0019945853144613564 0.00011708544874825845 0.0 0.0
0.0 0.06378679729832955 -0.05621329251556203 0.053890893073474354 0.0023223994420876106 -7.295413608174404e-05 0.0 0.0
0.0 0.08010886323842861 -0.07050991474544327 0.06784410638741814 0.002665808358025145 -0.0003100365542784639 0.0 0.0
0.0 0.09800780518369218 -0.08614800956734696 0.0831515542274281 0.0029964553399186877 -0.000648442294292167 0.0 0.0
0.0 0.11690261814137815 -0.10257801477675627 0.09930323668457525 0.003274778092181021 -0.001052417120607255 0.0 0.0
0.0 0.13555629717567538 -0.11874898585362625 0.11529719870131952 0.0034517871523065324 -0.001354396871314367 0.0 0.0
0.0 0.15217059789024664 -0.13311718080684332 0.1296320922537132 0.003485088553130018 -0.0012809857931678284 0.0 0.0
0.0 0.1643469150855542 -0.14379404111146468 0.14030533718791635 0.0034887039235485025 -0.002119375091940108 0.0 0.0
0.0 0.16674987251213597 -0.1463747673427068 0.14289168766443935 0.0034830796782673343 -0.018511715707413823 0.0 0.0
0.0 0.16252421373236442 -0.1382672953935406 0.12824893434466222 0.0100183610488783 1.5543122344752192e-15 0.0 0.0
0.0 0.16674987251211262 -0.1463747673426858 0.14289168766441956 0.0034830796782662336 0.01851171570741922 0.0 0.0
0.0 0.1643469150854989 -0.14379404111141664 0.14030533718786917 0.003488703923547427 0.0021193750919455447 0.0 0.0
0.0 0.1521705978901704 -0.13311718080677676 0.1296320922536482 0.00348508855312871 0.001280985793168394 0.0 0.0
0.0 0.13555629717559262 -0.11874898585355409 0.11529719870124844 0.0034517871523054165 0.0013543968713142333 0.0 0.0
0.0 0.11690261814128877 -0.10257801477667797 0.09930323668449903 0.0032747780921788916 0.0010524171206080998 0.0 0.0
0.0 0.09800780518360178 -0.08614800956726765 0.08315155422735102 0.002996455339916527 0.0006484422942888632 0.0 0.0
0.0 0.08010886323833649 -0.07050991474536271 0.06784410638733944 0.0026658083580232434 0.00031003655427678904 0.0 0.0
0.0 0.06378679729823733 -0.056213292515481614 0.0538908930733952 0.0023223994420864284 7.295413608109178e-05 0.0 0.0
0.0 0.04926653868058191 -0.04346094551777351 0.041466360203313596 0.001994585314459861 -0.00011708544875155616 0.0 0.0
0.0 0.03668954078237484 -0.0323247843207425 0.03062720823414966 0.001697576086592849 -0.000226464254443684 0.0 0.0
0.0 0.02576500169062552 -0.022864763023993005 0.021424071899751013 0.0014406911242420143 -0.00030945256075756624 0.0 0.0
0.0 0.01688408722899894 -0.015130971407768642 0.01391296966381528 0.0012180017439533792 -0.0003694552016064137 0.0 0.0
0.0 0.010086415481992477 -0.009143357299017522 0.008139510149030908 0.0010038471499866069 -0.00036407238951162153 0.0 0.0
0.0 0.005211607201223751 -0.004817094476746865 0.0040701102166311965 0.0007469842601156664 -0.00032231870189303874 0.0 0.0
0.0 0.0021895357361006174 -0.0019311592833685114 0.0015046545297068238 0.0004265047536616892 -0.00025091838325830377 0.0 0.0
0.0 0.0005500701237190573 -0.0003878984871538802 0.00027519306877736864 0.00011270541837651255 -0.00010458567911726747 0.0 0.0
0.0 6.568890554985176e-06 -5.224902871811795e-06 2.9869501720616467e-06 2.2379526997501252e-06 -4.355656406751781e-06 0.0 0.0
0.0 0.0 0.0 0.0 0.0 0.0 0.0 0.0
0.0 0.0 0.0 0.0 0.0 0.0 0.0 0.0
0.0 0.0 0.0 0.0 0.0 0.0 0.0 0.0
SCALARS Wm float 4
LOOKUP_TABLE default
11.883798392680664 1.982933677296995 4.882409392865951 5.018455322517716
5.770050473223167 2.800422738525546 1.3180523154046047 1.651575419293019
0.6434066733857734 0.6139371066582884 0.0018122610593506857 0.02765730566813418
0.5008372684204315 0.4817993655837095 0.005154439585178267 0.01388346325154395
0.9659616162844264 0.7304769631961867 0.08334781080630313 0.15213684228193627
2.0245615289502155 1.0263002699471828 0.3564940410664489 0.6417672179365835
4.124320275616218 1.4436122707974803 1.123431786662335 1.5572762181564044
7.511060963590563 1.946610229933961 2.5506155597281115 3.0138351739284874
12.49179419809822 2.568994802699241 4.865729457110835 5.057069938288145
19.307169582189765 3.3463433418867403 8.254642081484999 7.706184158818035
28.101135968185698 4.312765303321129 12.837584438785502 10.950786226079074
38.8481079345866 5.48652380949288 18.586963950138625 14.77462017495511
51.71761442583406 6.8582774773837825 25.698020705373846 19.16131624307647
66.71531176406403 8.418902188317698 34.20113091650357 24.09527865924273
83.68083002222406 10.055373265654307 44.10190457170291 29.523552184866812
102.12329538085092 11.563309530336127 55.24320276493249 35.31678308558231
121.0481442743944 12.687935799023219 67.10698990735918 41.253218568011974
139.0481494685007 13.224223160736159 78.88240052911664 46.94152577864785
154.55064330566023 13.192050973501132 89.45240374135633 51.90618859080283
165.42441379660048 12.501824727089106 97.31997795711541 55.60261111239586
169.01453500034793 11.270736797869572 100.58101295485575 57.162785247622665
165.42441379657217 12.50182472708008 97.31997795710176 55.60261111239034
154.55064330560313 13.192050973488774 89.45240374132595 51.90618859078832
139.04814946845278 13.224223160761063 78.88240052906741 46.941525778624275
121.0481442742998 12.68793579899829 67.10698990731257 41.25321856798888
102.12329538075605 11.563309530314887 55.243202764883975 35.31678308555724
83.68083002213699 10.05537326564301 44.10190457165376 29.523552184840213
66.71531176399641 8.418902188329321 34.201130916452954 24.095278659214106
51.71761442575867 6.858277477377663 25.69802070533046 19.16131624305057
38.84810793451598 5.486523809483728 18.586963950101097 14.774620174931176
28.101135968131484 4.312765303318294 12.837584438755032 10.950786226058138
19.30716958214297 3.346343341876038 8.254642081464334 7.706184158802606
12.491794198067996 2.56899480269792 4.865729457095113 5.0570699382749655
7.511060963568722 1.946610229929374 2.5506155597193514 3.0138351739200004
4.124320275603594 1.443612270795236 1.1234317866575374 1.5572762181508213
2.0245615289441083 1.026300269945739 0.3564940410648264 0.6417672179335422
0.9659616162819273 0.7304769631951294 0.08334781080575086 0.15213684228104715
0.5008372684197956 0.48179936558309944 0.005154439585161369 0.013883463251534727
0.6434066733850078 0.6139371066576895 0.0018122610593147126 0.027657305668002875
5.770050473217969 2.8004227385260747 1.3180523154018358 1.6515754192900567
11.883798392654393 1.982933677284115 4.882409392858628 5.018455322511659
14.069363426253489 6.1994910370675615 3.7650018971166856 4.104870492069238
2.242134764712334 0.4909386976163522 0.7253503407231561 1.0258457263728247
0.2546152327319152 0.28895446798749597 -0.010286812632111305 -0.024052422623469467
0.39378741262165146 0.3895939020706778 0.0006219612283624057 0.0035715493226111034
0.7339056630236822 0.6002625782969182 0.03985594633534989 0.09378713839141428
1.622275747004324 0.8689050481245079 0.27315249351931364 0.48021820536050275
3.3857289641106303 1.1653640520407755 0.9046939341443814 1.3156709779254734
6.358430975287908 1.5201732293374606 2.180066544946273 2.658191201004174
10.756769390285298 1.9187549580472845 4.280230636426934 4.557783795811078
16.727093239520343 2.368038043463409 7.3391957127492535 7.01985948330768
24.362328619984446 2.8713548876892223 11.465170944113462 10.02580278818176
33.76404435401016 3.4446391318403036 16.766751553868218 13.55265366830165
44.793508651761655 4.100480030165306 23.095284890135158 17.597743731461183
57.76451800799468 4.818365453141214 30.795328027681236 22.15082452717223
72.48398027594284 5.549673922980219 39.75377792544222 27.18052842752042
88.58516006215542 6.180813433000722 49.83528304514544 32.569063584009214
105.2994110598442 6.570648038887647 60.65127312431298 38.07748989664354
121.44835678671745 6.616948655960746 71.4499535250147 43.381454605741986
135.4449592665499 6.257433090336445 81.1598806846047 48.027645491608716
145.33141733285953 5.538172035963077 88.38859739669755 51.40464790019885
149.01648170877218 4.739001995378299 91.46026725606502 52.817212457328864
145.3314173328468 5.538172035971211 88.3885973966834 51.4046479001922
135.44495926651476 6.257433090343398 81.1598806845762 48.0276454915952
121.4483567866539 6.616948655958889 71.44995352497313 43.38145460572191
105.29941105978169 6.570648038890683 60.651273124269395 38.0774898966216
88.5851600620815 6.180813432993844 49.83528304510137 32.56906358398629
72.48398027587228 5.549673922979725 39.75377792539695 27.180528427495613
57.76451800792057 4.81836545313562 30.795328027637684 22.150824527147257
44.79350865169958 4.100480030168013 23.095284890094995 17.59774373143657
33.76404435394819 3.44463913183351 16.766751553834833 13.552653668279845
24.362328619935635 2.8713548876873003 11.465170944085907 10.025802788162437
16.727093239483402 2.368038043461565 7.339195712729462 7.019859483292367
10.75676939025743 1.9187549580445697 4.280230636413501 4.557783795799358
6.358430975268775 1.5201732293333885 2.180066544938765 2.6581912009966238
3.3857289640995143 1.1653640520387076 0.9046939341403082 1.3156709779204991
1.6222757469992168 0.8689050481235581 0.27315249351758697 0.4802182053580716
0.7339056630220505 0.6002625782960355 0.03985594633507515 0.09378713839093981
0.3937874126212254 0.38959390207013145 0.0006219612283828333 0.003571549322711115
0.25461523273184344 0.2889544679872778 -0.010286812632055546 -0.02405242262337881
2.2421347647060017 0.4909386976152681 0.7253503407206282 1.025845726370107
14.06936342622813 6.199491037056241 3.7650018971092245 4.104870492062652
10.537182186374341 4.896156046574423 2.584933408797325 3.0560927310025905
1.380388832513703 0.18751441662051932 0.4802965779855834 0.7125778379076011
0.16035805271870396 0.1603502264157743 7.419249480201966e-07 7.084377981681158e-06
0.29479729961795637 0.2967988045762467 -0.0004058879723270144 -0.001595616985963289
0.5605539663036525 0.5116659085955653 0.011734397654868984 0.037153660053218455
1.2618268436775426 0.7795320274019265 0.1686164987765103 0.3136783174991063
2.7337341809220463 1.0657670292787405 0.6494082725254244 1.018558879117882
5.325944104602342 1.4016512255443716 1.7212595766542949 2.2030333024036746
9.190970123235513 1.7654242497333614 3.5182107964756195 3.907335077026531
14.463030352197164 2.161016292317864 6.18211223769827 6.119901822181022
21.165353404646858 2.5976328855268345 9.75882338333782 8.808897135782201
29.299126952216945 3.089909584332148 14.258277726565204 11.95093964131959
39.06897591960063 3.661202848092306 19.87024335876097 15.53752971274735
50.28985254970277 4.30322896754109 26.399408017658597 19.587215564503072
63.18917890202293 4.962205182751611 34.158420666170635 24.068553053100686
77.37044793315044 5.5603222789143825 42.91516982465947 28.894955829576602
92.20042627929124 5.982634361050085 52.33570307265825 33.88208884558293
106.61882325220135 6.099242710424091 61.82282952590571 38.69675101587153
119.13623839825355 5.807298942457824 70.41581732860581 42.913122127189986
128.01999103489192 5.255338992798628 76.80300708655349 45.96164495553979
131.22132126478587 4.296384472814953 79.61885107207442 47.30608571989654
128.01999103487157 5.255338992797695 76.80300708654048 45.961644955533295
119.13623839822006 5.807298942463078 70.41581732857978 42.91312212717724
106.61882325215018 6.099242710422196 61.82282952587299 38.69675101585494
92.20042627922885 5.982634361045583 52.33570307262013 33.88208884556316
77.37044793308368 5.56032227890577 42.91516982462163 28.894955829556288
63.18917890195967 4.962205182749269 34.1584206661316 24.068553053078777
50.28985254964554 4.303228967541719 26.399408017622342 19.587215564481486
39.06897591954172 3.6612028480900913 19.870243358726164 15.53752971272546
29.299126952166887 3.089909584331633 14.258277726535571 11.950939641299701
21.16535340460435 2.5976328855252553 9.758823383314214 8.808897135764882
14.463030352163832 2.1610162923167855 6.182112237680414 6.119901822166635
9.190970123212256 1.7654242497325467 3.518210796463848 3.9073350770158624
5.325944104586454 1.4016512255420137 1.7212595766476688 2.2030333023967725
2.733734180913125 1.0657670292772594 0.649408272522273 1.0185588791135927
1.2618268436735798 0.7795320274010046 0.16861649877531748 0.313678317497258
0.5605539663022111 0.5116659085943125 0.011734397654798112 0.03715366005310015
0.2947972996176803 0.29679880457593083 -0.00040588797231936436 -0.0015956169859311464
0.1603580527186474 0.16035022641571312 7.419249483381132e-07 7.0843779859417435e-06
1.3803888325090514 0.18751441662023138 0.4802965779836112 0.712577837905208
10.537182186350096 4.896156046564008 2.584933408790261 3.0560927309958292
7.919421560539437 3.8065330416940713 1.8096159903267757 2.3032725285185895
0.9169399851844766 0.0933056403517079 0.31215734435454795 0.51147700047822
0.11288011639722895 0.11288011639722895 0.0 0.0
0.22214550215739762 0.22225032852377283 -5.703827983023358e-06 -9.91225383922601e-05
0.42910753331106893 0.42387670044937464 0.00045212553043761316 0.004778707331256792
0.9406290560367141 0.672670629563995 0.08300239658481667 0.18495602988790244
2.1558566974301208 0.9701817322922806 0.4492718038092001 0.7364031613286399
4.335352464264971 1.2777659225699807 1.2975173526267096 1.7600691890682807
7.681012509043624 1.6095909138640982 2.8078608336786166 3.2635607615009086
12.24804588809281 1.9575896177941345 5.067381760051353 5.223074510247323
18.01422937752915 2.3315688861526063 8.085916600230545 7.596743891146004
25.04560918281106 2.7560330892662503 11.935821645016942 10.353754448527871
33.30534647769385 3.2465820972756143 16.565208755822212 13.493555624596041
43.09467876247278 3.804980471821057 22.26235994889534 17.027338341756373
54.159347111441164 4.403612245691141 28.794303966826938 20.9614308989231
66.38252874852003 4.972614297663575 36.184875962803275 25.22503848805318
79.40015974403909 5.4186654056373404 44.32778031573737 29.65371402266433
92.16685229101506 5.610321838498518 52.566488367429585 33.99004208508696
103.35706398641972 5.440420380967055 60.07988349546196 37.83676010999069
111.43322587377682 5.000458637310389 65.75449667204381 40.67827056442266
114.34950267774948 3.8526735211609044 68.4933492538093 42.00347990277929
111.43322587376687 5.00045863731652 65.75449667203293 40.6782705644174
103.35706398639542 5.440420380977067 60.07988349543919 37.836760109979195
92.16685229097097 5.610321838496252 52.566488367401966 33.99004208507275
79.40015974399527 5.418665405644248 44.32778031570442 29.653714022646586
66.38252874846934 4.9726142976638 36.18487596277055 25.22503848803502
54.15934711138794 4.403612245689519 28.794303966794367 20.961430898904045
43.09467876242013 3.8049804718191265 22.262359948863995 17.027338341737014
33.305346477642395 3.2465820972700143 16.565208755794416 13.49355562457796
25.045609182763968 2.756033089260852 11.935821644992465 10.353754448510653
18.014229377492352 2.331568886150648 8.08591660021077 7.596743891130941
12.248045888064658 1.9575896177935366 5.0673817600363105 5.2230745102348015
7.681012509022346 1.6095909138632256 2.8078608336681037 3.2635607614910143
4.3353524642512165 1.2777659225680873 1.29751735262123 1.7600691890618978
2.155856697422616 0.9701817322906027 0.44927180380662096 0.7364031613253925
0.9406290560337796 0.6726706295632119 0.08300239658401001 0.1849560298865579
0.42910753331033535 0.4238767004485781 0.0004521255304417267 0.004778707331315397
0.22214550215730874 0.22225032852370255 -5.703827984489458e-06 -9.912253840930818e-05
0.1128801163972295 0.1128801163972295 0.0 0.0
0.9169399851803891 0.09330564035148117 0.3121573443528134 0.5114770004760947
7.919421560519995 3.8065330416860266 1.8096159903212963 2.303272528512676
5.863121395844068 2.937114030849319 1.2218068233785764 1.704200541616172
0.6710015882495055 0.1080511568603397 0.21864005081507992 0.34431038057408586
0.10276617043365296 0.10276617043365296 0.0 0.0
0.1775989819750707 0.17759269240807776 3.5059575947504334e-07 5.938971233487455e-06
0.3315694940093535 0.33708590485060325 -0.0018675749257459993 -0.003648835915503574
0.6923923227973033 0.5792306712629728 0.030427542528316108 0.08273410900601366
1.6303154295976496 0.8539911783834102 0.28781326629331305 0.4885109849209269
3.4020839750548135 1.1498678981029677 0.9176277747614774 1.334588302190368
6.2231191511803425 1.4501173234387938 2.14307688430722 2.62992494343433
10.089406002820626 1.755457124650128 4.000863047695568 4.33308583047493
14.97763800039534 2.0770893728928828 6.510288358148284 6.390260269354165
20.880441452458918 2.4357245524981956 9.679832864192864 8.76488403576786
27.881645487599123 2.856166957162638 13.570052453043672 11.455426077392811
35.9365171227211 3.34100132589783 18.108155050261566 14.487360746561693
45.31556755154142 3.866119038872676 23.585016464178537 17.864432048490194
55.79189461714299 4.402977277147579 29.84006367558312 21.548853664412295
66.89645523315295 4.874629637510431 36.59361874773148 25.42820684791102
78.0412430641549 5.1549749811980385 43.616350594375035 29.269917488581793
88.0327619031761 5.11724893689157 50.17340746353321 32.74210550275132
95.49807713189341 4.772136537128588 55.321525054748236 35.404415540016544
98.24250651788873 3.4168950680158576 58.03664011022773 36.788971339645194
95.4980771318792 4.772136537128875 55.321525054738665 35.404415540011634
88.03276190313343 5.117248936874442 50.17340746351645 32.74210550274257
78.04124306412052 5.154974981199395 43.616350594351786 29.269917488569327
66.89645523310308 4.8746296375032845 36.593618747703985 25.428206847895808
55.79189461709742 4.402977277145905 29.840063675555342 21.54885366439618
45.31556755149733 3.866119038872582 23.585016464151167 17.8644320484736
35.93651712268016 3.3410013258991986 18.108155050235773 14.487360746545171
27.881645487562157 2.856166957165311 13.57005245302014 11.455426077376693
20.880441452420847 2.4357245524919358 9.679832864174543 8.764884035754365
14.977638000364912 2.077089372892036 6.510288358131813 6.390260269341065
10.08940600279621 1.7554571246487813 4.000863047683245 4.333085830464185
6.223119151161942 1.4501173234362146 2.1430768842993717 2.629924943426355
3.402083975043472 1.1498678981016133 0.9176277747569098 1.3345883021849496
1.6303154295916877 0.8539911783814026 0.28781326629163007 0.4885109849186549
0.6923923227951899 0.5792306712622657 0.03042754252783705 0.08273410900508707
0.3315694940089576 0.3370859048500783 -0.001867574925716383 -0.003648835915404394
0.17759898197486151 0.1775926924078721 3.5059575927603094e-07 5.938971230153005e-06
0.10276617043354415 0.10276617043354415 0.0 0.0
0.6710015882462178 0.10805115686013195 0.21864005081368199 0.3443103805724045
5.863121395828552 2.937114030842977 1.2218068233743364 1.704200541611236
4.258010818512441 2.2485848621575397 0.8009631853848665 1.2084627709700348
0.47471230393956176 0.1426391635778419 0.11303070500343611 0.21904243535828358
0.11553474317022033 0.11553474317022033 0.0 0.0
0.15601130395040666 0.15599588601122727 1.0256537066026557e-06 1.4392285472793056e-05
0.2676914080085658 0.2717866970196711 -0.0007764346498973257 -0.0033188543612079823
0.5038792671256088 0.47501721927150575 0.0036038762362352933 0.02525817161786781
1.1513803123592377 0.7194492905488327 0.13705957626412107 0.29487144554628386
2.57966053519308 1.0136874204307635 0.6317293231350659 0.9342437916272515
4.80922433255515 1.2838932685457003 1.5148306184284446 2.010500445581007
8.018470872513069 1.554727227751919 3.0104844354811657 3.4532592092799796
12.034704660465728 1.8289937686270517 5.01378284176078 5.19192805007789
16.850689552804063 2.131318245988629 7.533024633079731 7.186346673735707
22.511573781222303 2.485387588294101 10.594753765583842 9.431432427344362
29.152364574963684 2.8988738332565887 14.296413861399456 11.957076880307635
36.76197604904573 3.3675039058434395 18.610250990857125 14.784221152345161
45.31068819134868 3.853647204359717 23.567677027657457 17.889363959331504
54.757100401459894 4.329700761948785 29.24354038475411 21.183859254757007
64.28104839960045 4.7125752171415565 35.03784141884972 24.530631763609165
73.07098334413232 4.822286414153265 40.59184329231756 27.65685363766149
80.06061824392052 4.572115279834126 45.312402670775974 30.17610029331042
82.73350874569925 2.9976011943391683 48.09020345296934 31.64570409839072
80.0606182439129 4.572115279838003 45.31240267076853 30.176100293306323
73.07098334411745 4.8222864141558 40.591843292306336 27.656853637655324
64.28104839957119 4.712575217142354 35.037841418830325 24.53063176359847
54.75710040142321 4.329700761944089 29.243540384733823 21.18385925474529
45.31068819131476 3.8536472043631558 23.567677027634243 17.8893639593174
36.76197604900633 3.367503905839141 18.61025099083566 14.784221152331526
29.1523645749296 2.898873833257694 14.296413861378465 11.957076880293434
22.511573781185426 2.4853875882894907 10.594753765565027 9.431432427330911
16.850689552774256 2.131318245984965 7.533024633064974 7.186346673724318
12.034704660439075 1.8289937686248467 5.013782841747463 5.19192805006677
8.01847087249342 1.5547272277508943 3.0104844354715596 3.4532592092709606
4.809224332540683 1.2838932685435434 1.5148306184225562 2.010500445574585
2.579660535183962 1.0136874204293922 0.6317293231315354 0.9342437916230334
1.1513803123548974 0.7194492905472425 0.1370595762630554 0.2948714455445995
0.5038792671242768 0.47501721927060614 0.003603876236098943 0.02525817161757179
0.26769140800824615 0.27178669701929836 -0.0007764346498848263 -0.0033188543611674727
0.15601130395006269 0.15599588601088876 1.0256537061492444e-06 1.4392285467779322e-05
0.1155347431698465 0.1155347431698465 0.0 0.0
0.47471230393731845 0.14263916357775464 0.11303070500250442 0.2190424353570596
4.258010818500315 2.2485848621523847 0.8009631853818059 1.2084627709661255
2.9796890636438826 1.6953531475710009 0.4749771444090718 0.8093587716638113
0.3576003748880104 0.18588455737035908 0.05326989360360255 0.11844592391404864
0.1384208292643645 0.13843658709631879 -8.23290305344124e-07 -1.4934541648948963e-05
0.1513960092276478 0.15138172321153073 9.176681420014073e-07 1.3368347975063384e-05
0.22762763941757314 0.22883682734887079 -0.00021852527680854393 -0.0009906626544891365
0.377011134257405 0.3864807370419693 -0.004336413106540548 -0.005133189678023747
0.793762089605538 0.5990080161938822 0.053298679018953334 0.14145539439270235
1.7727893598112414 0.8453617374830404 0.33091986981261207 0.596507752515589
3.577093432980806 1.117948149586056 1.0433160753900235 1.415829208004726
6.010838028490807 1.3488761881399611 2.0760833671605163 2.585878473190329
9.213089263545005 1.5855077404276212 3.622044813070995 4.005536710046392
12.996994904449757 1.8388050438244647 5.538329171451264 5.6198606891740255
17.403132500210482 2.1337600452071834 7.845508788097694 7.423863666905604
22.544004032794376 2.482688020757893 10.614379190683048 9.446936821353434
28.49829696760971 2.885204867453596 13.890599753137828 11.72249234701829
35.390578585113666 3.331994960833164 17.815503618453416 14.243080005827085
42.759846265721144 3.793349500541813 22.003076601045752 16.963420164133616
50.757496900696914 4.2484213539438445 26.745641327533523 19.763434219219537
58.583626679343595 4.530375700925717 31.532253111393054 22.520997867024814
65.11132908161888 4.406336329179244 35.76783137236539 24.937161380074258
67.82831318706405 2.606988090955731 38.67711650133424 26.5442085947741
65.1113290816121 4.406336329181635 35.767831372359446 24.937161380071004
58.58362667933264 4.530375700931587 31.532253111382317 22.52099786701873
50.757496900672734 4.248421353943279 26.745641327518733 19.763434219210723
42.75984626569992 3.7933495005476408 22.003076601028962 16.963420164123335
35.39057858508029 3.331994960829382 17.81550361843535 14.243080005815555
28.49829696758438 2.885204867456312 13.890599753121148 11.72249234700692
22.54400403276698 2.4826880207576307 10.614379190667242 9.446936821342112
17.403132500186633 2.133760045206242 7.845508788084696 7.423863666895709
12.99699490442718 1.8388050438238444 5.538329171439176 5.619860689164162
9.213089263524493 1.5855077404259639 3.622044813061074 4.005536710037458
6.010838028474456 1.3488761881381015 2.0760833671532413 2.5858784731831146
3.57709343296966 1.1179481495846582 1.0433160753853383 1.4158292079996642
1.772789359804937 0.8453617374816402 0.3309198698105355 0.5965077525127619
0.7937620896025482 0.5990080161925928 0.05329867901832715 0.14145539439162813
0.377011134256616 0.38648073704106234 -0.004336413106507912 -0.005133189677938208
0.22762763941716432 0.2288368273484519 -0.00021852527680877795 -0.0009906626544789663
0.15139600922713112 0.1513817232110194 9.176681415783688e-07 1.336834797013782e-05
0.1384208292641654 0.13843658709610088 -8.232903041218908e-07 -1.4934541631370911e-05
0.35760037488629337 0.1858845573701762 0.05326989360297823 0.11844592391313874
2.9796890636350613 1.6953531475673542 0.47497714440695277 0.8093587716607547
2.0625674267584033 1.2986978083704819 0.28706249595021227 0.4768071224377089
0.26560337326699135 0.20759610005669443 0.009083418310859532 0.048923854899437444
0.16282420551827487 0.16281837323617337 3.7705430600642793e-07 5.455227795464113e-06
0.15809722307552962 0.15807026885142805 1.9856943216208e-06 2.4968529779967134e-05
0.20437336874892564 0.20548827331411534 -0.00016928759115828382 -0.0009456169740314387
0.30096302352291526 0.31235557772489775 -0.0032653011542231806 -0.008127253047759327
0.5295014637012557 0.47882661005276805 0.0075239079967137175 0.043150945651773645
1.1382741798876161 0.6790965865700824 0.14194811881706274 0.3172294745004711
2.341561468562263 0.9122673584447045 0.544663775953624 0.8846303341639352
4.217361705999528 1.1379783747372851 1.3327187979015602 1.7466645333606818
6.528356625403639 1.3373137553330012 2.357163316275634 2.833879553795004
9.312003156461119 1.5488473831126381 3.6917117624942066 4.0714440108542735
12.547046561115645 1.7932286230384473 5.315310119954076 5.438507818123121
16.288840516296172 2.0801162363643084 7.243238177939969 6.965486101991896
20.693353865180686 2.424931484883862 9.579729012655331 8.688693367641498
25.74781220270431 2.822556020252013 12.298632219080163 10.626623963372145
31.509413624385825 3.255543665625681 15.511419227162481 12.742450731597668
37.71301267156566 3.748597577351435 18.959810192827796 15.00460490138644
44.226861536575335 4.202122936424111 22.670391213912378 17.354347386238828
50.441594825175315 4.269071644969801 26.527244877279816 19.64527830292569
53.3490470759754 2.2539114188370712 29.648629830465666 21.44650582667267
50.4415948251683 4.269071644967462 26.527244877276782 19.645278302924055
44.22686153655275 4.202122936411399 22.670391213906242 17.354347386235112
37.71301267154395 3.748597577345798 18.959810192817958 15.004604901380201
31.509413624355197 3.2555436656155163 15.511419227150137 12.742450731589543
25.747812202681793 2.822556020250385 12.298632219067812 10.626623963363592
20.693353865154652 2.4249314848779555 9.579729012643682 8.688693367633023
16.28884051627531 2.080116236361409 7.243238177929822 6.9654861019840775
12.547046561094295 1.793228623033301 5.315310119945173 5.438507818115817
9.312003156442682 1.5488473831103187 3.6917117624857037 4.071444010846662
6.528356625387918 1.3373137553317804 2.357163316268311 2.833879553787825
4.21736170598829 1.1379783747364198 1.33271879789651 1.7466645333553594
2.3415614685550077 0.912267358443729 0.5446637759508293 0.884630334160449
1.1382741798837033 0.6790965865689625 0.1419481188159918 0.31722947449874794
0.5295014636997212 0.4788266100518659 0.007523907996543285 0.043150945651311924
0.3009630235222568 0.3123555777238383 -0.0032653011541692854 -0.008127253047412485
0.20437336874839734 0.20548827331359024 -0.0001692875911553982 -0.0009456169740374379
0.1580972230752675 0.15807026885115402 1.985694321836739e-06 2.4968529791673438e-05
0.16282420551803317 0.16281837323593298 3.77054305894178e-07 5.455227794269461e-06
0.26560337326580674 0.20759610005641477 0.00908341831054443 0.048923854898847464
2.062567426751896 1.298697808367707 0.28706249594863 0.47680712243555917
1.3320171701078058 0.9627836145409698 0.11781271706491711 0.2514208385019189
0.21401457041949834 0.21509861756873958 -0.004695798247528217 0.003611751098287014
0.1840043686118569 0.18408454653593337 -6.891134986441236e-06 -7.328678909005853e-05
0.17126683418052457 0.17132967706530972 -4.153057242887411e-06 -5.8689827542243214e-05
0.19416941255845516 0.19525599075230743 -0.00016927307265123418 -0.000917305121201033
0.25701456607179707 0.2620021169177154 -0.0016785223164250728 -0.0033090285294931914
0.37419926070918974 0.37778072888910047 -0.0041321636248738995 0.0005506954449631504
0.672982520740721 0.5250749738834832 0.03742000221590235 0.11048754464133552
1.3449069604162787 0.6964146652506505 0.21587593965151766 0.43261635551410993
2.4913627135182534 0.8824025231786551 0.6303748353974844 0.9785853549421154
4.0061767175503 1.0563717093870706 1.2404482095195395 1.7093567986436902
5.856145551374236 1.2363614497853026 2.0632469102102258 2.5565371913787063
7.98620457502953 1.4382749318764714 3.054002076630396 3.493927566522662
10.438901079111336 1.6695307431695308 4.232596028791049 4.536774307150757
13.335185985911298 1.952295604650149 5.665846715718758 5.717043665542392
16.77746021422728 2.30171882075823 7.4086953429426545 7.067046050526388
20.77722040772768 2.709904659724645 9.472837386924137 8.594478361078895
25.233643828495353 3.1586029940362144 11.800325948605224 10.274714885853914
30.42381525700663 3.7440001198419 14.529024733246194 12.150790403918531
36.28268012520258 4.151757567356638 17.85376663600687 14.27715592183907
39.48241823909902 1.979880250256489 21.092889926002464 16.40964806284006
36.28268012520584 4.15175756736081 17.853766636006323 14.277155921838707
30.42381525700793 3.744000119846893 14.529024733244007 12.150790403917034
25.23364382848975 3.1586029940425218 11.800325948598147 10.27471488584907
20.77722040771744 2.7099046597272727 9.4728373869167 8.59447836107346
16.777460214213395 2.301718820758601 7.408695342934568 7.067046050520231
13.335185985900774 1.9522956046514373 5.665846715712217 5.717043665537113
10.438901079100846 1.6695307431696318 4.232596028785339 4.536774307145878
7.986204575017552 1.4382749318722856 3.0540020766264053 3.493927566518858
5.856145551365069 1.236361449786402 2.0632469102050197 2.5565371913736485
4.006176717539595 1.0563717093852814 1.2404482095153153 1.709356798638998
2.491362713511366 0.882402523178654 0.6303748353943542 0.9785853549383579
1.3449069604118853 0.6964146652495082 0.21587593965020868 0.43261635551216854
0.6729825207384382 0.525074973882605 0.03742000221543821 0.11048754464039494
0.37419926070816156 0.3777807288879479 -0.004132163624867635 0.0005506954450813376
0.2570145660710758 0.2620021169168334 -0.001678522316405215 -0.003309028529352249
0.19416941255809264 0.19525599075195268 -0.0001692730726503375 -0.0009173051212097332
0.17126683418020722 0.17132967706497734 -4.153057241293014e-06 -5.868982752885634e-05
0.1840043686113998 0.1840845465354551 -6.891134984875096e-06 -7.328678907042576e-05
0.2140145704189103 0.2150986175684313 -0.004695798247617458 0.0036117510980963586
1.3320171701035894 0.9627836145389591 0.11781271706405382 0.2514208385005764
0.8522181260362318 0.7285879404851281 0.03436391730161822 0.08926626824948555
0.187007791491892 0.20238184345973548 -0.0047553829885255815 -0.010618668979317908
0.19954451386734734 0.1995566265611736 -6.117896414425278e-07 -1.1500904184732598e-05
0.18694796236237715 0.18696735445192655 -1.3008748578819488e-06 -1.8091214691473458e-05
0.1953255681187456 0.1961582951901331 -0.0001455467135260586 -0.0006871803578614392
0.23433853382660985 0.23975883193781122 -0.001465794286439499 -0.003954503824761922
0.3020875747551777 0.30132696716140955 -0.00116217959565066 0.0019227871894187422
0.4040330328763138 0.369244191288618 0.006410212001998314 0.028378629585697576
0.628208678784389 0.4607890294531855 0.04445678073928427 0.12296286859191913
1.0913950644401285 0.5833098071197415 0.166828403547984 0.3412568537724031
1.843413046311152 0.7083443398823154 0.4324176333135842 0.7026510731152522
2.765265271163177 0.8252505587589133 0.7746366546606692 1.1653780577435948
3.8813419276568983 0.9675099351766139 1.229472892544554 1.6843590999357319
5.198067267029934 1.1394045474811143 1.7909434950531966 2.267719224495624
6.76473370336268 1.3521549610824413 2.4745505660186358 2.9380281762616036
8.700643751040554 1.6365983941242903 3.3311399528167525 3.7329054040995073
11.132900692574703 2.00842996887298 4.432858991852973 4.691611731848748
14.080900990798654 2.424033810492547 5.836411398616802 5.820455781689304
17.57204177595571 2.9005881850187776 7.530073937663758 7.1413796532731775
22.56575058813259 3.796754450063536 9.866929933679671 8.902066204389378
26.91377510533309 1.8773654917253102 13.55563141406997 11.480778199537815
22.56575058813425 3.796754450063413 9.866929933680723 8.90206620439011
17.572041775953636 2.900588185019065 7.53007393766238 7.141379653272191
14.08090099078604 2.424033810489212 5.836411398611624 5.820455781685205
11.132900692562151 2.0084299688694043 4.432858991848049 4.691611731844699
8.700643751033988 1.6365983941260214 3.331139952812407 3.7329054040955603
6.764733703358029 1.3521549610844055 2.474550566015299 2.938028176258325
5.198067267022132 1.1394045474781074 1.7909434950507581 2.2677192244932662
3.881341927653521 0.9675099351766683 1.2294728925429237 1.6843590999339288
2.7652652711559407 0.8252505587574342 0.774636654657995 1.1653780577405113
1.8434130463060872 0.7083443398812516 0.4324176333118253 0.7026510731130102
1.0913950644373362 0.5833098071197612 0.1668284035468745 0.34125685377070025
0.6282086787830745 0.46078902945277633 0.04445678073899935 0.12296286859129875
0.4040330328756256 0.3692441912882491 0.006410212001888836 0.028378629585487838
0.30208757475456166 0.3013269671608128 -0.0011621795956690882 0.001922787189417804
0.2343385338260902 0.23975883193710848 -0.0014657942864042402 -0.00395450382461407
0.1953255681185508 0.19615829518987177 -0.0001455467135182801 -0.0006871803578026947
0.18694796236194317 0.1869673544515298 -1.3008748627321452e-06 -1.8091214723892245e-05
0.19954451386705063 0.199556626560858 -6.117896398351923e-07 -1.150090416746557e-05
0.1870077914915679 0.20238184345919316 -0.0047553829884724366 -0.01061866897915277
0.852218126033791 0.7285879404837684 0.03436391730125875 0.0892662682487639
0.5423461769145902 0.5270759406832641 0.0023498342447773155 0.012920401986548492
0.17713992519539115 0.17980742153007157 -0.0004101448972238948 -0.002257351437456512
0.20913751844529577 0.2093101847670689 -1.381589958185425e-05 -0.0001588504221912493
0.2024601185211029 0.20268088188631989 -2.4547286265965418e-05 -0.00019621607895096933
0.20524050455143317 0.20594778094507715 -0.0001549234499995264 -0.0005523529436444613
0.23185477183033612 0.235581952410309 -0.0011767107277107117 -0.0025504698522621563
0.2817353409580795 0.27818632898530843 -0.00021922644809407738 0.0037682384208651055
0.3327166442285377 0.289355298580753 0.009489128864589682 0.03387221678319512
0.3720940719532255 0.262866384877258 0.03279275539987035 0.07643493167609752
0.43974050093117506 0.22379214325381314 0.06946885073259723 0.14647950694476464
0.6106598649236361 0.2322001580253089 0.14369949503436566 0.23476021186396143
0.8798732736081247 0.2749194026972093 0.23527314153904266 0.3696807293718727
1.2609668877764786 0.29889498602843023 0.3854613927821971 0.5766105089658511
1.7505844557560573 0.3020686493126311 0.598694781584329 0.8498210248590983
2.3680732460789526 0.31482392555612376 0.8781692659002914 1.1750800546225373
3.1159893327256887 0.35682498915946703 1.2118930737128986 1.5472712698533235
4.04734972217531 0.4479127275411069 1.633858138038205 1.9655788565959997
5.173157529287944 0.5897392439725243 2.151925527819045 2.4314927574963763
6.857227870334825 0.8849673858425191 2.889182949609013 3.0830775348832935
10.968236447562486 2.1732347790436064 4.253622889951265 4.5413787785676165
18.285268451614733 1.880696597006549 8.42972324649273 7.974848608115458
10.968236447558613 2.1732347790361644 4.253622889953256 4.541378778569194
6.857227870336169 0.8849673858453034 2.8891829496081636 3.0830775348826993
5.1731575292806244 0.589739243970723 2.1519255278161373 2.431492757493766
4.0473497221719406 0.44791272754247363 1.6338581380357133 1.965578856593751
3.115989332716987 0.3568249891552763 1.2118930737108333 1.547271269850877
2.3680732460729046 0.31482392555406224 0.8781692658984137 1.1750800546204287
1.7505844557565058 0.30206864931455635 0.5986947815835948 0.8498210248583562
1.2609668877712865 0.2988949860272754 0.38546139278039415 0.5766105089636169
0.8798732736054633 0.27491940269626247 0.23527314153813908 0.36968072937106267
0.6106598649222319 0.23220015802514488 0.14369949503378962 0.23476021186329693
0.43974050093026584 0.22379214325352326 0.06946885073236594 0.1464795069443768
0.37209407195307503 0.2628663848773589 0.03279275539977996 0.07643493167593612
0.3327166442281999 0.28935529858086834 0.009489128864444134 0.03387221678288733
0.2817353409575021 0.2781863289847022 -0.0002192264481226669 0.003768238420922553
0.23185477182982395 0.2355819524096153 -0.0011767107276778965 -0.0025504698521135517
0.20524050455136905 0.20594778094481764 -0.00015492344997799042 -0.0005523529434705077
0.20246011852081172 0.2026808818858174 -2.4547286241370854e-05 -0.00019621607876432273
0.20913751844503967 0.20931018476689084 -1.3815899589553176e-05 -0.0001588504222616213
0.17713992519514876 0.17980742152980195 -0.0004101448972155643 -0.0022573514374376806
0.54234617691324 0.5270759406818405 0.002349834244742568 0.012920401986656874
0.3559627425792198 0.35660610516311647 -9.176254569544301e-05 -0.0005516000382013035
0.16815077610968585 0.1680961085282773 9.35582864804692e-06 4.531175276047452e-05
0.21285268899731905 0.21281550757021195 8.769005568780546e-07 3.63045265502724e-05
0.2158089222904625 0.21596318727785094 -2.731274679565686e-05 -0.0001269522405928307
0.22085485519453402 0.22091866239618485 -8.554377256484005e-05 2.1736570913980415e-05
0.2497604726486298 0.2517855238437473 -0.0010188004544684688 -0.0010062507406491206
0.31077338967731594 0.3094103292191732 -0.0004558358930779642 0.0018188963512206133
0.40769399399783474 0.37074102406536924 0.007229303156309454 0.029723666776155976
0.6290883814601819 0.4605715772551135 0.04484878090056639 0.1236680233045019
1.0902883477428036 0.5828470492923211 0.16652604199824536 0.3409152564522371
1.844246159838364 0.7100597406874051 0.4324126192628839 0.7017737998880753
2.7759846119807294 0.8271724313138181 0.780064176143796 1.1687480045231151
3.907972174308461 0.97177483831988 1.2401728574414141 1.6960244785471674
5.235489702101265 1.1429971411922044 1.8084527774956345 2.2840397834134265
6.729346935556587 1.337408127917974 2.4652753996337076 2.926663408004906
8.329066469230025 1.5593107742283752 3.1826794496195756 3.587076245382073
9.829567142908374 1.7943950695169122 3.856809123121965 4.178362950269495
11.045451234961698 2.0619583507242227 4.40834503476326 4.575147849474221
11.47505091314929 2.2406170096606575 4.5802584423075 4.654175461181131
9.172258869333081 1.3290992438521383 3.9834708067844 3.85968881869654
18.514886966132647 3.1877138810766823 7.719196580749608 7.607976504306361
9.172258869339661 1.329099243855387 3.9834708067863165 3.859688818697949
11.475050913143036 2.240617009654208 4.580258442307567 4.654175461181264
11.045451234949113 2.0619583507200367 4.408345034758628 4.575147849470444
9.829567142896138 1.7943950695142206 3.8568091231168458 4.178362950265079
8.329066469221026 1.559310774228895 3.182679449614623 3.5870762453775082
6.729346935547321 1.3374081279165173 2.4652753996298005 2.926663408001007
5.23548970209067 1.1429971411892703 1.808452777491762 2.2840397834096375
3.9079721743012064 0.9717748383212284 1.2401728574372948 1.6960244785426852
2.775984611971907 0.8271724313130338 0.7800641761401487 1.1687480045187244
1.8442461598311874 0.710059740686633 0.4324126192600839 0.7017737998844704
1.0902883477381238 0.5828470492908677 0.16652604199694315 0.34091525645031273
0.629088381458438 0.46057157725441145 0.04484878090021384 0.12366802330381271
0.4076939939971055 0.37074102406481757 0.007229303156252369 0.02972366677603559
0.3107733896763877 0.30941032921853484 -0.0004558358931620308 0.001818896351014781
0.24976047264790774 0.2517855238428004 -0.0010188004544324461 -0.0010062507404601777
0.2208548551941616 0.22091866239564584 -8.5543772547004e-05 2.1736571062822108e-05
0.21580892229015575 0.21596318727735558 -2.7312746775576475e-05 -0.00012695224042424925
0.21285268899703003 0.2128155075697694 8.769005666636644e-07 3.630452669384517e-05
0.16815077610954346 0.16809610852811502 9.355828646818439e-06 4.531175278166082e-05
0.35596274257850025 0.3566061051624193 -9.176254569887008e-05 -0.0005516000382201889
0.23051959577102837 0.23051959577102837 0.0 0.0
0.15454707161634024 0.15458756353996142 -2.3132080130809428e-06 -3.81787156080854e-05
0.20996261048250703 0.21013052628217171 -1.7166300389545342e-05 -0.00015074949927519027
0.2254361136388779 0.2247719898281261 8.236124818680239e-05 0.0005817625625650017
0.24050575766314297 0.2432043234447256 -0.0005122363207620261 -0.002186329460820603
0.28628957968644125 0.29231198337622977 -0.0015165757182687546 -0.004505827971519973
0.3878266427447349 0.37962998977990997 -0.0018379759839414129 0.010034628948766361
0.6790874451775618 0.5257904760492487 0.03947144682378265 0.11382552230453064
1.344739883735829 0.6962366088147637 0.2158492890981974 0.432653985822868
2.489358233084543 0.8822137448771648 0.6294365042100474 0.9777079839973306
4.007013501407429 1.0566223637547845 1.240632333069416 1.7097588045832273
5.865626512703949 1.2377044357003442 2.0673199097351254 2.5606021672684793
8.010053149064362 1.4406897759855102 3.0652791706759324 3.504084202402921
10.467318325827666 1.668671208813972 4.248708585164857 4.549938531848834
13.286315256675984 1.929228801607557 5.652710257917617 5.704376197150809
16.388133386146258 2.2149815237639725 7.239647280493315 6.933504581888969
19.51684339906265 2.5226733249421773 8.855155698450485 8.139014375669987
22.238272505725703 2.8731794428691346 10.205804117741184 9.159288945115373
23.607647294274816 3.0009891254520378 10.945638735443422 9.661019433379355
21.83228872510079 2.9466549034257596 10.035073143683091 8.850560677991938
26.68606329320796 6.641172323521936 10.576570792150202 9.468320177535807
21.83228872511026 2.9466549034306038 10.035073143685887 8.850560677993778
23.6076472942707 3.000989125449341 10.945638735442566 9.661019433378785
22.238272505716107 2.8731794428719732 10.205804117733896 9.15928894511024
19.516843399041477 2.522673324938786 8.855155698440207 8.13901437566248
16.388133386128487 2.214981523762671 7.239647280484016 6.9335045818818015
13.286315256657833 1.929228801605151 5.652710257908906 5.704376197143777
10.4673183258127 1.668671208813862 4.248708585156903 4.549938531841936
8.010053149048954 1.4406897759839792 3.0652791706686866 3.5040842023962893
5.865626512688071 1.2377044356982636 2.067319909728148 2.5606021672616595
4.007013501394718 1.0566223637540186 1.240632333063731 1.7097588045769687
2.4893582330746913 0.8822137448759696 0.6294365042060948 0.977707983992628
1.3447398837307196 0.6962366088133082 0.21584928909672718 0.43265398582068326
0.6790874451751888 0.5257904760483152 0.03947144682330432 0.11382552230356946
0.38782664274351675 0.3796299897789008 -0.0018379759840247275 0.010034628948640583
0.2862895796856057 0.29231198337516273 -0.0015165757182225132 -0.0045058279713344924
0.24050575766263788 0.24320432344412846 -0.0005122363207463323 -0.0021863294607442412
0.22543611363856084 0.22477198982775043 8.236124818655249e-05 0.0005817625626238081
0.20996261048218107 0.2101305262818489 -1.7166300389653115e-05 -0.00015074949927816952
0.1545470716161953 0.15458756353981778 -2.3132080122823343e-06 -3.8178715610207646e-05
0.23051959577054304 0.23051959577054304 0.0 0.0
0.14227666569059577 0.14227666569059577 0.0 0.0
0.13565792000347918 0.1356435437276831 9.041248211059367e-07 1.3472150974969511e-05
0.20033476115666426 0.2004111081345299 -6.248212958310522e-06 -7.009876490730029e-05
0.23124029518189718 0.2319068235295117 -9.724717019080821e-05 -0.0005692811774237046
0.2639868605695256 0.2654063137613793 -0.0003526395479949928 -0.0010668136438586832
0.3355963640284436 0.33591678111571144 -0.0018441623874435517 0.0015237453001759908
0.5514231067592724 0.48855060131856587 0.012841167018973525 0.0500313384217331
1.14370488022313 0.6799920181737805 0.14425533200771204 0.3194575300416378
2.3394830549528733 0.9122153064176133 0.5437236414570381 0.8835441070782208
4.216044331031036 1.138124193215736 1.332268176562498 1.745651961252802
6.52958809179991 1.337438886996875 2.35648320207874 2.8356660027242997
9.319652130009203 1.549357566763825 3.695563407459345 4.0747311557860355
12.559388419334786 1.7939254481078617 5.321765639677088 5.443697331549834
16.29261880473588 2.0767117258853043 7.247443608731127 6.9684634701194454
20.62256867106582 2.3991890338582578 9.553979417875334 8.66940021933223
25.415886582575958 2.744475887046978 12.14946196947144 10.521948726057538
30.511338152868042 3.1031717154073064 15.004277828468943 12.403888608991789
34.94131337778207 3.358416703116939 17.509698534990918 14.07319813967422
37.24191740583605 3.379738416989542 18.902567852596064 14.959611136250437
34.545250231067776 2.96724954050065 17.522877959494533 14.0551227310726
38.81044493875398 9.44064247318466 16.159343700438203 13.21045876513113
34.54525023107302 2.9672495405015864 17.522877959497166 14.055122731074265
37.24191740582448 3.379738416984651 18.90256785259193 14.959611136247899
34.941313377767784 3.3584167031185603 17.509698534981247 14.073198139667989
30.51133815284197 3.1031717154067047 15.0042778284536 12.40388860898166
25.415886582549422 2.7444758870447776 12.14946196945708 10.521948726047558
20.62256867104362 2.3991890338591877 9.553979417861942 8.66940021932249
16.292618804711754 2.076711725883695 7.2474436087183856 6.968463470109674
12.559388419310789 1.7939254481051 5.321765639665403 5.443697331540287
9.31965212998867 1.5493575667623913 3.695563407449183 4.074731155777095
6.52958809178125 1.3374388869957845 2.3564832020697737 2.8356660027156924
4.216044331017412 1.1381241932157267 1.3322681765558677 1.7456519612458172
2.3394830549440004 0.9122153064163903 0.5437236414536171 0.8835441070739934
1.1437048802184437 0.6799920181720595 0.14425533200657895 0.31945753003980504
0.5514231067573849 0.4885506013177889 0.012841167018634539 0.050031338420961254
0.33559636402760296 0.33591678111462014 -0.001844162387415419 0.0015237453003982045
0.2639868605691846 0.26540631376079254 -0.00035263954795888093 -0.0010668136436491728
0.23124029518144243 0.23190682352890982 -9.72471701740988e-05 -0.0005692811772933626
0.20033476115629933 0.2004111081341984 -6.2482129630419394e-06 -7.009876493601119e-05
0.13565792000333585 0.13564354372754145 9.041248209747978e-07 1.3472150973420913e-05
0.14227666569034086 0.14227666569034086 0.0 0.0
0.08319432427246752 0.08319432427246752 0.0 0.0
0.11285040546920998 0.11285040546920998 0.0 0.0
0.18498356834206228 0.1849717597336093 7.548168538369072e-07 1.105379159913707e-05
0.23363340417784995 0.23359401126456059 8.877836152653946e-07 3.850512967410047e-05
0.2890753791322854 0.2935193518448644 -0.0009218962010308581 -0.003522076511548041
0.4150598002955395 0.411876162304158 -0.000883827460845299 0.004067465452226792
0.8095889146129479 0.5960614067451396 0.05904369966069925 0.1544838082071092
1.7746067312266285 0.8457742671617591 0.3319314751723954 0.5969009888924747
3.5741963514177115 1.1183287966519446 1.041723676322266 1.4141438784435005
6.010477629333076 1.3492000135994728 2.075552073716679 2.585725542016926
9.216627077373984 1.585440826542475 3.6242045498045856 4.00698170102692
12.999798195966891 1.8377070177611199 5.540513124469467 5.621578053736303
17.39472961090531 2.130580280605931 7.842647279865896 7.4215020504334905
22.5080008928592 2.4757921635340985 10.597586021135196 9.4346227081899
28.413010685819128 2.868899888694788 13.849508019371596 11.69460277775274
35.1901891923873 3.2922403974133045 17.71742083472872 14.180527960245275
42.07375087532765 3.6457493288497327 21.66993035903319 16.758071187444735
48.29333163002008 3.777471464220753 25.49662807827557 19.01923208752374
51.37563002100363 3.511054388827344 27.628988452541268 20.23558717963501
47.85188967454462 3.046409964222058 25.703574130937128 19.10190557938544
52.22276020344841 12.133014099752524 22.717491318361652 17.372254785334217
47.85188967453613 3.046409964213052 25.703574130937447 19.10190557938564
51.37563002099978 3.5110543888344385 27.628988452534372 20.23558717963099
48.29333162998807 3.7774714642128213 25.496628078260404 19.019232087514837
42.073750875298714 3.6457493288527276 21.66993035901352 16.75807118743248
35.19018919235393 3.2922403974114887 17.717420834709483 14.180527960232947
28.41301068578397 2.8688998886904518 13.849508019353248 11.694602777740267
22.50800089283012 2.4757921635343814 10.597586021118078 9.434622708177667
17.39472961087566 2.1305802806047645 7.842647279849692 7.421502050421197
12.999798195934254 1.8377070177556298 5.540513124454554 5.621578053724073
9.216627077349987 1.585440826541027 3.6242045497927338 4.006981701016225
6.01047762931501 1.3492000135991913 2.075552073707782 2.5857255420080385
3.5741963514058717 1.118328796650921 1.041723676317071 1.4141438784378797
1.7746067312194123 0.8457742671602636 0.331931475169953 0.5969009888891967
0.8095889146094118 0.5960614067439599 0.059043699659841006 0.15448380820561022
0.41505980029472084 0.4118761623033232 -0.0008838274608334563 0.004067465452230967
0.28907537913161596 0.29351935184397904 -0.0009218962009954789 -0.0035220765113676664
0.23363340417756392 0.23359401126427093 8.877836126530423e-07 3.850512968031535e-05
0.18498356834184304 0.18497175973338947 7.548168536389339e-07 1.1053791599910286e-05
0.11285040546902009 0.11285040546902009 0.0 0.0
0.08319432427230299 0.08319432427230299 0.0 0.0
0.04578733511415545 0.04578733511415545 0.0 0.0
0.08887736110985561 0.08887736110985561 0.0 0.0
0.16556835200110923 0.16555769340681487 6.366593226293898e-07 1.002193497175889e-05
0.23329581825908705 0.23350777502075515 -2.9752821959884148e-05 -0.00018220393970827897
0.31798856956520893 0.3206034800134741 -0.0010870497069464784 -0.0015278607413188076
0.5359855348834069 0.49287270637570907 0.009192795107451012 0.03392003340024681
1.1641822100042385 0.7201972307601188 0.14272646865081817 0.3012585105933014
2.5785804602123954 1.0144672596126574 0.6310477529154404 0.9330654476842977
4.807300478878881 1.2845979926915303 1.5136870376347986 2.0090154485525518
8.01992175150533 1.5550600260589151 3.0110026027428525 3.4538591227035624
12.03827209117374 1.8285498653418597 5.015964836987282 5.193757388844603
16.84595948661778 2.127846387502563 7.532327346137693 7.185785752977526
22.4755375758691 2.475968458567869 10.579308055472554 9.420261061828676
29.067941518618436 2.8874491697968674 14.252880855977988 11.92761149284357
36.66590175734203 3.3704573480042495 18.549777405802562 14.745667003535225
45.24191738182357 3.858460305907761 23.521494051502007 17.86196302441381
54.36998415488728 4.196351966062807 29.082516414904838 21.091115773919626
62.086352785142736 4.129085635197606 34.00731684927665 23.949950300668476
65.59559162482678 3.54730641229754 36.5911038308132 25.45718138171604
61.57519154247111 3.2054544073806306 34.2849604240445 24.08477671104598
66.84356980594731 14.870282313199152 30.220895037741602 21.752392455006536
61.57519154247041 3.2054544073826037 34.28496042404282 24.08477671104499
65.59559162479805 3.5473064122875964 36.59110383080116 25.457181381709294
62.08635278512038 4.12908563520696 34.00731684925638 23.949950300657044
54.36998415484942 4.19635196606295 29.082516414880768 21.091115773905713
45.2419173817852 3.8584603059066995 23.52149405147882 17.861963024399696
36.665901757301135 3.370457348004145 18.549777405777686 14.74566700351929
29.06794151857997 2.8874491697930753 14.252880855957306 11.927611492829591
22.475537575830423 2.47596845856581 10.579308055451225 9.42026106181339
16.845959486585738 2.127846387504727 7.5323273461183575 7.1857857529626505
12.038272091142955 1.8285498653395589 5.015964836971759 5.193757388831638
8.019921751482828 1.5550600260579548 3.01100260273166 3.4538591226932147
4.807300478862736 1.2845979926879747 1.5136870376288327 2.009015448545928
2.578580460202372 1.014467259611242 0.6310477529114953 0.9330654476796338
1.1641822099993566 0.7201972307587536 0.14272646864946592 0.301258510591138
0.5359855348815401 0.49287270637443 0.009192795107262213 0.0339200333998478
0.31798856956458393 0.3206034800125646 -0.0010870497069099371 -0.00152786074107072
0.23329581825877443 0.23350777502044984 -2.975282196250495e-05 -0.0001822039397129255
0.16556835200089332 0.16555769340660542 6.366593221431451e-07 1.0021934965748754e-05
0.08887736110970963 0.08887736110970963 0.0 0.0
0.04578733511407377 0.04578733511407377 0.0 0.0
0.023645201836173788 0.023645201836173788 0.0 0.0
0.06629275058124126 0.06629275058124126 0.0 0.0
0.14443790044332147 0.1444319263002778 3.662909033654852e-07 5.6078521402870744e-06
0.2322819196342274 0.23237001349306108 -1.7714125897203995e-05 -7.037973293653576e-05
0.3604226687676417 0.3661706312400827 -0.0017542500162505072 -0.0039937124561905315
0.7014126500027891 0.5645626857531987 0.03420553524754409 0.10264442900204614
1.6357691306765851 0.8543814861116081 0.29106836081954995 0.49031928374542677
3.400454875899772 1.1508693304922073 0.9162384018675532 1.3333471435400113
6.223177548437409 1.4508608200402444 2.142962662757108 2.629354065640055
10.092604965469345 1.7557340843943368 4.0024514045494115 4.334419476525599
14.980013513105346 2.0759243231466025 6.512277085605598 6.391812104353139
20.86591250906947 2.42943443640466 9.67508859853009 8.761389474134727
27.817759600211645 2.8402771174479318 13.541514429971157 11.435968052792555
35.80574586784142 3.3239796059655093 18.038909738605525 14.442856523270398
45.18805405951673 3.880584612245276 23.49668534480213 17.810784102469327
55.78194275769208 4.4490428219185425 29.8041442859034 21.52875564987015
66.69450580817723 4.759458697220355 36.53719986770143 25.397847243255452
75.98189883045968 4.441451129827637 42.74103043218987 28.799417268442213
80.25811350631092 3.5730523930015488 46.09393773146423 30.59112338184516
75.88457479161455 3.3878432606299675 43.37061620349242 29.126115327492148
82.33755574231938 17.628887975195383 38.31122651906002 26.397441248063988
75.88457479159894 3.3878432606203757 43.370616203488474 29.126115327490062
80.25811350629513 3.573052393012166 46.09393773144699 30.591123381835974
75.98189883042201 4.441451129827886 42.74103043216512 28.799417268428957
66.69450580813432 4.759458697222001 36.537199867672804 25.397847243239514
55.78194275763741 4.4490428219104095 29.804144285873917 21.528755649853075
45.18805405947349 3.8805846122467935 23.4966853447743 17.8107841024524
35.805745867788076 3.3239796059572253 18.038909738578067 14.442856523252777
27.817759600168706 2.8402771174485397 13.541514429945321 11.435968052774843
20.865912509028753 2.4294344364017504 9.675088598508266 8.761389474118731
14.98001351306968 2.07592432314508 6.512277085586583 6.391812104338008
10.092604965441714 1.7557340843927147 4.002451404535551 4.33441947651345
6.223177548417111 1.450860820037274 2.1429626627485554 2.629354065631282
3.400454875887331 1.1508693304899085 0.9162384018628464 1.3333471435345767
1.6357691306697242 0.8543814861095281 0.2910683608175127 0.49031928374268235
0.7014126500000141 0.5645626857516843 0.034205535247096804 0.10264442900123341
0.36042266876701934 0.3661706312392721 -0.001754250016211487 -0.003993712456041329
0.23228191963382705 0.2323700134926679 -1.771412589933122e-05 -7.037973294148922e-05
0.14443790044319252 0.14443192630014906 3.662909033509835e-07 5.607852140109466e-06
0.06629275058103895 0.06629275058103895 0.0 0.0
0.02364520183612879 0.02364520183612879 0.0 0.0
0.011598895899501896 0.011598895899501896 0.0 0.0
0.047055078754431864 0.047055078754431864 0.0 0.0
0.1241586555733881 0.1241586555733881 0.0 0.0
0.23393861433622368 0.23434196551215236 -5.8439592982260524e-05 -0.00034491158294651077
0.42285687788202786 0.4173857090428912 0.000460809739930978 0.005010359099205823
0.9367774979344764 0.6686941212209458 0.08371505039171159 0.18436832632181904
2.1549037458781513 0.9697324886313404 0.4490911453418571 0.7360801119049545
4.336224151956209 1.2784748488998001 1.2978483528458669 1.7599009502105403
7.683944675059543 1.610280247437338 2.8091330267422734 3.264531400879928
12.252281578470468 1.9576153214188903 5.069741437880716 5.224924819170859
18.013524420411613 2.329291402230055 8.086843213130344 7.5973898050512165
25.019955791941243 2.7470037948312216 11.926047083343109 10.34690491376692
33.21967690224343 3.226479626771666 16.525544993925035 13.467652281546716
42.92748944208667 3.781723189994255 22.173202539288255 16.972563712804167
53.96471421054077 4.407804475642083 28.66873488742514 20.888174847473557
66.28208464252617 5.021294646887809 36.08931974760521 25.171470248033188
79.14693639041475 5.323304490267866 44.22502578843947 29.598606111707415
90.0399965836718 4.793623427032788 51.70341151113727 33.54296164550176
95.27460077542919 3.619862453105907 55.92090384214838 35.7338344801749
91.02371670433001 3.5400335605342357 53.18708212988674 34.29660101390904
99.19418600168123 20.356558046763602 47.50570657781563 31.331921377101985
91.02371670431151 3.5400335605276556 53.187082129878824 34.29660101390506
95.27460077540056 3.619862453106653 55.920903842128915 35.73383448016495
90.03999658363398 4.793623427038672 51.703411511108406 33.542961645486876
79.14693639036426 5.323304490268294 44.22502578840635 29.59860611168962
66.28208464247294 5.021294646890351 36.08931974756931 25.171470248013257
53.96471421047654 4.407804475630908 28.668734887391615 20.888174847454014
42.92748944203556 3.781723189996195 22.173202539255403 16.972563712783966
33.219676902189306 3.226479626767363 16.525544993894904 13.467652281527029
25.019955791892812 2.7470037948265924 11.926047083317444 10.346904913748793
18.013524420369603 2.3292914022267004 8.086843213108388 7.597389805034514
12.252281578438279 1.957615321417209 5.069741437864052 5.224924819157015
7.683944675036884 1.6102802474356728 2.809133026731506 3.2645314008697075
4.336224151940732 1.278474848897005 1.2978483528400793 1.7599009502036467
2.154903745869522 0.9697324886295949 0.4490911453388495 0.7360801119010779
0.9367774979308774 0.6686941212195179 0.08371505039089604 0.18436832632046302
0.4228568778811652 0.4173857090419403 0.00046080973993070906 0.005010359099294207
0.23393861433593144 0.23434196551188502 -5.843959298621234e-05 -0.00034491158296732734
0.12415865557320682 0.12415865557320682 0.0 0.0
0.04705507875430959 0.04705507875430959 0.0 0.0
0.011598895899464076 0.011598895899464076 0.0 0.0
0.00563253828737512 0.00563253828737512 0.0 0.0
0.0323212585446861 0.0323212585446861 0.0 0.0
0.1075601175265275 0.1075601175265275 0.0 0.0
0.24347650681040467 0.24441187533477754 -0.00013977540328617935 -0.0007955931210866876
0.5137983978641845 0.4749961072401856 0.008116080276737013 0.03068621034726218
1.2399441797659327 0.772808985308514 0.16259114493685606 0.3045440495205626
2.730982274632273 1.06555551152375 0.6474902729975175 1.0179364901110042
5.332675651628136 1.4019966208366081 1.7258257883290309 2.204853242462501
9.196539238224744 1.7658434142487824 3.52090047307063 3.909795350905334
14.467396685942918 2.1606024947154463 6.184868752383853 6.121925438843619
21.159907288517054 2.5939060760077446 9.757875267372071 8.808125945137231
29.262483087373926 3.0787481394287757 14.243062838399535 11.94067210954561
38.968930425752724 3.6395981961203256 19.82209536822611 15.507236861406277
50.0990245212058 4.274660416963997 26.297620101237072 19.526744003004737
62.90160614279858 4.935499707114059 33.99170019103308 23.974406244651423
76.98340978219666 5.531236073247008 42.682905839856645 28.76926786909299
91.4919067204524 5.8449339507583575 51.96372336411453 33.68324940557953
104.11708857863265 5.305291983362849 60.677026279466254 38.13477031580352
110.67720422550707 3.701358094508398 66.15671254122012 40.81913358977855
107.17134027112947 3.587467491923548 63.900627775701295 39.683245003504595
117.55816500693597 22.916916967402493 57.908487855698716 36.732760183834785
107.17134027110626 3.5874674919188747 63.90062777568893 39.68324500349841
110.67720422546836 3.701358094505996 66.15671254119582 40.81913358976655
104.11708857857502 5.305291983355846 60.677026279432596 38.13477031578652
91.49190672038935 5.84493395075433 51.96372336407565 33.683249405559415
76.98340978212876 5.531236073243796 42.68290583981462 28.76926786907031
62.90160614273375 4.93549970711268 33.99170019099249 23.974406244628568
50.09902452113886 4.274660416957577 26.297620101199122 19.526744002982163
38.968930425693145 3.6395981961187585 19.82209536819053 15.507236861383863
29.262483087316966 3.078748139422712 14.243062838369095 11.940672109525163
21.159907288469473 2.593906076004324 9.757875267346627 8.808125945118517
14.467396685905896 2.160602494712656 6.184868752364898 6.121925438828343
9.196539238197008 1.7658434142453974 3.520900473057889 3.9097953508937224
5.332675651610067 1.4019966208341619 1.725825788321432 2.204853242454472
2.73098227462224 1.0655555115225188 0.6474902729938578 1.0179364901058632
1.2399441797613822 0.7728089853072789 0.16259114493556534 0.3045440495185384
0.51379839786277 0.4749961072389126 0.008116080276659002 0.03068621034719853
0.24347650681001098 0.24441187533442116 -0.00013977540329033523 -0.0007955931211198849
0.10756011752627202 0.10756011752627202 0.0 0.0
0.03232125854463614 0.03232125854463614 0.0 0.0
0.005632538287375773 0.005632538287375773 0.0 0.0
0.0026729320128740606 0.0026729320128740606 0.0 0.0
0.022207906470854702 0.022207906470854702 0.0 0.0
0.09840098292398253 0.09840098292398253 0.0 0.0
0.2693113709504652 0.27092745107615634 -0.00039084426495885737 -0.0012252358607324383
0.6547810440849583 0.5595147690503045 0.027627265000581887 0.06763901003407224
1.5863407566462122 0.8622578849142783 0.2588302762801958 0.46525259545173814
3.3829465800109966 1.1646671256297312 0.9026785297110695 1.3156009246701954
6.364425284343493 1.519628121902916 2.18167974300227 2.6631174194383087
10.766501079462167 1.918944082033952 4.286140957651626 4.5614160397765895
16.730772320537284 2.367017827022925 7.341966648290915 7.021787845223448
24.351254994217328 2.866032483710913 11.461845029684524 10.023377480821889
33.71742922560458 3.432030368930336 16.74617444062893 13.53922441604532
44.684039247771516 4.078999931682686 23.040619706242875 17.564419609845977
57.55539134806822 4.784409219248067 30.684165673878503 22.086816454941648
72.09068703491496 5.481710424960509 39.543853765340735 27.065122844613732
87.78380036975027 6.013893422266912 49.41844447077802 32.351462476705294
103.60904635455816 6.197327525017464 59.77056120693088 37.64115762260983
117.82014024265841 5.8575008230066095 69.51669672428545 42.445942695366305
126.34652469191929 4.15223527252581 76.4201990458255 45.774090373567944
124.43938163814464 3.343387358104124 75.7032839684121 45.39271031162846
137.55499240017141 24.33800351282013 70.35805526231324 42.85893362503803
124.43938163812575 3.343387358106419 75.70328396839774 45.392710311621634
126.3465246918737 4.1522352725254725 76.42019904579512 45.77409037355317
117.82014024259757 5.857500823007713 69.51669672424386 42.44594269534605
103.60904635448978 6.1973275250174815 59.77056120688541 37.64115762258682
87.78380036967883 6.013893422268928 49.41844447072982 32.351462476680105
72.09068703483811 5.48171042495502 39.543853765294585 27.065122844588487
57.5553913479966 4.784409219247197 30.68416567383362 22.086816454915798
44.684039247701925 4.078999931680048 23.040619706201227 17.564419609820618
33.71742922554087 3.432030368925803 16.746174440593144 13.53922441602192
24.35125499416532 2.8660324837094513 11.461845029654818 10.023377480801065
16.73077232049599 2.367017827019992 7.341966648269285 7.0217878452067195
10.766501079431816 1.9189440820317274 4.286140957636595 4.561416039763489
6.364425284322816 1.5196281218999845 2.18167974299345 2.663117419429384
3.3829465799989764 1.1646671256281438 0.9026785297063998 1.315600924664432
1.5863407566404977 0.8622578849126192 0.2588302762785269 0.46525259544935127
0.6547810440829359 0.5595147690490563 0.027627265000299276 0.06763901003358051
0.2693113709500773 0.2709274510755738 -0.0003908442649380729 -0.001225235860558455
0.09840098292379926 0.09840098292379926 0.0 0.0
0.022207906470821638 0.022207906470821638 0.0 0.0
0.002672932012874318 0.002672932012874318 0.0 0.0
0.0007860336275240063 0.0007860336275240063 0.0 0.0
0.016098779429468104 0.016098779429468104 0.0 0.0
0.1022511140529292 0.1022511140529292 0.0 0.0
0.3267591870721971 0.3253134124569746 -2.617367216018753e-05 0.0014719482873827017
0.859124907409631 0.6806911190683371 0.05843777413883836 0.11999601420245533
2.0186122034505565 1.045392214527199 0.36348030565260736 0.60973968327075
4.123086605103888 1.442449823314099 1.1206284233608743 1.5600083584289142
7.525762535742505 1.946919040722496 2.5587409300173056 3.0201025650027016
12.501929591176735 2.569007562099578 4.87146455675296 5.061457472324201
19.308802177201358 3.3435931031542347 8.25726230405289 7.707946769994226
28.082302042094952 4.302859331980422 12.832337081532962 10.947105628581562
38.788515474396206 5.46693234185369 18.562520158604137 14.759062973938379
51.59109511474318 6.826593629081927 25.638609711813324 19.12589177384794
66.45599790940648 8.34705166435352 34.0812360135726 24.02771023148032
83.07271291564467 9.832121008119469 43.84981639324675 29.390775514278456
100.61670930164136 10.92734245094159 54.66563848703306 35.02372836366671
117.57511309667879 11.21332307482955 65.76590499824265 40.595885023606584
132.0813736200884 10.540920214430077 75.98125130615742 45.559202099501
142.35185437794894 9.504673950940703 83.64734261739915 49.19983780960914
138.548406640747 3.3832844444824968 85.17043173222633 49.994690464038115
196.41636116470124 65.38469506617378 82.47144218354893 48.56022391497853
138.54840664071088 3.383284444468396 85.17043173221144 49.994690464031066
142.35185437790548 9.504673950948423 83.64734261736402 49.19983780959296
132.08137362002304 10.54092021443544 75.98125130610984 45.55920209947788
117.57511309659051 11.213323074816367 65.76590499819244 40.59588502358174
100.61670930155626 10.927342450935662 54.66563848698083 35.023728363639705
83.07271291555337 9.832121008106018 43.84981639319611 29.39077551425128
66.45599790931718 8.347051664340825 34.081236013523565 24.027710231452797
51.59109511466578 6.826593629078584 25.638609711767025 19.125891773820207
38.7885154743275 5.466932341850932 18.56252015856381 14.759062973912744
28.08230204203801 4.302859331979045 12.832337081500029 10.947105628558946
19.308802177154234 3.343593103149024 8.2572623040289 7.707946769976313
12.501929591142604 2.5690075620958543 4.8714645567364085 5.061457472310341
7.525762535718168 1.9469190407176118 2.558740930007435 3.0201025649931217
4.123086605089741 1.4424498233112764 1.1206284233556614 1.5600083584228048
2.018612203443175 1.0453922145245504 0.3634803056507777 0.6097396832678457
0.8591249074069611 0.6806911190668578 0.05843777413839239 0.11999601420171097
0.32675918707149915 0.3253134124562566 -2.6173672153487378e-05 0.0014719482873961007
0.10225111405268585 0.10225111405268585 0.0 0.0
0.01609877942945928 0.01609877942945928 0.0 0.0
0.000786033627506059 0.000786033627506059 0.0 0.0
CELL_DATA 800
SCALARS Stress float 6
LOOKUP_TABLE default
160.34507830026956 -512.5420908497681 -182.1952799010429 -108.34615070847022 0.0 0.0
399.17329784888864 -54.479459569745885 116.40887293765239 57.15808392061827 0.0 0.0
398.2551816981502 9.18791230032981 122.03674219463925 -3.7010660498682406 0.0 0.0
458.1817887572786 -10.96372093278552 139.58152488086114 -14.235056433677892 0.0 0.0
533.2457013929585 -16.012500168579763 188.83680289262696 -11.46682362248155 0.0 0.0
604.6094746698373 -10.138288306128494 259.24071701587417 -9.910576558077183 0.0 0.0
673.7797076665745 -2.9728595051812974 319.39268974249757 -10.124735161115469 0.0 0.0
743.1734487962431 11.99075918738938 370.84615236532204 -11.406764859822127 0.0 0.0
814.2476131767612 34.07190507115263 420.2983519150312 -12.880830629951666 0.0 0.0
887.2471808278178 62.51555299200666 471.9595580364095 -13.935529308365773 0.0 0.0
961.1158146062289 95.43265841583298 525.8198126099068 -14.419730235708153 0.0 0.0
1034.7607482274686 131.8194974610735 581.1639813625707 -14.358520101309963 0.0 0.0
1108.141993188323 170.18774570349711 637.2714334153072 -14.128112907001684 0.0 0.0
1182.0394433489294 211.09076224395966 694.823222632235 -13.846043194496493 0.0 0.0
1257.1764261918686 255.41508700820452 754.657136673374 -13.409462015039326 0.0 0.0
1333.00144815324 302.93146908128153 816.4060848661936 -12.626793899949277 0.0 0.0
1407.2195796959884 352.0729536149278 878.1528661375585 -11.31953759665845 0.0 0.0
1476.7856345828527 400.67586354614247 937.2796450872027 -9.5829199381578 0.0 0.0
1539.1208774288111 447.1982313318087 991.6745921824192 -8.39230475362631 0.0 0.0
1616.4256584211712 515.8211910546775 1064.1031314509855 -11.827118142824562 0.0 0.0
1616.425658420545 515.8211910540632 1064.1031314504705 11.827118142885578 0.0 0.0
1539.120877427839 447.19823133087436 991.6745921816366 8.392304753682822 0.0 0.0
1476.785634582955 400.6758635463195 937.2796450871172 9.582919938266322 0.0 0.0
1407.2195796952628 352.0729536143017 878.1528661368333 11.319537596665487 0.0 0.0
1333.0014481513635 302.93146907950484 816.4060848647127 12.626793899923424 0.0 0.0
1257.1764261908388 255.41508700729267 754.6571366725808 13.409462014989586 0.0 0.0
1182.0394433497718 211.09076224497505 694.8232226327534 13.846043194626294 0.0 0.0
1108.1419931891262 170.18774570449364 637.2714334158055 14.128112907131497 0.0 0.0
1034.760748226906 131.81949746072087 581.1639813621314 14.35852010127087 0.0 0.0
961.1158146061398 95.43265841596977 525.8198126097764 14.419730235637097 0.0 0.0
887.2471808267989 62.51555299121702 471.9595580357083 13.935529308313797 0.0 0.0
814.2476131764306 34.071905071080195 420.298351914768 12.880830629952122 0.0 0.0
743.1734487958088 11.990759187214621 370.8461523650159 11.406764859776626 0.0 0.0
673.7797076660308 -2.972859505454892 319.3926897420862 10.124735161101599 0.0 0.0
604.6094746696748 -10.138288306007667 259.2407170156691 9.910576558002642 0.0 0.0
533.2457013927883 -16.012500168469558 188.8368028924604 11.46682362248548 0.0 0.0
458.1817887570979 -10.963720932707822 139.58152488081316 14.235056433688397 0.0 0.0
398.25518169792394 9.18791230027207 122.03674219455718 3.70106604990594 0.0 0.0
399.1732978489532 -54.47945956954487 116.4088729376956 -57.158083920605335 0.0 0.0
160.34507830079883 -512.5420908493012 -182.19527990054394 108.34615070805904 0.0 0.0
61.28326606826312 -541.8340040686069 -241.64787587819825 -153.79603371899464 0.0 0.0
256.86708107165117 -40.992878197971635 64.76708161786692 10.964733515463209 0.0 0.0
349.0202529255776 28.03164130482804 113.11507814279376 -10.1035965596096 0.0 0.0
421.43509255256424 -8.54156962241895 125.15036126032928 -34.04521283384611 0.0 0.0
504.3373917066567 -16.807933182696498 167.2936349332214 -32.53955768728714 0.0 0.0
580.4158693630972 -11.298083049380832 237.66821895862373 -29.29767842626658 0.0 0.0
653.476723149244 -4.132609842094354 303.5115354018813 -29.871059394064545 0.0 0.0
723.8782103053011 10.295253424320684 358.2659974223317 -31.815594876738977 0.0 0.0
793.8221311155727 31.015277779957607 407.74129661268415 -34.078974680685754 0.0 0.0
864.0468163743567 57.04261785284915 457.22692353292365 -35.44382790772965 0.0 0.0
933.8121439717588 86.57369157039068 507.5043198036097 -35.632981700376575 0.0 0.0
1002.7428000348759 118.26680337134435 558.2086788636542 -35.01198207832341 0.0 0.0
1071.0533137054754 152.42223416598836 609.7030482642164 -34.10458162256083 0.0 0.0
1139.8445596822085 188.94686273275863 662.5388900818242 -33.14175011195056 0.0 0.0
1209.457693540127 228.20167068750126 717.1030195386638 -31.918367413820864 0.0 0.0
1279.3769098937616 270.14307637407865 773.1347460180294 -30.014653655709868 0.0 0.0
1348.2343736361745 314.0249592415073 829.5730931438354 -27.186431186073413 0.0 0.0
1414.4058857726195 359.16709147615836 885.2419080601278 -23.854953826789806 0.0 0.0
1481.2281496795508 410.27021030936163 944.0466270469476 -21.19875268355349 0.0 0.0
1530.403361359564 450.421258106531 988.5420219346825 -18.70212079276563 0.0 0.0
1530.4033613596248 450.4212581066093 988.5420219347386 18.70212079282147 0.0 0.0
1481.228149680174 410.27021031003176 944.0466270473744 21.19875268367882 0.0 0.0
1414.4058857722712 359.167091475883 885.2419080598452 23.85495382687534 0.0 0.0
1348.2343736356263 314.02495924104176 829.5730931433777 27.186431186041332 0.0 0.0
1279.3769098931955 270.1430763736301 773.1347460174874 30.014653655794426 0.0 0.0
1209.4576935401547 228.20167068765835 717.1030195386068 31.918367413803374 0.0 0.0
1139.8445596818785 188.9468627325957 662.5388900815348 33.14175011208304 0.0 0.0
1071.0533137054042 152.4222341661098 609.7030482640708 34.10458162260409 0.0 0.0
1002.7428000343162 118.2668033709611 558.2086788632106 35.011982078173645 0.0 0.0
933.8121439714164 86.57369157026642 507.50431980332735 35.6329817003611 0.0 0.0
864.0468163745842 57.04261785332801 457.22692353302216 35.44382790770501 0.0 0.0
793.8221311154341 31.015277780070818 407.74129661258473 34.078974680710175 0.0 0.0
723.8782103041003 10.295253423345756 358.2659974215372 31.81559487669305 0.0 0.0
653.4767231483262 -4.132609842767948 303.51153540122647 29.871059393971947 0.0 0.0
580.415869362855 -11.29808304932342 237.6682189583662 29.29767842628965 0.0 0.0
504.3373917063874 -16.807933182662822 167.2936349330443 32.53955768726975 0.0 0.0
421.43509255222193 -8.541569622617342 125.15036126017417 34.04521283367825 0.0 0.0
349.02025292537496 28.031641304632792 113.11507814267475 10.103596559521849 0.0 0.0
256.8670810717613 -40.99287819760881 64.76708161801156 -10.964733515550362 0.0 0.0
61.28326606852329 -541.834004068312 -241.64787587787683 153.79603371874447 0.0 0.0
12.201424699759997 -547.0998362670148 -261.2734396237048 -168.1240830289917 0.0 0.0
147.19055612915824 -34.73727059405569 33.73598566053075 -42.40383300876522 0.0 0.0
283.9098595679384 31.823370591292125 94.71996904776913 -33.00205360254327 0.0 0.0
374.34981783763715 -0.35995282810924456 112.47245787261656 -53.25131396537614 0.0 0.0
466.0042266443182 -15.397925226312207 146.3917052579918 -55.77743358608548 0.0 0.0
552.9731178628788 -14.386212965511904 211.87949403972232 -50.686886291963255 0.0 0.0
628.9764452486424 -4.427720384825193 284.23644947774346 -49.9307179475922 0.0 0.0
700.1977997311642 8.650251077539174 342.5133186288891 -52.171842426663765 0.0 0.0
769.4954770733925 28.05305199521868 392.90855267098647 -54.844201039407665 0.0 0.0
836.9211175312104 51.37872856453327 440.30940486299494 -56.24738854635897 0.0 0.0
902.673500185143 77.21923694227193 486.95673082064945 -56.08683887587215 0.0 0.0
966.8184730571788 104.9708600866202 533.3875314756224 -54.90128446386165 0.0 0.0
1030.4313972222571 134.4263790385648 580.2276026947219 -53.49614133015848 0.0 0.0
1093.9561992698036 166.35269300744284 628.1669198272933 -51.92516151024416 0.0 0.0
1157.8487238627479 200.36983324431242 677.2848412473352 -49.9462351090384 0.0 0.0
1221.8752897753823 236.53535168393404 727.5053099539186 -47.10532725337887 0.0 0.0
1285.5373689599642 275.11891191178296 778.6940892645714 -43.164633144276664 0.0 0.0
1349.6521831664859 317.9932405147663 832.1598324632745 -38.56528627162171 0.0 0.0
1409.485216531315 361.6290011270534 883.8020438763625 -33.08410057562842 0.0 0.0
1451.3254472336214 393.470237603661 920.5318986416684 -24.710792472557866 0.0 0.0
1451.3254472332887 393.47023760334116 920.5318986413237 24.71079247267172 0.0 0.0
1409.4852165311072 361.6290011269028 883.80204387614 33.08410057573644 0.0 0.0
1349.6521831655155 317.99324051385753 832.1598324625338 38.56528627169513 0.0 0.0
1285.5373689590158 275.1189119108993 778.6940892638186 43.16463314419937 0.0 0.0
1221.8752897738996 236.5353516825443 727.505309952876 47.10532725338409 0.0 0.0
1157.848723862065 200.36983324371946 677.2848412468398 49.94623510888643 0.0 0.0
1093.9561992697672 166.35269300758497 628.1669198272033 51.925161510350236 0.0 0.0
1030.4313972221153 134.4263790386101 580.2276026945893 53.4961413302225 0.0 0.0
966.8184730574958 104.97086008712824 533.3875314758875 54.90128446376071 0.0 0.0
902.6735001855063 77.2192369428449 486.95673082091315 56.086838875803736 0.0 0.0
836.9211175310585 51.378728564588485 440.30940486286374 56.24738854626267 0.0 0.0
769.4954770737138 28.053051995796594 392.90855267116325 54.844201039345144 0.0 0.0
700.197799731336 8.650251077996558 342.5133186289691 52.17184242660523 0.0 0.0
628.976445248441 -4.42772038472571 284.2364494775154 49.93071794758512 0.0 0.0
552.9731178625889 -14.386212965484432 211.8794940394647 50.686886291925674 0.0 0.0
466.004226643774 -15.397925226654674 146.39170525766755 55.77743358598927 0.0 0.0
374.3498178373834 -0.3599528282570592 112.47245787250466 53.251313965224014 0.0 0.0
283.90985956786335 31.82337059111358 94.71996904769306 33.00205360249416 0.0 0.0
147.19055612937655 -34.737270593596115 33.73598566073412 42.403833008555985 0.0 0.0
12.201424699940986 -547.0998362666929 -261.2734396234064 168.1240830288549 0.0 0.0
-6.007594019868151 -533.1067622777935 -254.7882313041227 -170.39176293145152 0.0 0.0
86.35998225365213 -36.025017029158164 15.100489567348188 -87.58781551806341 0.0 0.0
222.17921510025113 29.731305115323458 75.57315606467236 -63.17582231396343 0.0 0.0
322.88938583267793 6.580327732268542 98.83284925286509 -74.10218530014052 0.0 0.0
417.9988691723062 -12.750210241597966 126.15779057707839 -80.92061852190821 0.0 0.0
514.275644545698 -15.514251261321569 183.75640674740805 -74.13795919208768 0.0 0.0
597.4891715405838 -6.156230202409166 258.6309385208679 -70.81440561489205 0.0 0.0
671.9018554614996 7.625663948022822 323.27114074663615 -72.60885577861816 0.0 0.0
740.3868138097073 24.94916927200547 374.94137038182964 -75.15127500581418 0.0 0.0
805.2491266694321 45.483508843351885 420.74696195138574 -76.35281539326832 0.0 0.0
867.1996403774575 67.73580398264487 464.073773510498 -75.78704430184199 0.0 0.0
927.0436731263571 91.40968929058441 506.45065559544884 -74.12048932726434 0.0 0.0
985.5365646904655 116.4836270915913 548.6038685850272 -72.22165382401195 0.0 0.0
1044.079823746355 143.5564324853246 591.6740339989739 -70.17876071910419 0.0 0.0
1102.348023432405 172.08028986860057 635.2731197879067 -67.55657237117548 0.0 0.0
1160.156832247737 202.45015441979504 679.5123111036062 -63.94035085682669 0.0 0.0
1218.8493234803923 235.83043996226857 725.617302533648 -59.24082362488299 0.0 0.0
1278.064288249712 273.2020949473992 773.892336251068 -53.3330893444311 0.0 0.0
1332.9411403781182 310.7430414223159 820.0316221228812 -44.83062642581445 0.0 0.0
1372.1745977905039 338.27441157905287 853.3157742767191 -31.076145666486724 0.0 0.0
1372.1745977908395 338.2744115794344 853.3157742769819 31.076145666736426 0.0 0.0
1332.9411403786446 310.7430414229111 820.03162212324 44.83062642596534 0.0 0.0
1278.0642882500354 273.2020949478087 773.8923362513345 53.33308934452104 0.0 0.0
1218.8493234807283 235.83043996267273 725.6173025339631 59.240823624826504 0.0 0.0
1160.1568322482485 202.45015442042617 679.5123111039218 63.94035085683942 0.0 0.0
1102.3480234322537 172.0802898685457 635.2731197876775 67.55657237107427 0.0 0.0
1044.0798237461652 143.5564324852846 591.6740339988513 70.17876071911496 0.0 0.0
985.536564689489 116.48362709074314 548.6038685843564 72.22165382394391 0.0 0.0
927.0436731248312 91.40968928919133 506.4506555943448 74.12048932713992 0.0 0.0
867.199640376558 67.73580398193172 464.0737735098271 75.78704430183748 0.0 0.0
805.2491266694581 45.483508843648465 420.7469619513616 76.35281539330823 0.0 0.0
740.3868138094473 24.949169272005747 374.9413703816161 75.15127500582489 0.0 0.0
671.9018554609847 7.625663947763655 323.2711407462497 72.6088557785179 0.0 0.0
597.4891715400421 -6.156230202684014 258.63093852042056 70.81440561483346 0.0 0.0
514.275644545388 -15.514251261295097 183.75640674715018 74.13795919202032 0.0 0.0
417.9988691721953 -12.750210241134912 126.15779057714607 80.92061852195506 0.0 0.0
322.8893858325047 6.580327732077801 98.83284925275723 74.10218530009965 0.0 0.0
222.17921510031115 29.731305115410194 75.5731560647164 63.175822313910054 0.0 0.0
86.35998225381522 -36.02501702875277 15.100489567518729 87.58781551791397 0.0 0.0
-6.00759401975435 -533.1067622775367 -254.78823130386183 170.391762931326 0.0 0.0
-9.694573753838156 -507.9818140144977 -234.1040110154069 -168.28525586653757 0.0 0.0
51.51946372906677 -38.33676694790148 3.954809034349584 -122.73437449303529 0.0 0.0
168.85415177945308 24.77027657037911 58.08732850494965 -93.64608721853006 0.0 0.0
268.4895361891641 10.598729295738892 83.72537924060958 -96.43821023044896 0.0 0.0
360.6659397728928 -7.850096463464257 107.24717320130526 -105.33859583316244 0.0 0.0
464.25697461112065 -15.706139785302309 154.3885548748459 -100.73781139249608 0.0 0.0
558.3481582619721 -8.476604009283841 227.27444979870222 -93.73008364832553 0.0 0.0
637.2501001375758 6.148721295428469 298.38261309023414 -93.14301368755673 0.0 0.0
705.7779866630734 21.94173813175471 353.06962720155377 -95.0557926432393 0.0 0.0
768.3540162042638 39.3781178010506 397.9831687376573 -95.81217939836125 0.0 0.0
826.8816839047888 58.09404788835213 438.4767269098851 -94.774339660453 0.0 0.0
882.3098130854268 77.70336684862971 476.85144722720645 -92.62124395893285 0.0 0.0
936.0893472029973 98.40711806543703 514.5839479837724 -90.3823512712075 0.0 0.0
989.0315827688346 120.61494628210076 552.4809370038773 -87.8709650725313 0.0 0.0
1041.7479623895786 143.86516543434422 590.7095804548368 -84.69871905896234 0.0 0.0
1094.2328468702065 168.3712908263032 629.3968036474936 -80.58124890561976 0.0 0.0
1146.528401693299 195.35484430831713 669.1375784309841 -75.27548203852957 0.0 0.0
1199.8907700260322 226.0934162876303 711.1879923166264 -68.23508732766457 0.0 0.0
1250.9418798439465 257.9903532122095 752.5938937894053 -57.02523014592403 0.0 0.0
1290.2534453301596 283.021616660349 784.6463099613228 -38.33470730480121 0.0 0.0
1290.2534453297326 283.02161665995385 784.646309961041 38.3347073049375 0.0 0.0
1250.9418798423442 257.99035321065844 752.5938937883262 57.02523014603736 0.0 0.0
1199.890770024618 226.09341628622946 711.1879923156075 68.23508732755046 0.0 0.0
1146.5284016924318 195.35484430751714 669.1375784303274 75.27548203852854 0.0 0.0
1094.2328468696103 168.371290825813 629.3968036470005 80.58124890568112 0.0 0.0
1041.747962389761 143.86516543472192 590.709580454913 84.6987190591719 0.0 0.0
989.031582769268 120.61494628277518 552.4809370041169 87.8709650727048 0.0 0.0
936.0893472034331 98.40711806608005 514.5839479840157 90.38235127128729 0.0 0.0
882.3098130852394 77.70336684861036 476.85144722704405 92.62124395886916 0.0 0.0
826.8816839045132 58.09404788826204 438.47672690960826 94.77433966040161 0.0 0.0
768.3540162039395 39.378117800911085 397.98316873740646 95.81217939824947 0.0 0.0
705.7779866620677 21.941738130891352 353.06962720087427 95.05579264304652 0.0 0.0
637.2501001372009 6.148721295269851 298.382613089879 93.14301368742053 0.0 0.0
558.3481582616093 -8.476604009306335 227.27444979838006 93.7300836483169 0.0 0.0
464.2569746106847 -15.70613978543448 154.38855487456033 100.73781139243843 0.0 0.0
360.6659397727222 -7.850096463192409 107.24717320132882 105.33859583305792 0.0 0.0
268.4895361890352 10.598729295663983 83.72537924054959 96.43821023036259 0.0 0.0
168.85415177952194 24.77027657051842 58.0873285050121 93.64608721832508 0.0 0.0
51.51946372917779 -38.33676694754279 3.9548090344904994 122.73437449278975 0.0 0.0
-9.694573753797343 -507.9818140142186 -234.1040110151456 168.28525586645924 0.0 0.0
-6.848176242842683 -475.43578903895497 -205.62077852451318 -164.90275414495213 0.0 0.0
29.988634339335885 -39.987590158049976 -2.9996867456142255 -148.8343074470416 0.0 0.0
123.15053939991283 18.822200503583346 42.591821971048844 -120.67545064095361 0.0 0.0
213.33226014431744 12.414987345037002 67.72019778822278 -118.63756273248137 0.0 0.0
298.5097104217017 -2.60580185931865 89.12057283691692 -127.84844161849202 0.0 0.0
398.32900718430176 -14.196374132340777 124.69008245231866 -128.91811841206328 0.0 0.0
503.4619747490143 -9.612406999048495 190.35004370210686 -119.69193236583908 0.0 0.0
591.6745863472803 3.207541140193655 264.5024259538927 -114.93597844595172 0.0 0.0
663.961745333246 18.57804264702986 325.29941547306504 -114.83034505349471 0.0 0.0
725.0848838777835 33.237881639293136 370.97841114127016 -114.6458662674109 0.0 0.0
780.1623812223239 48.18213325292972 409.08738975920625 -113.07147733946469 0.0 0.0
831.5865970816271 63.908135717969586 444.00530702559126 -110.47496344069866 0.0 0.0
880.4888976768367 80.39448438050708 477.4030760062115 -107.86251411972748 0.0 0.0
928.0743972427928 97.56078270156351 510.21768146359295 -105.11102497627894 0.0 0.0
975.420670777523 115.59739480413467 543.2076237602446 -101.54572855930489 0.0 0.0
1021.9015599919198 134.68749348117345 576.2309474367838 -96.84168787310132 0.0 0.0
1067.7889355818854 154.46146625664966 609.23335995537 -91.15168717924047 0.0 0.0
1114.274982936169 177.0584666981062 643.8163372192286 -83.43010048003713 0.0 0.0
1161.5113909841807 202.97948764217367 680.3082545024599 -70.12812451176644 0.0 0.0
1202.9933444213539 226.48368805220485 712.6223156952485 -47.0574251325547 0.0 0.0
1202.9933444214896 226.48368805236822 712.6223156953337 47.05742513264891 0.0 0.0
1161.5113909839126 202.9794876419823 680.3082545023585 70.12812451194702 0.0 0.0
1114.2749829358786 177.05846669788147 643.8163372190704 83.43010048006497 0.0 0.0
1067.7889355816528 154.46146625650795 609.2333599551716 91.15168717928387 0.0 0.0
1021.9015599919128 134.68749348128412 576.230947436696 96.84168787316858 0.0 0.0
975.4206707775901 115.59739480437679 543.2076237602225 101.54572855939733 0.0 0.0
928.0743972428054 97.56078270178176 510.2176814635699 105.11102497641409 0.0 0.0
880.48889767651 80.39448438038727 477.4030760059812 107.86251411982488 0.0 0.0
831.5865970803212 63.908135716779185 444.00530702466267 110.47496344064274 0.0 0.0
780.1623812217778 48.18213325263537 409.0873897588142 113.07147733952704 0.0 0.0
725.084883877392 33.237881639025915 370.9784111409225 114.64586626722411 0.0 0.0
663.9617453329299 18.578042646937917 325.2994154727855 114.83034505342177 0.0 0.0
591.6745863468788 3.20754114008745 264.5024259535393 114.93597844593188 0.0 0.0
503.4619747484357 -9.612406999299445 190.35004370166666 119.69193236578397 0.0 0.0
398.32900718385747 -14.196374132461003 124.6900824520853 128.91811841196537 0.0 0.0
298.5097104214882 -2.605801859295468 89.12057283686431 127.84844161838836 0.0 0.0
213.33226014426197 12.414987345214225 67.7201977882607 118.63756273230698 0.0 0.0
123.15053939988188 18.822200503496877 42.591821971013616 120.67545064065257 0.0 0.0
29.988634339378056 -39.98759015795869 -2.9996867455741927 148.8343074468238 0.0 0.0
-6.848176242786074 -475.4357890386071 -205.62077852422686 164.9027541449131 0.0 0.0
-1.2205856069575916 -436.96417437208737 -173.00167606196328 -161.47133308284072 0.0 0.0
14.412040338809472 -41.59504179916942 -8.15495264636063 -167.06093897281102 0.0 0.0
82.80202257748141 13.069172682878307 28.76135857810791 -142.70677132094403 0.0 0.0
158.7117741683436 13.74003362197394 51.73241875940809 -138.92809313903356 0.0 0.0
232.89660352568808 1.2069522259173033 70.42540072454113 -148.03604028999243 0.0 0.0
321.2656907141309 -10.028739091066758 96.7680310166727 -155.7235901837596 0.0 0.0
430.0287026670751 -10.137689536909319 149.06964413658224 -148.94661535459605 0.0 0.0
530.0117042652741 0.5276817168713457 220.93887980906248 -139.32451671388878 0.0 0.0
609.4982366608726 13.981098993727764 287.0624660264542 -135.22770473677835 0.0 0.0
672.5263882276665 26.867101337822717 336.9725232597341 -133.10694571154343 0.0 0.0
724.7194264381612 38.0314610707436 374.0785118355386 -130.72322289194938 0.0 0.0
772.3882310744316 50.07630929884774 406.34997485536763 -127.68760337595785 0.0 0.0
816.5488577815798 62.320203305507114 435.7422342979147 -124.76548126417562 0.0 0.0
858.5703151898726 74.77305362712995 463.6835717894432 -121.81673834742833 0.0 0.0
899.7780819284625 87.27561525328215 490.9466829035071 -118.09364668743088 0.0 0.0
941.5731825980326 101.1991368629554 519.0931140755879 -112.98355638010464 0.0 0.0
980.8123631281433 114.18687965093093 545.4839172869547 -106.66213119323724 0.0 0.0
1018.6859401472781 127.14469561851246 571.0411633628596 -98.76953683949334 0.0 0.0
1061.3143234315285 144.85301122182327 601.0923905405463 -84.6131553523258 0.0 0.0
1107.0757250760942 167.22496024289103 634.8580673912384 -58.097294998310446 0.0 0.0
1107.0757250764664 167.2249602433368 634.8580673915335 58.09729499852311 0.0 0.0
1061.3143234325908 144.85301122304537 601.0923905412943 84.61315535265284 0.0 0.0
1018.6859401473142 127.14469561871084 571.0411633628717 98.76953683978181 0.0 0.0
980.8123631288828 114.186879651868 545.4839172874076 106.66213119344803 0.0 0.0
941.5731825982957 101.1991368634232 519.0931140757665 112.98355638026455 0.0 0.0
899.7780819288905 87.27561525391312 490.94668290381395 118.09364668757605 0.0 0.0
858.5703151902721 74.77305362774865 463.6835717897634 121.81673834753175 0.0 0.0
816.5488577815404 62.32020330568615 435.74223429788765 124.765481264291 0.0 0.0
772.3882310747144 50.076309299334014 406.34997485555374 127.6876033759377 0.0 0.0
724.7194264380244 38.031461070769566 374.078511835417 130.7232228918818 0.0 0.0
672.5263882273173 26.867101337653736 336.9725232594619 133.10694571145737 0.0 0.0
609.4982366604996 13.981098993610594 287.06246602615363 135.2277047367375 0.0 0.0
530.011704264727 0.5276817165432561 220.93887980860524 139.32451671381128 0.0 0.0
430.0287026664099 -10.1376895371237 149.0696441361987 148.9466153546758 0.0 0.0
321.26569071365776 -10.028739091130383 96.76803101650168 155.72359018369534 0.0 0.0
232.89660352542043 1.2069522257101495 70.42540072440532 148.03604028981357 0.0 0.0
158.7117741681973 13.740033621841933 51.73241875932558 138.92809313883322 0.0 0.0
82.8020225774275 13.069172682745402 28.76135857805187 142.70677132084364 0.0 0.0
14.412040338790746 -41.59504179909736 -8.15495264634457 167.06093897268278 0.0 0.0
-1.2205856069013308 -436.96417437177644 -173.00167606170345 161.47133308272862 0.0 0.0
3.3661384738239875 -394.0704896312968 -140.96238008875736 -158.68648162140505 0.0 0.0
-0.3826419987755476 -43.64262889096597 -13.207045458162014 -177.6965681516893 0.0 0.0
45.94871738308095 8.454567691904163 16.320582451247986 -159.73198762690527 0.0 0.0
105.44692993259316 15.055165402226352 36.14897183769871 -155.8830099629285 0.0 0.0
165.0191530658975 3.842737328226362 50.77196348447271 -165.76150015379545 0.0 0.0
233.5794723409821 -4.5990671211323475 70.12812458534918 -177.0534046970022 0.0 0.0
330.9183625508044 -7.988461490281704 106.14564886566616 -179.32856461644894 0.0 0.0
442.1907164538062 -1.629397670186934 166.7594409874821 -168.15833675106197 0.0 0.0
534.0135805019403 8.732869618622214 233.5149865353285 -158.0006200230981 0.0 0.0
602.2738196677641 19.549400641184505 288.85655518369714 -151.83958469584775 0.0 0.0
654.9804879281214 27.55851368526103 328.6270722151031 -148.1072713058478 0.0 0.0
698.8814680090028 35.9244647015719 359.6356261503407 -144.3484983330224 0.0 0.0
738.474153859802 44.456508276114086 386.2153444118342 -141.07297870909295 0.0 0.0
774.9337949039195 52.21144466916145 409.747061041528 -138.00772232928838 0.0 0.0
810.103739927835 59.36065608501298 431.7110950202829 -134.4097509189644 0.0 0.0
845.928529971468 67.30650392139827 453.98558228389527 -129.13298370030606 0.0 0.0
881.5548489103749 75.40142499519254 476.1929194235905 -121.97368259183929 0.0 0.0
910.5643297671638 78.30695746905761 492.56058945965987 -113.80514874691933 0.0 0.0
943.2572536633478 82.85189033976802 511.0835456176857 -100.47889970328197 0.0 0.0
994.3988909751463 102.90951510097092 546.1105420245387 -72.65457375305166 0.0 0.0
994.3988909746344 102.90951510048737 546.1105420241973 72.65457375316404 0.0 0.0
943.2572536617855 82.85189033824699 511.0835456166251 100.47889970343059 0.0 0.0
910.5643297655866 78.30695746747477 492.56058945851794 113.8051487469572 0.0 0.0
881.5548489087962 75.40142499363358 476.1929194224641 121.9736825918363 0.0 0.0
845.9285299707487 67.30650392072951 453.9855822833231 129.132983700314 0.0 0.0
810.1037399274386 59.360656084811296 431.71109501998683 134.40975091902592 0.0 0.0
774.9337949029076 52.21144466804802 409.7470610407802 138.0077223291341 0.0 0.0
738.4741538583188 44.45650827464745 386.2153444108511 141.07297870900467 0.0 0.0
698.8814680082481 35.92446470086739 359.6356261497884 144.3484983329659 0.0 0.0
654.9804879274909 27.558513684834082 328.6270722146815 148.10727130586227 0.0 0.0
602.2738196678185 19.54940064139035 288.8565551836382 151.83958469566034 0.0 0.0
534.0135805018399 8.73286961885276 233.51498653519945 158.0006200231191 0.0 0.0
442.1907164534392 -1.6293976700974504 166.75944098724622 168.15833675111534 0.0 0.0
330.91836255011043 -7.988461490737829 106.14564886526192 179.32856461630627 0.0 0.0
233.57947234063215 -4.599067121236747 70.12812458521374 177.05340469679658 0.0 0.0
165.01915306594645 3.8427373286284716 50.77196348461146 165.7615001535623 0.0 0.0
105.44692993249726 15.055165402017401 36.14897183760805 155.88300996269615 0.0 0.0
45.94871738301939 8.454567691842554 16.320582451211553 159.7319876267038 0.0 0.0
-0.38264199883656413 -43.6426288909421 -13.20704545817344 177.6965681515238 0.0 0.0
3.366138473835157 -394.07048963097145 -140.96238008854047 158.6864816213137 0.0 0.0
2.1507851037763217 -347.54491654387186 -114.19155049087985 -154.4640332195179 0.0 0.0
-17.597029952129148 -47.141377162464764 -19.419796979808012 -183.45533558556917 0.0 0.0
11.598215980738857 5.78666631635431 5.21516884727097 -171.8994795202346 0.0 0.0
53.695705628561015 16.03847485332095 20.919140421064156 -168.99216829115096 0.0 0.0
95.59917515065928 7.357209888202389 30.963407939171958 -178.73068527161868 0.0 0.0
141.04551490675564 -0.9587136414505795 42.71812154977786 -193.61441542676073 0.0 0.0
206.62393367918133 -3.162615788060493 64.10796955089593 -203.13561909514448 0.0 0.0
306.3307366546924 -0.920529175972316 103.37922957534589 -199.98717919961646 0.0 0.0
413.18238416923384 4.476024695787995 158.58301169638838 -186.43322819571029 0.0 0.0
494.1752402474203 10.853885633521696 213.60243999474818 -173.2960909472329 0.0 0.0
551.1422747409957 17.11954556717137 258.05723860052836 -165.81517575251482 0.0 0.0
593.4928866939703 21.306185090474727 290.5259826127267 -160.8983371719539 0.0 0.0
629.3018893111716 26.45073905223414 316.99080165433304 -157.0170735624683 0.0 0.0
660.3669213551238 30.159384587195277 338.2850447790162 -153.65047440521647 0.0 0.0
688.7499677051032 31.996564004088356 355.8069088541905 -150.14661459259187 0.0 0.0
717.6791127988263 33.25505232136007 372.1343335474276 -145.40431430052848 0.0 0.0
750.4735416596764 35.85026568311048 390.2939461806042 -137.70009314139068 0.0 0.0
780.2410478414465 35.221024681685094 405.56162668767723 -127.89415716799242 0.0 0.0
796.233183340648 18.293498851652743 405.6568281597485 -116.63496352181429 0.0 0.0
849.2080344318044 27.907706483836535 435.681550360642 -92.6328603027564 0.0 0.0
849.208034432523 27.90770648471647 435.68155036123187 92.63286030296095 0.0 0.0
796.2331833409196 18.29349885201526 405.6568281600304 116.63496352212275 0.0 0.0
780.2410478418172 35.22102468234769 405.56162668797816 127.89415716844917 0.0 0.0
750.4735416604924 35.850265684284466 390.2939461811316 137.70009314167174 0.0 0.0
717.6791127990552 33.25505232175118 372.13433354755546 145.40431430060482 0.0 0.0
688.7499677051271 31.99656400431644 355.806908854273 150.1466145927201 0.0 0.0
660.3669213555191 30.159384587926198 338.285044779332 153.6504744053243 0.0 0.0
629.3018893108876 26.45073905213347 316.9908016541649 157.01707356258044 0.0 0.0
593.4928866935833 21.30618509011002 290.52598261234823 160.89833717196956 0.0 0.0
551.1422747408043 17.11954556738833 258.05723860041275 165.81517575264715 0.0 0.0
494.17524024730693 10.853885633665556 213.60243999460664 173.29609094721275 0.0 0.0
413.1823841689686 4.476024695945451 158.58301169624633 186.43322819574487 0.0 0.0
306.3307366540366 -0.9205291765963572 103.37922957490488 199.9871791994982 0.0 0.0
206.623933678757 -3.162615788166269 64.10796955072519 203.13561909497636 0.0 0.0
141.04551490650616 -0.9587136416680941 42.71812154963426 193.6144154265262 0.0 0.0
95.59917515079384 7.357209888584187 30.96340793932865 178.73068527137104 0.0 0.0
53.69570562875273 16.038474853721404 20.91914042124221 168.9921682909528 0.0 0.0
11.598215980743117 5.786666316478061 5.215168847309494 171.89947952001387 0.0 0.0
-17.597029952113036 -47.14137716243225 -19.41979697979419 183.45533558545517 0.0 0.0
2.150785103686772 -347.544916543534 -114.19155049074723 154.46403321947722 0.0 0.0
-5.17621418560838 -298.45101017616855 -93.60189973387239 -146.5846332750155 0.0 0.0
-36.029795925495606 -51.73410648627532 -26.326422483475888 -186.63175160222082 0.0 0.0
-20.97281536182033 4.727212624237562 -4.873564962160205 -179.6805669668279 0.0 0.0
3.450980377442856 16.823544871240102 6.082151828355516 -177.621079108081 0.0 0.0
25.971342125409226 11.141532190328206 11.156964862687314 -186.56305783483083 0.0 0.0
45.422969247701815 3.204893233502238 14.816931283262576 -202.58046995051959 0.0 0.0
68.97085815587123 -0.19867628408658344 21.52733939839715 -216.95763929405416 0.0 0.0
106.65088105956922 0.19446831491120875 34.37244325450877 -222.5688055727742 0.0 0.0
167.86347674352808 3.7033750517961064 56.989811485707854 -214.33970590605503 0.0 0.0
239.29609962143854 5.104824735171068 85.44428764083304 -200.5255920692819 0.0 0.0
301.7654192526454 8.18685492858856 117.73020332438283 -186.7458543799766 0.0 0.0
352.5912697908724 8.480742187612108 147.99514693281793 -179.1416884962069 0.0 0.0
391.26044052356735 9.46851092410445 174.64976802210447 -173.20977378618502 0.0 0.0
419.5665429725227 8.707618363709486 195.73632507560322 -168.35148066275988 0.0 0.0
443.35052238956285 5.474440397568216 212.47225068145 -164.35447894907398 0.0 0.0
470.3474517316272 -0.39926864458141154 227.5672556396288 -160.40708791015848 0.0 0.0
506.32488795510875 -6.048592541701822 244.92888612468016 -154.01802626869963 0.0 0.0
553.086867806553 -7.914853355906473 268.38101111926744 -143.06496361051384 0.0 0.0
584.8878392825345 -29.26839472537705 276.46781688814576 -128.66254023923258 0.0 0.0
612.0677331442178 -76.1703537822693 265.1410320610492 -116.84077602590938 0.0 0.0
612.0677331445038 -76.17035378174174 265.1410320613156 116.84077602631008 0.0 0.0
584.8878392825637 -29.268394725179746 276.46781688818453 128.66254023963663 0.0 0.0
553.0868678067937 -7.914853355222107 268.38101111953625 143.06496361099886 0.0 0.0
506.32488795541065 -6.048592541219392 244.92888612492254 154.01802626882096 0.0 0.0
470.3474517318661 -0.3992686445156721 227.56725563968536 160.407087910083 0.0 0.0
443.3505223903569 5.47444039870426 212.47225068200385 164.35447894908546 0.0 0.0
419.5665429724155 8.707618363876406 195.7363250755992 168.35148066290458 0.0 0.0
391.26044052347237 9.468510923957588 174.64976802197202 173.20977378632352 0.0 0.0
352.5912697907284 8.480742187355432 147.99514693266354 179.1416884961513 0.0 0.0
301.76541925248307 8.186854928393934 117.73020332422625 186.74585437994853 0.0 0.0
239.29609962134964 5.104824735226444 85.44428764078334 200.52559206920515 0.0 0.0
167.86347674369327 3.7033750525457236 56.9898114859587 214.33970590613427 0.0 0.0
106.65088105961095 0.1944683150457962 34.37244325455451 222.5688055727779 0.0 0.0
68.97085815573803 -0.1986762841662495 21.527339398332465 216.95763929394047 0.0 0.0
45.42296924762736 3.2048932334171223 14.816931283213997 202.58046995034198 0.0 0.0
25.97134212543826 11.141532190245007 11.156964862672087 186.56305783470023 0.0 0.0
3.4509803775133765 16.823544871339998 6.082151828407145 177.62107910790974 0.0 0.0
-20.97281536178265 4.727212624371226 -4.873564962109507 179.68056696663965 0.0 0.0
-36.02979592549996 -51.73410648635563 -26.326422483502252 186.63175160208587 0.0 0.0
-5.176214185734082 -298.45101017594686 -93.60189973382435 146.5846332748235 0.0 0.0
-16.886378044229417 -250.17359007542308 -80.1862494732311 -135.55287346404089 0.0 0.0
-52.29459464217867 -53.860518587511315 -31.84545060380301 -186.60300746513792 0.0 0.0
-52.17695066729951 3.9436215703181614 -14.472765637845448 -183.49703137093897 0.0 0.0
-45.255229233210834 17.495801433581942 -8.33631941981007 -181.5349472805578 0.0 0.0
-42.93613458240807 14.690505190409102 -8.505540244501859 -188.79276466346445 0.0 0.0
-50.92584867908731 7.657802069360747 -13.224993873450465 -203.5265645348229 0.0 0.0
-70.69460766620782 2.6697370682174126 -21.321873783944692 -217.12858608154946 0.0 0.0
-107.00713728498397 0.20701521752792829 -34.366606029263835 -222.70394597446503 0.0 0.0
-167.63305257677052 -3.611154416360323 -56.88603514973729 -214.38993003645135 0.0 0.0
-239.0526903118756 -5.046895174133919 -85.347749185583 -200.50289961861208 0.0 0.0
-301.9254636191941 -7.349716863751567 -117.3516482267793 -186.66649896245647 0.0 0.0
-353.6939191927133 -7.146358732243428 -147.96442042504736 -178.69766593836883 0.0 0.0
-394.9138555595134 -8.351041189871793 -175.78062776821037 -172.64087424882857 0.0 0.0
-425.84466251520666 -12.088154210836123 -199.92952271363018 -168.2649889849139 0.0 0.0
-447.61642666906533 -19.624422072171043 -221.0925543486989 -166.32170951525498 0.0 0.0
-458.8999271381043 -30.659054856699413 -238.7119337523413 -166.6878199708923 0.0 0.0
-449.9494069907369 -43.33629778423497 -248.7051381013782 -167.83757682595726 0.0 0.0
-391.53783709150485 -40.64227445750427 -236.42143069710423 -168.34962953561143 0.0 0.0
-210.17331256122492 -34.214448891294865 -169.40938746969573 -170.6488816398759 0.0 0.0
8.07281269612946 -173.68044498054115 -66.2028830438666 -147.15390084563558 0.0 0.0
8.072812695727578 -173.680444981192 -66.20288304413396 147.15390084600267 0.0 0.0
-210.17331256158565 -34.21444889217233 -169.4093874700666 170.6488816403289 0.0 0.0
-391.537837091116 -40.64227445667365 -236.421430696665 168.349629535914 0.0 0.0
-449.94940699004917 -43.336297783340086 -248.705138100822 167.83757682589996 0.0 0.0
-458.89992713827627 -30.659054857169252 -238.71193375247765 166.68781997090446 0.0 0.0
-447.6164266691188 -19.624422072630168 -221.09255434878978 166.32170951532163 0.0 0.0
-425.84466251455694 -12.08815421036131 -199.92952271317253 168.26498898491246 0.0 0.0
-394.9138555593957 -8.3510411904263 -175.780627768197 172.64087424900038 0.0 0.0
-353.6939191925826 -7.146358733512102 -147.9644204252487 178.69766593843735 0.0 0.0
-301.92546361876254 -7.349716864099314 -117.3516482266136 186.66649896247964 0.0 0.0
-239.05269031102296 -5.0468951739973775 -85.34774918523294 200.50289961863325 0.0 0.0
-167.63305257626337 -3.611154416376081 -56.886035149562645 214.3899300364714 0.0 0.0
-107.00713728466741 0.20701521743892215 -34.3666060291861 222.7039459744915 0.0 0.0
-70.69460766580957 2.669737068736687 -21.321873783661793 217.1285860813809 0.0 0.0
-50.92584867871745 7.657802069922486 -13.224993873167769 203.526564534503 0.0 0.0
-42.93613458198824 14.690505190998628 -8.50554024419975 188.79276466327698 0.0 0.0
-45.25522923314509 17.49580143364561 -8.336319419772959 181.5349472803946 0.0 0.0
-52.176950667255014 3.9436215704040896 -14.472765637809335 183.49703137071856 0.0 0.0
-52.294594642128885 -53.86051858743605 -31.845450603768462 186.60300746503725 0.0 0.0
-16.886378044378645 -250.17359007527287 -80.18624947324159 135.5528734638761 0.0 0.0
-24.48433004425242 -204.12453382718542 -68.58265916143134 -122.5547501905199 0.0 0.0
-65.74067165049127 -52.969354538232906 -35.61204644170364 -182.71333489570995 0.0 0.0
-81.76267277296368 3.138804340691478 -23.594909047059822 -183.2744083101625 0.0 0.0
-92.42653357685373 17.910755596385073 -22.359737206046063 -180.8778740583373 0.0 0.0
-110.41380570496855 17.4919236313233 -28.025860811590434 -185.09126403559668 0.0 0.0
-145.4617315454178 11.309782424874735 -41.09028241021582 -195.92815994246587 0.0 0.0
-208.0304155416864 5.560236337206467 -63.87237917437977 -204.13839145039978 0.0 0.0
-306.25654258740485 1.2263803923545993 -103.32584278325764 -200.28590184997762 0.0 0.0
-412.8882693338096 -4.4316390709388 -158.460988577127 -186.53328072748752 0.0 0.0
-493.9654023054166 -10.677668659251111 -213.43747721066637 -173.25000017113828 0.0 0.0
-550.7993745083951 -16.430880850864888 -257.6425870676495 -165.62155592973747 0.0 0.0
-593.3408553726069 -20.010555661314257 -289.93525838232785 -160.30001888743573 0.0 0.0
-630.2818558565801 -25.479603035425555 -316.9862331967787 -155.93607107393788 0.0 0.0
-664.3042356855988 -32.98578936520721 -341.352896660353 -153.0591452323943 0.0 0.0
-696.7523752622837 -44.13215012115758 -365.3290136419722 -152.56137291463602 0.0 0.0
-726.5425618403694 -59.114865223301024 -389.12368500668106 -154.8562837766487 0.0 0.0
-749.1821450559443 -75.55005728024963 -410.02917383330623 -160.32722367722582 0.0 0.0
-759.7437996830728 -90.0164554999919 -424.054539482771 -168.93594997066614 0.0 0.0
-796.1564730273129 -144.6543621443055 -470.363107254418 -177.94102156873333 0.0 0.0
-787.4561695790783 -223.68006493990103 -506.4777992026545 -195.32649823742227 0.0 0.0
-787.4561695798354 -223.68006494080328 -506.4777992032597 195.3264982377067 0.0 0.0
-796.1564730273401 -144.65436214475784 -470.3631072545832 177.94102156918655 0.0 0.0
-759.7437996833298 -90.01645550046106 -424.0545394829948 168.9359499709454 0.0 0.0
-749.1821450559155 -75.55005728047217 -410.02917383329793 160.32722367732973 0.0 0.0
-726.5425618399902 -59.11486522300805 -389.123685006404 154.8562837766096 0.0 0.0
-696.7523752620214 -44.13215012117642 -365.3290136418158 152.56137291479027 0.0 0.0
-664.3042356856142 -32.98578936540828 -341.3528966603635 153.05914523243266 0.0 0.0
-630.2818558564566 -25.479603035652474 -316.9862331967299 155.936071074038 0.0 0.0
-593.3408553721806 -20.01055566118537 -289.9352583820139 160.30001888748865 0.0 0.0
-550.7993745081068 -16.430880850857847 -257.64258706737644 165.62155592967557 0.0 0.0
-493.96540230491735 -10.677668659190772 -213.43747721029604 173.25000017114667 0.0 0.0
-412.8882693331475 -4.431639070611769 -158.46098857665925 186.53328072743793 0.0 0.0
-306.25654258661535 1.2263803926393564 -103.32584278286092 200.28590185002903 0.0 0.0
-208.03041554124246 5.560236337316642 -63.872379174198365 204.1383914502785 0.0 0.0
-145.46173154483094 11.30978242559619 -41.09028240981712 195.92815994219862 0.0 0.0
-110.4138057044639 17.49192363194582 -28.025860811253473 185.09126403536496 0.0 0.0
-92.42653357674587 17.910755596513923 -22.35973720597744 180.87787405812617 0.0 0.0
-81.76267277284825 3.138804340878085 -23.594909046973296 183.27440830993825 0.0 0.0
-65.74067165047 -52.9693545382185 -35.6120464416977 182.71333489556469 0.0 0.0
-24.484330044260695 -204.12453382699832 -68.58265916137768 122.55475019040247 0.0 0.0
-26.960598197543852 -161.1670445992201 -56.43829283902918 -108.5572331626906 0.0 0.0
-76.85622240015411 -49.61375621018723 -37.93905938928022 -174.76852949325564 0.0 0.0
-109.5740118122164 2.4459099475920048 -32.135819520913444 -178.9053656785748 0.0 0.0
-137.8235387744004 17.888460175941496 -35.9930000895135 -175.4288578086739 0.0 0.0
-176.07874572187703 18.93958884317579 -47.46454473371729 -175.96983539476648 0.0 0.0
-236.32733679733826 14.070292778000445 -68.4224136069482 -180.794810526908 0.0 0.0
-330.8003787717098 10.043333347603532 -105.76635533195898 -180.4875365495128 0.0 0.0
-441.61383965422317 1.8692015003324052 -166.5272819428079 -168.63466539076526 0.0 0.0
-533.8381149182892 -8.707760055565018 -233.4160781994409 -158.02017395825914 0.0 0.0
-602.1449237623193 -19.417465927461762 -288.75548295580677 -151.79600900014907 0.0 0.0
-654.7236228349643 -27.063598287352903 -328.3095152068358 -147.93877875796238 0.0 0.0
-698.6221558454353 -34.877359213923896 -359.0341669724103 -143.6856780317633 0.0 0.0
-738.9337606067902 -43.494950393001176 -385.9231837748075 -139.6879570831943 0.0 0.0
-777.8336878154457 -54.0823513507065 -411.91920477278404 -136.76935159492368 0.0 0.0
-817.154446945102 -68.73609903215423 -439.568859283541 -136.1915010110517 0.0 0.0
-855.7303623171548 -87.89536321699562 -468.9155729249069 -139.00156513005476 0.0 0.0
-890.6071575572879 -109.46813454316992 -497.66049607852943 -145.26154146846986 0.0 0.0
-930.0002628666015 -142.99249627526677 -534.612816491406 -152.21337853274585 0.0 0.0
-972.9380583536756 -192.3099485377279 -581.2962666803616 -158.82982230265375 0.0 0.0
-1057.6738482201713 -319.4809090086499 -685.6865346496099 -169.18225040196728 0.0 0.0
-1057.67384821991 -319.4809090086127 -685.6865346495001 169.18225040219548 0.0 0.0
-972.9380583536213 -192.3099485379798 -581.2962666803774 158.82982230311728 0.0 0.0
-930.0002628664231 -142.99249627526981 -534.612816491327 152.21337853296362 0.0 0.0
-890.6071575573151 -109.46813454337595 -497.6604960784865 145.26154146858974 0.0 0.0
-855.7303623170778 -87.89536321702896 -468.9155729248499 139.0015651299864 0.0 0.0
-817.1544469452189 -68.73609903242986 -439.5688592836433 136.19150101112257 0.0 0.0
-777.8336878154787 -54.082351350825775 -411.9192047728329 136.7693515947959 0.0 0.0
-738.933760606225 -43.49495039255425 -385.9231837744643 139.6879570831519 0.0 0.0
-698.6221558447513 -34.877359213483366 -359.0341669720024 143.68567803182566 0.0 0.0
-654.7236228350152 -27.06359828772484 -328.3095152068417 147.93877875799586 0.0 0.0
-602.1449237625159 -19.41746592822402 -288.7554829559375 151.79600900031068 0.0 0.0
-533.8381149181332 -8.707760055969178 -233.41607819932506 158.02017395839198 0.0 0.0
-441.6138396532392 1.8692015010786172 -166.52728194212324 168.63466539070612 0.0 0.0
-330.8003787711333 10.043333347649321 -105.76635533169994 180.4875365494821 0.0 0.0
-236.32733679712084 14.070292777393885 -68.4224136070586 180.7948105267446 0.0 0.0
-176.0787457217337 18.93958884289412 -47.46454473375934 175.96983539458532 0.0 0.0
-137.8235387742405 17.88846017598783 -35.99300008945605 175.4288578085384 0.0 0.0
-109.5740118120715 2.445909947743931 -32.13581952082865 178.90536567839936 0.0 0.0
-76.85622240011276 -49.61375621016412 -37.9390593892614 174.76852949314537 0.0 0.0
-26.960598197490004 -161.16704459907314 -56.438292838968934 108.55723316259238 0.0 0.0
-27.939973160931427 -122.13193064316584 -45.02157114122917 -94.16093831613544 0.0 0.0
-86.3073574385768 -44.1147739041587 -39.12663940282064 -162.64875435778592 0.0 0.0
-135.56366867444692 1.861310220779111 -40.107155170527875 -170.21209158208444 0.0 0.0
-181.4270443409019 16.9429759978255 -49.38551011720861 -165.35228951540736 0.0 0.0
-238.70457340427294 19.239017242979838 -66.34042250256522 -161.55374505499552 0.0 0.0
-320.6674533704898 17.636675224214958 -95.19391541114743 -160.00383593028297 0.0 0.0
-428.602357356143 12.05327928239102 -148.21766230032375 -150.56094971067859 0.0 0.0
-529.5875848165565 -0.38202527372308026 -220.67348127794776 -139.57792560303008 0.0 0.0
-609.4841446264088 -14.036184735639608 -287.06852845171943 -135.19041108976916 0.0 0.0
-672.4472695854324 -26.783159177352623 -336.917193176008 -133.07700102230197 0.0 0.0
-724.5814693189783 -37.717381450594374 -373.87673067465624 -130.57522415895363 0.0 0.0
-772.2642669442188 -49.39982019930912 -405.96688362483167 -127.01989489610607 0.0 0.0
-816.7015000503561 -61.42378833689796 -435.3508628756957 -123.23109907043222 0.0 0.0
-859.9657549391627 -75.28400687395836 -464.5307142925799 -120.15073106935328 0.0 0.0
-903.9405703847099 -92.84489493985613 -495.6060008660213 -119.36179288935827 0.0 0.0
-950.0557047254332 -116.69292941838324 -530.7994928806132 -122.18462656350033 0.0 0.0
-999.2866984627684 -149.01515154179148 -571.8094185283994 -127.91029757943784 0.0 0.0
-1052.9572361764135 -192.55505683474664 -620.712580711726 -133.81243536289588 0.0 0.0
-1120.9262938495233 -261.3603261311091 -689.0367036905652 -136.85416438085022 0.0 0.0
-1212.181620498874 -384.6635622006694 -795.7312267694427 -142.86428836500437 0.0 0.0
-1212.181620498403 -384.6635622001991 -795.731226769173 142.86428836503012 0.0 0.0
-1120.92629384918 -261.36032613081045 -689.0367036903942 136.85416438101242 0.0 0.0
-1052.9572361766118 -192.5550568351418 -620.712580711773 133.81243536310654 0.0 0.0
-999.2866984624555 -149.0151515416038 -571.8094185281121 127.91029757957372 0.0 0.0
-950.0557047254468 -116.69292941857545 -530.7994928806285 122.18462656357082 0.0 0.0
-903.9405703844129 -92.84489493978126 -495.6060008658136 119.3617928895049 0.0 0.0
-859.9657549387196 -75.2840068736433 -464.5307142922197 120.15073106933251 0.0 0.0
-816.7015000501142 -61.42378833683853 -435.35086287554464 123.23109907041407 0.0 0.0
-772.2642669433819 -49.399820198672174 -405.966883624287 127.01989489609471 0.0 0.0
-724.5814693179987 -37.717381449626814 -373.87673067392365 130.57522415864895 0.0 0.0
-672.447269585409 -26.78315917758605 -336.9171931759223 133.07700102223788 0.0 0.0
-609.4841446267776 -14.036184736574327 -287.06852845188774 135.19041108993605 0.0 0.0
-529.5875848163088 -0.38202527401395336 -220.6734812777309 139.57792560316358 0.0 0.0
-428.6023573554692 12.053279282506852 -148.2176622999405 150.56094971075976 0.0 0.0
-320.6674533701288 17.636675224000676 -95.19391541107214 160.0038359301744 0.0 0.0
-238.70457340388577 19.239017243095134 -66.34042250241535 161.55374505487947 0.0 0.0
-181.42704434073872 16.942975997758833 -49.38551011718722 165.35228951526273 0.0 0.0
-135.56366867437333 1.8613102207921015 -40.10715517050346 170.21209158187617 0.0 0.0
-86.30735743849887 -44.11477390407651 -39.12663940277261 162.64875435764287 0.0 0.0
-27.939973160840154 -122.13193064301691 -45.02157114115711 94.160938316065 0.0 0.0
-28.651044461539406 -87.56991441300679 -34.86628766236385 -79.44142063864419 0.0 0.0
-94.86217674009161 -37.099651206137985 -39.588548383868876 -146.7616122868212 0.0 0.0
-159.9357807214431 1.512828566858837 -47.525653390360645 -157.13642610866012 0.0 0.0
-223.45445802416828 15.1503301441038 -62.487711472765106 -150.8661567235554 0.0 0.0
-298.30317560861323 19.584185378321294 -84.42026344269178 -143.24115340200456 0.0 0.0
-396.01507353953934 19.901558205443457 -123.09485700167835 -133.81040590026208 0.0 0.0
-501.87312863302725 11.188485940527457 -189.25442396618286 -120.75529767620148 0.0 0.0
-591.5684119665916 -3.248670987123866 -264.3921976474929 -114.95870132052065 0.0 0.0
-664.0412269284612 -18.680192672634064 -325.3892606080359 -114.78665872914162 0.0 0.0
-725.0697512349648 -33.18484288091625 -370.959956502311 -114.63037061392075 0.0 0.0
-780.167966038033 -48.05252825203668 -409.02775026283166 -112.92363866423811 0.0 0.0
-831.6813188907172 -63.652995467004914 -443.92437103333714 -109.8476338354787 0.0 0.0
-880.3969174005256 -79.66543076344061 -476.9992806391763 -106.39859057067542 0.0 0.0
-927.5386572616098 -96.46058948345294 -509.3881164237705 -103.36846751283345 0.0 0.0
-976.037260284133 -116.93268380879317 -544.057426649251 -102.1936481197138 0.0 0.0
-1029.675452083758 -146.5214214441922 -585.7231880077604 -104.27380722380356 0.0 0.0
-1091.4551677310683 -188.59784682508771 -637.7518430733498 -109.3323419959478 0.0 0.0
-1162.2590446068584 -246.76413239772046 -702.3248898216316 -114.0774887962419 0.0 0.0
-1243.45195008592 -327.700121890342 -783.3527267292462 -116.23273476563266 0.0 0.0
-1326.807366321736 -440.71053209340516 -881.4099495511078 -123.71219677209704 0.0 0.0
-1326.8073663218138 -440.7105320935647 -881.4099495512326 123.71219677226759 0.0 0.0
-1243.451950085761 -327.7001218903919 -783.352726729166 116.2327347660075 0.0 0.0
-1162.2590446072804 -246.76413239826442 -702.3248898218696 114.07748879639851 0.0 0.0
-1091.4551677315796 -188.5978468257908 -637.7518430737309 109.33234199614323 0.0 0.0
-1029.6754520835484 -146.52142144407705 -585.7231880076777 104.27380722375273 0.0 0.0
-976.0372602836017 -116.93268380835144 -544.057426648879 102.19364811965815 0.0 0.0
-927.5386572613743 -96.46058948333882 -509.3881164235688 103.36846751275576 0.0 0.0
-880.3969174003975 -79.66543076354849 -476.9992806390644 106.39859057078796 0.0 0.0
-831.6813188907233 -63.652995467281684 -443.9243710333557 109.8476338355477 0.0 0.0
-780.1679660384629 -48.05252825275437 -409.0277502631477 112.92363866425441 0.0 0.0
-725.069751234685 -33.1848428808875 -370.95995650211233 114.63037061385289 0.0 0.0
-664.0412269275971 -18.68019267196925 -325.3892606074645 114.78665872901789 0.0 0.0
-591.5684119659701 -3.248670986805351 -264.3921976469835 114.95870132049767 0.0 0.0
-501.8731286327879 11.188485940270862 -189.25442396594366 120.7552976762056 0.0 0.0
-396.01507353920965 19.901558205169145 -123.09485700156722 133.8104059002736 0.0 0.0
-298.30317560827126 19.584185378183104 -84.42026344264572 143.24115340192103 0.0 0.0
-223.45445802401565 15.150330143884524 -62.48771147278868 150.86615672339207 0.0 0.0
-159.9357807213234 1.5128285669317179 -47.52565339030344 157.13642610860478 0.0 0.0
-94.86217674002276 -37.09965120612678 -39.58854838384485 146.76161228672726 0.0 0.0
-28.65104446151345 -87.56991441295334 -34.866287662340035 79.44142063856518 0.0 0.0
-29.374320942057924 -57.959461516797575 -26.200134737656647 -64.30684069307401 0.0 0.0
-102.7841021982285 -29.138242196583423 -39.57670331844357 -127.52369523974515 0.0 0.0
-182.95129693580216 1.2750305381999851 -54.50069281346016 -139.808454601979 0.0 0.0
-262.9568239571538 12.473781619055702 -75.18830445907574 -131.97820661858427 0.0 0.0
-353.2798478416447 20.41643110647015 -102.03756323625079 -120.96816595313646 0.0 0.0
-459.68432499253913 19.79985888011968 -152.33918714662747 -105.46173093807838 0.0 0.0
-557.2552028458515 9.515882612400347 -226.3371132560693 -94.19321164846654 0.0 0.0
-637.3697770138264 -6.315402434372778 -298.461081145047 -93.01156564662767 0.0 0.0
-705.8925935401435 -22.05248613558534 -353.1884731657924 -95.03409808777113 0.0 0.0
-768.3823255720133 -39.36025380515305 -397.99220194702343 -95.79770949431129 0.0 0.0
-827.0145915981003 -58.124674455868444 -438.54845295748845 -94.61403084966913 0.0 0.0
-882.5704204620697 -77.79322543264973 -477.0186669427217 -92.07172262648379 0.0 0.0
-935.7908490752986 -97.88355903509617 -514.1972025713508 -89.20907241607526 0.0 0.0
-986.915136745074 -118.31504199300286 -550.3170749529712 -86.36213994085207 0.0 0.0
-1039.275297597507 -141.65073326838666 -588.2970074128588 -84.59269277979028 0.0 0.0
-1099.9271111516575 -175.98786998936225 -635.7507587553381 -85.55677869793085 0.0 0.0
-1173.2873545311782 -228.2637353508621 -698.5300710441977 -89.47242311796008 0.0 0.0
-1258.9295316367056 -300.2972809200526 -777.3863880420831 -94.00741255339105 0.0 0.0
-1347.8869566910525 -389.05910930170353 -866.2872564360316 -97.96106333609416 0.0 0.0
-1426.399640570267 -495.77207877625074 -959.010236291044 -109.26313866993718 0.0 0.0
-1426.3996405698995 -495.77207877598266 -959.0102362908294 109.26313867012138 0.0 0.0
-1347.8869566916774 -389.0591093024099 -866.2872564364848 97.96106333623287 0.0 0.0
-1258.9295316374614 -300.29728092092546 -777.3863880425829 94.0074125535454 0.0 0.0
-1173.287354530858 -228.26373535071426 -698.5300710439142 89.47242311819389 0.0 0.0
-1099.9271111509374 -175.98786998878327 -635.7507587546553 85.55677869799652 0.0 0.0
-1039.275297596802 -141.6507332677898 -588.2970074122187 84.59269277976631 0.0 0.0
-986.9151367442706 -118.3150419923805 -550.3170749523949 86.36213994092924 0.0 0.0
-935.7908490747645 -97.88355903477219 -514.1972025709598 89.20907241615731 0.0 0.0
-882.5704204619607 -77.79322543278901 -477.01866694261963 92.07172262655291 0.0 0.0
-827.0145915974099 -58.12467445538138 -438.5484529570128 94.61403084958467 0.0 0.0
-768.3823255718573 -39.36025380525663 -397.9922019469006 95.79770949429076 0.0 0.0
-705.892593539402 -22.05248613521246 -353.18847316529207 95.03409808792827 0.0 0.0
-637.3697770128201 -6.315402433635409 -298.4610811442982 93.01156564657921 0.0 0.0
-557.255202845149 9.515882612760343 -226.33711325552537 94.19321164848033 0.0 0.0
-459.6843249916205 19.79985888076693 -152.33918714602478 105.46173093793666 0.0 0.0
-353.279847841362 20.416431106374453 -102.03756323618794 120.9681659529934 0.0 0.0
-262.95682395679836 12.473781619060492 -75.18830445897802 131.9782066185223 0.0 0.0
-182.951296935712 1.2750305380757814 -54.50069281347122 139.80845460185031 0.0 0.0
-102.78410219816685 -29.138242196642402 -39.57670331844277 127.52369523964053 0.0 0.0
-29.374320942025765 -57.95946151678304 -26.200134737642635 64.30684069301208 0.0 0.0
-29.90455932184998 -33.740487749640934 -19.09351412144727 -48.691395764333976 0.0 0.0
-109.83831982482039 -20.761443469263988 -39.17992898822531 -105.30222920977025 0.0 0.0
-204.74976764517368 1.0209435012441066 -61.11864724317888 -118.21640774130445 0.0 0.0
-301.2524157484424 9.612190789588965 -87.55553314798654 -109.50276320421895 0.0 0.0
-406.2133643044599 20.829810773083278 -120.47964393852007 -95.16054988032457 0.0 0.0
-510.66322455641523 18.659152174371453 -181.37021191272885 -77.68488448857617 0.0 0.0
-597.1958833604413 6.422553224130532 -258.271613066574 -70.69143843262313 0.0 0.0
-672.0998918308513 -7.791334041637427 -323.44226410294146 -72.4491641030373 0.0 0.0
-740.5081072037426 -25.042318361091517 -375.0503041863868 -75.14692132993586 0.0 0.0
-805.3289547695422 -45.51564534004879 -420.79869991718425 -76.33343083417756 0.0 0.0
-867.4094926066134 -67.88251749288177 -464.2379830728313 -75.61523275195046 0.0 0.0
-927.3147675528714 -91.65940400529024 -506.70458857835865 -73.68051755422056 0.0 0.0
-985.0647998975129 -116.10185346498008 -548.2037070449438 -71.44130975420455 0.0 0.0
-1041.4636493920043 -141.0992571489737 -589.1921223110369 -69.1139423136854 0.0 0.0
-1098.0053141797318 -167.8739429160034 -630.9874704142878 -66.85301411564828 0.0 0.0
-1161.9961843228273 -204.92356626802118 -681.4172698862062 -66.09707069782408 0.0 0.0
-1244.9884421151232 -265.20150531731167 -752.8856763800127 -68.70698001010201 0.0 0.0
-1343.541475233495 -349.2246536341072 -844.1645662952944 -73.99089887322452 0.0 0.0
-1442.20364562747 -447.68343957675404 -942.8223926330778 -81.34786167362172 0.0 0.0
-1520.960872443387 -553.6305540280392 -1035.4120284972876 -97.45206858559227 0.0 0.0
-1520.960872443438 -553.630554028142 -1035.4120284973224 97.45206858572524 0.0 0.0
-1442.203645627049 -447.68343957638115 -942.8223926327302 81.3478616736854 0.0 0.0
-1343.5414752336283 -349.2246536343295 -844.1645662953913 73.99089887332244 0.0 0.0
-1244.9884421151305 -265.2015053174589 -752.8856763799802 68.70698001030314 0.0 0.0
-1161.9961843227993 -204.92356626810647 -681.4172698861668 66.09707069779367 0.0 0.0
-1098.00531417849 -167.8739429148806 -630.9874704134836 66.85301411565298 0.0 0.0
-1041.463649390871 -141.09925714795972 -589.1921223102231 69.11394231360185 0.0 0.0
-985.0647998972652 -116.1018534649329 -548.2037070447014 71.44130975427106 0.0 0.0
-927.3147675523173 -91.65940400498333 -506.70458857793716 73.68051755431087 0.0 0.0
-867.4094926056403 -67.88251749209311 -464.2379830721753 75.61523275182418 0.0 0.0
-805.328954769202 -45.51564533994247 -420.7986999169819 76.33343083407743 0.0 0.0
-740.508107203644 -25.04231836129145 -375.0503041863243 75.14692132992914 0.0 0.0
-672.0998918303465 -7.791334041402731 -323.44226410256664 72.4491641029696 0.0 0.0
-597.1958833596279 6.42255322467329 -258.2716130659343 70.69143843255867 0.0 0.0
-510.6632245559297 18.659152174505962 -181.37021191235638 77.68488448848255 0.0 0.0
-406.21336430396815 20.82981077321102 -120.47964393830337 95.1605498802367 0.0 0.0
-301.25241574828095 9.61219078928395 -87.55553314803717 109.50276320418128 0.0 0.0
-204.74976764498555 1.0209435012881536 -61.11864724310921 118.21640774128949 0.0 0.0
-109.83831982463543 -20.761443469056616 -39.17992898810761 105.30222920965497 0.0 0.0
-29.90455932176725 -33.7404877495582 -19.093514121397632 48.691395764225085 0.0 0.0
-29.605108456317495 -15.334545932495114 -13.481896316643782 -32.7208913865703 0.0 0.0
-115.14985235720646 -12.402704164059347 -38.26576695637974 -80.29739117020361 0.0 0.0
-225.63872708944015 0.3810363011588329 -67.57730723648437 -92.28561695188665 0.0 0.0
-339.00751635848087 7.91045660224469 -99.44735913210937 -83.53116642095844 0.0 0.0
-453.566511546406 20.578025414595142 -140.09317724739094 -66.95903666773451 0.0 0.0
-550.8026477181827 15.618068978336236 -210.1243088291303 -52.52927477948098 0.0 0.0
-629.2174296873396 4.218464089537697 -284.42439569433935 -49.632576807372914 0.0 0.0
-700.4090444099163 -8.772510193487136 -342.69291173149185 -52.02610845195864 0.0 0.0
-769.6040370984666 -28.116561271473756 -392.99101749393935 -54.84859032015592 0.0 0.0
-837.0507665019554 -51.46790034021741 -440.4104745281646 -56.22218278474769 0.0 0.0
-902.8936896528016 -77.42508936899684 -487.15810338331613 -55.9247351006086 0.0 0.0
-966.9456518420295 -105.18857871798653 -533.5583174185466 -54.592710788820085 0.0 0.0
-1029.8367270846918 -134.09553865775706 -579.7836439698224 -53.06885103105938 0.0 0.0
-1091.7776339372163 -164.56279811441095 -626.2169168259657 -51.340107413709816 0.0 0.0
-1153.8700875027357 -196.70583236169807 -673.4775736301788 -49.081534151224815 0.0 0.0
-1220.2221042471365 -235.19628600921305 -725.866106507034 -46.779999013744245 0.0 0.0
-1302.827878430754 -294.1657117390623 -796.3925623291843 -47.33695359164298 0.0 0.0
-1415.3800088007706 -391.1142251202722 -901.0109315742743 -53.41937868891001 0.0 0.0
-1529.584438484313 -504.17914707427684 -1014.8200144117461 -65.21999566778854 0.0 0.0
-1618.894526194586 -618.8516528619396 -1117.1288296996102 -86.9637658628852 0.0 0.0
-1618.8945261945244 -618.851652861944 -1117.128829699563 86.96376586302478 0.0 0.0
-1529.5844384840318 -504.1791470740464 -1014.8200144115438 65.21999566789185 0.0 0.0
-1415.380008799113 -391.114225118676 -901.0109315730886 53.419378688884535 0.0 0.0
-1302.8278784295346 -294.1657117379134 -796.3925623282298 47.33695359162799 0.0 0.0
-1220.2221042464084 -235.1962860085939 -725.8661065063088 46.77999901375618 0.0 0.0
-1153.8700875022032 -196.7058323613126 -673.4775736296717 49.08153415125976 0.0 0.0
-1091.777633936204 -164.56279811353266 -626.2169168251825 51.34010741366873 0.0 0.0
-1029.8367270834017 -134.09553865663344 -579.7836439689702 53.068851031006886 0.0 0.0
-966.9456518408447 -105.18857871699339 -533.5583174177613 54.59271078879635 0.0 0.0
-902.8936896518458 -77.42508936827291 -487.15810338263475 55.92473510058919 0.0 0.0
-837.0507665013395 -51.467900339839254 -440.4104745277501 56.22218278464711 0.0 0.0
-769.6040370977361 -28.116561270991347 -392.99101749344914 54.84859032011248 0.0 0.0
-700.4090444093097 -8.772510193182825 -342.6929117310498 52.02610845195666 0.0 0.0
-629.2174296870174 4.218464089537537 -284.4243956940134 49.63257680732387 0.0 0.0
-550.8026477179615 15.618068978206551 -210.12430882887426 52.52927477941056 0.0 0.0
-453.566511545977 20.57802541467258 -140.09317724716874 66.95903666767701 0.0 0.0
-339.00751635816516 7.910456602233827 -99.44735913202906 83.53116642094523 0.0 0.0
-225.6387270892338 0.38103630117404386 -67.57730723641794 92.2856169518162 0.0 0.0
-115.14985235712747 -12.40270416407429 -38.26576695636052 80.29739117009473 0.0 0.0
-29.605108456298748 -15.33454593244781 -13.481896316623967 32.720891386487025 0.0 0.0
-27.195380405509596 -3.0910296545479823 -9.085923018017272 -16.911545229861055 0.0 0.0
-117.02624777952957 -4.624156163427346 -36.49512118288707 -52.47570633690617 0.0 0.0
-245.92127047272584 -0.6909483662495894 -73.98366565169262 -61.49181346423513 0.0 0.0
-378.4536881166508 7.677592472551889 -111.516582937934 -54.22139146595306 0.0 0.0
-493.24342882313897 20.100344589227966 -160.6057910777627 -39.15144730696708 0.0 0.0
-579.8340391491829 11.0564235594059 -236.93017180280663 -29.879828004656677 0.0 0.0
-654.0570767433464 3.653838818658592 -304.08428406566964 -29.618685100543125 0.0 0.0
-723.9929568926718 -10.362688266154592 -358.376781842484 -31.705537331979635 0.0 0.0
-793.9167350451226 -31.050928402964175 -407.8001519289927 -34.08320276982609 0.0 0.0
-864.2175993520227 -57.187555274532315 -457.3752180060012 -35.41672849044165 0.0 0.0
-933.9777406161409 -86.77508097027243 -507.6818301384266 -35.513211262432975 0.0 0.0
-1002.6580423818878 -118.34274204422272 -558.2061002156629 -34.83905789125445 0.0 0.0
-1070.4073827946115 -152.1052311354356 -609.2290422650185 -33.92289357890806 0.0 0.0
-1138.5061378871176 -188.09507956344854 -661.449252156534 -32.87319485817445 0.0 0.0
-1207.6484606276235 -226.9986077861978 -715.5925502755531 -31.22889463629113 0.0 0.0
-1277.9887974504 -269.5649194151653 -772.0934918292667 -28.501884067867262 0.0 0.0
-1354.1862861846676 -321.81726256075814 -836.153983228348 -26.451620312212885 0.0 0.0
-1455.1626219631644 -405.77129113669446 -928.2439371459188 -31.140110094016464 0.0 0.0
-1616.048172516524 -562.9383983877913 -1087.3626947321673 -47.58530779517829 0.0 0.0
-1729.9776903477086 -699.3208516280264 -1213.0343998039043 -76.849273780974 0.0 0.0
-1729.9776903478837 -699.3208516282243 -1213.0343998040335 76.8492737810097 0.0 0.0
-1616.0481725168338 -562.9383983881669 -1087.3626947323392 47.585307795299094 0.0 0.0
-1455.1626219627756 -405.771291136379 -928.24393714564 31.140110094065587 0.0 0.0
-1354.1862861841414 -321.817262560326 -836.1539832279078 26.451620312181245 0.0 0.0
-1277.9887974498934 -269.5649194147641 -772.0934918287919 28.501884067870844 0.0 0.0
-1207.648460627347 -226.99860778607228 -715.5925502753513 31.22889463639329 0.0 0.0
-1138.5061378870932 -188.09507956360704 -661.4492521564795 32.873194858259566 0.0 0.0
-1070.4073827943114 -152.10523113533043 -609.2290422646954 33.922893578954444 0.0 0.0
-1002.6580423807518 -118.34274204330396 -558.2061002147818 34.83905789131042 0.0 0.0
-933.9777406153748 -86.77508096975451 -507.68183013785426 35.51321126245093 0.0 0.0
-864.2175993514453 -57.18755527419338 -457.3752180055899 35.4167284903167 0.0 0.0
-793.9167350446386 -31.050928402751005 -407.8001519286333 34.08320276980246 0.0 0.0
-723.992956892406 -10.362688266212018 -358.37678184227264 31.705537332050636 0.0 0.0
-654.0570767431404 3.653838818552625 -304.08428406543226 29.61868510046612 0.0 0.0
-579.8340391489738 11.056423559279636 -236.93017180255387 29.87982800459438 0.0 0.0
-493.2434288227627 20.100344589223024 -160.60579107752488 39.151447306959916 0.0 0.0
-378.45368811636433 7.677592472365378 -111.51658293792119 54.22139146590104 0.0 0.0
-245.92127047247948 -0.6909483662050242 -73.98366565160535 61.491813464196696 0.0 0.0
-117.02624777942722 -4.624156163432281 -36.495121182857844 52.47570633684853 0.0 0.0
-27.195380405533285 -3.0910296546263787 -9.085923018047898 16.91154522991657 0.0 0.0
-20.220799934397846 2.7649833931897163 -5.2367449623624385 -2.5135103597960184 0.0 0.0
-112.51760084441909 1.7780472623877444 -33.22186607460941 -21.31518920278203 0.0 0.0
-266.4634637498952 -2.098617993848972 -80.56862452312325 -24.74445266224278 0.0 0.0
-418.49304185255676 9.601586586690388 -124.35627337659997 -21.976140708061507 0.0 0.0
-527.271599405939 17.635897079220307 -182.9333434848062 -13.428089316557275 0.0 0.0
-605.4981658253183 8.582972768112015 -259.9406238306603 -9.828487678364784 0.0 0.0
-674.3161590668874 2.525692138678451 -319.9379951369644 -10.032114485228586 0.0 0.0
-743.3464811987551 -12.016822226004464 -370.9678228103934 -11.347093759061988 0.0 0.0
-814.3408782464505 -34.09911926572869 -420.35075924258155 -12.872201121286288 0.0 0.0
-887.4271812721684 -62.686640205355246 -472.1259438817301 -13.917459579777512 0.0 0.0
-961.2034059687433 -95.59411593529168 -525.9437037123736 -14.372058928926391 0.0 0.0
-1034.4865917364866 -131.74052860403623 -580.99027921629 -14.30885578495393 0.0 0.0
-1107.5307813771988 -169.91357340449804 -636.8243138868851 -14.075360978820166 0.0 0.0
-1181.6263688845013 -211.1962348084479 -694.6506716137103 -13.678392535889218 0.0 0.0
-1257.82825113917 -256.9305476952979 -755.7067642068874 -12.843787382386601 0.0 0.0
-1335.267789410585 -306.82557016025817 -819.4322823182031 -11.171766988697852 0.0 0.0
-1410.6977226504227 -358.7547356597514 -883.103599851585 -8.480932320197251 0.0 0.0
-1486.4893967979406 -416.932061798467 -949.8603566307361 -8.322205336171422 0.0 0.0
-1598.0663538974122 -520.8343655716288 -1057.1117256805644 -23.667832795702477 0.0 0.0
-1929.072405376278 -867.1561156536549 -1396.502663096426 -62.88779581190334 0.0 0.0
-1929.0724053759727 -867.1561156533697 -1396.5026630962252 62.88779581192456 0.0 0.0
-1598.0663538968802 -520.8343655711299 -1057.1117256801504 23.66783279567085 0.0 0.0
-1486.4893967979933 -416.9320617986052 -949.8603566306631 8.322205336282776 0.0 0.0
-1410.6977226498357 -358.7547356592568 -883.1035998511416 8.480932320181875 0.0 0.0
-1335.2677894098886 -306.8255701596814 -819.4322823176961 11.171766988715284 0.0 0.0
-1257.8282511377965 -256.93054769406444 -755.7067642059164 12.843787382452819 0.0 0.0
-1181.6263688832428 -211.19623480734361 -694.6506716127843 13.678392535840196 0.0 0.0
-1107.5307813770887 -169.91357340457216 -636.8243138867706 14.075360978729467 0.0 0.0
-1034.486591736902 -131.74052860469257 -580.9902792165417 14.308855785071124 0.0 0.0
-961.2034059689925 -95.59411593579892 -525.9437037124887 14.372058928953315 0.0 0.0
-887.4271812717843 -62.68664020522969 -472.1259438814586 13.917459579720017 0.0 0.0
-814.340878245925 -34.09911926547521 -420.3507592422329 12.872201121209443 0.0 0.0
-743.3464811979886 -12.016822225501116 -370.967822809888 11.3470937591248 0.0 0.0
-674.3161590663432 2.5256921389247964 -319.93799513657484 10.032114485179722 0.0 0.0
-605.4981658247933 8.582972768362605 -259.94062383023265 9.828487678375962 0.0 0.0
-527.2715994055218 17.63589707929935 -182.9333434844998 13.428089316659197 0.0 0.0
-418.49304185204164 9.601586586938177 -124.35627337637912 21.97614070807144 0.0 0.0
-266.46346374944994 -2.0986179934141678 -80.56862452285925 24.744452662249184 0.0 0.0
-112.5176008443372 1.7780472623862433 -33.22186607458528 21.31518920277989 0.0 0.0
-20.220799934346005 2.764983393259972 -5.23674496232581 2.513510359667916 0.0 0.0
SCALARS Strain float 6
LOOKUP_TABLE default
0.011039810448991666 -0.01210859503389275 0.0 -0.006666872420274195 0.0 0.0
0.0022787867701457507 -0.0013565813477121602 0.0 0.0011154997811643197 0.0 0.0
0.0017896848516922963 -0.0007307251793060576 0.0 -4.7551825434671846e-05 0.0 0.0
0.002222536427400997 -0.0010489372419902887 0.0 -0.00020223923005094346 0.0 0.0
0.0033281139548203918 -0.00191597394658638 0.0 -0.0002499263433647092 0.0 0.0
0.0055978830168031055 -0.0038904592100439395 0.0 -0.0003707718973986751 0.0 0.0
0.009229876041174158 -0.007249476965366375 0.0 -0.0005801013380562492 0.0 0.0
0.014440013377984454 -0.01218799265728654 0.0 -0.0008968507492995437 0.0 0.0
0.021338270144052277 -0.01880103440372638 0.0 -0.0013333140496174234 0.0 0.0
0.029922485767699437 -0.027079041183986963 0.0 -0.001853870969457494 0.0 0.0
0.04014311353605706 -0.036978376964793114 0.0 -0.0023934443408790695 0.0 0.0
0.0519568941995427 -0.048461405745440445 0.0 -0.0029307628450671863 0.0 0.0
0.06532797849222714 -0.06149677614761284 0.0 -0.0034722610613441285 0.0 0.0
0.08019397683556564 -0.07601806997911531 0.0 -0.0040182483415015235 0.0 0.0
0.09634288963410469 -0.09180839233435778 0.0 -0.0045582630274333125 0.0 0.0
0.11326071382389233 -0.10835603581969089 0.0 -0.004992660214425848 0.0 0.0
0.13005996287576777 -0.12478507207687084 0.0 -0.005117536358610009 0.0 0.0
0.14551368845626106 -0.13988420616982866 0.0 -0.004695412647533481 0.0 0.0
0.15814683858506473 -0.15219085118317865 0.0 -0.0038468658399329336 0.0 0.0
0.1659867258461642 -0.1595940258843105 0.0 -0.003917318647244095 0.0 0.0
0.16598672584615445 -0.15959402588430427 0.0 0.003917318647250645 0.0 0.0
0.1581468385850332 -0.15219085118315245 0.0 0.003846865839953084 0.0 0.0
0.14551368845620774 -0.13988420616977493 0.0 0.004695412647544139 0.0 0.0
0.13005996287570062 -0.12478507207680778 0.0 0.005117536358616115 0.0 0.0
0.11326071382381941 -0.10835603581962827 0.0 0.004992660214416134 0.0 0.0
0.09634288963402904 -0.09180839233428761 0.0 0.004558263027432674 0.0 0.0
0.08019397683549129 -0.07601806997903626 0.0 0.004018248341501995 0.0 0.0
0.06532797849215219 -0.06149677614753335 0.0 0.0034722610613455718 0.0 0.0
0.05195689419946936 -0.048461405745369834 0.0 0.0029307628450607748 0.0 0.0
0.04014311353599251 -0.03697837696472872 0.0 0.0023934443408749617 0.0 0.0
0.029922485767645335 -0.02707904118393789 0.0 0.0018538709694502775 0.0 0.0
0.021338270144010518 -0.018801034403685968 0.0 0.0013333140496156748 0.0 0.0
0.014440013377952199 -0.01218799265725612 0.0 0.0008968507492963518 0.0 0.0
0.009229876041152607 -0.007249476965347279 0.0 0.0005801013380549724 0.0 0.0
0.005597883016790622 -0.003890459210031949 0.0 0.00037077189739664895 0.0 0.0
0.003328113954814721 -0.001915973946581162 0.0 0.0002499263433642096 0.0 0.0
0.002222536427399585 -0.0010489372419891785 0.0 0.00020223923005094346 0.0 0.0
0.0017896848516914532 -0.0007307251793059466 0.0 4.7551825435171446e-05 0.0 0.0
0.0022787867701445363 -0.0013565813477103283 0.0 -0.001115499781162571 0.0 0.0
0.011039810448981113 -0.012108595033879212 0.0 0.006666872420241776 0.0 0.0
0.007782758532961998 -0.009227155760719086 0.0 -0.007992589344807233 0.0 0.0
0.0012488359826892809 -0.0006875534137061878 0.0 0.0001426532203443187 0.0 0.0
0.001533370975941313 -0.000553037031194914 0.0 -0.00013134311601048498 0.0 0.0
0.0019615256735442156 -0.0008854379051632666 0.0 -0.00045428272464734243 0.0 0.0
0.0028422302303189803 -0.0015325840434046167 0.0 -0.0005698129925351403 0.0 0.0
0.004783897430486458 -0.0031703254199417774 0.0 -0.0008674425248404727 0.0 0.0
0.008027516218014948 -0.006121804920596885 0.0 -0.0014035869388582811 0.0 0.0
0.012740813764892008 -0.0105559348425881 0.0 -0.0021686817367927713 0.0 0.0
0.01899244323643617 -0.016527285825419735 0.0 -0.003166905958097932 0.0 0.0
0.026740545819354228 -0.023983913103833965 0.0 -0.004316284803731557 0.0 0.0
0.03591021407691574 -0.03285443376622421 0.0 -0.00549354413624642 0.0 0.0
0.04646540612919396 -0.04310696956465421 0.0 -0.00663014042450516 0.0 0.0
0.05841743093529596 -0.05475107374302457 0.0 -0.007792194699126842 0.0 0.0
0.07174007752099738 -0.06775741689600379 0.0 -0.009009695091126896 0.0 0.0
0.08625610557703428 -0.08194658080950168 0.0 -0.010209866404519707 0.0 0.0
0.10152798019817096 -0.09688267073359924 0.0 -0.011188462360931573 0.0 0.0
0.11678514275880902 -0.11180147790676598 0.0 -0.011533401165121748 0.0 0.0
0.1309181936968546 -0.12560056392623675 0.0 -0.010838562404672847 0.0 0.0
0.14242785281651615 -0.13675676284244442 0.0 -0.009170567553007769 0.0 0.0
0.14935041830382007 -0.14341168502101853 0.0 -0.00636708406839348 0.0 0.0
0.14935041830381024 -0.14341168502100832 0.0 0.006367084068413353 0.0 0.0
0.14242785281648754 -0.13675676284241245 0.0 0.009170567553043574 0.0 0.0
0.13091819369680752 -0.12560056392619146 0.0 0.010838562404695495 0.0 0.0
0.11678514275875063 -0.11180147790671047 0.0 0.011533401165131574 0.0 0.0
0.10152798019810616 -0.09688267073353751 0.0 0.011188462360924412 0.0 0.0
0.08625610557696703 -0.08194658080943418 0.0 0.010209866404516488 0.0 0.0
0.07174007752093009 -0.06775741689593806 0.0 0.009009695091126257 0.0 0.0
0.05841743093522914 -0.054751073742957956 0.0 0.007792194699125288 0.0 0.0
0.046465406129128584 -0.04310696956459159 0.0 0.00663014042449428 0.0 0.0
0.03591021407685763 -0.03285443376616759 0.0 0.005493544136238426 0.0 0.0
0.0267405458193061 -0.023983913103784227 0.0 0.0043162848037198165 0.0 0.0
0.018992443236397955 -0.016527285825381766 0.0 0.0031669059580927694 0.0 0.0
0.012740813764862968 -0.010555934842565007 0.0 0.0021686817367870814 0.0 0.0
0.008027516217995578 -0.006121804920582008 0.0 0.0014035869388541178 0.0 0.0
0.004783897430476025 -0.0031703254199322295 0.0 0.0008674425248386686 0.0 0.0
0.002842230230314491 -0.001532584043400953 0.0 0.000569812992533919 0.0 0.0
0.0019615256735431574 -0.0008854379051635997 0.0 0.00045428272464514974 0.0 0.0
0.0015333709759407788 -0.0005530370311954136 0.0 0.000131343116009347 0.0 0.0
0.001248835982689156 -0.0006875534137048278 0.0 -0.0001426532203455122 0.0 0.0
0.007782758532949241 -0.009227155760704571 0.0 0.007992589344781142 0.0 0.0
0.005733211172523213 -0.0073255548749051325 0.0 -0.007392490399219909 0.0 0.0
0.0007374547080460786 -0.0004450761656548119 0.0 -0.0005512498291139478 0.0 0.0
0.0012297342883811 -0.0004088278899671005 0.0 -0.0004290266968330625 0.0 0.0
0.0017098226896862523 -0.000736898043921963 0.0 -0.000696617496977664 0.0 0.0
0.0024113102478400053 -0.0012173142344880095 0.0 -0.00085904063568637 0.0 0.0
0.00399981254161437 -0.00249887974374019 0.0 -0.001241053446907947 0.0 0.0
0.006832457631259718 -0.005014887282576597 0.0 -0.0020125628295360465 0.0 0.0
0.011022852173964981 -0.008920129435089796 0.0 -0.003147675877373357 0.0 0.0
0.016604523212032443 -0.014223609048553243 0.0 -0.00459184029459625 0.0 0.0
0.023502490255243993 -0.02084527175332651 0.0 -0.006229376585305424 0.0 0.0
0.03162256452990754 -0.028688865594011403 0.0 -0.007906030056697544 0.0 0.0
0.04092952167366971 -0.037719167944430865 0.0 -0.009529925113027277 0.0 0.0
0.0514530761266902 -0.04796290536877912 0.0 -0.011161475580564906 0.0 0.0
0.06321001543958284 -0.05943306381537372 0.0 -0.012889310831144307 0.0 0.0
0.07607604335649636 -0.07200503655978752 0.0 -0.014629242427641853 0.0 0.0
0.0896975476558168 -0.0853257157529903 0.0 -0.016055364645745918 0.0 0.0
0.10342967075146349 -0.09875097001119082 0.0 -0.016653677891043495 0.0 0.0
0.11626778122430019 -0.11126817071201112 0.0 -0.015894449213822603 0.0 0.0
0.12676850769632153 -0.12145867517325204 0.0 -0.013305154164254096 0.0 0.0
0.13327404333248938 -0.12774338816553144 0.0 -0.008166216781130275 0.0 0.0
0.13327404333248027 -0.12774338816552433 0.0 0.00816621678116225 0.0 0.0
0.12676850769629547 -0.12145867517322717 0.0 0.013305154164300226 0.0 0.0
0.11626778122425857 -0.1112681707119747 0.0 0.015894449213855077 0.0 0.0
0.10342967075141252 -0.09875097001114508 0.0 0.016653677891055874 0.0 0.0
0.08969754765575969 -0.08532571575294101 0.0 0.016055364645738424 0.0 0.0
0.07607604335643725 -0.072005036559732 0.0 0.014629242427635969 0.0 0.0
0.06321001543952287 -0.05943306381531377 0.0 0.01288931083114142 0.0 0.0
0.051453076126631136 -0.0479629053687205 0.0 0.011161475580560465 0.0 0.0
0.040929521673612385 -0.03771916794437136 0.0 0.009529925113012427 0.0 0.0
0.03162256452985643 -0.02868886559395789 0.0 0.007906030056684554 0.0 0.0
0.02350249025520157 -0.020845271753284544 0.0 0.006229376585289548 0.0 0.0
0.01660452321199818 -0.014223609048516828 0.0 0.0045918402945862025 0.0 0.0
0.011022852173939085 -0.008920129435062485 0.0 0.0031476758773643643 0.0 0.0
0.006832457631243072 -0.0050148872825606094 0.0 0.002012562829531106 0.0 0.0
0.0039998125416060015 -0.0024988797437328625 0.0 0.0012410534469045609 0.0 0.0
0.0024113102478365844 -0.0012173142344870103 0.0 0.0008590406356841773 0.0 0.0
0.0017098226896855584 -0.0007368980439222961 0.0 0.0006966174969758043 0.0 0.0
0.0012297342883811069 -0.00040882788996776664 0.0 0.0004290266968324241 0.0 0.0
0.0007374547080461757 -0.00044507616565314656 0.0 0.0005512498291112278 0.0 0.0
0.005733211172511188 -0.0073255548748915045 0.0 0.00739249039919887 0.0 0.0
0.004307068967904004 -0.005894874143107576 0.0 -0.006274985471225014 0.0 0.0
0.00046318670246097565 -0.0003323157928772913 0.0 -0.0011386416017348244 0.0 0.0
0.0009529393837312619 -0.00029797203117076787 0.0 -0.0008212856900815246 0.0 0.0
0.0014561489658456162 -0.0005995438402099929 0.0 -0.0009631405887696176 0.0 0.0
0.0020306483129315586 -0.000967835413915985 0.0 -0.0011386614400844819 0.0 0.0
0.0032792564656740075 -0.0019142208656104387 0.0 -0.0015207506550179717 0.0 0.0
0.005653868820302305 -0.003953941060584221 0.0 -0.0024162828211215237 0.0 0.0
0.009304821020634749 -0.0072992237003224325 0.0 -0.0038280651818365097 0.0 0.0
0.014195498076963596 -0.011914943370036513 0.0 -0.005599732932235479 0.0 0.0
0.020231919350317693 -0.017688960155389344 0.0 -0.007594833645434479 0.0 0.0
0.02730172054700871 -0.02450370211126751 0.0 -0.009628312229716995 0.0 0.0
0.03536485460097677 -0.03231504656495199 0.0 -0.011607445248600468 0.0 0.0
0.04446263060238918 -0.04116138248165502 0.0 -0.013607721833994224 0.0 0.0
0.054642213326255754 -0.05108359274579444 0.0 -0.015684555078744944 0.0 0.0
0.06583619092157152 -0.06201678805539368 0.0 -0.017770196115419745 0.0 0.0
0.07778778783652349 -0.07370354924098121 0.0 -0.019559389495092616 0.0 0.0
0.08997852407730543 -0.08561792994535278 0.0 -0.02045508034079696 0.0 0.0
0.10153761589434841 -0.09688729845545208 0.0 -0.01971599729499729 0.0 0.0
0.1112011174983731 -0.10627368589052644 0.0 -0.016450333401767492 0.0 0.0
0.11751903425386437 -0.11239150468657177 0.0 -0.009647070360869647 0.0 0.0
0.11751903425385601 -0.11239150468656156 0.0 0.009647070360912058 0.0 0.0
0.11120111749834899 -0.10627368589049935 0.0 0.01645033340182156 0.0 0.0
0.10153761589431184 -0.09688729845541344 0.0 0.01971599729503304 0.0 0.0
0.08997852407726087 -0.08561792994530615 0.0 0.020455080340811227 0.0 0.0
0.07778778783647403 -0.07370354924092881 0.0 0.01955938949508429 0.0 0.0
0.06583619092152004 -0.06201678805534305 0.0 0.01777019611541175 0.0 0.0
0.05464221332620353 -0.05108359274574292 0.0 0.015684555078739004 0.0 0.0
0.044462630602338016 -0.04116138248160883 0.0 0.013607721833986286 0.0 0.0
0.03536485460092742 -0.03231504656491069 0.0 0.011607445248585035 0.0 0.0
0.027301720546965058 -0.02450370211122843 0.0 0.009628312229703173 0.0 0.0
0.02023191935028032 -0.017688960155351374 0.0 0.007594833645417409 0.0 0.0
0.014195498076933794 -0.011914943370007647 0.0 0.00559973293222471 0.0 0.0
0.009304821020612225 -0.0072992237003022264 0.0 0.0038280651818257128 0.0 0.0
0.005653868820288455 -0.003953941060572896 0.0 0.002416282821115223 0.0 0.0
0.003279256465667374 -0.0019142208656048876 0.0 0.0015207506550140582 0.0 0.0
0.0020306483129291786 -0.0009678354139127654 0.0 0.0011386614400842876 0.0 0.0
0.0014561489658452276 -0.000599543840210548 0.0 0.000963140588769118 0.0 0.0
0.000952939383731366 -0.0002979720311704903 0.0 0.0008212856900808307 0.0 0.0
0.0004631867024609271 -0.00033231579287576474 0.0 0.0011386416017328815 0.0 0.0
0.004307068967893513 -0.0058948741430958195 0.0 0.006274985471207889 0.0 0.0
0.0032297398499993996 -0.004733300647566885 0.0 -0.005138304489020196 0.0 0.0
0.0003091702555156617 -0.00027489524388463193 0.0 -0.0015955468684094587 0.0 0.0
0.0007199843512842724 -0.00021656083757470856 0.0 -0.0012173991338408907 0.0 0.0
0.0012009359002908004 -0.00047530861083977527 0.0 -0.0012536546286245343 0.0 0.0
0.001688301700110001 -0.0007681756670885331 0.0 -0.0014110832414792052 0.0 0.0
0.0026374296513369117 -0.001431550871935583 0.0 -0.0017647696281198333 0.0 0.0
0.004530317439545378 -0.002976025431442597 0.0 -0.0026369130510535133 0.0 0.0
0.007598108285971877 -0.005714545416925398 0.0 -0.004169503128193308 0.0 0.0
0.011786763701673267 -0.009625184997680503 0.0 -0.006182138185902963 0.0 0.0
0.016950952301535496 -0.014539521696049551 0.0 -0.008404807268701908 0.0 0.0
0.022969767538349783 -0.020322862620943738 0.0 -0.010665866588650819 0.0 0.0
0.029792966681728622 -0.026919237427406095 0.0 -0.012862932810876582 0.0 0.0
0.037467767117631806 -0.0343696062911274 0.0 -0.015075539844133012 0.0 0.0
0.04606801915015023 -0.0427437642180406 0.0 -0.01738760354505625 0.0 0.0
0.05557856596058476 -0.052025920544027215 0.0 -0.01969115083646472 0.0 0.0
0.0658262049905798 -0.06204220310789177 0.0 -0.021676189035528926 0.0 0.0
0.07642793308579332 -0.0724058914369281 0.0 -0.022825842853667178 0.0 0.0
0.08671388614904439 -0.08243954179178381 0.0 -0.02226034893042017 0.0 0.0
0.09564569337334751 -0.0911226411196564 0.0 -0.018714945073267653 0.0 0.0
0.10192619772193515 -0.09721035497803143 0.0 -0.010902376834840188 0.0 0.0
0.10192619772192721 -0.09721035497802566 0.0 0.010902376834882599 0.0 0.0
0.09564569337332576 -0.09112264111964308 0.0 0.018714945073322387 0.0 0.0
0.08671388614901274 -0.08243954179175983 0.0 0.022260348930457585 0.0 0.0
0.07642793308575535 -0.0724058914368948 0.0 0.022825842853685163 0.0 0.0
0.06582620499053798 -0.06204220310785313 0.0 0.021676189035523374 0.0 0.0
0.0555785659605407 -0.05202592054398192 0.0 0.019691150836459448 0.0 0.0
0.04606801915010586 -0.04274376421799353 0.0 0.01738760354505209 0.0 0.0
0.03746776711758873 -0.034369606291081656 0.0 0.015075539844125796 0.0 0.0
0.029792966681687044 -0.02691923742736524 0.0 0.012862932810859484 0.0 0.0
0.0229697675383132 -0.020322862620908433 0.0 0.010665866588633888 0.0 0.0
0.016950952301503425 -0.014539521696018909 0.0 0.008404807268679926 0.0 0.0
0.011786763701647746 -0.009625184997660075 0.0 0.006182138185888975 0.0 0.0
0.007598108285953448 -0.005714545416908745 0.0 0.004169503128181373 0.0 0.0
0.004530317439534193 -0.002976025431432827 0.0 0.0026369130510472405 0.0 0.0
0.002637429651332096 -0.0014315508719324743 0.0 0.001764769628116336 0.0 0.0
0.0016883017001084744 -0.0007681756670867568 0.0 0.001411083241477512 0.0 0.0
0.001200935900290384 -0.0004753086108398863 0.0 0.0012536546286234518 0.0 0.0
0.000719984351284314 -0.00021656083757420896 0.0 0.0012173991338382262 0.0 0.0
0.0003091702555154674 -0.0002748952438832164 0.0 0.0015955468684062668 0.0 0.0
0.0032297398499907815 -0.004733300647557106 0.0 0.005138304489007539 0.0 0.0
0.002389206334591304 -0.0037650158222039265 0.0 -0.004148476604956375 0.0 0.0
0.00021442408705217575 -0.00024042137218083237 0.0 -0.0019348459968115406 0.0 0.0
0.0005236316632876159 -0.00015450253953852577 0.0 -0.001568780858332397 0.0 0.0
0.0009463714112663973 -0.00035943652071124266 0.0 -0.0015420839941221454 0.0 0.0
0.0013711410690517428 -0.0006010921062531427 0.0 -0.0016767346749878287 0.0 0.0
0.0020665498710144975 -0.0010489044400059377 0.0 -0.0019931404949337095 0.0 0.0
0.0035010335344081572 -0.0021326343115040114 0.0 -0.002781828701961808 0.0 0.0
0.005939834261172727 -0.0042210651542899935 0.0 -0.004243360808281527 0.0 0.0
0.009394870500268368 -0.007379192093361686 0.0 -0.006304427615347219 0.0 0.0
0.013682420129522074 -0.01142381777620538 0.0 -0.008644953057924287 0.0 0.0
0.018647384638113745 -0.01617252082964482 0.0 -0.010998585517988657 0.0 0.0
0.024236659858096074 -0.021557659778445704 0.0 -0.01328371644324422 0.0 0.0
0.03049556105539078 -0.027618988139263667 0.0 -0.015579228480971263 0.0 0.0
0.03751538023839973 -0.03444367451558383 0.0 -0.017952724075704696 0.0 0.0
0.045333799020638124 -0.042065347641954354 0.0 -0.020333191021746577 0.0 0.0
0.053849101787011217 -0.050383461785191486 0.0 -0.022430119538965787 0.0 0.0
0.0628017263787651 -0.059138758855177276 0.0 -0.02373317237999434 0.0 0.0
0.0717654416670468 -0.0678951420933398 0.0 -0.023426592946658775 0.0 0.0
0.07999790033433583 -0.07590830206807819 0.0 -0.020066255254416965 0.0 0.0
0.08634850912141342 -0.08206431042507578 0.0 -0.01195576174662294 0.0 0.0
0.08634850912140618 -0.08206431042506779 0.0 0.01195576174666435 0.0 0.0
0.07999790033431692 -0.07590830206806043 0.0 0.020066255254472143 0.0 0.0
0.07176544166702012 -0.06789514209331449 0.0 0.023426592946698133 0.0 0.0
0.06280172637873377 -0.05913875885514708 0.0 0.02373317238001027 0.0 0.0
0.05384910178697666 -0.05038346178515685 0.0 0.022430119538960125 0.0 0.0
0.045333799020601445 -0.04206534764191705 0.0 0.020333191021737362 0.0 0.0
0.03751538023836329 -0.034443674515546974 0.0 0.017952724075698256 0.0 0.0
0.030495561055356113 -0.02761898813923036 0.0 0.015579228480963825 0.0 0.0
0.024236659858062587 -0.021557659778419058 0.0 0.013283716443229454 0.0 0.0
0.01864738463808374 -0.016172520829617287 0.0 0.010998585517973558 0.0 0.0
0.013682420129495637 -0.011423817776180956 0.0 0.008644953057901195 0.0 0.0
0.009394870500247676 -0.007379192093342368 0.0 0.006304427615333008 0.0 0.0
0.005939834261158572 -0.004221065154277559 0.0 0.004243360808271535 0.0 0.0
0.0035010335343994003 -0.002132634311497794 0.0 0.0027818287019553134 0.0 0.0
0.002066549871011125 -0.0010489044400041614 0.0 0.001993140494930268 0.0 0.0
0.001371141069050813 -0.0006010921062526986 0.0 0.0016767346749866352 0.0 0.0
0.0009463714112658284 -0.0003594365207103545 0.0 0.0015420839941199527 0.0 0.0
0.0005236316632876437 -0.00015450253953885884 0.0 0.0015687808583284835 0.0 0.0
0.00021442408705218963 -0.0002404213721804993 0.0 0.0019348459968087095 0.0 0.0
0.002389206334584698 -0.003765015822195938 0.0 0.004148476604947188 0.0 0.0
0.0017287268074467899 -0.002951099679528807 0.0 -0.0033343323401870406 0.0 0.0
0.0001466820372424127 -0.00021735794545585385 0.0 -0.002171743825553629 0.0 0.0
0.0003512643159959278 -0.00010199920831899245 0.0 -0.001855188027172272 0.0 0.0
0.0006952827377635085 -0.00024691428466405707 0.0 -0.001805814528600569 0.0 0.0
0.0010616489207004864 -0.00045259100774819316 0.0 -0.00193653135160618 0.0 0.0
0.001561523020162492 -0.000745513054883018 0.0 -0.0021957834287403832 0.0 0.0
0.0025707414068232293 -0.0014328200922897327 0.0 -0.0028457265394852826 0.0 0.0
0.00438425717685656 -0.002881300645274143 0.0 -0.004125538449613775 0.0 0.0
0.007057419068055043 -0.005236335464692932 0.0 -0.006010158477065319 0.0 0.0
0.01044622516307575 -0.008373493137425303 0.0 -0.008274876217007177 0.0 0.0
0.014354882250959142 -0.012081223452270251 0.0 -0.0106098330086431 0.0 0.0
0.01871771134984232 -0.016260082319385027 0.0 -0.012854434126887027 0.0 0.0
0.023571520653540276 -0.02094229806277026 0.0 -0.01508588748659817 0.0 0.0
0.029017602981184054 -0.026223549099971155 0.0 -0.017387284795292002 0.0 0.0
0.035131040835157015 -0.032175040074986505 0.0 -0.01969496054247244 0.0 0.0
0.04188912285048882 -0.038765391983415665 0.0 -0.02174332386497191 0.0 0.0
0.04913320807695773 -0.045852241756825673 0.0 -0.02312343715547127 0.0 0.0
0.056672529311319345 -0.053238785713062065 0.0 -0.023168308081084665 0.0 0.0
0.06414290349071017 -0.06052838404032235 0.0 -0.020432858166780754 0.0 0.0
0.07062647270797304 -0.06680815520255257 0.0 -0.012793350201508846 0.0 0.0
0.07062647270796726 -0.06680815520254457 0.0 0.012793350201549036 0.0 0.0
0.06414290349069487 -0.06052838404030103 0.0 0.020432858166836265 0.0 0.0
0.05667252931129768 -0.05323878571303986 0.0 0.023168308081126465 0.0 0.0
0.049133208076932666 -0.045852241756796364 0.0 0.02312343715548848 0.0 0.0
0.0418891228504609 -0.03876539198338591 0.0 0.02174332386496558 0.0 0.0
0.03513104083512822 -0.032175040074954975 0.0 0.019694960542463114 0.0 0.0
0.029017602981156077 -0.026223549099940513 0.0 0.01738728479528462 0.0 0.0
0.023571520653514283 -0.020942298062744058 0.0 0.01508588748659101 0.0 0.0
0.0187177113498167 -0.016260082319357494 0.0 0.012854434126870817 0.0 0.0
0.014354882250935369 -0.012081223452246936 0.0 0.010609833008624614 0.0 0.0
0.010446225163055295 -0.00837349313740643 0.0 0.008274876216985971 0.0 0.0
0.007057419068039472 -0.005236335464678943 0.0 0.006010158477053051 0.0 0.0
0.004384257176846346 -0.0028813006452665935 0.0 0.004125538449604671 0.0 0.0
0.002570741406817151 -0.00143282009228618 0.0 0.002845726539481841 0.0 0.0
0.0015615230201601882 -0.0007455130548821298 0.0 0.0021957834287388844 0.0 0.0
0.0010616489206998203 -0.0004525910077487483 0.0 0.0019365313516042926 0.0 0.0
0.0006952827377631199 -0.00024691428466439014 0.0 0.0018058145285980431 0.0 0.0
0.00035126431599594166 -0.00010199920831949205 0.0 0.0018551880271709675 0.0 0.0
0.00014668203724219064 -0.00021735794545549303 0.0 0.0021717438255520194 0.0 0.0
0.0017287268074419326 -0.0029510996795226955 0.0 0.003334332340179047 0.0 0.0
0.0012206114686523495 -0.00228394493114481 0.0 -0.0027018420672627608 0.0 0.0
8.335423418932841e-05 -0.0001978188668851355 0.0 -0.002309941146400596 0.0 0.0
0.0001925737718085213 -5.112603675605509e-05 0.0 -0.002076387092113441 0.0 0.0
0.0004503985666828719 -0.00013709643233783542 0.0 -0.002026305638783865 0.0 0.0
0.0007458297033138689 -0.0003065619955566756 0.0 -0.002165740969486324 0.0 0.0
0.0011047837742217542 -0.0005065667146113562 0.0 -0.0024128069005815433 0.0 0.0
0.0017455334516531251 -0.0008873823518007473 0.0 -0.002890880352757419 0.0 0.0
0.0029579468952747323 -0.001743305375732529 0.0 -0.0038626750513243158 0.0 0.0
0.004833067515389838 -0.0032805446420780537 0.0 -0.005397638854308218 0.0 0.0
0.007278922098888932 -0.005457562547903638 0.0 -0.007339464217077762 0.0 0.0
0.010116481632934285 -0.008094149485277313 0.0 -0.009448052865755341 0.0 0.0
0.013255760986911641 -0.011066877869189806 0.0 -0.011520561870636492 0.0 0.0
0.016719758348262184 -0.014381466335166682 0.0 -0.013573382015002688 0.0 0.0
0.020601769587416288 -0.018127984986187062 0.0 -0.015653916392479372 0.0 0.0
0.025004502826582814 -0.02240215184451655 0.0 -0.017744079262525192 0.0 0.0
0.029977076998086244 -0.027242635765732715 0.0 -0.019637162636860328 0.0 0.0
0.03546696873154677 -0.03260067034488845 0.0 -0.02093353174326268 0.0 0.0
0.041438196465587815 -0.03847533271219605 0.0 -0.021268629597416266 0.0 0.0
0.04795888438657367 -0.044884499007332046 0.0 -0.01960429910578637 0.0 0.0
0.05456966434810516 -0.05128282645190385 0.0 -0.013362835027600717 0.0 0.0
0.05456966434810118 -0.05128282645190252 0.0 0.013362835027634579 0.0 0.0
0.047958884386562706 -0.04488449900732938 0.0 0.019604299105836165 0.0 0.0
0.04143819646557123 -0.03847533271218806 0.0 0.021268629597452127 0.0 0.0
0.03546696873152802 -0.032600670344878235 0.0 0.02093353174327517 0.0 0.0
0.0299770769980659 -0.027242635765716283 0.0 0.019637162636852112 0.0 0.0
0.025004502826561914 -0.022402151844497453 0.0 0.01774407926251509 0.0 0.0
0.020601769587397206 -0.01812798498617374 0.0 0.015653916392471268 0.0 0.0
0.0167197583482441 -0.014381466335156468 0.0 0.01357338201499625 0.0 0.0
0.013255760986894294 -0.011066877869176484 0.0 0.011520561870624224 0.0 0.0
0.010116481632917118 -0.008094149485263102 0.0 0.009448052865741574 0.0 0.0
0.0072789220988746794 -0.005457562547888983 0.0 0.007339464217058056 0.0 0.0
0.004833067515379624 -0.0032805446420678397 0.0 0.0053976388542977816 0.0 0.0
0.002957946895267932 -0.0017433053757267558 0.0 0.003862675051318043 0.0 0.0
0.0017455334516493504 -0.0008873823518000812 0.0 0.002890880352752312 0.0 0.0
0.0011047837742203526 -0.0005065667146111341 0.0 0.0024128069005786568 0.0 0.0
0.0007458297033133832 -0.0003065619955550103 0.0 0.0021657409694836594 0.0 0.0
0.00045039856668285805 -0.00013709643233861257 0.0 0.002026305638780951 0.0 0.0
0.00019257377180836865 -5.112603675622163e-05 0.0 0.002076387092110943 0.0 0.0
8.335423418900922e-05 -0.00019781886688491346 0.0 0.0023099411463985697 0.0 0.0
0.001220611468648991 -0.002283944931140345 0.0 0.002701842067257376 0.0 0.0
0.0008511162279827705 -0.0017702875918447214 0.0 -0.002257287142365061 0.0 0.0
1.1850445599329018e-05 -0.0001801668537881329 0.0 -0.0023844825767403155 0.0 0.0
4.148735417944249e-05 3.7127481092857906e-06 0.0 -0.0022345264652519625 0.0 0.0
0.00021302490275139363 -3.171826094550134e-05 0.0 -0.0021966098998355554 0.0 0.0
0.00042213336817926994 -0.00015429378222320267 0.0 -0.0023356018208101903 0.0 0.0
0.0006596408169805557 -0.0002940309713503897 0.0 -0.002614539884458811 0.0 0.0
0.0010193577588143016 -0.00048421918393026786 0.0 -0.0029890205832583394 0.0 0.0
0.0016812153056871837 -0.0008636364315790512 0.0 -0.0035824912149401422 0.0 0.0
0.002770617885757748 -0.0016181350446349274 0.0 -0.004574153272592696 0.0 0.0
0.004239892406864482 -0.0028026292751131 0.0 -0.005948124278865763 0.0 0.0
0.005973187640416697 -0.004320549522599304 0.0 -0.007575390813264027 0.0 0.0
0.00787239244156547 -0.006061742332771125 0.0 -0.00928107942770634 0.0 0.0
0.009955979991714603 -0.00801049313167912 0.0 -0.011039087210878928 0.0 0.0
0.012291587671192497 -0.01023396496974982 0.0 -0.012807529501516535 0.0 0.0
0.01497784563584878 -0.01282473875472201 0.0 -0.01457469895495167 0.0 0.0
0.018130681351596234 -0.01588454435426101 0.0 -0.016239447013089103 0.0 0.0
0.02183269593778389 -0.019479460430737117 0.0 -0.017467261857146865 0.0 0.0
0.026145093460844177 -0.023703046062422573 0.0 -0.017871583457001294 0.0 0.0
0.03136389987700389 -0.028923532856299783 0.0 -0.017255080402910294 0.0 0.0
0.03791035965607652 -0.03528476507352396 0.0 -0.013456724924879482 0.0 0.0
0.03791035965607423 -0.0352847650735173 0.0 0.013456724924908348 0.0 0.0
0.031363899876997725 -0.02892353285629179 0.0 0.017255080402954426 0.0 0.0
0.026145093460832658 -0.02370304606240836 0.0 0.017871583457035545 0.0 0.0
0.021832695937771623 -0.019479460430719797 0.0 0.01746726185715497 0.0 0.0
0.01813068135158441 -0.015884544354247687 0.0 0.016239447013079444 0.0 0.0
0.014977845635836567 -0.01282473875470913 0.0 0.014574698954943122 0.0 0.0
0.012291587671182047 -0.010233964969736498 0.0 0.012807529501511206 0.0 0.0
0.009955979991705055 -0.008010493131670682 0.0 0.011039087210875431 0.0 0.0
0.007872392441556103 -0.00606174233276402 0.0 0.009281079427698402 0.0 0.0
0.005973187640406746 -0.004320549522589534 0.0 0.007575390813252869 0.0 0.0
0.004239892406856488 -0.0028026292751053283 0.0 0.005948124278853106 0.0 0.0
0.0027706178857523633 -0.0016181350446300424 0.0 0.0045741532725859235 0.0 0.0
0.001681215305683964 -0.0008636364315792733 0.0 0.0035824912149346466 0.0 0.0
0.0010193577588122338 -0.0004842191839296017 0.0 0.002989020583254509 0.0 0.0
0.0006596408169797785 -0.0002940309713508338 0.0 0.002614539884455258 0.0 0.0
0.0004221333681791728 -0.00015429378222175938 0.0 0.002335601820807276 0.0 0.0
0.00021302490275149077 -3.171826094405805e-05 0.0 0.002196609899833085 0.0 0.0
4.148735417922045e-05 3.712748109840902e-06 0.0 0.002234526465249187 0.0 0.0
1.1850445599342896e-05 -0.00018016685378802189 0.0 0.0023844825767389832 0.0 0.0
0.0008511162279807027 -0.001770287591841892 0.0 0.0022572871423631458 0.0 0.0
0.0005920517504306166 -0.0013865099986219154 0.0 -0.0019590485536035984 0.0 0.0
-6.305753653515489e-05 -0.0001651231132553388 0.0 -0.002425725569557252 0.0 0.0
-0.00010463689072268134 6.239855532319538e-05 0.0 -0.0023357005642423156 0.0 0.0
-1.7122590845464192e-05 6.983594499954116e-05 0.0 -0.0023099469545930507 0.0 0.0
9.674910481391463e-05 -2.0942645706512053e-07 0.0 -0.0024379648392575393 0.0 0.0
0.000205340374199392 -7.845078667045868e-05 0.0 -0.002735941523132779 0.0 0.0
0.000335333303521701 -0.00015473426098133736 0.0 -0.003144449639370661 0.0 0.0
0.000541004331956696 -0.00025856874669871743 0.0 -0.0035594263693085604 0.0 0.0
0.0008929111436404291 -0.00043579781707836496 0.0 -0.004027685103292322 0.0 0.0
0.0013804043780459296 -0.0007207139540510443 0.0 -0.004695887553921252 0.0 0.0
0.001965597669092739 -0.001110232714081505 0.0 -0.005667734096414301 0.0 0.0
0.0025967708265544065 -0.001578636508731801 0.0 -0.006857591565402332 0.0 0.0
0.0032840101633233587 -0.002133252724383805 0.0 -0.00823183472571376 0.0 0.0
0.004063400816944285 -0.0028153798441206135 0.0 -0.009774730684612987 0.0 0.0
0.0050202420313812945 -0.003697647604444132 0.0 -0.011468721205165733 0.0 0.0
0.00632155768018966 -0.0049265268027363085 0.0 -0.013191228123124232 0.0 0.0
0.008207684915769287 -0.006717274552693109 0.0 -0.014584146494043715 0.0 0.0
0.010895768549523593 -0.009268662498383762 0.0 -0.015058052409244405 0.0 0.0
0.01459128971908133 -0.01292711519619072 0.0 -0.014486987366683302 0.0 0.0
0.02034488985992769 -0.018742813037081696 0.0 -0.013129785353841128 0.0 0.0
0.02034488985992719 -0.01874281303707903 0.0 0.013129785353866219 0.0 0.0
0.014591289719079192 -0.012927115196188055 0.0 0.014486987366717718 0.0 0.0
0.010895768549517543 -0.009268662498375324 0.0 0.01505805240926672 0.0 0.0
0.00820768491576468 -0.0067172745526864475 0.0 0.014584146494043937 0.0 0.0
0.006321557680186829 -0.004926526802732756 0.0 0.01319122812311413 0.0 0.0
0.005020242031378269 -0.0036976476044361384 0.0 0.011468721205156074 0.0 0.0
0.004063400816942175 -0.002815379844118393 0.0 0.009774730684607769 0.0 0.0
0.0032840101633226093 -0.002133252724383805 0.0 0.008231834725710097 0.0 0.0
0.002596770826552852 -0.001578636508731357 0.0 0.006857591565392562 0.0 0.0
0.001965597669090824 -0.0011102327140806167 0.0 0.005667734096404531 0.0 0.0
0.0013804043780444308 -0.0007207139540497121 0.0 0.004695887553913425 0.0 0.0
0.0008929111436392079 -0.00043579781707481224 0.0 0.0040276851032889915 0.0 0.0
0.0005410043319564739 -0.0002585687466980513 0.0 0.0035594263693067285 0.0 0.0
0.0003353333035211459 -0.00015473426098133736 0.0 0.0031444496393676635 0.0 0.0
0.0002053403741991977 -7.845078667068073e-05 0.0 0.0027359415231299478 0.0 0.0
9.674910481421994e-05 -2.0942645750920974e-07 0.0 0.0024379648392563735 0.0 0.0
-1.712259084535317e-05 6.983594499987422e-05 0.0 0.0023099469545917184 0.0 0.0
-0.00010463689072279236 6.239855532375049e-05 0.0 0.0023357005642403172 0.0 0.0
-6.305753653501611e-05 -0.00016512311325569962 0.0 0.0024257255695556423 0.0 0.0
0.0005920517504293676 -0.0013865099986203784 0.0 0.0019590485536008506 0.0 0.0
0.00041187423399063894 -0.0011063666691764062 0.0 -0.001763773922266565 0.0 0.0
-0.0001329165654677944 -0.00014308456219919163 0.0 -0.002425678368496109 0.0 0.0
-0.0002451708520834761 0.00011975866261382251 0.0 -0.0023863152538998733 0.0 0.0
-0.00024033214939961356 0.0001681406549607356 0.0 -0.002363620970587732 0.0 0.0
-0.0002252025045136885 0.00015170016524068686 0.0 -0.002472528507937999 0.0 0.0
-0.00025317733491861394 0.00014019125395225984 0.0 -0.0027503625648186425 0.0 0.0
-0.00034919624875306976 0.0001705027599891995 0.0 -0.0031491538814378828 0.0 0.0
-0.0005435778828422055 0.0002612444266487657 0.0 -0.003562683925092791 0.0 0.0
-0.0008918014600672042 0.00043554097578146767 0.0 -0.004028879246675499 0.0 0.0
-0.0013787060180917299 0.0007198113487485447 0.0 -0.00469418729698623 0.0 0.0
-0.001967392273839852 0.0011141386164204015 0.0 -0.005664862650798408 0.0 0.0
-0.0026184397391595116 0.0016008303424595027 0.0 -0.006859357034176172 0.0 0.0
-0.003342914874647107 0.0021848238256119146 0.0 -0.008237361647190133 0.0 0.0
-0.004136704347358217 0.002860979668478869 0.0 -0.00978087294955221 0.0 0.0
-0.004920044463320616 0.003543377657140745 0.0 -0.01148920754152416 0.0 0.0
-0.0054936839423399 0.004037142110845604 0.0 -0.0133241206840774 0.0 0.0
-0.005505134765980579 0.004021153080227879 0.0 -0.015254830518725448 0.0 0.0
-0.004575516945335839 0.0032383138608436113 0.0 -0.017300240578379755 0.0 0.0
-0.0024081430914551227 0.0015805487936106921 0.0 -0.019098348110768826 0.0 0.0
0.0028627231688145294 -0.0033263441994710874 0.0 -0.017430684090021353 0.0 0.0
0.002862723168814113 -0.003326344199473308 0.0 0.017430684090036563 0.0 0.0
-0.0024081430914552338 0.0015805487936075835 0.0 0.01909834811078448 0.0 0.0
-0.004575516945334743 0.0032383138608458317 0.0 0.017300240578385306 0.0 0.0
-0.005505134765975417 0.004021153080226991 0.0 0.015254830518716456 0.0 0.0
-0.005493683942332572 0.004037142110836722 0.0 0.013324120684065355 0.0 0.0
-0.004920044463314718 0.0035433776571336395 0.0 0.011489207541515722 0.0 0.0
-0.004136704347351944 0.0028609796684757605 0.0 0.009780872949543884 0.0 0.0
-0.003342914874639516 0.002184823825603477 0.0 0.008237361647184804 0.0 0.0
-0.00261843973915242 0.0016008303424497328 0.0 0.006859357034167124 0.0 0.0
-0.001967392273833579 0.0011141386164146283 0.0 0.005664862650788638 0.0 0.0
-0.001378706018086387 0.0007198113487458802 0.0 0.004694187296979624 0.0 0.0
-0.0008918014600640956 0.0004355409757796913 0.0 0.004028879246671946 0.0 0.0
-0.0005435778828402626 0.0002612444266474334 0.0 0.0035626839250910702 0.0 0.0
-0.0003491962487522232 0.00017050275999075382 0.0 0.003149153881434885 0.0 0.0
-0.0002531773349179617 0.0001401912539540362 0.0 0.00275036256481348 0.0 0.0
-0.00022520250451295298 0.00015170016524257424 0.0 0.002472528507935945 0.0 0.0
-0.00024033214939950254 0.00016814065496095765 0.0 0.002363620970586372 0.0 0.0
-0.0002451708520835316 0.00011975866261421109 0.0 0.002386315253898097 0.0 0.0
-0.000132916565467725 -0.00014308456219894183 0.0 0.0024256783684953043 0.0 0.0
0.00041187423398980627 -0.0011063666691755927 0.0 0.0017637739222647053 0.0 0.0
0.00028663913926166296 -0.0008810221853274014 0.0 -0.0015932117524767586 0.0 0.0
-0.00019583221711591547 -0.00011281192814494023 0.0 -0.0023752490205365406 0.0 0.0
-0.0003783460184201004 0.0001739084634614363 0.0 -0.0023841700895712026 0.0 0.0
-0.00045572422078057895 0.0002619731904075495 0.0 -0.002353472189672967 0.0 0.0
-0.0005407658473556287 0.00029887036158515734 0.0 -0.002433480041421132 0.0 0.0
-0.0007044943347813692 0.00035400987171985143 0.0 -0.002663310463849433 0.0 0.0
-0.0010327185280422924 0.0005000334112845728 0.0 -0.0030086563221118356 0.0 0.0
-0.001683047604427751 0.0008663355944711348 0.0 -0.0035910873278998112 0.0 0.0
-0.0027683968270575954 0.0016168350330938441 0.0 -0.004575015692583395 0.0 0.0
-0.0042378998512495325 0.0028017387548988637 0.0 -0.0059458281779375954 0.0 0.0
-0.0059765245738291894 0.004326778888975369 0.0 -0.007573920768570164 0.0 0.0
-0.007893979414995811 0.006087406076163315 0.0 -0.009272963500636777 0.0 0.0
-0.01001089111809808 0.00806539573392051 0.0 -0.01100799013804854 0.0 0.0
-0.012357303662393793 0.010280017818971476 0.0 -0.012768443746454583 0.0 0.0
-0.014876123464056451 0.012663696386005618 0.0 -0.014640854636175371 0.0 0.0
-0.017342559730101542 0.014992997505960837 0.0 -0.016722358485839584 0.0 0.0
-0.019339822030883108 0.01687029927854411 0.0 -0.01908433732057635 0.0 0.0
-0.020326366295530224 0.01777873670619856 0.0 -0.02163271674899858 0.0 0.0
-0.019348658054472112 0.01652631016962003 0.0 -0.022729933081441667 0.0 0.0
-0.013796177962085654 0.01076094989464238 0.0 -0.020350408777219275 0.0 0.0
-0.013796177962086181 0.010760949894638383 0.0 0.0203504087772457 0.0 0.0
-0.019348658054470294 0.01652631016961692 0.0 0.022729933081479636 0.0 0.0
-0.02032636629552148 0.017778736706187903 0.0 0.021632716749021286 0.0 0.0
-0.019339822030868828 0.016870299278529455 0.0 0.019084337320575573 0.0 0.0
-0.017342559730084098 0.014992997505945294 0.0 0.01672235848582626 0.0 0.0
-0.01487612346404188 0.012663696385991852 0.0 0.014640854636166434 0.0 0.0
-0.012357303662379152 0.010280017818956377 0.0 0.012768443746443536 0.0 0.0
-0.010010891118082205 0.008065395733904523 0.0 0.011007990138040269 0.0 0.0
-0.00789397941498031 0.0060874060761495485 0.0 0.009272963500624232 0.0 0.0
-0.005976524573814951 0.004326778888962268 0.0 0.007573920768553455 0.0 0.0
-0.004237899851237681 0.0028017387548888717 0.0 0.00594582817792344 0.0 0.0
-0.002768396827049574 0.001616835033088737 0.0 0.004575015692573681 0.0 0.0
-0.0016830476044230325 0.0008663355944693585 0.0 0.0035910873278967026 0.0 0.0
-0.0010327185280401552 0.0005000334112839067 0.0 0.003008656322108838 0.0 0.0
-0.0007044943347799537 0.00035400987172184983 0.0 0.0026633104638451033 0.0 0.0
-0.0005407658473545879 0.0002988703615870447 0.0 0.0024334800414183844 0.0 0.0
-0.0004557242207804124 0.0002619731904079936 0.0 0.002353472189670719 0.0 0.0
-0.0003783460184200449 0.00017390846346215794 0.0 0.0023841700895691487 0.0 0.0
-0.00019583221711585996 -0.00011281192814491248 0.0 0.002375249020535236 0.0 0.0
0.0002866391392612605 -0.000881022185326534 0.0 0.001593211752475232 0.0 0.0
0.00019160501516965467 -0.0006807368864412411 0.0 -0.0014112440311149776 0.0 0.0
-0.0002529341952702546 -7.588388072898855e-05 0.0 -0.0022717365204952544 0.0 0.0
-0.0005032738881050325 0.0002247460453339567 0.0 -0.0023253933288839845 0.0 0.0
-0.0006622613265802046 0.0003504051692042598 0.0 -0.002281712034065686 0.0 0.0
-0.0008462259375047465 0.00043701853427990933 0.0 -0.002318915498991325 0.0 0.0
-0.0011449594835097887 0.0005636005682572165 0.0 -0.002488454108578564 0.0 0.0
-0.0017573081275240876 0.000904261326011957 0.0 -0.00292316553342431 0.0 0.0
-0.0029569071901412725 0.001744363349947875 0.0 -0.003873358903856594 0.0 0.0
-0.004829603030298751 0.0032776791239521597 0.0 -0.0053944316516072455 0.0 0.0
-0.00727811063415279 0.005457474888861613 0.0 -0.00733706062597228 0.0 0.0
-0.010121360337711105 0.0081011668650528 0.0 -0.009446251371635683 0.0 0.0
-0.01327276362107943 0.011087696257015889 0.0 -0.011498309999181222 0.0 0.0
-0.01675916738382255 0.01442246359427335 0.0 -0.013488654393785326 0.0 0.0
-0.020647359297063378 0.018159688809185504 0.0 -0.015511058219284335 0.0 0.0
-0.024913070718492247 0.02226215190797065 0.0 -0.01776342570067413 0.0 0.0
-0.029315120685214108 0.026490038088295975 0.0 -0.020516809268240954 0.0 0.0
-0.03334226712251426 0.03034679554615627 0.0 -0.023959254563777344 0.0 0.0
-0.03610787622686107 0.03289266507559452 0.0 -0.027456241472087473 0.0 0.0
-0.03590502027886261 0.03241193173171908 0.0 -0.029238291319728438 0.0 0.0
-0.02953958436219581 0.02541390177843894 0.0 -0.0256721994791137 0.0 0.0
-0.02953958436219499 0.02541390177843894 0.0 0.02567219947914806 0.0 0.0
-0.03590502027885728 0.032411931731713306 0.0 0.029238291319775345 0.0 0.0
-0.036107876226846816 0.03289266507558075 0.0 0.027456241472117393 0.0 0.0
-0.033342267122492844 0.03034679554613451 0.0 0.023959254563781673 0.0 0.0
-0.02931512068518813 0.026490038088270218 0.0 0.020516809268227687 0.0 0.0
-0.02491307071846882 0.022262151907946226 0.0 0.017763425700662194 0.0 0.0
-0.020647359297040244 0.018159688809161967 0.0 0.01551105821926868 0.0 0.0
-0.016759167383798526 0.014422463594252033 0.0 0.013488654393774169 0.0 0.0
-0.013272763621055936 0.01108769625699546 0.0 0.011498309999167566 0.0 0.0
-0.010121360337689095 0.00810116686502993 0.0 0.009446251371615921 0.0 0.0
-0.007278110634134541 0.005457474888841185 0.0 0.007337060625956127 0.0 0.0
-0.00482960303028547 0.003277679123938615 0.0 0.005394431651596976 0.0 0.0
-0.0029569071901333344 0.0017443633499447664 0.0 0.0038733589038494887 0.0 0.0
-0.0017573081275198826 0.0009042613260095145 0.0 0.0029231655334205353 0.0 0.0
-0.0011449594835074572 0.0005636005682538858 0.0 0.002488454108575733 0.0 0.0
-0.000846225937503553 0.000437018534278355 0.0 0.0023189154989889937 0.0 0.0
-0.0006622613265796773 0.0003504051692042598 0.0 0.0022817120340644093 0.0 0.0
-0.0005032738881047688 0.0002247460453344563 0.0 0.0023253933288822914 0.0 0.0
-0.00025293419527011585 -7.58838807289608e-05 0.0 0.0022717365204938944 0.0 0.0
0.00019160501516961304 -0.0006807368864406773 0.0 0.001411244031113701 0.0 0.0
0.00011103038687193534 -0.0005012173367625883 0.0 -0.0012240921981097608 0.0 0.0
-0.000306674667232415 -3.242287425869739e-05 0.0 -0.002114433806651217 0.0 0.0
-0.0006203612099891509 0.00027274218274075945 0.0 -0.002212349668884006 0.0 0.0
-0.0008596829467888978 0.0004319437898683276 0.0 -0.002153664805979505 0.0 0.0
-0.0011363010108604021 0.0005646890535326854 0.0 -0.0021347623318344333 0.0 0.0
-0.00159639054734792 0.0007999411602330753 0.0 -0.0022976530339343104 0.0 0.0
-0.0025773628326299647 0.001447829351881813 0.0 -0.0028850668982418615 0.0 0.0
-0.004379640807518376 0.0028783546247819203 0.0 -0.004128060965762015 0.0 0.0
-0.007054177887746121 0.005233000172118585 0.0 -0.006004067303841287 0.0 0.0
-0.010447575367845852 0.008375280123968265 0.0 -0.008273513311885639 0.0 0.0
-0.014360457514295127 0.012088106351406669 0.0 -0.010607905476176238 0.0 0.0
-0.018725814345033454 0.01627055240349673 0.0 -0.012821101383514999 0.0 0.0
-0.02358143074439173 0.02095447844186582 0.0 -0.014955271431944972 0.0 0.0
-0.029022215667317275 0.026222654715105875 0.0 -0.017138297797542057 0.0 0.0
-0.03505881863580468 0.03207403570342349 0.0 -0.019627008604432117 0.0 0.0
-0.0414555429904063 0.03826044673635742 0.0 -0.022840391492439438 0.0 0.0
-0.04752846752959522 0.04408824499252928 0.0 -0.026971823395036565 0.0 0.0
-0.05190314015652134 0.04817069040907551 0.0 -0.031281251933185206 0.0 0.0
-0.05220071158626394 0.04805806493892151 0.0 -0.03352207388576678 0.0 0.0
-0.044233865055784055 0.039448712236846095 0.0 -0.030283153340006974 0.0 0.0
-0.044233865055781654 0.039448712236846095 0.0 0.03028315334004239 0.0 0.0
-0.05220071158625429 0.048058064938913514 0.0 0.033522073885814796 0.0 0.0
-0.05190314015650216 0.048170690409055084 0.0 0.031281251933219845 0.0 0.0
-0.04752846752956699 0.044088244992502634 0.0 0.026971823395044725 0.0 0.0
-0.041455542990372976 0.03826044673632367 0.0 0.022840391492430556 0.0 0.0
-0.035058818635772426 0.0320740357033924 0.0 0.019627008604421292 0.0 0.0
-0.029022215667286175 0.02622265471507701 0.0 0.01713829779752818 0.0 0.0
-0.023581430744359727 0.020954478441834734 0.0 0.014955271431932649 0.0 0.0
-0.01872581434500188 0.016270552403469196 0.0 0.012821101383498346 0.0 0.0
-0.01436045751426579 0.012088106351382688 0.0 0.010607905476151813 0.0 0.0
-0.010447575367821232 0.008375280123943396 0.0 0.008273513311863878 0.0 0.0
-0.007054177887727525 0.0052330001720970465 0.0 0.00600406730382852 0.0 0.0
-0.0043796408075067045 0.002878354624770596 0.0 0.004128060965754188 0.0 0.0
-0.0025773628326229564 0.0014478293518771501 0.0 0.0028850668982375316 0.0 0.0
-0.0015963905473450335 0.0007999411602306328 0.0 0.0022976530339312573 0.0 0.0
-0.0011363010108588756 0.0005646890535324633 0.0 0.0021347623318329623 0.0 0.0
-0.0008596829467882178 0.0004319437898678835 0.0 0.0021536648059782837 0.0 0.0
-0.0006203612099888733 0.00027274218274070394 0.0 0.0022123496688814526 0.0 0.0
-0.0003066746672322207 -3.242287425847534e-05 0.0 0.0021144338066493573 0.0 0.0
0.00011103038687206024 -0.0005012173367620887 0.0 0.0012240921981088448 0.0 0.0
4.039908080535892e-05 -0.0003425735738791791 0.0 -0.0010327384683023744 0.0 0.0
-0.0003592785843154478 1.6177831655250774e-05 0.0 -0.0019079009597286756 0.0 0.0
-0.0007306278950363898 0.00031873068394649984 0.0 -0.0020426596017417142 0.0 0.0
-0.001046175361621271 0.0005045916829156116 0.0 -0.001960945726396157 0.0 0.0
-0.0014150607524588965 0.0006887822451129288 0.0 -0.0018996114750836068 0.0 0.0
-0.002092474407802636 0.0010940576631310872 0.0 -0.0020955427091144396 0.0 0.0
-0.0035009172342400363 0.0021410391009226704 0.0 -0.0028095571130759 0.0 0.0
-0.0059337201436301945 0.004215301582427777 0.0 -0.004239440019732088 0.0 0.0
-0.009393385802685367 0.0073771644422671034 0.0 -0.0062968563278015255 0.0 0.0
-0.0136859798741151 0.011427550772878714 0.0 -0.008643780099349962 0.0 0.0
-0.018652500951421236 0.016178004462315432 0.0 -0.010994247470252405 0.0 0.0
-0.02423260411507394 0.021554086744291823 0.0 -0.013242388417142092 0.0 0.0
-0.030466136964296148 0.027592013706689844 0.0 -0.015424858691034937 0.0 0.0
-0.03746118722798722 0.03439441250164954 0.0 -0.01764223891294381 0.0 0.0
-0.04527557262784698 0.04200151788636264 0.0 -0.02016225878156863 0.0 0.0
-0.05366865011071814 0.0501448099876467 0.0 -0.02343032111004728 0.0 0.0
-0.06174834758605233 0.05791273787079332 0.0 -0.027724238685586378 0.0 0.0
-0.06763467085525751 0.06341197472160509 0.0 -0.03244256800568934 0.0 0.0
-0.06815841930732758 0.06344940970991653 0.0 -0.03549583047359506 0.0 0.0
-0.058505271224137234 0.05320741552820474 0.0 -0.03445577135819633 0.0 0.0
-0.0585052712241331 0.05320741552819985 0.0 0.034455771358236076 0.0 0.0
-0.06815841930731342 0.06344940970990276 0.0 0.03549583047364707 0.0 0.0
-0.06763467085523282 0.063411974721578 0.0 0.032442568005725814 0.0 0.0
-0.06174834758601781 0.05791273787075557 0.0 0.027724238685595426 0.0 0.0
-0.05366865011067824 0.05014480998760762 0.0 0.023430321110039176 0.0 0.0
-0.04527557262780653 0.04200151788632489 0.0 0.020162258781556697 0.0 0.0
-0.03746118722794747 0.034394412501610905 0.0 0.017642238912927932 0.0 0.0
-0.030466136964256346 0.02759201370665032 0.0 0.015424858691024002 0.0 0.0
-0.024232604115034584 0.021554086744251855 0.0 0.013242388417126383 0.0 0.0
-0.018652500951384862 0.01617800446227613 0.0 0.010994247470229535 0.0 0.0
-0.01368597987408432 0.01142755077284896 0.0 0.008643780099327814 0.0 0.0
-0.009393385802661622 0.0073771644422475635 0.0 0.006296856327786371 0.0 0.0
-0.005933720143613971 0.004215301582414455 0.0 0.004239440019722429 0.0 0.0
-0.0035009172342304884 0.0021410391009135665 0.0 0.002809557113068739 0.0 0.0
-0.002092474407798084 0.0010940576631268684 0.0 0.00209554270911122 0.0 0.0
-0.0014150607524573977 0.0006887822451119296 0.0 0.0018996114750831072 0.0 0.0
-0.0010461753616202302 0.0005045916829143904 0.0 0.001960945726394242 0.0 0.0
-0.0007306278950360012 0.00031873068394661086 0.0 0.002042659601741048 0.0 0.0
-0.00035927858431515636 1.6177831655167507e-05 0.0 0.0019079009597274543 0.0 0.0
4.03990808053728e-05 -0.00034257357387898653 0.0 0.0010327384683013474 0.0 0.0
-2.063221032860829e-05 -0.00020643562406441607 0.0 -0.000835988929009962 0.0 0.0
-0.000410848092718602 6.784999729209096e-05 0.0 -0.001657808038116687 0.0 0.0
-0.0008348616887286775 0.0003625077703065527 0.0 -0.001817353095275115 0.0 0.0
-0.0012218083071240393 0.0005704656135296915 0.0 -0.0017177121661423322 0.0 0.0
-0.0016989426757378356 0.0008291407157949848 0.0 -0.0016440171543818383 0.0 0.0
-0.0026481797232373594 0.0014637324167192656 0.0 -0.0018675775018104912 0.0 0.0
-0.004526158643855055 0.0029780057768760138 0.0 -0.002654597673439396 0.0 0.0
-0.007593432263520605 0.005709139742334113 0.0 -0.004158983509216729 0.0 0.0
-0.01178787818058083 0.009625611074897789 0.0 -0.006175381633560073 0.0 0.0
-0.01695603678172264 0.014544567219074267 0.0 -0.008404060760040355 0.0 0.0
-0.022972686835311035 0.020325311397288104 0.0 -0.010658029398659563 0.0 0.0
-0.02977478470598957 0.02690002008031467 0.0 -0.012816250915996696 0.0 0.0
-0.037398136747787664 0.03430239352642417 0.0 -0.014927057435284108 0.0 0.0
-0.045949004172450736 0.04263790966506864 0.0 -0.01708715650926096 0.0 0.0
-0.05550094822068741 0.051962502144129896 0.0 -0.0194177947769123 0.0 0.0
-0.06582169538833957 0.06199836390854685 0.0 -0.02228368898417943 0.0 0.0
-0.07584858423339172 0.0716484219115392 0.0 -0.026211813836329867 0.0 0.0
-0.0831886624456124 0.07851543604441469 0.0 -0.031083443041302505 0.0 0.0
-0.08394686552878067 0.07874039888392304 0.0 -0.03562631330136301 0.0 0.0
-0.07282593127178003 0.0670635673605049 0.0 -0.038457456518597555 0.0 0.0
-0.07282593127177435 0.0670635673605009 0.0 0.03845745651863769 0.0 0.0
-0.08394686552876249 0.07874039888390127 0.0 0.035626313301411194 0.0 0.0
-0.08318866244558158 0.0785154360443796 0.0 0.03108344304133781 0.0 0.0
-0.07584858423335157 0.07164842191150056 0.0 0.026211813836342135 0.0 0.0
-0.06582169538829342 0.06199836390850466 0.0 0.022283688984176875 0.0 0.0
-0.05550094822063868 0.05196250214408504 0.0 0.01941779477690414 0.0 0.0
-0.045949004172402774 0.042637909665024676 0.0 0.017087156509250356 0.0 0.0
-0.03739813674773988 0.03430239352637887 0.0 0.014927057435273117 0.0 0.0
-0.02977478470594279 0.02690002008026804 0.0 0.012816250915982652 0.0 0.0
-0.022972686835267965 0.020325311397248358 0.0 0.01065802939863808 0.0 0.0
-0.01695603678168567 0.01454456721903763 0.0 0.008404060760019427 0.0 0.0
-0.01178787818055229 0.009625611074872475 0.0 0.006175381633549054 0.0 0.0
-0.007593432263499858 0.005709139742318348 0.0 0.0041589835092065985 0.0 0.0
-0.0045261586438429605 0.002978005776867132 0.0 0.00265459767343329 0.0 0.0
-0.002648179723230802 0.0014637324167170451 0.0 0.001867577501805412 0.0 0.0
-0.0016989426757361148 0.0008291407157937636 0.0 0.00164401715437959 0.0 0.0
-0.0012218083071226793 0.0005704656135292474 0.0 0.001717712166142027 0.0 0.0
-0.0008348616887280461 0.00036250777030583103 0.0 0.001817353095273505 0.0 0.0
-0.0004108480927182065 6.784999729170238e-05 0.0 0.001657808038115327 0.0 0.0
-2.063221032849033e-05 -0.0002064356240644126 0.0 0.0008359889290091571 0.0 0.0
-7.027179380261761e-05 -9.520532858325881e-05 0.0 -0.0006329881449363417 0.0 0.0
-0.000459279540437868 0.00011972015587324858 0.0 -0.0013689289797270132 0.0 0.0
-0.0009336022826129664 0.0004039073398387494 0.0 -0.0015368133006369578 0.0 0.0
-0.0013908473395067567 0.0006324558232930766 0.0 -0.0014255328560697222 0.0 0.0
-0.002004969702362691 0.0009932433074228975 0.0 -0.0013496207126763304 0.0 0.0
-0.0032729487709581007 0.0019262002023685554 0.0 -0.0016008980762333147 0.0 0.0
-0.005649483870724975 0.003951393984319207 0.0 -0.002419665335047949 0.0 0.0
-0.009304437398581639 0.007297770418630778 0.0 -0.0038153466880458953 0.0 0.0
-0.014199369298580289 0.011918167839077842 0.0 -0.005594564875906094 0.0 0.0
-0.020237451083159663 0.017694164483106123 0.0 -0.0075940052451046736 0.0 0.0
-0.027300162247582693 0.024501102261238028 0.0 -0.009616322102684427 0.0 0.0
-0.03533191336504024 0.03228055584476719 0.0 -0.011559633285919357 0.0 0.0
-0.04436092246503828 0.04106218174422338 0.0 -0.013488983086483719 0.0 0.0
-0.054466519671344193 0.05092300961364016 0.0 -0.015456867945151775 0.0 0.0
-0.06568625965003722 0.06189252619501717 0.0 -0.017453971697892312 0.0 0.0
-0.07778546313600632 0.07368878909505217 0.0 -0.019589753030749835 0.0 0.0
-0.08964803031239654 0.08512187906477164 0.0 -0.02251584860279654 0.0 0.0
-0.09850061641663396 0.09342675502630815 0.0 -0.027211162977751058 0.0 0.0
-0.09978868351852643 0.0941232645628518 0.0 -0.03395003195452673 0.0 0.0
-0.08757214914778905 0.08135214223785159 0.0 -0.042273083752085605 0.0 0.0
-0.08757214914778182 0.08135214223784404 0.0 0.04227308375212424 0.0 0.0
-0.09978868351850459 0.09412326456283227 0.0 0.033950031954569915 0.0 0.0
-0.09850061641659674 0.09342675502626996 0.0 0.027211162977782755 0.0 0.0
-0.08964803031235016 0.08512187906472501 0.0 0.022515848602806643 0.0 0.0
-0.07778546313595396 0.07368878909499976 0.0 0.019589753030746504 0.0 0.0
-0.06568625964998025 0.061892526194966546 0.0 0.017453971697886206 0.0 0.0
-0.05446651967128857 0.05092300961359042 0.0 0.015456867945142283 0.0 0.0
-0.04436092246498255 0.04106218174416876 0.0 0.013488983086472589 0.0 0.0
-0.03533191336498613 0.032280555844715675 0.0 0.01155963328590795 0.0 0.0
-0.027300162247533004 0.024501102261193175 0.0 0.009616322102664498 0.0 0.0
-0.020237451083116635 0.01769416448306438 0.0 0.007594005245085328 0.0 0.0
-0.01419936929854728 0.011918167839044758 0.0 0.0055945648758941036 0.0 0.0
-0.009304437398556985 0.007297770418608351 0.0 0.0038153466880354037 0.0 0.0
-0.005649483870709661 0.003951393984307883 0.0 0.0024196653350411768 0.0 0.0
-0.003272948770950121 0.0019262002023625602 0.0 0.0016008980762283742 0.0 0.0
-0.0020049697023599086 0.0009932433074217872 0.0 0.0013496207126744986 0.0 0.0
-0.001390847339505591 0.0006324558232915223 0.0 0.0014255328560694724 0.0 0.0
-0.0009336022826121962 0.00040390733983858285 0.0 0.0015368133006367635 0.0 0.0
-0.00045927954043743086 0.00011972015587383145 0.0 0.0013689289797255144 0.0 0.0
-7.02717938024025e-05 -9.52053285830437e-05 0.0 0.0006329881449349262 0.0 0.0
-0.00010480087890787915 -1.2042222503033662e-05 0.0 -0.00042537158802541386 0.0 0.0
-0.0004997465551053737 0.00016810990815008253 0.0 -0.001043866085212647 0.0 0.0
-0.0010273992290442124 0.0004417292329946809 0.0 -0.0011997130203745265 0.0 0.0
-0.0015606097022047294 0.0006995208644280382 0.0 -0.0010887078787236437 0.0 0.0
-0.0023482384869708273 0.0012020751602124236 0.0 -0.001021366682937369 0.0 0.0
-0.0039804921637378865 0.002489874388599933 0.0 -0.0012941228915334668 0.0 0.0
-0.006832747917830201 0.005013901195245918 0.0 -0.0020077685224676456 0.0 0.0
-0.011028238509629806 0.008924489576960015 0.0 -0.0031358738737355396 0.0 0.0
-0.01661082251085802 0.01422939927913025 0.0 -0.0045885987835799225 0.0 0.0
-0.023507168122870792 0.020849309840130115 0.0 -0.006227871706426691 0.0 0.0
-0.03161451393563186 0.028679560170821627 0.0 -0.007891519417107029 0.0 0.0
-0.04088261888607997 0.03767123379012283 0.0 -0.009487485618603353 0.0 0.0
-0.05133089916934852 0.04784346734992395 0.0 -0.01108228906713582 0.0 0.0
-0.06299475190128576 0.05922963720353058 0.0 -0.012756722748926363 0.0 0.0
-0.07581252399854643 0.07176441701155722 0.0 -0.014362569952336313 0.0 0.0
-0.08946547142422184 0.08510290243069507 0.0 -0.01559659078006359 0.0 0.0
-0.10292749277064864 0.09814072046565059 0.0 -0.01692359478133043 0.0 0.0
-0.11347611528170701 0.1080611049507163 0.0 -0.020794843968659493 0.0 0.0
-0.11587318658332454 0.10977601938338388 0.0 -0.03005332276491024 0.0 0.0
-0.1031597398391696 0.09644998982165731 0.0 -0.045599509404171346 0.0 0.0
-0.10315973983916088 0.09644998982164887 0.0 0.04559950940420193 0.0 0.0
-0.11587318658329872 0.10977601938335946 0.0 0.030053322764948265 0.0 0.0
-0.1134761152816639 0.10806110495068211 0.0 0.020794843968686583 0.0 0.0
-0.10292749277059529 0.09814072046560396 0.0 0.01692359478133687 0.0 0.0
-0.08946547142416261 0.08510290243064 0.0 0.01559659078006237 0.0 0.0
-0.07581252399848185 0.0717644170114955 0.0 0.01436256995233448 0.0 0.0
-0.06299475190122227 0.05922963720347241 0.0 0.01275672274891898 0.0 0.0
-0.05133089916928509 0.04784346734986711 0.0 0.011082289067126105 0.0 0.0
-0.04088261888601852 0.037671233790067316 0.0 0.009487485618595415 0.0 0.0
-0.03161451393557562 0.028679560170770113 0.0 0.007891519417092124 0.0 0.0
-0.02350716812282245 0.020849309840084596 0.0 0.006227871706410093 0.0 0.0
-0.016610822510820182 0.014229399279095833 0.0 0.004588598783569375 0.0 0.0
-0.011028238509601343 0.008924489576934258 0.0 0.0031358738737276015 0.0 0.0
-0.006832747917811806 0.00501390119522882 0.0 0.002007768522461151 0.0 0.0
-0.003980492163728089 0.002489874388590829 0.0 0.0012941228915289982 0.0 0.0
-0.0023482384869670386 0.001202075160210092 0.0 0.0010213666829353985 0.0 0.0
-0.001560609702203515 0.0006995208644275941 0.0 0.001088707878723727 0.0 0.0
-0.0010273992290433034 0.00044172923299434785 0.0 0.0011997130203736106 0.0 0.0
-0.0004997465551049851 0.0001681099081498605 0.0 0.0010438660852112314 0.0 0.0
-0.00010480087890788609 -1.2042222502854985e-05 0.0 0.0004253715880243314 0.0 0.0
-0.00011771147301870011 3.8966806862550385e-05 0.0 -0.00021985008798819372 0.0 0.0
-0.0005234523228781762 0.0002071612726264882 0.0 -0.0006821841823797803 0.0 0.0
-0.0011175944313367159 0.00047640266235537965 0.0 -0.0007993935750350567 0.0 0.0
-0.0017436307548429897 0.0007790453976789236 0.0 -0.000709437063229873 0.0 0.0
-0.002747463259831495 0.0014799655092081476 0.0 -0.0006726770566537754 0.0 0.0
-0.004759166290838279 0.0031477507160531104 0.0 -0.0008926267936195109 0.0 0.0
-0.008035805801171608 0.006126830757190893 0.0 -0.0013957701320891913 0.0 0.0
-0.012751971447177879 0.010566506593175262 0.0 -0.002160950939266215 0.0 0.0
-0.01900052672899813 0.016534991098243967 0.0 -0.0031644355793070122 0.0 0.0
-0.026743331066870657 0.023985770321605537 0.0 -0.004314154551499028 0.0 0.0
-0.03589457799798984 0.03283770869454017 0.0 -0.005480418605315285 0.0 0.0
-0.04640639558680912 0.04304798181752556 0.0 -0.006600125639532606 0.0 0.0
-0.05828388980021254 0.054620406487822404 0.0 -0.0077511932940241834 0.0 0.0
-0.07149964148454496 0.06752354054533072 0.0 -0.008950939857026219 0.0 0.0
-0.08586456642313003 0.08156408718575126 0.0 -0.01002877844155714 0.0 0.0
-0.10088240914924687 0.0962431147318572 0.0 -0.010576237100083818 0.0 0.0
-0.1155415092269769 0.11051719416302941 0.0 -0.010369783090942497 0.0 0.0
-0.12769008152888925 0.12211172582839769 0.0 -0.011786323525810882 0.0 0.0
-0.1323312996154684 0.12579860108419538 0.0 -0.022526102096076195 0.0 0.0
-0.12021347282801248 0.11292880694445318 0.0 -0.04768211006866652 0.0 0.0
-0.1202134728280019 0.11292880694444163 0.0 0.04768211006868672 0.0 0.0
-0.1323312996154381 0.1257986010841634 0.0 0.022526102096106004 0.0 0.0
-0.12769008152884065 0.12211172582835106 0.0 0.011786323525831477 0.0 0.0
-0.115541509226916 0.11051719416297123 0.0 0.010369783090944495 0.0 0.0
-0.10088240914917972 0.09624311473179281 0.0 0.010576237100081626 0.0 0.0
-0.08586456642305774 0.0815640871856802 0.0 0.010028778441557307 0.0 0.0
-0.07149964148447358 0.06752354054525922 0.0 0.008950939857022583 0.0 0.0
-0.05828388980014135 0.05462040648775268 0.0 0.007751193294018327 0.0 0.0
-0.046406395586740194 0.0430479818174625 0.0 0.0066001256395285535 0.0 0.0
-0.03589457799792753 0.03283770869448155 0.0 0.005480418605305126 0.0 0.0
-0.026743331066817356 0.02398577032155491 0.0 0.004314154551486482 0.0 0.0
-0.019000526728955604 0.016534991098203555 0.0 0.0031644355793007395 0.0 0.0
-0.012751971447146185 0.010566506593144398 0.0 0.0021609509392616078 0.0 0.0
-0.008035805801150063 0.006126830757170021 0.0 0.0013957701320841676 0.0 0.0
-0.004759166290826504 0.003147750716042008 0.0 0.0008926267936161247 0.0 0.0
-0.0027474632598261696 0.0014799655092040398 0.0 0.0006726770566525264 0.0 0.0
-0.001743630754841654 0.0007790453976778133 0.0 0.0007094370632293734 0.0 0.0
-0.001117594431335682 0.0004764026623551021 0.0 0.0007993935750345571 0.0 0.0
-0.0005234523228777009 0.00020716127262626616 0.0 0.0006821841823790309 0.0 0.0
-0.000117711473018655 3.896680686223987e-05 0.0 0.00021985008798891537 0.0 0.0
-9.739635731823015e-05 5.2011234311089005e-05 0.0 -3.267563467734824e-05 0.0 0.0
-0.000515422276003763 0.00022749943669048145 0.0 -0.0002770974596361664 0.0 0.0
-0.0012083164549740177 0.0005100550424402828 0.0 -0.00032167788460915614 0.0 0.0
-0.0019604739415737815 0.0008939784842888487 0.0 -0.00029641339321889726 0.0 0.0
-0.0032127825760890905 0.00182764448446604 0.0 -0.0002826290851064839 0.0 0.0
-0.0055775340293486575 0.0038638223955729245 0.0 -0.000369275976673078 0.0 0.0
-0.00924695366091674 0.00726349673678639 0.0 -0.0005777394758847421 0.0 0.0
-0.014455702225922157 0.012203039973451846 0.0 -0.0008926070654760587 0.0 0.0
-0.021347644237800834 0.01881006272429131 0.0 -0.0013307109916325666 0.0 0.0
-0.029922806514695893 0.027078326983977385 0.0 -0.0018519446524894456 0.0 0.0
-0.04012013622264288 0.03695465377141005 0.0 -0.002386581318445269 0.0 0.0
-0.05188784543425634 0.048393410635142686 0.0 -0.0029193237489444357 0.0 0.0
-0.0651864332551883 0.061357895917851124 0.0 -0.00346127622432435 0.0 0.0
-0.07993042716501009 0.07575548061439674 0.0 -0.003992146827341836 0.0 0.0
-0.09581862721080084 0.09127769608471814 0.0 -0.004417994162460803 0.0 0.0
-0.11213419600702257 0.10721114472324444 0.0 -0.004468167535329748 0.0 0.0
-0.12765106764490886 0.12234595552858529 0.0 -0.0037253537140379267 0.0 0.0
-0.14059310945955913 0.13488654582910486 0.0 -0.0024940870782853564 0.0 0.0
-0.14788367739567398 0.1415316525053747 0.0 -0.00820586862812811 0.0 0.0
-0.14053766484256439 0.1321522024743116 0.0 -0.043935663208279796 0.0 0.0
-0.1405376648425521 0.13215220247430093 0.0 0.043935663208287956 0.0 0.0
-0.14788367739563957 0.14153165250534316 0.0 0.00820586862814171 0.0 0.0
-0.14059310945950393 0.13488654582904935 0.0 0.002494087078295959 0.0 0.0
-0.12765106764483916 0.12234595552851868 0.0 0.00372535371403665 0.0 0.0
-0.11213419600694749 0.10721114472317295 0.0 0.0044681675353289985 0.0 0.0
-0.09581862721072093 0.09127769608464531 0.0 0.004417994162462219 0.0 0.0
-0.07993042716493026 0.07575548061432347 0.0 0.003992146827339116 0.0 0.0
-0.06518643325510942 0.06135789591777252 0.0 0.0034612762243205475 0.0 0.0
-0.05188784543418038 0.04839341063506408 0.0 0.002919323748944047 0.0 0.0
-0.04012013622257422 0.03695465377133966 0.0 0.00238658131843969 0.0 0.0
-0.02992280651463748 0.027078326983920542 0.0 0.0018519446524829786 0.0 0.0
-0.02134764423775417 0.0188100627242469 0.0 0.0013307109916293747 0.0 0.0
-0.014455702225887296 0.012203039973420537 0.0 0.0008926070654743379 0.0 0.0
-0.009246953660892397 0.007263496736764408 0.0 0.0005777394758824661 0.0 0.0
-0.005577534029334706 0.003863822395561378 0.0 0.00036927597667205103 0.0 0.0
-0.003212782576082488 0.001827644484461044 0.0 0.00028262908510731655 0.0 0.0
-0.0019604739415720364 0.0008939784842890708 0.0 0.0002964133932190083 0.0 0.0
-0.0012083164549728399 0.000510055042441393 0.0 0.0003216778846092394 0.0 0.0
-0.0005154222760033874 0.00022749943669031492 0.0 0.00027709745963613863 0.0 0.0
-9.739635731813127e-05 5.201123431130758e-05 0.0 3.267563467568291e-05 0.0 0.0
SCALARS Statev float 8
LOOKUP_TABLE default
0.0 0.0119474503358405 0.009195979001364101 -0.009578659882045069 0.000382680880680967 -0.005258372461064082 0.0 0.0
0.0 0.0005572726430020454 0.000375814400953167 -0.0003108107936836192 -6.500360726954784e-05 0.00037244469019628217 0.0 0.0
0.0 3.342380937738801e-05 -4.754075056001044e-06 3.773145031477424e-06 9.809300245235895e-07 5.62033213615258e-07 0.0 0.0
0.0 0.000200883900547754 0.00012455418953671762 -9.747366686915158e-05 -2.7080522667566093e-05 -1.7183496413130896e-05 0.0 0.0
0.0 0.0011825460289523733 0.0009211219019416701 -0.0007527876893151032 -0.00016833421262656684 -0.00010085763627244904 0.0 0.0
0.0 0.00323155005381086 0.0029484892865185375 -0.00254399248098473 -0.0004044968055338079 -0.00024193440214367173 0.0 0.0
0.0 0.007063913979969061 0.00633560724819726 -0.00574485407172686 -0.0005907531764703983 -0.00044847978096174807 0.0 0.0
0.0 0.012749985831193189 0.011298401501332305 -0.010576917051481139 -0.0007214844498511618 -0.000748562806121856 0.0 0.0
0.0 0.02041600428652928 0.017948587463647747 -0.017119574981444455 -0.0008290124822032856 -0.0011658632514280516 0.0 0.0
0.0 0.030060185139224222 0.026287962530102973 -0.025352808840650654 -0.0009351536894523114 -0.0016727090884487389 0.0 0.0
0.0 0.04164946877285695 0.03626941316956452 -0.035225136816048074 -0.0010442763535164416 -0.0022059878478148634 0.0 0.0
0.0 0.054851130695056226 0.04785256567664081 -0.04669661613836075 -0.0011559495382800406 -0.0027441020837501565 0.0 0.0
0.0 0.06992885441062555 0.060998457294963726 -0.05972959473622488 -0.0012688625587388062 -0.0032885955935531065 0.0 0.0
0.0 0.08680582217445357 0.07564265059613529 -0.07425822979136336 -0.0013844208047718415 -0.003838249779973069 0.0 0.0
0.0 0.10517242797174862 0.0915721158386677 -0.09006771742510093 -0.0015043984135667608 -0.004383940021237801 0.0 0.0
0.0 0.1244723850440531 0.10827471291404735 -0.10664658186556815 -0.0016281310484791856 -0.0048285118937265075 0.0 0.0
0.0 0.14365484942032244 0.12486920370691655 -0.12311737817619516 -0.0017518255307214185 -0.004970382369853449 0.0 0.0
0.0 0.16129339056361958 0.14013669354629682 -0.1382664875680543 -0.0018702059782425215 -0.00457083468833743 0.0 0.0
0.0 0.17569597851993093 0.15260954343319202 -0.15063064913542085 -0.0019788942977711672 -0.0037377658781357916 0.0 0.0
0.0 0.18438472223470176 0.16027448403781683 -0.15815233865477563 -0.002122145383041155 -0.0037635661113873753 0.0 0.0
0.0 0.1843847222346927 0.16027448403780853 -0.15815233865476808 -0.002122145383040441 0.0037635661113931324 0.0 0.0
0.0 0.17569597851989788 0.15260954343316277 -0.1506306491353926 -0.0019788942977701125 0.0037377658781552075 0.0 0.0
0.0 0.16129339056355785 0.14013669354624314 -0.13826648756800142 -0.0018702059782416745 0.004570834688346678 0.0 0.0
0.0 0.14365484942024756 0.12486920370685102 -0.12311737817613114 -0.001751825530719821 0.004970382369859463 0.0 0.0
0.0 0.12447238504397506 0.10827471291397892 -0.10664658186550167 -0.0016281310484772614 0.004828511893717129 0.0 0.0
0.0 0.10517242797166482 0.09157211583859466 -0.09006771742502895 -0.0015043984135657076 0.0043839400212378095 0.0 0.0
0.0 0.0868058221743655 0.07564265059605901 -0.07425822979128735 -0.0013844208047716472 0.0038382497799718538 0.0 0.0
0.0 0.06992885441053694 0.060998457294887 -0.059729594736148424 -0.0012688625587385983 0.0032885955935528623 0.0 0.0
0.0 0.05485113069497374 0.047852565676569106 -0.04669661613828988 -0.001155949538279217 0.0027441020837442537 0.0 0.0
0.0 0.041649468772783554 0.03626941316950043 -0.035225136815984694 -0.0010442763535157176 0.0022059878478116793 0.0 0.0
0.0 0.03006018513916531 0.02628796253005173 -0.025352808840600212 -0.0009351536894515178 0.001672709088442198 0.0 0.0
0.0 0.020416004286483286 0.017948587463607137 -0.01711957498140457 -0.0008290124822025737 0.0011658632514262972 0.0 0.0
0.0 0.012749985831158729 0.0112984015013015 -0.010576917051450956 -0.0007214844498505446 0.0007485628061192557 0.0 0.0
0.0 0.007063913979947296 0.0063356072481774 -0.0057448540717078295 -0.0005907531764695673 0.00044847978096065167 0.0 0.0
0.0 0.0032315500537983604 0.0029484892865067405 -0.002543992480973895 -0.0004044968055328449 0.0002419344021426146 0.0 0.0
0.0 0.0011825460289463642 0.0009211219019367657 -0.0007527876893109413 -0.0001683342126258241 0.00010085763627189838 0.0 0.0
0.0 0.00020088390054620435 0.00012455418953625377 -9.747366686877295e-05 -2.708052266748082e-05 1.7183496412994307e-05 0.0 0.0
0.0 3.342380937687491e-05 -4.754075055922566e-06 3.7731450314146314e-06 9.80930024507978e-07 -5.620332136057866e-07 0.0 0.0
0.0 0.0005572726429998178 0.00037581440095199624 -0.00031081079368263075 -6.500360726936563e-05 -0.0003724446901947018 0.0 0.0
0.0 0.011947450335823005 0.00919597900135235 -0.009578659882032322 0.0003826808806799665 0.005258372461037009 0.0 0.0
0.0 0.008732395962453884 0.006301119382700475 -0.006788532655090954 0.00048741327239047597 -0.005993240906460302 0.0 0.0
0.0 2.947684964793308e-07 1.6188246086795018e-07 -1.3777868205255566e-07 -2.410377881539495e-08 1.1168464329697744e-07 0.0 0.0
0.0 9.430826945183483e-08 -1.020951514236367e-08 7.758883502814768e-09 2.450631639548195e-09 3.6392644398315674e-09 0.0 0.0
0.0 6.388267068271987e-05 2.9263398238260054e-05 -2.2851876331831745e-05 -6.411521906428542e-06 -1.1694957807343079e-05 0.0 0.0
0.0 0.000758890955969147 0.000546271824411484 -0.0004410978375313172 -0.00010517398688016673 -0.00014679874260040748 0.0 0.0
0.0 0.0024313983469208284 0.002221373287534836 -0.001886708872212292 -0.0003346644153225442 -0.00048657270529900713 0.0 0.0
0.0 0.0058090737716126285 0.005209200990608409 -0.004665659483559725 -0.0005435415070486823 -0.001015263166735442 0.0 0.0
0.0 0.01092849226699466 0.00967426458963548 -0.008984194798118255 -0.0006900697915172259 -0.0017550790033951645 0.0 0.0
0.0 0.017852912225903034 0.015681467442447267 -0.01488001707272714 -0.0008014503697201256 -0.0027238792872490173 0.0 0.0
0.0 0.026533580381623487 0.023191716049561103 -0.02228721558323729 -0.0009045004663238095 -0.003855515040931072 0.0 0.0
0.0 0.03688443247666069 0.03213227037411794 -0.03112532752841311 -0.001006942845704824 -0.005030315374141524 0.0 0.0
0.0 0.04890593170411262 0.04246640535237208 -0.04135687636316314 -0.0011095289892089407 -0.006174984657486956 0.0 0.0
0.0 0.06231597288193485 0.054205352290413886 -0.052992050370899976 -0.0012133019195138869 -0.007348835138033551 0.0 0.0
0.0 0.07737806352449238 0.06731808335180822 -0.06599857603502153 -0.0013195073167866704 -0.008578852339671539 0.0 0.0
0.0 0.09388461114239374 0.0816267741446729 -0.080197748093321 -0.0014290260513518775 -0.009794927628140037 0.0 0.0
0.0 0.11125794711005371 0.09669601238229031 -0.09515461863160195 -0.0015413937506883867 -0.010798271863407344 0.0 0.0
0.0 0.12862354295405876 0.11175936796920617 -0.1101048915028035 -0.0016544764664026541 -0.011179977559702795 0.0 0.0
0.0 0.1447151810977505 0.1257127777672959 -0.12394692769286844 -0.0017658500744274727 -0.010528448004924579 0.0 0.0
0.0 0.1577744560388694 0.13705318732415286 -0.13517020172890148 -0.0018829855952513703 -0.008894983768121572 0.0 0.0
0.0 0.16558058832070138 0.14385684641708407 -0.14188537323660982 -0.0019714731804742706 -0.006123956498087528 0.0 0.0
0.0 0.16558058832069006 0.14385684641707414 -0.1418853732365998 -0.0019714731804743426 0.006123956498106674 0.0 0.0
0.0 0.15777445603883516 0.13705318732412278 -0.1351702017288713 -0.0018829855952515637 0.00889498376815575 0.0 0.0
0.0 0.14471518109769793 0.12571277776724976 -0.1239469276928227 -0.0017658500744269958 0.010528448004946116 0.0 0.0
0.0 0.1286235429539935 0.11175936796914912 -0.11010489150274717 -0.001654476466401887 0.011179977559713037 0.0 0.0
0.0 0.11125794710998077 0.09669601238222686 -0.09515461863153965 -0.0015413937506871984 0.010798271863399083 0.0 0.0
0.0 0.09388461114231626 0.08162677414460565 -0.08019774809325433 -0.0014290260513513144 0.009794927628137044 0.0 0.0
0.0 0.07737806352441608 0.06731808335174189 -0.06599857603495592 -0.0013195073167859626 0.008578852339669178 0.0 0.0
0.0 0.062315972881858486 0.05420535229034738 -0.05299205037083429 -0.0012133019195130833 0.007348835138031435 0.0 0.0
0.0 0.04890593170403931 0.042466405352308265 -0.041356876363100106 -0.0011095289892081369 0.006174984657478022 0.0 0.0
0.0 0.03688443247659518 0.03213227037406093 -0.03112532752835681 -0.0010069428457041127 0.005030315374133732 0.0 0.0
0.0 0.026533580381567952 0.023191716049512704 -0.022287215583189454 -0.0009045004663232426 0.0038555150409196512 0.0 0.0
0.0 0.017852912225860634 0.015681467442409766 -0.01488001707269009 -0.0008014503697196665 0.0027238792872435373 0.0 0.0
0.0 0.0109284922669658 0.009674264589609792 -0.008984194798093278 -0.000690069791516517 0.0017550790033900717 0.0 0.0
0.0 0.005809073771594324 0.005209200990591635 -0.0046656594835438395 -0.0005435415070477952 0.0010152631667324824 0.0 0.0
0.0 0.002431398346910232 0.0022213732875253143 -0.0018867088722037805 -0.00033466441532153376 0.00048657270529690313 0.0 0.0
0.0 0.0007588909559644649 0.0005462718244081262 -0.00044109783752849143 -0.00010517398687963482 0.00014679874259941231 0.0 0.0
0.0 6.3882670682143e-05 2.9263398238383226e-05 -2.2851876331918946e-05 -6.411521906464135e-06 1.1694957807332443e-05 0.0 0.0
0.0 9.430826938068039e-08 -1.0209515134588993e-08 7.758883496907494e-09 2.4506316376819497e-09 -3.6392644370560787e-09 0.0 0.0
0.0 2.9476849646793645e-07 1.6188246095362934e-07 -1.3777868212452109e-07 -2.410377882910667e-08 -1.1168464335748002e-07 0.0 0.0
0.0 0.008732395962434056 0.006301119382687341 -0.006788532655077042 0.00048741327238970163 0.005993240906437464 0.0 0.0
0.0 0.00653796168804478 0.004459644135188333 -0.004963663715955975 0.0005040195807676422 -0.005206877319843017 0.0 0.0
0.0 0.0 0.0 0.0 0.0 0.0 0.0 0.0
0.0 0.0 0.0 0.0 0.0 0.0 0.0 0.0
0.0 1.014232965052836e-05 6.242358064827125e-06 -4.864866216036175e-06 -1.3774918487909706e-06 -4.3504154277740975e-06 0.0 0.0
0.0 0.0003861584442444146 0.00027777978466593376 -0.00022173071050298363 -5.604907416295002e-05 -0.00013393399906725875 0.0 0.0
0.0 0.0018620042382621357 0.001531186873911291 -0.0012796697610587288 -0.0002515171128525613 -0.0005821239251124247 0.0 0.0
0.0 0.004603003261476068 0.004107288498655884 -0.003622929338562892 -0.00048435916009299156 -0.0013634634962173481 0.0 0.0
0.0 0.009129201135250013 0.008048608529868802 -0.007399314012937412 -0.0006492945169313908 -0.002469441925826728 0.0 0.0
0.0 0.01531614160027708 0.013388488233664788 -0.012620268263912767 -0.0007682199697520156 -0.0038788656810839505 0.0 0.0
0.0 0.02304739793746443 0.020055416867729235 -0.01918631961255787 -0.0008690972551713594 -0.005498160534202757 0.0 0.0
0.0 0.03223585105068435 0.027955460980626207 -0.026990516432214073 -0.0009649445484121251 -0.007176901151311206 0.0 0.0
0.0 0.042748216699461696 0.03705296689572717 -0.035993713238064766 -0.0010592536576624137 -0.008816208414997074 0.0 0.0
0.0 0.054783615526926815 0.047372900113178844 -0.04621904876409647 -0.0011538513490823765 -0.010466025743272845 0.0 0.0
0.0 0.06802633304706411 0.05893201386248592 -0.057681642601765296 -0.0012503712607205971 -0.012214283731511134 0.0 0.0
0.0 0.0826073038137449 0.07160328174892008 -0.07025418537834396 -0.0013490963705760856 -0.013979941371224354 0.0 0.0
0.0 0.09810623269789072 0.08503423219939668 -0.08358432161181603 -0.0014499105875806196 -0.015442995391451993 0.0 0.0
0.0 0.11369778707662322 0.0985827034084282 -0.09703021738341293 -0.0015524860250152373 -0.016092537660167897 0.0 0.0
0.0 0.12821064366660184 0.11124474991793483 -0.1095854188911403 -0.0016593310267944946 -0.015393100492291522 0.0 0.0
0.0 0.14001937551888644 0.12158922818117007 -0.11982688928827578 -0.0017623388928942603 -0.012875060856770926 0.0 0.0
0.0 0.14725762057706726 0.12798841930068927 -0.1261529533347368 -0.0018354659659524184 -0.007844976478987024 0.0 0.0
0.0 0.1472576205770585 0.12798841930068083 -0.12615295333472912 -0.0018354659659516731 0.007844976479017517 0.0 0.0
0.0 0.14001937551885868 0.1215892281811445 -0.1198268892882508 -0.0017623388928936852 0.012875060856815652 0.0 0.0
0.0 0.12821064366655827 0.11124474991789557 -0.10958541889110192 -0.0016593310267936099 0.01539310049232304 0.0 0.0
0.0 0.11369778707656823 0.09858270340837952 -0.09703021738336533 -0.0015524860250142206 0.01609253766018128 0.0 0.0
0.0 0.09810623269782928 0.08503423219934331 -0.08358432161176357 -0.001449910587579714 0.01544299539144443 0.0 0.0
0.0 0.082607303813679 0.07160328174886277 -0.07025418537828725 -0.0013490963705755229 0.013979941371220446 0.0 0.0
0.0 0.06802633304699555 0.05893201386242622 -0.057681642601706246 -0.0012503712607199885 0.012214283731506868 0.0 0.0
0.0 0.05478361552685959 0.047372900113120356 -0.04621904876403849 -0.0011538513490818593 0.010466025743267573 0.0 0.0
0.0 0.04274821669939443 0.03705296689566943 -0.03599371323800692 -0.001059253657662501 0.00881620841498354 0.0 0.0
0.0 0.03223585105062483 0.027955460980574533 -0.026990516432162485 -0.0009649445484120388 0.007176901151299106 0.0 0.0
0.0 0.02304739793741646 0.020055416867687456 -0.019186319612516604 -0.0008690972551708481 0.005498160534188133 0.0 0.0
0.0 0.015316141600237355 0.01338848823363005 -0.012620268263878496 -0.0007682199697515505 0.0038788656810747157 0.0 0.0
0.0 0.009129201135220514 0.008048608529842854 -0.007399314012912011 -0.0006492945169308469 0.0024694419258184967 0.0 0.0
0.0 0.004603003261458478 0.004107288498640052 -0.0036229293385480464 -0.00048435916009200445 0.0013634634962124996 0.0 0.0
0.0 0.0018620042382532969 0.0015311868739040276 -0.00127966976105236 -0.00025151711285166707 0.0005821239251095271 0.0 0.0
0.0 0.0003861584442417173 0.00027777978466423357 -0.0002217307105015746 -5.60490741626588e-05 0.00013393399906631672 0.0 0.0
0.0 1.014232965014439e-05 6.2423580650126085e-06 -4.86486621617875e-06 -1.3774918488338773e-06 4.350415427892122e-06 0.0 0.0
0.0 0.0 0.0 0.0 0.0 0.0 0.0 0.0
0.0 0.0 0.0 0.0 0.0 0.0 0.0 0.0
0.0 0.0065379616880273245 0.004459644135176334 -0.004963663715943238 0.0005040195807669044 0.0052068773198237555 0.0 0.0
0.0 0.004834703874600761 0.0031552644476304705 -0.0036205340697045944 0.0004652696220741211 -0.004059892553116145 0.0 0.0
0.0 0.0 0.0 0.0 0.0 0.0 0.0 0.0
0.0 0.0 0.0 0.0 0.0 0.0 0.0 0.0
0.0 1.7764958665315978e-06 -1.7819784007305854e-07 1.3787375697884427e-07 4.03240830942293e-08 1.8782013220909485e-07 0.0 0.0
0.0 0.00016332652046625857 0.00011076533757324806 -8.784937308391837e-05 -2.2915964489329565e-05 -8.669339929967512e-05 0.0 0.0
0.0 0.0012243188907195778 0.0009602414761746469 -0.0007896015323641719 -0.00017063994381047567 -0.0005569571855208318 0.0 0.0
0.0 0.0035083221011644474 0.0030451350250770737 -0.0026389797444799972 -0.00040615528059707775 -0.001495695548127927 0.0 0.0
0.0 0.007376483023267365 0.006441656950369239 -0.0058445925257503435 -0.0005970644246188971 -0.0028841500567144732 0.0 0.0
0.0 0.012800635309167988 0.011093399817395811 -0.010366696940109235 -0.0007267028772865791 -0.004622766357159895 0.0 0.0
0.0 0.019572378784300706 0.016905019423162637 -0.016077383566674874 -0.0008276358564877531 -0.006602247045321991 0.0 0.0
0.0 0.027578189191102085 0.023763436711361136 -0.022845471010348804 -0.0009179657010123366 -0.008643080653793048 0.0 0.0
0.0 0.03674729466601939 0.03162642675267403 -0.030621853518322202 -0.0010045732343518321 -0.01064387888734603 0.0 0.0
0.0 0.04710166481819997 0.04053257902245178 -0.03944258996719974 -0.0010899890552520505 -0.012668840334282068 0.0 0.0
0.0 0.058733890426637125 0.05052465990725043 -0.04934774412160307 -0.0011769157856473503 -0.014772231189396589 0.0 0.0
0.0 0.0715242140980242 0.061535480918894256 -0.06027075778990622 -0.0012647231289880257 -0.016891960674594465 0.0 0.0
0.0 0.08494843980147633 0.07330994737356991 -0.07195629629805317 -0.0013536510755167337 -0.01872816493395387 0.0 0.0
0.0 0.09877381630120033 0.08532644907364734 -0.08388038220614306 -0.0014460668675042487 -0.019684949633673482 0.0 0.0
0.0 0.111785697502054 0.09671793609989755 -0.09517537399343791 -0.0015425621064596735 -0.019022667133519685 0.0 0.0
0.0 0.12253474188983245 0.10623257379180029 -0.10459794195388651 -0.0016346318379137548 -0.015867535258231903 0.0 0.0
0.0 0.12942752378651506 0.1124455465436955 -0.1107446411863662 -0.0017009053573292603 -0.00924308046720532 0.0 0.0
0.0 0.12942752378650535 0.11244554654368644 -0.110744641186357 -0.0017009053573294993 0.009243080467244485 0.0 0.0
0.0 0.12253474188980543 0.10623257379177499 -0.10459794195386107 -0.0016346318379138667 0.01586753525828401 0.0 0.0
0.0 0.11178569750201295 0.09671793609986037 -0.09517537399340044 -0.0015425621064599068 0.019022667133554265 0.0 0.0
0.0 0.09877381630114912 0.08532644907360218 -0.08388038220609748 -0.0014460668675047145 0.019684949633688484 0.0 0.0
0.0 0.08494843980141754 0.07330994737351931 -0.07195629629800268 -0.0013536510755165973 0.018728164933945378 0.0 0.0
0.0 0.07152421409796535 0.06153548091884311 -0.06027075778985588 -0.001264723128987188 0.016891960674587786 0.0 0.0
0.0 0.05873389042657784 0.050524659907198906 -0.049347744121551816 -0.0011769157856470823 0.014772231189390509 0.0 0.0
0.0 0.04710166481814431 0.04053257902240322 -0.03944258996715178 -0.0010899890552514345 0.012668840334275015 0.0 0.0
0.0 0.036747294665967364 0.03162642675262857 -0.03062185351827788 -0.001004573234350691 0.010643878887332217 0.0 0.0
0.0 0.027578189191054946 0.023763436711319908 -0.02284547101030851 -0.000917965701011401 0.008643080653779285 0.0 0.0
0.0 0.019572378784257508 0.016905019423125545 -0.016077383566638386 -0.0008276358564871482 0.006602247045304403 0.0 0.0
0.0 0.012800635309134908 0.01109339981736699 -0.01036669694008108 -0.0007267028772859011 0.004622766357148987 0.0 0.0
0.0 0.007376483023243405 0.006441656950348321 -0.005844592525730193 -0.0005970644246181258 0.0028841500567049804 0.0 0.0
0.0 0.0035083221011503007 0.0030451350250648487 -0.0026389797444687823 -0.00040615528059606586 0.0014956955481223882 0.0 0.0
0.0 0.0012243188907121861 0.0009602414761692164 -0.000789601532359605 -0.00017063994380961162 0.0005569571855177939 0.0 0.0
0.0 0.00016332652046403606 0.00011076533757221858 -8.784937308307883e-05 -2.2915964489139847e-05 8.669339929887179e-05 0.0 0.0
0.0 1.7764958662467406e-06 -1.7819784004332652e-07 1.3787375695581053e-07 4.032408308752122e-08 -1.8782013217738892e-07 0.0 0.0
0.0 0.0 0.0 0.0 0.0 0.0 0.0 0.0
0.0 0.0 0.0 0.0 0.0 0.0 0.0 0.0
0.0 0.004834703874585185 0.0031552644476201866 -0.0036205340696935603 0.0004652696220733729 0.004059892553100651 0.0 0.0
0.0 0.003452118187928876 0.0021650839812237333 -0.0025590894546482636 0.0003940054734245307 -0.002950596162755207 0.0 0.0
0.0 0.0 0.0 0.0 0.0 0.0 0.0 0.0
0.0 0.0 0.0 0.0 0.0 0.0 0.0 0.0
0.0 3.1234164431588785e-07 -2.5617850497127908e-08 2.0115826190663957e-08 5.502024306463789e-09 4.21043713021938e-08 0.0 0.0
0.0 5.9179700031666075e-05 3.406761635229834e-05 -2.7055515309914823e-05 -7.0121010423835335e-06 -4.1681495648093175e-05 0.0 0.0
0.0 0.0007028924256970511 0.0005241684009156237 -0.0004250518787801217 -9.911652213550208e-05 -0.0004551780800173841 0.0 0.0
0.0 0.0025881624687886283 0.002066773416919645 -0.0017552084993051663 -0.0003115649176144788 -0.0014184219636252814 0.0 0.0
0.0 0.005733137258345548 0.004868654786862492 -0.004341839953560826 -0.0005268148333016644 -0.0029586439502550708 0.0 0.0
0.0 0.010324189638131075 0.008820390816357862 -0.008146622267542335 -0.0006737685488155269 -0.004946412881540853 0.0 0.0
0.0 0.01613680353924482 0.01376522415032224 -0.012986906507641921 -0.0007783176426803156 -0.007159248936523212 0.0 0.0
0.0 0.02297464587055427 0.019580215281023196 -0.018715295244163488 -0.0008649200368597143 -0.00943380017306493 0.0 0.0
0.0 0.03074257929669066 0.026213249837415242 -0.025269012371180292 -0.0009442374662349476 -0.011658856639410454 0.0 0.0
0.0 0.039562767535029915 0.03370680698069063 -0.03268563193867442 -0.0010211750420162109 -0.013900569277607315 0.0 0.0
0.0 0.04931858087972768 0.04213250506123502 -0.041034570169792034 -0.001097934891442984 -0.016245280999113345 0.0 0.0
0.0 0.060209308336156016 0.05147168826747064 -0.05029656005693231 -0.0011751282105383 -0.018590067488698212 0.0 0.0
0.0 0.07200197453728388 0.06155169289793946 -0.06029861508624673 -0.0012530778116927035 -0.02062863279975587 0.0 0.0
0.0 0.08387075071341168 0.07199202971143577 -0.07065916668828326 -0.0013328630231524967 -0.02184726158716629 0.0 0.0
0.0 0.095331665783233 0.08212035441182061 -0.08070339072970797 -0.001416963682112638 -0.021373292795160533 0.0 0.0
0.0 0.10515181006163297 0.0909068603446302 -0.08940728922526742 -0.001499571119362793 -0.01797361708137064 0.0 0.0
0.0 0.11186651273040002 0.09707643238521686 -0.09551311342839597 -0.0015633189568208512 -0.010404025639877771 0.0 0.0
0.0 0.1118665127303935 0.09707643238521005 -0.09551311342838927 -0.0015633189568206758 0.01040402563991841 0.0 0.0
0.0 0.10515181006161603 0.09090686034461253 -0.08940728922525036 -0.001499571119362127 0.0179736170814239 0.0 0.0
0.0 0.0953316657832039 0.08212035441179241 -0.08070339072968064 -0.0014169636821117668 0.02137329279519943 0.0 0.0
0.0 0.08387075071337256 0.07199202971139997 -0.07065916668824825 -0.001332863023151714 0.021847261587184294 0.0 0.0
0.0 0.0720019745372377 0.06155169289789915 -0.060298615086207284 -0.0012530778116918672 0.020628632799749518 0.0 0.0
0.0 0.06020930833610503 0.051471688267426347 -0.05029656005688852 -0.0011751282105378414 0.01859006748869021 0.0 0.0
0.0 0.049318580879675854 0.04213250506118985 -0.041034570169747334 -0.0010979348914425197 0.016245280999106926 0.0 0.0
0.0 0.03956276753497972 0.03370680698064671 -0.03268563193863088 -0.0010211750420158088 0.01390056927759906 0.0 0.0
0.0 0.030742579296643077 0.026213249837374327 -0.025269012371139862 -0.0009442374662344455 0.011658856639394186 0.0 0.0
0.0 0.022974645870512764 0.01958021528098744 -0.018715295244128564 -0.0008649200368588785 0.009433800173048667 0.0 0.0
0.0 0.016136803539207562 0.013765224150291203 -0.012986906507611445 -0.0007783176426797565 0.007159248936502683 0.0 0.0
0.0 0.010324189638104542 0.008820390816335056 -0.00814662226752012 -0.0006737685488149331 0.00494641288152937 0.0 0.0
0.0 0.00573313725832499 0.0048686547868451654 -0.004341839953544474 -0.0005268148333006888 0.002958643950244906 0.0 0.0
0.0 0.002588162468776343 0.002066773416909757 -0.0017552084992963116 -0.0003115649176134461 0.0014184219636191207 0.0 0.0
0.0 0.0007028924256922064 0.0005241684009123608 -0.00042505187877743436 -9.91165221349263e-05 0.0004551780800146365 0.0 0.0
0.0 5.9179700030531925e-05 3.4067616352067824e-05 -2.7055515309718234e-05 -7.012101042349519e-06 4.168149564775894e-05 0.0 0.0
0.0 3.1234164401444015e-07 -2.5617850471780222e-08 2.0115826170972936e-08 5.502024300809174e-09 -4.2104371261965705e-08 0.0 0.0
0.0 0.0 0.0 0.0 0.0 0.0 0.0 0.0
0.0 0.0 0.0 0.0 0.0 0.0 0.0 0.0
0.0 0.0034521181879163657 0.002165083981215722 -0.002559089454639427 0.00039400547342370427 0.0029505961627435684 0.0 0.0
0.0 0.0023085529935050284 0.001401862364460315 -0.0017065403091601852 0.0003046779446998696 -0.0020047408010719974 0.0 0.0
0.0 0.0 0.0 0.0 0.0 0.0 0.0 0.0
0.0 0.0 0.0 0.0 0.0 0.0 0.0 0.0
0.0 1.2459832782016668e-06 -8.711175530045244e-08 6.722946238267231e-08 1.9882292917777628e-08 2.0432140011233723e-07 0.0 0.0
0.0 2.460735434002545e-05 8.364673409631568e-06 -6.617672068621479e-06 -1.7470013410100836e-06 -1.4704933947432292e-05 0.0 0.0
0.0 0.0003351892114779409 0.0002406453975729553 -0.00019339393488930322 -4.72514626836519e-05 -0.00031720495557688663 0.0 0.0
0.0 0.0016336515385163906 0.0012548301157176728 -0.0010438542488320872 -0.00021097586688558566 -0.0012258335812059002 0.0 0.0
0.0 0.00418952182968617 0.003383026280077455 -0.0029528373415392026 -0.0004301889385382526 -0.002749193088484154 0.0 0.0
0.0 0.00795287345347823 0.00659087796078228 -0.005988190565387369 -0.0006026873953949116 -0.004811633129651787 0.0 0.0
0.0 0.012756394434240323 0.010663320149304 -0.009945912241873266 -0.0007174079074307356 -0.007154556796447945 0.0 0.0
0.0 0.018402560038436863 0.015432477016520329 -0.014629556839437174 -0.0008029201770831511 -0.009528656312575616 0.0 0.0
0.0 0.02480471888658967 0.02084059703680328 -0.019963812600874722 -0.0008767844359285617 -0.011847541918515137 0.0 0.0
0.0 0.031992653263822037 0.026929812907586673 -0.025984122600641632 -0.0009456903069450419 -0.014177015797414807 0.0 0.0
0.0 0.04007296039632069 0.0337866759484335 -0.03277404031103207 -0.0010126356374014305 -0.01658628075101307 0.0 0.0
0.0 0.04910643435382561 0.04144490319459708 -0.040365392174168374 -0.0010795110204287368 -0.019013096550475617 0.0 0.0
0.0 0.05869682979913977 0.04980597164842855 -0.048659700491454294 -0.0011462711569742799 -0.021171177596615468 0.0 0.0
0.0 0.06893934248854947 0.05860832394017371 -0.05739553274315464 -0.0012127911970190477 -0.022548200446664213 0.0 0.0
0.0 0.0789754554772907 0.06742537895824195 -0.06614329744659724 -0.0012820815116447296 -0.022342001640418295 0.0 0.0
0.0 0.08774749248541829 0.07551527499263189 -0.07416047003805909 -0.0013548049545727683 -0.019154589635764 0.0 0.0
0.0 0.09439409746943692 0.08174220140492783 -0.0803233053751619 -0.0014188960297659046 -0.01134401521989973 0.0 0.0
0.0 0.09439409746942981 0.08174220140492029 -0.08032330537515439 -0.0014188960297658818 0.011344015219939914 0.0 0.0
0.0 0.08774749248540142 0.07551527499261387 -0.07416047003804094 -0.0013548049545729509 0.01915458963581683 0.0 0.0
0.0 0.07897545547726488 0.06742537895821615 -0.06614329744657146 -0.0012820815116447119 0.022342001640457288 0.0 0.0
0.0 0.06893934248851619 0.05860832394014302 -0.05739553274312438 -0.0012127911970186175 0.02254820044667958 0.0 0.0
0.0 0.05869682979909999 0.049805971648394065 -0.048659700491420356 -0.001146271156973685 0.021171177596608935 0.0 0.0
0.0 0.049106434353783146 0.0414449031945604 -0.040365392174132216 -0.0010795110204281626 0.019013096550465198 0.0 0.0
0.0 0.04007296039627917 0.033786675948397286 -0.032774040310996316 -0.0010126356374009686 0.016586280751004875 0.0 0.0
0.0 0.031992653263783394 0.026929812907553117 -0.025984122600608558 -0.0009456903069445603 0.0141770157974061 0.0 0.0
0.0 0.024804718886554375 0.020840597036773142 -0.01996381260084548 -0.000876784435927663 0.011847541918501098 0.0 0.0
0.0 0.01840256003840339 0.015432477016492026 -0.014629556839409577 -0.0008029201770824516 0.009528656312559707 0.0 0.0
0.0 0.01275639443420942 0.010663320149278599 -0.009945912241848614 -0.000717407907429986 0.007154556796427281 0.0 0.0
0.0 0.007952873453454844 0.006590877960762612 -0.005988190565368485 -0.0006026873953941258 0.004811633129638525 0.0 0.0
0.0 0.004189521829670376 0.003383026280064618 -0.002952837341527369 -0.0004301889385372474 0.00274919308847442 0.0 0.0
0.0 0.0016336515385073592 0.0012548301157107723 -0.0010438542488261436 -0.000210975866884629 0.0012258335812001218 0.0 0.0
0.0 0.00033518921147479287 0.00024064539757127413 -0.00019339393488794222 -4.725146268333187e-05 0.00031720495557471774 0.0 0.0
0.0 2.4607354339256033e-05 8.364673409724852e-06 -6.61767206869242e-06 -1.7470013410324232e-06 1.4704933947586198e-05 0.0 0.0
0.0 1.245983277765114e-06 -8.711175526903953e-08 6.722946235833695e-08 1.9882292910690027e-08 -2.0432140003799813e-07 0.0 0.0
0.0 0.0 0.0 0.0 0.0 0.0 0.0 0.0
0.0 0.0 0.0 0.0 0.0 0.0 0.0 0.0
0.0 0.0023085529934953114 0.0014018623644543775 -0.001706540309153422 0.0003046779446990446 0.0020047408010633178 0.0 0.0
0.0 0.001423857005657537 0.0008198809598305018 -0.001027612200171751 0.00020773124034124913 -0.0012352050101101112 0.0 0.0
0.0 2.413150468070681e-07 -3.1561199297649185e-09 2.895078666521106e-09 2.6104126324386403e-10 4.838109291425756e-08 0.0 0.0
0.0 0.0 0.0 0.0 0.0 0.0 0.0 0.0
0.0 1.343535810957597e-06 -6.745450613659108e-08 5.1836617700734505e-08 1.5617888435866596e-08 2.5068220686766373e-07 0.0 0.0
0.0 1.2075969714474523e-05 4.614432497733369e-06 -3.6427625024358245e-06 -9.716699952975488e-07 -1.20628278362784e-05 0.0 0.0
0.0 0.00016874609411073133 8.530350448024601e-05 -6.831877683147883e-05 -1.6984727648767224e-05 -0.0001713767563515085 0.0 0.0
0.0 0.0009075224610607951 0.0006289958253873629 -0.0005134841243997001 -0.00011551170098766265 -0.0009094205398755342 0.0 0.0
0.0 0.002738108141463439 0.0020663984978190903 -0.0017575131777469951 -0.00030888532007209443 -0.0023143197323332206 0.0 0.0
0.0 0.005669515303909139 0.004461493232280953 -0.00396139990563058 -0.0005000933266503706 -0.004252198315487201 0.0 0.0
0.0 0.009453350518750011 0.007629352658833752 -0.006993580276883316 -0.0006357723819504365 -0.006544485922757112 0.0 0.0
0.0 0.013905995545860021 0.011349450078127758 -0.01062318385021342 -0.0007262662279143361 -0.008910431111047758 0.0 0.0
0.0 0.018925317582211675 0.015540409620701485 -0.01474235655698457 -0.0007980530637169193 -0.011194495282999574 0.0 0.0
0.0 0.024555773670415313 0.02023587002103751 -0.019375462441178555 -0.0008604075798589436 -0.013463936230163887 0.0 0.0
0.0 0.030838688216248467 0.02553243634335955 -0.02461403353763783 -0.0009184028057217121 -0.015803667196775433 0.0 0.0
0.0 0.03791921386626304 0.03149948387274989 -0.030525331004004966 -0.0009741528687449188 -0.01815974313553584 0.0 0.0
0.0 0.045685317382658734 0.03811169531390647 -0.037080388222720015 -0.0010313070911864577 -0.020274537632030548 0.0 0.0
0.0 0.05385524402415978 0.04521865245672384 -0.044133731734457685 -0.0010849207222661625 -0.021736829449959187 0.0 0.0
0.0 0.0622418727130237 0.05262637839905501 -0.051489918535889426 -0.0011364598631656117 -0.02188430410217125 0.0 0.0
0.0 0.07036146202968498 0.059955249976196084 -0.05875903902547336 -0.0011962109507227038 -0.01933288714720052 0.0 0.0
0.0 0.0770756784673496 0.06629421862404376 -0.06503137931506602 -0.0012628393089777145 -0.01203808536653081 0.0 0.0
0.0 0.07707567846734371 0.06629421862403724 -0.06503137931505926 -0.0012628393089779628 0.012038085366568236 0.0 0.0
0.0 0.07036146202966918 0.05995524997617843 -0.05875903902545543 -0.001196210950723018 0.01933288714725178 0.0 0.0
0.0 0.062241872713003674 0.05262637839903348 -0.05148991853586814 -0.0011364598631653207 0.021884304102209304 0.0 0.0
0.0 0.05385524402413167 0.045218652456697164 -0.044133731734431275 -0.0010849207222659125 0.021736829449973655 0.0 0.0
0.0 0.045685317382625816 0.0381116953138782 -0.03708038822269193 -0.0010313070911862545 0.020274537632022138 0.0 0.0
0.0 0.03791921386622828 0.031499483872720356 -0.030525331003975486 -0.0009741528687448643 0.018159743135524625 0.0 0.0
0.0 0.03083868821621516 0.02553243634333098 -0.024614033537609204 -0.0009184028057217862 0.015803667196766708 0.0 0.0
0.0 0.024555773670385694 0.02023587002101194 -0.019375462441153346 -0.000860407579858599 0.013463936230155227 0.0 0.0
0.0 0.018925317582180294 0.015540409620675462 -0.014742356556958762 -0.0007980530637166964 0.011194495282983628 0.0 0.0
0.0 0.013905995545831464 0.011349450078104527 -0.010623183850190622 -0.0007262662279138942 0.00891043111103015 0.0 0.0
0.0 0.009453350518725041 0.007629352658814382 -0.006993580276864529 -0.0006357723819498533 0.006544485922737026 0.0 0.0
0.0 0.005669515303890969 0.0044614932322666195 -0.003961399905617016 -0.0005000933266496026 0.004252198315475464 0.0 0.0
0.0 0.002738108141452066 0.002066398497810433 -0.0017575131777393114 -0.00030888532007112077 0.0023143197323251246 0.0 0.0
0.0 0.000907522461055364 0.0006289958253837132 -0.0005134841243966486 -0.00011551170098706408 0.0009094205398710556 0.0 0.0
0.0 0.0001687460941092892 8.530350447995635e-05 -6.831877683123876e-05 -1.6984727648717456e-05 0.00017137675635084512 0.0 0.0
0.0 1.207596971419129e-05 4.614432497891074e-06 -3.642762502560395e-06 -9.71669995330684e-07 1.20628278367161e-05 0.0 0.0
0.0 1.343535810551308e-06 -6.74545061154224e-08 5.1836617684484416e-08 1.561788843093987e-08 -2.5068220678900275e-07 0.0 0.0
0.0 0.0 0.0 0.0 0.0 0.0 0.0 0.0
0.0 2.413150465246296e-07 -3.1561199259962506e-09 2.8950786630596134e-09 2.610412629367381e-10 -4.838109285659394e-08 0.0 0.0
0.0 0.0014238570056498622 0.0008198809598262195 -0.0010276122001667205 0.0002077312403405007 0.001235205010103575 0.0 0.0
0.0 0.0007585062331567087 0.00040123147170314827 -0.0005199868454107258 0.00011875537370757755 -0.0006389178061844947 0.0 0.0
0.0 5.68229300698234e-07 -7.067340485817422e-09 9.746384288017086e-09 -2.679043802201258e-09 1.14239571365149e-07 0.0 0.0
0.0 6.305102464673167e-07 -7.0898921551877894e-09 5.074535917472657e-09 2.0153562377156586e-09 1.2874703632778445e-07 0.0 0.0
0.0 8.694762653476193e-07 -2.987712020632065e-08 2.159330647060148e-08 8.283813735721381e-09 1.7349073420562356e-07 0.0 0.0
0.0 1.0172138235525188e-05 2.6559892034299395e-06 -2.089007372252169e-06 -5.669818311777824e-07 -1.0841467486982773e-05 0.0 0.0
0.0 9.537908327087549e-05 3.5179998713168795e-05 -2.8009983616197514e-05 -7.170015096971269e-06 -0.00011111263952051473 0.0 0.0
0.0 0.0004449986140026833 0.00023817741996217997 -0.00019184402722463304 -4.633339273754693e-05 -0.0005596090127435827 0.0 0.0
0.0 0.0015160685105627806 0.000994688377981644 -0.000821733151219662 -0.0001729552267619815 -0.0016766166735605104 0.0 0.0
0.0 0.0035477785777486524 0.0025263713971110627 -0.0021729161396152616 -0.00035345525749579885 -0.0033436307940079425 0.0 0.0
0.0 0.006214905617142862 0.004730161934287433 -0.00421861398883237 -0.000511547945455063 -0.005365549616031742 0.0 0.0
0.0 0.009554252008338503 0.007375857572144223 -0.006756530713488782 -0.000619326858655442 -0.0075226583387793195 0.0 0.0
0.0 0.013161586173703093 0.010354693783144495 -0.00965872455145865 -0.0006959692316858417 -0.0096440313923072 0.0 0.0
0.0 0.01719746757588369 0.013673395357995097 -0.012916714629139799 -0.0007566807288552972 -0.011739433291784479 0.0 0.0
0.0 0.021757627263637967 0.017420038371462724 -0.016612020925614698 -0.0008080174458480186 -0.013859816002198622 0.0 0.0
0.0 0.026965874118263882 0.021690591753601583 -0.02083623287251944 -0.0008543588810821428 -0.015996752500578654 0.0 0.0
0.0 0.03271862819274305 0.026529372477536846 -0.025629297116956662 -0.0009000753605801772 -0.01795843384875635 0.0 0.0
0.0 0.03900730457822759 0.03188658600362307 -0.030941055817363467 -0.0009455301862596018 -0.01934787386956877 0.0 0.0
0.0 0.0455817810504202 0.037741676137145075 -0.03676218012070111 -0.0009794960164439673 -0.019789162663706315 0.0 0.0
0.0 0.05250336895483443 0.044133501272193114 -0.043117247260109334 -0.001016254012083755 -0.018298073409643706 0.0 0.0
0.0 0.05917971240546806 0.050571199978917694 -0.04948660987790918 -0.0010845901010085185 -0.012418325568811046 0.0 0.0
0.0 0.05917971240546732 0.05057119997891503 -0.049486609877906707 -0.0010845901010083044 0.012418325568843445 0.0 0.0
0.0 0.05250336895483221 0.044133501272186085 -0.043117247260103006 -0.0010162540120830772 0.018298073409691567 0.0 0.0
0.0 0.04558178105041117 0.03774167613713228 -0.036762180120689276 -0.0009794960164429983 0.019789162663741686 0.0 0.0
0.0 0.03900730457821321 0.031886586003608185 -0.030941055817349516 -0.000945530186258676 0.019347873869581297 0.0 0.0
0.0 0.03271862819272102 0.026529372477518236 -0.025629297116938825 -0.0009000753605793982 0.01795843384874803 0.0 0.0
0.0 0.026965874118240175 0.021690591753581918 -0.02083623287250037 -0.0008543588810815599 0.01599675250056775 0.0 0.0
0.0 0.021757627263618233 0.017420038371445908 -0.01661202092559845 -0.0008080174458474676 0.013859816002192524 0.0 0.0
0.0 0.017197467575867095 0.013673395357980754 -0.01291671462912595 -0.0007566807288548066 0.011739433291779188 0.0 0.0
0.0 0.013161586173684004 0.010354693783129037 -0.009658724551443766 -0.000695969231685269 0.009644031392295667 0.0 0.0
0.0 0.009554252008319025 0.0073758575721289375 -0.006756530713474014 -0.0006193268586549204 0.0075226583387653645 0.0 0.0
0.0 0.006214905617123256 0.0047301619342731294 -0.00421861398881875 -0.0005115479454543775 0.005365549616014471 0.0 0.0
0.0 0.0035477785777356754 0.002526371397101503 -0.0021729161396065446 -0.00035345525749495843 0.003343630793997233 0.0 0.0
0.0 0.0015160685105553345 0.000994688377976459 -0.0008217331512152405 -0.0001729552267612185 0.0016766166735535436 0.0 0.0
0.0 0.00044499861399932106 0.00023817741996058427 -0.00019184402722333355 -4.633339273725074e-05 0.0005596090127403305 0.0 0.0
0.0 9.537908326978832e-05 3.517999871315725e-05 -2.8009983616181576e-05 -7.170015096975655e-06 0.00011111263952030096 0.0 0.0
0.0 1.0172138235180744e-05 2.6559892035107934e-06 -2.0890073723158144e-06 -5.669818311949723e-07 1.0841467487349037e-05 0.0 0.0
0.0 8.694762648168817e-07 -2.987712019000699e-08 2.1593306458356525e-08 8.283813731647456e-09 -1.7349073409897767e-07 0.0 0.0
0.0 6.305102458760242e-07 -7.089892147158693e-09 5.074535912009278e-09 2.015356235150372e-09 -1.2874703620679312e-07 0.0 0.0
0.0 5.682293000733039e-07 -7.067340481250902e-09 9.746384282047934e-09 -2.6790438007974454e-09 -1.1423957123934295e-07 0.0 0.0
0.0 0.0007585062331512467 0.0004012314717005475 -0.0005199868454075456 0.00011875537370699808 0.0006389178061802978 0.0 0.0
0.0 0.0002831317874782763 0.00014775760191176147 -0.00020062415720601746 5.286655529425599e-05 -0.00024925471051132823 0.0 0.0
0.0 2.0717276247831737e-06 -6.165853434397743e-09 1.47916262852059e-08 -8.625772850807937e-09 4.367858720835785e-07 0.0 0.0
0.0 8.129603515550081e-07 -9.729788138728575e-10 -5.062304710215263e-10 1.479209284894036e-09 1.6676851108718092e-07 0.0 0.0
0.0 1.3942118126280809e-06 -1.7202479833820512e-08 1.1633862331670308e-08 5.568617502153395e-09 2.882879494068393e-07 0.0 0.0
0.0 1.0643900710803945e-05 1.6184191670350854e-06 -1.2359570294677851e-06 -3.8246213756730447e-07 -1.2102912279147512e-05 0.0 0.0
0.0 7.864253272731712e-05 1.705235430926824e-05 -1.3591948458336544e-05 -3.460405850931696e-06 -9.755248391092127e-05 0.0 0.0
0.0 0.00024879820338848466 7.765612106264799e-05 -6.230825014484952e-05 -1.534787091779841e-05 -0.0003482575350214614 0.0 0.0
0.0 0.0006753845218470928 0.0003032496730127818 -0.00024446883635413224 -5.878083665864938e-05 -0.0009826578853451287 0.0 0.0
0.0 0.0017106832702104664 0.0009492945194998431 -0.000782867074315434 -0.00016642744518440927 -0.0021505213060484625 0.0 0.0
0.0 0.0033054255132259954 0.002105700694069785 -0.0017952321829174558 -0.000310468511152328 -0.0036952750965517354 0.0 0.0
0.0 0.005294873629714506 0.0036302414429632674 -0.0031923479804228747 -0.00043789346254039126 -0.005419793528481334 0.0 0.0
0.0 0.007627514659158629 0.005372676259650421 -0.004842244954263454 -0.0005304313053869661 -0.00718940104447094 0.0 0.0
0.0 0.010174731516177545 0.007324632856218595 -0.006723307790492033 -0.0006013250657265567 -0.00899786525456684 0.0 0.0
0.0 0.013046329919819724 0.009542419708466195 -0.008886783943484586 -0.0006556357649816023 -0.01081007333424872 0.0 0.0
0.0 0.016325465547816907 0.01211580100661068 -0.01141788625990351 -0.000697914746707165 -0.012622792965247976 0.0 0.0
0.0 0.02008990934838582 0.015150369866405283 -0.014416099446348429 -0.000734270420056859 -0.014349190927182232 0.0 0.0
0.0 0.0243882347427038 0.018719544547281083 -0.017947560527392246 -0.0007719840198888409 -0.015677160646308787 0.0 0.0
0.0 0.029182939146537346 0.022905062198690984 -0.022100447174037315 -0.0008046150246536891 -0.016208959413817395 0.0 0.0
0.0 0.03483097504384522 0.02801865945081775 -0.027212165333307455 -0.0008064941175102915 -0.01573882587712671 0.0 0.0
0.0 0.04131484172886776 0.03435970336918421 -0.033496969228754475 -0.0008627341404297487 -0.012252497740943648 0.0 0.0
0.0 0.041314841728865764 0.03435970336918053 -0.03349696922875025 -0.0008627341404303002 0.012252497740969856 0.0 0.0
0.0 0.03483097504384304 0.028018659450811195 -0.027212165333300443 -0.0008064941175107497 0.01573882587716683 0.0 0.0
0.0 0.029182939146528742 0.02290506219867906 -0.022100447174025407 -0.0008046150246536431 0.016208959413845706 0.0 0.0
0.0 0.024388234742689145 0.018719544547267285 -0.017947560527378784 -0.0007719840198884931 0.015677160646313238 0.0 0.0
0.0 0.02008990934836949 0.015150369866393093 -0.014416099446336528 -0.000734270420056568 0.014349190927171582 0.0 0.0
0.0 0.01632546554780113 0.012115801006598814 -0.011417886259891614 -0.0006979147467072001 0.01262279296523776 0.0 0.0
0.0 0.013046329919806046 0.00954241970845534 -0.008886783943473852 -0.0006556357649814919 0.01081007333424199 0.0 0.0
0.0 0.010174731516166994 0.007324632856210063 -0.00672330779048377 -0.0006013250657262929 0.008997865254561886 0.0 0.0
0.0 0.007627514659147235 0.005372676259641874 -0.0048422449542556735 -0.0005304313053862011 0.007189401044462798 0.0 0.0
0.0 0.005294873629701324 0.0036302414429544264 -0.0031923479804146504 -0.0004378934625397749 0.0054197935284684565 0.0 0.0
0.0 0.0033054255132141637 0.0021057006940623617 -0.0017952321829107856 -0.0003104685111515746 0.0036952750965393412 0.0 0.0
0.0 0.0017106832702039618 0.0009492945194958077 -0.0007828670743119474 -0.00016642744518386056 0.00215052130604124 0.0 0.0
0.0 0.0006753845218437271 0.0003032496730112433 -0.00024446883635287917 -5.878083665836397e-05 0.0009826578853411702 0.0 0.0
0.0 0.00024879820338674576 7.765612106228702e-05 -6.23082501445471e-05 -1.5347870917739894e-05 0.0003482575350198164 0.0 0.0
0.0 7.8642532725829e-05 1.705235430919701e-05 -1.3591948458282705e-05 -3.4604058509142965e-06 9.755248391041749e-05 0.0 0.0
0.0 1.0643900710404039e-05 1.6184191670727934e-06 -1.2359570294965845e-06 -3.824621375762112e-07 1.2102912279452422e-05 0.0 0.0
0.0 1.3942118121365584e-06 -1.7202479827439693e-08 1.1633862327329383e-08 5.568617500112952e-09 -2.8828794930130727e-07 0.0 0.0
0.0 8.12960351106587e-07 -9.729788137991681e-10 -5.062304704954294e-10 1.479209284295063e-09 -1.667685109932312e-07 0.0 0.0
0.0 2.0717276240791394e-06 -6.165853431574411e-09 1.4791626278552993e-08 -8.625772846978897e-09 -4.3678587193397695e-07 0.0 0.0
0.0 0.000283131787475661 0.00014775760191084705 -0.00020062415720481267 5.286655529396543e-05 0.00024925471050994176 0.0 0.0
0.0 6.337426725449157e-05 2.9853456493597206e-05 -4.2422118620293826e-05 1.256866212669663e-05 -5.3448321028397164e-05 0.0 0.0
0.0 2.3409661729961703e-06 6.496376963596438e-10 1.3091562580591183e-08 -1.3741200276949575e-08 4.872012716183131e-07 0.0 0.0
0.0 8.40995848481627e-07 7.657579536348655e-09 -7.078283963225523e-09 -5.79295573123198e-10 1.4680632644718145e-07 0.0 0.0
0.0 1.6617821063318669e-06 -1.894768328504961e-08 1.7918952038202282e-08 1.0287312468479168e-09 -8.729261879974634e-07 0.0 0.0
0.0 1.3482737053755047e-05 3.4013976639175546e-07 -2.2462692656134778e-07 -1.1551283983041404e-07 -1.2645087404738522e-05 0.0 0.0
0.0 7.390032907928125e-05 5.25826473603012e-06 -4.115402041523298e-06 -1.1428626945068098e-06 -0.00010239541377602427 0.0 0.0
0.0 0.00020779849268857367 2.2472007413810642e-05 -1.799358322950187e-05 -4.478424184308793e-06 -0.00032400032854795714 0.0 0.0
0.0 0.00044416020428371817 5.9600294012979854e-05 -4.800610180215652e-05 -1.1594192210823278e-05 -0.0006660318968624954 0.0 0.0
0.0 0.0007722377832395356 0.00014463353972904468 -0.0001170347599934916 -2.759877973555306e-05 -0.0012412689265136065 0.0 0.0
0.0 0.0013583468855710575 0.0003197475485027432 -0.00025912749683349237 -6.062005166925089e-05 -0.0020890548570205872 0.0 0.0
0.0 0.0020725543722977524 0.0006456461602089686 -0.0005219235548589053 -0.00012372260535006312 -0.003240037989474605 0.0 0.0
0.0 0.0030380782696722737 0.0010685283112806896 -0.0008701605945843261 -0.00019836771669636314 -0.004528749614951642 0.0 0.0
0.0 0.004189834755119747 0.001603885379124835 -0.0013317299661858195 -0.00027215541293901463 -0.005980107666493355 0.0 0.0
0.0 0.005580126544904851 0.0022722340172406405 -0.001935963633866972 -0.00033627038337366816 -0.007586161435997108 0.0 0.0
0.0 0.0072001085866043165 0.003130409456052008 -0.002741285646825454 -0.0003891238092265534 -0.009332112978827772 0.0 0.0
0.0 0.009162794759513303 0.004310572402024095 -0.0038776583984565178 -0.0004329140035675754 -0.011105935980292173 0.0 0.0
0.0 0.011506967930827582 0.006034380916368209 -0.005560150928864916 -0.0004742299875032903 -0.01258191215255062 0.0 0.0
0.0 0.014313872283420993 0.008521033447135869 -0.007996886413215498 -0.000524147033920368 -0.013198207882307725 0.0 0.0
0.0 0.01800834190389135 0.01203764965591281 -0.011488739738307812 -0.000548909917604992 -0.012814374343573277 0.0 0.0
0.0 0.023614677283305054 0.017568007211624773 -0.017046148120362446 -0.0005218590912623236 -0.011610855265504306 0.0 0.0
0.0 0.023614677283306483 0.01756800721162403 -0.017046148120361593 -0.0005218590912624346 0.011610855265524187 0.0 0.0
0.0 0.018008341903894214 0.01203764965591088 -0.011488739738306034 -0.0005489099176048467 0.012814374343602442 0.0 0.0
0.0 0.014313872283417526 0.008521033447130046 -0.00799688641320972 -0.000524147033920324 0.013198207882323735 0.0 0.0
0.0 0.011506967930820393 0.00603438091636318 -0.00556015092885985 -0.0004742299875033258 0.012581912152549266 0.0 0.0
0.0 0.009162794759505 0.004310572402020253 -0.00387765839845285 -0.0004329140035674013 0.01110593598028305 0.0 0.0
0.0 0.007200108586595186 0.0031304094560475467 -0.002741285646821119 -0.00038912380922642747 0.009332112978817964 0.0 0.0
0.0 0.005580126544899996 0.0022722340172393113 -0.001935963633865753 -0.00033627038337355844 0.007586161435990009 0.0 0.0
0.0 0.004189834755116241 0.001603885379124142 -0.0013317299661854266 -0.0002721554129387154 0.005980107666487891 0.0 0.0
0.0 0.0030380782696661597 0.0010685283112792385 -0.0008701605945830462 -0.00019836771669619192 0.004528749614942595 0.0 0.0
0.0 0.0020725543722919255 0.0006456461602073387 -0.0005219235548575224 -0.00012372260534981579 0.0032400379894652 0.0 0.0
0.0 0.0013583468855662127 0.00031974754850169713 -0.00025912749683264485 -6.0620051669052546e-05 0.0020890548570137576 0.0 0.0
0.0 0.0007722377832368402 0.000144633539728498 -0.00011703475999306287 -2.7598779735435e-05 0.0012412689265092459 0.0 0.0
0.0 0.00044416020428257044 5.960029401281958e-05 -4.800610180203211e-05 -1.1594192210787455e-05 0.0006660318968606157 0.0 0.0
0.0 0.0002077984926867488 2.2472007413705108e-05 -1.7993583229400388e-05 -4.478424184304699e-06 0.0003240003285464372 0.0 0.0
0.0 7.39003290784533e-05 5.258264736007575e-06 -4.115402041504316e-06 -1.1428626945032611e-06 0.00010239541377550176 0.0 0.0
0.0 1.348273705349795e-05 3.4013976640427795e-07 -2.2462692656873976e-07 -1.1551283983554155e-07 1.2645087405270443e-05 0.0 0.0
0.0 1.6617821062665354e-06 -1.894768329934368e-08 1.7918952055010844e-08 1.028731244332758e-09 8.729261888919045e-07 0.0 0.0
0.0 8.409958482390335e-07 7.657579513468447e-09 -7.0782839438681805e-09 -5.792955696004786e-10 -1.4680632599807527e-07 0.0 0.0
0.0 2.340966172321822e-06 6.496376968874008e-10 1.3091562575233056e-08 -1.3741200272117913e-08 -4.87201271473837e-07 0.0 0.0
0.0 6.337426725323061e-05 2.985345649338131e-05 -4.242211861998178e-05 1.2568662126600412e-05 5.34483210281454e-05 0.0 0.0
0.0 3.673861789953519e-06 7.663648888048498e-07 -1.1076600754817226e-06 3.412951866768659e-07 -1.5865672340333753e-06 0.0 0.0
0.0 2.044379841464896e-06 -2.5460438724995687e-09 7.96286939242372e-09 -5.416825519919292e-09 1.607285506838391e-07 0.0 0.0
0.0 2.3705052179965522e-06 -7.981484826952687e-08 6.598030451428614e-08 1.3834543755241545e-08 -8.53846077666325e-07 0.0 0.0
0.0 3.6947038163743884e-06 -3.167802129015555e-07 2.7432481329454065e-07 4.245539960701498e-08 -3.6666559404812035e-06 0.0 0.0
0.0 1.7792111628125426e-05 -1.244384182787284e-06 1.0851270482764545e-06 1.592571345108388e-07 -1.8222567312960934e-05 0.0 0.0
0.0 7.998845759154654e-05 -6.898879229311938e-06 5.675979776649442e-06 1.2228994526624879e-06 -0.00010451722586594487 0.0 0.0
0.0 0.00020921533738837064 -2.3701415495621547e-05 1.912935247288368e-05 4.572063022737853e-06 -0.00032648226237773977 0.0 0.0
0.0 0.00044438579816110144 -5.978158263488954e-05 4.814873558975434e-05 1.1632847045135142e-05 -0.0006675326274247454 0.0 0.0
0.0 0.0007721930345691213 -0.00014438198153249787 0.00011681811627350758 2.7563865258990186e-05 -0.0012418101562016307 0.0 0.0
0.0 0.0013569127381060956 -0.0003190345330719273 0.00025844516537302647 6.0589367698900806e-05 -0.0020876496019442722 0.0 0.0
0.0 0.0020805336602912772 -0.0006448170033796778 0.0005219715329701993 0.0001228454704094781 -0.003238198164286474 0.0 0.0
0.0 0.003048038400062575 -0.001082636311931881 0.0008840746266940789 0.00019856168523780182 -0.004536287376977378 0.0 0.0
0.0 0.004223085921180325 -0.0016445431002866634 0.0013705373065696878 0.0002740057937169742 -0.005993030281955363 0.0 0.0
0.0 0.005621532949426815 -0.0023255075501688828 0.0019827591616897945 0.0003427483884790867 -0.00759342809274833 0.0 0.0
0.0 0.007124829598817374 -0.0030430377946065947 0.002638436295974954 0.00040460149863164003 -0.009327025317825845 0.0 0.0
0.0 0.008632366359458002 -0.0036032407895629386 0.003144019593793433 0.000459221195769501 -0.011157179024455802 0.0 0.0
0.0 0.009850382660470348 -0.0036934498848553146 0.003189852751510882 0.0005035971333444333 -0.013072942019988003 0.0 0.0
0.0 0.010628124587985536 -0.0030334233176102276 0.002499586331448219 0.0005338369861620075 -0.015111695394416806 0.0 0.0
0.0 0.010914881672034481 -0.0016627122831904839 0.0011822469880207855 0.000480465295169699 -0.016879912649450438 0.0 0.0
0.0 0.010550868752372412 0.0024625341132972706 -0.002545137080089987 8.260296679271525e-05 -0.015517683379028091 0.0 0.0
0.0 0.010550868752376421 0.0024625341132974866 -0.002545137080089957 8.26029667924732e-05 0.015517683379038527 0.0 0.0
0.0 0.010914881672037989 -0.001662712283190664 0.0011822469880209668 0.0004804652951696964 0.016879912649460205 0.0 0.0
0.0 0.010628124587982648 -0.0030334233176091702 0.002499586331447528 0.0005338369861616405 0.015111695394418425 0.0 0.0
0.0 0.00985038266046215 -0.003693449884851414 0.003189852751507385 0.0005035971333440263 0.013072942019979756 0.0 0.0
0.0 0.008632366359445491 -0.0036032407895556615 0.0031440195937864376 0.0004592211957692201 0.011157179024443596 0.0 0.0
0.0 0.007124829598807801 -0.003043037794601254 0.0026384362959699275 0.0004046014986313255 0.009327025317816543 0.0 0.0
0.0 0.005621532949418506 -0.0023255075501644597 0.001982759161685973 0.0003427483884784853 0.0075934280927400215 0.0 0.0
0.0 0.004223085921170478 -0.0016445431002804723 0.0013705373065642196 0.00027400579371625214 0.0059930302819478 0.0 0.0
0.0 0.0030480384000532395 -0.0010826363119276483 0.0008840746266905465 0.00019856168523710153 0.004536287376967438 0.0 0.0
0.0 0.002080533660283445 -0.0006448170033758359 0.0005219715329670607 0.00012284547040877533 0.0032381981642764027 0.0 0.0
0.0 0.0013569127381005287 -0.0003190345330701176 0.00025844516537148316 6.058936769863429e-05 0.002087649601937391 0.0 0.0
0.0 0.000772193034566471 -0.00014438198153168683 0.00011681811627283273 2.7563865258854122e-05 0.0012418101561978176 0.0 0.0
0.0 0.00044438579815950485 -5.9781582634546406e-05 4.814873558945857e-05 1.1632847045087826e-05 0.0006675326274226806 0.0 0.0
0.0 0.0002092153373870585 -2.370141549556302e-05 1.912935247286334e-05 4.572063022699679e-06 0.00032648226237693345 0.0 0.0
0.0 7.998845759002499e-05 -6.898879229242339e-06 5.6759797765959434e-06 1.2228994526464044e-06 0.00010451722586494109 0.0 0.0
0.0 1.7792111627642834e-05 -1.244384182813454e-06 1.0851270482991164e-06 1.5925713451433385e-07 1.8222567313343996e-05 0.0 0.0
0.0 3.6947038162724103e-06 -3.1678021296810364e-07 2.7432481335251936e-07 4.2455399615584665e-08 3.666655941242392e-06 0.0 0.0
0.0 2.3705052176081622e-06 -7.981484836444341e-08 6.5980304594137e-08 1.3834543770307132e-08 8.538460787554183e-07 0.0 0.0
0.0 2.044379840874793e-06 -2.546043887302838e-09 7.962869392387301e-09 -5.41682550507957e-09 -1.6072855017992366e-07 0.0 0.0
0.0 3.6738617893485137e-06 7.663648889278972e-07 -1.107660075658558e-06 3.4129518673066367e-07 1.5865672343160487e-06 0.0 0.0
0.0 0.0 0.0 0.0 0.0 0.0 0.0 0.0
0.0 8.64456938109642e-07 -9.603333639529326e-10 5.76740793199345e-09 -4.807074568042055e-09 2.4333107688767582e-08 0.0 0.0
0.0 3.0939905044877425e-06 -2.1681161483446835e-07 1.7806902794364613e-07 3.874258689081806e-08 -1.6027815390903814e-06 0.0 0.0
0.0 6.238545170757795e-06 -2.650253108018033e-07 2.4000625127447133e-07 2.5019059527345408e-08 -2.0598269145817233e-06 0.0 0.0
0.0 2.3473682102687623e-05 -4.497724601186739e-06 3.7512436537024e-06 7.464809474843458e-07 -2.7293608958375436e-05 0.0 0.0
0.0 9.020254456086789e-05 -2.1856427032291925e-05 1.7632938662027368e-05 4.223488370264535e-06 -0.0001162443845973768 0.0 0.0
0.0 0.0002589987063204646 -8.003466458962014e-05 6.437803752444118e-05 1.565662706517896e-05 -0.00035485723325663854 0.0 0.0
0.0 0.0006794741309020284 -0.00030491408507708095 0.0002458301144533681 5.908397062371279e-05 -0.000987370603850102 0.0 0.0
0.0 0.0017083172511192968 -0.0009482944218606463 0.0007819693415821334 0.00016632508027851264 -0.0021500830431260575 0.0 0.0
0.0 0.003302655059355847 -0.0021042455585273258 0.0017940227789209951 0.00031022277960633053 -0.0036935781757127975 0.0 0.0
0.0 0.005298285196341946 -0.003633637903164986 0.0031962703508656267 0.00043736755229935775 -0.0054208405414835755 0.0 0.0
0.0 0.007646098366086987 -0.005392193859198239 0.004862544683837485 0.0005296491753607574 -0.007189063255100112 0.0 0.0
0.0 0.010217849307468595 -0.007373180593163487 0.0067718916155176 0.0006012889776458854 -0.008980821214087348 0.0 0.0
0.0 0.013092665359347154 -0.009597290513004139 0.008936461067278585 0.0006608294457255562 -0.010778674858433457 0.0 0.0
0.0 0.016225367235437615 -0.012006553333389725 0.011291235053255022 0.0007153182801346991 -0.0126575567882851 0.0 0.0
0.0 0.01940015001967004 -0.01438220474624467 0.013615072461806765 0.0007671322844378996 -0.01470922679674315 0.0 0.0
0.0 0.02225153187103265 -0.01632228015227372 0.015509232586611481 0.0008130475656622404 -0.017000083412772416 0.0 0.0
0.0 0.02417620565211727 -0.017298753789589005 0.016453121474949754 0.0008456323146392581 -0.019436549399379922 0.0 0.0
0.0 0.0236305411690114 -0.016290401893433632 0.01534980260991896 0.0009405992835146628 -0.020416699801048134 0.0 0.0
0.0 0.018313182313627135 -0.010954133910404097 0.009938449266169287 0.0010156846442348042 -0.017811164300132788 0.0 0.0
0.0 0.018313182313632097 -0.010954133910403098 0.009938449266167756 0.0010156846442353404 0.017811164300155512 0.0 0.0
0.0 0.023630541169018138 -0.016290401893432605 0.015349802609917826 0.0009405992835147695 0.020416699801080213 0.0 0.0
0.0 0.024176205652111513 -0.017298753789580013 0.016453121474940723 0.000845632314639288 0.019436549399398997 0.0 0.0
0.0 0.022251531871016948 -0.016322280152259908 0.015509232586597997 0.0008130475656619085 0.01700008341277029 0.0 0.0
0.0 0.019400150019649367 -0.014382204746228266 0.013615072461790743 0.0007671322844375229 0.014709226796730337 0.0 0.0
0.0 0.016225367235420417 -0.01200655333337626 0.011291235053241979 0.0007153182801342823 0.01265755678827416 0.0 0.0
0.0 0.013092665359328595 -0.009597290512989737 0.008936461067264452 0.0006608294457252834 0.010778674858421912 0.0 0.0
0.0 0.010217849307450396 -0.007373180593148495 0.006771891615503007 0.000601288977645486 0.008980821214077775 0.0 0.0
0.0 0.007646098366068391 -0.005392193859184205 0.004862544683824184 0.0005296491753600208 0.0071890632550868794 0.0 0.0
0.0 0.00529828519632332 -0.003633637903151768 0.0031962703508533327 0.0004373675522984353 0.0054208405414676725 0.0 0.0
0.0 0.003302655059340987 -0.0021042455585173238 0.0017940227789120054 0.0003102227796053181 0.0036935781756985337 0.0 0.0
0.0 0.001708317251110529 -0.0009482944218547433 0.000781969341577086 0.00016632508027765753 0.0021500830431169875 0.0 0.0
0.0 0.0006794741308987264 -0.00030491408507528795 0.0002458301144519474 5.908397062334059e-05 0.000987370603846325 0.0 0.0
0.0 0.00025899870631860417 -8.003466458926533e-05 6.43780375241622e-05 1.5656627065103124e-05 0.00035485723325521775 0.0 0.0
0.0 9.020254455912041e-05 -2.1856427032130335e-05 1.763293866189681e-05 4.2234883702335035e-06 0.00011624438459652099 0.0 0.0
0.0 2.3473682102065582e-05 -4.49772460122988e-06 3.7512436537395826e-06 7.464809474902816e-07 2.7293608958639988e-05 0.0 0.0
0.0 6.238545170530742e-06 -2.6502531087827424e-07 2.400062513390153e-07 2.5019059539262655e-08 2.059826915078424e-06 0.0 0.0
0.0 3.0939905039367857e-06 -2.168116149464742e-07 1.7806902803521187e-07 3.874258691126238e-08 1.6027815399515286e-06 0.0 0.0
0.0 8.644569377198822e-07 -9.603333842581528e-10 5.7674079284524924e-09 -4.807074544193988e-09 -2.4333107104640016e-08 0.0 0.0
0.0 0.0 0.0 0.0 0.0 0.0 0.0 0.0
0.0 0.0 0.0 0.0 0.0 0.0 0.0 0.0
0.0 1.2508586812791678e-06 1.7693331314728913e-08 -8.022362203851962e-09 -9.670969110877117e-09 2.5436291706895875e-07 0.0 0.0
0.0 3.2785645983030984e-06 6.130659606741035e-08 -4.82514036980776e-08 -1.3055192369336456e-08 3.764249374875254e-07 0.0 0.0
0.0 8.856297086937963e-06 -3.0044257856064395e-07 2.38060028681499e-07 6.238254987915337e-08 -1.1368825529248625e-06 0.0 0.0
0.0 3.0542168004506506e-05 -8.61964273117357e-06 7.005654380638938e-06 1.6139883505346461e-06 -3.1307638859361074e-05 0.0 0.0
0.0 0.00011707872177312535 -4.48509807665189e-05 3.6124478760784606e-05 8.726502005734263e-06 -0.0001381215717287598 0.0 0.0
0.0 0.0004652433168397341 -0.00024689076664207186 0.00019919455811843626 4.769620852363561e-05 -0.0005768275582806437 0.0 0.0
0.0 0.0015195328230066375 -0.0009958251125338697 0.0008228056600506665 0.00017301945248320336 -0.0016811082537766455 0.0 0.0
0.0 0.003542661934755734 -0.002523598213089814 0.0021703366345533896 0.0003532615785364234 -0.003340169390149877 0.0 0.0
0.0 0.006213042307263021 -0.004729645438666096 0.004218211608421733 0.0005114338302443623 -0.005363712508970341 0.0 0.0
0.0 0.00955939322575194 -0.007380801893777567 0.006761935149426864 0.0006188667443507033 -0.007523047247782172 0.0 0.0
0.0 0.013175202267965513 -0.010370520131131756 0.00967559856885874 0.0006949215622730131 -0.009630396184768299 0.0 0.0
0.0 0.017218241232203196 -0.01370862578204031 0.012952652929665959 0.0007559728523743503 -0.0116727109517038 0.0 0.0
0.0 0.02176652905647282 -0.017457193192171386 0.01664547122705669 0.000811721965114692 -0.013733056648550328 0.0 0.0
0.0 0.02685466116341785 -0.02158975592124028 0.020720747443788455 0.0008690084774518207 -0.015992936187530456 0.0 0.0
0.0 0.03216533914100271 -0.025871685277841186 0.024942546001517858 0.0009291392763233088 -0.01870978892155024 0.0 0.0
0.0 0.037283677461032 -0.02979992428066037 0.02881173473841839 0.0009881895422419605 -0.022070854524687232 0.0 0.0
0.0 0.040858686208241346 -0.03247428288167807 0.031410707937933845 0.0010635749437442278 -0.025477467551161776 0.0 0.0
0.0 0.04108871509173777 -0.032200739309921365 0.031042129986856664 0.0011586093230647027 -0.027173503629793937 0.0 0.0
0.0 0.03345795553851655 -0.025758966286582342 0.02439626574917752 0.0013627005374048185 -0.023472830223888123 0.0 0.0
0.0 0.033457955538523904 -0.02575896628658261 0.024396265749177887 0.0013627005374047163 0.023472830223919522 0.0 0.0
0.0 0.041088715091741154 -0.03220073930991671 0.031042129986852206 0.0011586093230644852 0.027173503629834818 0.0 0.0
0.0 0.04085868620823188 -0.032474282881664596 0.03141070793792047 0.0010635749437440953 0.025477467551188866 0.0 0.0
0.0 0.037283677461009086 -0.029799924280639066 0.028811734738397685 0.0009881895422413963 0.022070854524690008 0.0 0.0
0.0 0.03216533914097213 -0.025871685277815554 0.024942546001492472 0.0009291392763230895 0.018709788921537865 0.0 0.0
0.0 0.026854661163389408 -0.021589755921216838 0.02072074744376508 0.0008690084774517436 0.0159929361875176 0.0 0.0
0.0 0.021766529056444658 -0.017457193192148338 0.01664547122703363 0.0008117219651147083 0.013733056648536333 0.0 0.0
0.0 0.017218241232176777 -0.013708625782017928 0.012952652929643772 0.0007559728523741525 0.011672710951693194 0.0 0.0
0.0 0.013175202267939369 -0.010370520131110408 0.009675598568837747 0.0006949215622726602 0.009630396184753833 0.0 0.0
0.0 0.009559393225724196 -0.007380801893755867 0.006761935149405768 0.0006188667443500985 0.007523047247761976 0.0 0.0
0.0 0.006213042307239451 -0.004729645438648203 0.004218211608404626 0.000511433830243578 0.005363712508952088 0.0 0.0
0.0 0.0035426619347400834 -0.002523598213077746 0.002170336634542274 0.00035326157853547203 0.00334016939013788 0.0 0.0
0.0 0.0015195328229992977 -0.000995825112528705 0.0008228056600463297 0.0001730194524823754 0.0016811082537703088 0.0 0.0
0.0 0.0004652433168358723 -0.000246890766640292 0.00019919455811701813 4.769620852327379e-05 0.0005768275582772683 0.0 0.0
0.0 0.00011707872177145801 -4.4850980766349935e-05 3.612447876064728e-05 8.726502005702603e-06 0.00013812157172805254 0.0 0.0
0.0 3.054216800336682e-05 -8.619642731182204e-06 7.00565438064485e-06 1.6139883505373166e-06 3.130763885938463e-05 0.0 0.0
0.0 8.85629708619998e-06 -3.0044257867711977e-07 2.3806002877585362e-07 6.238254990125448e-08 1.1368825534099438e-06 0.0 0.0
0.0 3.2785645977406994e-06 6.130659596164006e-08 -4.825140361355764e-08 -1.3055192348075954e-08 -3.7642493690032264e-07 0.0 0.0
0.0 1.2508586809248778e-06 1.7693331309732382e-08 -8.022362201433076e-09 -9.67096910830339e-09 -2.543629169952669e-07 0.0 0.0
0.0 0.0 0.0 0.0 0.0 0.0 0.0 0.0
0.0 0.0 0.0 0.0 0.0 0.0 0.0 0.0
0.0 0.0 0.0 0.0 0.0 0.0 0.0 0.0
0.0 2.097264954190379e-06 8.83659584605301e-08 -7.060413059826229e-08 -1.7761827862272653e-08 4.0752168309173775e-07 0.0 0.0
0.0 8.409847455229252e-06 -1.2115262634628466e-06 1.010078192034336e-06 2.0144807142850665e-07 -4.085042279209026e-06 0.0 0.0
0.0 3.869768490835686e-05 -1.3430251728415444e-05 1.092647345752898e-05 2.5037782708864947e-06 -3.456364611949139e-05 0.0 0.0
0.0 0.0001993454413842313 -0.00010938914077586947 8.796573093954458e-05 2.142340983632486e-05 -0.00021760316684063167 0.0 0.0
0.0 0.0009349268954516788 -0.0006385976203761488 0.0005223329259851578 0.0001162646943909909 -0.00092777455200304 0.0 0.0
0.0 0.002736096523459951 -0.0020632861432630994 0.0017548731520087794 0.0003084129912543194 -0.0023135479329226237 0.0 0.0
0.0 0.005664027920606308 -0.004458414234395115 0.00395835208617959 0.0005000621482155244 -0.004246591959674289 0.0 0.0
0.0 0.00945187672799256 -0.00763088954844873 0.006995149225712868 0.0006357403227358629 -0.006543512298595712 0.0 0.0
0.0 0.013912073926648737 -0.011354941335888113 0.01062900595866919 0.0007259353772189226 -0.008910427562109842 0.0 0.0
0.0 0.018928120320985325 -0.015547543066048572 0.0147502047786397 0.0007973382874088668 -0.01116984274986562 0.0 0.0
0.0 0.02454178980545201 -0.02024308522095884 0.019383518839161232 0.0008595663817975979 -0.013353267144029353 0.0 0.0
0.0 0.030795328039818805 -0.02553210897437127 0.02461233004562805 0.000919778928743218 -0.015576338293640465 0.0 0.0
0.0 0.037817790473404986 -0.03142179212758994 0.03043894032124667 0.0009828518063432579 -0.01807530529687046 0.0 0.0
0.0 0.04536704782906229 -0.037676503100227625 0.03662262858704027 0.0010538745131873416 -0.021251991347113933 0.0 0.0
0.0 0.052626985457555356 -0.04361327089238667 0.04247667657475149 0.0011365943176351572 -0.025308989526503876 0.0 0.0
0.0 0.05804807446863573 -0.04785825543195898 0.04662296096791703 0.0012352944640418903 -0.02954169027346756 0.0 0.0
0.0 0.058605503730947056 -0.04802167566174882 0.046649922073266924 0.0013717535884818779 -0.03174296974881573 0.0 0.0
0.0 0.04913804290177951 -0.03994354913674485 0.03836016077694697 0.0015833883597978992 -0.028425917591261916 0.0 0.0
0.0 0.04913804290178479 -0.039943549136743695 0.03836016077694573 0.0015833883597979625 0.028425917591297 0.0 0.0
0.0 0.05860550373094517 -0.0480216756617402 0.0466499220732582 0.0013717535884819857 0.031742969748861635 0.0 0.0
0.0 0.05804807446861946 -0.04785825543193947 0.04662296096789822 0.0012352944640412343 0.02954169027349946 0.0 0.0
0.0 0.052626985457525935 -0.043613270892359286 0.04247667657472481 0.0011365943176344716 0.025308989526510266 0.0 0.0
0.0 0.04536704782902391 -0.03767650310019455 0.03662262858700743 0.0010538745131871093 0.021251991347104135 0.0 0.0
0.0 0.0378177904733683 -0.03142179212755875 0.030438940321215968 0.0009828518063427767 0.01807530529685773 0.0 0.0
0.0 0.030795328039783534 -0.02553210897434137 0.024612330045598818 0.0009197789287425544 0.015576338293626858 0.0 0.0
0.0 0.02454178980541554 -0.02024308522092773 0.019383518839130438 0.0008595663817972941 0.013353267144017265 0.0 0.0
0.0 0.01892812032095069 -0.01554754306601941 0.014750204778611054 0.0007973382874083539 0.011169842749849114 0.0 0.0
0.0 0.013912073926615674 -0.011354941335861124 0.01062900595864294 0.0007259353772181803 0.008910427562089377 0.0 0.0
0.0 0.009451876727962237 -0.00763088954842445 0.006995149225689329 0.0006357403227351189 0.006543512298574786 0.0 0.0
0.0 0.005664027920582722 -0.00445841423437633 0.00395835208616192 0.0005000621482144109 0.004246591959659351 0.0 0.0
0.0 0.0027360965234466523 -0.0020632861432527774 0.0017548731519996062 0.00030841299125317046 0.0023135479329130615 0.0 0.0
0.0 0.0009349268954450642 -0.0006385976203717607 0.0005223329259815012 0.00011626469439025918 0.0009277745519976546 0.0 0.0
0.0 0.00019934544138165342 -0.0001093891407749966 8.796573093882803e-05 2.1423409836168605e-05 0.00021760316683899 0.0 0.0
0.0 3.869768490734868e-05 -1.3430251728426844e-05 1.0926473457535994e-05 2.5037782708908015e-06 3.456364611952908e-05 0.0 0.0
0.0 8.409847454644847e-06 -1.211526263666777e-06 1.0100781922004647e-06 2.0144807146630443e-07 4.085042279868263e-06 0.0 0.0
0.0 2.097264953409312e-06 8.83659584261996e-08 -7.060413057169412e-08 -1.7761827854507373e-08 -4.0752168293768845e-07 0.0 0.0
0.0 0.0 0.0 0.0 0.0 0.0 0.0 0.0
0.0 0.0 0.0 0.0 0.0 0.0 0.0 0.0
0.0 0.0 0.0 0.0 0.0 0.0 0.0 0.0
0.0 0.0 0.0 0.0 0.0 0.0 0.0 0.0
0.0 6.301117771691601e-07 3.177133557320747e-08 -2.5610055499987776e-08 -6.161280073216576e-09 1.139376708674144e-07 0.0 0.0
0.0 8.817281888352074e-06 9.085650657866404e-08 -7.322205030747395e-08 -1.7634456271178952e-08 3.143110100631512e-07 0.0 0.0
0.0 6.00167039440779e-05 -2.0798991512386046e-05 1.6776159644364927e-05 4.022831868021119e-06 -3.747648085754789e-05 0.0 0.0
0.0 0.00039024144359257087 -0.0002671889882992916 0.00021588497629204347 5.130401200724808e-05 -0.00035600743241103263 0.0 0.0
0.0 0.0016509788990899472 -0.001258650498113383 0.001048405342321218 0.00021024515579216478 -0.0012397382432852806 0.0 0.0
0.0 0.004183954470828505 -0.003377339386749161 0.00294760402294227 0.0004297353638068911 -0.00274497690256532 0.0 0.0
0.0 0.007949327153392917 -0.006589283847964065 0.005986419674325528 0.0006028641736385364 -0.0048046297643226845 0.0 0.0
0.0 0.01276003122848969 -0.010666848317015117 0.009949430425677383 0.000717417891337734 -0.007153585281368993 0.0 0.0
0.0 0.0184073510975475 -0.015437281539003374 0.01463447352912432 0.0008028080098790541 -0.00952624016761731 0.0 0.0
0.0 0.0247933451222936 -0.02083556357037087 0.01995894318674077 0.000876620383630103 -0.011814369177280869 0.0 0.0
0.0 0.031936826798985005 -0.026899149444397447 0.025954246563447497 0.0009449028809499322 -0.014041677013616157 0.0 0.0
0.0 0.03996993330196072 -0.03373226700054 0.03272132528853874 0.0010109417120012583 -0.016298448835276976 0.0 0.0
0.0 0.04901757325849386 -0.04138687149211338 0.040306039275006526 0.0010808322171068662 -0.018833741356012353 0.0 0.0
0.0 0.05860405377392362 -0.04961863976447728 0.04845431913473039 0.0011643206297468772 -0.022074761616137837 0.0 0.0
0.0 0.06818674164674049 -0.05753059628224464 0.05626191658871213 0.0012686796935325153 -0.026302918239639053 0.0 0.0
0.0 0.07525678391380745 -0.06324700916555225 0.061848919481950954 0.0013980896836012897 -0.030959560651338196 0.0 0.0
0.0 0.07599852450550595 -0.06360773882982736 0.06204770330414548 0.0015600355256818388 -0.03398480492164183 0.0 0.0
0.0 0.0649053209122889 -0.05385441511499532 0.0520986422148625 0.001755772900132828 -0.03284751280015907 0.0 0.0
0.0 0.06490532091229034 -0.05385441511499123 0.05209864221485811 0.0017557729001330957 0.0328475128001966 0.0 0.0
0.0 0.07599852450549781 -0.06360773882981395 0.062047703304132326 0.0015600355256816009 0.033984804921688976 0.0 0.0
0.0 0.07525678391378311 -0.06324700916552663 0.0618489194819256 0.0013980896836010312 0.030959560651372633 0.0 0.0
0.0 0.06818674164670113 -0.0575305962822092 0.05626191658867656 0.0012686796935325992 0.026302918239645562 0.0 0.0
0.0 0.058604053773878395 -0.04961863976443813 0.048454319134691164 0.00116432062974695 0.02207476161613039 0.0 0.0
0.0 0.0490175732584486 -0.041386871492074366 0.040306039274967925 0.0010808322171064655 0.01883374135600114 0.0 0.0
0.0 0.03996993330191516 -0.03373226700050097 0.032721325288500185 0.001010941712000775 0.016298448835262106 0.0 0.0
0.0 0.03193682679893971 -0.026899149444358277 0.02595424656340887 0.0009449028809494031 0.01404167701360376 0.0 0.0
0.0 0.024793345122248022 -0.020835563570331922 0.019958943186702143 0.0008766203836297714 0.011814369177264264 0.0 0.0
0.0 0.018407351097502977 -0.0154372815389664 0.014634473529087486 0.0008028080098789129 0.009526240167594227 0.0 0.0
0.0 0.012760031228454073 -0.010666848316985392 0.009949430425648201 0.000717417891337203 0.007153585281347726 0.0 0.0
0.0 0.007949327153367353 -0.006589283847942787 0.005986419674304818 0.0006028641736379731 0.004804629764309138 0.0 0.0
0.0 0.004183954470811144 -0.003377339386734804 0.0029476040229290514 0.0004297353638057546 0.0027449769025559593 0.0 0.0
0.0 0.0016509788990789844 -0.0012586504981050577 0.0010484053423141149 0.00021024515579094272 0.0012397382432780663 0.0 0.0
0.0 0.0003902414435879339 -0.00026718898829663297 0.0002158849762898575 5.1304012006775506e-05 0.00035600743240766326 0.0 0.0
0.0 6.001670394344311e-05 -2.079899151273531e-05 1.677615964463871e-05 4.022831868096497e-06 3.747648085813399e-05 0.0 0.0
0.0 8.817281887639232e-06 9.085650649196673e-08 -7.32220502387124e-08 -1.7634456253243744e-08 -3.1431100985502314e-07 0.0 0.0
0.0 6.301117768796378e-07 3.177133555832444e-08 -2.5610055487985994e-08 -6.161280070339225e-09 -1.1393767081387647e-07 0.0 0.0
0.0 0.0 0.0 0.0 0.0 0.0 0.0 0.0
0.0 0.0 0.0 0.0 0.0 0.0 0.0 0.0
0.0 0.0 0.0 0.0 0.0 0.0 0.0 0.0
0.0 0.0 0.0 0.0 0.0 0.0 0.0 0.0
0.0 9.159772724021529e-07 5.630253744311479e-08 -4.536700834069255e-08 -1.0935529102421052e-08 1.5681455061216043e-07 0.0 0.0
0.0 5.6647958610580434e-06 -1.0959715983002663e-06 8.790128100687174e-07 2.1695878823159032e-07 -1.995480100736645e-06 0.0 0.0
0.0 9.746259569836518e-05 -5.497513472428312e-05 4.408244364579094e-05 1.089269107849222e-05 -7.143099699106426e-05 0.0 0.0
0.0 0.0007366255675665639 -0.0005485670906744252 0.00044669785410991736 0.00010186923656450808 -0.0004965749996154724 0.0 0.0
0.0 0.002594754158905947 -0.002065114475591301 0.001755037889661131 0.00031007658593017 -0.001430085922009331 0.0 0.0
0.0 0.005727197926528967 -0.004863748103820603 0.004336970467267666 0.0005267776365529362 -0.00294983315581057 0.0 0.0
0.0 0.010324146515771368 -0.008821276651832178 0.008147251905516812 0.0006740247463153692 -0.004939938358419048 0.0 0.0
0.0 0.016142236545394657 -0.013770153837490837 0.012991806696821477 0.0007783471406693678 -0.007158690536614308 0.0 0.0
0.0 0.022976307736002177 -0.01958262356844057 0.018717590202734065 0.0008650333657064895 -0.009428046997613865 0.0 0.0
0.0 0.030715226607421292 -0.02619415044224228 0.02524960257637073 0.0009445478658715298 -0.011619318521852407 0.0 0.0
0.0 0.039467325213996804 -0.03363730364482084 0.032616829244129675 0.0010204744006911623 -0.01376733949387513 0.0 0.0
0.0 0.049156705773969994 -0.042017376664144325 0.040923636557486584 0.001093740106657741 -0.01596444869002988 0.0 0.0
0.0 0.060100110130459364 -0.051399493343721736 0.050229397352956284 0.0011700959907654535 -0.018318089770775026 0.0 0.0
0.0 0.072038182828246 -0.06153966777569833 0.06027478645363317 0.0012648813220651613 -0.021171450861106327 0.0 0.0
0.0 0.083460932236456 -0.07137233817032841 0.06998201444993044 0.001390323720397929 -0.025048672335796388 0.0 0.0
0.0 0.09196916597728269 -0.07851054029087208 0.07696244856949676 0.0015480917213752787 -0.029861346678108424 0.0 0.0
0.0 0.09310404513488402 -0.07909045029393201 0.07736443311074093 0.0017260171831910247 -0.03435281947799378 0.0 0.0
0.0 0.08103115948574048 -0.06787610654152963 0.06596431293909419 0.0019117936024354437 -0.03703703571588837 0.0 0.0
0.0 0.08103115948574097 -0.06787610654152508 0.06596431293908972 0.0019117936024353242 0.03703703571592611 0.0 0.0
0.0 0.09310404513486711 -0.07909045029391244 0.07736443311072108 0.0017260171831912936 0.03435281947804017 0.0 0.0
0.0 0.09196916597724908 -0.07851054029083954 0.07696244856946417 0.0015480917213753342 0.02986134667814172 0.0 0.0
0.0 0.08346093223641256 -0.07137233817028923 0.06998201444989198 0.0013903237203972132 0.025048672335805613 0.0 0.0
0.0 0.07203818282819571 -0.061539667775653895 0.06027478645359019 0.0012648813220636954 0.02117145086110292 0.0 0.0
0.0 0.060100110130405664 -0.05139949334367468 0.05022939735291046 0.0011700959907642063 0.01831808977076718 0.0 0.0
0.0 0.049156705773917286 -0.042017376664098584 0.04092363655744158 0.0010937401066569983 0.015964448690018278 0.0 0.0
0.0 0.039467325213943825 -0.03363730364477466 0.03261682924408414 0.0010204744006904944 0.013767339493863072 0.0 0.0
0.0 0.030715226607368036 -0.0261941504421961 0.025249602576325116 0.0009445478658709739 0.011619318521837464 0.0 0.0
0.0 0.022976307735953994 -0.01958262356839951 0.018717590202693632 0.0008650333657058771 0.009428046997593479 0.0 0.0
0.0 0.016142236545351803 -0.013770153837454618 0.012991806696785776 0.0007783471406688321 0.007158690536593647 0.0 0.0
0.0 0.010324146515741093 -0.008821276651806036 0.008147251905491497 0.0006740247463145388 0.004939938358405987 0.0 0.0
0.0 0.005727197926508139 -0.004863748103802658 0.004336970467250847 0.0005267776365518079 0.002949833155801069 0.0 0.0
0.0 0.002594754158893609 -0.002065114475581363 0.001755037889652319 0.00031007658592904406 0.0014300859220030457 0.0 0.0
0.0 0.0007366255675609304 -0.0005485670906705865 0.0004466978541067427 0.00010186923656384361 0.0004965749996122351 0.0 0.0
0.0 9.746259569688113e-05 -5.4975134724024716e-05 4.408244364556637e-05 1.089269107845835e-05 7.143099699067574e-05 0.0 0.0
0.0 5.664795860850821e-06 -1.0959715985639063e-06 8.790128102804234e-07 2.1695878828346037e-07 1.995480101236855e-06 0.0 0.0
0.0 9.159772720464821e-07 5.630253742091469e-08 -4.5367008322703315e-08 -1.0935529098212496e-08 -1.5681455054918204e-07 0.0 0.0
0.0 0.0 0.0 0.0 0.0 0.0 0.0 0.0
0.0 0.0 0.0 0.0 0.0 0.0 0.0 0.0
0.0 0.0 0.0 0.0 0.0 0.0 0.0 0.0
0.0 0.0 0.0 0.0 0.0 0.0 0.0 0.0
0.0 0.0 0.0 0.0 0.0 0.0 0.0 0.0
0.0 5.0508104184194485e-06 -1.5002743021410208e-06 1.1829460004884252e-06 3.173283016526143e-07 -1.996934414875776e-06 0.0 0.0
0.0 0.00018506634461030877 -0.00012337763058854653 9.905474119301115e-05 2.432288939553547e-05 -0.00011253356423211119 0.0 0.0
0.0 0.0012446573702722431 -0.0009636992377835604 0.0007948542867929822 0.00016884495099057876 -0.0005909945778818245 0.0 0.0
0.0 0.003506637133874564 -0.003041278043686434 0.0026360799735580314 0.00040519807012840396 -0.0015006766354238484 0.0 0.0
0.0 0.007375587675624322 -0.00644078833664425 0.005843413854938276 0.0005973744817059743 -0.00287350755470641 0.0 0.0
0.0 0.012804603007742481 -0.011096967696382793 0.010370041813798105 0.0007269258825846831 -0.004617654898616928 0.0 0.0
0.0 0.019578361486533604 -0.016910277827197805 0.016082551227776277 0.0008277265994215352 -0.006601670644260366 0.0 0.0
0.0 0.027574403645124076 -0.023761295535398196 0.022843043635183267 0.0009182519002149139 -0.008633324076909072 0.0 0.0
0.0 0.036704201917068316 -0.03159288551615136 0.030587823830596796 0.0010050616855545509 -0.010601786557714491 0.0 0.0
0.0 0.046976665284403155 -0.040432056806315606 0.03934278825113459 0.0010892685551809802 -0.01256024605967906 0.0 0.0
0.0 0.058522365349797156 -0.05035463849357418 0.049182522241830465 0.001172116251743717 -0.014558386695073866 0.0 0.0
0.0 0.07133875938832411 -0.06139452519913399 0.060138406732706165 0.0012561184664278368 -0.016584882514388884 0.0 0.0
0.0 0.08493720033066576 -0.07330499346862353 0.07194828674507872 0.0013567067235447589 -0.01873049111167812 0.0 0.0
0.0 0.09845699041965354 -0.08495021887436692 0.08345107541361549 0.0014991434607514113 -0.021622657862665214 0.0 0.0
0.0 0.1086321255266289 -0.0935729928703606 0.0918913192321855 0.0016816736381750697 -0.02624928129239914 0.0 0.0
0.0 0.11043082596174646 -0.09466342403870384 0.09278414270334476 0.001879281335359054 -0.03289250975276964 0.0 0.0
0.0 0.09758611338231073 -0.0823509086593601 0.08028573565658077 0.002065173002779299 -0.04100620686047291 0.0 0.0
0.0 0.0975861133823077 -0.08235090865935282 0.08028573565657361 0.002065173002779242 0.04100620686050981 0.0 0.0
0.0 0.11043082596172708 -0.09466342403868303 0.0927841427033245 0.0018792813353585057 0.03289250975281201 0.0 0.0
0.0 0.10863212552658832 -0.09357299287032318 0.09189131923214808 0.00168167363817502 0.026249281292429566 0.0 0.0
0.0 0.09845699041960118 -0.08495021887432067 0.08345107541356965 0.001499143460751017 0.0216226578626727 0.0 0.0
0.0 0.0849372003306058 -0.07330499346857136 0.07194828674502685 0.0013567067235444757 0.01873049111167519 0.0 0.0
0.0 0.07133875938826234 -0.06139452519908034 0.060138406732652985 0.0012561184664273625 0.016584882514382716 0.0 0.0
0.0 0.05852236534973649 -0.05035463849352149 0.049182522241778576 0.0011721162517428693 0.01455838669506546 0.0 0.0
0.0 0.04697666528433986 -0.04043205680626068 0.03934278825108047 0.0010892685551802106 0.012560246059667065 0.0 0.0
0.0 0.03670420191700829 -0.03159288551609893 0.03058782383054521 0.0010050616855537351 0.010601786557701907 0.0 0.0
0.0 0.02757440364506982 -0.023761295535351203 0.022843043635136916 0.0009182519002142772 0.008633324076890785 0.0 0.0
0.0 0.019578361486485087 -0.01691027782715601 0.016082551227734814 0.0008277265994211928 0.006601670644242321 0.0 0.0
0.0 0.012804603007705471 -0.011096967696350483 0.010370041813766263 0.0007269258825842182 0.004617654898605024 0.0 0.0
0.0 0.007375587675598062 -0.006440788336621206 0.005843413854915995 0.0005973744817052095 0.002873507554696799 0.0 0.0
0.0 0.003506637133859565 -0.003041278043673412 0.002636079973546173 0.00040519807012723936 0.0015006766354179143 0.0 0.0
0.0 0.0012446573702637222 -0.000963699237777248 0.0007948542867876014 0.00016884495098964638 0.000590994577878101 0.0 0.0
0.0 0.0001850663446081151 -0.0001233776305877061 9.905474119232487e-05 2.4322889395381065e-05 0.0001125335642314214 0.0 0.0
0.0 5.050810417888436e-06 -1.5002743023157593e-06 1.1829460006253953e-06 3.173283016903769e-07 1.996934415115658e-06 0.0 0.0
0.0 0.0 0.0 0.0 0.0 0.0 0.0 0.0
0.0 0.0 0.0 0.0 0.0 0.0 0.0 0.0
0.0 0.0 0.0 0.0 0.0 0.0 0.0 0.0
0.0 0.0 0.0 0.0 0.0 0.0 0.0 0.0
0.0 0.0 0.0 0.0 0.0 0.0 0.0 0.0
0.0 0.0 0.0 0.0 0.0 0.0 0.0 0.0
0.0 6.9842572438700445e-06 -2.8774742071221092e-06 2.2862681809294787e-06 5.912060261926204e-07 -2.8027152511841647e-06 0.0 0.0
0.0 0.00036429039237672526 -0.0002596786569879911 0.00020869549994875252 5.098315703923854e-05 -0.00015089920625682043 0.0 0.0
0.0 0.001851191158675131 -0.001518238284923164 0.0012703936088872825 0.00024784467603588184 -0.0006112423194002141 0.0 0.0
0.0 0.0046022138923599715 -0.004106969666800704 0.003622346136725711 0.0004846235300749939 -0.0013625450239717978 0.0 0.0
0.0 0.00913557736798622 -0.008053391420467692 0.007403699193715339 0.0006496922267523542 -0.0024595344638600773 0.0 0.0
0.0 0.015323290618068218 -0.013394463693513804 0.01262608950359901 0.0007683741899147864 -0.0038755671094178952 0.0 0.0
0.0 0.02305245887935819 -0.02005973185266359 0.019190457480286024 0.0008692743723775643 -0.005496983330224971 0.0 0.0
0.0 0.03222483609520751 -0.02794692027649632 0.026981607928112435 0.0009653123483838829 -0.007164497860799117 0.0 0.0
0.0 0.042691146685540804 -0.03700601097107462 0.03594642072982189 0.0010595902412527092 -0.008777780378348692 0.0 0.0
0.0 0.05464091932797603 -0.04725253430786643 0.046099514486630966 0.001153019821235439 -0.010392394003732049 0.0 0.0
0.0 0.06777910064119698 -0.05872203330401024 0.057475459367957865 0.0012465739360523875 -0.012089301352548135 0.0 0.0
0.0 0.08229958125985015 -0.07134844867002056 0.07000692468166633 0.0013415239883542436 -0.01372451000837039 0.0 0.0
0.0 0.09780744053721731 -0.08480595449176054 0.08335975154460988 0.0014462029471506463 -0.014988450792884914 0.0 0.0
0.0 0.11305784784049919 -0.09804919078959723 0.096462718363206 0.0015864724263911973 -0.016308214384639072 0.0 0.0
0.0 0.12502435931574732 -0.10833740297274497 0.1065420896657551 0.0017953133069898081 -0.020100392045703665 0.0 0.0
0.0 0.12807979444425457 -0.11050376313313201 0.10848030843941119 0.0020234546937208464 -0.02920546282122899 0.0 0.0
0.0 0.11522444240484715 -0.097669237932039 0.09544021305212572 0.002229024879913263 -0.04446898044795384 0.0 0.0
0.0 0.11522444240484127 -0.09766923793203051 0.09544021305211746 0.0022290248799131133 0.044468980447982615 0.0 0.0
0.0 0.12807979444422857 -0.11050376313310695 0.10848030843938633 0.002023454693720602 0.02920546282126567 0.0 0.0
0.0 0.12502435931570446 -0.10833740297270598 0.10654208966571718 0.0017953133069887597 0.020100392045731084 0.0 0.0
0.0 0.11305784784044204 -0.09804919078954683 0.09646271836315688 0.0015864724263899774 0.016308214384645706 0.0 0.0
0.0 0.09780744053715168 -0.08480595449170292 0.0833597515445539 0.0014462029471490414 0.01498845079288354 0.0 0.0
0.0 0.08229958125977782 -0.07134844866995732 0.07000692468160426 0.0013415239883530859 0.013724510008368104 0.0 0.0
0.0 0.06777910064112706 -0.05872203330394932 0.057475459367897996 0.0012465739360513072 0.012089301352541288 0.0 0.0
0.0 0.0546409193279071 -0.04725253430780649 0.04609951448657172 0.0011530198212347984 0.010392394003723014 0.0 0.0
0.0 0.04269114668547387 -0.037006010971016426 0.035946420729764374 0.0010595902412520496 0.008777780378341062 0.0 0.0
0.0 0.032224836095146314 -0.02794692027644275 0.026981607928059755 0.0009653123483829962 0.007164497860784465 0.0 0.0
0.0 0.023052458879304932 -0.020059731852617137 0.019190457480240158 0.000869274372376983 0.00549698333020968 0.0 0.0
0.0 0.015323290618027702 -0.013394463693478163 0.012626089503564012 0.0007683741899141549 0.003875567109407913 0.0 0.0
0.0 0.009135577367956386 -0.008053391420441144 0.0074036991936896335 0.00064969222675151 0.002459534463852165 0.0 0.0
0.0 0.004602213892340733 -0.0041069696667834325 0.0036223461367095866 0.00048462353007384734 0.0013625450239659405 0.0 0.0
0.0 0.0018511911586644439 -0.0015182382849142828 0.001270393608879543 0.0002478446760347389 0.0006112423193966609 0.0 0.0
0.0 0.00036429039237324606 -0.00025967865698589755 0.0002086954999470105 5.0983157038887166e-05 0.00015089920625559734 0.0 0.0
0.0 6.984257243347408e-06 -2.877474207381845e-06 2.2862681811335696e-06 5.912060262482829e-07 2.8027152514390314e-06 0.0 0.0
0.0 0.0 0.0 0.0 0.0 0.0 0.0 0.0
0.0 0.0 0.0 0.0 0.0 0.0 0.0 0.0
0.0 0.0 0.0 0.0 0.0 0.0 0.0 0.0
0.0 0.0 0.0 0.0 0.0 0.0 0.0 0.0
0.0 0.0 0.0 0.0 0.0 0.0 0.0 0.0
0.0 0.0 0.0 0.0 0.0 0.0 0.0 0.0
0.0 1.645900313299586e-05 -7.120799957808575e-06 5.7020287342868935e-06 1.4187712235217138e-06 -4.5589741724832245e-06 0.0 0.0
0.0 0.0006701078511680945 -0.0004920042854486022 0.00039868995641065535 9.331432903794703e-05 -0.00016370824166320338 0.0 0.0
0.0 0.002409833737126887 -0.0021988067174574656 0.0018673222818280967 0.0003314844356293675 -0.0005041890295589741 0.0 0.0
0.0 0.0058155134284943386 -0.005216166085325393 0.004671349521884076 0.0005448165634413168 -0.0010107272257821307 0.0 0.0
0.0 0.010933246289752306 -0.009685115867877478 0.008994765426403302 0.0006903504414741808 -0.00174877895395048 0.0 0.0
0.0 0.017862701821274474 -0.01568921967427045 0.014887670409797616 0.0008015492644728333 -0.002721353943299273 0.0 0.0
0.0 0.02653649804127623 -0.023194087230031343 0.02228931887194116 0.0009047683580901735 -0.003853737081123286 0.0 0.0
0.0 0.03686538477016944 -0.03211637466157218 0.03110909474325968 0.0010072799183125133 -0.005018746858903657 0.0 0.0
0.0 0.04883720553921275 -0.04240792863828951 0.04129839931385035 0.0011095293244391489 -0.006147217886946298 0.0 0.0
0.0 0.06216340248894035 -0.054073854296340165 0.05286147800591013 0.0012123762904300223 -0.007310195677498379 0.0 0.0
0.0 0.07710432173171887 -0.06708142729268934 0.06576408285808248 0.001317344434606821 -0.008523588323869952 0.0 0.0
0.0 0.09343045921188226 -0.08124021085708455 0.07981421870832749 0.0014259921487570337 -0.009622802811285355 0.0 0.0
0.0 0.11048300711110684 -0.09605495277886153 0.09451581589501354 0.001539136883847986 -0.010205712607201545 0.0 0.0
0.0 0.12709078402400015 -0.1105075346647372 0.10884077007171368 0.0016667645930236018 -0.010025912026883731 0.0 0.0
0.0 0.140824038159351 -0.12241529126149735 0.12056547244541753 0.0018498188160798066 -0.011381502094588668 0.0 0.0
0.0 0.14625223326387418 -0.12672651039256574 0.1245581767752613 0.0021683336173043645 -0.021907493094738877 0.0 0.0
0.0 0.13445014328559438 -0.11443211725342184 0.11201089306736589 0.0024212241860559207 -0.046683069509513855 0.0 0.0
0.0 0.134450143285584 -0.11443211725341088 0.11201089306735487 0.002421224186056005 0.046683069509533597 0.0 0.0
0.0 0.14625223326383988 -0.1267265103925347 0.12455817677523048 0.0021683336173041958 0.021907493094767118 0.0 0.0
0.0 0.1408240381592968 -0.12241529126144982 0.12056547244537033 0.001849818816079468 0.011381502094608625 0.0 0.0
0.0 0.1270907840239318 -0.11050753466467765 0.10884077007165478 0.0016667645930228384 0.010025912026886139 0.0 0.0
0.0 0.11048300711103111 -0.0960549527787956 0.09451581589494859 0.0015391368838469732 0.010205712607199305 0.0 0.0
0.0 0.09343045921180002 -0.08124021085701315 0.07981421870825653 0.0014259921487566275 0.009622802811284194 0.0 0.0
0.0 0.07710432173163685 -0.06708142729261825 0.06576408285801189 0.0013173444346063475 0.008523588323865208 0.0 0.0
0.0 0.06216340248885956 -0.05407385429626983 0.052861478005840824 0.0012123762904290142 0.00731019567749192 0.0 0.0
0.0 0.04883720553913759 -0.04240792863822356 0.04129839931378572 0.0011095293244378257 0.0061472178869415185 0.0 0.0
0.0 0.036865384770100484 -0.03211637466151207 0.031109094743200477 0.0010072799183115774 0.005018746858893264 0.0 0.0
0.0 0.02653649804121722 -0.023194087229979805 0.022289318871890326 0.0009047683580894917 0.0038537370811123654 0.0 0.0
0.0 0.017862701821228354 -0.01568921967422949 0.014887670409757402 0.0008015492644720822 0.0027213539432933073 0.0 0.0
0.0 0.010933246289717941 -0.009685115867846882 0.00899476542637344 0.0006903504414734361 0.0017487789539449494 0.0 0.0
0.0 0.005815513428471554 -0.00521616608530468 0.004671349521864399 0.0005448165634402798 0.001010727225778108 0.0 0.0
0.0 0.00240983373711495 -0.002198806717446546 0.0018673222818183185 0.00033148443562822837 0.0005041890295563977 0.0 0.0
0.0 0.000670107851162822 -0.0004920042854448086 0.0003986899564074933 9.331432903731497e-05 0.00016370824166204756 0.0 0.0
0.0 1.6459003132411905e-05 -7.120799958165642e-06 5.702028734558155e-06 1.4187712236074403e-06 4.558974172659794e-06 0.0 0.0
0.0 0.0 0.0 0.0 0.0 0.0 0.0 0.0
0.0 0.0 0.0 0.0 0.0 0.0 0.0 0.0
0.0 0.0 0.0 0.0 0.0 0.0 0.0 0.0
0.0 0.0 0.0 0.0 0.0 0.0 0.0 0.0
0.0 0.0 0.0 0.0 0.0 0.0 0.0 0.0
0.0 0.0 0.0 0.0 0.0 0.0 0.0 0.0
0.0 5.803024380783354e-05 -4.014076249586216e-05 3.169657851166182e-05 8.444183984200477e-06 -1.0723564014097649e-05 0.0 0.0
0.0 0.0011140601832157447 -0.0008243707486677741 0.0006741575847338207 0.00015021316393395295 -0.00010806392399123933 0.0 0.0
0.0 0.0032078301694909825 -0.002927079676815888 0.002522749347248397 0.00040433032956749195 -0.0002415056368543358 0.0 0.0
0.0 0.007073042265769786 -0.006351491320079733 0.005759487044787221 0.0005920042752925087 -0.00044732198757677045 0.0 0.0
0.0 0.012769166648531685 -0.01131344678748298 0.010591652628568145 0.0007217941589148277 -0.0007450948466082529 0.0 0.0
0.0 0.020427585442264598 -0.017957614664331045 0.017128520864386404 0.0008290937999446387 -0.0011633723770558449 0.0 0.0
0.0 0.030060426688680652 -0.02628788948446568 0.025352430497273315 0.0009354589871923655 -0.0016710176779523383 0.0 0.0
0.0 0.04162273178895862 -0.036246425922270654 0.03520190368656483 0.0010445222357058155 -0.0021997445523692255 0.0 0.0
0.0 0.05477230622808875 -0.0477845086873044 0.04662889797173371 0.0011556107155706657 -0.0027333086237400347 0.0 0.0
0.0 0.06976796225515383 -0.06085888617923938 0.059590931141977485 0.00126795503726188 -0.003278296531599688 0.0 0.0
0.0 0.08650328920986068 -0.07538106568022082 0.07399704622769167 0.001384019452529128 -0.003814327724375275 0.0 0.0
0.0 0.10455873267666843 -0.09104844192295826 0.08954204630017554 0.001506395622782736 -0.004251024926489778 0.0 0.0
0.0 0.12313280534058073 -0.10714724383868734 0.10551322246645256 0.0016340213722347507 -0.004322934564476676 0.0 0.0
0.0 0.14078804665110484 -0.12246036653492376 0.12069902722313103 0.0017613393117926642 -0.003615101593875362 0.0 0.0
0.0 0.15544577600922882 -0.13521085110321324 0.13331668150795417 0.0018941695952590701 -0.0023858984089151275 0.0 0.0
0.0 0.16371163088252957 -0.14226026476306522 0.14015305721386587 0.0021072075491992606 -0.007898186801783978 0.0 0.0
0.0 0.1567064270775301 -0.1342877909838081 0.1314996204498708 0.0027881705339372316 -0.04311812186272505 0.0 0.0
0.0 0.15670642707751767 -0.13428779098379662 0.13149962044985947 0.002788170533937113 0.043118121862732936 0.0 0.0
0.0 0.16371163088249183 -0.1422602647630321 0.14015305721383325 0.0021072075491987367 0.007898186801797989 0.0 0.0
0.0 0.1554457760091651 -0.1352108511031579 0.13331668150789938 0.0018941695952584179 0.002385898408924283 0.0 0.0
0.0 0.1407880466510263 -0.12246036653485558 0.1206990272230635 0.0017613393117920696 0.0036151015938742856 0.0 0.0
0.0 0.12313280534049642 -0.10714724383861413 0.10551322246637998 0.0016340213722341255 0.004322934564475699 0.0 0.0
0.0 0.10455873267658071 -0.09104844192288192 0.08954204630010006 0.0015063956227817905 0.0042510249264903315 0.0 0.0
0.0 0.08650328920977263 -0.07538106568014423 0.07399704622761615 0.0013840194525280424 0.0038143277243731935 0.0 0.0
0.0 0.06976796225506346 -0.06085888617916099 0.059590931141899596 0.0012679550372613627 0.0032782965315970645 0.0 0.0
0.0 0.054772306228000334 -0.04778450868722772 0.046628897971657375 0.0011556107155703166 0.002733308623738122 0.0 0.0
0.0 0.04162273178887936 -0.03624642592220169 0.035201903686496436 0.0010445222357052565 0.0021997445523632966 0.0 0.0
0.0 0.030060426688614868 -0.02628788948440859 0.025352430497216825 0.0009354589871917722 0.0016710176779466185 0.0 0.0
0.0 0.020427585442213545 -0.017957614664286106 0.017128520864342044 0.0008290937999440645 0.001163372377053652 0.0 0.0
0.0 0.012769166648495329 -0.011313446787450436 0.010591652628536228 0.0007217941589142054 0.0007450948466057156 0.0 0.0
0.0 0.00707304226574478 -0.006351491320057156 0.005759487044765406 0.000592004275291747 0.00044732198757512973 0.0 0.0
0.0 0.0032078301694778762 -0.0029270796768035446 0.0025227493472370264 0.00040433032956651747 0.0002415056368531635 0.0 0.0
0.0 0.0011140601832090313 -0.0008243707486626795 0.0006741575847295148 0.00015021316393316544 0.00010806392399074694 0.0 0.0
0.0 5.803024380720046e-05 -4.0140762495989165e-05 3.169657851174874e-05 8.444183984240406e-06 1.0723564014079536e-05 0.0 0.0
0.0 0.0 0.0 0.0 0.0 0.0 0.0 0.0
0.0 0.0 0.0 0.0 0.0 0.0 0.0 0.0
0.0 0.0 0.0 0.0 0.0 0.0 0.0 0.0