# vtk DataFile Version 3.0
Some data
ASCII
DATASET UNSTRUCTURED_GRID
POINTS 861 float
0.0 0.0 0.0
0.4 0.0 0.0
0.8 0.0 0.0
1.2000000000000002 0.0 0.0
1.6 0.0 0.0
2.0 0.0 0.0
2.4000000000000004 0.0 0.0
2.8000000000000003 0.0 0.0
3.2 0.0 0.0
3.6 0.0 0.0
4.0 0.0 0.0
4.4 0.0 0.0
4.800000000000001 0.0 0.0
5.2 0.0 0.0
5.6000000000000005 0.0 0.0
6.0 0.0 0.0
6.4 0.0 0.0
6.800000000000001 0.0 0.0
7.2 0.0 0.0
7.6000000000000005 0.0 0.0
8.0 0.0 0.0
8.4 0.0 0.0
8.8 0.0 0.0
9.200000000000001 0.0 0.0
9.600000000000001 0.0 0.0
10.0 0.0 0.0
10.4 0.0 0.0
10.8 0.0 0.0
11.200000000000001 0.0 0.0
11.600000000000001 0.0 0.0
12.0 0.0 0.0
12.4 0.0 0.0
12.8 0.0 0.0
13.200000000000001 0.0 0.0
13.600000000000001 0.0 0.0
14.0 0.0 0.0
14.4 0.0 0.0
14.8 0.0 0.0
15.200000000000001 0.0 0.0
15.600000000000001 0.0 0.0
16.0 0.0 0.0
0.0 0.1 0.0
0.4 0.1 0.0
0.8 0.1 0.0
1.2000000000000002 0.1 0.0
1.6 0.1 0.0
2.0 0.1 0.0
2.4000000000000004 0.1 0.0
2.8000000000000003 0.1 0.0
3.2 0.1 0.0
3.6 0.1 0.0
4.0 0.1 0.0
4.4 0.1 0.0
4.800000000000001 0.1 0.0
5.2 0.1 0.0
5.6000000000000005 0.1 0.0
6.0 0.1 0.0
6.4 0.1 0.0
6.800000000000001 0.1 0.0
7.2 0.1 0.0
7.6000000000000005 0.1 0.0
8.0 0.1 0.0
8.4 0.1 0.0
8.8 0.1 0.0
9.200000000000001 0.1 0.0
9.600000000000001 0.1 0.0
10.0 0.1 0.0
10.4 0.1 0.0
10.8 0.1 0.0
11.200000000000001 0.1 0.0
11.600000000000001 0.1 0.0
12.0 0.1 0.0
12.4 0.1 0.0
12.8 0.1 0.0
13.200000000000001 0.1 0.0
13.600000000000001 0.1 0.0
14.0 0.1 0.0
14.4 0.1 0.0
14.8 0.1 0.0
15.200000000000001 0.1 0.0
15.600000000000001 0.1 0.0
16.0 0.1 0.0
0.0 0.2 0.0
0.4 0.2 0.0
0.8 0.2 0.0
1.2000000000000002 0.2 0.0
1.6 0.2 0.0
2.0 0.2 0.0
2.4000000000000004 0.2 0.0
2.8000000000000003 0.2 0.0
3.2 0.2 0.0
3.6 0.2 0.0
4.0 0.2 0.0
4.4 0.2 0.0
4.800000000000001 0.2 0.0
5.2 0.2 0.0
5.6000000000000005 0.2 0.0
6.0 0.2 0.0
6.4 0.2 0.0
6.800000000000001 0.2 0.0
7.2 0.2 0.0
7.6000000000000005 0.2 0.0
8.0 0.2 0.0
8.4 0.2 0.0
8.8 0.2 0.0
9.200000000000001 0.2 0.0
9.600000000000001 0.2 0.0
10.0 0.2 0.0
10.4 0.2 0.0
10.8 0.2 0.0
11.200000000000001 0.2 0.0
11.600000000000001 0.2 0.0
12.0 0.2 0.0
12.4 0.2 0.0
12.8 0.2 0.0
13.200000000000001 0.2 0.0
13.600000000000001 0.2 0.0
14.0 0.2 0.0
14.4 0.2 0.0
14.8 0.2 0.0
15.200000000000001 0.2 0.0
15.600000000000001 0.2 0.0
16.0 0.2 0.0
0.0 0.30000000000000004 0.0
0.4 0.30000000000000004 0.0
0.8 0.30000000000000004 0.0
1.2000000000000002 0.30000000000000004 0.0
1.6 0.30000000000000004 0.0
2.0 0.30000000000000004 0.0
2.4000000000000004 0.30000000000000004 0.0
2.8000000000000003 0.30000000000000004 0.0
3.2 0.30000000000000004 0.0
3.6 0.30000000000000004 0.0
4.0 0.30000000000000004 0.0
4.4 0.30000000000000004 0.0
4.800000000000001 0.30000000000000004 0.0
5.2 0.30000000000000004 0.0
5.6000000000000005 0.30000000000000004 0.0
6.0 0.30000000000000004 0.0
6.4 0.30000000000000004 0.0
6.800000000000001 0.30000000000000004 0.0
7.2 0.30000000000000004 0.0
7.6000000000000005 0.30000000000000004 0.0
8.0 0.30000000000000004 0.0
8.4 0.30000000000000004 0.0
8.8 0.30000000000000004 0.0
9.200000000000001 0.30000000000000004 0.0
9.600000000000001 0.30000000000000004 0.0
10.0 0.30000000000000004 0.0
10.4 0.30000000000000004 0.0
10.8 0.30000000000000004 0.0
11.200000000000001 0.30000000000000004 0.0
11.600000000000001 0.30000000000000004 0.0
12.0 0.30000000000000004 0.0
12.4 0.30000000000000004 0.0
12.8 0.30000000000000004 0.0
13.200000000000001 0.30000000000000004 0.0
13.600000000000001 0.30000000000000004 0.0
14.0 0.30000000000000004 0.0
14.4 0.30000000000000004 0.0
14.8 0.30000000000000004 0.0
15.200000000000001 0.30000000000000004 0.0
15.600000000000001 0.30000000000000004 0.0
16.0 0.30000000000000004 0.0
0.0 0.4 0.0
0.4 0.4 0.0
0.8 0.4 0.0
1.2000000000000002 0.4 0.0
1.6 0.4 0.0
2.0 0.4 0.0
2.4000000000000004 0.4 0.0
2.8000000000000003 0.4 0.0
3.2 0.4 0.0
3.6 0.4 0.0
4.0 0.4 0.0
4.4 0.4 0.0
4.800000000000001 0.4 0.0
5.2 0.4 0.0
5.6000000000000005 0.4 0.0
6.0 0.4 0.0
6.4 0.4 0.0
6.800000000000001 0.4 0.0
7.2 0.4 0.0
7.6000000000000005 0.4 0.0
8.0 0.4 0.0
8.4 0.4 0.0
8.8 0.4 0.0
9.200000000000001 0.4 0.0
9.600000000000001 0.4 0.0
10.0 0.4 0.0
10.4 0.4 0.0
10.8 0.4 0.0
11.200000000000001 0.4 0.0
11.600000000000001 0.4 0.0
12.0 0.4 0.0
12.4 0.4 0.0
12.8 0.4 0.0
13.200000000000001 0.4 0.0
13.600000000000001 0.4 0.0
14.0 0.4 0.0
14.4 0.4 0.0
14.8 0.4 0.0
15.200000000000001 0.4 0.0
15.600000000000001 0.4 0.0
16.0 0.4 0.0
0.0 0.5 0.0
0.4 0.5 0.0
0.8 0.5 0.0
1.2000000000000002 0.5 0.0
1.6 0.5 0.0
2.0 0.5 0.0
2.4000000000000004 0.5 0.0
2.8000000000000003 0.5 0.0
3.2 0.5 0.0
3.6 0.5 0.0
4.0 0.5 0.0
4.4 0.5 0.0
4.800000000000001 0.5 0.0
5.2 0.5 0.0
5.6000000000000005 0.5 0.0
6.0 0.5 0.0
6.4 0.5 0.0
6.800000000000001 0.5 0.0
7.2 0.5 0.0
7.6000000000000005 0.5 0.0
8.0 0.5 0.0
8.4 0.5 0.0
8.8 0.5 0.0
9.200000000000001 0.5 0.0
9.600000000000001 0.5 0.0
10.0 0.5 0.0
10.4 0.5 0.0
10.8 0.5 0.0
11.200000000000001 0.5 0.0
11.600000000000001 0.5 0.0
12.0 0.5 0.0
12.4 0.5 0.0
12.8 0.5 0.0
13.200000000000001 0.5 0.0
13.600000000000001 0.5 0.0
14.0 0.5 0.0
14.4 0.5 0.0
14.8 0.5 0.0
15.200000000000001 0.5 0.0
15.600000000000001 0.5 0.0
16.0 0.5 0.0
0.0 0.6000000000000001 0.0
0.4 0.6000000000000001 0.0
0.8 0.6000000000000001 0.0
1.2000000000000002 0.6000000000000001 0.0
1.6 0.6000000000000001 0.0
2.0 0.6000000000000001 0.0
2.4000000000000004 0.6000000000000001 0.0
2.8000000000000003 0.6000000000000001 0.0
3.2 0.6000000000000001 0.0
3.6 0.6000000000000001 0.0
4.0 0.6000000000000001 0.0
4.4 0.6000000000000001 0.0
4.800000000000001 0.6000000000000001 0.0
5.2 0.6000000000000001 0.0
5.6000000000000005 0.6000000000000001 0.0
6.0 0.6000000000000001 0.0
6.4 0.6000000000000001 0.0
6.800000000000001 0.6000000000000001 0.0
7.2 0.6000000000000001 0.0
7.6000000000000005 0.6000000000000001 0.0
8.0 0.6000000000000001 0.0
8.4 0.6000000000000001 0.0
8.8 0.6000000000000001 0.0
9.200000000000001 0.6000000000000001 0.0
9.600000000000001 0.6000000000000001 0.0
10.0 0.6000000000000001 0.0
10.4 0.6000000000000001 0.0
10.8 0.6000000000000001 0.0
11.200000000000001 0.6000000000000001 0.0
11.600000000000001 0.6000000000000001 0.0
12.0 0.6000000000000001 0.0
12.4 0.6000000000000001 0.0
12.8 0.6000000000000001 0.0
13.200000000000001 0.6000000000000001 0.0
13.600000000000001 0.6000000000000001 0.0
14.0 0.6000000000000001 0.0
14.4 0.6000000000000001 0.0
14.8 0.6000000000000001 0.0
15.200000000000001 0.6000000000000001 0.0
15.600000000000001 0.6000000000000001 0.0
16.0 0.6000000000000001 0.0
0.0 0.7000000000000001 0.0
0.4 0.7000000000000001 0.0
0.8 0.7000000000000001 0.0
1.2000000000000002 0.7000000000000001 0.0
1.6 0.7000000000000001 0.0
2.0 0.7000000000000001 0.0
2.4000000000000004 0.7000000000000001 0.0
2.8000000000000003 0.7000000000000001 0.0
3.2 0.7000000000000001 0.0
3.6 0.7000000000000001 0.0
4.0 0.7000000000000001 0.0
4.4 0.7000000000000001 0.0
4.800000000000001 0.7000000000000001 0.0
5.2 0.7000000000000001 0.0
5.6000000000000005 0.7000000000000001 0.0
6.0 0.7000000000000001 0.0
6.4 0.7000000000000001 0.0
6.800000000000001 0.7000000000000001 0.0
7.2 0.7000000000000001 0.0
7.6000000000000005 0.7000000000000001 0.0
8.0 0.7000000000000001 0.0
8.4 0.7000000000000001 0.0
8.8 0.7000000000000001 0.0
9.200000000000001 0.7000000000000001 0.0
9.600000000000001 0.7000000000000001 0.0
10.0 0.7000000000000001 0.0
10.4 0.7000000000000001 0.0
10.8 0.7000000000000001 0.0
11.200000000000001 0.7000000000000001 0.0
11.600000000000001 0.7000000000000001 0.0
12.0 0.7000000000000001 0.0
12.4 0.7000000000000001 0.0
12.8 0.7000000000000001 0.0
13.200000000000001 0.7000000000000001 0.0
13.600000000000001 0.7000000000000001 0.0
14.0 0.7000000000000001 0.0
14.4 0.7000000000000001 0.0
14.8 0.7000000000000001 0.0
15.200000000000001 0.7000000000000001 0.0
15.600000000000001 0.7000000000000001 0.0
16.0 0.7000000000000001 0.0
0.0 0.8 0.0
0.4 0.8 0.0
0.8 0.8 0.0
1.2000000000000002 0.8 0.0
1.6 0.8 0.0
2.0 0.8 0.0
2.4000000000000004 0.8 0.0
2.8000000000000003 0.8 0.0
3.2 0.8 0.0
3.6 0.8 0.0
4.0 0.8 0.0
4.4 0.8 0.0
4.800000000000001 0.8 0.0
5.2 0.8 0.0
5.6000000000000005 0.8 0.0
6.0 0.8 0.0
6.4 0.8 0.0
6.800000000000001 0.8 0.0
7.2 0.8 0.0
7.6000000000000005 0.8 0.0
8.0 0.8 0.0
8.4 0.8 0.0
8.8 0.8 0.0
9.200000000000001 0.8 0.0
9.600000000000001 0.8 0.0
10.0 0.8 0.0
10.4 0.8 0.0
10.8 0.8 0.0
11.200000000000001 0.8 0.0
11.600000000000001 0.8 0.0
12.0 0.8 0.0
12.4 0.8 0.0
12.8 0.8 0.0
13.200000000000001 0.8 0.0
13.600000000000001 0.8 0.0
14.0 0.8 0.0
14.4 0.8 0.0
14.8 0.8 0.0
15.200000000000001 0.8 0.0
15.600000000000001 0.8 0.0
16.0 0.8 0.0
0.0 0.9 0.0
0.4 0.9 0.0
0.8 0.9 0.0
1.2000000000000002 0.9 0.0
1.6 0.9 0.0
2.0 0.9 0.0
2.4000000000000004 0.9 0.0
2.8000000000000003 0.9 0.0
3.2 0.9 0.0
3.6 0.9 0.0
4.0 0.9 0.0
4.4 0.9 0.0
4.800000000000001 0.9 0.0
5.2 0.9 0.0
5.6000000000000005 0.9 0.0
6.0 0.9 0.0
6.4 0.9 0.0
6.800000000000001 0.9 0.0
7.2 0.9 0.0
7.6000000000000005 0.9 0.0
8.0 0.9 0.0
8.4 0.9 0.0
8.8 0.9 0.0
9.200000000000001 0.9 0.0
9.600000000000001 0.9 0.0
10.0 0.9 0.0
10.4 0.9 0.0
10.8 0.9 0.0
11.200000000000001 0.9 0.0
11.600000000000001 0.9 0.0
12.0 0.9 0.0
12.4 0.9 0.0
12.8 0.9 0.0
13.200000000000001 0.9 0.0
13.600000000000001 0.9 0.0
14.0 0.9 0.0
14.4 0.9 0.0
14.8 0.9 0.0
15.200000000000001 0.9 0.0
15.600000000000001 0.9 0.0
16.0 0.9 0.0
0.0 1.0 0.0
0.4 1.0 0.0
0.8 1.0 0.0
1.2000000000000002 1.0 0.0
1.6 1.0 0.0
2.0 1.0 0.0
2.4000000000000004 1.0 0.0
2.8000000000000003 1.0 0.0
3.2 1.0 0.0
3.6 1.0 0.0
4.0 1.0 0.0
4.4 1.0 0.0
4.800000000000001 1.0 0.0
5.2 1.0 0.0
5.6000000000000005 1.0 0.0
6.0 1.0 0.0
6.4 1.0 0.0
6.800000000000001 1.0 0.0
7.2 1.0 0.0
7.6000000000000005 1.0 0.0
8.0 1.0 0.0
8.4 1.0 0.0
8.8 1.0 0.0
9.200000000000001 1.0 0.0
9.600000000000001 1.0 0.0
10.0 1.0 0.0
10.4 1.0 0.0
10.8 1.0 0.0
11.200000000000001 1.0 0.0
11.600000000000001 1.0 0.0
12.0 1.0 0.0
12.4 1.0 0.0
12.8 1.0 0.0
13.200000000000001 1.0 0.0
13.600000000000001 1.0 0.0
14.0 1.0 0.0
14.4 1.0 0.0
14.8 1.0 0.0
15.200000000000001 1.0 0.0
15.600000000000001 1.0 0.0
16.0 1.0 0.0
0.0 1.1 0.0
0.4 1.1 0.0
0.8 1.1 0.0
1.2000000000000002 1.1 0.0
1.6 1.1 0.0
2.0 1.1 0.0
2.4000000000000004 1.1 0.0
2.8000000000000003 1.1 0.0
3.2 1.1 0.0
3.6 1.1 0.0
4.0 1.1 0.0
4.4 1.1 0.0
4.800000000000001 1.1 0.0
5.2 1.1 0.0
5.6000000000000005 1.1 0.0
6.0 1.1 0.0
6.4 1.1 0.0
6.800000000000001 1.1 0.0
7.2 1.1 0.0
7.6000000000000005 1.1 0.0
8.0 1.1 0.0
8.4 1.1 0.0
8.8 1.1 0.0
9.200000000000001 1.1 0.0
9.600000000000001 1.1 0.0
10.0 1.1 0.0
10.4 1.1 0.0
10.8 1.1 0.0
11.200000000000001 1.1 0.0
11.600000000000001 1.1 0.0
12.0 1.1 0.0
12.4 1.1 0.0
12.8 1.1 0.0
13.200000000000001 1.1 0.0
13.600000000000001 1.1 0.0
14.0 1.1 0.0
14.4 1.1 0.0
14.8 1.1 0.0
15.200000000000001 1.1 0.0
15.600000000000001 1.1 0.0
16.0 1.1 0.0
0.0 1.2000000000000002 0.0
0.4 1.2000000000000002 0.0
0.8 1.2000000000000002 0.0
1.2000000000000002 1.2000000000000002 0.0
1.6 1.2000000000000002 0.0
2.0 1.2000000000000002 0.0
2.4000000000000004 1.2000000000000002 0.0
2.8000000000000003 1.2000000000000002 0.0
3.2 1.2000000000000002 0.0
3.6 1.2000000000000002 0.0
4.0 1.2000000000000002 0.0
4.4 1.2000000000000002 0.0
4.800000000000001 1.2000000000000002 0.0
5.2 1.2000000000000002 0.0
5.6000000000000005 1.2000000000000002 0.0
6.0 1.2000000000000002 0.0
6.4 1.2000000000000002 0.0
6.800000000000001 1.2000000000000002 0.0
7.2 1.2000000000000002 0.0
7.6000000000000005 1.2000000000000002 0.0
8.0 1.2000000000000002 0.0
8.4 1.2000000000000002 0.0
8.8 1.2000000000000002 0.0
9.200000000000001 1.2000000000000002 0.0
9.600000000000001 1.2000000000000002 0.0
10.0 1.2000000000000002 0.0
10.4 1.2000000000000002 0.0
10.8 1.2000000000000002 0.0
11.200000000000001 1.2000000000000002 0.0
11.600000000000001 1.2000000000000002 0.0
12.0 1.2000000000000002 0.0
12.4 1.2000000000000002 0.0
12.8 1.2000000000000002 0.0
13.200000000000001 1.2000000000000002 0.0
13.600000000000001 1.2000000000000002 0.0
14.0 1.2000000000000002 0.0
14.4 1.2000000000000002 0.0
14.8 1.2000000000000002 0.0
15.200000000000001 1.2000000000000002 0.0
15.600000000000001 1.2000000000000002 0.0
16.0 1.2000000000000002 0.0
0.0 1.3 0.0
0.4 1.3 0.0
0.8 1.3 0.0
1.2000000000000002 1.3 0.0
1.6 1.3 0.0
2.0 1.3 0.0
2.4000000000000004 1.3 0.0
2.8000000000000003 1.3 0.0
3.2 1.3 0.0
3.6 1.3 0.0
4.0 1.3 0.0
4.4 1.3 0.0
4.800000000000001 1.3 0.0
5.2 1.3 0.0
5.6000000000000005 1.3 0.0
6.0 1.3 0.0
6.4 1.3 0.0
6.800000000000001 1.3 0.0
7.2 1.3 0.0
7.6000000000000005 1.3 0.0
8.0 1.3 0.0
8.4 1.3 0.0
8.8 1.3 0.0
9.200000000000001 1.3 0.0
9.600000000000001 1.3 0.0
10.0 1.3 0.0
10.4 1.3 0.0
10.8 1.3 0.0
11.200000000000001 1.3 0.0
11.600000000000001 1.3 0.0
12.0 1.3 0.0
12.4 1.3 0.0
12.8 1.3 0.0
13.200000000000001 1.3 0.0
13.600000000000001 1.3 0.0
14.0 1.3 0.0
14.4 1.3 0.0
14.8 1.3 0.0
15.200000000000001 1.3 0.0
15.600000000000001 1.3 0.0
16.0 1.3 0.0
0.0 1.4000000000000001 0.0
0.4 1.4000000000000001 0.0
0.8 1.4000000000000001 0.0
1.2000000000000002 1.4000000000000001 0.0
1.6 1.4000000000000001 0.0
2.0 1.4000000000000001 0.0
2.4000000000000004 1.4000000000000001 0.0
2.8000000000000003 1.4000000000000001 0.0
3.2 1.4000000000000001 0.0
3.6 1.4000000000000001 0.0
4.0 1.4000000000000001 0.0
4.4 1.4000000000000001 0.0
4.800000000000001 1.4000000000000001 0.0
5.2 1.4000000000000001 0.0
5.6000000000000005 1.4000000000000001 0.0
6.0 1.4000000000000001 0.0
6.4 1.4000000000000001 0.0
6.800000000000001 1.4000000000000001 0.0
7.2 1.4000000000000001 0.0
7.6000000000000005 1.4000000000000001 0.0
8.0 1.4000000000000001 0.0
8.4 1.4000000000000001 0.0
8.8 1.4000000000000001 0.0
9.200000000000001 1.4000000000000001 0.0
9.600000000000001 1.4000000000000001 0.0
10.0 1.4000000000000001 0.0
10.4 1.4000000000000001 0.0
10.8 1.4000000000000001 0.0
11.200000000000001 1.4000000000000001 0.0
11.600000000000001 1.4000000000000001 0.0
12.0 1.4000000000000001 0.0
12.4 1.4000000000000001 0.0
12.8 1.4000000000000001 0.0
13.200000000000001 1.4000000000000001 0.0
13.600000000000001 1.4000000000000001 0.0
14.0 1.4000000000000001 0.0
14.4 1.4000000000000001 0.0
14.8 1.4000000000000001 0.0
15.200000000000001 1.4000000000000001 0.0
15.600000000000001 1.4000000000000001 0.0
16.0 1.4000000000000001 0.0
0.0 1.5 0.0
0.4 1.5 0.0
0.8 1.5 0.0
1.2000000000000002 1.5 0.0
1.6 1.5 0.0
2.0 1.5 0.0
2.4000000000000004 1.5 0.0
2.8000000000000003 1.5 0.0
3.2 1.5 0.0
3.6 1.5 0.0
4.0 1.5 0.0
4.4 1.5 0.0
4.800000000000001 1.5 0.0
5.2 1.5 0.0
5.6000000000000005 1.5 0.0
6.0 1.5 0.0
6.4 1.5 0.0
6.800000000000001 1.5 0.0
7.2 1.5 0.0
7.6000000000000005 1.5 0.0
8.0 1.5 0.0
8.4 1.5 0.0
8.8 1.5 0.0
9.200000000000001 1.5 0.0
9.600000000000001 1.5 0.0
10.0 1.5 0.0
10.4 1.5 0.0
10.8 1.5 0.0
11.200000000000001 1.5 0.0
11.600000000000001 1.5 0.0
12.0 1.5 0.0
12.4 1.5 0.0
12.8 1.5 0.0
13.200000000000001 1.5 0.0
13.600000000000001 1.5 0.0
14.0 1.5 0.0
14.4 1.5 0.0
14.8 1.5 0.0
15.200000000000001 1.5 0.0
15.600000000000001 1.5 0.0
16.0 1.5 0.0
0.0 1.6 0.0
0.4 1.6 0.0
0.8 1.6 0.0
1.2000000000000002 1.6 0.0
1.6 1.6 0.0
2.0 1.6 0.0
2.4000000000000004 1.6 0.0
2.8000000000000003 1.6 0.0
3.2 1.6 0.0
3.6 1.6 0.0
4.0 1.6 0.0
4.4 1.6 0.0
4.800000000000001 1.6 0.0
5.2 1.6 0.0
5.6000000000000005 1.6 0.0
6.0 1.6 0.0
6.4 1.6 0.0
6.800000000000001 1.6 0.0
7.2 1.6 0.0
7.6000000000000005 1.6 0.0
8.0 1.6 0.0
8.4 1.6 0.0
8.8 1.6 0.0
9.200000000000001 1.6 0.0
9.600000000000001 1.6 0.0
10.0 1.6 0.0
10.4 1.6 0.0
10.8 1.6 0.0
11.200000000000001 1.6 0.0
11.600000000000001 1.6 0.0
12.0 1.6 0.0
12.4 1.6 0.0
12.8 1.6 0.0
13.200000000000001 1.6 0.0
13.600000000000001 1.6 0.0
14.0 1.6 0.0
14.4 1.6 0.0
14.8 1.6 0.0
15.200000000000001 1.6 0.0
15.600000000000001 1.6 0.0
16.0 1.6 0.0
0.0 1.7000000000000002 0.0
0.4 1.7000000000000002 0.0
0.8 1.7000000000000002 0.0
1.2000000000000002 1.7000000000000002 0.0
1.6 1.7000000000000002 0.0
2.0 1.7000000000000002 0.0
2.4000000000000004 1.7000000000000002 0.0
2.8000000000000003 1.7000000000000002 0.0
3.2 1.7000000000000002 0.0
3.6 1.7000000000000002 0.0
4.0 1.7000000000000002 0.0
4.4 1.7000000000000002 0.0
4.800000000000001 1.7000000000000002 0.0
5.2 1.7000000000000002 0.0
5.6000000000000005 1.7000000000000002 0.0
6.0 1.7000000000000002 0.0
6.4 1.7000000000000002 0.0
6.800000000000001 1.7000000000000002 0.0
7.2 1.7000000000000002 0.0
7.6000000000000005 1.7000000000000002 0.0
8.0 1.7000000000000002 0.0
8.4 1.7000000000000002 0.0
8.8 1.7000000000000002 0.0
9.200000000000001 1.7000000000000002 0.0
9.600000000000001 1.7000000000000002 0.0
10.0 1.7000000000000002 0.0
10.4 1.7000000000000002 0.0
10.8 1.7000000000000002 0.0
11.200000000000001 1.7000000000000002 0.0
11.600000000000001 1.7000000000000002 0.0
12.0 1.7000000000000002 0.0
12.4 1.7000000000000002 0.0
12.8 1.7000000000000002 0.0
13.200000000000001 1.7000000000000002 0.0
13.600000000000001 1.7000000000000002 0.0
14.0 1.7000000000000002 0.0
14.4 1.7000000000000002 0.0
14.8 1.7000000000000002 0.0
15.200000000000001 1.7000000000000002 0.0
15.600000000000001 1.7000000000000002 0.0
16.0 1.7000000000000002 0.0
0.0 1.8 0.0
0.4 1.8 0.0
0.8 1.8 0.0
1.2000000000000002 1.8 0.0
1.6 1.8 0.0
2.0 1.8 0.0
2.4000000000000004 1.8 0.0
2.8000000000000003 1.8 0.0
3.2 1.8 0.0
3.6 1.8 0.0
4.0 1.8 0.0
4.4 1.8 0.0
4.800000000000001 1.8 0.0
5.2 1.8 0.0
5.6000000000000005 1.8 0.0
6.0 1.8 0.0
6.4 1.8 0.0
6.800000000000001 1.8 0.0
7.2 1.8 0.0
7.6000000000000005 1.8 0.0
8.0 1.8 0.0
8.4 1.8 0.0
8.8 1.8 0.0
9.200000000000001 1.8 0.0
9.600000000000001 1.8 0.0
10.0 1.8 0.0
10.4 1.8 0.0
10.8 1.8 0.0
11.200000000000001 1.8 0.0
11.600000000000001 1.8 0.0
12.0 1.8 0.0
12.4 1.8 0.0
12.8 1.8 0.0
13.200000000000001 1.8 0.0
13.600000000000001 1.8 0.0
14.0 1.8 0.0
14.4 1.8 0.0
14.8 1.8 0.0
15.200000000000001 1.8 0.0
15.600000000000001 1.8 0.0
16.0 1.8 0.0
0.0 1.9000000000000001 0.0
0.4 1.9000000000000001 0.0
0.8 1.9000000000000001 0.0
1.2000000000000002 1.9000000000000001 0.0
1.6 1.9000000000000001 0.0
2.0 1.9000000000000001 0.0
2.4000000000000004 1.9000000000000001 0.0
2.8000000000000003 1.9000000000000001 0.0
3.2 1.9000000000000001 0.0
3.6 1.9000000000000001 0.0
4.0 1.9000000000000001 0.0
4.4 1.9000000000000001 0.0
4.800000000000001 1.9000000000000001 0.0
5.2 1.9000000000000001 0.0
5.6000000000000005 1.9000000000000001 0.0
6.0 1.9000000000000001 0.0
6.4 1.9000000000000001 0.0
6.800000000000001 1.9000000000000001 0.0
7.2 1.9000000000000001 0.0
7.6000000000000005 1.9000000000000001 0.0
8.0 1.9000000000000001 0.0
8.4 1.9000000000000001 0.0
8.8 1.9000000000000001 0.0
9.200000000000001 1.9000000000000001 0.0
9.600000000000001 1.9000000000000001 0.0
10.0 1.9000000000000001 0.0
10.4 1.9000000000000001 0.0
10.8 1.9000000000000001 0.0
11.200000000000001 1.9000000000000001 0.0
11.600000000000001 1.9000000000000001 0.0
12.0 1.9000000000000001 0.0
12.4 1.9000000000000001 0.0
12.8 1.9000000000000001 0.0
13.200000000000001 1.9000000000000001 0.0
13.600000000000001 1.9000000000000001 0.0
14.0 1.9000000000000001 0.0
14.4 1.9000000000000001 0.0
14.8 1.9000000000000001 0.0
15.200000000000001 1.9000000000000001 0.0
15.600000000000001 1.9000000000000001 0.0
16.0 1.9000000000000001 0.0
0.0 2.0 0.0
0.4 2.0 0.0
0.8 2.0 0.0
1.2000000000000002 2.0 0.0
1.6 2.0 0.0
2.0 2.0 0.0
2.4000000000000004 2.0 0.0
2.8000000000000003 2.0 0.0
3.2 2.0 0.0
3.6 2.0 0.0
4.0 2.0 0.0
4.4 2.0 0.0
4.800000000000001 2.0 0.0
5.2 2.0 0.0
5.6000000000000005 2.0 0.0
6.0 2.0 0.0
6.4 2.0 0.0
6.800000000000001 2.0 0.0
7.2 2.0 0.0
7.6000000000000005 2.0 0.0
8.0 2.0 0.0
8.4 2.0 0.0
8.8 2.0 0.0
9.200000000000001 2.0 0.0
9.600000000000001 2.0 0.0
10.0 2.0 0.0
10.4 2.0 0.0
10.8 2.0 0.0
11.200000000000001 2.0 0.0
11.600000000000001 2.0 0.0
12.0 2.0 0.0
12.4 2.0 0.0
12.8 2.0 0.0
13.200000000000001 2.0 0.0
13.600000000000001 2.0 0.0
14.0 2.0 0.0
14.4 2.0 0.0
14.8 2.0 0.0
15.200000000000001 2.0 0.0
15.600000000000001 2.0 0.0
16.0 2.0 0.0
CELLS 800 4000
4 0 1 42 41
4 1 2 43 42
4 2 3 44 43
4 3 4 45 44
4 4 5 46 45
4 5 6 47 46
4 6 7 48 47
4 7 8 49 48
4 8 9 50 49
4 9 10 51 50
4 10 11 52 51
4 11 12 53 52
4 12 13 54 53
4 13 14 55 54
4 14 15 56 55
4 15 16 57 56
4 16 17 58 57
4 17 18 59 58
4 18 19 60 59
4 19 20 61 60
4 20 21 62 61
4 21 22 63 62
4 22 23 64 63
4 23 24 65 64
4 24 25 66 65
4 25 26 67 66
4 26 27 68 67
4 27 28 69 68
4 28 29 70 69
4 29 30 71 70
4 30 31 72 71
4 31 32 73 72
4 32 33 74 73
4 33 34 75 74
4 34 35 76 75
4 35 36 77 76
4 36 37 78 77
4 37 38 79 78
4 38 39 80 79
4 39 40 81 80
4 41 42 83 82
4 42 43 84 83
4 43 44 85 84
4 44 45 86 85
4 45 46 87 86
4 46 47 88 87
4 47 48 89 88
4 48 49 90 89
4 49 50 91 90
4 50 51 92 91
4 51 52 93 92
4 52 53 94 93
4 53 54 95 94
4 54 55 96 95
4 55 56 97 96
4 56 57 98 97
4 57 58 99 98
4 58 59 100 99
4 59 60 101 100
4 60 61 102 101
4 61 62 103 102
4 62 63 104 103
4 63 64 105 104
4 64 65 106 105
4 65 66 107 106
4 66 67 108 107
4 67 68 109 108
4 68 69 110 109
4 69 70 111 110
4 70 71 112 111
4 71 72 113 112
4 72 73 114 113
4 73 74 115 114
4 74 75 116 115
4 75 76 117 116
4 76 77 118 117
4 77 78 119 118
4 78 79 120 119
4 79 80 121 120
4 80 81 122 121
4 82 83 124 123
4 83 84 125 124
4 84 85 126 125
4 85 86 127 126
4 86 87 128 127
4 87 88 129 128
4 88 89 130 129
4 89 90 131 130
4 90 91 132 131
4 91 92 133 132
4 92 93 134 133
4 93 94 135 134
4 94 95 136 135
4 95 96 137 136
4 96 97 138 137
4 97 98 139 138
4 98 99 140 139
4 99 100 141 140
4 100 101 142 141
4 101 102 143 142
4 102 103 144 143
4 103 104 145 144
4 104 105 146 145
4 105 106 147 146
4 106 107 148 147
4 107 108 149 148
4 108 109 150 149
4 109 110 151 150
4 110 111 152 151
4 111 112 153 152
4 112 113 154 153
4 113 114 155 154
4 114 115 156 155
4 115 116 157 156
4 116 117 158 157
4 117 118 159 158
4 118 119 160 159
4 119 120 161 160
4 120 121 162 161
4 121 122 163 162
4 123 124 165 164
4 124 125 166 165
4 125 126 167 166
4 126 127 168 167
4 127 128 169 168
4 128 129 170 169
4 129 130 171 170
4 130 131 172 171
4 131 132 173 172
4 132 133 174 173
4 133 134 175 174
4 134 135 176 175
4 135 136 177 176
4 136 137 178 177
4 137 138 179 178
4 138 139 180 179
4 139 140 181 180
4 140 141 182 181
4 141 142 183 182
4 142 143 184 183
4 143 144 185 184
4 144 145 186 185
4 145 146 187 186
4 146 147 188 187
4 147 148 189 188
4 148 149 190 189
4 149 150 191 190
4 150 151 192 191
4 151 152 193 192
4 152 153 194 193
4 153 154 195 194
4 154 155 196 195
4 155 156 197 196
4 156 157 198 197
4 157 158 199 198
4 158 159 200 199
4 159 160 201 200
4 160 161 202 201
4 161 162 203 202
4 162 163 204 203
4 164 165 206 205
4 165 166 207 206
4 166 167 208 207
4 167 168 209 208
4 168 169 210 209
4 169 170 211 210
4 170 171 212 211
4 171 172 213 212
4 172 173 214 213
4 173 174 215 214
4 174 175 216 215
4 175 176 217 216
4 176 177 218 217
4 177 178 219 218
4 178 179 220 219
4 179 180 221 220
4 180 181 222 221
4 181 182 223 222
4 182 183 224 223
4 183 184 225 224
4 184 185 226 225
4 185 186 227 226
4 186 187 228 227
4 187 188 229 228
4 188 189 230 229
4 189 190 231 230
4 190 191 232 231
4 191 192 233 232
4 192 193 234 233
4 193 194 235 234
4 194 195 236 235
4 195 196 237 236
4 196 197 238 237
4 197 198 239 238
4 198 199 240 239
4 199 200 241 240
4 200 201 242 241
4 201 202 243 242
4 202 203 244 243
4 203 204 245 244
4 205 206 247 246
4 206 207 248 247
4 207 208 249 248
4 208 209 250 249
4 209 210 251 250
4 210 211 252 251
4 211 212 253 252
4 212 213 254 253
4 213 214 255 254
4 214 215 256 255
4 215 216 257 256
4 216 217 258 257
4 217 218 259 258
4 218 219 260 259
4 219 220 261 260
4 220 221 262 261
4 221 222 263 262
4 222 223 264 263
4 223 224 265 264
4 224 225 266 265
4 225 226 267 266
4 226 227 268 267
4 227 228 269 268
4 228 229 270 269
4 229 230 271 270
4 230 231 272 271
4 231 232 273 272
4 232 233 274 273
4 233 234 275 274
4 234 235 276 275
4 235 236 277 276
4 236 237 278 277
4 237 238 279 278
4 238 239 280 279
4 239 240 281 280
4 240 241 282 281
4 241 242 283 282
4 242 243 284 283
4 243 244 285 284
4 244 245 286 285
4 246 247 288 287
4 247 248 289 288
4 248 249 290 289
4 249 250 291 290
4 250 251 292 291
4 251 252 293 292
4 252 253 294 293
4 253 254 295 294
4 254 255 296 295
4 255 256 297 296
4 256 257 298 297
4 257 258 299 298
4 258 259 300 299
4 259 260 301 300
4 260 261 302 301
4 261 262 303 302
4 262 263 304 303
4 263 264 305 304
4 264 265 306 305
4 265 266 307 306
4 266 267 308 307
4 267 268 309 308
4 268 269 310 309
4 269 270 311 310
4 270 271 312 311
4 271 272 313 312
4 272 273 314 313
4 273 274 315 314
4 274 275 316 315
4 275 276 317 316
4 276 277 318 317
4 277 278 319 318
4 278 279 320 319
4 279 280 321 320
4 280 281 322 321
4 281 282 323 322
4 282 283 324 323
4 283 284 325 324
4 284 285 326 325
4 285 286 327 326
4 287 288 329 328
4 288 289 330 329
4 289 290 331 330
4 290 291 332 331
4 291 292 333 332
4 292 293 334 333
4 293 294 335 334
4 294 295 336 335
4 295 296 337 336
4 296 297 338 337
4 297 298 339 338
4 298 299 340 339
4 299 300 341 340
4 300 301 342 341
4 301 302 343 342
4 302 303 344 343
4 303 304 345 344
4 304 305 346 345
4 305 306 347 346
4 306 307 348 347
4 307 308 349 348
4 308 309 350 349
4 309 310 351 350
4 310 311 352 351
4 311 312 353 352
4 312 313 354 353
4 313 314 355 354
4 314 315 356 355
4 315 316 357 356
4 316 317 358 357
4 317 318 359 358
4 318 319 360 359
4 319 320 361 360
4 320 321 362 361
4 321 322 363 362
4 322 323 364 363
4 323 324 365 364
4 324 325 366 365
4 325 326 367 366
4 326 327 368 367
4 328 329 370 369
4 329 330 371 370
4 330 331 372 371
4 331 332 373 372
4 332 333 374 373
4 333 334 375 374
4 334 335 376 375
4 335 336 377 376
4 336 337 378 377
4 337 338 379 378
4 338 339 380 379
4 339 340 381 380
4 340 341 382 381
4 341 342 383 382
4 342 343 384 383
4 343 344 385 384
4 344 345 386 385
4 345 346 387 386
4 346 347 388 387
4 347 348 389 388
4 348 349 390 389
4 349 350 391 390
4 350 351 392 391
4 351 352 393 392
4 352 353 394 393
4 353 354 395 394
4 354 355 396 395
4 355 356 397 396
4 356 357 398 397
4 357 358 399 398
4 358 359 400 399
4 359 360 401 400
4 360 361 402 401
4 361 362 403 402
4 362 363 404 403
4 363 364 405 404
4 364 365 406 405
4 365 366 407 406
4 366 367 408 407
4 367 368 409 408
4 369 370 411 410
4 370 371 412 411
4 371 372 413 412
4 372 373 414 413
4 373 374 415 414
4 374 375 416 415
4 375 376 417 416
4 376 377 418 417
4 377 378 419 418
4 378 379 420 419
4 379 380 421 420
4 380 381 422 421
4 381 382 423 422
4 382 383 424 423
4 383 384 425 424
4 384 385 426 425
4 385 386 427 426
4 386 387 428 427
4 387 388 429 428
4 388 389 430 429
4 389 390 431 430
4 390 391 432 431
4 391 392 433 432
4 392 393 434 433
4 393 394 435 434
4 394 395 436 435
4 395 396 437 436
4 396 397 438 437
4 397 398 439 438
4 398 399 440 439
4 399 400 441 440
4 400 401 442 441
4 401 402 443 442
4 402 403 444 443
4 403 404 445 444
4 404 405 446 445
4 405 406 447 446
4 406 407 448 447
4 407 408 449 448
4 408 409 450 449
4 410 411 452 451
4 411 412 453 452
4 412 413 454 453
4 413 414 455 454
4 414 415 456 455
4 415 416 457 456
4 416 417 458 457
4 417 418 459 458
4 418 419 460 459
4 419 420 461 460
4 420 421 462 461
4 421 422 463 462
4 422 423 464 463
4 423 424 465 464
4 424 425 466 465
4 425 426 467 466
4 426 427 468 467
4 427 428 469 468
4 428 429 470 469
4 429 430 471 470
4 430 431 472 471
4 431 432 473 472
4 432 433 474 473
4 433 434 475 474
4 434 435 476 475
4 435 436 477 476
4 436 437 478 477
4 437 438 479 478
4 438 439 480 479
4 439 440 481 480
4 440 441 482 481
4 441 442 483 482
4 442 443 484 483
4 443 444 485 484
4 444 445 486 485
4 445 446 487 486
4 446 447 488 487
4 447 448 489 488
4 448 449 490 489
4 449 450 491 490
4 451 452 493 492
4 452 453 494 493
4 453 454 495 494
4 454 455 496 495
4 455 456 497 496
4 456 457 498 497
4 457 458 499 498
4 458 459 500 499
4 459 460 501 500
4 460 461 502 501
4 461 462 503 502
4 462 463 504 503
4 463 464 505 504
4 464 465 506 505
4 465 466 507 506
4 466 467 508 507
4 467 468 509 508
4 468 469 510 509
4 469 470 511 510
4 470 471 512 511
4 471 472 513 512
4 472 473 514 513
4 473 474 515 514
4 474 475 516 515
4 475 476 517 516
4 476 477 518 517
4 477 478 519 518
4 478 479 520 519
4 479 480 521 520
4 480 481 522 521
4 481 482 523 522
4 482 483 524 523
4 483 484 525 524
4 484 485 526 525
4 485 486 527 526
4 486 487 528 527
4 487 488 529 528
4 488 489 530 529
4 489 490 531 530
4 490 491 532 531
4 492 493 534 533
4 493 494 535 534
4 494 495 536 535
4 495 496 537 536
4 496 497 538 537
4 497 498 539 538
4 498 499 540 539
4 499 500 541 540
4 500 501 542 541
4 501 502 543 542
4 502 503 544 543
4 503 504 545 544
4 504 505 546 545
4 505 506 547 546
4 506 507 548 547
4 507 508 549 548
4 508 509 550 549
4 509 510 551 550
4 510 511 552 551
4 511 512 553 552
4 512 513 554 553
4 513 514 555 554
4 514 515 556 555
4 515 516 557 556
4 516 517 558 557
4 517 518 559 558
4 518 519 560 559
4 519 520 561 560
4 520 521 562 561
4 521 522 563 562
4 522 523 564 563
4 523 524 565 564
4 524 525 566 565
4 525 526 567 566
4 526 527 568 567
4 527 528 569 568
4 528 529 570 569
4 529 530 571 570
4 530 531 572 571
4 531 532 573 572
4 533 534 575 574
4 534 535 576 575
4 535 536 577 576
4 536 537 578 577
4 537 538 579 578
4 538 539 580 579
4 539 540 581 580
4 540 541 582 581
4 541 542 583 582
4 542 543 584 583
4 543 544 585 584
4 544 545 586 585
4 545 546 587 586
4 546 547 588 587
4 547 548 589 588
4 548 549 590 589
4 549 550 591 590
4 550 551 592 591
4 551 552 593 592
4 552 553 594 593
4 553 554 595 594
4 554 555 596 595
4 555 556 597 596
4 556 557 598 597
4 557 558 599 598
4 558 559 600 599
4 559 560 601 600
4 560 561 602 601
4 561 562 603 602
4 562 563 604 603
4 563 564 605 604
4 564 565 606 605
4 565 566 607 606
4 566 567 608 607
4 567 568 609 608
4 568 569 610 609
4 569 570 611 610
4 570 571 612 611
4 571 572 613 612
4 572 573 614 613
4 574 575 616 615
4 575 576 617 616
4 576 577 618 617
4 577 578 619 618
4 578 579 620 619
4 579 580 621 620
4 580 581 622 621
4 581 582 623 622
4 582 583 624 623
4 583 584 625 624
4 584 585 626 625
4 585 586 627 626
4 586 587 628 627
4 587 588 629 628
4 588 589 630 629
4 589 590 631 630
4 590 591 632 631
4 591 592 633 632
4 592 593 634 633
4 593 594 635 634
4 594 595 636 635
4 595 596 637 636
4 596 597 638 637
4 597 598 639 638
4 598 599 640 639
4 599 600 641 640
4 600 601 642 641
4 601 602 643 642
4 602 603 644 643
4 603 604 645 644
4 604 605 646 645
4 605 606 647 646
4 606 607 648 647
4 607 608 649 648
4 608 609 650 649
4 609 610 651 650
4 610 611 652 651
4 611 612 653 652
4 612 613 654 653
4 613 614 655 654
4 615 616 657 656
4 616 617 658 657
4 617 618 659 658
4 618 619 660 659
4 619 620 661 660
4 620 621 662 661
4 621 622 663 662
4 622 623 664 663
4 623 624 665 664
4 624 625 666 665
4 625 626 667 666
4 626 627 668 667
4 627 628 669 668
4 628 629 670 669
4 629 630 671 670
4 630 631 672 671
4 631 632 673 672
4 632 633 674 673
4 633 634 675 674
4 634 635 676 675
4 635 636 677 676
4 636 637 678 677
4 637 638 679 678
4 638 639 680 679
4 639 640 681 680
4 640 641 682 681
4 641 642 683 682
4 642 643 684 683
4 643 644 685 684
4 644 645 686 685
4 645 646 687 686
4 646 647 688 687
4 647 648 689 688
4 648 649 690 689
4 649 650 691 690
4 650 651 692 691
4 651 652 693 692
4 652 653 694 693
4 653 654 695 694
4 654 655 696 695
4 656 657 698 697
4 657 658 699 698
4 658 659 700 699
4 659 660 701 700
4 660 661 702 701
4 661 662 703 702
4 662 663 704 703
4 663 664 705 704
4 664 665 706 705
4 665 666 707 706
4 666 667 708 707
4 667 668 709 708
4 668 669 710 709
4 669 670 711 710
4 670 671 712 711
4 671 672 713 712
4 672 673 714 713
4 673 674 715 714
4 674 675 716 715
4 675 676 717 716
4 676 677 718 717
4 677 678 719 718
4 678 679 720 719
4 679 680 721 720
4 680 681 722 721
4 681 682 723 722
4 682 683 724 723
4 683 684 725 724
4 684 685 726 725
4 685 686 727 726
4 686 687 728 727
4 687 688 729 728
4 688 689 730 729
4 689 690 731 730
4 690 691 732 731
4 691 692 733 732
4 692 693 734 733
4 693 694 735 734
4 694 695 736 735
4 695 696 737 736
4 697 698 739 738
4 698 699 740 739
4 699 700 741 740
4 700 701 742 741
4 701 702 743 742
4 702 703 744 743
4 703 704 745 744
4 704 705 746 745
4 705 706 747 746
4 706 707 748 747
4 707 708 749 748
4 708 709 750 749
4 709 710 751 750
4 710 711 752 751
4 711 712 753 752
4 712 713 754 753
4 713 714 755 754
4 714 715 756 755
4 715 716 757 756
4 716 717 758 757
4 717 718 759 758
4 718 719 760 759
4 719 720 761 760
4 720 721 762 761
4 721 722 763 762
4 722 723 764 763
4 723 724 765 764
4 724 725 766 765
4 725 726 767 766
4 726 727 768 767
4 727 728 769 768
4 728 729 770 769
4 729 730 771 770
4 730 731 772 771
4 731 732 773 772
4 732 733 774 773
4 733 734 775 774
4 734 735 776 775
4 735 736 777 776
4 736 737 778 777
4 738 739 780 779
4 739 740 781 780
4 740 741 782 781
4 741 742 783 782
4 742 743 784 783
4 743 744 785 784
4 744 745 786 785
4 745 746 787 786
4 746 747 788 787
4 747 748 789 788
4 748 749 790 789
4 749 750 791 790
4 750 751 792 791
4 751 752 793 792
4 752 753 794 793
4 753 754 795 794
4 754 755 796 795
4 755 756 797 796
4 756 757 798 797
4 757 758 799 798
4 758 759 800 799
4 759 760 801 800
4 760 761 802 801
4 761 762 803 802
4 762 763 804 803
4 763 764 805 804
4 764 765 806 805
4 765 766 807 806
4 766 767 808 807
4 767 768 809 808
4 768 769 810 809
4 769 770 811 810
4 770 771 812 811
4 771 772 813 812
4 772 773 814 813
4 773 774 815 814
4 774 775 816 815
4 775 776 817 816
4 776 777 818 817
4 777 778 819 818
4 779 780 821 820
4 780 781 822 821
4 781 782 823 822
4 782 783 824 823
4 783 784 825 824
4 784 785 826 825
4 785 786 827 826
4 786 787 828 827
4 787 788 829 828
4 788 789 830 829
4 789 790 831 830
4 790 791 832 831
4 791 792 833 832
4 792 793 834 833
4 793 794 835 834
4 794 795 836 835
4 795 796 837 836
4 796 797 838 837
4 797 798 839 838
4 798 799 840 839
4 799 800 841 840
4 800 801 842 841
4 801 802 843 842
4 802 803 844 843
4 803 804 845 844
4 804 805 846 845
4 805 806 847 846
4 806 807 848 847
4 807 808 849 848
4 808 809 850 849
4 809 810 851 850
4 810 811 852 851
4 811 812 853 852
4 812 813 854 853
4 813 814 855 854
4 814 815 856 855
4 815 816 857 856
4 816 817 858 857
4 817 818 859 858
4 818 819 860 859
CELL_TYPES 800
9
9
9
9
9
9
9
9
9
9
9
9
9
9
9
9
9
9
9
9
9
9
9
9
9
9
9
9
9
9
9
9
9
9
9
9
9
9
9
9
9
9
9
9
9
9
9
9
9
9
9
9
9
9
9
9
9
9
9
9
9
9
9
9
9
9
9
9
9
9
9
9
9
9
9
9
9
9
9
9
9
9
9
9
9
9
9
9
9
9
9
9
9
9
9
9
9
9
9
9
9
9
9
9
9
9
9
9
9
9
9
9
9
9
9
9
9
9
9
9
9
9
9
9
9
9
9
9
9
9
9
9
9
9
9
9
9
9
9
9
9
9
9
9
9
9
9
9
9
9
9
9
9
9
9
9
9
9
9
9
9
9
9
9
9
9
9
9
9
9
9
9
9
9
9
9
9
9
9
9
9
9
9
9
9
9
9
9
9
9
9
9
9
9
9
9
9
9
9
9
9
9
9
9
9
9
9
9
9
9
9
9
9
9
9
9
9
9
9
9
9
9
9
9
9
9
9
9
9
9
9
9
9
9
9
9
9
9
9
9
9
9
9
9
9
9
9
9
9
9
9
9
9
9
9
9
9
9
9
9
9
9
9
9
9
9
9
9
9
9
9
9
9
9
9
9
9
9
9
9
9
9
9
9
9
9
9
9
9
9
9
9
9
9
9
9
9
9
9
9
9
9
9
9
9
9
9
9
9
9
9
9
9
9
9
9
9
9
9
9
9
9
9
9
9
9
9
9
9
9
9
9
9
9
9
9
9
9
9
9
9
9
9
9
9
9
9
9
9
9
9
9
9
9
9
9
9
9
9
9
9
9
9
9
9
9
9
9
9
9
9
9
9
9
9
9
9
9
9
9
9
9
9
9
9
9
9
9
9
9
9
9
9
9
9
9
9
9
9
9
9
9
9
9
9
9
9
9
9
9
9
9
9
9
9
9
9
9
9
9
9
9
9
9
9
9
9
9
9
9
9
9
9
9
9
9
9
9
9
9
9
9
9
9
9
9
9
9
9
9
9
9
9
9
9
9
9
9
9
9
9
9
9
9
9
9
9
9
9
9
9
9
9
9
9
9
9
9
9
9
9
9
9
9
9
9
9
9
9
9
9
9
9
9
9
9
9
9
9
9
9
9
9
9
9
9
9
9
9
9
9
9
9
9
9
9
9
9
9
9
9
9
9
9
9
9
9
9
9
9
9
9
9
9
9
9
9
9
9
9
9
9
9
9
9
9
9
9
9
9
9
9
9
9
9
9
9
9
9
9
9
9
9
9
9
9
9
9
9
9
9
9
9
9
9
9
9
9
9
9
9
9
9
9
9
9
9
9
9
9
9
9
9
9
9
9
9
9
9
9
9
9
9
9
9
9
9
9
9
9
9
9
9
9
9
9
9
9
9
9
9
9
9
9
9
9
9
9
9
9
9
9
9
9
9
9
9
9
9
9
9
9
9
9
9
9
9
9
9
9
9
9
9
9
9
9
9
9
9
9
9
9
9
9
9
9
9
9
9
9
9
9
9
9
9
9
9
9
9
9
9
9
9
9
9
9
9
9
9
9
9
9
9
9
9
9
9
9
9
9
9
9
9
9
9
9
9
9
9
9
9
9
9
9
9
9
9
9
9
9
9
9
9
9
9
9
9
9
9
9
9
9
9
9
9
9
9
9
9
9
9
9
9
9
9
9
9
9
9
9
9
9
9
9
9
9
9
9
9
9
9
9
9
9
9
9
9
9
9
9
9
9
9
9
9
9
9
9
9
9
9
9
9
9
9
9
9
9
9
9
9
9
9
9
9
9
9
9
9
9
POINT_DATA 861
SCALARS Disp float 2
LOOKUP_TABLE default
0.0 0.0
0.004044120951447368 -0.12120966100266269
0.005021081792857703 -0.23562663002714176
0.005730493811000536 -0.3494097547305349
0.006575452828903596 -0.46290604387321127
0.007731751264329188 -0.575910433871821
0.00948317544723142 -0.6881649640475518
0.012098351636117066 -0.7993823796331958
0.01587364736469238 -0.9092082016599193
0.021125996141609503 -1.0171828598857708
0.028192169216836222 -1.122688835868874
0.037463953650450445 -1.2249044414160128
0.04942074027161637 -1.3227839956232388
0.0646200515646653 -1.4150805988709905
0.0836888489984809 -1.5003724615138152
0.10724405159772758 -1.577084057031116
0.13575164331128864 -1.6435115228182726
0.16935120707827112 -1.6978710207202772
0.20770000595432475 -1.7384223091949103
0.24990181786217364 -1.763689476527419
0.2944719336812288 -1.7726767762874303
0.33904204950028305 -1.7636894765273756
0.381243861408126 -1.738422309194821
0.41959266028416886 -1.6978710207201482
0.4531922240511381 -1.6435115228181107
0.4816998157646848 -1.5770840570309324
0.505255018363918 -1.500372461513613
0.5243238157977191 -1.4150805988707753
0.539523127090753 -1.3227839956230176
0.5514799137119042 -1.224904441415792
0.5607516981455047 -1.1226888358686595
0.5678178712207202 -1.0171828598855677
0.5730702199976285 -0.9092082016597302
0.5768455157261965 -0.7993823796330235
0.579460691915077 -0.6881649640473985
0.5812121160979759 -0.5759104338716897
0.5823684145333998 -0.4629060438731023
0.5832133735513024 -0.34940975473045016
0.583922785569445 -0.23562663002708048
0.5848997464108545 -0.12120966100262649
0.5889438673622993 0.0
0.030252254475612677 -0.001792836506777599
0.03295447258079379 -0.12132127502739175
0.03349405237727905 -0.23569148630143588
0.03413534009241066 -0.34948713095240497
0.034892167278942406 -0.46300501968139457
0.03589919351515531 -0.576088176820894
0.03742957886558732 -0.6884882258469462
0.03974201190702794 -0.7999182719194704
0.043112483570227414 -0.9100308879192666
0.04782407290198468 -1.0183674544829255
0.05417277514818023 -1.1243171935304266
0.06249657835342245 -1.2270761735514817
0.07321356730748163 -1.3256223310635256
0.08683903711323589 -1.418729499514119
0.10395225990370198 -1.504987668767358
0.12513217126611126 -1.5828055866066038
0.15082072310171302 -1.6504232164044754
0.18116264567625504 -1.705959100683316
0.21586936979664342 -1.7475458364058398
0.25412579555264053 -1.7735694663053472
0.2944719336812236 -1.7828545498703015
0.33481807180980544 -1.7735694663053032
0.373074497565797 -1.747545836405749
0.40778122168617625 -1.705959100683184
0.43812314426070686 -1.6504232164043107
0.4638116960962961 -1.5828055866064168
0.48499160745869285 -1.5049876687671526
0.5021048302491461 -1.4187294995139006
0.515730300054887 -1.3256223310633009
0.5264472890089329 -1.2270761735512579
0.5347710922141627 -1.1243171935302092
0.5411197944603482 -1.0183674544827204
0.5458313837920973 -0.9100308879190755
0.5492018554552902 -0.7999182719192967
0.5515142884967261 -0.6884882258467918
0.5530446738471553 -0.5760881768207623
0.5540517000833669 -0.46300501968128555
0.5548085272698983 -0.3494871309523202
0.5554498149850297 -0.23569148630137454
0.555989394781515 -0.12132127502735542
0.5586916128866921 -0.0017928365067755004
0.05975156215357536 -0.0031886454698619978
0.0616779213906787 -0.12136974284070932
0.06199190491589281 -0.23573140382170846
0.06251634526202203 -0.3495579972187204
0.06319117030980753 -0.46308939328223253
0.0640652268298965 -0.5762305224653944
0.06537312306340658 -0.688755927517715
0.06738117191892967 -0.8003750424567051
0.0703400186870583 -0.9107448515746743
0.07450273126291948 -1.0194055759779277
0.08012594728483863 -1.1257509114634547
0.08749940858009717 -1.2289909429180372
0.09698252459883168 -1.3281269595520118
0.10903067383960255 -1.4219570547022744
0.12418030689549182 -1.5090822350970712
0.14296430880705036 -1.5878983094127184
0.16580268933733303 -1.6565957602670802
0.19286073727094596 -1.7132063008196823
0.22391388393649186 -1.7557464349370033
0.25822198637168975 -1.782458061517781
0.29447193368121866 -1.7920202943298569
0.3307218809907462 -1.7824580615177361
0.3650299834259392 -1.7557464349369107
0.39608313009147705 -1.7132063008195482
0.42314117802508017 -1.6565957602669128
0.44597955855535176 -1.5878983094125283
0.46476356046689904 -1.509082235096863
0.4799131935227769 -1.421957054702053
0.4919613427635359 -1.3281269595517842
0.5014444587822587 -1.2289909429178105
0.5088179200775064 -1.125750911463235
0.5144411360994164 -1.0194055759777203
0.5186038486752702 -0.9107448515744816
0.521562695443393 -0.8003750424565302
0.5235707442989119 -0.6887559275175599
0.5248786405324195 -0.5762305224652623
0.5257526970525077 -0.4630893932821235
0.5264275221002929 -0.3495579972186356
0.5269519624464221 -0.2357314038216472
0.5272659459716362 -0.12136974284067274
0.5291923052087357 -0.003188645469857779
0.08885861082652957 -0.004299866539458668
0.09028002923110119 -0.12140267140651104
0.09047190670401577 -0.23575371893657193
0.0908813299410768 -0.34961676531352615
0.09146663954927538 -0.4631637591144635
0.09222557476128827 -0.5763428497160913
0.09332154032141006 -0.6889685954249193
0.09502288107020486 -0.8007537893991946
0.09756648154553506 -0.9113498019214415
0.10117484825765036 -1.0202968046659069
0.10606845814853166 -1.1269898183247147
0.11249034251070444 -1.2306506694871993
0.12074492874609295 -1.3303010244185889
0.13122598597726398 -1.4247639027218533
0.14440783065923 -1.512654540989288
0.16078345415529713 -1.5923578625296615
0.18075161198799294 -1.662023273247397
0.20449978718187609 -1.7196080936098803
0.231873347871608 -1.763020750697666
0.26224565214010315 -1.7903693083334387
0.29447193368121405 -1.8002070745809946
0.32669821522232334 -1.7903693083333931
0.35707051949081414 -1.7630207506975721
0.38444408018053905 -1.719608093609744
0.4081922553744135 -1.6620232732472273
0.4281604132070997 -1.592357862529469
0.44453603670315683 -1.512654540989077
0.4577178813851128 -1.4247639027216294
0.46819893861627354 -1.3303010244183586
0.4764535248516519 -1.23065066948697
0.4828754092138152 -1.1269898183244929
0.4877690191046884 -1.0202968046656977
0.49137738581679724 -0.9113498019212475
0.4939209862921222 -0.8007537893990189
0.4956223270409135 -0.6889685954247635
0.4967182926010334 -0.5763428497159591
0.4974772278130457 -0.4631637591143544
0.49806253742124396 -0.3496167653134414
0.498471960658305 -0.23575371893651073
0.49866383813121967 -0.12140267140647423
0.500085256535788 -0.004299866539452535
0.11773720474709647 -0.005189018429842311
0.11879429304226623 -0.12143337063164462
0.11891855598485296 -0.23576592984015032
0.11922851770357597 -0.34966211632221805
0.11971863371386202 -0.4632287241590312
0.12037006204560267 -0.5764340270492406
0.12128011649953797 -0.6891308692860552
0.12267483764013484 -0.8010555021320069
0.12480241731829662 -0.9118468963009393
0.12785407385186007 -1.021041664676375
0.13201631187391674 -1.1280352254559878
0.13748945213213457 -1.2320573116106441
0.14452211545155394 -1.33214795519124
0.15344510626715904 -1.427153859801656
0.16467237661666434 -1.5157052975193526
0.17863821785400097 -1.596182304247553
0.19572132085106594 -1.6667016174876441
0.21613487985103327 -1.7251583320753208
0.23980103451767407 -1.7693657637227793
0.2662340198094527 -1.797312211702154
0.2944719336812094 -1.8074335199043896
0.3227098475529649 -1.7973122117021079
0.3491428328447393 -1.7693657637226843
0.37280898751137403 -1.7251583320751827
0.3932225465113338 -1.6667016174874725
0.41030564950839044 -1.5961823042473582
0.4242714907457183 -1.5157052975191396
0.4354987610952151 -1.42715385980143
0.44442175191081135 -1.3321479551910078
0.4514544152302221 -1.232057311610413
0.45692755548843195 -1.128035225455764
0.46108979351048157 -1.0210416646761642
0.4641414500440394 -0.9118468963007439
0.4662690297221968 -0.8010555021318302
0.4676637508627908 -0.6891308692858991
0.4685738053167247 -0.5764340270491083
0.4692252336484649 -0.46322872415892213
0.46971534965875067 -0.34966211632213323
0.4700253113774737 -0.23576592984008915
0.47014957432006044 -0.12143337063160763
0.4712066626152274 -0.005189018429834534
0.14646379995819458 -0.005896299313108966
0.14724570003006324 -0.1214652553081254
0.1473292938702114 -0.23577315203800953
0.14755554976941704 -0.349694947922878
0.14794842626817925 -0.4632832931951844
0.14849371763775307 -0.5765090644299445
0.14923906489673736 -0.6892527008731726
0.1503521650667333 -0.8012818477270524
0.15205929452499345 -0.912238089122581
0.15455476325800507 -1.021642098901323
0.1579869184232368 -1.128889004142331
0.16251543020278492 -1.2332141700677899
0.1683367204640953 -1.3336721211517275
0.1757179238790611 -1.4291314876571375
0.18500184047533355 -1.5182391404737776
0.19657218802522494 -1.5993733161524073
0.2107720478752048 -1.670628135574805
0.22782693905436405 -1.729850793366718
0.24775086350525627 -1.774776398214142
0.2702201512339863 -1.803288947894737
0.29447193368120483 -1.8137093589128872
0.3187237161284222 -1.8032889478946899
0.34119300385714835 -1.7747763982140456
0.3611169283080354 -1.7298507933665783
0.37817181948718837 -1.6706281355746317
0.39237167933716105 -1.5993733161522108
0.4039420268870449 -1.518239140473563
0.4132259434833103 -1.4291314876569097
0.42060714689826884 -1.3336721211514933
0.4264284371595722 -1.2332141700675567
0.4309569489391135 -1.1288890041421056
0.4343891041043394 -1.021642098901111
0.4368845728373464 -0.9122380891223846
0.43859170229560296 -0.8012818477268749
0.4397048024655966 -0.6892527008730162
0.4404501497245801 -0.5765090644298121
0.4409954410941535 -0.4632832931950752
0.44138831759291547 -0.3496949479227931
0.4416145734921211 -0.23577315203794835
0.44169816733226924 -0.12146525530808824
0.44248006740413576 -0.005896299313099808
0.1750801611390008 -0.0064531229807098245
0.17565208919033165 -0.12149864375141588
0.17570727970005148 -0.23577805547656078
0.17586155634055722 -0.3497168021948018
0.17615871282087964 -0.4633262862806817
0.17659438778070677 -0.5765707559226123
0.17718715644641797 -0.6893444062900874
0.17804817202975387 -0.8014436522049956
0.1793554497821993 -0.9125257594838615
0.18129269797363085 -1.0221011593575844
0.18399925442835932 -1.1295546773781486
0.18758983436376409 -1.2341254267717388
0.19221185339465724 -1.3348791591299183
0.19806943182764217 -1.4307037245672587
0.20543619623880469 -1.5202618463778623
0.21462736938033714 -1.6019359972041054
0.2259531631530538 -1.673804214810667
0.23964324012352964 -1.7336801834883284
0.25578543348365157 -1.7792441485321437
0.27423906098070683 -1.8082942624278642
0.29447193368120017 -1.8190365319236401
0.3147048063816923 -1.8082942624278164
0.3331584338787443 -1.7792441485320465
0.34930062723886185 -1.7336801834881874
0.36299070420933244 -1.6738042148104924
0.3743164979820433 -1.6019359972039073
0.3835076711235696 -1.520261846377646
0.3908744355347265 -1.4307037245670293
0.3967320139677058 -1.3348791591296825
0.4013540329985934 -1.2341254267715043
0.40494461293399275 -1.1295546773779221
0.40765116938871654 -1.0221011593573712
0.4095884175801444 -0.9125257594836643
0.41089569533258713 -0.8014436522048177
0.4117567109159214 -0.6893444062899307
0.4123494795816321 -0.5765707559224797
0.4127851545414588 -0.46332628628057243
0.4130823110217811 -0.3497168021947169
0.41323658766228677 -0.23577805547649958
0.4132917781720066 -0.12149864375137866
0.41386370622333585 -0.006453122980699564
0.20361506241848565 -0.006884069592514077
0.20402585538036533 -0.12153426438654724
0.20405763707105615 -0.23578131391623716
0.20414746636867018 -0.3497291540735849
0.2043520226234168 -0.4633571332139537
0.20467383111862436 -0.5766193021493378
0.20512171397349152 -0.6894116159817344
0.20575274560953852 -0.8015542364222213
0.20669366882110946 -0.9127201198737871
0.20809083559158706 -1.0224234360809032
0.21007461773481587 -1.130037274230771
0.2127352948103318 -1.2347968850676232
0.21617256142643712 -1.3357763219036278
0.22052924103132754 -1.4318793651362256
0.2260065361029496 -1.5217833725447854
0.23285037681519175 -1.6038778872917292
0.2413213338882909 -1.6762339760532567
0.2516431264574618 -1.7366447595736245
0.26396892239507463 -1.7827581852191228
0.2783314473146934 -1.8123145620438141
0.29447193368119523 -1.823408647394927
0.31061242004769607 -1.8123145620437657
0.32497494496731244 -1.7827581852190242
0.3373007409049216 -1.7366447595734824
0.3476225334740882 -1.676233976053081
0.356093490547183 -1.6038778872915296
0.3629373312594204 -1.521783372544568
0.3684146263310384 -1.4318793651359951
0.37277130593592495 -1.335776321903391
0.376208572552026 -1.2347968850673874
0.37886924962753804 -1.1300372742305433
0.3808530317707633 -1.0224234360806892
0.38225019854123826 -0.9127201198735894
0.3831911217528074 -0.801554236422043
0.3838221533888534 -0.6894116159815776
0.38427003624372014 -0.5766193021492053
0.38459184473892744 -0.4633571332138445
0.38479640099367396 -0.34972915407349997
0.38488623029128793 -0.23578131391617593
0.3849180119819786 -0.12153426438651001
0.3853288049438573 -0.006884069592502961
0.23208429751532492 -0.007213701877735999
0.23237827345263778 -0.12157236505939323
0.2323848301113856 -0.23578255296710576
0.23241578544016717 -0.34973313570174974
0.2325311220226733 -0.46337596872192893
0.23273692736185145 -0.5766531513661415
0.2330353076081128 -0.6894599784627633
0.2334563594532001 -0.8016253901772267
0.23406571167736825 -0.9128375593039382
0.2349590244564478 -1.0226213217952493
0.23623883392535255 -1.1303449482819492
0.23798121591225918 -1.2352373539205626
0.2402475144333637 -1.336373699094476
0.24312713416752235 -1.4326704770481251
0.24674907254373954 -1.5228168836654603
0.2512833968860736 -1.6052113305799893
0.2569284925180895 -1.6779262248731355
0.26389673712730183 -1.7387460572054774
0.27237492762552457 -1.7853073481510386
0.28254551720217813 -1.8153283513872482
0.2944719336811901 -1.8268108770851255
0.3063983501602012 -1.8153283513871994
0.3165689397368532 -1.7853073481509394
0.32504713023507315 -1.7387460572053348
0.33201537484428245 -1.6779262248729592
0.3376604704762955 -1.6052113305797888
0.3421947948186264 -1.522816883665242
0.345816733194841 -1.4326704770478937
0.34869635292899726 -1.3363736990942383
0.35096265145009914 -1.2352373539203263
0.3527050334370032 -1.1303449482817214
0.35398484290590565 -1.022621321795035
0.3548781556849837 -0.9128375593037402
0.3554875079091509 -0.8016253901770483
0.3559085597542376 -0.6894599784626064
0.35620694000049874 -0.576653151366009
0.35641274533967665 -0.4633759687218196
0.35652808192218277 -0.34973313570166475
0.3565590372509643 -0.2357825529670445
0.35656559390971204 -0.121572365059356
0.35685956984702427 -0.007213701877724299
0.2604982979973211 -0.00746835287975308
0.2607118101429812 -0.12161284264653807
0.2606938655974001 -0.2357810692212716
0.2606698410743648 -0.34972963346341646
0.2606993386820053 -0.463383033036266
0.26078858557591844 -0.5766715383068595
0.26093401437191444 -0.6894888664793938
0.26114472735095884 -0.8016673484731215
0.26144744625973354 -0.912899705412658
0.261886993593684 -1.0227182756159663
0.2625048899860304 -1.1304971800722838
0.2633563787581572 -1.2354634723805733
0.2644701827850621 -1.3366880139700557
0.26589395045712794 -1.433095767974634
0.26769374327943096 -1.5233829442852107
0.2699579172467824 -1.6059566291763734
0.27281300657757546 -1.6788966747430065
0.2764389239662991 -1.7399952441429904
0.28107278142091163 -1.7868874209644103
0.2869560675377955 -1.8173064068911204
0.2944719336811847 -1.8292158626105093
0.30198779982457336 -1.8173064068910714
0.30787108594145657 -1.7868874209643109
0.3125049433960672 -1.7399952441428472
0.3161308607847891 -1.6788966747428296
0.3189859501155809 -1.6059566291761724
0.321250124082931 -1.5233829442849918
0.32304991690523294 -1.4330957679744025
0.32447368457729797 -1.3366880139698178
0.32558748860420184 -1.2354634723803364
0.3264389773763275 -1.1304971800720556
0.32705687376867293 -1.0227182756157516
0.3274964211026229 -0.91289970541246
0.3277991400113972 -0.8016673484729431
0.3280098529904414 -0.6894888664792369
0.3281552817864373 -0.5766715383067268
0.3282445286803504 -0.4633830330361566
0.32827402628799096 -0.3497296334633315
0.32825000176495556 -0.2357810692212103
0.32823205721937443 -0.12161284264650087
0.3284455693650342 -0.0074683528797409885
0.2888720540012092 -0.007667542447936829
0.28902919118095893 -0.12165419915895197
0.2889889899615288 -0.23577673611661368
0.28891363522786967 -0.34971920290310926
0.28886042706844917 -0.4633786664562624
0.2888339930875803 -0.5766742907992826
0.2888243645916567 -0.6894975756140344
0.288822273214093 -0.8016812686971995
0.2888222423494832 -0.91291993026575
0.28882266471929496 -1.0227482424866314
0.28882297557602127 -1.1305399363742623
0.2888231601276415 -1.2355235006309142
0.28882221983125594 -1.3367698095766207
0.2888185101991856 -1.4332066040726754
0.28881209135316926 -1.523531542867969
0.2888149788792486 -1.6061603767465022
0.2888849013306338 -1.6791873110137958
0.2891752115716665 -1.7404266805971995
0.2899673358094897 -1.7875309097627048
0.2916014070555663 -1.8182361301824692
0.2944719336811789 -1.830590600110959
0.29734246030679173 -1.8182361301824201
0.298976531552868 -1.7875309097626053
0.2997686557906907 -1.740426680597056
0.3000589660317233 -1.6791873110136186
0.30012888848310915 -1.6061603767463013
0.3001317760091887 -1.5235315428677503
0.3001253571631728 -1.4332066040724438
0.30012164753110315 -1.3367698095763827
0.3001207072347183 -1.2355235006306773
0.300120891786339 -1.1305399363740338
0.3001212026430657 -1.022748242486417
0.3001216250128777 -0.912919930265552
0.3001215941482681 -0.8016812686970212
0.3001195027707045 -0.6894975756138775
0.30010987427478103 -0.5766742907991499
0.30008344029391226 -0.4633786664561531
0.30003023213449187 -0.34971920290302433
0.29995487740083276 -0.2357767361165524
0.2999146761814026 -0.12165419915891477
0.30007181336115224 -0.0076675424479245085
0.3172179837600802 -0.007825008562587643
0.31733522083202675 -0.12169386394261936
0.31727449439334326 -0.23576979592731742
0.317151352866912 -0.34970224518176146
0.31701858929017285 -0.4633633364657198
0.3168786128249743 -0.5766615189363773
0.3167151328437804 -0.6894859004921865
0.3164996815891484 -0.8016668141888812
0.3161970772852105 -0.9128998631906571
0.31575835756219195 -1.0227184000411245
0.3151412032632047 -1.1304973052778229
0.31429001559878317 -1.2354632998710362
0.31317437553969446 -1.3366870788731178
0.3117433754919628 -1.4330936995428671
0.3099301870293337 -1.5233809376881082
0.30767151225915407 -1.6059668952634811
0.30494900254490553 -1.678961895499397
0.30185674462674966 -1.740205520339379
0.2986671570710241 -1.7873875457113468
0.2958566457162375 -1.8182239858575602
0.29447193368117347 -1.8310480539798264
0.2930872216461093 -1.8182239858575109
0.29027671029132246 -1.7873875457112474
0.2870871227355979 -1.7402055203392353
0.283994864817444 -1.6789618954992203
0.281272355103198 -1.6059668952632804
0.27901368033302026 -1.5233809376878893
0.2772004918703929 -1.4330936995426358
0.27576949182266364 -1.3366870788728802
0.2746538517635774 -1.2354632998707997
0.2738026640991578 -1.1304973052775948
0.27318550980017237 -1.0227184000409097
0.27274679007715497 -0.9128998631904593
0.2724441857732178 -0.8016668141887029
0.2722287345185863 -0.6894859004920297
0.27206525453739266 -0.5766615189362446
0.2719252780721943 -0.46336333646561045
0.27179251449545533 -0.34970224518167653
0.27166937296902416 -0.2357697959272561
0.2716086465303407 -0.12169386394258214
0.27172588360228717 -0.00782500856257514
0.34555111536600647 -0.007946713415986231
0.3456350181144527 -0.12173016108924278
0.34555517283061227 -0.23576023508186653
0.34538730616357405 -0.3496791839331633
0.34517830561204105 -0.46333762035688847
0.3449278844913488 -0.5766335724789952
0.3446127701568062 -0.6894541368964391
0.3441881210309264 -0.8016243689267885
0.3435788129623815 -0.9128378752568604
0.3426865175092618 -1.0226216318660921
0.3414073688311163 -1.1303451510934186
0.33966503906626544 -1.2352369876690592
0.33739745781288594 -1.336371771675123
0.3345120140325357 -1.4326657220581072
0.330876771104955 -1.5228121482658061
0.3263420609412101 -1.6052319654046991
0.32080670801971944 -1.6780558642192058
0.31430951695641984 -1.7391661462924615
0.3071304810950948 -1.7863114775603892
0.3000271614214669 -1.8173505844496398
0.2944719336811681 -1.8307292159616564
0.28891670594086905 -1.8173505844495905
0.28181338626724156 -1.78631147756029
0.27463435040591866 -1.7391661462923185
0.2681371593426226 -1.6780558642190297
0.2626018064211362 -1.605231965404499
0.25806709625739466 -1.5228121482655876
0.2544318533298174 -1.4326657220578767
0.2515464095494709 -1.3363717716748862
0.2492788282960954 -1.235236987668823
0.24753649853124823 -1.130345151093191
0.24625734985310596 -1.0226216318658778
0.24536505439998846 -0.9128378752566628
0.24475574633144492 -0.8016243689266103
0.2443310972055659 -0.6894541368962822
0.24401598287102375 -0.5766335724788626
0.24376556175033182 -0.4633376203567791
0.24355656119879912 -0.3496791839330784
0.24338869453176107 -0.2357602350818052
0.2433088492479207 -0.12173016108920556
0.24339275199636684 -0.00794671341597359
0.37388053005365546 -0.008037629947093582
0.3739346793350967 -0.12176156448849976
0.3738359497407952 -0.23574795735189022
0.3736259823183762 -0.3496504346886928
0.37334415067073523 -0.4633020937650753
0.3729869944649491 -0.5765913097599401
0.37252594770228625 -0.6894030126279758
0.3718914982407338 -0.801552804339727
0.37095121513866136 -0.9127206962672154
0.3695550923585682 -1.0224239861354996
0.36757162941568206 -1.130037491148326
0.3649106821258481 -1.2347963459371698
0.3614730655442799 -1.3357737779756838
0.3571140940248824 -1.431872573542186
0.3516281261685803 -1.5217757768494775
0.34477849097108465 -1.6039047251651062
0.3363730831043333 -1.6764138379773814
0.3263924885849681 -1.7372400344926822
0.31520054966417443 -1.7842435437692934
0.30384810285583297 -1.8154631476832424
0.2944719336811627 -1.8296371528298465
0.28509576450649277 -1.815463147683193
0.27374331769815236 -1.7842435437691944
0.26255137877736173 -1.7372400344925398
0.25257078425800145 -1.6764138379772064
0.24416537639125574 -1.6039047251649072
0.237315741193765 -1.5217757768492601
0.23182977333746785 -1.4318725735419562
0.22747080181807577 -1.335773777975448
0.224033185236513 -1.2347963459369347
0.22137223794668423 -1.1300374911480993
0.2193887750038027 -1.022423986135286
0.21799265222371284 -0.9127206962670182
0.21705236912164247 -0.8015528043395488
0.21641791966009127 -0.6894030126278191
0.21595687289742913 -0.5765913097598074
0.21559971669164346 -0.46330209376496606
0.21531788504400282 -0.3496504346886078
0.215107917621584 -0.2357479573518289
0.21500918802728256 -0.12176156448846251
0.21506333730872373 -0.008037629947080845
0.4022125680920194 -0.008102294491631227
0.402239826713749 -0.12178697023990072
0.40212186822770435 -0.23573272753757685
0.4018719221753175 -0.34961636719867384
0.4015204969193669 -0.463257530026872
0.4010622247665868 -0.5765356800961053
0.4004587683863862 -0.6893330720418077
0.3995964371425119 -0.8014420776281426
0.39829009646804775 -0.9125266744341466
0.3963536160495041 -1.022101897637092
0.39364684954025836 -1.1295547855967654
0.3900557873992856 -1.2341247418527335
0.385434391814682 -1.3348765901561779
0.3795798968320814 -1.4306965744263334
0.37221497265723696 -1.5202527182639693
0.3630168814921963 -1.6019637320936215
0.35169611058962635 -1.674009588523478
0.3381896615902539 -1.7344054304304346
0.3229710475688988 -1.7811692561949222
0.3074499828381773 -1.812593074969101
0.29447193368115754 -1.8278042325875474
0.28149388452413826 -1.8125930749690522
0.2659728197934189 -1.7811692561948238
0.25075420577206775 -1.7344054304302936
0.23724775677270143 -1.6740095885233044
0.22592698587013818 -1.601963732093424
0.21672889470510398 -1.520252718263753
0.20936397053026604 -1.4306965744261049
0.20350947554767235 -1.3348765901559434
0.19888807996307564 -1.2341247418524999
0.19529701782210948 -1.1295547855965398
0.19259025131286953 -1.0221018976368794
0.1906537708943304 -0.9125266744339499
0.18934743021986924 -0.8014420776279645
0.18848509897599683 -0.6893330720416512
0.1878816425957971 -0.5765356800959728
0.18742337044301755 -0.46325753002676273
0.18707194518706732 -0.3496163671985889
0.18682199913468073 -0.2357327275375155
0.1867040406486361 -0.12178697023986348
0.18673129927036572 -0.008102294491618409
0.43055197872269035 -0.008145029940473584
0.4305553476339986 -0.1218057400897049
0.4304179317641994 -0.2357142457869164
0.43012977950504055 -0.3495773731710269
0.42971210886637856 -0.4632045638947916
0.4291585221334934 -0.5764685383690417
0.4284068248967857 -0.689239126852502
0.42729317951777757 -0.8012803515209412
0.425587220782767 -0.9122393554487689
0.42309181387653444 -1.0216428789681633
0.419659059695429 -1.128888927109548
0.41512988077081936 -1.2332133583271758
0.4093102256950707 -1.3336701969961424
0.40193813643064746 -1.429126368975713
0.3926703260961439 -1.5182314571044602
0.381098268083976 -1.5993968934889036
0.36685091508572254 -1.6708325314946728
0.34982570374108085 -1.7306548738796754
0.3306037226255604 -1.777090898285429
0.31098412717927876 -1.8087637656516733
0.29447193368115254 -1.8252495098096995
0.27795974018302705 -1.8087637656516244
0.25834014473674816 -1.7770908982853313
0.23911816362123273 -1.7306548738795358
0.22209295227659825 -1.6708325314945007
0.2078455992783528 -1.5993968934887077
0.19627354126619262 -1.5182314571042455
0.18700573093169715 -1.4291263689754865
0.17963364166728235 -1.3336701969959097
0.1738139865915421 -1.233213358326944
0.16928480766694035 -1.1288889271093239
0.16585205348584192 -1.0216428789679524
0.16335664657961482 -0.9122393554485732
0.16165068784460834 -0.8012803515207639
0.16053704246560274 -0.6892391268523457
0.15978534522889626 -0.5764685383689092
0.15923175849601168 -0.4632045638946824
0.15881408785735013 -0.349577373170942
0.15852593559819153 -0.23571424578685504
0.15838851972839246 -0.12180574008966766
0.15839188863970072 -0.00814502994046072
0.45890227922792765 -0.008170107216065845
0.45888536780862116 -0.12181766396320612
0.4587290662117711 -0.23569228775641407
0.45840423855197304 -0.349533740659929
0.4579234755232211 -0.46314417783401074
0.4572767590707841 -0.5763890688689051
0.45636613245117524 -0.689115664590903
0.45497244313352775 -0.8010542969558958
0.4528449959799339 -0.91184833069176
0.4497926253549569 -1.021042331807305
0.4456294687986899 -1.1280349129693321
0.44015578013806195 -1.232056443450455
0.4331260362080195 -1.3321473417225538
0.4242173874524794 -1.427153165890215
0.413019131002783 -1.5157028662055552
0.39906599450779057 -1.5962002081951066
0.3819155123143365 -1.6668847969212317
0.36142247057255233 -1.7259942114763083
0.33826224516206566 -1.7720173760654032
0.3145680738870585 -1.8039780535786256
0.29447193368114755 -1.8219642126313065
0.2743757934752378 -1.8039780535785772
0.2506816222002341 -1.7720173760653066
0.2275213967897536 -1.7259942114761702
0.20702835504797756 -1.6668847969210618
0.18987787285453261 -1.5962002081949125
0.17592473635954944 -1.5157028662053424
0.16472647990986253 -1.4271531658899905
0.1558178311543323 -1.3321473417223235
0.1487880872242997 -1.2320564434502252
0.14331439856368097 -1.12803491296911
0.13915124200742218 -1.0210423318070954
0.13609887138245158 -0.9118483306915653
0.13397142422886268 -0.8010542969557193
0.1325777349112184 -0.689115664590747
0.13166710829161138 -0.5763890688687727
0.13102039183917494 -0.4631441778339016
0.13053962881042352 -0.3495337406598441
0.13021480115062567 -0.23569228775635276
0.13005849955377582 -0.12181766396316887
0.13004158813446934 -0.008170107216052947
0.48726574238931614 -0.0081818623766022
0.4872332552502092 -0.12182293410919233
0.48706011492674967 -0.23566682758957808
0.48670031754615245 -0.3494856382970085
0.48615841631613027 -0.46307745135282286
0.4854173784948386 -0.5762954010146463
0.4843276631051253 -0.6889530395693882
0.48262680914731537 -0.8007526847178635
0.48008166501237093 -0.9113510867000582
0.4764718179778408 -1.0202972363569223
0.47157712226947246 -1.126989266984677
0.465155172613507 -1.2306499337165795
0.45690527038485595 -1.330302367995901
0.4464420228680227 -1.4247692597364812
0.4332964577207633 -1.5126607399466871
0.4169537062830757 -1.5923743219300701
0.396951863202414 -1.662180456801778
0.373112044430523 -1.7204456783120625
0.3461141005581973 -1.765958675145216
0.3183140875324717 -1.7982165840329216
0.2944719336811427 -1.817912722743578
0.2706297798298149 -1.7982165840328739
0.24282976680409357 -1.7659586751451206
0.2158318229317751 -1.7204456783119262
0.1919920041598936 -1.66218045680161
0.17199016107924212 -1.5923743219298783
0.15564740964156504 -1.512660739946477
0.14250184449431655 -1.4247692597362587
0.1320385969774945 -1.3303023679956731
0.12378869474885493 -1.2306499337163521
0.11736674509290006 -1.1269892669844572
0.1124720493845409 -1.0202972363567144
0.10886220235001819 -0.9113510866998649
0.10631705821507952 -0.800752684717688
0.10461620425727358 -0.6889530395692328
0.1035264888675625 -0.5762954010145142
0.10278545104627171 -0.4630774513527138
0.10224354981624995 -0.34948563829692364
0.10188375243565308 -0.23566682758951676
0.1017106121121937 -0.12182293410915507
0.10167812497308684 -0.008181862376589287
0.5156431134189408 -0.008184751434017364
0.5156015457378773 -0.12182220203441912
0.5154161543496032 -0.23563811724032113
0.5150231631273408 -0.3494332440640903
0.5144206020637508 -0.46300459763330426
0.513577676622279 -0.5761836511343282
0.5122806225143106 -0.688740852295492
0.5102709727212161 -0.8003734456561763
0.5073085958018503 -0.9107456657129586
0.5031438378959044 -1.0194056834826453
0.4975194791752213 -1.125750169959269
0.49014681980674735 -1.2289906630705385
0.48067048953894936 -1.3281308621927104
0.4686418546425017 -1.4219690751701526
0.4535296774162609 -1.509098931602917
0.4347967736560721 -1.5879219391223731
0.41200661397381527 -1.6567457172414628
0.3850041841482543 -1.7140500084608645
0.3543356260900069 -1.758928400616614
0.32237105972174596 -1.7914371035971086
0.2944719336811378 -1.8130249153245108
0.2665728076405308 -1.7914371035970615
0.2346082412722749 -1.75892840061652
0.20393968321403597 -1.7140500084607302
0.17693725338848568 -1.6567457172412976
0.1541470937062405 -1.587921939122184
0.13541418994606352 -1.5090989316027097
0.12030201271983494 -1.421969075169933
0.10827337782339999 -1.3281308621924857
0.09879704755561503 -1.228990663070314
0.09142438818715284 -1.1257501699590517
0.08580002946647987 -1.0194056834824397
0.08163527156054246 -0.9107456657127668
0.07867289464118309 -0.800373445656002
0.07666324484809325 -0.6887408522953372
0.0753661907401277 -0.5761836511341965
0.07452326529865701 -0.4630045976331952
0.07392070423506755 -0.34943324406400544
0.07352771301280549 -0.23563811724025988
0.07334232162453153 -0.12182220203438188
0.0733007539434682 -0.00818475143400445
0.5440329380382846 -0.008183328535201739
0.5439918782913407 -0.12181676262998406
0.5438029336631283 -0.23560685193261233
0.5433784958793938 -0.3493765266424266
0.5427116528977427 -0.46292483287874714
0.5417480938596639 -0.5760450489053885
0.5402294944714647 -0.6884736169848013
0.5379120416095502 -0.7999154253952495
0.534536547025785 -0.9100309740440078
0.5298223813657063 -1.0183671682758422
0.5234726059475205 -1.1243163612594294
0.5151507364093842 -1.2270767691732192
0.5044426604528185 -1.3256293081670656
0.49083719734877623 -1.41874805084298
0.47375936217277537 -1.5050152560574808
0.4526452326324784 -1.5828462721491485
0.427103740143126 -1.650603484539335
0.3971083935305907 -1.7068740875531394
0.36316260630977426 -1.7509683891174672
0.32699580782229676 -1.7835677127268206
0.2944719336811326 -1.8071706686407607
0.26194805953996986 -1.7835677127267746
0.2257812610524981 -1.7509683891173753
0.19183547383169158 -1.7068740875530073
0.16184012721916827 -1.6506034845391726
0.136298634729829 -1.5828462721489622
0.11518450518954522 -1.5050152560572763
0.09810667001355804 -1.4187480508427635
0.08450120690953 -1.325629308166844
0.0737931309529787 -1.2270767691729978
0.06547126141485542 -1.1243163612592149
0.059121485996680836 -1.0183671682756386
0.05440732033661122 -0.9100309740438178
0.05103182575285335 -0.7999154253950765
0.04871437289094419 -0.6884736169846474
0.04719577350274826 -0.5760450489052571
0.04623221446467096 -0.46292483287863817
0.04556537148302045 -0.3493765266423417
0.04514093369928633 -0.23560685193255107
0.04495198907107416 -0.1218167626299468
0.04491092932413025 -0.008183328535188819
0.5724302121737221 -0.008182084308876297
0.5724050117078396 -0.12180904701625052
0.5722277911403184 -0.23557424054462717
0.571772714991788 -0.3493152890405085
0.5710301641624035 -0.4628341772667837
0.5699241178886498 -0.5758741976399071
0.5681801521782992 -0.6881494563615984
0.5655573390497748 -0.7993779310041709
0.5617758844909312 -0.9092073109681328
0.5565203454553244 -1.0171821204609481
0.5494533431266789 -1.1226880584544074
0.5401846623669381 -1.2249063440665653
0.5282386067882235 -1.3227944619730387
0.5130595307753094 -1.4151052853072066
0.494024696105071 -1.5004109717782257
0.4705511910139143 -1.5771515383955774
0.44228933850467517 -1.6437659035600463
0.4093582267114092 -1.6989688485843608
0.3725289273767432 -1.742234401070878
0.3330791979583112 -1.7745480920051904
0.2944719336811272 -1.8000000000000005
0.2558646694039446 -1.774548092005145
0.21641493998551897 -1.742234401070788
0.1795856406508648 -1.6989688485842314
0.14665452885761238 -1.6437659035598873
0.11839267634838782 -1.5771515383953942
0.09491917125724586 -1.5004109717780245
0.0758843365870227 -1.4151052853069934
0.060705260574124315 -1.3227944619728207
0.04875920499542539 -1.224906344066347
0.03949052423569903 -1.122688058454196
0.03242352190706566 -1.0171821204607472
0.0271679828714688 -0.9092073109679448
0.023386528312633267 -0.7993779310039995
0.02076371518411472 -0.6881494563614455
0.019019749473767927 -0.5758741976397762
0.017913703200016083 -0.46283417726667486
0.01717115237063228 -0.3493152890404237
0.016716076222102198 -0.2355742405445659
0.016538855654581054 -0.12180904701621327
0.01651365518869875 -0.008182084308863385
SCALARS Stress float 6
LOOKUP_TABLE default
-942.0004288883574 -1717.3644926685784 -1249.6664230218635 -3.811452994276329 0.0 0.0
1135.907848822646 656.5390463932399 787.6591016748431 -24.664238846564555 0.0 0.0
492.7874537029263 68.69413860593437 168.22007344127874 -33.66912213415766 0.0 0.0
434.8218528565507 15.091611421793306 134.68732390016052 -4.093215316893086 0.0 0.0
533.5801826168091 40.51324068406878 181.81344411326782 -0.9469225583606495 0.0 0.0
606.0910971547144 68.67670676725348 253.84408716755541 -0.23727617460092487 0.0 0.0
693.2872701671686 86.73181943815521 332.79714578952735 -0.8051396032205143 0.0 0.0
777.2713959955626 121.753661400971 415.5584596438165 -1.353396475106887 0.0 0.0
865.2030777693844 167.48322714391728 496.16021428319584 -2.007622633883275 0.0 0.0
964.5842011688106 228.7667199495953 582.7522506975572 -2.8403346217633425 0.0 0.0
1079.4131877251286 307.95730603310744 682.0646415045068 -3.778674915245754 0.0 0.0
1208.9164910618208 404.6173205402595 795.6624202900504 -4.749672240148249 0.0 0.0
1349.328499853148 512.2313009860993 919.324194111235 -5.357903348346493 0.0 0.0
1496.568761331096 626.8436544365295 1049.65232287957 -5.877492712233719 0.0 0.0
1643.1927384473963 741.2857556963488 1179.4852588067001 -6.308079707632767 0.0 0.0
1781.4710252048853 848.5519941987677 1301.5755486621774 -6.642588219744457 0.0 0.0
1904.8963941860047 943.4301688843104 1410.1776812553467 -6.686378837976194 0.0 0.0
2006.9631666698774 1020.7888972905718 1499.5747727446083 -6.180503179728737 0.0 0.0
2083.192115414262 1077.4189204543127 1565.8846494226261 -5.038983472071864 0.0 0.0
2125.049668989468 1106.201265742333 1601.255004941855 -4.235919262084969 0.0 0.0
2123.6424756136284 1101.5729028872981 1598.5614809613853 5.375966338760918e-11 0.0 0.0
2125.0496689894026 1106.2012657422877 1601.2550049418 4.235919262123625 0.0 0.0
2083.1921154132224 1077.4189204532877 1565.8846494218058 5.038983472051239 0.0 0.0
2006.9631666691275 1020.7888972898874 1499.5747727439523 6.180503179774076 0.0 0.0
1904.8963941846746 943.4301688830318 1410.1776812542105 6.686378837960055 0.0 0.0
1781.4710252044672 848.5519941984354 1301.575548661761 6.642588219779279 0.0 0.0
1643.192738446822 741.2857556958794 1179.485258806165 6.3080797076169794 0.0 0.0
1496.5687613306284 626.843654436174 1049.6523228791705 5.877492712197711 0.0 0.0
1349.328499852883 512.2313009860032 919.3241941109319 5.357903348409403 0.0 0.0
1208.916491060505 404.61732053909736 795.6624202890109 4.749672240085854 0.0 0.0
1079.4131877249865 307.95730603316514 682.064641504227 3.778674915190411 0.0 0.0
964.5842011680128 228.76671994899155 582.7522506969268 2.8403346217718894 0.0 0.0
865.203077769114 167.48322714388453 496.1602142828564 2.007622633847271 0.0 0.0
777.27139599506 121.75366140068195 415.5584596433629 1.3533964751734295 0.0 0.0
693.2872701672686 86.73181943857234 332.7971457894083 0.8051396032092946 0.0 0.0
606.0910971544178 68.67670676724535 253.84408716724764 0.23727617457438122 0.0 0.0
533.5801826163105 40.51324068374663 181.8134441129588 0.94692255845181 0.0 0.0
434.82185285632494 15.09161142178866 134.6873239000972 4.09321531679678 0.0 0.0
492.78745370269075 68.69413860597852 168.22007344121687 33.66912213409865 0.0 0.0
1135.9078488222717 656.5390463928151 787.6591016743199 24.664238846620876 0.0 0.0
-942.0004288858398 -1717.3644926661007 -1249.6664230194115 3.811452993545114 0.0 0.0
-1200.0890701673559 -1942.7637650006866 -1450.9882080105626 -1.6442529504130725 0.0 0.0
765.3392156796328 371.7598741428803 488.8200036023344 -39.40293932443925 0.0 0.0
339.35656333241474 27.238198781292702 109.51294623013655 -26.527234910461733 0.0 0.0
384.78919756287166 2.2556317547928035 116.17076375821463 -16.45472885859814 0.0 0.0
475.8106566548315 16.168456951244618 152.0557530563279 -14.973785493753795 0.0 0.0
557.2556497902741 21.28369308283742 207.12141484618897 -17.801169255850784 0.0 0.0
621.7571353533895 29.633240856267932 272.9624433027303 -20.05711377940644 0.0 0.0
687.9382852303407 44.51892032683398 337.7011760697129 -20.917826166448684 0.0 0.0
750.9560817250748 64.5285249835259 394.1787282516818 -21.020753323801245 0.0 0.0
816.2241962006765 91.93253465722879 447.7352749696787 -20.91092105924668 0.0 0.0
885.764635594957 126.55675279243455 502.8055323094032 -20.57761825429801 0.0 0.0
958.7080738040964 165.61741416444463 559.9158565325685 -20.19112510981853 0.0 0.0
1031.747993344681 207.32280861086335 617.556100995456 -19.60361954035123 0.0 0.0
1102.614788100244 245.77631404849717 672.1521922791537 -18.985938108169858 0.0 0.0
1164.6714851181066 275.9675270961553 718.1358751931457 -18.506117382407883 0.0 0.0
1212.85256158848 293.47325517394574 750.8327279879871 -17.975641754100327 0.0 0.0
1244.1649033579138 296.41743464550217 767.8705463169593 -17.05514186701389 0.0 0.0
1259.4318366778052 286.96631080248227 770.8057883393376 -15.35628843293812 0.0 0.0
1260.6871292074427 268.5491902870254 762.4179980136013 -12.77311532529618 0.0 0.0
1238.246517637686 232.9272211348031 733.9662131852033 -9.976074546390524 0.0 0.0
1195.7621043204106 187.2795266387897 690.8359237022806 4.0881964480377064e-11 0.0 0.0
1238.246517637477 232.92722113461144 733.9662131849974 9.976074546383032 0.0 0.0
1260.6871292073192 268.5491902869412 762.4179980135206 12.77311532530088 0.0 0.0
1259.431836677189 286.9663108019112 770.8057883388594 15.356288432975589 0.0 0.0
1244.1649033577773 296.41743464544396 767.8705463167672 17.055141867046522 0.0 0.0
1212.852561588589 293.47325517414583 750.8327279880157 17.97564175415612 0.0 0.0
1164.6714851177835 275.96752709592784 718.1358751928146 18.506117382410615 0.0 0.0
1102.6147881000206 245.77631404839082 672.1521922789979 18.98593810814978 0.0 0.0
1031.7479933444095 207.3228086107461 617.5561009952421 19.603619540415608 0.0 0.0
958.7080738038197 165.61741416433122 559.9158565323646 20.191125109722307 0.0 0.0
885.7646355947128 126.55675279236888 502.8055323091705 20.577618254269133 0.0 0.0
816.2241962006614 91.93253465743598 447.73527496960355 20.91092105923517 0.0 0.0
750.9560817249306 64.5285249835967 394.1787282514796 21.02075332376902 0.0 0.0
687.9382852298996 44.518920326621604 337.7011760693259 20.917826166444 0.0 0.0
621.7571353531863 29.633240856316874 272.962443302461 20.057113779328837 0.0 0.0
557.2556497900562 21.28369308291169 207.12141484597404 17.801169255705577 0.0 0.0
475.8106566543305 16.16845695100002 152.0557530560811 14.973785493774875 0.0 0.0
384.7891975626437 2.2556317548040066 116.17076375815859 16.454728858518045 0.0 0.0
339.3565633323331 27.23819878127577 109.51294623011093 26.527234910441162 0.0 0.0
765.3392156791434 371.75987414246816 488.82000360178955 39.40293932448457 0.0 0.0
-1200.0890701656206 -1942.7637649988485 -1450.9882080086493 1.6442529498181777 0.0 0.0
-976.186190837215 -1684.5678899754662 -1198.8719545108024 -41.89820926457672 0.0 0.0
567.497935390059 277.0080529176242 352.2172903424316 -102.33333207075215 0.0 0.0
246.25864686448034 37.151658838600746 85.02302604644744 -26.61898664609257 0.0 0.0
328.7797724856232 -1.5124492832725576 98.18764519130428 -35.93919221245615 0.0 0.0
427.55223835586 11.084823598508247 132.5653352950415 -36.68323696781292 0.0 0.0
526.008737878761 17.979085220299567 183.0504099068801 -35.45092008193878 0.0 0.0
593.5660126798638 28.55256158070695 249.4231614527818 -38.11147194293249 0.0 0.0
662.0929890146656 38.94451565613579 314.47856080105294 -39.68893894887935 0.0 0.0
724.4179581229721 56.8491044808382 372.4225219522666 -40.14198971837063 0.0 0.0
787.1579766160608 80.7395270902058 424.9324124520702 -40.05589879007697 0.0 0.0
852.750610898827 111.413106765322 477.19761985201353 -39.53061543955931 0.0 0.0
920.9255260089375 147.269016371605 530.9264395701922 -38.53818072541017 0.0 0.0
990.8870490270065 184.3853591353838 585.0349913702141 -37.38383654902313 0.0 0.0
1057.0333571355486 219.718367610541 635.8541913306422 -36.220553744177195 0.0 0.0
1115.7613530404617 246.88691096170496 678.693035828319 -35.23913535458947 0.0 0.0
1161.648894027342 262.39922329038245 709.2511011877828 -34.15314737542249 0.0 0.0
1193.051553008175 265.5932533085666 726.4808763138144 -32.352578211164875 0.0 0.0
1209.3610289831827 257.1448489755008 730.5084301051146 -29.28003609101067 0.0 0.0
1208.0287028614403 235.91186738760302 719.5543881501792 -24.792534588222882 0.0 0.0
1193.1090977949161 207.69342377151597 698.3734986592777 -18.7424590794082 0.0 0.0
1138.16635105174 149.75549325509692 643.2005158708386 4.7202242114963155e-11 0.0 0.0
1193.1090977944743 207.69342377108944 698.3734986589133 18.742459079434887 0.0 0.0
1208.0287028615946 235.9118673877917 719.5543881502972 24.792534588282514 0.0 0.0
1209.361028982882 257.1448489752581 730.5084301048672 29.280036091072343 0.0 0.0
1193.051553008029 265.59325330849 726.4808763136132 32.352578211245074 0.0 0.0
1161.6488940275106 262.39922329063097 709.2511011878358 34.15314737544453 0.0 0.0
1115.761353040017 246.8869109613525 678.6930358279127 35.23913535459142 0.0 0.0
1057.0333571354242 219.71836761053981 635.8541913305291 36.220553744179796 0.0 0.0
990.8870490266721 184.38535913521372 585.034991369876 37.38383654908277 0.0 0.0
920.9255260092102 147.26901637205552 530.9264395703867 38.53818072538596 0.0 0.0
852.7506108980501 111.41310676471281 477.1976198514549 39.530615439581645 0.0 0.0
787.1579766161628 80.73952709051036 424.93241245206633 40.055898790058045 0.0 0.0
724.4179581226869 56.849104480765035 372.4225219519796 40.14198971832267 0.0 0.0
662.0929890140683 38.9445156557386 314.478560800556 39.68893894878 0.0 0.0
593.5660126794909 28.552561580599036 249.42316145242225 38.11147194285989 0.0 0.0
526.0087378784217 17.97908522021177 183.0504099066216 35.45092008185428 0.0 0.0
427.5522383555063 11.084823598361792 132.56533529488647 36.68323696776558 0.0 0.0
328.77977248553543 -1.512449283271244 98.18764519128086 35.93919221238316 0.0 0.0
246.25864686441247 37.15165883841734 85.0230260463721 26.618986646031786 0.0 0.0
567.4979353896076 277.00805291740585 352.21729034199063 102.33333207065128 0.0 0.0
-976.1861908355576 -1684.5678899736756 -1198.8719545089496 41.89820926430752 0.0 0.0
-783.5351988711147 -1460.2106839258897 -980.4135114392401 -56.62138049732056 0.0 0.0
420.88219157525265 183.19410172603776 245.16415278928693 -142.07832643343593 0.0 0.0
182.44195906381316 40.24873142094436 66.80720714542724 -48.7970799206312 0.0 0.0
274.68118572768265 3.3227471274137286 83.40633668811387 -53.97111156890377 0.0 0.0
375.06005133100115 3.9457240061710186 112.82004529850988 -60.058641252104124 0.0 0.0
478.99831412795936 14.020260026174434 157.53294881419808 -55.410329207734286 0.0 0.0
565.2622457903353 24.082497100665705 221.61727933169368 -57.760357167918485 0.0 0.0
630.9809807479547 33.724409526994776 287.2336865490478 -58.83475050204492 0.0 0.0
693.7966588005285 49.13481501321952 346.9362026768148 -59.11789275876608 0.0 0.0
754.3302216739066 69.86805954712798 399.31534953374813 -58.81971186262368 0.0 0.0
815.7447562925607 96.56519192144155 449.0889786122492 -57.86148433460198 0.0 0.0
879.8866754511797 127.69465332811221 499.29106317863227 -56.36239194164151 0.0 0.0
945.1308641018583 162.02530203266622 550.1319023944312 -54.54540248123383 0.0 0.0
1007.9121722817008 192.3999751903032 596.9887997842467 -53.02014404452732 0.0 0.0
1062.7350434266828 216.57653899607539 636.4499731456532 -51.61434654830587 0.0 0.0
1107.2519178977614 231.5529469919989 666.0713785004496 -49.985232085221035 0.0 0.0
1139.212953386496 235.0814696319758 683.7706671839729 -47.523682690941236 0.0 0.0
1156.0024655465431 226.80015997936522 688.2041626379851 -43.430317256845406 0.0 0.0
1156.6836463946986 207.1061279679987 679.0538600891861 -37.08309417467369 0.0 0.0
1145.5517067130206 181.97323710435725 661.2157262542711 -27.003492987740927 0.0 0.0
1066.8060284833775 100.09330675783454 582.8886548145485 1.6898482613214583e-11 0.0 0.0
1145.551706712545 181.97323710391458 661.2157262539532 27.003492987819612 0.0 0.0
1156.6836463943916 207.10612796774717 679.0538600889224 37.08309417480376 0.0 0.0
1156.0024655463185 226.8001599791964 688.2041626378035 43.430317256968195 0.0 0.0
1139.2129533858297 235.08146963135934 683.7706671834333 47.52368269095879 0.0 0.0
1107.2519178977343 231.5529469920542 666.0713785003798 49.98523208523158 0.0 0.0
1062.735043425799 216.57653899526656 636.4499731449594 51.61434654827516 0.0 0.0
1007.9121722817283 192.39997519045184 596.9887997842462 53.02014404453449 0.0 0.0
945.1308641017456 162.02530203267025 550.131902394254 54.5454024811902 0.0 0.0
879.886675451107 127.69465332821926 499.2910631785614 56.3623919416105 0.0 0.0
815.7447562920045 96.56519192105016 449.0889786118356 57.86148433459825 0.0 0.0
754.330221673567 69.86805954699349 399.31534953344163 58.81971186260987 0.0 0.0
693.7966588003334 49.134815013253885 346.93620267659145 59.11789275872976 0.0 0.0
630.9809807473912 33.72440952666954 287.2336865485629 58.834750502020434 0.0 0.0
565.2622457899977 24.082497100609807 221.6172793313746 57.76035716786602 0.0 0.0
478.99831412755617 14.02026002610487 157.5329488139795 55.41032920768963 0.0 0.0
375.0600513306167 3.9457240060797627 112.82004529839054 60.058641252028615 0.0 0.0
274.681185727563 3.3227471273491243 83.40633668805751 53.97111156881284 0.0 0.0
182.44195906376183 40.248731420794094 66.80720714536676 48.79707992046227 0.0 0.0
420.88219157484434 183.19410172586035 245.1641527889183 142.0783264332811 0.0 0.0
-783.5351988696443 -1460.2106839242797 -980.4135114375772 56.62138049716962 0.0 0.0
-617.6913738542225 -1262.4200866977803 -789.6101046115535 -59.06672179110018 0.0 0.0
314.4636829965365 102.73095190318791 164.6901346621646 -169.89417882102995 0.0 0.0
134.92189480372375 36.46861267680075 51.41715224415734 -76.84586786450595 0.0 0.0
224.1490698787737 10.152038404952043 70.29094896747904 -73.64413241117435 0.0 0.0
314.8910194281669 3.9885373789338416 95.75045515747205 -81.02794870790791 0.0 0.0
426.80801533669944 3.1291003593898057 130.4528407178517 -81.88972708422877 0.0 0.0
523.4500941574696 17.624366289248584 189.14666550317114 -77.68498981628443 0.0 0.0
594.1146273709791 30.535265312459753 256.64229939677756 -77.9223527256932 0.0 0.0
657.712053725904 41.756582184143326 316.835993569135 -77.99311177682667 0.0 0.0
716.5312945341465 59.2089802440349 369.70823394419176 -77.17072115213335 0.0 0.0
774.7647907937998 81.58095171838761 417.80113861830546 -75.69680221099033 0.0 0.0
834.36847195932 108.20871392453127 464.79859866219084 -73.56939053204898 0.0 0.0
895.4847541220231 137.37013498787522 511.687112434299 -71.33395314218374 0.0 0.0
953.7154818334116 165.63140873728844 555.6039994125591 -69.336412356681 0.0 0.0
1005.6714857791068 186.43714355368934 592.0874012199182 -67.56713535907951 0.0 0.0
1048.3462080151605 199.00721701009678 619.6026646115796 -65.59258040881315 0.0 0.0
1080.9848501198815 203.90975405683383 638.3633254483392 -62.62287405921614 0.0 0.0
1100.21905012837 197.73552832282365 645.1170710859797 -57.759029375845756 0.0 0.0
1103.9888474036056 180.22730132786114 638.627534090494 -49.572568134759514 0.0 0.0
1094.0854303115811 154.85491777019595 621.2727258830945 -35.62107885427592 0.0 0.0
985.2654156543757 42.633651400383734 513.7824429085125 2.5544011350575602e-11 0.0 0.0
1094.0854303114238 154.854917770098 621.2727258830342 35.62107885441972 0.0 0.0
1103.9888474036702 180.2273013279869 638.6275340905408 49.57256813493439 0.0 0.0
1100.21905012776 197.73552832226278 645.1170710855665 57.75902937594564 0.0 0.0
1080.984850119425 203.9097540564449 638.363325447943 62.62287405925815 0.0 0.0
1048.3462080148438 199.00721700985883 619.6026646113645 65.59258040885335 0.0 0.0
1005.6714857784043 186.43714355306227 592.0874012193268 67.56713535906434 0.0 0.0
953.7154818332052 165.63140873720067 555.6039994123995 69.336412356687 0.0 0.0
895.484754121877 137.37013498784833 511.6871124341702 71.33395314215488 0.0 0.0
834.3684719592853 108.20871392470993 464.79859866214883 73.5693905321099 0.0 0.0
774.7647907937443 81.58095171852895 417.8011386182057 75.69680221104322 0.0 0.0
716.5312945339114 59.20898024401987 369.7082339439459 77.17072115210459 0.0 0.0
657.7120537257683 41.75658218423669 316.83599356894854 77.99311177680198 0.0 0.0
594.1146273706646 30.535265312439144 256.64229939645435 77.92235272566685 0.0 0.0
523.4500941569847 17.624366289036608 189.14666550279827 77.68498981620905 0.0 0.0
426.80801533634275 3.129100359474578 130.45284071773634 81.88972708418402 0.0 0.0
314.89101942796054 3.9885373789330805 95.75045515740845 81.02794870783956 0.0 0.0
224.14906987870768 10.15203840497749 70.2909489674667 73.64413241105773 0.0 0.0
134.92189480369532 36.46861267672971 51.41715224412753 76.84586786435577 0.0 0.0
314.4636829961058 102.73095190303233 164.69013466184703 169.8941788208937 0.0 0.0
-617.691373853015 -1262.420086696392 -789.6101046101193 59.06672179096755 0.0 0.0
-473.08093970977706 -1086.8424921608505 -622.9628554623379 -62.04655467893426 0.0 0.0
230.9553188992325 41.87612180025262 104.91945488288711 -183.1735163883265 0.0 0.0
97.28079512265208 28.366894161954722 37.69430678538204 -103.34593788063471 0.0 0.0
176.81232282547407 15.68234430569555 57.74840013935087 -94.03717396634211 0.0 0.0
259.52537757696115 3.9133854735021103 79.01085053359307 -101.36836775817848 0.0 0.0
357.202960293716 0.6314165899782935 106.99258253560039 -104.78164887573486 0.0 0.0
460.7007072361916 11.828964071328873 155.15746172487547 -100.0731285011211 0.0 0.0
551.3793546133147 22.279982668680415 218.6089979062757 -98.86852801641058 0.0 0.0
612.2428118668339 36.0283750975464 281.1947252749594 -95.97445546563266 0.0 0.0
672.8770717736812 48.50498024642853 334.646181358198 -95.24304999938005 0.0 0.0
728.1753305647934 66.65035790810553 381.9613466117725 -93.05647096667488 0.0 0.0
783.4470166620241 88.58505605824574 426.30630007916454 -90.2385515425578 0.0 0.0
839.9796533105028 113.59757495222618 469.9714727150651 -87.48215371766483 0.0 0.0
894.2221270939792 136.80549177567462 510.01047414728805 -85.22079139000755 0.0 0.0
942.9350184987262 155.5001252820302 544.1078012965601 -83.17342760453593 0.0 0.0
983.9859479184795 167.51170708274324 570.6495785381219 -80.75754047837482 0.0 0.0
1017.09590920369 171.44933771897885 589.1808387306829 -77.57480583062546 0.0 0.0
1039.6217645916656 168.3722019488324 599.1372697236628 -72.20078870485607 0.0 0.0
1048.0420227058198 154.7746779778738 596.97888816872 -62.457390570652095 0.0 0.0
1038.7252211184805 127.69458062667596 579.1222439482285 -45.08544839522534 0.0 0.0
892.9275234508194 -21.76673204598793 436.0372194910698 4.6194159608603513e-11 0.0 0.0
1038.725221118359 127.69458062660959 579.1222439481754 45.085448395325024 0.0 0.0
1048.0420227058953 154.77467797803547 596.9788881688241 62.45739057083152 0.0 0.0
1039.6217645913132 168.37220194855513 599.137269723397 72.20078870502229 0.0 0.0
1017.095909203763 171.44933771916112 589.1808387306265 77.57480583073604 0.0 0.0
983.9859479176263 167.51170708195454 570.6495785375485 80.75754047839942 0.0 0.0
942.9350184986126 155.5001252820537 544.1078012964165 83.17342760462907 0.0 0.0
894.2221270935389 136.80549177534047 510.0104741469486 85.22079139002584 0.0 0.0
839.9796533104702 113.59757495234973 469.97147271500694 87.48215371769395 0.0 0.0
783.4470166619675 88.58505605836865 426.30630007909224 90.23855154260656 0.0 0.0
728.175330564722 66.65035790824427 381.96134661163114 93.05647096668811 0.0 0.0
672.8770717735789 48.50498024656182 334.646181358049 95.24304999937418 0.0 0.0
612.2428118665605 36.02837509753953 281.19472527468065 95.97445546564589 0.0 0.0
551.3793546129 22.279982668566518 218.608997905919 98.86852801638994 0.0 0.0
460.7007072359943 11.828964071513596 155.1574617247382 100.07312850104135 0.0 0.0
357.2029602934524 0.6314165902900197 106.99258253563056 104.78164887559623 0.0 0.0
259.5253775768112 3.913385473531454 79.01085053355565 101.368367758034 0.0 0.0
176.81232282542692 15.682344305768327 57.748400139358544 94.03717396620469 0.0 0.0
97.28079512268174 28.366894162023584 37.694306785411584 103.34593788045827 0.0 0.0
230.95531889887235 41.876121800111676 104.91945488264068 183.17351638818843 0.0 0.0
-473.080939708706 -1086.8424921595652 -622.962855461089 62.0465546788867 0.0 0.0
-350.97609602372484 -924.1510876186101 -479.3884507068952 -66.07191147362335 0.0 0.0
165.96416815310337 -6.884194956839245 60.34643140580578 -189.62298690342288 0.0 0.0
65.78497657919323 19.224464437603164 25.50283230503891 -125.46015769298491 0.0 0.0
132.19029025552462 19.06380493713809 45.3762285577988 -113.5158083757874 0.0 0.0
204.0001988522776 6.3171164804141595 63.10228783735464 -119.1564270372214 0.0 0.0
284.2006033241409 -1.4179977844459075 84.40036193858059 -126.23245379633735 0.0 0.0
389.8604965157434 1.4347302596803955 120.03215747462305 -127.3403785123551 0.0 0.0
481.821075540134 16.539720083222985 175.85080131720417 -119.15342311863434 0.0 0.0
562.0864688198952 24.64156748675471 236.02380060108067 -117.51977202947278 0.0 0.0
618.3416627204824 38.780919635897455 291.9123725429484 -112.31769123696334 0.0 0.0
674.1382981746507 51.68168956728209 339.21503499125055 -109.9046555526815 0.0 0.0
725.632275392831 68.62820274490176 381.82637621533695 -106.50283965924694 0.0 0.0
777.5724539633304 88.956123995381 422.7179572144278 -103.24214946986527 0.0 0.0
827.3157130922968 108.38024868343896 459.82461809586346 -100.62286430506758 0.0 0.0
872.6054332890233 124.11374553262368 491.41161409281847 -98.25234206453433 0.0 0.0
912.1881124165993 133.4261231739235 516.0622375112323 -95.96954232857625 0.0 0.0
945.0876950569385 139.53139290192487 535.6989304062415 -92.20702727759225 0.0 0.0
971.9475583680294 139.14612832637098 549.1597526628747 -86.52095898173289 0.0 0.0
986.5442693584641 129.3578516903011 552.018402235203 -76.01823738819202 0.0 0.0
978.8739887917799 101.42553602054372 534.7277259630513 -55.951003181438544 0.0 0.0
787.6913436801227 -93.38555699108828 348.5638838268671 1.0747669421107275e-10 0.0 0.0
978.8739887917172 101.42553602053913 534.7277259629884 55.95100318157523 0.0 0.0
986.5442693588454 129.35785169085523 552.018402235487 76.01823738849633 0.0 0.0
971.947558367935 139.1461283263448 549.1597526627776 86.5209589819302 0.0 0.0
945.0876950571334 139.53139290217405 535.6989304062895 92.20702727764221 0.0 0.0
912.1881124161491 133.42612317355855 516.0622375109724 95.96954232853864 0.0 0.0
872.6054332886541 124.11374553236851 491.41161409253897 98.25234206461246 0.0 0.0
827.3157130919907 108.3802486832794 459.824618095608 100.6228643051057 0.0 0.0
777.5724539629035 88.95612399511 422.71795721409245 103.24214946996412 0.0 0.0
725.6322753929605 68.62820274522828 381.82637621539675 106.50283965925667 0.0 0.0
674.1382981743303 51.68168956715562 339.2150349909409 109.90465555270004 0.0 0.0
618.3416627205212 38.78091963623268 291.9123725429059 112.3176912369723 0.0 0.0
562.086468819599 24.641567486760465 236.02380060079102 117.51977202946632 0.0 0.0
481.8210755398171 16.539720083326966 175.8508013169803 119.15342311864643 0.0 0.0
389.86049651544135 1.434730259860236 120.03215747454041 127.34037851232148 0.0 0.0
284.2006033238096 -1.4179977845454927 84.40036193845712 126.23245379615325 0.0 0.0
204.00019885212586 6.317116480434611 63.10228783731537 119.1564270371003 0.0 0.0
132.1902902554826 19.063804937147186 45.376228557788934 113.51580837566195 0.0 0.0
65.78497657923283 19.22446443774862 25.502832305094433 125.46015769281072 0.0 0.0
165.96416815272434 -6.884194957065333 60.34643140556196 189.622986903227 0.0 0.0
-350.97609602288696 -924.151087617484 -479.38845070588127 66.07191147362403 0.0 0.0
-242.72357420602404 -788.7931885252754 -356.43927748456156 -81.55021726923736 0.0 0.0
108.9416228738649 -42.26647695740538 25.6307419966887 -186.80017469297064 0.0 0.0
38.33222024929831 11.48555709863373 14.945363980030361 -142.76104324994793 0.0 0.0
89.6488838052864 20.472041468344734 33.036277582089326 -130.66374031506908 0.0 0.0
148.47981665991628 9.036859963256445 47.25518897974702 -134.66138876181117 0.0 0.0
211.99541683507618 -0.2998427538187124 63.37291089249539 -143.43412546162904 0.0 0.0
298.9323450883689 -1.9901203345811294 88.44890037782228 -150.86020045348545 0.0 0.0
394.6337161515452 4.872786119955389 128.6203469120427 -143.64372020747817 0.0 0.0
482.1534527512842 16.966535048093114 182.68670078935276 -136.16489237979778 0.0 0.0
552.570451438812 24.121155876648185 235.99536958813897 -132.3294615290758 0.0 0.0
606.7961091918196 35.831525914559734 284.4821171079155 -126.20517020113103 0.0 0.0
655.8969221124656 48.64262653657575 326.8573865549706 -121.94865725213462 0.0 0.0
704.4573813666436 64.13362596630364 366.27546939532346 -118.48357195394223 0.0 0.0
749.4109782882031 78.98314732862485 400.9588450371283 -115.52143884699288 0.0 0.0
791.417079915903 91.1478018282622 430.5517641757993 -112.98283174562735 0.0 0.0
828.6994076696119 100.0847209288458 454.63104752989653 -110.57801649666555 0.0 0.0
861.9181118639067 104.54992730742242 473.9753310771857 -106.99882192442399 0.0 0.0
891.9230555816165 107.45470081075884 490.6807674747113 -100.69394180682858 0.0 0.0
914.9736866838019 105.4750425474138 501.7527593018156 -89.87279751345339 0.0 0.0
912.52203805884 78.6570936162593 487.98052369079187 -68.88014819077547 0.0 0.0
663.8133222569036 -172.6150355846386 248.5467677401397 1.0206235856458079e-10 0.0 0.0
912.5220380587888 78.65709361630755 487.98052369077874 68.88014819096452 0.0 0.0
914.9736866841257 105.47504254790658 501.7527593020416 89.87279751381328 0.0 0.0
891.9230555812622 107.45470081042836 490.6807674745094 100.69394180694935 0.0 0.0
861.9181118630795 104.54992730665222 473.9753310765401 106.99882192448719 0.0 0.0
828.699407669707 100.08472092902974 454.63104752996924 110.57801649667704 0.0 0.0
791.4170799155957 91.14780182812672 430.55176417558545 112.98283174567848 0.0 0.0
749.4109782883734 78.98314732897245 400.95884503719515 115.52143884712737 0.0 0.0
704.4573813663569 64.1336259661677 366.2754693950717 118.48357195398762 0.0 0.0
655.8969221124191 48.64262653667423 326.8573865549054 121.94865725213113 0.0 0.0
606.7961091910058 35.83152591380927 284.48211710728765 126.20517020106254 0.0 0.0
552.5704514385277 24.121155876593303 235.99536958789088 132.32946152902244 0.0 0.0
482.15345275079494 16.966535047839276 182.68670078899012 136.16489237977353 0.0 0.0
394.6337161512744 4.872786120139074 128.6203469119353 143.6437202075297 0.0 0.0
298.932345087865 -1.9901203347211358 88.44890037763574 150.86020045334786 0.0 0.0
211.99541683471023 -0.2998427540381088 63.372910892333266 143.43412546140007 0.0 0.0
148.4798166599257 9.036859963478463 47.25518897981339 134.661388761694 0.0 0.0
89.64888380523062 20.472041468317684 33.03627758206449 130.6637403149144 0.0 0.0
38.33222024932172 11.485557098811281 14.945363980090567 142.76104324974804 0.0 0.0
108.94162287353507 -42.26647695756327 25.630741996508643 186.80017469275762 0.0 0.0
-242.72357420536022 -788.7931885242817 -356.4392774837922 81.55021726932424 0.0 0.0
-171.30847890674278 -654.9774169518798 -266.95240059777916 -93.125055640388 0.0 0.0
59.83270065479054 -68.32999056225161 -0.1154875316909143 -177.91836770156675 0.0 0.0
12.766140125557365 5.737907746458495 5.552681747740286 -155.4130171276034 0.0 0.0
48.95556482015854 20.454903268392545 20.823501887446145 -144.60355234087442 0.0 0.0
93.13566406011786 11.452845746403254 31.375635465452326 -147.1980464317907 0.0 0.0
139.43859543495515 2.480806633495105 42.606195027036264 -156.0756811746608 0.0 0.0
199.54399970724623 -1.8197150290851518 58.794528266155154 -169.2730840735085 0.0 0.0
282.59012484366764 -4.434146896822062 83.06643808755683 -173.28222221511854 0.0 0.0
370.9200723949041 -0.014427659828500694 119.29613511782787 -162.11575915081576 0.0 0.0
448.6370387202434 8.64594728522303 163.81958132690107 -150.61606828186586 0.0 0.0
510.6769009769252 18.66115783964343 209.7669972828086 -141.51217782029332 0.0 0.0
562.299550416429 26.333720811156223 250.32376390437398 -136.09075409650666 0.0 0.0
608.9563005488064 38.45625900255025 289.55618391804717 -132.48428612951253 0.0 0.0
650.211380418043 48.75363881608408 323.5017037303055 -129.60763206866025 0.0 0.0
688.491505912408 57.56892682778815 352.67441529051376 -127.09375197960709 0.0 0.0
723.8676461431561 64.48719694460864 376.9279292703346 -124.94499487032827 0.0 0.0
757.7901858519591 70.20021250379199 398.60052803847975 -121.63172224330961 0.0 0.0
788.3598591834049 72.9505365580466 416.50012299062104 -114.92991195898286 0.0 0.0
820.5852189966602 76.58816045243748 435.2248041301534 -103.87596440883148 0.0 0.0
834.4880425056442 60.757319601729705 435.7713044179208 -84.82239149385951 0.0 0.0
513.1962979357331 -256.92907350459734 133.71533537708646 1.148521278082626e-10 0.0 0.0
834.4880425056646 60.75731960191424 435.7713044180037 84.82239149411402 0.0 0.0
820.5852189961996 76.58816045204765 435.22480412980775 103.87596440910416 0.0 0.0
788.3598591829418 72.9505365576191 416.5001229903121 114.92991195909755 0.0 0.0
757.7901858512212 70.20021250309424 398.60052803786783 121.63172224332433 0.0 0.0
723.8676461430488 64.48719694456125 376.92792927023595 124.94499487033966 0.0 0.0
688.491505912673 57.56892682831284 352.6744152906908 127.09375197972855 0.0 0.0
650.2113804176777 48.753638815751046 323.50170373003334 129.60763206872542 0.0 0.0
608.9563005487712 38.45625900262702 289.5561839179824 132.48428612955138 0.0 0.0
562.2995504161972 26.33372081112379 250.32376390415516 136.09075409651075 0.0 0.0
510.6769009763942 18.66115783917082 209.76699728236503 141.51217782018904 0.0 0.0
448.63703871992317 8.64594728524069 163.81958132668615 150.61606828182084 0.0 0.0
370.92007239433957 -0.014427660155650557 119.29613511751283 162.11575915085396 0.0 0.0
282.5901248432092 -4.434146896900537 83.06643808739503 173.28222221509336 0.0 0.0
199.5439997069537 -1.819715029169962 58.7945282660501 169.27308407328573 0.0 0.0
139.4385954349788 2.480806633860332 42.60619502715373 156.07568117446579 0.0 0.0
93.13566406010747 11.452845746576939 31.375635465501453 147.19804643160597 0.0 0.0
48.95556482004922 20.454903268235714 20.82350188736616 144.60355234072512 0.0 0.0
12.766140125558398 5.73790774658481 5.552681747778291 155.41301712737635 0.0 0.0
59.83270065447014 -68.32999056234054 -0.11548753183650184 177.91836770128856 0.0 0.0
-171.30847890633913 -654.9774169511124 -266.9524005972867 93.12505564047709 0.0 0.0
-120.58975266130332 -545.5456914907497 -201.57579927490121 -108.08284539415104 0.0 0.0
19.061078601809683 -82.60512317338859 -18.811454275904453 -164.70793579773536 0.0 0.0
-10.768458428267316 1.7770552177857901 -2.697138444574132 -163.48406736623159 0.0 0.0
9.878804677468093 19.54620353578329 8.827666266081472 -154.86573367751564 0.0 0.0
38.40200989566268 13.497978968325846 15.570988773366038 -156.21993625370493 0.0 0.0
66.82415972299871 5.358938013275284 21.64062560410273 -165.37082140261256 0.0 0.0
98.73802522621494 0.2962997581381739 29.56140623835037 -179.05331677487072 0.0 0.0
140.5122186551436 -1.1685790831117595 41.854990382854815 -185.04050438889556 0.0 0.0
201.26221891968726 -2.897644442406744 59.624422696473566 -183.39648667455182 0.0 0.0
272.67952734563653 -9.648676620953673 80.56974975572469 -175.71441427023595 0.0 0.0
341.18449721956193 -14.345936689648346 104.05693648289765 -168.87348416465846 0.0 0.0
400.2932467628864 -16.189265025595716 128.83724177826622 -158.3142856160674 0.0 0.0
446.2333058481068 -8.005109017944786 157.47790966376846 -150.6500797126867 0.0 0.0
485.9045058431389 2.111071244564915 186.39217051695712 -144.9463117730577 0.0 0.0
520.6050358857524 16.606301056514678 216.11990031979124 -141.71706477414028 0.0 0.0
554.5595861364076 27.254440200411878 245.1101187209855 -142.96784745420086 0.0 0.0
589.8674625155757 33.802803586074745 274.24358194576956 -142.56180338753464 0.0 0.0
624.8573879127769 35.69277279003231 300.25063707701224 -135.78661835271322 0.0 0.0
660.1361302061712 32.440010752673494 321.734562061132 -122.44253097798929 0.0 0.0
709.7103493574251 41.09159790130904 354.2212273590841 -105.30789333261707 0.0 0.0
303.49704127632276 -347.6570845144775 -10.314842109312309 9.531930800221744e-11 0.0 0.0
709.7103493572137 41.091597901298115 354.2212273590612 105.30789333286992 0.0 0.0
660.1361302055813 32.440010752067714 321.73456206073996 122.44253097831614 0.0 0.0
624.85738791269 35.692772790146236 300.25063707701617 135.786618353016 0.0 0.0
589.8674625156303 33.80280358615661 274.24358194572693 142.56180338766592 0.0 0.0
554.5595861364442 27.254440200525693 245.11011872100963 142.96784745417085 0.0 0.0
520.6050358856588 16.606301056436976 216.11990031975725 141.7170647741878 0.0 0.0
485.9045058428202 2.111071244277868 186.39217051670562 144.9463117730543 0.0 0.0
446.23330584812 -8.005109017758604 157.4779096637633 150.65007971278888 0.0 0.0
400.29324676297585 -16.18926502514536 128.837241778379 158.31428561613686 0.0 0.0
341.18449721934843 -14.345936689694991 104.05693648277945 168.87348416462612 0.0 0.0
272.6795273452722 -9.648676621101249 80.56974975556015 175.71441427014858 0.0 0.0
201.26221891946946 -2.897644442378666 59.6244226964145 183.39648667460224 0.0 0.0
140.51221865488355 -1.1685790833084053 41.85499038271665 185.04050438881868 0.0 0.0
98.73802522601385 0.29629975795158536 29.56140623823602 179.05331677463477 0.0 0.0
66.82415972315854 5.358938013810128 21.64062560431139 165.37082140238599 0.0 0.0
38.402009895595306 13.497978968175497 15.570988773300847 156.21993625351047 0.0 0.0
9.878804677492408 19.546203535811216 8.827666266097106 154.86573367736446 0.0 0.0
-10.768458428269547 1.7770552178275252 -2.6971384445624955 163.4840673660326 0.0 0.0
19.061078601662484 -82.60512317351228 -18.811454275990513 164.70793579754542 0.0 0.0
-120.58975266110873 -545.5456914900411 -201.57579927460543 108.08284539412365 0.0 0.0
-100.32209010114171 -434.29793488446734 -160.59770741359392 -104.97182639685175 0.0 0.0
-7.348261446239961 -92.26360500275756 -29.856398554459545 -155.35770379271457 0.0 0.0
-32.3867677430012 -1.4922303722445962 -10.160237680068981 -167.60710950748438 0.0 0.0
-27.468959315438788 18.329090863242666 -2.7412355851178756 -161.1621724296321 0.0 0.0
-15.442245499716627 15.030446073652769 -0.12311188948679064 -161.35388805284106 0.0 0.0
-6.359383284463082 8.288922137980766 0.5798393566157332 -169.3203094218344 0.0 0.0
-2.2349533510648225 2.3086956952120863 0.016304744480630795 -183.11511210904138 0.0 0.0
-0.3734072813217004 0.3797351729180023 0.0029813506276443746 -189.25725104568951 0.0 0.0
0.04257326376344395 -0.1583211460724625 -0.034006363990151556 -188.46033376587513 0.0 0.0
0.15617190972296413 -0.045485259699534986 0.036517040690768 -179.41102316789366 0.0 0.0
0.14702459832987103 -0.1236908819715481 -0.026717347131420155 -172.95053838879466 0.0 0.0
-0.22782686027619548 0.18291988661539982 0.0038403377630622515 -168.12578406289148 0.0 0.0
-1.2707189216535966 0.7596415371313476 -0.057385555302342794 -167.50087467073882 0.0 0.0
-2.396745547308484 1.3522592831887863 -0.1147331232733464 -165.38852812091173 0.0 0.0
1.7389146049624316 0.3939349615795571 0.67656822876571 -161.38547773530254 0.0 0.0
14.2285275371827 2.952639105306332 2.6598515028561422 -152.26503599602992 0.0 0.0
45.71728634216642 9.20014673759097 7.176108705312238 -145.424057308549 0.0 0.0
129.80645188688234 3.1770827842592055 17.847523642780985 -141.80433086800636 0.0 0.0
286.5573194472748 -55.688815907764926 35.19180655705359 -137.8593229569085 0.0 0.0
429.05153726912073 -42.4143450120325 134.78906144915757 -141.5126977215901 0.0 0.0
-201.59995874794865 -504.159396788742 -286.56078574000617 -1.3031353773840237e-11 0.0 0.0
429.05153726915256 -42.4143450118663 134.78906144915612 141.5126977217118 0.0 0.0
286.5573194468444 -55.6888159083273 35.19180655673252 137.85932295741284 0.0 0.0
129.80645188704744 3.1770827844326845 17.847523642962443 141.80433086854583 0.0 0.0
45.71728634227429 9.200146737506337 7.176108705305857 145.42405730881748 0.0 0.0
14.228527537485661 2.9526391056053427 2.6598515030363714 152.26503599595014 0.0 0.0
1.7389146051761486 0.39393496139373596 0.6765682287974926 161.38547773531047 0.0 0.0
-2.3967455470186962 1.3522592833686247 -0.11473312313560058 165.38852812099535 0.0 0.0
-1.2707189214735237 0.7596415366142164 -0.05738555541339707 167.5008746709396 0.0 0.0
-0.22782686006202368 0.18291988644627288 0.003840337780268044 168.12578406289305 0.0 0.0
0.14702459829435455 -0.1236908825007399 -0.026717347298525596 172.9505383887482 0.0 0.0
0.15617190984345442 -0.04548525982648055 0.03651704068721884 179.41102316777418 0.0 0.0
0.042573263752522905 -0.1583211463344485 -0.034006364071847095 188.46033376596029 0.0 0.0
-0.3734072812014606 0.3797351730152587 0.002981350694287954 189.25725104558808 0.0 0.0
-2.23495335110049 2.3086956949755537 0.01630474439912888 183.1151121088546 0.0 0.0
-6.359383284369447 8.28892213805084 0.579839356664702 169.32030942162146 0.0 0.0
-15.442245499652383 15.030446073687868 -0.1231118894571046 161.35388805265242 0.0 0.0
-27.46895931536128 18.32909086341145 -2.741235585044275 161.16217242945004 0.0 0.0
-32.38676774301133 -1.4922303722417638 -10.160237680071443 167.6071095073261 0.0 0.0
-7.348261446269559 -92.26360500277829 -29.8563985544704 155.35770379262905 0.0 0.0
-100.32209010104339 -434.29793488386764 -160.59770741341913 104.97182639674125 0.0 0.0
-82.16128356130116 -341.9730854111487 -127.24671121789268 -98.20591517129148 0.0 0.0
-24.804849084922107 -94.10778148767989 -35.6730493650176 -146.29843860429312 0.0 0.0
-52.3568152182872 -4.307920077457221 -17.000156032997037 -167.6439359015294 0.0 0.0
-63.04056846237124 16.967639377670878 -13.8203355319421 -163.3756422350414 0.0 0.0
-68.11162449631748 15.921643376834812 -15.657296656857664 -162.29393688928022 0.0 0.0
-78.5530649343456 10.979606482276157 -20.291019824489496 -167.80836171761874 0.0 0.0
-103.39789617835314 4.565228879202454 -29.402561104065164 -181.2717751266165 0.0 0.0
-141.38946969994782 1.7907190669755066 -41.93654744586618 -185.26753283783614 0.0 0.0
-201.0921651764543 2.5763556667327645 -59.67418511366276 -183.37795602870622 0.0 0.0
-272.41027518879883 9.530056153486965 -80.51449337069448 -175.6838993725151 0.0 0.0
-341.33331374497146 14.504486319144597 -103.9216975952746 -168.89995831429616 0.0 0.0
-400.37002974045214 16.285706200441386 -128.9005990161874 -158.37040043743548 0.0 0.0
-446.84610946852894 8.179440501262391 -157.888644051193 -150.19119985887457 0.0 0.0
-486.8112351286038 -1.700867130027376 -186.90068029601377 -144.30936715392275 0.0 0.0
-519.465023768427 -13.089675535272484 -213.87331579476535 -141.82670822796692 0.0 0.0
-544.4415814927982 -16.177791242361806 -231.59257552575593 -144.48064378678632 0.0 0.0
-557.3788145440354 -12.32329455004119 -235.9106746831453 -150.63361238655273 0.0 0.0
-556.604649190069 2.291138143587091 -220.50414828453 -161.47390693135242 0.0 0.0
-544.4240226073089 29.258572554160978 -186.31586322715953 -166.0801575407558 0.0 0.0
-338.8377101615014 33.67635403836417 -102.98893046027521 -108.63107086171432 0.0 0.0
-699.6730450135044 -701.0974806862099 -676.6591448741353 -8.497380576955038e-11 0.0 0.0
-338.83771016133466 33.67635403871583 -102.98893046007524 108.63107086216269 0.0 0.0
-544.4240226074455 29.258572553739846 -186.31586322735214 166.0801575411062 0.0 0.0
-556.6046491899286 2.291138143643792 -220.5041482844066 161.47390693160273 0.0 0.0
-557.3788145441436 -12.323294550307992 -235.9106746832038 150.63361238663558 0.0 0.0
-544.4415814923773 -16.17779124197414 -231.59257552543806 144.48064378671504 0.0 0.0
-519.4650237676874 -13.089675534417122 -213.87331579421212 141.82670822794918 0.0 0.0
-486.8112351287383 -1.700867130480841 -186.90068029612823 144.3093671540154 0.0 0.0
-446.8461094683858 8.1794405009887 -157.88864405109675 150.19119985897714 0.0 0.0
-400.37002973993395 16.285706200543373 -128.90059901590584 158.3704004374655 0.0 0.0
-341.3333137445227 14.504486318807622 -103.92169759520173 168.89995831425756 0.0 0.0
-272.410275187935 9.530056153934602 -80.51449337028376 175.6838993724878 0.0 0.0
-201.09216517608746 2.5763556663591265 -59.674185113667725 183.3779560286781 0.0 0.0
-141.38946969946105 1.7907190673004147 -41.93654744562002 185.2675328378005 0.0 0.0
-103.3978961780463 4.565228879336522 -29.402561103936208 181.27177512646406 0.0 0.0
-78.5530649343092 10.979606481954743 -20.29101982457744 167.80836171737434 0.0 0.0
-68.11162449607627 15.921643377127232 -15.657296656697334 162.29393688911895 0.0 0.0
-63.0405684622549 16.967639377741683 -13.820335531886453 163.37564223484506 0.0 0.0
-52.35681521823195 -4.307920077439942 -17.00015603297563 167.64393590140475 0.0 0.0
-24.80484908491406 -94.10778148763909 -35.6730493650028 146.29843860419345 0.0 0.0
-82.16128356116917 -341.97308541073767 -127.24671121772818 98.20591517117899 0.0 0.0
-66.193179606903 -262.018378629267 -98.46346747085099 -88.14520886654056 0.0 0.0
-37.692396286532016 -90.55019837630766 -38.47285465947889 -136.12282505249843 0.0 0.0
-70.76264960358999 -6.33204496192899 -23.128836165601573 -163.76320565891177 0.0 0.0
-96.9308976116467 15.38172946000779 -24.466610783712657 -161.4115296367286 0.0 0.0
-119.30069456776657 16.19716238732278 -30.928261348851855 -158.93773909485287 0.0 0.0
-150.38889732818436 13.405104721761205 -40.95292582251861 -163.09373831833892 0.0 0.0
-201.5975074556411 5.249872685639101 -58.78486746733952 -168.16995911773017 0.0 0.0
-282.960077811792 4.8667317026859 -83.10527752073524 -173.54799712065872 0.0 0.0
-370.85936636733663 -0.3440467604359547 -119.38147930811942 -162.07824196118372 0.0 0.0
-448.5831930254612 -8.739254039314172 -163.79537091396287 -150.57801094062404 0.0 0.0
-510.5778706063066 -18.6004276945112 -209.71040482948774 -141.47567032545183 0.0 0.0
-562.2734061936636 -26.215798817671093 -250.3203467164882 -135.9826666163676 0.0 0.0
-609.305673666166 -38.31537593457893 -289.76735289512885 -131.99844777226005 0.0 0.0
-650.7638664479128 -48.19795321382846 -323.6523710924072 -128.7333102167618 0.0 0.0
-687.2754090394311 -55.0968497341324 -350.9463267282514 -126.70525074826261 0.0 0.0
-714.4867318525195 -55.7658880893506 -368.1115623932208 -127.21068870036251 0.0 0.0
-728.2025297721709 -48.74187452491854 -373.25178115712316 -131.4413231850438 0.0 0.0
-727.3287939523159 -38.09507444735064 -368.503342749432 -140.046831818364 0.0 0.0
-703.9088546605474 -15.450358639961735 -347.1081409117769 -149.62223216882552 0.0 0.0
-678.0067478987926 -3.5849724926825672 -327.90497751782897 -149.44037261423597 0.0 0.0
-1367.9654416847056 -947.2792716307172 -1101.537087109804 2.6552982035354944e-11 0.0 0.0
-678.0067478984324 -3.5849724925000857 -327.9049775176298 149.44037261451237 0.0 0.0
-703.9088546602607 -15.450358639968698 -347.1081409116356 149.6222321691833 0.0 0.0
-727.3287939519313 -38.095074447119245 -368.50334274916133 140.04683181864905 0.0 0.0
-728.2025297723087 -48.74187452517818 -373.25178115723713 131.4413231851338 0.0 0.0
-714.4867318522477 -55.76588808910828 -368.1115623930375 127.21068870034277 0.0 0.0
-687.2754090390426 -55.09684973384776 -350.94632672794336 126.70525074825868 0.0 0.0
-650.7638664476924 -48.19795321383821 -323.65237109222807 128.73331021680215 0.0 0.0
-609.3056736658111 -38.31537593440565 -289.7673528948539 131.99844777231826 0.0 0.0
-562.2734061932629 -26.215798817418815 -250.3203467161535 135.98266661633323 0.0 0.0
-510.57787060597775 -18.600427694507736 -209.71040482923357 141.47567032541022 0.0 0.0
-448.5831930251021 -8.739254039466053 -163.79537091374527 150.5780109406542 0.0 0.0
-370.8593663667959 -0.34404676044672167 -119.38147930787689 162.07824196126157 0.0 0.0
-282.96007781119624 4.866731702811019 -83.10527752051118 173.5479971206363 0.0 0.0
-201.59750745527896 5.249872685637087 -58.78486746723624 168.1699591175168 0.0 0.0
-150.38889732793243 13.405104721914537 -40.952925822396494 163.09373831814275 0.0 0.0
-119.30069456766037 16.19716238716785 -30.928261348867743 158.93773909469166 0.0 0.0
-96.93089761142495 15.381729460220676 -24.46661078358283 161.41152963660113 0.0 0.0
-70.76264960356303 -6.3320449619647725 -23.12883616560428 163.76320565877762 0.0 0.0
-37.69239628654343 -90.5501983762758 -38.47285465947267 136.12282505239628 0.0 0.0
-66.19317960683499 -262.0183786289824 -98.46346747074521 88.14520886641824 0.0 0.0
-53.31168113281563 -193.81607833714415 -74.1383278409879 -77.12097872699218 0.0 0.0
-47.7774998998606 -82.90370947126544 -39.204362811337816 -124.1435584241281 0.0 0.0
-88.0146016984424 -7.497529254595733 -28.654643773206804 -155.9599554727184 0.0 0.0
-129.28009781628907 13.637622975062209 -34.6901077226892 -155.38184990872588 0.0 0.0
-168.94981027656345 15.742262584848394 -45.93403565870572 -151.35843925716438 0.0 0.0
-218.783470221461 13.69569330494685 -61.55812113982002 -150.1370362940507 0.0 0.0
-302.2113702350321 7.657743370304303 -87.4693766917791 -155.34920621358742 0.0 0.0
-394.79110791314434 -4.9415269000014295 -128.74697083740972 -144.01138561484265 0.0 0.0
-482.21873193221495 -17.27166675663785 -182.76122088020696 -136.11337120749073 0.0 0.0
-552.6307544943229 -24.229922197616073 -236.04482766918323 -132.27890084209952 0.0 0.0
-606.6726822564543 -35.74720826211665 -284.4227632981555 -126.15489355766857 0.0 0.0
-655.7787858883181 -48.45892743734253 -326.75016548620886 -121.83619052552604 0.0 0.0
-704.5996736795305 -64.00096743934628 -366.31312462107303 -117.99248465425367 0.0 0.0
-750.0625909844279 -78.87612867743303 -401.27931071567104 -114.44527301223559 0.0 0.0
-791.2624588816905 -89.97060105899044 -429.94384409077276 -112.1174779612254 0.0 0.0
-821.9989124775461 -93.55255286595272 -448.26717211621644 -112.53242071688851 0.0 0.0
-837.4953799358334 -85.33997800208539 -452.7268940651293 -116.90693498590417 0.0 0.0
-829.9510317281308 -62.44769975159632 -438.6450135520839 -124.87493465453609 0.0 0.0
-799.4863145378164 -27.527723456606708 -407.67362904838444 -132.8258977754339 0.0 0.0
-733.5036888176016 25.3616716295792 -353.4692708469518 -137.81165971170202 0.0 0.0
-1792.633933161993 -1177.2480014431212 -1437.8710984607167 8.399680950788024e-11 0.0 0.0
-733.5036888175325 25.36167162953315 -353.4692708469637 137.81165971193425 0.0 0.0
-799.4863145374986 -27.527723456488616 -407.6736290481799 132.8258977757581 0.0 0.0
-829.9510317279905 -62.44769975160435 -438.6450135519747 124.87493465476865 0.0 0.0
-837.4953799359917 -85.3399780023667 -452.7268940652298 116.90693498603184 0.0 0.0
-821.9989124774936 -93.55255286596272 -448.2671721161689 112.53242071686802 0.0 0.0
-791.2624588815505 -89.97060105902268 -429.9438440905963 112.11747796126116 0.0 0.0
-750.0625909840136 -78.87612867714346 -401.2793107154146 114.44527301227374 0.0 0.0
-704.5996736792067 -64.0009674392633 -366.3131246208596 117.99248465433163 0.0 0.0
-655.7787858884114 -48.45892743771057 -326.75016548618197 121.83619052558095 0.0 0.0
-606.6726822561425 -35.747208262067666 -284.42276329792344 126.15489355763529 0.0 0.0
-552.630754494467 -24.229922198188163 -236.04482766916672 132.2789008420743 0.0 0.0
-482.21873193157273 -17.271666756382558 -182.76122087975713 136.1133712075077 0.0 0.0
-394.7911079124747 -4.941526899650064 -128.74697083701076 144.01138561483907 0.0 0.0
-302.2113702344808 7.65774337016987 -87.46937669166812 155.34920621350668 0.0 0.0
-218.78347022097665 13.695693305162123 -61.55812113962519 150.1370362938753 0.0 0.0
-168.94981027649632 15.742262584562553 -45.93403565876944 151.35843925706416 0.0 0.0
-129.28009781606934 13.637622975220186 -34.69010772257663 155.38184990858434 0.0 0.0
-88.0146016983247 -7.497529254557756 -28.654643773159798 155.95995547253938 0.0 0.0
-47.77749989984823 -82.90370947126448 -39.204362811333816 124.14355842403297 0.0 0.0
-53.31168113277691 -193.81607833693297 -74.13832784091295 77.12097872686032 0.0 0.0
-43.614385401214356 -136.71385020492627 -54.098470681842194 -65.72661734607341 0.0 0.0
-56.00991657050956 -72.548866667725 -38.56763497147037 -110.36152407092975 0.0 0.0
-104.36295640918003 -7.683869029140844 -33.61459864695457 -144.36777397339685 0.0 0.0
-160.208584645051 11.595357914112306 -44.59004681527338 -145.1214768399297 0.0 0.0
-216.30730168826022 14.570831341665915 -60.499734400568784 -139.29387139602173 0.0 0.0
-289.8035744186697 14.771700012903613 -81.61998146102883 -136.50771879336483 0.0 0.0
-387.3182744258468 0.5517070568100584 -119.63625899339499 -127.74311773481683 0.0 0.0
-481.70883661405503 -16.731346322158135 -175.84771906091277 -119.49417587013156 0.0 0.0
-562.2769423545222 -24.961898241192216 -236.17229641819276 -117.42932624858189 0.0 0.0
-618.4118748401661 -38.8575585205343 -291.9919781662426 -112.26375678675305 0.0 0.0
-674.0464389642511 -51.5464400224412 -339.1399304550439 -109.8861448265217 0.0 0.0
-725.3849239478207 -68.33965906174707 -381.59247049046235 -106.39625477420141 0.0 0.0
-777.3777188002073 -88.63021076222682 -422.471226087075 -102.79574310532563 0.0 0.0
-827.9048763723144 -108.51908083617127 -460.20160001212423 -99.52356293506215 0.0 0.0
-873.9667458943258 -124.71816456196713 -492.4003144281785 -97.13545876189923 0.0 0.0
-909.915140212255 -130.94737735533516 -513.8470841828221 -97.42439676658866 0.0 0.0
-924.6503961525672 -121.8362273495622 -517.2596084398768 -100.73247955737412 0.0 0.0
-909.4940198053267 -87.3268422211653 -493.44199341195076 -107.41764655061384 0.0 0.0
-859.5191336716616 -29.645882839071547 -441.52049387639636 -115.17579832159112 0.0 0.0
-762.8188739408612 55.18850929782134 -355.86073627300993 -122.44976225297073 0.0 0.0
-2121.0627710142844 -1407.5028074196205 -1724.8883174723924 5.299938266034587e-11 0.0 0.0
-762.8188739405364 55.18850929805927 -355.8607362727362 122.44976225310268 0.0 0.0
-859.5191336717256 -29.64588283926321 -441.52049387646804 115.17579832180306 0.0 0.0
-909.4940198052179 -87.32684222120587 -493.44199341183827 107.4176465508017 0.0 0.0
-924.6503961526626 -121.83622734972984 -517.2596084399349 100.73247955746152 0.0 0.0
-909.9151402120823 -130.94737735522446 -513.8470841826668 97.42439676657355 0.0 0.0
-873.9667458939767 -124.7181645617425 -492.4003144278533 97.1354587618992 0.0 0.0
-827.904876372376 -108.51908083641548 -460.20160001215004 99.52356293515103 0.0 0.0
-777.3777187997011 -88.63021076184053 -422.471226086731 102.795743105318 0.0 0.0
-725.3849239479274 -68.33965906211583 -381.5924704904487 106.39625477422827 0.0 0.0
-674.0464389636932 -51.54644002204649 -339.13993045465634 109.88614482648234 0.0 0.0
-618.4118748405151 -38.857558521286045 -291.9919781663705 112.2637567867572 0.0 0.0
-562.2769423540002 -24.961898240994515 -236.1722964177358 117.42932624855572 0.0 0.0
-481.7088366136421 -16.731346322147544 -175.8477190606142 119.49417587015358 0.0 0.0
-387.3182744252422 0.5517070569656615 -119.63625899311695 127.74311773477146 0.0 0.0
-289.80357441833013 14.7717000126924 -81.61998146099909 136.5077187933122 0.0 0.0
-216.30730168809094 14.57083134144945 -60.49973440058778 139.29387139587695 0.0 0.0
-160.2085846448901 11.59535791409664 -44.590046815230195 145.12147683977312 0.0 0.0
-104.36295640903106 -7.68386902899907 -33.614598646867094 144.36777397324263 0.0 0.0
-56.009916570520765 -72.54886666774279 -38.567634971479066 110.36152407084438 0.0 0.0
-43.61438540115979 -136.71385020476012 -54.09847068177598 65.72661734600469 0.0 0.0
-36.85518917789244 -90.31455847692719 -38.15092429644589 -54.09382257977489 0.0 0.0
-62.819874476026335 -60.65216961652397 -37.04161322776509 -94.9087948994507 0.0 0.0
-119.88831132723045 -6.942714305222449 -38.04960205941404 -129.11749754937432 0.0 0.0
-189.85220124520325 9.414568397348527 -54.13533142803089 -130.8548511309568 0.0 0.0
-261.17199934735237 12.26946409138492 -74.75283980775455 -122.79177172797147 0.0 0.0
-357.6179496171144 11.52911966677611 -103.18558304453535 -115.8658644038203 0.0 0.0
-459.06826471134593 -9.163826071512016 -154.0884167773869 -102.36078273118385 0.0 0.0
-551.4477902875099 -22.659852170128502 -218.69324818752904 -99.01087470174019 0.0 0.0
-612.425070125303 -36.23720603312968 -281.33189365186485 -95.88706798798586 0.0 0.0
-672.9348196661155 -48.53501572913194 -334.7162697229974 -95.20886182194043 0.0 0.0
-728.0926453833941 -66.53670516261927 -381.89727194307403 -93.03415017647531 0.0 0.0
-783.0976462347813 -88.20639260378033 -425.9712056892875 -90.12912156848621 0.0 0.0
-839.3789781851428 -112.96871849536387 -469.3714318674387 -87.09422189775124 0.0 0.0
-894.4193022364133 -136.85980105278315 -510.1368057439973 -84.27620660788321 0.0 0.0
-945.7197748162976 -157.89559553608737 -546.6722002818487 -82.09536157581846 0.0 0.0
-986.2329104510884 -169.30511878743948 -572.7841059878438 -81.54693038183164 0.0 0.0
-1001.7504222369633 -156.84446352782908 -574.7788229292034 -83.77839793430039 0.0 0.0
-976.0163549708041 -110.63703848091022 -539.794508834553 -88.98334100709687 0.0 0.0
-902.8630440434895 -29.097493181254023 -464.3244901039951 -96.62085315092884 0.0 0.0
-778.5452833516783 83.87693057716632 -350.1462612923213 -107.9176023090682 0.0 0.0
-2413.309981139723 -1636.0218866321236 -1990.8601142832172 3.7694292132073315e-11 0.0 0.0
-778.5452833508228 83.8769305779733 -350.1462612916688 107.91760230919694 0.0 0.0
-902.8630440438778 -29.09749318169436 -464.32449010432043 96.62085315103002 0.0 0.0
-976.0163549705544 -110.63703848076662 -539.7945088343657 88.98334100722707 0.0 0.0
-1001.7504222367495 -156.84446352767702 -574.7788229290226 83.77839793434937 0.0 0.0
-986.23291045066 -169.3051187870837 -572.7841059875011 81.54693038182613 0.0 0.0
-945.7197748159251 -157.89559553582345 -546.6722002815587 82.09536157580827 0.0 0.0
-894.419302236372 -136.85980105294556 -510.13680574388303 84.27620660801513 0.0 0.0
-839.3789781849734 -112.96871849533758 -469.3714318673336 87.09422189777996 0.0 0.0
-783.0976462345093 -88.2063926037155 -425.9712056890093 90.12912156848068 0.0 0.0
-728.092645382957 -66.53670516235641 -381.8972719427312 93.03415017644443 0.0 0.0
-672.9348196659481 -48.535015729284765 -334.7162697228011 95.20886182191742 0.0 0.0
-612.4250701250664 -36.23720603324542 -281.33189365158154 95.88706798804944 0.0 0.0
-551.4477902872386 -22.659852170270437 -218.69324818723734 99.01087470176972 0.0 0.0
-459.0682647108516 -9.163826071398443 -154.08841677706653 102.3607827311429 0.0 0.0
-357.6179496166695 11.529119666586546 -103.18558304446384 115.86586440374403 0.0 0.0
-261.17199934710493 12.269464091300234 -74.752839807709 122.79177172784117 0.0 0.0
-189.85220124499892 9.414568397393392 -54.1353314279561 130.8548511308513 0.0 0.0
-119.88831132710445 -6.94271430515704 -38.0496020593565 129.11749754923514 0.0 0.0
-62.81987447597602 -60.652169616498234 -37.04161322774226 94.90879489935926 0.0 0.0
-36.8551891778459 -90.31455847682382 -38.150924296400916 54.09382257973707 0.0 0.0
-32.632168453577435 -54.46041958847987 -26.127776412617187 -42.31334882477221 0.0 0.0
-68.21246860309938 -48.128442024847104 -34.90227318838394 -77.93750726022256 0.0 0.0
-134.5618475229039 -5.561454061057097 -42.0369904751883 -110.32154293480596 0.0 0.0
-218.1658593813471 7.280388492905402 -63.27152440945805 -112.45592690409683 0.0 0.0
-307.30386266280044 9.449206444965823 -89.03866460327313 -103.62551784218655 0.0 0.0
-412.6866729232941 -0.044911935910782574 -127.76444918097472 -87.78428383830199 0.0 0.0
-521.8928370096739 -15.324560173243093 -187.76185581783608 -79.6011986802479 0.0 0.0
-594.125942016837 -30.760054228023865 -256.65729058688447 -77.836466668641 0.0 0.0
-657.883291412794 -41.86556127568778 -316.965387141587 -77.92041520764367 0.0 0.0
-716.5908898734968 -59.23043653052497 -369.7766337703834 -77.16065359957932 0.0 0.0
-774.6800378361165 -81.46986914667013 -417.7280414000105 -75.67582540480777 0.0 0.0
-833.9382232812702 -107.76108488963604 -464.3845345071122 -73.45042053585207 0.0 0.0
-894.5847964948847 -136.51085613272642 -510.8272752586444 -71.00584317594833 0.0 0.0
-953.3595347088003 -165.37791671275357 -555.3052037714331 -68.67459995536188 0.0 0.0
-1008.5627609306941 -189.31085634037237 -594.9540787271274 -66.77670112067634 0.0 0.0
-1053.995057250879 -204.2290347809707 -625.1086911631581 -65.70839692343277 0.0 0.0
-1072.323729768822 -194.76637383970956 -629.9256236789859 -66.0714564998366 0.0 0.0
-1037.6383042685188 -137.64592641175855 -585.0188204568717 -69.64498999881121 0.0 0.0
-939.8787568998366 -29.669580668546956 -483.89174033189624 -78.26845571628712 0.0 0.0
-781.7804591601664 116.31435614921485 -335.52452568442027 -94.9498981259995 0.0 0.0
-2680.8983919563902 -1857.2897709067884 -2240.0194292215674 6.727773893544509e-11 0.0 0.0
-781.7804591596885 116.31435614965082 -335.524525684041 94.9498981260981 0.0 0.0
-939.878756900236 -29.66958066902066 -483.89174033221 78.26845571639042 0.0 0.0
-1037.6383042682655 -137.64592641160266 -585.0188204566434 69.64498999896624 0.0 0.0
-1072.3237297684723 -194.76637383943918 -629.9256236786841 66.07145649995466 0.0 0.0
-1053.9950572503662 -204.22903478052964 -625.1086911627173 65.70839692343462 0.0 0.0
-1008.5627609305471 -189.3108563403377 -594.9540787269991 66.77670112069507 0.0 0.0
-953.3595347080554 -165.37791671214038 -555.3052037708304 68.67459995537138 0.0 0.0
-894.5847964945958 -136.5108561325911 -510.8272752584387 71.00584317595936 0.0 0.0
-833.9382232808678 -107.76108488940993 -464.3845345067896 73.45042053584044 0.0 0.0
-774.6800378355306 -81.46986914628194 -417.7280413995627 75.67582540478878 0.0 0.0
-716.5908898730758 -59.23043653032132 -369.7766337700232 77.1606535995134 0.0 0.0
-657.8832914123699 -41.86556127552783 -316.9653871411918 77.92041520764214 0.0 0.0
-594.1259420165119 -30.760054228005057 -256.6572905865315 77.83646666859616 0.0 0.0
-521.8928370090803 -15.324560172982718 -187.76185581739298 79.6011986802092 0.0 0.0
-412.68667292287387 -0.04491193606148025 -127.76444918085464 87.78428383822211 0.0 0.0
-307.30386266247797 9.449206444969974 -89.03866460318167 103.62551784216436 0.0 0.0
-218.16585938104947 7.280388493125473 -63.27152440930216 112.45592690396674 0.0 0.0
-134.56184752282573 -5.561454061146354 -42.036990475191615 110.32154293470484 0.0 0.0
-68.212468603035 -48.128442024818 -34.90227318835589 77.93750726012406 0.0 0.0
-32.632168453539705 -54.46041958841582 -26.127776412586652 42.31334882476451 0.0 0.0
-30.314930909361394 -29.084660446347552 -17.819877406712678 -30.654490493056663 0.0 0.0
-71.81966790966976 -35.76674911842336 -32.27592510842793 -59.63975922614114 0.0 0.0
-148.1018141962308 -3.9441664215010843 -45.61379418531957 -87.91842658537523 0.0 0.0
-245.46431227399222 5.221025568392746 -72.07685533487451 -89.89054892866838 0.0 0.0
-354.1468777062871 5.129957203032459 -103.86948480168012 -79.90064193313401 0.0 0.0
-470.8653232228153 -7.191969067239928 -152.619128146028 -63.2770285026918 0.0 0.0
-563.3607164180728 -23.146941827609368 -220.56744542876547 -58.612579133711606 0.0 0.0
-630.8993020006698 -33.58493641613856 -287.136320255528 -58.683053089429436 0.0 0.0
-693.9563821119613 -49.19210441267152 -347.0585473939646 -59.06826332764913 0.0 0.0
-754.4120197452685 -69.90915113117174 -399.397231785528 -58.82729433539957 0.0 0.0
-815.6309653211679 -96.43214166737606 -448.9827205628741 -57.8401267286333 0.0 0.0
-879.4063412650262 -127.21799480199354 -498.83214202657416 -56.23842675433846 0.0 0.0
-944.1540902192094 -161.14087282795936 -549.2248032719505 -54.28561963265412 0.0 0.0
-1007.1133885923102 -191.83509920085385 -596.3326271085052 -52.656869232843135 0.0 0.0
-1064.1338424391072 -218.22395445828366 -638.0035620994622 -51.21311510346179 0.0 0.0
-1112.2361748838912 -236.4098402476487 -671.0528770032038 -49.728900139664184 0.0 0.0
-1137.8930459183944 -233.05982280454083 -682.3865897001676 -48.398310507710775 0.0 0.0
-1102.724318855865 -174.09054230767165 -636.279252863091 -49.80271900586322 0.0 0.0
-979.1349730475893 -38.65097880933274 -508.49848745067357 -59.63411511079545 0.0 0.0
-771.7876699568221 157.39671356980838 -309.5883879799334 -82.3772869162104 0.0 0.0
-2924.3847062606746 -2061.7546056037095 -2468.3097353068665 5.637090794152755e-11 0.0 0.0
-771.7876699566305 157.39671356994137 -309.5883879797859 82.37728691633636 0.0 0.0
-979.1349730481079 -38.650978809880314 -508.49848745108994 59.63411511085214 0.0 0.0
-1102.7243188553555 -174.0905423072181 -636.2792528626967 49.80271900586848 0.0 0.0
-1137.8930459183093 -233.0598228045411 -682.3865897000856 48.39831050779087 0.0 0.0
-1112.2361748836536 -236.4098402474869 -671.0528770029373 49.72890013969479 0.0 0.0
-1064.1338424386956 -218.22395445800404 -638.0035620991247 51.21311510348568 0.0 0.0
-1007.1133885914596 -191.83509920010124 -596.3326271078523 52.65686923283303 0.0 0.0
-944.1540902189392 -161.14087282783726 -549.2248032717645 54.28561963264861 0.0 0.0
-879.4063412648018 -127.21799480196599 -498.83214202639033 56.23842675437858 0.0 0.0
-815.6309653205736 -96.43214166696026 -448.98272056245804 57.84012672859028 0.0 0.0
-754.4120197452705 -69.90915113142864 -399.39723178548746 58.827294335364954 0.0 0.0
-693.9563821113045 -49.192104412232496 -347.0585473934334 59.06826332761944 0.0 0.0
-630.8993020005998 -33.58493641639497 -287.13632025533974 58.68305308944916 0.0 0.0
-563.360716417523 -23.146941827401236 -220.56744542831615 58.61257913369443 0.0 0.0
-470.86532322237935 -7.191969067278752 -152.6191281458063 63.2770285027061 0.0 0.0
-354.1468777057891 5.129957203193928 -103.86948480149475 79.90064193316378 0.0 0.0
-245.4643122736906 5.221025568642487 -72.07685533470809 89.8905489285311 0.0 0.0
-148.10181419610709 -3.9441664215358663 -45.613794185292896 87.9184265853053 0.0 0.0
-71.81966790959468 -35.766749118389406 -32.27592510839523 59.63975922603386 0.0 0.0
-30.31493090933629 -29.084660446315542 -17.819877406695547 30.654490493074068 0.0 0.0
-28.82410760014577 -13.964352267697638 -12.83653796035302 -19.819096627902134 0.0 0.0
-72.81998725307297 -24.426720681792684 -29.174012380459693 -40.27631170946967 0.0 0.0
-160.04665337342814 -2.6841075273404154 -48.81922827023057 -61.516065784289104 0.0 0.0
-272.1056236884434 3.3013043696689017 -80.6367228840714 -62.86619072304249 0.0 0.0
-396.5582069167681 -4.2297059823514935 -121.09496757517655 -51.969051474454275 0.0 0.0
-517.9853500990864 -14.865417697100787 -178.75617745974424 -40.021500844254604 0.0 0.0
-591.9644230381944 -27.713752376475803 -248.45530128239784 -38.38227517888689 0.0 0.0
-661.8367243529361 -38.36553482149529 -314.16612957825384 -39.57229941653112 0.0 0.0
-724.6265200597084 -56.9537519051578 -372.59735372933824 -40.11229910941503 0.0 0.0
-787.2421259118448 -80.77896410485968 -425.00659892639146 -40.06897811964015 0.0 0.0
-852.5888639011674 -111.24106222878476 -477.0420664735092 -39.51028026386098 0.0 0.0
-920.4331964636813 -146.80962844105278 -530.4643393647111 -38.42783338441608 0.0 0.0
-990.0299266681063 -183.65520577177614 -584.2685231251917 -37.206397602620726 0.0 0.0
-1056.0087086874646 -218.96242596914118 -635.0142082698735 -36.08487461216561 0.0 0.0
-1114.9276374446117 -246.412901544811 -678.1253545133119 -35.15149405601669 0.0 0.0
-1160.9611978208195 -261.99770125748887 -708.8313001462022 -33.86726144166416 0.0 0.0
-1190.5873645999368 -263.1762589089336 -724.1741627697594 -31.696433315079567 0.0 0.0
-1181.6926470335586 -229.95612377957022 -703.741759260346 -30.385025412721372 0.0 0.0
-1039.8185387263918 -73.60094960325986 -556.5682088650437 -39.0587701781364 0.0 0.0
-742.3356728877139 215.17456130766274 -265.4683787107256 -68.70952381409836 0.0 0.0
-3128.6098289730876 -2230.9331477409596 -2659.2293170016846 3.8756553522034665e-11 0.0 0.0
-742.335672887768 215.17456130755835 -265.46837871072626 68.70952381421435 0.0 0.0
-1039.8185387272933 -73.60094960419426 -556.5682088656782 39.05877017817663 0.0 0.0
-1181.6926470325145 -229.95612377858254 -703.7417592596028 30.385025412759575 0.0 0.0
-1190.5873645999989 -263.1762589090669 -724.1741627697908 31.69643331510349 0.0 0.0
-1160.9611978206876 -261.99770125744874 -708.8313001459928 33.86726144171383 0.0 0.0
-1114.9276374437052 -246.4129015440076 -678.125354512651 35.15149405603951 0.0 0.0
-1056.0087086873232 -218.96242596913112 -635.0142082696897 36.084874612178474 0.0 0.0
-990.0299266676568 -183.65520577147888 -584.268523124904 37.206397602621585 0.0 0.0
-920.4331964631438 -146.80962844072008 -530.4643393642897 38.427833384455155 0.0 0.0
-852.5888639011853 -111.24106222900232 -477.0420664735026 39.51028026389585 0.0 0.0
-787.242125911198 -80.77896410443354 -425.00659892589977 40.06897811959499 0.0 0.0
-724.626520059194 -56.95375190485106 -372.5973537288994 40.112299109354474 0.0 0.0
-661.8367243528335 -38.36553482169113 -314.16612957803767 39.57229941652173 0.0 0.0
-591.9644230375947 -27.713752376177435 -248.4553012818857 38.38227517885159 0.0 0.0
-517.9853500987136 -14.865417697093243 -178.7561774594677 40.02150084421369 0.0 0.0
-396.5582069162517 -4.229705982122248 -121.09496757495604 51.96905147444286 0.0 0.0
-272.1056236881711 3.301304369761752 -80.63672288396437 62.8661907229937 0.0 0.0
-160.04665337323482 -2.684107527269755 -48.81922827015136 61.516065784225816 0.0 0.0
-72.81998725297564 -24.426720681756315 -29.174012380419576 40.27631170938648 0.0 0.0
-28.82410760004345 -13.964352267631424 -12.83653796030246 19.819096627823647 0.0 0.0
-26.097642092443515 -8.25379700548252 -10.30543172937781 -11.391651003788457 0.0 0.0
-69.81588500341746 -15.465029651353388 -25.584274396431255 -20.15956899625634 0.0 0.0
-169.5748334278713 -2.4807575196315916 -51.61667728425087 -30.117004767408716 0.0 0.0
-299.2581906948668 1.4297761586643918 -89.3345048754057 -30.753558675386376 0.0 0.0
-443.3848930318992 -10.509937816581685 -139.05551518154138 -23.50478218001225 0.0 0.0
-551.1274967025992 -22.109781296501023 -204.47800237175554 -19.338335018787518 0.0 0.0
-619.6327334374446 -27.881531280423353 -271.5285568697365 -20.25084300599746 0.0 0.0
-687.6523320615978 -44.11623111819401 -337.53696035652064 -20.878846871880544 0.0 0.0
-751.2188563330265 -64.5906660962028 -394.341267908799 -21.001574831974764 0.0 0.0
-816.3004766364538 -91.96086776918602 -447.79427526676966 -20.91828935180679 0.0 0.0
-885.5531218702341 -126.34516314433304 -502.60105053260605 -20.561319053468605 0.0 0.0
-958.2332255690969 -165.20378348475526 -559.4814152019417 -20.120707479678835 0.0 0.0
-1031.1067905334444 -206.83230059899358 -617.0222725685128 -19.518254273650925 0.0 0.0
-1101.4794915191808 -244.89098707798604 -671.2162890641604 -18.97792493984256 0.0 0.0
-1161.5437592651763 -273.2111556902926 -715.3234710021813 -18.55067653865946 0.0 0.0
-1204.6724922876674 -285.9189853799187 -743.1704738738133 -17.769492659725685 0.0 0.0
-1227.6571469877292 -281.15045421594334 -752.1826339345962 -16.124520748446585 0.0 0.0
-1239.229390767899 -269.1151851268424 -751.9643786916993 -13.7205731221124 0.0 0.0
-1188.7822781219834 -201.9533158602444 -694.6316093610978 -16.820643050346877 0.0 0.0
-728.4820520074607 256.54377182361986 -237.20313292162814 -47.19281799748633 0.0 0.0
-3168.99622065512 -2236.2311215843756 -2687.3270229389504 1.7001511309899797e-11 0.0 0.0
-728.482052007317 256.5437718237356 -237.20313292147833 47.192817997515405 0.0 0.0
-1188.7822781221403 -201.9533158604548 -694.6316093611671 16.82064305039669 0.0 0.0
-1239.2293907668898 -269.11518512586747 -751.9643786909428 13.720573122182603 0.0 0.0
-1227.6571469878402 -281.1504542161267 -752.1826339346269 16.124520748424565 0.0 0.0
-1204.6724922872427 -285.9189853795872 -743.1704738734071 17.769492659757567 0.0 0.0
-1161.5437592644073 -273.2111556896257 -715.3234710015569 18.550676538707563 0.0 0.0
-1101.479491518903 -244.89098707784353 -671.2162890638732 18.977924939868938 0.0 0.0
-1031.1067905328307 -206.8323005985237 -617.0222725680653 19.518254273674973 0.0 0.0
-958.233225568241 -165.20378348406925 -559.4814152013221 20.120707479587015 0.0 0.0
-885.5531218703603 -126.34516314468038 -502.601050532667 20.56131905347752 0.0 0.0
-816.3004766355496 -91.96086776848048 -447.79427526607816 20.918289351798876 0.0 0.0
-751.2188563328625 -64.59066609627331 -394.3412679085949 21.001574831943984 0.0 0.0
-687.6523320614265 -44.11623111830508 -337.5369603562791 20.87884687187111 0.0 0.0
-619.6327334368234 -27.88153128005107 -271.52855686920213 20.250843005992387 0.0 0.0
-551.1274967023232 -22.109781296593134 -204.47800237150304 19.338335018762006 0.0 0.0
-443.38489303131564 -10.509937816430185 -139.05551518129062 23.504782179957004 0.0 0.0
-299.2581906945689 1.4297761586886852 -89.33450487531016 30.75355867539426 0.0 0.0
-169.57483342768117 -2.4807575195370104 -51.61667728416545 30.117004767369295 0.0 0.0
-69.81588500333787 -15.46502965133125 -25.584274396400737 20.15956899619254 0.0 0.0
-26.097642092395795 -8.253797005455807 -10.305431729355478 11.391651003717314 0.0 0.0
-15.52620627618585 -3.9195250514616173 -5.833719398294241 -7.281954927630672 0.0 0.0
-59.21983193369125 -8.4225351506036 -20.29271012528846 -8.373933053691639 0.0 0.0
-175.16363945751954 -3.396751008867888 -53.568117139916225 -10.325212186159426 0.0 0.0
-332.36600451553596 -7.891197571044138 -102.07164952003352 -10.177896484290553 0.0 0.0
-499.1740971818439 -35.24594202605458 -167.67509043636545 -4.442814126020998 0.0 0.0
-611.8593267000988 -64.71401493695004 -250.42782102087932 -1.1021767133092517 0.0 0.0
-691.5577001518495 -85.15323463638745 -331.7227234946394 -0.8095249892225631 0.0 0.0
-777.6279902121744 -121.72352703032529 -415.8438319693059 -1.351186646118478 0.0 0.0
-865.5902103056949 -167.72990044004442 -496.4855064111779 -2.009831233923725 0.0 0.0
-964.688071441545 -228.82119240363713 -582.840014342103 -2.848707543338678 0.0 0.0
-1079.023746582938 -307.57606821530686 -681.6880903337377 -3.772431490927554 0.0 0.0
-1208.1709390782537 -403.9508406828513 -794.9628985036281 -4.713422033407928 0.0 0.0
-1348.60539006781 -511.6627884197717 -918.7080961455895 -5.3308656979762965 0.0 0.0
-1495.3581131877547 -625.8559274187583 -1048.6524574967516 -5.942547537673073 0.0 0.0
-1637.0372056481572 -735.500809525013 -1173.7529394232802 -6.458026014955891 0.0 0.0
-1757.3329276465058 -825.253967039057 -1278.3428377061962 -6.652494297815828 0.0 0.0
-1836.6496432315141 -877.2294046726556 -1343.8187447174962 -6.220234171692951 0.0 0.0
-1853.2411782759823 -871.3723214870166 -1349.448611301665 -4.612330182539715 0.0 0.0
-1838.232407012556 -839.6132601122335 -1326.607070615461 -5.002163567941116 0.0 0.0
-1735.9858432272504 -732.6688314797643 -1218.8627769009279 -33.7345106067777 0.0 0.0
-4626.581354736608 -3665.278708475392 -4113.877079466527 3.531397396727698e-11 0.0 0.0
-1735.9858432268152 -732.66883147935 -1218.8627769005877 33.73451060682754 0.0 0.0
-1838.232407011662 -839.613260111375 -1326.6070706147589 5.0021635679763605 0.0 0.0
-1853.2411782751929 -871.3723214862721 -1349.448611300989 4.612330182608179 0.0 0.0
-1836.6496432314698 -877.2294046726987 -1343.81874471731 6.220234171721998 0.0 0.0
-1757.3329276456052 -825.2539670382309 -1278.3428377054013 6.652494297833215 0.0 0.0
-1637.0372056471033 -735.5008095240721 -1173.752939422313 6.458026014982142 0.0 0.0
-1495.358113186898 -625.8559274180262 -1048.6524574959758 5.942547537706314 0.0 0.0
-1348.605390067352 -511.6627884194835 -918.708096145089 5.330865698036888 0.0 0.0
-1208.1709390769392 -403.9508406816994 -794.962898502625 4.713422033327369 0.0 0.0
-1079.0237465826485 -307.5760682152236 -681.6880903334413 3.772431490844248 0.0 0.0
-964.6880714407598 -228.8211924030805 -582.840014341456 2.8487075433407263 0.0 0.0
-865.5902103052972 -167.7299004398926 -496.485506410791 2.009831233970292 0.0 0.0
-777.6279902118661 -121.72352703028864 -415.8438319689567 1.351186646156055 0.0 0.0
-691.5577001512626 -85.1532346360759 -331.7227234941091 0.8095249892013356 0.0 0.0
-611.8593266996849 -64.7140149368617 -250.4278210204818 1.102176713425166 0.0 0.0
-499.17409718135036 -35.245942025924755 -167.67509043610445 4.442814125996918 0.0 0.0
-332.36600451528534 -7.891197571045769 -102.0716495199614 10.177896484304624 0.0 0.0
-175.1636394573987 -3.3967510087905026 -53.56811713985677 10.325212186127876 0.0 0.0
-59.21983193363224 -8.422535150624698 -20.292710125277083 8.373933053585292 0.0 0.0
-15.526206276052683 -3.919525051422545 -5.833719398242566 7.281954927663797 0.0 0.0
SCALARS Strain float 6
LOOKUP_TABLE default
0.010110302378618423 -0.017928365067776002 0.0 -0.000501607750529905 0.0 0.0
0.00627635224107213 -0.00111614024729067 0.0 -0.005429771240463037 0.0 0.0
0.002107966074441462 -0.0006485627429411828 0.0 -0.0005204113156267456 0.0 0.0
0.0019429637950573674 -0.0007737622187003585 0.0 -5.080449348543113e-05 0.0 0.0
0.002501571816660817 -0.000989758081832525 0.0 4.129557378067109e-05 0.0 0.0
0.003634653272909778 -0.0017774294907307304 0.0 0.00010077229033577611 0.0 0.0
0.005458250464734842 -0.0032326179939451407 0.0 0.0001241019818406144 0.0 0.0
0.00798808989682621 -0.0053589228627455125 0.0 0.00013255569364939432 0.0 0.0
0.011284555631865551 -0.008226862593472557 0.0 0.00013776173963172262 0.0 0.0
0.015398152315179811 -0.011845945971547877 0.0 0.00012997484255849215 0.0 0.0
0.020422446886051188 -0.016283576615525694 0.0 0.00015408240063767564 0.0 0.0
0.026535713818475193 -0.021717321354690948 0.0 0.00020729733676421727 0.0 0.0
0.03394512239276859 -0.028383354402867614 0.0 0.00020807353993057597 0.0 0.0
0.04283513590858072 -0.03648900643128634 0.0 0.0002042731224848927 0.0 0.0
0.05328000004132795 -0.04615207253542701 0.0 0.0001297863520536445 0.0 0.0
0.06507849289100973 -0.05721529575487806 0.0 -4.262994673485151e-05 0.0 0.0
0.07763394435067933 -0.06911693586202806 0.0 -0.00029290670720756346 0.0 0.0
0.08993545330379511 -0.08088079963038483 0.0 -0.000524096990957762 0.0 0.0
0.10068826347987817 -0.09123527210929581 0.0 -0.0005794313357404357 0.0 0.0
0.10846490965863032 -0.09879989777928314 0.0 -0.0005783069609808398 0.0 0.0
0.11142528954763706 -0.10177773582871238 0.0 2.3739690768742605e-15 0.0 0.0
0.10846490965862149 -0.09879989777927434 0.0 0.0005783069609856754 0.0 0.0
0.1006882634798574 -0.09123527210928079 0.0 0.0005794313357448668 0.0 0.0
0.08993545330376529 -0.08088079963035931 0.0 0.0005240969909622367 0.0 0.0
0.07763394435064494 -0.06911693586200117 0.0 0.0002929067072074583 0.0 0.0
0.06507849289097482 -0.057215295754845505 0.0 4.262994673453818e-05 0.0 0.0
0.05328000004129292 -0.04615207253539514 0.0 -0.00012978635205444788 0.0 0.0
0.04283513590854397 -0.036489006431251976 0.0 -0.00020427312248628895 0.0 0.0
0.03394512239273142 -0.028383354402831774 0.0 -0.0002080735399301271 0.0 0.0
0.026535713818439603 -0.02171732135466239 0.0 -0.00020729733676589854 0.0 0.0
0.02042244688602008 -0.016283576615495322 0.0 -0.00015408240064015565 0.0 0.0
0.015398152315154786 -0.011845945971526934 0.0 -0.0001299748425590561 0.0 0.0
0.011284555631845198 -0.008226862593453475 0.0 -0.00013776173963260248 0.0 0.0
0.007988089896810628 -0.005358922862732414 0.0 -0.00013255569364871049 0.0 0.0
0.005458250464724282 -0.0032326179939337818 0.0 -0.0001241019818408322 0.0 0.0
0.0036346532729034904 -0.001777429490725669 0.0 -0.00010077229033568125 0.0 0.0
0.0025015718166582187 -0.0009897580818321854 0.0 -4.1295573779154266e-05 0.0 0.0
0.0019429637950564588 -0.0007737622187000363 0.0 5.080449348419284e-05 0.0 0.0
0.0021079660744401578 -0.0006485627429403855 0.0 0.000520411315625398 0.0 0.0
0.006276352241068064 -0.0011161402472892427 0.0 0.005429771240456169 0.0 0.0
0.010110302378612258 -0.017928365067754987 0.0 0.000501607750494604 0.0 0.0
0.006755545262952772 -0.015943227349309995 0.0 -6.32855336585548e-05 0.0 0.0
0.004052247377082968 -0.0008004091902332707 0.0 -0.004204310047166213 0.0 0.0
0.0014760843895210917 -0.0005238689728334032 0.0 -0.000353204291090929 0.0 0.0
0.0017476436270791873 -0.0007412124409274288 0.0 -0.0002126594698408761 0.0 0.0
0.002204816778430806 -0.0009167470451059976 0.0 -0.00017271993109159082 0.0 0.0
0.0031717644833061487 -0.0016004429678675486 0.0 -0.00018662987910296887 0.0 0.0
0.004803522989840798 -0.002954817350816021 0.0 -0.00033788079234473885 0.0 0.0
0.007103630880800113 -0.004963314117546339 0.0 -0.0005142261763374157 0.0 0.0
0.010102576243695921 -0.0076832495737753515 0.0 -0.0007296215924892246 0.0 0.0
0.01382536447244103 -0.011113580460785862 0.0 -0.0009742064074001306 0.0 0.0
0.018340631814297216 -0.015310377972903626 0.0 -0.0012170084956834176 0.0 0.0
0.023800990199126747 -0.020432507510124508 0.0 -0.0014541472681401876 0.0 0.0
0.03042807344976681 -0.026714819643864803 0.0 -0.001757735817220126 0.0 0.0
0.03842336574527547 -0.034382279156419684 0.0 -0.0021535607551044942 0.0 0.0
0.04786641769109429 -0.04354886791627949 0.0 -0.0026378193805513665 0.0 0.0
0.058585578997513814 -0.054071261908012994 0.0 -0.003193148499783088 0.0 0.0
0.07003809301267962 -0.06542118724403882 0.0 -0.0036866624656683813 0.0 0.0
0.08131080836866293 -0.0766764004970237 0.0 -0.0038556240383314337 0.0 0.0
0.09120393734548184 -0.08662062871046562 0.0 -0.003443567116703565 0.0 0.0
0.09825320485572533 -0.09384292495180996 0.0 -0.0025350492829969507 0.0 0.0
0.10086534532145627 -0.0967175902121333 0.0 4.55581752878409e-15 0.0 0.0
0.0982532048557167 -0.09384292495180255 0.0 0.002535049283006049 0.0 0.0
0.09120393734546348 -0.0866206287104478 0.0 0.0034435671167144656 0.0 0.0
0.08131080836863724 -0.07667640049700128 0.0 0.003855624038339125 0.0 0.0
0.07003809301264978 -0.06542118724400979 0.0 0.003686662465669762 0.0 0.0
0.05858557899748257 -0.05407126190798102 0.0 0.0031931484997825524 0.0 0.0
0.04786641769106248 -0.04354886791624948 0.0 0.002637819380550608 0.0 0.0
0.03842336574524272 -0.03438227915638788 0.0 0.0021535607551034022 0.0 0.0
0.03042807344973359 -0.026714819643832804 0.0 0.0017577358172188985 0.0 0.0
0.023800990199094887 -0.02043250751009383 0.0 0.0014541472681364308 0.0 0.0
0.018340631814269228 -0.01531037797287673 0.0 0.0012170084956798898 0.0 0.0
0.01382536447241812 -0.011113580460762709 0.0 0.0009742064073975366 0.0 0.0
0.010102576243677516 -0.007683249573757496 0.0 0.0007296215924871014 0.0 0.0
0.00710363088078587 -0.004963314117534173 0.0 0.000514226176335888 0.0 0.0
0.004803522989831179 -0.0029548173508072498 0.0 0.00033788079234290313 0.0 0.0
0.0031717644833010473 -0.0016004429678631632 0.0 0.00018662987910101549 0.0 0.0
0.002204816778428738 -0.0009167470451059152 0.0 0.00017271993109219 0.0 0.0
0.0017476436270782957 -0.0007412124409270828 0.0 0.00021265946983980668 0.0 0.0
0.0014760843895208924 -0.0005238689728334527 0.0 0.00035320429109058596 0.0 0.0
0.0040522473770780365 -0.000800409190231232 0.0 0.004204310047157969 0.0 0.0
0.006755545262942649 -0.0159432273492889 0.0 6.328553363238649e-05 0.0 0.0
0.004815898092758349 -0.012535150163405322 0.0 -0.002420961672533848 0.0 0.0
0.002800428452896817 -0.00040698189559658685 0.0 -0.004050664688271103 0.0 0.0
0.0010480298391791609 -0.0003111631756801036 0.0 -0.00034604633883021966 0.0 0.0
0.001499081742393403 -0.0006481718056060929 0.0 -0.00046753758232436523 0.0 0.0
0.0019361019598431034 -0.000793697165344284 0.0 -0.0004682952066777154 0.0 0.0
0.0027274409419988143 -0.0012733644759869319 0.0 -0.0004512615636881551 0.0 0.0
0.004144931361291469 -0.0024018478898647656 0.0 -0.0007208427100246137 0.0 0.0
0.006208619529564668 -0.004177587398620957 0.0 -0.0010818092553147437 0.0 0.0
0.008901949179987264 -0.006594570010875109 0.0 -0.0015181770249899666 0.0 0.0
0.012232410747225402 -0.00964675091490872 0.0 -0.0020036980826470523 0.0 0.0
0.0162458466464721 -0.013363123971439763 0.0 -0.0025032936733795303 0.0 0.0
0.021070721642491314 -0.017872479678589844 0.0 -0.003001239324285933 0.0 0.0
0.026914081574381746 -0.023393466775316542 0.0 -0.0035508325372398102 0.0 0.0
0.033997227870825215 -0.030172016038671756 0.0 -0.004259350111183894 0.0 0.0
0.04241704370930984 -0.03833436110964888 0.0 -0.005148714610415293 0.0 0.0
0.052027978052301534 -0.04776137961529048 0.0 -0.0061354920165821655 0.0 0.0
0.06237053557986944 -0.058000284214608344 0.0 -0.006980544827304547 0.0 0.0
0.07263899324894851 -0.06824496463282095 0.0 -0.0072526358092989685 0.0 0.0
0.08170156137592965 -0.07737457145913118 0.0 -0.006544810497800476 0.0 0.0
0.08819756218090849 -0.08399921014045697 0.0 -0.004743041303753888 0.0 0.0
0.09062486827382057 -0.08676262355346524 0.0 8.743873680661096e-15 0.0 0.0
0.08819756218090063 -0.08399921014045166 0.0 0.004743041303771798 0.0 0.0
0.08170156137591371 -0.07737457145911446 0.0 0.006544810497820122 0.0 0.0
0.0726389932489263 -0.06824496463280019 0.0 0.007252635809311439 0.0 0.0
0.062370535579843414 -0.058000284214583156 0.0 0.006980544827308234 0.0 0.0
0.05202797805227365 -0.04776137961526169 0.0 0.006135492016580627 0.0 0.0
0.042417043709281385 -0.03833436110962283 0.0 0.00514871461041397 0.0 0.0
0.03399722787079608 -0.03017201603864309 0.0 0.004259350111182283 0.0 0.0
0.02691408157435224 -0.023393466775288696 0.0 0.0035508325372372402 0.0 0.0
0.021070721642463014 -0.017872479678559705 0.0 0.0030012393242810076 0.0 0.0
0.016245846646447192 -0.013363123971418756 0.0 0.002503293673375457 0.0 0.0
0.012232410747204863 -0.009646750914887384 0.0 0.0020036980826422697 0.0 0.0
0.00890194917997067 -0.006594570010859807 0.0 0.0015181770249862786 0.0 0.0
0.006208619529552185 -0.004177587398611457 0.0 0.001081809255311058 0.0 0.0
0.004144931361283325 -0.0024018478898583 0.0 0.0007208427100223222 0.0 0.0
0.00272744094199483 -0.001273364475984319 0.0 0.00045126156368680025 0.0 0.0
0.0019361019598417503 -0.0007936971653442407 0.0 0.0004682952066772289 0.0 0.0
0.0014990817423930452 -0.000648171805605955 0.0 0.0004675375823234261 0.0 0.0
0.0010480298391792103 -0.0003111631756808064 0.0 0.0003460463388294298 0.0 0.0
0.0028004284528921016 -0.00040698189559409216 0.0 0.004050664688260472 0.0 0.0
0.004815898092748844 -0.012535150163385208 0.0 0.0024209616725179447 0.0 0.0
0.003553546011429049 -0.010001864799901544 0.0 -0.0028287992000253 0.0 0.0
0.00201661984685775 -0.0003181389546765954 0.0 -0.003735457238453968 0.0 0.0
0.0007516258874695084 -0.0001726300922091387 0.0 -0.0006343620389682055 0.0 0.0
0.001243416056574491 -0.0005205955174880703 0.0 -0.0007016880145947503 0.0 0.0
0.0016803060252643413 -0.0006966543839929762 0.0 -0.0007702884829339679 0.0 0.0
0.0023186259651683627 -0.001017522919231698 0.0 -0.0007318693095387309 0.0 0.0
0.003496632886145738 -0.0018747088417003462 0.0 -0.0009787074232220395 0.0 0.0
0.005306176530156266 -0.0034022983765082744 0.0 -0.0015081795146269035 0.0 0.0
0.007689958984306867 -0.00551022363132574 0.0 -0.0021167759271987245 0.0 0.0
0.010627470753745726 -0.008180443492236157 0.0 -0.0027933075593884527 0.0 0.0
0.014144367816317574 -0.011421569962665072 0.0 -0.003490508081225025 0.0 0.0
0.018345588246951587 -0.015331843463035726 0.0 -0.004188789857156043 0.0 0.0
0.023419554333199418 -0.020104978196141505 0.0 -0.004943587279706545 0.0 0.0
0.02957862739142133 -0.02598402549690882 0.0 -0.005869733575591804 0.0 0.0
0.036946835222541476 -0.033115312111404616 0.0 -0.007032101153898 0.0 0.0
0.045429726660953636 -0.04141997417417323 0.0 -0.008341370087883255 0.0 0.0
0.05464541628322355 -0.050529286102818656 0.0 -0.009469631281608718 0.0 0.0
0.06390216985451873 -0.05976015627819095 0.0 -0.00987613391239976 0.0 0.0
0.07218233119778386 -0.06809664392887999 0.0 -0.00901576549853689 0.0 0.0
0.07824823226200772 -0.07427075092186451 0.0 -0.006422737665346546 0.0 0.0
0.08056570385277541 -0.0770661278726639 0.0 1.044520372972535e-14 0.0 0.0
0.07824823226200008 -0.07427075092185924 0.0 0.006422737665371702 0.0 0.0
0.07218233119776961 -0.06809664392886745 0.0 0.009015765498561815 0.0 0.0
0.06390216985449916 -0.059760156278172494 0.0 0.009876133912415958 0.0 0.0
0.05464541628320084 -0.05052928610279961 0.0 0.009469631281612155 0.0 0.0
0.045429726660929176 -0.04141997417414883 0.0 0.008341370087880846 0.0 0.0
0.03694683522251633 -0.03311531211138429 0.0 0.007032101153896126 0.0 0.0
0.029578627391395912 -0.025984025496883032 0.0 0.005869733575589325 0.0 0.0
0.02341955433317387 -0.02010497819611652 0.0 0.004943587279701226 0.0 0.0
0.018345588246927096 -0.015331843463011325 0.0 0.004188789857149514 0.0 0.0
0.014144367816295673 -0.011421569962645886 0.0 0.003490508081218884 0.0 0.0
0.01062747075372755 -0.008180443492219544 0.0 0.0027933075593824333 0.0 0.0
0.007689958984292216 -0.005510223631311855 0.0 0.002116775927193942 0.0 0.0
0.005306176530145241 -0.0034022983764999946 0.0 0.0015081795146236077 0.0 0.0
0.003496632886138971 -0.0018747088416950063 0.0 0.0009787074232196552 0.0 0.0
0.0023186259651653126 -0.0010175229192300314 0.0 0.000731869309538057 0.0 0.0
0.0016803060252632176 -0.0006966543839930435 0.0 0.0007702884829332346 0.0 0.0
0.0012434160565740512 -0.0005205955174881116 0.0 0.0007016880145935539 0.0 0.0
0.000751625887469568 -0.0001726300922097224 0.0 0.0006343620389660095 0.0 0.0
0.0020166198468537207 -0.00031813895467447455 0.0 0.00373545723844402 0.0 0.0
0.003553546011420796 -0.0100018647998838 0.0 0.002828799200014101 0.0 0.0
0.002642720737924387 -0.007982163868251499 0.0 -0.0025849348461807553 0.0 0.0
0.0014766890471955966 -0.0003129195080718184 0.0 -0.0033927852680746408 0.0 0.0
0.0005427808266371816 -9.716550718781788e-05 0.0 -0.0009989962822385776 0.0 0.0
0.0010000971612613486 -0.000390913046758939 0.0 -0.0009573937569000066 0.0 0.0
0.0014269304275333957 -0.0005976704036042501 0.0 -0.0010559548142588622 0.0 0.0
0.0019518534820949511 -0.0008310735692670683 0.0 -0.0010369670264555777 0.0 0.0
0.0028809694931652093 -0.0014205272412654304 0.0 -0.0011892209768211886 0.0 0.0
0.004402876023448315 -0.0026402916392878825 0.0 -0.0017486137859631886 0.0 0.0
0.006474045264656532 -0.004441436005698164 0.0 -0.00251863828316811 0.0 0.0
0.009017368194525139 -0.0067264711770803915 0.0 -0.0033358364420369587 0.0 0.0
0.01204422285034311 -0.009495929088082125 0.0 -0.004177257294310518 0.0 0.0
0.015632254472046497 -0.012817502902954414 0.0 -0.005015473708662883 0.0 0.0
0.019944567668780593 -0.016855483665692183 0.0 -0.00591172664875312 0.0 0.0
0.025187826456388028 -0.0218379246764215 0.0 -0.006986988401155442 0.0 0.0
0.03149138948355244 -0.027922997422447006 0.0 -0.008315506476853658 0.0 0.0
0.03881118029300199 -0.0350772681137283 0.0 -0.009801730610725269 0.0 0.0
0.046870827496290325 -0.04302431163704021 0.0 -0.011117855348650283 0.0 0.0
0.05509964208326013 -0.05121349878418577 0.0 -0.011694423431479037 0.0 0.0
0.06262392494802428 -0.05877823758238039 0.0 -0.01080477136530037 0.0 0.0
0.06833862395441927 -0.06459819780648944 0.0 -0.007712199757596937 0.0 0.0
0.07059478467939026 -0.06751142165946371 0.0 1.202033264591229e-14 0.0 0.0
0.06833862395441233 -0.0645981978064832 0.0 0.007712199757626246 0.0 0.0
0.06262392494801147 -0.058778237582367054 0.0 0.010804771365327679 0.0 0.0
0.05509964208324319 -0.05121349878417201 0.0 0.011694423431496164 0.0 0.0
0.046870827496270605 -0.043024311637022986 0.0 0.011117855348654636 0.0 0.0
0.038811180292980675 -0.0350772681137085 0.0 0.009801730610723024 0.0 0.0
0.03149138948353084 -0.027922997422429246 0.0 0.00831550647685082 0.0 0.0
0.025187826456366337 -0.021837924676400732 0.0 0.0069869884011526055 0.0 0.0
0.019944567668758805 -0.01685548366567101 0.0 0.005911726648747284 0.0 0.0
0.015632254472025844 -0.012817502902933557 0.0 0.005015473708656588 0.0 0.0
0.012044222850324336 -0.009495929088063381 0.0 0.004177257294302875 0.0 0.0
0.009017368194509271 -0.006726471177065519 0.0 0.0033358364420297106 0.0 0.0
0.006474045264644083 -0.004441436005686172 0.0 0.0025186382831626584 0.0 0.0
0.004402876023439213 -0.002640291639280097 0.0 0.001748613785959139 0.0 0.0
0.0028809694931598117 -0.0014205272412621734 0.0 0.0011892209768187268 0.0 0.0
0.0019518534820926305 -0.000831073569265522 0.0 0.001036967026455009 0.0 0.0
0.0014269304275324334 -0.0005976704036038293 0.0 0.0010559548142579757 0.0 0.0
0.0010000971612609954 -0.0003909130467586912 0.0 0.0009573937568984853 0.0 0.0
0.0005427808266371911 -9.71655071880857e-05 0.0 0.0009989962822366252 0.0 0.0
0.001476689047192045 -0.00031291950807007363 0.0 0.003392785268066586 0.0 0.0
0.0026427207379173295 -0.007982163868236386 0.0 0.0025849348461722556 0.0 0.0
0.0019547501796716516 -0.006320522754337582 0.0 -0.002207608028019773 0.0 0.0
0.0010818673900210333 -0.00032636559885628873 0.0 -0.0030570851657985483 0.0 0.0
0.0003873121741922553 -6.062818205227754e-05 0.0 -0.0013434971924482515 0.0 0.0
0.0007739154974598007 -0.0002734293629187596 0.0 -0.0012224832615624474 0.0 0.0
0.001172709835420045 -0.0004878106082519321 0.0 -0.0013172500987454088 0.0 0.0
0.0016132982856976472 -0.0006836443668590574 0.0 -0.001340130921964673 0.0 0.0
0.0023230592862253058 -0.0010676850201605137 0.0 -0.0014307793869849485 0.0 0.0
0.0035252870353201394 -0.0019407503649435972 0.0 -0.0018650633636655592 0.0 0.0
0.005253247739089718 -0.0033943159146110364 0.0 -0.0026851516483250904 0.0 0.0
0.007409529872804197 -0.005297473406047579 0.0 -0.0036205231658337075 0.0 0.0
0.009950833680974797 -0.007597259610805453 0.0 -0.004550376185870692 0.0 0.0
0.012937252551073124 -0.010340575805474256 0.0 -0.005476985103598093 0.0 0.0
0.016503117095345226 -0.013656019693389636 0.0 -0.006447957271168113 0.0 0.0
0.020831400014047794 -0.017749323828013905 0.0 -0.007587146350147466 0.0 0.0
0.02606783018270484 -0.022782744292550228 0.0 -0.008983187508386023 0.0 0.0
0.03221275924983908 -0.0287684647827604 0.0 -0.010540486244603287 0.0 0.0
0.03906843878642383 -0.03551298661511712 0.0 -0.011937635007948344 0.0 0.0
0.046223519537564345 -0.04260925706503601 0.0 -0.012643526936688814 0.0 0.0
0.052991515224527816 -0.04939192404682296 0.0 -0.011875698330136204 0.0 0.0
0.05840133771993583 -0.05491025362854903 0.0 -0.008640995017160966 0.0 0.0
0.060629456118045016 -0.05801506009625322 0.0 1.252904030524249e-14 0.0 0.0
0.05840133771992932 -0.05491025362854307 0.0 0.00864099501718878 0.0 0.0
0.05299151522451647 -0.04939192404681093 0.0 0.011875698330164653 0.0 0.0
0.04622351953755001 -0.042609257065023456 0.0 0.012643526936706749 0.0 0.0
0.03906843878640697 -0.0355129866150999 0.0 0.011937635007952913 0.0 0.0
0.032212759249820554 -0.0287684647827463 0.0 0.010540486244600656 0.0 0.0
0.026067830182686536 -0.022782744292532367 0.0 0.008983187508383308 0.0 0.0
0.020831400014030017 -0.01774932382799836 0.0 0.007587146350144364 0.0 0.0
0.01650311709532739 -0.013656019693371739 0.0 0.006447957271163063 0.0 0.0
0.012937252551055824 -0.010340575805456963 0.0 0.005476985103591187 0.0 0.0
0.00995083368095901 -0.007597259610789818 0.0 0.004550376185861831 0.0 0.0
0.00740952987279111 -0.0052974734060347245 0.0 0.0036205231658259602 0.0 0.0
0.005253247739079437 -0.003394315914601877 0.0 0.0026851516483200498 0.0 0.0
0.0035252870353127937 -0.0019407503649380223 0.0 0.001865063363661912 0.0 0.0
0.002323059286221479 -0.0010676850201569868 0.0 0.0014307793869823451 0.0 0.0
0.0016132982856962071 -0.000683644366857461 0.0 0.0013401309219634827 0.0 0.0
0.0011727098354192755 -0.00048781060825147857 0.0 0.0013172500987434703 0.0 0.0
0.0007739154974594441 -0.0002734293629183365 0.0 0.0012224832615606606 0.0 0.0
0.00038731217419225595 -6.0628182052022006e-05 0.0 0.0013434971924459577 0.0 0.0
0.0010818673900184663 -0.0003263655988552164 0.0 0.003057085165792367 0.0 0.0
0.001954750179666403 -0.006320522754325125 0.0 0.002207608028014054 0.0 0.0
0.0014298201283271402 -0.0049388513970256 0.0 -0.0018574896253102163 0.0 0.0
0.0007838982013133788 -0.00034504539210923895 0.0 -0.0027553888683032202 0.0 0.0
0.0002618339377820031 -4.0809391138332404e-05 0.0 -0.0016309820500088042 0.0 0.0
0.0005642914010352177 -0.00017103075353429458 0.0 -0.0014757055088852364 0.0 0.0
0.0009160393001869491 -0.0003692000938468562 0.0 -0.0015494603835755482 0.0 0.0
0.0012855545319229065 -0.000551188596966355 0.0 -0.0016220826074006245 0.0 0.0
0.0018172303113088476 -0.0007945755428087537 0.0 -0.0016778749692083073 0.0 0.0
0.002710366669726688 -0.0013619434758455646 0.0 -0.0019737887781913752 0.0 0.0
0.004055657429846236 -0.0024101537560307744 0.0 -0.002650012460156071 0.0 0.0
0.005804755807700033 -0.003906685897901378 0.0 -0.003605785699949041 0.0 0.0
0.007871420487666593 -0.005741350442200224 0.0 -0.004591837709797428 0.0 0.0
0.010265748707872413 -0.007913574999166274 0.0 -0.005556279151977284 0.0 0.0
0.013099496829847618 -0.01052100375950135 0.0 -0.00654366743269093 0.0 0.0
0.01653042855518436 -0.013739387395441153 0.0 -0.007671773298598389 0.0 0.0
0.020697421940868748 -0.017721160355039817 0.0 -0.009016862657978365 0.0 0.0
0.025646208642811395 -0.022522855696607877 0.0 -0.010537016591172357 0.0 0.0
0.0312698384289906 -0.028029202392260397 0.0 -0.011933802789848152 0.0 0.0
0.037290337913247165 -0.033969831034532605 0.0 -0.012718980136357099 0.0 0.0
0.04324477607147141 -0.039908935024903475 0.0 -0.012177304225327522 0.0 0.0
0.04835812524693576 -0.04512807074538502 0.0 -0.009183998835834522 0.0 0.0
0.050582181751231865 -0.048496442410200076 0.0 1.2212453270876722e-14 0.0 0.0
0.04835812524693007 -0.045128070745379494 0.0 0.009183998835860924 0.0 0.0
0.04324477607146192 -0.039908935024891554 0.0 0.012177304225356657 0.0 0.0
0.03729033791323517 -0.03396983103452104 0.0 0.012718980136373934 0.0 0.0
0.031269838428976855 -0.028029202392245645 0.0 0.011933802789849686 0.0 0.0
0.0256462086427965 -0.022522855696595134 0.0 0.010537016591167545 0.0 0.0
0.020697421940853934 -0.017721160355026792 0.0 0.009016862657974923 0.0 0.0
0.016530428555170187 -0.013739387395428427 0.0 0.007671773298595546 0.0 0.0
0.01309949682983366 -0.010521003759489445 0.0 0.006543667432687653 0.0 0.0
0.010265748707858811 -0.007913574999151643 0.0 0.0055562791519694135 0.0 0.0
0.007871420487654001 -0.005741350442189143 0.0 0.004591837709788994 0.0 0.0
0.005804755807689583 -0.003906685897890262 0.0 0.003605785699941453 0.0 0.0
0.004055657429838255 -0.002410153756023953 0.0 0.002650012460151206 0.0 0.0
0.0027103666697212573 -0.0013619434758410072 0.0 0.001973788778188735 0.0 0.0
0.0018172303113062173 -0.0007945755428065334 0.0 0.0016778749692071444 0.0 0.0
0.0012855545319217167 -0.000551188596966274 0.0 0.0016220826073983768 0.0 0.0
0.0009160393001862242 -0.00036920009384647234 0.0 0.0015494603835739973 0.0 0.0
0.0005642914010350089 -0.00017103075353417141 0.0 0.001475705508883605 0.0 0.0
0.0002618339377818996 -4.080939113774781e-05 0.0 0.0016309820500065397 0.0 0.0
0.0007838982013113754 -0.00034504539210893363 0.0 0.0027553888682977324 0.0 0.0
0.001429820128323187 -0.004938851397015691 0.0 0.0018574896253063993 0.0 0.0
0.0010269824046991432 -0.0038028944851308654 0.0 -0.001604805103462237 0.0 0.0
0.0005532183157131081 -0.0003686065398868115 0.0 -0.002490634093123073 0.0 0.0
0.00015201373538105737 -2.2487452725132495e-05 0.0 -0.0018558600521264741 0.0 0.0
0.00036798194045078097 -8.166753473933994e-05 0.0 -0.0016986286240958976 0.0 0.0
0.0006579559374426943 -0.0002484122062368548 0.0 -0.0017506390857228594 0.0 0.0
0.0009621141875933901 -0.00041197721764588423 0.0 -0.0018554055540019885 0.0 0.0
0.0013486431136426988 -0.0005778608633794784 0.0 -0.0019279120326301386 0.0 0.0
0.0019649435595224135 -0.0009086898611553266 0.0 -0.0020946927478346115 0.0 0.0
0.002922612477560678 -0.0015589991003832175 0.0 -0.0025351900975077927 0.0 0.0
0.00422618614213301 -0.002600812188325811 0.0 -0.003314810532144929 0.0 0.0
0.005805574023430887 -0.003951354519002297 0.0 -0.004268913748433666 0.0 0.0
0.007622429614526522 -0.005559635744118502 0.0 -0.005216901848595778 0.0 0.0
0.009742432776244658 -0.007472699822788111 0.0 -0.00617479489222082 0.0 0.0
0.012292468345640593 -0.009833762404332678 0.0 -0.007220301602046071 0.0 0.0
0.015401419729830255 -0.012775186437990327 0.0 -0.00843377116970546 0.0 0.0
0.01914349723167661 -0.016376666879419893 0.0 -0.009783116856907293 0.0 0.0
0.023490937052837488 -0.020610050312340457 0.0 -0.011081943527190205 0.0 0.0
0.02830948563347962 -0.025329368585745426 0.0 -0.011887776438471437 0.0 0.0
0.03336040107153949 -0.030315998094473433 0.0 -0.01163978237837194 0.0 0.0
0.03812876410765078 -0.035170444796919 0.0 -0.009280796612398733 0.0 0.0
0.04035121591625344 -0.03887172580742861 0.0 1.0150300738809293e-14 0.0 0.0
0.03812876410764647 -0.03517044479691474 0.0 0.009280796612422908 0.0 0.0
0.03336040107153194 -0.03031599809446378 0.0 0.011639782378399029 0.0 0.0
0.028309485633469855 -0.02532936858573749 0.0 0.011887776438485011 0.0 0.0
0.023490937052826694 -0.020610050312334132 0.0 0.01108194352719131 0.0 0.0
0.019143497231665193 -0.0163766668794078 0.0 0.00978311685690228 0.0 0.0
0.015401419729819284 -0.01277518643798067 0.0 0.008433771169701976 0.0 0.0
0.01229246834563071 -0.009833762404321624 0.0 0.007220301602044305 0.0 0.0
0.009742432776234523 -0.007472699822779332 0.0 0.006174794892217108 0.0 0.0
0.007622429614516304 -0.005559635744108303 0.0 0.005216901848588274 0.0 0.0
0.005805574023421491 -0.003951354518997284 0.0 0.00426891374842563 0.0 0.0
0.00422618614212523 -0.002600812188319206 0.0 0.003314810532137732 0.0 0.0
0.002922612477555209 -0.00155899910037996 0.0 0.0025351900975041602 0.0 0.0
0.001964943559518944 -0.0009086898611522462 0.0 0.002094692747833099 0.0 0.0
0.0013486431136408516 -0.0005778608633792929 0.0 0.0019279120326286012 0.0 0.0
0.0009621141875924722 -0.0004119772176464611 0.0 0.0018554055539999927 0.0 0.0
0.0006579559374422309 -0.00024841220623579585 0.0 0.0017506390857211047 0.0 0.0
0.00036798194045058007 -8.166753473935427e-05 0.0 0.0016986286240938875 0.0 0.0
0.0001520137353808204 -2.2487452724373205e-05 0.0 0.0018558600521239648 0.0 0.0
0.0005532183157117496 -0.000368606539886789 0.0 0.0024906340931190895 0.0 0.0
0.0010269824046967677 -0.0038028944851236346 0.0 0.0016048051034606204 0.0 0.0
0.0007349398432821859 -0.0029214164361949886 0.0 -0.0014804800599659464 0.0 0.0
0.0003756657450758717 -0.00039289129995417573 0.0 -0.002281290048632865 0.0 0.0
4.688998441174422e-05 1.2234748277680802e-06 0.0 -0.002019820671225821 0.0 0.0
0.00018286488910960547 -2.3969491576109456e-06 0.0 -0.0018798961650559466 0.0 0.0
0.0004014274021053527 -0.00012949911156140574 0.0 -0.0019134392875472571 0.0 0.0
0.0006302319817994222 -0.0002611807876084491 0.0 -0.0020312398895727633 0.0 0.0
0.0008992901141858468 -0.00038625248829721426 0.0 -0.002153796521741848 0.0 0.0
0.0012880050865693047 -0.0005655602545004999 0.0 -0.002262067344366796 0.0 0.0
0.001878331254059585 -0.0008979276943537774 0.0 -0.0024760273294081167 0.0 0.0
0.0027164028099803377 -0.001474197675315602 0.0 -0.002903446212028992 0.0 0.0
0.003777739319764194 -0.0022995292075654386 0.0 -0.003618678900569271 0.0 0.0
0.005010850635013954 -0.0033329365647500326 0.0 -0.004430518776531554 0.0 0.0
0.006432397819079004 -0.004558460332140196 0.0 -0.0053032971163280455 0.0 0.0
0.008126947637969801 -0.0060820141920409285 0.0 -0.006230433584728796 0.0 0.0
0.010195328398189065 -0.00799785870212765 0.0 -0.007240031032423767 0.0 0.0
0.012724274967937526 -0.010393709423221327 0.0 -0.008348974351640717 0.0 0.0
0.0157666753015353 -0.013313493448746829 0.0 -0.009460044835437623 0.0 0.0
0.019308043884293857 -0.016752422846829717 0.0 -0.010247416553192536 0.0 0.0
0.023310975093595452 -0.020646178726436946 0.0 -0.010208572598028735 0.0 0.0
0.027621257569581992 -0.024959224236531383 0.0 -0.008756310052097819 0.0 0.0
0.02981604119752887 -0.02903607607791245 0.0 8.385219602002891e-15 0.0 0.0
0.02762125756957877 -0.024959224236527605 0.0 0.008756310052118865 0.0 0.0
0.023310975093589873 -0.020646178726433758 0.0 0.01020857259805071 0.0 0.0
0.019308043884286533 -0.016752422846824773 0.0 0.010247416553202958 0.0 0.0
0.015766675301527897 -0.013313493448743531 0.0 0.009460044835436927 0.0 0.0
0.012724274967929983 -0.01039370942321428 0.0 0.00834897435163592 0.0 0.0
0.010195328398181937 -0.007997858702118579 0.0 0.007240031032421806 0.0 0.0
0.008126947637963547 -0.006082014192036624 0.0 0.006230433584727646 0.0 0.0
0.006432397819072626 -0.004558460332133865 0.0 0.005303297116324155 0.0 0.0
0.005010850635007452 -0.0033329365647445 0.0 0.004430518776525595 0.0 0.0
0.0037777393197581813 -0.0022995292075623217 0.0 0.003618678900562106 0.0 0.0
0.0027164028099756015 -0.0014741976753119002 0.0 0.0029034462120247563 0.0 0.0
0.0018783312540564673 -0.0008979276943530738 0.0 0.0024760273294067523 0.0 0.0
0.0012880050865673174 -0.0005655602544999095 0.0 0.002262067344366096 0.0 0.0
0.0008992901141848579 -0.00038625248829718997 0.0 0.0021537965217395087 0.0 0.0
0.000630231981798833 -0.0002611807876068472 0.0 0.002031239889570358 0.0 0.0
0.0004014274021049652 -0.00012949911156059338 0.0 0.0019134392875448827 0.0 0.0
0.00018286488910941226 -2.396949158110014e-06 0.0 0.001879896165053985 0.0 0.0
4.6889984411503123e-05 1.2234748283398957e-06 0.0 0.0020198206712229343 0.0 0.0
0.00037566574507500627 -0.00039289129995441995 0.0 0.00228129004862998 0.0 0.0
0.0007349398432806074 -0.002921416436190085 0.0 0.0014804800599649089 0.0 0.0
0.0005337803641502498 -0.002269202851004159 0.0 -0.0014224419875413469 0.0 0.0
0.0002444595000986771 -0.00040917049779364397 0.0 -0.0021363067852924614 0.0 0.0
-5.24613357706001e-05 2.9084252460488795e-05 0.0 -0.002125189270382007 0.0 0.0
6.841355756407241e-06 6.966399320225847e-05 0.0 -0.0020132058302304093 0.0 0.0
0.00014843062694204202 -1.348867166733286e-05 0.0 -0.002030855825424251 0.0 0.0
0.00029334461238654893 -0.00010569716570579551 0.0 -0.0021469631752654176 0.0 0.0
0.00044517721880059184 -0.0001879857563551848 0.0 -0.0022994777901076966 0.0 0.0
0.0006417898597739001 -0.0002793925998641268 0.0 -0.0024339798621157423 0.0 0.0
0.0009278328034064705 -0.00041185480905896215 0.0 -0.0025310055679809524 0.0 0.0
0.0013218046578711297 -0.0006346034569103149 0.0 -0.00267864201029665 0.0 0.0
0.0018367314555915758 -0.0009749404615659535 0.0 -0.003010787702415395 0.0 0.0
0.0024566159987896375 -0.0014307335517585226 0.0 -0.0035288212953034533 0.0 0.0
0.003171964623713377 -0.001980552410725515 0.0 -0.004166842503114978 0.0 0.0
0.0040294506179610265 -0.0026806351227517066 0.0 -0.004911782735628006 0.0 0.0
0.005079958487068038 -0.003573296012543918 0.0 -0.005760982455025702 0.0 0.0
0.0063990791226806575 -0.004745230832565047 0.0 -0.0067342531063696275 0.0 0.0
0.008101258399395954 -0.006305430703301113 0.0 -0.007766224645549277 0.0 0.0
0.010324718554170293 -0.008403116958610648 0.0 -0.00859606055493136 0.0 0.0
0.013146429464370533 -0.011117808058330588 0.0 -0.008676912515336433 0.0 0.0
0.016748940325341355 -0.01453889397610571 0.0 -0.007631102790682777 0.0 0.0
0.01878966535847231 -0.018898615129167257 0.0 5.730225322020388e-15 0.0 0.0
0.016748940325339832 -0.014538893976104677 0.0 0.007631102790700497 0.0 0.0
0.013146429464367374 -0.011117808058330594 0.0 0.008676912515354249 0.0 0.0
0.010324718554165708 -0.008403116958606014 0.0 0.00859606055493982 0.0 0.0
0.008101258399392186 -0.0063054307032971565 0.0 0.007766224645547605 0.0 0.0
0.006399079122677446 -0.004745230832561485 0.0 0.0067342531063652525 0.0 0.0
0.00507995848706506 -0.003573296012541354 0.0 0.005760982455023786 0.0 0.0
0.00402945061795872 -0.002680635122751114 0.0 0.004911782735626567 0.0 0.0
0.00317196462371109 -0.0019805524107228394 0.0 0.004166842503112318 0.0 0.0
0.0024566159987868723 -0.0014307335517544527 0.0 0.0035288212952987123 0.0 0.0
0.0018367314555888317 -0.000974940461563966 0.0 0.003010787702410308 0.0 0.0
0.0013218046578692387 -0.000634603456909776 0.0 0.0026786420102944976 0.0 0.0
0.0009278328034053921 -0.00041185480905838134 0.0 0.002531005567980881 0.0 0.0
0.0006417898597730693 -0.0002793925998644856 0.0 0.002433979862114241 0.0 0.0
0.00044517721880008883 -0.0001879857563556859 0.0 0.002299477790105059 0.0 0.0
0.00029334461238623516 -0.00010569716570367501 0.0 0.002146963175262568 0.0 0.0
0.00014843062694202877 -1.3488671667885442e-05 0.0 0.0020308558254218067 0.0 0.0
6.841355756460382e-06 6.966399320234112e-05 0.0 0.0020132058302284746 0.0 0.0
-5.246133577069148e-05 2.908425246068242e-05 0.0 0.0021251892703795005 0.0 0.0
0.0002444595000983103 -0.00040917049779399086 0.0 0.002136306785290118 0.0 0.0
0.0005337803641494904 -0.0022692028510010015 0.0 0.0014224419875407705 0.0 0.0
0.00039284294937439997 -0.0017832784141728064 0.0 -0.001368212963742333 0.0 0.0
0.00014616995039947361 -0.00040510648040638776 0.0 -0.00201943864061845 0.0 0.0
-0.00014444494136157599 5.6366469770946395e-05 0.0 -0.002178110700480625 0.0 0.0
-0.00016070361634942614 0.00013694140827479813 0.0 -0.002094853961824952 0.0 0.0
-9.955267536167797e-05 9.848285273057669e-05 0.0 -0.0020976068293788253 0.0 0.0
-4.507809599058168e-05 5.0096852410848534e-05 0.0 -0.0021985002019354744 0.0 0.0
-1.4649841859157555e-05 1.482993603641335e-05 0.0 -0.0023531300130663836 0.0 0.0
-2.652802716858615e-06 2.6714212013064875e-06 0.0 -0.0025031721236973142 0.0 0.0
4.893815025363505e-07 -7.888899951346914e-07 0.0 -0.002585562109404814 0.0 0.0
9.165331725766483e-07 -6.221257911482651e-07 0.0 -0.0026681877931004887 0.0 0.0
6.192604331482342e-07 -6.260276946944081e-07 0.0 -0.0027875062944813984 0.0 0.0
-9.44680956594128e-07 8.625476847984255e-07 0.0 -0.0031191572998176425 0.0 0.0
-5.8124105699033294e-06 4.6754846902542595e-06 0.0 -0.0035829155290396718 0.0 0.0
-1.26605976084438e-05 1.0342158833658157e-05 0.0 -0.004205041440011112 0.0 0.0
-4.414149921182675e-06 1.0032985511798133e-05 0.0 -0.005009997092770004 0.0 0.0
9.101247183071091e-05 -5.1330435540021134e-05 0.0 -0.006001735120425302 0.0 0.0
0.0004502908655222138 -0.00032610378195207346 0.0 -0.007152899976720687 0.0 0.0
0.001353043098569803 -0.0010513809819419583 0.0 -0.00834039513388298 0.0 0.0
0.003032744354874806 -0.0025006237346816788 0.0 -0.009289933731024765 0.0 0.0
0.005630747339611427 -0.004587894832198935 0.0 -0.0093217220431083 0.0 0.0
0.007176316564031756 -0.009160956846585145 0.0 5.880278902692382e-15 0.0 0.0
0.005630747339611406 -0.004587894832198521 0.0 0.009321722043121372 0.0 0.0
0.003032744354873688 -0.0025006237346831867 0.0 0.009289933731034967 0.0 0.0
0.0013530430985690726 -0.001051380981940187 0.0 0.00834039513388712 0.0 0.0
0.00045029086552302565 -0.0003261037819528535 0.0 0.007152899976718285 0.0 0.0
9.101247183178048e-05 -5.13304355395256e-05 0.0 0.0060017351204211065 0.0 0.0
-4.414149920498002e-06 1.0032985511232044e-05 0.0 0.005009997092767805 0.0 0.0
-1.2660597606999318e-05 1.0342158833428035e-05 0.0 0.004205041440010107 0.0 0.0
-5.812410568132177e-06 4.67548468758658e-06 0.0 0.0035829155290373754 0.0 0.0
-9.446809552702087e-07 8.625476835990133e-07 0.0 0.0031191572998138352 0.0 0.0
6.192604342301325e-07 -6.260276972400403e-07 0.0 0.002787506294477451 0.0 0.0
9.165331733934455e-07 -6.221257919849168e-07 0.0 0.002668187793098916 0.0 0.0
4.893815030091846e-07 -7.888899963168038e-07 0.0 0.00258556210940501 0.0 0.0
-2.6528027165097863e-06 2.671421201526001e-06 0.0 0.0025031721236955426 0.0 0.0
-1.4649841858864306e-05 1.48299360354127e-05 0.0 0.0023531300130645496 0.0 0.0
-4.507809599029583e-05 5.009685241098803e-05 0.0 0.002198500201932783 0.0 0.0
-9.955267536145986e-05 9.848285273061657e-05 0.0 0.0020976068293764695 0.0 0.0
-0.0001607036163494119 0.00013694140827542368 0.0 0.002094853961822698 0.0 0.0
-0.0001444449413616266 5.6366469770977525e-05 0.0 0.002178110700478639 0.0 0.0
0.00014616995039932237 -0.0004051064804063589 0.0 0.0020194386406172564 0.0 0.0
0.0003928429493740796 -0.0017832784141707401 0.0 0.0013682129637415496 0.0 0.0
0.00029309267986632687 -0.0013958548402470121 0.0 -0.001276831626092567 0.0 0.0
7.063829157885257e-05 -0.00037980965145409184 0.0 -0.0019018495384436895 0.0 0.0
-0.00022983495639337763 8.250517373589467e-05 0.0 -0.0021795622035100655 0.0 0.0
-0.00031988137896300344 0.0002000948497297185 0.0 -0.0021235709944812694 0.0 0.0
-0.00034092505242215636 0.0002052304968694757 0.0 -0.0021096994753105865 0.0 0.0
-0.00037932055799062045 0.00020359160143750265 0.0 -0.002183748014241046 0.0 0.0
-0.0004736640447824275 0.0002171935879759955 0.0 -0.002314591239882292 0.0 0.0
-0.0006475694482123303 0.00028449885205465334 0.0 -0.0024382142889217257 0.0 0.0
-0.0009266550336955192 0.00041027504444875033 0.0 -0.002531629250812788 0.0 0.0
-0.0013198425275073049 0.0006330531026952919 0.0 -0.0026775386591225752 0.0 0.0
-0.001835427454260975 0.0009739264042187717 0.0 -0.003009158511914753 0.0 0.0
-0.0024585346543877858 0.0014325648092753896 0.0 -0.0035278223009983425 0.0 0.0
-0.0031833001335254806 0.0019901895074885606 0.0 -0.004161809681638351 0.0 0.0
-0.004055235637950921 0.002704410072841629 0.0 -0.0048998043519874026 0.0 0.0
-0.00508982904101087 0.003596973010813938 0.0 -0.005768095891839216 0.0 0.0
-0.006226480605535168 0.004642056709013338 0.0 -0.006840786954303764 0.0 0.0
-0.0072684595405054266 0.005657233972950987 0.0 -0.008189247899444075 0.0 0.0
-0.007852306842351735 0.006302671523689703 0.0 -0.00986053584117012 0.0 0.0
-0.0075001236381402065 0.006097161011579599 0.0 -0.011707355469701681 0.0 0.0
-0.005244029237313287 0.004427728664146458 0.0 -0.012446863506096922 0.0 0.0
-0.003461780087660303 -0.0006930792534873965 0.0 7.365635878997523e-15 0.0 0.0
-0.0052440292373138134 0.004427728664148423 0.0 0.012446863506110038 0.0 0.0
-0.007500123638139247 0.006097161011577136 0.0 0.0117073554697123 0.0 0.0
-0.007852306842348052 0.0063026715236866645 0.0 0.009860535841173962 0.0 0.0
-0.007268459540499891 0.005657233972944584 0.0 0.008189247899440467 0.0 0.0
-0.006226480605529698 0.0046420567090101165 0.0 0.006840786954298871 0.0 0.0
-0.0050898290410063066 0.003596973010813672 0.0 0.005768095891835488 0.0 0.0
-0.004055235637945821 0.0027044100728351238 0.0 0.0048998043519844076 0.0 0.0
-0.0031833001335195327 0.001990189507482544 0.0 0.004161809681634283 0.0 0.0
-0.00245853465438227 0.0014325648092716767 0.0 0.0035278223009931947 0.0 0.0
-0.001835427454256262 0.000973926404214428 0.0 0.003009158511909254 0.0 0.0
-0.0013198425275035765 0.0006330531026950076 0.0 0.0026775386591205382 0.0 0.0
-0.0009266550336931474 0.000410275044446355 0.0 0.0025316292508118145 0.0 0.0
-0.0006475694482107634 0.0002844988520552019 0.0 0.0024382142889210166 0.0 0.0
-0.00047366404478133906 0.000217193587976047 0.0 0.002314591239880757 0.0 0.0
-0.00037932055798992574 0.00020359160143606185 0.0 0.0021837480142385974 0.0 0.0
-0.00034092505242161816 0.00020523049687032539 0.0 0.002109699475308425 0.0 0.0
-0.0003198813789626248 0.00020009484972982543 0.0 0.002123570994478836 0.0 0.0
-0.00022983495639315792 8.250517373586281e-05 0.0 0.002179562203508501 0.0 0.0
7.06382915788123e-05 -0.00037980965145392433 0.0 0.0019018495384423547 0.0 0.0
0.00029309267986610607 -0.0013958548402453763 0.0 0.0012768316260910657 0.0 0.0
0.00020975687111566193 -0.0010631069225297042 0.0 -0.0011458877152650273 0.0 0.0
5.071830757345856e-06 -0.000338502729401983 0.0 -0.001769609567000301 0.0 0.0
-0.0003096399385982461 0.00010919287713600506 0.0 -0.0021290018176409816 0.0 0.0
-0.0004710840232140074 0.0002590524653433042 0.0 -0.0020985843364560407 0.0 0.0
-0.0005742770902814934 0.00030621350322290215 0.0 -0.0020651787794778716 0.0 0.0
-0.0007069193190434735 0.0003510458821855898 0.0 -0.0021037374745645184 0.0 0.0
-0.0009247043255280253 0.0004144393210533422 0.0 -0.00218442126721223 0.0 0.0
-0.0012924464930308902 0.000570049245771207 0.0 -0.0022705896925997392 0.0 0.0
-0.0018770044020807609 0.0008958346172089765 0.0 -0.0024758894068752043 0.0 0.0
-0.0027143051640815697 0.0014720695281240927 0.0 -0.002900420813816325 0.0 0.0
-0.0037768480537454796 0.002299070647484867 0.0 -0.0036170639913224406 0.0 0.0
-0.00501238877278794 0.003334769669332295 0.0 -0.004429943091806057 0.0 0.0
-0.006441281292162135 0.004566504487170386 0.0 -0.005292467963382923 0.0 0.0
-0.008150858384913733 0.0061056300034054364 0.0 -0.006196878073755505 0.0 0.0
-0.010212441364157138 0.008025804193153506 0.0 -0.007218108487007037 0.0 0.0
-0.01258757885654443 0.010310850491874248 0.0 -0.008519751382096426 0.0 0.0
-0.015040679980987737 0.012740287610079297 0.0 -0.010297323312564263 0.0 0.0
-0.017095283655780877 0.014827429233482684 0.0 -0.01264079688538649 0.0 0.0
-0.017852944418691227 0.015720009710266655 0.0 -0.015063584730720822 0.0 0.0
-0.015823184267408395 0.013804190871589787 0.0 -0.01556488730360699 0.0 0.0
-0.013888069350747333 0.007054505749896873 0.0 7.732096213297623e-15 0.0 0.0
-0.01582318426740814 0.013804190871591019 0.0 0.015564887303625444 0.0 0.0
-0.017852944418688062 0.015720009710264327 0.0 0.015063584730739966 0.0 0.0
-0.01709528365577372 0.01482742923347729 0.0 0.012640796885394556 0.0 0.0
-0.015040679980978085 0.012740287610068636 0.0 0.010297323312561361 0.0 0.0
-0.012587578856534944 0.010310850491866154 0.0 0.008519751382091306 0.0 0.0
-0.010212441364148474 0.008025804193146809 0.0 0.007218108487001438 0.0 0.0
-0.008150858384904732 0.006105630003397208 0.0 0.006196878073751858 0.0 0.0
-0.006441281292152463 0.004566504487162322 0.0 0.00529246796337768 0.0 0.0
-0.005012388772778306 0.0033347696693246344 0.0 0.004429943091797589 0.0 0.0
-0.003776848053736805 0.0022990706474773654 0.0 0.0036170639913137796 0.0 0.0
-0.0027143051640746976 0.0014720695281180704 0.0 0.002900420813811577 0.0 0.0
-0.0018770044020763308 0.0008958346172060917 0.0 0.0024758894068735546 0.0 0.0
-0.001292446493028215 0.0005700492457704218 0.0 0.002270589692598692 0.0 0.0
-0.0009247043255264822 0.00041443932105272597 0.0 0.002184421267209747 0.0 0.0
-0.0007069193190426097 0.00035104588218578083 0.0 0.002103737474561896 0.0 0.0
-0.0005742770902807452 0.0003062135032220246 0.0 0.00206517877947598 0.0 0.0
-0.0004710840232134277 0.0002590524653438534 0.0 0.002098584336454494 0.0 0.0
-0.0003096399385980501 0.00010919287713578594 0.0 0.0021290018176392434 0.0 0.0
5.0718307572324995e-06 -0.0003385027294018164 0.0 0.0017696095669989605 0.0 0.0
0.00020975687111541652 -0.0010631069225285421 0.0 0.0011458877152634374 0.0 0.0
0.00013537320360311993 -0.0007779053782250153 0.0 -0.0010025727234508985 0.0 0.0
-5.5725391075398186e-05 -0.00028404575328952973 0.0 -0.0016138662595136654 0.0 0.0
-0.00038587127090077645 0.00013753772144828644 0.0 -0.0020276107647811395 0.0 0.0
-0.0006147488375750265 0.00031408367244719433 0.0 -0.0020195904577637483 0.0 0.0
-0.0007987348167838193 0.0004004516500829776 0.0 -0.0019651373024294054 0.0 0.0
-0.001022753710561207 0.0004894619144485387 0.0 -0.0019544472024348395 0.0 0.0
-0.0013693702802691974 0.0006053242731561835 0.0 -0.0019718770768327606 0.0 0.0
-0.001968415704531119 0.0009114564932300078 0.0 -0.0021055239911215635 0.0 0.0
-0.002920507352706957 0.0015560041135688368 0.0 -0.002532559716384317 0.0 0.0
-0.0042244821537241435 0.0025986711450018984 0.0 -0.0033105009001770107 0.0 0.0
-0.005805512790900169 0.0039518274832667155 0.0 -0.004268046206377182 0.0 0.0
-0.007623204839252797 0.005561229081629055 0.0 -0.00521661686909615 0.0 0.0
-0.009745735126207132 0.007475907594727231 0.0 -0.006160614497289906 0.0 0.0
-0.012306174219624419 0.009845738158869357 0.0 -0.00716308459451403 0.0 0.0
-0.015419503817247236 0.012797150009184325 0.0 -0.008349181767240596 0.0 0.0
-0.01906880383030889 0.016341166555389464 0.0 -0.009923473654948585 0.0 0.0
-0.022982502982645717 0.02023137847863962 0.0 -0.012222123809935051 0.0 0.0
-0.02646566680019847 0.023803579310134854 0.0 -0.015386409070719486 0.0 0.0
-0.02818048216141887 0.025711106827333255 0.0 -0.018576059119179755 0.0 0.0
-0.025910769978764674 0.023787547402694727 0.0 -0.019627904242139414 0.0 0.0
-0.023440422936675243 0.01462491687054358 0.0 9.757385871500546e-15 0.0 0.0
-0.02591076997876291 0.02378754740269297 0.0 0.019627904242161112 0.0 0.0
-0.02818048216141382 0.02571110682732946 0.0 0.01857605911920323 0.0 0.0
-0.02646566680018865 0.023803579310125497 0.0 0.015386409070730335 0.0 0.0
-0.022982502982632453 0.020231378478625283 0.0 0.012222123809934773 0.0 0.0
-0.01906880383029553 0.01634116655537627 0.0 0.009923473654942942 0.0 0.0
-0.015419503817234857 0.012797150009172507 0.0 0.008349181767234974 0.0 0.0
-0.012306174219611537 0.009845738158858397 0.0 0.007163084594509128 0.0 0.0
-0.009745735126193547 0.007475907594714889 0.0 0.006160614497284497 0.0 0.0
-0.00762320483923944 0.00556122908161483 0.0 0.005216616869087188 0.0 0.0
-0.005805512790887913 0.003951827483255645 0.0 0.004268046206367494 0.0 0.0
-0.0042244821537142435 0.002598671144990599 0.0 0.0033105009001684633 0.0 0.0
-0.0029205073527002333 0.0015560041135648079 0.0 0.0025325597163809686 0.0 0.0
-0.001968415704526924 0.0009114564932286525 0.0 0.002105523991119537 0.0 0.0
-0.0013693702802667026 0.0006053242731547442 0.0 0.001971877076832083 0.0 0.0
-0.001022753710559777 0.0004894619144488976 0.0 0.0019544472024336395 0.0 0.0
-0.000798734816782913 0.00040045165008150633 0.0 0.001965137302427994 0.0 0.0
-0.0006147488375743528 0.00031408367244750116 0.0 0.0020195904577620183 0.0 0.0
-0.0003858712709003078 0.00013753772144822318 0.0 0.002027610764778772 0.0 0.0
-5.572539107534375e-05 -0.0002840457532895494 0.0 0.0016138662595124285 0.0 0.0
0.00013537320360288452 -0.0007779053782241303 0.0 0.0010025727234491842 0.0 0.0
6.814655432408084e-05 -0.0005369999669000466 0.0 -0.0008544460254989543 0.0 0.0
-0.00011337483039375483 -0.0002208780060256551 0.0 -0.0014346998129220869 0.0 0.0
-0.00045988067303945595 0.00016855782486890493 0.0 -0.001876836081445316 0.0 0.0
-0.0007517141354218043 0.00036530758832938005 0.0 -0.0018870171782968807 0.0 0.0
-0.001012121760913298 0.00048764935141897155 0.0 -0.001809350143572282 0.0 0.0
-0.0013271606662258796 0.000613856954492289 0.0 -0.0017367891759470344 0.0 0.0
-0.001832234530093574 0.0008194288773687105 0.0 -0.001728610942548428 0.0 0.0
-0.002710839897923035 0.0013622640939287823 0.0 -0.00198359660520464 0.0 0.0
-0.004053526366259798 0.0024067040922319833 0.0 -0.0026447467906585 0.0 0.0
-0.005804058659736804 0.003905535836682919 0.0 -0.003601531363442164 0.0 0.0
-0.007872285812773112 0.0057428201938896405 0.0 -0.004591403870816574 0.0 0.0
-0.010265572156970467 0.007914938049970404 0.0 -0.005556262474409556 0.0 0.0
-0.013094863209005337 0.01051790489770632 0.0 -0.006528989963045406 0.0 0.0
-0.016524273946806334 0.01373102283236511 0.0 -0.007599948105913874 0.0 0.0
-0.020703769174856387 0.017721598725087447 0.0 -0.008872947446292417 0.0 0.0
-0.0256485775845132 0.022539158381012368 0.0 -0.01059720225992891 0.0 0.0
-0.03103402487742795 0.02790653241354389 0.0 -0.013162963014069813 0.0 0.0
-0.035906328775909484 0.03292580306503261 0.0 -0.016783508808740962 0.0 0.0
-0.038424598440095666 0.035763227419321364 0.0 -0.02071869086640298 0.0 0.0
-0.03562389235967659 0.033496910157844506 0.0 -0.022613598873552618 0.0 0.0
-0.03244512289254891 0.021938215100736284 0.0 1.0530638860917207e-14 0.0 0.0
-0.03562389235967328 0.03349691015784287 0.0 0.022613598873576148 0.0 0.0
-0.03842459844008819 0.035763227419313294 0.0 0.020718690866427466 0.0 0.0
-0.03590632877589689 0.03292580306502034 0.0 0.01678350880875423 0.0 0.0
-0.031034024877412032 0.02790653241352737 0.0 0.01316296301407105 0.0 0.0
-0.02564857758449688 0.022539158380996932 0.0 0.01059720225992425 0.0 0.0
-0.020703769174840174 0.017721598725073034 0.0 0.008872947446286413 0.0 0.0
-0.016524273946789573 0.013731022832347665 0.0 0.007599948105908506 0.0 0.0
-0.013094863208988018 0.010517904897691468 0.0 0.006528989963038995 0.0 0.0
-0.010265572156953588 0.007914938049952604 0.0 0.005556262474400268 0.0 0.0
-0.00787228581275766 0.0057428201938768695 0.0 0.00459140387080647 0.0 0.0
-0.005804058659723853 0.003905535836667507 0.0 0.0036015313634326996 0.0 0.0
-0.004053526366250358 0.0024067040922248965 0.0 0.002644746790653088 0.0 0.0
-0.0027108398979169687 0.0013622640939241605 0.0 0.001983596605201717 0.0 0.0
-0.0018322345300901886 0.0008194288773674011 0.0 0.0017286109425472176 0.0 0.0
-0.0013271606662241166 0.000613856954490843 0.0 0.0017367891759466556 0.0 0.0
-0.0010121217609122132 0.0004876493514177541 0.0 0.0018093501435706618 0.0 0.0
-0.0007517141354210505 0.0003653075883290031 0.0 0.0018870171782948992 0.0 0.0
-0.0004598806730390485 0.00016855782486925393 0.0 0.0018768360814432855 0.0 0.0
-0.00011337483039377103 -0.00022087800602571425 0.0 0.0014346998129209773 0.0 0.0
6.814655432400516e-05 -0.0005369999668993971 0.0 0.0008544460254980609 0.0 0.0
8.422278270597381e-06 -0.00033906362217312857 0.0 -0.0007032196935370735 0.0 0.0
-0.00016755869811369809 -0.00015346861652693278 0.0 -0.0012338143336928593 0.0 0.0
-0.0005319601611974959 0.00020219890581376195 0.0 -0.001678551431318531 0.0 0.0
-0.0008822786222760185 0.00041313269372424735 0.0 -0.0017013157515661183 0.0 0.0
-0.0012140717144338872 0.0005667609643064429 0.0 -0.0015990634782475695 0.0 0.0
-0.001631604961991025 0.0007330561360012776 0.0 -0.0014705321761517703 0.0 0.0
-0.0023316782696448644 0.0010870372545243741 0.0 -0.0014779461159290961 0.0 0.0
-0.003524505142523426 0.0019389033612330912 0.0 -0.0018702557902546173 0.0 0.0
-0.0052517070515539326 0.003391718711933337 0.0 -0.002678661749596651 0.0 0.0
-0.007410201359172508 0.0052978291489360185 0.0 -0.003616918048709971 0.0 0.0
-0.009952416382143824 0.007599363137165643 0.0 -0.004550002906607533 0.0 0.0
-0.01293604250044784 0.010341492011392141 0.0 -0.005476623664361095 0.0 0.0
-0.016489680425214828 0.013646242168118931 0.0 -0.006433041343983866 0.0 0.0
-0.020799874498658527 0.01771704268059214 0.0 -0.007514122033407454 0.0 0.0
-0.02604983543333935 0.022749260292070864 0.0 -0.008817363913758501 0.0 0.0
-0.03227426376302675 0.028817619492574012 0.0 -0.010505777909794461 0.0 0.0
-0.03909070542861896 0.03562395801123098 0.0 -0.012975466864913564 0.0 0.0
-0.04530899057520255 0.042056094770630006 0.0 -0.01665891357695278 0.0 0.0
-0.048551970702252575 0.04575940064759512 0.0 -0.02118012674916316 0.0 0.0
-0.0451647361805099 0.04307510695237623 0.0 -0.02460780916093248 0.0 0.0
-0.04128048374531472 0.02920009978120458 0.0 1.0454311027974228e-14 0.0 0.0
-0.04516473618050543 0.04307510695237639 0.0 0.02460780916095792 0.0 0.0
-0.048551970702242896 0.045759400647583125 0.0 0.021180126749186536 0.0 0.0
-0.045308990575187405 0.042056094770616045 0.0 0.016658913576967194 0.0 0.0
-0.03909070542859985 0.03562395801121292 0.0 0.012975466864915493 0.0 0.0
-0.03227426376300702 0.028817619492556547 0.0 0.010505777909791207 0.0 0.0
-0.02604983543331955 0.022749260292052945 0.0 0.008817363913753647 0.0 0.0
-0.020799874498637825 0.01771704268057143 0.0 0.007514122033402836 0.0 0.0
-0.016489680425193824 0.013646242168098533 0.0 0.006433041343978017 0.0 0.0
-0.012936042500427514 0.010341492011373032 0.0 0.005476623664352693 0.0 0.0
-0.009952416382125202 0.007599363137149113 0.0 0.004550002906597132 0.0 0.0
-0.007410201359156914 0.005297829148920845 0.0 0.0036169180487014936 0.0 0.0
-0.005251707051541992 0.0033917187119222045 0.0 0.0026786617495915474 0.0 0.0
-0.0035245051425151054 0.0019389033612256116 0.0 0.0018702557902511093 0.0 0.0
-0.002331678269640092 0.0010870372545214594 0.0 0.0014779461159269256 0.0 0.0
-0.001631604961988797 0.0007330561359997029 0.0 0.0014705321761511792 0.0 0.0
-0.0012140717144326657 0.0005667609643056381 0.0 0.0015990634782460063 0.0 0.0
-0.0008822786222751748 0.00041313269372405094 0.0 0.0017013157515647526 0.0 0.0
-0.0005319601611970474 0.00020219890581381136 0.0 0.0016785514313167112 0.0 0.0
-0.00016755869811351936 -0.0001534686165269137 0.0 0.0012338143336916708 0.0 0.0
8.422278270607539e-06 -0.00033906362217274883 0.0 0.0007032196935365818 0.0 0.0
-4.227854826624159e-05 -0.00018416218064310746 0.0 -0.0005500735347220388 0.0 0.0
-0.00021651627019565045 -8.597009743701049e-05 0.0 -0.0010131875943828934 0.0 0.0
-0.0006014115708101514 0.00023709098669185276 0.0 -0.0014341800581524778 0.0 0.0
-0.0010069883606875197 0.0004586743700917199 0.0 -0.001462172391437049 0.0 0.0
-0.0014093493514861562 0.0006355627098439404 0.0 -0.001337623012461517 0.0 0.0
-0.001946678840057261 0.0008656867719769017 0.0 -0.0011700766393899255 0.0 0.0
-0.0028803949215703466 0.0014304364155688406 0.0 -0.0012273440670406662 0.0 0.0
-0.004401420589051697 0.002638334015388205 0.0 -0.0017476844783830266 0.0 0.0
-0.006474772223213595 0.004441343743553459 0.0 -0.002512822416242327 0.0 0.0
-0.009019408976554939 0.006728213056206126 0.0 -0.0033332073404339496 0.0 0.0
-0.012046056521118667 0.009498300624353063 0.0 -0.004177326683720817 0.0 0.0
-0.01562929073833811 0.012817123052982063 0.0 -0.0050140767280895575 0.0 0.0
-0.019922990856978278 0.016839145001205775 0.0 -0.005895679600773936 0.0 0.0
-0.025133631506545608 0.02178554619615963 0.0 -0.006924973416876208 0.0 0.0
-0.031439241180861 0.027853585788864613 0.0 -0.008178144758018077 0.0 0.0
-0.0388795233605581 0.03511285779416806 0.0 -0.009700222399097808 0.0 0.0
-0.04705440491904768 0.043260373464472625 0.0 -0.011737763518044666 0.0 0.0
-0.054566583940338406 0.05104597783806414 0.0 -0.014984020483003305 0.0 0.0
-0.058567995856867186 0.055661115701066605 0.0 -0.01992791296471256 0.0 0.0
-0.05473788935114769 0.05273590809375694 0.0 -0.025783743941414937 0.0 0.0
-0.05024035051477598 0.036683935330606474 0.0 1.1231467145211838e-14 0.0 0.0
-0.054737889351141725 0.05273590809375354 0.0 0.02578374394143907 0.0 0.0
-0.05856799585685519 0.05566111570105221 0.0 0.019927912964735433 0.0 0.0
-0.0545665839403207 0.05104597783804764 0.0 0.01498402048301833 0.0 0.0
-0.047054404919026266 0.043260373464453106 0.0 0.011737763518049235 0.0 0.0
-0.038879523360535184 0.03511285779414791 0.0 0.009700222399096197 0.0 0.0
-0.031439241180837595 0.02785358578884181 0.0 0.008178144758014498 0.0 0.0
-0.025133631506521478 0.021785546196139424 0.0 0.00692497341687145 0.0 0.0
-0.0199229908569536 0.01683914500118235 0.0 0.0058956796007680785 0.0 0.0
-0.015629290738314167 0.012817123052960027 0.0 0.005014076728081963 0.0 0.0
-0.012046056521096913 0.00949830062433416 0.0 0.004177326683711646 0.0 0.0
-0.009019408976536736 0.006728213056189894 0.0 0.003333207340425685 0.0 0.0
-0.006474772223199369 0.004441343743541191 0.0 0.002512822416236904 0.0 0.0
-0.004401420589041476 0.0026383340153793775 0.0 0.001747684478378505 0.0 0.0
-0.0028803949215641575 0.0014304364155652447 0.0 0.0012273440670383087 0.0 0.0
-0.0019466788400543727 0.0008656867719747921 0.0 0.001170076639388858 0.0 0.0
-0.0014093493514848383 0.0006355627098434592 0.0 0.0013376230124613991 0.0 0.0
-0.0010069883606865812 0.0004586743700921289 0.0 0.0014621723914353334 0.0 0.0
-0.0006014115708096215 0.00023709098669129412 0.0 0.0014341800581511624 0.0 0.0
-0.00021651627019541415 -8.59700974370037e-05 0.0 0.001013187594381613 0.0 0.0
-4.2278548266194866e-05 -0.00018416218064288954 0.0 0.0005500735347219386 0.0 0.0
-8.121784776721666e-05 -7.322108975762665e-05 0.0 -0.0003985083764097366 0.0 0.0
-0.00025703432820807184 -2.269035606497031e-05 0.0 -0.0007753168699398343 0.0 0.0
-0.0006661721300709232 0.0002708525804648202 0.0 -0.0011429395456098782 0.0 0.0
-0.001127123263274196 0.0005024829791932474 0.0 -0.0011686568272182365 0.0 0.0
-0.0016036738141423498 0.0006979010035324803 0.0 -0.0010265706943980949 0.0 0.0
-0.002288441513756292 0.0010270886728841252 0.0 -0.000839897513231647 0.0 0.0
-0.0034882116844041425 0.0018740614770552458 0.0 -0.0009991543133448177 0.0 0.0
-0.005307497615942908 0.0034042564985982343 0.0 -0.001504910974895525 0.0 0.0
-0.007693738961843095 0.005513324894005897 0.0 -0.00211269043924207 0.0 0.0
-0.010630678428623072 0.008183241623299139 0.0 -0.002791662651036035 0.0 0.0
-0.014145806705417274 0.011423715050314427 0.0 -0.0034908198169147373 0.0 0.0
-0.018339814855770593 0.015328901899583403 0.0 -0.004186177920602446 0.0 0.0
-0.023391437181855317 0.020082397649217074 0.0 -0.00492689087022765 0.0 0.0
-0.029511015830115908 0.025920453600312567 0.0 -0.005825628988371664 0.0 0.0
-0.03686039573118381 0.033019673013190066 0.0 -0.006953595674597731 0.0 0.0
-0.04543074314793662 0.04139134536366717 0.0 -0.008245750327455758 0.0 0.0
-0.05480207731569081 0.05069539839884456 0.0 -0.009633687180096495 0.0 0.0
-0.06354720330527085 0.059721015077217623 0.0 -0.011814205050787842 0.0 0.0
-0.06849744612256412 0.06544487724394893 0.0 -0.016846727511368283 0.0 0.0
-0.0645527085963183 0.06270474990758446 0.0 -0.025927630324515036 0.0 0.0
-0.05960538462832113 0.04469648653397863 0.0 1.0486403412279799e-14 0.0 0.0
-0.06455270859631143 0.06270474990757846 0.0 0.025927630324537224 0.0 0.0
-0.06849744612254978 0.06544487724393162 0.0 0.01684672751138865 0.0 0.0
-0.06354720330525 0.05972101507719943 0.0 0.011814205050799671 0.0 0.0
-0.05480207731566625 0.05069539839882031 0.0 0.009633687180100462 0.0 0.0
-0.04543074314791071 0.04139134536364256 0.0 0.008245750327456005 0.0 0.0
-0.03686039573115694 0.033019673013165246 0.0 0.006953595674594998 0.0 0.0
-0.029511015830088208 0.02592045360028938 0.0 0.005825628988367818 0.0 0.0
-0.023391437181827096 0.020082397649190016 0.0 0.0049268908702222655 0.0 0.0
-0.018339814855743125 0.015328901899556803 0.0 0.004186177920596917 0.0 0.0
-0.014145806705392588 0.011423715050292597 0.0 0.003490819816906819 0.0 0.0
-0.010630678428602335 0.008183241623277961 0.0 0.00279166265102896 0.0 0.0
-0.007693738961826728 0.005513324893992787 0.0 0.002112690439237391 0.0 0.0
-0.005307497615930742 0.0034042564985860726 0.0 0.0015049109748919186 0.0 0.0
-0.0034882116843962686 0.0018740614770497883 0.0 0.0009991543133426595 0.0 0.0
-0.0022884415137523423 0.0010270886728814134 0.0 0.0008398975132314222 0.0 0.0
-0.0016036738141406819 0.000697901003532502 0.0 0.0010265706943987213 0.0 0.0
-0.0011271232632732895 0.0005024829791937767 0.0 0.0011686568272164283 0.0 0.0
-0.0006661721300702927 0.0002708525804644206 0.0 0.0011429395456089685 0.0 0.0
-0.00025703432820779656 -2.2690356064962167e-05 0.0 0.00077531686993844 0.0 0.0
-8.121784776716486e-05 -7.322108975752996e-05 0.0 0.0003985083764099629 0.0 0.0
-0.00010391920265865283 -7.330792997740031e-06 0.0 -0.0002576482561627277 0.0 0.0
-0.0002836988366719863 3.085739604133557e-05 0.0 -0.0005235920522231056 0.0 0.0
-0.0007229782631707844 0.00029987828482878594 0.0 -0.0007997088551957584 0.0 0.0
-0.001244440357315422 0.0005455582729097302 0.0 -0.0008172088250221874 0.0 0.0
-0.0018068581313269412 0.0007630923703783485 0.0 -0.0006718259297350748 0.0 0.0
-0.00267497443680031 0.0012517605462884468 0.0 -0.0005167415036080826 0.0 0.0
-0.004133379876328705 0.002397112922934568 0.0 -0.0007280863206129665 0.0 0.0
-0.006215033390575522 0.0041862966130701545 0.0 -0.001079854460658901 0.0 0.0
-0.008908918531639866 0.006600563280251453 0.0 -0.0015158872160162594 0.0 0.0
-0.012236395783286277 0.009650340405400084 0.0 -0.0020028133685606247 0.0 0.0
-0.01624627261144634 0.013364528626239418 0.0 -0.0025038060946254545 0.0 0.0
-0.02106123704533995 0.017865822716801073 0.0 -0.002998046312415055 0.0 0.0
-0.026881206455307106 0.02336529914417695 0.0 -0.00353606478470483 0.0 0.0
-0.03392601515336062 0.03010604446750765 0.0 -0.0042342143589910565 0.0 0.0
-0.04230635123303705 0.038227419446031606 0.0 -0.005126557680215596 0.0 0.0
-0.051903829303057064 0.047640248904607996 0.0 -0.006100850301168663 0.0 0.0
-0.06224073688477219 0.057884861312214986 0.0 -0.006900701969553768 0.0 0.0
-0.07208873485476046 0.06785795379461348 0.0 -0.007746608718600217 0.0 0.0
-0.07829140553313545 0.07495143013874604 0.0 -0.011491340162420403 0.0 0.0
-0.07482961551108648 0.0732443565305048 0.0 -0.024212041935745648 0.0 0.0
-0.06974781510151898 0.05371027051408747 0.0 7.596354101302438e-15 0.0 0.0
-0.07482961551107858 0.07324435653049674 0.0 0.02421204193576299 0.0 0.0
-0.07829140553311864 0.07495143013872435 0.0 0.011491340162436777 0.0 0.0
-0.07208873485473656 0.06785795379459514 0.0 0.007746608718610501 0.0 0.0
-0.06224073688474433 0.05788486131218666 0.0 0.006900701969556293 0.0 0.0
-0.051903829303027685 0.04764024890457946 0.0 0.0061008503011693235 0.0 0.0
-0.04230635123300689 0.03822741944600618 0.0 0.005126557680214517 0.0 0.0
-0.03392601515332943 0.030106044467477125 0.0 0.0042342143589879505 0.0 0.0
-0.026881206455274927 0.023365299144146846 0.0 0.003536064784701534 0.0 0.0
-0.021061237045308955 0.017865822716772627 0.0 0.0029980463124117994 0.0 0.0
-0.016246272611418974 0.013364528626211597 0.0 0.0025038060946202907 0.0 0.0
-0.012236395783262985 0.009650340405379923 0.0 0.002002813368555411 0.0 0.0
-0.008908918531620976 0.006600563280235088 0.0 0.0015158872160120414 0.0 0.0
-0.006215033390561499 0.004186296613056374 0.0 0.0010798544606558196 0.0 0.0
-0.004133379876319251 0.002397112922927935 0.0 0.0007280863206108194 0.0 0.0
-0.0026749744367953105 0.00125176054628476 0.0 0.000516741503607174 0.0 0.0
-0.0018068581313251753 0.0007630923703785149 0.0 0.0006718259297351282 0.0 0.0
-0.001244440357314408 0.0005455582729096605 0.0 0.0008172088250215735 0.0 0.0
-0.0007229782631700425 0.0002998782848287305 0.0 0.0007997088551949357 0.0 0.0
-0.00028369883667161424 3.08573960413112e-05 0.0 0.0005235920522220241 0.0 0.0
-0.00010391920265831643 -7.330792997638266e-06 0.0 0.00025764825616170743 0.0 0.0
-0.0001026493673599271 1.3335625705319383e-05 0.0 -0.00014809146304924995 0.0 0.0
-0.00028750546894541046 6.577509084300613e-05 0.0 -0.00026207439695133237 0.0 0.0
-0.000766728014933533 0.0003193834784700253 0.0 -0.0003915210619763132 0.0 0.0
-0.0013641009567320788 0.000589775117908862 0.0 -0.0003997168604317653 0.0 0.0
-0.0020380025246624894 0.0008521018326024439 0.0 -0.00028784233543975395 0.0 0.0
-0.0031026980328475074 0.0015472674721057954 0.0 -0.00020377380071334928 0.0 0.0
-0.004795065312642197 0.0029569796694669886 0.0 -0.0003403222923828684 0.0 0.0
-0.007116184307099543 0.004977573260026916 0.0 -0.0005148646812146468 0.0 0.0
-0.010112075304804825 0.00769177372412877 0.0 -0.0007282351553359418 0.0 0.0
-0.013829926347830642 0.011117815108485815 0.0 -0.0009741962221773443 0.0 0.0
-0.018339556195402607 0.015310557524308259 0.0 -0.0012176813644329094 0.0 0.0
-0.02378743186837761 0.020421595019866016 0.0 -0.0014519708335918853 0.0 0.0
-0.030391923825760003 0.026682001098358117 0.0 -0.0017485158408295383 0.0 0.0
-0.03835412285005393 0.034318949314731256 0.0 -0.0021440541989803186 0.0 0.0
-0.04773995589537231 0.04343979912345704 0.0 -0.0026476831886592138 0.0 0.0
-0.05831952753706168 0.05385200363397892 0.0 -0.003213198813107194 0.0 0.0
-0.0694210488773595 0.06489906840708295 0.0 -0.003621146600688464 0.0 0.0
-0.07992641729168963 0.07540579938251678 0.0 -0.003685917906890787 0.0 0.0
-0.08764073213536742 0.08346999772868076 0.0 -0.0049005250334197455 0.0 0.0
-0.08586334078580221 0.08444505795959124 0.0 -0.016712158221290317 0.0 0.0
-0.08130968535290875 0.06512457662255182 0.0 4.533699804465385e-15 0.0 0.0
-0.08586334078579305 0.0844450579595829 0.0 0.016712158221299914 0.0 0.0
-0.08764073213534782 0.08346999772866016 0.0 0.0049005250334296195 0.0 0.0
-0.07992641729166229 0.07540579938249492 0.0 0.0036859179068974386 0.0 0.0
-0.06942104887732826 0.06489906840705112 0.0 0.0036211466006896044 0.0 0.0
-0.058319527537028855 0.053852003633948375 0.0 0.0032131988131071255 0.0 0.0
-0.04773995589533866 0.043439799123427505 0.0 0.0026476831886599475 0.0 0.0
-0.038354122850019046 0.03431894931469779 0.0 0.0021440541989791464 0.0 0.0
-0.030391923825724233 0.02668200109832538 0.0 0.001748515840828586 0.0 0.0
-0.02378743186834326 0.02042159501983598 0.0 0.0014519708335880336 0.0 0.0
-0.018339556195372354 0.01531055752427694 0.0 0.0012176813644300146 0.0 0.0
-0.013829926347805235 0.01111781510846502 0.0 0.0009741962221748595 0.0 0.0
-0.010112075304784343 0.007691773724108883 0.0 0.0007282351553336936 0.0 0.0
-0.007116184307083767 0.004977573260011744 0.0 0.00051486468121298 0.0 0.0
-0.004795065312631364 0.0029569796694592096 0.0 0.0003403222923819275 0.0 0.0
-0.00310269803284155 0.0015472674721007098 0.0 0.00020377380071287093 0.0 0.0
-0.00203800252465976 0.0008521018326016871 0.0 0.0002878423354393123 0.0 0.0
-0.0013641009567307804 0.0005897751179083989 0.0 0.0003997168604318583 0.0 0.0
-0.0007667280149328522 0.0003193834784700849 0.0 0.0003915210619758009 0.0 0.0
-0.0002875054689450914 6.577509084295164e-05 0.0 0.00026207439695050306 0.0 0.0
-0.00010264936735976206 1.3335625705347869e-05 0.0 0.00014809146304832507 0.0 0.0
-6.300116470629545e-05 1.2442263254412038e-05 0.0 -9.466541405919873e-05 0.0 0.0
-0.00025302629175461824 7.715613733545157e-05 0.0 -0.00010886112969799133 0.0 0.0
-0.0007903708950644213 0.00032611387985181413 0.0 -0.00013422775842007257 0.0 0.0
-0.001497033722393454 0.0006123760191802265 0.0 -0.00013272977875294987 0.0 0.0
-0.002310746378922618 0.0009065561196340909 0.0 -1.3523102640951008e-05 0.0 0.0
-0.003562514980130554 0.001708512654814696 0.0 0.000116141421342263 0.0 0.0
-0.005458473548593954 0.003241606232028202 0.0 0.00012691036301584377 0.0 0.0
-0.008005334609210104 0.005374943910786488 0.0 0.0001306561440788588 0.0 0.0
-0.011296241993063123 0.008236630758749287 0.0 0.00013813783049104386 0.0 0.0
-0.015403176705315358 0.011850478148940784 0.0 0.00012870653833825692 0.0 0.0
-0.020419603860482968 0.016283028050218997 0.0 0.00015209228456289424 0.0 0.0
-0.026518420423069223 0.021704251066539764 0.0 0.0002062551772498162 0.0 0.0
-0.033906414489535804 0.02834846194026943 0.0 0.0002107868032500738 0.0 0.0
-0.042767388353940866 0.03642765535773433 0.0 0.00020269700884854728 0.0 0.0
-0.05313542470174404 0.046042842792551046 0.0 9.552296249369131e-05 0.0 0.0
-0.0646691970004948 0.05694733753571128 0.0 -0.0001340809129167595 0.0 0.0
-0.07649120537813131 0.06837580979288792 0.0 -0.0004156541204860713 0.0 0.0
-0.08720051390991487 0.07905238968778538 0.0 -0.0005872900803540635 0.0 0.0
-0.09534878594137242 0.08733988046589193 0.0 -0.0008108436063470207 0.0 0.0
-0.09757124211952004 0.09019620721630424 0.0 -0.011373097301258479 0.0 0.0
-0.09651816069295834 0.07170668640760121 0.0 2.8102520310824275e-15 0.0 0.0
-0.09757124211951017 0.09019620721629666 0.0 0.01137309730126275 0.0 0.0
-0.09534878594134973 0.08733988046587418 0.0 0.0008108436063507581 0.0 0.0
-0.08720051390988325 0.0790523896877584 0.0 0.0005872900803576969 0.0 0.0
-0.07649120537809619 0.0683758097928531 0.0 0.0004156541204873819 0.0 0.0
-0.06466919700045815 0.05694733753567971 0.0 0.00013408091291635185 0.0 0.0
-0.05313542470170633 0.04604284279251934 0.0 -9.55229624934285e-05 0.0 0.0
-0.04276738835390197 0.036427655357700164 0.0 -0.00020269700884884521 0.0 0.0
-0.03390641448949669 0.02834846194023285 0.0 -0.00021078680324925804 0.0 0.0
-0.02651842042303163 0.021704251066509084 0.0 -0.0002062551772528745 0.0 0.0
-0.020419603860449692 0.016283028050187075 0.0 -0.00015209228456500908 0.0 0.0
-0.01540317670528777 0.011850478148917183 0.0 -0.00012870653833906378 0.0 0.0
-0.011296241993040478 0.008236630758728514 0.0 -0.00013813783049066212 0.0 0.0
-0.00800533460919258 0.005374943910770357 0.0 -0.00013065614407843174 0.0 0.0
-0.005458473548581681 0.003241606232018787 0.0 -0.00012691036301615613 0.0 0.0
-0.003562514980123307 0.0017085126548092512 0.0 -0.00011614142134036293 0.0 0.0
-0.0023107463789195557 0.0009065561196327969 0.0 1.3523102641037148e-05 0.0 0.0
-0.0014970337223923556 0.0006123760191797704 0.0 0.00013272977875313625 0.0 0.0
-0.0007903708950640228 0.0003261138798519306 0.0 0.00013422775841966236 0.0 0.0
-0.0002530262917543086 7.715613733524052e-05 0.0 0.00010886112969660879 0.0 0.0
-6.300116470576575e-05 1.244226325433014e-05 0.0 9.466541405962937e-05 0.0 0.0
SCALARS Statev float 8
LOOKUP_TABLE default
0.0 0.013176213872191051 0.010369758149524549 -0.012629042882298446 0.0022592847327739148 -0.00045205886160431277 0.0 0.0
0.0 0.003913576730830077 0.0027631102190610237 -0.0015134850535106358 -0.0012496251655503873 -0.005109136135457698 0.0 0.0
0.0 -3.5185919927781774e-05 -5.998760023503518e-07 -5.221452545471842e-07 1.1220212568973461e-06 -8.271272788269601e-05 0.0 0.0
0.0 7.609236489929473e-05 -6.477066242455376e-06 5.043489325741809e-06 1.4335769167134794e-06 2.4073056341789625e-06 0.0 0.0
0.0 0.0004632465796174948 0.00016716093077277533 -0.00011923384515775358 -4.792708561502208e-05 5.360556703935961e-05 0.0 0.0
0.0 0.0010186543131975238 0.0010879789780384196 -0.0008309102480835934 -0.0002570687299548262 0.00010385688060558822 0.0 0.0
0.0 0.002821379979859512 0.002621107561740524 -0.002127150467200872 -0.0004939570945396508 0.0001345687966824811 0.0 0.0
0.0 0.005329060736476796 0.004907701098415581 -0.004178446386291299 -0.0007292547121242828 0.00015014984782578378 0.0 0.0
0.0 0.008740791578341078 0.007954005405159299 -0.007022233791113273 -0.0009317716140460269 0.00016386083387220525 0.0 0.0
0.0 0.013138215754348391 0.011792509765306486 -0.010668774893496304 -0.0011237348718101778 0.00016689919264141568 0.0 0.0
0.0 0.018610207860210483 0.016510413868731966 -0.015181146401846778 -0.0013292674668851808 0.00020320517453587043 0.0 0.0
0.0 0.02503400730361449 0.02229155097441156 -0.020733539590364447 -0.0015580113840471318 0.00026904307588614427 0.0 0.0
0.0 0.03301071489365089 0.029345813136148854 -0.027541531866851543 -0.001804281269297305 0.0002777262834590808 0.0 0.0
0.0 0.042700356209331665 0.03786703606789939 -0.03580389307715298 -0.0020631429907464116 0.00028068052774393075 0.0 0.0
0.0 0.05421062757392911 0.04794519287084553 -0.04562448431802762 -0.002320708552817886 0.00021179138825287084 0.0 0.0
0.0 0.0673724556609227 0.059396329079276694 -0.05683348586507133 -0.002562843214205409 4.3723700121826685e-05 0.0 0.0
0.0 0.08147861805768852 0.07163987415495883 -0.06886147559328758 -0.0027783985616712625 -0.00020598378231387326 0.0 0.0
0.0 0.09536801468510578 0.0836811829754985 -0.08072493720771598 -0.002956245767782367 -0.0004437504496212887 0.0 0.0
0.0 0.107553309752418 0.09423725825762229 -0.09114875156431204 -0.003088506693310268 -0.0005139245506035005 0.0 0.0
0.0 0.11619753797677469 0.10190084571970925 -0.0987414470970978 -0.003159398622611577 -0.0005232400105737367 0.0 0.0
0.0 0.11950256555872454 0.1048572787453419 -0.1017022944082864 -0.0031549843370555376 1.676610239531584e-15 0.0 0.0
0.0 0.1161975379767646 0.10190084571970057 -0.09874144709708896 -0.0031593986226114684 0.0005232400105780674 0.0 0.0
0.0 0.10755330975239713 0.09423725825760393 -0.09114875156429467 -0.003088506693309262 0.0005139245506081999 0.0 0.0
0.0 0.09536801468507394 0.08368118297547039 -0.08072493720768915 -0.0029562457677812398 0.0004437504496251749 0.0 0.0
0.0 0.08147861805765291 0.07163987415492747 -0.06886147559325799 -0.0027783985616694944 0.00020598378231397778 0.0 0.0
0.0 0.06737245566088426 0.05939632907924278 -0.05683348586503833 -0.002562843214204453 -4.3723700122591264e-05 0.0 0.0
0.0 0.05421062757389079 0.04794519287081189 -0.045624484317995054 -0.002320708552816773 -0.00021179138825346932 0.0 0.0
0.0 0.042700356209290906 0.037867036067863846 -0.03580389307711814 -0.0020631429907456518 -0.0002806805277448582 0.0 0.0
0.0 0.03301071489360923 0.02934581313611241 -0.02754153186681607 -0.0018042812692963288 -0.00027772628345944933 0.0 0.0
0.0 0.02503400730357806 0.022291550974379237 -0.020733539590333604 -0.0015580113840456538 -0.00026904307588701407 0.0 0.0
0.0 0.018610207860175736 0.016510413868701238 -0.015181146401817332 -0.0013292674668839077 -0.00020320517453763101 0.0 0.0
0.0 0.013138215754322337 0.0117925097652836 -0.010668774893474483 -0.0011237348718091272 -0.00016689919264209051 0.0 0.0
0.0 0.008740791578319487 0.007954005405139738 -0.007022233791094944 -0.0009317716140447848 -0.00016386083387261705 0.0 0.0
0.0 0.00532906073646165 0.004907701098401396 -0.00417844638627819 -0.0007292547121232017 -0.0001501498478259653 0.0 0.0
0.0 0.0028213799798489057 0.0026211075617299097 -0.0021271504671916287 -0.0004939570945382798 -0.0001345687966825531 0.0 0.0
0.0 0.0010186543131928184 0.0010879789780331415 -0.0008309102480793979 -0.00025706872995374366 -0.00010385688060514818 0.0 0.0
0.0 0.0004632465796152385 0.00016716093077172339 -0.00011923384515701446 -4.792708561470824e-05 -5.360556703902778e-05 0.0 0.0
0.0 7.609236489855499e-05 -6.4770662423379335e-06 5.043489325653686e-06 1.4335769166847235e-06 -2.4073056341652474e-06 0.0 0.0
0.0 -3.51859199281881e-05 -5.998760025021819e-07 -5.22145254416735e-07 1.1220212569194054e-06 8.27127278821156e-05 0.0 0.0
0.0 0.003913576730823008 0.0027631102190574055 -0.001513485053508431 -0.0012496251655489696 0.005109136135450099 0.0 0.0
0.0 0.01317621387217439 0.010369758149513192 -0.01262904288228236 0.0022592847327691477 0.00045205886157851825 0.0 0.0
0.0 0.010507259456027622 0.007665362654272679 -0.010206024441573439 0.0025406617873007476 -4.191024530318546e-05 0.0 0.0
0.0 0.0021340609917961132 0.0015164211153026255 -0.0007779697320247214 -0.0007384513832779029 -0.0036920718359485035 0.0 0.0
0.0 1.779488053637368e-06 -1.557170962383853e-05 1.3244297603960099e-05 2.327412019878451e-06 -8.350237254926476e-06 0.0 0.0
0.0 9.82788552458694e-06 1.3372325343396417e-06 -1.0506577197632872e-06 -2.865748145764048e-07 1.2520053208997591e-06 0.0 0.0
0.0 0.00017722023468431477 7.809981016800656e-05 -5.5789715295481596e-05 -2.231009487252502e-05 2.193928032720836e-05 0.0 0.0
0.0 0.0009339196076521615 0.0007280938962483171 -0.0005602958363270408 -0.00016779805992127764 4.4785321223091264e-05 0.0 0.0
0.0 0.0023068635249894895 0.002148630839312349 -0.0017609041871131806 -0.00038772665219916606 -7.713831321245516e-05 0.0 0.0
0.0 0.004634696251789644 0.004237269599243231 -0.0036474495272304274 -0.0005898200720128031 -0.0002422944361735825 0.0 0.0
0.0 0.007809701095115315 0.007035856714923357 -0.006288189983727847 -0.0007476667311955085 -0.0004563517992798081 0.0 0.0
0.0 0.011824133133868087 0.010553745205878012 -0.009677303927316472 -0.0008764412785615367 -0.0007023644336299238 0.0 0.0
0.0 0.01678196983767583 0.014855852063975187 -0.013860306485009261 -0.0009955455789659288 -0.000949499458377543 0.0 0.0
0.0 0.0229601653509447 0.02009574973615178 -0.01898265868544174 -0.001113091050710031 -0.0011916626417125464 0.0 0.0
0.0 0.030040546656603842 0.026506651847452885 -0.02527747754540892 -0.0012291743020439636 -0.0015028887631955618 0.0 0.0
0.0 0.038994165013240364 0.034287184564265716 -0.032949010256093064 -0.0013381743081726574 -0.0019067435596982856 0.0 0.0
0.0 0.04963385628896426 0.0435342153689377 -0.04210449451129338 -0.001429720857644336 -0.0023972398545800628 0.0 0.0
0.0 0.06181034221828192 0.05408777516431431 -0.05259310024951804 -0.0014946749147962959 -0.0029594651569797847 0.0 0.0
0.0 0.07493546924375676 0.06541370046733376 -0.06388522124275402 -0.0015284792245796736 -0.0034649456213972 0.0 0.0
0.0 0.08794986903134962 0.07660030733398664 -0.07506587561351041 -0.0015344317204762565 -0.003655992288703238 0.0 0.0
0.0 0.09940767787356837 0.08644695248189553 -0.08492871697106918 -0.0015182355108263042 -0.003277516617474715 0.0 0.0
0.0 0.10767956404729853 0.09351231241901692 -0.09204924196124963 -0.0014630704577672834 -0.002405360313893873 0.0 0.0
0.0 0.11098460976342232 0.09620370797536582 -0.0948240908032932 -0.0013796171720726028 4.024341623831695e-15 0.0 0.0
0.0 0.10767956404728962 0.09351231241900872 -0.0920492419612419 -0.0014630704577668545 0.002405360313903069 0.0 0.0
0.0 0.09940767787354768 0.08644695248187757 -0.08492871697105125 -0.0015182355108262116 0.003277516617485555 0.0 0.0
0.0 0.08794986903132203 0.07660030733396246 -0.0750658756134868 -0.0015344317204756463 0.0036559922887104417 0.0 0.0
0.0 0.07493546924372274 0.06541370046730423 -0.0638852212427252 -0.0015284792245790044 0.0034649456213981574 0.0 0.0
0.0 0.061810342218245794 0.05408777516428287 -0.052593100249486845 -0.0014946749147959767 0.0029594651569785223 0.0 0.0
0.0 0.04963385628892885 0.04353421536890668 -0.04210449451126322 -0.0014297208576435063 0.00239723985457927 0.0 0.0
0.0 0.03899416501320343 0.034287184564233686 -0.03294901025606131 -0.0013381743081723727 0.0019067435596974546 0.0 0.0
0.0 0.03004054665656655 0.02650665184742053 -0.02527747754537706 -0.0012291743020434783 0.001502888763193496 0.0 0.0
0.0 0.022960165350909563 0.020095749736120837 -0.018982658685411217 -0.0011130910507095959 0.001191662641710041 0.0 0.0
0.0 0.01678196983764468 0.014855852063947971 -0.013860306484982751 -0.0009955455789652302 0.0009494994583743913 0.0 0.0
0.0 0.011824133133842927 0.01055374520585537 -0.009677303927294493 -0.0008764412785608722 0.0007023644336274794 0.0 0.0
0.0 0.007809701095096026 0.0070358567149054725 -0.006288189983710865 -0.0007476667311946073 0.00045635179927810434 0.0 0.0
0.0 0.004634696251775913 0.004237269599230293 -0.003647449527218444 -0.0005898200720118478 0.00024229443617211594 0.0 0.0
0.0 0.0023068635249803506 0.0021486308393034136 -0.0017609041871053635 -0.0003877266521980502 7.713831321162826e-05 0.0 0.0
0.0 0.0009339196076472011 0.0007280938962440957 -0.0005602958363236764 -0.00016779805992041873 -4.47853212231571e-05 0.0 0.0
0.0 0.00017722023468307792 7.809981016770737e-05 -5.578971529529788e-05 -2.231009487240976e-05 -2.1939280326883398e-05 0.0 0.0
0.0 9.827885524068106e-06 1.337232534521136e-06 -1.0506577198995208e-06 -2.8657481462145383e-07 -1.252005320927868e-06 0.0 0.0
0.0 1.7794880536234982e-06 -1.5571709623693185e-05 1.3244297603834404e-05 2.327412019858657e-06 8.350237254850846e-06 0.0 0.0
0.0 0.0021340609917890954 0.0015164211152987061 -0.0007779697320221733 -0.0007384513832765306 0.003692071835939669 0.0 0.0
0.0 0.010507259456010205 0.007665362654259504 -0.010206024441556062 0.002540661787296543 4.191024528475061e-05 0.0 0.0
0.0 0.007537746379939747 0.005371669280215022 -0.007374897931550018 0.002003228651334992 -0.0018762849520943515 0.0 0.0
0.0 0.0014671326295574512 0.0009067767908366069 -0.0004124493215859721 -0.0004943274692506336 -0.002720331371351325 0.0 0.0
0.0 1.2634912319597936e-08 -1.3678156687548327e-09 1.0394932843731892e-09 3.2832238438154863e-10 4.875689838480855e-10 0.0 0.0
0.0 2.3903859977223784e-06 1.9567382733463277e-07 -1.5843267433927437e-07 -3.72411529954827e-08 -3.2808356243521947e-07 0.0 0.0
0.0 4.639924728695082e-05 1.3816006404127711e-05 -8.944922860472919e-06 -4.871083543654994e-06 8.58687390385272e-06 0.0 0.0
0.0 0.0006031814229167284 0.00039894149529577796 -0.0002996711804099681 -9.927031488580968e-05 9.600397377049292e-06 0.0 0.0
0.0 0.0016504220213696661 0.0015940648824423825 -0.0012801269365693316 -0.0003139379458730531 -0.00022539357476649113 0.0 0.0
0.0 0.0037447832834182435 0.003428289199177122 -0.002907452652178059 -0.0005208365469990624 -0.000565853048979312 0.0 0.0
0.0 0.006539554334564605 0.00592376682902206 -0.005233554813166441 -0.0006902120158556182 -0.000996331158651148 0.0 0.0
0.0 0.010158006909878548 0.009055128773458512 -0.008232312966757555 -0.0008228158067009517 -0.0014829713983760518 0.0 0.0
0.0 0.014572440215178428 0.012865009681903971 -0.011925267159140114 -0.0009397425227638454 -0.0019893956726652596 0.0 0.0
0.0 0.019818374707279554 0.01748338719635932 -0.016431046812079173 -0.0010523403842801473 -0.0025002429748556 0.0 0.0
0.0 0.026483114960552254 0.023113776855005107 -0.021951510510397634 -0.0011622663446074857 -0.003064842662102509 0.0 0.0
0.0 0.034139494017432846 0.029995419923559252 -0.028731276554025176 -0.0012641433695340762 -0.0037884829125095915 0.0 0.0
0.0 0.04363937132477795 0.03822660686429256 -0.03687711408115424 -0.0013494927831383457 -0.0046906058508056295 0.0 0.0
0.0 0.05455202357039866 0.04767720906888206 -0.0462670257389197 -0.0014101833299623274 -0.005691501100701673 0.0 0.0
0.0 0.06637123503404807 0.05789338900926212 -0.056448951837168186 -0.0014444371720939608 -0.006559961310559402 0.0 0.0
0.0 0.07815823974697308 0.06807366802265352 -0.06662088468906605 -0.001452783333587549 -0.006871995340115832 0.0 0.0
0.0 0.0886345891885996 0.07709461724492912 -0.07566275615955177 -0.0014318610853773321 -0.0062225075481535785 0.0 0.0
0.0 0.0962130564007902 0.0835911170755801 -0.08220045336463326 -0.0013906637109467404 -0.004499389335721583 0.0 0.0
0.0 0.09932410189534582 0.08612347053225079 -0.08483935071935686 -0.0012841198128939353 8.130648931903295e-15 0.0 0.0
0.0 0.0962130564007834 0.08359111707557328 -0.08220045336462703 -0.0013906637109462223 0.004499389335739144 0.0 0.0
0.0 0.088634589188581 0.07709461724491286 -0.0756627561595356 -0.0014318610853774076 0.006222507548172449 0.0 0.0
0.0 0.07815823974694863 0.06807366802263207 -0.06662088468904485 -0.0014527833335871271 0.0068719953401275 0.0 0.0
0.0 0.0663712350340184 0.05789338900923642 -0.05644895183714314 -0.0014444371720932893 0.006559961310562045 0.0 0.0
0.0 0.05455202357036621 0.04767720906885379 -0.04626702573889183 -0.0014101833299619664 0.005691501100699848 0.0 0.0
0.0 0.043639371324746726 0.03822660686426522 -0.036877114081127704 -0.0013494927831375109 0.004690605850804282 0.0 0.0
0.0 0.03413949401739988 0.029995419923530553 -0.028731276553996855 -0.0012641433695337 0.0037884829125079456 0.0 0.0
0.0 0.02648311496051973 0.023113776854976512 -0.021951510510369948 -0.0011622663446065513 0.003064842662099163 0.0 0.0
0.0 0.019818374707246286 0.01748338719633063 -0.01643104681205059 -0.0010523403842800352 0.0025002429748509905 0.0 0.0
0.0 0.014572440215153193 0.012865009681881196 -0.011925267159118062 -0.0009397425227631294 0.001989395672660895 0.0 0.0
0.0 0.010158006909855834 0.009055128773437915 -0.008232312966737593 -0.000822815806700322 0.001482971398371515 0.0 0.0
0.0 0.00653955433454746 0.005923766829006352 -0.005233554813151635 -0.0006902120158547198 0.0009963311586480836 0.0 0.0
0.0 0.0037447832834064 0.0034282891991662865 -0.002907452652168215 -0.0005208365469980698 0.0005658530489769182 0.0 0.0
0.0 0.0016504220213626936 0.0015940648824354024 -0.0012801269365634255 -0.0003139379458719767 0.00022539357476514374 0.0 0.0
0.0 0.000603181422913041 0.0003989414952929708 -0.000299671180407813 -9.927031488515753e-05 -9.60039737730527e-06 0.0 0.0
0.0 4.639924728606675e-05 1.3816006404091051e-05 -8.944922860460569e-06 -4.871083543630467e-06 -8.586873903723545e-06 0.0 0.0
0.0 2.390385997444858e-06 1.956738273823781e-07 -1.5843267437432973e-07 -3.724115300802429e-08 3.280835624451343e-07 0.0 0.0
0.0 1.2634912310065045e-08 -1.367815667713223e-09 1.0394932835817643e-09 3.283223841315191e-10 -4.875689834762404e-10 0.0 0.0
0.0 0.001467132629551743 0.000906776790833158 -0.0004124493215837239 -0.0004943274692494333 0.002720331371342006 0.0 0.0
0.0 0.007537746379922895 0.005371669280202697 -0.007374897931533592 0.0020032286513308978 0.0018762849520819473 0.0 0.0
0.0 0.005515379981635495 0.003810285712736928 -0.0053467344457376244 0.0015364487330006942 -0.0020927212535601326 0.0 0.0
0.0 0.000957747210565758 0.0005547462707544733 -0.0002350399467599747 -0.00031970632399449904 -0.0018884389948193008 0.0 0.0
0.0 0.0 0.0 0.0 0.0 0.0 0.0 0.0
0.0 -9.513615554386662e-07 1.0375365936915567e-07 -7.796950144420907e-08 -2.5784157924954802e-08 -6.35641990013178e-08 0.0 0.0
0.0 4.034778304525283e-06 -1.9845577433643788e-05 1.543714092043519e-05 4.408436513208837e-06 1.0473853343385782e-05 0.0 0.0
0.0 0.00025652442340163336 0.0001809642077891243 -0.00013282732494933387 -4.8136882839790044e-05 -1.1535029838185324e-05 0.0 0.0
0.0 0.0012481987297099152 0.0010388713218425993 -0.0008148020395206312 -0.00022406928232196707 -0.0002278227800390992 0.0 0.0
0.0 0.0028820829080136354 0.002632708770530557 -0.0021935984231977435 -0.00043911034733281435 -0.0007433277581003195 0.0 0.0
0.0 0.005340917385037948 0.004815082216839274 -0.004194798414175824 -0.0006202838026634516 -0.0013482433213347661 0.0 0.0
0.0 0.008506298840931905 0.007559594758997503 -0.006799315433160314 -0.0007602793258371886 -0.002028651305174345 0.0 0.0
0.0 0.012306336910641594 0.010884125290655303 -0.010007145319915062 -0.0008769799707402427 -0.0027383087848751987 0.0 0.0
0.0 0.016990976589583047 0.0148866334444558 -0.013901550121731564 -0.000985083322724224 -0.003456078761914705 0.0 0.0
0.0 0.022477439578003827 0.01976213581933077 -0.018672210556560404 -0.001089925262770369 -0.004234497047450505 0.0 0.0
0.0 0.029594210596518507 0.025723149692474637 -0.024538673914761416 -0.0011844757777132269 -0.005180471703012947 0.0 0.0
0.0 0.03779914762297788 0.032912699773620636 -0.03164941728152649 -0.0012632824920941286 -0.006361114648770025 0.0 0.0
0.0 0.04724423795512124 0.04123990355970351 -0.03991775396453591 -0.0013221495951676071 -0.007691562070775382 0.0 0.0
0.0 0.057839658992007756 0.05032762972151499 -0.04897021802012283 -0.0013574117013921575 -0.008851823406626477 0.0 0.0
0.0 0.06845974583533822 0.05949466401071206 -0.058127847135810984 -0.0013668168749010638 -0.00931153978806077 0.0 0.0
0.0 0.07797670186982046 0.06772815294789615 -0.06637856830899416 -0.0013495846389018841 -0.008533685274266133 0.0 0.0
0.0 0.0849558064268744 0.07378525717348057 -0.07247046595793534 -0.0013147912155452878 -0.006071692256505916 0.0 0.0
0.0 0.0880103570811688 0.07625614665271709 -0.0750920523815062 -0.0011640942712109262 1.022532752914529e-14 0.0 0.0
0.0 0.08495580642686808 0.07378525717347416 -0.07247046595792904 -0.0013147912155450766 0.006071692256530045 0.0 0.0
0.0 0.07797670186980586 0.06772815294788267 -0.06637856830898123 -0.0013495846389014055 0.008533685274289366 0.0 0.0
0.0 0.06845974583531679 0.05949466401069308 -0.05812784713579232 -0.0013668168749007444 0.00931153978807537 0.0 0.0
0.0 0.05783965899198343 0.05032762972149388 -0.048970218020102506 -0.001357411701391383 0.00885182340662969 0.0 0.0
0.0 0.04724423795509331 0.04123990355967915 -0.039917753964511936 -0.0013221495951672168 0.0076915620707728345 0.0 0.0
0.0 0.037799147622951834 0.03291269977359767 -0.031649417281504486 -0.0012632824920931988 0.006361114648768549 0.0 0.0
0.0 0.029594210596489527 0.025723149692449317 -0.02453867391473633 -0.0011844757777129621 0.005180471703010376 0.0 0.0
0.0 0.02247743957797471 0.019762135819305526 -0.018672210556535878 -0.0010899252627696464 0.0042344970474457524 0.0 0.0
0.0 0.016990976589555975 0.014886633444431734 -0.013901550121707917 -0.0009850833227238174 0.003456078761908578 0.0 0.0
0.0 0.012306336910618857 0.010884125290634978 -0.010007145319895376 -0.0008769799707395966 0.0027383087848691073 0.0 0.0
0.0 0.00850629884091278 0.007559594758980369 -0.006799315433144 -0.0007602793258363675 0.002028651305168505 0.0 0.0
0.0 0.005340917385022427 0.004815082216825315 -0.004194798414162738 -0.0006202838026625766 0.001348243321330455 0.0 0.0
0.0 0.002882082908004164 0.002632708770521135 -0.002193598423189411 -0.0004391103473317238 0.000743327758097342 0.0 0.0
0.0 0.001248198729702933 0.0010388713218369592 -0.0008148020395159971 -0.00022406928232096175 0.0002278227800373972 0.0 0.0
0.0 0.0002565244233990892 0.00018096420778765824 -0.00013282732494825238 -4.813688283940599e-05 1.1535029838092198e-05 0.0 0.0
0.0 4.034778304098308e-06 -1.9845577433160688e-05 1.543714092006865e-05 4.408436513092012e-06 -1.0473853343137317e-05 0.0 0.0
0.0 -9.513615552303042e-07 1.0375365934567915e-07 -7.796950142640135e-08 -2.5784157919273087e-08 6.35641989870952e-08 0.0 0.0
0.0 0.0 0.0 0.0 0.0 0.0 0.0 0.0
0.0 0.0009577472105607773 0.0005547462707516668 -0.0002350399467581323 -0.000319706323993535 0.0018884389948113649 0.0 0.0
0.0 0.005515379981621749 0.0038102857127262323 -0.005346734445723236 0.0015364487329970014 0.002092721253550897 0.0 0.0
0.0 0.0038414795882385023 0.0026531323202314983 -0.0037810156524612595 0.0011278833322297625 -0.0018170674628964524 0.0 0.0
0.0 0.0007724395594019672 0.0003055022620609432 -0.00010784354109970656 -0.00019765872096123654 -0.0011841609434012524 0.0 0.0
0.0 0.0 0.0 0.0 0.0 0.0 0.0 0.0
0.0 -1.7710053664048188e-07 1.6292926126732072e-08 -1.3210514320124787e-08 -3.0824118066063082e-09 -2.003555473955279e-08 0.0 0.0
0.0 -4.166120330326637e-06 2.0838191971703315e-06 -1.6508786204610475e-06 -4.3294057670928367e-07 -2.5914810560595163e-06 0.0 0.0
0.0 8.575423017232417e-05 1.8186317027315334e-05 -1.0827786982190423e-05 -7.358530045124705e-06 2.7599425639396265e-05 0.0 0.0
0.0 0.0008459947914023151 0.0005738755700664911 -0.0004397539332207127 -0.0001341216368457785 -0.0001793161092094907 0.0 0.0
0.0 0.0020699538428499403 0.0018630692336572769 -0.001516832575698547 -0.0003462366579587296 -0.0007356232005291767 0.0 0.0
0.0 0.004173192766143439 0.003723373859656928 -0.0031883968456763224 -0.0005349770139806043 -0.0015047278300693633 0.0 0.0
0.0 0.0068609620686775445 0.006078087543136745 -0.005393156785583058 -0.0006849307575536865 -0.0023326170670592257 0.0 0.0
0.0 0.01014901023546769 0.00891947203187915 -0.008114984952555904 -0.0008044870793232466 -0.003193198865567644 0.0 0.0
0.0 0.014117394279531178 0.01231992308112998 -0.0114097958666448 -0.0009101272144851774 -0.0040590716317462465 0.0 0.0
0.0 0.01900329113249619 0.016440729769303736 -0.01543157654079708 -0.0010091532285066481 -0.0049843852579047315 0.0 0.0
0.0 0.024662049921361152 0.021501102159445746 -0.020402102498238987 -0.0010989996612067454 -0.0060856150405185876 0.0 0.0
0.0 0.031883037166161414 0.027630818871817325 -0.02645854480971692 -0.0011722740621003978 -0.0074371337171856245 0.0 0.0
0.0 0.040294507638046956 0.0347973640753587 -0.03357038088983867 -0.0012269831855200117 -0.008949027065410701 0.0 0.0
0.0 0.04934056375103112 0.04272931286494869 -0.041464838143972046 -0.001264474720976623 -0.010303757985880475 0.0 0.0
0.0 0.058737354240471475 0.05086282573173148 -0.04958417224397836 -0.0012786534877531075 -0.01094355604959304 0.0 0.0
0.0 0.0673525431443872 0.058332262964133796 -0.05706544951677855 -0.0012668134473552701 -0.010160327979548491 0.0 0.0
0.0 0.07389523853358751 0.06403238826834128 -0.06279943516104841 -0.0012329531072928068 -0.007249125732491351 0.0 0.0
0.0 0.07698247387614426 0.06650308174258174 -0.06547601812862129 -0.0010270636139604239 1.1686398376786755e-14 0.0 0.0
0.0 0.07389523853358156 0.06403238826833489 -0.06279943516104201 -0.0012329531072928885 0.007249125732518786 0.0 0.0
0.0 0.06735254314437338 0.0583322629641209 -0.057065449516765676 -0.0012668134473552179 0.01016032797957353 0.0 0.0
0.0 0.05873735424045454 0.05086282573171613 -0.04958417224396333 -0.0012786534877527974 0.010943556049608873 0.0 0.0
0.0 0.049340563751009744 0.042729312864930064 -0.04146483814395416 -0.0012644747209759107 0.010303757985884277 0.0 0.0
0.0 0.04029450763802353 0.034797364075338295 -0.033570380889818494 -0.001226983185519769 0.00894902706540793 0.0 0.0
0.0 0.031883037166138925 0.02763081887179741 -0.026458544809697962 -0.0011722740620994342 0.0074371337171829826 0.0 0.0
0.0 0.02466204992133715 0.02150110215942471 -0.020402102498218336 -0.0010989996612063898 0.006085615040515673 0.0 0.0
0.0 0.019003291132472053 0.016440729769282448 -0.01543157654077618 -0.001009153228506263 0.0049843852578992705 0.0 0.0
0.0 0.014117394279508233 0.012319923081109706 -0.011409795866624958 -0.0009101272144847514 0.0040590716317391575 0.0 0.0
0.0 0.01014901023544663 0.008919472031860718 -0.0081149849525381 -0.0008044870793226182 0.003193198865559312 0.0 0.0
0.0 0.006860962068660477 0.006078087543121664 -0.005393156785568834 -0.0006849307575528322 0.0023326170670523497 0.0 0.0
0.0 0.004173192766130321 0.0037233738596450204 -0.0031883968456652804 -0.0005349770139797358 0.0015047278300642335 0.0 0.0
0.0 0.0020699538428412094 0.00186306923364923 -0.0015168325756916136 -0.00034623665795761595 0.0007356232005254697 0.0 0.0
0.0 0.0008459947913969568 0.0005738755700626409 -0.0004397539332176822 -0.00013412163684495948 0.0001793161092080095 0.0 0.0
0.0 8.575423017067434e-05 1.8186317026732636e-05 -1.0827786981776363e-05 -7.358530044955853e-06 -2.7599425639383536e-05 0.0 0.0
0.0 -4.166120330746359e-06 2.083819197143112e-06 -1.6508786204411795e-06 -4.329405767019993e-07 2.591481056061398e-06 0.0 0.0
0.0 -1.7710053660017878e-07 1.629292612284765e-08 -1.3210514317015475e-08 -3.082411805836249e-09 2.0035554734911912e-08 0.0 0.0
0.0 0.0 0.0 0.0 0.0 0.0 0.0 0.0
0.0 0.0007724395593971292 0.00030550226205883473 -0.00010784354109830591 -0.000197658720960528 0.0011841609433949668 0.0 0.0
0.0 0.003841479588227094 0.0026531323202226387 -0.0037810156524491273 0.0011278833322264864 0.0018170674628896766 0.0 0.0
0.0 0.0026597053195560444 0.0017554468567857549 -0.002530375986291502 0.0007749291295057485 -0.0014010028171936272 0.0 0.0
0.0 0.00035678027606860765 0.00014728416054958033 -3.193404718437227e-05 -0.00011535011336520798 -0.0006758294527503031 0.0 0.0
0.0 0.0 0.0 0.0 0.0 0.0 0.0 0.0
0.0 0.0 0.0 0.0 0.0 0.0 0.0 0.0
0.0 -1.8417154906700521e-06 -5.306984541180933e-07 4.268065463886835e-07 1.0389190772941927e-07 5.386821109113477e-07 0.0 0.0
0.0 -1.0906904951677002e-05 -1.128051708256515e-05 9.49186443502569e-06 1.7886526475393484e-06 2.2030513419880728e-05 0.0 0.0
0.0 0.0003169972590322713 0.00027003538873865423 -0.00020304258707555742 -6.699280166309678e-05 -0.0001298287164703736 0.0 0.0
0.0 0.0015796165978388327 0.0011297237331159993 -0.0008971677495076143 -0.00023255598360838597 -0.0005797724994522225 0.0 0.0
0.0 0.0029253610330393313 0.002667868330314308 -0.0022343014843860783 -0.00043356684592822653 -0.001437483727271865 0.0 0.0
0.0 0.005296507072552145 0.004619871256342729 -0.004028713427581901 -0.000591157828760826 -0.0023823635158417666 0.0 0.0
0.0 0.008019187531620415 0.0069828745849306465 -0.0062653063845811326 -0.0007175682003495142 -0.003340642063303919 0.0 0.0
0.0 0.011281835771037104 0.009792354501969122 -0.008968871110653701 -0.0008234833913154183 -0.004303883933544843 0.0 0.0
0.0 0.015235591376842827 0.013178572400293648 -0.01225908087911241 -0.0009194915211812329 -0.005310689272838472 0.0 0.0
0.0 0.020172484116327907 0.01733051332746234 -0.016327002385030376 -0.0010035109424319597 -0.006479276062077368 0.0 0.0
0.0 0.026045209709181998 0.022402566980079103 -0.021329680689267445 -0.0010728862908116663 -0.00790193294952706 0.0 0.0
0.0 0.03290634589720566 0.028400071438677992 -0.027274070028489215 -0.0011260014101887755 -0.009490638218384414 0.0 0.0
0.0 0.04102357980310259 0.03512390450507988 -0.033960818181810466 -0.001163086323269412 -0.01092916253215021 0.0 0.0
0.0 0.04910043051876348 0.04217667492211475 -0.04099297952330719 -0.0011836953988075673 -0.011704916683525688 0.0 0.0
0.0 0.05662345116242588 0.048878935460218605 -0.04769826607040052 -0.0011806693898180599 -0.01106375225271773 0.0 0.0
0.0 0.06283986435798879 0.054267936851205775 -0.05312195533408236 -0.0011459815171234085 -0.008054884188023036 0.0 0.0
0.0 0.06604525650459236 0.05678622423195855 -0.05591277932161043 -0.000873444910348102 1.1926223897340549e-14 0.0 0.0
0.0 0.06283986435798358 0.05426793685119971 -0.05312195533407632 -0.0011459815171234256 0.008054884188049553 0.0 0.0
0.0 0.05662345116241424 0.048878935460207294 -0.04769826607038903 -0.0011806693898182242 0.011063752252743845 0.0 0.0
0.0 0.04910043051874893 0.04217667492210137 -0.040992979523294185 -0.0011836953988071828 0.011704916683541457 0.0 0.0
0.0 0.04102357980308297 0.03512390450506284 -0.03396081818179412 -0.0011630863232687473 0.010929162532153345 0.0 0.0
0.0 0.03290634589718697 0.028400071438661682 -0.027274070028473308 -0.0011260014101883693 0.009490638218381461 0.0 0.0
0.0 0.02604520970916159 0.02240256698006118 -0.021329680689250088 -0.0010728862908110839 0.00790193294952313 0.0 0.0
0.0 0.020172484116309414 0.01733051332744576 -0.016327002385014333 -0.0010035109424314246 0.006479276062074026 0.0 0.0
0.0 0.015235591376822432 0.01317857240027608 -0.012259080879095273 -0.0009194915211808048 0.005310689272833041 0.0 0.0
0.0 0.01128183577101758 0.009792354501952177 -0.008968871110637218 -0.0008234833913149571 0.004303883933537303 0.0 0.0
0.0 0.008019187531602358 0.006982874584915215 -0.0062653063845665114 -0.0007175682003487067 0.0033406420632948854 0.0 0.0
0.0 0.005296507072538001 0.004619871256330129 -0.004028713427570091 -0.0005911578287600343 0.002382363515834095 0.0 0.0
0.0 0.002925361033029505 0.0026678683303049664 -0.0022343014843777135 -0.0004335668459272531 0.0014374837272666534 0.0 0.0
0.0 0.001579616597830987 0.0011297237331100213 -0.0008971677495026262 -0.00023255598360739506 0.0005797724994488423 0.0 0.0
0.0 0.0003169972590283681 0.00027003538873588594 -0.00020304258707345635 -6.69928016624294e-05 0.000129828716468807 0.0 0.0
0.0 -1.0906904952065854e-05 -1.1280517082174215e-05 9.491864434713315e-06 1.78865264746087e-06 -2.203051341926851e-05 0.0 0.0
0.0 -1.8417154908376865e-06 -5.306984541496933e-07 4.2680654641424015e-07 1.0389190773543848e-07 -5.38682110971595e-07 0.0 0.0
0.0 0.0 0.0 0.0 0.0 0.0 0.0 0.0
0.0 0.0 0.0 0.0 0.0 0.0 0.0 0.0
0.0 0.0003567802760650627 0.00014728416054823301 -3.193404718350526e-05 -0.00011535011336472738 0.0006758294527459164 0.0 0.0
0.0 0.002659705319547256 0.0017554468567789528 -0.0025303759862819923 0.0007749291295030391 0.0014010028171885268 0.0 0.0
0.0 0.0015880946114694284 0.001079391300957507 -0.0015636427790284816 0.00048425147807097386 -0.0009985547761531123 0.0 0.0
0.0 0.00016004877191830872 3.4270715221311886e-05 2.8841482013320795e-05 -6.311219723463276e-05 -0.0002902900385587216 0.0 0.0
0.0 0.0 0.0 0.0 0.0 0.0 0.0 0.0
0.0 0.0 0.0 0.0 0.0 0.0 0.0 0.0
0.0 -2.230881882431063e-06 1.6741240221429756e-07 -1.3194621447871795e-07 -3.5466187735568445e-08 -4.2683209167001225e-07 0.0 0.0
0.0 -1.0501597570701018e-05 -1.0974938466596228e-05 8.802839849956735e-06 2.172098616639584e-06 1.8939291951760303e-05 0.0 0.0
0.0 9.968611852854393e-05 5.0128160331585856e-05 -3.6910213121606325e-05 -1.3217947209979631e-05 -2.245004854769034e-05 0.0 0.0
0.0 0.0007072405361787982 0.0005898470741266578 -0.0004581342609756721 -0.00013171281315098538 -0.00042479427764912904 0.0 0.0
0.0 0.0022627986331221982 0.0016362231378785127 -0.001336196189333084 -0.0003000269485454283 -0.0011222554237729245 0.0 0.0
0.0 0.003653839800832977 0.0032090874323658903 -0.00273520944318572 -0.0004738779891801721 -0.0021456557138685166 0.0 0.0
0.0 0.005964865923948006 0.005087074083631137 -0.0044797288902877815 -0.0006073451933433537 -0.0031630771876125664 0.0 0.0
0.0 0.008571762432209916 0.007313269199348617 -0.006595528035478529 -0.0007177411638700858 -0.004171742236407072 0.0 0.0
0.0 0.011684193595487936 0.00997914568184568 -0.009165348762711618 -0.0008137969191340723 -0.005201519489582683 0.0 0.0
0.0 0.015523271143265346 0.01324615728989183 -0.012350578142076109 -0.0008955791478157136 -0.006363676062632508 0.0 0.0
0.0 0.020196647625857427 0.017257682813861804 -0.016295703511630174 -0.0009619793022316225 -0.007739582211139419 0.0 0.0
0.0 0.02608821278690589 0.02205950062175612 -0.02104761078758575 -0.0010118898341703775 -0.009289412540900866 0.0 0.0
0.0 0.03217152888354366 0.027557245438668162 -0.02650567941857525 -0.0010515660200929127 -0.01073511143523945 0.0 0.0
0.0 0.03923767908649786 0.033463058942890894 -0.0323839007096181 -0.0010791582332727724 -0.011594207669594573 0.0 0.0
0.0 0.04613701730359006 0.03933411910556734 -0.03824788027596448 -0.0010862388296028682 -0.011189067139281023 0.0 0.0
0.0 0.05186696419144752 0.04441798519595225 -0.043364795853355495 -0.0010531893425967701 -0.008456635794475819 0.0 0.0
0.0 0.05529694905953106 0.047026492523084926 -0.046325131783984154 -0.0007013607391007838 1.0813832468370421e-14 0.0 0.0
0.0 0.051866964191443266 0.044417985195946766 -0.04336479585335014 -0.0010531893425965585 0.008456635794500445 0.0 0.0
0.0 0.046137017303580205 0.0393341191055572 -0.03824788027595434 -0.0010862388296028831 0.011189067139306208 0.0 0.0
0.0 0.03923767908648533 0.03346305894287919 -0.0323839007096067 -0.0010791582332724686 0.01159420766960884 0.0 0.0
0.0 0.03217152888352677 0.027557245438653885 -0.026505679418561388 -0.001051566020092487 0.010735111435240332 0.0 0.0
0.0 0.02608821278689004 0.022059500621742556 -0.021047610787572245 -0.001011889834170301 0.009289412540896545 0.0 0.0
0.0 0.020196647625842022 0.017257682813848024 -0.01629570351161685 -0.0009619793022311607 0.007739582211134964 0.0 0.0
0.0 0.015523271143250528 0.01324615728987856 -0.012350578142063426 -0.0008955791478151349 0.006363676062629171 0.0 0.0
0.0 0.011684193595473102 0.009979145681832944 -0.009165348762699501 -0.0008137969191334417 0.005201519489578118 0.0 0.0
0.0 0.008571762432193574 0.007313269199334945 -0.00659552803546525 -0.0007177411638697005 0.0041717422363990765 0.0 0.0
0.0 0.005964865923934303 0.005087074083619494 -0.004479728890277013 -0.0006073451933424751 0.0031630771876038936 0.0 0.0
0.0 0.0036538398008210374 0.003209087432355686 -0.0027352094431762853 -0.0004738779891793993 0.002145655713860813 0.0 0.0
0.0 0.002262798633112853 0.0016362231378715874 -0.001336196189327171 -0.000300026948544416 0.001122255423768144 0.0 0.0
0.0 0.0007072405361735834 0.0005898470741226316 -0.00045813426097244565 -0.00013171281315018534 0.0004247942776463322 0.0 0.0
0.0 9.96861185262816e-05 5.0128160330611755e-05 -3.691021312086214e-05 -1.3217947209749716e-05 2.245004854696547e-05 0.0 0.0
0.0 -1.0501597571515952e-05 -1.0974938466464276e-05 8.802839849853594e-06 2.1720986166105955e-06 -1.8939291951615023e-05 0.0 0.0
0.0 -2.2308818822494616e-06 1.6741240221972725e-07 -1.319462144835968e-07 -3.546618773612718e-08 4.2683209169334986e-07 0.0 0.0
0.0 0.0 0.0 0.0 0.0 0.0 0.0 0.0
0.0 0.0 0.0 0.0 0.0 0.0 0.0 0.0
0.0 0.0001600487719157508 3.4270715220498666e-05 2.8841482013822455e-05 -6.311219723432131e-05 0.0002902900385557807 0.0 0.0
0.0 0.0015880946114629794 0.001079391300952574 -0.0015636427790214245 0.00048425147806885045 0.000998554776149287 0.0 0.0
0.0 0.0012063987789556001 0.0005227515767145082 -0.0007576728200403672 0.00023492124332585905 -0.0005446522789621513 0.0 0.0
0.0 -4.531403243148735e-05 -1.6443401097291517e-05 4.458439220604574e-05 -2.8140991108754188e-05 -6.223182211445417e-05 0.0 0.0
0.0 1.683476983325989e-07 -9.842474380911868e-10 1.1381256918532304e-09 -1.5387825376230337e-10 3.35101228491758e-08 0.0 0.0
0.0 0.0 0.0 0.0 0.0 0.0 0.0 0.0
0.0 -6.573290508974384e-07 -5.072442381885005e-09 6.002406357921847e-09 -9.299639760309281e-10 -4.103181931465703e-08 0.0 0.0
0.0 -5.463114096453448e-06 -3.2532943739760277e-06 2.5744877145666957e-06 6.78806659409288e-07 9.238076999189438e-06 0.0 0.0
0.0 -1.0100057987439149e-05 -1.633044173428443e-05 1.3161606492714098e-05 3.1688352415702407e-06 3.327057326517315e-05 0.0 0.0
0.0 0.00023608110031206182 0.0001920146783126844 -0.00014817269715972173 -4.384198115296265e-05 -0.0002273243851373952 0.0 0.0
0.0 0.0010442858691484108 0.0008113250675604255 -0.0006465715453127272 -0.00016475352224769793 -0.000765046496570421 0.0 0.0
0.0 0.0025625744007889023 0.0018535086731361315 -0.0015385692361686255 -0.00031493943696750474 -0.001594527532266943 0.0 0.0
0.0 0.004001097178281555 0.0032520639420055026 -0.0027935948091254922 -0.0004584691328800086 -0.0026282465358189616 0.0 0.0
0.0 0.005898601583978768 0.004906195023601514 -0.004328717413800226 -0.0005774776098012918 -0.0036315693043180272 0.0 0.0
0.0 0.00825002095567739 0.006865759512453882 -0.00618726867647668 -0.0006784908359771969 -0.004634508456819572 0.0 0.0
0.0 0.011082254767980684 0.009265326442748205 -0.008503123405987804 -0.0007622030367604001 -0.005718522897035163 0.0 0.0
0.0 0.014679890876455135 0.012226883679256832 -0.01139797218099408 -0.0008289114982627487 -0.006964994357012303 0.0 0.0
0.0 0.01891871756302543 0.015832073846016665 -0.014952094801264864 -0.0008799790447517962 -0.008345602642450642 0.0 0.0
0.0 0.024087202673202565 0.02004913438109486 -0.01912895978446593 -0.0009201745966289361 -0.009690958842172696 0.0 0.0
0.0 0.029526362972072513 0.02474707355799974 -0.02379273635521473 -0.0009543372027849941 -0.010578755194982664 0.0 0.0
0.0 0.035052344533069615 0.029696374340894328 -0.028718283638232082 -0.0009780907026622544 -0.010471436010697043 0.0 0.0
0.0 0.040541939098414415 0.03441611034331716 -0.03346297642237585 -0.0009531339209413106 -0.008385354685918651 0.0 0.0
0.0 0.044331569602875674 0.03714604690320218 -0.03664011049450985 -0.0005059364086923016 8.823237279687035e-15 0.0 0.0
0.0 0.04054193909841231 0.03441611034331316 -0.03346297642237192 -0.0009531339209412486 0.00838535468594037 0.0 0.0
0.0 0.0350523445330623 0.02969637434088624 -0.028718283638224054 -0.0009780907026621605 0.010471436010719454 0.0 0.0
0.0 0.029526362972063052 0.024747073557990953 -0.023792736355205974 -0.0009543372027850119 0.01057875519499467 0.0 0.0
0.0 0.02408720267319236 0.020049134381086093 -0.019128959784457965 -0.0009201745966281032 0.009690958842172977 0.0 0.0
0.0 0.018918717563011434 0.01583207384600516 -0.014952094801253434 -0.0008799790447517409 0.008345602642445478 0.0 0.0
0.0 0.01467989087644373 0.012226883679246873 -0.011397972180984532 -0.0008289114982623436 0.006964994357008155 0.0 0.0
0.0 0.011082254767968942 0.009265326442738095 -0.008503123405978136 -0.0007622030367599573 0.005718522897031648 0.0 0.0
0.0 0.008250020955666473 0.006865759512444598 -0.006187268676468028 -0.0006784908359765715 0.004634508456815269 0.0 0.0
0.0 0.005898601583966915 0.004906195023591579 -0.0043287174137906885 -0.0005774776098008866 0.0036315693043105692 0.0 0.0
0.0 0.004001097178272472 0.0032520639419981088 -0.002793594809118891 -0.0004584691328792159 0.0026282465358118167 0.0 0.0
0.0 0.0025625744007799402 0.0018535086731293175 -0.0015385692361625453 -0.00031493943696677334 0.0015945275322604392 0.0 0.0
0.0 0.001044285869143058 0.0008113250675564782 -0.0006465715453094786 -0.00016475352224699908 0.0007650464965671043 0.0 0.0
0.0 0.00023608110030904844 0.00019201467831068318 -0.00014817269715812714 -4.384198115255622e-05 0.00022732438513521262 0.0 0.0
0.0 -1.010005798774051e-05 -1.633044173410091e-05 1.3161606492563919e-05 3.1688352415369167e-06 -3.327057326492085e-05 0.0 0.0
0.0 -5.463114096741853e-06 -3.253294373636211e-06 2.574487714294555e-06 6.788066593417084e-07 -9.238076998208008e-06 0.0 0.0
0.0 -6.573290508520561e-07 -5.072442459627194e-09 6.002406420413638e-09 -9.299639607915549e-10 4.103181908309569e-08 0.0 0.0
0.0 0.0 0.0 0.0 0.0 0.0 0.0 0.0
0.0 1.6834769789144244e-07 -9.84247435487633e-10 1.1381256888423935e-09 -1.5387825335482658e-10 -3.351012276057265e-08 0.0 0.0
0.0 -4.5314032432478754e-05 -1.644340109750763e-05 4.458439220609307e-05 -2.8140991108585578e-05 6.223182211324133e-05 0.0 0.0
0.0 0.0012063987789497723 0.0005227515767114583 -0.0007576728200359555 0.0002349212433244982 0.0005446522789594055 0.0 0.0
0.0 0.00042352196556922896 0.0002085875114914114 -0.00030392067069237285 9.533315920096227e-05 -0.00026985433664090247 0.0 0.0
0.0 -5.282179987766361e-05 -2.6165975338994747e-05 3.833447254173167e-05 -1.2168497202736996e-05 3.1648731487501836e-05 0.0 0.0
0.0 2.535276324517265e-06 -4.831974744427683e-09 1.2168905422072356e-08 -7.336930677643471e-09 5.485514330232776e-07 0.0 0.0
0.0 -2.4363969988976666e-07 4.67274257071459e-09 -2.865438166614223e-09 -1.807304404100963e-09 -4.998462457855251e-08 0.0 0.0
0.0 6.233628489086471e-07 -8.196377453290556e-09 3.608994933244982e-09 4.587382520045591e-09 1.3531606602111735e-07 0.0 0.0
0.0 -7.809941003957922e-06 6.695071154435362e-07 -5.176350829375408e-07 -1.5187203250598774e-07 -2.2560343021725196e-06 0.0 0.0
0.0 -8.571519172391482e-06 -1.2967664494779312e-05 1.0353878808313517e-05 2.613785686465762e-06 4.675357121376209e-05 0.0 0.0
0.0 6.796539121883554e-05 -6.997100862931134e-06 5.095324380447033e-06 1.9017764824841225e-06 -9.398455570255428e-06 0.0 0.0
0.0 0.0003459243336051878 0.0002026534532720635 -0.00016253124478553718 -4.012220848652633e-05 -0.0003685224604475123 0.0 0.0
0.0 0.0011265424136821087 0.0007319159092973068 -0.0005987424816710008 -0.00013317342762630578 -0.0009454373243647348 0.0 0.0
0.0 0.002057407158658547 0.0015669970475632458 -0.0013121691493740545 -0.0002548278981891902 -0.001779020588905458 0.0 0.0
0.0 0.003393042219529863 0.0026143391100051034 -0.0022456701973246097 -0.0003686689126804925 -0.0026613389732769678 0.0 0.0
0.0 0.004945628714330541 0.0038796349807158678 -0.003402972900452666 -0.0004766620802632007 -0.0035810013966443817 0.0 0.0
0.0 0.006832604996925488 0.0054342737496991715 -0.004865212759898827 -0.0005690609898003374 -0.0045455343678362115 0.0 0.0
0.0 0.009227462184585386 0.007368235881804479 -0.006723954454462207 -0.0006442814273422754 -0.005587812256688876 0.0 0.0
0.0 0.012220439993616982 0.009767059426544161 -0.009064952044824135 -0.0007021073817200257 -0.006724689418326451 0.0 0.0
0.0 0.01580567286309453 0.012680925483088912 -0.01192990844043013 -0.000751017042658772 -0.007878832446274598 0.0 0.0
0.0 0.019772551287924846 0.016100420577699833 -0.015309885556358914 -0.000790535021340928 -0.008753327697725763 0.0 0.0
0.0 0.0242447001873975 0.019975768445486042 -0.019145404494008915 -0.0008303639514771211 -0.008858185060713926 0.0 0.0
0.0 0.029296825788570662 0.02419361029308325 -0.02335762181415468 -0.0008359884789285433 -0.007653618962677645 0.0 0.0
0.0 0.033234616496963534 0.02706523910065894 -0.026781063260420228 -0.00028417584023872816 6.891189008317866e-15 0.0 0.0
0.0 0.029296825788570034 0.024193610293080314 -0.023357621814151675 -0.0008359884789286505 0.007653618962695381 0.0 0.0
0.0 0.024244700187394667 0.01997576844548166 -0.019145404494004984 -0.000830363951476668 0.008858185060732358 0.0 0.0
0.0 0.019772551287917967 0.01610042057769372 -0.015309885556352985 -0.00079053502134072 0.008753327697734691 0.0 0.0
0.0 0.015805672863087507 0.012680925483083236 -0.01192990844042537 -0.0007510170426578665 0.007878832446273708 0.0 0.0
0.0 0.012220439993607952 0.009767059426536936 -0.00906495204481716 -0.0007021073817197644 0.006724689418321507 0.0 0.0
0.0 0.009227462184576592 0.007368235881797079 -0.0067239544544550976 -0.0006442814273419747 0.005587812256685334 0.0 0.0
0.0 0.006832604996919152 0.005434273749693836 -0.004865212759893812 -0.0005690609898000237 0.004545534367834216 0.0 0.0
0.0 0.004945628714323159 0.003879634980709684 -0.0034029729004468696 -0.0004766620802628147 0.003581001396639988 0.0 0.0
0.0 0.0033930422195218857 0.0026143391099993853 -0.002245670197319591 -0.0003686689126797947 0.0026613389732709552 0.0 0.0
0.0 0.0020574071586526846 0.0015669970475585154 -0.001312169149370037 -0.00025482789818847813 0.0017790205888996479 0.0 0.0
0.0 0.0011265424136769607 0.0007319159092938754 -0.00059874248166819 -0.0001331734276256852 0.0009454373243610854 0.0 0.0
0.0 0.0003459243336028272 0.00020265345327080513 -0.0001625312447845169 -4.0122208486288305e-05 0.0003685224604456504 0.0 0.0
0.0 6.796539121809277e-05 -6.997100862986861e-06 5.095324380499258e-06 1.9017764824876476e-06 9.398455569882176e-06 0.0 0.0
0.0 -8.571519173857212e-06 -1.2967664494590567e-05 1.0353878808165535e-05 2.613785686425094e-06 -4.675357121320673e-05 0.0 0.0
0.0 -7.809941004571762e-06 6.695071154599734e-07 -5.176350829500709e-07 -1.5187203250993902e-07 2.2560343023027366e-06 0.0 0.0
0.0 6.23362848792628e-07 -8.196377454568047e-09 3.6089949352570515e-09 4.587382519321487e-09 -1.3531606599445892e-07 0.0 0.0
0.0 -2.436396997976858e-07 4.67274256891026e-09 -2.865438165498191e-09 -1.8073044034137032e-09 4.9984624558949425e-08 0.0 0.0
0.0 2.5352763242583978e-06 -4.831974744202714e-09 1.2168905420848461e-08 -7.336930676644521e-09 -5.485514329585872e-07 0.0 0.0
0.0 -5.2821799877498446e-05 -2.6165975338610045e-05 3.833447254123317e-05 -1.2168497202623094e-05 -3.164873148677155e-05 0.0 0.0
0.0 0.00042352196556534626 0.0002085875114897042 -0.0003039206706899612 9.533315920025677e-05 0.00026985433663870653 0.0 0.0
0.0 0.00010219138429448672 1.604689130829009e-05 -2.4722721454716526e-05 8.67583014642656e-06 -1.736499741738384e-05 0.0 0.0
0.0 -9.770009961559846e-06 -2.970759084310884e-06 4.229554562156932e-06 -1.258795477846047e-06 4.896380078098763e-06 0.0 0.0
0.0 5.149974561989484e-07 8.315305539707942e-10 5.81062297663047e-10 -1.4125928516329942e-09 1.0360537900382677e-07 0.0 0.0
0.0 2.436080776126386e-07 8.137071863921834e-09 -7.318061333627642e-09 -8.19010530296412e-10 4.870757729381507e-08 0.0 0.0
0.0 1.3594309053105892e-07 2.4029076266449467e-08 -1.9068505419017562e-08 -4.96057084742354e-09 3.3458739142496685e-09 0.0 0.0
0.0 1.1662382778983966e-06 -2.768408023775635e-07 2.0532221848021084e-07 7.151858389732707e-08 2.8575029685463997e-06 0.0 0.0
0.0 -5.758674961944314e-06 -3.726348335750138e-06 2.981892050972311e-06 7.444562847778498e-07 2.8215327965623067e-05 0.0 0.0
0.0 3.6768596075588707e-05 2.583834477965597e-07 1.1091084296651734e-09 -2.594925562262409e-07 -2.8453305060100116e-05 0.0 0.0
0.0 0.00010638164374989772 6.611876189134403e-06 -6.036624422687258e-06 -5.752517664471058e-07 -0.00014685124121177856 0.0 0.0
0.0 0.0002622059966685321 6.478863084510405e-05 -5.648615815350483e-05 -8.302472691599314e-06 -0.0003943546247835816 0.0 0.0
0.0 0.0007486635033632362 0.00026537546918364006 -0.00023534862756402226 -3.0026841619617903e-05 -0.0008154324082748352 0.0 0.0
0.0 0.0011925760802031036 0.0006241217301042111 -0.0005560914938188154 -6.803023628539533e-05 -0.0014707355822945764 0.0 0.0
0.0 0.0019787150817901717 0.0011650072954415786 -0.001034960042367978 -0.00013004725307359935 -0.002208391466850051 0.0 0.0
0.0 0.0030237182668385234 0.0018826829513876153 -0.0016827454644343872 -0.00019993748695322998 -0.0030274806825782543 0.0 0.0
0.0 0.0043203625028560505 0.0028260226097037364 -0.0025512401135181764 -0.00027478249618555597 -0.003918660612961877 0.0 0.0
0.0 0.00596220407042621 0.004034828030380716 -0.0036819984762810182 -0.00035282955409969845 -0.004875671089465016 0.0 0.0
0.0 0.008102454762314217 0.005613990665115843 -0.005178278154539469 -0.0004357125105763728 -0.005912921201511327 0.0 0.0
0.0 0.010891577217892068 0.007704346729406974 -0.007193918785076126 -0.0005104279443308476 -0.00683083451634609 0.0 0.0
0.0 0.01412052074791659 0.01037701067256038 -0.009807202073693 -0.0005698085988673931 -0.007085159612622572 0.0 0.0
0.0 0.017886575166222284 0.013793357816444819 -0.01314845460053749 -0.0006449032159073196 -0.006262100177358757 0.0 0.0
0.0 0.022805957282576998 0.016735222262155014 -0.016720556407844353 -1.4665854310670921e-05 4.4933674836489246e-15 0.0 0.0
0.0 0.01788657516622493 0.013793357816444297 -0.01314845460053676 -0.0006449032159075383 0.006262100177373187 0.0 0.0
0.0 0.014120520747916209 0.010377010672558676 -0.009807202073691446 -0.0005698085988672275 0.007085159612636138 0.0 0.0
0.0 0.010891577217886875 0.007704346729403003 -0.007193918785072184 -0.0005104279443308269 0.0068308345163506125 0.0 0.0
0.0 0.00810245476230738 0.005613990665111858 -0.005178278154535904 -0.00043571251057595455 0.005912921201507946 0.0 0.0
0.0 0.005962204070421658 0.004034828030377527 -0.0036819984762779326 -0.00035282955409959377 0.00487567108946103 0.0 0.0
0.0 0.004320362502852728 0.0028260226097010567 -0.0025512401135154143 -0.0002747824961856424 0.003918660612959344 0.0 0.0
0.0 0.0030237182668357877 0.0018826829513860948 -0.0016827454644332144 -0.0001999374869528812 0.0030274806825768604 0.0 0.0
0.0 0.0019787150817866025 0.0011650072954394967 -0.0010349600423662213 -0.00013004725307327452 0.0022083914668460623 0.0 0.0
0.0 0.0011925760801984745 0.0006241217301018432 -0.0005560914938166936 -6.803023628514928e-05 0.0014707355822889327 0.0 0.0
0.0 0.0007486635033591598 0.0002653754691817168 -0.0002353486275622993 -3.0026841619417285e-05 0.000815432408270168 0.0 0.0
0.0 0.00026220599666717105 6.478863084456568e-05 -5.64861581530213e-05 -8.302472691544384e-06 0.0003943546247825659 0.0 0.0
0.0 0.00010638164374937877 6.6118761890985685e-06 -6.036624422662079e-06 -5.752517664364593e-07 0.0001468512412110519 0.0 0.0
0.0 3.6768596074561615e-05 2.583834477637401e-07 1.109108456804109e-09 -2.594925562205507e-07 2.8453305059598205e-05 0.0 0.0
0.0 -5.758674962171757e-06 -3.7263483356990113e-06 2.981892050931011e-06 7.444562847680085e-07 -2.8215327965192408e-05 0.0 0.0
0.0 1.1662382774381661e-06 -2.7684080237527533e-07 2.053222184792224e-07 7.151858389605421e-08 -2.857502968449518e-06 0.0 0.0
0.0 1.3594309011922446e-07 2.4029076266739186e-08 -1.906850541868594e-08 -4.960570848056445e-09 -3.3458738293035996e-09 0.0 0.0
0.0 2.436080774645492e-07 8.137071860818163e-09 -7.3180613307116555e-09 -8.190105301053078e-10 -4.870757726290399e-08 0.0 0.0
0.0 5.149974558099532e-07 8.315305537905433e-10 5.810622967492264e-10 -1.4125928505440177e-09 -1.036053789230171e-07 0.0 0.0
0.0 -9.770009962194165e-06 -2.9707590842563607e-06 4.229554562078517e-06 -1.258795477822151e-06 -4.89638007797292e-06 0.0 0.0
0.0 0.00010219138429311881 1.604689130806469e-05 -2.472272145436744e-05 8.675830146302652e-06 1.7364997417162692e-05 0.0 0.0
0.0 2.1015395193593482e-06 2.1099364330166068e-06 -3.1684360225726773e-06 1.05849958955602e-06 -3.5792205832600884e-06 0.0 0.0
0.0 -1.581913631410512e-06 -2.687477051522369e-07 4.0455460635083505e-07 -1.3580690119858505e-07 2.115086868399206e-07 0.0 0.0
0.0 3.6187657992177032e-06 1.0195274959671077e-08 7.11349756412122e-09 -1.7308772523796264e-08 7.81723116672718e-07 0.0 0.0
0.0 1.2405663355666563e-06 2.296314495505155e-08 -1.9338392250235115e-08 -3.624752704813151e-09 2.542797602654144e-07 0.0 0.0
0.0 7.821947515459587e-08 1.9553413154148733e-08 -1.741372149231297e-08 -2.139691661835925e-09 -6.284691891100786e-09 0.0 0.0
0.0 -7.257887278123094e-08 2.196267362846145e-08 -1.7074170826320546e-08 -4.888502802137761e-09 2.6638205483730386e-06 0.0 0.0
0.0 -1.8276621866263607e-06 1.2425555705597644e-08 -4.151534952335157e-08 2.9089793817743284e-08 2.736644435115411e-05 0.0 0.0
0.0 2.569883712283566e-05 -2.1169152493160303e-07 2.1710644067538116e-07 -5.414915743768284e-09 -4.28278601033502e-05 0.0 0.0
0.0 0.0001284126049340474 -1.1976081374779895e-08 1.5566084887557236e-08 -3.5900035127570115e-09 -0.0001355777704484369 0.0 0.0
0.0 0.00020495057936617558 1.2222129544875396e-07 -1.05666067030037e-07 -1.655522841871484e-08 -0.00033584449191787077 0.0 0.0
0.0 0.0004075231585856352 -3.414749021556723e-07 1.7288759196106656e-07 1.6858731019456147e-07 -0.000539149295427068 0.0 0.0
0.0 0.0005237622001225111 4.74593681354634e-07 -3.8803153204805807e-07 -8.656214930652467e-08 -0.0009335221070000539 0.0 0.0
0.0 0.0007339538751557548 1.5945680111080501e-06 -1.1148797108365725e-06 -4.796883002715589e-07 -0.0014054041583200674 0.0 0.0
0.0 0.0010006454687662791 1.1794193679713763e-06 -1.8635558815839333e-07 -9.930637798127593e-07 -0.0020549905744392583 0.0 0.0
0.0 0.0014058086081895663 -1.1502968160477121e-05 1.1686534954492443e-05 -1.8356679401548446e-07 -0.002911985882211072 0.0 0.0
0.0 0.0020391344448568716 2.8288570057041188e-05 -4.076106250649442e-05 1.2472492449452823e-05 -0.004022289652476912 0.0 0.0
0.0 0.002967258375089116 0.00024626881697573566 -0.0002927644230688105 4.649560609307512e-05 -0.005262387231709551 0.0 0.0
0.0 0.00420005081153671 0.0007355477487759512 -0.0008457854325687585 0.00011023768379280727 -0.006496938832598896 0.0 0.0
0.0 0.006014582742138187 0.001569212243612365 -0.001739555966136361 0.0001703437225239968 -0.007497762532584953 0.0 0.0
0.0 0.008868598885147273 0.0036240517279215105 -0.003530062209061356 -9.398951886015548e-05 -0.007482056972727627 0.0 0.0
0.0 0.015333721329635399 0.006998236083978377 -0.007372400979373368 0.0003741648953949952 6.048980760731126e-15 0.0 0.0
0.0 0.008868598885151393 0.003624051727921578 -0.003530062209061727 -9.398951885985143e-05 0.0074820569727391175 0.0 0.0
0.0 0.006014582742138242 0.0015692122436120732 -0.0017395559661361852 0.00017034372252411318 0.0074977625325886 0.0 0.0
0.0 0.0042000508115325325 0.0007355477487749284 -0.0008457854325673352 0.00011023768379240771 0.006496938832596024 0.0 0.0
0.0 0.002967258375083862 0.0002462688169758729 -0.00029276442306901536 4.649560609314153e-05 0.0052623872317036574 0.0 0.0
0.0 0.002039134444854959 2.8288570057315003e-05 -4.076106250676926e-05 1.2472492449454707e-05 0.004022289652473756 0.0 0.0
0.0 0.0014058086081880198 -1.150296816109181e-05 1.1686534955224198e-05 -1.8356679413267994e-07 0.002911985882208769 0.0 0.0
0.0 0.0010006454687658023 1.1794193684436412e-06 -1.8635558864641983e-07 -9.930637797971536e-07 0.0020549905744371667 0.0 0.0
0.0 0.0007339538751534769 1.5945680110368451e-06 -1.1148797108148444e-06 -4.796883002219973e-07 0.00140540415831516 0.0 0.0
0.0 0.000523762200120742 4.745936813798095e-07 -3.8803153205483687e-07 -8.656214932499634e-08 0.0009335221069962252 0.0 0.0
0.0 0.00040752315858338776 -3.414749019404678e-07 1.728875917574381e-07 1.685873101830687e-07 0.0005391492954237244 0.0 0.0
0.0 0.0002049505793660364 1.222212954671871e-07 -1.0566606705651525e-07 -1.6555228410652358e-08 0.0003358444919178519 0.0 0.0
0.0 0.00012841260493328863 -1.1976081362843507e-08 1.5566084876480586e-08 -3.590003513644702e-09 0.0001355777704475262 0.0 0.0
0.0 2.5698837122172258e-05 -2.1169152493820523e-07 2.1710644068894364e-07 -5.414915750723589e-09 4.282786010289723e-05 0.0 0.0
0.0 -1.827662186905757e-06 1.2425555700144825e-08 -4.151534951708863e-08 2.9089793816951966e-08 -2.7366444350560096e-05 0.0 0.0
0.0 -7.257887339208548e-08 2.1962673624698724e-08 -1.7074170823283095e-08 -4.88850280142195e-09 -2.663820548296542e-06 0.0 0.0
0.0 7.821947466927294e-08 1.955341314824257e-08 -1.741372148698716e-08 -2.13969166125215e-09 6.284691988554587e-09 0.0 0.0
0.0 1.2405663350389034e-06 2.2963144945294832e-08 -1.9338392241929008e-08 -3.624752703366745e-09 -2.542797601527055e-07 0.0 0.0
0.0 3.618765798929172e-06 1.0195274960301875e-08 7.113497562151617e-09 -1.7308772522443827e-08 -7.817231166001966e-07 0.0 0.0
0.0 -1.581913631312257e-06 -2.6874770520286636e-07 4.0455460642256413e-07 -1.3580690121971522e-07 -2.1150868692162682e-07 0.0 0.0
0.0 2.1015395183051264e-06 2.10993643336673e-06 -3.168436023095814e-06 1.0584995897291893e-06 3.5792205839131453e-06 0.0 0.0
0.0 -1.1154274967154842e-06 6.94027292706571e-08 -1.0140536005932449e-07 3.200263078866925e-08 -1.5472886577778064e-07 0.0 0.0
0.0 1.7918000042185022e-07 -8.709275583130871e-09 1.2408309398132015e-08 -3.6990338150030894e-09 3.0163412121232195e-08 0.0 0.0
0.0 -8.826497244967562e-07 -1.2994467622963783e-08 9.317246254383222e-09 3.677221368580728e-09 -1.9103679018332728e-07 0.0 0.0
0.0 1.490317100255079e-06 4.241911744592017e-08 -3.470315010590186e-08 -7.71596734001991e-09 3.1235457426870176e-07 0.0 0.0
0.0 -1.1343193126931769e-06 2.959013939668071e-08 -3.110174446106866e-08 1.5116050643900388e-09 1.2170425005710127e-07 0.0 0.0
0.0 -1.6108636125619342e-06 -5.223533322125643e-07 4.2744188786922996e-07 9.491144434336702e-08 -2.2393119120026215e-06 0.0 0.0
0.0 3.907116160698446e-06 6.0694377720444846e-06 -4.833242343644274e-06 -1.2361954284002915e-06 4.194183676372269e-05 0.0 0.0
0.0 4.1781071332396294e-05 -8.408422809271848e-07 5.562310010547804e-07 2.8461127987243275e-07 -2.9736362029855453e-05 0.0 0.0
0.0 0.0001067409485685962 -6.840951983642858e-06 6.243740679911038e-06 5.972113037316552e-07 -0.00014771582243960644 0.0 0.0
0.0 0.00026089678649926127 -6.42678073891214e-05 5.60156690886169e-05 8.252138300504463e-06 -0.0003936479672798792 0.0 0.0
0.0 0.0007570157798873623 -0.000262886702450312 0.00023352145561267968 2.9365246837632685e-05 -0.0008134590538289027 0.0 0.0
0.0 0.0012016595689117169 -0.0006256068449091444 0.000557230335138223 6.837650977092108e-05 -0.0014690070953116811 0.0 0.0
0.0 0.001990706489737695 -0.0011736333915077315 0.0010421901747026657 0.00013144321680506532 -0.00220932408347298 0.0 0.0
0.0 0.0030512623441705886 -0.0019040817834469624 0.0017023465353548394 0.00020173524809212218 -0.003023782578986406 0.0 0.0
0.0 0.004319746298868946 -0.0028329484091637897 0.0025624138791455115 0.0002705345300182773 -0.003924348684875644 0.0 0.0
0.0 0.005791533625460105 -0.003875928248223356 0.003558894429697314 0.0003170338185260395 -0.004962538585075545 0.0 0.0
0.0 0.007265073831900167 -0.0048539164216350305 0.004528916211860422 0.0003250002097746117 -0.00623101093841889 0.0 0.0
0.0 0.008573225391435074 -0.0053966031116127995 0.005125552636759867 0.0002710504748529267 -0.0077613750510625405 0.0 0.0
0.0 0.008828392867940823 -0.0050135894611131595 0.004854758320057092 0.00015883114105607612 -0.009548313421671855 0.0 0.0
0.0 0.007554126144776565 -0.003653809551138645 0.0035966069330219718 5.720261811667011e-05 -0.011034659584894635 0.0 0.0
0.0 0.014490111003049871 -0.0020300498009332996 0.0007479098651121947 0.0012821399358211051 8.469353690587766e-15 0.0 0.0
0.0 0.007554126144781164 -0.0036538095511391786 0.003596606933022728 5.7202618116448066e-05 0.01103465958490192 0.0 0.0
0.0 0.008828392867940437 -0.005013589461112439 0.004854758320056238 0.0001588311410562027 0.009548313421677916 0.0 0.0
0.0 0.008573225391430343 -0.00539660311160955 0.005125552636756943 0.0002710504748526059 0.007761375051063126 0.0 0.0
0.0 0.007265073831892576 -0.004853916421629441 0.004528916211855101 0.000325000209774342 0.006231010938414206 0.0 0.0
0.0 0.005791533625454412 -0.0038759282482189296 0.0035588944296932636 0.00031703381852566347 0.004962538585071577 0.0 0.0
0.0 0.0043197462988659235 -0.002832948409160811 0.0025624138791429094 0.0002705345300179037 0.00392434868487215 0.0 0.0
0.0 0.003051262344164073 -0.0019040817834420415 0.0017023465353502288 0.0002017352480918127 0.0030237825789822064 0.0 0.0
0.0 0.00199070648973077 -0.001173633391502765 0.0010421901746983761 0.0001314432168043881 0.0022093240834675796 0.0 0.0
0.0 0.0012016595689058733 -0.000625606844905644 0.0005572303351352004 6.837650977044383e-05 0.0014690070953061437 0.0 0.0
0.0 0.0007570157798817827 -0.0002628867024482397 0.00023352145561080322 2.93652468374363e-05 0.0008134590538239055 0.0 0.0
0.0 0.000260896786497584 -6.426780738842506e-05 5.601566908800674e-05 8.25213830041824e-06 0.0003936479672781964 0.0 0.0
0.0 0.00010674094856794558 -6.840951983672494e-06 6.243740679926454e-06 5.97211303746015e-07 0.00014771582243899872 0.0 0.0
0.0 4.1781071331655506e-05 -8.408422809372518e-07 5.562310010781811e-07 2.8461127985909124e-07 2.973636202960995e-05 0.0 0.0
0.0 3.907116160329288e-06 6.069437771992893e-06 -4.833242343609352e-06 -1.236195428383528e-06 -4.194183676327574e-05 0.0 0.0
0.0 -1.610863612804284e-06 -5.223533323137179e-07 4.2744188795819266e-07 9.491144435552749e-08 2.2393119127316746e-06 0.0 0.0
0.0 -1.134319313313226e-06 2.9590139407991938e-08 -3.1101744471136766e-08 1.5116050631409002e-09 -1.2170425012144229e-07 0.0 0.0
0.0 1.4903170996868914e-06 4.241911743258753e-08 -3.470315009501489e-08 -7.715967337572316e-09 -3.123545741501756e-07 0.0 0.0
0.0 -8.826497247984758e-07 -1.2994467621539304e-08 9.317246251181477e-09 3.677221370354842e-09 1.9103679023936508e-07 0.0 0.0
0.0 1.791800006106036e-07 -8.709275580154348e-09 1.2408309395914994e-08 -3.699033815758634e-09 -3.0163412160347144e-08 0.0 0.0
0.0 -1.1154274964526031e-06 6.940272925345171e-08 -1.0140536003419192e-07 3.2002630780733594e-08 1.5472886573936063e-07 0.0 0.0
0.0 0.0 0.0 0.0 0.0 0.0 0.0 0.0
0.0 -6.422239837672116e-08 -7.673636738658928e-10 3.860605389357296e-10 3.81303134929867e-10 -1.284131782217668e-08 0.0 0.0
0.0 -3.7874344330713723e-07 -1.8012271592059652e-08 1.5873291862660503e-08 2.138979729398885e-09 -8.014407512813873e-08 0.0 0.0
0.0 -9.073015980962664e-07 -5.68571413310864e-08 4.755545022616241e-08 9.301691104915119e-09 -2.3445117856962518e-07 0.0 0.0
0.0 7.255455941357637e-06 1.297341150457882e-07 -1.1574258863939119e-07 -1.399152640634813e-08 1.0118287552152563e-06 0.0 0.0
0.0 8.981757415191285e-06 3.703435946312519e-06 -2.9923761492707665e-06 -7.110597970417399e-07 1.6481123573887695e-05 0.0 0.0
0.0 -4.912207128664441e-06 2.9807195776298786e-06 -2.3836047593243725e-06 -5.971148183054212e-07 1.7882013182620855e-06 0.0 0.0
0.0 7.549578753707462e-05 4.996077300995904e-06 -3.3824457410132703e-06 -1.6136315599828207e-06 -1.4465730031175723e-05 0.0 0.0
0.0 0.00034500276018159927 -0.00020229585934691043 0.00016219358249797242 4.0102276848938024e-05 -0.00036887226137981505 0.0 0.0
0.0 0.0011229399159872035 -0.0007301911363841796 0.0005971979524115277 0.00013299318397265138 -0.000942906671588212 0.0 0.0
0.0 0.0020557878658819338 -0.0015664249494999447 0.0013116403728037317 0.00025478457669621203 -0.0017778802770915664 0.0 0.0
0.0 0.0033952413680145895 -0.00261582596012086 0.0022469580340554224 0.000368867926065439 -0.0026621684257932786 0.0 0.0
0.0 0.004954395256343557 -0.0038868770170758685 0.003409471827001338 0.0004774051900745276 -0.0035764881423435433 0.0 0.0
0.0 0.0068526974552584104 -0.0054548145391335205 0.004884995413164096 0.0005698191259694241 -0.004523345040937601 0.0 0.0
0.0 0.009238851610689552 -0.007385129083653558 0.006743955838172644 0.000641173245480912 -0.005570940227279622 0.0 0.0
0.0 0.012086922004015802 -0.009650961373005687 0.00896578249095239 0.0006851788820532994 -0.006866012428991714 0.0 0.0
0.0 0.015108957390926155 -0.012032657815649942 0.01133181551630995 0.0007008422993399822 -0.008588586111158689 0.0 0.0
0.0 0.017616375325621634 -0.014068537311814476 0.013374156400666817 0.0006943809111476604 -0.010820188071747762 0.0 0.0
0.0 0.019128452994069484 -0.014877237894716096 0.014220736010107976 0.0006565018846081208 -0.013118495712526095 0.0 0.0
0.0 0.017749701205384872 -0.0129303854529302 0.012313248145928265 0.0006171373070019328 -0.013622162459621924 0.0 0.0
0.0 0.0180944810455946 -0.010121466680434586 0.008086648314858695 0.0020348183655758863 7.384284156364274e-15 0.0 0.0
0.0 0.017749701205390142 -0.012930385452931174 0.012313248145929429 0.0006171373070017502 0.013622162459636787 0.0 0.0
0.0 0.019128452994069976 -0.014877237894714164 0.01422073601010632 0.0006565018846078341 0.013118495712540585 0.0 0.0
0.0 0.017616375325614813 -0.014068537311808477 0.013374156400661254 0.0006943809111472309 0.010820188071752113 0.0 0.0
0.0 0.01510895739091388 -0.012032657815640163 0.011331815516300208 0.0007008422993399551 0.008588586111154622 0.0 0.0
0.0 0.01208692200400528 -0.009650961372996928 0.008965782490943767 0.0006851788820531538 0.006866012428986847 0.0 0.0
0.0 0.00923885161068017 -0.0073851290836459485 0.006743955838165568 0.0006411732454803813 0.0055709402272740745 0.0 0.0
0.0 0.006852697455249584 -0.00545481453912537 0.004884995413156521 0.0005698191259688449 0.00452334504093343 0.0 0.0
0.0 0.004954395256332947 -0.0038868770170672954 0.003409471826993351 0.0004774051900739444 0.0035764881423375433 0.0 0.0
0.0 0.003395241368003457 -0.0026158259601123503 0.002246958034047603 0.0003688679260647446 0.0026621684257852572 0.0 0.0
0.0 0.0020557878658724648 -0.0015664249494925279 0.0013116403727970877 0.00025478457669543986 0.0017778802770834462 0.0 0.0
0.0 0.0011229399159797242 -0.0007301911363790047 0.00059719795240713 0.0001329931839718746 0.0009429066715830727 0.0 0.0
0.0 0.00034500276017812733 -0.00020229585934483651 0.00016219358249631595 4.0102276848520444e-05 0.0003688722613771545 0.0 0.0
0.0 7.54957875360787e-05 4.996077301216183e-06 -3.382445741194388e-06 -1.6136315600218245e-06 1.4465730030419557e-05 0.0 0.0
0.0 -4.912207130330413e-06 2.9807195775135886e-06 -2.383604759232185e-06 -5.971148182814186e-07 -1.7882013179714897e-06 0.0 0.0
0.0 8.981757414771827e-06 3.703435946329519e-06 -2.9923761492852364e-06 -7.110597970443609e-07 -1.6481123573959537e-05 0.0 0.0
0.0 7.255455940872897e-06 1.2973411500685036e-07 -1.1574258860677714e-07 -1.3991526400075202e-08 -1.0118287550117213e-06 0.0 0.0
0.0 -9.073015986570772e-07 -5.6857141346010775e-08 4.755545023829637e-08 9.301691107725905e-09 2.3445117868003778e-07 0.0 0.0
0.0 -3.7874344334963774e-07 -1.8012271588564516e-08 1.5873291858862447e-08 2.138979729702004e-09 8.014407513526805e-08 0.0 0.0
0.0 -6.422239831149007e-08 -7.673636730775991e-10 3.8606053854000237e-10 3.8130313453729685e-10 1.284131780894419e-08 0.0 0.0
0.0 0.0 0.0 0.0 0.0 0.0 0.0 0.0
0.0 0.0 0.0 0.0 0.0 0.0 0.0 0.0
0.0 0.0 0.0 0.0 0.0 0.0 0.0 0.0
0.0 -6.673786689358188e-07 -2.6521950268112564e-08 2.1499513791296284e-08 5.022436476819881e-09 -1.3134363579990852e-07 0.0 0.0
0.0 1.8682322036662964e-06 7.292438497842065e-08 -5.975073658410082e-08 -1.3173648394326133e-08 3.735910496881116e-07 0.0 0.0
0.0 2.909002697599757e-07 7.265749882120374e-07 -5.854317441681127e-07 -1.411432440439679e-07 2.522407913731908e-06 0.0 0.0
0.0 -1.2850702016768999e-05 -6.300012062117691e-07 4.710608818828742e-07 1.589403243289546e-07 -2.6657306121803425e-06 0.0 0.0
0.0 2.460682111261461e-05 2.1969120923750667e-05 -1.7485564085554728e-05 -4.483556838196144e-06 4.766260394387558e-05 0.0 0.0
0.0 0.0002485437334033717 -0.0001949929115715137 0.00015085700960418383 4.4135901967330025e-05 -0.00023337597812860848 0.0 0.0
0.0 0.00104172782629514 -0.0008094630245011499 0.000644892518133393 0.00016457050636775578 -0.0007630858906869381 0.0 0.0
0.0 0.0025601763748946895 -0.0018517405060527277 0.0015368073827447199 0.0003149331233080081 -0.0015908751892297168 0.0 0.0
0.0 0.003996550707943852 -0.003252404336958305 0.002793920356245384 0.00045848398071292096 -0.002628032590127491 0.0 0.0
0.0 0.005900501155797846 -0.004907124549196534 0.004329730291753977 0.0005773942574425538 -0.0036327463922643096 0.0 0.0
0.0 0.008252795301664267 -0.006868207895900106 0.006189543234473058 0.0006786646614270498 -0.004626712196784608 0.0 0.0
0.0 0.011089037497215397 -0.009276094423791938 0.008513105949706373 0.0007629884740855646 -0.005675296045354967 0.0 0.0
0.0 0.014681567317624 -0.012243063190563426 0.011415193560020583 0.0008278696305428426 -0.006891654553744668 0.0 0.0
0.0 0.018836672178289854 -0.015771538855394417 0.014903530192828581 0.000868008662565834 -0.008460552185629033 0.0 0.0
0.0 0.023643466170728718 -0.01960212639106737 0.018722744957648606 0.0008793814334187681 -0.010702333655118298 0.0 0.0
0.0 0.027926334178744728 -0.023067550711513337 0.02221292374097251 0.0008546269705408294 -0.013763034920210514 0.0 0.0
0.0 0.030414240996760038 -0.024835852617487282 0.024038005529236982 0.0007978470882502877 -0.016849322448099117 0.0 0.0
0.0 0.028427836496861716 -0.02273541293350272 0.022030279605049996 0.0007051333284527263 -0.017836352665887293 0.0 0.0
0.0 0.02590297529617886 -0.018399931920721035 0.01566539933032512 0.002734532590395913 8.661907996421192e-15 0.0 0.0
0.0 0.028427836496864253 -0.02273541293350139 0.02203027960504855 0.0007051333284528189 0.017836352665905962 0.0 0.0
0.0 0.03041424099675888 -0.024835852617483334 0.02403800552923338 0.0007978470882499185 0.016849322448118372 0.0 0.0
0.0 0.027926334178734916 -0.023067550711504063 0.02221292374096357 0.0008546269705404814 0.013763034920218343 0.0 0.0
0.0 0.023643466170712696 -0.01960212639105389 0.01872274495763528 0.0008793814334186119 0.010702333655116353 0.0 0.0
0.0 0.01883667217827442 -0.01577153885538125 0.014903530192815588 0.0008680086625656605 0.008460552185623658 0.0 0.0
0.0 0.014681567317609879 -0.012243063190551526 0.011415193560009399 0.0008278696305421214 0.006891654553738578 0.0 0.0
0.0 0.011089037497201661 -0.00927609442378031 0.008513105949694972 0.0007629884740853383 0.005675296045349569 0.0 0.0
0.0 0.008252795301649444 -0.006868207895887698 0.006189543234461104 0.0006786646614265928 0.004626712196778186 0.0 0.0
0.0 0.005900501155781434 -0.004907124549183221 0.0043297302917414925 0.0005773942574417267 0.0036327463922546355 0.0 0.0
0.0 0.00399655070793002 -0.0032524043369471876 0.0027939203562348854 0.0004584839807123028 0.0026280325901182344 0.0 0.0
0.0 0.0025601763748822892 -0.0018517405060429395 0.0015368073827360888 0.0003149331233068506 0.0015908751892214968 0.0 0.0
0.0 0.0010417278262888166 -0.0008094630244965791 0.0006448925181297253 0.00016457050636685302 0.0007630858906833681 0.0 0.0
0.0 0.0002485437334004294 -0.00019499291156954146 0.00015085700960267462 4.413590196686663e-05 0.00023337597812662925 0.0 0.0
0.0 2.4606821111984878e-05 2.196912092345464e-05 -1.7485564085328563e-05 -4.48355683812593e-06 -4.7662603943503286e-05 0.0 0.0
0.0 -1.2850702017608906e-05 -6.30001206588578e-07 4.710608821842939e-07 1.5894032440429722e-07 2.6657306132610053e-06 0.0 0.0
0.0 2.9090026924192115e-07 7.265749882585086e-07 -5.85431744205073e-07 -1.411432440534241e-07 -2.5224079138396887e-06 0.0 0.0
0.0 1.8682322031391885e-06 7.292438495947189e-08 -5.975073656882235e-08 -1.3173648390657147e-08 -3.73591049577993e-07 0.0 0.0
0.0 -6.673786687448563e-07 -2.6521950260483167e-08 2.1499513785132376e-08 5.022436475351499e-09 1.3134363576041204e-07 0.0 0.0
0.0 0.0 0.0 0.0 0.0 0.0 0.0 0.0
0.0 0.0 0.0 0.0 0.0 0.0 0.0 0.0
0.0 0.0 0.0 0.0 0.0 0.0 0.0 0.0
0.0 0.0 0.0 0.0 0.0 0.0 0.0 0.0
0.0 -2.95889627028445e-07 -1.3592507698731995e-08 1.083743040721265e-08 2.7550772915178707e-09 -5.501979115714737e-08 0.0 0.0
0.0 -2.112291098398292e-06 -1.6324554829102846e-07 1.3285156833206997e-07 3.0393979958964755e-08 -4.379793777943576e-07 0.0 0.0
0.0 9.391475406458822e-06 5.213929396491378e-07 -4.153594226015257e-07 -1.060335170476079e-07 1.4701845760009604e-06 0.0 0.0
0.0 1.0014477037725637e-05 2.1584783695282066e-05 -1.7136879391776907e-05 -4.447904303505232e-06 3.781116836670875e-05 0.0 0.0
0.0 0.0001141763027315395 -7.426998586921733e-05 5.623854195579755e-05 1.8031443913420007e-05 -6.795041199580895e-05 0.0 0.0
0.0 0.0007156861012198733 -0.000591164312927366 0.00045958599202712157 0.00013157832090024407 -0.0004301723188929296 0.0 0.0
0.0 0.0022592661625434572 -0.0016338429464762632 0.001333839725278871 0.00030000322119739224 -0.0011181655494269355 0.0 0.0
0.0 0.0036513223416055054 -0.00320827359056614 0.0027342178497759776 0.000474055740790163 -0.0021421025252143754 0.0 0.0
0.0 0.00596665768752074 -0.005088083173668085 0.004480772839872904 0.0006073103337951814 -0.003162883988071792 0.0 0.0
0.0 0.008572618242591321 -0.007313545731559677 0.006596170253621714 0.0007173754779379606 -0.004173111162344937 0.0 0.0
0.0 0.011679676823717266 -0.009974626770278253 0.009161282534186532 0.0008133442360917238 -0.005192645302676173 0.0 0.0
0.0 0.015509332178418204 -0.013237830586217202 0.012341458521969313 0.0008963720642478929 -0.006306141787758066 0.0 0.0
0.0 0.02017890829465483 -0.01725961316386998 0.016295638957413528 0.0009639742064564531 -0.007610186482387731 0.0 0.0
0.0 0.026068788522724942 -0.02206619357575916 0.021058251931196436 0.0010079416445627253 -0.009330685101963254 0.0 0.0
0.0 0.032009747237196066 -0.027369416650349268 0.026352848543403036 0.0010165681069461904 -0.011853440779823947 0.0 0.0
0.0 0.038137984759467 -0.032230011930332536 0.031258033256312524 0.0009719786740200166 -0.015387079403582986 0.0 0.0
0.0 0.04179588684821231 -0.034833752336810554 0.03395989739219464 0.0008738549446158821 -0.01922140548822229 0.0 0.0
0.0 0.03928240452767724 -0.032260806330435064 0.03154294819603458 0.0007178581344004903 -0.021021751964263997 0.0 0.0
0.0 0.03432511217601901 -0.026538395724815502 0.023206802505104367 0.0033315932197111077 9.84455572616838e-15 0.0 0.0
0.0 0.03928240452767884 -0.03226080633043261 0.03154294819603266 0.0007178581343999653 0.02102175196428581 0.0 0.0
0.0 0.0417958868482068 -0.03483375233680315 0.033959897392187306 0.000873854944615857 0.019221405488244022 0.0 0.0
0.0 0.03813798475945418 -0.032230011930320365 0.031258033256300784 0.0009719786740195562 0.015387079403593807 0.0 0.0
0.0 0.0320097472371776 -0.02736941665033321 0.026352848543387125 0.0010165681069460863 0.011853440779824049 0.0 0.0
0.0 0.026068788522706582 -0.022066193575743295 0.021058251931180928 0.0010079416445623738 0.009330685101958796 0.0 0.0
0.0 0.020178908294637372 -0.017259613163854683 0.016295638957399 0.000963974206455687 0.007610186482381723 0.0 0.0
0.0 0.015509332178398907 -0.013237830586200537 0.012341458521952954 0.0008963720642475634 0.00630614178775154 0.0 0.0
0.0 0.011679676823698654 -0.009974626770262372 0.009161282534171023 0.0008133442360913439 0.005192645302669859 0.0 0.0
0.0 0.008572618242571748 -0.007313545731542796 0.006596170253605618 0.0007173754779371788 0.004173111162335301 0.0 0.0
0.0 0.0059666576875046515 -0.00508808317365425 0.004480772839859577 0.0006073103337946724 0.0031628839880622006 0.0 0.0
0.0 0.0036513223415900633 -0.003208273590552762 0.00273421784976361 0.0004740557407891506 0.002142102525204856 0.0 0.0
0.0 0.002259266162533062 -0.0016338429464684517 0.0013338397252722653 0.0003000032211961872 0.001118165549421864 0.0 0.0
0.0 0.0007156861012137818 -0.0005911643129229002 0.00045958599202351367 0.0001315783208993867 0.0004301723188897203 0.0 0.0
0.0 0.00011417630272921156 -7.426998586820453e-05 5.6238541955034485e-05 1.8031443913169957e-05 6.795041199518894e-05 0.0 0.0
0.0 1.0014477036903146e-05 2.1584783695073767e-05 -1.713687939161278e-05 -4.447904303461036e-06 -3.781116836640295e-05 0.0 0.0
0.0 9.391475405137791e-06 5.213929395343696e-07 -4.153594225109317e-07 -1.0603351702341774e-07 -1.4701845757383126e-06 0.0 0.0
0.0 -2.1122910987118115e-06 -1.6324554830016535e-07 1.3285156833938794e-07 3.039397996078572e-08 4.3797937784828425e-07 0.0 0.0
0.0 -2.9588962689353585e-07 -1.3592507692400482e-08 1.0837430402124616e-08 2.755077290274585e-09 5.50197911312241e-08 0.0 0.0
0.0 0.0 0.0 0.0 0.0 0.0 0.0 0.0
0.0 0.0 0.0 0.0 0.0 0.0 0.0 0.0
0.0 0.0 0.0 0.0 0.0 0.0 0.0 0.0
0.0 0.0 0.0 0.0 0.0 0.0 0.0 0.0
0.0 -1.336041538324973e-07 -7.0791082984345225e-09 5.607259907490537e-09 1.4718483909442396e-09 -2.3963176664436898e-08 0.0 0.0
0.0 -1.150862233485828e-06 -9.876059602605095e-08 7.855272765354809e-08 2.0207868372501855e-08 -2.0268686367933702e-07 0.0 0.0
0.0 -6.4029273268650675e-06 -1.936781271679827e-06 1.5263851168580487e-06 4.10396154821777e-07 -2.7704457839403878e-06 0.0 0.0
0.0 4.073492608050916e-05 1.9000091027908516e-05 -1.5794761325077713e-05 -3.205329702830593e-06 3.5724061097893514e-05 0.0 0.0
0.0 0.0003529530162721975 -0.00028121531036148263 0.00021312136264883512 6.809394771264759e-05 -0.00014725594042370587 0.0 0.0
0.0 0.0015836810558956197 -0.0011292958416223625 0.0008969910643711747 0.00023230477725118777 -0.0005831144191319941 0.0 0.0
0.0 0.0029233983645586834 -0.002665935350454909 0.0022322692964332337 0.0004336660540216752 -0.0014321298657528345 0.0 0.0
0.0 0.005296036391963227 -0.004620404189020124 0.004029027593498007 0.0005913765955221164 -0.0023792028450247468 0.0 0.0
0.0 0.008020863699458494 -0.006984604120885392 0.0062670617869890356 0.0007175423338963504 -0.003340558954313353 0.0 0.0
0.0 0.011281606085662938 -0.009791820666713533 0.008968920696524938 0.000822899970188595 -0.004304945083970773 0.0 0.0
0.0 0.015222300553354919 -0.013166295759833321 0.012247960145516879 0.0009183356143164336 -0.0053008164593131 0.0 0.0
0.0 0.020132422027055327 -0.017298272897671628 0.016294507523885435 0.0010037653737861923 -0.006418531347504972 0.0 0.0
0.0 0.02599923783122956 -0.022378088252984773 0.02130015030710408 0.0010779379458806663 -0.007750124213272861 0.0 0.0
0.0 0.03294170974350983 -0.028456233047934223 0.027325619561852813 0.0011306134860814276 -0.009445667814830647 0.0 0.0
0.0 0.0411081522177356 -0.035179388247119685 0.034043386461120866 0.0011360017859988279 -0.011886347691767659 0.0 0.0
0.0 0.0484578527904547 -0.041404556121321726 0.040335563667326525 0.0010689924539951932 -0.015502130143860525 0.0 0.0
0.0 0.052609549850192054 -0.04477778845696299 0.04385410681228017 0.0009236816446828615 -0.01992405565820108 0.0 0.0
0.0 0.04981688410925501 -0.04167141375982424 0.0409626849825244 0.0007087287772998387 -0.023204880330914595 0.0 0.0
0.0 0.04347353503169986 -0.03465425684098912 0.030773954071230784 0.0038803027697583183 9.963384284272792e-15 0.0 0.0
0.0 0.0498168841092566 -0.04167141375982185 0.04096268498252277 0.00070872877729907 0.023204880330938357 0.0 0.0
0.0 0.05260954985018243 -0.044777788456952544 0.04385410681226929 0.0009236816446832442 0.019924055658223153 0.0 0.0
0.0 0.04845785279043925 -0.04140455612130734 0.04033556366731251 0.0010689924539948477 0.015502130143873239 0.0 0.0
0.0 0.041108152217714355 -0.035179388247101165 0.03404338646110264 0.0011360017859984729 0.011886347691768951 0.0 0.0
0.0 0.032941709743488486 -0.028456233047915593 0.02732561956183473 0.00113061348608089 0.009445667814827466 0.0 0.0
0.0 0.02599923783120788 -0.022378088252966 0.02130015030708583 0.0010779379458801717 0.007750124213268138 0.0 0.0
0.0 0.02013242202703241 -0.01729827289765122 0.01629450752386577 0.0010037653737854399 0.006418531347498636 0.0 0.0
0.0 0.01522230055333154 -0.013166295759812962 0.01224796014549676 0.0009183356143162019 0.005300816459306875 0.0 0.0
0.0 0.011281606085640581 -0.009791820666694056 0.008968920696506332 0.0008228999701877102 0.004304945083962444 0.0 0.0
0.0 0.008020863699438344 -0.0069846041208680475 0.006267061786972361 0.0007175423338956859 0.003340558954303355 0.0 0.0
0.0 0.0052960363919461574 -0.0046204041890053026 0.004029027593484146 0.0005913765955211559 0.0023792028450165667 0.0 0.0
0.0 0.0029233983645474506 -0.0026659353504439004 0.0022322692964234607 0.00043366605402043985 0.0014321298657469046 0.0 0.0
0.0 0.001583681055886251 -0.0011292958416151738 0.0008969910643652502 0.00023230477724992297 0.0005831144191281027 0.0 0.0
0.0 0.0003529530162680833 -0.0002812153103585313 0.0002131213626465742 6.809394771195763e-05 0.00014725594042206794 0.0 0.0
0.0 4.0734926079404344e-05 1.9000091027734437e-05 -1.579476132492972e-05 -3.20532970280494e-06 -3.572406109749294e-05 0.0 0.0
0.0 -6.4029273278160365e-06 -1.9367812717542254e-06 1.5263851169161433e-06 4.103961548380546e-07 2.7704457840709333e-06 0.0 0.0
0.0 -1.1508622335227065e-06 -9.876059602363591e-08 7.855272765149146e-08 2.02078683721454e-08 2.02686863685958e-07 0.0 0.0
0.0 -1.3360415377959937e-07 -7.079108295548217e-09 5.6072599052097004e-09 1.4718483903391005e-09 2.396317665472527e-08 0.0 0.0
0.0 0.0 0.0 0.0 0.0 0.0 0.0 0.0
0.0 0.0 0.0 0.0 0.0 0.0 0.0 0.0
0.0 0.0 0.0 0.0 0.0 0.0 0.0 0.0
0.0 0.0 0.0 0.0 0.0 0.0 0.0 0.0
0.0 0.0 0.0 0.0 0.0 0.0 0.0 0.0
0.0 -1.6427912562006257e-06 -1.4576765561260727e-07 1.1635194098500306e-07 2.9415714627583024e-08 -2.453416837903687e-07 0.0 0.0
0.0 9.04624641337066e-06 7.785774590385215e-06 -6.197113279999026e-06 -1.5886613103861405e-06 9.508719486908155e-06 0.0 0.0
0.0 6.467766214212847e-05 -7.495951711611916e-05 5.523464850005249e-05 1.9724868616066318e-05 -2.8880949491999308e-05 0.0 0.0
0.0 0.0008742934319086113 -0.0005755603605085962 0.00044257717719379153 0.00013298318331480497 -0.00019252848419744334 0.0 0.0
0.0 0.0020695462777362093 -0.001861916896189873 0.001515959437622742 0.0003459574585671308 -0.0007358104116906935 0.0 0.0
0.0 0.004173779228608296 -0.0037236021887755363 0.0031883985321003263 0.0005352036566752122 -0.0014998570185429587 0.0 0.0
0.0 0.00686269116833552 -0.00607996513263882 0.005394813953392931 0.0006851511792458846 -0.0023301188436394196 0.0 0.0
0.0 0.01015121347579958 -0.008921453197758106 0.008117037851232222 0.0008044153465258723 -0.0031935409534583166 0.0 0.0
0.0 0.014115425706132202 -0.012317818051026878 0.01140844434074767 0.0009093737102792016 -0.00405922126112348 0.0 0.0
0.0 0.018981349438744504 -0.01642107407159091 0.015413581174239117 0.0010074928973518055 -0.004972603639486607 0.0 0.0
0.0 0.024599183183817527 -0.02144785851372789 0.02034943867200305 0.001098419841724835 -0.006032203617456503 0.0 0.0
0.0 0.03180566971963117 -0.027572824778808774 0.026394864811079742 0.0011779599677290372 -0.007310047643449282 0.0 0.0
0.0 0.0403328108659739 -0.03485355466321989 0.033615347345451865 0.0012382073177680166 -0.00884601323909318 0.0 0.0
0.0 0.04956091180833482 -0.04292982426648161 0.04168083130349946 0.001248992962982132 -0.010878834583546788 0.0 0.0
0.0 0.05840886522380459 -0.05046238953929874 0.04930022178303485 0.001162167756263943 -0.014078635613018763 0.0 0.0
0.0 0.06363331853494977 -0.054638944053868654 0.053673807858561746 0.0009651361953069062 -0.018910423040400828 0.0 0.0
0.0 0.060352749599629205 -0.05115780230964968 0.050478378835743985 0.0006794234739056746 -0.024549395265776944 0.0 0.0
0.0 0.05262046023189035 -0.04298182235518655 0.03858900745337348 0.004392814901813072 1.0356299151581538e-14 0.0 0.0
0.0 0.06035274959962725 -0.05115780230964486 0.050478378835739704 0.0006794234739051487 0.024549395265799787 0.0 0.0
0.0 0.06363331853493699 -0.05463894405385586 0.05367380785854866 0.0009651361953071658 0.018910423040422356 0.0 0.0
0.0 0.058408865223785876 -0.05046238953928173 0.04930022178301827 0.001162167756263414 0.014078635613031767 0.0 0.0
0.0 0.04956091180831165 -0.04292982426646109 0.04168083130347957 0.0012489929629815539 0.010878834583549823 0.0 0.0
0.0 0.04033281086594935 -0.03485355466319822 0.03361534734543094 0.0012382073177672423 0.008846013239091548 0.0 0.0
0.0 0.03180566971960477 -0.02757282477878586 0.026394864811057177 0.0011779599677286695 0.007310047643445462 0.0 0.0
0.0 0.024599183183792294 -0.021447858513705658 0.020349438671981794 0.0010984198417238581 0.006032203617451619 0.0 0.0
0.0 0.018981349438717647 -0.016421074071567163 0.015413581174215752 0.0010074928973514124 0.004972603639480606 0.0 0.0
0.0 0.014115425706106369 -0.012317818051004127 0.011408444340725592 0.0009093737102785316 0.004059221261116038 0.0 0.0
0.0 0.010151213475776803 -0.008921453197738025 0.00811703785121293 0.0008044153465250946 0.003193540953449392 0.0 0.0
0.0 0.0068626911683165905 -0.006079965132621874 0.005394813953376854 0.0006851511792450199 0.0023301188436320106 0.0 0.0
0.0 0.004173779228594384 -0.0037236021887625988 0.003188398532088487 0.0005352036566741122 0.0014998570185375563 0.0 0.0
0.0 0.002069546277726063 -0.0018619168961807207 0.0015159594376148377 0.00034595745856588273 0.0007358104116867552 0.0 0.0
0.0 0.0008742934319025063 -0.00057556036050432 0.00044257717719044877 0.00013298318331387036 0.00019252848419558908 0.0 0.0
0.0 6.467766214029487e-05 -7.495951711537766e-05 5.523464849950704e-05 1.9724868615870318e-05 2.8880949491970347e-05 0.0 0.0
0.0 9.046246412283864e-06 7.785774590233847e-06 -6.197113279880183e-06 -1.5886613103535384e-06 -9.508719486737222e-06 0.0 0.0
0.0 -1.642791256056295e-06 -1.457676555988268e-07 1.1635194097405649e-07 2.9415714624769247e-08 2.4534168376624963e-07 0.0 0.0
0.0 0.0 0.0 0.0 0.0 0.0 0.0 0.0
0.0 0.0 0.0 0.0 0.0 0.0 0.0 0.0
0.0 0.0 0.0 0.0 0.0 0.0 0.0 0.0
0.0 0.0 0.0 0.0 0.0 0.0 0.0 0.0
0.0 0.0 0.0 0.0 0.0 0.0 0.0 0.0
0.0 0.0 0.0 0.0 0.0 0.0 0.0 0.0
0.0 -8.417872576605753e-07 -8.544655395676276e-08 6.60999379835288e-08 1.9346615973240632e-08 -7.969114554795907e-08 0.0 0.0
0.0 7.41992651982667e-06 1.8951282991114485e-05 -1.4773326244632935e-05 -4.177956746481334e-06 1.2137650732647398e-05 0.0 0.0
0.0 0.00026913791768984 -0.00017383154346211716 0.00012782184116706013 4.600970229505731e-05 -1.729614269665373e-05 0.0 0.0
0.0 0.0012508085517707363 -0.0010369796831983405 0.0008139039434230355 0.00022307573977530426 -0.00023719078460656675 0.0 0.0
0.0 0.00288543190002261 -0.002634082990947058 0.0021951277472946305 0.0004389552436524276 -0.0007420312847329426 0.0 0.0
0.0 0.00534500067541359 -0.0048183330289932455 0.004197763021810367 0.0006205700071828743 -0.0013448030159826313 0.0 0.0
0.0 0.008509721306211035 -0.007562577904271778 0.006802073501658804 0.0007605044026129796 -0.0020269078246758403 0.0 0.0
0.0 0.0123084399796809 -0.010885774172156809 0.01000895522982524 0.0008768189423315544 -0.0027388981694425043 0.0 0.0
0.0 0.01698596004400202 -0.014881858354688308 0.013897634148655968 0.000984224206032341 -0.0034550783727960452 0.0 0.0
0.0 0.022447952433713607 -0.01973621524490914 0.01864803367312013 0.001088181571789 -0.004221177815003147 0.0 0.0
0.0 0.02951827046365666 -0.02565770047661839 0.02447446007276561 0.0011832404038527805 -0.005141089688344703 0.0 0.0
0.0 0.037693504725404746 -0.03282406779382489 0.03155758667867364 0.0012664811151512248 -0.006287825178252726 0.0 0.0
0.0 0.047222344950667204 -0.041230756349393424 0.039898460987074766 0.0013322953623187087 -0.007599274625640124 0.0 0.0
0.0 0.057997349104544085 -0.0504857817048559 0.04913027805943943 0.001355503645416436 -0.009004509143496257 0.0 0.0
0.0 0.0681991941485066 -0.059249136403747675 0.05798296243117753 0.00126617397257015 -0.01116676970371162 0.0 0.0
0.0 0.07447215661113127 -0.06442249545671618 0.06340668194724822 0.0010158135094679856 -0.016071484014927945 0.0 0.0
0.0 0.07129598639384162 -0.06092205775814939 0.06029570225283028 0.0006263555053191457 -0.0248567255946043 0.0 0.0
0.0 0.06276906823951287 -0.05177855760838362 0.04691621789964587 0.004862339708737756 9.75781955236954e-15 0.0 0.0
0.0 0.07129598639383701 -0.06092205775814304 0.06029570225282412 0.0006263555053188964 0.024856725594624852 0.0 0.0
0.0 0.07447215661111439 -0.0644224954567007 0.06340668194723222 0.0010158135094684676 0.016071484014947568 0.0 0.0
0.0 0.06819919414848458 -0.05924913640372807 0.057982962431158455 0.0012661739725696231 0.011166769703723382 0.0 0.0
0.0 0.05799734910451632 -0.050485781704831645 0.04913027805941543 0.0013555036454161536 0.009004509143499182 0.0 0.0
0.0 0.04722234495063825 -0.041230756349368076 0.039898460987050105 0.0013322953623179756 0.007599274625639972 0.0 0.0
0.0 0.03769350472537518 -0.032824067793799136 0.03155758667864854 0.0012664811151505734 0.006287825178249684 0.0 0.0
0.0 0.029518270463627712 -0.025657700476592837 0.02447446007274091 0.00118324040385192 0.005141089688340988 0.0 0.0
0.0 0.022447952433681983 -0.019736215244881793 0.018648033673093138 0.0010881815717886582 0.0042211778149978335 0.0 0.0
0.0 0.016985960043972157 -0.014881858354661645 0.013897634148629849 0.0009842242060317996 0.0034550783727899962 0.0 0.0
0.0 0.012308439979654971 -0.010885774172133846 0.010008955229802849 0.0008768189423309898 0.0027388981694351448 0.0 0.0
0.0 0.008509721306187887 -0.007562577904251358 0.006802073501638969 0.0007605044026123896 0.002026907824669216 0.0 0.0
0.0 0.005345000675397891 -0.004818333028978708 0.004197763021796843 0.0006205700071818621 0.001344803015978338 0.0 0.0
0.0 0.0028854319000103774 -0.0026340829909353445 0.0021951277472841394 0.00043895524365120695 0.0007420312847290791 0.0 0.0
0.0 0.0012508085517633728 -0.001036979683192229 0.0008139039434180357 0.00022307573977419426 0.00023719078460463194 0.0 0.0
0.0 0.0002691379176864915 -0.00017383154346007295 0.0001278218411655289 4.600970229454435e-05 1.7296142696242567e-05 0.0 0.0
0.0 7.419926519027267e-06 1.8951282990812223e-05 -1.4773326244393428e-05 -4.177956746418945e-06 -1.2137650732407877e-05 0.0 0.0
0.0 -8.417872574397398e-07 -8.544655393450504e-08 6.609993796626954e-08 1.9346615968240957e-08 7.969114552353769e-08 0.0 0.0
0.0 0.0 0.0 0.0 0.0 0.0 0.0 0.0
0.0 0.0 0.0 0.0 0.0 0.0 0.0 0.0
0.0 0.0 0.0 0.0 0.0 0.0 0.0 0.0
0.0 0.0 0.0 0.0 0.0 0.0 0.0 0.0
0.0 0.0 0.0 0.0 0.0 0.0 0.0 0.0
0.0 0.0 0.0 0.0 0.0 0.0 0.0 0.0
0.0 7.187229598705419e-07 8.463335519122874e-08 -6.176879738647556e-08 -2.286455780476825e-08 5.165437736512387e-08 0.0 0.0
0.0 1.1923854701588324e-05 -1.2054107079392426e-05 7.761138552188857e-06 4.292968527203559e-06 3.7717394328308137e-06 0.0 0.0
0.0 0.0005713780095997014 -0.0003754800790401453 0.00028097534343570467 9.450473560444054e-05 3.53800736722753e-06 0.0 0.0
0.0 0.0016434097723416244 -0.0015878113416260436 0.001275052098336059 0.00031275924328998394 -0.00022911674328743672 0.0 0.0
0.0 0.00376117214830118 -0.003434647265410465 0.002914120006280845 0.000520527259129622 -0.0005654145682439963 0.0 0.0
0.0 0.006546005539606694 -0.005930112589793069 0.005239496229093673 0.0006906163606993921 -0.0009944273275938643 0.0 0.0
0.0 0.01016277639928225 -0.009058863498273931 0.008235862138667026 0.0008230013596069012 -0.0014819166530053026 0.0 0.0
0.0 0.01457375902244693 -0.012865752984993949 0.011926287541821325 0.000939465443172618 -0.001990172451195262 0.0 0.0
0.0 0.019809194936856615 -0.017474982014730196 0.016423524555263743 0.0010514574594664558 -0.002498484478417646 0.0 0.0
0.0 0.0264479518478691 -0.023082942415312033 0.021922127498345885 0.001160814916966135 -0.0030523816158707614 0.0 0.0
0.0 0.03406101370730228 -0.029926936561281828 0.028664322221917338 0.0012626143393644597 -0.003765110989032903 0.0 0.0
0.0 0.04351669843526637 -0.038118520429901166 0.03676990446581878 0.0013486159640824264 -0.004669588257487378 0.0 0.0
0.0 0.05441315383263605 -0.04755526681605851 0.04614554866394492 0.00140971815211355 -0.005660575902427029 0.0 0.0
0.0 0.06621587538420846 -0.05776882569429054 0.05632860031570511 0.001440225378585492 -0.006488648336457732 0.0 0.0
0.0 0.07754258100743044 -0.06758081844415252 0.06617958280407048 0.0014012356400820377 -0.007351603388234841 0.0 0.0
0.0 0.08518484058010231 -0.07403756657720595 0.07292485476537518 0.0011127118118307404 -0.010983576150104628 0.0 0.0
0.0 0.08277600397989013 -0.07119337787275251 0.07065677764656882 0.0005366002261835514 -0.023318818126162363 0.0 0.0
0.0 0.07395401959861475 -0.061440009653767516 0.05618317753383011 0.005256832119937356 7.095019016745141e-15 0.0 0.0
0.0 0.08277600397988269 -0.07119337787274448 0.0706567776465612 0.0005366002261833168 0.02331881812617821 0.0 0.0
0.0 0.0851848405800809 -0.07403756657718699 0.07292485476535587 0.001112711811831161 0.01098357615012048 0.0 0.0
0.0 0.07754258100740619 -0.06758081844413126 0.06617958280404988 0.0014012356400813675 0.007351603388244626 0.0 0.0
0.0 0.06621587538417631 -0.05776882569426263 0.05632860031567734 0.0014402253785853545 0.006488648336459948 0.0 0.0
0.0 0.05441315383260283 -0.0475552668160294 0.04614554866391668 0.0014097181521127598 0.005660575902427044 0.0 0.0
0.0 0.043516698435234515 -0.03811852042987336 0.036769904465791675 0.001348615964081686 0.004669588257486002 0.0 0.0
0.0 0.03406101370726698 -0.029926936561251043 0.028664322221887254 0.0012626143393637678 0.0037651109890296294 0.0 0.0
0.0 0.026447951847833884 -0.023082942415281228 0.021922127498315406 0.001160814916965817 0.003052381615867453 0.0 0.0
0.0 0.019809194936822885 -0.01747498201470075 0.01642352455523508 0.0010514574594656526 0.002498484478413882 0.0 0.0
0.0 0.014573759022416616 -0.012865752984966809 0.011926287541794579 0.0009394654431722312 0.001990172451189644 0.0 0.0
0.0 0.010162776399258798 -0.009058863498252497 0.008235862138646443 0.0008230013596060518 0.001481916653000676 0.0 0.0
0.0 0.006546005539587929 -0.005930112589775631 0.005239496229077204 0.0006906163606984295 0.0009944273275904335 0.0 0.0
0.0 0.003761172148286894 -0.0034346472653969257 0.0029141200062685222 0.0005205272591284017 0.000565414568241037 0.0 0.0
0.0 0.0016434097723337696 -0.001587811341618373 0.001275052098329602 0.00031275924328877006 0.00022911674328574856 0.0 0.0
0.0 0.0005713780095951365 -0.00037548007903658276 0.00028097534343295404 9.450473560362813e-05 -3.5380073676039285e-06 0.0 0.0
0.0 1.192385470070566e-05 -1.2054107079533839e-05 7.761138552314547e-06 4.292968527219201e-06 -3.7717394326291305e-06 0.0 0.0
0.0 7.187229594391122e-07 8.463335514353968e-08 -6.176879735139436e-08 -2.2864557792165992e-08 -5.165437734438602e-08 0.0 0.0
0.0 0.0 0.0 0.0 0.0 0.0 0.0 0.0
0.0 0.0 0.0 0.0 0.0 0.0 0.0 0.0
0.0 0.0 0.0 0.0 0.0 0.0 0.0 0.0
0.0 0.0 0.0 0.0 0.0 0.0 0.0 0.0
0.0 0.0 0.0 0.0 0.0 0.0 0.0 0.0
0.0 0.0 0.0 0.0 0.0 0.0 0.0 0.0
0.0 -1.0292375029256047e-06 3.329036671439441e-07 -2.62806239868726e-07 -7.009742727521688e-08 7.940234825750158e-08 0.0 0.0
0.0 0.00011750124164165933 -4.5426239000177005e-05 3.099090936519139e-05 1.4435329634985482e-05 1.7719832900405344e-05 0.0 0.0
0.0 0.0008385385629503505 -0.0006869422248368955 0.0005244081299767681 0.00016253409486012733 4.762455453088838e-05 0.0 0.0
0.0 0.0022958280692375994 -0.0021460167776802142 0.0017596453904083335 0.00038637138727188035 -7.706133330490153e-05 0.0 0.0
0.0 0.0046377409537034136 -0.004250402434003626 0.00366037047699071 0.0005900319570129156 -0.00024343967188019956 0.0 0.0
0.0 0.007825600203796891 -0.007044378924147196 0.006296386868247044 0.0007479920559001511 -0.0004552146825202697 0.0 0.0
0.0 0.01182981557922406 -0.010558056679202307 0.009681477319476908 0.0008765793597253884 -0.0007022584606038563 0.0 0.0
0.0 0.01678182089331036 -0.01485520990656685 0.01386005208142566 0.0009951578251411802 -0.0009503842167378173 0.0 0.0
0.0 0.02294639561439593 -0.020083293538562176 0.018971041976133238 0.0011122515624289303 -0.001190401636356061 0.0 0.0
0.0 0.03000094286935591 -0.02647217173284405 0.025243969006700142 0.0012282027261439066 -0.0014947785352720767 0.0 0.0
0.0 0.03891863048432295 -0.034220886306671236 0.03288436057924618 0.001336525727425052 -0.0018973411747623646 0.0 0.0
0.0 0.04950129897184836 -0.043415039039085154 0.04199055405650746 0.0014244849825777034 -0.0024065243936566413 0.0 0.0
0.0 0.061533325489601706 -0.05383979926450394 0.05235983411163629 0.001479965152867688 -0.0029821954085307604 0.0 0.0
0.0 0.07426245105463807 -0.06483276277464665 0.06333506100677917 0.001497701767867472 -0.003411527830958657 0.0 0.0
0.0 0.08634402172185952 -0.07526188968357794 0.07376458465396162 0.0014973050296163849 -0.003507550456303325 0.0 0.0
0.0 0.09534040986362546 -0.08304169813258955 0.08165464347675735 0.0013870546558321475 -0.0046818566737652344 0.0 0.0
0.0 0.09501366490479597 -0.08219191956741194 0.0817138113230795 0.00047810824433237924 -0.016098651587322998 0.0 0.0
0.0 0.08715122441062098 -0.07285004146641816 0.06752124736508258 0.005328794101335511 4.317726731706273e-15 0.0 0.0
0.0 0.09501366490478684 -0.08219191956740309 0.08171381132307104 0.00047810824433202026 0.016098651587332213 0.0 0.0
0.0 0.0953404098636026 -0.08304169813256958 0.08165464347673747 0.0013870546558319436 0.004681856673774462 0.0 0.0
0.0 0.08634402172183106 -0.07526188968355309 0.07376458465393751 0.0014973050296155782 0.0035075504563090647 0.0 0.0
0.0 0.07426245105460189 -0.0648327627746152 0.06333506100674806 0.0014977017678671836 0.0034115278309600847 0.0 0.0
0.0 0.06153332548956536 -0.053839799264472146 0.05235983411160533 0.0014799651528667895 0.0029821954085302773 0.0 0.0
0.0 0.04950129897181217 -0.0434150390390534 0.041990554056476705 0.001424484982576736 0.0024065243936567497 0.0 0.0
0.0 0.03891863048428383 -0.03422088630663711 0.03288436057921284 0.0013365257274242472 0.0018973411747608502 0.0 0.0
0.0 0.030000942869316847 -0.026472171732809954 0.025243969006666655 0.0012282027261432942 0.0014947785352708112 0.0 0.0
0.0 0.022946395614359613 -0.020083293538530146 0.018971041976101985 0.0011122515624281452 0.0011904016363534027 0.0 0.0
0.0 0.01678182089327559 -0.014855209906536574 0.0138600520813958 0.0009951578251407743 0.0009503842167348066 0.0 0.0
0.0 0.011829815579198695 -0.010558056679179332 0.00968147731945498 0.0008765793597243461 0.0007022584606014742 0.0 0.0
0.0 0.007825600203775413 -0.007044378924127336 0.006296386868228063 0.0007479920558992703 0.000455214682518422 0.0 0.0
0.0 0.004637740953687441 -0.00425040243398851 0.003660370476976711 0.0005900319570117986 0.0002434396718786556 0.0 0.0
0.0 0.0022958280692284136 -0.0021460167776711264 0.001759645390400427 0.0003863713872706989 7.706133330402636e-05 0.0 0.0
0.0 0.0008385385629446683 -0.0006869422248320773 0.0005244081299729361 0.00016253409485914098 -4.762455453103515e-05 0.0 0.0
0.0 0.00011750124164017664 -4.542623899976287e-05 3.0990909364928654e-05 1.4435329634834272e-05 -1.771983290012876e-05 0.0 0.0
0.0 -1.0292375034229714e-06 3.3290366713289225e-07 -2.6280623986324e-07 -7.00974272695935e-08 -7.940234826707963e-08 0.0 0.0
0.0 0.0 0.0 0.0 0.0 0.0 0.0 0.0
0.0 0.0 0.0 0.0 0.0 0.0 0.0 0.0
0.0 0.0 0.0 0.0 0.0 0.0 0.0 0.0
0.0 0.0 0.0 0.0 0.0 0.0 0.0 0.0
0.0 0.0 0.0 0.0 0.0 0.0 0.0 0.0
0.0 0.0 0.0 0.0 0.0 0.0 0.0 0.0
0.0 1.8346692661551414e-06 -1.47970452390402e-07 1.7552598209303436e-07 -2.7555529702507366e-08 -4.171244571726701e-07 0.0 0.0
0.0 0.0002728186330918733 -0.0001192574417070294 8.251204833705026e-05 3.674539336997993e-05 4.4233480997322025e-05 0.0 0.0
0.0 0.0011735688871506976 -0.0009759311005668043 0.0007386520079179794 0.00023727909264882347 0.00013046971861528325 0.0 0.0
0.0 0.0028073741996102507 -0.0026259989850312463 0.002132451769740406 0.0004935472152908416 0.000137434187875737 0.0 0.0
0.0 0.00535317954338058 -0.0049235456966486785 0.004193353812665893 0.0007301918839827802 0.00014822157047839903 0.0 0.0
0.0 0.008754395764406347 -0.00796461405181148 0.0070321666858742 0.0009324473659372808 0.00016426563653205235 0.0 0.0
0.0 0.013144463563415957 -0.011797228158226241 0.010673291982283497 0.001123936175942742 0.00016573973640165995 0.0 0.0
0.0 0.01860860580981251 -0.016508381365391844 0.015179840635920518 0.0013285407294713213 0.0002011338939449526 0.0 0.0
0.0 0.025016596287370293 -0.022275936336457674 0.0207193045135812 0.0015566318228764837 0.0002675296636841188 0.0 0.0
0.0 0.032968630889809294 -0.029308943866044795 0.027505805653048186 0.0018031382129965765 0.0002800880573237659 0.0 0.0
0.0 0.042626898599926605 -0.03780236036537536 0.03574091913880137 0.0020614412265739885 0.0002799501268382974 0.0 0.0
0.0 0.05406391788752721 -0.04781411929692569 0.04550416162256896 0.0023099576743566457 0.00017947730068811844 0.0 0.0
0.0 0.06697560029243692 -0.059037927569380144 0.056520093722877515 0.0025178338465026377 -4.759848704515273e-05 0.0 0.0
0.0 0.08037039795818793 -0.07063952938605896 0.06799125423432768 0.0026482751517312273 -0.00033479107625406044 0.0 0.0
0.0 0.09268242396396091 -0.081265539417718 0.07860521661085401 0.0026603228068638263 -0.0005273297879810467 0.0 0.0
0.0 0.10202449886204698 -0.08940695440240118 0.08679068755001108 0.002616266852390121 -0.000745815479963787 0.0 0.0
0.0 0.10435047512140172 -0.09181861031595483 0.08942727844351078 0.002391331872444118 -0.010934548663370368 0.0 0.0
0.0 0.10035522735448697 -0.08505398760118817 0.07692239229867345 0.008131595302514638 2.3522850334245504e-15 0.0 0.0
0.0 0.10435047512139181 -0.09181861031594599 0.08942727844350229 0.002391331872443691 0.010934548663373988 0.0 0.0
0.0 0.10202449886202354 -0.08940695440238063 0.0867906875499914 0.0026162668523892403 0.0007458154799670682 0.0 0.0
0.0 0.09268242396392719 -0.08126553941768817 0.07860521661082549 0.0026603228068627473 0.0005273297879837911 0.0 0.0
0.0 0.08037039795814796 -0.07063952938602386 0.06799125423429342 0.002648275151730298 0.0003347910762549963 0.0 0.0
0.0 0.06697560029239769 -0.05903792756934556 0.05652009372284436 0.002517833846501252 4.7598487044519557e-05 0.0 0.0
0.0 0.0540639178874875 -0.047814119296890396 0.04550416162253558 0.0023099576743548025 -0.0001794773006881965 0.0 0.0
0.0 0.042626898599884736 -0.03780236036533849 0.03574091913876598 0.0020614412265724928 -0.0002799501268390264 0.0 0.0
0.0 0.03296863088976622 -0.029308943866006784 0.027505805653011604 0.0018031382129951915 -0.0002800880573237373 0.0 0.0
0.0 0.025016596287331303 -0.022275936336423427 0.02071930451354824 0.001556631822875167 -0.00026752966368613065 0.0 0.0
0.0 0.01860860580977574 -0.016508381365359447 0.015179840635889062 0.0013285407294703992 -0.00020113389394598455 0.0 0.0
0.0 0.013144463563386895 -0.011797228158200775 0.01067329198225926 0.00112393617594152 -0.00016573973640249305 0.0 0.0
0.0 0.008754395764382486 -0.007964614051790015 0.0070321666858538445 0.0009324473659361707 -0.0001642656365322757 0.0 0.0
0.0 0.005353179543362872 -0.004923545696632118 0.004193353812650566 0.0007301918839815516 -0.0001482215704784605 0.0 0.0
0.0 0.002807374199599462 -0.002625998985020646 0.002132451769731109 0.0004935472152895383 -0.00013743418787577356 0.0 0.0
0.0 0.0011735688871447394 -0.0009759311005608983 0.0007386520079133097 0.00023727909264758916 -0.00013046971861488998 0.0 0.0
0.0 0.0002728186330896734 -0.00011925744170584715 8.251204833623863e-05 3.6745393369609647e-05 -4.423348099692273e-05 0.0 0.0
0.0 1.8346692659883945e-06 -1.4797045243958074e-07 1.7552598212916953e-07 -2.7555529689603613e-08 4.171244571761559e-07 0.0 0.0
0.0 0.0 0.0 0.0 0.0 0.0 0.0 0.0
0.0 0.0 0.0 0.0 0.0 0.0 0.0 0.0
0.0 0.0 0.0 0.0 0.0 0.0 0.0 0.0
SCALARS Wm float 4
LOOKUP_TABLE default
9.244678521038253 1.8989857253629778 3.5071187630873877 3.8385740325878794
3.9703338112387936 2.0154408838935236 0.831433343336221 1.1234595840090513
0.4703024793874674 0.4791197729238501 -0.004959886223349537 -0.0038574073130331473
0.4194682473034007 0.4210923300116113 -0.00010322027850853132 -0.0015208624297019784
0.7026434061579182 0.6216491711689348 0.02903438156474497 0.05195985342423829
1.301492419310156 0.8014305135765902 0.15789288622333242 0.34216901951023326
2.4209556310811973 1.0662469635794816 0.5181367420859128 0.8365719254158037
4.101521681373877 1.355346071965005 1.1514517558553439 1.5947238535535275
6.447060306018766 1.6899892643455974 2.1381220614836893 2.6189489801894776
9.57528253578958 2.1002441710408295 3.5548598710055668 3.920178493743184
13.634398131037543 2.6282729413447075 5.482678095806707 5.5234470938861335
18.7564007880595 3.308899065082705 7.958168723424908 7.489332999551889
25.292223064159394 4.150331996947074 11.248817601854546 9.89307346535778
33.48034285472168 5.161033829100507 15.514138657020084 12.80517036860108
43.42965707415803 6.272115696842973 20.907701363184255 16.249840014130783
54.94492679764888 7.342164083813495 27.441041988032083 20.161720725803303
67.33606509406538 8.17875579470189 34.789712183910375 24.367597115453123
79.46936167731778 8.613728168547928 42.3447601490084 28.510873359761373
89.98854860701981 8.636422168346046 49.20411720778988 32.14800923088392
97.29570020508814 8.298357173834395 54.191630267518946 34.8057127637348
99.79065483838662 7.792738960836906 56.12697012083329 35.870945756716424
97.2957002050812 8.298357173835948 54.19163026751312 34.80571276373213
89.98854860699514 8.636422168339392 49.20411720777794 32.14800923087778
79.46936167728644 8.613728168544084 42.344760148990744 28.51087335975161
67.33606509402757 8.178755794693588 34.7897121838914 24.367597115442553
54.94492679761297 7.342164083808827 27.44104198801248 20.16172072579168
43.42965707412557 6.272115696840509 20.907701363165796 16.249840014119258
33.48034285468852 5.161033829098045 15.514138657001565 12.805170368588902
25.29222306412822 4.150331996946182 11.248817601836778 9.893073465345253
18.756400788027797 3.3088990650765293 7.958168723410396 7.489332999540879
13.634398131012425 2.628272941342918 5.482678095793853 5.523447093875652
9.575282535770008 2.1002441710378075 3.5548598709967694 3.920178493735431
6.447060306004344 1.6899892643443764 2.1381220614770733 2.6189489801828914
4.1015216813628275 1.355346071962796 1.1514517558512452 1.5947238535487858
2.4209556310749716 1.066246963579189 0.5181367420834351 0.8365719254123483
1.301492419306652 0.8014305135756596 0.1578928862226694 0.34216901950832296
0.7026434061564438 0.6216491711679653 0.029034381564562103 0.05195985342391678
0.4194682473029828 0.421092330011155 -0.00010322027850067209 -0.0015208624296714258
0.47030247938693365 0.4791197729233305 -0.004959886223338087 -0.003857407313058625
3.9703338112353617 2.0154408838940605 0.8314333433344133 1.123459584006886
9.244678521016738 1.8989857253520643 3.507118763081754 3.8385740325829274
10.611990420838627 4.873649751827728 2.646715396079867 3.091625272931033
1.3667954594158531 0.3202334002029215 0.40471453483342906 0.6418475243795019
0.217790549188728 0.22495136808555438 -0.0014764052812233032 -0.005684413615603097
0.3381005485673847 0.33758904575652193 9.166108930031655e-05 0.0004198417215625365
0.5447170223775283 0.5109625247321449 0.009333483257877893 0.024421014387505574
1.0541694222948146 0.7140774284681725 0.11206876383607027 0.22802322999057184
1.9970422320174506 0.9068794445026106 0.40198595289257805 0.6881768346222622
3.479346719999429 1.1309344216650663 0.9647050752794348 1.383707223054928
5.5507698476068805 1.365586054230181 1.854677927481622 2.3305058658950775
8.272346738095695 1.6254575344086735 3.1153629725448697 3.5315262311421516
11.76053093224136 1.9282086215494318 4.825552353342263 5.006769957349667
16.22577585730658 2.294525517712667 7.126327699105239 6.8049226404886705
21.746614619355285 2.735292281557283 10.001518216178802 9.009804121619212
28.787639930844303 3.2458412507367416 13.85189781636084 11.689900863746715
37.39847421851631 3.792919309385663 18.720465229846553 14.885089679284098
47.4449599847111 4.28725260078209 24.62250302274804 18.535204361180952
58.38578492035661 4.610963149717002 31.33273440235922 22.442087368280387
69.26453266019813 4.677737470980258 38.275995206304074 26.310799982913785
78.79583217894273 4.469270123609311 44.59978892399886 29.72677313133456
85.50400513591975 4.039821648540086 49.2809815330217 32.18320195435794
87.95238388779742 3.616974880516513 51.17674006611403 33.15866894116689
85.504005135911 4.03982164853915 49.280981533016615 32.183201954355226
78.79583217892814 4.469270123612533 44.599788923987255 29.72677313132837
69.26453266017178 4.677737470977246 38.27599520628899 26.310799982905568
58.385784920329975 4.610963149718433 31.33273440234145 22.442087368270105
47.444959984682164 4.287252600781971 24.62250302273004 18.53520436117016
37.398474218487436 3.7929193093841636 18.72046522982981 14.885089679273467
28.787639930815587 3.2458412507355177 13.851897816344415 11.689900863735648
21.746614619327225 2.735292281555976 10.001518216163255 9.009804121607983
16.225775857281306 2.294525517711783 7.126327699091523 6.804922640477999
11.760530932218787 1.9282086215474636 4.825552353331044 5.006769957340281
8.272346738079337 1.6254575344083857 3.1153629725365266 3.5315262311344213
5.550769847594092 1.3655860542292513 1.8546779274758391 2.3305058658890005
3.479346719989925 1.1309344216634798 0.9647050752758561 1.3837072230505894
1.9970422320115377 0.9068794445016005 0.4019859528906143 0.6881768346193227
1.0541694222919054 0.7140774284673747 0.11206876383526705 0.2280232299892639
0.5447170223765176 0.51096252473128 0.009333483257817113 0.024421014387420524
0.33810054856702915 0.3375890457561057 9.166108930793766e-05 0.0004198417216154824
0.2177905491886882 0.22495136808544072 -0.0014764052812033912 -0.005684413615549183
1.3667954594117828 0.32023340020257357 0.40471453483174014 0.6418475243774692
10.611990420818538 4.873649751818487 2.646715396074296 3.091625272925752
7.7891736671915845 3.8004549067404367 1.7504830463622691 2.2382357140888804
0.8060692117654756 0.1095006090688539 0.25616195887268295 0.4404066438239387
0.13622518560229988 0.13622562205995828 -1.80369121587346e-08 -4.1842074621861334e-07
0.25639187722356505 0.2562935523675641 3.084612515927029e-05 6.747873084166637e-05
0.4277639042754369 0.4229103785916487 0.0006783183357749935 0.004175207348013292
0.8242239805814832 0.6413338723558417 0.05876216795907841 0.12412794026656324
1.6084548307258226 0.8293123528243292 0.27028613226250797 0.5088563456389853
2.903956079478296 1.0489581186622723 0.7370246892776358 1.1179732715383885
4.718435211470448 1.2706911167746258 1.4859165324860006 1.9618275622098218
7.1154124364517894 1.5085061572816683 2.5750800524703545 3.031826226699766
10.158369983004983 1.7783086795577134 4.040991825863729 4.3390694775835374
13.96683987204484 2.095621039013206 5.943616509730298 5.92760232330134
18.868932276762706 2.4829538972766025 8.522627483275052 7.8633508962110525
24.905892977687877 2.9348023915982613 11.732426426429868 10.238664159659749
32.44153824454362 3.4170682009183837 15.94181591736419 13.082654126261035
41.289178743995436 3.866917604978026 21.06574807057905 16.35651306843836
51.00235481243749 4.191848207137417 26.90257122619913 19.907935379100955
60.73608403781181 4.2984605094401935 33.00758806063276 23.43003546773886
69.31406206844984 4.133480767861716 38.63583854013517 26.54474276045294
75.39516111976225 3.79273372642657 42.8201056863775 28.782321706958186
77.5757457113367 3.3103164586434897 44.553119668140475 29.712309584552727
75.39516111975445 3.7927337264247907 42.8201056863737 28.78232170695597
69.31406206843367 4.133480767861287 38.63583854012498 26.54474276044737
60.7360840377926 4.29846050944117 33.007588060619945 23.430035467731475
51.00235481240963 4.191848207133543 26.902571226184023 19.90793537909207
41.28917874396903 3.8669176049770386 21.06574807056338 16.356513068428605
32.44153824451804 3.4170682009163915 15.941815917349924 13.082654126251708
24.90589297766373 2.934802391598213 11.732426426415685 10.238664159649833
18.868932276738764 2.4829538972756264 8.522627483261909 7.863350896201232
13.966839872022458 2.0956210390132823 5.943616509717823 5.927602323291352
10.158369982985327 1.7783086795547705 4.040991825854883 4.339069477575676
7.1154124364365225 1.5085061572807417 2.5750800524630932 3.0318262266926865
4.718435211459154 1.2706911167735646 1.4859165324811172 1.9618275622044719
2.9039560794700217 1.0489581186605137 0.7370246892747483 1.1179732715347601
1.6084548307210513 0.8293123528232509 0.27028613226118736 0.5088563456366126
0.8242239805791616 0.6413338723548834 0.058762167958597546 0.1241279402656807
0.42776390427482053 0.42291037859105285 0.0006783183357680839 0.004175207347999517
0.2563918772233965 0.25629355236738005 3.084612516085458e-05 6.747873085560411e-05
0.1362251856022475 0.13622562205990557 -1.8036912141597065e-08 -4.184207459031903e-07
0.8060692117624928 0.10950060906902244 0.2561619588713592 0.44040664382211103
7.78917366717311 3.800454906732157 1.7504830463572618 2.2382357140836935
5.772243530840741 2.947609504230072 1.182886203354104 1.6417478232565657
0.5134752797291793 0.07003959655805089 0.14924481902283918 0.29419086414828904
0.09628066593473536 0.09628066593473536 0.0 0.0
0.19268064697241238 0.19264566112677448 2.5512937102303255e-06 3.2434551927668304e-05
0.3391317120512409 0.3475015490782292 -0.0018530735404338771 -0.006516763486554463
0.6223531088205169 0.5456613411171289 0.020337611950180412 0.0563541557532074
1.2647259137241629 0.7630748467441049 0.16926686405089847 0.33238420292915943
2.3498639882704313 0.9610324424697918 0.5290240074085888 0.8598075383920512
3.9214321350814627 1.1712773755895665 1.1505933947871045 1.5995613647047908
5.989245990641727 1.388996203387218 2.0610692923910143 2.5391804948634964
8.58300936269062 1.6260511242543572 3.274147631225567 3.682810607210695
11.861793325150286 1.9043464127528298 4.89529301932574 5.062153893071713
15.93989431027606 2.2355501431487506 6.960673671654765 6.743670495472546
21.22107274184809 2.6262563675652997 9.79501304534666 8.79980332893614
27.65456232858033 3.0527459225709643 13.310222696725052 11.29159370928431
35.25515971861079 3.46180980655378 17.60800937894566 14.185340533111352
43.78644472404857 3.7848427287292097 22.66139538769517 17.340206607624186
52.42179255402174 3.930366533510345 27.967983992861512 20.523442027649867
60.114256083456965 3.8344758824527023 32.896784971809815 23.38299522919444
65.65301517085847 3.5590611033363455 36.61210811716896 25.481845950353176
67.64650420442771 2.9861046303409937 38.27972937641047 26.380670197676203
65.65301517085284 3.559061103335962 36.61210811716556 25.481845950351314
60.11425608344443 3.834475882452303 32.896784971802106 23.382995229190044
52.42179255400153 3.9303665335075246 27.96798399285054 20.523442027643465
43.78644472402736 3.7848427287272366 22.66139538768327 17.340206607616867
35.25515971858883 3.461809806553249 17.608009378932636 14.18534053310297
27.654562328556977 3.052745922566928 13.310222696713556 11.291593709276475
21.221072741826674 2.6262563675646926 9.795013045334612 8.79980332892737
15.939894310254845 2.235550143147529 6.960673671643514 6.743670495463809
11.86179332513138 1.904346412752167 4.895293019315886 5.0621538930633285
8.583009362674245 1.6260511242526543 3.274147631217957 3.6828106072036317
5.989245990628653 1.3889962033858667 2.061069292385175 2.5391804948576113
3.92143213507169 1.1712773755887451 1.1505933947829319 1.599561364700012
2.34986398826374 0.9610324424684303 0.5290240074064725 0.8598075383888374
1.2647259137200095 0.7630748467429914 0.16926686404967325 0.33238420292734466
0.6223531088189228 0.5456613411162191 0.020337611949951657 0.056354155752751954
0.33913171205075276 0.34750154907754527 -0.0018530735403947463 -0.006516763486397752
0.19268064697220422 0.19264566112657425 2.5512937095611208e-06 3.243455192045186e-05
0.09628066593459879 0.09628066593459879 0.0 0.0
0.5134752797267903 0.0700395965582015 0.14924481902178086 0.2941908641468077
5.772243530825806 2.947609504223494 1.1828862033502916 1.641747823252022
4.204286063348606 2.2636627749084757 0.763402326389896 1.1772209620502334
0.37973011646546617 0.10788947246614582 0.09808075387700951 0.17375989012231077
0.08718930821036962 0.08718930821036962 0.0 0.0
0.1512213274248479 0.15121509085728357 3.6456305353121e-07 5.872004510783428e-06
0.2714849090359583 0.270540398750944 0.0001967063996299321 0.0007478038853843354
0.471794902143858 0.4682089555741936 -0.00014264751003029472 0.0037285940796945283
0.9543780944586153 0.6752822481544323 0.09482388142519375 0.1842719648789898
1.8261088115804731 0.868312271636396 0.34571129535497347 0.6120852445891041
3.1514052337104137 1.0649757263181916 0.8411512616370102 1.2452782457552127
4.894014354244112 1.2638683590041155 1.5746534955078912 2.055492499732105
7.083184061883069 1.4749058808586568 2.5712775030135155 3.037000678010897
9.808845835865492 1.7134036838161824 3.8828387018626596 4.212603450186649
13.258167654291924 1.9976964633952736 5.622511795926381 5.637959394970267
17.530395471462008 2.3295558537273924 7.8096322515936825 7.391207366140927
22.971141743792487 2.6936432847228833 10.758805819233155 9.518692639836457
29.487622361584297 3.065300792989297 14.408903565214779 12.013418003380215
36.743581799523625 3.388217734350964 18.57464262814847 14.780721437024184
44.278629229714596 3.5747936072349162 23.0988947776564 17.604940844823286
51.146367958166444 3.5540433788748746 27.404734321020374 20.187590258271182
56.25037397774993 3.3345023277296955 30.767598439346514 22.148273210673704
58.11322889173499 2.657767644178344 32.381201704178025 23.074259543378634
56.250373977745824 3.3345023277305152 30.76759843934344 22.148273210671885
51.14636795815722 3.554043378876832 27.404734321013322 20.187590258267065
44.27862922969915 3.5747936072329054 23.09889477764804 17.6049408448182
36.74358179950524 3.388217734349046 18.5746426281384 14.78072143701779
29.4876223615653 3.0653007929878493 14.408903565204259 12.0134180033732
22.97114174377488 2.6936432847215452 10.758805819223646 9.518692639829686
17.530395471443853 2.329555853726043 7.809632251584144 7.391207366133659
13.25816765427461 1.9976964633944614 5.622511795917338 5.6379593949628095
9.808845835850263 1.7134036838160345 3.8828387018546917 4.212603450179534
7.083184061869274 1.4749058808580984 2.5712775030067996 3.0370006780043752
4.89401435423305 1.2638683590031594 1.574653495502993 2.055492499726899
3.1514052337020564 1.064975726317276 0.8411512616337343 1.245278245751046
1.826108811574896 0.8683122716353613 0.34571129535313583 0.6120852445863985
0.9543780944554299 0.6752822481532813 0.09482388142441676 0.18427196487773184
0.4717949021427685 0.4682089555733479 -0.00014264751009893494 0.003728594079519581
0.27148490903557765 0.270540398750577 0.00019670639962535608 0.0007478038853752824
0.15122132742463287 0.15121509085707008 3.645630534186663e-07 5.872004509419999e-06
0.08718930821021766 0.08718930821021766 0.0 0.0
0.3797301164634702 0.10788947246613129 0.098080753876165 0.1737598901211741
4.204286063336987 2.2636627749035796 0.7634023263869751 1.1772209620464336
3.000892181171828 1.7305612802769903 0.4729092532126745 0.797421647682163
0.27207031768901807 0.1433235621610678 0.03637216826303128 0.09237458726491898
0.0974807829304407 0.0974807829304407 0.0 0.0
0.130026381293767 0.130026381293767 0.0 0.0
0.22234177305816544 0.22257255883029337 -3.507798183134904e-05 -0.00019570779029656055
0.3629433470672233 0.37071055810474035 -0.0026822675664954832 -0.0050849434710215835
0.6778342890278579 0.5606466779653743 0.029190744791723046 0.0879968662707604
1.3724580335553098 0.7763927849590969 0.21946214662882638 0.3766031019673864
2.3981435029552958 0.945355088194618 0.5510342645334507 0.901754150227227
3.848932538263841 1.133333902419538 1.1338044932960805 1.5817941425482225
5.635946178169535 1.3193777167226772 1.9136195909438538 2.402948870503003
7.837697415663619 1.5231590006757727 2.9347350711357545 3.379803343852093
10.58934163764682 1.7617664118020073 4.271715020586898 4.555860205257916
14.102484188077767 2.0392343327447824 6.062018945391366 6.001230909941614
18.469723861241352 2.3536322232900573 8.344849615822731 7.771242022128561
23.746752328587938 2.6768205449321294 11.202967586696197 9.866964196959609
29.93108318179628 2.986743536435533 14.7330920321709 12.211247613189839
36.34757105507843 3.222316116242352 18.4513479320505 14.673907006785589
42.34809127245523 3.282977529762701 22.068925931417365 16.996187811275163
47.088010874980185 3.119487952508631 25.133491919253576 18.835031003217985
48.8718468162454 2.3306251371011903 26.746394431810668 19.794827247333554
47.088010874976085 3.1194879525086883 25.133491919250964 18.835031003216404
42.34809127244529 3.2829775297619648 22.06892593141167 16.996187811271668
36.347571055066176 3.2223161162412595 18.45134793204365 14.673907006781262
29.931083181783972 2.986743536437886 14.733092032162098 12.211247613183978
23.74675232857082 2.676820544928626 11.202967586688231 9.866964196953976
18.469723861226235 2.3536322232893 8.344849615814509 7.771242022122432
14.10248418806326 2.039234332743006 6.062018945384343 6.00123090993591
10.589341637632836 1.761766411801379 4.271715020579729 4.55586020525173
7.837697415650545 1.523159000675087 2.9347350711293663 3.3798033438460884
5.635946178157898 1.3193777167219816 1.913619590938443 2.402948870497473
3.8489325382549193 1.1333339024188556 1.1338044932922884 1.5817941425437734
2.398143502948883 0.9453550881937811 0.5510342645311078 0.9017541502239946
1.3724580335506962 0.776392784957957 0.21946214662739025 0.37660310196534813
0.6778342890256831 0.5606466779645839 0.02919074479127281 0.08799686626982642
0.36294334706657777 0.3707105581038913 -0.0026822675664498427 -0.005084943470863828
0.22234177305774483 0.22257255882988916 -3.5077981833482616e-05 -0.00019570779031082464
0.13002638129352534 0.13002638129352534 0.0 0.0
0.09748078293021188 0.09748078293021188 0.0 0.0
0.272070317687635 0.14332356216098574 0.036372168262511884 0.09237458726413764
3.000892181162953 1.730561280273105 0.47290925321063837 0.7974216476792094
2.0605142036877497 1.3027349944535658 0.25634557226828497 0.5014336369658985
0.21694108758803346 0.18035894623640766 0.0072317062838169275 0.029350435067808822
0.11695408268764063 0.11695408268764063 0.0 0.0
0.124976971216836 0.124976971216836 0.0 0.0
0.188258430749832 0.18816723281114162 8.299149728706594e-06 8.289878896171972e-05
0.288059133853467 0.2941257586642978 -0.0012655760979785055 -0.004801048712852202
0.48472388228057894 0.4675696675465866 0.001410492135820265 0.015743722598172038
0.9269815272279306 0.6388306716758165 0.08458180536147254 0.20356905019064117
1.7601282873498134 0.8373998602401833 0.3547828700370022 0.5679455570726274
2.829204881147463 0.9878008803959106 0.7221711152515593 1.1192328854999924
4.256338060614965 1.1572469371002572 1.3161339547298263 1.7829571687848826
5.972487630902591 1.3308119702202281 2.077760207380976 2.5639154533013855
8.08794398904285 1.528348564496187 3.0625674985681313 3.4970279259785326
10.767747289210046 1.7564282200395505 4.370078057070487 4.641241012100008
14.145688117897194 2.0144754131084546 6.079108697394895 6.05210400739384
18.390718542810628 2.3029124617622765 8.346615060452379 7.741191020595964
23.155067864685616 2.5892565256896725 10.889482556942253 9.6763287820537
28.52542589222564 2.8509592753526705 13.946566328262163 11.727900288610803
33.83270006975667 3.005834007564454 17.065715713019827 13.761150349172375
38.18237566067856 2.916560507009566 19.76254809118793 15.503267062481068
39.9497892495949 2.0119419330361783 21.410903907434033 16.52694340912468
38.18237566067582 2.91656050701005 19.762548091185906 15.503267062479853
33.8327000697532 3.005834007568535 17.065715713015248 13.761150349169426
28.525425892216106 2.850959275352454 13.946566328256568 11.727900288607078
23.155067864671913 2.5892565256881497 10.889482556935095 9.67632878204867
18.390718542799497 2.3029124617622796 8.34661506044601 7.741191020591205
14.145688117884017 2.0144754131058704 6.07910869738906 6.052104007389082
10.767747289199677 1.7564282200389734 4.370078057065244 4.641241012095461
8.087943989031459 1.528348564494199 3.062567498563231 3.4970279259740273
5.9724876308931085 1.3308119702206718 2.077760207376001 2.563915453296438
4.25633806060582 1.157246937099195 1.3161339547260174 1.782957168780608
2.829204881140435 0.9878008803954811 0.7221711152486008 1.1192328854963534
1.7601282873446227 0.8373998602393248 0.354782870035107 0.567945557070191
0.9269815272249656 0.6388306716750545 0.08458180536065935 0.2035690501892519
0.48472388227912006 0.4675696675456241 0.00141049213566757 0.015743722597828406
0.2880591338528276 0.29412575866358753 -0.0012655760979522017 -0.004801048712807698
0.18825843074949625 0.18816723281080053 8.29914972888907e-06 8.289878896677432e-05
0.1249769712166121 0.1249769712166121 0.0 0.0
0.1169540826873682 0.1169540826873682 0.0 0.0
0.21694108758697792 0.1803589462361283 0.007231706283531281 0.02935043506731835
2.0605142036814588 1.3027349944508138 0.25634557226696586 0.5014336369636796
1.406611560589357 1.0197202095896571 0.13682168831912525 0.25006966268057484
0.17631231279031914 0.18850768227311215 -0.009029502626167106 -0.0031658668566258976
0.1387282077617858 0.13873401817700295 -2.3757776738740996e-07 -5.5728374497752275e-06
0.13099310514913887 0.13099310514913887 0.0 0.0
0.1681903471118348 0.1681868008495654 6.040098225543009e-08 3.4858612871931157e-06
0.2374959884210545 0.2399111321266479 -0.000497110821682904 -0.0019180328839105705
0.35061653807231213 0.3622520895447646 -0.0040226591076044545 -0.007612892364848045
0.6032699171836668 0.5098440770279316 0.019209322542524068 0.07421651761321134
1.1120768172964843 0.6755066706114892 0.13873020857136734 0.2978399381136281
1.9416586573074524 0.8431802785924739 0.425135650241912 0.6733427284730662
2.9471528552639668 0.9807937385233403 0.7890185800084268 1.1773405367321992
4.196665395359389 1.1255952585358546 1.3010186354707336 1.7700515013528002
5.733269693854507 1.289185537273161 1.9782473757576524 2.465836780823693
7.653284949904748 1.4712547170867016 2.8651256641595055 3.3169045686585426
10.121442534985288 1.6832780006755186 4.068132756983306 4.370031777326465
13.171291922866326 1.9249270575323771 5.592133331418301 5.654231533915644
16.8947287958638 2.1897944992565503 7.559031011446939 7.145903285160315
21.016286937937235 2.46314833408987 9.748757024405965 8.804381579441394
25.326616084727032 2.6952721813953007 12.113850274553512 10.517493628778222
29.371834768782602 2.713519072750679 14.527798372468164 12.130517323563748
31.198673507470716 1.7015294035395048 16.25414478862541 13.242999315305807
29.371834768780193 2.7135190727498224 14.527798372467203 12.13051732356316
25.3266160847199 2.6952721813935887 12.11385027455028 10.51749362877604
21.0162869379282 2.4631483340876423 9.74875702440203 8.80438157943853
16.89472879585194 2.189794499251836 7.559031011442875 7.145903285157229
13.17129192285686 1.9249270575322517 5.592133331413127 5.654231533911483
10.121442534977573 1.6832780006752344 4.068132756979329 4.370031777323012
7.653284949897753 1.4712547170870471 2.865125664155693 3.316904568655011
5.733269693847843 1.2891855372731085 1.978247375754366 2.4658367808203696
4.1966653953512365 1.125595258534768 1.3010186354674047 1.7700515013490639
2.947152855256956 0.9807937385214346 0.7890185800061629 1.1773405367293575
1.9416586573017538 0.8431802785912468 0.42513565023994593 0.6733427284705605
1.1120768172930893 0.6755066706104343 0.13873020857045854 0.29783993811219656
0.6032699171818773 0.509844077027251 0.019209322542181908 0.07421651761244406
0.3506165380714837 0.3622520895438362 -0.0040226591075736414 -0.007612892364778961
0.23749598842059175 0.23991113212596174 -0.0004971108216586296 -0.0019180328837113572
0.16819034711151173 0.1681868008492932 6.04009779215426e-08 3.4858612406829423e-06
0.13099310514885845 0.13099310514885845 0.0 0.0
0.13872820776143036 0.13873401817663217 -2.3757776660358785e-07 -5.5728374351892456e-06
0.1763123127897436 0.1885076822727535 -0.009029502626214438 -0.0031658668567956065
1.406611560585034 1.0197202095876257 0.13682168831822092 0.2500696626791875
0.9075141620991178 0.7615975421069014 0.04066042484755436 0.1052561951446623
0.16359107678659499 0.18236452713649862 -0.005739417673299615 -0.013034032676604058
0.15843878998370967 0.1585342037490857 -7.942672845307354e-06 -8.747109253071001e-05
0.14349096001986333 0.14348219303598317 5.897935051999962e-07 8.177190374985282e-06
0.1604376572565146 0.16046134774843923 -1.9461531036676694e-06 -2.1744338820966167e-05
0.20366317495678973 0.2031919291964931 6.857770874826622e-05 0.000402668051548332
0.27065095463405586 0.28279651115227417 -0.003149857486871933 -0.008995699031346305
0.3925756917294164 0.3936112114150776 -0.0014385086075181974 0.0004029889218568507
0.6387697624587958 0.5134470900527521 0.030495140701837342 0.09482753170420623
1.0929429993654076 0.6461874645053243 0.14776595645856172 0.29898957840152196
1.7286812823971882 0.7663688644360245 0.345037582628873 0.6172748353322909
2.5439388994858962 0.8910803217171732 0.6438863136571972 1.008972264111526
3.5380117271156717 1.0226599668687586 1.0391924011183133 1.4761593591286002
4.771859279150523 1.1643529466781346 1.5613323763179912 2.0461739561543957
6.3564258072855875 1.3299793363874064 2.273476997420885 2.752969473477298
8.383280311218138 1.527879756354483 3.2279074679042004 3.6274930869594524
10.905958238821508 1.7686490648633408 4.451895109115888 4.685414064842278
13.844174542997253 2.020802761230947 5.914241786142212 5.909129995624095
17.207597201900587 2.307486621914775 7.635714487891924 7.264396092093883
20.871296053487278 2.4977520285828776 9.657639248282452 8.715904776621946
22.758735026538815 1.421245867100326 11.336413909442852 10.001075249995628
20.87129605348803 2.4977520285840917 9.657639248282177 8.715904776621766
17.207597201897087 2.3074866219133168 7.635714487890772 7.264396092092998
13.844174542992324 2.0208027612305948 5.914241786139637 5.909129995622095
10.905958238816515 1.7686490648629765 4.451895109113396 4.6854140648401446
8.383280311211463 1.527879756353535 3.2279074679011748 3.627493086956755
6.356425807280837 1.3299793363879648 2.2734769974181805 2.75296947347469
4.771859279144865 1.1643529466761908 1.561332376316153 2.046173956152522
3.53801172711062 1.022659966868155 1.0391924011162887 1.4761593591261768
2.543938899481435 0.8910803217168761 0.6438863136553135 1.008972264109246
1.7286812823933506 0.766368864435409 0.345037582627577 0.6172748353303649
1.0929429993627282 0.6461874645047871 0.14776595645771745 0.29898957840022367
0.638769762457232 0.5134470900519985 0.030495140701571076 0.09482753170366229
0.3925756917286249 0.3936112114143768 -0.0014385086075450525 0.00040298892179325193
0.2706509546333742 0.28279651115145393 -0.0031498574868401136 -0.008995699031239578
0.20366317495637973 0.20319192919606027 6.857770874979649e-05 0.0004026680515696065
0.16043765725612044 0.16046134774804058 -1.946153103291718e-06 -2.174433881687147e-05
0.14349096001956435 0.1434821930356876 5.897935049128192e-07 8.177190371824514e-06
0.15843878998325636 0.15853420374862098 -7.9426728438462e-06 -8.747109252077777e-05
0.16359107678623533 0.18236452713586748 -0.005739417673236554 -0.013034032676395666
0.907514162096504 0.7615975421055796 0.040660424847115954 0.10525619514380863
0.5980508098809646 0.5865844004884383 0.003105943704435511 0.008360465688090731
0.16128191862129054 0.1634278713219073 -0.0005018379848108228 -0.0016441147158059097
0.17360077464986506 0.1736183021078054 -9.038683591991786e-07 -1.6623589581121507e-05
0.1587122130429415 0.15872072555911895 -4.624563956504184e-07 -8.050059781740452e-06
0.1623949126303606 0.16239471716627188 1.7247569551195297e-06 -1.5292928663885773e-06
0.18693304385852105 0.18753885413045507 -0.00010576626376579957 -0.0005000440081682287
0.2256493072070139 0.23225585021180792 -0.0016321127475603372 -0.004974430257233638
0.27886248927052415 0.27343583096604734 0.0005666294603863605 0.004860028844090482
0.3561234393473502 0.32522310919978864 0.007086896868273397 0.02381343327928805
0.49479790079910435 0.40003590013575796 0.02443513167276544 0.07032686899058099
0.7605492459126889 0.49747523103878294 0.08931888304135922 0.17375513183254657
1.114617116139324 0.5879306858539585 0.17852572779729434 0.3481607024880714
1.5947802652378846 0.6750960587680134 0.3336376902579517 0.5860465162119197
2.2219190254725607 0.7683522409227664 0.5617424675385354 0.8918243170112596
3.0353644538089037 0.8747493101010635 0.8775442153550095 1.2830709283528303
4.1137940846990615 1.0197898051865024 1.3149346445683103 1.7790696349442479
5.560292405841743 1.2174282616087584 1.9281904739523599 2.414673670280624
7.4722280668484276 1.463458502890356 2.7911832922742716 3.217586271683801
9.73892779466064 1.707382810854147 3.860014348734816 4.171530635071678
12.645576595635676 2.1087276747626147 5.20567884268517 5.331170078187892
15.075974236960898 1.1952313493479938 7.070828449023399 6.809914438589509
12.645576595634145 2.1087276747593617 5.205678842686128 5.331170078188656
9.738927794659398 1.707382810853126 3.8600143487346767 4.171530635071594
7.472228066845458 1.463458502890643 2.7911832922725717 3.2175862716822445
5.56029240583811 1.2174282616091288 1.928190473950311 2.41467367027867
4.113794084696813 1.0197898051869445 1.3149346445670502 1.779069634942818
3.0353644538053284 0.8747493100994701 0.8775442153541241 1.2830709283517343
2.2219190254716943 0.7683522409231434 0.5617424675379648 0.891824317010586
1.5947802652360954 0.6750960587681731 0.3336376902571434 0.5860465162107784
1.1146171161368879 0.5879306858537715 0.1785257277964038 0.34816070248671244
0.7605492459103446 0.4974752310382161 0.08931888304068783 0.17375513183144056
0.49479790079797725 0.40003590013498047 0.024435131672677447 0.07032686899031924
0.3561234393470606 0.32522310919966957 0.007086896868215609 0.023813433279175407
0.27886248927005824 0.27343583096571067 0.0005666294603467316 0.004860028844000929
0.22564930720645315 0.2322558502111505 -0.001632112747537456 -0.004974430257159935
0.18693304385803872 0.18753885412995563 -0.00010576626376348634 -0.000500044008153373
0.16239491262994843 0.16239471716584503 1.7247569561690236e-06 -1.5292928527816401e-06
0.15871221304266275 0.1587207255588347 -4.624563952485292e-07 -8.05005977674842e-06
0.17360077464944548 0.17361830210737192 -9.038683582517383e-07 -1.6623589568169255e-05
0.1612819186210635 0.16342787132163905 -0.0005018379848020566 -0.0016441147157734309
0.5980508098795145 0.586584400487154 0.003105943704385379 0.008360465687975034
0.4003957349098169 0.39912151559266335 0.0001420512178742764 0.001132168099279261
0.158742533038855 0.15886463722611083 -1.5043758854211182e-05 -0.0001070604284016296
0.1834413531760087 0.18357724393295635 -1.1143274495061744e-05 -0.00012474748245261706
0.17371080015783655 0.1737554050290955 -3.0090264717618683e-06 -4.159584478721377e-05
0.17149421404349707 0.1714937577479705 1.2746668436716983e-06 -8.183713171120655e-07
0.1860111631824287 0.1865751856609805 -0.00010146218657172714 -0.00046256029198011363
0.2125060069570307 0.21861864358490973 -0.0014415496641632627 -0.004671086963715753
0.24396549882825624 0.23553369375765298 0.0010038960919588873 0.007427908978644359
0.27133075933805406 0.23886515991590807 0.008800994926882418 0.023664604495263527
0.3001392710776299 0.22026059100911743 0.021786506477643304 0.058092173590869184
0.34643710098333536 0.2063137852136464 0.04662440799691052 0.09349890777277853
0.4188927968324085 0.18702837486528154 0.0754958419490239 0.15636858001810286
0.532209099313605 0.19337068644823313 0.1191250604326872 0.21971335243268503
0.7014860227815737 0.2183218263801452 0.18106482330137139 0.30209937310005663
0.9538680107498171 0.26872103999551966 0.27315266187918436 0.41199430887511324
1.3066390171056197 0.286925638230073 0.4089060227683163 0.610807356107231
1.8031935515891866 0.28961959752121513 0.6293469834698294 0.8842269705981418
2.5098774136143063 0.3007154605825293 0.9551099866055665 1.254051966426209
3.663863768523385 0.44606385219825684 1.4433786411530707 1.774421275172058
5.9433963624978645 1.142657851355581 2.171407398757965 2.6293311123843184
9.7460578952432 0.991973599527295 4.19627757846733 4.5578067172485754
5.94339636250333 1.1426578513584014 2.1714073987594036 2.629331112385528
3.6638637685234103 0.4460638521983858 1.4433786411530163 1.7744212751720092
2.5098774136115463 0.30071546058163134 0.9551099866046167 1.2540519664252985
1.8031935515853004 0.28961959751994126 0.6293469834686329 0.8842269705967256
1.306639017104204 0.2869256382298627 0.40890602276786714 0.610807356106474
0.9538680107504505 0.26872103999660657 0.273152661878865 0.4119943088749791
0.7014860227808317 0.21832182637974834 0.18106482330124202 0.3020993730998413
0.5322090993116181 0.1933706864474254 0.1191250604321824 0.21971335243201034
0.4188927968310877 0.18702837486491058 0.07549584194868861 0.15636858001748882
0.3464371009822856 0.20631378521352878 0.04662440799654069 0.09349890777221599
0.3001392710777687 0.22026059100925144 0.021786506477649053 0.05809217359086831
0.27133075933787715 0.23886515991596766 0.008800994926805698 0.023664604495103787
0.24396549882789859 0.2355336937574143 0.0010038960919207971 0.0074279089785635145
0.21250600695667293 0.21861864358442343 -0.0014415496641349626 -0.004671086963615534
0.18601116318192817 0.1865751856604683 -0.00010146218657101967 -0.00046256029196912405
0.17149421404315152 0.171493757747608 1.2746668447383521e-06 -8.183713012188865e-07
0.1737108001574771 0.17375540502871623 -3.009026470089872e-06 -4.1595844769073125e-05
0.18344135317567836 0.1835772439326133 -1.1143274493439908e-05 -0.00012474748244152296
0.1587425330387376 0.15886463722602054 -1.5043758856385692e-05 -0.0001070604284265576
0.40039573490897157 0.3991215155916122 0.00014205121788784858 0.0011321680994714532
0.2685775146869599 0.26853645673890236 3.1449235594818967e-06 3.791302449810016e-05
0.15021673214991568 0.15022387225645498 -7.809730483392966e-07 -6.359133490956365e-06
0.18705772679719795 0.18702415155412658 3.0357384811359583e-06 3.053950459020256e-05
0.18642582106363506 0.1864816374898217 -4.477284794431172e-06 -5.13391413922115e-05
0.1854293795265025 0.1854610589640422 -2.835562142968857e-06 -2.8843875396653208e-05
0.19974196593544588 0.1992800196800422 6.27525408636951e-05 0.0003991937145399908
0.2318050681223031 0.2413823871317671 -0.002185726581003799 -0.007391592428460304
0.28065972916795234 0.2747187923993479 0.0007949776793901564 0.0051459590892141156
0.35610900117051675 0.3249131620355811 0.007206399547143478 0.023989439587792108
0.4940096179658577 0.3995651188511876 0.02431011191097246 0.07013438720369773
0.7594432209273436 0.49778453171530246 0.08850598134566341 0.1731527078663779
1.11766528516015 0.5890779208640865 0.1807012784407181 0.3478860858553454
1.601284075616269 0.6767517145785941 0.3355981764240675 0.5889341846136074
2.235728866174605 0.7709971473309141 0.5668694994705626 0.8978622193731286
3.032624264825632 0.872085938726519 0.8780706189135121 1.2824677071856003
3.9823323876200494 0.9881537288542137 1.2703584459229404 1.7238202128428957
4.9739643847846695 1.1082171185927154 1.6948733515067151 2.1708739146852394
5.811284885841153 1.204720791869359 2.0998854583479902 2.506678635623805
6.122293587968998 1.2531933215029767 2.260707349545197 2.608392916920821
4.956392082692807 0.6273576104304057 2.0562230268936785 2.2728114453687236
9.851219665767905 1.8105873146830895 3.768771258041918 4.271861093042896
4.956392082693958 0.62735761042865 2.056223026895204 2.2728114453701
6.122293587969246 1.2531933215033844 2.260707349545079 2.6083929169207822
5.81128488583737 1.2047207918686014 2.099885458346436 2.506678635622332
4.973964384780276 1.1082171185930214 1.6948733515044028 2.1708739146828533
3.9823323876161223 0.9881537288536022 1.2703584459213815 1.723820212841139
3.0326242648221884 0.8720859387251949 0.8780706189126195 1.2824677071843744
2.23572886617082 0.7709971473305137 0.5668694994690325 0.8978622193712729
1.6012840756131375 0.6767517145789304 0.3355981764226514 0.5889341846115557
1.1176652851569622 0.5890779208635099 0.180701278439699 0.347886085853753
0.7594432209245345 0.4977845317144477 0.08850598134487413 0.17315270786521286
0.494009617964314 0.39956511885016777 0.024310111910825345 0.07013438720332102
0.3561090011698884 0.32491316203508225 0.007206399547095204 0.023989439587710906
0.28065972916752907 0.2747187923989878 0.0007949776793696036 0.005145959089171761
0.23180506812191343 0.24138238713127425 -0.002185726580976858 -0.0073915924283839704
0.1997419659349476 0.1992800196793999 6.275254087951029e-05 0.0003991937146681701
0.18542937952611024 0.1854610589636659 -2.835562145866146e-06 -2.8843875409766115e-05
0.18642582106322245 0.1864816374893881 -4.477284792821856e-06 -5.1339141372841755e-05
0.18705772679692947 0.18702415155384866 3.0357384811983143e-06 3.053950459965208e-05
0.15021673214974018 0.15022387225628578 -7.80973048571847e-07 -6.359133497039122e-06
0.26857751468633434 0.26853645673828697 3.1449235585162974e-06 3.791302448882746e-05
0.17288716862396486 0.17288716862396486 0.0 0.0
0.13604144396157317 0.13603921050907744 1.0780301602207152e-07 2.125649479689325e-06
0.1839110872790003 0.1838962091778124 1.4859508359212948e-06 1.3392150351924643e-05
0.19555962667913998 0.1955140930407229 6.741537791692081e-06 3.8792100625377955e-05
0.20255377091843144 0.20271874724950986 -9.44072969867147e-06 -0.0001555356013797755
0.22755358283765176 0.23121984440713483 -0.0006499095381960607 -0.003016352031286946
0.2809677807708846 0.2829182873569877 -0.001250087638709967 -0.0007004189473931251
0.3956619499509832 0.39502459241268106 -0.0008605876789311245 0.0014979452172333438
0.6382693980854739 0.5130281906578211 0.03045733367144566 0.09478387375620702
1.09143712216849 0.6459738642045713 0.14718413832185553 0.2982791196420629
1.7279489791847593 0.7662184739989673 0.34472713654721393 0.6170033686385784
2.5451959582536583 0.8911851200188243 0.6443970810053574 1.0096137572294763
3.543454466578013 1.0234664060756755 1.0414452920625776 1.47854276843976
4.784144738776097 1.1656834592426693 1.5669403516386047 2.0515209278948205
6.35734439206311 1.3260054579970113 2.2766921787832244 2.754646755282873
8.265684448775815 1.4963730551337189 3.1838518502170206 3.585459543425077
10.35670636472119 1.6641660363331943 4.2111737647847605 4.481366563603233
12.268219813657002 1.8319491516438382 5.138017625362207 5.298253036650959
13.33758878879788 1.8858587551284962 5.70798321089373 5.743746822775654
12.373858923365987 1.9055920173971208 5.244490458796814 5.223776447172055
14.778328216182478 4.061512138347867 5.278550681911369 5.43826539592324
12.373858923369978 1.9055920173975693 5.244490458798807 5.2237764471736
13.337588788799264 1.8858587551295143 5.707983210893927 5.743746822775823
12.268219813652433 1.8319491516437993 5.138017625359681 5.298253036648951
10.356706364712517 1.6641660363325055 4.211173764780435 4.481366563599576
8.265684448767125 1.4963730551316943 3.1838518502135265 3.5854595434219036
6.357344392055258 1.3260054579949343 2.27669217878029 2.754646755280034
4.784144738771342 1.165683459243278 1.566940351636044 2.05152092789202
3.5434544665706045 1.0234664060743106 1.0414452920597408 1.4785427684365526
2.5451959582460857 0.8911851200172114 0.6443970810026786 1.0096137572261958
1.727948979178728 0.7662184739979251 0.34472713654515397 0.617003368635649
1.0914371221642312 0.6459738642035315 0.1471841383205762 0.29827911964012377
0.6382693980833305 0.5130281906569173 0.030457333671043536 0.09478387375536965
0.39566194994991316 0.39502459241181065 -0.0008605876789816213 0.0014979452170840457
0.28096778077000073 0.282918287356047 -0.0012500876387054258 -0.0007004189473409285
0.22755358283715965 0.23121984440665322 -0.0006499095381903384 -0.003016352031303178
0.20255377091801482 0.2027187472490531 -9.440729693750841e-06 -0.00015553560134459017
0.19555962667884047 0.1955140930404039 6.74153779291067e-06 3.879210064361902e-05
0.18391108727869854 0.18389620917750973 1.485950835800389e-06 1.3392150353024234e-05
0.13604144396139595 0.13603921050890252 1.078030158836325e-07 2.1256494775240985e-06
0.17288716862356127 0.17288716862356127 0.0 0.0
0.10633016849693233 0.10633016849693233 0.0 0.0
0.11709660149806082 0.11709660149806082 0.0 0.0
0.17447932541263794 0.17445506284114626 1.7498561801295798e-06 2.2512715311568723e-05
0.2006766023348842 0.20074613311908163 -5.218320297586886e-06 -6.431246389986003e-05
0.22219138826205026 0.22276630497862426 -8.743025521670164e-05 -0.0004874864613573272
0.2661881772349333 0.26594751046806603 -0.00018080282211403763 0.0004214695889813726
0.365594751881206 0.38030374882153045 -0.0042022694962928556 -0.010506727444031602
0.6069560476583429 0.5108563564303986 0.02038149592616624 0.07571819530177826
1.110863093902164 0.6754263394604151 0.1382687029597916 0.29716805148195663
1.9404179148105105 0.8432203196738041 0.4248428766587789 0.6723547184779277
2.9461950036336715 0.9805449521190736 0.7875503835505732 1.1780996679640243
4.1974266851321085 1.1253827670023184 1.301525322586802 1.7705185955429887
5.73519798406671 1.2893940019383558 1.9791293743805245 2.46667460774783
7.658608208416201 1.4724034042196847 2.867375437556647 3.318829366639867
10.119337729010883 1.6806013669367057 4.0686378182834115 4.370098543790771
13.086934078283562 1.8970490395205735 5.561413683915464 5.628471354847524
16.50200994793414 2.1052342133950908 7.385027043244082 7.011748691294976
19.661988291633108 2.2365709297126166 9.097360718707698 8.328056643212793
21.458488531483063 2.213662524230303 10.151877181636202 9.092948825616572
19.899429164814162 2.0000225699268293 9.379918254586842 8.519488340300484
22.331782107844926 6.3025406827407195 8.290852383917908 7.738389041186313
19.899429164813238 2.000022569924044 9.379918254587919 8.519488340301274
21.458488531480356 2.213662524228426 10.151877181635692 9.092948825616231
19.661988291623718 2.2365709297102008 9.097360718703657 8.328056643209859
16.502009947923877 2.1052342133958586 7.385027043237806 7.011748691290215
13.086934078272654 1.8970490395200648 5.561413683909731 5.628471354842862
10.119337729001531 1.6806013669364854 4.068637818278505 4.3700985437865425
7.658608208405398 1.472403404217459 2.867375437552179 3.3188293666357636
5.735197984057252 1.2893940019378378 1.979129374376048 2.4666746077433657
4.197426685122394 1.1253827670020518 1.3015253225822603 1.770518595538081
2.946195003625322 0.9805449521183052 0.7875503835471181 1.178099667959898
1.9404179148039415 0.8432203196734659 0.4248428766560672 0.6723547184744079
1.1108630938983246 0.6754263394592415 0.13826870295875043 0.2971680514803328
0.6069560476562899 0.5108563564293954 0.02038149592584957 0.07571819530104476
0.36559475188031443 0.3803037488204913 -0.004202269496254385 -0.01050672744392251
0.2661881772343753 0.26594751046725423 -0.00018080282207814474 0.0004214695891991907
0.22219138826167392 0.2227663049782775 -8.743025522127086e-05 -0.00048748646138233054
0.2006766023345143 0.20074613311869163 -5.218320295818337e-06 -6.431246388149186e-05
0.17447932541222388 0.1744550628407394 1.749856179479478e-06 2.2512715304933934e-05
0.1170966014978971 0.1170966014978971 0.0 0.0
0.10633016849665436 0.10633016849665436 0.0 0.0
0.06205108034530271 0.06205108034530271 0.0 0.0
0.09579707191638175 0.09579707191638175 0.0 0.0
0.15994064368778677 0.15993020286233783 6.169848764971448e-07 9.823840572470336e-06
0.2021885654029434 0.202096044544123 1.1433964402413846e-05 8.108689441796222e-05
0.24371887134514336 0.24402619449006255 -2.134877391519478e-05 -0.0002859743710039432
0.3173443188594907 0.3291521432986126 -0.0024376049305491424 -0.00937021950857272
0.4974939340729223 0.4657535782624087 0.004979420058255931 0.026760935752257662
0.9295370373331965 0.6393944364426282 0.08562804966595915 0.20451455122460974
1.7585832245869817 0.8375759509661328 0.3540223733647331 0.5669849002561159
2.8282861550190477 0.9879565558982205 0.7215195164842659 1.118810082636561
4.256899022383047 1.157107076593689 1.3166982698562006 1.7830936759331562
5.972373590304784 1.3301795483610557 2.0780320047044216 2.5641620372393095
8.083983798638647 1.5272547751240224 3.061130471742744 3.4955985517718795
10.758492691002578 1.7563823838245511 4.365237967292036 4.636872339885988
14.134874351819374 2.0157259985842417 6.072440185080637 6.046708168154498
18.371082520588644 2.296279461187642 8.338893102167193 7.735909957233811
22.971411911780578 2.523325302369549 10.820269856718225 9.627816752692812
27.448073997507365 2.5890202495496024 13.459876134512097 11.39917761344566
29.940197799512372 2.3933816466290327 15.094209686709048 12.452606466174286
27.807049777297856 2.0692055049555345 14.002852165513833 11.734992106828491
30.55351045181786 8.460895419356927 11.801895858315321 10.290719174145602
27.807049777300602 2.069205504957006 14.002852165514641 11.734992106828955
29.94019779950782 2.393381646628657 15.094209686706527 12.452606466172643
27.448073997499563 2.5890202495513095 13.459876134506402 11.399177613441852
22.97141191176765 2.5233253023700284 10.820269856710397 9.627816752687224
18.37108252057543 2.296279461187326 8.338893102159803 7.735909957228302
14.13487435180603 2.0157259985828806 6.072440185074018 6.046708168149129
10.758492690989678 1.7563823838242922 4.365237967285219 4.636872339880168
8.083983798625523 1.5272547751226377 3.0611304717366217 3.495598551766262
5.972373590292396 1.3301795483607182 2.078032004698429 2.5641620372332485
4.256899022372147 1.157107076592321 1.3166982698517213 1.783093675928103
2.8282861550102836 0.9879565558980682 0.7215195164804247 1.1188100826317906
1.7585832245806516 0.8375759509645971 0.35402237336263154 0.5669849002534229
0.9295370373295686 0.6393944364415063 0.08562804966501993 0.20451455122304263
0.4974939340712932 0.4657535782612767 0.004979420058098656 0.026760935751917663
0.3173443188588951 0.3291521432979009 -0.0024376049305132987 -0.009370219508492518
0.2437188713446459 0.24402619448950474 -2.1348773908686162e-05 -0.0002859743709501449
0.20218856540253577 0.20209604454370592 1.143396440262814e-05 8.108689442716989e-05
0.15994064368743355 0.15993020286198953 6.169848761276928e-07 9.823840567913113e-06
0.09579707191626473 0.09579707191626473 0.0 0.0
0.062051080345164926 0.062051080345164926 0.0 0.0
0.03410234581256174 0.03410234581256174 0.0 0.0
0.07447617384464941 0.07447617384464941 0.0 0.0
0.14206753570236946 0.14206282201724085 2.7264122338958563e-07 4.441043905202767e-06
0.20127196354666024 0.20122546853050724 5.023327296910349e-06 4.1471688856069486e-05
0.26714880052752626 0.2662590495081311 0.0001675998320252192 0.000722151187369936
0.3872887275387352 0.39879878434299326 -0.003279857566905449 -0.008230199237352492
0.6890265217501041 0.5636653288615592 0.03250271145567845 0.0928584814328668
1.3734014673749444 0.7768322993710103 0.21975124173471441 0.37681792626922
2.3972338023071695 0.9457842619305907 0.5505755754001925 0.9008739649763857
3.848978241579699 1.1334916943938362 1.1336942036766042 1.5817923435092585
5.636864563490469 1.3192408012621861 1.9141309432123774 2.403492819015905
7.836486709830839 1.5220579404569372 2.934675594466024 3.3797531749078757
10.577480803560272 1.758602628846189 4.267073235804613 4.551804938909472
14.072150077662204 2.0360550507009805 6.046989927092732 5.9891050998684845
18.445727243937995 2.36145113382504 8.326664283487585 7.757611826625373
23.79493892298005 2.6989967485065733 11.217887349948022 9.878054824525464
29.957409209257534 2.949427271151799 14.77069072022651 12.237291217879221
35.54456905692084 2.916732893646076 18.14777900316486 14.480057160109912
38.427066517502155 2.4921398461454616 20.1349408535324 15.799985817824306
35.878199890647515 2.1476644405734744 18.830823363519283 14.899712086554768
39.52757225582839 10.72265714383921 15.84999856643451 12.954916545554672
35.87819989064385 2.1476644405685468 18.83082336352004 14.899712086555262
38.4270665174954 2.4921398461461974 20.13494085352779 15.799985817821407
35.544569056907235 2.9167328936443657 18.14777900315759 14.48005716010529
29.957409209241998 2.9494272711521554 14.770690720216948 12.237291217872905
23.7949389229625 2.6989967485045465 11.21788734993893 9.878054824519038
18.4457272439215 2.3614511338238184 8.326664283478854 7.757611826618828
14.072150077645958 2.03605505070046 6.046989927084038 5.989105099861467
10.577480803543846 1.7586026288451653 4.267073235796373 4.551804938902307
7.836486709816097 1.5220579404563361 2.9346755944587244 3.37975317490104
5.636864563476745 1.3192408012607058 1.9141309432063294 2.403492819009708
3.8489782415694798 1.1334916943933449 1.1336942036720434 1.581792343504093
2.3972338022997794 0.9457842619296795 0.5505755753975061 0.9008739649725938
1.3734014673699801 0.7768322993701915 0.21975124173298752 0.3768179262668006
0.6890265217475473 0.5636653288604916 0.03250271145518744 0.09285848143186842
0.3872887275378029 0.39879878434195437 -0.003279857566878459 -0.00823019923727312
0.2671488005269925 0.2662590495075665 0.00016759983202627353 0.0007221511873996971
0.20127196354631363 0.2012254685301602 5.0233272966949e-06 4.147168885674738e-05
0.14206753570207242 0.14206282201694573 2.726412232514537e-07 4.441043903424872e-06
0.0744761738445142 0.0744761738445142 0.0 0.0
0.03410234581250264 0.03410234581250264 0.0 0.0
0.017605200516627798 0.017605200516627798 0.0 0.0
0.0550071698919121 0.0550071698919121 0.0 0.0
0.122995184638706 0.122995184638706 0.0 0.0
0.19966292974843902 0.1996001000765557 5.622717784786087e-06 5.720695409850619e-05
0.29595841516267674 0.2995237366593387 -0.000640251131410925 -0.002925070365250921
0.4816731586326532 0.4534140145371293 0.004426025832532456 0.023833118262991518
0.9596948882104692 0.6770783387935168 0.09692372645191333 0.18569282296503936
1.8262977017533952 0.8687595734397611 0.3454363582146844 0.6121017700989497
3.151839312256125 1.0654310344170805 0.8413584904938076 1.2450497873452362
4.895154278461524 1.2640302649120283 1.575151559752651 2.0559724537968442
7.084369214709817 1.474716911280122 2.57198418085993 3.0376681225697646
9.805935570559692 1.7117754175226172 3.882167058496152 4.211993094540924
13.238071442682912 1.9923782889033084 5.614369847747656 5.631323306031949
17.479610534207083 2.322510810339557 7.784799347037842 7.372300376829685
22.925811411793163 2.703857676961608 10.726307501212727 9.495646233618823
29.565313737693323 3.1128602748642846 14.426575268737006 12.025878194092034
36.912915946535634 3.3868041740760795 18.67841904469163 14.847692727767924
43.66685168799956 3.2256882025148577 22.935237593693437 17.505925891791275
47.16284825315428 2.5664779668030846 25.525447505869693 19.070922780481503
44.2256307854575 2.208152647844277 23.920063629618454 18.097414507994753
49.021043276969124 13.092035783431223 20.13937693251105 15.789630561026858
44.2256307854531 2.208152647841452 23.92006362961749 18.097414507994152
47.16284825314614 2.5664779668052664 25.525447505863248 19.070922780477638
43.6668516879852 3.2256882025152382 22.935237593684228 17.50592589178573
36.91291594651673 3.3868041740751242 18.678419044680666 14.847692727760933
29.565313737672298 3.1128602748616796 14.426575268725973 12.02587819408464
22.92581141177245 2.7038576769599936 10.72630750120157 9.49564623361088
17.479610534188367 2.322510810338436 7.784799347027867 7.372300376822067
13.238071442664122 1.9923782889028148 5.614369847737608 5.631323306023698
9.805935570540873 1.7117754175207243 3.8821670584871946 4.211993094532957
7.084369214694051 1.4747169112786567 2.571984180852667 3.0376681225627262
4.895154278448389 1.264030264910226 1.5751515597471792 2.055972453790983
3.15183931224688 1.0654310344158073 0.8413584904903387 1.245049787340735
1.8262977017469564 0.8687595734385477 0.34543635821249785 0.6121017700959107
0.959694888206905 0.6770783387922128 0.09692372645104468 0.1856928229636471
0.48167315863119325 0.45341401453601854 0.004426025832417456 0.023833118262757406
0.2959584151622553 0.29952373665885124 -0.0006402511313979254 -0.0029250703651980477
0.1996629297480229 0.19960010007614576 5.6227177840943e-06 5.7206954093084954e-05
0.12299518463848316 0.12299518463848316 0.0 0.0
0.05500716989177703 0.05500716989177703 0.0 0.0
0.017605200516610124 0.017605200516610124 0.0 0.0
0.008664463658486807 0.008664463658486807 0.0 0.0
0.038744799532059046 0.038744799532059046 0.0 0.0
0.10490369592592518 0.10490369592592518 0.0 0.0
0.20005326235912502 0.20002309100114177 2.0410054128779405e-06 2.8130352570346785e-05
0.3341931507849885 0.3422621804447493 -0.0017733953972989187 -0.006295634262462033
0.6182570095933113 0.5438004533446621 0.020096385250029356 0.05436017099862024
1.263875179760526 0.7620896020139225 0.16932040295476408 0.33246517479183935
2.3516745796240013 0.9614354706549926 0.529874665222198 0.8603644437468101
3.923858424031458 1.171662756520886 1.1516558527925342 1.600539814718039
5.991351644617095 1.3891712606098832 2.062086135907636 2.5400942480995763
8.583922159322867 1.6256858051181866 3.274841983977812 3.6833943702268663
11.856177919240336 1.9020924730785775 4.893475317572206 5.060610128589552
15.912970965893901 2.228905495366859 6.949264371503176 6.734801099023869
21.157262856265305 2.6166188534316484 9.763562303050287 8.777081699783373
27.58085809789881 3.056844176111713 13.26389266159954 11.260121260187551
35.285118163072255 3.5079367631774168 17.598359858257993 14.178821541636852
43.94081086666983 3.8132699532059373 22.739701306712867 17.38783960675102
51.84641289225809 3.5685624005851886 27.83337273794387 20.444477753729036
56.03840317626333 2.655313444629501 31.048383558479514 22.33470617315432
53.02268667423749 2.213778087912358 29.43759271365424 21.371315872670905
59.445052130558295 15.529764214408582 25.10406386734779 18.81122404880193
53.02268667423159 2.2137780879101827 29.437592713651867 21.371315872669555
56.03840317625046 2.655313444630496 31.0483835584707 22.334706173149286
51.8464128922385 3.568562400583438 27.833372737932613 20.44447775372244
43.94081086664541 3.813269953203496 22.739701306699203 17.387839606742705
35.285118163048466 3.5079367631757545 17.598359858244507 14.178821541628201
27.580858097876625 3.05684417611141 13.263892661586544 11.260121260178666
21.15726285624028 2.616618853427422 9.763562303038237 8.77708169977462
15.912970965870052 2.2289054953647414 6.949264371490955 6.73480109901436
11.856177919219164 1.9020924730775468 4.893475317561339 5.060610128580279
8.583922159304072 1.625685805116067 3.2748419839691345 3.683394370218869
5.991351644602296 1.389171260609196 2.06208613590059 2.540094248092511
3.9238584240204397 1.171662756519059 1.1516558527882668 1.600539814713112
2.351674579616422 0.9614354706541832 0.5298746652195412 0.8603644437426969
1.2638751797558208 0.7620896020124831 0.1693204029534698 0.3324651747898679
0.6182570095912996 0.5438004533436152 0.020096385249712276 0.05436017099797211
0.3341931507844342 0.342262180444059 -0.0017733953972660615 -0.006295634262358758
0.20005326235870943 0.20002309100073443 2.0410054121905157e-06 2.8130352562807396e-05
0.10490369592574642 0.10490369592574642 0.0 0.0
0.03874479953194161 0.03874479953194161 0.0 0.0
0.00866446365849024 0.00866446365849024 0.0 0.0
0.004248048295552021 0.004248048295552021 0.0 0.0
0.026411103543148264 0.026411103543148264 0.0 0.0
0.09011380456755355 0.09011380456755355 0.0 0.0
0.2060422731154336 0.20607023254142526 -2.1449399111980753e-06 -2.5814486080462045e-05
0.3889941990342994 0.3854239489556254 9.820988821391164e-05 0.003472040190460121
0.8033715712555702 0.6317730949947349 0.0548601122923267 0.11673836396850848
1.605000434755336 0.828502251340563 0.2684860304107358 0.5080121530040375
2.9100778635382496 1.0491480839574936 0.7409805295999227 1.1199492499808341
4.722750499346178 1.2710025379458219 1.4878311431207645 1.9639168182795914
7.11826384548077 1.5086694671548475 2.5765410023101545 3.0330533760157663
10.158385364485065 1.7776035079464076 4.041420255160113 4.339361601378545
13.957673531069505 2.0927273878395023 5.9401566585800065 5.924789484649997
18.837304723946094 2.476148206197145 8.508412238024926 7.852744279724021
24.838536283238973 2.9247195017913916 11.698709298043898 10.215107483403678
32.34174568113562 3.4099198982586505 15.885949179577368 13.045876603299606
41.18299914792206 3.8687101512708595 20.99946678628376 16.314822210367435
50.86613640251075 4.180105647052479 26.828434085951915 19.857596669506357
59.940454185597154 4.012509958062942 32.67423018594384 23.253714041590385
65.08080685975125 2.8158307871776445 36.760125142950486 25.504850929623103
62.3539172095368 2.093434550029395 35.48359981269165 24.776882846815763
70.865072036833 17.894015597201474 30.795173896680296 22.175882542951214
62.35391720952891 2.0934345500277347 35.4835998126877 24.7768828468135
65.08080685973694 2.81583078718142 36.760125142938904 25.504850929616612
59.940454185574794 4.0125099580604955 32.67423018593108 23.253714041583187
50.866136402485566 4.180105647053283 26.82843408593559 19.857596669496687
41.18299914789592 3.8687101512707214 20.99946678626772 16.314822210357477
32.341745681107874 3.409919898254978 15.885949179562827 13.045876603290054
24.83853628321166 2.9247195017898546 11.698709298028728 10.215107483393071
18.83730472392045 2.4761482061963784 8.508412238010713 7.852744279713354
13.957673531044227 2.0927273878370123 5.940156658567359 5.924789484639858
10.158385364464174 1.7776035079455672 4.041420255149484 4.339361601369119
7.118263845464263 1.5086694671531604 2.5765410023026614 3.0330533760084424
4.722750499333024 1.2710025379439736 1.4878311431154023 1.9639168182736493
2.9100778635291773 1.0491480839565217 0.7409805295963781 1.1199492499762773
1.6050004347498679 0.8285022513391695 0.26848603040935726 0.5080121530013401
0.8033715712527786 0.6317730949936693 0.05486011229172546 0.11673836396738368
0.38899419903354376 0.3854239489548182 9.820988822189646e-05 0.0034720401905035067
0.20604227311510406 0.20607023254108045 -2.1449399102669095e-06 -2.581448606613111e-05
0.09011380456735864 0.09011380456735864 0.0 0.0
0.026411103543060147 0.026411103543060147 0.0 0.0
0.004248048295528467 0.004248048295528467 0.0 0.0
0.00201680162822664 0.00201680162822664 0.0 0.0
0.017915204789081093 0.017915204789081093 0.0 0.0
0.08162029524399982 0.08162029524399982 0.0 0.0
0.2235121365109363 0.2236379946912397 -1.7561651298783453e-05 -0.00010829652900462016
0.4765651319578586 0.45750794691306224 0.005012803727363396 0.01404438131743308
1.0194829011560462 0.7027338961356419 0.1018331785404179 0.21491582647998683
1.992864483997207 0.9053415589425442 0.3999651074855758 0.6875578175690877
3.484603254440616 1.1303920004446824 0.9659034781465587 1.3883077758493747
5.558356346992142 1.3660122715443908 1.8589190046532393 2.3334250707945117
8.275698551007872 1.6255386475883107 3.1171738899778267 3.532986013441732
11.759104757161522 1.9270482320570814 4.825457451445737 5.006599073658707
16.212682233670233 2.2910705218107257 7.120917032638305 6.8006946792212
21.71215851211244 2.7292300545414014 9.985015079581189 8.997913377989853
28.722307124186305 3.2367171513541955 13.818357136568938 11.667232836263171
37.27559416294943 3.7722866113454168 18.658318968245183 14.84498858335882
47.15967192989974 4.222011513155741 24.48488298698846 18.452777429755532
57.66332898003724 4.4366602630931 30.98005153486819 22.246617182075948
67.60976144009915 4.365765080764044 37.4064227004844 25.837573658850683
74.25200019319689 3.4125112916601603 42.32691125408337 28.512577647453334
72.25034912701518 1.7237517156647166 42.14664623255945 28.37995117879103
83.1857011424187 19.252653879501448 37.84825397153732 26.084793291379924
72.25034912700625 1.7237517156636657 42.146646232554325 28.37995117878824
74.25200019318261 3.412511291665391 42.326911254070694 28.512577647446527
67.60976144006877 4.365765080757549 37.40642270046897 25.837573658842217
57.66332898000699 4.436660263092677 30.980051534849313 22.24661718206501
47.159671929869354 4.2220115131543245 24.484882986970383 18.452777429744657
37.27559416291738 3.7722866113412783 18.65831896822811 14.844988583347998
28.72230712415615 3.236717151353147 13.818357136551558 11.66723283625144
21.71215851208226 2.7292300545391837 9.985015079564924 8.997913377978152
16.21268223364157 2.2910705218072915 7.120917032624119 6.800694679210162
11.759104757137782 1.9270482320563007 4.825457451433235 5.0065990736482515
8.275698550988485 1.6255386475851419 3.1171738899694135 3.53298601343393
5.558356346977936 1.3660122715434138 1.8589190046467767 2.3334250707877446
3.4846032544303824 1.1303920004436854 0.9659034781424034 1.388307775844294
1.992864483990591 0.9053415589408821 0.3999651074836277 0.6875578175660819
1.0194829011527027 0.7027338961346884 0.10183317853951908 0.21491582647849528
0.47656513195656347 0.45750794691196817 0.0050128037272855926 0.014044381317309895
0.2235121365105161 0.22363799469081821 -1.756165129948715e-05 -0.00010829652900268578
0.08162029524385402 0.08162029524385402 0.0 0.0
0.017915204789026116 0.017915204789026116 0.0 0.0
0.002016801628206402 0.002016801628206402 0.0 0.0
0.0005172409923970962 0.0005172409923970962 0.0 0.0
0.012724699887912826 0.012724699887912826 0.0 0.0
0.08357125987644876 0.08357125987644876 0.0 0.0
0.2628591070434162 0.2627834973063047 2.3917366521323676e-05 5.169237059022576e-05
0.608217427259911 0.5541227857308707 0.017273720655936627 0.03682092087310354
1.2867846291052856 0.8246952982740665 0.15713940473785773 0.30494992609336147
2.4179420496286537 1.0638132886174534 0.5153892633212993 0.8387394976899021
4.113874618837198 1.356164535064305 1.1575770101644738 1.6001330736084185
6.455310113615033 1.6905853953734902 2.142173917369011 2.622550800872535
9.578774571029697 2.100096322633605 3.5568925824902196 3.9217856659058734
13.630625364278727 2.6257800948553203 5.48201996844333 5.522825300980073
18.73851876474798 3.303228244063769 7.951210151922501 7.4840803687617115
25.25486754843213 4.143573666782903 11.230851925058777 9.880441956590447
33.41289127851089 5.148997863518128 15.480772466576132 12.783120948416633
43.25096599785748 6.207305426152553 20.836051133048723 16.207609438656206
54.36048208711609 7.075785422906246 27.23907353671759 20.04562312749224
65.67447877536041 7.434606724251562 34.199756624856406 24.040115426252466
75.65308243901775 7.07968451928842 40.860648162721766 27.712749757007597
83.06800355124179 6.498844738313386 46.06604493085546 30.503113882072945
80.40392467241006 1.7541536920292162 47.37489691998685 31.27487406039395
119.97282423773285 44.95356884899474 45.10968360593611 29.909571782801986
80.40392467239944 1.7541536920271783 47.374896919981225 31.274874060391017
83.06800355121875 6.49884473831054 46.06604493084224 30.503113882065954
75.65308243898309 7.079684519282906 40.86064816270312 27.712749756997106
65.67447877532696 7.4346067242512905 34.19975662483513 24.040115426240526
54.36048208707897 7.075785422900817 27.239073536697656 20.045623127480468
43.25096599781923 6.207305426145476 20.836051133029564 16.207609438644173
33.41289127847501 5.148997863513879 15.480772466557074 12.783120948404079
25.254867548398988 4.143573666781105 11.230851925040405 9.880441956577465
18.738518764714684 3.3032282440576655 7.951210151906993 7.484080368750023
13.630625364251248 2.6257800948525127 5.482019968429753 5.522825300968984
9.57877457100803 2.10009632263037 3.5568925824804234 3.921785665897238
6.455310113598976 1.6905853953720251 2.1421739173616867 2.6225508008652665
4.113874618825387 1.3561645350628406 1.1575770101596743 1.6001330736028718
2.4179420496210637 1.0638132886157694 0.5153892633188641 0.8387394976864295
1.2867846291010778 0.8246952982727758 0.15713940473689222 0.30494992609141003
0.608217427258263 0.5541227857297646 0.01727372065575417 0.03682092087274405
0.26285910704303334 0.26278349730590567 2.391736652330572e-05 5.1692370604329335e-05
0.08357125987634917 0.08357125987634917 0.0 0.0
0.012724699887887478 0.012724699887887478 0.0 0.0
0.0005172409923893931 0.0005172409923893931 0.0 0.0
CELL_DATA 800
SCALARS Stress float 6
LOOKUP_TABLE default
140.16487309136275 -500.03632444570644 -184.7929670195155 -104.42892642149356 0.0 0.0
392.4935106998724 -6.767726242732888 120.93636666971892 62.36128587579441 0.0 0.0
373.2365970735732 2.7651559195204825 112.60433989302338 -6.533799769916254 0.0 0.0
435.44324955778734 -4.911235744999258 129.70428882558662 -12.173166595561774 0.0 0.0
505.71960362118205 -10.608080918121798 165.16950393024956 -10.82819698010578 0.0 0.0
572.2421906866778 -0.52381772164102 226.9007142000517 -9.112534818060603 0.0 0.0
635.8959263427353 8.5891557331997 287.38547270506274 -9.096710036096878 0.0 0.0
699.1313750592184 26.15315138361675 344.37372936206776 -9.887275046962221 0.0 0.0
762.8097975549189 49.66128067574121 396.7880984357914 -10.85455745059313 0.0 0.0
827.2950084674553 77.60994562242416 447.0114750304572 -11.51043974959869 0.0 0.0
892.383676034209 108.16233995592177 496.4717657411923 -11.794688837611892 0.0 0.0
958.0248277518168 141.35290800358928 546.5630593706884 -11.731168252814063 0.0 0.0
1024.6633341740305 175.49047772313435 597.2441663161167 -11.578606617428559 0.0 0.0
1092.8740905824784 211.2584805936969 649.3603273216919 -11.420833537411127 0.0 0.0
1163.3771638112607 250.12226851370167 704.1047211335924 -11.185409738247198 0.0 0.0
1235.6324996880503 292.4538826949939 761.445431617695 -10.701701532316825 0.0 0.0
1307.1878646056084 337.18099924536205 819.6262264982472 -9.786327336774448 0.0 0.0
1373.9243703737018 381.57194763117997 875.18761985116 -8.295129090768985 0.0 0.0
1431.2007795860886 422.2929447015298 924.1123434715049 -6.681385547196036 0.0 0.0
1486.025125519416 468.2069287371123 974.0182610188231 -7.007439491788294 0.0 0.0
1486.0251255194776 468.2069287371865 974.0182610188601 7.007439491825724 0.0 0.0
1431.2007795855345 422.2929447010007 924.1123434710911 6.681385547250043 0.0 0.0
1373.9243703730233 381.571947630541 875.1876198506292 8.295129090768402 0.0 0.0
1307.1878646049047 337.18099924471994 819.6262264976683 9.786327336806458 0.0 0.0
1235.6324996871956 292.4538826942094 761.4454316170275 10.701701532318495 0.0 0.0
1163.3771638112082 250.122268513744 704.1047211335027 11.185409738267348 0.0 0.0
1092.8740905821996 211.25848059352785 649.3603273214626 11.420833537428724 0.0 0.0
1024.6633341739398 175.49047772317778 597.2441663160238 11.578606617411461 0.0 0.0
958.0248277512076 141.3529080031449 546.5630593701949 11.731168252829033 0.0 0.0
892.3836760336844 108.16233995557648 496.4717657407545 11.794688837549051 0.0 0.0
827.2950084672751 77.60994562243557 447.0114750302571 11.510439749543952 0.0 0.0
762.8097975545912 49.66128067561989 396.78809843550204 10.854557450574399 0.0 0.0
699.1313750587489 26.15315138335953 344.37372936168686 9.887275046978361 0.0 0.0
635.8959263427994 8.589155733541254 287.385472704992 9.096710036083104 0.0 0.0
572.2421906866389 -0.5238177213920814 226.90071419991736 9.112534818059643 0.0 0.0
505.7196036209155 -10.608080918149732 165.16950393006755 10.828196980119982 0.0 0.0
435.44324955754297 -4.911235744929017 129.70428882554228 12.173166595507166 0.0 0.0
373.23659707346127 2.7651559196093203 112.60433989301956 6.533799769887769 0.0 0.0
392.4935106998399 -6.767726242648321 120.93636666970207 -62.36128587575103 0.0 0.0
140.16487309189066 -500.0363244452063 -184.79296701899915 104.42892642106776 0.0 0.0
47.56988805436953 -528.7589946356613 -236.6419954958693 -144.1675918861708 0.0 0.0
236.26534850067574 4.129837719921212 72.1185558661791 14.7435710530262 0.0 0.0
328.4001759720245 19.000640908221527 104.21975493774588 -10.27020447037636 0.0 0.0
392.4312331238812 -2.629399399642791 116.8811448406518 -31.65509072268033 0.0 0.0
474.905219694891 -12.239866112586405 146.21325576027886 -31.155540081820316 0.0 0.0
546.3198281532718 -2.398631415521068 204.88650505330193 -27.382895202207486 0.0 0.0
614.7100819621567 6.41342173746607 267.9971618938635 -27.666658792873672 0.0 0.0
678.9036349030678 22.76517713039033 327.3197259402285 -28.825101804672588 0.0 0.0
741.3253222114781 44.48603889118275 380.41445513367 -30.18118323674565 0.0 0.0
803.257274654993 70.06051391697972 429.53255892316304 -30.929390681961426 0.0 0.0
864.9727797810167 97.89687416486052 476.7024099072695 -30.87764791992615 0.0 0.0
926.7692865904687 126.72974808660364 523.0719357143929 -30.250790418274008 0.0 0.0
988.7510890258156 157.0930445968773 569.708578851599 -29.44735293494358 0.0 0.0
1052.3648179306833 188.95412677862694 617.6621645910463 -28.74311309987255 0.0 0.0
1118.0544489832316 223.34440371265717 667.8241039640355 -27.960982936303264 0.0 0.0
1185.1603565115533 260.8096981409566 720.1960022260447 -26.6672192834124 0.0 0.0
1251.6731755051176 300.56036640510285 773.3880282586297 -24.489596478649133 0.0 0.0
1314.529145582254 340.9022596646839 824.9911671375231 -21.28277582600098 0.0 0.0
1372.736609488456 382.4147590990052 874.6943919163323 -17.560599716690167 0.0 0.0
1413.1441411010278 413.37629558264643 910.1837821634206 -12.339832019441225 0.0 0.0
1413.144141101018 413.3762955826486 910.1837821633779 12.339832019449863 0.0 0.0
1372.7366094884155 382.41475909899094 874.6943919162745 17.56059971671239 0.0 0.0
1314.529145582084 340.90225966455836 824.9911671373278 21.282775826045924 0.0 0.0
1251.6731755047977 300.56036640484336 773.3880282582718 24.489596478697464 0.0 0.0
1185.16035651188 260.8096981413747 720.1960022261741 26.667219283477486 0.0 0.0
1118.0544489833014 223.344403712823 667.8241039639857 27.960982936342212 0.0 0.0
1052.3648179305087 188.95412677856376 617.6621645908252 28.74311309989836 0.0 0.0
988.7510890253895 157.09304459658387 569.7085788512558 29.447352934961472 0.0 0.0
926.7692865900475 126.72974808635149 523.0719357140872 30.25079041828215 0.0 0.0
864.9727797808135 97.89687416483713 476.7024099071197 30.8776479199273 0.0 0.0
803.257274655029 70.06051391721478 429.53255892311506 30.92939068188949 0.0 0.0
741.3253222115839 44.48603889150788 380.41445513367216 30.181183236741283 0.0 0.0
678.9036349027431 22.765177130286453 327.3197259399222 28.825101804623657 0.0 0.0
614.7100819617681 6.413421737312319 267.9971618934934 27.666658792832685 0.0 0.0
546.3198281528569 -2.398631415686072 204.88650505295908 27.38289520208233 0.0 0.0
474.90521969471627 -12.239866112482105 146.2132557601966 31.155540081749177 0.0 0.0
392.4312331235858 -2.629399399759818 116.88114484053666 31.655090722638818 0.0 0.0
328.40017597191525 19.00064090815171 104.21975493769254 10.270204470399634 0.0 0.0
236.26534850079918 4.129837720132706 72.11855586627955 -14.743571053077442 0.0 0.0
47.56988805466821 -528.7589946353057 -236.64199549549804 144.16759188593818 0.0 0.0
5.603861277938535 -527.1172232061665 -246.49970052087752 -157.9446683221254 0.0 0.0
138.37032783262356 -1.4057723191944476 41.08936665402874 -36.94903816138197 0.0 0.0
267.50223876447956 25.54138840542724 87.91308815097203 -29.778260120691616 0.0 0.0
347.3175270798827 2.4998486013389467 104.93196671705027 -49.68149082494104 0.0 0.0
433.7802032705187 -9.418889741029908 129.52581171456688 -53.343835265319626 0.0 0.0
518.0820240453708 -7.609165164068431 179.45286738564238 -48.30317696871716 0.0 0.0
588.9617507453013 5.277738108294312 245.5918896106391 -46.5264953259977 0.0 0.0
654.0350889664307 19.286883891420644 306.46433116224995 -47.752370822173994 0.0 0.0
716.0795119835935 39.322523938974356 361.07493219629487 -49.172046863873874 0.0 0.0
775.7173672781535 62.3747313878938 409.5852237362897 -49.795543840338745 0.0 0.0
834.0835302518924 86.94760662972631 454.4763229580409 -49.38500528718326 0.0 0.0
891.5972451519258 112.4196891560776 497.5683851706965 -48.16982452236291 0.0 0.0
949.7015752908651 138.41823090818482 540.3520233745561 -46.889582858982756 0.0 0.0
1008.7194315831957 166.37021269007823 584.1991623971395 -45.69476534044284 0.0 0.0
1069.3274972226961 196.18375217796842 629.6071074651418 -44.408127168957805 0.0 0.0
1131.1636360284808 228.46194118425976 676.7956564988834 -42.44591924733356 0.0 0.0
1192.6569634348944 263.0516516388856 724.9164133249168 -39.27992543644732 0.0 0.0
1252.6729247504904 300.2332428439077 773.5145523027657 -34.65145878946927 0.0 0.0
1306.3365703270852 336.58794948044147 818.4232291994009 -28.055538127724994 0.0 0.0
1341.9904689677533 361.8415671153996 848.7433285787563 -17.260938587048688 0.0 0.0
1341.9904689673199 361.8415671149775 848.7433285784672 17.260938587107802 0.0 0.0
1306.3365703267684 336.5879494801545 818.4232291991497 28.055538127822704 0.0 0.0
1252.6729247499861 300.2332428434547 773.5145523023457 34.651458789581696 0.0 0.0
1192.656963434488 263.0516516385478 724.9164133245582 39.27992543652784 0.0 0.0
1131.16363602785 228.46194118369607 676.7956564983405 42.44591924733513 0.0 0.0
1069.3274972226077 196.18375217796654 629.6071074650098 44.408127168950784 0.0 0.0
1008.7194315830097 166.37021268999166 584.1991623969617 45.69476534041168 0.0 0.0
949.7015752908383 138.41823090829257 540.352023374432 46.88958285898015 0.0 0.0
891.5972451519436 112.41968915625479 497.56838517059174 48.169824522337464 0.0 0.0
834.0835302513025 86.947606629311 454.47632295757836 49.38500528720948 0.0 0.0
775.717367277509 62.374731387416624 409.5852237358062 49.79554384027972 0.0 0.0
716.0795119833826 39.32252393897193 361.0749321960825 49.17204686385504 0.0 0.0
654.0350889657616 19.28688389094517 306.4643311617114 47.752370822090526 0.0 0.0
588.9617507447878 5.277738108008872 245.59188961019916 46.52649532592963 0.0 0.0
518.0820240450034 -7.609165164159172 179.4528673853631 48.30317696869457 0.0 0.0
433.78020327028054 -9.418889740961237 129.52581171449884 53.34383526525306 0.0 0.0
347.3175270796803 2.499848601311143 104.93196671698385 49.6814908248405 0.0 0.0
267.5022387644277 25.54138840532569 87.913088150926 29.7782601205507 0.0 0.0
138.37032783276078 -1.4057723189526552 41.089366654142424 36.94903816118554 0.0 0.0
5.603861278142844 -527.117223205814 -246.49970052053504 157.944668322018 0.0 0.0
-8.710896886294975 -508.5408583793765 -233.3093461890584 -160.72398300449228 0.0 0.0
81.63756557528272 -12.166459491842705 20.841331825031997 -80.76484332285627 0.0 0.0
208.89191073296718 26.270255951248664 70.54865000526473 -56.14275823811594 0.0 0.0
298.30562131566035 6.585873469398219 91.45938361889871 -68.94463322241373 0.0 0.0
383.4703210287784 -5.925228267576094 113.57617779217993 -76.34365218101402 0.0 0.0
476.0677368137333 -9.823642214696127 153.89042847365695 -71.47891618400648 0.0 0.0
555.4393176215121 2.0907691819499643 217.54210919634565 -66.41744964519923 0.0 0.0
624.2123901779842 16.462619961663638 281.794805017414 -66.92571244484174 0.0 0.0
685.985551384365 33.956574779450776 337.68642747095896 -67.8474238209387 0.0 0.0
743.6966299037754 54.35740414021804 386.18305718940843 -68.15463434216853 0.0 0.0
798.9974812309139 75.81536400042202 429.4544057176037 -67.32799517532209 0.0 0.0
853.0387774668652 97.72004672941145 469.83990731792335 -65.60519947158724 0.0 0.0
906.5654714010786 119.90533071464276 508.8395959846905 -63.85026500743787 0.0 0.0
961.5096262015745 143.6374526285189 548.7657911718999 -62.31596848157148 0.0 0.0
1017.2806936091845 168.65599614790847 589.4831487309924 -60.58641154017197 0.0 0.0
1073.2321844530197 195.68568077181635 631.155258029735 -58.054645450274805 0.0 0.0
1129.9806320679613 225.239513388818 674.4069614809077 -54.211387503709375 0.0 0.0
1185.7719642644622 257.4716197810443 718.4497873038466 -48.233071595349145 0.0 0.0
1235.6663064929207 288.8281573251095 759.0205267821015 -38.62887612297819 0.0 0.0
1269.454980027068 310.6005681213094 786.6948546178687 -22.507523126147387 0.0 0.0
1269.4549800270652 310.60056812131427 786.6948546178531 22.507523126182782 0.0 0.0
1235.6663064923027 288.8281573245424 759.0205267816108 38.62887612316454 0.0 0.0
1185.7719642640236 257.4716197806749 718.4497873034817 48.233071595508 0.0 0.0
1129.9806320674704 225.239513388391 674.4069614805188 54.21138750376204 0.0 0.0
1073.2321844528308 195.68568077170235 631.1552580295429 58.05464545030105 0.0 0.0
1017.2806936084875 168.6559961472974 589.4831487304293 60.58641154018109 0.0 0.0
961.5096262009309 143.6374526279596 548.7657911713869 62.315968481543464 0.0 0.0
906.5654714007292 119.90533071442414 508.83959598441453 63.85026500745609 0.0 0.0
853.038777466669 97.72004672934354 469.83990731776737 65.60519947151599 0.0 0.0
798.9974812305348 75.81536400024244 429.4544057173199 67.32799517539388 0.0 0.0
743.6966299036233 54.35740414025686 386.18305718924006 68.15463434212711 0.0 0.0
685.9855513840799 33.95657477937816 337.6864274706777 67.84742382090921 0.0 0.0
624.2123901779405 16.462619961891065 281.79480501727824 66.92571244482369 0.0 0.0
555.4393176211141 2.0907691818656247 217.54210919600933 66.41744964523396 0.0 0.0
476.0677368133455 -9.82364221473313 153.89042847343282 71.4789161839644 0.0 0.0
383.47032102846634 -5.925228267523522 113.57617779211336 76.34365218096153 0.0 0.0
298.30562131542996 6.585873469280595 91.45938361879566 68.94463322232163 0.0 0.0
208.89191073292713 26.270255951133905 70.54865000521829 56.14275823798783 0.0 0.0
81.63756557538011 -12.166459491654553 20.841331825117667 80.76484332263847 0.0 0.0
-8.710896886150834 -508.54085837906035 -233.30934618874036 160.72398300435535 0.0 0.0
-9.9909093170306 -480.1853166282432 -208.3699440242903 -159.29004991538787 0.0 0.0
47.39014360887451 -22.664525640122474 7.417685390625609 -114.60350440077487 0.0 0.0
157.34989150342554 23.420504579365947 54.231118824837445 -83.35601559019818 0.0 0.0
246.73749622982945 9.699985402777013 76.93124448978193 -89.19756043139598 0.0 0.0
328.02943856970455 -1.9060027033460927 97.81033531231927 -97.84620290789645 0.0 0.0
422.7300969487869 -9.781980820898301 129.5055348934437 -96.89380061612843 0.0 0.0
513.7826706847854 -2.3485521701554806 185.51124519893335 -89.23775260681265 0.0 0.0
587.8346160798565 13.2996295045858 251.71292296196026 -86.17384640865336 0.0 0.0
649.9691325739568 28.615241843146585 309.3013007176598 -86.398308496874 0.0 0.0
706.4360346011102 46.08453961750044 358.4428896078701 -86.1006070965984 0.0 0.0
759.1909651944103 64.3942441683097 400.8544555183356 -84.79342818735265 0.0 0.0
809.572717836468 82.72350725898222 438.86371877792715 -82.55396422344434 0.0 0.0
859.4263441666981 101.28033109232055 474.93017892556173 -80.46571656244829 0.0 0.0
909.3390787115222 120.84998081428014 510.6257568188282 -78.54831657582228 0.0 0.0
960.1131159044389 141.18205225341438 546.6856756612204 -76.47263379162459 0.0 0.0
1011.5754519262318 162.89546416940797 583.5558832691318 -73.61981339007227 0.0 0.0
1062.5015263350501 186.74298977987203 621.0883994440356 -69.22648549734112 0.0 0.0
1113.2519867386782 213.0970394317117 659.7109653887424 -62.07137893225965 0.0 0.0
1159.9500645652572 239.35962616803513 696.1842372207716 -49.68778948671549 0.0 0.0
1193.5963924601015 258.52499153623774 722.5008126631164 -28.483436605233127 0.0 0.0
1193.596392459977 258.5249915361326 722.5008126630192 28.48343660531849 0.0 0.0
1159.9500645651924 239.35962616802973 696.1842372207766 49.68778948688328 0.0 0.0
1113.251986738332 213.097039431443 659.7109653885433 62.071378932435195 0.0 0.0
1062.5015263346738 186.7429897795678 621.08839944377 69.22648549742308 0.0 0.0
1011.5754519257248 162.8954641689877 583.5558832687249 73.61981339013761 0.0 0.0
960.1131159039464 141.18205225301358 546.6856756608431 76.47263379165662 0.0 0.0
909.3390787111964 120.8499808140586 510.6257568185422 78.54831657584316 0.0 0.0
859.426344166476 101.28033109221788 474.9301789253836 80.46571656243874 0.0 0.0
809.5727178365181 82.72350725920703 438.8637187778745 82.5539642234971 0.0 0.0
759.1909651944351 64.39424416856934 400.854455518286 84.79342818745074 0.0 0.0
706.436034600992 46.0845396175943 358.44288960771564 86.10060709656722 0.0 0.0
649.9691325737632 28.615241843194134 309.3013007174491 86.39830849689591 0.0 0.0
587.8346160794101 13.299629504388456 251.71292296156327 86.17384640861138 0.0 0.0
513.7826706844216 -2.348552170196413 185.51124519863748 89.23775260677183 0.0 0.0
422.730096948585 -9.781980820698703 129.50553489338344 96.89380061601952 0.0 0.0
328.02943856951623 -1.9060027031636286 97.81033531232505 97.84620290781619 0.0 0.0
246.7374962297123 9.699985402848807 76.93124448976832 89.1975604312679 0.0 0.0
157.3498915034437 23.420504579422524 54.23111882485986 83.35601559003165 0.0 0.0
47.390143608991934 -22.664525639876942 7.417685390734498 114.60350440061261 0.0 0.0
-9.990909316935273 -480.1853166278728 -208.3699440239716 159.29004991532616 0.0 0.0
-5.678753679837634 -445.465493607398 -178.24345294144692 -156.2640289593391 0.0 0.0
24.61480129688594 -31.529790479070783 -2.074496754655451 -139.40466294184995 0.0 0.0
112.62669482108824 18.864506049598962 39.44736026120615 -108.13201915273933 0.0 0.0
194.81070021829555 12.229467762804784 62.1120503943301 -108.90931373310252 0.0 0.0
269.88148459496 0.45318358988881435 81.05784227811017 -118.05991471395518 0.0 0.0
354.196099132278 -7.451294135902673 106.08537398172895 -121.43806756213063 0.0 0.0
453.11318239205957 -4.697200141604448 151.63162643679738 -115.22579858021629 0.0 0.0
538.5222921777546 8.070952931917844 213.7241635217894 -107.6269329444842 0.0 0.0
606.2643801255316 23.026733157046465 274.3299206395163 -105.07881044348888 0.0 0.0
662.3903032594526 37.70932290650231 324.76090611125846 -103.76946154921347 0.0 0.0
712.7429251408386 52.51839450897389 366.8461527787035 -101.82765542296588 0.0 0.0
760.2165472691062 67.49701565401944 403.61803935486785 -99.15458770153487 0.0 0.0
806.1949964269135 82.62684425582609 437.2295935065209 -96.67680149830844 0.0 0.0
851.8815889422345 98.01301300320942 469.4239921864148 -94.54579747427859 0.0 0.0
897.7954539106756 113.63380401534481 501.0537847566539 -92.23111336491448 0.0 0.0
943.4122933866375 130.49312783429073 532.7273740640602 -89.00210343900278 0.0 0.0
989.1891067569837 148.08961268054827 564.6529804026628 -84.31495405555833 0.0 0.0
1034.2680110168162 167.2780806181588 596.9264412186715 -76.29493903651635 0.0 0.0
1077.4175506070735 187.88549538345993 628.856842302672 -61.56443613321831 0.0 0.0
1112.3055270628658 204.731087671671 654.6539928850775 -35.620859449707474 0.0 0.0
1112.3055270628288 204.73108767166013 654.6539928850748 35.62085944981531 0.0 0.0
1077.4175506067468 187.88549538319577 628.8568423024374 61.564436133386614 0.0 0.0
1034.2680110165768 167.2780806180268 596.9264412184486 76.29493903674617 0.0 0.0
989.1891067572606 148.0896126809289 564.6529804027676 84.31495405567972 0.0 0.0
943.4122933863016 130.49312783404045 532.727374063778 89.00210343903248 0.0 0.0
897.7954539101734 113.6338040149339 501.0537847562588 92.23111336495471 0.0 0.0
851.8815889420167 98.01301300313735 469.4239921862246 94.54579747435574 0.0 0.0
806.1949964266046 82.62684425567026 437.2295935062653 96.67680149837908 0.0 0.0
760.2165472690376 67.49701565411843 403.6180393547749 99.15458770155807 0.0 0.0
712.7429251405747 52.5183945088838 366.8461527784442 101.8276554229449 0.0 0.0
662.3903032591895 37.709322906427545 324.76090611098886 103.7694615491675 0.0 0.0
606.2643801254297 23.026733157228545 274.32992063935967 105.07881044351186 0.0 0.0
538.5222921773859 8.07095293186746 213.72416352147593 107.62693294448596 0.0 0.0
453.11318239173625 -4.69720014143596 151.6316264366261 115.22579858025911 0.0 0.0
354.1960991322693 -7.451294135344798 106.0853739818738 121.43806756202794 0.0 0.0
269.8814845948053 0.45318359009818376 81.05784227812839 118.05991471380622 0.0 0.0
194.8107002181696 12.2294677627386 62.11205039427246 108.90931373291889 0.0 0.0
112.62669482108342 18.864506049651805 39.44736026122056 108.13201915256425 0.0 0.0
24.614801296954262 -31.529790478925598 -2.074496754591401 139.40466294168127 0.0 0.0
-5.678753679783441 -445.46549360708997 -178.2434529411774 156.26402895924747 0.0 0.0
-0.06510962386209229 -405.49923262164975 -146.65314183696415 -152.3896138064878 0.0 0.0
6.839255056805744 -39.79314872044891 -9.886168099092952 -156.72759718091336 0.0 0.0
73.14508390982982 14.193696994881625 26.201634271413432 -128.992046069049 0.0 0.0
143.9232404240822 14.21016671450818 47.4400221415771 -126.9792215046323 0.0 0.0
209.14439562456286 2.357868127487875 63.441995650711526 -136.1504073622475 0.0 0.0
281.99211477529394 -4.58593455567905 83.6112242105705 -143.6709692772 0.0 0.0
374.95556001396085 -4.6445035038411815 117.7336834225127 -141.8832922185625 0.0 0.0
469.55113401759263 3.2786232326587106 169.93432738141854 -132.61737405983158 0.0 0.0
547.2771280407567 16.03517904965287 229.10426099126948 -125.25789105333683 0.0 0.0
607.9083981798935 29.13702716493073 282.2322585260067 -121.51203751935665 0.0 0.0
656.924467813898 40.27884866042086 324.6944440846796 -118.64045663091916 0.0 0.0
702.0901330540141 52.03255835360611 361.3781639815578 -115.47230785526537 0.0 0.0
744.6928676312951 63.63268344963299 393.5773658998163 -112.68259529970146 0.0 0.0
786.0842432573254 75.356463644625 423.1796301131378 -110.29376202130075 0.0 0.0
826.5710450158729 86.24837107539753 450.52360615090777 -107.84222394785601 0.0 0.0
867.7770178411708 98.166521927579 477.8974133320668 -104.50646195594861 0.0 0.0
907.6458759135462 109.8437660242986 504.08550062695986 -99.34133574536368 0.0 0.0
945.9257556523693 120.9694460854459 529.0661786594827 -90.81357007188288 0.0 0.0
985.2440595133862 133.74026368557588 555.2701798997783 -74.66394283152226 0.0 0.0
1022.9543970036519 148.08615824623888 581.2711435295867 -44.586264463688245 0.0 0.0
1022.9543970039235 148.0861582465634 581.2711435297807 44.58626446384461 0.0 0.0
985.2440595139913 133.74026368629484 555.2701799002236 74.6639428318243 0.0 0.0
945.9257556525517 120.96944608583499 529.0661786596252 90.81357007224557 0.0 0.0
907.6458759132228 109.84376602405356 504.0855006267228 99.34133574543189 0.0 0.0
867.7770178410572 98.16652192752856 477.8974133319673 104.50646195592768 0.0 0.0
826.5710450155207 86.24837107514041 450.52360615070455 107.8422239478717 0.0 0.0
786.0842432571284 75.35646364453908 423.1796301130039 110.29376202134412 0.0 0.0
744.6928676309831 63.63268344948721 393.57736589955937 112.6825952998144 0.0 0.0
702.0901330539231 52.032558353703685 361.3781639814151 115.47230785530049 0.0 0.0
656.9244678139039 40.27884866065408 324.69444408463386 118.64045663095516 0.0 0.0
607.9083981795196 29.13702716478265 282.2322585256747 121.51203751933431 0.0 0.0
547.277128040717 16.03517904997101 229.1042609911816 125.25789105337421 0.0 0.0
469.55113401733735 3.278623232843028 169.93432738123673 132.61737405987137 0.0 0.0
374.95556001349325 -4.644503503875506 117.73368342231026 141.8832922185542 0.0 0.0
281.9921147749499 -4.585934555881175 83.61122421040531 143.67096927702067 0.0 0.0
209.14439562424366 2.357868127273476 63.4419956505582 136.15040736207933 0.0 0.0
143.9232404240523 14.210166714580772 47.44002214158992 126.97922150450846 0.0 0.0
73.1450839098485 14.193696995017733 26.201634271459863 128.99204606886326 0.0 0.0
6.839255056784928 -39.79314872039074 -9.886168099081742 156.72759718072763 0.0 0.0
-0.0651096238302884 -405.49923262133416 -146.65314183673695 152.38961380639 0.0 0.0
1.9407791704053992 -361.9756534884074 -118.81695885643259 -148.08099688072582 0.0 0.0
-9.793584165562113 -47.42784458828195 -17.166412133531686 -167.1930147510908 0.0 0.0
37.636742133073284 10.393022415893757 14.408929364690112 -145.8052350659463 0.0 0.0
94.49251091770394 15.423014415198178 32.97465759987063 -142.41714207059186 0.0 0.0
147.18877975935143 5.160107699250072 45.69794708510029 -151.061522934268 0.0 0.0
203.17516276809096 -2.621297301791185 60.33132815758681 -161.94787080390034 0.0 0.0
277.0802679954473 -2.801492672723678 84.48281030046778 -166.066692715052 0.0 0.0
373.1938113762941 1.1666664910110418 123.07870657882901 -160.31391144575542 0.0 0.0
462.20630245317983 8.381477746939936 172.64907703028985 -149.4907391310264 0.0 0.0
531.3570363208078 19.56282425075957 224.92548320068005 -140.5191705614311 0.0 0.0
584.9279421129827 27.647940337135893 268.9787712696876 -136.0783791487948 0.0 0.0
628.2474432171332 35.894827750798335 305.9708303197705 -131.78180208946875 0.0 0.0
668.3160054100982 44.60456747031226 338.54375715630323 -128.60620329975376 0.0 0.0
705.9567002245943 52.50596346436292 367.000659774069 -125.98669469837445 0.0 0.0
742.2540526868768 59.48713751838828 392.2259465672631 -123.49108331000814 0.0 0.0
777.5720831017388 65.78705282788755 414.94353442017194 -120.11738052102515 0.0 0.0
813.3589227824498 72.13411970236484 436.9140646764837 -114.60728864997219 0.0 0.0
845.5380773195291 75.47192908786396 455.3301065680823 -105.38566043216821 0.0 0.0
876.9080908927338 76.78115288084734 472.1266280218765 -88.90602588446002 0.0 0.0
917.7050248680491 86.59561310840019 497.4660563885673 -56.26072244643014 0.0 0.0
917.705024867668 86.59561310808314 497.4660563883589 56.26072244668077 0.0 0.0
876.9080908924882 76.78115288073144 472.1266280217323 88.90602588475876 0.0 0.0
845.5380773189704 75.47192908743898 455.3301065676905 105.38566043236374 0.0 0.0
813.3589227813983 72.13411970132555 436.9140646757078 114.60728864998478 0.0 0.0
777.5720831015306 65.78705282774973 414.9435344199334 120.1173805210473 0.0 0.0
742.254052686693 59.487137518297956 392.2259465670834 123.49108331003102 0.0 0.0
705.956700224944 52.505963464962164 367.0006597742874 125.9866946985674 0.0 0.0
668.3160054102742 44.604567470680145 338.54375715639867 128.60620329982743 0.0 0.0
628.2474432167264 35.89482775049913 305.97083031946363 131.78180208944391 0.0 0.0
584.9279421122361 27.647940336452393 268.97877126910583 136.078379148708 0.0 0.0
531.3570363197822 19.562824249667077 224.92548319989393 140.51917056121636 0.0 0.0
462.20630245255484 8.381477746515337 172.64907702986199 149.49073913101276 0.0 0.0
373.19381137574925 1.1666664907890745 123.07870657854106 160.31391144576074 0.0 0.0
277.0802679950792 -2.801492672696199 84.48281030035378 166.06669271497637 0.0 0.0
203.1751627678667 -2.6212973019156234 60.33132815748101 161.94787080369898 0.0 0.0
147.18877975925142 5.160107699394609 45.69794708511472 151.06152293410395 0.0 0.0
94.49251091778721 15.423014415477867 32.97465759997952 142.4171420703954 0.0 0.0
37.636742133057005 10.393022415966081 14.408929364706923 145.80523506574136 0.0 0.0
-9.793584165597021 -47.42784458824167 -17.166412133530116 167.19301475095048 0.0 0.0
1.940779170372668 -361.975653488058 -118.81695885627217 148.0809968806343 0.0 0.0
-5.007161622106377 -316.22181844238236 -99.412440982222 -141.05305225965827 0.0 0.0
-26.32848591658535 -54.135360462645224 -24.138186168236373 -173.88543164152443 0.0 0.0
5.209012030463306 7.711537208091567 3.876164771566461 -158.344470763497 0.0 0.0
46.68987821713522 16.092654518028603 18.833646097048714 -154.5551970451804 0.0 0.0
84.62363245780608 8.286043710824913 27.869831875747792 -162.18412322314765 0.0 0.0
122.04808779913763 0.40377738558079734 36.74139285500499 -175.15913983039172 0.0 0.0
168.5642921264708 -1.7390635328977488 50.91200517556544 -184.34784712165919 0.0 0.0
234.80607486157683 0.950931992204044 74.02643969879274 -184.4306988629952 0.0 0.0
323.21234172150633 4.624354868991881 107.45105046184483 -177.616788379863 0.0 0.0
406.8139457603811 8.73922367038807 147.54896622179913 -164.94552352906473 0.0 0.0
470.9363988533432 15.355997549447427 189.00120212966925 -155.36695469848723 0.0 0.0
517.8010237200219 19.2284508495138 224.4512789597466 -149.50018767284593 0.0 0.0
557.9688875270082 25.055207821291145 257.57852832042323 -145.30799410424285 0.0 0.0
593.4693536963696 29.72859935918293 287.0051803717143 -141.9907020656026 0.0 0.0
625.6218414336695 32.84008718478894 312.2014745987265 -139.16091496244476 0.0 0.0
655.9186123832188 34.07774677308701 333.248076962127 -135.89003475006828 0.0 0.0
687.0464428884254 33.623238159024396 351.5895492020919 -130.37909049148453 0.0 0.0
720.0530873689293 32.468983101290576 369.35852284050094 -120.02393943990698 0.0 0.0
743.2123079787225 19.086675328871507 376.05253204324356 -103.60802727976169 0.0 0.0
783.3603914481484 15.764451892374112 394.6992225197663 -71.79997432326518 0.0 0.0
783.3603914481606 15.764451892478007 394.6992225198048 71.79997432347672 0.0 0.0
743.2123079788402 19.08667532920299 376.0525320433636 103.60802728018521 0.0 0.0
720.0530873683198 32.46898310081244 369.3585228400886 120.02393944016222 0.0 0.0
687.0464428882976 33.62323815904962 351.5895492019763 130.37909049162153 0.0 0.0
655.9186123830186 34.07774677290833 333.24807696192164 135.89003475005407 0.0 0.0
625.621841433696 32.840087184897044 312.2014745987089 139.16091496249663 0.0 0.0
593.4693536959925 29.728599358961965 287.0051803714868 141.99070206569596 0.0 0.0
557.9688875265034 25.055207820743895 257.5785283200397 145.30799410426005 0.0 0.0
517.8010237198988 19.22845084958782 224.45127895960127 149.50018767289572 0.0 0.0
470.9363988533549 15.35599754980436 189.0012021296474 155.36695469850002 0.0 0.0
406.81394576029396 8.739223670760456 147.54896622177745 164.94552352903676 0.0 0.0
323.2123417212529 4.624354869210656 107.45105046179599 177.61678837994654 0.0 0.0
234.80607486126877 0.9509319921818253 74.02643969867889 184.4306988629596 0.0 0.0
168.5642921261105 -1.7390635332223674 50.91200517535523 184.3478471215326 0.0 0.0
122.0480877991635 0.4037773858374951 36.74139285509017 175.15913983013763 0.0 0.0
84.62363245783126 8.286043711167505 27.869831875858797 162.18412322295953 0.0 0.0
46.689878217167866 16.092654518043684 18.83364609706344 154.5551970449844 0.0 0.0
5.209012030325061 7.711537207904216 3.8761647714687837 158.34447076329417 0.0 0.0
-26.328485916604112 -54.13536046265295 -24.13818616824459 173.88543164132494 0.0 0.0
-5.007161622162553 -316.2218184420839 -99.41244098212249 141.05305225946634 0.0 0.0
-14.116701545157897 -270.2349399672874 -85.35773160051463 -131.34645465706862 0.0 0.0
-40.92812721609198 -58.2272855572603 -29.744209748676443 -177.02970893090998 0.0 0.0
-24.928790418749422 5.541847614015319 -5.815930216513408 -166.87422513826039 0.0 0.0
0.5567632514070389 16.500148764190488 5.116843898810254 -162.8368581087128 0.0 0.0
22.07305367734299 11.230918764236794 9.98931716203888 -169.14741164863085 0.0 0.0
39.05465266926402 4.185282829729392 12.981184386998718 -182.12152954009747 0.0 0.0
56.19931831299593 0.378348577106276 17.237437239003796 -193.8664154312554 0.0 0.0
79.21679766496854 0.018184513120245605 24.582352499924752 -199.89674524628182 0.0 0.0
111.80803732080284 1.662422377027573 36.03129576078516 -195.87843363454948 0.0 0.0
151.91168398769807 2.525298649880664 50.134616423812595 -188.24082839371732 0.0 0.0
201.10151253716117 5.435095065584928 68.7978389404958 -177.02117379032282 0.0 0.0
247.9332185685583 5.518670313713734 87.52830042662048 -169.81618011526095 0.0 0.0
289.3428767085204 7.547083598783068 109.06705317301596 -164.13171912976196 0.0 0.0
329.74483220795867 9.637812530265506 132.88938844109862 -159.91821571873817 0.0 0.0
370.3634465099452 7.927216391695666 157.75738827431553 -156.0046254966781 0.0 0.0
407.85570289025225 3.3886398824220976 180.92841879324163 -151.84270616367164 0.0 0.0
445.6529405926573 -4.801437827233187 201.6089533365691 -146.20092734851713 0.0 0.0
491.8621785947768 -13.668604879675158 225.73185279791812 -136.70310466251627 0.0 0.0
542.1446642822393 -26.845071550302578 250.01853501006815 -117.2603874398623 0.0 0.0
566.4922795737709 -77.26494727714686 241.11616883301872 -89.4609301313827 0.0 0.0
566.4922795734319 -77.26494727744631 241.1161688328266 89.46093013163835 0.0 0.0
542.1446642819556 -26.845071550476675 250.01853500992138 117.2603874402883 0.0 0.0
491.8621785944852 -13.66860487997775 225.7318527977483 136.7031046628054 0.0 0.0
445.6529405928193 -4.801437826888417 201.6089533367219 146.20092734871872 0.0 0.0
407.8557028906651 3.3886398829424422 180.92841879350865 151.8427061636749 0.0 0.0
370.36344650972717 7.927216391450138 157.75738827416848 156.00462549671846 0.0 0.0
329.7448322078634 9.637812530123405 132.88938844099616 159.91821571880396 0.0 0.0
289.34287670881406 7.547083599271527 109.06705317321207 164.13171912990813 0.0 0.0
247.9332185687769 5.518670314158072 87.5283004267971 169.81618011528036 0.0 0.0
201.1015125370979 5.435095065570625 68.79783894044849 177.02117379028743 0.0 0.0
151.9116839873665 2.5252986493392537 50.13461642354065 188.2408283936144 0.0 0.0
111.80803732055224 1.6624223765735469 36.0312957605669 195.87843363460598 0.0 0.0
79.2167976649001 0.018184513079555487 24.58235249988819 199.8967452462371 0.0 0.0
56.19931831286035 0.378348576869473 17.237437238890454 193.86641543108698 0.0 0.0
39.05465266932601 4.185282829854083 12.981184387054915 182.12152953984918 0.0 0.0
22.0730536773886 11.230918764329804 9.989317162080667 169.14741164841652 0.0 0.0
0.5567632514335816 16.500148764115874 5.1168438987958735 162.83685810853567 0.0 0.0
-24.92879041874491 5.541847614101631 -5.8159302164862705 166.87422513811015 0.0 0.0
-40.9281272160856 -58.22728555724476 -29.7442097486706 177.02970893077443 0.0 0.0
-14.116701545212948 -270.23493996703047 -85.3577316004675 131.3464546569567 0.0 0.0
-21.38119851974229 -225.81090841215666 -74.15123155341195 -119.9805994600355 0.0 0.0
-52.84665511491755 -58.60964596153384 -33.43497117243983 -176.2151232657334 0.0 0.0
-53.017262164542416 3.5434823492325287 -14.84160613098814 -171.36463664190825 0.0 0.0
-43.96303273822521 16.644853501525784 -8.19487613729159 -167.0444531370582 0.0 0.0
-39.80952337523122 13.843230678447767 -7.7856024756165585 -171.52304065768203 0.0 0.0
-44.14271056037008 7.9317298876525895 -10.864355642682234 -183.16962471574556 0.0 0.0
-57.127039370516684 2.9926858253590476 -16.505716161829334 -193.95640508670232 0.0 0.0
-78.98663698815515 0.5004083879583066 -24.35679321389362 -199.9823189930712 0.0 0.0
-111.45210026697649 -1.7623855361983107 -35.94755845153051 -195.86849452493877 0.0 0.0
-151.65059325814383 -2.6166064041035675 -50.076096884417495 -188.2239302128943 0.0 0.0
-201.0623961699289 -5.132698140779905 -68.60221039664101 -177.02699881475746 0.0 0.0
-248.35991119114078 -4.766495251655137 -87.40765727564764 -169.63909002510863 0.0 0.0
-291.4288506234424 -6.638756305732237 -109.53785966837597 -163.76672906957782 0.0 0.0
-334.0271973589895 -9.689347855447316 -134.76374851591186 -159.56724684919465 0.0 0.0
-373.7638166004804 -14.112603318816973 -161.7739504392016 -156.75346906329 0.0 0.0
-400.7817729858101 -23.393161490788202 -186.44961126349685 -156.06059264080858 0.0 0.0
-401.2198407830948 -33.34974971389286 -200.20827715673445 -157.58281512436184 0.0 0.0
-350.2991684245754 -42.934669525647365 -193.86996279147075 -160.75126071985275 0.0 0.0
-186.6997097041735 -37.58320346769119 -122.22121410431505 -160.41335975944517 0.0 0.0
33.94117483285871 -162.9706179645695 -55.61029767044514 -118.16803119830001 0.0 0.0
33.941174832942124 -162.97061796442148 -55.610297670419556 118.16803119862223 0.0 0.0
-186.69970970409534 -37.58320346731769 -122.22121410420459 160.41335975988332 0.0 0.0
-350.29916842481475 -42.93466952615664 -193.869962791672 160.75126072021726 0.0 0.0
-401.21984078311164 -33.34974971409878 -200.20827715672738 157.58281512446808 0.0 0.0
-400.78177298546655 -23.393161490690005 -186.4496112633078 156.0605926407606 0.0 0.0
-373.7638165999735 -14.112603318434829 -161.77395043889055 156.75346906331205 0.0 0.0
-334.02719735866816 -9.689347855309315 -134.76374851569832 159.56724684922943 0.0 0.0
-291.42885062328764 -6.638756306328538 -109.53785966842695 163.76672906973246 0.0 0.0
-248.359911191023 -4.766495252561601 -87.4076572758373 169.63909002519938 0.0 0.0
-201.06239616972104 -5.132698141447317 -68.60221039675045 177.02699881475542 0.0 0.0
-151.65059325775027 -2.6166064042371993 -50.07609688432348 188.22393021285305 0.0 0.0
-111.4521002665055 -1.7623855358991936 -35.94755845128754 195.86849452495926 0.0 0.0
-78.98663698808207 0.5004083876473739 -24.35679321396108 199.98231899305296 0.0 0.0
-57.12703937032657 2.9926858253743247 -16.505716161764113 193.95640508662137 0.0 0.0
-44.14271056037268 7.931729887378307 -10.864355642766174 183.1696247155682 0.0 0.0
-39.80952337512001 13.843230678480955 -7.7856024755736035 171.52304065746532 0.0 0.0
-43.96303273802887 16.644853501815376 -8.194876137146075 167.04445313683036 0.0 0.0
-53.01726216452133 3.543482349233088 -14.84160613098203 171.36463664171063 0.0 0.0
-52.846655114856425 -58.60964596143415 -33.43497117239248 176.21512326565093 0.0 0.0
-21.381198519692084 -225.81090841190138 -74.15123155332188 119.98059945991298 0.0 0.0
-23.463714303585558 -183.68444901144574 -62.144448994509375 -107.74879806532263 0.0 0.0
-62.73307555321877 -56.26571154019419 -35.699292415384114 -171.55341742946246 0.0 0.0
-79.11950300814058 1.945777856483521 -23.151160644091004 -171.64000508618352 0.0 0.0
-86.90063042538182 16.389153789345972 -21.147709960363066 -167.07871037521844 0.0 0.0
-100.44217457367928 15.943201793055811 -25.343102867342456 -169.09316952371822 0.0 0.0
-126.20049196623074 11.031392442348507 -34.67721498745344 -177.60742537955286 0.0 0.0
-169.3255134139834 4.969738223157782 -50.1848180288205 -185.27443204746416 0.0 0.0
-234.563349436471 -0.4861719013510264 -73.81272174038129 -184.5661428057128 0.0 0.0
-322.8731100397146 -4.7474687179530175 -107.37363425653675 -177.6015941234094 0.0 0.0
-406.64211712374157 -8.763363947432591 -147.47798104558723 -164.9013833874116 0.0 0.0
-470.7842661188112 -15.128997201489867 -188.86916402206722 -155.2848198929354 0.0 0.0
-517.7028498018716 -18.568216615366595 -224.19375394624927 -149.1982652816648 0.0 0.0
-558.2005384922908 -24.045400624423337 -257.3197465485184 -144.58928122623172 0.0 0.0
-595.2375488495821 -30.117279585862235 -287.9975227905055 -141.2386104442659 0.0 0.0
-630.6383726733632 -38.762251923851764 -317.1667563957715 -140.01266941499676 0.0 0.0
-663.2591556463699 -50.974907979296134 -344.5272362783835 -141.9405497459843 0.0 0.0
-691.3198857991748 -68.1724630502823 -370.39994678906396 -148.29644097542575 0.0 0.0
-710.0244945410695 -89.24463786161945 -392.5150085666187 -159.20798753251583 0.0 0.0
-744.0012979841769 -143.46410057037633 -435.00509700898635 -168.99909316367567 0.0 0.0
-712.4513813406946 -201.42329570552823 -442.98911733020907 -173.67658663527453 0.0 0.0
-712.4513813406525 -201.4232957057263 -442.989117330268 173.67658663558024 0.0 0.0
-744.0012979844671 -143.4641005709508 -435.0050970092374 168.99909316400755 0.0 0.0
-710.024494541055 -89.24463786187079 -392.5150085666446 159.20798753282057 0.0 0.0
-691.3198857989759 -68.17246305025267 -370.39994678893805 148.29644097553114 0.0 0.0
-663.259155645861 -50.97490797887549 -344.5272362780448 141.94054974596867 0.0 0.0
-630.6383726729124 -38.76225192342481 -317.1667563954284 140.01266941495652 0.0 0.0
-595.2375488495585 -30.117279585948985 -287.9975227904077 141.23861044427036 0.0 0.0
-558.2005384919674 -24.04540062439183 -257.3197465483039 144.5892812263158 0.0 0.0
-517.702849801181 -18.568216614843394 -224.1937539457495 149.19826528160962 0.0 0.0
-470.78426611801905 -15.128997200788913 -188.86916402146488 155.28481989279297 0.0 0.0
-406.6421171229173 -8.763363947023574 -147.47798104507882 164.90138338738484 0.0 0.0
-322.8731100389598 -4.747468717743828 -107.37363425619631 177.6015941234429 0.0 0.0
-234.5633494360573 -0.4861719014588406 -73.81272174027087 184.5661428057628 0.0 0.0
-169.32551341345737 4.969738223545867 -50.184818028541116 185.2744320473659 0.0 0.0
-126.20049196604856 11.031392442331263 -34.67721498740328 177.60742537929426 0.0 0.0
-100.4421745735417 15.943201793015827 -25.343102867315125 169.0931695234783 0.0 0.0
-86.90063042520578 16.38915378944258 -21.147709960281844 167.078710375031 0.0 0.0
-79.11950300806436 1.9457778564770214 -23.151160644070558 171.64000508605827 0.0 0.0
-62.73307555316542 -56.26571154013518 -35.69929241535075 171.55341742936128 0.0 0.0
-23.46371430357808 -183.68444901129305 -62.144448994461335 107.7487980651817 0.0 0.0
-24.10937284421034 -144.75009425667093 -50.657840130264375 -95.29601745101398 0.0 0.0
-71.13135472892776 -51.50208530214809 -36.79003200932275 -162.9533012217696 0.0 0.0
-103.4987618127421 0.7435157094006724 -30.82362369038396 -167.69227071186052 0.0 0.0
-128.14952787259614 15.77160067364295 -33.70260657548097 -162.80174532728626 0.0 0.0
-159.52893064265473 17.03469711422875 -42.76831835001821 -161.9568652349241 0.0 0.0
-206.27571507415857 12.919971449294962 -58.27747333272817 -165.93916570231613 0.0 0.0
-277.3022664048188 5.8034235537026175 -83.71563548212434 -167.12926409884483 0.0 0.0
-372.85617577016484 -0.8848091185957188 -122.89455498021057 -160.55070632599092 0.0 0.0
-462.10884323316736 -8.48507624007644 -172.60567569051162 -149.42225742888587 0.0 0.0
-531.3500996017684 -19.593086592071923 -224.92488773778308 -140.44763048200872 0.0 0.0
-584.864963571773 -27.50579097785714 -268.92321217295887 -136.00468346967972 0.0 0.0
-628.080510707435 -35.37300482271994 -305.70655299005807 -131.4758196980706 0.0 0.0
-668.1985218568365 -43.65533408638538 -338.05016799722114 -127.77737991166578 0.0 0.0
-707.0310378333386 -52.51401467896524 -367.41185678991724 -124.86348606262086 0.0 0.0
-746.2729604191218 -63.80599486896056 -396.1077556831216 -123.78538835467135 0.0 0.0
-785.2608189176992 -79.29857658462014 -425.2498936046086 -125.97465634113577 0.0 0.0
-822.7920059797937 -100.0245927680151 -455.45428640868727 -132.72734643012075 0.0 0.0
-865.8018056909675 -135.68127812170377 -495.2621778242649 -141.7426422145575 0.0 0.0
-912.1745138428437 -189.22725506933511 -545.0258885855233 -150.53904342917417 0.0 0.0
-970.1168599322996 -292.9021377547405 -620.3543286507671 -159.237819096514 0.0 0.0
-970.1168599318516 -292.90213775444 -620.354328650601 159.2378190967772 0.0 0.0
-912.1745138423559 -189.22725506901025 -545.0258885852473 150.5390434294936 0.0 0.0
-865.8018056902083 -135.6812781211714 -495.26217782379035 141.7426422148636 0.0 0.0
-822.7920059795675 -100.02459276793755 -455.45428640849923 132.72734643025126 0.0 0.0
-785.2608189177159 -79.29857658477141 -425.2498936046058 125.97465634117644 0.0 0.0
-746.2729604191688 -63.80599486909506 -396.1077556831451 123.78538835464994 0.0 0.0
-707.0310378330081 -52.514014678798375 -367.4118567897004 124.86348606267583 0.0 0.0
-668.1985218564913 -43.655334086215255 -338.05016799694886 127.77737991173024 0.0 0.0
-628.0805107073032 -35.37300482290941 -305.70655298993154 131.47581969817747 0.0 0.0
-584.8649635717364 -27.50579097813837 -268.9232121728521 136.0046834696799 0.0 0.0
-531.3500996016787 -19.593086592438922 -224.92488773767937 140.4476304820192 0.0 0.0
-462.10884323286086 -8.485076240316646 -172.60567569033853 149.4222574289824 0.0 0.0
-372.856175769795 -0.8848091188961202 -122.89455498010648 160.55070632605327 0.0 0.0
-277.3022664043245 5.803423553689294 -83.71563548196696 167.12926409875035 0.0 0.0
-206.27571507387103 12.919971449259075 -58.27747333265032 165.93916570216078 0.0 0.0
-159.52893064242335 17.03469711426184 -42.76831834994265 161.95686523475968 0.0 0.0
-128.14952787241924 15.771600673664345 -33.7026065754225 162.8017453271802 0.0 0.0
-103.49876181259248 0.7435157094972222 -30.82362369031093 167.69227071170116 0.0 0.0
-71.13135472887384 -51.50208530210058 -36.790032009292325 162.95330122162017 0.0 0.0
-24.10937284419019 -144.75009425651362 -50.657840130211135 95.29601745090295 0.0 0.0
-24.56674178206088 -109.50695080615081 -40.2221077764635 -82.679675154853 0.0 0.0
-78.79460612857635 -44.951465360150316 -37.123821446617995 -150.75833642507453 0.0 0.0
-126.34924400777987 0.03735719591156528 -37.890774111123775 -159.51534056415153 0.0 0.0
-167.7944669268042 14.549304447984525 -45.9623317101546 -154.27022828143618 0.0 0.0
-216.68639587498708 17.315405813447377 -59.788228947085855 -150.18134327399727 0.0 0.0
-282.7381225779178 13.083817630516013 -81.7345343353813 -148.38320587682972 0.0 0.0
-374.4462658318583 7.431344134313546 -116.80477481319656 -143.5947391947636 0.0 0.0
-469.3145728636754 -3.17171076995092 -169.78221506876673 -132.74968686023175 0.0 0.0
-547.3256957901382 -16.148046504767464 -229.12742816210786 -125.1451379328257 0.0 0.0
-607.9398796065565 -29.18726558789863 -282.28113746712967 -121.44134040683056 0.0 0.0
-656.8887367837727 -40.18015101164367 -324.66291646641866 -118.58945079376981 0.0 0.0
-701.9820666001798 -51.709172410266405 -361.2116049912287 -115.19849653547493 0.0 0.0
-744.4883377909018 -62.858885260198676 -393.10200230073303 -111.82370427400194 0.0 0.0
-786.3744682357476 -74.8187429852361 -422.9700548433732 -108.9307135391087 0.0 0.0
-828.7381123080477 -88.40511551421581 -452.55660628047303 -107.69346594951026 0.0 0.0
-873.4022223599349 -107.24489070721395 -485.10830428868144 -109.69958631256192 0.0 0.0
-922.3211586444372 -135.84820757304522 -524.0990426152614 -115.40100920320556 0.0 0.0
-978.9030970285903 -180.50959139616353 -574.9538088713596 -123.28495443759408 0.0 0.0
-1044.84018535781 -248.55747545121395 -641.6463298246274 -130.4313880317937 0.0 0.0
-1120.4763186420287 -361.16198708093464 -732.2657604821629 -139.98022412942666 0.0 0.0
-1120.4763186422833 -361.16198708132805 -732.2657604823889 139.98022412962422 0.0 0.0
-1044.840185357815 -248.55747545134926 -641.6463298246264 130.4313880320147 0.0 0.0
-978.9030970288757 -180.5095913966312 -574.9538088715171 123.28495443785017 0.0 0.0
-922.3211586446594 -135.8482075734688 -524.0990426153833 115.40100920343895 0.0 0.0
-873.4022223597336 -107.24489070711635 -485.10830428850755 109.69958631258945 0.0 0.0
-828.7381123077828 -88.40511551400189 -452.55660628023463 107.69346594945364 0.0 0.0
-786.3744682354252 -74.81874298506364 -422.9700548431391 108.93071353917489 0.0 0.0
-744.4883377908552 -62.858885260355066 -393.102002300717 111.82370427407974 0.0 0.0
-701.9820665998836 -51.709172410159 -361.2116049909787 115.19849653546973 0.0 0.0
-656.8887367836087 -40.18015101172905 -324.662916466255 118.58945079376863 0.0 0.0
-607.9398796063319 -29.187265587899265 -282.2811374668641 121.44134040670775 0.0 0.0
-547.3256957895899 -16.14804650451623 -229.12742816165837 125.14513793279241 0.0 0.0
-469.31457286291374 -3.1717107694984 -169.78221506824968 132.7496868602483 0.0 0.0
-374.4462658310863 7.431344134706502 -116.80477481279333 143.59473919471873 0.0 0.0
-282.7381225775528 13.083817630387202 -81.73453433530878 148.38320587675966 0.0 0.0
-216.68639587473825 17.315405813324777 -59.78822894705243 150.18134327385474 0.0 0.0
-167.79446692666198 14.549304447917926 -45.96233171013307 154.27022828130478 0.0 0.0
-126.34924400762951 0.037357195911217556 -37.89077411107952 159.51534056397793 0.0 0.0
-78.7946061285163 -44.951465360106276 -37.12382144658677 150.75833642491867 0.0 0.0
-24.566741782070622 -109.5069508060917 -40.22210777644869 82.67967515474837 0.0 0.0
-25.176483292953876 -78.37816168219668 -31.06639349254516 -69.7749705594672 0.0 0.0
-86.10950387654017 -37.22066555562629 -36.99905082964994 -135.37741999121334 0.0 0.0
-147.9365629521782 -0.23515335831227002 -44.45028263713249 -147.22833946837466 0.0 0.0
-205.8539854136681 12.927769723019606 -57.85831912365927 -141.4928377515025 0.0 0.0
-271.6171642249341 16.042655229821563 -76.56764668546748 -134.0817251229911 0.0 0.0
-354.02478797247494 14.159279423846293 -104.38821109533927 -127.01979529131431 0.0 0.0
-451.7909090073489 6.681939194572841 -150.69817822095172 -116.43220940948821 0.0 0.0
-538.4190851073445 -8.045108717263393 -213.61020564933122 -107.6426264178069 0.0 0.0
-606.4384952138056 -23.194069638482826 -274.45287736657605 -104.93734478625417 0.0 0.0
-662.4488224756376 -37.737460742917484 -324.82125788587723 -103.72720142533439 0.0 0.0
-712.7393549889646 -52.46516456370213 -366.84111449845625 -101.78199547368953 0.0 0.0
-760.2305494899501 -67.38909824056051 -403.59530100737754 -98.91553574903988 0.0 0.0
-806.0367438757269 -82.15309265167429 -436.92879122316396 -95.88618826555023 0.0 0.0
-851.2929758834148 -96.92820760820044 -468.57135952735405 -93.18126761198958 0.0 0.0
-897.4154924188197 -113.10019068682223 -500.5781420820814 -91.7597085597845 0.0 0.0
-947.2478610760456 -135.86264427840882 -537.2278488527803 -92.84292827029907 0.0 0.0
-1006.5918903828449 -171.8379882700649 -584.8238874452503 -97.33401251347773 0.0 0.0
-1077.2133175845674 -227.77858638801138 -648.0939059444993 -104.02805265040445 0.0 0.0
-1157.1471406905157 -308.36648877878656 -728.2309138559428 -111.15747853828236 0.0 0.0
-1232.2623357989648 -419.7483993719368 -819.3106861058885 -125.65340937254271 0.0 0.0
-1232.2623357987113 -419.7483993717477 -819.3106861057349 125.65340937268749 0.0 0.0
-1157.147140689812 -308.3664887781308 -728.2309138554724 111.1574785384062 0.0 0.0
-1077.2133175844037 -227.77858638790525 -648.0939059443601 104.02805265047468 0.0 0.0
-1006.5918903824436 -171.83798826975521 -584.8238874449341 97.33401251356054 0.0 0.0
-947.247861075725 -135.86264427815698 -537.2278488525072 92.84292827030669 0.0 0.0
-897.4154924186107 -113.1001906866928 -500.578142081878 91.75970855975795 0.0 0.0
-851.2929758832535 -96.9282076081726 -468.5713595271893 93.18126761204239 0.0 0.0
-806.0367438755372 -82.15309265167419 -436.92879122298234 95.88618826563172 0.0 0.0
-760.2305494896516 -67.38909824042075 -403.5953010071135 98.91553574901545 0.0 0.0
-712.7393549887456 -52.46516456373331 -366.84111449828066 101.78199547372475 0.0 0.0
-662.4488224753861 -37.73746074286856 -324.82125788561274 103.72720142523522 0.0 0.0
-606.4384952139577 -23.194069639054636 -274.4528773665909 104.93734478633246 0.0 0.0
-538.4190851074185 -8.045108717856863 -213.6102056492918 107.64262641791632 0.0 0.0
-451.79090900705245 6.681939194323374 -150.698178220787 116.43220940951919 0.0 0.0
-354.0247879721293 14.159279423552533 -104.38821109530447 127.01979529127321 0.0 0.0
-271.61716422464417 16.04265522975638 -76.56764668540424 134.08172512288314 0.0 0.0
-205.853985413528 12.927769722840594 -57.858319123672416 141.49283775134114 0.0 0.0
-147.93656295197866 -0.235153358199089 -44.45028263703926 147.22833946825313 0.0 0.0
-86.1095038764609 -37.22066555553742 -36.99905082959949 135.37741999110236 0.0 0.0
-25.176483292930325 -78.37816168212748 -31.06639349251734 69.77497055941596 0.0 0.0
-25.904391591794447 -51.762485510184995 -23.30006313059383 -56.44078624350568 0.0 0.0
-93.05828762167543 -28.85557711133004 -36.57415941990163 -117.16451938873581 0.0 0.0
-168.45062180266117 -0.11560538768259576 -50.56986815710312 -130.9813759239203 0.0 0.0
-242.38631993902865 10.474833346438585 -69.56312584418777 -124.49366096658892 0.0 0.0
-322.6327238690962 14.651435106541511 -92.56929977009796 -114.06889424984641 0.0 0.0
-418.4339444883383 14.424145045640655 -127.61320641628433 -102.5507888583603 0.0 0.0
-512.4589881386173 3.783065598592433 -184.61619625888807 -90.18515239770431 0.0 0.0
-587.988896069581 -13.429997996043468 -251.76148117651354 -85.9426413450744 0.0 0.0
-650.174036362527 -28.785529680885006 -309.4715962942073 -86.29094910412604 0.0 0.0
-706.4716218406093 -46.08925895641006 -358.4800773754115 -86.08086228642742 0.0 0.0
-759.2184581085205 -64.37902300217404 -400.87221732140534 -84.74418981589989 0.0 0.0
-809.6941522192936 -82.78964121237331 -438.96520941474546 -82.34034831855666 0.0 0.0
-859.3529301583956 -101.12399449703415 -474.8384401048725 -79.83699874979794 0.0 0.0
-908.0572290235805 -119.43290419782709 -509.31664589613155 -77.43507399504185 0.0 0.0
-957.5460495682703 -138.439716741429 -544.07031891021 -75.74896831472967 0.0 0.0
-1013.0010221779539 -164.55560218405878 -585.0407023603334 -75.71344157695052 0.0 0.0
-1080.4300516823391 -207.48768981133145 -639.9979955022 -78.47855028495997 0.0 0.0
-1163.6674105975485 -274.73421131677674 -715.015898357869 -84.4720621459264 0.0 0.0
-1253.4594533818338 -364.65198295055035 -804.907031789794 -93.57324920969245 0.0 0.0
-1329.1437089242909 -476.23483178269345 -897.3068957151027 -114.84948954220346 0.0 0.0
-1329.1437089239498 -476.23483178240303 -897.3068957148755 114.8494895423126 0.0 0.0
-1253.459453381763 -364.6519829505422 -804.9070317897197 93.57324920981044 0.0 0.0
-1163.66741059754 -274.7342113168568 -715.0158983578606 84.47206214608407 0.0 0.0
-1080.430051682348 -207.4876898114727 -639.9979955021761 78.47855028515099 0.0 0.0
-1013.0010221772683 -164.55560218344198 -585.0407023598038 75.71344157694011 0.0 0.0
-957.5460495679548 -138.43971674118862 -544.0703189099306 75.74896831469871 0.0 0.0
-908.0572290232802 -119.43290419765725 -509.31664589591793 77.43507399509876 0.0 0.0
-859.3529301584638 -101.12399449731295 -474.8384401048916 79.83699874993509 0.0 0.0
-809.6941522189292 -82.78964121217199 -438.96520941442003 82.34034831852661 0.0 0.0
-759.2184581080594 -64.37902300191497 -400.87221732097976 84.74418981590364 0.0 0.0
-706.4716218400113 -46.089258956005736 -358.4800773749033 86.08086228633668 0.0 0.0
-650.1740363619398 -28.78552968055448 -309.4715962937168 86.29094910414801 0.0 0.0
-587.9888960690939 -13.429997995884293 -251.7614811760907 85.94264134511081 0.0 0.0
-512.4589881381246 3.783065598757715 -184.61619625849136 90.18515239763796 0.0 0.0
-418.4339444877959 14.424145045763284 -127.61320641601928 102.55078885828897 0.0 0.0
-322.6327238688325 14.651435106417276 -92.56929977006045 114.06889424972546 0.0 0.0
-242.38631993874594 10.474833346466728 -69.5631258440961 124.49366096649734 0.0 0.0
-168.45062180253308 -0.1156053876825971 -50.56986815706469 130.98137592379007 0.0 0.0
-93.05828762160655 -28.855577111361534 -36.57415941989043 117.16451938858636 0.0 0.0
-25.90439159177843 -51.76248551014764 -23.300063130577815 56.44078624344803 0.0 0.0
-26.446807075215894 -30.043473936148764 -16.947084303409394 -42.617891136964566 0.0 0.0
-99.2217880754348 -20.336787362173382 -35.86757263128244 -96.42044685842937 0.0 0.0
-187.96273681196917 0.28248615364829455 -56.30407519749626 -110.74545906866527 0.0 0.0
-277.95527213275165 7.107167036599046 -81.24494636680393 -103.69831472139835 0.0 0.0
-372.1422455919853 13.860948878989122 -108.0792857506218 -91.15326505910903 0.0 0.0
-471.78065637753406 13.7103140452931 -151.4112240600623 -76.4591659866579 0.0 0.0
-554.8787178741621 -1.5484079888574698 -217.06927243052974 -66.60078932579495 0.0 0.0
-624.5371253757809 -16.672343692158208 -282.01951193319996 -66.63231734057196 0.0 0.0
-686.1471619794106 -34.06433013947505 -337.82593986150744 -67.78308472035299 0.0 0.0
-743.7304780127723 -54.36088005903315 -386.2127197313862 -68.15164390787822 0.0 0.0
-799.0517064875377 -75.83736604313751 -429.49557901386936 -67.26852098763445 0.0 0.0
-853.1958006323639 -97.87603610170353 -469.9983611283815 -65.41412327114467 0.0 0.0
-906.4870259227554 -119.91433415654805 -508.8341091879381 -63.42778588396776 0.0 0.0
-960.0490724757465 -142.31819971286413 -547.4401944041147 -61.59719326790263 0.0 0.0
-1013.7724919439784 -165.1061017606604 -586.0200544594654 -59.802964151342245 0.0 0.0
-1071.607571533917 -193.68952212982137 -629.3402414331105 -58.359889789056126 0.0 0.0
-1145.1885376264513 -241.10988263217644 -689.5561915399767 -59.20142983943012 0.0 0.0
-1238.989492616388 -317.5302482338463 -774.2508498245363 -64.87661335974161 0.0 0.0
-1340.0857155308713 -418.1704863010558 -875.1828213978604 -77.19548880620981 0.0 0.0
-1420.9465984844146 -534.7052388545857 -973.3833648549111 -105.7321854437212 0.0 0.0
-1420.94659848445 -534.7052388546824 -973.3833648549892 105.73218544383164 0.0 0.0
-1340.0857155309932 -418.1704863012398 -875.1828213979495 77.19548880634125 0.0 0.0
-1238.9894926161858 -317.5302482336957 -774.2508498243068 64.87661335979293 0.0 0.0
-1145.1885376256485 -241.1098826314476 -689.5561915392982 59.201429839537596 0.0 0.0
-1071.607571533451 -193.68952212945175 -629.3402414326647 58.35988978913518 0.0 0.0
-1013.7724919437084 -165.10610176048218 -586.0200544591829 59.80296415133785 0.0 0.0
-960.0490724752593 -142.31819971250323 -547.4401944037236 61.59719326794563 0.0 0.0
-906.4870259217334 -119.91433415563073 -508.83410918716925 63.42778588392117 0.0 0.0
-853.1958006318233 -97.87603610131423 -469.9983611279863 65.41412327111026 0.0 0.0
-799.0517064870364 -75.83736604283081 -429.4955790135076 67.26852098762869 0.0 0.0
-743.730478012205 -54.36088005864619 -386.21271973094383 68.1516439077574 0.0 0.0
-686.1471619790589 -34.06433013936972 -337.82593986119656 67.78308472036 0.0 0.0
-624.5371253754931 -16.672343692155142 -282.01951193288414 66.63231734055213 0.0 0.0
-554.878717873652 -1.5484079886550965 -217.06927243010236 66.60078932580141 0.0 0.0
-471.7806563771227 13.710314045231074 -151.41122405983373 76.45916598668663 0.0 0.0
-372.1422455917018 13.86094887876369 -108.07928575060171 91.1532650590863 0.0 0.0
-277.9552721324239 7.107167036768841 -81.24494636665624 103.69831472133622 0.0 0.0
-187.9627368117897 0.28248615371300856 -56.304075197423 110.74545906851793 0.0 0.0
-99.22178807534485 -20.33678736220194 -35.86757263126403 96.42044685834824 0.0 0.0
-26.4468070751834 -30.04347393610853 -16.947084303387577 42.61789113696243 0.0 0.0
-26.166708312315322 -13.584614157981122 -11.925396741088933 -28.449640752044207 0.0 0.0
-103.67369681606816 -12.077272228709948 -34.725290713433424 -73.3162542501536 0.0 0.0
-206.5512131690479 0.6039659771430461 -61.78417415757144 -86.38437644541249 0.0 0.0
-312.94635289135556 3.574791465820602 -92.79749099005852 -79.16306390100156 0.0 0.0
-419.43894134500715 14.379301325780677 -123.4083996162668 -65.75141558958185 0.0 0.0
-514.5118563342936 9.739288548096031 -177.11548272914962 -51.470976316737634 0.0 0.0
-589.2169632507305 -5.514189927084786 -245.767852178436 -46.303886140674685 0.0 0.0
-654.3664717753387 -19.446881065472336 -306.73718413630075 -47.500305581571084 0.0 0.0
-716.1775902622221 -39.35741420082858 -361.15842989331975 -49.14380002614343 0.0 0.0
-775.7668476771437 -62.39425382987777 -409.62316743771953 -49.79910754453827 0.0 0.0
-834.158716619595 -87.00932195347129 -454.5434230784306 -49.32149140168956 0.0 0.0
-891.694379340755 -112.56537574321563 -497.69443211736234 -48.01389444454052 0.0 0.0
-949.5130501861315 -138.40525766726245 -540.2822766487191 -46.65403358460961 0.0 0.0
-1007.4980497181444 -165.42812119568512 -583.180537277336 -45.349745649412064 0.0 0.0
-1066.4524434851267 -193.47645065489954 -626.8777258649569 -43.80387499722652 0.0 0.0
-1128.1918851943622 -225.26200253074342 -673.7419190689434 -41.50369813024586 0.0 0.0
-1199.3369999691304 -269.7091355826222 -731.3357090723415 -39.97502700370602 0.0 0.0
-1301.0137414559345 -352.6895457698178 -822.9994698821636 -44.78347759689183 0.0 0.0
-1419.335686152759 -468.9184406868548 -940.2205833638073 -60.83096098732342 0.0 0.0
-1516.1835093171746 -599.6877068921082 -1054.2090790508141 -96.96030690417233 0.0 0.0
-1516.1835093170569 -599.6877068920343 -1054.209079050725 96.96030690428127 0.0 0.0
-1419.3356861529323 -468.91844068708656 -940.220583363935 60.83096098744383 0.0 0.0
-1301.0137414558262 -352.68954576974795 -822.9994698821106 44.783477596887124 0.0 0.0
-1199.3369999690944 -269.7091355826526 -731.3357090723435 39.97502700374015 0.0 0.0
-1128.191885194518 -225.26200253098412 -673.7419190690173 41.503698130288086 0.0 0.0
-1066.4524434847058 -193.47645065456587 -626.8777258645999 43.80387499720119 0.0 0.0
-1007.4980497174679 -165.42812119512988 -583.1805372768075 45.34974564945192 0.0 0.0
-949.5130501858714 -138.40525766714637 -540.2822766484998 46.65403358462122 0.0 0.0
-891.6943793405635 -112.56537574320443 -497.6944321171714 48.01389444455767 0.0 0.0
-834.1587166194477 -87.00932195354197 -454.5434230783085 49.321491401742065 0.0 0.0
-775.7668476768789 -62.39425382981906 -409.6231674375109 49.79910754446823 0.0 0.0
-716.1775902618535 -39.3574142006962 -361.15842989303405 49.14380002614416 0.0 0.0
-654.3664717748337 -19.446881065208323 -306.7371841358628 47.50030558153885 0.0 0.0
-589.2169632505809 -5.514189927269909 -245.7678521782136 46.30388614065275 0.0 0.0
-514.5118563338506 9.739288548183554 -177.11548272881782 51.47097631674184 0.0 0.0
-419.4389413445878 14.379301325747328 -123.4083996161343 65.75141558960516 0.0 0.0
-312.9463528910011 3.5747914661085756 -92.79749098986827 79.16306390096538 0.0 0.0
-206.55121316877967 0.6039659772884889 -61.78417415744735 86.38437644531854 0.0 0.0
-103.6736968159714 -12.077272228717288 -34.7252907134066 73.31625425002977 0.0 0.0
-26.166708312259146 -13.584614157969247 -11.925396741068516 28.449640751988696 0.0 0.0
-23.848286396323783 -2.6797015866798644 -7.958396394901092 -14.447692688052982 0.0 0.0
-104.80267161915023 -4.580582184143586 -32.81497614098814 -47.84202313239436 0.0 0.0
-224.33703314941877 0.5398752134895641 -67.13914738077875 -57.341660699133506 0.0 0.0
-348.6015727437237 0.7454993394510137 -104.31601431932012 -51.400540926647324 0.0 0.0
-460.1272850485565 16.00058461089668 -139.0086405395851 -39.66562382689139 0.0 0.0
-544.5812174952171 2.768129823295144 -203.37649835710226 -28.570641180566476 0.0 0.0
-615.5050180344557 -7.091579483541928 -268.7036328192212 -27.358458417890407 0.0 0.0
-679.0457934397268 -22.8295430733095 -327.5145282500772 -28.682384080653094 0.0 0.0
-741.3843574509141 -44.46988221801427 -380.4557997116285 -30.164785816273685 0.0 0.0
-803.3297213980929 -70.10530054320566 -429.58904824443107 -30.932287033429752 0.0 0.0
-865.0517035273052 -97.98720573106864 -476.7851644760822 -30.826367566015996 0.0 0.0
-926.7423306684295 -126.79177521869676 -523.0999769304626 -30.148686453609585 0.0 0.0
-988.410707312873 -156.95521474647714 -569.4994462027605 -29.348826706921923 0.0 0.0
-1051.5412446249964 -188.42945146021964 -617.037373793225 -28.627743432456043 0.0 0.0
-1116.80771533509 -222.44017385458756 -666.791626961671 -27.58220626984272 0.0 0.0
-1183.7542765612811 -259.78856462654807 -718.9905776867172 -25.446234770887934 0.0 0.0
-1252.1708940543585 -301.84464889107926 -774.2107062328321 -22.19360915922748 0.0 0.0
-1334.3392781253358 -364.0664898634798 -845.7290142467625 -23.68886770434611 0.0 0.0
-1492.1445727299597 -516.346961862649 -1000.1055766571128 -42.194698474861454 0.0 0.0
-1625.576310974287 -680.0399815726737 -1149.6649359656942 -87.169523247095 0.0 0.0
-1625.5763109745296 -680.0399815729402 -1149.6649359658127 87.16952324713625 0.0 0.0
-1492.1445727303667 -516.3469618631029 -1000.1055766572865 42.19469847495326 0.0 0.0
-1334.3392781248504 -364.06648986304504 -845.7290142462986 23.688867704437655 0.0 0.0
-1252.1708940536603 -301.84464889044267 -774.2107062322466 22.193609159233645 0.0 0.0
-1183.7542765608123 -259.7885646261546 -718.9905776862759 25.44623477089268 0.0 0.0
-1116.80771533443 -222.44017385402182 -666.7916269611197 27.582206269880228 0.0 0.0
-1051.5412446245166 -188.4294514598635 -617.037373792816 28.627743432511487 0.0 0.0
-988.4107073124871 -156.95521474623777 -569.4994462024617 29.34882670698198 0.0 0.0
-926.7423306674038 -126.79177521782967 -523.0999769297456 30.148686453565105 0.0 0.0
-865.0517035269415 -97.98720573090245 -476.78516447575765 30.82636756602033 0.0 0.0
-803.3297213976374 -70.10530054295646 -429.5890482440527 30.932287033410354 0.0 0.0
-741.3843574503813 -44.46988221770902 -380.4557997111864 30.16478581626575 0.0 0.0
-679.0457934394237 -22.829543073247414 -327.514528249754 28.682384080560638 0.0 0.0
-615.5050180340227 -7.091579483368932 -268.70363281879906 27.358458417871777 0.0 0.0
-544.5812174947674 2.7681298234202973 -203.3764983567192 28.570641180514162 0.0 0.0
-460.1272850482103 16.00058461087047 -139.00864053942524 39.66562382684377 0.0 0.0
-348.6015727433893 0.7454993395019875 -104.31601431920942 51.40054092661524 0.0 0.0
-224.3370331491931 0.5398752135374654 -67.13914738069668 57.341660699050244 0.0 0.0
-104.8026716190346 -4.580582184075736 -32.8149761409331 47.84202313232391 0.0 0.0
-23.848286396256924 -2.679701586627956 -7.9583963948654635 14.447692687999604 0.0 0.0
-17.129971590271186 2.5045616909676385 -4.387622969791064 -1.804480231692568 0.0 0.0
-99.96309372646559 1.4740606213116365 -29.54670993154619 -19.549928485351753 0.0 0.0
-241.84661764498924 -0.5177922839084221 -72.70932297866929 -22.540081476703968 0.0 0.0
-386.83517119138025 1.3061075526897854 -115.60903355492198 -20.808342763676123 0.0 0.0
-496.42913202473767 14.255456685357107 -157.56245094366068 -13.958542232385511 0.0 0.0
-572.923862689498 -1.4349303354592422 -227.2146718581605 -8.877566288472831 0.0 0.0
-636.46943350062 -9.039714304275655 -288.0195605157033 -9.01644342168774 0.0 0.0
-699.390322281965 -26.197023237676934 -344.61220122706766 -9.826938522372384 0.0 0.0
-762.8551831481087 -49.6222304392422 -396.810794293517 -10.839132165869646 0.0 0.0
-827.3724071721788 -77.66446646921061 -447.07266833814367 -11.50932356279928 0.0 0.0
-892.45192252564 -108.26512555283207 -496.5571089049977 -11.773718142882684 0.0 0.0
-957.8660497457056 -141.31009679337046 -546.4778113091255 -11.698458151378771 0.0 0.0
-1024.193083279506 -175.21553807302328 -596.8990022442738 -11.560903502671785 0.0 0.0
-1092.4949534460836 -211.14933979744882 -649.1498230841862 -11.371410740603134 0.0 0.0
-1163.8449945531543 -251.05533677132743 -704.8262312686406 -10.884648278500226 0.0 0.0
-1237.3621002897507 -295.2594091087408 -763.6822825714682 -9.730410238154189 0.0 0.0
-1308.6582150307077 -341.0938351867711 -822.2345832398812 -7.2543785545221375 0.0 0.0
-1373.3279714769556 -386.12140988098014 -876.912177399699 -4.528514544369138 0.0 0.0
-1458.7104174758792 -461.54210645315527 -956.0554967149999 -16.846445536236104 0.0 0.0
-1816.453390452385 -839.7532527647476 -1325.0314622743267 -69.74795417261485 0.0 0.0
-1816.4533904522013 -839.7532527645775 -1325.0314622741962 69.74795417263378 0.0 0.0
-1458.710417475701 -461.5421064530069 -956.0554967148527 16.8464455362883 0.0 0.0
-1373.3279714758937 -386.121409879961 -876.9121773988877 4.528514544453957 0.0 0.0
-1308.6582150303714 -341.0938351865003 -822.234583239544 7.2543785545169674 0.0 0.0
-1237.3621002895545 -295.259409108626 -763.6822825712843 9.730410238200008 0.0 0.0
-1163.8449945525215 -251.05533677078486 -704.8262312680804 10.88464827848749 0.0 0.0
-1092.49495344569 -211.14933979717432 -649.1498230838013 11.371410740653008 0.0 0.0
-1024.1930832790933 -175.21553807275748 -596.8990022438951 11.560903502713694 0.0 0.0
-957.866049744807 -141.3100967926413 -546.4778113084132 11.698458151352703 0.0 0.0
-892.4519225248373 -108.26512555221679 -496.5571089044028 11.773718142817852 0.0 0.0
-827.3724071719946 -77.66446646923848 -447.0726683379704 11.509323562753575 0.0 0.0
-762.8551831479047 -49.622230439273324 -396.8107942933153 10.839132165901834 0.0 0.0
-699.3903222816247 -26.197023237587064 -344.61220122676286 9.8269385223999 0.0 0.0
-636.4694335003003 -9.039714304235094 -288.01956051539577 9.016443421719963 0.0 0.0
-572.923862689097 -1.434930335337679 -227.2146718577949 8.877566288508385 0.0 0.0
-496.42913202444373 14.255456685288655 -157.56245094348478 13.958542232447648 0.0 0.0
-386.8351711910571 1.3061075525289434 -115.60903355488082 20.808342763640656 0.0 0.0
-241.84661764476664 -0.5177922838191122 -72.70932297857571 22.54008147664632 0.0 0.0
-99.96309372637796 1.474060621343094 -29.546709931510463 19.54992848528343 0.0 0.0
-17.129971590187886 2.5045616909774138 -4.38762296976314 1.8044802316776227 0.0 0.0
SCALARS Strain float 6
LOOKUP_TABLE default
0.008432923820785596 -0.009522252657533314 0.0 -0.005109593879300572 0.0 0.0
0.0018956757973695023 -0.0008823514951157851 0.0 0.0009326356956847748 0.0 0.0
0.0016883746665930493 -0.000711162480820815 0.0 -8.437736379529603e-05 0.0 0.0
0.0020022327555435024 -0.0008817601502667527 0.0 -0.00015991868233775075 0.0 0.0
0.00270415583954812 -0.0013835937862815006 0.0 -0.00018865041831164775 0.0 0.0
0.004102261916667808 -0.002505023742337631 0.0 -0.0002489956563185014 0.0 0.0
0.006159511537907832 -0.004295770428345835 0.0 -0.0003590086263763892 0.0 0.0
0.008932209239718486 -0.006792892728108679 0.0 -0.0005105651509200171 0.0 0.0
0.012454922635842977 -0.01003640428251007 0.0 -0.0007044661573368527 0.0 0.0
0.016768594151777852 -0.014064761293537176 0.0 -0.0009262303296596053 0.0 0.0
0.021994484548570534 -0.019000448985107887 0.0 -0.001152078788662303 0.0 0.0
0.028342219469031395 -0.025050337878779194 0.0 -0.0014048809549010166 0.0 0.0
0.036030976373503984 -0.03243618041707741 0.0 -0.0016956517007523375 0.0 0.0
0.04522752528035218 -0.041320539483356455 0.0 -0.0020255576011216914 0.0 0.0
0.05591889245207002 -0.0516836841451529 0.0 -0.0024042388276594995 0.0 0.0
0.06774517943645346 -0.063166115808452 0.0 -0.0027703721872451292 0.0 0.0
0.07992685792690543 -0.07499886774620701 0.0 -0.0029666357840145707 0.0 0.0
0.09131940374555252 -0.0860580358698404 0.0 -0.0027685180449333324 0.0 0.0
0.10057279707980737 -0.09501758494428914 0.0 -0.0021467888760922094 0.0 0.0
0.10614531743454818 -0.10028881680399748 0.0 -0.0017205907038986834 0.0 0.0
0.10614531743454501 -0.10028881680399393 0.0 0.0017205907039021806 0.0 0.0
0.10057279707979308 -0.09501758494427781 0.0 0.0021467888761030895 0.0 0.0
0.09131940374552772 -0.0860580358698193 0.0 0.0027685180449397717 0.0 0.0
0.07992685792687473 -0.07499886774618014 0.0 0.002966635784019289 0.0 0.0
0.06774517943641997 -0.06316611580842313 0.0 0.002770372187240966 0.0 0.0
0.055918892452037405 -0.05168368414512048 0.0 0.0024042388276600546 0.0 0.0
0.04522752528031798 -0.04132053948332359 0.0 0.002025557601121497 0.0 0.0
0.03603097637346861 -0.032436180417042326 0.0 0.0016956517007521432 0.0 0.0
0.028342219468996316 -0.02505033787874722 0.0 0.001404880954898935 0.0 0.0
0.021994484548538168 -0.019000448985078133 0.0 0.001152078788659916 0.0 0.0
0.016768594151751137 -0.014064761293511197 0.0 0.0009262303296551089 0.0 0.0
0.012454922635821736 -0.010036404282490308 0.0 0.000704466157335798 0.0 0.0
0.00893220923970095 -0.006792892728093358 0.0 0.0005105651509188791 0.0 0.0
0.006159511537895512 -0.004295770428332846 0.0 0.00035900862637552877 0.0 0.0
0.004102261916659966 -0.0025050237423296373 0.0 0.00024899565631772425 0.0 0.0
0.0027041558395445586 -0.0013835937862788916 0.0 0.00018865041831150897 0.0 0.0
0.002002232755542399 -0.0008817601502660866 0.0 0.0001599186823370291 0.0 0.0
0.0016883746665924404 -0.0007111624808202599 0.0 8.437736379493521e-05 0.0 0.0
0.001895675797368629 -0.0008823514951148415 0.0 -0.0009326356956833592 0.0 0.0
0.008432923820777455 -0.00952225265752209 0.0 0.00510959387927537 0.0 0.0
0.005785721677855557 -0.00722138388200988 0.0 -0.006023137425088865 0.0 0.0
0.0010669541521242283 -0.00044192666795067614 0.0 0.00019166642368934061 0.0 0.0
0.0014571600765760293 -0.0005539189329400451 0.0 -0.00013350901885045285 0.0 0.0
0.001789565292896561 -0.0007761993357667807 0.0 -0.0004115649882447392 0.0 0.0
0.0023513534453773466 -0.0011335962266921795 0.0 -0.00045517617529497456 0.0 0.0
0.003547851979927616 -0.00205023657634551 0.0 -0.0006089300351635463 0.0 0.0
0.005400602371204648 -0.0036223610400176742 0.0 -0.0008979302157880453 0.0 0.0
0.007911648039160137 -0.005853670963212765 0.0 -0.0012695557535435942 0.0 0.0
0.011092877384523046 -0.008760425752050383 0.0 -0.0017156463198117755 0.0 0.0
0.014964897835143376 -0.0123591971401531 0.0 -0.002209690678319165 0.0 0.0
0.019621580625625926 -0.01674243649791962 0.0 -0.0027187525278811187 0.0 0.0
0.02525013121599213 -0.0220969892752092 0.0 -0.0032437800923990207 0.0 0.0
0.032092023808156414 -0.028660918383207834 0.0 -0.0038686094124866233 0.0 0.0
0.04032856980794425 -0.036610607589343536 0.0 -0.004630768469262192 0.0 0.0
0.049954891592459846 -0.045936445679140014 0.0 -0.0054915675299719025 0.0 0.0
0.06065866545735548 -0.05632633334359838 0.0 -0.006323331932496151 0.0 0.0
0.07174996313519355 -0.06709871999485584 0.0 -0.006782741887748356 0.0 0.0
0.08219983848241791 -0.07723899333764894 0.0 -0.006445558627109688 0.0 0.0
0.09070566023899361 -0.08544596871798604 0.0 -0.005215545805868083 0.0 0.0
0.09574510679764024 -0.09027169835994608 0.0 -0.0030781913760663526 0.0 0.0
0.09574510679763662 -0.09027169835994253 0.0 0.003078191376077899 0.0 0.0
0.09070566023898073 -0.08544596871797339 0.0 0.005215545805888344 0.0 0.0
0.08219983848239647 -0.07723899333762851 0.0 0.006445558627124204 0.0 0.0
0.07174996313516704 -0.06709871999483119 0.0 0.0067827418877564605 0.0 0.0
0.060658665457326164 -0.05632633334356729 0.0 0.0063233319324936255 0.0 0.0
0.04995489159243004 -0.045936445679109816 0.0 0.005491567529971653 0.0 0.0
0.04032856980791383 -0.036610607589314004 0.0 0.004630768469261637 0.0 0.0
0.03209202380812498 -0.028660918383178524 0.0 0.003868609412485402 0.0 0.0
0.02525013121596087 -0.02209698927517989 0.0 0.003243780092394788 0.0 0.0
0.019621580625596963 -0.016742436497891422 0.0 0.0027187525278778435 0.0 0.0
0.014964897835119395 -0.012359197140128675 0.0 0.0022096906783126147 0.0 0.0
0.011092877384503597 -0.008760425752030065 0.0 0.0017156463198090277 0.0 0.0
0.00791164803914457 -0.005853670963198665 0.0 0.0012695557535400415 0.0 0.0
0.005400602371193497 -0.0036223610400083484 0.0 0.0008979302157856583 0.0 0.0
0.003547851979920996 -0.002050236576340736 0.0 0.0006089300351606597 0.0 0.0
0.0023513534453748763 -0.0011335962266900146 0.0 0.000455176175293559 0.0 0.0
0.0017895652928956174 -0.0007761993357668917 0.0 0.00041156498824426735 0.0 0.0
0.0014571600765756754 -0.0005539189329401562 0.0 0.00013350901885075817 0.0 0.0
0.0010669541521243775 -0.0004419266679499545 0.0 -0.00019166642369000675 0.0 0.0
0.005785721677845745 -0.007221383881998016 0.0 0.0060231374250687975 0.0 0.0
0.004184722052093692 -0.005720748176991905 0.0 -0.005559095230491168 0.0 0.0
0.0006323262476608665 -0.0002762184033259507 0.0 -0.0004803374960979656 0.0 0.0
0.001167329478987799 -0.00040541604834604117 0.0 -0.000387117381568991 0.0 0.0
0.0015751683199800963 -0.0006656696351835523 0.0 -0.0006457177379489143 0.0 0.0
0.002041239665127346 -0.000933465414639234 0.0 -0.0007211888766890662 0.0 0.0
0.003004827242039824 -0.0016249757895059336 0.0 -0.0008951125044592556 0.0 0.0
0.004636737005397386 -0.002957074248468916 0.0 -0.001304754095188626 0.0 0.0
0.006878059054323548 -0.004918486446283343 0.0 -0.001866417001510634 0.0 0.0
0.009713849109970574 -0.007480895173732849 0.0 -0.0025167596686101745 0.0 0.0
0.013146032391000553 -0.01065067774619588 0.0 -0.003224797138299207 0.0 0.0
0.01724418207178912 -0.014493167152109798 0.0 -0.003958879299832102 0.0 0.0
0.022172127817653774 -0.019168957178696377 0.0 -0.00471627406736258 0.0 0.0
0.028161508089927373 -0.02490456443078015 0.0 -0.005577635392295444 0.0 0.0
0.03541434717231916 -0.031895769558978326 0.0 -0.006655593820791839 0.0 0.0
0.04394953175953213 -0.040159295045800514 0.0 -0.007915899260101611 0.0 0.0
0.05350817295372304 -0.04943533048629978 0.0 -0.009113236970587912 0.0 0.0
0.06350777890936996 -0.059146528852572544 0.0 -0.009804338335906354 0.0 0.0
0.0730333841940973 -0.06838054275430294 0.0 -0.009448419776152434 0.0 0.0
0.08085050837961621 -0.07592781288160233 0.0 -0.007659581753040323 0.0 0.0
0.08559528606330004 -0.0804901353339762 0.0 -0.0041316699824961445 0.0 0.0
0.08559528606329596 -0.08049013533397442 0.0 0.004131669982515629 0.0 0.0
0.08085050837960472 -0.07592781288159256 0.0 0.007659581753068245 0.0 0.0
0.07303338419407857 -0.06838054275428695 0.0 0.009448419776173389 0.0 0.0
0.06350777890934688 -0.05914652885255167 0.0 0.00980433833591654 0.0 0.0
0.05350817295369735 -0.04943533048627757 0.0 0.009113236970585248 0.0 0.0
0.04394953175950547 -0.04015929504577431 0.0 0.007915899260100112 0.0 0.0
0.035414347172292276 -0.03189576955895235 0.0 0.006655593820789951 0.0 0.0
0.028161508089899756 -0.024904564430752618 0.0 0.005577635392292946 0.0 0.0
0.022172127817626425 -0.019168957178668844 0.0 0.004716274067356474 0.0 0.0
0.01724418207176376 -0.014493167152087372 0.0 0.003958879299826856 0.0 0.0
0.01314603239097914 -0.010650677746177672 0.0 0.003224797138291491 0.0 0.0
0.009713849109953293 -0.0074808951737164175 0.0 0.0025167596686056504 0.0 0.0
0.006878059054309632 -0.004918486446272796 0.0 0.0018664170015058879 0.0 0.0
0.004636737005387803 -0.0029570742484618107 0.0 0.0013047540951854342 0.0 0.0
0.0030048272420344635 -0.0016249757895020478 0.0 0.0008951125044572572 0.0 0.0
0.0020412396651257048 -0.0009334654146380683 0.0 0.0007211888766879282 0.0 0.0
0.001575168319979281 -0.0006656696351833302 0.0 0.0006457177379476375 0.0 0.0
0.0011673294789877608 -0.000405416048346402 0.0 0.00038711738156715914 0.0 0.0
0.0006323262476610192 -0.00027621840332511804 0.0 0.0004803374960954121 0.0 0.0
0.0041847220520848105 -0.0057207481769812225 0.0 0.005559095230475486 0.0 0.0
0.003098133374676723 -0.004599255577586184 0.0 -0.004719657677408562 0.0 0.0
0.0003951755193766296 -0.00021455064355968556 0.0 -0.0010499429631971313 0.0 0.0
0.0008992311947300657 -0.00028780956135110447 0.0 -0.0007298558570955072 0.0 0.0
0.0013442820231057834 -0.0005515802662978686 0.0 -0.0008960924117591695 0.0 0.0
0.0017629544296919597 -0.0007807118885851949 0.0 -0.0009980846202911897 0.0 0.0
0.0025075250175713507 -0.0012672559714259624 0.0 -0.0011379176198411944 0.0 0.0
0.003870077361739596 -0.0023199329697399795 0.0 -0.0015846197849942734 0.0 0.0
0.005838975191864992 -0.003994035561550868 0.0 -0.002294796650516434 0.0 0.0
0.008325029057098407 -0.006209771949828857 0.0 -0.003101407065019629 0.0 0.0
0.011319809891172462 -0.008951335708705654 0.0 -0.003972821450051872 0.0 0.0
0.014868780775488227 -0.012260246273590347 0.0 -0.004868854912349868 0.0 0.0
0.019109061943509857 -0.016267864480481453 0.0 -0.005794766505526572 0.0 0.0
0.024255060058470147 -0.021184439262269317 0.0 -0.006854443665320259 0.0 0.0
0.030511393789339203 -0.027203568049335214 0.0 -0.008134263744767556 0.0 0.0
0.03792683091675471 -0.034375991239778525 0.0 -0.0096288620550265 0.0 0.0
0.04631407603720094 -0.042513929790691796 0.0 -0.011108542138398902 0.0 0.0
0.055202167742312964 -0.051142913528437584 0.0 -0.012027911026548738 0.0 0.0
0.06379964419546591 -0.05947625745276719 0.0 -0.011711214342938758 0.0 0.0
0.07100661195034219 -0.0664395819691419 0.0 -0.009538485441856037 0.0 0.0
0.07558024426608473 -0.0708467434605522 0.0 -0.005007004715515129 0.0 0.0
0.07558024426608088 -0.07084674346054842 0.0 0.0050070047155386654 0.0 0.0
0.0710066119503315 -0.06643958196913458 0.0 0.009538485441889344 0.0 0.0
0.06379964419544958 -0.0594762574527532 0.0 0.01171121434296285 0.0 0.0
0.05520216774229281 -0.05114291352842004 0.0 0.012027911026559868 0.0 0.0
0.04631407603717863 -0.04251392979067048 0.0 0.011108542138396404 0.0 0.0
0.0379268309167312 -0.03437599123975876 0.0 0.009628862055024279 0.0 0.0
0.030511393789316 -0.027203568049315452 0.0 0.008134263744765557 0.0 0.0
0.024255060058446257 -0.021184439262247112 0.0 0.006854443665317345 0.0 0.0
0.01910906194348637 -0.016267864480458805 0.0 0.005794766505518689 0.0 0.0
0.01486878077546655 -0.012260246273570363 0.0 0.004868854912343845 0.0 0.0
0.01131980989115347 -0.008951335708687225 0.0 0.003972821450042685 0.0 0.0
0.008325029057083363 -0.0062097719498150905 0.0 0.003101407065014189 0.0 0.0
0.005838975191852988 -0.003994035561538767 0.0 0.0022947966505110495 0.0 0.0
0.0038700773617315193 -0.0023199329697335402 0.0 0.0015846197849917198 0.0 0.0
0.0025075250175672775 -0.0012672559714231868 0.0 0.0011379176198391128 0.0 0.0
0.0017629544296906413 -0.0007807118885845288 0.0 0.0009980846202906346 0.0 0.0
0.0013442820231049923 -0.0005515802662979796 0.0 0.0008960924117580038 0.0 0.0
0.0008992311947301074 -0.00028780956135154856 0.0 0.0007298558570938418 0.0 0.0
0.0003951755193767059 -0.00021455064355901943 0.0 0.0010499429631943002 0.0 0.0
0.0030981333746690765 -0.004599255577576981 0.0 0.0047196576773956 0.0 0.0
0.0022987354587980166 -0.0036958277987371446 0.0 -0.0038766242515476945 0.0 0.0
0.00025982097841861784 -0.00019553437169986254 0.0 -0.0014898455572100733 0.0 0.0
0.0006702720224108227 -0.00020026899259556474 0.0 -0.0010836282026725763 0.0 0.0
0.0011037406363103089 -0.00043700318406553196 0.0 -0.001159568285608148 0.0 0.0
0.0014958996266431213 -0.0006480320842857656 0.0 -0.0012716019238737108 0.0 0.0
0.0020692521411494746 -0.00098434483910681 0.0 -0.0013875784033040295 0.0 0.0
0.0031347766382410214 -0.001740885910813894 0.0 -0.0017608455058004124 0.0 0.0
0.004793386420527429 -0.0030876920834346233 0.0 -0.0025135212891000125 0.0 0.0
0.006933906583218831 -0.004958135232949301 0.0 -0.0034606396285130625 0.0 0.0
0.009492991484110501 -0.0072710645564575405 0.0 -0.004444102748450612 0.0 0.0
0.012502065047207404 -0.01005318571744529 0.0 -0.005451142000291731 0.0 0.0
0.01606744197591222 -0.013405122088165466 0.0 -0.006482827914708361 0.0 0.0
0.020380242788213612 -0.01750896907984445 0.0 -0.0076444757725653845 0.0 0.0
0.025638983682222227 -0.022557354049532963 0.0 -0.00906245581506504 0.0 0.0
0.03192023598403507 -0.028624274296396912 0.0 -0.010696807859071705 0.0 0.0
0.03910370355880601 -0.03558764996007646 0.0 -0.012294179851296688 0.0 0.0
0.04683556272390814 -0.043094896892790224 0.0 -0.013385284337138287 0.0 0.0
0.05448759889691631 -0.05051547891379804 0.0 -0.013206854664038148 0.0 0.0
0.06112784127563578 -0.05693685341972765 0.0 -0.01089394501438301 0.0 0.0
0.06561212039871929 -0.06126287600540037 0.0 -0.005746491902837103 0.0 0.0
0.06561212039871601 -0.061262876005397704 0.0 0.005746491902862694 0.0 0.0
0.06112784127562566 -0.05693685341971766 0.0 0.01089394501441654 0.0 0.0
0.05448759889690227 -0.050515478913785605 0.0 0.013206854664063572 0.0 0.0
0.04683556272389092 -0.0430948968927749 0.0 0.013385284337150083 0.0 0.0
0.03910370355878667 -0.03558764996005981 0.0 0.012294179851295328 0.0 0.0
0.03192023598401454 -0.028624274296378927 0.0 0.01069680785906918 0.0 0.0
0.0256389836822028 -0.0225573540495152 0.0 0.009062455815062487 0.0 0.0
0.020380242788193517 -0.017508969079825354 0.0 0.007644475772561832 0.0 0.0
0.016067441975892688 -0.013405122088145482 0.0 0.006482827914701672 0.0 0.0
0.012502065047188995 -0.010053185717426416 0.0 0.005451142000284348 0.0 0.0
0.009492991484094382 -0.007271064556441775 0.0 0.004444102748439982 0.0 0.0
0.006933906583206015 -0.0049581352329372 0.0 0.0034606396285074004 0.0 0.0
0.004793386420517465 -0.0030876920834267407 0.0 0.002513521289094406 0.0 0.0
0.0031347766382345127 -0.001740885910808787 0.0 0.0017608455057965544 0.0 0.0
0.0020692521411467962 -0.0009843448391042564 0.0 0.0013875784033012817 0.0 0.0
0.0014958996266420665 -0.0006480320842847109 0.0 0.0012716019238728782 0.0 0.0
0.0011037406363096358 -0.00043700318406497685 0.0 0.0011595682856064826 0.0 0.0
0.000670272022410795 -0.0002002689925953427 0.0 0.0010836282026704114 0.0 0.0
0.00025982097841867335 -0.00019553437169897436 0.0 0.0014898455572079639 0.0 0.0
0.0022987354587918757 -0.0036958277987294355 0.0 0.003876624251538563 0.0 0.0
0.0016922851539993983 -0.0029510605544567636 0.0 -0.003154344251780211 0.0 0.0
0.00017348043733501906 -0.00019145940920869964 0.0 -0.0018122606182440493 0.0 0.0
0.0004756656746392335 -0.00013378855237544673 0.0 -0.0014057162489856112 0.0 0.0
0.0008625412238557756 -0.00032423678710491455 0.0 -0.0014158210785303327 0.0 0.0
0.0012262079117512162 -0.000523422890825298 0.0 -0.0015330176175932797 0.0 0.0
0.0016726449058693388 -0.0007669845479131299 0.0 -0.0016528000502073759 0.0 0.0
0.0024676446916648137 -0.0012675494742903082 0.0 -0.001939998397479048 0.0 0.0
0.0037680090133820135 -0.0022473741961190896 0.0 -0.0025871247418610965 0.0 0.0
0.005540896155553948 -0.003733654087709759 0.0 -0.0035538122014233398 0.0 0.0
0.007673389524950287 -0.005623668460395859 0.0 -0.004624175473223913 0.0 0.0
0.010148864643691101 -0.007884649698834068 0.0 -0.005686193318302862 0.0 0.0
0.013054136615254425 -0.010591473410698438 0.0 -0.006766918844941239 0.0 0.0
0.016548477309938407 -0.013896374441559889 0.0 -0.00797171053272333 0.0 0.0
0.02081335125929374 -0.017974714071030018 0.0 -0.009402899723794489 0.0 0.0
0.025951900864279842 -0.0229269347789145 0.0 -0.011062722538174724 0.0 0.0
0.03190706702837062 -0.028693801437800648 0.0 -0.012722313121393242 0.0 0.0
0.03843121018704381 -0.03502734678736341 0.0 -0.0138862013518945 0.0 0.0
0.04508264726376768 -0.04148570219806036 0.0 -0.013857607126244675 0.0 0.0
0.051153644032231535 -0.0473653242556451 0.0 -0.011685930844815007 0.0 0.0
0.05560581893464005 -0.05166243771940082 0.0 -0.0063588019088286485 0.0 0.0
0.05560581893463683 -0.051662437719397714 0.0 0.006358801908853351 0.0 0.0
0.05115364403222253 -0.047365324255637775 0.0 0.011685930844847703 0.0 0.0
0.0450826472637558 -0.0414857021980497 0.0 0.013857607126270266 0.0 0.0
0.03843121018702936 -0.035027346787347424 0.0 0.013886201351904992 0.0 0.0
0.03190706702835447 -0.028693801437786215 0.0 0.012722313121389772 0.0 0.0
0.025951900864262578 -0.022926934778899843 0.0 0.011062722538170977 0.0 0.0
0.0208133512592779 -0.01797471407101514 0.0 0.009402899723792157 0.0 0.0
0.016548477309922316 -0.013896374441545234 0.0 0.007971710532720888 0.0 0.0
0.013054136615238757 -0.010591473410682894 0.0 0.006766918844934244 0.0 0.0
0.010148864643675884 -0.007884649698820079 0.0 0.005686193318294286 0.0 0.0
0.007673389524937083 -0.005623668460383868 0.0 0.004624175473213421 0.0 0.0
0.0055408961555435815 -0.003733654087699545 0.0 0.0035538122014172058 0.0 0.0
0.00376800901337411 -0.0022473741961126503 0.0 0.0025871247418561283 0.0 0.0
0.0024676446916599426 -0.0012675494742860893 0.0 0.001939998397476772 0.0 0.0
0.001672644905867729 -0.0007669845479101323 0.0 0.0016528000502052664 0.0 0.0
0.0012262079117501407 -0.0005234228908240768 0.0 0.00153301761759142 0.0 0.0
0.0008625412238553315 -0.00032423678710497006 0.0 0.0014158210785279457 0.0 0.0
0.0004756656746391086 -0.00013378855237519693 0.0 0.0014057162489833352 0.0 0.0
0.0001734804373350468 -0.00019145940920817228 0.0 0.0018122606182418566 0.0 0.0
0.0016922851539947908 -0.0029510605544508925 0.0 0.0031543442517730502 0.0 0.0
0.001228401266513135 -0.0023328362346780873 0.0 -0.0025763071083314826 0.0 0.0
0.00010871525051334152 -0.0001943953740388138 0.0 -0.0020374587633518737 0.0 0.0
0.0003051324226497065 -7.805159229745673e-05 0.0 -0.001676896598897637 0.0 0.0
0.0006271409188362831 -0.00021599406027594803 0.0 -0.0016507298795602199 0.0 0.0
0.0009468543187933498 -0.0003969657999878251 0.0 -0.0017695325193694267 0.0 0.0
0.0013008144007229591 -0.0005787795918625882 0.0 -0.0018874509248836546 0.0 0.0
0.0018650590242286144 -0.0008889695443633494 0.0 -0.002106677409952823 0.0 0.0
0.0028102512050204656 -0.001524723035757125 0.0 -0.0025960253195655425 0.0 0.0
0.004168018702386415 -0.0025831855662230563 0.0 -0.0034166118167170967 0.0 0.0
0.005862923247446611 -0.004024367879704949 0.0 -0.004466690590975875 0.0 0.0
0.007814071263650857 -0.00577027574253286 0.0 -0.005558831522931379 0.0 0.0
0.010074107058748082 -0.007843105347969725 0.0 -0.006635619100992085 0.0 0.0
0.01276782254734421 -0.010364016713382718 0.0 -0.00780692466009647 0.0 0.0
0.01605507435348074 -0.013485833679450554 0.0 -0.00917691618480318 0.0 0.0
0.020043767317218263 -0.017317081272733903 0.0 -0.010744095471486192 0.0 0.0
0.024745938557269753 -0.02185825665106811 0.0 -0.01232449210965314 0.0 0.0
0.030014836924558336 -0.026971686639428727 0.0 -0.013518154901689672 0.0 0.0
0.035584986622168455 -0.03239306386137386 0.0 -0.013679862134865661 0.0 0.0
0.04102019052084245 -0.03767168151464495 0.0 -0.011878737173466103 0.0 0.0
0.0454666988337441 -0.04196207543618513 0.0 -0.00683351188870257 0.0 0.0
0.04546669883374123 -0.04196207543618069 0.0 0.006833511888725163 0.0 0.0
0.04102019052083532 -0.03767168151463429 0.0 0.011878737173499021 0.0 0.0
0.03558498662215856 -0.03239306386136254 0.0 0.013679862134890808 0.0 0.0
0.030014836924546512 -0.026971686639418513 0.0 0.013518154901697776 0.0 0.0
0.024745938557257013 -0.021858256651055896 0.0 0.01232449210964831 0.0 0.0
0.02004376731720464 -0.017317081272721913 0.0 0.010744095471480808 0.0 0.0
0.016055074353468576 -0.01348583367943923 0.0 0.009176916184800488 0.0 0.0
0.012767822547332344 -0.010364016713372282 0.0 0.007806924660094916 0.0 0.0
0.01007410705873582 -0.007843105347957735 0.0 0.006635619100985535 0.0 0.0
0.007814071263639255 -0.0057702757425208695 0.0 0.0055588315229226914 0.0 0.0
0.005862923247436244 -0.004024367879696289 0.0 0.004466690590966438 0.0 0.0
0.004168018702378581 -0.0025831855662148406 0.0 0.0034166118167114623 0.0 0.0
0.002810251205014852 -0.001524723035752018 0.0 0.0025960253195617122 0.0 0.0
0.0018650590242253184 -0.000888969544361462 0.0 0.0021066774099507413 0.0 0.0
0.0013008144007217587 -0.0005787795918628102 0.0 0.0018874509248812399 0.0 0.0
0.0009468543187924755 -0.0003969657999883247 0.0 0.0017695325193677336 0.0 0.0
0.0006271409188360055 -0.00021599406027555945 0.0 0.00165072987955861 0.0 0.0
0.0003051324226495261 -7.805159229687386e-05 0.0 0.0016768965988952222 0.0 0.0
0.00010871525051313335 -0.00019439537403850848 0.0 0.002037458763349459 0.0 0.0
0.001228401266509957 -0.00233283623467376 0.0 0.002576307108326348 0.0 0.0
0.0008809611239906645 -0.0018386647903395337 0.0 -0.002152806624054149 0.0 0.0
4.792293679829751e-05 -0.00019669861857304904 0.0 -0.0021734912337434686 0.0 0.0
0.00015098078299449064 -2.6103395167176302e-05 0.0 -0.0018954680558573023 0.0 0.0
0.0003998660465659165 -0.00011408568070037095 0.0 -0.001851422846917694 0.0 0.0
0.0006595172929821577 -0.00026342362389475404 0.0 -0.001963211262077741 0.0 0.0
0.0009328288764106699 -0.00041105848916289656 0.0 -0.0021154767720309164 0.0 0.0
0.0013151043514178853 -0.0005975811801715025 0.0 -0.002299002802273409 0.0 0.0
0.0019378442946738489 -0.0009429659257815803 0.0 -0.002594282223244676 0.0 0.0
0.002863099436946445 -0.001576625722485625 0.0 -0.0031576897674362725 0.0 0.0
0.0040794895151669355 -0.0025277988276224406 0.0 -0.0040098055187222925 0.0 0.0
0.005503823828028165 -0.0037407145205885506 0.0 -0.005014334132011911 0.0 0.0
0.007129456421512317 -0.005189230218936913 0.0 -0.006040356968127603 0.0 0.0
0.009045374173811335 -0.006942445513737905 0.0 -0.0071355457672018785 0.0 0.0
0.011374041809799063 -0.009123115162873008 0.0 -0.008360869647445313 0.0 0.0
0.014222706318220257 -0.011834772044675201 0.0 -0.0097334195184825 0.0 0.0
0.017645065881393876 -0.015128460540694277 0.0 -0.011137835314939726 0.0 0.0
0.02161254647297893 -0.018967732258656333 0.0 -0.012234423317693977 0.0 0.0
0.026004983044794566 -0.023252302818843607 0.0 -0.01254531623737476 0.0 0.0
0.030666393120340363 -0.02781476137674943 0.0 -0.011371349486452853 0.0 0.0
0.035083628556892385 -0.03208009516816235 0.0 -0.007150414373839287 0.0 0.0
0.035083628556889915 -0.03208009516816168 0.0 0.007150414373859493 0.0 0.0
0.03066639312033534 -0.027814761376745434 0.0 0.01137134948648122 0.0 0.0
0.026004983044786475 -0.023252302818838277 0.0 0.012545316237394077 0.0 0.0
0.021612546472969868 -0.018967732258653003 0.0 0.012234423317699639 0.0 0.0
0.017645065881384717 -0.015128460540686284 0.0 0.011137835314936062 0.0 0.0
0.014222706318210473 -0.01183477204466632 0.0 0.00973341951847756 0.0 0.0
0.011374041809790736 -0.00912311516286235 0.0 0.008360869647444535 0.0 0.0
0.009045374173803508 -0.006942445513728801 0.0 0.00713554576719988 0.0 0.0
0.00712945642150363 -0.005189230218930252 0.0 0.006040356968121219 0.0 0.0
0.0055038238280201435 -0.0037407145205845538 0.0 0.005014334132004139 0.0 0.0
0.004079489515159573 -0.0025277988276208863 0.0 0.004009805518713161 0.0 0.0
0.0028630994369412688 -0.0015766257224834046 0.0 0.0031576897674321647 0.0 0.0
0.0019378442946704072 -0.0009429659257802481 0.0 0.0025942822232423723 0.0 0.0
0.0013151043514158661 -0.0005975811801703923 0.0 0.0022990028022716325 0.0 0.0
0.0009328288764098719 -0.0004110584891630076 0.0 0.002115476772028252 0.0 0.0
0.000659517292981443 -0.0002634236238939214 0.0 0.0019632112620757147 0.0 0.0
0.00039986604656575 -0.00011408568069926073 0.0 0.0018514228469151406 0.0 0.0
0.00015098078299427553 -2.610339516681548e-05 0.0 0.0018954680558546377 0.0 0.0
4.792293679806159e-05 -0.00019669861857279924 0.0 0.0021734912337416923 0.0 0.0
0.0008809611239887077 -0.0018386647903366228 0.0 0.0021528066240514843 0.0 0.0
0.0006343601037162028 -0.0014756429458096243 0.0 -0.0018912553238550345 0.0 0.0
-1.423485854167017e-05 -0.00019496920655326377 0.0 -0.0022601572212682386 0.0 0.0
8.663507182829489e-06 2.492992083741319e-05 0.0 -0.002058478119925461 0.0 0.0
0.00018104273768322632 -1.7810380018801197e-05 0.0 -0.0020089292736379383 0.0 0.0
0.0003688152913641912 -0.0001272562752754336 0.0 -0.002107735526512833 0.0 0.0
0.0005547613028217685 -0.0002363747867423216 0.0 -0.0022783691971019204 0.0 0.0
0.0007897060301646497 -0.00035423156262637256 0.0 -0.0024944938274371053 0.0 0.0
0.0011400889161785471 -0.0005205220230733998 0.0 -0.0027051451821901717 0.0 0.0
0.0016660751412875263 -0.0007954996471828402 0.0 -0.002954397270266945 0.0 0.0
0.0023721323265639416 -0.0012459280552588048 0.0 -0.0034080376892023367 0.0 0.0
0.0032423384487918344 -0.0018917512517269142 0.0 -0.004117277900749172 0.0 0.0
0.0042251281850117645 -0.0027021666779531994 0.0 -0.004961952466262631 0.0 0.0
0.005379234257780585 -0.003698029010443138 0.0 -0.005933241741264417 0.0 0.0
0.006777163998150204 -0.004956757731295669 0.0 -0.006984543533405219 0.0 0.0
0.008498122887106871 -0.0065567960806725 0.0 -0.008114209275113415 0.0 0.0
0.01062523120351129 -0.008578742331274425 0.0 -0.009273502723750104 0.0 0.0
0.013242702497419948 -0.011098184036920866 0.0 -0.010264497672991202 0.0 0.0
0.016390059941044186 -0.014146298754422748 0.0 -0.010616631536804866 0.0 0.0
0.020067344616921792 -0.017790641586220124 0.0 -0.010007965798627172 0.0 0.0
0.02430285327800155 -0.02191520514628098 0.0 -0.0071872250935230975 0.0 0.0
0.024302853277999636 -0.02191520514627876 0.0 0.0071872250935385296 0.0 0.0
0.020067344616918947 -0.017790641586216127 0.0 0.010007965798652818 0.0 0.0
0.0163900599410383 -0.014146298754419862 0.0 0.010616631536822407 0.0 0.0
0.013242702497413966 -0.011098184036915315 0.0 0.010264497672995254 0.0 0.0
0.010625231203506127 -0.008578742331270428 0.0 0.009273502723744997 0.0 0.0
0.008498122887101334 -0.006556796080666727 0.0 0.008114209275109474 0.0 0.0
0.006777163998145666 -0.004956757731292782 0.0 0.00698454353340433 0.0 0.0
0.005379234257776602 -0.0036980290104420277 0.0 0.005933241741263862 0.0 0.0
0.004225128185007157 -0.0027021666779489806 0.0 0.0049619524662584125 0.0 0.0
0.0032423384487871992 -0.001891751251721585 0.0 0.004117277900742844 0.0 0.0
0.002372132326559806 -0.0012459280552541419 0.0 0.0034080376891958974 0.0 0.0
0.0016660751412850283 -0.0007954996471805087 0.0 0.0029543972702656407 0.0 0.0
0.0011400889161768818 -0.0005205220230726226 0.0 0.002705145182188534 0.0 0.0
0.0007897060301635256 -0.0003542315626270387 0.0 0.0024944938274348294 0.0 0.0
0.0005547613028213938 -0.00023637478674121137 0.0 0.0022783691970987008 0.0 0.0
0.00036881529136365 -0.0001272562752739348 0.0 0.0021077355265105013 0.0 0.0
0.00018104273768335122 -1.7810380018801197e-05 0.0 0.0020089292736354958 0.0 0.0
8.66350718256581e-06 2.492992083683032e-05 0.0 0.002058478119922824 0.0 0.0
-1.4234858541739559e-05 -0.00019496920655326377 0.0 0.0022601572212657406 0.0 0.0
0.0006343601037150509 -0.001475642945807789 0.0 0.001891255323852259 0.0 0.0
0.00046331165676234687 -0.0012027304029882668 0.0 -0.0017082478879210106 0.0 0.0
-7.268220626414912e-05 -0.00018511703877990837 0.0 -0.0023009274049619055 0.0 0.0
-0.00012422407086799814 7.38183248255031e-05 0.0 -0.002169196197632395 0.0 0.0
-2.963818972505361e-05 7.398570155386919e-05 0.0 -0.002116666207759299 0.0 0.0
7.851614130538476e-05 8.070437901852578e-06 0.0 -0.002197682526487943 0.0 0.0
0.00016975037509055213 -5.730813531856782e-05 0.0 -0.0023719775770863483 0.0 0.0
0.0002607770018508565 -0.00011314679359264446 0.0 -0.0026132384317338886 0.0 0.0
0.000378360055206195 -0.00017072538585016783 0.0 -0.00282706337068947 0.0 0.0
0.0005499621297027774 -0.00025095861878554615 0.0 -0.003006266953433312 0.0 0.0
0.0007727590613408747 -0.0003636158632180919 0.0 -0.003194464351926385 0.0 0.0
0.0010645916546838247 -0.0005139227615973407 0.0 -0.003512985908800337 0.0 0.0
0.0013910796631492195 -0.0007091192845314342 0.0 -0.0039944710905956415 0.0 0.0
0.0017750725499942749 -0.0009631585230336359 0.0 -0.00467270168453382 0.0 0.0
0.0022417174703583537 -0.0012971734039997074 0.0 -0.00555060480335845 0.0 0.0
0.0028338268667885552 -0.001761730764436642 0.0 -0.006626099931097695 0.0 0.0
0.0036562647277228327 -0.002471919204591 0.0 -0.007813942864785095 0.0 0.0
0.00489528453719533 -0.0036103636249913418 0.0 -0.008881511937104958 0.0 0.0
0.006782477115544763 -0.0053746262625187224 0.0 -0.009341297513929148 0.0 0.0
0.009396696703700594 -0.007866060448216583 0.0 -0.00870578840134828 0.0 0.0
0.012982990961252189 -0.011522303958992897 0.0 -0.007103209471023164 0.0 0.0
0.012982990961251856 -0.011522303958994229 0.0 0.007103209471034211 0.0 0.0
0.009396696703699386 -0.007866060448216583 0.0 0.008705788401368264 0.0 0.0
0.006782477115541682 -0.005374626262517168 0.0 0.009341297513940972 0.0 0.0
0.004895284537193095 -0.003610363624987789 0.0 0.00888151193710729 0.0 0.0
0.003656264727722125 -0.0024719192045878913 0.0 0.007813942864780099 0.0 0.0
0.002833826866787112 -0.00176173076443642 0.0 0.00662609993109442 0.0 0.0
0.0022417174703574516 -0.0012971734039994853 0.0 0.005550604803357062 0.0 0.0
0.0017750725499942333 -0.0009631585230316375 0.0 0.004672701684533487 0.0 0.0
0.0013910796631486783 -0.0007091192845292138 0.0 0.003994471090591645 0.0 0.0
0.0010645916546829087 -0.0005139227615966746 0.0 0.003512985908795341 0.0 0.0
0.0007727590613401392 -0.00036361586321964623 0.0 0.0031944643519217775 0.0 0.0
0.0005499621297024859 -0.00025095861878710046 0.0 0.0030062669534332565 0.0 0.0
0.00037836005520590354 -0.00017072538585016783 0.0 0.002827063370687999 0.0 0.0
0.0002607770018506622 -0.00011314679359342161 0.0 0.0026132384317310575 0.0 0.0
0.00016975037509059376 -5.730813531812373e-05 0.0 0.002371977577083212 0.0 0.0
7.851614130541251e-05 8.070437902185645e-06 0.0 0.0021976825264852784 0.0 0.0
-2.9638189724789932e-05 7.398570155348061e-05 0.0 0.0021166662077571063 0.0 0.0
-0.0001242240708681508 7.381832482589168e-05 0.0 0.002169196197630535 0.0 0.0
-7.268220626414912e-05 -0.00018511703877985286 0.0 0.002300927404960268 0.0 0.0
0.000463311656761764 -0.001202730402987186 0.0 0.0017082478879198448 0.0 0.0
0.00034296781462037074 -0.0009856544915909926 0.0 -0.0015595930641146838 0.0 0.0
-0.00012615957264204558 -0.00016362297185573693 0.0 -0.002290415763538306 0.0 0.0
-0.00024812032511292714 0.00011948955322033106 0.0 -0.0022275346968905763 0.0 0.0
-0.00023246467019953643 0.0001614385594515544 0.0 -0.0021712942425599346 0.0 0.0
-0.0002080130575843192 0.00014050926723951918 0.0 -0.0022283487215090103 0.0 0.0
-0.00021638559639686195 0.0001222349237660625 0.0 -0.0023826430156127787 0.0 0.0
-0.00027192829024472176 0.00013064815083074777 0.0 -0.0026148753389300117 0.0 0.0
-0.00037829396068449206 0.00017260791705631107 0.0 -0.0028284216589949673 0.0 0.0
-0.0005478716915085224 0.0002495476029991117 0.0 -0.003005922446064485 0.0 0.0
-0.0007710543028261879 0.00036236770973285815 0.0 -0.0031936462550094524 0.0 0.0
-0.0010637538910016342 0.0005141592815869345 0.0 -0.003511532770705539 0.0 0.0
-0.0013957254443427852 0.0007146573169058978 0.0 -0.003992554036833906 0.0 0.0
-0.0017933870997525886 0.0009781761665574873 0.0 -0.004669163951176447 0.0 0.0
-0.0022745091358067904 0.0013175485483460925 0.0 -0.005550416330960539 0.0 0.0
-0.0028197340551252975 0.0017204333144082984 0.0 -0.006645344037033429 0.0 0.0
-0.003315734078579158 0.0020944849870989657 0.0 -0.007924245158125953 0.0 0.0
-0.003502434596404022 0.0022328788610965766 0.0 -0.009375571682457173 0.0 0.0
-0.002996829147377908 0.0018226215458945205 0.0 -0.010951046588753954 0.0 0.0
-0.0014705501358875245 0.0007775418813351642 0.0 -0.012151776096444467 0.0 0.0
0.0018572682381857164 -0.0022265477197900285 0.0 -0.010196979260116479 0.0 0.0
0.0018572682381857858 -0.0022265477197895844 0.0 0.01019697926012847 0.0 0.0
-0.0014705501358881767 0.0007775418813369406 0.0 0.012151776096457956 0.0 0.0
-0.0029968291473773667 0.001822621545892078 0.0 0.010951046588760616 0.0 0.0
-0.0035024345964015657 0.00223287886109369 0.0 0.009375571682455508 0.0 0.0
-0.0033157340785752304 0.002094484987096301 0.0 0.007924245158119514 0.0 0.0
-0.0028197340551226746 0.0017204333144080763 0.0 0.006645344037029821 0.0 0.0
-0.002274509135804112 0.0013175485483447602 0.0 0.005550416330957986 0.0 0.0
-0.001793387099748689 0.0009781761665526023 0.0 0.004669163951175448 0.0 0.0
-0.0013957254443389688 0.0007146573169001247 0.0 0.00399255403683052 0.0 0.0
-0.0010637538909985533 0.0005141592815827156 0.0 0.003511532770701431 0.0 0.0
-0.0007710543028234818 0.00036236770973085974 0.0 0.003193646255005067 0.0 0.0
-0.0005478716915067183 0.00024954760299933376 0.0 0.003005922446063347 0.0 0.0
-0.00037829396068343735 0.00017260791705464573 0.0 0.0028284216589938016 0.0 0.0
-0.00027192829024384746 0.0001306481508304147 0.0 0.0026148753389283463 0.0 0.0
-0.00021638559639636235 0.00012223492376484124 0.0 0.0023826430156108636 0.0 0.0
-0.000208013057583889 0.00014050926723946366 0.0 0.0022283487215063458 0.0 0.0
-0.00023246467019921724 0.00016143855945249808 0.0 0.002171294242557076 0.0 0.0
-0.0002481203251128439 0.0001194895532203033 0.0 0.0022275346968881338 0.0 0.0
-0.00012615957264196231 -0.00016362297185540386 0.0 0.0022904157635373623 0.0 0.0
0.00034296781462012094 -0.0009856544915899518 0.0 0.0015595930641131295 0.0 0.0
0.00025142477549100484 -0.0007900100001100863 0.0 -0.001400734374849194 0.0 0.0
-0.00017571465315482926 -0.00013368150586276495 0.0 -0.002230128873177306 0.0 0.0
-0.00036376024183686073 0.00016311047024536451 0.0 -0.002231088962520611 0.0 0.0
-0.00042720516034017164 0.00024388678714737377 0.0 -0.0021710615419529566 0.0 0.0
-0.0004879969823634728 0.0002683128310675409 0.0 -0.002197728299741908 0.0 0.0
-0.0005982428946706281 0.0002985502656479566 0.0 -0.002321637569564744 0.0 0.0
-0.0008001254756398318 0.00037104428920053945 0.0 -0.0025085483847861467 0.0 0.0
-0.0011398904656033937 0.0005221659794469868 0.0 -0.0027073185700649816 0.0 0.0
-0.0016637689701728825 0.0007937805441444734 0.0 -0.002953388703418991 0.0 0.0
-0.0023703787214160166 0.0012446117971824933 0.0 -0.0034064030051241256 0.0 0.0
-0.0032418967865904813 0.0018923319319057441 0.0 -0.00411634378409792 0.0 0.0
-0.004229026640585276 0.0027080969998583004 0.0 -0.0049576750568129935 0.0 0.0
-0.005395554785102341 0.0037164234137718744 0.0 -0.005917109747094473 0.0 0.0
-0.0068105392377622725 0.004983834535310372 0.0 -0.006965967360204051 0.0 0.0
-0.008491731167405717 0.006518596405419741 0.0 -0.008171554604445908 0.0 0.0
-0.010322328294673916 0.008204805694865813 0.0 -0.009632353028678375 0.0 0.0
-0.0119868112268193 0.009727026635542257 0.0 -0.01138999461912632 0.0 0.0
-0.01296077927131331 0.010577210989374697 0.0 -0.013328714031165423 0.0 0.0
-0.012392288785518096 0.009747347794391015 0.0 -0.014175235147829535 0.0 0.0
-0.0086749247192036 0.005961197130450735 0.0 -0.011900796016733717 0.0 0.0
-0.00867492471920403 0.005961197130450735 0.0 0.011900796016748483 0.0 0.0
-0.012392288785517888 0.009747347794388572 0.0 0.014175235147849241 0.0 0.0
-0.012960779271309397 0.010577210989370256 0.0 0.01332871403117869 0.0 0.0
-0.011986811226812374 0.00972702663553604 0.0 0.011389994619126487 0.0 0.0
-0.010322328294665603 0.00820480569486004 0.0 0.009632353028672158 0.0 0.0
-0.008491731167399055 0.006518596405415522 0.0 0.008171554604440856 0.0 0.0
-0.006810539237755764 0.004983834535303933 0.0 0.006965967360199388 0.0 0.0
-0.005395554785094764 0.003716423413765435 0.0 0.005917109747091476 0.0 0.0
-0.004229026640577185 0.0027080969998536375 0.0 0.0049576750568058325 0.0 0.0
-0.0032418967865834036 0.0018923319319028575 0.0 0.004116343784089482 0.0 0.0
-0.0023703787214096467 0.0012446117971796067 0.0 0.00340640300511752 0.0 0.0
-0.0016637689701686081 0.0007937805441428081 0.0 0.0029533887034167705 0.0 0.0
-0.0011398904656008957 0.0005221659794453215 0.0 0.0027073185700643154 0.0 0.0
-0.000800125475638111 0.0003710442892012056 0.0 0.0025085483847844536 0.0 0.0
-0.0005982428946697538 0.0002985502656475125 0.0 0.00232163756956133 0.0 0.0
-0.0004879969823628344 0.0002683128310671523 0.0 0.0021977282997392433 0.0 0.0
-0.0004272051603395749 0.0002438867871474848 0.0 0.002171061541950625 0.0 0.0
-0.0003637602418365138 0.00016311047024519798 0.0 0.0022310889625190844 0.0 0.0
-0.00017571465315470436 -0.00013368150586259842 0.0 0.002230128873176057 0.0 0.0
0.00025142477549074116 -0.0007900100001094063 0.0 0.0014007343748473622 0.0 0.0
0.00017256503735935125 -0.0006115996518216427 0.0 -0.0012388482268631817 0.0 0.0
-0.00022321859767743257 -9.56283464033647e-05 0.0 -0.002118392915883005 0.0 0.0
-0.0004722926118215648 0.00020513487223411397 0.0 -0.0021795174101984782 0.0 0.0
-0.0006135402489674258 0.00032137918141855737 0.0 -0.002115013307652708 0.0 0.0
-0.0007594716580978517 0.00038894655434096315 0.0 -0.00210668498474198 0.0 0.0
-0.0009702013715068292 0.0004669349375916454 0.0 -0.002178896511447398 0.0 0.0
-0.001323873234290368 0.0006134442776238869 0.0 -0.0023172559011881144 0.0 0.0
-0.001936988963271588 0.0009437178835336457 0.0 -0.002597850891514125 0.0 0.0
-0.002860522791516093 0.0015741236011885817 0.0 -0.0031539229689634685 0.0 0.0
-0.004078264526289621 0.0025265283784263737 0.0 -0.004007103130830858 0.0 0.0
-0.005504096318356008 0.00374150838491083 0.0 -0.005013845984863208 0.0 0.0
-0.007131497293684674 0.005193177156644246 0.0 -0.006034016100839312 0.0 0.0
-0.009055519124684594 0.006955711076803706 0.0 -0.007102493818154698 0.0 0.0
-0.011401513479853562 0.009147599661249117 0.0 -0.008294861613878546 0.0 0.0
-0.014230431701550764 0.011818058279608357 0.0 -0.009747031350653024 0.0 0.0
-0.017425950985302516 0.014846332407088658 0.0 -0.011652238961035177 0.0 0.0
-0.020597231978330924 0.01784069020801793 0.0 -0.01417386466988435 0.0 0.0
-0.0229637184776484 0.01997022795437453 0.0 -0.016920849692533657 0.0 0.0
-0.023069708102461617 0.019776852787466215 0.0 -0.01836833848677083 0.0 0.0
-0.018664246143711427 0.014897499491035804 0.0 -0.015336088651472513 0.0 0.0
-0.01866424614371115 0.014897499491037358 0.0 0.015336088651491164 0.0 0.0
-0.023069708102459896 0.01977685278746666 0.0 0.01836833848679681 0.0 0.0
-0.02296371847764199 0.019970227954371644 0.0 0.01692084969255242 0.0 0.0
-0.02059723197832039 0.01784069020800838 0.0 0.014173864669887182 0.0 0.0
-0.017425950985290192 0.014846332407076002 0.0 0.01165223896102957 0.0 0.0
-0.0142304317015403 0.011818058279597476 0.0 0.009747031350647195 0.0 0.0
-0.011401513479843028 0.009147599661240013 0.0 0.008294861613873078 0.0 0.0
-0.009055519124673249 0.006955711076793936 0.0 0.0071024938181512565 0.0 0.0
-0.007131497293672767 0.005193177156632478 0.0 0.006034016100832845 0.0 0.0
-0.0055040963183449615 0.0037415083848995057 0.0 0.005013845984853271 0.0 0.0
-0.004078264526279754 0.0025265283784161596 0.0 0.004007103130821477 0.0 0.0
-0.002860522791509175 0.0015741236011821425 0.0 0.003153922968958889 0.0 0.0
-0.0019369889632673554 0.0009437178835297599 0.0 0.0025978508915118215 0.0 0.0
-0.001323873234287759 0.0006134442776225546 0.0 0.002317255901185894 0.0 0.0
-0.0009702013715053928 0.00046693493759086824 0.0 0.0021788965114451775 0.0 0.0
-0.0007594716580969496 0.0003889465543407411 0.0 0.002106684984740176 0.0 0.0
-0.0006135402489666902 0.0003213791814183353 0.0 0.002115013307651459 0.0 0.0
-0.00047229261182109294 0.0002051348722342805 0.0 0.0021795174101965353 0.0 0.0
-0.00022321859767727992 -9.562834640325368e-05 0.0 0.002118392915881062 0.0 0.0
0.00017256503735913614 -0.0006115996518209661 0.0 0.0012388482268617385 0.0 0.0
0.00010175987896361705 -0.0004503514796929675 0.0 -0.001074835777013089 0.0 0.0
-0.00027086010043272934 -5.0879685437960065e-05 0.0 -0.001959858373525969 0.0 0.0
-0.0005748918435074662 0.000246486521661482 0.0 -0.00207335452812199 0.0 0.0
-0.0007915711294893546 0.00039315614111140595 0.0 -0.0020045968528604186 0.0 0.0
-0.001019285448207785 0.0005009670101905339 0.0 -0.0019513248287750251 0.0 0.0
-0.001330628928579311 0.0006278512500137445 0.0 -0.00197111358848312 0.0 0.0
-0.0018709758817834349 0.0009033364887619522 0.0 -0.002134698693216558 0.0 0.0
-0.0028082797206707283 0.0015237427232659417 0.0 -0.0025965097610429755 0.0 0.0
-0.004165753998296051 0.002580551657382024 0.0 -0.0034111162374251547 0.0 0.0
-0.005862786815164861 0.004023970249841691 0.0 -0.0044642721380638295 0.0 0.0
-0.00781501178850838 0.005771548179984709 0.0 -0.005559386815945255 0.0 0.0
-0.010073765207714858 0.007843959519711508 0.0 -0.006629442708249833 0.0 0.0
-0.012766833127497587 0.01036593467679392 0.0 -0.007762829407816307 0.0 0.0
-0.016063615038933193 0.013495288506804481 0.0 -0.009060937451881301 0.0 0.0
-0.020059657953170454 0.017320258284964973 0.0 -0.010673767632759512 0.0 0.0
-0.024657723461651626 0.021726212626939967 0.0 -0.01288662152064074 0.0 0.0
-0.029358804398421992 0.026194267580756492 0.0 -0.015926545574926954 0.0 0.0
-0.03301319117768593 0.029544458183093703 0.0 -0.019370814251322865 0.0 0.0
-0.033591889423828625 0.029721801442561313 0.0 -0.021442388924816036 0.0 0.0
-0.02794277291461264 0.023514964782202386 0.0 -0.018722053544616812 0.0 0.0
-0.027942772914611502 0.0235149647821995 0.0 0.01872205354463785 0.0 0.0
-0.03359188942382467 0.029721801442557094 0.0 0.021442388924843847 0.0 0.0
-0.03301319117767733 0.029544458183083266 0.0 0.019370814251343793 0.0 0.0
-0.029358804398408198 0.02619426758074117 0.0 0.015926545574933115 0.0 0.0
-0.024657723461636256 0.021726212626925534 0.0 0.012886621520636937 0.0 0.0
-0.02005965795315614 0.017320258284952095 0.0 0.01067376763275385 0.0 0.0
-0.016063615038918864 0.013495288506791603 0.0 0.009060937451875667 0.0 0.0
-0.012766833127482231 0.010365934676778377 0.0 0.007762829407811284 0.0 0.0
-0.010073765207699342 0.007843959519697297 0.0 0.006629442708241534 0.0 0.0
-0.007815011788493684 0.005771548179970498 0.0 0.005559386815934736 0.0 0.0
-0.005862786815151892 0.0040239702498297 0.0 0.004464272138051784 0.0 0.0
-0.004165753998286226 0.0025805516573746967 0.0 0.0034111162374178827 0.0 0.0
-0.002808279720664379 0.0015237427232630552 0.0 0.0025965097610393117 0.0 0.0
-0.0018709758817795213 0.000903336488761175 0.0 0.002134698693214143 0.0 0.0
-0.0013306289285773612 0.0006278512500124123 0.0 0.0019711135884821207 0.0 0.0
-0.0010192854482065222 0.0005009670101895902 0.0 0.0019513248287734708 0.0 0.0
-0.0007915711294886052 0.00039315614111085084 0.0 0.0020045968528588087 0.0 0.0
-0.0005748918435068001 0.00024648652166120444 0.0 0.002073354528119825 0.0 0.0
-0.000270860100432542 -5.08796854378768e-05 0.0 0.0019598583735239428 0.0 0.0
0.00010175987896345745 -0.00045035147969267955 0.0 0.001074835777011729 0.0 0.0
3.828441629734336e-05 -0.00030752649323273484 0.0 -0.0009070746172730737 0.0 0.0
-0.0003192179448047866 -1.440495718846302e-06 0.0 -0.0017599064598857739 0.0 0.0
-0.0006726228894321507 0.00028737889153690466 0.0 -0.0019138544754180031 0.0 0.0
-0.0009613698682656713 0.0004598007986370556 0.0 -0.0018380955562799228 0.0 0.0
-0.0012648236070815083 0.0006005392957203481 0.0 -0.0017381091097625756 0.0 0.0
-0.001693942021135389 0.0008054345818474529 0.0 -0.0017382061499219559 0.0 0.0
-0.002469970778603059 0.001278356482535603 0.0 -0.001963793390141605 0.0 0.0
-0.003765374261843396 0.002245225462895517 0.0 -0.002585167467364924 0.0 0.0
-0.005539859155970314 0.003731688271532585 0.0 -0.003546822694176388 0.0 0.0
-0.007674400862938968 0.005624385780730101 0.0 -0.00462163021531764 0.0 0.0
-0.010150301331977932 0.007886210063875687 0.0 -0.0056864667084725595 0.0 0.0
-0.013051313325440378 0.010588883427964602 0.0 -0.006761222455901217 0.0 0.0
-0.016533230308779803 0.01388299305327867 0.0 -0.007924827917383359 0.0 0.0
-0.020790918136685002 0.017957333050647062 0.0 -0.009258574770613925 0.0 0.0
-0.02596268647151069 0.022940498821135247 0.0 -0.010911862614186474 0.0 0.0
-0.031960154876029254 0.028719478167614776 0.0 -0.013170912605152019 0.0 0.0
-0.03816457543001764 0.03463806789782131 0.0 -0.01631849713033262 0.0 0.0
-0.04305074392109437 0.03914457230126023 0.0 -0.020156226675358158 0.0 0.0
-0.043925825221253836 0.039538336134603336 0.0 -0.023036760686713398 0.0 0.0
-0.036862803318932616 0.03192016047637902 0.0 -0.021950405515109017 0.0 0.0
-0.036862803318930965 0.03192016047637858 0.0 0.021950405515131832 0.0 0.0
-0.04392582522124773 0.03953833613460089 0.0 0.023036760686742264 0.0 0.0
-0.04305074392108335 0.039144572301250014 0.0 0.020156226675378197 0.0 0.0
-0.038164575430000944 0.03463806789780666 0.0 0.016318497130338838 0.0 0.0
-0.031960154876010914 0.028719478167598123 0.0 0.013170912605149049 0.0 0.0
-0.025962686471492954 0.022940498821118593 0.0 0.01091186261418195 0.0 0.0
-0.020790918136666753 0.01795733305062952 0.0 0.009258574770607542 0.0 0.0
-0.016533230308760624 0.01388299305326024 0.0 0.007924827917379057 0.0 0.0
-0.013051313325421213 0.010588883427946838 0.0 0.006761222455893334 0.0 0.0
-0.01015030133195989 0.007886210063858368 0.0 0.005686466708462401 0.0 0.0
-0.00767440086292296 0.005624385780715224 0.0 0.004621630215305622 0.0 0.0
-0.005539859155957803 0.003731688271518596 0.0 0.003546822694169477 0.0 0.0
-0.003765374261834549 0.002245225462885414 0.0 0.002585167467360594 0.0 0.0
-0.0024699707785975286 0.001278356482530496 0.0 0.001963793390138302 0.0 0.0
-0.001693942021132773 0.0008054345818450104 0.0 0.0017382061499207069 0.0 0.0
-0.0012648236070801552 0.000600539295719571 0.0 0.0017381091097613544 0.0 0.0
-0.0009613698682647207 0.0004598007986360009 0.0 0.0018380955562779244 0.0 0.0
-0.0006726228894314776 0.00028737889153704343 0.0 0.0019138544754164766 0.0 0.0
-0.00031921794480459925 -1.4404957185965017e-06 0.0 0.0017599064598843306 0.0 0.0
3.8284416297315604e-05 -0.00030752649323246596 0.0 0.0009070746172724076 0.0 0.0
-1.692813499780399e-05 -0.0001850057454673426 0.0 -0.0007337302211655738 0.0 0.0
-0.00036714683331152964 5.017078500571537e-05 0.0 -0.0015231387520535655 0.0 0.0
-0.0007662248986961273 0.00032795270800123344 0.0 -0.0017027578870109639 0.0 0.0
-0.0011230420842674171 0.0005200928593938614 0.0 -0.0016179063534329519 0.0 0.0
-0.0015003789816526447 0.0006992778045873393 0.0 -0.0014880639157651143 0.0 0.0
-0.0020779048203956457 0.001014658808677682 0.0 -0.0014837577984221917 0.0 0.0
-0.0031341683708195622 0.0017475841332217357 0.0 -0.0017819654410922425 0.0 0.0
-0.004791757360755572 0.003085396610271296 0.0 -0.002506103015029376 0.0 0.0
-0.00693472191401194 0.0049578595893366995 0.0 -0.0034539724157275076 0.0 0.0
-0.009494888421715517 0.007272806505370655 0.0 -0.004442183720848258 0.0 0.0
-0.012503584481546995 0.01005464508468279 0.0 -0.0054509097709209975 0.0 0.0
-0.016061748757238953 0.01339885075154612 0.0 -0.006476121775375265 0.0 0.0
-0.020350922524954143 0.017480291795433534 0.0 -0.0076021875101361935 0.0 0.0
-0.025582583480249985 0.0225089699220149 0.0 -0.008928205912754672 0.0 0.0
-0.03190649313395037 0.028626380963510556 0.0 -0.01049581631522617 0.0 0.0
-0.039247293989634446 0.03572209933618975 0.0 -0.012488665152725342 0.0 0.0
-0.04689781635803217 0.04304198488404043 0.0 -0.015357875874671412 0.0 0.0
-0.05297775815750881 0.048670923116964415 0.0 -0.01929753940367701 0.0 0.0
-0.05414220840161095 0.04929617146536658 0.0 -0.02332958487790887 0.0 0.0
-0.04576041713004664 0.04035504625720243 0.0 -0.02517014547451063 0.0 0.0
-0.04576041713004403 0.04035504625720154 0.0 0.025170145474533945 0.0 0.0
-0.054142208401603095 0.04929617146535903 0.0 0.023329584877937626 0.0 0.0
-0.05297775815749496 0.048670923116950426 0.0 0.019297539403699104 0.0 0.0
-0.04689781635801311 0.04304198488402111 0.0 0.015357875874680266 0.0 0.0
-0.039247293989613026 0.035722099336171986 0.0 0.012488665152724121 0.0 0.0
-0.03190649313392916 0.028626380963491016 0.0 0.010495816315223255 0.0 0.0
-0.02558258348022796 0.02250896992199425 0.0 0.008928205912749981 0.0 0.0
-0.020350922524931342 0.017480291795409997 0.0 0.007602187510132308 0.0 0.0
-0.016061748757216075 0.013398850751525027 0.0 0.006476121775367744 0.0 0.0
-0.012503584481525602 0.010054645084663694 0.0 0.005450909770911422 0.0 0.0
-0.009494888421696511 0.0072728065053546676 0.0 0.004442183720837156 0.0 0.0
-0.006934721913997133 0.004957859589324709 0.0 0.003453972415721651 0.0 0.0
-0.00479175736074422 0.003085396610262081 0.0 0.0025061030150247132 0.0 0.0
-0.0031341683708123458 0.0017475841332166286 0.0 0.0017819654410877184 0.0 0.0
-0.0020779048203918987 0.0010146588086757946 0.0 0.0014837577984197492 0.0 0.0
-0.0015003789816512916 0.0006992778045863401 0.0 0.001488063915763671 0.0 0.0
-0.0011230420842662237 0.0005200928593934728 0.0 0.0016179063534318416 0.0 0.0
-0.0007662248986955444 0.00032795270800098364 0.0 0.0017027578870092708 0.0 0.0
-0.00036714683331115494 5.017078500543781e-05 0.0 0.0015231387520516226 0.0 0.0
-1.692813499780399e-05 -0.00018500574546720383 0.0 0.0007337302211648244 0.0 0.0
-6.174819801674225e-05 -8.51265326128059e-05 0.0 -0.0005540325847805394 0.0 0.0
-0.00041180240038699023 0.00010095010424920892 0.0 -0.0012534658091595818 0.0 0.0
-0.000855781300494074 0.0003678126487824396 0.0 -0.0014396909678926484 0.0 0.0
-0.001278330323467608 0.0005741442205416947 0.0 -0.0013477138519278897 0.0 0.0
-0.001734692842160851 0.000801971677233615 0.0 -0.0012007497860789251 0.0 0.0
-0.0025004275116527197 0.0012814643788681135 0.0 -0.001219542455901862 0.0 0.0
-0.0038681790943217997 0.002321186297734701 0.0 -0.0015933635531475698 0.0 0.0
-0.005840739110672788 0.003994281148670509 0.0 -0.0022853694164511607 0.0 0.0
-0.008327772074383927 0.006211697210423139 0.0 -0.003095880188907163 0.0 0.0
-0.011322315330794114 0.00895370717518773 0.0 -0.003971534268896404 0.0 0.0
-0.014869547895741825 0.012260778592652732 0.0 -0.0048675167851441326 0.0 0.0
-0.019099557698366867 0.016257417302641963 0.0 -0.005786032427868237 0.0 0.0
-0.024214870340466738 0.021144399401932246 0.0 -0.006821546923403143 0.0 0.0
-0.030429776996194785 0.027130162063009333 0.0 -0.008041664989315467 0.0 0.0
-0.03786985991585004 0.03434006261952183 0.0 -0.009438462499841649 0.0 0.0
-0.04644040659264467 0.04265113192245096 0.0 -0.010993091180478087 0.0 0.0
-0.05541607564209383 0.05126436641849663 0.0 -0.013088671351460412 0.0 0.0
-0.06269771160351545 0.05803617042216591 0.0 -0.016713055507299512 0.0 0.0
-0.06436773037591587 0.05910085232945628 0.0 -0.022283887793435875 0.0 0.0
-0.05492286757155013 0.04906479716716228 0.0 -0.02837280397712999 0.0 0.0
-0.05492286757154698 0.049064797167158725 0.0 0.028372803977153027 0.0 0.0
-0.0643677303759062 0.05910085232944584 0.0 0.022283887793462742 0.0 0.0
-0.06269771160349878 0.05803617042215037 0.0 0.016713055507318636 0.0 0.0
-0.055416075642071884 0.05126436641847909 0.0 0.013088671351468406 0.0 0.0
-0.04644040659262058 0.04265113192242942 0.0 0.01099309118047967 0.0 0.0
-0.037869859915825275 0.03434006261949851 0.0 0.009438462499839623 0.0 0.0
-0.03042977699616923 0.02713016206298624 0.0 0.008041664989311553 0.0 0.0
-0.024214870340440446 0.021144399401911373 0.0 0.006821546923398175 0.0 0.0
-0.01909955769834023 0.016257417302617982 0.0 0.005786032427861715 0.0 0.0
-0.014869547895717063 0.012260778592630306 0.0 0.004867516785135306 0.0 0.0
-0.01132231533077245 0.008953707175168857 0.0 0.00397153426888619 0.0 0.0
-0.008327772074366625 0.006211697210407374 0.0 0.0030958801889012233 0.0 0.0
-0.005840739110659472 0.003994281148658407 0.0 0.002285369416446026 0.0 0.0
-0.003868179094312748 0.0023211862977279285 0.0 0.0015933635531440449 0.0 0.0
-0.0025004275116476786 0.0012814643788642277 0.0 0.0012195424559002799 0.0 0.0
-0.0017346928421590295 0.0008019716772319496 0.0 0.0012007497860785366 0.0 0.0
-0.001278330323466484 0.0005741442205418612 0.0 0.0013477138519271403 0.0 0.0
-0.0008557813004933836 0.00036781264878238407 0.0 0.0014396909678907333 0.0 0.0
-0.0004118024003865253 0.0001009501042489036 0.0 0.0012534658091585271 0.0 0.0
-6.174819801667286e-05 -8.51265326126862e-05 0.0 0.0005540325847805116 0.0 0.0
-9.256852521297154e-05 -1.078491320979924e-05 0.0 -0.0003698453297765747 0.0 0.0
-0.0004481646396671257 0.00014721212015070262 0.0 -0.0009531113052519968 0.0 0.0
-0.0009409857535745969 0.0004055229108756442 0.0 -0.0011229968937903623 0.0 0.0
-0.0014305778670150315 0.0006262397621838445 0.0 -0.0010288016372406728 0.0 0.0
-0.001979954078454249 0.0009230179991832621 0.0 -0.0008838345782536949 0.0 0.0
-0.0029834618721023276 0.0016196857710716328 0.0 -0.0009522619617529648 0.0 0.0
-0.0046381296886305046 0.0029571316779180012 0.0 -0.0013046832210190928 0.0 0.0
-0.00688440131788795 0.004923300243933726 0.0 -0.0018578057318202612 0.0 0.0
-0.009718256175595047 0.0074848693068823025 0.0 -0.002512955745473444 0.0 0.0
-0.01314881803631432 0.010653249498424833 0.0 -0.0032237622614103567 0.0 0.0
-0.017243261280549316 0.014491838357246323 0.0 -0.003956429309018017 0.0 0.0
-0.022157790620561224 0.01915388224615855 0.0 -0.004706460015197589 0.0 0.0
-0.028114853016601174 0.02485845184759694 0.0 -0.005556126254665283 0.0 0.0
-0.03532217796687534 0.03180996455049301 0.0 -0.006611413453830761 0.0 0.0
-0.04384456899734551 0.04007095575733555 0.0 -0.007789301536079596 0.0 0.0
-0.05349000345364817 0.04943561184006007 0.0 -0.008798300516507929 0.0 0.0
-0.0635528107468148 0.059152047057566604 0.0 -0.009727438466444582 0.0 0.0
-0.07208312741321642 0.06712972189900057 0.0 -0.012420909988424378 0.0 0.0
-0.0747057242424831 0.06904877482207628 0.0 -0.019565776229831022 0.0 0.0
-0.06467659986492166 0.058336439274401464 0.0 -0.03132007710122697 0.0 0.0
-0.06467659986491843 0.0583364392743988 0.0 0.03132007710124646 0.0 0.0
-0.07470572424247153 0.06904877482206362 0.0 0.019565776229854864 0.0 0.0
-0.07208312741319688 0.06712972189898148 0.0 0.012420909988440976 0.0 0.0
-0.0635528107467897 0.05915204705754151 0.0 0.009727438466450383 0.0 0.0
-0.05349000345362089 0.04943561184003187 0.0 0.008798300516509233 0.0 0.0
-0.043844568997317535 0.04007095575730979 0.0 0.007789301536078319 0.0 0.0
-0.03532217796684629 0.03180996455046747 0.0 0.006611413453828235 0.0 0.0
-0.02811485301657133 0.024858451847568297 0.0 0.005556126254661273 0.0 0.0
-0.022157790620530676 0.019153882246128795 0.0 0.004706460015193467 0.0 0.0
-0.01724326128052139 0.01449183835721879 0.0 0.003956429309011744 0.0 0.0
-0.013148818036290158 0.01065324949840174 0.0 0.0032237622614019745 0.0 0.0
-0.009718256175575153 0.007484869306863984 0.0 0.0025129557454688645 0.0 0.0
-0.006884401317872546 0.004923300243920736 0.0 0.0018578057318160424 0.0 0.0
-0.004638129688619694 0.002957131677907565 0.0 0.001304683221015429 0.0 0.0
-0.0029834618720958293 0.0016196857710668588 0.0 0.0009522619617509387 0.0 0.0
-0.001979954078451824 0.0009230179991818743 0.0 0.0008838345782536672 0.0 0.0
-0.0014305778670140323 0.0006262397621845106 0.0 0.0010288016372402564 0.0 0.0
-0.0009409857535736602 0.00040552291087578296 0.0 0.001122996893789141 0.0 0.0
-0.0004481646396666712 0.00014721212015048057 0.0 0.000953111305250387 0.0 0.0
-9.256852521273909e-05 -1.0784913209854752e-05 0.0 0.00036984532977585305 0.0 0.0
-0.00010328428500924747 3.431151625343798e-05 0.0 -0.00018782000494468876 0.0 0.0
-0.0004679200206080536 0.0001835235607194896 0.0 -0.0006219463007211268 0.0 0.0
-0.00102178625749616 0.00043991364686274403 0.0 -0.0007454415890887356 0.0 0.0
-0.0015867550565512867 0.0006824108811041008 0.0 -0.0006676568266936189 0.0 0.0
-0.0022581055994381483 0.0010918349174836584 0.0 -0.0005667465526983384 0.0 0.0
-0.003519566870209684 0.0020291876981516355 0.0 -0.0006357655780259153 0.0 0.0
-0.005408878318761218 0.0036262778580867794 0.0 -0.0008932979864753887 0.0 0.0
-0.00792233937891379 0.005863559649387562 0.0 -0.001264610320582088 0.0 0.0
-0.011098654457530777 0.00876603437876966 0.0 -0.0017127915332187382 0.0 0.0
-0.014967667673586038 0.012361619533214574 0.0 -0.002208748114758574 0.0 0.0
-0.019618161133262896 0.016738512985793985 0.0 -0.002715909406643735 0.0 0.0
-0.02523050778045463 0.022077239614819444 0.0 -0.0032354850624928266 0.0 0.0
-0.03204262250061243 0.02861289176408821 0.0 -0.0038586264659772884 0.0 0.0
-0.04023751550280211 0.03652349936304522 0.0 -0.004621189745136589 0.0 0.0
-0.049808791625607224 0.045796712593304534 0.0 -0.005426810849301189 0.0 0.0
-0.060414565214511454 0.05608949837676236 0.0 -0.005998312408009965 0.0 0.0
-0.0712472205476202 0.06659076804926367 0.0 -0.005961940033271884 0.0 0.0
-0.08076793159882986 0.07567966203435872 0.0 -0.006559919139577874 0.0 0.0
-0.08516420606967302 0.07914701184717354 0.0 -0.014126391635718882 0.0 0.0
-0.07552875022721568 0.06861818777019035 0.0 -0.03336471904895005 0.0 0.0
-0.07552875022721206 0.06861818777018547 0.0 0.033364719048963154 0.0 0.0
-0.08516420606965956 0.079147011847158 0.0 0.014126391635736979 0.0 0.0
-0.0807679315988069 0.07567966203433851 0.0 0.0065599191395918355 0.0 0.0
-0.07124722054759194 0.06659076804923925 0.0 0.005961940033275243 0.0 0.0
-0.06041456521448063 0.05608949837673416 0.0 0.0059983124080107975 0.0 0.0
-0.0498087916255759 0.04579671259327678 0.0 0.005426810849301397 0.0 0.0
-0.04023751550276965 0.036523499363015244 0.0 0.004621189745136048 0.0 0.0
-0.032042622500578835 0.02861289176405646 0.0 0.003858626465975082 0.0 0.0
-0.025230507780420325 0.022077239614790356 0.0 0.003235485062490384 0.0 0.0
-0.01961816113323189 0.016738512985764675 0.0 0.0027159094066389056 0.0 0.0
-0.01496766767355944 0.012361619533190149 0.0 0.0022087481147532173 0.0 0.0
-0.011098654457508786 0.008766034378750232 0.0 0.0017127915332157684 0.0 0.0
-0.007922339378896536 0.005863559649371686 0.0 0.001264610320577897 0.0 0.0
-0.005408878318748726 0.0036262778580763433 0.0 0.0008932979864727797 0.0 0.0
-0.0035195668702018845 0.0020291876981457513 0.0 0.0006357655780237503 0.0 0.0
-0.0022581055994349685 0.001091834917481438 0.0 0.0005667465526971449 0.0 0.0
-0.0015867550565499614 0.0006824108811037677 0.0 0.0006676568266932581 0.0 0.0
-0.0010217862574952268 0.000439913646862522 0.0 0.0007454415890876531 0.0 0.0
-0.0004679200206076598 0.00018352356071957288 0.0 0.0006219463007202108 0.0 0.0
-0.0001032842850090445 3.43115162535438e-05 0.0 0.00018782000494399487 0.0 0.0
-8.282526603312079e-05 4.479920029493156e-05 0.0 -2.3458243012003388e-05 0.0 0.0
-0.0004577064946669762 0.00020163500859357586 0.0 -0.0002541490703095728 0.0 0.0
-0.0010993924153310797 0.00046924494951594564 0.0 -0.0002930210591971516 0.0 0.0
-0.0017617422637945246 0.0007594660694072997 0.0 -0.00027034119296970305 0.0 0.0
-0.002587006639790612 0.0013075343872245293 0.0 -0.00022761903147205942 0.0 0.0
-0.004078206373187426 0.0024750594434211903 0.0 -0.0002463748222768791 0.0 0.0
-0.006175332488048718 0.004308275071407519 0.0 -0.0003580780809794848 0.0 0.0
-0.008946186428260977 0.006805787334767555 0.0 -0.0005079862390452716 0.0 0.0
-0.012462130869607041 0.010043554453845305 0.0 -0.0007022468819903593 0.0 0.0
-0.016770972183539012 0.014066753099579943 0.0 -0.0009254073774252469 0.0 0.0
-0.021988187872346576 0.018993639558379627 0.0 -0.0011500512238726834 0.0 0.0
-0.028317664419100302 0.0250263565034039 0.0 -0.0014014596606046759 0.0 0.0
-0.03598067389619558 0.03238805864900196 0.0 -0.001695558702910993 0.0 0.0
-0.04514083730779922 0.041235249075143754 0.0 -0.0020277778127550383 0.0 0.0
-0.05573454328931714 0.0514950901641309 0.0 -0.002358016817616604 0.0 0.0
-0.06725418124823937 0.06266157366429947 0.0 -0.002506688228393006 0.0 0.0
-0.07865807300725147 0.07371409974033671 0.0 -0.002164777335809609 0.0 0.0
-0.08846885819435306 0.08319613507683776 0.0 -0.0011190463246183446 0.0 0.0
-0.09452065988238681 0.08876804384109871 0.0 -0.0038927121646649687 0.0 0.0
-0.08891392302293546 0.08095144681195254 0.0 -0.030901629205892456 0.0 0.0
-0.08891392302293165 0.08095144681194966 0.0 0.030901629205898173 0.0 0.0
-0.09452065988237161 0.0887680438410845 0.0 0.003892712164673212 0.0 0.0
-0.08846885819432598 0.08319613507681645 0.0 0.001119046324626033 0.0 0.0
-0.07865807300721958 0.07371409974030674 0.0 0.002164777335809609 0.0 0.0
-0.06725418124820487 0.06266157366426595 0.0 0.002506688228393894 0.0 0.0
-0.05573454328928214 0.051495090164099366 0.0 0.002358016817616118 0.0 0.0
-0.04514083730776288 0.04123524907510956 0.0 0.002027777812755663 0.0 0.0
-0.03598067389615815 0.032388058648966656 0.0 0.001695558702910202 0.0 0.0
-0.028317664419062777 0.02502635650337104 0.0 0.0014014596606038987 0.0 0.0
-0.021988187872312125 0.018993639558349207 0.0 0.0011500512238686866 0.0 0.0
-0.016770972183509925 0.014066753099551521 0.0 0.0009254073774224159 0.0 0.0
-0.01246213086958309 0.010043554453822101 0.0 0.0007022468819897487 0.0 0.0
-0.008946186428241739 0.006805787334749791 0.0 0.0005079862390445777 0.0 0.0
-0.006175332488034614 0.0043082750713947515 0.0 0.00035807808097901295 0.0 0.0
-0.0040782063731784335 0.002475059443413974 0.0 0.0002463748222766293 0.0 0.0
-0.002587006639786423 0.0013075343872211431 0.0 0.0002276190314725035 0.0 0.0
-0.0017617422637928965 0.0007594660694060784 0.0 0.0002703411929692867 0.0 0.0
-0.001099392415330241 0.0004692449495159179 0.0 0.0002930210591964022 0.0 0.0
-0.0004577064946666388 0.0002016350085935481 0.0 0.0002541490703086846 0.0 0.0
-8.282526603276084e-05 4.47992002948136e-05 0.0 2.34582430118091e-05 0.0 0.0
SCALARS Statev float 8
LOOKUP_TABLE default
0.0 0.008849046518174112 0.00670485551813095 -0.007089013176197012 0.00038415765806606197 -0.003752017835821156 0.0 0.0
0.0 0.00021392901446795824 0.00010446120451061935 -7.836804784773384e-05 -2.6093156662885456e-05 0.00012193897929944732 0.0 0.0
0.0 3.342380937738801e-05 -4.754075056001044e-06 3.773145031477424e-06 9.809300245235895e-07 5.62033213615258e-07 0.0 0.0
0.0 8.186385092108125e-05 1.2206087375446333e-05 -9.482663966695421e-06 -2.723423408751008e-06 -1.6675165954476915e-06 0.0 0.0
0.0 0.0006269813073306363 0.0004073999559604017 -0.0003242197203637445 -8.318023559665762e-05 -4.7883857570272636e-05 0.0 0.0
0.0 0.0017081776076883597 0.0015806163079520351 -0.0013036902963993319 -0.00027692601155270344 -0.00013053270368371356 0.0 0.0
0.0 0.0037498477717228217 0.003423993848851549 -0.0029537941084401367 -0.0004701997404114115 -0.00024075139590712977 0.0 0.0
0.0 0.006647339644823037 0.005992342685540921 -0.005358400828394835 -0.0006339418571460865 -0.00038203057530950815 0.0 0.0
0.0 0.010445416241249894 0.009310547716735684 -0.00854531384190271 -0.0007652338748329672 -0.000563356910479142 0.0 0.0
0.0 0.015191396037656481 0.013419051240419897 -0.012541351296402426 -0.0008776999440174673 -0.0007765946129148223 0.0 0.0
0.0 0.021044335519118218 0.01843951732694516 -0.017457977522224395 -0.0009815398047207655 -0.0009987478337733485 0.0 0.0
0.0 0.027960037680015693 0.024583969281333728 -0.02350022058811338 -0.001083748693220333 -0.0012523757676144338 0.0 0.0
0.0 0.036492959262714876 0.03206676166869271 -0.03088077155495786 -0.0011859901137348358 -0.0015451298147257661 0.0 0.0
0.0 0.04683239858384383 0.041054083039312864 -0.039763480259468686 -0.0012906027798441964 -0.0018770867651353466 0.0 0.0
0.0 0.05890018121551578 0.05153334711748466 -0.05013307266030413 -0.001400274457180519 -0.0022588285010622863 0.0 0.0
0.0 0.07232035944972245 0.06314786590948225 -0.06163276832496835 -0.001515097584513909 -0.0026312500673250105 0.0 0.0
0.0 0.08617003270063675 0.0751261294424928 -0.07349455160577803 -0.0016315778367147803 -0.0028394135286365033 0.0 0.0
0.0 0.09912283523658082 0.08633492124490752 -0.084592227622659 -0.0017426936222484778 -0.002660681366753335 0.0 0.0
0.0 0.10963371038444047 0.09543640111413648 -0.0935960799832104 -0.0018403211309260975 -0.002059930863978661 0.0 0.0
0.0 0.1157590938320019 0.10087852959158501 -0.09893978636787569 -0.001938743223709323 -0.001629493990505436 0.0 0.0
0.0 0.11575909383199809 0.1008785295915817 -0.09893978636787236 -0.001938743223709305 0.0016294939905084462 0.0 0.0
0.0 0.10963371038442574 0.09543640111412355 -0.09359607998319787 -0.001840321130925653 0.002059930863988839 0.0 0.0
0.0 0.09912283523655435 0.08633492124488436 -0.08459222762263652 -0.0017426936222477997 0.0026606813667597825 0.0 0.0
0.0 0.0861700327006037 0.07512612944246379 -0.07349455160574989 -0.0016315778367139045 0.0028394135286408054 0.0 0.0
0.0 0.07232035944968669 0.06314786590945085 -0.06163276832493784 -0.0015150975845130306 0.0026312500673208255 0.0 0.0
0.0 0.058900181215478555 0.051533347117452236 -0.050133072660272136 -0.001400274457180085 0.002258828501062579 0.0 0.0
0.0 0.04683239858380543 0.041054083039279474 -0.03976348025943574 -0.001290602779843722 0.0018770867651349238 0.0 0.0
0.0 0.036492959262674596 0.03206676166865771 -0.030880771554923272 -0.0011859901137344427 0.0015451298147257943 0.0 0.0
0.0 0.027960037679977564 0.024583969281300286 -0.02350022058808084 -0.0010837486932194454 0.0012523757676121574 0.0 0.0
0.0 0.021044335519083315 0.01843951732691424 -0.017457977522194357 -0.0009815398047198812 0.0009987478337717783 0.0 0.0
0.0 0.015191396037626655 0.0134190512403938 -0.012541351296377075 -0.0008776999440167198 0.0007765946129110375 0.0 0.0
0.0 0.010445416241227514 0.009310547716715464 -0.008545313841883269 -0.0007652338748321937 0.0005633569104783308 0.0 0.0
0.0 0.0066473396448056676 0.005992342685524775 -0.005358400828379503 -0.0006339418571452717 0.0003820305753081604 0.0 0.0
0.0 0.0037498477717099483 0.003423993848839315 -0.002953794108428865 -0.0004701997404104492 0.0002407513959064484 0.0 0.0
0.0 0.0017081776076808817 0.0015806163079445596 -0.0013036902963928427 -0.00027692601155171665 0.0001305327036829489 0.0 0.0
0.0 0.0006269813073272357 0.0004073999559578575 -0.00032421972036166837 -8.318023559618914e-05 4.788385756994922e-05 0.0 0.0
0.0 8.186385092019762e-05 1.2206087375604181e-05 -9.482663966813674e-06 -2.7234234087905132e-06 1.6675165954359571e-06 0.0 0.0
0.0 3.342380937687491e-05 -4.754075055922566e-06 3.7731450314146314e-06 9.80930024507978e-07 -5.620332136057866e-07 0.0 0.0
0.0 0.00021392901446655633 0.0001044612045100098 -7.836804784728692e-05 -2.6093156662723056e-05 -0.00012193897929859579 0.0 0.0
0.0 0.008849046518160417 0.006704855518121693 -0.007089013176186722 0.0003841576580650226 0.0037520178358014895 0.0 0.0
0.0 0.006197450803068054 0.004399770752386414 -0.004861197069993823 0.00046142631760740904 -0.004148958730568644 0.0 0.0
0.0 0.0 0.0 0.0 0.0 0.0 0.0 0.0
0.0 9.430826945183483e-08 -1.020951514236367e-08 7.758883502814768e-09 2.450631639548195e-09 3.6392644398315674e-09 0.0 0.0
0.0 3.106829186958705e-05 -1.213254561331522e-06 9.162281782327286e-07 2.9702638309855987e-07 -4.880884989490183e-08 0.0 0.0
0.0 0.00036006892750057006 0.00017778743137443031 -0.00014071918294649276 -3.706824842793759e-05 -5.015415423131046e-05 0.0 0.0
0.0 0.0012083557123240998 0.0011199846496179277 -0.000911433919458044 -0.0002085507301598836 -0.000252952397534849 0.0 0.0
0.0 0.003000478272257261 0.0027386678368408585 -0.0023303672829209743 -0.0004083005539198836 -0.0005382636514806876 0.0 0.0
0.0 0.005594102870710182 0.005042257219250726 -0.004458161807599772 -0.0005840954116509553 -0.0008948294300828506 0.0 0.0
0.0 0.008989899675648253 0.008023601514502935 -0.007300246280488573 -0.0007233552340143586 -0.001323290937734082 0.0 0.0
0.0 0.013212248507067741 0.011698001071128625 -0.010860314959370765 -0.0008376861117578567 -0.0018076085994536662 0.0 0.0
0.0 0.018367665006000025 0.01615861565282904 -0.015219408084211496 -0.0009392075686175316 -0.0023173431049220788 0.0 0.0
0.0 0.02471222063624446 0.02159098730874128 -0.020555876182184928 -0.0010351111265563563 -0.0028505198169614587 0.0 0.0
0.0 0.03223001670511433 0.028238470798200056 -0.027108694104376097 -0.0011297766938239556 -0.003485793824332357 0.0 0.0
0.0 0.04142152199975636 0.036276670155345345 -0.035050337749454076 -0.0012263324058912673 -0.00425710799896385 0.0 0.0
0.0 0.052280541009538585 0.04570137210905873 -0.0443743498682824 -0.0013270222407763448 -0.00512807475179996 0.0 0.0
0.0 0.0643789328353115 0.05620437222534822 -0.05477234729619676 -0.001432024929151459 -0.005976658081811791 0.0 0.0
0.0 0.0769406203405652 0.06710251984966356 -0.06556393002123573 -0.0015385898284278176 -0.006464377133525917 0.0 0.0
0.0 0.08879532265764999 0.07737603289470994 -0.0757342241668927 -0.001641808727817209 -0.006168882541371675 0.0 0.0
0.0 0.0984184836923793 0.08572764091807433 -0.0839868960113739 -0.0017407449067004706 -0.00498725800955111 0.0 0.0
0.0 0.10409062272289896 0.0906647262087542 -0.08885358795296264 -0.0018111382557915918 -0.0029177735598136167 0.0 0.0
0.0 0.10409062272289497 0.09066472620875057 -0.08885358795295918 -0.0018111382557913901 0.0029177735598250507 0.0 0.0
0.0 0.0984184836923649 0.08572764091806155 -0.0839868960113613 -0.0017407449067002635 0.004987258009571083 0.0 0.0
0.0 0.08879532265762627 0.07737603289468888 -0.0757342241668722 -0.0016418087278166752 0.006168882541385607 0.0 0.0
0.0 0.07694062034053606 0.06710251984963773 -0.0655639300212108 -0.001538589828426898 0.006464377133533393 0.0 0.0
0.0 0.06437893283527679 0.056204372225318086 -0.05477234729616708 -0.0014320249291509884 0.005976658081808418 0.0 0.0
0.0 0.052280541009504224 0.04570137210902874 -0.044374349868253005 -0.0013270222407757426 0.005128074751799204 0.0 0.0
0.0 0.041421521999722065 0.03627667015531537 -0.03505033774942483 -0.0012263324058905177 0.004257107998962959 0.0 0.0
0.0 0.0322300167050797 0.028238470798169792 -0.027108694104346475 -0.0011297766938233188 0.003485793824330903 0.0 0.0
0.0 0.024712220636210223 0.021590987308711288 -0.020555876182155444 -0.001035111126555838 0.00285051981695712 0.0 0.0
0.0 0.01836766500596778 0.01615861565280083 -0.015219408084183709 -0.0009392075686171229 0.0023173431049187884 0.0 0.0
0.0 0.013212248507040836 0.011698001071104743 -0.010860314959347531 -0.0008376861117572097 0.0018076085994480514 0.0 0.0
0.0 0.008989899675626873 0.008023601514483447 -0.007300246280469721 -0.0007233552340137233 0.001323290937731391 0.0 0.0
0.0 0.0055941028706943475 0.005042257219236167 -0.004458161807586099 -0.0005840954116500669 0.0008948294300799339 0.0 0.0
0.0 0.003000478272246906 0.0027386678368308656 -0.0023303672829120183 -0.00040830055391884667 0.0005382636514788334 0.0 0.0
0.0 0.0012083557123183336 0.001119984649612621 -0.0009114339194535818 -0.00020855073015903913 0.00025295239753358935 0.0 0.0
0.0 0.00036006892749788135 0.00017778743137286687 -0.0001407191829452349 -3.706824842763203e-05 5.015415423081975e-05 0.0 0.0
0.0 3.106829186908353e-05 -1.2132545611464847e-06 9.162281780910111e-07 2.970263830556138e-07 4.880884996273604e-08 0.0 0.0
0.0 9.430826938068039e-08 -1.0209515134588993e-08 7.758883496907494e-09 2.4506316376819497e-09 -3.6392644370560787e-09 0.0 0.0
0.0 0.0 0.0 0.0 0.0 0.0 0.0 0.0
0.0 0.006197450803052631 0.0043997707523761986 -0.004861197069982733 0.00046142631760653414 0.004148958730551601 0.0 0.0
0.0 0.004488527274323309 0.0029962773601134337 -0.003446505819825481 0.0004502284597120457 -0.0035058145423035375 0.0 0.0
0.0 0.0 0.0 0.0 0.0 0.0 0.0 0.0
0.0 0.0 0.0 0.0 0.0 0.0 0.0 0.0
0.0 2.4307082921929654e-06 -2.7159244173351415e-07 2.053625051523891e-07 6.622993658110159e-08 1.4164277531911574e-07 0.0 0.0
0.0 0.00013847871829808064 5.249903173505747e-05 -4.1411943456456155e-05 -1.1087088278601244e-05 -2.771901823991101e-05 0.0 0.0
0.0 0.000905538736963163 0.0006721826751453308 -0.0005406276265390718 -0.0001315550486062585 -0.00026717120386593257 0.0 0.0
0.0 0.0022802290475507467 0.0020682326932492793 -0.0017316324784764768 -0.00033660021477280224 -0.000699909655950656 0.0 0.0
0.0 0.004558584699169596 0.004096510432071899 -0.003574171735547425 -0.0005223386965244727 -0.0012456361808223719 0.0 0.0
0.0 0.007570385663287916 0.0067340477342555105 -0.006061776127157889 -0.0006722716070976226 -0.001877523059379814 0.0 0.0
0.0 0.011293211068398243 0.009975385487296061 -0.009184597516613685 -0.0007907879706823777 -0.002577455068374803 0.0 0.0
0.0 0.01583152602351512 0.013885900314911308 -0.01299506540544353 -0.0008908349094677765 -0.0033168742310987196 0.0 0.0
0.0 0.021283244393589976 0.018629123703384307 -0.017647307178992832 -0.0009818165243914777 -0.004090066348571862 0.0 0.0
0.0 0.02807663183468799 0.02443115559489716 -0.023361575187322944 -0.0010695804075742058 -0.0049680708151286675 0.0 0.0
0.0 0.03611150844567931 0.031496604077034 -0.030338242731458215 -0.0011583613455757864 -0.006061561871366082 0.0 0.0
0.0 0.045685668522266284 0.03984158056288331 -0.0385918118996586 -0.0012497686632247118 -0.007338593606905159 0.0 0.0
0.0 0.056494548643572305 0.04921024117010535 -0.047865701253430024 -0.0013445399166753065 -0.008561440020372577 0.0 0.0
0.0 0.06779192520444893 0.05902644618964119 -0.057585427045627254 -0.0014410191440139147 -0.00929369930523254 0.0 0.0
0.0 0.0785131975459807 0.06838064126306485 -0.06684242775294261 -0.001538213510122231 -0.008997950811889333 0.0 0.0
0.0 0.08727562662362043 0.07605134229600055 -0.0744236129297148 -0.0016277293662857145 -0.007294859757379897 0.0 0.0
0.0 0.09255395086466255 0.08070121106200251 -0.07901324247323344 -0.0016879685887690524 -0.003907277780864512 0.0 0.0
0.0 0.09255395086465956 0.08070121106199953 -0.07901324247323063 -0.00168796858876889 0.003907277780883228 0.0 0.0
0.0 0.08727562662360899 0.07605134229598984 -0.07442361292970445 -0.0016277293662853639 0.0072948597574065506 0.0 0.0
0.0 0.07851319754596157 0.06838064126304734 -0.06684242775292573 -0.0015382135101215677 0.008997950811908826 0.0 0.0
0.0 0.06779192520442415 0.059026446189619095 -0.05758542704560585 -0.0014410191440132373 0.009293699305241678 0.0 0.0
0.0 0.05649454864354477 0.04921024117008115 -0.04786570125340677 -0.0013445399166743838 0.008561440020369892 0.0 0.0
0.0 0.04568566852223605 0.0398415805628569 -0.03859181189963272 -0.0012497686632241879 0.007338593606903752 0.0 0.0
0.0 0.03611150844564918 0.03149660407700766 -0.030338242731432347 -0.0011583613455753065 0.006061561871364599 0.0 0.0
0.0 0.028076631834656737 0.02443115559486965 -0.023361575187296174 -0.0010695804075734638 0.004968070815126204 0.0 0.0
0.0 0.021283244393558737 0.018629123703356974 -0.017647307178966315 -0.0009818165243906615 0.004090066348566087 0.0 0.0
0.0 0.015831526023488595 0.01388590031488758 -0.012995065405420605 -0.000890834909466972 0.003316874231093133 0.0 0.0
0.0 0.011293211068376397 0.00997538548727643 -0.009184597516594784 -0.0007907879706816429 0.0025774550683678545 0.0 0.0
0.0 0.007570385663269582 0.006734047734238961 -0.0060617761271420795 -0.0006722716070968809 0.0018775230593755347 0.0 0.0
0.0 0.0045585846991565895 0.004096510432059809 -0.0035741717355363125 -0.0005223386965234972 0.001245636180818711 0.0 0.0
0.0 0.0022802290475422374 0.002068232693241176 -0.0017316324784693747 -0.000336600214771801 0.000699909655948349 0.0 0.0
0.0 0.0009055387369579956 0.0006721826751412525 -0.0005406276265357023 -0.0001315550486055495 0.0002671712038642278 0.0 0.0
0.0 0.00013847871829678927 5.249903173460869e-05 -4.1411943456093144e-05 -1.1087088278515424e-05 2.7719018239638407e-05 0.0 0.0
0.0 2.430708291709614e-06 -2.715924416780426e-07 2.0536250511018518e-07 6.622993656783338e-08 -1.4164277528895462e-07 0.0 0.0
0.0 0.0 0.0 0.0 0.0 0.0 0.0 0.0
0.0 0.0 0.0 0.0 0.0 0.0 0.0 0.0
0.0 0.004488527274310368 0.0029962773601045728 -0.0034465058198157416 0.00045022845971116887 0.0035058145422892516 0.0 0.0
0.0 0.003198196779538948 0.0020289125522555455 -0.0024195816503023307 0.0003906690980467849 -0.0026302458983501623 0.0 0.0
0.0 0.0 0.0 0.0 0.0 0.0 0.0 0.0
0.0 0.0 0.0 0.0 0.0 0.0 0.0 0.0
0.0 1.7764958665315978e-06 -1.7819784007305854e-07 1.3787375697884427e-07 4.03240830942293e-08 1.8782013220909485e-07 0.0 0.0
0.0 4.3687474008350105e-05 7.079248834973354e-06 -5.515999015876978e-06 -1.5632498190962768e-06 -5.617141938007461e-06 0.0 0.0
0.0 0.0005263458021150633 0.00034328651289112556 -0.00027320051242139647 -7.008600046972915e-05 -0.0002086917094491102 0.0 0.0
0.0 0.0016459182497185988 0.0014223300911994782 -0.0011709146754229427 -0.00025141541577653506 -0.0007211929396066834 0.0 0.0
0.0 0.0035575409360483487 0.0031652993784436877 -0.0027173378685660895 -0.0004479615098775986 -0.0014247623887334916 0.0 0.0
0.0 0.006175097795746915 0.005452565803552196 -0.0048440468554431255 -0.0006085189481090713 -0.002219390555347426 0.0 0.0
0.0 0.009399950399307666 0.008262137433648025 -0.007528303198766969 -0.0007338342348810522 -0.003086811203603681 0.0 0.0
0.0 0.01330848990775279 0.011631698023910697 -0.010796645263169681 -0.0008350527607410149 -0.0039935909750706804 0.0 0.0
0.0 0.018037467531490367 0.015695207987246534 -0.014772146686951327 -0.0009230613002952021 -0.0049418989123959384 0.0 0.0
0.0 0.023806601029874783 0.020665350091513754 -0.019660858314763878 -0.0010044917767498707 -0.006024390220223567 0.0 0.0
0.0 0.030888265219187753 0.026742450524031958 -0.0256563421864176 -0.0010861083376143593 -0.007324156154507128 0.0 0.0
0.0 0.03930285517405331 0.033977636166027135 -0.0328091254570078 -0.001168510709019323 -0.008841238705004263 0.0 0.0
0.0 0.048614266068357795 0.042188176523138166 -0.04093577703082675 -0.0012523994923114214 -0.01035383174754533 0.0 0.0
0.0 0.05864883988245076 0.050901734294277745 -0.049562529705058374 -0.0013392045892193704 -0.011323162989000515 0.0 0.0
0.0 0.06829056728195615 0.059334666484770926 -0.05790728292431995 -0.0014273835604509733 -0.01108418441219922 0.0 0.0
0.0 0.0762890856683603 0.0664000534440384 -0.06489169250585491 -0.0015083609381834628 -0.00903631005225732 0.0 0.0
0.0 0.08128911108993318 0.07087891250005815 -0.06931552154919134 -0.001563390950866779 -0.004714406914875213 0.0 0.0
0.0 0.08128911108992919 0.0708789125000543 -0.06931552154918762 -0.0015633909508666966 0.00471440691489829 0.0 0.0
0.0 0.07628908566835131 0.06640005344402922 -0.06489169250584642 -0.0015083609381827863 0.009036310052288204 0.0 0.0
0.0 0.06829056728194008 0.059334666484755695 -0.05790728292430532 -0.0014273835604503608 0.011084184412221247 0.0 0.0
0.0 0.05864883988242991 0.05090173429425882 -0.04956252970504002 -0.0013392045892188019 0.011323162989010961 0.0 0.0
0.0 0.04861426606833274 0.04218817652311634 -0.040935777030805434 -0.0012523994923109153 0.01035383174754249 0.0 0.0
0.0 0.039302855174028525 0.033977636166005354 -0.03280912545698687 -0.0011685107090184696 0.008841238705001924 0.0 0.0
0.0 0.03088826521916336 0.026742450524010364 -0.02565634218639677 -0.0010861083376135989 0.007324156154505493 0.0 0.0
0.0 0.023806601029848863 0.02066535009149087 -0.019660858314741517 -0.0010044917767493425 0.006024390220220416 0.0 0.0
0.0 0.0180374675314644 0.015695207987223687 -0.014772146686928868 -0.000923061300294818 0.004941898912388981 0.0 0.0
0.0 0.013308489907729827 0.011631698023890219 -0.010796645263149794 -0.0008350527607404337 0.003993590975063725 0.0 0.0
0.0 0.009399950399286714 0.008262137433629599 -0.007528303198749214 -0.0007338342348803801 0.0030868112035950324 0.0 0.0
0.0 0.006175097795731276 0.005452565803538047 -0.004844046855429845 -0.0006085189481082014 0.0022193905553423692 0.0 0.0
0.0 0.003557540936035503 0.003165299378432039 -0.002717337868555394 -0.0004479615098766437 0.0014247623887283416 0.0 0.0
0.0 0.0016459182497109792 0.001422330091192761 -0.0011709146754171832 -0.0002514154157755773 0.0007211929396036783 0.0 0.0
0.0 0.0005263458021109842 0.0003432865128885993 -0.0002732005124193537 -7.008600046924566e-05 0.00020869170944757564 0.0 0.0
0.0 4.368747400756714e-05 7.079248835194286e-06 -5.515999016041737e-06 -1.5632498191526452e-06 5.617141938134725e-06 0.0 0.0
0.0 1.7764958662467406e-06 -1.7819784004332652e-07 1.3787375695581053e-07 4.032408308752122e-08 -1.8782013217738892e-07 0.0 0.0
0.0 0.0 0.0 0.0 0.0 0.0 0.0 0.0
0.0 0.0 0.0 0.0 0.0 0.0 0.0 0.0
0.0 0.003198196779527474 0.00202891255224813 -0.002419581650294016 0.000390669098045885 0.0026302458983389803 0.0 0.0
0.0 0.0021759804413602557 0.0013158571144043696 -0.0016224424956079102 0.000306585381203541 -0.0018058536026476523 0.0 0.0
0.0 0.0 0.0 0.0 0.0 0.0 0.0 0.0
0.0 0.0 0.0 0.0 0.0 0.0 0.0 0.0
0.0 0.0 0.0 0.0 0.0 0.0 0.0 0.0
0.0 1.536437670895584e-05 -3.9106729194199486e-07 2.5759005400057164e-07 1.334772379414e-07 3.98713928943146e-07 0.0 0.0
0.0 0.00024385670950527008 0.00013518698751435819 -0.00010708148723897268 -2.8105500275385648e-05 -0.00012795899529436004 0.0 0.0
0.0 0.001155873856136001 0.0008406073243602606 -0.0006802022761375385 -0.00016040504822272187 -0.000600754721911848 0.0 0.0
0.0 0.002643231538802007 0.0022517321688279657 -0.0018948689223948273 -0.000356863246433138 -0.0013932612857875189 0.0 0.0
0.0 0.004815039116734822 0.004190935734190257 -0.0036623057922276097 -0.0005286299419626441 -0.0023374616180537 0.0 0.0
0.0 0.007554289288742861 0.006567602454943006 -0.005904168868231573 -0.0006634335867114345 -0.0033247948561948328 0.0 0.0
0.0 0.010857026562674005 0.009403983270765321 -0.008635088807217719 -0.0007688944635475983 -0.004348827433856147 0.0 0.0
0.0 0.014814189171292298 0.012801959225785246 -0.011946084969538785 -0.0008558742562464606 -0.005409626379803585 0.0 0.0
0.0 0.019709133265058378 0.016947426832406944 -0.016013835950667663 -0.0009335908817392813 -0.006598421457253556 0.0 0.0
0.0 0.025572555993163184 0.022039501895114277 -0.021031656700308838 -0.0010078451948054377 -0.00804132769957935 0.0 0.0
0.0 0.03271385706386844 0.028151471996384826 -0.027069986370315494 -0.0010814856260693221 -0.009702663619780586 0.0 0.0
0.0 0.04096683877090076 0.035165503320332664 -0.034009430278130456 -0.0011560730422021993 -0.011337122277225747 0.0 0.0
0.0 0.04954779062889936 0.042734802176068745 -0.04150322695302096 -0.0012315752230477959 -0.012485340025672852 0.0 0.0
0.0 0.058031215750783564 0.050230550970453605 -0.048921519682765466 -0.0013090312876881274 -0.012399926737918772 0.0 0.0
0.0 0.06532914315746535 0.056731406747892704 -0.05534945009788878 -0.0013819566500039202 -0.01024800375105571 0.0 0.0
0.0 0.07014885774100123 0.06111567714271782 -0.05968135515539673 -0.001434321987321074 -0.005376207226969072 0.0 0.0
0.0 0.07014885774099852 0.061115677142714854 -0.05968135515539388 -0.0014343219873209322 0.005376207226993553 0.0 0.0
0.0 0.06532914315745567 0.056731406747882906 -0.05534945009787885 -0.0013819566500040503 0.010248003751087056 0.0 0.0
0.0 0.058031215750770276 0.05023055097044059 -0.048921519682752504 -0.001309031287688054 0.012399926737941915 0.0 0.0
0.0 0.04954779062888179 0.04273480217605255 -0.041503226953005075 -0.0012315752230474875 0.012485340025683583 0.0 0.0
0.0 0.04096683877088033 0.035165503320314616 -0.034009430278113074 -0.0011560730422015555 0.011337122277223539 0.0 0.0
0.0 0.03271385706384661 0.02815147199636559 -0.02706998637029681 -0.0010814856260687757 0.009702663619777643 0.0 0.0
0.0 0.025572555993142152 0.022039501895095716 -0.021031656700290884 -0.0010078451948048281 0.008041327699576526 0.0 0.0
0.0 0.01970913326503658 0.01694742683238754 -0.016013835950648654 -0.0009335908817388772 0.0065984214572501285 0.0 0.0
0.0 0.014814189171270175 0.012801959225765719 -0.011946084969519929 -0.000855874256245785 0.005409626379796209 0.0 0.0
0.0 0.010857026562653223 0.009403983270747103 -0.00863508880720018 -0.0007688944635469234 0.004348827433847488 0.0 0.0
0.0 0.007554289288724504 0.006567602454927387 -0.005904168868216686 -0.000663433586710699 0.0033247948561846083 0.0 0.0
0.0 0.004815039116721237 0.004190935734178164 -0.003662305792216352 -0.0005286299419618098 0.0023374616180477535 0.0 0.0
0.0 0.002643231538791989 0.002251732168819342 -0.0018948689223872233 -0.00035686324643211865 0.0013932612857824578 0.0 0.0
0.0 0.0011558738561293263 0.0008406073243550661 -0.0006802022761332165 -0.00016040504822184963 0.0006007547219085207 0.0 0.0
0.0 0.00024385670950255537 0.0001351869875128981 -0.00010708148723781024 -2.8105500275087882e-05 0.00012795899529302794 0.0 0.0
0.0 1.5364376708349936e-05 -3.9106729177260034e-07 2.5759005386911213e-07 1.3347723790355907e-07 -3.987139287322293e-07 0.0 0.0
0.0 0.0 0.0 0.0 0.0 0.0 0.0 0.0
0.0 0.0 0.0 0.0 0.0 0.0 0.0 0.0
0.0 0.0 0.0 0.0 0.0 0.0 0.0 0.0
0.0 0.0021759804413511766 0.0013158571143987853 -0.0016224424956014314 0.000306585381202646 0.0018058536026393228 0.0 0.0
0.0 0.0013482512139708046 0.0007851155025753192 -0.0009996163963517006 0.00021450089377638128 -0.0011229118753088032 0.0 0.0
0.0 0.0 0.0 0.0 0.0 0.0 0.0 0.0
0.0 0.0 0.0 0.0 0.0 0.0 0.0 0.0
0.0 0.0 0.0 0.0 0.0 0.0 0.0 0.0
0.0 1.0042081989473157e-05 -9.329724215854319e-07 7.201815348631364e-07 2.1279088672229382e-07 1.7612736881375419e-06 0.0 0.0
0.0 8.704536430512413e-05 4.96155299766879e-05 -3.930586756260608e-05 -1.0309662414081797e-05 -7.410517189967766e-05 0.0 0.0
0.0 0.0006176806367352909 0.0004224804191473049 -0.00033694626033900054 -8.553415880830417e-05 -0.00044206301593623624 0.0 0.0
0.0 0.0018025450798172182 0.0014080902271738011 -0.001159359277229363 -0.00024873094994443844 -0.001187974613582802 0.0 0.0
0.0 0.0035443086055754005 0.0029556092356211342 -0.0025278963023474196 -0.0004277129332737145 -0.002187787665657984 0.0 0.0
0.0 0.005766669539887073 0.0049051433521796655 -0.0043314882608723035 -0.0005736550913073602 -0.003275172473084137 0.0 0.0
0.0 0.008450679892279522 0.007214196838918423 -0.006527858054499624 -0.000686338784418799 -0.004362433797804306 0.0 0.0
0.0 0.011678984609646122 0.009959726461422225 -0.009183206609032574 -0.0007765198523896511 -0.005477909204821286 0.0 0.0
0.0 0.015609905157638763 0.01329728698444736 -0.012444371777938867 -0.0008529152065084955 -0.006714912113245321 0.0 0.0
0.0 0.020455344624762662 0.017405098822367005 -0.01648282076435309 -0.0009222780580139084 -0.008173804356628867 0.0 0.0
0.0 0.026362325359614733 0.022384954977884463 -0.02139682994099023 -0.000988125036894239 -0.009863718064430836 0.0 0.0
0.0 0.032991993156387005 0.028184836314284964 -0.027132057575796058 -0.0010527787384889092 -0.011565285776686206 0.0 0.0
0.0 0.040451553396075667 0.03455437854288371 -0.03343703172002668 -0.0011173468228570164 -0.012790106949172243 0.0 0.0
0.0 0.04788646597850563 0.04105761399143884 -0.039875300922797924 -0.001182313068640895 -0.012865772918769964 0.0 0.0
0.0 0.05431997216489389 0.046991669785725367 -0.04574534014319779 -0.0012463296425275603 -0.01088559317508317 0.0 0.0
0.0 0.05901635412311364 0.05133336892016084 -0.05003565387783726 -0.0012977150423235829 -0.005895730735982451 0.0 0.0
0.0 0.059016354123110855 0.05133336892015779 -0.05003565387783416 -0.0012977150423236412 0.005895730736005751 0.0 0.0
0.0 0.05431997216488681 0.04699166978571724 -0.045745340143189976 -0.0012463296425272725 0.010885593175113676 0.0 0.0
0.0 0.04788646597849511 0.04105761399142763 -0.03987530092278729 -0.0011823130686403384 0.012865772918792566 0.0 0.0
0.0 0.04045155339605946 0.0345543785428686 -0.03343703172001203 -0.0011173468228565543 0.012790106949181156 0.0 0.0
0.0 0.03299199315636937 0.028184836314269688 -0.027132057575781295 -0.001052778738488377 0.011565285776682348 0.0 0.0
0.0 0.02636232535959656 0.0223849549778685 -0.021396829940974867 -0.0009881250368936332 0.009863718064426565 0.0 0.0
0.0 0.02045534462474567 0.017405098822351858 -0.016482820764338466 -0.0009222780580133923 0.008173804356625533 0.0 0.0
0.0 0.015609905157621692 0.013297286984432196 -0.012444371777924281 -0.0008529152065079142 0.00671491211324196 0.0 0.0
0.0 0.011678984609628268 0.009959726461406908 -0.009183206609017768 -0.0007765198523891404 0.00547790920481399 0.0 0.0
0.0 0.008450679892262775 0.007214196838904002 -0.00652785805448597 -0.0006863387844180331 0.004362433797796002 0.0 0.0
0.0 0.005766669539872484 0.0049051433521672605 -0.004331488260860738 -0.0005736550913065192 0.0032751724730742436 0.0 0.0
0.0 0.0035443086055641773 0.002955609235611315 -0.0025278963023385036 -0.0004277129332728111 0.0021877876656515517 0.0 0.0
0.0 0.0018025450798091285 0.001408090227167195 -0.001159359277223695 -0.0002487309499434995 0.001187974613577811 0.0 0.0
0.0 0.0006176806367306709 0.00042248041914404633 -0.0003369462603363661 -8.553415880768007e-05 0.0004420630159334037 0.0 0.0
0.0 8.704536430347335e-05 4.9615529976176204e-05 -3.9305867562193774e-05 -1.0309662413982474e-05 7.410517189890316e-05 0.0 0.0
0.0 1.0042081989081814e-05 -9.329724215460563e-07 7.201815348328094e-07 2.127908867132563e-07 -1.7612736880608109e-06 0.0 0.0
0.0 0.0 0.0 0.0 0.0 0.0 0.0 0.0
0.0 0.0 0.0 0.0 0.0 0.0 0.0 0.0
0.0 0.0 0.0 0.0 0.0 0.0 0.0 0.0
0.0 0.0013482512139639036 0.000785115502571307 -0.000999616396346884 0.00021450089377557708 0.0011229118753028331 0.0 0.0
0.0 0.0007447473050470271 0.0004004982529445245 -0.0005254174487610776 0.00012491919581655302 -0.000595242128847141 0.0 0.0
0.0 0.0 0.0 0.0 0.0 0.0 0.0 0.0
0.0 0.0 0.0 0.0 0.0 0.0 0.0 0.0
0.0 0.0 0.0 0.0 0.0 0.0 0.0 0.0
0.0 3.2753945204730108e-06 -1.6786366216551952e-07 1.2444628764706275e-07 4.341737451845248e-08 4.227763397908603e-07 0.0 0.0
0.0 4.9541040856722626e-05 9.391761328826537e-06 -7.444910605396349e-06 -1.946850723430227e-06 -1.972832428005497e-05 0.0 0.0
0.0 0.00027587856642866885 0.00015991499403681734 -0.00012671316168943325 -3.3201832347384006e-05 -0.0002621946111115102 0.0 0.0
0.0 0.0010306409705388652 0.0007223149608536182 -0.000581887959821902 -0.00014042700103171588 -0.0008719994567877319 0.0 0.0
0.0 0.00233939917339802 0.001799342222244015 -0.0014987893779232814 -0.00030055284432073317 -0.0017882592330237179 0.0 0.0
0.0 0.004049886121002899 0.0032904351850835487 -0.002834842030470752 -0.0004555931546127972 -0.0028870341032242387 0.0 0.0
0.0 0.006128557505284275 0.0050769088636990175 -0.004499241617987098 -0.0005776672457119201 -0.00401650558672943 0.0 0.0
0.0 0.008618716998238608 0.007183772476980756 -0.006508065694184398 -0.0006757067827963586 -0.005134479098873635 0.0 0.0
0.0 0.011665278195046558 0.009730173283211909 -0.008974774780334215 -0.0007553985028776896 -0.006342050921200351 0.0 0.0
0.0 0.015378944003815613 0.012872457277830759 -0.012048720187617984 -0.0008237370902127638 -0.00774309727852627 0.0 0.0
0.0 0.01995577317948692 0.016716070057978358 -0.01583268115136072 -0.0008833889066176338 -0.009342146560164065 0.0 0.0
0.0 0.025334430986462035 0.02127114937095337 -0.020330577613946146 -0.0009405717570072089 -0.010965908104225808 0.0 0.0
0.0 0.031240452926729292 0.026397501444967494 -0.02540330840473946 -0.000994193040228032 -0.012226717536999944 0.0 0.0
0.0 0.03741167927881912 0.031830411281024 -0.030785423190333314 -0.0010449880906906906 -0.012499285723931185 0.0 0.0
0.0 0.043351880410516776 0.03712748588865355 -0.03602961147395308 -0.0010978744147004489 -0.010908105916656313 0.0 0.0
0.0 0.04801712069733895 0.041445962801389576 -0.04029616791661647 -0.0011497948847730972 -0.006253890450674623 0.0 0.0
0.0 0.0480171206973357 0.04144596280138613 -0.04029616791661295 -0.0011497948847731731 0.006253890450695183 0.0 0.0
0.0 0.043351880410509365 0.03712748588864514 -0.03602961147394444 -0.0010978744147006894 0.010908105916685305 0.0 0.0
0.0 0.03741167927881009 0.03183041128101399 -0.030785423190323444 -0.0010449880906905464 0.012499285723951616 0.0 0.0
0.0 0.031240452926718097 0.02639750144495656 -0.02540330840472886 -0.0009941930402276996 0.012226717537007162 0.0 0.0
0.0 0.025334430986447574 0.021271149370940975 -0.020330577613934003 -0.0009405717570069582 0.01096590810422125 0.0 0.0
0.0 0.019955773179472152 0.016716070057965805 -0.015832681151348275 -0.0008833889066175314 0.009342146560158476 0.0 0.0
0.0 0.015378944003802483 0.01287245727781925 -0.012048720187606728 -0.0008237370902125185 0.0077430972785230145 0.0 0.0
0.0 0.01166527819503434 0.009730173283200997 -0.008974774780323904 -0.0007553985028770913 0.006342050921197329 0.0 0.0
0.0 0.008618716998224842 0.0071837724769688825 -0.006508065694173246 -0.0006757067827956353 0.005134479098866628 0.0 0.0
0.0 0.00612855750527046 0.005076908863687667 -0.0044992416179763335 -0.0005776672457113326 0.004016505586720275 0.0 0.0
0.0 0.004049886120991419 0.0032904351850743317 -0.0028348420304624105 -0.00045559315461192007 0.0028870341032150915 0.0 0.0
0.0 0.002339399173388705 0.0017993422222367253 -0.001498789377916848 -0.00030055284431987627 0.0017882592330175978 0.0 0.0
0.0 0.001030640970532886 0.0007223149608492852 -0.0005818879598183722 -0.00014042700103091338 0.0008719994567833844 0.0 0.0
0.0 0.00027587856642617 0.00015991499403550423 -0.0001267131616883793 -3.320183234712477e-05 0.0002621946111095367 0.0 0.0
0.0 4.954104085571459e-05 9.391761328795092e-06 -7.4449106053715916e-06 -1.946850723423431e-06 1.9728324279970977e-05 0.0 0.0
0.0 3.2753945202238882e-06 -1.6786366199530875e-07 1.2444628751063658e-07 4.3417374484665844e-08 -4.2277633929769474e-07 0.0 0.0
0.0 0.0 0.0 0.0 0.0 0.0 0.0 0.0
0.0 0.0 0.0 0.0 0.0 0.0 0.0 0.0
0.0 0.0 0.0 0.0 0.0 0.0 0.0 0.0
0.0 0.0007447473050420817 0.00040049825294200176 -0.00052541744875794 0.00012491919581593825 0.0005952421288432777 0.0 0.0
0.0 0.0003345283024842703 0.0001500683096213775 -0.0002041007924265373 5.40324828051601e-05 -0.00022775366460471306 0.0 0.0
0.0 9.021725963171627e-08 -5.274566123778698e-10 6.099197200343717e-10 -8.24631076566411e-11 1.7958020711408732e-08 0.0 0.0
0.0 0.0 0.0 0.0 0.0 0.0 0.0 0.0
0.0 0.0 0.0 0.0 0.0 0.0 0.0 0.0
0.0 2.941446764786285e-06 -1.3952363807393717e-07 1.0592787567314353e-07 3.3595762400780106e-08 5.885360677433528e-07 0.0 0.0
0.0 2.6469516203131753e-05 3.5181088539084416e-06 -2.6922662654240056e-06 -8.258425884844361e-07 -1.015445158021201e-05 0.0 0.0
0.0 0.0001301760503330625 5.222498788226516e-05 -4.122909936401161e-05 -1.099588851825357e-05 -0.00014013579697773272 0.0 0.0
0.0 0.0004610943065296855 0.0002582432973971383 -0.00020439048130395086 -5.385281609318744e-05 -0.0005102013744498553 0.0 0.0
0.0 0.0012726668427686229 0.0008236137568463905 -0.0006662500419951203 -0.00015736371485126967 -0.001214310158732929 0.0 0.0
0.0 0.0023847372027581432 0.0017894367947400556 -0.0014911891695940066 -0.0002982476251460493 -0.002183056301423688 0.0 0.0
0.0 0.003949365655713097 0.0030241241848734867 -0.0025980941522002247 -0.0004260300326732604 -0.003245315203077578 0.0 0.0
0.0 0.005682376734883161 0.004501017692532505 -0.003967376947385549 -0.0005336407451469556 -0.004327193540964509 0.0 0.0
0.0 0.007812032567220474 0.006278516633700768 -0.005655178707239864 -0.0006233379264609009 -0.00546366512430508 0.0 0.0
0.0 0.01047256845929245 0.00847351824353374 -0.007776208940196828 -0.0006973093033369094 -0.006723042616366445 0.0 0.0
0.0 0.013804634716831164 0.01118900568091435 -0.010430487733385932 -0.0007585179475284177 -0.008128035435452393 0.0 0.0
0.0 0.017735840148169226 0.01447830134675727 -0.013668622378550849 -0.0008096789682064203 -0.009576309368166398 0.0 0.0
0.0 0.02228167937922052 0.018309324135634953 -0.017452993375979758 -0.0008563307596551966 -0.010744528565244339 0.0 0.0
0.0 0.02706824183660647 0.022573495711680838 -0.021678360188451512 -0.0008951355232293223 -0.011175302651756572 0.0 0.0
0.0 0.031990374443092176 0.02710521433723078 -0.02617511506278175 -0.0009300992744490108 -0.010215571149954873 0.0 0.0
0.0 0.03648578521063745 0.031371195936797595 -0.030390316611819426 -0.0009808793249781631 -0.006419024982035695 0.0 0.0
0.0 0.03648578521063691 0.03137119593679624 -0.03039031661181806 -0.000980879324978168 0.006419024982052643 0.0 0.0
0.0 0.03199037444309008 0.027105214337226593 -0.02617511506277776 -0.0009300992744488321 0.010215571149979355 0.0 0.0
0.0 0.027068241836601545 0.022573495711674316 -0.021678360188445482 -0.0008951355232288385 0.011175302651773349 0.0 0.0
0.0 0.022281679379214353 0.018309324135628427 -0.01745299337597397 -0.0008563307596544534 0.010744528565249836 0.0 0.0
0.0 0.017735840148159043 0.014478301346748589 -0.013668622378542836 -0.0008096789682057469 0.009576309368162447 0.0 0.0
0.0 0.013804634716820028 0.01118900568090508 -0.010430487733377146 -0.0007585179475279305 0.008128035435447156 0.0 0.0
0.0 0.010472568459282102 0.008473518243524889 -0.007776208940188314 -0.0006973093033365776 0.0067230426163631596 0.0 0.0
0.0 0.0078120325672113265 0.006278516633692755 -0.005655178707232192 -0.000623337926460562 0.005463665124302124 0.0 0.0
0.0 0.005682376734873896 0.004501017692524942 -0.003967376947378463 -0.00053364074514648 0.004327193540958448 0.0 0.0
0.0 0.003949365655705208 0.0030241241848673003 -0.0025980941521948028 -0.00042603003267249664 0.0032453152030709354 0.0 0.0
0.0 0.002384737202751111 0.0017894367947350039 -0.0014911891695897077 -0.0002982476251452959 0.002183056301417348 0.0 0.0
0.0 0.0012726668427638435 0.0008236137568430607 -0.0006662500419923562 -0.00015736371485070485 0.0012143101587289988 0.0 0.0
0.0 0.0004610943065271306 0.00025824329739565597 -0.000204390481302758 -5.385281609289782e-05 0.0005102013744474826 0.0 0.0
0.0 0.00013017605033169375 5.2224987881956095e-05 -4.1229099363761774e-05 -1.0995888518194372e-05 0.00014013579697693963 0.0 0.0
0.0 2.646951620259128e-05 3.5181088538864264e-06 -2.692266265407924e-06 -8.258425884784776e-07 1.0154451580165366e-05 0.0 0.0
0.0 2.9414467642801842e-06 -1.3952363805020315e-07 1.0592787565476392e-07 3.359576239544616e-08 -5.885360676368125e-07 0.0 0.0
0.0 0.0 0.0 0.0 0.0 0.0 0.0 0.0
0.0 0.0 0.0 0.0 0.0 0.0 0.0 0.0
0.0 9.021725939530122e-08 -5.274566109826295e-10 6.099197184208691e-10 -8.246310743827494e-11 -1.7958020663926448e-08 0.0 0.0
0.0 0.00033452830248144815 0.0001500683096203491 -0.00020410079242518176 5.403248280483285e-05 0.0002277536646032382 0.0 0.0
0.0 8.75889229975882e-05 3.5944522689828174e-05 -5.116325750420505e-05 1.5218734814376927e-05 -5.756564447947679e-05 0.0 0.0
0.0 1.6538167115190833e-06 -2.748905065804631e-09 7.58763272979475e-09 -4.838727663989611e-09 3.533900715791832e-07 0.0 0.0
0.0 0.0 0.0 0.0 0.0 0.0 0.0 0.0
0.0 1.3942118126280809e-06 -1.7202479833820512e-08 1.1633862331670308e-08 5.568617502153395e-09 2.882879494068393e-07 0.0 0.0
0.0 3.0628381032312882e-06 -6.90575449801798e-08 5.370267077264668e-08 1.5354874207528902e-08 6.580753880870616e-07 0.0 0.0
0.0 1.997999562432234e-05 2.3861918695899896e-07 -2.0945268901166986e-07 -2.916649794733345e-08 -1.3003793068280433e-06 0.0 0.0
0.0 9.17442650229708e-05 2.0643981996297163e-05 -1.632179900882948e-05 -4.322182987467651e-06 -9.797181485553549e-05 0.0 0.0
0.0 0.00021314791843228892 7.852459940715815e-05 -6.202791119386568e-05 -1.649668821329245e-05 -0.00030754609697123406 0.0 0.0
0.0 0.0005099611003168214 0.0002181265406762498 -0.00017262633325277295 -4.550020742347687e-05 -0.0006453790213287257 0.0 0.0
0.0 0.001045565199717044 0.0005724948826003169 -0.00045807980563747493 -0.000114415076962842 -0.0012637458833244949 0.0 0.0
0.0 0.0018541439571326192 0.0011941922540437936 -0.0009786248379996328 -0.0002155674160441605 -0.0020975074896688382 0.0 0.0
0.0 0.0029561852176095494 0.0020016426611255455 -0.0016849304781811159 -0.00031671218294442954 -0.0030184500265156345 0.0 0.0
0.0 0.004267721259388028 0.003013340424358116 -0.002599983925778447 -0.0004133564985796673 -0.004044237817909259 0.0 0.0
0.0 0.00590430539395896 0.004284917899264702 -0.003784688926989458 -0.0005002289722752429 -0.005138664406552385 0.0 0.0
0.0 0.007939308820201586 0.0058875760226137965 -0.005314261542547851 -0.0005733144800659452 -0.006305117380601633 0.0 0.0
0.0 0.010440293484748018 0.007896626877198018 -0.007265381031121842 -0.0006312458460761768 -0.007506932271999217 0.0 0.0
0.0 0.013493021876659336 0.010385289464019495 -0.009708346239580213 -0.0006769432244392854 -0.008569569496601903 0.0 0.0
0.0 0.016978432576839092 0.013392535763112227 -0.012674526254615057 -0.0007180095084971751 -0.009056320324086074 0.0 0.0
0.0 0.020908922153709885 0.016943991888086353 -0.016207177702831532 -0.0007368141852548268 -0.008661061443990271 0.0 0.0
0.0 0.02508677173412103 0.021001746832379018 -0.02022693798479098 -0.0007748088475880477 -0.00625382542732065 0.0 0.0
0.0 0.02508677173412005 0.021001746832377256 -0.020226937984789202 -0.0007748088475880657 0.006253825427333332 0.0 0.0
0.0 0.020908922153709437 0.016943991888083598 -0.016207177702828836 -0.0007368141852547535 0.008661061444010411 0.0 0.0
0.0 0.016978432576836996 0.013392535763108055 -0.012674526254611313 -0.0007180095084967446 0.009056320324100298 0.0 0.0
0.0 0.013493021876653768 0.010385289464014017 -0.009708346239575151 -0.0006769432244388609 0.008569569496604174 0.0 0.0
0.0 0.010440293484741509 0.007896626877193278 -0.0072653810311175595 -0.0006312458460757176 0.007506932271994294 0.0 0.0
0.0 0.007939308820194373 0.005887576022608263 -0.005314261542542605 -0.0005733144800656549 0.006305117380597018 0.0 0.0
0.0 0.005904305393954947 0.004284917899261376 -0.0037846889269863735 -0.0005002289722750025 0.005138664406550282 0.0 0.0
0.0 0.004267721259385031 0.0030133404243552608 -0.0025999839257759326 -0.000413356498579328 0.004044237817908481 0.0 0.0
0.0 0.0029561852176038196 0.0020016426611214463 -0.0016849304781776696 -0.00031671218294377637 0.0030184500265107678 0.0 0.0
0.0 0.0018541439571262306 0.0011941922540396027 -0.0009786248379961037 -0.0002155674160434983 0.0020975074896623434 0.0 0.0
0.0 0.0010455651997114419 0.0005724948825971428 -0.00045807980563483707 -0.00011441507696230566 0.0012637458833184194 0.0 0.0
0.0 0.0005099611003148101 0.00021812654067527334 -0.0001726263332519886 -4.550020742328458e-05 0.0006453790213263358 0.0 0.0
0.0 0.00021314791843101802 7.85245994068289e-05 -6.202791119361028e-05 -1.649668821321857e-05 0.0003075460969700594 0.0 0.0
0.0 9.174426502196148e-05 2.0643981996172256e-05 -1.6321799008728262e-05 -4.322182987443969e-06 9.797181485490577e-05 0.0 0.0
0.0 1.99799956238098e-05 2.3861918696778963e-07 -2.0945268901837466e-07 -2.9166497949403418e-08 1.3003793069114144e-06 0.0 0.0
0.0 3.062838102718457e-06 -6.905754496692381e-08 5.3702670762761436e-08 1.535487420416051e-08 -6.580753879724068e-07 0.0 0.0
0.0 1.3942118121365584e-06 -1.7202479827439693e-08 1.1633862327329383e-08 5.568617500112952e-09 -2.8828794930130727e-07 0.0 0.0
0.0 0.0 0.0 0.0 0.0 0.0 0.0 0.0
0.0 1.65381671108306e-06 -2.7489050652915605e-09 7.587632727915323e-09 -4.8387276626236715e-09 -3.5339007148384286e-07 0.0 0.0
0.0 8.758892299607511e-05 3.594452268955416e-05 -5.116325750379702e-05 1.5218734814242847e-05 5.756564447919665e-05 0.0 0.0
0.0 9.662746538681854e-06 5.061571364334085e-07 -7.673528703386673e-07 2.6119573390526547e-07 -7.439773791185765e-07 0.0 0.0
0.0 2.1979396482406107e-06 1.1868574056845524e-09 1.0883559240507842e-08 -1.207041664619258e-08 4.588111399241068e-07 0.0 0.0
0.0 8.28283976103979e-07 8.757322001854407e-09 -7.994197467743662e-09 -7.631245341108108e-10 1.6872916499049268e-07 0.0 0.0
0.0 1.0341171999299922e-06 3.4830124123105497e-09 -4.631541757330647e-09 1.1485293450206947e-09 2.129476539670559e-07 0.0 0.0
0.0 5.455561020512527e-06 -1.877319191668789e-08 9.400339741409076e-09 9.372852175272426e-09 1.2338249442580408e-06 0.0 0.0
0.0 1.7013622818188253e-05 2.2681256932416846e-07 -1.8079388282068606e-07 -4.6018686503472145e-08 -4.397693065081129e-06 0.0 0.0
0.0 7.039122783529379e-05 6.2040890100419e-06 -4.8834031501762425e-06 -1.32068585986566e-06 -9.297503112756832e-05 0.0 0.0
0.0 0.0001840713915235208 1.9176872400919796e-05 -1.5117583168429147e-05 -4.0592892324906194e-06 -0.00022840568248780595 0.0 0.0
0.0 0.0003067758848316756 4.746252030548223e-05 -3.7511731048302034e-05 -9.950789257180219e-06 -0.00045984731618416857 0.0 0.0
0.0 0.0005284148203096761 9.219051401292418e-05 -7.317290585022926e-05 -1.9017608162694888e-05 -0.0007473335828080596 0.0 0.0
0.0 0.0007312929093779158 0.00017043349300713986 -0.00013624920970877993 -3.4184283298359926e-05 -0.0012117106495261396 0.0 0.0
0.0 0.001099361328319187 0.00029098402641692945 -0.00023352035760723492 -5.746366880969442e-05 -0.001786860749097249 0.0 0.0
0.0 0.0016245253174805479 0.0005032793716093716 -0.0004032790462052468 -0.00010000032540412475 -0.0025389893358469143 0.0 0.0
0.0 0.002332741754802945 0.0008067841107756064 -0.000651411135677449 -0.00015537297509815695 -0.003471667999014854 0.0 0.0
0.0 0.0032270839376479683 0.0012305365412378457 -0.0010091855942187292 -0.0002213509470191164 -0.00459803979964088 0.0 0.0
0.0 0.004427151162848828 0.0018934618012850673 -0.0016056862214778697 -0.00028777557980719687 -0.005839987684657364 0.0 0.0
0.0 0.005983554290881298 0.002962231107496047 -0.002615463594961336 -0.00034676751253470955 -0.006980899881574235 0.0 0.0
0.0 0.007977559543626419 0.0046412610944482425 -0.0042298921910313035 -0.0004113689034169378 -0.007564157153316436 0.0 0.0
0.0 0.01048366528447007 0.007020733577479046 -0.0065435902915266094 -0.00047714328595243585 -0.0071814033646300695 0.0 0.0
0.0 0.013880721943803642 0.010396306395717142 -0.009924566549996978 -0.00047173984572015763 -0.00594021737931519 0.0 0.0
0.0 0.013880721943805205 0.010396306395717765 -0.00992456654999761 -0.0004717398457201543 0.005940217379322912 0.0 0.0
0.0 0.010483665284472527 0.007020733577478776 -0.006543590291526385 -0.0004771432859523886 0.007181403364644516 0.0 0.0
0.0 0.007977559543625575 0.004641261094445912 -0.0042298921910289295 -0.0004113689034169804 0.007564157153324501 0.0 0.0
0.0 0.005983554290878259 0.002962231107493749 -0.0026154635949590353 -0.0003467675125347134 0.006980899881573945 0.0 0.0
0.0 0.004427151162845174 0.0018934618012834757 -0.0016056862214763427 -0.00028777557980713204 0.005839987684652326 0.0 0.0
0.0 0.003227083937645469 0.0012305365412369042 -0.0010091855942178274 -0.00022135094701907653 0.0045980397996370805 0.0 0.0
0.0 0.002332741754800951 0.0008067841107748139 -0.0006514111356768131 -0.00015537297509800072 0.0034716679990126104 0.0 0.0
0.0 0.0016245253174789805 0.0005032793716088882 -0.00040327904620495597 -0.00010000032540393198 0.0025389893358446812 0.0 0.0
0.0 0.0010993613283165021 0.00029098402641622635 -0.0002335203576066432 -5.7463668809583075e-05 0.0017868607490929998 0.0 0.0
0.0 0.0007312929093753237 0.0001704334930064479 -0.00013624920970820817 -3.418428329823975e-05 0.0012117106495216038 0.0 0.0
0.0 0.0005284148203074605 9.219051401262649e-05 -7.317290584998179e-05 -1.9017608162644662e-05 0.0007473335828047903 0.0 0.0
0.0 0.00030677588483105935 4.746252030543539e-05 -3.751173104828953e-05 -9.95078925714582e-06 0.0004598473161833784 0.0 0.0
0.0 0.00018407139152283754 1.9176872400854696e-05 -1.5117583168383193e-05 -4.059289232471499e-06 0.00022840568248691683 0.0 0.0
0.0 7.039122783457445e-05 6.204089010000346e-06 -4.883403150142794e-06 -1.3206858598575425e-06 9.297503112692661e-05 0.0 0.0
0.0 1.7013622817716435e-05 2.2681256932721995e-07 -1.8079388282276973e-07 -4.6018686504454504e-08 4.397693065172659e-06 0.0 0.0
0.0 5.4555610200182124e-06 -1.87731919147807e-08 9.400339740515117e-09 9.372852174262189e-09 -1.2338249441362645e-06 0.0 0.0
0.0 1.0341171994111593e-06 3.4830124097744975e-09 -4.63154175459075e-09 1.1485293448161685e-09 -2.1294765385734702e-07 0.0 0.0
0.0 8.282839756553083e-07 8.757321996808003e-09 -7.99419746324245e-09 -7.631245335657651e-10 -1.687291648967851e-07 0.0 0.0
0.0 2.1979396476663126e-06 1.1868574058352821e-09 1.0883559236708018e-08 -1.2070416642541689e-08 -4.588111397997392e-07 0.0 0.0
0.0 9.66274653827181e-06 5.061571365818247e-07 -7.673528705543638e-07 2.6119573397248987e-07 7.439773794077284e-07 0.0 0.0
0.0 1.1154274967154838e-06 -6.940272927065707e-08 1.0140536005932445e-07 -3.2002630788669234e-08 1.5472886577778056e-07 0.0 0.0
0.0 1.7796170291698353e-06 6.777231581667589e-09 2.818520896233413e-09 -9.595752477896557e-09 3.8083891622846305e-07 0.0 0.0
0.0 1.006612653282911e-06 1.8800037151531995e-08 -1.6160969127413305e-08 -2.6390680241173787e-09 2.0557945423080885e-07 0.0 0.0
0.0 1.3830639415008088e-06 2.5459537940910303e-08 -2.257136934973081e-08 -2.8881685911793595e-09 2.8364822182210734e-07 0.0 0.0
0.0 6.329568723119171e-06 1.2100159608371412e-07 -9.95749289913299e-08 -2.1426667092374816e-08 1.450807040856032e-06 0.0 0.0
0.0 1.9902234268571495e-05 -7.098222755603787e-08 6.567502322108183e-08 5.3072043349499366e-09 -1.4378943080865919e-06 0.0 0.0
0.0 7.20860199443551e-05 -6.5626388968437364e-06 5.2355884054334925e-06 1.3270504914102298e-06 -9.34420728028814e-05 0.0 0.0
0.0 0.00018431150297037227 -1.9145352982619273e-05 1.509072981344638e-05 4.054623169172858e-06 -0.00022865151208504154 0.0 0.0
0.0 0.00030644165111482467 -4.717610615523315e-05 3.726004260234279e-05 9.916063552890335e-06 -0.0004596320172402812 0.0 0.0
0.0 0.0005278622188103642 -9.184039146825033e-05 7.286070653953402e-05 1.897968492871638e-05 -0.0007467351622418264 0.0 0.0
0.0 0.00073901479774453 -0.00016904427295812125 0.00013532586244097922 3.371841051714193e-05 -0.001210181786113692 0.0 0.0
0.0 0.0011003608436735255 -0.0002921871171780354 0.0002348384404639909 5.7348676714044414e-05 -0.0017872458665074938 0.0 0.0
0.0 0.0016298240048113173 -0.0005105077705965389 0.000409919882648421 0.00010058788794811799 -0.002540196473271935 0.0 0.0
0.0 0.0023458426957575123 -0.0008210527935688815 0.000662808868810977 0.00015824392475790412 -0.0034760421219210084 0.0 0.0
0.0 0.003219714392320236 -0.001214744802759923 0.0009876896804428602 0.000227055122317062 -0.004607548939210659 0.0 0.0
0.0 0.004259925261943244 -0.0016265893727815347 0.0013306037181789463 0.00029598565460258684 -0.005895457453795442 0.0 0.0
0.0 0.005258315007503252 -0.001846672432794489 0.0014974854327562972 0.00034918700003819085 -0.0073269950858404695 0.0 0.0
0.0 0.006054766801991245 -0.0016005402537307082 0.0012210411966986883 0.0003794990570320198 -0.008861280199395867 0.0 0.0
0.0 0.006372177913961281 -0.0007767582137246662 0.0005020765129608874 0.00027468170076377837 -0.01006640241957168 0.0 0.0
0.0 0.005916896432788671 0.001359690990568901 -0.0014441983142235606 8.45073236546596e-05 -0.008660794854538578 0.0 0.0
0.0 0.0059168964327918384 0.0013596909905688138 -0.001444198314223693 8.45073236548785e-05 0.008660794854546381 0.0 0.0
0.0 0.0063721779139649165 -0.0007767582137249832 0.0005020765129610792 0.00027468170076390343 0.010066402419579472 0.0 0.0
0.0 0.006054766801990529 -0.0016005402537300358 0.0012210411966981313 0.0003794990570319031 0.00886128019939779 0.0 0.0
0.0 0.005258315007499239 -0.0018466724327922469 0.0014974854327544256 0.00034918700003782146 0.007326995085837423 0.0 0.0
0.0 0.004259925261938318 -0.001626589372778894 0.00133060371817659 0.00029598565460230424 0.0058954574537896254 0.0 0.0
0.0 0.003219714392317305 -0.001214744802758795 0.0009876896804419544 0.00022705512231684037 0.004607548939206764 0.0 0.0
0.0 0.002345842695754689 -0.0008210527935672825 0.0006628088688097572 0.00015824392475752546 0.003476042121918003 0.0 0.0
0.0 0.0016298240048081122 -0.0005105077705943838 0.0004099198826466731 0.00010058788794771047 0.002540196473268926 0.0 0.0
0.0 0.0011003608436699801 -0.0002921871171764521 0.0002348384404626423 5.734867671380969e-05 0.0017872458665029282 0.0 0.0
0.0 0.0007390147977417552 -0.00016904427295724473 0.00013532586244024492 3.371841051699977e-05 0.0012101817861096104 0.0 0.0
0.0 0.0005278622188077568 -9.184039146757145e-05 7.286070653893516e-05 1.8979684928636264e-05 0.0007467351622379774 0.0 0.0
0.0 0.0003064416511138052 -4.7176106154970885e-05 3.726004260214017e-05 9.916063552830695e-06 0.00045963201723887674 0.0 0.0
0.0 0.00018431150296951602 -1.9145352982497507e-05 1.5090729813344137e-05 4.0546231691533636e-06 0.00022865151208411273 0.0 0.0
0.0 7.208601994364966e-05 -6.5626388967992655e-06 5.235588405407063e-06 1.3270504913921951e-06 9.344207280226875e-05 0.0 0.0
0.0 1.9902234268155114e-05 -7.098222758073272e-08 6.567502324142749e-08 5.307204339316925e-09 1.4378943084767073e-06 0.0 0.0
0.0 6.329568722502479e-06 1.210015960720766e-07 -9.957492898152986e-08 -2.142666709055061e-08 -1.4508070407032778e-06 0.0 0.0
0.0 1.38306394101384e-06 2.5459537931086613e-08 -2.257136934122153e-08 -2.8881685898646692e-09 -2.8364822171881803e-07 0.0 0.0
0.0 1.0066126526757192e-06 1.8800037139368483e-08 -1.616096911716342e-08 -2.639068022204588e-09 -2.0557945410441137e-07 0.0 0.0
0.0 1.7796170285604457e-06 6.777231579867834e-09 2.8185208935578717e-09 -9.595752473420792e-09 -3.808389160997736e-07 0.0 0.0
0.0 1.1154274964526031e-06 -6.940272925345171e-08 1.0140536003419192e-07 -3.2002630780733594e-08 -1.5472886573936063e-07 0.0 0.0
0.0 0.0 0.0 0.0 0.0 0.0 0.0 0.0
0.0 3.276462985221994e-07 3.2186778971512715e-09 -1.5001146982919518e-09 -1.7185631988585876e-09 6.55534057056826e-08 0.0 0.0
0.0 1.1358547083526696e-06 2.9199022431040485e-08 -2.4414515400477513e-08 -4.784507030563987e-09 2.311035997749412e-07 0.0 0.0
0.0 4.433390297608247e-06 1.6015753021184142e-07 -1.3149237797340506e-07 -2.8665152238422848e-08 9.6169292488308e-07 0.0 0.0
0.0 6.052812200195218e-06 1.1403889349368246e-07 -8.109405927076287e-08 -3.294483422291178e-08 4.829040664290444e-07 0.0 0.0
0.0 2.5336568763194673e-05 -2.7091686571317233e-06 2.076743005687811e-06 6.324256514438754e-07 -1.2741039630557054e-05 0.0 0.0
0.0 9.768738611635707e-05 -2.1320528278408763e-05 1.6930100920544693e-05 4.390427357864063e-06 -9.998076816911258e-05 0.0 0.0
0.0 0.00021414088461182016 -7.852205888363707e-05 6.203273218846355e-05 1.648932669517349e-05 -0.0003079587135907156 0.0 0.0
0.0 0.0005078348456169192 -0.0002175850744360438 0.00017214777128986142 4.543730314618231e-05 -0.0006445679798146688 0.0 0.0
0.0 0.0010433649291282554 -0.0005715301532868382 0.00045724846966566313 0.00011428168362117487 -0.0012626850210877743 0.0 0.0
0.0 0.0018535384971319502 -0.0011939726978317607 0.0009784967727018757 0.0002154759251298846 -0.00209764112548976 0.0 0.0
0.0 0.0029587145451004477 -0.0020046553474183416 0.0016880931773129524 0.00031656217010538913 -0.003018097608151351 0.0 0.0
0.0 0.004279352597783871 -0.0030265998134002994 0.002613369989332777 0.000413229824067521 -0.004037449091153461 0.0 0.0
0.0 0.005930802787792972 -0.004311523697078914 0.003809568325779552 0.0005019553712993612 -0.005129865424428593 0.0 0.0
0.0 0.007941597070728149 -0.005872432816518336 0.005290699971435298 0.0005817328450830352 -0.00635138990205095 0.0 0.0
0.0 0.010210495285960335 -0.007599285732828585 0.006948000646875164 0.0006512850859534188 -0.0077871258819805795 0.0 0.0
0.0 0.012458324236017131 -0.009188070412582445 0.008475309201911311 0.0007127612106711345 -0.009462140886445786 0.0 0.0
0.0 0.014097275398396154 -0.010133296268250321 0.009369624924021262 0.0007636713442290605 -0.011259010193242717 0.0 0.0
0.0 0.013850509262941745 -0.009539986091966256 0.008696158704753152 0.0008438273872131023 -0.01197824693670175 0.0 0.0
0.0 0.010181966079133383 -0.006079286432053733 0.005235152860972021 0.0008441335710817112 -0.009643000390475148 0.0 0.0
0.0 0.010181966079137673 -0.006079286432054759 0.005235152860972986 0.0008441335710817719 0.00964300039048594 0.0 0.0
0.0 0.013850509262945104 -0.009539986091965835 0.008696158704752769 0.00084382738721306 0.011978246936717143 0.0 0.0
0.0 0.014097275398394445 -0.010133296268246895 0.00936962492401806 0.0007636713442288346 0.011259010193252022 0.0 0.0
0.0 0.012458324236010064 -0.009188070412576282 0.008475309201905434 0.0007127612106708478 0.009462140886444582 0.0 0.0
0.0 0.010210495285951648 -0.007599285732821679 0.00694800064686856 0.0006512850859531198 0.007787125881974565 0.0 0.0
0.0 0.007941597070721264 -0.0058724328165127735 0.005290699971430135 0.0005817328450826364 0.006351389902046421 0.0 0.0
0.0 0.005930802787784942 -0.004311523697072506 0.0038095683257737285 0.0005019553712987773 0.005129865424423874 0.0 0.0
0.0 0.004279352597776483 -0.00302659981339397 0.002613369989326987 0.0004132298240669808 0.00403744909114937 0.0 0.0
0.0 0.002958714545091929 -0.00200465534741217 0.001688093177307459 0.0003165621701047113 0.0030180976081449077 0.0 0.0
0.0 0.0018535384971243697 -0.001193972697826689 0.0009784967726975762 0.00021547592512911252 0.002097641125483174 0.0 0.0
0.0 0.0010433649291221047 -0.0005715301532832137 0.00045724846966273047 0.00011428168362048284 0.0012626850210815171 0.0 0.0
0.0 0.0005078348456144711 -0.00021758507443471947 0.00017214777128879313 4.543730314592628e-05 0.000644567979812013 0.0 0.0
0.0 0.00021414088461053988 -7.852205888320367e-05 6.203273218812346e-05 1.6489326695080203e-05 0.000307958713589399 0.0 0.0
0.0 9.768738611538608e-05 -2.1320528278316924e-05 1.693010092047852e-05 4.390427357838342e-06 9.998076816869695e-05 0.0 0.0
0.0 2.5336568762550033e-05 -2.7091686571189026e-06 2.0767430056784315e-06 6.324256514404733e-07 1.2741039630504694e-05 0.0 0.0
0.0 6.052812199858525e-06 1.1403889342525175e-07 -8.10940592120668e-08 -3.294483421320191e-08 -4.829040659744329e-07 0.0 0.0
0.0 4.433390297146278e-06 1.6015753019507324e-07 -1.3149237795953612e-07 -2.8665152235533242e-08 -9.61692924777465e-07 0.0 0.0
0.0 1.1358547078605477e-06 2.919902241766033e-08 -2.441451538947173e-08 -4.7845070281886985e-09 -2.3110359967327132e-07 0.0 0.0
0.0 3.276462981955824e-07 3.218677893892744e-09 -1.500114696772239e-09 -1.7185631971203247e-09 -6.555340563942545e-08 0.0 0.0
0.0 0.0 0.0 0.0 0.0 0.0 0.0 0.0
0.0 0.0 0.0 0.0 0.0 0.0 0.0 0.0
0.0 0.0 0.0 0.0 0.0 0.0 0.0 0.0
0.0 2.3595770756542535e-06 8.103527067074457e-08 -6.628456757845172e-08 -1.4750703092293867e-08 4.821090557083344e-07 0.0 0.0
0.0 6.5906872819304125e-06 3.108815427979235e-07 -2.5702362177301864e-07 -5.385792102489637e-08 1.4093816020137892e-06 0.0 0.0
0.0 9.527031903622594e-06 -4.274367382620959e-07 3.2719528081e-07 1.002414574521056e-07 -1.2457366879667746e-06 0.0 0.0
0.0 3.811988508875376e-05 -6.859048961185931e-06 5.505297734840463e-06 1.3537512263454469e-06 -2.1687357317287877e-05 0.0 0.0
0.0 0.00014002654923477492 -5.423022015890653e-05 4.2900307024959065e-05 1.1329913133947468e-05 -0.00014457546790313158 0.0 0.0
0.0 0.00046231798759682193 -0.00025837713056897356 0.00020451583300106133 5.386129756791223e-05 -0.0005106917092762433 0.0 0.0
0.0 0.0012684771705496938 -0.0008216147032461384 0.0006644772040034457 0.00015713749924269255 -0.0012114336223879524 0.0 0.0
0.0 0.0023821121860125123 -0.0017882909897755615 0.001490081330377406 0.0002982096593981552 -0.002181283934564745 0.0 0.0
0.0 0.003949465893834315 -0.0030244150052233672 0.002598355076183018 0.0004260599290403492 -0.0032457850997573714 0.0 0.0
0.0 0.005683969330718418 -0.004502714076866666 0.003969361585211607 0.0005333524916550582 -0.004324830444764395 0.0 0.0
0.0 0.007815829331786235 -0.006287084768525821 0.005664614712454547 0.0006224700560712728 -0.0054413878793030425 0.0 0.0
0.0 0.0104849612096508 -0.008496247097890191 0.00779850539270906 0.0006977417051811303 -0.0066716362950644745 0.0 0.0
0.0 0.013806598298957726 -0.011188937525283278 0.010423517179799793 0.0007654203454834844 -0.008137821302042296 0.0 0.0
0.0 0.017584567697098208 -0.014256469595997863 0.013427059221228298 0.0008294103747695644 -0.010014568428600412 0.0 0.0
0.0 0.02152653586666141 -0.01731649026719701 0.016423443733275284 0.0008930465339217236 -0.01244840916629278 0.0 0.0
0.0 0.024460873520454233 -0.019581124633112516 0.0186070383697102 0.000974086263402318 -0.015078195343744409 0.0 0.0
0.0 0.024901503620993096 -0.019610215248729686 0.018537188459170344 0.0010730267895593488 -0.016411330922191564 0.0 0.0
0.0 0.019502717570851195 -0.01518354654365819 0.013976303396934906 0.0012072431467232757 -0.013265997003217832 0.0 0.0
0.0 0.019502717570855796 -0.015183546543659453 0.01397630339693588 0.0012072431467235677 0.013265997003233061 0.0 0.0
0.0 0.024901503620997495 -0.019610215248729503 0.018537188459170306 0.001073026789559188 0.01641133092221339 0.0 0.0
0.0 0.024460873520452755 -0.01958112463310839 0.018607038369706504 0.0009740862634018826 0.015078195343759194 0.0 0.0
0.0 0.021526535866650844 -0.017316490267187207 0.016423443733265968 0.0008930465339212388 0.012448409166293917 0.0 0.0
0.0 0.017584567697083664 -0.014256469595985678 0.013427059221216377 0.0008294103747692981 0.010014568428594276 0.0 0.0
0.0 0.013806598298945231 -0.011188937525272814 0.01042351717978948 0.0007654203454833297 0.008137821302036746 0.0 0.0
0.0 0.010484961209639388 -0.008496247097880735 0.007798505392699943 0.0006977417051807921 0.006671636295058292 0.0 0.0
0.0 0.007815829331774556 -0.006287084768515538 0.0056646147124448515 0.0006224700560706846 0.005441387879298763 0.0 0.0
0.0 0.005683969330704893 -0.004502714076855512 0.0039693615852011725 0.0005333524916543389 0.004324830444756538 0.0 0.0
0.0 0.003949465893820973 -0.003024415005212765 0.0025983550761733147 0.0004260599290394487 0.0032457850997474327 0.0 0.0
0.0 0.0023821121860005115 -0.0017882909897665377 0.0014900813303693173 0.0002982096593972205 0.0021812839345552266 0.0 0.0
0.0 0.0012684771705425832 -0.0008216147032408534 0.0006644772039989267 0.0001571374992419265 0.0012114336223821177 0.0 0.0
0.0 0.00046231798759332495 -0.0002583771305668843 0.00020451583299938844 5.386129756749592e-05 0.0005106917092731289 0.0 0.0
0.0 0.00014002654923296658 -5.4230220158552956e-05 4.290030702467096e-05 1.1329913133881989e-05 0.00014457546790213913 0.0 0.0
0.0 3.81198850876872e-05 -6.859048961124715e-06 5.505297734790903e-06 1.3537512263337678e-06 2.168735731708715e-05 0.0 0.0
0.0 9.52703190329749e-06 -4.274367383539897e-07 3.2719528088293385e-07 1.0024145747101257e-07 1.2457366883000706e-06 0.0 0.0
0.0 6.590687281374371e-06 3.1088154276881837e-07 -2.570236217490074e-07 -5.385792101982278e-08 -1.4093816018841068e-06 0.0 0.0
0.0 2.3595770750547986e-06 8.103527064889636e-08 -6.628456756069521e-08 -1.4750703088195763e-08 -4.821090555798598e-07 0.0 0.0
0.0 0.0 0.0 0.0 0.0 0.0 0.0 0.0
0.0 0.0 0.0 0.0 0.0 0.0 0.0 0.0
0.0 0.0 0.0 0.0 0.0 0.0 0.0 0.0
0.0 0.0 0.0 0.0 0.0 0.0 0.0 0.0
0.0 1.762862297087584e-06 7.425115861487428e-08 -6.029149643128876e-08 -1.3959662183589334e-08 3.448992119798501e-07 0.0 0.0
0.0 4.567888438468323e-06 2.816642514112822e-07 -2.2557908395482e-07 -5.6085167456466286e-08 9.161147982519621e-07 0.0 0.0
0.0 1.2799355866264375e-05 4.372964666925765e-07 -3.219561098122934e-07 -1.1534035688025156e-07 1.0326337869394373e-06 0.0 0.0
0.0 5.998477753824099e-05 -1.9914390747019606e-05 1.5723176491215805e-05 4.191214255803803e-06 -4.213191208433364e-05 0.0 0.0
0.0 0.0002930833868222153 -0.00016280469864246794 0.00012930320712280225 3.3501491519665826e-05 -0.0002679670836846309 0.0 0.0
0.0 0.001030437062519977 -0.0007211377451104275 0.0005809560952170331 0.00014018164989339433 -0.0008707638318599627 0.0 0.0
0.0 0.0023350769742872092 -0.001797038731345673 0.0014966122039774923 0.00030042652736818093 -0.0017842294442984208 0.0 0.0
0.0 0.004046342332687049 -0.003290290021714621 0.0028345750521706547 0.00045571496954396564 -0.002885534712775032 0.0 0.0
0.0 0.006129817967109131 -0.00507783270580661 0.00450012145516764 0.000577711250638969 -0.004017723955626247 0.0 0.0
0.0 0.008617806542271383 -0.007183236040816201 0.006507714874375726 0.0006755211664404742 -0.005131862253288659 0.0 0.0
0.0 0.011657273146337884 -0.009728332769884475 0.008973843592957461 0.0007544891769270146 -0.006309121252254282 0.0 0.0
0.0 0.015367545259288767 -0.01287842589449737 0.01205536543711198 0.0008230604573853907 -0.0076448381758728885 0.0 0.0
0.0 0.01995542099762287 -0.01672740997432225 0.015840341784653274 0.0008870681896689701 -0.00927375257541588 0.0 0.0
0.0 0.025312347515231554 -0.021179242142345796 0.020224671290503114 0.0009545708518426844 -0.011460526898577435 0.0 0.0
0.0 0.030836242464639264 -0.025737119480482268 0.024703878316732167 0.0010332411637500837 -0.014426332455285282 0.0 0.0
0.0 0.03527474049287445 -0.029251870792944265 0.028116220781224596 0.001135650011719667 -0.017768109843634142 0.0 0.0
0.0 0.036103897516612866 -0.029702994204953335 0.028434859047043723 0.0012681351579096015 -0.019746780880402718 0.0 0.0
0.0 0.02928802451581843 -0.023980532942747143 0.02254166159892077 0.0014388713438263693 -0.016902310630934267 0.0 0.0
0.0 0.02928802451582023 -0.023980532942745658 0.022541661598919134 0.001438871343826528 0.016902310630952738 0.0 0.0
0.0 0.03610389751661304 -0.02970299420494956 0.028434859047040177 0.0012681351579093862 0.019746780880427653 0.0 0.0
0.0 0.035274740492867246 -0.029251870792935175 0.028116220781215832 0.0011356500117193262 0.01776810984365174 0.0 0.0
0.0 0.030836242464624054 -0.02573711948046818 0.02470387831671845 0.001033241163749724 0.01442633245528841 0.0 0.0
0.0 0.025312347515214603 -0.021179242142331023 0.020224671290488754 0.0009545708518422629 0.011460526898573275 0.0 0.0
0.0 0.01995542099760709 -0.016727409974308577 0.015840341784640076 0.0008870681896684964 0.009273752575410953 0.0 0.0
0.0 0.015367545259273106 -0.012878425894484043 0.012055365437099076 0.0008230604573849624 0.007644838175866393 0.0 0.0
0.0 0.011657273146320413 -0.009728332769869563 0.008973843592942794 0.0007544891769267697 0.0063091212522482475 0.0 0.0
0.0 0.00861780654225442 -0.00718323604080163 0.006507714874361798 0.0006755211664398298 0.005131862253280427 0.0 0.0
0.0 0.006129817967092232 -0.005077832705792616 0.004500121455154348 0.0005777112506382686 0.004017723955615744 0.0 0.0
0.0 0.004046342332672068 -0.0032902900217023773 0.0028345750521594024 0.0004557149695429739 0.002885534712764583 0.0 0.0
0.0 0.0023350769742768005 -0.0017970387313375382 0.0014966122039704057 0.00030042652736713294 0.0017842294442915814 0.0 0.0
0.0 0.001030437062514562 -0.0007211377451064327 0.0005809560952138022 0.00014018164989263037 0.0008707638318560841 0.0 0.0
0.0 0.0002930833868195992 -0.0001628046986412202 0.00012930320712182316 3.35014915193971e-05 0.00026796708368279955 0.0 0.0
0.0 5.998477753693083e-05 -1.9914390746979362e-05 1.5723176491183886e-05 4.191214255795528e-06 4.2131912084244774e-05 0.0 0.0
0.0 1.27993558656781e-05 4.372964665777472e-07 -3.2195610971969496e-07 -1.1534035685809276e-07 -1.0326337866409558e-06 0.0 0.0
0.0 4.567888437996252e-06 2.8166425138205025e-07 -2.255790839313278e-07 -5.6085167450732297e-08 -9.161147981532237e-07 0.0 0.0
0.0 1.7628622966370727e-06 7.425115859493936e-08 -6.029149641515662e-08 -1.3959662179784548e-08 -3.4489921188806817e-07 0.0 0.0
0.0 0.0 0.0 0.0 0.0 0.0 0.0 0.0
0.0 0.0 0.0 0.0 0.0 0.0 0.0 0.0
0.0 0.0 0.0 0.0 0.0 0.0 0.0 0.0
0.0 0.0 0.0 0.0 0.0 0.0 0.0 0.0
0.0 6.301117771691601e-07 3.177133557320747e-08 -2.5610055499987776e-08 -6.161280073216576e-09 1.139376708674144e-07 0.0 0.0
0.0 6.9346823109825144e-06 5.042347017098303e-07 -4.065067840334973e-07 -9.772791767633461e-08 1.3113344896096305e-06 0.0 0.0
0.0 2.5212619995950892e-05 2.4747268596932223e-06 -1.951196794361913e-06 -5.235300653313059e-07 4.953316836308696e-06 0.0 0.0
0.0 0.00011839127693978093 -5.9161478780253546e-05 4.7018686126500114e-05 1.2142792653753468e-05 -8.694881113486974e-05 0.0 0.0
0.0 0.0006340840241069481 -0.0004270405921058825 0.00034121315572028794 8.582743638559459e-05 -0.00045017466781825823 0.0 0.0
0.0 0.0018009687298940387 -0.0014057618078565652 0.0011574070703468204 0.00024835473750974425 -0.001185813323933434 0.0 0.0
0.0 0.003541199858004565 -0.0029541371004088747 0.002526321560854427 0.0004278155395544478 -0.0021826372119550836 0.0 0.0
0.0 0.005767051145616027 -0.004905994828503972 0.004332167963902416 0.0005738268646015539 -0.0032731765967882933 0.0 0.0
0.0 0.008452235809280827 -0.0072155639756263466 0.006529165182463067 0.0006863987931632813 -0.004363300767314595 0.0 0.0
0.0 0.011675158187388627 -0.009956637176862534 0.009180090143421412 0.0007765470334411221 -0.005475320491163699 0.0 0.0
0.0 0.015587119270724016 -0.013281669415213426 0.012429310213888704 0.0008523592013247182 -0.0066783074699312064 0.0 0.0
0.0 0.020412615819353865 -0.01738270260797126 0.016462177585571912 0.000920525022399348 -0.00804721829165806 0.0 0.0
0.0 0.026355290925455254 -0.02239612650856995 0.021409009322818008 0.0009871171857519445 -0.009718986402909274 0.0 0.0
0.0 0.033096351163013724 -0.028233551310345807 0.027172077824113582 0.00106147348623222 -0.01196395453763813 0.0 0.0
0.0 0.04039602625348928 -0.03426660879167638 0.03311013417242949 0.001156474619246887 -0.01505315496765741 0.0 0.0
0.0 0.04620155906146335 -0.0389784860716703 0.037695504397906685 0.0012829816737636285 -0.0188038619909029 0.0 0.0
0.0 0.047304567505324524 -0.03969498562175335 0.03825210149667758 0.0014428841250757616 -0.021591713465715725 0.0 0.0
0.0 0.0390878260185124 -0.03256008026815453 0.030941542940381428 0.00161853732777309 -0.020316911193265962 0.0 0.0
0.0 0.03908782601851509 -0.03256008026815363 0.030941542940380647 0.0016185373277729865 0.020316911193286893 0.0 0.0
0.0 0.047304567505323886 -0.03969498562174907 0.03825210149667362 0.0014428841250754484 0.021591713465742984 0.0 0.0
0.0 0.04620155906145402 -0.038978486071659726 0.037695504397896394 0.001282981673763338 0.018803861990922027 0.0 0.0
0.0 0.040396026253472495 -0.03426660879166076 0.03311013417241437 0.0011564746192463727 0.01505315496766255 0.0 0.0
0.0 0.03309635116299379 -0.028233551310328286 0.027172077824096558 0.0010614734862317136 0.011963954537635062 0.0 0.0
0.0 0.02635529092543568 -0.022396126508552758 0.021409009322801327 0.000987117185751435 0.009718986402905097 0.0 0.0
0.0 0.020412615819333464 -0.017382702607953528 0.01646217758555472 0.0009205250223988078 0.00804721829165099 0.0 0.0
0.0 0.015587119270703016 -0.013281669415194921 0.012429310213870831 0.0008523592013240943 0.006678307469925844 0.0 0.0
0.0 0.011675158187367755 -0.009956637176844255 0.009180090143403794 0.0007765470334404593 0.005475320491156134 0.0 0.0
0.0 0.008452235809260637 -0.007215563975609183 0.0065291651824464945 0.0006863987931626852 0.0043633007673039795 0.0 0.0
0.0 0.005767051145598437 -0.004905994828488751 0.004332167963888068 0.0005738268646006818 0.003273176596777564 0.0 0.0
0.0 0.0035411998579900125 -0.0029541371003964823 0.0025263215608430463 0.00042781553955343606 0.002182637211947155 0.0 0.0
0.0 0.0018009687298839146 -0.0014057618078481794 0.001157407070339633 0.00024835473750854615 0.0011858133239276817 0.0 0.0
0.0 0.0006340840241012785 -0.0004270405921019617 0.00034121315571712007 8.582743638484157e-05 0.0004501746678145526 0.0 0.0
0.0 0.0001183912769379351 -5.9161478779754475e-05 4.701868612609718e-05 1.2142792653657358e-05 8.694881113415512e-05 0.0 0.0
0.0 2.5212619994963567e-05 2.474726859593644e-06 -1.951196794283381e-06 -5.235300653103639e-07 -4.9533168361263605e-06 0.0 0.0
0.0 6.934682310505462e-06 5.042347016716486e-07 -4.0650678400268413e-07 -9.772791766897146e-08 -1.3113344895102354e-06 0.0 0.0
0.0 6.301117768796378e-07 3.177133555832444e-08 -2.5610055487985994e-08 -6.161280070339225e-09 -1.1393767081387647e-07 0.0 0.0
0.0 0.0 0.0 0.0 0.0 0.0 0.0 0.0
0.0 0.0 0.0 0.0 0.0 0.0 0.0 0.0
0.0 0.0 0.0 0.0 0.0 0.0 0.0 0.0
0.0 0.0 0.0 0.0 0.0 0.0 0.0 0.0
0.0 0.0 0.0 0.0 0.0 0.0 0.0 0.0
0.0 3.2006597007079794e-06 2.5707668110242285e-07 -2.054760131561159e-07 -5.160066794626825e-08 5.112391327039601e-07 0.0 0.0
0.0 3.121476470918243e-05 -4.092159302498443e-06 3.217593595840607e-06 8.745657066578535e-07 -5.168290517110914e-06 0.0 0.0
0.0 0.0002687533896299334 -0.00015551869000992016 0.000123467357092545 3.205133291737539e-05 -0.0001505975432635078 0.0 0.0
0.0 0.0011661555017231256 -0.0008431231261169191 0.0006830560286325154 0.00016006709748440324 -0.0006095584599220864 0.0 0.0
0.0 0.0026410235881262093 -0.0022496000991665023 0.0018929210343823716 0.00035667906478413134 -0.0013888486775434088 0.0 0.0
0.0 0.0048144404871107984 -0.004191237421161944 0.0036623187887560235 0.0005289186324059186 -0.002332190077373869 0.0 0.0
0.0 0.007555983494711597 -0.006569384317010203 0.005905825251328674 0.0006635590656815288 -0.003323132511124702 0.0 0.0
0.0 0.010858560763809092 -0.009405369051489762 0.008636404186548772 0.0007689648649409853 -0.004349235303314299 0.0 0.0
0.0 0.014806694726027018 -0.012795910272083162 0.011939809915156929 0.000856100356926227 -0.0054056972472340285 0.0 0.0
0.0 0.0196718697666691 -0.016918101526065023 0.015984624712523803 0.0009334768135412185 -0.00656430652638882 0.0 0.0
0.0 0.02549863342813728 -0.021985421660273022 0.020980073630624464 0.0010053480296485463 -0.007921549950819128 0.0 0.0
0.0 0.03268533404566638 -0.02814252793958648 0.02706615499449998 0.0010763729450865012 -0.009511079727134684 0.0 0.0
0.0 0.04113972356889456 -0.035306683335561265 0.03414781476030261 0.0011588685752586484 -0.011504390412224985 0.0 0.0
0.0 0.049747588530755005 -0.04276689462759077 0.041498781262320275 0.001268113365270494 -0.014337654720966932 0.0 0.0
0.0 0.05671381059137817 -0.048644046269033035 0.04722656921011517 0.0014174770589178575 -0.018199402595779967 0.0 0.0
0.0 0.058234096407807766 -0.0496292496568123 0.04803188165236189 0.0015973680044503945 -0.02211313263818287 0.0 0.0
0.0 0.0491000914083354 -0.041175011176671876 0.039396544509156806 0.0017784666675150372 -0.023677102110461982 0.0 0.0
0.0 0.04910009140833704 -0.0411750111766702 0.03939654450915532 0.0017784666675148485 0.02367710211048388 0.0 0.0
0.0 0.05823409640780261 -0.04962924965680467 0.048031881652354516 0.0015973680044501402 0.02211313263821009 0.0 0.0
0.0 0.05671381059136466 -0.04864404626901934 0.047226569210101606 0.0014174770589177078 0.018199402595800013 0.0 0.0
0.0 0.04974758853073416 -0.04276689462757184 0.04149878126230169 0.0012681133652701494 0.014337654720973304 0.0 0.0
0.0 0.04113972356887226 -0.03530668333554155 0.034147814760283585 0.0011588685752579543 0.0115043904122239 0.0 0.0
0.0 0.03268533404564322 -0.028142527939566064 0.027066154994480132 0.0010763729450859382 0.009511079727132173 0.0 0.0
0.0 0.025498633428113107 -0.02198542166025192 0.020980073630603738 0.0010053480296481837 0.007921549950813699 0.0 0.0
0.0 0.01967186976664343 -0.016918101526042333 0.01598462471250153 0.0009334768135407931 0.006564306526383151 0.0 0.0
0.0 0.014806694726002365 -0.012795910272061317 0.011939809915135864 0.0008561003569254484 0.005405697247226898 0.0 0.0
0.0 0.010858560763786199 -0.009405369051469646 0.00863640418652971 0.0007689648649399373 0.004349235303304675 0.0 0.0
0.0 0.0075559834946916996 -0.0065693843169928184 0.005905825251312324 0.0006635590656804914 0.0033231325111147793 0.0 0.0
0.0 0.004814440487096272 -0.00419123742114884 0.0036623187887439967 0.0005289186324048427 0.002332190077367727 0.0 0.0
0.0 0.0026410235881151756 -0.002249600099156712 0.0018929210343737258 0.0003566790647829861 0.0013888486775382727 0.0 0.0
0.0 0.0011661555017159775 -0.0008431231261113229 0.0006830560286279163 0.0001600670974834065 0.0006095584599184248 0.0 0.0
0.0 0.0002687533896269165 -0.00015551869000830342 0.00012346735709125553 3.20513329170477e-05 0.00015059754326199247 0.0 0.0
0.0 3.1214764708181506e-05 -4.092159302593888e-06 3.217593595914366e-06 8.745657066795413e-07 5.168290517240099e-06 0.0 0.0
0.0 3.200659700236418e-06 2.5707668106207243e-07 -2.0547601312382118e-07 -5.1600667938269986e-08 -5.112391326237518e-07 0.0 0.0
0.0 0.0 0.0 0.0 0.0 0.0 0.0 0.0
0.0 0.0 0.0 0.0 0.0 0.0 0.0 0.0
0.0 0.0 0.0 0.0 0.0 0.0 0.0 0.0
0.0 0.0 0.0 0.0 0.0 0.0 0.0 0.0
0.0 0.0 0.0 0.0 0.0 0.0 0.0 0.0
0.0 0.0 0.0 0.0 0.0 0.0 0.0 0.0
0.0 2.6184053184797525e-06 2.3936820084323267e-07 -1.9194239063393857e-07 -4.7425810209277095e-08 3.642394502886807e-07 0.0 0.0
0.0 5.7251979103492995e-05 -1.530911950837354e-05 1.2334635824758777e-05 2.974483683614909e-06 -1.5757340310507715e-05 0.0 0.0
0.0 0.0005450234719852915 -0.00034807559478720353 0.0002781249879852537 6.99506068019502e-05 -0.00022557329807530922 0.0 0.0
0.0 0.0016478750129902795 -0.0014217120255800696 0.0011710063522219507 0.00025070567335811926 -0.0007275532919122354 0.0 0.0
0.0 0.003558993156662954 -0.00316609126723192 0.0027178079111678287 0.00044828335606409114 -0.001419149291023725 0.0 0.0
0.0 0.006177593681350854 -0.005454871669488346 0.004846059208359137 0.0006088124611292086 -0.002214700087542574 0.0 0.0
0.0 0.009402639718089502 -0.008264523340415882 0.007530596778866658 0.0007339265615492231 -0.003085562898093987 0.0 0.0
0.0 0.013309091537613211 -0.011632288780889646 0.01079714449461631 0.0008351442862733344 -0.003993026012304885 0.0 0.0
0.0 0.018025441671737426 -0.015685390291050177 0.014762006240509364 0.0009233840505408063 -0.004935648825343356 0.0 0.0
0.0 0.023758583309142524 -0.020625557875869692 0.019620989370048945 0.0010045685058207355 -0.005996985706911563 0.0 0.0
0.0 0.03079279679263728 -0.02666416922499152 0.025580519161253864 0.0010836500637376573 -0.007240901476832732 0.0 0.0
0.0 0.03923310351184291 -0.03392768669046034 0.032765904308719965 0.0011617823817403688 -0.0086610239658742 0.0 0.0
0.0 0.04875159866897217 -0.04231691338031949 0.041068157813649524 0.001248755566669945 -0.010234412613220358 0.0 0.0
0.0 0.05891282872934405 -0.0510861320652198 0.04971779873790787 0.001368333327311942 -0.012319052763547821 0.0 0.0
0.0 0.06719995965557202 -0.05814043578752109 0.05660396114967376 0.00153647463784733 -0.01586965953362287 0.0 0.0
0.0 0.06930543120431161 -0.05960733175980988 0.057868801955568455 0.001738529804241412 -0.02128034643895515 0.0 0.0
0.0 0.0593289865071735 -0.0500802674846923 0.048146828416426216 0.0019334390682660555 -0.026998285566361614 0.0 0.0
0.0 0.05932898650717328 -0.05008026748468924 0.048146828416422975 0.0019334390682662482 0.026998285566383215 0.0 0.0
0.0 0.06930543120430285 -0.059607331759800014 0.05786880195555862 0.0017385298042413987 0.02128034643898031 0.0 0.0
0.0 0.06719995965555511 -0.05814043578750486 0.056603961149658114 0.0015364746378467129 0.015869659533641327 0.0 0.0
0.0 0.058912828729322034 -0.05108613206519976 0.04971779873788891 0.0013683333273108475 0.012319052763554418 0.0 0.0
0.0 0.04875159866894634 -0.0423169133802965 0.04106815781362751 0.0012487555666689694 0.010234412613220913 0.0 0.0
0.0 0.03923310351181549 -0.033927686690436235 0.03276590430869659 0.001161782381739629 0.00866102396587223 0.0 0.0
0.0 0.03079279679260949 -0.026664169224967272 0.025580519161230282 0.0010836500637369738 0.00724090147682826 0.0 0.0
0.0 0.02375858330911571 -0.020625557875845982 0.019620989370026175 0.0010045685058198003 0.0059969857069072 0.0 0.0
0.0 0.01802544167170906 -0.015685390291025062 0.014762006240484842 0.0009233840505402255 0.004935648825337281 0.0 0.0
0.0 0.013309091537586928 -0.011632288780866388 0.010797144494593644 0.0008351442862727374 0.003993026012296133 0.0 0.0
0.0 0.009402639718066931 -0.008264523340395812 0.007530596778847365 0.0007339265615484429 0.0030855628980853435 0.0 0.0
0.0 0.006177593681333045 -0.005454871669472179 0.004846059208343839 0.0006088124611283402 0.002214700087536543 0.0 0.0
0.0 0.0035589931566495725 -0.0031660912672195653 0.002717807911156617 0.0004482833560629484 0.001419149291018848 0.0 0.0
0.0 0.0016478750129818314 -0.0014217120255726242 0.0011710063522155725 0.00025070567335705126 0.0007275532919086264 0.0 0.0
0.0 0.0005450234719803369 -0.00034807559478396925 0.0002781249879826378 6.995060680133142e-05 0.0002255732980733537 0.0 0.0
0.0 5.7251979102166935e-05 -1.5309119508277554e-05 1.2334635824675964e-05 2.9744836836015046e-06 1.575734031041472e-05 0.0 0.0
0.0 2.618405318069889e-06 2.393682008043899e-07 -1.9194239060307888e-07 -4.7425810201298124e-08 -3.6423945023065724e-07 0.0 0.0
0.0 0.0 0.0 0.0 0.0 0.0 0.0 0.0
0.0 0.0 0.0 0.0 0.0 0.0 0.0 0.0
0.0 0.0 0.0 0.0 0.0 0.0 0.0 0.0
0.0 0.0 0.0 0.0 0.0 0.0 0.0 0.0
0.0 0.0 0.0 0.0 0.0 0.0 0.0 0.0
0.0 0.0 0.0 0.0 0.0 0.0 0.0 0.0
0.0 3.1285138629805582e-06 3.198481553894005e-07 -2.499609673796126e-07 -6.988718800979791e-08 3.1819347234759094e-07 0.0 0.0
0.0 0.0001262442702920034 -4.630301916494237e-05 3.6850481112447836e-05 9.452538052494452e-06 -2.906617558913078e-05 0.0 0.0
0.0 0.0008963530514975331 -0.0006619668817024395 0.0005335483197359878 0.0001284185619664517 -0.0002831392696353756 0.0 0.0
0.0 0.0022808968919199504 -0.002068967935535133 0.0017322254044096754 0.00033674253112545715 -0.0007027327011903219 0.0 0.0
0.0 0.004565743258438082 -0.004101845056813916 0.0035788791653936286 0.0005229658914202873 -0.0012403017592598372 0.0 0.0
0.0 0.0075753045426996506 -0.006738141990425159 0.006065652347653132 0.0006724896427720231 -0.0018740863451335796 0.0 0.0
0.0 0.011296471927157825 -0.009978009929829997 0.009187135744901927 0.0007908741849280657 -0.0025763738633313594 0.0 0.0
0.0 0.015830199995044817 -0.013884796814999193 0.01299383175746664 0.0008909650575325537 -0.0033152499207960524 0.0 0.0
0.0 0.021265981922519613 -0.018614708435648317 0.01763262590768745 0.0009820825279608565 -0.004082279387418562 0.0 0.0
0.0 0.02802294329167467 -0.02438531906714449 0.023315785145680976 0.001069533921463505 -0.004949623818065359 0.0 0.0
0.0 0.03600828190134974 -0.03140760070599415 0.030251087275978212 0.0011565134300159361 -0.006021866760388404 0.0 0.0
0.0 0.04556733614718661 -0.03974283804469966 0.03849834275658492 0.0012444952881147456 -0.0072198511611156506 0.0 0.0
0.0 0.05645961878460576 -0.04919754991007588 0.04785902114631882 0.0013385287637570588 -0.008258752440814733 0.0 0.0
0.0 0.06780115610972758 -0.0590576930139516 0.0576045836719175 0.0014531093420340787 -0.009207763115396405 0.0 0.0
0.0 0.07739390822248303 -0.06734159222941472 0.06570714981084251 0.0016344424185721896 -0.011838724779664784 0.0 0.0
0.0 0.0805336021140825 -0.0697227543477953 0.0678540326212357 0.001868721726559616 -0.018774973736995815 0.0 0.0
0.0 0.07034452826041299 -0.059576527497250176 0.05747928892631002 0.002097238570940147 -0.030059593111472733 0.0 0.0
0.0 0.07034452826041233 -0.05957652749724728 0.0574792889263073 0.0020972385709399884 0.030059593111490802 0.0 0.0
0.0 0.08053360211407044 -0.06972275434778341 0.06785403262122376 0.0018687217265596467 0.018774973737018096 0.0 0.0
0.0 0.0773939082224617 -0.06734159222939554 0.06570714981082332 0.0016344424185721922 0.011838724779681443 0.0 0.0
0.0 0.06780115610969908 -0.059057693013926715 0.05760458367189262 0.0014531093420340974 0.009207763115401762 0.0 0.0
0.0 0.05645961878457409 -0.0491975499100483 0.04785902114629149 0.0013385287637568337 0.00825875244081549 0.0 0.0
0.0 0.045567336147155905 -0.039742838044672754 0.03849834275655866 0.0012444952881140925 0.007219851161114703 0.0 0.0
0.0 0.03600828190131863 -0.031407600705966855 0.03025108727595171 0.0011565134300151414 0.00602186676038536 0.0 0.0
0.0 0.028022943291641532 -0.02438531906711544 0.02331578514565247 0.0010695339214629724 0.004949623818061197 0.0 0.0
0.0 0.021265981922485418 -0.018614708435618424 0.017632625907658215 0.0009820825279602053 0.004082279387414217 0.0 0.0
0.0 0.015830199995014147 -0.013884796814971928 0.012993831757439865 0.0008909650575320584 0.003315249920789097 0.0 0.0
0.0 0.011296471927131757 -0.009978009929806759 0.009187135744879251 0.0007908741849275079 0.0025763738633238875 0.0 0.0
0.0 0.007575304542679028 -0.00673814199040648 0.006065652347635134 0.0006724896427713458 0.0018740863451289903 0.0 0.0
0.0 0.004565743258423152 -0.004101845056799985 0.003578879165380733 0.0005229658914192513 0.0012403017592560372 0.0 0.0
0.0 0.002280896891909139 -0.0020689679355250143 0.0017322254044007232 0.00033674253112429185 0.0007027327011869434 0.0 0.0
0.0 0.0008963530514913983 -0.0006619668816975276 0.0005335483197319385 0.00012841856196558858 0.0002831392696332947 0.0 0.0
0.0 0.0001262442702903421 -4.6303019164465276e-05 3.685048111205459e-05 9.452538052410823e-06 2.906617558880008e-05 0.0 0.0
0.0 3.12851386246432e-06 3.1984815533367717e-07 -2.4996096733628395e-07 -6.988718799738491e-08 -3.181934722935766e-07 0.0 0.0
0.0 0.0 0.0 0.0 0.0 0.0 0.0 0.0
0.0 0.0 0.0 0.0 0.0 0.0 0.0 0.0
0.0 0.0 0.0 0.0 0.0 0.0 0.0 0.0
0.0 0.0 0.0 0.0 0.0 0.0 0.0 0.0
0.0 0.0 0.0 0.0 0.0 0.0 0.0 0.0
0.0 0.0 0.0 0.0 0.0 0.0 0.0 0.0
0.0 7.480929744594875e-06 8.970346975284954e-07 -6.929961877200582e-07 -2.0403850980840786e-07 5.50205352796341e-07 0.0 0.0
0.0 0.00028953238811080175 -0.0001419812580883982 0.0001131281060469627 2.885315204143573e-05 -5.1093442948750385e-05 0.0 0.0
0.0 0.0011870550735694975 -0.0010975733355343094 0.0008934104752566809 0.00020416286027762862 -0.00026434724267855115 0.0 0.0
0.0 0.0030062716405047916 -0.0027450460470430835 0.0023354227792239737 0.00040962326781910957 -0.0005376380270428134 0.0 0.0
0.0 0.005598186416361703 -0.005052626518700236 0.0044678668822194035 0.0005847596364808316 -0.0008917393275335978 0.0 0.0
0.0 0.008997085554733074 -0.00802912119317067 0.007305623554115918 0.0007234976390547503 -0.0013206493176071803 0.0 0.0
0.0 0.013215603474760368 -0.011700560589777028 0.010862767881466817 0.0008377927083102078 -0.0018066283833239876 0.0 0.0
0.0 0.018363561665467307 -0.016155061170937096 0.015215693712444248 0.00093936745849285 -0.0023151666282855273 0.0 0.0
0.0 0.024689593066999804 -0.02157163375533622 0.02053643502951459 0.0010351987258216244 -0.002843552138595902 0.0 0.0
0.0 0.03217438589357516 -0.028190250955471927 0.027060802607547146 0.001129448347924778 -0.003477091718787304 0.0 0.0
0.0 0.041320270792647926 -0.036188009517557296 0.034962778692718986 0.0012252308248383017 -0.0042490290805146606 0.0 0.0
0.0 0.05211416032563871 -0.045558600750156164 0.04423351444913233 0.0013250863010238387 -0.005068242167793233 0.0 0.0
0.0 0.06408414549712743 -0.05596396254517494 0.0545343239185231 0.0014296386266518424 -0.005667511355988422 0.0 0.0
0.0 0.07630156460895132 -0.06660044911003427 0.06506041889328827 0.0015400302167460035 -0.005673423114201927 0.0 0.0
0.0 0.08701787805973021 -0.07591092846436855 0.07422989204511797 0.0016810364192505899 -0.0062519638594213745 0.0 0.0
0.0 0.0920035765632975 -0.07997816201380287 0.07799037143240618 0.001987790581396651 -0.013577860555545683 0.0 0.0
0.0 0.08252380316343622 -0.0701454260486518 0.06785552580764374 0.00228990024100803 -0.03223151524673782 0.0 0.0
0.0 0.0825238031634331 -0.07014542604864754 0.06785552580763965 0.002289900241007859 0.032231515246750386 0.0 0.0
0.0 0.09200357656328173 -0.07997816201378832 0.07799037143239203 0.001987790581396229 0.013577860555562586 0.0 0.0
0.0 0.08701787805970573 -0.07591092846434666 0.07422989204509702 0.00168103641924965 0.006251963859434146 0.0 0.0
0.0 0.07630156460892121 -0.06660044911000768 0.06506041889326261 0.0015400302167450787 0.0056734231142052055 0.0 0.0
0.0 0.0640841454970936 -0.05596396254514521 0.054534323918494304 0.0014296386266509288 0.005667511355989193 0.0 0.0
0.0 0.05211416032560488 -0.045558600750126466 0.04423351444910356 0.001325086301022921 0.005068242167792954 0.0 0.0
0.0 0.04132027079261226 -0.036188009517526085 0.034962778692688566 0.0012252308248375103 0.0042490290805133986 0.0 0.0
0.0 0.03217438589353792 -0.02819025095543945 0.027060802607515224 0.0011294483479242215 0.0034770917187843162 0.0 0.0
0.0 0.02468959306696413 -0.02157163375530467 0.02053643502948378 0.001035198725820878 0.0028435521385940373 0.0 0.0
0.0 0.018363561665433355 -0.01615506117090717 0.015215693712415138 0.0009393674584920225 0.0023151666282806415 0.0 0.0
0.0 0.013215603474731996 -0.011700560589751765 0.010862767881442397 0.0008377927083093727 0.0018066283833188825 0.0 0.0
0.0 0.008997085554710875 -0.008029121193150222 0.007305623554096426 0.0007234976390537965 0.0013206493176043136 0.0 0.0
0.0 0.005598186416344105 -0.00505262651868392 0.004467866882204156 0.0005847596364797638 0.0008917393275306087 0.0 0.0
0.0 0.003006271640493126 -0.0027450460470318646 0.0023354227792139557 0.00040962326781790817 0.0005376380270404466 0.0 0.0
0.0 0.0011870550735628856 -0.0010975733355279953 0.0008934104752514199 0.00020416286027657527 0.0002643472426770662 0.0 0.0
0.0 0.0002895323881078897 -0.00014198125808674897 0.00011312810604563231 2.8853152041116486e-05 5.109344294817587e-05 0.0 0.0
0.0 7.48092974373735e-06 8.970346974239649e-07 -6.929961876401887e-07 -2.040385097838224e-07 -5.502053527401145e-07 0.0 0.0
0.0 0.0 0.0 0.0 0.0 0.0 0.0 0.0
0.0 0.0 0.0 0.0 0.0 0.0 0.0 0.0
0.0 0.0 0.0 0.0 0.0 0.0 0.0 0.0
0.0 0.0 0.0 0.0 0.0 0.0 0.0 0.0
0.0 0.0 0.0 0.0 0.0 0.0 0.0 0.0
0.0 0.0 0.0 0.0 0.0 0.0 0.0 0.0
0.0 1.4095158666106991e-05 9.792031590283091e-07 -7.307754756025246e-07 -2.4842768342563794e-07 1.6726295808659124e-07 0.0 0.0
0.0 0.0005688692357885036 -0.00031982147105437934 0.00025526972934514637 6.455174170923286e-05 -4.615798245104773e-05 0.0 0.0
0.0 0.0016821269058692164 -0.0015565614630303655 0.0012820262932769987 0.00027453516975336676 -0.00013096646052673233 0.0 0.0
0.0 0.0037572067318960354 -0.0034385742327755872 0.0029667401519044125 0.0004718340808711734 -0.00024086431649754419 0.0 0.0
0.0 0.006664047976037197 -0.0060054486535482685 0.00537076866569239 0.0006346799878558754 -0.0003802360382544307 0.0 0.0
0.0 0.010454623855318689 -0.009317504490965637 0.008552166639879077 0.0007653378510865589 -0.0005613381638340538 0.0 0.0
0.0 0.01519443362490916 -0.013421215849889149 0.012543407818660512 0.0008778080312286341 -0.0007757861711088562 0.0 0.0
0.0 0.021037065947573555 -0.01843316161140512 0.01745145163899783 0.00098170997240728 -0.0009969928880152086 0.0 0.0
0.0 0.027932264050774206 -0.024560016032525517 0.023476391195788506 0.001083624836737014 -0.0012493797046367518 0.0 0.0
0.0 0.03643692167570063 -0.032017880290274 0.030832498211081406 0.0011853820791925753 -0.0015452669573762599 0.0 0.0
0.0 0.046734640461709887 -0.04096881128489126 0.039678528609335594 0.0012902826755556325 -0.0018799494731271977 0.0 0.0
0.0 0.05868316567064483 -0.05134914066861132 0.04994736000925484 0.0014017806593564811 -0.0022165163899961005 0.0 0.0
0.0 0.07172660013490272 -0.06265578328431093 0.06113630413555135 0.0015194791487596043 -0.0023801928952970016 0.0 0.0
0.0 0.08464760977648873 -0.07385977455973791 0.07222322971886469 0.001636544840873188 -0.002070470414600821 0.0 0.0
0.0 0.09572080251895837 -0.0834967687178893 0.08175138190292769 0.0017453868149615913 -0.0010601756355415458 0.0 0.0
0.0 0.10254933805738087 -0.08935350419975964 0.08745360550207817 0.0018998986976814488 -0.0036737083726938995 0.0 0.0
0.0 0.09695977699015376 -0.08307883314323214 0.0804379857966862 0.002640847346545935 -0.029994905801648465 0.0 0.0
0.0 0.09695977699015061 -0.0830788331432288 0.08043798579668295 0.002640847346545813 0.029994905801653933 0.0 0.0
0.0 0.10254933805736406 -0.08935350419974489 0.08745360550206371 0.0018998986976812022 0.0036737083727014642 0.0 0.0
0.0 0.09572080251893056 -0.08349676871786478 0.08175138190290408 0.0017453868149606574 0.0010601756355481315 0.0 0.0
0.0 0.08464760977645322 -0.0738597745597068 0.07222322971883437 0.0016365448408724131 0.0020704704146008884 0.0 0.0
0.0 0.07172660013486379 -0.06265578328427697 0.06113630413551782 0.0015194791487591513 0.002380192895297294 0.0 0.0
0.0 0.05868316567060668 -0.051349140668577826 0.04994736000922239 0.0014017806593554435 0.002216516389995781 0.0 0.0
0.0 0.04673464046166951 -0.0409688112848559 0.0396785286093012 0.0012902826755547098 0.0018799494731271736 0.0 0.0
0.0 0.03643692167565911 -0.03201788029023767 0.030832498211045962 0.0011853820791916997 0.001545266957374924 0.0 0.0
0.0 0.027932264050734196 -0.024560016032490323 0.023476391195754415 0.0010836248367358935 0.0012493797046363136 0.0 0.0
0.0 0.021037065947536952 -0.018433161611372866 0.01745145163896643 0.0009817099724064333 0.0009969928880120544 0.0 0.0
0.0 0.015194433624876637 -0.013421215849860767 0.012543407818632765 0.0008778080312280028 0.0007757861711066194 0.0 0.0
0.0 0.010454623855292892 -0.009317504490942449 0.008552166639856638 0.0007653378510858097 0.0005613381638330248 0.0 0.0
0.0 0.006664047976017683 -0.0060054486535301415 0.005370768665675145 0.0006346799878549969 0.00038023603825337903 0.0 0.0
0.0 0.003757206731882212 -0.003438574232762558 0.0029667401518923826 0.000471834080870176 0.00024086431649665343 0.0 0.0
0.0 0.001682126905861513 -0.0015565614630226477 0.0012820262932703246 0.00027453516975232283 0.0001309664605260203 0.0 0.0
0.0 0.0005688692357842405 -0.00031982147105149824 0.0002552697293428071 6.45517417086915e-05 4.615798245068409e-05 0.0 0.0
0.0 1.4095158665524561e-05 9.79203158861048e-07 -7.307754754730806e-07 -2.484276833879782e-07 -1.6726295804181716e-07 0.0 0.0
0.0 0.0 0.0 0.0 0.0 0.0 0.0 0.0
0.0 0.0 0.0 0.0 0.0 0.0 0.0 0.0
0.0 0.0 0.0 0.0 0.0 0.0 0.0 0.0