# vtk DataFile Version 3.0
Some data
ASCII
DATASET UNSTRUCTURED_GRID
POINTS 861 float
0.0 0.0 0.0
0.4 0.0 0.0
0.8 0.0 0.0
1.2000000000000002 0.0 0.0
1.6 0.0 0.0
2.0 0.0 0.0
2.4000000000000004 0.0 0.0
2.8000000000000003 0.0 0.0
3.2 0.0 0.0
3.6 0.0 0.0
4.0 0.0 0.0
4.4 0.0 0.0
4.800000000000001 0.0 0.0
5.2 0.0 0.0
5.6000000000000005 0.0 0.0
6.0 0.0 0.0
6.4 0.0 0.0
6.800000000000001 0.0 0.0
7.2 0.0 0.0
7.6000000000000005 0.0 0.0
8.0 0.0 0.0
8.4 0.0 0.0
8.8 0.0 0.0
9.200000000000001 0.0 0.0
9.600000000000001 0.0 0.0
10.0 0.0 0.0
10.4 0.0 0.0
10.8 0.0 0.0
11.200000000000001 0.0 0.0
11.600000000000001 0.0 0.0
12.0 0.0 0.0
12.4 0.0 0.0
12.8 0.0 0.0
13.200000000000001 0.0 0.0
13.600000000000001 0.0 0.0
14.0 0.0 0.0
14.4 0.0 0.0
14.8 0.0 0.0
15.200000000000001 0.0 0.0
15.600000000000001 0.0 0.0
16.0 0.0 0.0
0.0 0.1 0.0
0.4 0.1 0.0
0.8 0.1 0.0
1.2000000000000002 0.1 0.0
1.6 0.1 0.0
2.0 0.1 0.0
2.4000000000000004 0.1 0.0
2.8000000000000003 0.1 0.0
3.2 0.1 0.0
3.6 0.1 0.0
4.0 0.1 0.0
4.4 0.1 0.0
4.800000000000001 0.1 0.0
5.2 0.1 0.0
5.6000000000000005 0.1 0.0
6.0 0.1 0.0
6.4 0.1 0.0
6.800000000000001 0.1 0.0
7.2 0.1 0.0
7.6000000000000005 0.1 0.0
8.0 0.1 0.0
8.4 0.1 0.0
8.8 0.1 0.0
9.200000000000001 0.1 0.0
9.600000000000001 0.1 0.0
10.0 0.1 0.0
10.4 0.1 0.0
10.8 0.1 0.0
11.200000000000001 0.1 0.0
11.600000000000001 0.1 0.0
12.0 0.1 0.0
12.4 0.1 0.0
12.8 0.1 0.0
13.200000000000001 0.1 0.0
13.600000000000001 0.1 0.0
14.0 0.1 0.0
14.4 0.1 0.0
14.8 0.1 0.0
15.200000000000001 0.1 0.0
15.600000000000001 0.1 0.0
16.0 0.1 0.0
0.0 0.2 0.0
0.4 0.2 0.0
0.8 0.2 0.0
1.2000000000000002 0.2 0.0
1.6 0.2 0.0
2.0 0.2 0.0
2.4000000000000004 0.2 0.0
2.8000000000000003 0.2 0.0
3.2 0.2 0.0
3.6 0.2 0.0
4.0 0.2 0.0
4.4 0.2 0.0
4.800000000000001 0.2 0.0
5.2 0.2 0.0
5.6000000000000005 0.2 0.0
6.0 0.2 0.0
6.4 0.2 0.0
6.800000000000001 0.2 0.0
7.2 0.2 0.0
7.6000000000000005 0.2 0.0
8.0 0.2 0.0
8.4 0.2 0.0
8.8 0.2 0.0
9.200000000000001 0.2 0.0
9.600000000000001 0.2 0.0
10.0 0.2 0.0
10.4 0.2 0.0
10.8 0.2 0.0
11.200000000000001 0.2 0.0
11.600000000000001 0.2 0.0
12.0 0.2 0.0
12.4 0.2 0.0
12.8 0.2 0.0
13.200000000000001 0.2 0.0
13.600000000000001 0.2 0.0
14.0 0.2 0.0
14.4 0.2 0.0
14.8 0.2 0.0
15.200000000000001 0.2 0.0
15.600000000000001 0.2 0.0
16.0 0.2 0.0
0.0 0.30000000000000004 0.0
0.4 0.30000000000000004 0.0
0.8 0.30000000000000004 0.0
1.2000000000000002 0.30000000000000004 0.0
1.6 0.30000000000000004 0.0
2.0 0.30000000000000004 0.0
2.4000000000000004 0.30000000000000004 0.0
2.8000000000000003 0.30000000000000004 0.0
3.2 0.30000000000000004 0.0
3.6 0.30000000000000004 0.0
4.0 0.30000000000000004 0.0
4.4 0.30000000000000004 0.0
4.800000000000001 0.30000000000000004 0.0
5.2 0.30000000000000004 0.0
5.6000000000000005 0.30000000000000004 0.0
6.0 0.30000000000000004 0.0
6.4 0.30000000000000004 0.0
6.800000000000001 0.30000000000000004 0.0
7.2 0.30000000000000004 0.0
7.6000000000000005 0.30000000000000004 0.0
8.0 0.30000000000000004 0.0
8.4 0.30000000000000004 0.0
8.8 0.30000000000000004 0.0
9.200000000000001 0.30000000000000004 0.0
9.600000000000001 0.30000000000000004 0.0
10.0 0.30000000000000004 0.0
10.4 0.30000000000000004 0.0
10.8 0.30000000000000004 0.0
11.200000000000001 0.30000000000000004 0.0
11.600000000000001 0.30000000000000004 0.0
12.0 0.30000000000000004 0.0
12.4 0.30000000000000004 0.0
12.8 0.30000000000000004 0.0
13.200000000000001 0.30000000000000004 0.0
13.600000000000001 0.30000000000000004 0.0
14.0 0.30000000000000004 0.0
14.4 0.30000000000000004 0.0
14.8 0.30000000000000004 0.0
15.200000000000001 0.30000000000000004 0.0
15.600000000000001 0.30000000000000004 0.0
16.0 0.30000000000000004 0.0
0.0 0.4 0.0
0.4 0.4 0.0
0.8 0.4 0.0
1.2000000000000002 0.4 0.0
1.6 0.4 0.0
2.0 0.4 0.0
2.4000000000000004 0.4 0.0
2.8000000000000003 0.4 0.0
3.2 0.4 0.0
3.6 0.4 0.0
4.0 0.4 0.0
4.4 0.4 0.0
4.800000000000001 0.4 0.0
5.2 0.4 0.0
5.6000000000000005 0.4 0.0
6.0 0.4 0.0
6.4 0.4 0.0
6.800000000000001 0.4 0.0
7.2 0.4 0.0
7.6000000000000005 0.4 0.0
8.0 0.4 0.0
8.4 0.4 0.0
8.8 0.4 0.0
9.200000000000001 0.4 0.0
9.600000000000001 0.4 0.0
10.0 0.4 0.0
10.4 0.4 0.0
10.8 0.4 0.0
11.200000000000001 0.4 0.0
11.600000000000001 0.4 0.0
12.0 0.4 0.0
12.4 0.4 0.0
12.8 0.4 0.0
13.200000000000001 0.4 0.0
13.600000000000001 0.4 0.0
14.0 0.4 0.0
14.4 0.4 0.0
14.8 0.4 0.0
15.200000000000001 0.4 0.0
15.600000000000001 0.4 0.0
16.0 0.4 0.0
0.0 0.5 0.0
0.4 0.5 0.0
0.8 0.5 0.0
1.2000000000000002 0.5 0.0
1.6 0.5 0.0
2.0 0.5 0.0
2.4000000000000004 0.5 0.0
2.8000000000000003 0.5 0.0
3.2 0.5 0.0
3.6 0.5 0.0
4.0 0.5 0.0
4.4 0.5 0.0
4.800000000000001 0.5 0.0
5.2 0.5 0.0
5.6000000000000005 0.5 0.0
6.0 0.5 0.0
6.4 0.5 0.0
6.800000000000001 0.5 0.0
7.2 0.5 0.0
7.6000000000000005 0.5 0.0
8.0 0.5 0.0
8.4 0.5 0.0
8.8 0.5 0.0
9.200000000000001 0.5 0.0
9.600000000000001 0.5 0.0
10.0 0.5 0.0
10.4 0.5 0.0
10.8 0.5 0.0
11.200000000000001 0.5 0.0
11.600000000000001 0.5 0.0
12.0 0.5 0.0
12.4 0.5 0.0
12.8 0.5 0.0
13.200000000000001 0.5 0.0
13.600000000000001 0.5 0.0
14.0 0.5 0.0
14.4 0.5 0.0
14.8 0.5 0.0
15.200000000000001 0.5 0.0
15.600000000000001 0.5 0.0
16.0 0.5 0.0
0.0 0.6000000000000001 0.0
0.4 0.6000000000000001 0.0
0.8 0.6000000000000001 0.0
1.2000000000000002 0.6000000000000001 0.0
1.6 0.6000000000000001 0.0
2.0 0.6000000000000001 0.0
2.4000000000000004 0.6000000000000001 0.0
2.8000000000000003 0.6000000000000001 0.0
3.2 0.6000000000000001 0.0
3.6 0.6000000000000001 0.0
4.0 0.6000000000000001 0.0
4.4 0.6000000000000001 0.0
4.800000000000001 0.6000000000000001 0.0
5.2 0.6000000000000001 0.0
5.6000000000000005 0.6000000000000001 0.0
6.0 0.6000000000000001 0.0
6.4 0.6000000000000001 0.0
6.800000000000001 0.6000000000000001 0.0
7.2 0.6000000000000001 0.0
7.6000000000000005 0.6000000000000001 0.0
8.0 0.6000000000000001 0.0
8.4 0.6000000000000001 0.0
8.8 0.6000000000000001 0.0
9.200000000000001 0.6000000000000001 0.0
9.600000000000001 0.6000000000000001 0.0
10.0 0.6000000000000001 0.0
10.4 0.6000000000000001 0.0
10.8 0.6000000000000001 0.0
11.200000000000001 0.6000000000000001 0.0
11.600000000000001 0.6000000000000001 0.0
12.0 0.6000000000000001 0.0
12.4 0.6000000000000001 0.0
12.8 0.6000000000000001 0.0
13.200000000000001 0.6000000000000001 0.0
13.600000000000001 0.6000000000000001 0.0
14.0 0.6000000000000001 0.0
14.4 0.6000000000000001 0.0
14.8 0.6000000000000001 0.0
15.200000000000001 0.6000000000000001 0.0
15.600000000000001 0.6000000000000001 0.0
16.0 0.6000000000000001 0.0
0.0 0.7000000000000001 0.0
0.4 0.7000000000000001 0.0
0.8 0.7000000000000001 0.0
1.2000000000000002 0.7000000000000001 0.0
1.6 0.7000000000000001 0.0
2.0 0.7000000000000001 0.0
2.4000000000000004 0.7000000000000001 0.0
2.8000000000000003 0.7000000000000001 0.0
3.2 0.7000000000000001 0.0
3.6 0.7000000000000001 0.0
4.0 0.7000000000000001 0.0
4.4 0.7000000000000001 0.0
4.800000000000001 0.7000000000000001 0.0
5.2 0.7000000000000001 0.0
5.6000000000000005 0.7000000000000001 0.0
6.0 0.7000000000000001 0.0
6.4 0.7000000000000001 0.0
6.800000000000001 0.7000000000000001 0.0
7.2 0.7000000000000001 0.0
7.6000000000000005 0.7000000000000001 0.0
8.0 0.7000000000000001 0.0
8.4 0.7000000000000001 0.0
8.8 0.7000000000000001 0.0
9.200000000000001 0.7000000000000001 0.0
9.600000000000001 0.7000000000000001 0.0
10.0 0.7000000000000001 0.0
10.4 0.7000000000000001 0.0
10.8 0.7000000000000001 0.0
11.200000000000001 0.7000000000000001 0.0
11.600000000000001 0.7000000000000001 0.0
12.0 0.7000000000000001 0.0
12.4 0.7000000000000001 0.0
12.8 0.7000000000000001 0.0
13.200000000000001 0.7000000000000001 0.0
13.600000000000001 0.7000000000000001 0.0
14.0 0.7000000000000001 0.0
14.4 0.7000000000000001 0.0
14.8 0.7000000000000001 0.0
15.200000000000001 0.7000000000000001 0.0
15.600000000000001 0.7000000000000001 0.0
16.0 0.7000000000000001 0.0
0.0 0.8 0.0
0.4 0.8 0.0
0.8 0.8 0.0
1.2000000000000002 0.8 0.0
1.6 0.8 0.0
2.0 0.8 0.0
2.4000000000000004 0.8 0.0
2.8000000000000003 0.8 0.0
3.2 0.8 0.0
3.6 0.8 0.0
4.0 0.8 0.0
4.4 0.8 0.0
4.800000000000001 0.8 0.0
5.2 0.8 0.0
5.6000000000000005 0.8 0.0
6.0 0.8 0.0
6.4 0.8 0.0
6.800000000000001 0.8 0.0
7.2 0.8 0.0
7.6000000000000005 0.8 0.0
8.0 0.8 0.0
8.4 0.8 0.0
8.8 0.8 0.0
9.200000000000001 0.8 0.0
9.600000000000001 0.8 0.0
10.0 0.8 0.0
10.4 0.8 0.0
10.8 0.8 0.0
11.200000000000001 0.8 0.0
11.600000000000001 0.8 0.0
12.0 0.8 0.0
12.4 0.8 0.0
12.8 0.8 0.0
13.200000000000001 0.8 0.0
13.600000000000001 0.8 0.0
14.0 0.8 0.0
14.4 0.8 0.0
14.8 0.8 0.0
15.200000000000001 0.8 0.0
15.600000000000001 0.8 0.0
16.0 0.8 0.0
0.0 0.9 0.0
0.4 0.9 0.0
0.8 0.9 0.0
1.2000000000000002 0.9 0.0
1.6 0.9 0.0
2.0 0.9 0.0
2.4000000000000004 0.9 0.0
2.8000000000000003 0.9 0.0
3.2 0.9 0.0
3.6 0.9 0.0
4.0 0.9 0.0
4.4 0.9 0.0
4.800000000000001 0.9 0.0
5.2 0.9 0.0
5.6000000000000005 0.9 0.0
6.0 0.9 0.0
6.4 0.9 0.0
6.800000000000001 0.9 0.0
7.2 0.9 0.0
7.6000000000000005 0.9 0.0
8.0 0.9 0.0
8.4 0.9 0.0
8.8 0.9 0.0
9.200000000000001 0.9 0.0
9.600000000000001 0.9 0.0
10.0 0.9 0.0
10.4 0.9 0.0
10.8 0.9 0.0
11.200000000000001 0.9 0.0
11.600000000000001 0.9 0.0
12.0 0.9 0.0
12.4 0.9 0.0
12.8 0.9 0.0
13.200000000000001 0.9 0.0
13.600000000000001 0.9 0.0
14.0 0.9 0.0
14.4 0.9 0.0
14.8 0.9 0.0
15.200000000000001 0.9 0.0
15.600000000000001 0.9 0.0
16.0 0.9 0.0
0.0 1.0 0.0
0.4 1.0 0.0
0.8 1.0 0.0
1.2000000000000002 1.0 0.0
1.6 1.0 0.0
2.0 1.0 0.0
2.4000000000000004 1.0 0.0
2.8000000000000003 1.0 0.0
3.2 1.0 0.0
3.6 1.0 0.0
4.0 1.0 0.0
4.4 1.0 0.0
4.800000000000001 1.0 0.0
5.2 1.0 0.0
5.6000000000000005 1.0 0.0
6.0 1.0 0.0
6.4 1.0 0.0
6.800000000000001 1.0 0.0
7.2 1.0 0.0
7.6000000000000005 1.0 0.0
8.0 1.0 0.0
8.4 1.0 0.0
8.8 1.0 0.0
9.200000000000001 1.0 0.0
9.600000000000001 1.0 0.0
10.0 1.0 0.0
10.4 1.0 0.0
10.8 1.0 0.0
11.200000000000001 1.0 0.0
11.600000000000001 1.0 0.0
12.0 1.0 0.0
12.4 1.0 0.0
12.8 1.0 0.0
13.200000000000001 1.0 0.0
13.600000000000001 1.0 0.0
14.0 1.0 0.0
14.4 1.0 0.0
14.8 1.0 0.0
15.200000000000001 1.0 0.0
15.600000000000001 1.0 0.0
16.0 1.0 0.0
0.0 1.1 0.0
0.4 1.1 0.0
0.8 1.1 0.0
1.2000000000000002 1.1 0.0
1.6 1.1 0.0
2.0 1.1 0.0
2.4000000000000004 1.1 0.0
2.8000000000000003 1.1 0.0
3.2 1.1 0.0
3.6 1.1 0.0
4.0 1.1 0.0
4.4 1.1 0.0
4.800000000000001 1.1 0.0
5.2 1.1 0.0
5.6000000000000005 1.1 0.0
6.0 1.1 0.0
6.4 1.1 0.0
6.800000000000001 1.1 0.0
7.2 1.1 0.0
7.6000000000000005 1.1 0.0
8.0 1.1 0.0
8.4 1.1 0.0
8.8 1.1 0.0
9.200000000000001 1.1 0.0
9.600000000000001 1.1 0.0
10.0 1.1 0.0
10.4 1.1 0.0
10.8 1.1 0.0
11.200000000000001 1.1 0.0
11.600000000000001 1.1 0.0
12.0 1.1 0.0
12.4 1.1 0.0
12.8 1.1 0.0
13.200000000000001 1.1 0.0
13.600000000000001 1.1 0.0
14.0 1.1 0.0
14.4 1.1 0.0
14.8 1.1 0.0
15.200000000000001 1.1 0.0
15.600000000000001 1.1 0.0
16.0 1.1 0.0
0.0 1.2000000000000002 0.0
0.4 1.2000000000000002 0.0
0.8 1.2000000000000002 0.0
1.2000000000000002 1.2000000000000002 0.0
1.6 1.2000000000000002 0.0
2.0 1.2000000000000002 0.0
2.4000000000000004 1.2000000000000002 0.0
2.8000000000000003 1.2000000000000002 0.0
3.2 1.2000000000000002 0.0
3.6 1.2000000000000002 0.0
4.0 1.2000000000000002 0.0
4.4 1.2000000000000002 0.0
4.800000000000001 1.2000000000000002 0.0
5.2 1.2000000000000002 0.0
5.6000000000000005 1.2000000000000002 0.0
6.0 1.2000000000000002 0.0
6.4 1.2000000000000002 0.0
6.800000000000001 1.2000000000000002 0.0
7.2 1.2000000000000002 0.0
7.6000000000000005 1.2000000000000002 0.0
8.0 1.2000000000000002 0.0
8.4 1.2000000000000002 0.0
8.8 1.2000000000000002 0.0
9.200000000000001 1.2000000000000002 0.0
9.600000000000001 1.2000000000000002 0.0
10.0 1.2000000000000002 0.0
10.4 1.2000000000000002 0.0
10.8 1.2000000000000002 0.0
11.200000000000001 1.2000000000000002 0.0
11.600000000000001 1.2000000000000002 0.0
12.0 1.2000000000000002 0.0
12.4 1.2000000000000002 0.0
12.8 1.2000000000000002 0.0
13.200000000000001 1.2000000000000002 0.0
13.600000000000001 1.2000000000000002 0.0
14.0 1.2000000000000002 0.0
14.4 1.2000000000000002 0.0
14.8 1.2000000000000002 0.0
15.200000000000001 1.2000000000000002 0.0
15.600000000000001 1.2000000000000002 0.0
16.0 1.2000000000000002 0.0
0.0 1.3 0.0
0.4 1.3 0.0
0.8 1.3 0.0
1.2000000000000002 1.3 0.0
1.6 1.3 0.0
2.0 1.3 0.0
2.4000000000000004 1.3 0.0
2.8000000000000003 1.3 0.0
3.2 1.3 0.0
3.6 1.3 0.0
4.0 1.3 0.0
4.4 1.3 0.0
4.800000000000001 1.3 0.0
5.2 1.3 0.0
5.6000000000000005 1.3 0.0
6.0 1.3 0.0
6.4 1.3 0.0
6.800000000000001 1.3 0.0
7.2 1.3 0.0
7.6000000000000005 1.3 0.0
8.0 1.3 0.0
8.4 1.3 0.0
8.8 1.3 0.0
9.200000000000001 1.3 0.0
9.600000000000001 1.3 0.0
10.0 1.3 0.0
10.4 1.3 0.0
10.8 1.3 0.0
11.200000000000001 1.3 0.0
11.600000000000001 1.3 0.0
12.0 1.3 0.0
12.4 1.3 0.0
12.8 1.3 0.0
13.200000000000001 1.3 0.0
13.600000000000001 1.3 0.0
14.0 1.3 0.0
14.4 1.3 0.0
14.8 1.3 0.0
15.200000000000001 1.3 0.0
15.600000000000001 1.3 0.0
16.0 1.3 0.0
0.0 1.4000000000000001 0.0
0.4 1.4000000000000001 0.0
0.8 1.4000000000000001 0.0
1.2000000000000002 1.4000000000000001 0.0
1.6 1.4000000000000001 0.0
2.0 1.4000000000000001 0.0
2.4000000000000004 1.4000000000000001 0.0
2.8000000000000003 1.4000000000000001 0.0
3.2 1.4000000000000001 0.0
3.6 1.4000000000000001 0.0
4.0 1.4000000000000001 0.0
4.4 1.4000000000000001 0.0
4.800000000000001 1.4000000000000001 0.0
5.2 1.4000000000000001 0.0
5.6000000000000005 1.4000000000000001 0.0
6.0 1.4000000000000001 0.0
6.4 1.4000000000000001 0.0
6.800000000000001 1.4000000000000001 0.0
7.2 1.4000000000000001 0.0
7.6000000000000005 1.4000000000000001 0.0
8.0 1.4000000000000001 0.0
8.4 1.4000000000000001 0.0
8.8 1.4000000000000001 0.0
9.200000000000001 1.4000000000000001 0.0
9.600000000000001 1.4000000000000001 0.0
10.0 1.4000000000000001 0.0
10.4 1.4000000000000001 0.0
10.8 1.4000000000000001 0.0
11.200000000000001 1.4000000000000001 0.0
11.600000000000001 1.4000000000000001 0.0
12.0 1.4000000000000001 0.0
12.4 1.4000000000000001 0.0
12.8 1.4000000000000001 0.0
13.200000000000001 1.4000000000000001 0.0
13.600000000000001 1.4000000000000001 0.0
14.0 1.4000000000000001 0.0
14.4 1.4000000000000001 0.0
14.8 1.4000000000000001 0.0
15.200000000000001 1.4000000000000001 0.0
15.600000000000001 1.4000000000000001 0.0
16.0 1.4000000000000001 0.0
0.0 1.5 0.0
0.4 1.5 0.0
0.8 1.5 0.0
1.2000000000000002 1.5 0.0
1.6 1.5 0.0
2.0 1.5 0.0
2.4000000000000004 1.5 0.0
2.8000000000000003 1.5 0.0
3.2 1.5 0.0
3.6 1.5 0.0
4.0 1.5 0.0
4.4 1.5 0.0
4.800000000000001 1.5 0.0
5.2 1.5 0.0
5.6000000000000005 1.5 0.0
6.0 1.5 0.0
6.4 1.5 0.0
6.800000000000001 1.5 0.0
7.2 1.5 0.0
7.6000000000000005 1.5 0.0
8.0 1.5 0.0
8.4 1.5 0.0
8.8 1.5 0.0
9.200000000000001 1.5 0.0
9.600000000000001 1.5 0.0
10.0 1.5 0.0
10.4 1.5 0.0
10.8 1.5 0.0
11.200000000000001 1.5 0.0
11.600000000000001 1.5 0.0
12.0 1.5 0.0
12.4 1.5 0.0
12.8 1.5 0.0
13.200000000000001 1.5 0.0
13.600000000000001 1.5 0.0
14.0 1.5 0.0
14.4 1.5 0.0
14.8 1.5 0.0
15.200000000000001 1.5 0.0
15.600000000000001 1.5 0.0
16.0 1.5 0.0
0.0 1.6 0.0
0.4 1.6 0.0
0.8 1.6 0.0
1.2000000000000002 1.6 0.0
1.6 1.6 0.0
2.0 1.6 0.0
2.4000000000000004 1.6 0.0
2.8000000000000003 1.6 0.0
3.2 1.6 0.0
3.6 1.6 0.0
4.0 1.6 0.0
4.4 1.6 0.0
4.800000000000001 1.6 0.0
5.2 1.6 0.0
5.6000000000000005 1.6 0.0
6.0 1.6 0.0
6.4 1.6 0.0
6.800000000000001 1.6 0.0
7.2 1.6 0.0
7.6000000000000005 1.6 0.0
8.0 1.6 0.0
8.4 1.6 0.0
8.8 1.6 0.0
9.200000000000001 1.6 0.0
9.600000000000001 1.6 0.0
10.0 1.6 0.0
10.4 1.6 0.0
10.8 1.6 0.0
11.200000000000001 1.6 0.0
11.600000000000001 1.6 0.0
12.0 1.6 0.0
12.4 1.6 0.0
12.8 1.6 0.0
13.200000000000001 1.6 0.0
13.600000000000001 1.6 0.0
14.0 1.6 0.0
14.4 1.6 0.0
14.8 1.6 0.0
15.200000000000001 1.6 0.0
15.600000000000001 1.6 0.0
16.0 1.6 0.0
0.0 1.7000000000000002 0.0
0.4 1.7000000000000002 0.0
0.8 1.7000000000000002 0.0
1.2000000000000002 1.7000000000000002 0.0
1.6 1.7000000000000002 0.0
2.0 1.7000000000000002 0.0
2.4000000000000004 1.7000000000000002 0.0
2.8000000000000003 1.7000000000000002 0.0
3.2 1.7000000000000002 0.0
3.6 1.7000000000000002 0.0
4.0 1.7000000000000002 0.0
4.4 1.7000000000000002 0.0
4.800000000000001 1.7000000000000002 0.0
5.2 1.7000000000000002 0.0
5.6000000000000005 1.7000000000000002 0.0
6.0 1.7000000000000002 0.0
6.4 1.7000000000000002 0.0
6.800000000000001 1.7000000000000002 0.0
7.2 1.7000000000000002 0.0
7.6000000000000005 1.7000000000000002 0.0
8.0 1.7000000000000002 0.0
8.4 1.7000000000000002 0.0
8.8 1.7000000000000002 0.0
9.200000000000001 1.7000000000000002 0.0
9.600000000000001 1.7000000000000002 0.0
10.0 1.7000000000000002 0.0
10.4 1.7000000000000002 0.0
10.8 1.7000000000000002 0.0
11.200000000000001 1.7000000000000002 0.0
11.600000000000001 1.7000000000000002 0.0
12.0 1.7000000000000002 0.0
12.4 1.7000000000000002 0.0
12.8 1.7000000000000002 0.0
13.200000000000001 1.7000000000000002 0.0
13.600000000000001 1.7000000000000002 0.0
14.0 1.7000000000000002 0.0
14.4 1.7000000000000002 0.0
14.8 1.7000000000000002 0.0
15.200000000000001 1.7000000000000002 0.0
15.600000000000001 1.7000000000000002 0.0
16.0 1.7000000000000002 0.0
0.0 1.8 0.0
0.4 1.8 0.0
0.8 1.8 0.0
1.2000000000000002 1.8 0.0
1.6 1.8 0.0
2.0 1.8 0.0
2.4000000000000004 1.8 0.0
2.8000000000000003 1.8 0.0
3.2 1.8 0.0
3.6 1.8 0.0
4.0 1.8 0.0
4.4 1.8 0.0
4.800000000000001 1.8 0.0
5.2 1.8 0.0
5.6000000000000005 1.8 0.0
6.0 1.8 0.0
6.4 1.8 0.0
6.800000000000001 1.8 0.0
7.2 1.8 0.0
7.6000000000000005 1.8 0.0
8.0 1.8 0.0
8.4 1.8 0.0
8.8 1.8 0.0
9.200000000000001 1.8 0.0
9.600000000000001 1.8 0.0
10.0 1.8 0.0
10.4 1.8 0.0
10.8 1.8 0.0
11.200000000000001 1.8 0.0
11.600000000000001 1.8 0.0
12.0 1.8 0.0
12.4 1.8 0.0
12.8 1.8 0.0
13.200000000000001 1.8 0.0
13.600000000000001 1.8 0.0
14.0 1.8 0.0
14.4 1.8 0.0
14.8 1.8 0.0
15.200000000000001 1.8 0.0
15.600000000000001 1.8 0.0
16.0 1.8 0.0
0.0 1.9000000000000001 0.0
0.4 1.9000000000000001 0.0
0.8 1.9000000000000001 0.0
1.2000000000000002 1.9000000000000001 0.0
1.6 1.9000000000000001 0.0
2.0 1.9000000000000001 0.0
2.4000000000000004 1.9000000000000001 0.0
2.8000000000000003 1.9000000000000001 0.0
3.2 1.9000000000000001 0.0
3.6 1.9000000000000001 0.0
4.0 1.9000000000000001 0.0
4.4 1.9000000000000001 0.0
4.800000000000001 1.9000000000000001 0.0
5.2 1.9000000000000001 0.0
5.6000000000000005 1.9000000000000001 0.0
6.0 1.9000000000000001 0.0
6.4 1.9000000000000001 0.0
6.800000000000001 1.9000000000000001 0.0
7.2 1.9000000000000001 0.0
7.6000000000000005 1.9000000000000001 0.0
8.0 1.9000000000000001 0.0
8.4 1.9000000000000001 0.0
8.8 1.9000000000000001 0.0
9.200000000000001 1.9000000000000001 0.0
9.600000000000001 1.9000000000000001 0.0
10.0 1.9000000000000001 0.0
10.4 1.9000000000000001 0.0
10.8 1.9000000000000001 0.0
11.200000000000001 1.9000000000000001 0.0
11.600000000000001 1.9000000000000001 0.0
12.0 1.9000000000000001 0.0
12.4 1.9000000000000001 0.0
12.8 1.9000000000000001 0.0
13.200000000000001 1.9000000000000001 0.0
13.600000000000001 1.9000000000000001 0.0
14.0 1.9000000000000001 0.0
14.4 1.9000000000000001 0.0
14.8 1.9000000000000001 0.0
15.200000000000001 1.9000000000000001 0.0
15.600000000000001 1.9000000000000001 0.0
16.0 1.9000000000000001 0.0
0.0 2.0 0.0
0.4 2.0 0.0
0.8 2.0 0.0
1.2000000000000002 2.0 0.0
1.6 2.0 0.0
2.0 2.0 0.0
2.4000000000000004 2.0 0.0
2.8000000000000003 2.0 0.0
3.2 2.0 0.0
3.6 2.0 0.0
4.0 2.0 0.0
4.4 2.0 0.0
4.800000000000001 2.0 0.0
5.2 2.0 0.0
5.6000000000000005 2.0 0.0
6.0 2.0 0.0
6.4 2.0 0.0
6.800000000000001 2.0 0.0
7.2 2.0 0.0
7.6000000000000005 2.0 0.0
8.0 2.0 0.0
8.4 2.0 0.0
8.8 2.0 0.0
9.200000000000001 2.0 0.0
9.600000000000001 2.0 0.0
10.0 2.0 0.0
10.4 2.0 0.0
10.8 2.0 0.0
11.200000000000001 2.0 0.0
11.600000000000001 2.0 0.0
12.0 2.0 0.0
12.4 2.0 0.0
12.8 2.0 0.0
13.200000000000001 2.0 0.0
13.600000000000001 2.0 0.0
14.0 2.0 0.0
14.4 2.0 0.0
14.8 2.0 0.0
15.200000000000001 2.0 0.0
15.600000000000001 2.0 0.0
16.0 2.0 0.0
CELLS 800 4000
4 0 1 42 41
4 1 2 43 42
4 2 3 44 43
4 3 4 45 44
4 4 5 46 45
4 5 6 47 46
4 6 7 48 47
4 7 8 49 48
4 8 9 50 49
4 9 10 51 50
4 10 11 52 51
4 11 12 53 52
4 12 13 54 53
4 13 14 55 54
4 14 15 56 55
4 15 16 57 56
4 16 17 58 57
4 17 18 59 58
4 18 19 60 59
4 19 20 61 60
4 20 21 62 61
4 21 22 63 62
4 22 23 64 63
4 23 24 65 64
4 24 25 66 65
4 25 26 67 66
4 26 27 68 67
4 27 28 69 68
4 28 29 70 69
4 29 30 71 70
4 30 31 72 71
4 31 32 73 72
4 32 33 74 73
4 33 34 75 74
4 34 35 76 75
4 35 36 77 76
4 36 37 78 77
4 37 38 79 78
4 38 39 80 79
4 39 40 81 80
4 41 42 83 82
4 42 43 84 83
4 43 44 85 84
4 44 45 86 85
4 45 46 87 86
4 46 47 88 87
4 47 48 89 88
4 48 49 90 89
4 49 50 91 90
4 50 51 92 91
4 51 52 93 92
4 52 53 94 93
4 53 54 95 94
4 54 55 96 95
4 55 56 97 96
4 56 57 98 97
4 57 58 99 98
4 58 59 100 99
4 59 60 101 100
4 60 61 102 101
4 61 62 103 102
4 62 63 104 103
4 63 64 105 104
4 64 65 106 105
4 65 66 107 106
4 66 67 108 107
4 67 68 109 108
4 68 69 110 109
4 69 70 111 110
4 70 71 112 111
4 71 72 113 112
4 72 73 114 113
4 73 74 115 114
4 74 75 116 115
4 75 76 117 116
4 76 77 118 117
4 77 78 119 118
4 78 79 120 119
4 79 80 121 120
4 80 81 122 121
4 82 83 124 123
4 83 84 125 124
4 84 85 126 125
4 85 86 127 126
4 86 87 128 127
4 87 88 129 128
4 88 89 130 129
4 89 90 131 130
4 90 91 132 131
4 91 92 133 132
4 92 93 134 133
4 93 94 135 134
4 94 95 136 135
4 95 96 137 136
4 96 97 138 137
4 97 98 139 138
4 98 99 140 139
4 99 100 141 140
4 100 101 142 141
4 101 102 143 142
4 102 103 144 143
4 103 104 145 144
4 104 105 146 145
4 105 106 147 146
4 106 107 148 147
4 107 108 149 148
4 108 109 150 149
4 109 110 151 150
4 110 111 152 151
4 111 112 153 152
4 112 113 154 153
4 113 114 155 154
4 114 115 156 155
4 115 116 157 156
4 116 117 158 157
4 117 118 159 158
4 118 119 160 159
4 119 120 161 160
4 120 121 162 161
4 121 122 163 162
4 123 124 165 164
4 124 125 166 165
4 125 126 167 166
4 126 127 168 167
4 127 128 169 168
4 128 129 170 169
4 129 130 171 170
4 130 131 172 171
4 131 132 173 172
4 132 133 174 173
4 133 134 175 174
4 134 135 176 175
4 135 136 177 176
4 136 137 178 177
4 137 138 179 178
4 138 139 180 179
4 139 140 181 180
4 140 141 182 181
4 141 142 183 182
4 142 143 184 183
4 143 144 185 184
4 144 145 186 185
4 145 146 187 186
4 146 147 188 187
4 147 148 189 188
4 148 149 190 189
4 149 150 191 190
4 150 151 192 191
4 151 152 193 192
4 152 153 194 193
4 153 154 195 194
4 154 155 196 195
4 155 156 197 196
4 156 157 198 197
4 157 158 199 198
4 158 159 200 199
4 159 160 201 200
4 160 161 202 201
4 161 162 203 202
4 162 163 204 203
4 164 165 206 205
4 165 166 207 206
4 166 167 208 207
4 167 168 209 208
4 168 169 210 209
4 169 170 211 210
4 170 171 212 211
4 171 172 213 212
4 172 173 214 213
4 173 174 215 214
4 174 175 216 215
4 175 176 217 216
4 176 177 218 217
4 177 178 219 218
4 178 179 220 219
4 179 180 221 220
4 180 181 222 221
4 181 182 223 222
4 182 183 224 223
4 183 184 225 224
4 184 185 226 225
4 185 186 227 226
4 186 187 228 227
4 187 188 229 228
4 188 189 230 229
4 189 190 231 230
4 190 191 232 231
4 191 192 233 232
4 192 193 234 233
4 193 194 235 234
4 194 195 236 235
4 195 196 237 236
4 196 197 238 237
4 197 198 239 238
4 198 199 240 239
4 199 200 241 240
4 200 201 242 241
4 201 202 243 242
4 202 203 244 243
4 203 204 245 244
4 205 206 247 246
4 206 207 248 247
4 207 208 249 248
4 208 209 250 249
4 209 210 251 250
4 210 211 252 251
4 211 212 253 252
4 212 213 254 253
4 213 214 255 254
4 214 215 256 255
4 215 216 257 256
4 216 217 258 257
4 217 218 259 258
4 218 219 260 259
4 219 220 261 260
4 220 221 262 261
4 221 222 263 262
4 222 223 264 263
4 223 224 265 264
4 224 225 266 265
4 225 226 267 266
4 226 227 268 267
4 227 228 269 268
4 228 229 270 269
4 229 230 271 270
4 230 231 272 271
4 231 232 273 272
4 232 233 274 273
4 233 234 275 274
4 234 235 276 275
4 235 236 277 276
4 236 237 278 277
4 237 238 279 278
4 238 239 280 279
4 239 240 281 280
4 240 241 282 281
4 241 242 283 282
4 242 243 284 283
4 243 244 285 284
4 244 245 286 285
4 246 247 288 287
4 247 248 289 288
4 248 249 290 289
4 249 250 291 290
4 250 251 292 291
4 251 252 293 292
4 252 253 294 293
4 253 254 295 294
4 254 255 296 295
4 255 256 297 296
4 256 257 298 297
4 257 258 299 298
4 258 259 300 299
4 259 260 301 300
4 260 261 302 301
4 261 262 303 302
4 262 263 304 303
4 263 264 305 304
4 264 265 306 305
4 265 266 307 306
4 266 267 308 307
4 267 268 309 308
4 268 269 310 309
4 269 270 311 310
4 270 271 312 311
4 271 272 313 312
4 272 273 314 313
4 273 274 315 314
4 274 275 316 315
4 275 276 317 316
4 276 277 318 317
4 277 278 319 318
4 278 279 320 319
4 279 280 321 320
4 280 281 322 321
4 281 282 323 322
4 282 283 324 323
4 283 284 325 324
4 284 285 326 325
4 285 286 327 326
4 287 288 329 328
4 288 289 330 329
4 289 290 331 330
4 290 291 332 331
4 291 292 333 332
4 292 293 334 333
4 293 294 335 334
4 294 295 336 335
4 295 296 337 336
4 296 297 338 337
4 297 298 339 338
4 298 299 340 339
4 299 300 341 340
4 300 301 342 341
4 301 302 343 342
4 302 303 344 343
4 303 304 345 344
4 304 305 346 345
4 305 306 347 346
4 306 307 348 347
4 307 308 349 348
4 308 309 350 349
4 309 310 351 350
4 310 311 352 351
4 311 312 353 352
4 312 313 354 353
4 313 314 355 354
4 314 315 356 355
4 315 316 357 356
4 316 317 358 357
4 317 318 359 358
4 318 319 360 359
4 319 320 361 360
4 320 321 362 361
4 321 322 363 362
4 322 323 364 363
4 323 324 365 364
4 324 325 366 365
4 325 326 367 366
4 326 327 368 367
4 328 329 370 369
4 329 330 371 370
4 330 331 372 371
4 331 332 373 372
4 332 333 374 373
4 333 334 375 374
4 334 335 376 375
4 335 336 377 376
4 336 337 378 377
4 337 338 379 378
4 338 339 380 379
4 339 340 381 380
4 340 341 382 381
4 341 342 383 382
4 342 343 384 383
4 343 344 385 384
4 344 345 386 385
4 345 346 387 386
4 346 347 388 387
4 347 348 389 388
4 348 349 390 389
4 349 350 391 390
4 350 351 392 391
4 351 352 393 392
4 352 353 394 393
4 353 354 395 394
4 354 355 396 395
4 355 356 397 396
4 356 357 398 397
4 357 358 399 398
4 358 359 400 399
4 359 360 401 400
4 360 361 402 401
4 361 362 403 402
4 362 363 404 403
4 363 364 405 404
4 364 365 406 405
4 365 366 407 406
4 366 367 408 407
4 367 368 409 408
4 369 370 411 410
4 370 371 412 411
4 371 372 413 412
4 372 373 414 413
4 373 374 415 414
4 374 375 416 415
4 375 376 417 416
4 376 377 418 417
4 377 378 419 418
4 378 379 420 419
4 379 380 421 420
4 380 381 422 421
4 381 382 423 422
4 382 383 424 423
4 383 384 425 424
4 384 385 426 425
4 385 386 427 426
4 386 387 428 427
4 387 388 429 428
4 388 389 430 429
4 389 390 431 430
4 390 391 432 431
4 391 392 433 432
4 392 393 434 433
4 393 394 435 434
4 394 395 436 435
4 395 396 437 436
4 396 397 438 437
4 397 398 439 438
4 398 399 440 439
4 399 400 441 440
4 400 401 442 441
4 401 402 443 442
4 402 403 444 443
4 403 404 445 444
4 404 405 446 445
4 405 406 447 446
4 406 407 448 447
4 407 408 449 448
4 408 409 450 449
4 410 411 452 451
4 411 412 453 452
4 412 413 454 453
4 413 414 455 454
4 414 415 456 455
4 415 416 457 456
4 416 417 458 457
4 417 418 459 458
4 418 419 460 459
4 419 420 461 460
4 420 421 462 461
4 421 422 463 462
4 422 423 464 463
4 423 424 465 464
4 424 425 466 465
4 425 426 467 466
4 426 427 468 467
4 427 428 469 468
4 428 429 470 469
4 429 430 471 470
4 430 431 472 471
4 431 432 473 472
4 432 433 474 473
4 433 434 475 474
4 434 435 476 475
4 435 436 477 476
4 436 437 478 477
4 437 438 479 478
4 438 439 480 479
4 439 440 481 480
4 440 441 482 481
4 441 442 483 482
4 442 443 484 483
4 443 444 485 484
4 444 445 486 485
4 445 446 487 486
4 446 447 488 487
4 447 448 489 488
4 448 449 490 489
4 449 450 491 490
4 451 452 493 492
4 452 453 494 493
4 453 454 495 494
4 454 455 496 495
4 455 456 497 496
4 456 457 498 497
4 457 458 499 498
4 458 459 500 499
4 459 460 501 500
4 460 461 502 501
4 461 462 503 502
4 462 463 504 503
4 463 464 505 504
4 464 465 506 505
4 465 466 507 506
4 466 467 508 507
4 467 468 509 508
4 468 469 510 509
4 469 470 511 510
4 470 471 512 511
4 471 472 513 512
4 472 473 514 513
4 473 474 515 514
4 474 475 516 515
4 475 476 517 516
4 476 477 518 517
4 477 478 519 518
4 478 479 520 519
4 479 480 521 520
4 480 481 522 521
4 481 482 523 522
4 482 483 524 523
4 483 484 525 524
4 484 485 526 525
4 485 486 527 526
4 486 487 528 527
4 487 488 529 528
4 488 489 530 529
4 489 490 531 530
4 490 491 532 531
4 492 493 534 533
4 493 494 535 534
4 494 495 536 535
4 495 496 537 536
4 496 497 538 537
4 497 498 539 538
4 498 499 540 539
4 499 500 541 540
4 500 501 542 541
4 501 502 543 542
4 502 503 544 543
4 503 504 545 544
4 504 505 546 545
4 505 506 547 546
4 506 507 548 547
4 507 508 549 548
4 508 509 550 549
4 509 510 551 550
4 510 511 552 551
4 511 512 553 552
4 512 513 554 553
4 513 514 555 554
4 514 515 556 555
4 515 516 557 556
4 516 517 558 557
4 517 518 559 558
4 518 519 560 559
4 519 520 561 560
4 520 521 562 561
4 521 522 563 562
4 522 523 564 563
4 523 524 565 564
4 524 525 566 565
4 525 526 567 566
4 526 527 568 567
4 527 528 569 568
4 528 529 570 569
4 529 530 571 570
4 530 531 572 571
4 531 532 573 572
4 533 534 575 574
4 534 535 576 575
4 535 536 577 576
4 536 537 578 577
4 537 538 579 578
4 538 539 580 579
4 539 540 581 580
4 540 541 582 581
4 541 542 583 582
4 542 543 584 583
4 543 544 585 584
4 544 545 586 585
4 545 546 587 586
4 546 547 588 587
4 547 548 589 588
4 548 549 590 589
4 549 550 591 590
4 550 551 592 591
4 551 552 593 592
4 552 553 594 593
4 553 554 595 594
4 554 555 596 595
4 555 556 597 596
4 556 557 598 597
4 557 558 599 598
4 558 559 600 599
4 559 560 601 600
4 560 561 602 601
4 561 562 603 602
4 562 563 604 603
4 563 564 605 604
4 564 565 606 605
4 565 566 607 606
4 566 567 608 607
4 567 568 609 608
4 568 569 610 609
4 569 570 611 610
4 570 571 612 611
4 571 572 613 612
4 572 573 614 613
4 574 575 616 615
4 575 576 617 616
4 576 577 618 617
4 577 578 619 618
4 578 579 620 619
4 579 580 621 620
4 580 581 622 621
4 581 582 623 622
4 582 583 624 623
4 583 584 625 624
4 584 585 626 625
4 585 586 627 626
4 586 587 628 627
4 587 588 629 628
4 588 589 630 629
4 589 590 631 630
4 590 591 632 631
4 591 592 633 632
4 592 593 634 633
4 593 594 635 634
4 594 595 636 635
4 595 596 637 636
4 596 597 638 637
4 597 598 639 638
4 598 599 640 639
4 599 600 641 640
4 600 601 642 641
4 601 602 643 642
4 602 603 644 643
4 603 604 645 644
4 604 605 646 645
4 605 606 647 646
4 606 607 648 647
4 607 608 649 648
4 608 609 650 649
4 609 610 651 650
4 610 611 652 651
4 611 612 653 652
4 612 613 654 653
4 613 614 655 654
4 615 616 657 656
4 616 617 658 657
4 617 618 659 658
4 618 619 660 659
4 619 620 661 660
4 620 621 662 661
4 621 622 663 662
4 622 623 664 663
4 623 624 665 664
4 624 625 666 665
4 625 626 667 666
4 626 627 668 667
4 627 628 669 668
4 628 629 670 669
4 629 630 671 670
4 630 631 672 671
4 631 632 673 672
4 632 633 674 673
4 633 634 675 674
4 634 635 676 675
4 635 636 677 676
4 636 637 678 677
4 637 638 679 678
4 638 639 680 679
4 639 640 681 680
4 640 641 682 681
4 641 642 683 682
4 642 643 684 683
4 643 644 685 684
4 644 645 686 685
4 645 646 687 686
4 646 647 688 687
4 647 648 689 688
4 648 649 690 689
4 649 650 691 690
4 650 651 692 691
4 651 652 693 692
4 652 653 694 693
4 653 654 695 694
4 654 655 696 695
4 656 657 698 697
4 657 658 699 698
4 658 659 700 699
4 659 660 701 700
4 660 661 702 701
4 661 662 703 702
4 662 663 704 703
4 663 664 705 704
4 664 665 706 705
4 665 666 707 706
4 666 667 708 707
4 667 668 709 708
4 668 669 710 709
4 669 670 711 710
4 670 671 712 711
4 671 672 713 712
4 672 673 714 713
4 673 674 715 714
4 674 675 716 715
4 675 676 717 716
4 676 677 718 717
4 677 678 719 718
4 678 679 720 719
4 679 680 721 720
4 680 681 722 721
4 681 682 723 722
4 682 683 724 723
4 683 684 725 724
4 684 685 726 725
4 685 686 727 726
4 686 687 728 727
4 687 688 729 728
4 688 689 730 729
4 689 690 731 730
4 690 691 732 731
4 691 692 733 732
4 692 693 734 733
4 693 694 735 734
4 694 695 736 735
4 695 696 737 736
4 697 698 739 738
4 698 699 740 739
4 699 700 741 740
4 700 701 742 741
4 701 702 743 742
4 702 703 744 743
4 703 704 745 744
4 704 705 746 745
4 705 706 747 746
4 706 707 748 747
4 707 708 749 748
4 708 709 750 749
4 709 710 751 750
4 710 711 752 751
4 711 712 753 752
4 712 713 754 753
4 713 714 755 754
4 714 715 756 755
4 715 716 757 756
4 716 717 758 757
4 717 718 759 758
4 718 719 760 759
4 719 720 761 760
4 720 721 762 761
4 721 722 763 762
4 722 723 764 763
4 723 724 765 764
4 724 725 766 765
4 725 726 767 766
4 726 727 768 767
4 727 728 769 768
4 728 729 770 769
4 729 730 771 770
4 730 731 772 771
4 731 732 773 772
4 732 733 774 773
4 733 734 775 774
4 734 735 776 775
4 735 736 777 776
4 736 737 778 777
4 738 739 780 779
4 739 740 781 780
4 740 741 782 781
4 741 742 783 782
4 742 743 784 783
4 743 744 785 784
4 744 745 786 785
4 745 746 787 786
4 746 747 788 787
4 747 748 789 788
4 748 749 790 789
4 749 750 791 790
4 750 751 792 791
4 751 752 793 792
4 752 753 794 793
4 753 754 795 794
4 754 755 796 795
4 755 756 797 796
4 756 757 798 797
4 757 758 799 798
4 758 759 800 799
4 759 760 801 800
4 760 761 802 801
4 761 762 803 802
4 762 763 804 803
4 763 764 805 804
4 764 765 806 805
4 765 766 807 806
4 766 767 808 807
4 767 768 809 808
4 768 769 810 809
4 769 770 811 810
4 770 771 812 811
4 771 772 813 812
4 772 773 814 813
4 773 774 815 814
4 774 775 816 815
4 775 776 817 816
4 776 777 818 817
4 777 778 819 818
4 779 780 821 820
4 780 781 822 821
4 781 782 823 822
4 782 783 824 823
4 783 784 825 824
4 784 785 826 825
4 785 786 827 826
4 786 787 828 827
4 787 788 829 828
4 788 789 830 829
4 789 790 831 830
4 790 791 832 831
4 791 792 833 832
4 792 793 834 833
4 793 794 835 834
4 794 795 836 835
4 795 796 837 836
4 796 797 838 837
4 797 798 839 838
4 798 799 840 839
4 799 800 841 840
4 800 801 842 841
4 801 802 843 842
4 802 803 844 843
4 803 804 845 844
4 804 805 846 845
4 805 806 847 846
4 806 807 848 847
4 807 808 849 848
4 808 809 850 849
4 809 810 851 850
4 810 811 852 851
4 811 812 853 852
4 812 813 854 853
4 813 814 855 854
4 814 815 856 855
4 815 816 857 856
4 816 817 858 857
4 817 818 859 858
4 818 819 860 859
CELL_TYPES 800
9
9
9
9
9
9
9
9
9
9
9
9
9
9
9
9
9
9
9
9
9
9
9
9
9
9
9
9
9
9
9
9
9
9
9
9
9
9
9
9
9
9
9
9
9
9
9
9
9
9
9
9
9
9
9
9
9
9
9
9
9
9
9
9
9
9
9
9
9
9
9
9
9
9
9
9
9
9
9
9
9
9
9
9
9
9
9
9
9
9
9
9
9
9
9
9
9
9
9
9
9
9
9
9
9
9
9
9
9
9
9
9
9
9
9
9
9
9
9
9
9
9
9
9
9
9
9
9
9
9
9
9
9
9
9
9
9
9
9
9
9
9
9
9
9
9
9
9
9
9
9
9
9
9
9
9
9
9
9
9
9
9
9
9
9
9
9
9
9
9
9
9
9
9
9
9
9
9
9
9
9
9
9
9
9
9
9
9
9
9
9
9
9
9
9
9
9
9
9
9
9
9
9
9
9
9
9
9
9
9
9
9
9
9
9
9
9
9
9
9
9
9
9
9
9
9
9
9
9
9
9
9
9
9
9
9
9
9
9
9
9
9
9
9
9
9
9
9
9
9
9
9
9
9
9
9
9
9
9
9
9
9
9
9
9
9
9
9
9
9
9
9
9
9
9
9
9
9
9
9
9
9
9
9
9
9
9
9
9
9
9
9
9
9
9
9
9
9
9
9
9
9
9
9
9
9
9
9
9
9
9
9
9
9
9
9
9
9
9
9
9
9
9
9
9
9
9
9
9
9
9
9
9
9
9
9
9
9
9
9
9
9
9
9
9
9
9
9
9
9
9
9
9
9
9
9
9
9
9
9
9
9
9
9
9
9
9
9
9
9
9
9
9
9
9
9
9
9
9
9
9
9
9
9
9
9
9
9
9
9
9
9
9
9
9
9
9
9
9
9
9
9
9
9
9
9
9
9
9
9
9
9
9
9
9
9
9
9
9
9
9
9
9
9
9
9
9
9
9
9
9
9
9
9
9
9
9
9
9
9
9
9
9
9
9
9
9
9
9
9
9
9
9
9
9
9
9
9
9
9
9
9
9
9
9
9
9
9
9
9
9
9
9
9
9
9
9
9
9
9
9
9
9
9
9
9
9
9
9
9
9
9
9
9
9
9
9
9
9
9
9
9
9
9
9
9
9
9
9
9
9
9
9
9
9
9
9
9
9
9
9
9
9
9
9
9
9
9
9
9
9
9
9
9
9
9
9
9
9
9
9
9
9
9
9
9
9
9
9
9
9
9
9
9
9
9
9
9
9
9
9
9
9
9
9
9
9
9
9
9
9
9
9
9
9
9
9
9
9
9
9
9
9
9
9
9
9
9
9
9
9
9
9
9
9
9
9
9
9
9
9
9
9
9
9
9
9
9
9
9
9
9
9
9
9
9
9
9
9
9
9
9
9
9
9
9
9
9
9
9
9
9
9
9
9
9
9
9
9
9
9
9
9
9
9
9
9
9
9
9
9
9
9
9
9
9
9
9
9
9
9
9
9
9
9
9
9
9
9
9
9
9
9
9
9
9
9
9
9
9
9
9
9
9
9
9
9
9
9
9
9
9
9
9
9
9
9
9
9
9
9
9
9
9
9
9
9
9
9
9
9
9
9
9
9
9
9
9
9
9
9
9
9
9
9
9
9
9
9
9
9
9
9
9
9
9
9
9
9
9
9
9
9
9
9
9
9
9
9
9
9
9
9
9
9
9
9
9
9
9
9
9
9
9
9
9
9
9
9
9
9
9
9
9
9
9
9
9
9
9
9
9
9
9
9
9
9
9
9
9
9
9
9
9
9
9
9
9
9
9
POINT_DATA 861
SCALARS Disp float 2
LOOKUP_TABLE default
0.0 0.0
0.023502781455326142 -0.429530910438879
0.04186228623880471 -0.7924689509789251
0.05658908725765064 -1.1491771351470583
0.07341387380854461 -1.4990246942418408
0.09364866062809692 -1.8418560622186422
0.11793865657149365 -2.176032978775462
0.1465428086326866 -2.4997854277834146
0.1795458833688251 -2.811284353390706
0.21696752720529314 -3.108723187712356
0.2588048021359079 -3.3903162833467846
0.3050509349309385 -3.6542943676721005
0.35570175720032315 -3.898899048506466
0.41076188321310114 -4.1223803633356955
0.4702579760567479 -4.322990968230498
0.5342630509554503 -4.498962109259223
0.6029209333216302 -4.648435048955326
0.6764220755233941 -4.769322989146227
0.7548256316481298 -4.859132747278229
0.837621411137851 -4.914942097826153
0.9231726720315382 -4.933967317999134
1.0087239329252253 -4.914942097826138
1.0915197124149463 -4.859132747278198
1.1699232685396788 -4.769322989146181
1.2434244107414392 -4.648435048955266
1.3120822931076142 -4.498962109259153
1.3760873680063133 -4.322990968230419
1.4355834608499571 -4.12238036333561
1.4906435868627304 -3.8988990485063737
1.5412944091321101 -3.654294367672005
1.587540541927135 -3.3903162833466878
1.6293778168577449 -3.1087231877122625
1.6667994606942096 -2.8112843533906178
1.699802535430345 -2.4997854277833316
1.728406687491535 -2.1760329787753836
1.7526966834349285 -1.8418560622185753
1.772931470254478 -1.4990246942417838
1.789756256805371 -1.149177135147014
1.8044830578242168 -0.7924689509788918
1.8228425626076954 -0.42953091043885844
1.8463453440630275 0.0
0.10640060807719173 -0.014595682293741608
0.12103584185300868 -0.42839312651142153
0.13116560018861623 -0.7945299069655312
0.14481137924073526 -1.150614029922096
0.1597747770664096 -1.500917837396249
0.17804391125055724 -1.8441110532915685
0.19993510787084856 -2.1787246539794
0.22569920876624822 -2.5029204966073575
0.25541119620152486 -2.814868788654116
0.2890941205716353 -3.1127571272775105
0.3267488017835125 -3.3947992774277305
0.36837132683200835 -3.6592258432830844
0.4139595612214329 -3.9042789470851087
0.4635189792625831 -4.128209944652112
0.5170733347585179 -4.329274584339299
0.574681995829209 -4.505709797542296
0.6364525736369667 -4.655663454954019
0.7025067391378127 -4.777047179637515
0.7728173741211392 -4.86733680372432
0.8468525061059825 -4.923524665283741
0.9231726720315363 -4.942699980945086
0.99949283795709 -4.923524665283727
1.073527969941933 -4.867336803724289
1.1438386049252565 -4.777047179637468
1.2098927704260996 -4.655663454953959
1.2716633482338535 -4.5057097975422264
1.3292720093045416 -4.3292745843392195
1.3828263648004733 -4.128209944652027
1.4323857828416193 -3.9042789470850163
1.4779740172310396 -3.6592258432829876
1.5195965422795306 -3.3947992774276328
1.5572512234914038 -3.1127571272774173
1.5909341478615107 -2.8148687886540276
1.620646135296785 -2.5029204966072744
1.6464102361921817 -2.1787246539793212
1.6683014328124703 -1.8441110532915013
1.6865705669966162 -1.5009178373961918
1.7015339648222894 -1.1506140299220515
1.715179743874408 -0.7945299069654977
1.7253095022100173 -0.42839312651140177
1.7399447359858358 -0.01459568229373982
0.20555641699283364 -0.027132974971061045
0.2160536363267379 -0.42755867862272645
0.22150541701430806 -0.7956654646513001
0.23243112632922858 -1.152012889198259
0.24569965724659082 -1.5025568273354017
0.2618673333552552 -1.8461362740404474
0.2813431733052002 -2.181131319286635
0.304254465912607 -2.5057269763469043
0.33067338055613943 -2.8180764230603206
0.3606177431944203 -3.1163668119179
0.3940905907032568 -3.398810582801626
0.43108996110477144 -3.6636384255996184
0.4716150456650715 -3.9090927726541116
0.5156706341232962 -4.133425905519041
0.5632747150503108 -4.334895740913837
0.6144700424683627 -4.511743320038928
0.6693308484772525 -4.662121544728523
0.7279321677004699 -4.783941260618786
0.7902174260938403 -4.874654634362239
0.8557099335317755 -4.931183467827337
0.9231726720315345 -4.950499118288849
0.9906354105312937 -4.931183467827322
1.0561279179692278 -4.874654634362208
1.118413176362596 -4.783941260618739
1.1770144955858106 -4.662121544728461
1.2318753015946977 -4.511743320038858
1.2830706290127467 -4.334895740913758
1.3306747099397587 -4.133425905518955
1.3747302983979794 -3.9090927726540188
1.415255382958276 -3.663638425599521
1.4522547533597867 -3.3988105828015285
1.4857276008686198 -3.1163668119178065
1.5156719635068976 -2.8180764230602318
1.5420908781504274 -2.505726976346821
1.565002170757832 -2.1811313192865565
1.5844780107077747 -1.8461362740403797
1.6006456868164374 -1.5025568273353442
1.6139142177337988 -1.1520128891982147
1.6248399270487195 -0.7956654646512668
1.630291707736291 -0.427558678622707
1.6407889270701952 -0.02713297497105763
0.3004315397286147 -0.037848509565518544
0.3087698630604619 -0.4273133263207896
0.3116606631171142 -0.7961683287468498
0.3197926846531469 -1.1531686776068342
0.3311383220597684 -1.5039830701987447
0.3452036051698328 -1.8479079450784115
0.36222510047070144 -2.18325408533062
0.3822777894989736 -2.5082028876878693
0.40540002341893233 -2.820907359639068
0.4316057516480151 -3.1195522758338097
0.46089709318604993 -3.4023503170811322
0.4932735012408573 -3.6675321146310913
0.5287347598570995 -3.9133402551463057
0.5672838045185598 -4.1380273423183285
0.6089309686804185 -4.339852374900809
0.6537010502871528 -4.517059278710003
0.7016390437002497 -4.667806399862655
0.7527933829555418 -4.790009448993249
0.8071237908168221 -4.881110355975235
0.864263655654973 -4.937972777559698
0.9231726720315329 -4.957435983108057
0.9820816884080925 -4.937972777559683
1.0392215532462425 -4.881110355975204
1.0935519611075208 -4.790009448993202
1.1447063003628108 -4.667806399862593
1.1926442937759056 -4.517059278709932
1.237414375382637 -4.339852374900729
1.2790615395444935 -4.138027342318241
1.3176105842059505 -3.9133402551462124
1.3530718428221895 -3.6675321146309936
1.3854482508769936 -3.4023503170810345
1.414739592415026 -3.119552275833716
1.4409453206441059 -2.820907359638979
1.4640675545640622 -2.5082028876877853
1.4841202435923324 -2.1832540853305415
1.5011417388931991 -1.8479079450783438
1.5152070220032625 -1.5039830701986872
1.526552659409883 -1.1531686776067898
1.5346846809459163 -0.7961683287468166
1.5375754810025695 -0.42731332632077
1.5459138043344163 -0.03784850956551382
0.39257142338009104 -0.04697521092439638
0.39960915053637996 -0.42762690880131893
0.40113619382689114 -0.7963093580191659
0.4068672521750937 -1.1540228018767622
0.4161604114047437 -1.5051840397549996
0.42809931719517946 -1.8494248881560391
0.4426508698844001 -2.1850885483882756
0.45983562429216274 -2.510347999066881
0.47965901606589234 -2.823361207238322
0.5021253517354985 -3.1223135895434098
0.527235277731618 -3.405418515221962
0.5549886786819074 -3.670906885807664
0.5853854365952804 -3.917021155610928
0.6184258348320565 -4.14201357025593
0.65411156651084 -4.3441430576309035
0.6924493371818209 -4.5216555578521795
0.733459258804308 -4.672716871768622
0.7771795375379977 -4.795256942083385
0.8236213171834862 -4.8867253628769465
0.8725686385007108 -4.94393786337045
0.9231726720315311 -4.963569959839769
0.9737767055623513 -4.943937863370434
1.022724026879575 -4.8867253628769145
1.0691658065250618 -4.795256942083337
1.1128860852587497 -4.672716871768561
1.1538960068812352 -4.5216555578521085
1.1922337775522138 -4.344143057630824
1.2279195092309954 -4.142013570255842
1.2609599074677684 -3.9170211556108336
1.2913566653811388 -3.670906885807566
1.3191100663314257 -3.4054185152218643
1.3442199923275433 -3.122313589543316
1.366686327997147 -2.8233612072382326
1.3865097197708744 -2.5103479990667967
1.4036944741786357 -2.1850885483881965
1.4182460268678547 -1.8494248881559714
1.4301849326582896 -1.5051840397549416
1.439478091887939 -1.154022801876718
1.445209150236142 -0.7963093580191328
1.4467361935266538 -0.4276269088012993
1.453773920682942 -0.046975210924390574
0.48286385685901273 -0.05472725993048113
0.4889796102685006 -0.4283707628718111
0.4897862902431367 -0.7962758264673817
0.49357594757480333 -1.1545899750973594
0.5008218357935541 -1.5061452660641974
0.5106099547122213 -1.8506865303009055
0.5226849724798538 -2.1866326724160805
0.5369954112352432 -2.512161562341053
0.5535176319699667 -2.825437800576998
0.5722438122726715 -3.1246506966977114
0.5931720948621575 -3.408015186779713
0.6163022937850833 -3.673762691799081
0.6416339490419138 -3.9201352964907326
0.6691643277320772 -4.145384161954445
0.6988863038651354 -4.347767008694862
0.7307892360884896 -4.525531180103999
0.764872133847105 -4.676853009935815
0.8011746529892407 -4.7996887028551605
0.8397846666962366 -4.891517146636577
0.8806695101692601 -4.949116222316246
0.9231726720315294 -4.96895211848503
0.9656758338937984 -4.94911622231623
1.006560677366821 -4.891517146636545
1.0451706910738159 -4.7996887028551125
1.08147321021595 -4.676853009935754
1.1155561079745644 -4.525531180103929
1.1474590401979168 -4.347767008694782
1.1771810163309728 -4.145384161954357
1.2047113950211341 -3.9201352964906384
1.2300430502779627 -3.673762691798983
1.2531732492008865 -3.408015186779616
1.2741015317903708 -3.1246506966976173
1.2928277120930738 -2.8254378005769087
1.3093499328277958 -2.512161562340969
1.3236603715831836 -2.1866326724160015
1.335735389350815 -1.8506865303008377
1.3455235082694816 -1.5061452660641395
1.3527693964882321 -1.154589975097315
1.356559053819899 -0.7962758264673487
1.3573657337945353 -0.42837076287179116
1.3634814872040226 -0.054727259930474496
0.5718624551735063 -0.06129089073581646
0.5772227847101868 -0.42940206992233954
0.5776307051208793 -0.7961792792043312
0.5798731529345241 -1.1549121335217636
0.5851614361569815 -1.5068632647970728
0.5927947195826418 -1.8516918399918745
0.6023908039262047 -2.187885992034908
0.613824058958138 -2.5136429944921366
0.627043102955389 -2.827136975731235
0.6420282925763476 -3.1265635223831745
0.6587745146568477 -3.4101402970982284
0.6772811893567203 -3.676099481943471
0.697547268615212 -3.922682574862874
0.7195670131835203 -4.148138961205578
0.7433250272124803 -4.350724076053935
0.7687947359819327 -4.528686165701486
0.7959567857778372 -4.680215617436043
0.8248586311730447 -4.8033085748789075
0.855681046153096 -4.8954985282005605
0.888603585238533 -4.9535384575992945
0.9231726720315275 -4.973627882758417
0.9577417588245223 -4.9535384575992785
0.9906642979099586 -4.8954985282005286
1.021486712890009 -4.8033085748788595
1.0503885582852157 -4.680215617435981
1.077550608081119 -4.528686165701416
1.1030203168505701 -4.350724076053854
1.1267783308795283 -4.148138961205489
1.148798075447835 -3.9226825748627796
1.1690641547063252 -3.6760994819433725
1.1875708294061964 -3.410140297098131
1.2043170514866952 -3.12656352238308
1.2193022411076524 -2.827136975731145
1.2325212851049023 -2.513642994492052
1.2439545401368344 -2.1878859920348286
1.2535506244803964 -1.851691839991807
1.2611839079060565 -1.5068632647970148
1.2664721911285137 -1.1549121335217192
1.2687146389421589 -0.7961792792042982
1.2691225593528515 -0.42940206992231933
1.2744828888895314 -0.06129089073580911
0.6599373587192819 -0.06682267582328412
0.6646145398387966 -0.43059427587703986
0.6647636097955484 -0.7960767097307825
0.6657578008260618 -1.1550349178794055
0.6692142270831143 -1.5073447849883617
0.6747124628685115 -1.8524411447371623
0.6818321986027929 -2.1888488105348407
0.6903879953836826 -2.5147921032694587
0.7003025770678197 -2.8284585765816925
0.7115458877095562 -3.1280519779737768
0.724109499516721 -3.411793783229839
0.7379922416530003 -3.677917207010392
0.7531924177974573 -3.9246629679529366
0.7697016271677735 -4.150278071948189
0.7874973853554679 -4.353014689552623
0.8065391818250376 -4.5311214117850875
0.8267908760560797 -4.6828059579254235
0.8483084271070245 -4.806118706905601
0.8713726587409181 -4.898677072417649
0.8964029894282699 -4.957228776943718
0.9231726720315258 -4.977639264784699
0.9499423546347819 -4.957228776943703
0.9749726853221332 -4.898677072417617
0.998036916956026 -4.806118706905553
1.0195544680069706 -4.682805957925362
1.0398061622380121 -4.5311214117850165
1.0588479587075807 -4.353014689552542
1.0766437168952736 -4.1502780719481
1.093152926265589 -3.924662967952842
1.1083531024100448 -3.6779172070102932
1.122235844546323 -3.411793783229742
1.1347994563534873 -3.128051977973682
1.146042766995223 -2.8284585765816024
1.155957348679359 -2.5147921032693743
1.164513145460248 -2.1888488105347608
1.1716328811945287 -1.8524411447370948
1.177131116979926 -1.5073447849883035
1.1805875432369783 -1.155034917879361
1.1815817342674921 -0.7960767097307496
1.181730804224244 -0.4305942758770194
1.1864079853437584 -0.06682267582327624
0.7473516472852689 -0.07145232749804033
0.7513776941706292 -0.43184548663980654
0.7513087268363596 -0.795989753913193
0.7512652535587456 -1.1549975919915163
0.753020374215824 -1.507602766363979
0.7564215792372849 -1.852937016687567
0.7610734688322164 -2.189522012532522
0.7667535195653512 -2.5156090328445915
0.773363078197153 -2.8294025019073255
0.78086364584238 -3.12911595992296
0.789243995943294 -3.4129755644631397
0.7985023443336411 -3.6792158232966448
0.808636429585118 -3.926076527723556
0.8196358058941726 -4.151801826639993
0.8314726094633971 -4.354639790420566
0.8440950034593915 -4.532838598090717
0.85745072628251 -4.684625630362549
0.8715992863825114 -4.808119265491699
0.8869189923972883 -4.901054559962678
0.9040962936111292 -4.960205079282428
0.9231726720315242 -4.981026964565779
0.9422490504519194 -4.960205079282413
0.9594263516657596 -4.901054559962646
0.9747460576805363 -4.8081192654916505
0.9888946177805379 -4.684625630362488
1.0022503406036558 -4.532838598090646
1.0148727345996498 -4.354639790420484
1.0267095381688733 -4.151801826639903
1.037708914477927 -3.9260765277234615
1.0478429997294034 -3.679215823296546
1.05710134811975 -3.4129755644630424
1.0654816982206639 -3.1291159599228653
1.0729822658658907 -2.8294025019072357
1.0795918244976919 -2.515609032844506
1.0852718752308261 -2.189522012532442
1.0899237648257574 -1.8529370166874992
1.0933249698472183 -1.5076027663639209
1.095080090504297 -1.1549975919914717
1.0950366172266832 -0.7959897539131602
1.0949676498924137 -0.43184548663978584
1.0989936967777738 -0.07145232749803206
0.8343028293400051 -0.07528742717348752
0.8376949368481461 -0.4330782037245168
0.837397648699185 -0.795918884691097
0.8364562863650367 -1.154829964674933
0.8366288651848842 -1.5076525889928267
0.8379813456873743 -1.8531841154223567
0.8401793388804516 -2.1899070700028775
0.8429870029115034 -2.5160941708791613
0.8462915380879591 -2.8299687180872697
0.8500485642605561 -3.129755356780657
0.8542449323486174 -3.4136855476200063
0.858878393785507 -3.6799952945152796
0.8639463136566898 -3.9269233676208004
0.8694370036029787 -4.152710737092268
0.8753193280689702 -4.3556007363338916
0.8815334453226781 -4.533840113592433
0.8880113859234172 -4.685676617020367
0.8948059742611649 -4.809308440157326
0.902379113533502 -4.902626460447929
0.9117099376682567 -4.962478554918202
0.9231726720315226 -4.983832576150172
0.9346354063947885 -4.962478554918186
0.9439662305295431 -4.902626460447897
0.95153936980188 -4.809308440157278
0.958333958139628 -4.685676617020306
0.9648118987403672 -4.533840113592362
0.9710260159940748 -4.355600736333811
0.9769083404600659 -4.152710737092179
0.9823990304063546 -3.9269233676207054
0.9874669502775373 -3.6799952945151815
0.9921004117144268 -3.4136855476199086
0.9962967798024882 -3.1297553567805627
1.0000538059750856 -2.8299687180871795
1.003358341151541 -2.5160941708790756
1.0061660051825925 -2.189907070002797
1.00836399837567 -1.853184115422289
1.0097164788781603 -1.5076525889927685
1.0098890576980082 -1.1548299646748883
1.00894769536386 -0.7959188846910639
1.008650407214899 -0.4330782037244959
1.0120425147230399 -0.07528742717347886
0.9209465003093603 -0.07841856314317908
0.9237192207895304 -0.43423607260298036
0.9231598083126509 -0.7958530371059225
0.9214078333287952 -1.154552599595598
0.9200979422915698 -1.507509492025425
0.9194532051781885 -1.8531885033279754
0.919215068882279 -2.1900059894341286
0.9191549684867911 -2.5162480743326325
0.9191548411859033 -2.830157244992163
0.9191675873084763 -3.129970055909268
0.9191792158559586 -3.4139236312245576
0.9191872784236369 -3.68025559071979
0.9191890307576597 -3.927203644171629
0.9191724391358935 -4.153005432593483
0.9191054293067847 -4.3558991792879675
0.9189242773858348 -4.534128984380701
0.9185465425142059 -4.685961498132062
0.9180039149299906 -4.809682782910097
0.9178141612012017 -4.903381410169047
0.9192696984128745 -4.9640526566488195
0.9231726720315211 -4.986101136995459
0.9270756456501673 -4.964052656648804
0.9285311828618402 -4.903381410169015
0.9283414291330517 -4.809682782910049
0.9277988015488368 -4.685961498132
0.9274210666772085 -4.534128984380629
0.9272399147562586 -4.355899179287887
0.9271729049271498 -4.153005432593394
0.9271563133053838 -3.927203644171534
0.927158065639407 -3.6802555907196917
0.9271661282070855 -3.41392363122446
0.9271777567545687 -3.1299700559091734
0.9271905028771423 -2.8301572449920727
0.9271903755762547 -2.516248074332547
0.9271302751807667 -2.190005989434048
0.9268921388848578 -1.8531885033279076
0.9262474017714769 -1.5075094920253669
0.924937510734252 -1.1545525995955535
0.9231855357503965 -0.7958530371058894
0.9226261232735171 -0.4342360726029592
0.925398843753687 -0.0784185631431702
1.0074102197859058 -0.08092414779590264
1.0095813863878118 -0.4352800065898987
1.008718261005054 -0.7957758135318165
1.0062063148148914 -1.1541783547635143
1.003494045686198 -1.507187101720656
1.000901526133259 -1.852956835681073
0.9982466709644916 -2.1898211453181657
0.9953241240582528 -2.5160714022024897
0.9920198523341787 -2.8299681318903906
0.9882876085976506 -3.129759946196745
0.9841137293006493 -3.4136897095187506
0.9794958722585612 -3.6799966849910333
0.9744314759756025 -3.926917535610865
0.9689090726402966 -4.152686592193182
0.9628979896714595 -4.3555369145423155
0.9563354898744646 -4.533708766362888
0.949128148553866 -4.68548380586309
0.941270103353366 -4.809237967669901
0.9332902663230116 -4.903300773129414
0.9268025140808261 -4.964921201554289
0.9231726720315195 -4.9878842832004295
0.9195428299822125 -4.964921201554274
0.9130550777400274 -4.9033007731293825
0.9050752407096735 -4.809237967669853
0.8972171955091741 -4.685483805863028
0.8900098541885765 -4.533708766362817
0.8834473543915818 -4.355536914542234
0.8774362714227454 -4.152686592193092
0.87191386808744 -3.9269175356107704
0.8668494718044824 -3.6799966849909356
0.862231614762395 -3.413689709518653
0.8580577354653948 -3.129759946196651
0.8543254917288678 -2.8299681318903005
0.8510212200047942 -2.516071402202404
0.8480986730985558 -2.1898211453180854
0.8454438179297893 -1.8529568356810053
0.8428512983768507 -1.5071871017205978
0.8401390292481579 -1.1541783547634699
0.8376270830579957 -0.7957758135317834
0.8367639576752381 -0.43528000658987737
0.8389351242771441 -0.08092414779589359
1.0938016626845615 -0.08287463935273048
1.0953954278499538 -0.4361846037287678
1.0941883142775346 -0.7956693540224594
1.0909432487400577 -1.153714290589123
1.0868903086499766 -1.5066967642904803
1.0823938409441562 -1.852495630273693
1.0773410856114007 -2.189355032263167
1.0715613777627468 -2.515564840177253
1.0649534247662635 -2.829401431984812
1.0574754733180018 -3.1291249178484017
1.0491153298328226 -3.412983676353696
1.039871033559615 -3.6792185489147338
1.029740471161719 -3.926065218907194
1.0187136071182579 -4.151754879765796
1.0067632920792267 -4.354515705850757
0.9938330182850892 -4.532583349721561
0.9798256297137705 -4.684248449377727
0.9646835240930131 -4.807970100985772
0.9488821505145124 -4.902358486101663
0.9343391501574199 -4.965065222435143
0.9231726720315178 -4.989244317541543
0.9120061939056157 -4.965065222435127
0.8974631935485236 -4.902358486101631
0.8816618199700237 -4.807970100985723
0.866519714349267 -4.684248449377665
0.8525123257779496 -4.53258334972149
0.8395820519838129 -4.354515705850676
0.8276317369447825 -4.151754879765705
0.8166048729013227 -3.9260652189070995
0.8064743105034281 -3.679218548914636
0.7972300142302217 -3.412983676353599
0.7888698707450443 -3.1291249178483076
0.7813919192967838 -2.829401431984722
0.7747839663003014 -2.515564840177167
0.7690042584516483 -2.1893550322630864
0.7639515031188939 -1.852495630273625
0.7594550354130746 -1.5066967642904223
0.7554020953229941 -1.1537142905890783
0.7521570297855176 -0.7956693540224261
0.7509499162130986 -0.4361846037287464
0.7525436813784907 -0.08287463935272128
1.1802131752419827 -0.08433611714735514
1.181261882832221 -0.4369351538789744
1.1796775269875819 -0.7955167218520407
1.1757126453047488 -1.1531635141718075
1.1703651276532994 -1.5060473738176732
1.1640007037730993 -1.8518106832324426
1.1565662432634367 -2.188609985964121
1.147933833678994 -2.514729014949823
1.138022393338972 -2.828457178623524
1.1267979781880748 -3.1280648615158757
1.1142508490451666 -3.411805429236176
1.1003796092221412 -3.677921148256125
1.0851827690742848 -3.924646845155927
1.0686525012272876 -4.150210889705292
1.050766944691401 -4.352837108101752
1.0314806188286936 -4.530756613687858
1.010704568894284 -4.682262063532316
0.9883245635834946 -4.805877749752929
0.9646776552963592 -4.900521609105213
0.9419185698749425 -4.964447987499896
0.9231726720315162 -4.990259534902876
0.9044267741880898 -4.964447987499881
0.8816676887666737 -4.900521609105182
0.858020780479539 -4.805877749752881
0.835640775168751 -4.682262063532254
0.8148647252343433 -4.530756613687786
0.7955783993716368 -4.352837108101671
0.7776928428357512 -4.150210889705202
0.7611625749887562 -3.9246468451558325
0.7459657348409016 -3.6779211482560275
0.7320944950178778 -3.4118054292360793
0.7195473658749716 -3.128064861515782
0.7083229507240761 -2.828457178623434
0.6984115103840552 -2.514729014949737
0.689779100799614 -2.1886099859640407
0.682344640289953 -1.8518106832323744
0.6759802164097538 -1.5060473738176152
0.6706326987583052 -1.1531635141717629
0.666667817075473 -0.7955167218520074
0.6650834612308337 -0.43693515387895293
0.6661321688210721 -0.08433611714734586
1.2667238488140224 -0.08537324612554333
1.2672697324010154 -0.4375252918907999
1.2652863960287373 -0.7953034339646913
1.2606097638413394 -1.1525267881618506
1.2540010175829575 -1.5052454428045428
1.2457953029541966 -1.8509066244675134
1.2359909892274887 -2.187587914644027
1.224508756800831 -2.5135644058771103
1.2112935568256027 -2.827135364882821
1.1963218690725053 -3.1265796686718708
1.1795870943122464 -3.410154873776704
1.1610884429551032 -3.676104441104268
1.140825076569803 -3.922662512872091
1.1187919785984262 -4.14805510332406
1.0949740654429654 -4.3505023330862675
1.0693401108665537 -4.528231892335234
1.0418249177149834 -4.679532991704476
1.0122724560475154 -4.802964830513354
0.9807832978451464 -4.89775241719024
0.9495956801206576 -4.963007334041356
0.9231726720315145 -4.991031114343461
0.8967496639423713 -4.9630073340413405
0.8655620462178836 -4.897752417190209
0.8340728880155152 -4.802964830513306
0.8045204263480492 -4.679532991704415
0.777005233196481 -4.528231892335163
0.7513712786200704 -4.350502333086186
0.7275533654646116 -4.148055103323969
0.7055202674932369 -3.922662512871997
0.685256901107939 -3.6761044411041692
0.6667582497507981 -3.4101548737766074
0.6500234749905417 -3.126579668671777
0.6350517872374462 -2.8271353648827304
0.6218365872622197 -2.513564405877024
0.6103543548355636 -2.1875879146439465
0.6005500411088577 -1.8509066244674455
0.5923443264800982 -1.5052454428044848
0.5857355802217173 -1.152526788161806
0.5810589480343199 -0.7953034339646577
0.579075611662042 -0.4375252918907783
0.579621495249035 -0.085373246125534
1.353399612730746 -0.0860516711756448
1.3534970792747665 -0.43795529824644963
1.3511095176216383 -0.7950186034615445
1.345730951088403 -1.1518038399148072
1.3378837809524193 -1.5042952206166136
1.3278529150925116 -1.8497865784961647
1.3156848818362985 -2.186290069373293
1.3013535010712751 -2.5120712656212656
1.284833651270947 -2.8254359287139166
1.266113837162755 -3.1246692348021665
1.2451908527107807 -3.4080319282158733
1.2220643814186112 -3.673768380723579
1.1967341036116357 -3.920112243553379
1.1691980473412455 -4.145287837161128
1.1394493972424535 -4.347512222226383
1.1074722497759464 -4.525011314852651
1.0732392772532866 -4.676070390058735
1.036599074489644 -4.79924430042689
0.9973302707431682 -4.8940136625864685
0.9574559009666042 -4.960644137721823
0.9231726720315127 -4.991691591608499
0.8888894430964216 -4.9606441377218085
0.8490150733198583 -4.894013662586437
0.8097462695733838 -4.799244300426843
0.7731060668097433 -4.6760703900586735
0.7388730942870857 -4.52501131485258
0.7068959468205802 -4.347512222226301
0.6771472967217909 -4.145287837161038
0.6496112404514035 -3.9201122435532847
0.6242809626444306 -3.673768380723482
0.6011544913522642 -3.4080319282157774
0.5802315069002925 -3.124669234802073
0.5615116927921028 -2.825435928713826
0.5449918429917769 -2.51207126562118
0.5306604622267557 -2.1862900693732126
0.5184924289705446 -1.8497865784960972
0.5084615631106386 -1.5042952206165554
0.500614392974656 -1.1518038399147625
0.4952358264414214 -0.795018603461511
0.4928482647882937 -0.4379552982464279
0.4929457313323141 -0.08605167117563543
1.440291390783046 -0.08643982991594668
1.4400107746582862 -0.43823110821464173
1.4372373564585121 -0.7946560534096206
1.4311744007589822 -1.1509943173939063
1.4221018991987884 -1.503198708172125
1.410250241575529 -1.8484518980170053
1.3957178896628295 -2.1847168712896656
1.378535400478618 -2.5102495610676883
1.3587093167293038 -2.8233587464992027
1.3362405139569482 -3.1223334666739815
1.3111289002712208 -3.405436528214168
1.2833742758479425 -3.670912920416042
1.2529766164799727 -3.9169959783438877
1.2199366263844769 -4.1419091450738765
1.1842571184553845 -4.343867344151797
1.1459382147674448 -4.521095354838605
1.104993020631141 -4.671881692032285
1.061356493489126 -4.794741843900939
1.0144778996039368 -4.889280170003013
0.9656441530695955 -4.957205529003972
0.923172672031511 -4.992413835862638
0.8807011909934268 -4.957205529003957
0.8318674444590863 -4.889280170002982
0.7849888505738988 -4.7947418439008915
0.7413523234318864 -4.671881692032224
0.7004071292955849 -4.5210953548385335
0.6620882256076475 -4.343867344151716
0.6264087176785581 -4.141909145073787
0.5933687275830656 -3.916995978343794
0.5629710682150988 -3.670912920415945
0.5352164437918242 -3.4054365282140724
0.5101048301060997 -3.1223334666738882
0.48763602733374684 -2.8233587464991126
0.4678099435844354 -2.510249561067603
0.45062745440022645 -2.1847168712895857
0.43609510248752936 -1.8484518980169375
0.4242434448642719 -1.503198708172067
0.41517094330407933 -1.150994317393862
0.40910798760455025 -0.7946560534095871
0.40633456940477664 -0.4382311082146199
0.40605395328001687 -0.08643982991593734
1.527430885912056 -0.08661006512660034
1.5268651184127593 -0.43836426220958363
1.5237591293933548 -0.7942156848441856
1.5170417167591372 -1.1500982700612519
1.5067459482756884 -1.5019554542537625
1.4930646490136408 -1.8469019587804065
1.476160018108194 -2.182867805518758
1.45612162787694 -2.5080989437068526
1.4329870613748446 -2.82090363858178
1.4067684671262353 -3.119572292842687
1.3774680100282077 -3.402368636829222
1.345085006722881 -3.6675380067453194
1.3096194063071216 -3.913313622639433
1.2710739315102153 -4.137918683894365
1.2294603730212248 -4.339567988864167
1.1848003649758323 -4.516483418953772
1.1371304275462701 -4.666967809850226
1.0865561969303072 -4.789496470317827
1.0324034170413416 -4.8835628875640555
0.974426285210161 -4.952462084318218
0.9231726720315094 -4.993415987573254
0.8719190588528578 -4.952462084318203
0.8139419270216782 -4.8835628875640245
0.7597891471327144 -4.78949647031778
0.7092149165167543 -4.666967809850165
0.6615449790871951 -4.5164834189537
0.6168849710418052 -4.339567988864086
0.5752714125528182 -4.137918683894276
0.5367259377559156 -3.9133136226393392
0.5012603373401601 -3.6675380067452226
0.468877334034837 -3.4023686368291273
0.43957687693681335 -3.1195722928425935
0.41335828268820735 -2.82090363858169
0.3902237161861146 -2.5080989437067673
0.37018532595486364 -2.182867805518678
0.35328069504941984 -1.8469019587803392
0.33959939578737414 -1.5019554542537046
0.329303627303927 -1.1500982700612075
0.3225862146697104 -0.7942156848441522
0.31948022565030604 -0.4383642622095618
0.3189144581510094 -0.086610065126591
1.6148228339049975 -0.08663873504104881
1.6140998212836257 -0.43837337998338727
1.6107678901077018 -0.7937052858853343
1.6034400001235656 -1.1491158740888991
1.59190775162587 -1.5005620831117767
1.576373362729872 -1.8451340335955404
1.5570808815815622 -2.180741381877085
1.5341790344141841 -2.505618757738662
1.507733224687201 -2.818070390838615
1.4777642089824161 -3.1163856736072995
1.4442749343727455 -3.398828264805269
1.4072635698736287 -3.6636435653433472
1.3667291748435466 -3.9090650729143332
1.3226767510981232 -4.133315835722199
1.2751221961359336 -4.334613287945158
1.2241177219696555 -4.511176514215551
1.1697125611031758 -4.661317804220304
1.112147961585508 -4.783548402454967
1.0512387141423225 -4.876957004019061
0.9843296530081457 -4.946082443493359
0.9231726720315077 -4.994947005053069
0.8620156910548695 -4.946082443493344
0.7951066299206937 -4.8769570040190295
0.7341973824775103 -4.783548402454921
0.6766327829598456 -4.661317804220244
0.6222276220933693 -4.51117651421548
0.5712231479270945 -4.334613287945077
0.5236685929649088 -4.133315835722111
0.4796161692194897 -3.9090650729142404
0.4390817741894119 -3.6636435653432513
0.40207040969029967 -3.398828264805174
0.36858113508063306 -3.1163856736072066
0.33861211937585173 -2.8180703908385256
0.3121663096488718 -2.5056187577385773
0.2892644624814972 -2.180741381877006
0.26997198133319095 -1.8451340335954733
0.25443759243719516 -1.5005620831117192
0.24290534393950133 -1.1491158740888545
0.23557745395536606 -0.7937052858853008
0.2322455227794423 -0.43837337998336534
0.2315225101580706 -0.08663873504103951
1.70243119767668 -0.08660470765098924
1.7017377155473512 -0.43828845482510964
1.698370048233868 -0.7931427258327929
1.6904834051696072 -1.1480458375070073
1.6776790989528994 -1.499011679518784
1.6602526957648984 -1.8431432600810915
1.6385492020680106 -2.1783351563288704
1.6127739986614096 -2.502808099367954
1.5830139495441158 -2.8148587852313023
1.5492941891354002 -3.112773628813005
1.5116164660755282 -3.3948154461134
1.4699768964242956 -3.659229627037483
1.424373251785455 -3.904249880592798
1.3748103856651805 -4.1281006878186775
1.3213118826819836 -4.3289991834227
1.2639332433851107 -4.505179090252471
1.2028324818977403 -4.654916413700379
1.1380676866499833 -4.7768864812881455
1.0708124199048816 -4.869734288542734
0.9964967815259013 -4.937627546502903
0.9231726720315059 -4.997202522767668
0.8498485625371105 -4.937627546502889
0.775532924158131 -4.869734288542703
0.7082776574130316 -4.776886481288099
0.6435128621652781 -4.654916413700319
0.5824121006779116 -4.505179090252401
0.5250334613810426 -4.328999183422619
0.4715349583978499 -4.128100687818589
0.42197209227758026 -3.904249880592706
0.37636844763874466 -3.6592296270373876
0.334728877987517 -3.394815446113306
0.2970511549276498 -3.1127736288129126
0.26333139451893806 -2.8148587852312135
0.233571345401648 -2.5028080993678694
0.20779614199505092 -2.178335156328792
0.18609264829816682 -1.843143260081025
0.16866624511016828 -1.4990116795187265
0.15586193889346242 -1.1480458375069629
0.14797529582920266 -0.7931427258327595
0.14460762851571968 -0.4382884548250877
0.1439141463863909 -0.08660470765098
1.7901540459313108 -0.08658501583601029
1.7897833390393367 -0.43816081735767515
1.7867043738830033 -0.7925577260975617
1.7782902365300002 -1.146881484204778
1.7641512384916167 -1.497293662560169
1.7447769041297096 -1.8409225104934015
1.7206323694213161 -2.1756458916683292
1.691972278456529 -2.4996659072779686
1.6588951646906784 -2.8112686540203455
1.6214248182829791 -3.1087362443445157
1.5795593947400088 -3.3903302998815947
1.533292096701897 -3.6542961388450994
1.482618641881917 -3.8988680463214873
1.4275427633814926 -4.122271291076293
1.3680898204110137 -4.322728027350181
1.3043299853767205 -4.498469086068856
1.2364368088395843 -4.647824665277357
1.1647344731742881 -4.769278837050173
1.0896607942685175 -4.862502835700048
1.013680213634742 -4.926664473051417
0.9231726720315042 -5.0
0.832665130428266 -4.926664473051403
0.7566845497944913 -4.862502835700018
0.6816108708887229 -4.769278837050128
0.6099085352234309 -4.647824665277298
0.5420153586862995 -4.498469086068785
0.4782555236520107 -4.322728027350101
0.4188025806815367 -4.122271291076205
0.36372670218111736 -3.898868046321396
0.31305324736114293 -3.654296138845005
0.2667859493230368 -3.3903302998815015
0.22492052578007124 -3.1087362443444237
0.1874501793723764 -2.8112686540202567
0.15437306560653014 -2.499665907277884
0.1257129746417473 -2.1756458916682506
0.10156843993335801 -1.8409225104933349
0.08219410557145368 -1.4972936625601119
0.06805510753307255 -1.1468814842047337
0.05964097018007032 -0.7925577260975283
0.056562005023737226 -0.4381608173576533
0.05619129813176301 -0.08658501583600103
SCALARS Stress float 6
LOOKUP_TABLE default
-1021.9920516938616 -32516.419217191004 -10061.523380665458 -755.4765634831028 0.0 0.0
15401.097015894806 9101.094166059205 7350.6573545862 -1173.506518987001 0.0 0.0
8756.788314313559 -776.664319373815 2394.037198481923 -501.8954913160575 0.0 0.0
8960.36723015794 682.146889766023 2892.754235977189 -74.75071136909793 0.0 0.0
10287.575859967326 248.20689732999193 3160.734827189195 -172.27894314077372 0.0 0.0
12382.389114923611 350.7138560082853 3819.93089127957 -177.52688018638906 0.0 0.0
14695.136112385844 382.1457977530861 4523.18457304168 -188.24568941662255 0.0 0.0
17115.814221475484 445.08780053799035 5268.270606604043 -192.32437949529728 0.0 0.0
19564.739600308498 507.00870033099557 6021.524490191846 -193.77473724450778 0.0 0.0
22019.12893297397 570.968300604091 6777.029170073416 -194.15221397506488 0.0 0.0
24470.76904503913 634.7382040365857 7531.6521747227125 -194.1521902796053 0.0 0.0
26919.388018620328 698.4726431812494 8285.358198540476 -194.19518760792593 0.0 0.0
29368.22461960202 762.4290597363429 9039.196103801512 -194.57341295358017 0.0 0.0
31826.13367312352 827.5049447081416 9796.091585349495 -195.68762770939333 0.0 0.0
34312.566710828854 895.2404391459002 10562.342144992423 -197.96887590077813 0.0 0.0
36860.39336828895 967.2273049290887 11348.286201965411 -201.20401295753746 0.0 0.0
39501.510961873006 1042.6123931244385 12163.237006499232 -202.6689773376608 0.0 0.0
42209.24598531626 1113.4340128535634 12996.803999450942 -194.26821226476397 0.0 0.0
44783.55743245304 1162.0598972256994 13783.685198903628 -162.03547075490053 0.0 0.0
46752.291524122185 1173.9107464077124 14377.86068115896 -94.78951690886356 0.0 0.0
47506.42989465194 1167.2327109990279 14602.098781695291 4.695266397902742e-11 0.0 0.0
46752.29152412109 1173.9107464055728 14377.860681157996 94.78951690888812 0.0 0.0
44783.55743245136 1162.0598972240873 13783.685198902638 162.03547075478696 0.0 0.0
42209.24598531535 1113.4340128558517 12996.803999451366 194.26821226488568 0.0 0.0
39501.510961870146 1042.612393122931 12163.237006497926 202.66897733760146 0.0 0.0
36860.393368286415 967.2273049284236 11348.286201964458 201.20401295779004 0.0 0.0
34312.566710826 895.2404391434982 10562.342144990853 197.96887590112436 0.0 0.0
31826.133673120803 827.5049447067324 9796.091585348264 195.68762770902185 0.0 0.0
29368.224619598157 762.4290597333325 9039.196103799452 194.57341295357378 0.0 0.0
26919.388018618123 698.4726431827752 8285.358198540269 194.1951876077315 0.0 0.0
24470.7690450361 634.7382040361915 7531.652174721687 194.15219027979322 0.0 0.0
22019.128932970976 570.968300602327 6777.029170071988 194.15221397523607 0.0 0.0
19564.73960030607 507.00870032962905 6021.524490190712 193.77473724427 0.0 0.0
17115.814221473425 445.0878005372276 5268.270606603198 192.32437949538482 0.0 0.0
14695.136112383456 382.14579775122 4523.184573040403 188.24568941654562 0.0 0.0
12382.389114922249 350.71385600876056 3819.9308912793012 177.52688018627163 0.0 0.0
10287.575859966595 248.20689733065507 3160.734827189175 172.27894314106268 0.0 0.0
8960.367230157204 682.1468897650102 2892.7542359766644 74.75071136896113 0.0 0.0
8756.78831431372 -776.6643193733274 2394.037198482118 501.895491315858 0.0 0.0
15401.097015896028 9101.094166058114 7350.657354586242 1173.5065189872948 0.0 0.0
-1021.9920516877196 -32516.41921718444 -10061.52338066165 755.4765634793827 0.0 0.0
-5803.0012880430295 -32303.456564173415 -11431.937355664935 -516.2711984639836 0.0 0.0
9472.198392971226 6226.801307045375 4709.699910004982 -935.6543448213876 0.0 0.0
6157.240271422311 -873.835128044446 1585.0215430133594 -350.805798909695 0.0 0.0
7992.076419718756 308.96236537364206 2490.31163552772 -290.3628985005647 0.0 0.0
9146.256103173951 38.359106237942655 2755.384562823568 -418.6432324315011 0.0 0.0
11046.142969683116 30.531798210009626 3323.0024303679384 -474.24285331895675 0.0 0.0
13096.490215180955 10.209530492108398 3932.009923701918 -499.17080586180225 0.0 0.0
15242.020940041602 3.12044299688277 4573.542414911545 -509.3755341379097 0.0 0.0
17416.324355881763 0.3261859119354664 5224.99516253811 -512.1771077784042 0.0 0.0
19598.06483689302 -0.4163946775619074 5879.2945326646395 -512.4639247217438 0.0 0.0
21779.271652139905 -0.4214401177984328 6533.655063606634 -512.0732438632834 0.0 0.0
23958.97216034755 -0.06459888157043103 7187.672268439795 -511.88124635060296 0.0 0.0
26139.84986741727 0.8981325795699497 7842.2243999990515 -512.5911067340753 0.0 0.0
28329.322526896613 3.1797825760083107 8499.750692841788 -515.4455397508661 0.0 0.0
30542.492488764623 7.471854152074318 9164.98930287501 -522.3939342242404 0.0 0.0
32801.929941955554 12.683404018891835 9844.384003792338 -534.7023618337889 0.0 0.0
35121.88720585873 12.132128668147512 10540.205800358064 -547.8578339163852 0.0 0.0
37458.38200569674 -10.44229707446199 11234.38191258668 -541.6326982690493 0.0 0.0
39622.96748889789 -75.74699268041 11864.166148865248 -472.1449868639927 0.0 0.0
41230.319488393434 -177.52241836228916 12315.839121009343 -289.3353504873476 0.0 0.0
41831.76535967145 -238.91406532274132 12477.855388304617 -1.0800249583553523e-10 0.0 0.0
41230.31948839322 -177.5224183623445 12315.839121009267 289.33535048754334 0.0 0.0
39622.967488896335 -75.74699268211654 11864.166148864264 472.144986864001 0.0 0.0
37458.38200569631 -10.44229707199193 11234.381912587294 541.6326982693296 0.0 0.0
35121.88720585676 12.132128667635286 10540.205800357315 547.857833916169 0.0 0.0
32801.929941953684 12.683404018849942 9844.38400379176 534.7023618338392 0.0 0.0
30542.492488762862 7.471854151987628 9164.989302874455 522.3939342244578 0.0 0.0
28329.32252689389 3.1797825743234114 8499.750692840464 515.4455397508897 0.0 0.0
26139.849867414465 0.8981325783859262 7842.2243999978555 512.5911067342824 0.0 0.0
23958.972160345565 -0.06459888033052152 7187.672268439571 511.8812463506795 0.0 0.0
21779.271652137326 -0.4214401181474585 6533.6550636057555 512.0732438635418 0.0 0.0
19598.064836890662 -0.4163946783394863 5879.294532663698 512.4639247215171 0.0 0.0
17416.324355879948 0.3261859113982979 5224.995162537404 512.1771077783325 0.0 0.0
15242.02094003977 3.120442995972084 4573.542414910726 509.37553413799486 0.0 0.0
13096.49021517887 10.209530490775855 3932.0099237008944 499.17080586188615 0.0 0.0
11046.142969682165 30.531798210643263 3323.0024303678433 474.24285331897465 0.0 0.0
9146.2561031734 38.35910623871218 2755.384562823634 418.6432324314399 0.0 0.0
7992.0764197180015 308.9623653729414 2490.3116355272823 290.36289850038804 0.0 0.0
6157.240271422863 -873.8351280441174 1585.0215430136227 350.8057989095347 0.0 0.0
9472.198392971666 6226.80130704439 4709.699910004817 935.6543448212219 0.0 0.0
-5803.001288040152 -32303.45656416844 -11431.93735566258 516.2711984613779 0.0 0.0
-6349.656566666513 -28273.838827227337 -10387.048618168155 -2377.661605542214 0.0 0.0
5990.413578745369 3753.91372125559 2923.298190000288 -1691.9620048486845 0.0 0.0
4566.411953923511 156.5701985839281 1416.8946457522316 -237.88065976353482 0.0 0.0
6668.457183130806 50.60507327781335 2015.7186769225864 -669.8212533130051 0.0 0.0
8138.012286165248 119.33185616339 2477.2032426985916 -833.57739122629 0.0 0.0
9804.899565776524 29.6912569341194 2950.377246813194 -955.3573340510429 0.0 0.0
11651.766908020158 16.217299898458823 3500.3952623755854 -1002.9549910620212 0.0 0.0
13553.978739925104 4.022668197515746 4067.400422436786 -1022.1904656522806 0.0 0.0
15484.619670830172 0.4732820567567799 4645.52788586608 -1027.358336669791 0.0 0.0
17422.05232472261 -0.6023622609663253 5226.434988738492 -1027.6572534409322 0.0 0.0
19360.24276594428 -0.5988732781911601 5807.893167799825 -1026.7738530354443 0.0 0.0
21297.881180606397 -0.10734897910645813 6389.3321494881875 -1026.2973285663202 0.0 0.0
23236.971845928107 1.220833752269062 6971.457803904112 -1027.5659016111758 0.0 0.0
25183.120851062038 4.4169952733860285 7556.261353900627 -1033.044926521105 0.0 0.0
27147.229407564173 10.581216966007002 8147.343187359055 -1046.8152723350963 0.0 0.0
29144.19038346697 18.40998004993932 8748.780109055075 -1072.0755752798705 0.0 0.0
31178.82392890063 18.45760839174457 9359.18446118771 -1101.1596468005216 0.0 0.0
33204.75053111992 -13.64466878918737 9957.331758699216 -1094.8571502691507 0.0 0.0
35055.8525869314 -111.83488133024541 10483.205311680349 -963.1288870980139 0.0 0.0
36409.10453136492 -273.1445150808253 10840.788004885228 -596.1428587161461 0.0 0.0
36906.07274235432 -376.5206521465416 10958.865627062332 1.205648914037738e-10 0.0 0.0
36409.10453136506 -273.1445150796866 10840.788004885608 596.14285871643 0.0 0.0
35055.8525869291 -111.83488133359324 10483.205311678652 963.1288870980377 0.0 0.0
33204.75053111881 -13.64466878871383 9957.33175869903 1094.8571502695647 0.0 0.0
31178.823928899186 18.457608391702237 9359.184461187266 1101.15964680055 0.0 0.0
29144.190383465724 18.409980050758506 8748.78010905495 1072.0755752799391 0.0 0.0
27147.229407563285 10.58121696770803 8147.343187359301 1046.815272335059 0.0 0.0
25183.12085106029 4.416995273396026 7556.261353900105 1033.0449265211848 0.0 0.0
23236.971845926375 1.2208337529093995 6971.457803903786 1027.5659016112954 0.0 0.0
21297.881180604483 -0.10734897897599183 6389.332149487653 1026.29732856639 0.0 0.0
19360.24276594201 -0.5988732789248559 5807.893167798929 1026.773853035365 0.0 0.0
17422.052324720436 -0.6023622617469329 5226.434988737606 1027.6572534407485 0.0 0.0
15484.619670828926 0.473282057492483 4645.527885865927 1027.3583366697885 0.0 0.0
13553.978739923736 4.022668197267791 4067.4004224363016 1022.190465652305 0.0 0.0
11651.766908018732 16.217299897874796 3500.395262374983 1002.9549910620117 0.0 0.0
9804.899565775317 29.691256933797632 2950.377246812734 955.3573340509494 0.0 0.0
8138.012286164663 119.3318561636543 2477.2032426984943 833.5773912260074 0.0 0.0
6668.457183130532 50.60507327758282 2015.7186769224347 669.8212533125384 0.0 0.0
4566.411953923995 156.5701985840675 1416.8946457524191 237.88065976326035 0.0 0.0
5990.413578745811 3753.9137212556047 2923.2981900004243 1691.9620048478914 0.0 0.0
-6349.656566664684 -28273.838827223302 -10387.048618166395 2377.6616055408745 0.0 0.0
-5835.110807411677 -24305.416668380105 -9042.158242737534 -2968.231534760837 0.0 0.0
3739.668345018611 1527.7367867744513 1580.2215395379187 -2317.092532957997 0.0 0.0
3338.1264776156104 723.0505037408558 1218.3530944069403 -705.0234649723523 0.0 0.0
5395.416368103053 103.62604951342746 1649.7127252849439 -968.2921219648623 0.0 0.0
7036.052624116696 128.40450967882236 2149.3371401386553 -1240.0241191313312 0.0 0.0
8564.619206222693 56.689422895890544 2586.392588735575 -1379.1422857863477 0.0 0.0
10193.872167514617 20.19894911052338 3064.2213349875415 -1448.4765666016779 0.0 0.0
11864.047499898501 6.5448406408166075 3561.1777021617945 -1473.9077682908483 0.0 0.0
13551.842543618734 0.4773780324667687 4065.6959764953604 -1481.42751028161 0.0 0.0
15246.065233832102 -0.8925102364287625 4573.551817078703 -1481.9733920914489 0.0 0.0
16941.300870474788 -0.9066822525141554 5082.118256466682 -1480.8741042150602 0.0 0.0
18636.641548115083 -0.1868178914012546 5590.936419067105 -1480.2949765990027 0.0 0.0
20333.246512601752 1.7397616460669738 6100.4958822743465 -1482.0830736924263 0.0 0.0
22034.686775027156 6.4429729356993946 6612.338924388858 -1489.549703794438 0.0 0.0
23747.7365276614 15.714866727192767 7129.035418316576 -1508.1279374575442 0.0 0.0
25481.234200952065 27.959917714443925 7652.758235599951 -1542.0044334627803 0.0 0.0
27235.69250949724 29.223119346835016 8179.474688653226 -1580.4354783676565 0.0 0.0
28971.396742347126 -18.50190668515006 8685.868450698592 -1568.6996886988134 0.0 0.0
30550.152246131096 -171.61443815003418 9113.561342394318 -1379.5927122945993 0.0 0.0
31696.606826231753 -431.5592097611868 9379.51428494117 -854.8853131809503 0.0 0.0
32109.429358692323 -602.3781329997295 9452.11536770778 1.744524524838198e-10 0.0 0.0
31696.606826231626 -431.55920976047946 9379.514284941342 854.8853131812798 0.0 0.0
30550.15224612989 -171.61443815081438 9113.561342393721 1379.5927122950673 0.0 0.0
28971.39674234626 -18.501906684491914 8685.868450698528 1568.699688699439 0.0 0.0
27235.692509495937 29.22311934645893 8179.474688652717 1580.4354783678682 0.0 0.0
25481.234200950574 27.959917714165627 7652.758235599422 1542.0044334629738 0.0 0.0
23747.73652765977 15.714866726708081 7129.0354183159425 1508.127937457742 0.0 0.0
22034.686775026916 6.442972938766147 6612.338924389705 1489.5497037945952 0.0 0.0
20333.246512600635 1.739761647716719 6100.495882274507 1482.0830736925366 0.0 0.0
18636.6415481132 -0.1868178918262089 5590.936419066412 1480.2949765991373 0.0 0.0
16941.30087047246 -0.906682254261213 5082.118256465459 1480.8741042147756 0.0 0.0
15246.065233830217 -0.8925102372142675 4573.551817077901 1481.9733920913307 0.0 0.0
13551.842543617802 0.47737803362586817 4065.695976495429 1481.4275102815673 0.0 0.0
11864.047499897844 6.544840642122971 3561.1777021619923 1473.9077682909901 0.0 0.0
10193.872167513186 20.19894910968367 3064.2213349868607 1448.4765666016876 0.0 0.0
8564.619206221552 56.689422894970946 2586.392588734957 1379.1422857862103 0.0 0.0
7036.052624116224 128.40450967892613 2149.3371401385452 1240.0241191310295 0.0 0.0
5395.416368102566 103.62604951257408 1649.7127252845426 968.2921219645049 0.0 0.0
3338.126477616127 723.0505037410991 1218.3530944071674 705.0234649717706 0.0 0.0
3739.668345018954 1527.7367867748812 1580.2215395381502 2317.0925329572283 0.0 0.0
-5835.110807410538 -24305.41666837696 -9042.15824273625 2968.231534759902 0.0 0.0
-5000.808855360897 -20691.281119289382 -7707.626992395082 -3035.973772332029 0.0 0.0
2272.31512092995 -188.16885039424002 625.2438811607127 -2739.9190637129227 0.0 0.0
2380.6124434909316 902.133112559811 984.8236668152226 -1335.9023626301123 0.0 0.0
4236.247748012916 253.66937494517038 1346.9751368874263 -1321.3105816546442 0.0 0.0
5897.985805536945 151.66878978760684 1814.8963785973656 -1602.6953215513618 0.0 0.0
7312.028206137803 80.33601966998144 2217.709267742335 -1757.6067753578336 0.0 0.0
8731.30310833483 29.253985484318036 2628.1671281457457 -1834.9637379069484 0.0 0.0
10170.813818857316 8.728281505367338 3053.862630108805 -1865.5934524008305 0.0 0.0
11618.40388693213 0.8094263443159484 3485.7639939829337 -1874.5342569606864 0.0 0.0
13069.845254483524 -1.2980380805492544 3920.5641649208933 -1875.4870658667774 0.0 0.0
14522.348665475834 -1.2678231261308746 4356.32425270491 -1874.354765367726 0.0 0.0
15975.201251430452 -0.2732746509810866 4792.478393033842 -1873.7952126982518 0.0 0.0
17428.82677489982 2.4187887732408804 5229.373669101918 -1875.954587404695 0.0 0.0
18884.667008437693 9.011535354944883 5668.10356313779 -1884.5970351833764 0.0 0.0
20345.620717294285 22.151962299163444 6110.331803878034 -1905.8314285945225 0.0 0.0
21815.91487145771 39.89605040899949 6556.7432765600115 -1944.3337434972307 0.0 0.0
23295.77315458297 42.573029811102074 7001.503855318221 -1987.4061195946217 0.0 0.0
24758.81549573661 -25.621778651821685 7419.958115125435 -1969.5587474547558 0.0 0.0
26098.183596292318 -251.09786680062078 7754.125718847508 -1734.3670932122052 0.0 0.0
27073.949368160294 -642.4225307317878 7929.458051228551 -1078.9595101610448 0.0 0.0
27416.482928260506 -905.1725658797352 7953.393108714233 1.2801137927453965e-10 0.0 0.0
27073.94936816066 -642.4225307300911 7929.458051229173 1078.9595101612692 0.0 0.0
26098.183596291645 -251.09786680070428 7754.1257188472855 1734.3670932125226 0.0 0.0
24758.815495735696 -25.621778651902133 7419.958115125138 1969.5587474553117 0.0 0.0
23295.773154581977 42.5730298109013 7001.503855317864 1987.4061195948627 0.0 0.0
21815.914871455057 39.896050405337895 6556.743276558116 1944.333743497288 0.0 0.0
20345.6207172931 22.1519622992965 6110.331803877719 1905.8314285947408 0.0 0.0
18884.667008437278 9.011535357077307 5668.1035631383065 1884.597035183518 0.0 0.0
17428.826774898844 2.418788774659461 5229.37366910205 1875.9545874048654 0.0 0.0
15975.201251428676 -0.27327465169948084 4792.478393033094 1873.7952126982668 0.0 0.0
14522.348665474216 -1.267823127130569 4356.324252704126 1874.3547653675587 0.0 0.0
13069.845254482318 -1.298038080524364 3920.564164920539 1875.4870658666107 0.0 0.0
11618.403886930786 0.8094263443018548 3485.7639939825262 1874.5342569605723 0.0 0.0
10170.813818856337 8.728281505480197 3053.862630108544 1865.5934524008626 0.0 0.0
8731.30310833362 29.25398548323588 2628.1671281450576 1834.963737906987 0.0 0.0
7312.028206136808 80.33601966919011 2217.7092677418 1757.6067753578093 0.0 0.0
5897.985805536605 151.6687897878681 1814.8963785973417 1602.6953215509288 0.0 0.0
4236.247748012648 253.6693749446739 1346.9751368871964 1321.3105816543673 0.0 0.0
2380.61244349136 902.1331125601652 984.8236668154577 1335.9023626294777 0.0 0.0
2272.315120930066 -188.16885039387603 625.2438811608567 2739.919063712204 0.0 0.0
-5000.808855360285 -20691.281119287 -7707.626992394184 3035.973772331328 0.0 0.0
-4142.673557894714 -17506.947801097784 -6494.88640769775 -2896.4306450960257 0.0 0.0
1305.5336652221704 -1391.2120786636365 -25.70352403243973 -2989.810561699383 0.0 0.0
1621.889755871752 838.0393622246718 737.9787354289272 -1946.2660624611076 0.0 0.0
3200.80957273583 394.4880091929688 1078.5892745786398 -1715.9458229898225 0.0 0.0
4763.814877742571 196.33270356728823 1488.0442743929577 -1931.9669417879832 0.0 0.0
6049.929556445982 101.67108920751649 1845.4801936960507 -2087.0958463493716 0.0 0.0
7265.811149113712 39.80516650775617 2191.6848946864416 -2164.9322954739455 0.0 0.0
8475.416890756074 11.447430922559006 2546.05929650359 -2197.2489900977553 0.0 0.0
9684.114680146238 1.1387168615501544 2905.5760191023364 -2206.9987306415637 0.0 0.0
10893.367604238416 -1.669751771076168 3267.5093557402024 -2208.2329653191296 0.0 0.0
12103.268657292418 -1.656153761132586 3630.483751059385 -2207.216096197219 0.0 0.0
13313.549309067463 -0.34275304532943096 3993.9619668066416 -2206.737212670033 0.0 0.0
14523.904163730978 3.1905185813250654 4358.128404693693 -2209.0521226575524 0.0 0.0
15733.740017633292 11.832590361229911 4723.671782398356 -2217.980653680286 0.0 0.0
16942.41045281359 29.144674249362836 5091.466538118887 -2239.7283983647367 0.0 0.0
18150.64979240885 52.90721948631001 5461.067103568549 -2279.2698115870835 0.0 0.0
19361.200495010362 57.27750069652792 5825.543398712069 -2323.789890100359 0.0 0.0
20565.775788348805 -34.04421765518153 6159.519471208087 -2302.6694385166566 0.0 0.0
21691.635402729673 -344.4258423611492 6404.1628681105585 -2037.3657291006432 0.0 0.0
22524.46666350551 -896.7606923927606 6488.311791333825 -1278.3831631888936 0.0 0.0
22805.249569614607 -1278.984160987978 6457.879622587989 2.416982169961557e-10 0.0 0.0
22524.466663505915 -896.7606923910282 6488.311791334467 1278.3831631892156 0.0 0.0
21691.63540272817 -344.4258423633055 6404.162868109459 2037.365729101225 0.0 0.0
20565.775788347328 -34.04421765695389 6159.51947120711 2302.6694385172236 0.0 0.0
19361.200495009994 57.27750069711023 5825.543398712132 2323.789890100814 0.0 0.0
18150.649792407057 52.90721948373561 5461.067103567238 2279.26981158726 0.0 0.0
16942.410452812706 29.144674249932038 5091.466538118792 2239.7283983650827 0.0 0.0
15733.740017633118 11.832590363615921 4723.671782399022 2217.980653680486 0.0 0.0
14523.904163729454 3.190518580278109 4358.1284046929195 2209.052122657919 0.0 0.0
13313.549309066337 -0.3427530455684291 3993.9619668062305 2206.737212670068 0.0 0.0
12103.26865729175 -1.6561537605110033 3630.483751059372 2207.2160961970544 0.0 0.0
10893.367604237554 -1.6697517708834653 3267.509355740001 2208.23296531886 0.0 0.0
9684.11468014525 1.1387168614201642 2905.5760191020013 2206.9987306412404 0.0 0.0
8475.416890754937 11.447430921987504 2546.0592965030783 2197.2489900978676 0.0 0.0
7265.811149112747 39.805166507134814 2191.684894685965 2164.9322954738714 0.0 0.0
6049.929556445157 101.67108920657043 1845.480193695518 2087.0958463491465 0.0 0.0
4763.814877742529 196.33270356777308 1488.0442743930912 1931.9669417875675 0.0 0.0
3200.8095727358927 394.488009193158 1078.589274578715 1715.9458229891732 0.0 0.0
1621.889755872027 838.0393622251067 737.9787354291401 1946.2660624604587 0.0 0.0
1305.5336652223348 -1391.2120786630342 -25.70352403220977 2989.8105616986513 0.0 0.0
-4142.673557894194 -17506.947801095903 -6494.886407697029 2896.4306450955955 0.0 0.0
-3370.210442312896 -14736.041720115363 -5431.875648728477 -2685.418358843207 0.0 0.0
658.4419985031382 -2161.231456936876 -450.8368375301214 -3110.4490564741877 0.0 0.0
1006.8258850745804 650.3064085475303 497.1396880866333 -2461.6139797862756 0.0 0.0
2277.682878277085 487.2016928374958 829.4653713343741 -2111.2089026641925 0.0 0.0
3656.574011867795 248.95048402645244 1171.657348768274 -2231.7443569105694 0.0 0.0
4786.067362955881 123.02399483093572 1472.7274073360454 -2366.6052512186484 0.0 0.0
5798.640298237913 49.81494236528005 1754.536572180958 -2438.677885433233 0.0 0.0
6778.827022280264 14.507264048573505 2038.000285898651 -2469.292990631717 0.0 0.0
7749.054003419733 1.4890732295516464 2325.162922994785 -2478.9180288101775 0.0 0.0
8716.562817184138 -2.0019531464473843 2614.368259211307 -2480.2903480245072 0.0 0.0
9683.996156783318 -2.019724154749632 2904.592929788571 -2479.455859811804 0.0 0.0
10651.687267924117 -0.39250200036118343 3195.388429777127 -2479.0852204786293 0.0 0.0
11618.687944286534 3.9745451300477868 3486.798746824975 -2481.308099993571 0.0 0.0
12582.566839228071 14.60557533455502 3779.1517243687886 -2489.644562334306 0.0 0.0
13539.513908450097 35.96655663206276 4072.6441395246475 -2509.8921667863997 0.0 0.0
14487.477393482417 65.8071454609302 4365.985361683004 -2547.2844649919134 0.0 0.0
15433.263964542875 72.55489732321598 4651.745658559829 -2591.1000328386085 0.0 0.0
16389.89298180384 -41.69866762351349 4904.4582942540965 -2571.9052205174426 0.0 0.0
17321.902359882617 -444.3778689202097 5063.257347288721 -2295.953321313634 0.0 0.0
18033.207962469172 -1186.3774968229934 5054.049139693852 -1461.0997617131875 0.0 0.0
18255.839399321707 -1722.3834438835538 4960.0367866314455 1.5546675058430992e-10 0.0 0.0
18033.207962468696 -1186.3774968236114 5054.049139693526 1461.0997617137064 0.0 0.0
17321.902359881467 -444.37786892190286 5063.257347287869 2295.953321314198 0.0 0.0
16389.89298180358 -41.69866762327899 4904.458294254089 2571.905220518089 0.0 0.0
15433.263964542351 72.55489732307272 4651.745658559627 2591.10003283905 0.0 0.0
14487.47739348177 65.8071454609101 4365.985361682804 2547.284464992008 0.0 0.0
13539.51390844923 35.96655663187356 4072.6441395243314 2509.8921667867908 0.0 0.0
12582.566839228768 14.605575338283131 3779.1517243701155 2489.6445623344275 0.0 0.0
11618.687944284633 3.974545127657464 3486.798746823688 2481.30809999387 0.0 0.0
10651.687267923398 -0.3925020001009045 3195.388429776989 2479.0852204787516 0.0 0.0
9683.996156782889 -2.0197241540453703 2904.5929297886532 2479.4558598114836 0.0 0.0
8716.562817183485 -2.0019531461840785 2614.3682592111895 2480.2903480242803 0.0 0.0
7749.054003419508 1.4890732306500922 2325.1629229950477 2478.918028809887 0.0 0.0
6778.827022279664 14.507264048594102 2038.0002858984772 2469.2929906316567 0.0 0.0
5798.640298237838 49.81494236633772 1754.5365721812525 2438.6778854331183 0.0 0.0
4786.067362955519 123.02399483064521 1472.7274073358492 2366.6052512183874 0.0 0.0
3656.574011868106 248.95048402727926 1171.6573487686155 2231.7443569101474 0.0 0.0
2277.6828782769867 487.2016928370365 829.4653713342069 2111.208902663493 0.0 0.0
1006.8258850747234 650.3064085476025 497.13968808669773 2461.6139797855517 0.0 0.0
658.4419985032933 -2161.231456936193 -450.83683752986997 3110.4490564735775 0.0 0.0
-3370.2104423125625 -14736.04172011388 -5431.875648727933 2685.418358842912 0.0 0.0
-2714.2646862250986 -12329.670318518292 -4513.180501423017 -2460.2338135058862 0.0 0.0
214.5556213586786 -2593.120906744099 -713.5695856156264 -3137.922698627779 0.0 0.0
494.0928079092922 420.02361123375726 274.2349257429148 -2858.514917350387 0.0 0.0
1448.5009315350844 526.8757071934879 592.6129916185716 -2471.122380835864 0.0 0.0
2586.9526679938836 296.0549160564438 864.9022752150983 -2497.1610213833583 0.0 0.0
3528.061552376954 143.70034036769252 1101.528567823394 -2595.8256661448404 0.0 0.0
4331.5616170591065 58.558827515504795 1317.0361333723833 -2655.797971947014 0.0 0.0
5081.739857006301 17.40680415131738 1529.7439983472857 -2681.9157324998732 0.0 0.0
5813.410200386091 1.8723099562039849 1744.5847531026884 -2690.3820901213508 0.0 0.0
6539.384935811629 -2.2828734275509746 1961.1306187152231 -2691.7109215401247 0.0 0.0
7264.484097364108 -2.32809553762187 2178.646800547946 -2691.086912579824 0.0 0.0
7989.631333032016 -0.42322339717250657 2396.7624328904535 -2690.8235399437344 0.0 0.0
8713.3780901556 4.686367559731451 2615.4193373145995 -2692.7135632859145 0.0 0.0
9431.749408321219 17.05146684526257 2834.6402625499436 -2699.6683420266436 0.0 0.0
10138.187990446306 41.9548897181833 3054.042864049347 -2716.635657041502 0.0 0.0
10828.136838148675 77.51755785204378 3271.6963188002173 -2749.057544516046 0.0 0.0
11512.71931999218 87.85451460550036 3480.172150379305 -2790.5320290214686 0.0 0.0
12228.086126940525 -45.86486075308973 3654.6663798562317 -2779.662851380738 0.0 0.0
12980.267072274042 -542.5578065178594 3731.3127797268558 -2515.2197174372977 0.0 0.0
13586.568886377303 -1503.14265653489 3625.027868952725 -1633.7845073717008 0.0 0.0
13749.35455563658 -2238.278605124964 3453.322785153485 7.503331289626658e-11 0.0 0.0
13586.568886376901 -1503.1426565355664 3625.027868952401 1633.784507372185 0.0 0.0
12980.267072272973 -542.5578065195397 3731.3127797260304 2515.2197174379335 0.0 0.0
12228.086126941156 -45.86486075105246 3654.6663798570307 2779.6628513811347 0.0 0.0
11512.719319991327 87.85451460402228 3480.1721503786043 2790.532029021636 0.0 0.0
10828.136838148634 77.51755785327644 3271.696318800573 2749.0575445160785 0.0 0.0
10138.187990446377 41.95488972022662 3054.0428640499817 2716.635657041703 0.0 0.0
9431.749408321826 17.05146684807312 2834.6402625509695 2699.6683420269815 0.0 0.0
8713.378090154229 4.686367557678835 2615.4193373135713 2692.7135632860886 0.0 0.0
7989.631333031572 -0.4232233967846071 2396.7624328904362 2690.8235399436594 0.0 0.0
7264.4840973637265 -2.328095537620584 2178.646800547832 2691.0869125794507 0.0 0.0
6539.384935811312 -2.2828734274554705 1961.1306187151565 2691.710921539758 0.0 0.0
5813.410200385308 1.8723099557484773 1744.5847531023164 2690.3820901211166 0.0 0.0
5081.739857006074 17.406804151944407 1529.7439983474057 2681.9157324998764 0.0 0.0
4331.561617059135 58.55882751631553 1317.0361333726353 2655.7979719469977 0.0 0.0
3528.0615523769757 143.70034036802556 1101.5285678235007 2595.8256661445134 0.0 0.0
2586.952667993935 296.05491605651235 864.9022752151343 2497.161021382707 0.0 0.0
1448.500931535209 526.875707193549 592.6129916186273 2471.1223808352706 0.0 0.0
494.0928079093734 420.0236112336793 274.23492574291595 2858.5149173496543 0.0 0.0
214.55562135889562 -2593.1209067434374 -713.5695856153627 3137.9226986272283 0.0 0.0
-2714.2646862247875 -12329.670318517145 -4513.180501422579 2460.2338135056166 0.0 0.0
-2173.6711445864244 -10233.497908342973 -3722.1507158788195 -2242.7342116000145 0.0 0.0
-101.32583231199263 -2773.0163978886544 -862.3026690601944 -3097.67676709182 0.0 0.0
53.21231697311432 196.23938824723106 74.83551156610359 -3136.1490131887494 0.0 0.0
694.2774091307786 522.7707626741876 365.1144515414899 -2771.064451431411 0.0 0.0
1557.722677701448 329.3492745475505 566.1215856746996 -2719.3146431703603 0.0 0.0
2281.539139058412 161.35118575658416 732.8670974444987 -2773.4341243357367 0.0 0.0
2866.5609942318606 65.60364803691729 879.6493926806331 -2815.7168313836314 0.0 0.0
3384.7333768327417 19.756491496497027 1021.3469604987714 -2835.0441599538144 0.0 0.0
3877.3647053983223 2.2315709109672923 1163.878882892787 -2841.4502882510305 0.0 0.0
4361.821083674035 -2.4929497227765793 1307.7984401853778 -2842.534264597558 0.0 0.0
4844.69792100101 -2.5628582162719127 1452.640518835421 -2842.1280813556505 0.0 0.0
5327.403145870465 -0.43986593302769705 1598.0889839812316 -2841.9571856143148 0.0 0.0
5808.145909103578 5.249710644533096 1744.018685924433 -2843.30960638634 0.0 0.0
6281.792183605784 18.93825002952947 1890.2191300905943 -2848.2458611721104 0.0 0.0
6739.510652947286 46.55205865974211 2035.8188134821085 -2860.480826607308 0.0 0.0
7174.1536560400455 87.05287748255877 2178.3619600567818 -2885.460187636727 0.0 0.0
7600.099582813457 102.61510148787096 2310.8144052903986 -2922.9449934261443 0.0 0.0
8076.974220324251 -43.640995383413966 2409.9999674822516 -2926.802017650799 0.0 0.0
8657.999722930164 -629.415536635902 2408.575255888279 -2698.076405807112 0.0 0.0
9172.039507011878 -1838.1127107132538 2200.1780388895877 -1802.3665041494585 0.0 0.0
9266.805841338924 -2834.3484476388744 1929.7372181100147 2.4795099307084456e-10 0.0 0.0
9172.039507012323 -1838.112710711908 2200.178038890125 1802.3665041499494 0.0 0.0
8657.99972293042 -629.415536634746 2408.575255888702 2698.076405807961 0.0 0.0
8076.974220324729 -43.64099538211603 2409.999967482784 2926.8020176513983 0.0 0.0
7600.09958281266 102.61510148637157 2310.81440528971 2922.9449934263603 0.0 0.0
7174.153656040213 87.05287748361623 2178.3619600571487 2885.4601876370143 0.0 0.0
6739.510652947976 46.552058662242715 2035.8188134830652 2860.480826607701 0.0 0.0
6281.792183604516 18.93825002763363 1890.2191300896454 2848.2458611724933 0.0 0.0
5808.145909103328 5.249710644932932 1744.0186859244786 2843.3096063864928 0.0 0.0
5327.403145870009 -0.4398659332233805 1598.0889839810357 2841.957185614366 0.0 0.0
4844.697921001108 -2.5628582156116835 1452.6405188356487 2842.128081355495 0.0 0.0
4361.821083673731 -2.4929497233347533 1307.7984401851188 2842.5342645970677 0.0 0.0
3877.3647053977884 2.231570910186413 1163.8788828923928 2841.4502882510114 0.0 0.0
3384.733376833363 19.756491498642873 1021.3469604996014 2835.0441599538144 0.0 0.0
2866.560994231571 65.60364803675876 879.6493926804989 2815.7168313833927 0.0 0.0
2281.539139058329 161.35118575646655 732.8670974444387 2773.4341243353747 0.0 0.0
1557.7226777016858 329.34927454781 566.1215856748486 2719.3146431696264 0.0 0.0
694.2774091311571 522.7707626747103 365.11445154176033 2771.0644514307833 0.0 0.0
53.21231697329924 196.2393882475572 74.83551156625686 3136.1490131880037 0.0 0.0
-101.32583231174607 -2773.0163978879923 -862.3026690599216 3097.676767091268 0.0 0.0
-2173.6711445860133 -10233.497908341948 -3722.150715878388 2242.7342115995307 0.0 0.0
-1735.8328186390165 -8399.132356492246 -3040.489552539379 -2038.6674043936532 0.0 0.0
-337.6584636455607 -2771.728312083158 -932.8160327186159 -3006.2837540388787 0.0 0.0
-337.97844685186163 5.390343954183134 -99.77643086930354 -3302.6379851202846 0.0 0.0
-1.9988388984541885 488.14598763476647 145.84414462089373 -2996.4793482241853 0.0 0.0
567.0532364908496 345.5220887750301 273.77259757976395 -2888.834465811538 0.0 0.0
1049.7825088496352 173.5478440033599 366.9991058558985 -2896.9208890803684 0.0 0.0
1405.3787379625421 70.46242439383549 442.7523487069133 -2917.6591592840787 0.0 0.0
1688.3123363488885 21.319036411811542 512.8894118282101 -2928.4473460223003 0.0 0.0
1941.0582896791548 2.494118832998346 583.0657225536459 -2932.1282640859654 0.0 0.0
2183.8753840822974 -2.6204247428252216 654.376487801842 -2932.794583495322 0.0 0.0
2424.615650847764 -2.7106127340282313 726.571511434121 -2932.601738842724 0.0 0.0
2665.0221191714795 -0.44922710776315 799.3718676191149 -2932.508042385607 0.0 0.0
2903.118814683538 5.60427434383768 872.6169267082125 -2933.1767198868 0.0 0.0
3133.0687232739024 20.0998336132335 945.9505670661408 -2935.6572832892107 0.0 0.0
3344.347386012343 49.34792652926175 1018.1085937624812 -2942.1247237129583 0.0 0.0
3526.911995256096 93.52680018281784 1086.1316386316742 -2957.5754789136954 0.0 0.0
3696.0235257342483 116.02352255504432 1143.614114486788 -2988.948234433505 0.0 0.0
3933.2636658565843 -32.46658100435073 1170.23912545567 -3012.6278113119647 0.0 0.0
4346.420258327085 -694.226709475154 1095.6580646555794 -2845.1384178098824 0.0 0.0
4778.076013915776 -2180.36013292777 779.3147642964018 -1972.3554322365987 0.0 0.0
4787.894804305788 -3524.058742858199 379.15081843427686 3.824425220955163e-10 0.0 0.0
4778.076013915501 -2180.360132928217 779.3147642961857 1972.3554322370546 0.0 0.0
4346.420258327992 -694.2267094728994 1095.6580646565276 2845.1384178104295 0.0 0.0
3933.263665856777 -32.46658100406309 1170.2391254558138 3012.6278113128124 0.0 0.0
3696.0235257336662 116.02352255338964 1143.6141144861167 2988.948234433904 0.0 0.0
3526.911995256316 93.52680018337455 1086.1316386319074 2957.5754789140647 0.0 0.0
3344.3473860132895 49.34792653180308 1018.1085937635277 2942.124723713263 0.0 0.0
3133.0687232714713 20.09983360799375 945.9505670638392 2935.6572832896723 0.0 0.0
2903.118814684341 5.604274346020524 872.6169267091085 2933.1767198870593 0.0 0.0
2665.0221191707146 -0.4492271094697955 799.3718676183734 2932.508042385783 0.0 0.0
2424.6156508485255 -2.7106127322261244 726.5715114348897 2932.6017388424516 0.0 0.0
2183.8753840825157 -2.6204247426307887 654.3764878019656 2932.7945834950333 0.0 0.0
1941.058289679034 2.494118832638307 583.0657225535018 2932.1282640858644 0.0 0.0
1688.312336349423 21.31903641355961 512.8894118288949 2928.4473460224185 0.0 0.0
1405.378737962889 70.46242439475199 442.7523487072924 2917.6591592837763 0.0 0.0
1049.7825088496968 173.54784400320128 366.99910585586963 2896.9208890800055 0.0 0.0
567.0532364912228 345.5220887755813 273.77259758004135 2888.834465811062 0.0 0.0
-1.998838898183294 488.14598763520104 145.84414462110533 2996.479348223519 0.0 0.0
-337.9784468516911 5.390343954489737 -99.77643086916038 3302.6379851195893 0.0 0.0
-337.65846364522497 -2771.728312082423 -932.8160327182944 3006.283754038473 0.0 0.0
-1735.832818638668 -8399.132356491451 -3040.489552539035 2038.667404393111 0.0 0.0
-1385.7000358942487 -6788.069930125129 -2452.1309898058134 -1846.6785707692816 0.0 0.0
-525.4076135360551 -2644.7382798472804 -951.0437680150012 -2873.9111350077715 0.0 0.0
-695.3297266240745 -140.77740011307603 -250.8321380211451 -3368.66132395594 0.0 0.0
-654.5068851225475 435.5518969455252 -65.68649645310677 -3140.032800008087 0.0 0.0
-389.2572013556302 344.6999600462651 -13.3671723928095 -2997.613627607836 0.0 0.0
-165.9979312321958 178.61598692667084 3.7854167083425025 -2963.0553485734895 0.0 0.0
-50.79618380948628 72.65293739157063 6.557026074625341 -2960.600256586241 0.0 0.0
-7.133161277354617 21.963454696293667 4.449088025681725 -2961.804901061173 0.0 0.0
4.584909343241179 2.609133541306207 2.15821286536422 -2962.3773645919773 0.0 0.0
5.555273910378986 -2.6624827061357763 0.8678373612728905 -2962.520085001574 0.0 0.0
4.22572217253969 -2.762491315767022 0.43896925703177203 -2962.533365614884 0.0 0.0
2.500894368769991 -0.45618346063486825 0.6134132724404822 -2962.5095245051634 0.0 0.0
-1.6293699509707835 5.710500719134501 1.2243392304490754 -2962.4223651964635 0.0 0.0
-14.20535418640867 20.444847202786406 1.8718479049133805 -2962.236439141118 0.0 0.0
-46.69570920720065 50.12139009257679 1.0277042656127833 -2962.394747813767 0.0 0.0
-112.30965353363104 96.20490622839081 -4.831424191572097 -2966.744292014248 0.0 0.0
-198.50015882564946 126.80889597359257 -21.507378855617077 -2989.1103853461996 0.0 0.0
-205.8172760545388 -10.765110150233127 -64.97471586143155 -3034.941891171078 0.0 0.0
36.95827895979153 -725.1636842757925 -206.4616215948003 -2954.352171219489 0.0 0.0
394.12577784585113 -2515.3160249745706 -636.3570741386156 -2148.982805397665 0.0 0.0
289.4781758634051 -4328.3632545833425 -1211.665523615981 1.5438672562595457e-10 0.0 0.0
394.1257778447199 -2515.3160249771695 -636.3570741397349 2148.9828053981196 0.0 0.0
36.958278959134304 -725.1636842776383 -206.46162159555124 2954.352171220451 0.0 0.0
-205.81727605349022 -10.765110148236047 -64.97471586051793 3034.9418911720977 0.0 0.0
-198.50015882557472 126.80889597314358 -21.5073788557294 2989.1103853465356 0.0 0.0
-112.30965353340707 96.20490622853916 -4.8314241914604 2966.7442920144276 0.0 0.0
-46.69570920611534 50.12139009512987 1.0277042667042906 2962.3947478137297 0.0 0.0
-14.20535418600997 20.444847203559526 1.8718479052649144 2962.23643914141 0.0 0.0
-1.6293699508229338 5.7105007191408035 1.2243392304953318 2962.4223651965003 0.0 0.0
2.500894368176432 -0.4561834624878358 0.6134132717066052 2962.509524505331 0.0 0.0
4.225722172862277 -2.7624913157426576 0.4389692571359234 2962.5333656145817 0.0 0.0
5.555273910517116 -2.6624827066717955 0.8678373611536188 2962.520085001297 0.0 0.0
4.584909343568285 2.6091335413749306 2.1582128654829944 2962.377364591801 0.0 0.0
-7.133161276829895 21.96345469738516 4.4490880261665495 2961.8049010612494 0.0 0.0
-50.796183809719 72.65293739078632 6.557026074320184 2960.6002565859408 0.0 0.0
-165.99793123197014 178.6159869265106 3.7854167083621277 2963.0553485730943 0.0 0.0
-389.25720135533027 344.69996004630906 -13.3671723927064 2997.613627607342 0.0 0.0
-654.5068851220645 435.55189694620145 -65.68649645275892 3140.0328000072536 0.0 0.0
-695.3297266240589 -140.77740011321214 -250.83213802118138 3368.6613239553726 0.0 0.0
-525.4076135357814 -2644.738279846596 -951.0437680147132 2873.9111350073654 0.0 0.0
-1385.7000358941643 -6788.069930124689 -2452.1309898056556 1846.6785707690094 0.0 0.0
-1109.4510619198768 -5372.266070000189 -1944.5151395760192 -1662.60270069114 0.0 0.0
-683.9463930486379 -2434.3628781059615 -935.4927813463798 -2706.4266821366095 0.0 0.0
-1029.8703850425086 -239.52347989386453 -380.81815948091185 -3344.6465686616343 0.0 0.0
-1274.509574725426 375.00029926621266 -269.852782637764 -3199.0025522874917 0.0 0.0
-1316.3840361581756 328.9428141131865 -296.23236661349677 -3039.3284119165614 0.0 0.0
-1366.2089615650789 175.88083436511258 -357.0984381599898 -2968.413512849871 0.0 0.0
-1501.4580996878224 71.85550778369333 -428.88077757123864 -2943.3172697047376 0.0 0.0
-1701.3904109438122 21.63944517783245 -503.92528972979426 -2934.7451411925645 0.0 0.0
-1932.0121219234952 2.5585492311445606 -578.8360718077053 -2932.1355454629893 0.0 0.0
-2173.1348319379667 -2.6203555928665594 -652.7265562592502 -2931.733999063183 0.0 0.0
-2416.4757655424273 -2.715030439102634 -725.7572387944592 -2931.9502775800643 0.0 0.0
-2660.157289165704 -0.46103045917491414 -798.1854958874637 -2932.000533480946 0.0 0.0
-2906.0814497420747 5.553295643256156 -870.1584462296457 -2931.167844799213 0.0 0.0
-3159.9889517667557 19.952897251349356 -942.0108163546217 -2928.3372117302765 0.0 0.0
-3433.3364478031162 48.870574249122015 -1015.3397620661983 -2922.1849115327004 0.0 0.0
-3742.3688419936525 94.62726457482917 -1094.322473225647 -2914.6084349766475 0.0 0.0
-4081.784644022652 133.1348826001817 -1184.594928426741 -2924.312741226495 0.0 0.0
-4341.9707944269085 21.223422525923766 -1296.2242115702954 -2990.243328291835 0.0 0.0
-4278.751735537501 -709.6583620619074 -1496.5230292798226 -3020.315060687046 0.0 0.0
-3989.132186361068 -2822.3377351680283 -2043.4409764587292 -2337.0868358494645 0.0 0.0
-4256.536309774377 -5278.274403182641 -2860.4432138871057 2.822844180627726e-10 0.0 0.0
-3989.132186362317 -2822.337735170856 -2043.4409764599518 2337.0868358499733 0.0 0.0
-4278.75173553803 -709.6583620636983 -1496.5230292805188 3020.315060687921 0.0 0.0
-4341.970794425404 21.2234225287378 -1296.2242115689999 2990.2433282925576 0.0 0.0
-4081.784644021505 133.13488260173776 -1184.5949284259298 2924.312741226573 0.0 0.0
-3742.3688419932905 94.62726457476964 -1094.322473225556 2914.608434976777 0.0 0.0
-3433.336447802509 48.87057424997761 -1015.3397620657593 2922.184911532889 0.0 0.0
-3159.988951765438 19.952897253725595 -942.0108163535136 2928.3372117304307 0.0 0.0
-2906.0814497415477 5.553295643513167 -870.1584462294101 2931.167844799327 0.0 0.0
-2660.157289165887 -0.4610304607626432 -798.1854958879951 2932.0005334810467 0.0 0.0
-2416.475765542524 -2.715030440440046 -725.7572387948893 2931.9502775797423 0.0 0.0
-2173.1348319375866 -2.620355593409599 -652.7265562592991 2931.7339990629876 0.0 0.0
-1932.012121922977 2.558549231415288 -578.8360718074686 2932.135545462851 0.0 0.0
-1701.3904109432647 21.639445178649645 -503.9252897293844 2934.745141192386 0.0 0.0
-1501.4580996875547 71.85550778352552 -428.880777571209 2943.3172697044997 0.0 0.0
-1366.2089615647951 175.8808343649592 -357.0984381599508 2968.4135128494254 0.0 0.0
-1316.3840361579296 328.9428141131188 -296.2323666134433 3039.328411916049 0.0 0.0
-1274.5095747249245 375.00029926677985 -269.85278263744334 3199.0025522867327 0.0 0.0
-1029.8703850423126 -239.5234798937832 -380.81815948082885 3344.6465686610504 0.0 0.0
-683.946393048399 -2434.3628781055745 -935.4927813461923 2706.426682136279 0.0 0.0
-1109.4510619196128 -5372.2660699996995 -1944.5151395757932 1662.602700690843 0.0 0.0
-895.7173029778058 -4133.295713861375 -1508.7039050517546 -1481.5487430544572 0.0 0.0
-824.7695345239518 -2172.3158324616293 -899.1256100956745 -2506.993162701265 0.0 0.0
-1348.8535390366637 -293.363956536668 -492.66524867199956 -3239.6752817541237 0.0 0.0
-1870.5746294436108 313.53460024575406 -467.1120087593571 -3173.2777219798813 0.0 0.0
-2219.6692180537 301.16143729888137 -575.5523342264459 -3009.3280592466467 0.0 0.0
-2552.439033003171 165.6057425926419 -716.0499871231588 -2909.765135896677 0.0 0.0
-2946.794712564029 68.03232543361179 -863.6287161391251 -2864.51160651728 0.0 0.0
-3394.4701386521892 20.377910540632527 -1012.227668433467 -2846.8808883346587 0.0 0.0
-3868.7448034044473 2.354718174969854 -1159.9170255688432 -2841.337851151533 0.0 0.0
-4352.194632867935 -2.4958526912210175 -1306.4071456677466 -2840.458269921825 0.0 0.0
-4837.486294125793 -2.57073860963488 -1452.0171098206285 -2840.880008486787 0.0 0.0
-5322.960090328115 -0.4590113402328626 -1597.0257305005052 -2841.0187210748136 0.0 0.0
-5810.274020684777 5.146798759412334 -1741.5381665776094 -2839.534466955072 0.0 0.0
-6304.414602056176 18.66021218467651 -1885.72631696145 -2834.30505726907 0.0 0.0
-6815.694449298844 45.808357513361905 -2030.9658275356444 -2822.370180384441 0.0 0.0
-7362.394445088424 88.81191367567601 -2182.0747594238246 -2803.0988182745295 0.0 0.0
-7951.228431501906 132.70685987753558 -2345.556471487311 -2796.256721397948 0.0 0.0
-8475.083624574407 60.36846526101519 -2524.4145477940174 -2874.2495964828254 0.0 0.0
-8608.685060516229 -635.4100542858046 -2773.2285344406096 -3033.227457305986 0.0 0.0
-8379.220227319194 -3071.0789387482446 -3435.089749820233 -2540.5392560974533 0.0 0.0
-8886.236259230807 -6418.553674228195 -4591.436980037701 2.4277824195451103e-10 0.0 0.0
-8379.220227319425 -3071.078938749044 -3435.089749820542 2540.539256098127 0.0 0.0
-8608.685060516058 -635.4100542862393 -2773.2285344406905 3033.227457306655 0.0 0.0
-8475.083624573104 60.36846526305659 -2524.414547793014 2874.2495964834243 0.0 0.0
-7951.228431500938 132.70685987870385 -2345.5564714866696 2796.2567213980797 0.0 0.0
-7362.394445086963 88.81191367796455 -2182.074759422699 2803.098818274696 0.0 0.0
-6815.694449298726 45.80835751259639 -2030.9658275358383 2822.37018038512 0.0 0.0
-6304.4146020560465 18.660212183541766 -1885.7263169617518 2834.305057269225 0.0 0.0
-5810.274020683508 5.146798760539262 -1741.5381665768903 2839.534466955279 0.0 0.0
-5322.960090327749 -0.45901134100792973 -1597.0257305006267 2841.0187210747313 0.0 0.0
-4837.4862941250585 -2.5707386097944678 -1452.0171098204557 2840.880008486552 0.0 0.0
-4352.194632867005 -2.4958526910621472 -1306.40714566742 2840.458269921508 0.0 0.0
-3868.7448034039035 2.354718174705642 -1159.9170255687588 2841.3378511512533 0.0 0.0
-3394.4701386512083 20.37791054162625 -1012.2276684328746 2846.8808883344423 0.0 0.0
-2946.7947125633495 68.03232543387566 -863.6287161388425 2864.511606517024 0.0 0.0
-2552.439033002145 165.60574259350568 -716.0499871225919 2909.7651358961625 0.0 0.0
-2219.6692180532923 301.161437298658 -575.5523342263905 3009.3280592461365 0.0 0.0
-1870.5746294430326 313.53460024647086 -467.11200875896856 3173.2777219793347 0.0 0.0
-1348.8535390363115 -293.36395653637373 -492.66524867180567 3239.675281753744 0.0 0.0
-824.7695345238255 -2172.31583246149 -899.1256100955947 2506.9931627008077 0.0 0.0
-895.7173029777757 -4133.295713861077 -1508.703905051656 1481.5487430542362 0.0 0.0
-735.6430293470096 -3060.997312371639 -1138.9921025155945 -1298.9739370571442 0.0 0.0
-953.7401790956151 -1882.0294855817353 -850.7308994032052 -2277.2487019654345 0.0 0.0
-1656.4241345713476 -307.78610408194686 -589.2630715959883 -3061.157046925054 0.0 0.0
-2448.8829909958326 255.4264404215679 -658.0369651722797 -3063.903034663945 0.0 0.0
-3104.2179274180344 264.4796640049974 -851.9214790239109 -2904.2628200683193 0.0 0.0
-3727.121204561715 148.8225674729952 -1073.489591126616 -2784.3042409890822 0.0 0.0
-4387.628809089 61.4751468085461 -1297.846098684136 -2722.953582021994 0.0 0.0
-5086.622012958846 18.298588009323502 -1520.497027484857 -2697.8535102948354 0.0 0.0
-5805.681885218047 2.034249182954312 -1741.0942908105283 -2689.9344546821417 0.0 0.0
-6531.625958570266 -2.2911508912307923 -1960.175132838449 -2688.7180379459564 0.0 0.0
-7258.795761424695 -2.3382087514127505 -2178.3401910528332 -2689.3489252455893 0.0 0.0
-7985.92625339335 -0.443327865379203 -2395.9108743776187 -2689.594070942085 0.0 0.0
-8714.292478015848 4.540624920564213 -2612.9255559285857 -2687.6269054644854 0.0 0.0
-9447.762181699654 16.647462498259316 -2829.3344157604174 -2680.459329341458 0.0 0.0
-10194.360750782791 41.28799086200761 -3045.921827976235 -2663.7144738086236 0.0 0.0
-10972.074131918516 79.50381854730966 -3267.771094011362 -2634.287029298718 0.0 0.0
-11803.216088335133 123.3004382430737 -3503.974695027618 -2608.075390405747 0.0 0.0
-12602.17064983107 99.36694393572054 -3750.841111768604 -2683.0593995082104 0.0 0.0
-12960.054279941427 -492.694788740148 -4035.824720604472 -2977.466194656752 0.0 0.0
-12780.779910021787 -3216.0612869463716 -4799.052359090449 -2760.7505716067594 0.0 0.0
-13648.275549568181 -7812.773918958616 -6438.3148405580405 2.531237441871781e-10 0.0 0.0
-12780.77991002164 -3216.0612869463152 -4799.052359090385 2760.7505716073865 0.0 0.0
-12960.054279941089 -492.69478874018955 -4035.8247206043834 2977.4661946577066 0.0 0.0
-12602.17064983025 99.36694393627705 -3750.8411117681917 2683.0593995090708 0.0 0.0
-11803.216088334288 123.30043824292048 -3503.9746950274093 2608.0753904061144 0.0 0.0
-10972.074131917669 79.50381854746857 -3267.771094011061 2634.2870292989833 0.0 0.0
-10194.360750781694 41.28799086326064 -3045.921827975531 2663.714473809092 0.0 0.0
-9447.762181699298 16.647462496917107 -2829.334415760715 2680.4593293417274 0.0 0.0
-8714.292478014835 4.540624920454508 -2612.9255559283147 2687.6269054646373 0.0 0.0
-7985.926253392333 -0.44332786509727384 -2395.91087437723 2689.594070942014 0.0 0.0
-7258.7957614236875 -2.3382087514251317 -2178.340191052535 2689.348925245381 0.0 0.0
-6531.625958569309 -2.2911508914523466 -1960.1751328382288 2688.718037945567 0.0 0.0
-5805.6818852169345 2.0342491837869687 -1741.0942908099444 2689.9344546820503 0.0 0.0
-5086.6220129576905 18.29858801033582 -1520.4970274842067 2697.8535102946507 0.0 0.0
-4387.628809088565 61.47514680762781 -1297.846098684281 2722.9535820216634 0.0 0.0
-3727.1212045607745 148.8225674737034 -1073.4895911261212 2784.304240988535 0.0 0.0
-3104.217927417618 264.4796640048471 -851.9214790238309 2904.262820067866 0.0 0.0
-2448.8829909951696 255.42644042207138 -658.0369651719293 3063.9030346634017 0.0 0.0
-1656.4241345711325 -307.78610408168373 -589.2630715958448 3061.1570469247267 0.0 0.0
-953.7401790956834 -1882.0294855816244 -850.7308994031923 2277.2487019649698 0.0 0.0
-735.6430293469575 -3060.997312371441 -1138.9921025155197 1298.9739370570378 0.0 0.0
-622.3210635371613 -2151.9332341419095 -832.2762893037212 -1111.3789976404464 0.0 0.0
-1072.3029762834997 -1580.5961848635163 -795.8697483441048 -2018.2117374004708 0.0 0.0
-1953.959578450665 -290.0284012081724 -673.1963938976511 -2814.7628591176153 0.0 0.0
-3013.536444060296 202.6319162822043 -843.2713583334279 -2871.9986255033305 0.0 0.0
-3974.7782594849537 221.9666811652671 -1125.8434734959058 -2721.6560681905385 0.0 0.0
-4893.31450254537 127.15613218182426 -1429.8475111090636 -2589.7717847917693 0.0 0.0
-5825.32807613577 52.78971553269534 -1731.7615081809224 -2517.6179921296907 0.0 0.0
-6778.3189841589665 15.609807402059978 -2028.8127530270715 -2487.3827566990485 0.0 0.0
-7742.943037643843 1.6506867321998442 -2322.3877052734924 -2477.906833351819 0.0 0.0
-8711.428703316578 -2.011517125714448 -2614.0320661326878 -2476.54548030401 0.0 0.0
-9680.383200873897 -2.031239601975386 -2904.7243321427613 -2477.38055480191 0.0 0.0
-10649.08239454549 -0.41164980910726 -3194.848213306379 -2477.7452220680884 0.0 0.0
-11618.270733949852 3.8197981406657533 -3484.335280742756 -2475.5119298450363 0.0 0.0
-12590.406122975444 14.059512311984392 -3772.9039831990376 -2467.0803613793173 0.0 0.0
-13570.405943206237 35.63467859081753 -4060.4313793846254 -2446.824885285085 0.0 0.0
-14572.13692660499 68.31366355107869 -4351.146978916173 -2410.0129643459063 0.0 0.0
-15633.341444725716 104.03330784382408 -4658.792441064567 -2364.8177636643823 0.0 0.0
-16715.862845019165 125.56353459421211 -4977.089793127488 -2415.5174866506 0.0 0.0
-17338.56121457099 -279.22236806459665 -5285.335074790676 -2830.004013535155 0.0 0.0
-17193.662661468246 -3188.657868020809 -6114.696158846717 -2993.2089217860444 0.0 0.0
-18610.903544014356 -9549.790206362703 -8448.208125113119 1.3415046851150692e-11 0.0 0.0
-17193.66266146896 -3188.657868023106 -6114.69615884762 2993.208921786512 0.0 0.0
-17338.56121456984 -279.2223680627949 -5285.33507478979 2830.004013535657 0.0 0.0
-16715.862845018866 125.56353459338465 -4977.089793127644 2415.5174866512743 0.0 0.0
-15633.341444724181 104.03330784497047 -4658.792441063764 2364.8177636645264 0.0 0.0
-14572.136926605042 68.31366354910773 -4351.146978916781 2410.0129643459413 0.0 0.0
-13570.405943204321 35.634678593309005 -4060.431379383304 2446.8248852851684 0.0 0.0
-12590.406122974546 14.059512311540097 -3772.9039831989026 2467.08036137946 0.0 0.0
-11618.270733948415 3.81979814123833 -3484.335280742154 2475.511929845102 0.0 0.0
-10649.082394544834 -0.4116498105288464 -3194.8482133066072 2477.745222067898 0.0 0.0
-9680.383200872726 -2.031239602202021 -2904.7243321424785 2477.3805548017062 0.0 0.0
-8711.428703315107 -2.011517124986387 -2614.032066132029 2476.5454803037846 0.0 0.0
-7742.943037642199 1.6506867335880706 -2322.387705272584 2477.9068333517384 0.0 0.0
-6778.318984158154 15.609807401856001 -2028.81275302689 2487.382756698852 0.0 0.0
-5825.328076134513 52.78971553361472 -1731.7615081802694 2517.617992129434 0.0 0.0
-4893.314502544817 127.15613218095416 -1429.847511109159 2589.771784791212 0.0 0.0
-3974.7782594838272 221.96668116618596 -1125.8434734952928 2721.6560681902074 0.0 0.0
-3013.5364440598746 202.63191628228404 -843.271358333277 2871.9986255027875 0.0 0.0
-1953.959578450543 -290.0284012080981 -673.1963938975924 2814.7628591171124 0.0 0.0
-1072.3029762833457 -1580.596184863112 -795.8697483439374 2018.2117374003608 0.0 0.0
-622.3210635371638 -2151.9332341418353 -832.2762893036995 1111.378997640232 0.0 0.0
-549.7343206034853 -1407.6705224601283 -587.2214529190841 -917.02752553042 0.0 0.0
-1177.906810089292 -1280.4395382161424 -737.5039044916302 -1731.0349285399343 0.0 0.0
-2240.1120501777414 -248.64081813033846 -746.6258604924242 -2504.298072043936 0.0 0.0
-3566.851320634644 155.38324494149828 -1023.4404227079433 -2597.891296586313 0.0 0.0
-4835.838287607015 176.65681346263145 -1397.7544422433152 -2459.5396267339606 0.0 0.0
-6054.595019555017 102.67515701309074 -1785.5759587625778 -2324.5282953220844 0.0 0.0
-7261.700860400106 42.83518549994067 -2165.65970247005 -2247.7966715131524 0.0 0.0
-8470.215204057322 12.59437345045879 -2537.286249182059 -2215.315829757309 0.0 0.0
-9680.683978664769 1.2655296029333272 -2903.8255347185504 -2205.2816890475674 0.0 0.0
-10891.594516658553 -1.670179788773936 -3267.9794089341976 -2203.982688863918 0.0 0.0
-12102.213627816018 -1.6678596836337078 -3631.164446249896 -2204.992508222426 0.0 0.0
-13312.451703620563 -0.3686551498880277 -3993.846107631134 -2205.4792082834892 0.0 0.0
-14522.400202073204 3.075219114914418 -4355.797494887489 -2203.201615083631 0.0 0.0
-15732.761806831344 11.188071997646475 -4716.472120450109 -2194.3641854615407 0.0 0.0
-16945.226718434853 28.95660910034779 -5074.881032800351 -2172.237080946904 0.0 0.0
-18165.018748298422 57.34086241074061 -5432.303365766306 -2131.322329691205 0.0 0.0
-19437.338025857236 77.73389242436936 -5807.881240029861 -2073.1321066931655 0.0 0.0
-20802.26952989638 120.99065467668315 -6204.383662565908 -2077.607957816317 0.0 0.0
-21746.886943007037 -9.932659939555464 -6527.0458808839785 -2559.7529095933296 0.0 0.0
-21609.688967932307 -2885.685340780763 -7348.6122926139205 -3219.618964065366 0.0 0.0
-23872.974198143766 -11750.748853244013 -10687.116915416334 3.979039320256561e-11 0.0 0.0
-21609.688967932103 -2885.6853407811536 -7348.612292613978 3219.6189640658745 0.0 0.0
-21746.88694300688 -9.932659940599024 -6527.045880884243 2559.752909593828 0.0 0.0
-20802.269529895533 120.99065467639639 -6204.383662565742 2077.6079578170793 0.0 0.0
-19437.338025855704 77.73389242515404 -5807.8812400291645 2073.1321066934083 0.0 0.0
-18165.018748297767 57.34086240967257 -5432.303365766429 2131.3223296911906 0.0 0.0
-16945.226718434453 28.956609098323867 -5074.881032800839 2172.2370809470863 0.0 0.0
-15732.761806829249 11.188071998892418 -4716.472120449106 2194.3641854618645 0.0 0.0
-14522.400202071189 3.075219116101934 -4355.797494886526 2203.201615083764 0.0 0.0
-13312.451703619698 -0.36865515150348216 -3993.846107631361 2205.4792082834038 0.0 0.0
-12102.213627814617 -1.6678596839251902 -3631.1644462495624 2204.992508222455 0.0 0.0
-10891.594516656947 -1.6701797884226224 -3267.9794089336106 2203.9826888636862 0.0 0.0
-9680.68397866297 1.265529603970812 -2903.8255347177 2205.281689047605 0.0 0.0
-8470.215204056622 12.594373449380168 -2537.286249182173 2215.315829757208 0.0 0.0
-7261.700860398961 42.835185500202556 -2165.659702469628 2247.79667151307 0.0 0.0
-6054.595019554237 102.67515701260218 -1785.5759587624914 2324.5282953216943 0.0 0.0
-4835.8382876059095 176.65681346340767 -1397.7544422427507 2459.5396267335677 0.0 0.0
-3566.851320634301 155.38324494125524 -1023.4404227079141 2597.891296585752 0.0 0.0
-2240.1120501773103 -248.64081813017006 -746.6258604922442 2504.298072043585 0.0 0.0
-1177.9068100889274 -1280.4395382156354 -737.503904491369 1731.0349285398902 0.0 0.0
-549.7343206035769 -1407.6705224601517 -587.2214529191186 917.0275255302352 0.0 0.0
-511.02659413948356 -832.6311238131362 -403.097315385786 -717.0638338605957 0.0 0.0
-1263.7407610261002 -991.0141317958022 -676.426467846571 -1417.6987443946134 0.0 0.0
-2510.557398404841 -193.62501980094328 -811.2547254617352 -2131.2271242691177 0.0 0.0
-4109.680893048363 112.9607750179693 -1199.0160354091179 -2240.3453922661392 0.0 0.0
-5691.919131248319 131.77791391639647 -1668.0423651995764 -2116.241474040697 0.0 0.0
-7215.0302962793885 77.75593429612486 -2141.182308594979 -1987.6180224062116 0.0 0.0
-8698.880837690107 32.637722896801414 -2599.8729344379917 -1913.1844195289123 0.0 0.0
-10163.084017390682 9.581480912530125 -3046.050760943446 -1881.6699987384056 0.0 0.0
-11619.073272406062 0.935775712512779 -3485.4412490080663 -1872.1408837215558 0.0 0.0
-13072.096716001026 -1.2920436927804246 -3922.016627908142 -1871.0828712542457 0.0 0.0
-14524.238948232036 -1.276706768605763 -4357.654696500193 -1872.1946608032133 0.0 0.0
-15976.033596135992 -0.30672992756086614 -4792.9020978190665 -1872.7835492922743 0.0 0.0
-17426.927657543885 2.328711542291032 -5227.379683800479 -1870.6744111434248 0.0 0.0
-18875.31956591183 8.547951711078255 -5660.031484260224 -1862.2912626954453 0.0 0.0
-20320.100046760683 21.312465912259526 -6089.636274254528 -1840.606408619709 0.0 0.0
-21755.47759534431 47.53806230140009 -6512.381859912874 -1798.2583731679235 0.0 0.0
-23213.513771448335 54.18663477352929 -6947.798141002442 -1738.643066384723 0.0 0.0
-24838.07143661868 67.01346020002838 -7431.317392925596 -1689.4219430842397 0.0 0.0
-26181.59051287266 263.68650812427217 -7775.371201424521 -2131.836529840442 0.0 0.0
-26007.305392486443 -2154.7205488621253 -8448.607782404568 -3389.6277774421624 0.0 0.0
-29581.4176014533 -14572.691021231609 -13246.232586805474 3.0308910936582834e-10 0.0 0.0
-26007.305392486207 -2154.720548862281 -8448.607782404544 3389.6277774423747 0.0 0.0
-26181.59051287251 263.68650812322176 -7775.371201424786 2131.836529840897 0.0 0.0
-24838.071436617814 67.01346019948457 -7431.317392925501 1689.4219430846344 0.0 0.0
-23213.51377144701 54.18663477358638 -6947.798141002024 1738.6430663847875 0.0 0.0
-21755.477595342625 47.5380623023888 -6512.381859912074 1798.258373167885 0.0 0.0
-20320.10004676048 21.312465909388095 -6089.636274255328 1840.6064086199021 0.0 0.0
-18875.319565910188 8.54795171084703 -5660.031484259803 1862.2912626954642 0.0 0.0
-17426.927657541582 2.328711543567543 -5227.379683799406 1870.6744111434382 0.0 0.0
-15976.033596134033 -0.3067299271872628 -4792.902097818366 1872.7835492923318 0.0 0.0
-14524.238948230615 -1.276706769386422 -4357.6546965 1872.1946608028632 0.0 0.0
-13072.096715999329 -1.2920436924795133 -3922.0166279075434 1871.0828712542389 0.0 0.0
-11619.07327240462 0.9357757124810635 -3485.441249007641 1872.1408837214801 0.0 0.0
-10163.084017388854 9.581480913368063 -3046.050760942647 1881.6699987381994 0.0 0.0
-8698.88083768887 32.63772289650264 -2599.8729344377102 1913.1844195288586 0.0 0.0
-7215.030296278228 77.75593429608243 -2141.182308594644 1987.618022405998 0.0 0.0
-5691.919131247274 131.77791391661756 -1668.0423651991973 2116.241474040226 0.0 0.0
-4109.680893047532 112.96077501831445 -1199.0160354087652 2240.345392265747 0.0 0.0
-2510.557398404458 -193.6250198009824 -811.254725461632 2131.227124268946 0.0 0.0
-1263.7407610260195 -991.0141317956973 -676.4264678465153 1417.698744394347 0.0 0.0
-511.0265941396035 -832.6311238132034 -403.0973153858421 717.0638338605339 0.0 0.0
-495.55800439319 -430.95906243459734 -277.95512004833614 -517.5597767461387 0.0 0.0
-1317.7671565315497 -721.0999558163564 -611.6601337043719 -1081.6762707912428 0.0 0.0
-2757.4327540344593 -136.95741734830824 -868.3170514148301 -1693.449351433485 0.0 0.0
-4641.872507864412 74.8494801537078 -1370.106908313211 -1795.9011491580443 0.0 0.0
-6548.075648764418 91.07204102194406 -1937.1010823227423 -1690.4114433489117 0.0 0.0
-8379.189332446085 54.92371627613821 -2497.2796848509843 -1578.8333315022444 0.0 0.0
-10139.195913746882 23.300006834632953 -3034.768772073674 -1513.943966491866 0.0 0.0
-11857.743133900722 6.9049525326007455 -3555.251454410436 -1486.6632039190729 0.0 0.0
-13558.262371532226 0.6959732866755814 -4067.2699194736647 -1478.626663869798 0.0 0.0
-15252.877049339988 -0.9109698467712661 -4576.1364057560295 -1477.905590920139 0.0 0.0
-16946.397207533366 -0.913738504602307 -5084.193283811389 -1478.99783620533 0.0 0.0
-18639.806018041836 -0.1860157603988597 -5591.997610140671 -1479.597087256336 0.0 0.0
-20332.05102567325 1.5445379582840673 -6099.15194631449 -1477.9272783414021 0.0 0.0
-22018.91926832365 6.517403332481749 -6603.720559497351 -1470.5641702068233 0.0 0.0
-23695.494772164417 14.080489554280376 -7104.42428478304 -1452.348493962716 0.0 0.0
-25350.169752309797 35.466395222440326 -7594.411007126211 -1411.7107862707599 0.0 0.0
-26968.390508408913 50.78627879258934 -8075.281268884898 -1359.1239880686771 0.0 0.0
-28786.912316481932 -36.76303017056722 -8647.10260399575 -1291.2697431058002 0.0 0.0
-30626.509145845925 416.2938649146396 -9063.064584279387 -1530.995754504614 0.0 0.0
-30343.182160646986 -781.0500352069204 -9337.269658756175 -3376.0673322112934 0.0 0.0
-35959.06801857185 -18194.73155788348 -16246.1398729366 1.5404566511278972e-10 0.0 0.0
-30343.18216064758 -781.0500352090677 -9337.269658756994 3376.0673322115686 0.0 0.0
-30626.509145844542 416.2938649161406 -9063.064584278523 1530.995754505011 0.0 0.0
-28786.912316481987 -36.763030173475364 -8647.102603996638 1291.2697431064207 0.0 0.0
-26968.390508407127 50.786278793107115 -8075.281268884208 1359.1239880689952 0.0 0.0
-25350.169752307014 35.46639522535261 -7594.411007124499 1411.710786270789 0.0 0.0
-23695.494772162103 14.08048955564534 -7104.424284781937 1452.3484939627285 0.0 0.0
-22018.919268322956 6.517403329679286 -6603.7205594979805 1470.5641702068556 0.0 0.0
-20332.051025670935 1.5445379590262611 -6099.151946313572 1477.9272783415818 0.0 0.0
-18639.806018039995 -0.18601576091111482 -5591.997610140273 1479.597087256378 0.0 0.0
-16946.397207531383 -0.9137385047710094 -5084.193283810844 1478.9978362049915 0.0 0.0
-15252.877049337807 -0.910969846154738 -4576.136405755189 1477.9055909202334 0.0 0.0
-13558.262371531277 0.6959732851368376 -4067.269919473842 1478.626663869762 0.0 0.0
-11857.743133898943 6.904952532982912 -3555.2514544097867 1486.6632039189387 0.0 0.0
-10139.195913745589 23.300006833936568 -3034.7687720734957 1513.9439664916251 0.0 0.0
-8379.189332444936 54.923716275693465 -2497.279684850773 1578.8333315020952 0.0 0.0
-6548.0756487634735 91.07204102167407 -1937.1010823225392 1690.411443348568 0.0 0.0
-4641.87250786329 74.8494801547186 -1370.1069083125712 1795.901149157712 0.0 0.0
-2757.432754034125 -136.95741734828752 -868.317051414724 1693.4493514334022 0.0 0.0
-1317.7671565313722 -721.099955816161 -611.6601337042598 1081.6762707909159 0.0 0.0
-495.55800439324184 -430.95906243465515 -277.9551200483692 517.559776746167 0.0 0.0
-483.55225922456276 -201.34934668845307 -205.4704817739047 -333.4656563635624 0.0 0.0
-1320.9095176625137 -482.7992608949045 -541.1126335672253 -728.4771447998876 0.0 0.0
-2968.4249992167215 -93.10630582609373 -918.4593915128445 -1182.5787253325277 0.0 0.0
-5163.066284706299 42.67769583411072 -1536.1165766616557 -1258.6580369772198 0.0 0.0
-7410.632929620911 58.93174991902808 -2205.5103539105653 -1181.3035382496935 0.0 0.0
-9552.101246075561 36.680454226164954 -2854.6262375548185 -1098.7607461805171 0.0 0.0
-11585.02441976762 15.92271008573853 -3470.730512904566 -1050.7681061399664 0.0 0.0
-13554.974336237656 4.839942600022184 -4065.04031809129 -1030.7236368896272 0.0 0.0
-15498.343164261312 0.5489191389550996 -4649.338273536707 -1024.9387684185108 0.0 0.0
-17433.849223317884 -0.590293859947991 -5230.331855153348 -1024.5178778840295 0.0 0.0
-19368.566594790944 -0.604677084359281 -5810.751381562588 -1025.3911102659736 0.0 0.0
-21303.834625497726 -0.12724846986645844 -6391.188562190278 -1025.8893560966937 0.0 0.0
-23237.635907159238 1.169277849798732 -6970.939988792834 -1024.700813992071 0.0 0.0
-25165.043175242292 3.9881729045803525 -7548.316500701314 -1019.4613856696413 0.0 0.0
-27071.51627892616 11.993508446654985 -8117.85683114385 -1005.2538317611935 0.0 0.0
-28952.668308350898 14.052814333717322 -8681.584648205155 -978.1733305800296 0.0 0.0
-30729.402350521792 73.5486078512185 -9196.756122801176 -919.5837339938184 0.0 0.0
-32596.012517778436 -112.58884862833698 -9812.580409922035 -922.4270115435811 0.0 0.0
-35037.73902815713 180.08879158358295 -10457.295070972064 -855.5797677145729 0.0 0.0
-34540.76158615111 1498.5063700158817 -9912.676564840569 -2856.5399779852924 0.0 0.0
-43347.892115668255 -22738.695735741177 -19825.976355422834 7.23048287909478e-11 0.0 0.0
-34540.76158615139 1498.5063700145938 -9912.676564841035 2856.539977985567 0.0 0.0
-35037.7390281559 180.08879158448985 -10457.29507097142 855.5797677147913 0.0 0.0
-32596.012517778094 -112.58884863075617 -9812.580409922653 922.4270115437241 0.0 0.0
-30729.40235052113 73.54860784890889 -9196.756122801666 919.5837339938737 0.0 0.0
-28952.66830834899 14.052814333940773 -8681.584648204516 978.1733305799687 0.0 0.0
-27071.516278923504 11.993508448032319 -8117.856831142643 1005.2538317612976 0.0 0.0
-25165.043175239392 3.9881729060522026 -7548.316500700004 1019.4613856695788 0.0 0.0
-23237.635907157313 1.1692778488839721 -6970.93998879253 1024.7008139921543 0.0 0.0
-21303.83462549582 -0.12724847094577818 -6391.188562190029 1025.8893560966499 0.0 0.0
-19368.56659478843 -0.6046770839236686 -5810.751381561708 1025.3911102659515 0.0 0.0
-17433.84922331589 -0.5902938602456509 -5230.331855152841 1024.5178778840482 0.0 0.0
-15498.34316425996 0.5489191377622822 -4649.3382735366595 1024.938768418424 0.0 0.0
-13554.97433623593 4.839942599813636 -4065.040318090834 1030.7236368895938 0.0 0.0
-11585.024419766034 15.92271008503084 -3470.7305129042998 1050.768106139864 0.0 0.0
-9552.101246074097 36.680454225882144 -2854.6262375544643 1098.7607461804073 0.0 0.0
-7410.632929619687 58.931749919166556 -2205.5103539101565 1181.3035382496205 0.0 0.0
-5163.066284705414 42.67769583424013 -1536.1165766613526 1258.6580369768953 0.0 0.0
-2968.4249992162736 -93.10630582579371 -918.4593915126205 1182.5787253323163 0.0 0.0
-1320.9095176624774 -482.79926089484167 -541.1126335671956 728.4771447997264 0.0 0.0
-483.5522592245976 -201.3493466885313 -205.47048177393867 333.46565636353836 0.0 0.0
-435.77496875678474 -127.72860744688454 -169.05107286110078 -196.40829259477874 0.0 0.0
-1244.100701496965 -299.6007119467923 -463.1104240331272 -365.764149900007 0.0 0.0
-3125.4545764873637 -78.42582094227232 -961.164119228891 -578.0238058356123 0.0 0.0
-5674.229151794657 23.561005407853372 -1695.2004439160407 -621.9238519472801 0.0 0.0
-8288.169192964766 39.598424562085725 -2474.571230520805 -588.795683759154 0.0 0.0
-10738.99043118046 25.6228944818197 -3214.0102610095937 -548.9722318014747 0.0 0.0
-13038.70178939187 11.424737245112787 -3908.183115644028 -524.8930699850781 0.0 0.0
-15255.411641295268 3.5603522948663766 -4575.555386700123 -514.4858397166057 0.0 0.0
-17439.318503020746 0.44241988075863503 -5231.6628249419955 -511.32398376358935 0.0 0.0
-19614.866977245736 -0.40533883765523626 -5884.581694825016 -510.9830461388091 0.0 0.0
-21790.64759104057 -0.425974540375492 -6537.3220696742865 -511.3612264830457 0.0 0.0
-23967.95106016999 -0.08177496498828418 -7190.409850540494 -511.5699198388169 0.0 0.0
-26144.29116344471 0.8275154977315111 -7843.039094384097 -510.88390651091373 0.0 0.0
-28312.2619218001 3.035710332795915 -8492.767863440191 -508.1974708102023 0.0 0.0
-30457.541770228763 7.493741305919173 -9135.014408676852 -500.7601282185341 0.0 0.0
-32541.666717757646 17.778161285576772 -9757.166566941622 -487.32467782860397 0.0 0.0
-34574.09758800564 10.154817170863737 -10369.182831250439 -462.53847019615165 0.0 0.0
-36197.38697560003 167.67525748359748 -10808.913515434931 -429.98350838808875 0.0 0.0
-39305.111348097 -961.3462711479334 -12079.93728577348 -678.1485298053703 0.0 0.0
-38483.77835626665 4845.381190106154 -10091.519149848149 -967.8838190913013 0.0 0.0
-52267.95539830313 -27953.29401348235 -24066.374823535654 -1.750777300912887e-11 0.0 0.0
-38483.778356266426 4845.381190105793 -10091.519149848187 967.8838190913752 0.0 0.0
-39305.11134809623 -961.3462711482741 -12079.937285773354 678.1485298057378 0.0 0.0
-36197.38697559936 167.67525748153065 -10808.913515435346 429.9835083877815 0.0 0.0
-34574.09758800441 10.154817169168822 -10369.182831250575 462.53847019607696 0.0 0.0
-32541.66671775527 17.778161286110027 -9757.166566940748 487.3246778289141 0.0 0.0
-30457.541770227304 7.4937413039097365 -9135.014408677018 500.7601282188854 0.0 0.0
-28312.261921796086 3.035710336320216 -8492.767863437934 508.1974708101161 0.0 0.0
-26144.29116344277 0.8275154959657645 -7843.039094384042 510.8839065107553 0.0 0.0
-23967.95106016723 -0.08177496502804527 -7190.409850539679 511.5699198388785 0.0 0.0
-21790.647591038098 -0.4259745408266893 -6537.322069673677 511.36122648300625 0.0 0.0
-19614.866977243302 -0.405338837668765 -5884.581694824291 510.98304613880475 0.0 0.0
-17439.318503018483 0.4424198810194859 -5231.662824941241 511.3239837635741 0.0 0.0
-15255.411641292525 3.5603522962984293 -4575.5553866988685 514.4858397165774 0.0 0.0
-13038.701789389834 11.42473724502904 -3908.183115643441 524.8930699851404 0.0 0.0
-10738.990431178809 25.622894481989576 -3214.0102610090453 548.9722318013669 0.0 0.0
-8288.169192963403 39.59842456256596 -2474.5712305202505 588.7956837592102 0.0 0.0
-5674.229151793845 23.561005407700137 -1695.2004439158434 621.9238519471621 0.0 0.0
-3125.4545764869467 -78.42582094216263 -961.1641192287328 578.0238058354968 0.0 0.0
-1244.1007014970248 -299.60071194706387 -463.11042403322665 365.7641498999173 0.0 0.0
-435.77496875677315 -127.72860744687809 -169.05107286109538 196.4082925948731 0.0 0.0
-226.79292923770362 -53.918255433945966 -84.21335540149488 -131.61701983452383 0.0 0.0
-1013.673323063532 -153.9095177204755 -350.2748522352022 -154.58868516026155 0.0 0.0
-3192.8713422983496 -82.65972860890656 -982.6593212721771 -196.73669750163324 0.0 0.0
-6246.5129079905 -118.05871390974329 -1909.371486570073 -219.35438264054528 0.0 0.0
-9296.198067080342 -208.22343838589308 -2851.326451639871 -217.6836518155588 0.0 0.0
-12083.369874401382 -297.8187644362529 -3714.35659165129 -207.55405669889572 0.0 0.0
-14667.789800926377 -375.7238475586547 -4513.05409454551 -199.81326520364712 0.0 0.0
-17151.337642058454 -444.6565938814451 -5278.79827078197 -195.8196145249383 0.0 0.0
-19599.474622686852 -509.37657245536184 -6032.655358542666 -194.28998981187135 0.0 0.0
-22041.01742360334 -572.7778661836985 -6784.13858693611 -193.90506544366167 0.0 0.0
-24484.881803088596 -636.0565270259505 -7536.281499034364 -193.89088314779667 0.0 0.0
-26931.805451414977 -699.3711442684245 -8289.35297870502 -193.86002106521812 0.0 0.0
-29378.909169777206 -762.7538830671394 -9042.498915853303 -193.46456341336022 0.0 0.0
-31817.126369187772 -824.0503288078645 -9792.353009398688 -192.39993251900955 0.0 0.0
-34229.88943716169 -887.1920169848833 -10535.124436243972 -189.83588080017648 0.0 0.0
-36563.989451597234 -923.019251528658 -11246.102610937767 -184.8751917591528 0.0 0.0
-38796.47227233195 -1040.7992749078549 -11951.181464171943 -189.91686986189188 0.0 0.0
-40617.72309067889 -687.4983839774619 -12391.566442396903 -129.2190604089967 0.0 0.0
-42491.584065016876 -2317.375934048566 -13442.68799971963 -634.4847203996935 0.0 0.0
-43379.95638574179 5503.257046739231 -11363.009801700768 -2.8564835795264116 0.0 0.0
-64146.39596256266 -33639.61416490504 -29335.803038240312 5.820766091346741e-11 0.0 0.0
-43379.95638574151 5503.257046739542 -11363.009801700595 2.8564835793780503 0.0 0.0
-42491.58406501655 -2317.375934049479 -13442.687999719808 634.4847203996017 0.0 0.0
-40617.72309067858 -687.4983839805573 -12391.56644239774 129.2190604084983 0.0 0.0
-38796.47227232934 -1040.7992749073005 -11951.181464170993 189.9168698619942 0.0 0.0
-36563.98945159343 -923.0192515254591 -11246.102610935668 184.87519175957323 0.0 0.0
-34229.88943716042 -887.1920169880021 -10535.124436244527 189.83588080015124 0.0 0.0
-31817.126369184552 -824.0503288066244 -9792.353009397353 192.39993251913143 0.0 0.0
-29378.90916977523 -762.7538830691482 -9042.498915853314 193.4645634131225 0.0 0.0
-26931.805451411736 -699.3711442679477 -8289.352978703904 193.8600210654049 0.0 0.0
-24484.881803086373 -636.0565270272997 -7536.281499034102 193.89088314793958 0.0 0.0
-22041.017423600373 -572.7778661827294 -6784.138586934932 193.9050654436154 0.0 0.0
-19599.474622684236 -509.3765724548714 -6032.655358541733 194.28998981186805 0.0 0.0
-17151.337642055383 -444.6565938798692 -5278.798270780576 195.81961452494318 0.0 0.0
-14667.789800924307 -375.7238475591318 -4513.054094545032 199.81326520377638 0.0 0.0
-12083.369874398975 -297.81876443495787 -3714.3565916501802 207.5540566987811 0.0 0.0
-9296.198067079 -208.22343838598425 -2851.3264516394956 217.68365181559744 0.0 0.0
-6246.512907989537 -118.05871390933083 -1909.3714865696606 219.3543826405105 0.0 0.0
-3192.8713422980527 -82.65972860874348 -982.6593212720388 196.73669750165288 0.0 0.0
-1013.673323063705 -153.9095177208808 -350.27485223537565 154.58868516019936 0.0 0.0
-226.7929292376938 -53.918255433821344 -84.21335540145455 131.6170198347475 0.0 0.0
SCALARS Strain float 6
LOOKUP_TABLE default
0.05875695363831539 -0.14595682293741602 0.0 -0.009821195325280335 0.0 0.0
0.05232785779850591 0.011377839274574508 0.0 -0.015255584746831006 0.0 0.0
0.04135788225290564 -0.020609559866062294 0.0 -0.006524641387108751 0.0 0.0
0.039439484462174886 -0.014368947750372577 0.0 -0.0009717592477982732 0.0 0.0
0.04632446671305787 -0.01893143154408483 0.0 -0.002239626260830059 0.0 0.0
0.05565597845368628 -0.022549910729263357 0.0 -0.0023078494424230572 0.0 0.0
0.06611768500573709 -0.026916752039375866 0.0 -0.0024471939624160924 0.0 0.0
0.07700903349666438 -0.03135068823942934 0.0 -0.002500216933438865 0.0 0.0
0.08803089821575823 -0.03584435263409556 0.0 -0.002519071584178601 0.0 0.0
0.09907364845885355 -0.04033939565155063 0.0 -0.0025239787816758444 0.0 0.0
0.1101042596570567 -0.04482994080945983 0.0 -0.0025239784736348653 0.0 0.0
0.12112119383051909 -0.04931475610983496 0.0 -0.002524537438903037 0.0 0.0
0.1321386853527034 -0.05379898578642364 0.0 -0.0025294543683965437 0.0 0.0
0.1431952735705311 -0.05829581316416882 0.0 -0.0025439391602221145 0.0 0.0
0.15437645967793673 -0.06283616108800241 0.0 -0.0025735953867101168 0.0 0.0
0.16582869658110297 -0.06747688283073608 0.0 -0.0026156521684479826 0.0 0.0
0.17769878070992953 -0.07228405998693618 0.0 -0.002634696705389593 0.0 0.0
0.18988087290812455 -0.07724190491288302 0.0 -0.0025254867594419277 0.0 0.0
0.20149916951807134 -0.08204056446090656 0.0 -0.002106461119813708 0.0 0.0
0.2104338004792608 -0.08582567457588317 0.0 -0.0012322637198152256 0.0 0.0
0.21387815223421824 -0.08732662945952573 0.0 6.132247487578013e-16 0.0 0.0
0.21043380047926014 -0.0858256745758908 0.0 0.0012322637198155396 0.0 0.0
0.2014991695180668 -0.0820405644609106 0.0 0.0021064611198122335 0.0 0.0
0.18988087290811606 -0.07724190491287088 0.0 0.0025254867594435137 0.0 0.0
0.17769878070991948 -0.07228405998693749 0.0 0.0026346967053888157 0.0 0.0
0.16582869658109284 -0.06747688283073422 0.0 0.0026156521684512707 0.0 0.0
0.15437645967792857 -0.06283616108800781 0.0 0.0025735953867146192 0.0 0.0
0.14319527357052153 -0.05829581316416993 0.0 0.0025439391602172868 0.0 0.0
0.13213868535269166 -0.05379898578642976 0.0 0.002529454368396458 0.0 0.0
0.12112119383050604 -0.04931475610982371 0.0 0.002524537438900509 0.0 0.0
0.11010425965704365 -0.04482994080945572 0.0 0.002523978473637314 0.0 0.0
0.0990736484588434 -0.04033939565155281 0.0 0.0025239787816780674 0.0 0.0
0.0880308982157499 -0.03584435263409704 0.0 0.0025190715841755095 0.0 0.0
0.07700903349665653 -0.031350688239428805 0.0 0.002500216933440002 0.0 0.0
0.06611768500572986 -0.02691675203937969 0.0 0.0024471939624150945 0.0 0.0
0.055655978453679145 -0.02254991072925853 0.0 0.002307849442421532 0.0 0.0
0.04632446671305324 -0.018931431544080383 0.0 0.002239626260833815 0.0 0.0
0.03943948446217351 -0.014368947750375755 0.0 0.0009717592477964947 0.0 0.0
0.041357882252905424 -0.020609559866060397 0.0 0.006524641387106156 0.0 0.0
0.05232785779851361 0.01137783927456716 0.0 0.015255584746834822 0.0 0.0
0.058756953638330583 -0.1459568229373982 0.0 0.009821195325231975 0.0 0.0
0.036588084439542395 -0.13566487485530515 0.0 -0.0067115255800317825 0.0 0.0
0.030956240139280597 0.009861159080762568 0.0 -0.01216350648267803 0.0 0.0
0.02971942173465819 -0.01598256836187574 0.0 -0.004560475385826035 0.0 0.0
0.035761471097241745 -0.014178770256001508 0.0 -0.003774717680507342 0.0 0.0
0.041540665012277496 -0.01766066546780657 0.0 -0.005442362021609515 0.0 0.0
0.05020041350554867 -0.02140105910902654 0.0 -0.006165157093146436 0.0 0.0
0.05956912189461373 -0.025491702555863773 0.0 -0.006489220476203429 0.0 0.0
0.06934511041334537 -0.029707742817445315 0.0 -0.0066218819437928265 0.0 0.0
0.07924363975673378 -0.03396034834807015 0.0 -0.006658302401119255 0.0 0.0
0.08917200697748454 -0.03821812102772432 0.0 -0.00666203102138267 0.0 0.0
0.09909650782546629 -0.04247149727420882 0.0 -0.006656952170222688 0.0 0.0
0.10901344929740042 -0.04672028963758887 0.0 -0.006654456202557839 0.0 0.0
0.11893456553821842 -0.05096862073822664 0.0 -0.006663684387542978 0.0 0.0
0.1288922169213564 -0.05522771091672756 0.0 -0.00670079201676126 0.0 0.0
0.13895377070828252 -0.05952386341669909 0.0 -0.006791121144915124 0.0 0.0
0.14922404859806102 -0.0639060538985274 0.0 -0.0069511307038392575 0.0 0.0
0.15978092913575437 -0.06843247886598448 0.0 -0.007122151840913008 0.0 0.0
0.17045600060521535 -0.07309135736279747 0.0 -0.007041225077497643 0.0 0.0
0.18043220871021223 -0.07760943542004678 0.0 -0.006137884829231907 0.0 0.0
0.18794412238799663 -0.08120685000591563 0.0 -0.0037613595563355255 0.0 0.0
0.19080041481388454 -0.08265900144857785 0.0 -1.403391292065237e-15 0.0 0.0
0.1879441223879958 -0.08120685000591546 0.0 0.003761359556338062 0.0 0.0
0.18043220871020849 -0.07760943542005147 0.0 0.0061378848292320135 0.0 0.0
0.17045600060520863 -0.07309135736278538 0.0 0.007041225077501284 0.0 0.0
0.15978092913574637 -0.06843247886598294 0.0 0.0071221518409102 0.0 0.0
0.1492240485980525 -0.06390605389852393 0.0 0.006951130703839904 0.0 0.0
0.13895377070827467 -0.05952386341669605 0.0 0.006791121144917952 0.0 0.0
0.12889221692134728 -0.0552277109167299 0.0 0.006700792016761566 0.0 0.0
0.11893456553820797 -0.05096862073822656 0.0 0.006663684387545673 0.0 0.0
0.10901344929738899 -0.04672028963757937 0.0 0.006654456202558835 0.0 0.0
0.09909650782545523 -0.042471497274205364 0.0 0.00665695217022604 0.0 0.0
0.08917200697747531 -0.03821812102772325 0.0 0.006662031021379723 0.0 0.0
0.07924363975672655 -0.03396034834806904 0.0 0.006658302401118327 0.0 0.0
0.06934511041333884 -0.029707742817445898 0.0 0.0066218819437939315 0.0 0.0
0.05956912189460685 -0.02549170255586578 0.0 0.006489220476204519 0.0 0.0
0.05020041350554311 -0.0214010591090218 0.0 0.006165157093146668 0.0 0.0
0.04154066501227349 -0.01766066546780199 0.0 0.0054423620216087175 0.0 0.0
0.03576147109723968 -0.014178770256003219 0.0 0.0037747176805050424 0.0 0.0
0.02971942173466005 -0.015982568361875317 0.0 0.004560475385823952 0.0 0.0
0.030956240139284524 0.009861159080757232 0.0 0.012163506482675881 0.0 0.0
0.036588084439545775 -0.1356648748552881 0.0 0.006711525579997921 0.0 0.0
0.026243048334760675 -0.11626413635888469 0.0 -0.03090960087204879 0.0 0.0
0.01993625002684303 0.005399000953159464 0.0 -0.0219955060630329 0.0 0.0
0.02047186250311332 -0.008192108906593974 0.0 -0.003092448576925953 0.0 0.0
0.030242800290353443 -0.012773238423691028 0.0 -0.008707676293069065 0.0 0.0
0.03679525878253328 -0.015326164012478816 0.0 -0.010836506085941769 0.0 0.0
0.044554395073261664 -0.018984458934213987 0.0 -0.012419645342663562 0.0 0.0
0.05298391569668973 -0.02264715675610133 0.0 -0.013038414883806276 0.0 0.0
0.061662759063674064 -0.026411955402555254 0.0 -0.013288476053479645 0.0 0.0
0.07045409660226662 -0.0301928549247606 0.0 -0.013355658376707286 0.0 0.0
0.07927151268389675 -0.03397574278149648 0.0 -0.013359544294732113 0.0 0.0
0.08809027238793891 -0.03775519826700711 0.0 -0.013348060089460772 0.0 0.0
0.09690556870226838 -0.041531356740037426 0.0 -0.013341865271362162 0.0 0.0
0.10572584127315597 -0.04530654030598699 0.0 -0.013358356720945283 0.0 0.0
0.11457458673154919 -0.04908698833107708 0.0 -0.013429584044774366 0.0 0.0
0.1234992604313333 -0.05288895280755481 0.0 -0.013608598540356256 0.0 0.0
0.13257016678367733 -0.05674740583853338 0.0 -0.013936982478638319 0.0 0.0
0.141827656540134 -0.06071472454317381 0.0 -0.014315075408406782 0.0 0.0
0.15110822202073448 -0.06481134677867464 0.0 -0.01423314295349896 0.0 0.0
0.15972220728913192 -0.06886776125456887 0.0 -0.012520675532274175 0.0 0.0
0.166194057422118 -0.0722405613797794 0.0 -0.007749857163309894 0.0 0.0
0.1686568462493979 -0.07368001081485769 0.0 1.5707921074969988e-15 0.0 0.0
0.1661940574221164 -0.07224056137977446 0.0 0.007749857163313593 0.0 0.0
0.1597222072891279 -0.06886776125457962 0.0 0.012520675532274497 0.0 0.0
0.1511082220207286 -0.06481134677867034 0.0 0.014233142953504342 0.0 0.0
0.14182765654012747 -0.06071472454317117 0.0 0.014315075408407152 0.0 0.0
0.13257016678367012 -0.056747405838527235 0.0 0.013936982478639209 0.0 0.0
0.12349926043132592 -0.05288895280754535 0.0 0.01360859854035577 0.0 0.0
0.1145745867315412 -0.04908698833107362 0.0 0.013429584044775407 0.0 0.0
0.10572584127314687 -0.04530654030598071 0.0 0.013358356720946842 0.0 0.0
0.0969055687022594 -0.04153135674003309 0.0 0.013341865271363069 0.0 0.0
0.08809027238793007 -0.03775519826700604 0.0 0.013348060089459744 0.0 0.0
0.07927151268388836 -0.033975742781495795 0.0 0.013359544294729731 0.0 0.0
0.07045409660225951 -0.03019285492475482 0.0 0.013355658376707255 0.0 0.0
0.06166275906366833 -0.026411955402553724 0.0 0.013288476053479967 0.0 0.0
0.05298391569668438 -0.0226471567561012 0.0 0.013038414883806155 0.0 0.0
0.04455439507325678 -0.018984458934213088 0.0 0.01241964534266234 0.0 0.0
0.03679525878253009 -0.015326164012476471 0.0 0.0108365060859381 0.0 0.0
0.030242800290352645 -0.012773238423691538 0.0 0.008707676293062997 0.0 0.0
0.02047186250311525 -0.008192108906594286 0.0 0.0030924485769223864 0.0 0.0
0.01993625002684502 0.005399000953158663 0.0 0.0219955060630226 0.0 0.0
0.026243048334761137 -0.11626413635886992 0.0 0.03090960087203137 0.0 0.0
0.020845808329618083 -0.09921117976667672 0.0 -0.038587009951890884 0.0 0.0
0.014036404235624501 -0.0003411508929625367 0.0 -0.030122202928453967 0.0 0.0
0.013778526990856365 -0.0032194668393295484 0.0 -0.009165305044640575 0.0 0.0
0.024347073678317708 -0.010049563392514862 0.0 -0.012587797585543212 0.0 0.0
0.031763650645857275 -0.013136062097988916 0.0 -0.016120313548707303 0.0 0.0
0.03885847301366628 -0.016443070577957953 0.0 -0.01792884971522252 0.0 0.0
0.04634273041142599 -0.019786145508200622 0.0 -0.01883019536582181 0.0 0.0
0.053968653685288595 -0.023105113599886363 0.0 -0.01916080098778103 0.0 0.0
0.061659952686301936 -0.026423920890008817 0.0 -0.019258557633660925 0.0 0.0
0.06937133720889711 -0.029733888127548354 0.0 -0.019265654097188833 0.0 0.0
0.07708468699105273 -0.033039662101674784 0.0 -0.01925136335479578 0.0 0.0
0.08479708333881188 -0.0363423010402303 0.0 -0.01924383469578704 0.0 0.0
0.09251287909712815 -0.03964191478408382 0.0 -0.019267079958001546 0.0 0.0
0.10024526102914899 -0.042938323684445535 0.0 -0.019364146149327705 0.0 0.0
0.10802155721074136 -0.04623658358533101 0.0 -0.019605663186948084 0.0 0.0
0.11588509377478876 -0.049561189066255826 0.0 -0.020046057635016153 0.0 0.0
0.12386541583548613 -0.05297663520049154 0.0 -0.020545661218779536 0.0 0.0
0.13185593389571548 -0.05657840732299434 0.0 -0.020393095953084587 0.0 0.0
0.13933784087428908 -0.0603536425735383 0.0 -0.017934705259829792 0.0 0.0
0.14506110151838883 -0.06377197771556534 0.0 -0.011113509071352359 0.0 0.0
0.14727254094139958 -0.06535420775459884 0.0 2.2664162213636985e-15 0.0 0.0
0.14506110151838686 -0.06377197771556188 0.0 0.011113509071356643 0.0 0.0
0.13933784087428508 -0.06035364257353949 0.0 0.017934705259835877 0.0 0.0
0.13185593389571024 -0.056578407322989646 0.0 0.020393095953092712 0.0 0.0
0.12386541583548094 -0.0529766352004907 0.0 0.02054566121878229 0.0 0.0
0.11588509377478248 -0.049561189066254174 0.0 0.02004605763501866 0.0 0.0
0.10802155721073489 -0.04623658358533004 0.0 0.019605663186950655 0.0 0.0
0.10024526102914189 -0.0429383236844311 0.0 0.01936414614932974 0.0 0.0
0.09251287909711987 -0.03964191478407414 0.0 0.01926707995800297 0.0 0.0
0.08479708333880412 -0.03634230104022856 0.0 0.019243834695788786 0.0 0.0
0.0770846869910455 -0.03303966210167819 0.0 0.019251363354792078 0.0 0.0
0.06937133720889006 -0.029733888127548264 0.0 0.0192656540971873 0.0 0.0
0.061659952686295455 -0.02642392089000172 0.0 0.019258557633660373 0.0 0.0
0.053968653685283086 -0.02310511359987915 0.0 0.019160800987782868 0.0 0.0
0.04634273041142112 -0.01978614550820166 0.0 0.018830195365821936 0.0 0.0
0.038858473013662874 -0.01644307057795991 0.0 0.01792884971522074 0.0 0.0
0.031763650645854916 -0.013136062097987532 0.0 0.016120313548703386 0.0 0.0
0.024347073678317156 -0.010049563392517794 0.0 0.012587797585538565 0.0 0.0
0.013778526990858235 -0.0032194668393294465 0.0 0.009165305044633015 0.0 0.0
0.01403640423562522 -0.0003411508929612498 0.0 0.030122202928443982 0.0 0.0
0.020845808329617126 -0.09921117976666463 0.0 0.03858700995187872 0.0 0.0
0.017594317890722213 -0.08439375182481294 0.0 -0.03946765904031638 0.0 0.0
0.010705963058500042 -0.0052871827551072 0.0 -0.035618947828268 0.0 0.0
0.009072627048392108 -0.0005374886026601759 0.0 -0.01736673071419146 0.0 0.0
0.01878027197231569 -0.007106487452624662 0.0 -0.017177037561510372 0.0 0.0
0.026540081275107274 -0.010810979327263433 0.0 -0.020835039180167703 0.0 0.0
0.03311307309957055 -0.013892926112470306 0.0 -0.02284888807965184 0.0 0.0
0.03967038387122907 -0.016892935427299277 0.0 -0.02385452859279033 0.0 0.0
0.046260182726865336 -0.01979337326592235 0.0 -0.024252714881210797 0.0 0.0
0.05286215930416978 -0.022652204689651026 0.0 -0.02436894534048892 0.0 0.0
0.05947032708215712 -0.02549210431950938 0.0 -0.0243813318562681 0.0 0.0
0.06607915868301101 -0.028324348492901774 0.0 -0.02436661194978044 0.0 0.0
0.07268769857957799 -0.031152885839951357 0.0 -0.02435933776507728 0.0 0.0
0.07929644518768637 -0.03397520672213641 0.0 -0.02438740963626105 0.0 0.0
0.08590766239444937 -0.03678409818058851 0.0 -0.02449976145738389 0.0 0.0
0.09252937793720563 -0.03957316897026267 0.0 -0.02477580857172881 0.0 0.0
0.09918461536683504 -0.04235950696998159 0.0 -0.025276338665464 0.0 0.0
0.10591275044522086 -0.045233050365796286 0.0 -0.025836279554730085 0.0 0.0
0.1127025729739726 -0.04839626930955218 0.0 -0.02560426371691182 0.0 0.0
0.11923637620339125 -0.05203395330671284 0.0 -0.022546772211758666 0.0 0.0
0.12443919356005634 -0.055717223782742215 0.0 -0.014026473632093577 0.0 0.0
0.1265100838270508 -0.05758067688486082 0.0 1.6575282812958392e-15 0.0 0.0
0.1244391935600547 -0.055717223782735234 0.0 0.014026473632096501 0.0 0.0
0.1192363762033884 -0.05203395330671193 0.0 0.0225467722117628 0.0 0.0
0.11270257297396863 -0.04839626930955078 0.0 0.025604263716919054 0.0 0.0
0.10591275044521675 -0.04523305036579526 0.0 0.025836279554733214 0.0 0.0
0.0991846153668301 -0.04235950696999306 0.0 0.025276338665464748 0.0 0.0
0.09252937793719997 -0.039573168970259746 0.0 0.024775808571731624 0.0 0.0
0.08590766239444331 -0.036784098180578005 0.0 0.024499761457385742 0.0 0.0
0.07929644518767913 -0.033975206722128046 0.0 0.024387409636263253 0.0 0.0
0.0726876985795713 -0.031152885839951155 0.0 0.024359337765077472 0.0 0.0
0.06607915868300561 -0.02832434849290317 0.0 0.024366611949778256 0.0 0.0
0.05947032708215158 -0.02549210431950691 0.0 0.02438133185626594 0.0 0.0
0.05286215930416368 -0.022652204689648466 0.0 0.024368945340487436 0.0 0.0
0.046260182726860645 -0.019793373265919924 0.0 0.024252714881211213 0.0 0.0
0.03967038387122568 -0.016892935427301848 0.0 0.023854528592790827 0.0 0.0
0.03311307309956756 -0.013892926112471964 0.0 0.022848888079651523 0.0 0.0
0.02654008127510521 -0.01081097932726158 0.0 0.02083503918016208 0.0 0.0
0.01878027197231544 -0.0071064874526264 0.0 0.01717703756150678 0.0 0.0
0.009072627048393369 -0.0005374886026594002 0.0 0.017366730714183213 0.0 0.0
0.010705963058499862 -0.0052871827551057675 0.0 0.03561894782825867 0.0 0.0
0.017594317890720357 -0.0843937518248033 0.0 0.03946765904030726 0.0 0.0
0.015289383523719741 -0.07157839905710024 0.0 -0.037653598386248335 0.0 0.0
0.008653041730154964 -0.008875805605102781 0.0 -0.038867537302092 0.0 0.0
0.005745421632878365 0.0006503940741723392 0.0 -0.0253014588119944 0.0 0.0
0.013794431938021741 -0.004446658225006863 0.0 -0.022307295698867687 0.0 0.0
0.021292508921772486 -0.008396125210366855 0.0 -0.025115570243243783 0.0 0.0
0.027328920857874573 -0.011334759179175471 0.0 -0.027132246002541837 0.0 0.0
0.03298182065377728 -0.013987218233161451 0.0 -0.028144119841161285 0.0 0.0
0.03854082436264115 -0.016474977126276706 0.0 -0.02856423687127082 0.0 0.0
0.04406050129678536 -0.01887884246456511 0.0 -0.028690983498340344 0.0 0.0
0.0495680786152384 -0.021249664198823317 0.0 -0.028707028549148684 0.0 0.0
0.055073101890514724 -0.023608909381333372 0.0 -0.02869380925056387 0.0 0.0
0.06057731772469538 -0.025962980679037812 0.0 -0.028687583764710423 0.0 0.0
0.06607754243374238 -0.028307096259730387 0.0 -0.028717677594548182 0.0 0.0
0.0715654435290271 -0.030626954748241342 0.0 -0.028833748497843713 0.0 0.0
0.07703113544551558 -0.03290509211515192 0.0 -0.02911646917874157 0.0 0.0
0.08248228747746199 -0.03515303924653456 0.0 -0.029630507550632096 0.0 0.0
0.08798177112593894 -0.03749372833710102 0.0 -0.030209268571304668 0.0 0.0
0.09364066606141468 -0.040258163977611255 0.0 -0.029934702700716534 0.0 0.0
0.09936857147502427 -0.0438658266180661 0.0 -0.026485754478308362 0.0 0.0
0.10423500666911596 -0.04800297114422281 0.0 -0.016618981121455614 0.0 0.0
0.10625790465567306 -0.0502896145932438 0.0 3.1450536619459513e-15 0.0 0.0
0.10423500666911445 -0.04800297114421573 0.0 0.016618981121459805 0.0 0.0
0.09936857147502164 -0.04386582661807297 0.0 0.02648575447831593 0.0 0.0
0.09364066606141137 -0.04025816397761642 0.0 0.02993470270072391 0.0 0.0
0.08798177112593612 -0.037493728337097645 0.0 0.030209268571310587 0.0 0.0
0.08248228747745884 -0.035153039246542776 0.0 0.029630507550634386 0.0 0.0
0.07703113544551042 -0.03290509211514758 0.0 0.029116469178746093 0.0 0.0
0.07156544352902164 -0.030626954748230135 0.0 0.02883374849784632 0.0 0.0
0.06607754243373748 -0.028307096259732184 0.0 0.028717677594552952 0.0 0.0
0.0605773177246907 -0.0259629806790367 0.0 0.028687583764710894 0.0 0.0
0.05507310189051047 -0.02360890938132925 0.0 0.028693809250561697 0.0 0.0
0.0495680786152341 -0.021249664198820756 0.0 0.028707028549145176 0.0 0.0
0.044060501296781136 -0.01887884246456378 0.0 0.028690983498336126 0.0 0.0
0.0385408243626371 -0.016474977126277088 0.0 0.028564236871272276 0.0 0.0
0.0329818206537741 -0.013987218233162402 0.0 0.028144119841160324 0.0 0.0
0.02732892085787265 -0.011334759179178156 0.0 0.027132246002538905 0.0 0.0
0.021292508921771355 -0.008396125210364567 0.0 0.025115570243238385 0.0 0.0
0.013794431938021655 -0.004446658225006123 0.0 0.022307295698859253 0.0 0.0
0.005745421632878766 0.0006503940741737821 0.0 0.02530145881198596 0.0 0.0
0.008653041730154543 -0.008875805605100361 0.0 0.03886753730208247 0.0 0.0
0.015289383523718426 -0.07157839905709269 0.0 0.03765359838624274 0.0 0.0
0.013400823841701284 -0.06047707946401476 0.0 -0.0349104386649617 0.0 0.0
0.007210312434216188 -0.011117565026143906 0.0 -0.040435837734164454 0.0 0.0
0.003312960280421658 0.0009955836829958309 0.0 -0.03200098173722159 0.0 0.0
0.009413413795127622 -0.0022247139102297103 0.0 -0.0274457157346345 0.0 0.0
0.01615195831014689 -0.005997594620821843 0.0 -0.029012676639837406 0.0 0.0
0.02153670971152894 -0.008773072181283214 0.0 -0.03076586826584244 0.0 0.0
0.026286674219370216 -0.011080690593801911 0.0 -0.03170281251063204 0.0 0.0
0.030815373786480485 -0.013152704642025509 0.0 -0.03210080887821234 0.0 0.0
0.03525529202276216 -0.015103880023474028 0.0 -0.032225934374532306 0.0 0.0
0.039664264626823396 -0.01700640638032541 0.0 -0.0322437745243186 0.0 0.0
0.04406612097546587 -0.01889298225063158 0.0 -0.03223292617755344 0.0 0.0
0.04846594244795544 -0.020772576056553672 0.0 -0.03222810786622219 0.0 0.0
0.05285727978350013 -0.022638357311017026 0.0 -0.03225700529991644 0.0 0.0
0.057222198246585365 -0.02446954996872252 0.0 -0.03236537931034598 0.0 0.0
0.06153465349801543 -0.026238404288801802 0.0 -0.032628598168223194 0.0 0.0
0.06578969820669618 -0.027951158405443485 0.0 -0.03311469804489487 0.0 0.0
0.07007986898888983 -0.029764739948037987 0.0 -0.03368430042690191 0.0 0.0
0.07465532546907334 -0.03215002025220448 0.0 -0.033434767866726736 0.0 0.0
0.07968119258186032 -0.03579962890535806 0.0 -0.029847393177077252 0.0 0.0
0.08436453234803956 -0.0405627731373595 0.0 -0.018994296902271432 0.0 0.0
0.08642271698248671 -0.043435731498347514 0.0 2.022687572988957e-15 0.0 0.0
0.08436453234803862 -0.040562773137361396 0.0 0.018994296902278184 0.0 0.0
0.07968119258185836 -0.03579962890536352 0.0 0.029847393177084583 0.0 0.0
0.07465532546907168 -0.0321500202522029 0.0 0.03343476786673517 0.0 0.0
0.07007986898888773 -0.02976473994803762 0.0 0.033684300426907655 0.0 0.0
0.0657896982066933 -0.02795115840544232 0.0 0.03311469804489612 0.0 0.0
0.06153465349801185 -0.026238404288800976 0.0 0.03262859816822829 0.0 0.0
0.05722219824658124 -0.024469549968706913 0.0 0.03236537931034756 0.0 0.0
0.05285727978349615 -0.022638357311024197 0.0 0.032257005299920316 0.0 0.0
0.04846594244795167 -0.020772576056551084 0.0 0.032228107866223765 0.0 0.0
0.04406612097546254 -0.018892982250627542 0.0 0.03223292617754928 0.0 0.0
0.039664264626819906 -0.017006406380322928 0.0 0.03224377452431565 0.0 0.0
0.03525529202275901 -0.015103880023468588 0.0 0.032225934374528524 0.0 0.0
0.030815373786477716 -0.013152704642024244 0.0 0.03210080887821153 0.0 0.0
0.0262866742193678 -0.011080690593796948 0.0 0.031702812510630535 0.0 0.0
0.02153670971152785 -0.008773072181283826 0.0 0.03076586826583904 0.0 0.0
0.016151958310146687 -0.005997594620818688 0.0 0.02901267663983191 0.0 0.0
0.009413413795128072 -0.0022247139102316094 0.0 0.027445715734625405 0.0 0.0
0.003312960280422167 0.0009955836829958807 0.0 0.032000981737212164 0.0 0.0
0.007210312434215563 -0.011117565026141099 0.0 0.0404358377341565 0.0 0.0
0.013400823841699914 -0.06047707946400868 0.0 0.03491043866495786 0.0 0.0
0.011692952798786474 -0.050807183811119296 0.0 -0.03198303957557653 0.0 0.0
0.006032813845332984 -0.012217083587335078 0.0 -0.040792995082161124 0.0 0.0
0.0014290762340814535 0.0009476264556904756 0.0 -0.03716069392555502 0.0 0.0
0.0055632716094573325 -0.00042729234876304493 0.0 -0.03212459095086624 0.0 0.0
0.011193327553062108 -0.003697507834531254 0.0 -0.032463093277983655 0.0 0.0
0.015772464399598143 -0.006225883478462062 0.0 -0.03374573365988293 0.0 0.0
0.019594415643963702 -0.008180102488069713 0.0 -0.03452537363531118 0.0 0.0
0.0230879730812836 -0.009830191762273795 0.0 -0.03486490452249834 0.0 0.0
0.02644736540734212 -0.011327630880452147 0.0 -0.03497496717157756 0.0 0.0
0.029758653061126634 -0.012762187698928031 0.0 -0.03499224198002163 0.0 0.0
0.03305794242930506 -0.014176336824556192 0.0 -0.03498412986353771 0.0 0.0
0.036353647850920164 -0.01558170676586957 0.0 -0.03498070601926856 0.0 0.0
0.039636731893466504 -0.01696976430340665 0.0 -0.03500527632271689 0.0 0.0
0.04288120944751328 -0.01831432717208043 0.0 -0.03509568844634638 0.0 0.0
0.04604694332158025 -0.019578571833152567 0.0 -0.035316263541539515 0.0 0.0
0.04911686337576502 -0.020762161946163128 0.0 -0.03573774807870861 0.0 0.0
0.0522115566024837 -0.022050064632529735 0.0 -0.03627691637727909 0.0 0.0
0.05572722835604793 -0.024053453063960593 0.0 -0.03613561706794959 0.0 0.0
0.06011820290155674 -0.02778015881059066 0.0 -0.03269785632668488 0.0 0.0
0.06475001661325977 -0.03333310841566949 0.0 -0.021239198595832114 0.0 0.0
0.06692420650814014 -0.03699540903680993 0.0 9.723125082850004e-16 0.0 0.0
0.06475001661325926 -0.03333310841567179 0.0 0.0212391985958384 0.0 0.0
0.06011820290155513 -0.0277801588105962 0.0 0.032697856326693135 0.0 0.0
0.055727228356046814 -0.02405345306395254 0.0 0.036135617067954755 0.0 0.0
0.05221155660248269 -0.02205006463253479 0.0 0.036276916377281275 0.0 0.0
0.049116863375762404 -0.020762161946157435 0.0 0.03573774807870903 0.0 0.0
0.046046943321576585 -0.019578571833143408 0.0 0.03531626354154213 0.0 0.0
0.04288120944751057 -0.018314327172068833 0.0 0.03509568844635076 0.0 0.0
0.03963673189346426 -0.01696976430341331 0.0 0.03500527632271914 0.0 0.0
0.03635364785091739 -0.015581706765866937 0.0 0.03498070601926757 0.0 0.0
0.03305794242930332 -0.014176336824555444 0.0 0.03498412986353286 0.0 0.0
0.029758653061125018 -0.012762187698926982 0.0 0.03499224198001686 0.0 0.0
0.02644736540733945 -0.011327630880452697 0.0 0.03497496717157453 0.0 0.0
0.02308797308128135 -0.009830191762270502 0.0 0.03486490452249839 0.0 0.0
0.01959441564396225 -0.008180102488066079 0.0 0.03452537363531097 0.0 0.0
0.015772464399597598 -0.006225883478460587 0.0 0.03374573365987867 0.0 0.0
0.011193327553062205 -0.0036975078345310433 0.0 0.03246309327797519 0.0 0.0
0.005563271609457781 -0.0004272923487630098 0.0 0.03212459095085852 0.0 0.0
0.0014290762340819748 0.0009476264556899639 0.0 0.03716069392554551 0.0 0.0
0.006032813845332682 -0.012217083587332488 0.0 0.04079299508215397 0.0 0.0
0.011692952798785645 -0.05080718381111467 0.0 0.03198303957557301 0.0 0.0
0.010065117213400573 -0.042323756751017 0.0 -0.029155544750800177 0.0 0.0
0.004946349438863312 -0.012419639237384998 0.0 -0.04026979797219366 0.0 0.0
-0.0001405507648544302 0.0007891251984273282 0.0 -0.04076993717145374 0.0 0.0
0.0021395592243303777 0.0010247660223625353 0.0 -0.03602383786860833 0.0 0.0
0.006445407098173866 -0.0015390200223264696 0.0 -0.03535109036121469 0.0 0.0
0.010066368270490435 -0.0037148534259714445 0.0 -0.036054643616364575 0.0 0.0
0.012914925410082977 -0.0052912973401841555 0.0 -0.03660431880798722 0.0 0.0
0.015362011706170808 -0.006510338048514786 0.0 -0.03685557407939958 0.0 0.0
0.017637657846285987 -0.007550707527881829 0.0 -0.03693885374726339 0.0 0.0
0.01985114718267628 -0.008516894034403005 0.0 -0.036952945439768244 0.0 0.0
0.02204837311407632 -0.009458821950836005 0.0 -0.036947665057623466 0.0 0.0
0.024240542052280024 -0.010390437524442688 0.0 -0.03694544341298609 0.0 0.0
0.026416826950664447 -0.011301998339319354 0.0 -0.036963024883022416 0.0 0.0
0.028545224847848747 -0.012163325720396925 0.0 -0.03702719619523743 0.0 0.0
0.030573996956523658 -0.012930233906345382 0.0 -0.037186250745895 0.0 0.0
0.03247264602389122 -0.013593509036732452 0.0 -0.037510982439277446 0.0 0.0
0.03438035365389989 -0.014353295474716431 0.0 -0.03799828491453987 0.0 0.0
0.036835332643473 -0.015948666258626825 0.0 -0.038048426229460384 0.0 0.0
0.040621259035772274 -0.019746940151407183 0.0 -0.035074993275492454 0.0 0.0
0.045317099542794906 -0.026248889872418475 0.0 -0.023430764553942964 0.0 0.0
0.04769094605098791 -0.030966556827367785 0.0 3.223983580102896e-15 0.0 0.0
0.04531709954279431 -0.026248889872413216 0.0 0.023430764553949344 0.0 0.0
0.04062125903577117 -0.019746940151402416 0.0 0.03507499327550351 0.0 0.0
0.03683533264347265 -0.015948666258621853 0.0 0.03804842622946818 0.0 0.0
0.03438035365389918 -0.014353295474721698 0.0 0.03799828491454267 0.0 0.0
0.03247264602388992 -0.013593509036727966 0.0 0.03751098243928118 0.0 0.0
0.030573996956521923 -0.012930233906335352 0.0 0.03718625074590011 0.0 0.0
0.028545224847846672 -0.01216332572040308 0.0 0.03702719619524242 0.0 0.0
0.02641682695066253 -0.011301998339317046 0.0 0.036963024883024394 0.0 0.0
0.024240542052278335 -0.010390437524442688 0.0 0.03694544341298676 0.0 0.0
0.02204837311407548 -0.009458821950833194 0.0 0.03694766505762143 0.0 0.0
0.019851147182675978 -0.008516894034404948 0.0 0.03695294543976188 0.0 0.0
0.017637657846285078 -0.007550707527884342 0.0 0.03693885374726315 0.0 0.0
0.015362011706169448 -0.006510338048506232 0.0 0.03685557407939959 0.0 0.0
0.012914925410081976 -0.0052912973401843125 0.0 0.03660431880798411 0.0 0.0
0.010066368270490284 -0.003714853425971819 0.0 0.03605464361635987 0.0 0.0
0.00644540709817444 -0.001539020022325752 0.0 0.03535109036120514 0.0 0.0
0.0021395592243310807 0.0010247660223641761 0.0 0.03602383786860018 0.0 0.0
-0.00014055076485422512 0.0007891251984284522 0.0 0.04076993717144404 0.0 0.0
0.00494634943886314 -0.012419639237382459 0.0 0.0402697979721865 0.0 0.0
0.010065117213400436 -0.04232375675101313 0.0 0.029155544750793898 0.0 0.0
0.008480268770352356 -0.034831178225693635 0.0 -0.026502676257117497 0.0 0.0
0.003868524198974859 -0.011952929815869533 0.0 -0.03908168880250543 0.0 0.0
-0.001548313103886628 0.0006835840363526634 0.0 -0.0429342938065637 0.0 0.0
-0.0009609793928757617 0.0022249619795901743 0.0 -0.03895423152691441 0.0 0.0
0.0019063241529220574 0.0004663716927692305 0.0 -0.03755484805555 0.0 0.0
0.004438092119459287 -0.001257433202041501 0.0 -0.037659971558044784 0.0 0.0
0.0062570715301615894 -0.0024198845080350057 0.0 -0.03792956907069301 0.0 0.0
0.007640249009384413 -0.0031952074402065906 0.0 -0.03806981549828991 0.0 0.0
0.008826951686315808 -0.00377371542418421 0.0 -0.03811766743311756 0.0 0.0
0.009941742825822966 -0.004270479931540337 0.0 -0.0381263295854392 0.0 0.0
0.011037286906188687 -0.00474033380709297 0.0 -0.03812382260495542 0.0 0.0
0.012126726635090372 -0.005198837115724709 0.0 -0.038122604551012906 0.0 0.0
0.013198262271839614 -0.005635582240368438 0.0 -0.038131297358528396 0.0 0.0
0.014216268015350454 -0.0060180297674438995 0.0 -0.03816354468275973 0.0 0.0
0.015120552149624104 -0.006296944337015931 0.0 -0.038247621408268456 0.0 0.0
0.015865072318058743 -0.006451931449917567 0.0 -0.03844848122587804 0.0 0.0
0.016590661173108496 -0.006679338847556334 0.0 -0.03885632704763557 0.0 0.0
0.017959659512605936 -0.007817587091990137 0.0 -0.03916416154705554 0.0 0.0
0.021129954258864794 -0.011634251031849771 0.0 -0.03698679943152847 0.0 0.0
0.02599194812252593 -0.019237886831957113 0.0 -0.025640620619075776 0.0 0.0
0.028656835908164834 -0.025370862148401094 0.0 4.9682480351975755e-15 0.0 0.0
0.025991948122525567 -0.01923788683195862 0.0 0.025640620619081705 0.0 0.0
0.021129954258864523 -0.011634251031841276 0.0 0.036986799431535586 0.0 0.0
0.017959659512606262 -0.007817587091989205 0.0 0.03916416154706657 0.0 0.0
0.016590661173109075 -0.0066793388475627265 0.0 0.03885632704764075 0.0 0.0
0.015865072318058664 -0.006451931449915465 0.0 0.03844848122588285 0.0 0.0
0.015120552149623453 -0.0062969443370062125 0.0 0.03824762140827242 0.0 0.0
0.01421626801534961 -0.006018029767462998 0.0 0.038163544682765733 0.0 0.0
0.013198262271839019 -0.005635582240360075 0.0 0.03813129735853176 0.0 0.0
0.012126726635090219 -0.005198837115730982 0.0 0.03812260455101517 0.0 0.0
0.011037286906188633 -0.004740333807086254 0.0 0.03812382260495186 0.0 0.0
0.009941742825823578 -0.004270479931539876 0.0 0.03812632958543544 0.0 0.0
0.008826951686315964 -0.003773715424185614 0.0 0.03811766743311624 0.0 0.0
0.007640249009383437 -0.00319520744019968 0.0 0.03806981549829144 0.0 0.0
0.0062570715301613795 -0.0024198845080315133 0.0 0.0379295690706891 0.0 0.0
0.004438092119459879 -0.0012574332020423434 0.0 0.03765997155804008 0.0 0.0
0.0019063241529226813 0.0004663716927710097 0.0 0.0375548480555438 0.0 0.0
-0.0009609793928753765 0.0022249619795916224 0.0 0.03895423152690576 0.0 0.0
-0.00154831310388645 0.0006835840363537266 0.0 0.04293429380655467 0.0 0.0
0.0038685241989749536 -0.011952929815866837 0.0 0.03908168880250016 0.0 0.0
0.00848026877035239 -0.03483117822569069 0.0 0.026502676257110443 0.0 0.0
0.006931801200425173 -0.02818360311207556 0.0 -0.024006821420000657 0.0 0.0
0.0027666350041131486 -0.011009014326909823 0.0 -0.03736084475510103 0.0 0.0
-0.002889234325919041 0.0007153557964024498 0.0 -0.043792597211427226 0.0 0.0
-0.003827332526351368 0.0032580495570911088 0.0 -0.04082042640010513 0.0 0.0
-0.002443285188258335 0.002327436360853986 0.0 -0.03896897715890187 0.0 0.0
-0.0011035917616134998 0.001136398706419135 0.0 -0.03851971953145537 0.0 0.0
-0.0003727958642467253 0.0004296234235601442 0.0 -0.03848780333562113 0.0 0.0
-7.528462046973582e-05 0.00011384338335897724 0.0 -0.03850346371379526 0.0 0.0
1.5773527106199793e-05 2.9309843936228233e-06 0.0 -0.0385109057396957 0.0 0.0
3.0468337569188606e-05 -2.2947080438156836e-05 0.0 -0.03851276110502047 0.0 0.0
2.4613893950800473e-05 -2.080949372319172e-05 0.0 -0.03851293375299349 0.0 0.0
1.2268627126139822e-05 -6.952378764989598e-06 0.0 -0.03851262381856711 0.0 0.0
-1.8549109679229757e-05 2.916004967645498e-05 0.0 -0.038511490747554035 0.0 0.0
-0.00010450181359359214 0.00012072449543617462 0.0 -0.03850907370883455 0.0 0.0
-0.00031020218757328794 0.0003191089578752663 0.0 -0.038511131721578974 0.0 0.0
-0.0006986084907233832 0.0006567361477297576 0.0 -0.038567675796185225 0.0 0.0
-0.0011504530698052086 0.000964055786389863 0.0 -0.0388584350095006 0.0 0.0
-0.0009154766412551966 0.00035236243712278984 0.0 -0.03945424458522402 0.0 0.0
0.0015822293536048465 -0.003371563407426451 0.0 -0.038406578225853354 0.0 0.0
0.006698138537899037 -0.012213233180433708 0.0 -0.027936776470169632 0.0 0.0
0.009757434046616012 -0.02025853525128785 0.0 2.005340338229189e-15 0.0 0.0
0.006698138537898957 -0.012213233180443326 0.0 0.027936776470175555 0.0 0.0
0.0015822293536054562 -0.003371563407433568 0.0 0.038406578225865864 0.0 0.0
-0.0009154766412543215 0.00035236243712983173 0.0 0.039454244585237275 0.0 0.0
-0.0011504530698039947 0.0009640557863876742 0.0 0.038858435009504956 0.0 0.0
-0.0006986084907226525 0.0006567361477299963 0.0 0.03856767579618755 0.0 0.0
-0.00031020218757332827 0.00031910895788476567 0.0 0.038511131721578495 0.0 0.0
-0.00010450181359328574 0.00012072449543891516 0.0 0.03850907370883832 0.0 0.0
-1.8549109678568177e-05 2.916004967619515e-05 0.0 0.03851149074755452 0.0 0.0
1.2268627127053804e-05 -6.952378772263456e-06 0.0 0.03851262381856931 0.0 0.0
2.461389395222208e-05 -2.0809493723711488e-05 0.0 0.03851293375298956 0.0 0.0
3.0468337570862614e-05 -2.2947080440864767e-05 0.0 0.03851276110501686 0.0 0.0
1.5773527107554612e-05 2.9309843932980777e-06 0.0 0.03851090573969341 0.0 0.0
-7.52846204694768e-05 0.00011384338336292021 0.0 0.03850346371379625 0.0 0.0
-0.00037279586424625495 0.00042962342355702985 0.0 0.03848780333561722 0.0 0.0
-0.0011035917616121597 0.0011363987064179648 0.0 0.038519719531450225 0.0 0.0
-0.0024432851882570565 0.0023274363608536013 0.0 0.03896897715889544 0.0 0.0
-0.0038273325263504876 0.0032580495570932438 0.0 0.0408204264000943 0.0 0.0
-0.0028892343259187057 0.0007153557964017997 0.0 0.043792597211419836 0.0 0.0
0.002766635004113057 -0.011009014326907235 0.0 0.03736084475509575 0.0 0.0
0.006931801200424697 -0.028183603112073713 0.0 0.024006821419997132 0.0 0.0
0.00542791650476493 -0.022280381047757102 0.0 -0.02161383510898482 0.0 0.0
0.0016350515239353229 -0.00974265562893728 0.0 -0.03518354686777593 0.0 0.0
-0.004218839466150379 0.0009184154173158088 0.0 -0.043480405392601236 0.0 0.0
-0.006530269148569803 0.004191545032375848 0.0 -0.04158703317973739 0.0 0.0
-0.006630985852040415 0.0040636386747234425 0.0 -0.03951126935491531 0.0 0.0
-0.006559218402133079 0.0034643652714131676 0.0 -0.038589375667048315 0.0 0.0
-0.006971752593757794 0.003254785854807059 0.0 -0.03826312450616159 0.0 0.0
-0.007783523287891123 0.0034161707768995747 0.0 -0.03815168683550334 0.0 0.0
-0.008795644325752635 0.0037790650367525245 0.0 -0.03811776209101885 0.0 0.0
-0.009882653791911663 0.004225690304331493 0.0 -0.03811254198782139 0.0 0.0
-0.0109896704238618 0.004699774354309819 0.0 -0.03811535360854083 0.0 0.0
-0.01210281665630856 0.005185209025283879 0.0 -0.0381160069352523 0.0 0.0
-0.013233499522830792 0.005692126322173864 0.0 -0.038105181982389776 0.0 0.0
-0.014416857880178872 0.006252764138438815 0.0 -0.03806838375249359 0.0 0.0
-0.01571697845728997 0.006917367186049584 0.0 -0.037988403849925106 0.0 0.0
-0.01721230139699204 0.007728173295703095 0.0 -0.03788990965469643 0.0 0.0
-0.018831733151373424 0.008565243771675 0.0 -0.038016065635944424 0.0 0.0
-0.01979735278856799 0.008563409621625426 0.0 -0.038873163267793866 0.0 0.0
-0.01808448659067492 0.005114620336916451 0.0 -0.03926409578893161 0.0 0.0
-0.012646992864365207 -0.005062828931610447 0.0 -0.03038212886604303 0.0 0.0
-0.00907460512326726 -0.01571590273042099 0.0 3.668940151690947e-15 0.0 0.0
-0.012646992864365377 -0.005062828931620878 0.0 0.03038212886604965 0.0 0.0
-0.018084486590673833 0.0051146203369093314 0.0 0.039264095788942986 0.0 0.0
-0.019797352788566633 0.008563409621635296 0.0 0.03887316326780325 0.0 0.0
-0.018831733151371235 0.008565243771679842 0.0 0.038016065635945444 0.0 0.0
-0.017212301396990277 0.00772817329570212 0.0 0.0378899096546981 0.0 0.0
-0.015716978457288873 0.006917367186052292 0.0 0.037988403849927556 0.0 0.0
-0.014416857880177505 0.006252764138447058 0.0 0.038068383752495605 0.0 0.0
-0.013233499522828894 0.005692126322174006 0.0 0.038105181982391254 0.0 0.0
-0.0121028166563063 0.005185209025277011 0.0 0.038116006935253605 0.0 0.0
-0.010989670423859628 0.004699774354303922 0.0 0.038115353608536656 0.0 0.0
-0.009882653791908875 0.004225690304328281 0.0 0.03811254198781885 0.0 0.0
-0.008795644325750808 0.0037790650367527457 0.0 0.03811776209101707 0.0 0.0
-0.007783523287890221 0.0034161707769022227 0.0 0.038151686835501034 0.0 0.0
-0.006971752593756254 0.0032547858548057753 0.0 0.038263124506158486 0.0 0.0
-0.00655921840213149 0.003464365271411915 0.0 0.038589375667042534 0.0 0.0
-0.006630985852039162 0.004063638674722653 0.0 0.03951126935490865 0.0 0.0
-0.006530269148568628 0.004191545032377453 0.0 0.04158703317972753 0.0 0.0
-0.004218839466149648 0.0009184154173157962 0.0 0.04348040539259365 0.0 0.0
0.0016350515239356572 -0.009742655628935991 0.0 0.03518354686777162 0.0 0.0
0.005427916504765175 -0.02228038104775539 0.0 0.021613835108980958 0.0 0.0
0.0039844129134806675 -0.01705984675726254 0.0 -0.019260133659707936 0.0 0.0
0.0004833144912161958 -0.008275736445378707 0.0 -0.032590911115116444 0.0 0.0
-0.005565223887370317 0.001295458398879655 0.0 -0.04211577866280362 0.0 0.0
-0.009122507034447653 0.005074202958533224 0.0 -0.04125261038573844 0.0 0.0
-0.010686759744877159 0.005698639514914628 0.0 -0.03912126477020641 0.0 0.0
-0.011936528798220084 0.005730762243152705 0.0 -0.037826946766656815 0.0 0.0
-0.013540578976761884 0.006055796770222791 0.0 -0.03723865088472464 0.0 0.0
-0.015484576056421694 0.006711936263331647 0.0 -0.03700945154835057 0.0 0.0
-0.01760738055593143 0.0075547663343347865 0.0 -0.036937392064969925 0.0 0.0
-0.019797618666801225 0.00847542340434742 0.0 -0.03692595750898372 0.0 0.0
-0.022005549697983576 0.009421401412871466 0.0 -0.036931440110328236 0.0 0.0
-0.02421857333887948 0.010377683674541772 0.0 -0.03693324337397258 0.0 0.0
-0.02644678305169659 0.011353452274690642 0.0 -0.03691394807041593 0.0 0.0
-0.028721473853115728 0.012378512439449828 0.0 -0.03684596574449791 0.0 0.0
-0.031100736041460797 0.013499032202818548 0.0 -0.03669081234499774 0.0 0.0
-0.0336720779568199 0.01476076337514676 0.0 -0.03644028463756888 0.0 0.0
-0.03643686774009488 0.01610871165387151 0.0 -0.03635133737817333 0.0 0.0
-0.038679348999072535 0.016801089584857716 0.0 -0.03736524475427675 0.0 0.0
-0.037930467419491534 0.01389582012100624 0.0 -0.03943195694497781 0.0 0.0
-0.032136848103743273 0.0023660702719679205 0.0 -0.03302701032926688 0.0 0.0
-0.02791619531475522 -0.011876258512238204 0.0 3.1537272793258353e-15 0.0 0.0
-0.03213684810374276 0.0023660702719647247 0.0 0.03302701032927566 0.0 0.0
-0.03793046741948991 0.013895820121003932 0.0 0.0394319569449865 0.0 0.0
-0.03867934899907059 0.016801089584864464 0.0 0.037365244754284516 0.0 0.0
-0.03643686774009275 0.01610871165387493 0.0 0.03635133737817504 0.0 0.0
-0.033672077956817724 0.014760763375154317 0.0 0.03644028463757105 0.0 0.0
-0.03110073604145877 0.013499032202814829 0.0 0.03669081234500656 0.0 0.0
-0.028721473853112925 0.01237851243944441 0.0 0.03684596574449993 0.0 0.0
-0.026446783051693016 0.011353452274693298 0.0 0.03691394807041863 0.0 0.0
-0.024218573338876295 0.010377683674537529 0.0 0.036933243373971504 0.0 0.0
-0.022005549697979913 0.009421401412869302 0.0 0.036931440110325175 0.0 0.0
-0.01979761866679731 0.00847542340434633 0.0 0.036925957508979604 0.0 0.0
-0.017607380555928434 0.007554766334332523 0.0 0.036937392064966296 0.0 0.0
-0.015484576056419175 0.006711936263334258 0.0 0.037009451548347755 0.0 0.0
-0.0135405789767593 0.006055796770222668 0.0 0.037238650884721315 0.0 0.0
-0.011936528798217104 0.005730762243154635 0.0 0.03782694676665011 0.0 0.0
-0.010686759744874867 0.0056986395149128165 0.0 0.03912126477019977 0.0 0.0
-0.009122507034446418 0.005074202958535358 0.0 0.04125261038573135 0.0 0.0
-0.00556522388736929 0.0012954583988803075 0.0 0.042115778662798656 0.0 0.0
0.00048331449121650176 -0.008275736445378325 0.0 0.032590911115110505 0.0 0.0
0.0039844129134802226 -0.017059846757261243 0.0 0.01926013365970507 0.0 0.0
0.002621768975595804 -0.01249303386406429 0.0 -0.01688666118174287 0.0 0.0
-0.0006695603180006646 -0.006703440810160446 0.0 -0.029604233125550654 0.0 0.0
-0.006936546909339836 0.0018296002888412697 0.0 -0.03979504161002571 0.0 0.0
-0.0116404991678531 0.00593751213636001 0.0 -0.039830739450631286 0.0 0.0
-0.014639926914561802 0.007256607429687907 0.0 -0.03775541666088815 0.0 0.0
-0.017248605487328147 0.007945029030897477 0.0 -0.03619595513285807 0.0 0.0
-0.020083587617631612 0.008835588095702437 0.0 -0.035398396566285927 0.0 0.0
-0.02317981240558093 0.010002171500712174 0.0 -0.03507209563383286 0.0 0.0
-0.026419819363648876 0.011330335509957636 0.0 -0.03496914791086785 0.0 0.0
-0.029714430367256822 0.01272624588265692 0.0 -0.03495333449329743 0.0 0.0
-0.03302296120741713 0.014144012884959232 0.0 -0.034961536028192665 0.0 0.0
-0.03633509996360226 0.015570539052329566 0.0 -0.034964722922247116 0.0 0.0
-0.03965888499356721 0.017013530175519483 0.0 -0.03493914977103831 0.0 0.0
-0.043019780478605024 0.018498882208681407 0.0 -0.03484597128143897 0.0 0.0
-0.04646485299824262 0.02006686382244858 0.0 -0.034628288159512105 0.0 0.0
-0.05007796974639653 0.021757286931631366 0.0 -0.03424573138088333 0.0 0.0
-0.05394506905649887 0.0235772883662595 0.0 -0.03390498007527472 0.0 0.0
-0.05753364199740603 0.025026352362078123 0.0 -0.03487977219360674 0.0 0.0
-0.05800749213569019 0.02303034455711811 0.0 -0.038707060530537775 0.0 0.0
-0.05188122908105373 0.010289441968936502 0.0 -0.035889757430887875 0.0 0.0
-0.046864744608565934 -0.008933984009603746 0.0 3.29250515740398e-15 0.0 0.0
-0.05188122908105315 0.010289441968936462 0.0 0.035889757430896015 0.0 0.0
-0.05800749213568858 0.02303034455711726 0.0 0.03870706053055019 0.0 0.0
-0.05753364199740339 0.025026352362079046 0.0 0.03487977219361793 0.0 0.0
-0.05394506905649471 0.02357728836625715 0.0 0.033904980075279485 0.0 0.0
-0.05007796974639297 0.02175728693163044 0.0 0.03424573138088678 0.0 0.0
-0.04646485299824008 0.020066863822452145 0.0 0.0346282881595182 0.0 0.0
-0.043019780478600805 0.018498882208674614 0.0 0.034845971281442456 0.0 0.0
-0.0396588849935624 0.017013530175516996 0.0 0.03493914977104029 0.0 0.0
-0.0363350999635982 0.015570539052328858 0.0 0.03496472292224618 0.0 0.0
-0.03302296120741251 0.014144012884957216 0.0 0.03496153602818995 0.0 0.0
-0.029714430367252034 0.012726245882654048 0.0 0.03495333449329238 0.0 0.0
-0.026419819363645444 0.01133033550995926 0.0 0.03496914791086665 0.0 0.0
-0.023179812405577652 0.010002171500714528 0.0 0.03507209563383045 0.0 0.0
-0.020083587617627845 0.00883558809569741 0.0 0.03539839656628162 0.0 0.0
-0.017248605487325246 0.007945029030898861 0.0 0.03619595513285095 0.0 0.0
-0.01463992691455961 0.007256607429686408 0.0 0.03775541666088226 0.0 0.0
-0.011640499167851063 0.0059375121363610065 0.0 0.039830739450624215 0.0 0.0
-0.006936546909339369 0.0018296002888420473 0.0 0.03979504161002144 0.0 0.0
-0.0006695603180011925 -0.006703440810159809 0.0 0.029604233125544603 0.0 0.0
0.0026217689755956546 -0.012493033864063492 0.0 0.016886661181741487 0.0 0.0
0.0013647089674826396 -0.008577770141448225 0.0 -0.014447926969325807 0.0 0.0
-0.0017968159816060657 -0.005100721837376176 0.0 -0.026236752586206127 0.0 0.0
-0.008324960699594592 0.0024905919524816134 0.0 -0.03659191716852899 0.0 0.0
-0.01410672305722465 0.00679837128500161 0.0 -0.037335982131543315 0.0 0.0
-0.018518076108928815 0.008760766005297628 0.0 -0.035381528886477 0.0 0.0
-0.02251253544433599 0.010120523681390775 0.0 -0.033667033202293 0.0 0.0
-0.026608182691706516 0.011599582954138517 0.0 -0.03272903389768598 0.0 0.0
-0.03087179050235732 0.013288746642789357 0.0 -0.03233597583708763 0.0 0.0
-0.03523360966040728 0.015106249548037003 0.0 -0.032212788833573654 0.0 0.0
-0.03963307814169529 0.016978133568545332 0.0 -0.03219509124395214 0.0 0.0
-0.04404178264675239 0.01886750510151511 0.0 -0.03220594721242483 0.0 0.0
-0.048452522178054236 0.020763837662732276 0.0 -0.03221068788688515 0.0 0.0
-0.05287058044584614 0.02267300801274225 0.0 -0.03218165508798546 0.0 0.0
-0.057313763908546644 0.02461526272082165 0.0 -0.03207204469793113 0.0 0.0
-0.06181483466484047 0.026624429376840387 0.0 -0.031808723508706116 0.0 0.0
-0.06643643465997731 0.02872649417603714 0.0 -0.03133016853649679 0.0 0.0
-0.07133456852379746 0.030958367367904555 0.0 -0.030742630927636967 0.0 0.0
-0.07630202483729595 0.033167246630191057 0.0 -0.031401727326457796 0.0 0.0
-0.07834596990857205 0.03253973259371953 0.0 -0.03679005217595703 0.0 0.0
-0.07201328226703997 0.019019248890368413 0.0 -0.03891171598321856 0.0 0.0
-0.06605752022285806 -0.007160283528122299 0.0 1.700029006457271e-16 0.0 0.0
-0.07201328226703874 0.01901924889035934 0.0 0.03891171598322467 0.0 0.0
-0.07834596990857035 0.03253973259372548 0.0 0.03679005217596354 0.0 0.0
-0.07630202483729295 0.03316724663018669 0.0 0.031401727326466566 0.0 0.0
-0.07133456852379275 0.030958367367906775 0.0 0.03074263092763884 0.0 0.0
-0.06643643465997372 0.02872649417602828 0.0 0.031330168536497234 0.0 0.0
-0.061814834664836615 0.026624429376847992 0.0 0.0318087235087072 0.0 0.0
-0.05731376390854172 0.02461526272081788 0.0 0.03207204469793298 0.0 0.0
-0.052870580445840726 0.022673008012742055 0.0 0.03218165508798633 0.0 0.0
-0.048452522178048456 0.02076383766272452 0.0 0.03221068788688267 0.0 0.0
-0.04404178264674662 0.01886750510151181 0.0 0.03220594721242218 0.0 0.0
-0.03963307814169002 0.016978133568545776 0.0 0.03219509124394919 0.0 0.0
-0.0352336096604025 0.015106249548040115 0.0 0.032212788833572585 0.0 0.0
-0.030871790502353225 0.013288746642786849 0.0 0.03233597583708507 0.0 0.0
-0.026608182691702592 0.011599582954140252 0.0 0.032729033897682634 0.0 0.0
-0.022512535444331776 0.010120523681385737 0.0 0.033667033202285764 0.0 0.0
-0.018518076108925488 0.008760766005299613 0.0 0.03538152888647271 0.0 0.0
-0.014106723057222888 0.006798371285001149 0.0 0.03733598213153625 0.0 0.0
-0.00832496069959418 0.0024905919524817123 0.0 0.036591917168522455 0.0 0.0
-0.0017968159816061542 -0.005100721837374638 0.0 0.026236752586204684 0.0 0.0
0.001364708967482483 -0.00857777014144788 0.0 0.014447926969323014 0.0 0.0
0.0002436663600513918 -0.005332918952016787 0.0 -0.011921357831895461 0.0 0.0
-0.0028626188863848023 -0.0035290816192093274 0.0 -0.02250345407101914 0.0 0.0
-0.009707660232954564 0.003236902775353556 0.0 -0.032555874936571166 0.0 0.0
-0.016532170836523554 0.007662353839721376 0.0 -0.033772586855622067 0.0 0.0
-0.02234754499486406 0.010233673162088657 0.0 -0.03197401514754148 0.0 0.0
-0.027748623895150856 0.012273632252541846 0.0 -0.030218867839187112 0.0 0.0
-0.03312426752654537 0.01435521677180494 0.0 -0.029221356729670994 0.0 0.0
-0.03856403820668921 0.01657422404711137 0.0 -0.02879910578684502 0.0 0.0
-0.044049579885650406 0.018883091918089647 0.0 -0.02866866195761838 0.0 0.0
-0.0495534982002083 0.02123100998944526 0.0 -0.028651774955230934 0.0 0.0
-0.0550618196801798 0.023591727812680707 0.0 -0.028664902606891526 0.0 0.0
-0.060570936373931294 0.025957603441128112 0.0 -0.028671229707685365 0.0 0.0
-0.0660829175967072 0.028332672641015626 0.0 -0.028641620996087202 0.0 0.0
-0.07160588296147803 0.030729791250910417 0.0 -0.028526734411000034 0.0 0.0
-0.07715724695662428 0.03317494467235455 0.0 -0.02823908205230976 0.0 0.0
-0.08276264998645878 0.03568268748315081 0.0 -0.02770719028598567 0.0 0.0
-0.08859146910787796 0.03825649836095251 0.0 -0.026950717387011162 0.0 0.0
-0.09488625813764807 0.04111493306207686 0.0 -0.027008903451612117 0.0 0.0
-0.09892896690379992 0.04236123593613876 0.0 -0.033276787824713286 0.0 0.0
-0.09269699838956952 0.02900902518691554 0.0 -0.04185504653284977 0.0 0.0
-0.08570807233772831 -0.006913607595879915 0.0 5.117434254131581e-16 0.0 0.0
-0.09269699838956783 0.02900902518691336 0.0 0.04185504653285637 0.0 0.0
-0.09892896690379717 0.042361235936133716 0.0 0.033276787824719746 0.0 0.0
-0.09488625813764369 0.04111493306207391 0.0 0.027008903451622025 0.0 0.0
-0.08859146910787251 0.03825649836095309 0.0 0.026950717387014315 0.0 0.0
-0.08276264998645369 0.03568268748314467 0.0 0.027707190285985485 0.0 0.0
-0.07715724695661849 0.03317494467234456 0.0 0.02823908205231212 0.0 0.0
-0.07160588296147095 0.030729791250912 0.0 0.02852673441100425 0.0 0.0
-0.0660829175967003 0.02833267264101709 0.0 0.02864162099608894 0.0 0.0
-0.06057093637392422 0.025957603441119078 0.0 0.028671229707684244 0.0 0.0
-0.055061819680172874 0.023591727812676648 0.0 0.028664902606891925 0.0 0.0
-0.0495534982002017 0.02123100998944373 0.0 0.02865177495522793 0.0 0.0
-0.04404957988564427 0.01888309191809086 0.0 0.028668661957618864 0.0 0.0
-0.03856403820668394 0.0165742240471051 0.0 0.028799105786843707 0.0 0.0
-0.033124267526540664 0.014355216771803889 0.0 0.02922135672966991 0.0 0.0
-0.02774862389514636 0.012273632252538106 0.0 0.030218867839182033 0.0 0.0
-0.02234754499486054 0.010233673162090036 0.0 0.031974015147536373 0.0 0.0
-0.016532170836521524 0.007662353839719601 0.0 0.03377258685561477 0.0 0.0
-0.009707660232952933 0.003236902775353482 0.0 0.0325558749365666 0.0 0.0
-0.002862618886384131 -0.003529081619207734 0.0 0.02250345407101857 0.0 0.0
0.000243666360051022 -0.005332918952016717 0.0 0.011921357831893058 0.0 0.0
-0.0007015403118990347 -0.0027919697547777772 0.0 -0.009321829840187744 0.0 0.0
-0.0038175429056669435 -0.0020448198156700053 0.0 -0.018430083677129977 0.0 0.0
-0.011045467374130188 0.004014593086795148 0.0 -0.02770595261549853 0.0 0.0
-0.018919321574655094 0.008527849267776067 0.0 -0.029124490099459804 0.0 0.0
-0.026155198979316827 0.011698831814253829 0.0 -0.027511139162529053 0.0 0.0
-0.03298001191994866 0.01442309857879218 0.0 -0.025839034291280753 0.0 0.0
-0.03964355137113875 0.01711131927267616 0.0 -0.024871397453875864 0.0 0.0
-0.04626071616690704 0.019861609572063843 0.0 -0.024461709983599284 0.0 0.0
-0.052868608152087014 0.022661450660683764 0.0 -0.024337831488380226 0.0 0.0
-0.059475520572603746 0.02548470979739986 0.0 -0.024324077326305198 0.0 0.0
-0.066082797636257 0.028316456933255324 0.0 -0.024338530590441772 0.0 0.0
-0.07269035473906005 0.031151869891294794 0.0 -0.024346186140799565 0.0 0.0
-0.07929706182933216 0.03399310456972802 0.0 -0.02431876734486452 0.0 0.0
-0.08589937253073543 0.03684576633381347 0.0 -0.024209786415040794 0.0 0.0
-0.09249801452129 0.039721166811084126 0.0 -0.02392788331205622 0.0 0.0
-0.09908012228030436 0.04263947949439278 0.0 -0.023377358851183003 0.0 0.0
-0.10572715159789835 0.04551290104254383 0.0 -0.0226023598630014 0.0 0.0
-0.11314390128400509 0.048739150545316565 0.0 -0.02196248526009512 0.0 0.0
-0.11964042552441298 0.052253875112067145 0.0 -0.02771387488792575 0.0 0.0
-0.1141315344655322 0.04091026701802591 0.0 -0.0440651611067481 0.0 0.0
-0.10617870259521092 -0.008621979823769858 0.0 3.939557013943329e-15 0.0 0.0
-0.11413153446553084 0.040910267018024735 0.0 0.04406516110675087 0.0 0.0
-0.1196404255244102 0.05225387511206206 0.0 0.027713874887931665 0.0 0.0
-0.11314390128400009 0.04873915054531241 0.0 0.02196248526010025 0.0 0.0
-0.1057271515978924 0.04551290104254149 0.0 0.02260235986300224 0.0 0.0
-0.09908012228029865 0.042639479494394 0.0 0.023377358851182504 0.0 0.0
-0.09249801452128349 0.039721166811070664 0.0 0.023927883312058727 0.0 0.0
-0.08589937253072753 0.036845766333809246 0.0 0.02420978641504103 0.0 0.0
-0.0792970618293242 0.03399310456972934 0.0 0.024318767344864687 0.0 0.0
-0.07269035473905186 0.031151869891292663 0.0 0.02434618614080031 0.0 0.0
-0.066082797636249 0.028316456933249003 0.0 0.024338530590437217 0.0 0.0
-0.05947552057259663 0.025484709797397916 0.0 0.024324077326305104 0.0 0.0
-0.05286860815208037 0.022661450660680794 0.0 0.02433783148837924 0.0 0.0
-0.04626071616690036 0.019861609572064093 0.0 0.024461709983596584 0.0 0.0
-0.039643551371132534 0.017111319272672385 0.0 0.02487139745387516 0.0 0.0
-0.03298001191994331 0.014423098578789723 0.0 0.02583903429127797 0.0 0.0
-0.026155198979312504 0.0116988318142528 0.0 0.027511139162522937 0.0 0.0
-0.018919321574651985 0.00852784926777602 0.0 0.02912449009945471 0.0 0.0
-0.01104546737412837 0.004014593086794224 0.0 0.0277059526154963 0.0 0.0
-0.0038175429056667787 -0.002044819815669685 0.0 0.018430083677126514 0.0 0.0
-0.0007015403118994498 -0.002791969754777848 0.0 0.009321829840186941 0.0 0.0
-0.00141441874824155 -0.000994525625510697 0.0 -0.006728277097699804 0.0 0.0
-0.0045896956483766575 -0.000711358843727899 0.0 -0.014061791520286158 0.0 0.0
-0.012279252067027588 0.004753837621432393 0.0 -0.022014841568635306 0.0 0.0
-0.021266476397082807 0.009392216525034974 0.0 -0.023346714939054575 0.0 0.0
-0.029971334681870895 0.013183125301740463 0.0 -0.02197534876353585 0.0 0.0
-0.03823241270936816 0.016589322107326297 0.0 -0.02052483330952918 0.0 0.0
-0.04617877642087584 0.019877447062904 0.0 -0.019681271564394254 0.0 0.0
-0.05396619591668686 0.023154016645129748 0.0 -0.019326621650947954 0.0 0.0
-0.06169145093838066 0.02644177830294222 0.0 -0.019222146630307378 0.0 0.0
-0.06939881418329574 0.02973896533341018 0.0 -0.01921277268196181 0.0 0.0
-0.07710432550419286 0.03304131704449414 0.0 -0.01922697187066929 0.0 0.0
-0.0848107546513576 0.03634677536347178 0.0 -0.01923476213433236 0.0 0.0
-0.09251384401583192 0.03965452714777303 0.0 -0.01921305461843824 0.0 0.0
-0.10019879160737097 0.042966546758393946 0.0 -0.019117334212688707 0.0 0.0
-0.10784195816797894 0.04627028103319258 0.0 -0.018880530421515312 0.0 0.0
-0.11541243184369337 0.04959420311526624 0.0 -0.018352240221519874 0.0 0.0
-0.12280521005690609 0.05281943905990367 0.0 -0.017668611844892795 0.0 0.0
-0.13090876313116023 0.0559672072298637 0.0 -0.016786506660375396 0.0 0.0
-0.14016238965018255 0.06161582991976118 0.0 -0.01990294480855998 0.0 0.0
-0.13653843126229034 0.05561542755307016 0.0 -0.0438888753187468 0.0 0.0
-0.12813403294662915 -0.01266584595215472 0.0 1.994931997373328e-15 0.0 0.0
-0.13653843126228882 0.05561542755306155 0.0 0.043888875318750395 0.0 0.0
-0.14016238965017916 0.061615829919765316 0.0 0.019902944808565144 0.0 0.0
-0.1309087631311548 0.05596720722985056 0.0 0.016786506660383473 0.0 0.0
-0.12280521005689901 0.052819439059902544 0.0 0.017668611844896938 0.0 0.0
-0.11541243184368638 0.049594203115274044 0.0 0.018352240221520256 0.0 0.0
-0.10784195816797108 0.04627028103319429 0.0 0.01888053042151548 0.0 0.0
-0.10019879160736232 0.042966546758379805 0.0 0.019117334212689123 0.0 0.0
-0.09251384401582285 0.039654527147771894 0.0 0.019213054618440563 0.0 0.0
-0.08481075465134823 0.03634677536346587 0.0 0.019234762134332912 0.0 0.0
-0.07710432550418347 0.03304131704448948 0.0 0.019226971870664897 0.0 0.0
-0.06939881418328706 0.02973896533340873 0.0 0.019212772681963038 0.0 0.0
-0.061691450938373346 0.026441778302933375 0.0 0.019222146630306906 0.0 0.0
-0.05396619591667951 0.02315401664512801 0.0 0.019326621650946202 0.0 0.0
-0.04617877642086861 0.019877447062898315 0.0 0.01968127156439113 0.0 0.0
-0.038232412709362076 0.016589322107322033 0.0 0.020524833309527233 0.0 0.0
-0.029971334681866073 0.01318312530173739 0.0 0.02197534876353138 0.0 0.0
-0.021266476397079674 0.009392216525037389 0.0 0.02334671493905026 0.0 0.0
-0.012279252067026115 0.004753837621431838 0.0 0.022014841568634227 0.0 0.0
-0.004589695648376228 -0.000711358843727358 0.0 0.014061791520281907 0.0 0.0
-0.0014144187482416732 -0.0009945256255108595 0.0 0.006728277097700173 0.0 0.0
-0.001807531553429277 2.6787378055435874e-05 0.0 -0.004335053532726311 0.0 0.0
-0.005068679746619376 0.0003790369223700874 0.0 -0.00947020288239854 0.0 0.0
-0.013324776450075206 0.005364795056963883 0.0 -0.015373523429322859 0.0 0.0
-0.023575173102290178 0.010262162771222487 0.0 -0.016362554480703857 0.0 0.0
-0.03383329674211726 0.014718873674892361 0.0 -0.015356945997246019 0.0 0.0
-0.043533587555384834 0.018793493496576396 0.0 -0.014283889700346719 0.0 0.0
-0.05274291039460988 0.02266324594943698 0.0 -0.013659985379819568 0.0 0.0
-0.061684571117951364 0.02645422169449353 0.0 -0.013399407279565154 0.0 0.0
-0.07051853178970995 0.030224266752391808 0.0 -0.013324203989440642 0.0 0.0
-0.0793228628930695 0.03399332014840712 0.0 -0.013318732412492386 0.0 0.0
-0.08812579888598428 0.03776595357910851 0.0 -0.013330084433457654 0.0 0.0
-0.09693219941149842 0.04154189853918267 0.0 -0.013336561629257018 0.0 0.0
-0.1057335234693817 0.045318710233177115 0.0 -0.013321110581896924 0.0 0.0
-0.11450872338451637 0.04908998037843832 0.0 -0.013252998013705337 0.0 0.0
-0.12319878641058499 0.052844027207338294 0.0 -0.013068299812895515 0.0 0.0
-0.1317620437909474 0.05652164350650268 0.0 -0.012716253297540388 0.0 0.0
-0.13996220048018407 0.060256980749240574 0.0 -0.011954588541919635 0.0 0.0
-0.14809230870106666 0.06304994514840903 0.0 -0.011991551150066554 0.0 0.0
-0.15977288572170298 0.06914299510661172 0.0 -0.011122536980289446 0.0 0.0
-0.1600825526385186 0.07417268907656695 0.0 -0.037135019713808795 0.0 0.0
-0.15289245244159527 -0.018932675972069258 0.0 9.506284648352903e-16 0.0 0.0
-0.16008255263851726 0.0741726890765616 0.0 0.03713501971381237 0.0 0.0
-0.1597728857216991 0.06914299510661341 0.0 0.011122536980292289 0.0 0.0
-0.14809230870106038 0.06304994514839733 0.0 0.011991551150068416 0.0 0.0
-0.1399622004801765 0.06025698074922872 0.0 0.011954588541920361 0.0 0.0
-0.13176204379093917 0.05652164350649999 0.0 0.012716253297539594 0.0 0.0
-0.12319878641057563 0.0528440272073394 0.0 0.013068299812896873 0.0 0.0
-0.1145087233845061 0.049089980378439375 0.0 0.013252998013704529 0.0 0.0
-0.10573352346937114 0.0453187102331692 0.0 0.013321110581898006 0.0 0.0
-0.09693219941148766 0.04154189853917405 0.0 0.013336561629256453 0.0 0.0
-0.08812579888597373 0.0377659535791056 0.0 0.013330084433457366 0.0 0.0
-0.07932286289305981 0.03399332014840187 0.0 0.01331873241249263 0.0 0.0
-0.07051853178970148 0.030224266752383745 0.0 0.01332420398943951 0.0 0.0
-0.061684571117943114 0.026454221694489223 0.0 0.013399407279564717 0.0 0.0
-0.052742910394601265 0.022663245949430658 0.0 0.013659985379818232 0.0 0.0
-0.04353358755537762 0.018793493496572257 0.0 0.014283889700345297 0.0 0.0
-0.033833296742111975 0.014718873674890602 0.0 0.015356945997245065 0.0 0.0
-0.02357517310228641 0.010262162771221354 0.0 0.01636255448069964 0.0 0.0
-0.013324776450073754 0.005364795056964375 0.0 0.01537352342932011 0.0 0.0
-0.005068679746619332 0.00037903692237030125 0.0 0.009470202882396445 0.0 0.0
-0.0018075315534292835 2.6787378055148025e-05 0.0 0.004335053532725998 0.0 0.0
-0.001733705323321946 0.00026859602519240563 0.0 -0.0025533078037321233 0.0 0.0
-0.0050764368035149466 0.0010628131285611768 0.0 -0.004754933948700092 0.0 0.0
-0.014067887972180077 0.0057377989388630235 0.0 -0.007514309475862962 0.0 0.0
-0.02586368660121101 0.011171949420605317 0.0 -0.008085010075314642 0.0 0.0
-0.03778838675588578 0.016342102758038796 0.0 -0.007654343888869003 0.0 0.0
-0.04891237110611066 0.02105761551069419 0.0 -0.007136639013419173 0.0 0.0
-0.059348371379360984 0.025477451043779416 0.0 -0.0068236099098060166 0.0 0.0
-0.0694190656548685 0.029764252303467423 0.0 -0.006688315916315874 0.0 0.0
-0.07934976190751189 0.034008684091347906 0.0 -0.006647211788926663 0.0 0.0
-0.08924685433573468 0.03824714631391785 0.0 -0.0066427795998045165 0.0 0.0
-0.09914661588888089 0.04248982461837043 0.0 -0.0066476959442795915 0.0 0.0
-0.10905401786259174 0.046737132491240785 0.0 -0.006650408957904619 0.0 0.0
-0.11895813844889405 0.05098513296423189 0.0 -0.006641490784641876 0.0 0.0
-0.12882671137933943 0.05522272322952443 0.0 -0.006606567120532628 0.0 0.0
-0.13859642785008744 0.05942630297488802 0.0 -0.0065098816668409405 0.0 0.0
-0.1480992509803042 0.06353714073347679 0.0 -0.006335220811771852 0.0 0.0
-0.15733194591890898 0.0674656947147385 0.0 -0.006013000112549969 0.0 0.0
-0.16502507749107323 0.07134782702397047 0.0 -0.0055897856090451545 0.0 0.0
-0.17696363140510293 0.07227084159506607 0.0 -0.008815930887469821 0.0 0.0
-0.18454968484172027 0.09708985220970298 0.0 -0.012582489648186923 0.0 0.0
-0.1833102737359887 -0.025264974734653566 0.0 -2.498001805406602e-16 0.0 0.0
-0.18454968484171852 0.09708985220970087 0.0 0.012582489648187879 0.0 0.0
-0.17696363140509866 0.07227084159506302 0.0 0.00881593088747459 0.0 0.0
-0.16502507749106607 0.07134782702395971 0.0 0.005589785609041159 0.0 0.0
-0.15733194591889998 0.06746569471472837 0.0 0.006013000112548999 0.0 0.0
-0.14809925098029433 0.0635371407334746 0.0 0.00633522081177588 0.0 0.0
-0.1385964278500769 0.059426302974876055 0.0 0.006509881666845513 0.0 0.0
-0.12882671137932805 0.05522272322953265 0.0 0.006606567120531511 0.0 0.0
-0.11895813844888177 0.05098513296422006 0.0 0.006641490784639822 0.0 0.0
-0.10905401786257914 0.04673713249123525 0.0 0.00665040895790542 0.0 0.0
-0.09914661588886874 0.042489824618363536 0.0 0.006647695944279082 0.0 0.0
-0.0892468543357236 0.038247146313913065 0.0 0.006642779599804459 0.0 0.0
-0.07934976190750209 0.03400868409134469 0.0 0.006647211788926464 0.0 0.0
-0.0694190656548588 0.02976425230346859 0.0 0.006688315916315505 0.0 0.0
-0.059348371379351575 0.025477451043775065 0.0 0.006823609909806828 0.0 0.0
-0.04891237110610347 0.021057615510691734 0.0 0.007136639013417772 0.0 0.0
-0.03778838675588049 0.01634210275803831 0.0 0.007654343888869734 0.0 0.0
-0.02586368660120701 0.011171949420603036 0.0 0.00808501007531311 0.0 0.0
-0.014067887972178393 0.005737798938862709 0.0 0.007514309475861458 0.0 0.0
-0.00507643680351469 0.0010628131285600586 0.0 0.004754933948698924 0.0 0.0
-0.001733705323321906 0.00026859602519241246 0.0 0.00255330780373335 0.0 0.0
-0.0009267672299353568 0.000196918149789068 0.0 -0.0017110212578488096 0.0 0.0
-0.004312090060384145 0.0012763746743457243 0.0 -0.0020096529070834 0.0 0.0
-0.014366378136670126 0.00584999735231126 0.0 -0.0025575770675212318 0.0 0.0
-0.02819141923923279 0.011643533022292147 0.0 -0.0028516069743270886 0.0 0.0
-0.04189166550036308 0.01718016958615086 0.0 -0.0028298874736022643 0.0 0.0
-0.054398586337875594 0.02220749587689775 0.0 -0.0026982027370856445 0.0 0.0
-0.06600578209147566 0.026892646605414565 0.0 -0.0025975724476474133 0.0 0.0
-0.07717150591329716 0.03142192089985342 0.0 -0.0025456549888241992 0.0 0.0
-0.08818432521693727 0.03590131210956748 0.0 -0.002525769867554326 0.0 0.0
-0.09916971243833698 0.04037384468489069 0.0 -0.0025207658507676043 0.0 0.0
-0.11016590197635254 0.044851462318054695 0.0 -0.0025205814809213557 0.0 0.0
-0.12117594107261473 0.04933488192383788 0.0 -0.002520180273847837 0.0 0.0
-0.13218666665050538 0.05381834271311006 0.0 -0.002515039324373681 0.0 0.0
-0.14316102683862905 0.05829396742384038 0.0 -0.002501199122747124 0.0 0.0
-0.15401597250596522 0.06271156072518408 0.0 -0.002467866450402296 0.0 0.0
-0.16456626446428654 0.06710004183615922 0.0 -0.0024033774928689886 0.0 0.0
-0.17449439025304012 0.07091748423021658 0.0 -0.0024689193082045938 0.0 0.0
-0.18347001821383294 0.07607644237972641 0.0 -0.001679847785316952 0.0 0.0
-0.18881782442443207 0.07231452842686194 0.0 -0.008248301365196015 0.0 0.0
-0.20811015279626666 0.10963073451486 0.0 -3.713428653384643e-05 0.0 0.0
-0.22626885400809532 -0.027974772323320712 0.0 7.494005416219807e-16 0.0 0.0
-0.20811015279626602 0.10963073451486087 0.0 3.713428653192262e-05 0.0 0.0
-0.18881782442442885 0.07231452842685718 0.0 0.008248301365194818 0.0 0.0
-0.18347001821382547 0.0760764423797117 0.0 0.0016798477853104815 0.0 0.0
-0.1744943902530293 0.07091748423021402 0.0 0.0024689193082059295 0.0 0.0
-0.16456626446427547 0.06710004183616636 0.0 0.0024033774928744513 0.0 0.0
-0.15401597250595334 0.06271156072516743 0.0 0.0024678664504019683 0.0 0.0
-0.1431610268386168 0.058293967423839764 0.0 0.0025011991227487096 0.0 0.0
-0.1321866666504925 0.053818342713097087 0.0 0.002515039324370593 0.0 0.0
-0.1211759410726009 0.04933488192383373 0.0 0.0025201802738502657 0.0 0.0
-0.1101659019763398 0.04485146231804424 0.0 0.0025205814809232136 0.0 0.0
-0.09916971243832541 0.04037384468488932 0.0 0.0025207658507670015 0.0 0.0
-0.0881843252169263 0.03590131210956461 0.0 0.0025257698675542825 0.0 0.0
-0.07717150591328625 0.0314219208998546 0.0 0.0025456549888242634 0.0 0.0
-0.06600578209146532 0.02689264660540836 0.0 0.0025975724476490925 0.0 0.0
-0.05439858633786718 0.02220749587689895 0.0 0.0026982027370841552 0.0 0.0
-0.04189166550035679 0.017180169586147827 0.0 0.002829887473602766 0.0 0.0
-0.028191419239229208 0.011643533022292148 0.0 0.0028516069743266363 0.0 0.0
-0.014366378136669092 0.005849997352311422 0.0 0.0025575770675214885 0.0 0.0
-0.004312090060384142 0.0012763746743442177 0.0 0.0020096529070825916 0.0 0.0
-0.0009267672299355558 0.00019691814978961596 0.0 0.0017110212578517177 0.0 0.0